# vtk DataFile Version 3.0
Some data
ASCII
DATASET UNSTRUCTURED_GRID
POINTS 861 float
0.0 0.0 0.0
0.4 0.0 0.0
0.8 0.0 0.0
1.2000000000000002 0.0 0.0
1.6 0.0 0.0
2.0 0.0 0.0
2.4000000000000004 0.0 0.0
2.8000000000000003 0.0 0.0
3.2 0.0 0.0
3.6 0.0 0.0
4.0 0.0 0.0
4.4 0.0 0.0
4.800000000000001 0.0 0.0
5.2 0.0 0.0
5.6000000000000005 0.0 0.0
6.0 0.0 0.0
6.4 0.0 0.0
6.800000000000001 0.0 0.0
7.2 0.0 0.0
7.6000000000000005 0.0 0.0
8.0 0.0 0.0
8.4 0.0 0.0
8.8 0.0 0.0
9.200000000000001 0.0 0.0
9.600000000000001 0.0 0.0
10.0 0.0 0.0
10.4 0.0 0.0
10.8 0.0 0.0
11.200000000000001 0.0 0.0
11.600000000000001 0.0 0.0
12.0 0.0 0.0
12.4 0.0 0.0
12.8 0.0 0.0
13.200000000000001 0.0 0.0
13.600000000000001 0.0 0.0
14.0 0.0 0.0
14.4 0.0 0.0
14.8 0.0 0.0
15.200000000000001 0.0 0.0
15.600000000000001 0.0 0.0
16.0 0.0 0.0
0.0 0.1 0.0
0.4 0.1 0.0
0.8 0.1 0.0
1.2000000000000002 0.1 0.0
1.6 0.1 0.0
2.0 0.1 0.0
2.4000000000000004 0.1 0.0
2.8000000000000003 0.1 0.0
3.2 0.1 0.0
3.6 0.1 0.0
4.0 0.1 0.0
4.4 0.1 0.0
4.800000000000001 0.1 0.0
5.2 0.1 0.0
5.6000000000000005 0.1 0.0
6.0 0.1 0.0
6.4 0.1 0.0
6.800000000000001 0.1 0.0
7.2 0.1 0.0
7.6000000000000005 0.1 0.0
8.0 0.1 0.0
8.4 0.1 0.0
8.8 0.1 0.0
9.200000000000001 0.1 0.0
9.600000000000001 0.1 0.0
10.0 0.1 0.0
10.4 0.1 0.0
10.8 0.1 0.0
11.200000000000001 0.1 0.0
11.600000000000001 0.1 0.0
12.0 0.1 0.0
12.4 0.1 0.0
12.8 0.1 0.0
13.200000000000001 0.1 0.0
13.600000000000001 0.1 0.0
14.0 0.1 0.0
14.4 0.1 0.0
14.8 0.1 0.0
15.200000000000001 0.1 0.0
15.600000000000001 0.1 0.0
16.0 0.1 0.0
0.0 0.2 0.0
0.4 0.2 0.0
0.8 0.2 0.0
1.2000000000000002 0.2 0.0
1.6 0.2 0.0
2.0 0.2 0.0
2.4000000000000004 0.2 0.0
2.8000000000000003 0.2 0.0
3.2 0.2 0.0
3.6 0.2 0.0
4.0 0.2 0.0
4.4 0.2 0.0
4.800000000000001 0.2 0.0
5.2 0.2 0.0
5.6000000000000005 0.2 0.0
6.0 0.2 0.0
6.4 0.2 0.0
6.800000000000001 0.2 0.0
7.2 0.2 0.0
7.6000000000000005 0.2 0.0
8.0 0.2 0.0
8.4 0.2 0.0
8.8 0.2 0.0
9.200000000000001 0.2 0.0
9.600000000000001 0.2 0.0
10.0 0.2 0.0
10.4 0.2 0.0
10.8 0.2 0.0
11.200000000000001 0.2 0.0
11.600000000000001 0.2 0.0
12.0 0.2 0.0
12.4 0.2 0.0
12.8 0.2 0.0
13.200000000000001 0.2 0.0
13.600000000000001 0.2 0.0
14.0 0.2 0.0
14.4 0.2 0.0
14.8 0.2 0.0
15.200000000000001 0.2 0.0
15.600000000000001 0.2 0.0
16.0 0.2 0.0
0.0 0.30000000000000004 0.0
0.4 0.30000000000000004 0.0
0.8 0.30000000000000004 0.0
1.2000000000000002 0.30000000000000004 0.0
1.6 0.30000000000000004 0.0
2.0 0.30000000000000004 0.0
2.4000000000000004 0.30000000000000004 0.0
2.8000000000000003 0.30000000000000004 0.0
3.2 0.30000000000000004 0.0
3.6 0.30000000000000004 0.0
4.0 0.30000000000000004 0.0
4.4 0.30000000000000004 0.0
4.800000000000001 0.30000000000000004 0.0
5.2 0.30000000000000004 0.0
5.6000000000000005 0.30000000000000004 0.0
6.0 0.30000000000000004 0.0
6.4 0.30000000000000004 0.0
6.800000000000001 0.30000000000000004 0.0
7.2 0.30000000000000004 0.0
7.6000000000000005 0.30000000000000004 0.0
8.0 0.30000000000000004 0.0
8.4 0.30000000000000004 0.0
8.8 0.30000000000000004 0.0
9.200000000000001 0.30000000000000004 0.0
9.600000000000001 0.30000000000000004 0.0
10.0 0.30000000000000004 0.0
10.4 0.30000000000000004 0.0
10.8 0.30000000000000004 0.0
11.200000000000001 0.30000000000000004 0.0
11.600000000000001 0.30000000000000004 0.0
12.0 0.30000000000000004 0.0
12.4 0.30000000000000004 0.0
12.8 0.30000000000000004 0.0
13.200000000000001 0.30000000000000004 0.0
13.600000000000001 0.30000000000000004 0.0
14.0 0.30000000000000004 0.0
14.4 0.30000000000000004 0.0
14.8 0.30000000000000004 0.0
15.200000000000001 0.30000000000000004 0.0
15.600000000000001 0.30000000000000004 0.0
16.0 0.30000000000000004 0.0
0.0 0.4 0.0
0.4 0.4 0.0
0.8 0.4 0.0
1.2000000000000002 0.4 0.0
1.6 0.4 0.0
2.0 0.4 0.0
2.4000000000000004 0.4 0.0
2.8000000000000003 0.4 0.0
3.2 0.4 0.0
3.6 0.4 0.0
4.0 0.4 0.0
4.4 0.4 0.0
4.800000000000001 0.4 0.0
5.2 0.4 0.0
5.6000000000000005 0.4 0.0
6.0 0.4 0.0
6.4 0.4 0.0
6.800000000000001 0.4 0.0
7.2 0.4 0.0
7.6000000000000005 0.4 0.0
8.0 0.4 0.0
8.4 0.4 0.0
8.8 0.4 0.0
9.200000000000001 0.4 0.0
9.600000000000001 0.4 0.0
10.0 0.4 0.0
10.4 0.4 0.0
10.8 0.4 0.0
11.200000000000001 0.4 0.0
11.600000000000001 0.4 0.0
12.0 0.4 0.0
12.4 0.4 0.0
12.8 0.4 0.0
13.200000000000001 0.4 0.0
13.600000000000001 0.4 0.0
14.0 0.4 0.0
14.4 0.4 0.0
14.8 0.4 0.0
15.200000000000001 0.4 0.0
15.600000000000001 0.4 0.0
16.0 0.4 0.0
0.0 0.5 0.0
0.4 0.5 0.0
0.8 0.5 0.0
1.2000000000000002 0.5 0.0
1.6 0.5 0.0
2.0 0.5 0.0
2.4000000000000004 0.5 0.0
2.8000000000000003 0.5 0.0
3.2 0.5 0.0
3.6 0.5 0.0
4.0 0.5 0.0
4.4 0.5 0.0
4.800000000000001 0.5 0.0
5.2 0.5 0.0
5.6000000000000005 0.5 0.0
6.0 0.5 0.0
6.4 0.5 0.0
6.800000000000001 0.5 0.0
7.2 0.5 0.0
7.6000000000000005 0.5 0.0
8.0 0.5 0.0
8.4 0.5 0.0
8.8 0.5 0.0
9.200000000000001 0.5 0.0
9.600000000000001 0.5 0.0
10.0 0.5 0.0
10.4 0.5 0.0
10.8 0.5 0.0
11.200000000000001 0.5 0.0
11.600000000000001 0.5 0.0
12.0 0.5 0.0
12.4 0.5 0.0
12.8 0.5 0.0
13.200000000000001 0.5 0.0
13.600000000000001 0.5 0.0
14.0 0.5 0.0
14.4 0.5 0.0
14.8 0.5 0.0
15.200000000000001 0.5 0.0
15.600000000000001 0.5 0.0
16.0 0.5 0.0
0.0 0.6000000000000001 0.0
0.4 0.6000000000000001 0.0
0.8 0.6000000000000001 0.0
1.2000000000000002 0.6000000000000001 0.0
1.6 0.6000000000000001 0.0
2.0 0.6000000000000001 0.0
2.4000000000000004 0.6000000000000001 0.0
2.8000000000000003 0.6000000000000001 0.0
3.2 0.6000000000000001 0.0
3.6 0.6000000000000001 0.0
4.0 0.6000000000000001 0.0
4.4 0.6000000000000001 0.0
4.800000000000001 0.6000000000000001 0.0
5.2 0.6000000000000001 0.0
5.6000000000000005 0.6000000000000001 0.0
6.0 0.6000000000000001 0.0
6.4 0.6000000000000001 0.0
6.800000000000001 0.6000000000000001 0.0
7.2 0.6000000000000001 0.0
7.6000000000000005 0.6000000000000001 0.0
8.0 0.6000000000000001 0.0
8.4 0.6000000000000001 0.0
8.8 0.6000000000000001 0.0
9.200000000000001 0.6000000000000001 0.0
9.600000000000001 0.6000000000000001 0.0
10.0 0.6000000000000001 0.0
10.4 0.6000000000000001 0.0
10.8 0.6000000000000001 0.0
11.200000000000001 0.6000000000000001 0.0
11.600000000000001 0.6000000000000001 0.0
12.0 0.6000000000000001 0.0
12.4 0.6000000000000001 0.0
12.8 0.6000000000000001 0.0
13.200000000000001 0.6000000000000001 0.0
13.600000000000001 0.6000000000000001 0.0
14.0 0.6000000000000001 0.0
14.4 0.6000000000000001 0.0
14.8 0.6000000000000001 0.0
15.200000000000001 0.6000000000000001 0.0
15.600000000000001 0.6000000000000001 0.0
16.0 0.6000000000000001 0.0
0.0 0.7000000000000001 0.0
0.4 0.7000000000000001 0.0
0.8 0.7000000000000001 0.0
1.2000000000000002 0.7000000000000001 0.0
1.6 0.7000000000000001 0.0
2.0 0.7000000000000001 0.0
2.4000000000000004 0.7000000000000001 0.0
2.8000000000000003 0.7000000000000001 0.0
3.2 0.7000000000000001 0.0
3.6 0.7000000000000001 0.0
4.0 0.7000000000000001 0.0
4.4 0.7000000000000001 0.0
4.800000000000001 0.7000000000000001 0.0
5.2 0.7000000000000001 0.0
5.6000000000000005 0.7000000000000001 0.0
6.0 0.7000000000000001 0.0
6.4 0.7000000000000001 0.0
6.800000000000001 0.7000000000000001 0.0
7.2 0.7000000000000001 0.0
7.6000000000000005 0.7000000000000001 0.0
8.0 0.7000000000000001 0.0
8.4 0.7000000000000001 0.0
8.8 0.7000000000000001 0.0
9.200000000000001 0.7000000000000001 0.0
9.600000000000001 0.7000000000000001 0.0
10.0 0.7000000000000001 0.0
10.4 0.7000000000000001 0.0
10.8 0.7000000000000001 0.0
11.200000000000001 0.7000000000000001 0.0
11.600000000000001 0.7000000000000001 0.0
12.0 0.7000000000000001 0.0
12.4 0.7000000000000001 0.0
12.8 0.7000000000000001 0.0
13.200000000000001 0.7000000000000001 0.0
13.600000000000001 0.7000000000000001 0.0
14.0 0.7000000000000001 0.0
14.4 0.7000000000000001 0.0
14.8 0.7000000000000001 0.0
15.200000000000001 0.7000000000000001 0.0
15.600000000000001 0.7000000000000001 0.0
16.0 0.7000000000000001 0.0
0.0 0.8 0.0
0.4 0.8 0.0
0.8 0.8 0.0
1.2000000000000002 0.8 0.0
1.6 0.8 0.0
2.0 0.8 0.0
2.4000000000000004 0.8 0.0
2.8000000000000003 0.8 0.0
3.2 0.8 0.0
3.6 0.8 0.0
4.0 0.8 0.0
4.4 0.8 0.0
4.800000000000001 0.8 0.0
5.2 0.8 0.0
5.6000000000000005 0.8 0.0
6.0 0.8 0.0
6.4 0.8 0.0
6.800000000000001 0.8 0.0
7.2 0.8 0.0
7.6000000000000005 0.8 0.0
8.0 0.8 0.0
8.4 0.8 0.0
8.8 0.8 0.0
9.200000000000001 0.8 0.0
9.600000000000001 0.8 0.0
10.0 0.8 0.0
10.4 0.8 0.0
10.8 0.8 0.0
11.200000000000001 0.8 0.0
11.600000000000001 0.8 0.0
12.0 0.8 0.0
12.4 0.8 0.0
12.8 0.8 0.0
13.200000000000001 0.8 0.0
13.600000000000001 0.8 0.0
14.0 0.8 0.0
14.4 0.8 0.0
14.8 0.8 0.0
15.200000000000001 0.8 0.0
15.600000000000001 0.8 0.0
16.0 0.8 0.0
0.0 0.9 0.0
0.4 0.9 0.0
0.8 0.9 0.0
1.2000000000000002 0.9 0.0
1.6 0.9 0.0
2.0 0.9 0.0
2.4000000000000004 0.9 0.0
2.8000000000000003 0.9 0.0
3.2 0.9 0.0
3.6 0.9 0.0
4.0 0.9 0.0
4.4 0.9 0.0
4.800000000000001 0.9 0.0
5.2 0.9 0.0
5.6000000000000005 0.9 0.0
6.0 0.9 0.0
6.4 0.9 0.0
6.800000000000001 0.9 0.0
7.2 0.9 0.0
7.6000000000000005 0.9 0.0
8.0 0.9 0.0
8.4 0.9 0.0
8.8 0.9 0.0
9.200000000000001 0.9 0.0
9.600000000000001 0.9 0.0
10.0 0.9 0.0
10.4 0.9 0.0
10.8 0.9 0.0
11.200000000000001 0.9 0.0
11.600000000000001 0.9 0.0
12.0 0.9 0.0
12.4 0.9 0.0
12.8 0.9 0.0
13.200000000000001 0.9 0.0
13.600000000000001 0.9 0.0
14.0 0.9 0.0
14.4 0.9 0.0
14.8 0.9 0.0
15.200000000000001 0.9 0.0
15.600000000000001 0.9 0.0
16.0 0.9 0.0
0.0 1.0 0.0
0.4 1.0 0.0
0.8 1.0 0.0
1.2000000000000002 1.0 0.0
1.6 1.0 0.0
2.0 1.0 0.0
2.4000000000000004 1.0 0.0
2.8000000000000003 1.0 0.0
3.2 1.0 0.0
3.6 1.0 0.0
4.0 1.0 0.0
4.4 1.0 0.0
4.800000000000001 1.0 0.0
5.2 1.0 0.0
5.6000000000000005 1.0 0.0
6.0 1.0 0.0
6.4 1.0 0.0
6.800000000000001 1.0 0.0
7.2 1.0 0.0
7.6000000000000005 1.0 0.0
8.0 1.0 0.0
8.4 1.0 0.0
8.8 1.0 0.0
9.200000000000001 1.0 0.0
9.600000000000001 1.0 0.0
10.0 1.0 0.0
10.4 1.0 0.0
10.8 1.0 0.0
11.200000000000001 1.0 0.0
11.600000000000001 1.0 0.0
12.0 1.0 0.0
12.4 1.0 0.0
12.8 1.0 0.0
13.200000000000001 1.0 0.0
13.600000000000001 1.0 0.0
14.0 1.0 0.0
14.4 1.0 0.0
14.8 1.0 0.0
15.200000000000001 1.0 0.0
15.600000000000001 1.0 0.0
16.0 1.0 0.0
0.0 1.1 0.0
0.4 1.1 0.0
0.8 1.1 0.0
1.2000000000000002 1.1 0.0
1.6 1.1 0.0
2.0 1.1 0.0
2.4000000000000004 1.1 0.0
2.8000000000000003 1.1 0.0
3.2 1.1 0.0
3.6 1.1 0.0
4.0 1.1 0.0
4.4 1.1 0.0
4.800000000000001 1.1 0.0
5.2 1.1 0.0
5.6000000000000005 1.1 0.0
6.0 1.1 0.0
6.4 1.1 0.0
6.800000000000001 1.1 0.0
7.2 1.1 0.0
7.6000000000000005 1.1 0.0
8.0 1.1 0.0
8.4 1.1 0.0
8.8 1.1 0.0
9.200000000000001 1.1 0.0
9.600000000000001 1.1 0.0
10.0 1.1 0.0
10.4 1.1 0.0
10.8 1.1 0.0
11.200000000000001 1.1 0.0
11.600000000000001 1.1 0.0
12.0 1.1 0.0
12.4 1.1 0.0
12.8 1.1 0.0
13.200000000000001 1.1 0.0
13.600000000000001 1.1 0.0
14.0 1.1 0.0
14.4 1.1 0.0
14.8 1.1 0.0
15.200000000000001 1.1 0.0
15.600000000000001 1.1 0.0
16.0 1.1 0.0
0.0 1.2000000000000002 0.0
0.4 1.2000000000000002 0.0
0.8 1.2000000000000002 0.0
1.2000000000000002 1.2000000000000002 0.0
1.6 1.2000000000000002 0.0
2.0 1.2000000000000002 0.0
2.4000000000000004 1.2000000000000002 0.0
2.8000000000000003 1.2000000000000002 0.0
3.2 1.2000000000000002 0.0
3.6 1.2000000000000002 0.0
4.0 1.2000000000000002 0.0
4.4 1.2000000000000002 0.0
4.800000000000001 1.2000000000000002 0.0
5.2 1.2000000000000002 0.0
5.6000000000000005 1.2000000000000002 0.0
6.0 1.2000000000000002 0.0
6.4 1.2000000000000002 0.0
6.800000000000001 1.2000000000000002 0.0
7.2 1.2000000000000002 0.0
7.6000000000000005 1.2000000000000002 0.0
8.0 1.2000000000000002 0.0
8.4 1.2000000000000002 0.0
8.8 1.2000000000000002 0.0
9.200000000000001 1.2000000000000002 0.0
9.600000000000001 1.2000000000000002 0.0
10.0 1.2000000000000002 0.0
10.4 1.2000000000000002 0.0
10.8 1.2000000000000002 0.0
11.200000000000001 1.2000000000000002 0.0
11.600000000000001 1.2000000000000002 0.0
12.0 1.2000000000000002 0.0
12.4 1.2000000000000002 0.0
12.8 1.2000000000000002 0.0
13.200000000000001 1.2000000000000002 0.0
13.600000000000001 1.2000000000000002 0.0
14.0 1.2000000000000002 0.0
14.4 1.2000000000000002 0.0
14.8 1.2000000000000002 0.0
15.200000000000001 1.2000000000000002 0.0
15.600000000000001 1.2000000000000002 0.0
16.0 1.2000000000000002 0.0
0.0 1.3 0.0
0.4 1.3 0.0
0.8 1.3 0.0
1.2000000000000002 1.3 0.0
1.6 1.3 0.0
2.0 1.3 0.0
2.4000000000000004 1.3 0.0
2.8000000000000003 1.3 0.0
3.2 1.3 0.0
3.6 1.3 0.0
4.0 1.3 0.0
4.4 1.3 0.0
4.800000000000001 1.3 0.0
5.2 1.3 0.0
5.6000000000000005 1.3 0.0
6.0 1.3 0.0
6.4 1.3 0.0
6.800000000000001 1.3 0.0
7.2 1.3 0.0
7.6000000000000005 1.3 0.0
8.0 1.3 0.0
8.4 1.3 0.0
8.8 1.3 0.0
9.200000000000001 1.3 0.0
9.600000000000001 1.3 0.0
10.0 1.3 0.0
10.4 1.3 0.0
10.8 1.3 0.0
11.200000000000001 1.3 0.0
11.600000000000001 1.3 0.0
12.0 1.3 0.0
12.4 1.3 0.0
12.8 1.3 0.0
13.200000000000001 1.3 0.0
13.600000000000001 1.3 0.0
14.0 1.3 0.0
14.4 1.3 0.0
14.8 1.3 0.0
15.200000000000001 1.3 0.0
15.600000000000001 1.3 0.0
16.0 1.3 0.0
0.0 1.4000000000000001 0.0
0.4 1.4000000000000001 0.0
0.8 1.4000000000000001 0.0
1.2000000000000002 1.4000000000000001 0.0
1.6 1.4000000000000001 0.0
2.0 1.4000000000000001 0.0
2.4000000000000004 1.4000000000000001 0.0
2.8000000000000003 1.4000000000000001 0.0
3.2 1.4000000000000001 0.0
3.6 1.4000000000000001 0.0
4.0 1.4000000000000001 0.0
4.4 1.4000000000000001 0.0
4.800000000000001 1.4000000000000001 0.0
5.2 1.4000000000000001 0.0
5.6000000000000005 1.4000000000000001 0.0
6.0 1.4000000000000001 0.0
6.4 1.4000000000000001 0.0
6.800000000000001 1.4000000000000001 0.0
7.2 1.4000000000000001 0.0
7.6000000000000005 1.4000000000000001 0.0
8.0 1.4000000000000001 0.0
8.4 1.4000000000000001 0.0
8.8 1.4000000000000001 0.0
9.200000000000001 1.4000000000000001 0.0
9.600000000000001 1.4000000000000001 0.0
10.0 1.4000000000000001 0.0
10.4 1.4000000000000001 0.0
10.8 1.4000000000000001 0.0
11.200000000000001 1.4000000000000001 0.0
11.600000000000001 1.4000000000000001 0.0
12.0 1.4000000000000001 0.0
12.4 1.4000000000000001 0.0
12.8 1.4000000000000001 0.0
13.200000000000001 1.4000000000000001 0.0
13.600000000000001 1.4000000000000001 0.0
14.0 1.4000000000000001 0.0
14.4 1.4000000000000001 0.0
14.8 1.4000000000000001 0.0
15.200000000000001 1.4000000000000001 0.0
15.600000000000001 1.4000000000000001 0.0
16.0 1.4000000000000001 0.0
0.0 1.5 0.0
0.4 1.5 0.0
0.8 1.5 0.0
1.2000000000000002 1.5 0.0
1.6 1.5 0.0
2.0 1.5 0.0
2.4000000000000004 1.5 0.0
2.8000000000000003 1.5 0.0
3.2 1.5 0.0
3.6 1.5 0.0
4.0 1.5 0.0
4.4 1.5 0.0
4.800000000000001 1.5 0.0
5.2 1.5 0.0
5.6000000000000005 1.5 0.0
6.0 1.5 0.0
6.4 1.5 0.0
6.800000000000001 1.5 0.0
7.2 1.5 0.0
7.6000000000000005 1.5 0.0
8.0 1.5 0.0
8.4 1.5 0.0
8.8 1.5 0.0
9.200000000000001 1.5 0.0
9.600000000000001 1.5 0.0
10.0 1.5 0.0
10.4 1.5 0.0
10.8 1.5 0.0
11.200000000000001 1.5 0.0
11.600000000000001 1.5 0.0
12.0 1.5 0.0
12.4 1.5 0.0
12.8 1.5 0.0
13.200000000000001 1.5 0.0
13.600000000000001 1.5 0.0
14.0 1.5 0.0
14.4 1.5 0.0
14.8 1.5 0.0
15.200000000000001 1.5 0.0
15.600000000000001 1.5 0.0
16.0 1.5 0.0
0.0 1.6 0.0
0.4 1.6 0.0
0.8 1.6 0.0
1.2000000000000002 1.6 0.0
1.6 1.6 0.0
2.0 1.6 0.0
2.4000000000000004 1.6 0.0
2.8000000000000003 1.6 0.0
3.2 1.6 0.0
3.6 1.6 0.0
4.0 1.6 0.0
4.4 1.6 0.0
4.800000000000001 1.6 0.0
5.2 1.6 0.0
5.6000000000000005 1.6 0.0
6.0 1.6 0.0
6.4 1.6 0.0
6.800000000000001 1.6 0.0
7.2 1.6 0.0
7.6000000000000005 1.6 0.0
8.0 1.6 0.0
8.4 1.6 0.0
8.8 1.6 0.0
9.200000000000001 1.6 0.0
9.600000000000001 1.6 0.0
10.0 1.6 0.0
10.4 1.6 0.0
10.8 1.6 0.0
11.200000000000001 1.6 0.0
11.600000000000001 1.6 0.0
12.0 1.6 0.0
12.4 1.6 0.0
12.8 1.6 0.0
13.200000000000001 1.6 0.0
13.600000000000001 1.6 0.0
14.0 1.6 0.0
14.4 1.6 0.0
14.8 1.6 0.0
15.200000000000001 1.6 0.0
15.600000000000001 1.6 0.0
16.0 1.6 0.0
0.0 1.7000000000000002 0.0
0.4 1.7000000000000002 0.0
0.8 1.7000000000000002 0.0
1.2000000000000002 1.7000000000000002 0.0
1.6 1.7000000000000002 0.0
2.0 1.7000000000000002 0.0
2.4000000000000004 1.7000000000000002 0.0
2.8000000000000003 1.7000000000000002 0.0
3.2 1.7000000000000002 0.0
3.6 1.7000000000000002 0.0
4.0 1.7000000000000002 0.0
4.4 1.7000000000000002 0.0
4.800000000000001 1.7000000000000002 0.0
5.2 1.7000000000000002 0.0
5.6000000000000005 1.7000000000000002 0.0
6.0 1.7000000000000002 0.0
6.4 1.7000000000000002 0.0
6.800000000000001 1.7000000000000002 0.0
7.2 1.7000000000000002 0.0
7.6000000000000005 1.7000000000000002 0.0
8.0 1.7000000000000002 0.0
8.4 1.7000000000000002 0.0
8.8 1.7000000000000002 0.0
9.200000000000001 1.7000000000000002 0.0
9.600000000000001 1.7000000000000002 0.0
10.0 1.7000000000000002 0.0
10.4 1.7000000000000002 0.0
10.8 1.7000000000000002 0.0
11.200000000000001 1.7000000000000002 0.0
11.600000000000001 1.7000000000000002 0.0
12.0 1.7000000000000002 0.0
12.4 1.7000000000000002 0.0
12.8 1.7000000000000002 0.0
13.200000000000001 1.7000000000000002 0.0
13.600000000000001 1.7000000000000002 0.0
14.0 1.7000000000000002 0.0
14.4 1.7000000000000002 0.0
14.8 1.7000000000000002 0.0
15.200000000000001 1.7000000000000002 0.0
15.600000000000001 1.7000000000000002 0.0
16.0 1.7000000000000002 0.0
0.0 1.8 0.0
0.4 1.8 0.0
0.8 1.8 0.0
1.2000000000000002 1.8 0.0
1.6 1.8 0.0
2.0 1.8 0.0
2.4000000000000004 1.8 0.0
2.8000000000000003 1.8 0.0
3.2 1.8 0.0
3.6 1.8 0.0
4.0 1.8 0.0
4.4 1.8 0.0
4.800000000000001 1.8 0.0
5.2 1.8 0.0
5.6000000000000005 1.8 0.0
6.0 1.8 0.0
6.4 1.8 0.0
6.800000000000001 1.8 0.0
7.2 1.8 0.0
7.6000000000000005 1.8 0.0
8.0 1.8 0.0
8.4 1.8 0.0
8.8 1.8 0.0
9.200000000000001 1.8 0.0
9.600000000000001 1.8 0.0
10.0 1.8 0.0
10.4 1.8 0.0
10.8 1.8 0.0
11.200000000000001 1.8 0.0
11.600000000000001 1.8 0.0
12.0 1.8 0.0
12.4 1.8 0.0
12.8 1.8 0.0
13.200000000000001 1.8 0.0
13.600000000000001 1.8 0.0
14.0 1.8 0.0
14.4 1.8 0.0
14.8 1.8 0.0
15.200000000000001 1.8 0.0
15.600000000000001 1.8 0.0
16.0 1.8 0.0
0.0 1.9000000000000001 0.0
0.4 1.9000000000000001 0.0
0.8 1.9000000000000001 0.0
1.2000000000000002 1.9000000000000001 0.0
1.6 1.9000000000000001 0.0
2.0 1.9000000000000001 0.0
2.4000000000000004 1.9000000000000001 0.0
2.8000000000000003 1.9000000000000001 0.0
3.2 1.9000000000000001 0.0
3.6 1.9000000000000001 0.0
4.0 1.9000000000000001 0.0
4.4 1.9000000000000001 0.0
4.800000000000001 1.9000000000000001 0.0
5.2 1.9000000000000001 0.0
5.6000000000000005 1.9000000000000001 0.0
6.0 1.9000000000000001 0.0
6.4 1.9000000000000001 0.0
6.800000000000001 1.9000000000000001 0.0
7.2 1.9000000000000001 0.0
7.6000000000000005 1.9000000000000001 0.0
8.0 1.9000000000000001 0.0
8.4 1.9000000000000001 0.0
8.8 1.9000000000000001 0.0
9.200000000000001 1.9000000000000001 0.0
9.600000000000001 1.9000000000000001 0.0
10.0 1.9000000000000001 0.0
10.4 1.9000000000000001 0.0
10.8 1.9000000000000001 0.0
11.200000000000001 1.9000000000000001 0.0
11.600000000000001 1.9000000000000001 0.0
12.0 1.9000000000000001 0.0
12.4 1.9000000000000001 0.0
12.8 1.9000000000000001 0.0
13.200000000000001 1.9000000000000001 0.0
13.600000000000001 1.9000000000000001 0.0
14.0 1.9000000000000001 0.0
14.4 1.9000000000000001 0.0
14.8 1.9000000000000001 0.0
15.200000000000001 1.9000000000000001 0.0
15.600000000000001 1.9000000000000001 0.0
16.0 1.9000000000000001 0.0
0.0 2.0 0.0
0.4 2.0 0.0
0.8 2.0 0.0
1.2000000000000002 2.0 0.0
1.6 2.0 0.0
2.0 2.0 0.0
2.4000000000000004 2.0 0.0
2.8000000000000003 2.0 0.0
3.2 2.0 0.0
3.6 2.0 0.0
4.0 2.0 0.0
4.4 2.0 0.0
4.800000000000001 2.0 0.0
5.2 2.0 0.0
5.6000000000000005 2.0 0.0
6.0 2.0 0.0
6.4 2.0 0.0
6.800000000000001 2.0 0.0
7.2 2.0 0.0
7.6000000000000005 2.0 0.0
8.0 2.0 0.0
8.4 2.0 0.0
8.8 2.0 0.0
9.200000000000001 2.0 0.0
9.600000000000001 2.0 0.0
10.0 2.0 0.0
10.4 2.0 0.0
10.8 2.0 0.0
11.200000000000001 2.0 0.0
11.600000000000001 2.0 0.0
12.0 2.0 0.0
12.4 2.0 0.0
12.8 2.0 0.0
13.200000000000001 2.0 0.0
13.600000000000001 2.0 0.0
14.0 2.0 0.0
14.4 2.0 0.0
14.8 2.0 0.0
15.200000000000001 2.0 0.0
15.600000000000001 2.0 0.0
16.0 2.0 0.0
CELLS 800 4000
4 0 1 42 41
4 1 2 43 42
4 2 3 44 43
4 3 4 45 44
4 4 5 46 45
4 5 6 47 46
4 6 7 48 47
4 7 8 49 48
4 8 9 50 49
4 9 10 51 50
4 10 11 52 51
4 11 12 53 52
4 12 13 54 53
4 13 14 55 54
4 14 15 56 55
4 15 16 57 56
4 16 17 58 57
4 17 18 59 58
4 18 19 60 59
4 19 20 61 60
4 20 21 62 61
4 21 22 63 62
4 22 23 64 63
4 23 24 65 64
4 24 25 66 65
4 25 26 67 66
4 26 27 68 67
4 27 28 69 68
4 28 29 70 69
4 29 30 71 70
4 30 31 72 71
4 31 32 73 72
4 32 33 74 73
4 33 34 75 74
4 34 35 76 75
4 35 36 77 76
4 36 37 78 77
4 37 38 79 78
4 38 39 80 79
4 39 40 81 80
4 41 42 83 82
4 42 43 84 83
4 43 44 85 84
4 44 45 86 85
4 45 46 87 86
4 46 47 88 87
4 47 48 89 88
4 48 49 90 89
4 49 50 91 90
4 50 51 92 91
4 51 52 93 92
4 52 53 94 93
4 53 54 95 94
4 54 55 96 95
4 55 56 97 96
4 56 57 98 97
4 57 58 99 98
4 58 59 100 99
4 59 60 101 100
4 60 61 102 101
4 61 62 103 102
4 62 63 104 103
4 63 64 105 104
4 64 65 106 105
4 65 66 107 106
4 66 67 108 107
4 67 68 109 108
4 68 69 110 109
4 69 70 111 110
4 70 71 112 111
4 71 72 113 112
4 72 73 114 113
4 73 74 115 114
4 74 75 116 115
4 75 76 117 116
4 76 77 118 117
4 77 78 119 118
4 78 79 120 119
4 79 80 121 120
4 80 81 122 121
4 82 83 124 123
4 83 84 125 124
4 84 85 126 125
4 85 86 127 126
4 86 87 128 127
4 87 88 129 128
4 88 89 130 129
4 89 90 131 130
4 90 91 132 131
4 91 92 133 132
4 92 93 134 133
4 93 94 135 134
4 94 95 136 135
4 95 96 137 136
4 96 97 138 137
4 97 98 139 138
4 98 99 140 139
4 99 100 141 140
4 100 101 142 141
4 101 102 143 142
4 102 103 144 143
4 103 104 145 144
4 104 105 146 145
4 105 106 147 146
4 106 107 148 147
4 107 108 149 148
4 108 109 150 149
4 109 110 151 150
4 110 111 152 151
4 111 112 153 152
4 112 113 154 153
4 113 114 155 154
4 114 115 156 155
4 115 116 157 156
4 116 117 158 157
4 117 118 159 158
4 118 119 160 159
4 119 120 161 160
4 120 121 162 161
4 121 122 163 162
4 123 124 165 164
4 124 125 166 165
4 125 126 167 166
4 126 127 168 167
4 127 128 169 168
4 128 129 170 169
4 129 130 171 170
4 130 131 172 171
4 131 132 173 172
4 132 133 174 173
4 133 134 175 174
4 134 135 176 175
4 135 136 177 176
4 136 137 178 177
4 137 138 179 178
4 138 139 180 179
4 139 140 181 180
4 140 141 182 181
4 141 142 183 182
4 142 143 184 183
4 143 144 185 184
4 144 145 186 185
4 145 146 187 186
4 146 147 188 187
4 147 148 189 188
4 148 149 190 189
4 149 150 191 190
4 150 151 192 191
4 151 152 193 192
4 152 153 194 193
4 153 154 195 194
4 154 155 196 195
4 155 156 197 196
4 156 157 198 197
4 157 158 199 198
4 158 159 200 199
4 159 160 201 200
4 160 161 202 201
4 161 162 203 202
4 162 163 204 203
4 164 165 206 205
4 165 166 207 206
4 166 167 208 207
4 167 168 209 208
4 168 169 210 209
4 169 170 211 210
4 170 171 212 211
4 171 172 213 212
4 172 173 214 213
4 173 174 215 214
4 174 175 216 215
4 175 176 217 216
4 176 177 218 217
4 177 178 219 218
4 178 179 220 219
4 179 180 221 220
4 180 181 222 221
4 181 182 223 222
4 182 183 224 223
4 183 184 225 224
4 184 185 226 225
4 185 186 227 226
4 186 187 228 227
4 187 188 229 228
4 188 189 230 229
4 189 190 231 230
4 190 191 232 231
4 191 192 233 232
4 192 193 234 233
4 193 194 235 234
4 194 195 236 235
4 195 196 237 236
4 196 197 238 237
4 197 198 239 238
4 198 199 240 239
4 199 200 241 240
4 200 201 242 241
4 201 202 243 242
4 202 203 244 243
4 203 204 245 244
4 205 206 247 246
4 206 207 248 247
4 207 208 249 248
4 208 209 250 249
4 209 210 251 250
4 210 211 252 251
4 211 212 253 252
4 212 213 254 253
4 213 214 255 254
4 214 215 256 255
4 215 216 257 256
4 216 217 258 257
4 217 218 259 258
4 218 219 260 259
4 219 220 261 260
4 220 221 262 261
4 221 222 263 262
4 222 223 264 263
4 223 224 265 264
4 224 225 266 265
4 225 226 267 266
4 226 227 268 267
4 227 228 269 268
4 228 229 270 269
4 229 230 271 270
4 230 231 272 271
4 231 232 273 272
4 232 233 274 273
4 233 234 275 274
4 234 235 276 275
4 235 236 277 276
4 236 237 278 277
4 237 238 279 278
4 238 239 280 279
4 239 240 281 280
4 240 241 282 281
4 241 242 283 282
4 242 243 284 283
4 243 244 285 284
4 244 245 286 285
4 246 247 288 287
4 247 248 289 288
4 248 249 290 289
4 249 250 291 290
4 250 251 292 291
4 251 252 293 292
4 252 253 294 293
4 253 254 295 294
4 254 255 296 295
4 255 256 297 296
4 256 257 298 297
4 257 258 299 298
4 258 259 300 299
4 259 260 301 300
4 260 261 302 301
4 261 262 303 302
4 262 263 304 303
4 263 264 305 304
4 264 265 306 305
4 265 266 307 306
4 266 267 308 307
4 267 268 309 308
4 268 269 310 309
4 269 270 311 310
4 270 271 312 311
4 271 272 313 312
4 272 273 314 313
4 273 274 315 314
4 274 275 316 315
4 275 276 317 316
4 276 277 318 317
4 277 278 319 318
4 278 279 320 319
4 279 280 321 320
4 280 281 322 321
4 281 282 323 322
4 282 283 324 323
4 283 284 325 324
4 284 285 326 325
4 285 286 327 326
4 287 288 329 328
4 288 289 330 329
4 289 290 331 330
4 290 291 332 331
4 291 292 333 332
4 292 293 334 333
4 293 294 335 334
4 294 295 336 335
4 295 296 337 336
4 296 297 338 337
4 297 298 339 338
4 298 299 340 339
4 299 300 341 340
4 300 301 342 341
4 301 302 343 342
4 302 303 344 343
4 303 304 345 344
4 304 305 346 345
4 305 306 347 346
4 306 307 348 347
4 307 308 349 348
4 308 309 350 349
4 309 310 351 350
4 310 311 352 351
4 311 312 353 352
4 312 313 354 353
4 313 314 355 354
4 314 315 356 355
4 315 316 357 356
4 316 317 358 357
4 317 318 359 358
4 318 319 360 359
4 319 320 361 360
4 320 321 362 361
4 321 322 363 362
4 322 323 364 363
4 323 324 365 364
4 324 325 366 365
4 325 326 367 366
4 326 327 368 367
4 328 329 370 369
4 329 330 371 370
4 330 331 372 371
4 331 332 373 372
4 332 333 374 373
4 333 334 375 374
4 334 335 376 375
4 335 336 377 376
4 336 337 378 377
4 337 338 379 378
4 338 339 380 379
4 339 340 381 380
4 340 341 382 381
4 341 342 383 382
4 342 343 384 383
4 343 344 385 384
4 344 345 386 385
4 345 346 387 386
4 346 347 388 387
4 347 348 389 388
4 348 349 390 389
4 349 350 391 390
4 350 351 392 391
4 351 352 393 392
4 352 353 394 393
4 353 354 395 394
4 354 355 396 395
4 355 356 397 396
4 356 357 398 397
4 357 358 399 398
4 358 359 400 399
4 359 360 401 400
4 360 361 402 401
4 361 362 403 402
4 362 363 404 403
4 363 364 405 404
4 364 365 406 405
4 365 366 407 406
4 366 367 408 407
4 367 368 409 408
4 369 370 411 410
4 370 371 412 411
4 371 372 413 412
4 372 373 414 413
4 373 374 415 414
4 374 375 416 415
4 375 376 417 416
4 376 377 418 417
4 377 378 419 418
4 378 379 420 419
4 379 380 421 420
4 380 381 422 421
4 381 382 423 422
4 382 383 424 423
4 383 384 425 424
4 384 385 426 425
4 385 386 427 426
4 386 387 428 427
4 387 388 429 428
4 388 389 430 429
4 389 390 431 430
4 390 391 432 431
4 391 392 433 432
4 392 393 434 433
4 393 394 435 434
4 394 395 436 435
4 395 396 437 436
4 396 397 438 437
4 397 398 439 438
4 398 399 440 439
4 399 400 441 440
4 400 401 442 441
4 401 402 443 442
4 402 403 444 443
4 403 404 445 444
4 404 405 446 445
4 405 406 447 446
4 406 407 448 447
4 407 408 449 448
4 408 409 450 449
4 410 411 452 451
4 411 412 453 452
4 412 413 454 453
4 413 414 455 454
4 414 415 456 455
4 415 416 457 456
4 416 417 458 457
4 417 418 459 458
4 418 419 460 459
4 419 420 461 460
4 420 421 462 461
4 421 422 463 462
4 422 423 464 463
4 423 424 465 464
4 424 425 466 465
4 425 426 467 466
4 426 427 468 467
4 427 428 469 468
4 428 429 470 469
4 429 430 471 470
4 430 431 472 471
4 431 432 473 472
4 432 433 474 473
4 433 434 475 474
4 434 435 476 475
4 435 436 477 476
4 436 437 478 477
4 437 438 479 478
4 438 439 480 479
4 439 440 481 480
4 440 441 482 481
4 441 442 483 482
4 442 443 484 483
4 443 444 485 484
4 444 445 486 485
4 445 446 487 486
4 446 447 488 487
4 447 448 489 488
4 448 449 490 489
4 449 450 491 490
4 451 452 493 492
4 452 453 494 493
4 453 454 495 494
4 454 455 496 495
4 455 456 497 496
4 456 457 498 497
4 457 458 499 498
4 458 459 500 499
4 459 460 501 500
4 460 461 502 501
4 461 462 503 502
4 462 463 504 503
4 463 464 505 504
4 464 465 506 505
4 465 466 507 506
4 466 467 508 507
4 467 468 509 508
4 468 469 510 509
4 469 470 511 510
4 470 471 512 511
4 471 472 513 512
4 472 473 514 513
4 473 474 515 514
4 474 475 516 515
4 475 476 517 516
4 476 477 518 517
4 477 478 519 518
4 478 479 520 519
4 479 480 521 520
4 480 481 522 521
4 481 482 523 522
4 482 483 524 523
4 483 484 525 524
4 484 485 526 525
4 485 486 527 526
4 486 487 528 527
4 487 488 529 528
4 488 489 530 529
4 489 490 531 530
4 490 491 532 531
4 492 493 534 533
4 493 494 535 534
4 494 495 536 535
4 495 496 537 536
4 496 497 538 537
4 497 498 539 538
4 498 499 540 539
4 499 500 541 540
4 500 501 542 541
4 501 502 543 542
4 502 503 544 543
4 503 504 545 544
4 504 505 546 545
4 505 506 547 546
4 506 507 548 547
4 507 508 549 548
4 508 509 550 549
4 509 510 551 550
4 510 511 552 551
4 511 512 553 552
4 512 513 554 553
4 513 514 555 554
4 514 515 556 555
4 515 516 557 556
4 516 517 558 557
4 517 518 559 558
4 518 519 560 559
4 519 520 561 560
4 520 521 562 561
4 521 522 563 562
4 522 523 564 563
4 523 524 565 564
4 524 525 566 565
4 525 526 567 566
4 526 527 568 567
4 527 528 569 568
4 528 529 570 569
4 529 530 571 570
4 530 531 572 571
4 531 532 573 572
4 533 534 575 574
4 534 535 576 575
4 535 536 577 576
4 536 537 578 577
4 537 538 579 578
4 538 539 580 579
4 539 540 581 580
4 540 541 582 581
4 541 542 583 582
4 542 543 584 583
4 543 544 585 584
4 544 545 586 585
4 545 546 587 586
4 546 547 588 587
4 547 548 589 588
4 548 549 590 589
4 549 550 591 590
4 550 551 592 591
4 551 552 593 592
4 552 553 594 593
4 553 554 595 594
4 554 555 596 595
4 555 556 597 596
4 556 557 598 597
4 557 558 599 598
4 558 559 600 599
4 559 560 601 600
4 560 561 602 601
4 561 562 603 602
4 562 563 604 603
4 563 564 605 604
4 564 565 606 605
4 565 566 607 606
4 566 567 608 607
4 567 568 609 608
4 568 569 610 609
4 569 570 611 610
4 570 571 612 611
4 571 572 613 612
4 572 573 614 613
4 574 575 616 615
4 575 576 617 616
4 576 577 618 617
4 577 578 619 618
4 578 579 620 619
4 579 580 621 620
4 580 581 622 621
4 581 582 623 622
4 582 583 624 623
4 583 584 625 624
4 584 585 626 625
4 585 586 627 626
4 586 587 628 627
4 587 588 629 628
4 588 589 630 629
4 589 590 631 630
4 590 591 632 631
4 591 592 633 632
4 592 593 634 633
4 593 594 635 634
4 594 595 636 635
4 595 596 637 636
4 596 597 638 637
4 597 598 639 638
4 598 599 640 639
4 599 600 641 640
4 600 601 642 641
4 601 602 643 642
4 602 603 644 643
4 603 604 645 644
4 604 605 646 645
4 605 606 647 646
4 606 607 648 647
4 607 608 649 648
4 608 609 650 649
4 609 610 651 650
4 610 611 652 651
4 611 612 653 652
4 612 613 654 653
4 613 614 655 654
4 615 616 657 656
4 616 617 658 657
4 617 618 659 658
4 618 619 660 659
4 619 620 661 660
4 620 621 662 661
4 621 622 663 662
4 622 623 664 663
4 623 624 665 664
4 624 625 666 665
4 625 626 667 666
4 626 627 668 667
4 627 628 669 668
4 628 629 670 669
4 629 630 671 670
4 630 631 672 671
4 631 632 673 672
4 632 633 674 673
4 633 634 675 674
4 634 635 676 675
4 635 636 677 676
4 636 637 678 677
4 637 638 679 678
4 638 639 680 679
4 639 640 681 680
4 640 641 682 681
4 641 642 683 682
4 642 643 684 683
4 643 644 685 684
4 644 645 686 685
4 645 646 687 686
4 646 647 688 687
4 647 648 689 688
4 648 649 690 689
4 649 650 691 690
4 650 651 692 691
4 651 652 693 692
4 652 653 694 693
4 653 654 695 694
4 654 655 696 695
4 656 657 698 697
4 657 658 699 698
4 658 659 700 699
4 659 660 701 700
4 660 661 702 701
4 661 662 703 702
4 662 663 704 703
4 663 664 705 704
4 664 665 706 705
4 665 666 707 706
4 666 667 708 707
4 667 668 709 708
4 668 669 710 709
4 669 670 711 710
4 670 671 712 711
4 671 672 713 712
4 672 673 714 713
4 673 674 715 714
4 674 675 716 715
4 675 676 717 716
4 676 677 718 717
4 677 678 719 718
4 678 679 720 719
4 679 680 721 720
4 680 681 722 721
4 681 682 723 722
4 682 683 724 723
4 683 684 725 724
4 684 685 726 725
4 685 686 727 726
4 686 687 728 727
4 687 688 729 728
4 688 689 730 729
4 689 690 731 730
4 690 691 732 731
4 691 692 733 732
4 692 693 734 733
4 693 694 735 734
4 694 695 736 735
4 695 696 737 736
4 697 698 739 738
4 698 699 740 739
4 699 700 741 740
4 700 701 742 741
4 701 702 743 742
4 702 703 744 743
4 703 704 745 744
4 704 705 746 745
4 705 706 747 746
4 706 707 748 747
4 707 708 749 748
4 708 709 750 749
4 709 710 751 750
4 710 711 752 751
4 711 712 753 752
4 712 713 754 753
4 713 714 755 754
4 714 715 756 755
4 715 716 757 756
4 716 717 758 757
4 717 718 759 758
4 718 719 760 759
4 719 720 761 760
4 720 721 762 761
4 721 722 763 762
4 722 723 764 763
4 723 724 765 764
4 724 725 766 765
4 725 726 767 766
4 726 727 768 767
4 727 728 769 768
4 728 729 770 769
4 729 730 771 770
4 730 731 772 771
4 731 732 773 772
4 732 733 774 773
4 733 734 775 774
4 734 735 776 775
4 735 736 777 776
4 736 737 778 777
4 738 739 780 779
4 739 740 781 780
4 740 741 782 781
4 741 742 783 782
4 742 743 784 783
4 743 744 785 784
4 744 745 786 785
4 745 746 787 786
4 746 747 788 787
4 747 748 789 788
4 748 749 790 789
4 749 750 791 790
4 750 751 792 791
4 751 752 793 792
4 752 753 794 793
4 753 754 795 794
4 754 755 796 795
4 755 756 797 796
4 756 757 798 797
4 757 758 799 798
4 758 759 800 799
4 759 760 801 800
4 760 761 802 801
4 761 762 803 802
4 762 763 804 803
4 763 764 805 804
4 764 765 806 805
4 765 766 807 806
4 766 767 808 807
4 767 768 809 808
4 768 769 810 809
4 769 770 811 810
4 770 771 812 811
4 771 772 813 812
4 772 773 814 813
4 773 774 815 814
4 774 775 816 815
4 775 776 817 816
4 776 777 818 817
4 777 778 819 818
4 779 780 821 820
4 780 781 822 821
4 781 782 823 822
4 782 783 824 823
4 783 784 825 824
4 784 785 826 825
4 785 786 827 826
4 786 787 828 827
4 787 788 829 828
4 788 789 830 829
4 789 790 831 830
4 790 791 832 831
4 791 792 833 832
4 792 793 834 833
4 793 794 835 834
4 794 795 836 835
4 795 796 837 836
4 796 797 838 837
4 797 798 839 838
4 798 799 840 839
4 799 800 841 840
4 800 801 842 841
4 801 802 843 842
4 802 803 844 843
4 803 804 845 844
4 804 805 846 845
4 805 806 847 846
4 806 807 848 847
4 807 808 849 848
4 808 809 850 849
4 809 810 851 850
4 810 811 852 851
4 811 812 853 852
4 812 813 854 853
4 813 814 855 854
4 814 815 856 855
4 815 816 857 856
4 816 817 858 857
4 817 818 859 858
4 818 819 860 859
CELL_TYPES 800
9
9
9
9
9
9
9
9
9
9
9
9
9
9
9
9
9
9
9
9
9
9
9
9
9
9
9
9
9
9
9
9
9
9
9
9
9
9
9
9
9
9
9
9
9
9
9
9
9
9
9
9
9
9
9
9
9
9
9
9
9
9
9
9
9
9
9
9
9
9
9
9
9
9
9
9
9
9
9
9
9
9
9
9
9
9
9
9
9
9
9
9
9
9
9
9
9
9
9
9
9
9
9
9
9
9
9
9
9
9
9
9
9
9
9
9
9
9
9
9
9
9
9
9
9
9
9
9
9
9
9
9
9
9
9
9
9
9
9
9
9
9
9
9
9
9
9
9
9
9
9
9
9
9
9
9
9
9
9
9
9
9
9
9
9
9
9
9
9
9
9
9
9
9
9
9
9
9
9
9
9
9
9
9
9
9
9
9
9
9
9
9
9
9
9
9
9
9
9
9
9
9
9
9
9
9
9
9
9
9
9
9
9
9
9
9
9
9
9
9
9
9
9
9
9
9
9
9
9
9
9
9
9
9
9
9
9
9
9
9
9
9
9
9
9
9
9
9
9
9
9
9
9
9
9
9
9
9
9
9
9
9
9
9
9
9
9
9
9
9
9
9
9
9
9
9
9
9
9
9
9
9
9
9
9
9
9
9
9
9
9
9
9
9
9
9
9
9
9
9
9
9
9
9
9
9
9
9
9
9
9
9
9
9
9
9
9
9
9
9
9
9
9
9
9
9
9
9
9
9
9
9
9
9
9
9
9
9
9
9
9
9
9
9
9
9
9
9
9
9
9
9
9
9
9
9
9
9
9
9
9
9
9
9
9
9
9
9
9
9
9
9
9
9
9
9
9
9
9
9
9
9
9
9
9
9
9
9
9
9
9
9
9
9
9
9
9
9
9
9
9
9
9
9
9
9
9
9
9
9
9
9
9
9
9
9
9
9
9
9
9
9
9
9
9
9
9
9
9
9
9
9
9
9
9
9
9
9
9
9
9
9
9
9
9
9
9
9
9
9
9
9
9
9
9
9
9
9
9
9
9
9
9
9
9
9
9
9
9
9
9
9
9
9
9
9
9
9
9
9
9
9
9
9
9
9
9
9
9
9
9
9
9
9
9
9
9
9
9
9
9
9
9
9
9
9
9
9
9
9
9
9
9
9
9
9
9
9
9
9
9
9
9
9
9
9
9
9
9
9
9
9
9
9
9
9
9
9
9
9
9
9
9
9
9
9
9
9
9
9
9
9
9
9
9
9
9
9
9
9
9
9
9
9
9
9
9
9
9
9
9
9
9
9
9
9
9
9
9
9
9
9
9
9
9
9
9
9
9
9
9
9
9
9
9
9
9
9
9
9
9
9
9
9
9
9
9
9
9
9
9
9
9
9
9
9
9
9
9
9
9
9
9
9
9
9
9
9
9
9
9
9
9
9
9
9
9
9
9
9
9
9
9
9
9
9
9
9
9
9
9
9
9
9
9
9
9
9
9
9
9
9
9
9
9
9
9
9
9
9
9
9
9
9
9
9
9
9
9
9
9
9
9
9
9
9
9
9
9
9
9
9
9
9
9
9
9
9
9
9
9
9
9
9
9
9
9
9
9
9
9
9
9
9
9
9
9
9
9
9
9
9
9
9
9
9
9
9
9
9
9
9
9
9
9
9
9
9
9
9
9
9
9
9
9
9
9
9
9
9
9
9
9
9
9
9
9
9
9
9
9
9
9
9
9
9
9
9
9
9
9
9
9
9
9
9
9
9
9
9
9
9
9
9
9
9
9
9
9
9
9
9
9
9
9
9
9
9
9
9
POINT_DATA 861
SCALARS Disp float 2
LOOKUP_TABLE default
0.0 0.0
0.0006361565353944197 -0.017880576489935327
0.0010660623356165502 -0.03409021733259465
0.0014142818924711025 -0.05016035385129204
0.0018137856121728814 -0.06606720558874277
0.0022944290132380263 -0.08180730551992997
0.0028715406781266847 -0.09734171495476428
0.003551382573581325 -0.11262821770112412
0.004335106052646555 -0.1276213003767618
0.00521537860743795 -0.14228551523257518
0.0062131886016035896 -0.15653719495805488
0.007435074102332252 -0.17030429541698772
0.008893048313593348 -0.18350656397878112
0.0106716076740423 -0.19599859699277003
0.01290500659032386 -0.20759030141399265
0.01575702670833828 -0.21805262696655411
0.019386987429702667 -0.2271376418204663
0.02388906518823617 -0.23460352261708506
0.029232892754237967 -0.24021475415935323
0.035238411297933044 -0.243728632712603
0.041605572885438445 -0.24493171501494035
0.04797273447294367 -0.24372863271260178
0.05397825301663834 -0.24021475415934826
0.05932208058263968 -0.23460352261707754
0.06382415834117323 -0.2271376418204576
0.06745411906253788 -0.21805262696654615
0.07030613918055215 -0.2075903014139849
0.07253953809683346 -0.19599859699276279
0.07431809745728224 -0.18350656397877432
0.07577607166854321 -0.17030429541698142
0.07699795716927185 -0.15653719495804908
0.0779957671634379 -0.1422855152325701
0.07887603971822915 -0.12762130037675723
0.07965976319729434 -0.11262821770112008
0.08033960509274897 -0.09734171495476074
0.08091671675763758 -0.08180730551992711
0.0813973601587027 -0.06606720558874046
0.08179686387840449 -0.05016035385129042
0.08214508343525902 -0.034090217332593556
0.08257498923548118 -0.017880576489934855
0.08321114577087577 0.0
0.0044563802720709875 -0.00039785711894729716
0.0048501733479338885 -0.017850505165375792
0.00508539480564086 -0.034139378271577314
0.005409205576542211 -0.05019436629897596
0.005764296546617586 -0.06611218126207993
0.006198253704063905 -0.08186086884791385
0.006718376011045136 -0.09740569489267115
0.007330375208881893 -0.11270259923460337
0.008036280514366284 -0.12770691383276986
0.008829434057816858 -0.14237706855982019
0.009720662816939046 -0.15666349694626788
0.010810287879148023 -0.1704756262293707
0.012111468601035853 -0.18373020453855768
0.013692158649849235 -0.19630092133819138
0.01567451424061424 -0.2080066872608905
0.018213578278240335 -0.21862368595415108
0.02146611334410675 -0.22789747442685895
0.025528938745696353 -0.23556343649633313
0.030374149173047916 -0.24135115159876883
0.035826817995238416 -0.2449842538062698
0.04160557288543838 -0.24622914426546955
0.04738432777563798 -0.24498425380626843
0.05283699659782789 -0.24135115159876375
0.05768220702517925 -0.23556343649632558
0.06174503242676922 -0.2278974744268503
0.06499756749263591 -0.21862368595414308
0.06753663153026189 -0.20800668726088273
0.06951898712102667 -0.19630092133818403
0.07109967716983986 -0.18373020453855085
0.07240085789172757 -0.1704756262293644
0.07349048295393666 -0.15666349694626225
0.07438171171305905 -0.14237706855981513
0.07517486525650956 -0.12770691383276528
0.07588077056199392 -0.11270259923459931
0.07649276975983066 -0.0974056948926676
0.07701289206681185 -0.081860868847911
0.07744684922425815 -0.06611218126207764
0.07780194019433352 -0.05019436629897433
0.07812575096523486 -0.03413937827157622
0.07836097242294182 -0.01785050516537532
0.0787547654988049 -0.0003978571189473531
0.008731598139924097 -0.0007075822152752379
0.008998672536619484 -0.017830651602126484
0.009130378160052788 -0.03416625335582958
0.009389423899351252 -0.050227637481977554
0.00970448510864052 -0.06615108058358109
0.010088484501567352 -0.08190898776677223
0.010551149280347985 -0.09746286459747766
0.01109538580272979 -0.11276924303821723
0.011722798608069861 -0.12778345285154047
0.01243281293045869 -0.1424609376994129
0.01323089182907277 -0.1567667181185034
0.014184362567487828 -0.17061837019807524
0.015329525525723201 -0.183917124034902
0.016715623950902574 -0.1965545299034052
0.018449405451443378 -0.20835955066172374
0.02067567703143522 -0.2191147525912982
0.023546384576546436 -0.22856080091639014
0.027161694801599596 -0.23641154002856757
0.03150185444602362 -0.242362085061498
0.036403779762485225 -0.24610382217138654
0.041605572885438424 -0.24738647551831172
0.04680736600839127 -0.24610382217138504
0.05170929132485221 -0.2423620850614928
0.05604945096927612 -0.23641154002856002
0.05966476119432967 -0.2285608009163816
0.06253546873944114 -0.2191147525912902
0.06476174031943287 -0.20835955066171594
0.0664955218199735 -0.19655452990339775
0.06788162024515265 -0.18391712403489519
0.06902678320338791 -0.17061837019806894
0.06998025394180316 -0.1567667181184978
0.07077833284041728 -0.1424609376994078
0.07148834716280611 -0.12778345285153586
0.07211575996814616 -0.11276924303821315
0.07265999649052794 -0.09746286459747408
0.07312266126930855 -0.08190898776676937
0.07350666066223537 -0.0661510805835788
0.07382172187152462 -0.05022763748197592
0.07408076761082309 -0.034166253355828485
0.0742124732342564 -0.017830651602125998
0.07447954763095195 -0.0007075822152754714
0.012894885227025626 -0.0009645944984971883
0.013098600985461293 -0.017824479596645133
0.013169931298370276 -0.034178666010447195
0.013363655067085523 -0.050255056807903514
0.013633049477923284 -0.0661849687381678
0.013967138497226729 -0.08195106773752682
0.014371438955722775 -0.09751328193927818
0.014847768648915528 -0.11282809499397328
0.015397184872299411 -0.1278509621839795
0.016022473241337293 -0.142537855288804
0.016733245947751777 -0.15685469857772108
0.017557169145321096 -0.17073309888955923
0.01854897368311613 -0.18406955196268554
0.019743990664774017 -0.19676121110647563
0.02123312088332564 -0.20865035222365874
0.023148112240669386 -0.21952629916710178
0.025633932237466146 -0.2291269454909453
0.028794710477777083 -0.2371468094828644
0.03262362808229668 -0.24324769656811285
0.036974695284845635 -0.24708954738992403
0.04160557288543865 -0.24840702716606408
0.04623645048603126 -0.24708954738992236
0.05058751768857955 -0.2432476965681075
0.05441643529309898 -0.23714680948285688
0.057577213533410124 -0.2291269454909369
0.06006303353020709 -0.21952629916709376
0.06197802488755074 -0.2086503522236509
0.06346715510610221 -0.19676121110646813
0.0646621720877599 -0.18406955196267866
0.06565397662555483 -0.170733098889553
0.06647789982312427 -0.15685469857771553
0.06718867252953878 -0.1425378552887989
0.06781396089857669 -0.1278509621839749
0.06836337712196056 -0.1128280949939692
0.06883970681515329 -0.09751328193927458
0.06924400727364932 -0.08195106773752397
0.06957809629295275 -0.0661849687381655
0.0698474907037905 -0.050255056807901884
0.07004121447250576 -0.034178666010446106
0.07011254478541477 -0.017824479596644658
0.07031626054385044 -0.000964594498497353
0.016986916534964265 -0.0011833445815734203
0.01715615408143331 -0.017831081415925095
0.017193728913153603 -0.034182529113978906
0.017330920819056995 -0.0502754041452528
0.017551733244433508 -0.06621349969660459
0.017835310386728837 -0.08198709881286773
0.018180914477236968 -0.09755684453835012
0.018589118908082878 -0.11287913212708947
0.01906074686295164 -0.12790970014834135
0.019600369222560216 -0.14260627956093064
0.02021813180003475 -0.1569312150168543
0.02092867805879886 -0.1708236556205955
0.021769559950251077 -0.18419010588263132
0.022778677968857897 -0.19692365375701368
0.024028886135159366 -0.2088813290123125
0.025635974776283835 -0.2198594965198495
0.027735723975820355 -0.22959584446357212
0.030436019904916733 -0.23776858706923093
0.03374688861523244 -0.24400800059095165
0.03754412538256907 -0.24794280033028196
0.04160557288543899 -0.24929289514297526
0.04566702038830849 -0.24794280033028007
0.0494642571556444 -0.24400800059094618
0.05277512586595979 -0.23776858706922335
0.05547542179505617 -0.22959584446356376
0.05757517099459275 -0.21985949651984152
0.05918225963571713 -0.2088813290123046
0.06043246780201845 -0.19692365375700618
0.06144158582062511 -0.18419010588262438
0.06228246771207727 -0.17082365562058927
0.06299301397084141 -0.15693121501684867
0.06361077654831598 -0.14260627956092556
0.06415039890792458 -0.12790970014833675
0.06462202686279335 -0.1128791321270854
0.06503023129363923 -0.09755684453834654
0.06537583538414736 -0.08198709881286485
0.06565941252644267 -0.06621349969660228
0.06588022495181918 -0.05027540414525116
0.06601741685772258 -0.03418252911397782
0.06605499168944289 -0.017831081415924613
0.06622422923591194 -0.0011833445815735786
0.021032922224985054 -0.0013689542749812404
0.021178958805061383 -0.017847918648313945
0.021198464188008137 -0.034182039826175355
0.0212894681075292 -0.05028901598510305
0.021461835051132628 -0.06623634353019925
0.02169433744509876 -0.08201706378810959
0.021981103349956153 -0.09759351490931728
0.02232104761008055 -0.11292230595081548
0.022714854103760347 -0.12795982235217573
0.02316731696909794 -0.1426648496334652
0.02368684795994193 -0.1569980399842408
0.024286740978285124 -0.17089946039188578
0.024987730883936934 -0.184282758953198
0.025819557264403964 -0.19704611006298775
0.02683900477413189 -0.20905586264704798
0.028144400224361748 -0.22011665592587346
0.029859595193908024 -0.22996830865849502
0.03209472631664546 -0.23827659601356824
0.034879532067732213 -0.24464276675137642
0.038116513834375566 -0.24866419181548605
0.041605572885439354 -0.25004524129552774
0.04509463193650271 -0.24866419181548385
0.04833161370314532 -0.24464276675137078
0.051116419454231565 -0.23827659601356058
0.053351550576968776 -0.22996830865848666
0.05506674554651495 -0.2201166559258654
0.056372140996744695 -0.20905586264704007
0.0573915885064725 -0.1970461100629802
0.0582234148869394 -0.18428275895319107
0.058924404792591166 -0.17089946039187948
0.05952429781093437 -0.1569980399842352
0.06004382880177839 -0.14266484963346013
0.06049629166711601 -0.12795982235217113
0.06089009816079581 -0.11292230595081139
0.06123004242092021 -0.0975935149093137
0.06151680832577757 -0.08201706378810673
0.061749310719743704 -0.06623634353019693
0.06192167766334713 -0.0502890159851014
0.062012681582868205 -0.034182039826174265
0.06203218696581496 -0.017847918648313463
0.062178223545891295 -0.0013689542749813965
0.02504722277368033 -0.0015259844212783201
0.02517481349252055 -0.01787172984455291
0.02518433324819048 -0.03417987237746351
0.02523832096713968 -0.05029682110479048
0.025364276779902595 -0.06625342818374814
0.025545630761937457 -0.08204094048527154
0.025773508965658033 -0.09762327738749237
0.02604515451013757 -0.1129576249136879
0.026360830565906383 -0.12800112903070274
0.02672462765860188 -0.14271329779226502
0.027143470066585088 -0.15705362617669147
0.0276278233335492 -0.17096279452851737
0.028194133858918873 -0.18435546961815663
0.028861580569741856 -0.1971353445654757
0.029663239996377544 -0.20917947133320366
0.030677527516864846 -0.2203019859189761
0.032013941059888695 -0.23024663054831132
0.0337814844548819 -0.23867123191541154
0.03603090963042796 -0.245151573234757
0.03869700976821261 -0.24925362639071003
0.041605572885439646 -0.25066442885282825
0.04451413600266626 -0.2492536263907076
0.04718023614045017 -0.2451515732347512
0.04942966131599553 -0.23867123191540376
0.05119720471098827 -0.23024663054830297
0.05253361825401194 -0.220301985918968
0.05354790577449912 -0.20917947133319573
0.054349565201134716 -0.19713534456546816
0.055017011911957604 -0.1843554696181497
0.05558332243732724 -0.17096279452851107
0.056067675704291366 -0.15705362617668586
0.05648651811227459 -0.14271329779225994
0.0568503152049701 -0.12800112903069813
0.05716599126073892 -0.1129576249136838
0.057437636805218455 -0.09762327738748877
0.057665515008939024 -0.08204094048526868
0.05784686899097388 -0.06625342818374584
0.057972824803736805 -0.050296821104788836
0.058026812522686 -0.03417987237746241
0.05803633227835594 -0.017871729844552424
0.05816392299719616 -0.0015259844212784728
0.029039087576787984 -0.0016582340234476043
0.029150255824892595 -0.017899525726767257
0.02915339913586058 -0.034177442683342454
0.02917746391279998 -0.050299867206852346
0.029259910448456102 -0.06626490944314761
0.02939058615985874 -0.08205873963528923
0.029559654038593345 -0.09764614145686154
0.029762986579725387 -0.1129850694383421
0.030000141654382136 -0.12803344356837415
0.030274113372872304 -0.14275132440532862
0.030590161913763552 -0.15709741541287925
0.03095578259392665 -0.17101268288920046
0.031383293757733834 -0.18441373383699747
0.03188913809301818 -0.19720332616447517
0.03249322204030986 -0.20926218115247236
0.03323511344656711 -0.22042325185193554
0.03420584025588321 -0.23043599483771232
0.0355084319835991 -0.23895453523047208
0.03721296961267647 -0.24553425877089605
0.03929254799125988 -0.2497104201051719
0.04160557288543974 -0.2511500804419258
0.04391859777961934 -0.24971042010516922
0.045998176158201995 -0.24553425877089002
0.04770271378727854 -0.23895453523046417
0.04900530551499383 -0.2304359948377039
0.04997603232430972 -0.22042325185192738
0.05071792373056689 -0.20926218115246442
0.05132200767785851 -0.19720332616446762
0.051827852013142786 -0.18441373383699053
0.052255363176949954 -0.17101268288919413
0.05262098385711305 -0.15709741541287364
0.052937032398004305 -0.14275132440532354
0.053211004116494494 -0.12803344356836954
0.053448159191151236 -0.11298506943833801
0.05365149173228329 -0.09764614145685796
0.053820559611017886 -0.08205873963528636
0.05395123532242052 -0.06626490944314531
0.05403368185807665 -0.05029986720685069
0.05405774663501605 -0.03417744268334136
0.054060889945984035 -0.017899525726766768
0.05417205819408864 -0.0016582340234477546
0.03301499047421584 -0.0017688449232004387
0.033110620341673856 -0.01792886451045531
0.03310851544358295 -0.03417531733683362
0.033107713821625064 -0.050299075311097716
0.03314970301286164 -0.06627108617602344
0.033230592225376325 -0.082070524261851
0.03334106587544508 -0.09766213030859733
0.03347609029535804 -0.11300461192823967
0.03363438570586981 -0.12805662539871948
0.03381764424005949 -0.14277868520627895
0.03402928656532365 -0.15712897717476504
0.03427419131974119 -0.17104867059802212
0.034560497444154265 -0.18445579483157612
0.0348998210976743 -0.19725331266000623
0.035306402904272345 -0.2093206142603836
0.035801199964470135 -0.22049630995044586
0.036432873711503916 -0.23054802456561793
0.03728505431077319 -0.23913302501395722
0.038440017494590605 -0.24579262575725824
0.039912630399872924 -0.2500339459770403
0.04160557288543961 -0.25150141214815575
0.043298515371006104 -0.2500339459770375
0.044771128276287764 -0.245792625757252
0.04592609146010436 -0.23913302501394912
0.046778272059373134 -0.2305480245656095
0.04740994580640676 -0.22049630995043767
0.0479047428666045 -0.20932061426037568
0.0483113246732025 -0.19725331265999865
0.0486506483267225 -0.18445579483156918
0.048936954451135564 -0.17104867059801582
0.0491818592055531 -0.1571289771747594
0.049393501530817265 -0.14277868520627388
0.049576760065006956 -0.12805662539871487
0.04973505547551872 -0.11300461192823558
0.04987007989543169 -0.09766213030859375
0.049980553545500454 -0.08207052426184813
0.050061442758015134 -0.06627108617602112
0.050103431949251716 -0.05029907531109606
0.050102630327293826 -0.03417531733683251
0.05010052542920291 -0.01792886451045482
0.050196155296660924 -0.0017688449232005853
0.03697973999126314 -0.0018604210321476462
0.03706028982338898 -0.017957875171159425
0.037052772619876884 -0.034173543621670945
0.03703048811852513 -0.05029515469731415
0.03703482139952853 -0.06627231689271611
0.037067058808493016 -0.08207640565750983
0.037119276326018844 -0.09767127885266078
0.03718603370352389 -0.11301623154366033
0.0372652319429574 -0.1280705722217564
0.037357159811508264 -0.1427951949049088
0.03746336053283594 -0.15714804020197753
0.03758621321743612 -0.1710704054291982
0.03772980378530909 -0.18448121815912752
0.03789993893023922 -0.19728350331587552
0.038103533783836886 -0.20935657647469483
0.038350689052861764 -0.2205404784320594
0.038664448804009904 -0.23060801052789293
0.03909431037811596 -0.23922458302071292
0.03971251173726509 -0.24593661349134913
0.04056506294954989 -0.2502268789884632
0.041605572885439215 -0.25171960357316847
0.04264608282132836 -0.2502268789884602
0.04349863403361273 -0.24593661349134283
0.044116835392761365 -0.23922458302070473
0.044546696966867125 -0.23060801052788443
0.04486045671801519 -0.2205404784320512
0.04510761198704006 -0.2093565764746869
0.045311206840637705 -0.197283503315868
0.045481341985567816 -0.18448121815912055
0.04562493255344077 -0.17107040542919189
0.045747785238040954 -0.15714804020197193
0.04585398595936864 -0.14279519490490372
0.0459459138279195 -0.1280705722217518
0.04602511206735301 -0.11301623154365624
0.04609186944485806 -0.0976712788526572
0.046144086962383896 -0.08207640565750696
0.04617632437134839 -0.0662723168927138
0.04618065765235179 -0.0502951546973125
0.04615837315100004 -0.03417354362166984
0.04615085594748793 -0.01795787517115893
0.04623140577961377 -0.0018604210321477928
0.04093709708838806 -0.001935152381107047
0.04100293140236074 -0.017985190912431306
0.04098923447477729 -0.034171880850711704
0.04094759401832118 -0.0502886000850012
0.040916646618266994 -0.06626895964008496
0.04090144498911883 -0.08207652733729864
0.04089582851703491 -0.09767363353944745
0.0408944050441711 -0.1130199212103266
0.04089438914109526 -0.12807522049163897
0.0408946673958356 -0.14280074355008912
0.04089490627970503 -0.1571544414730398
0.040895052422238336 -0.17107768656795122
0.040895104593560584 -0.18448970405383003
0.04089495959940892 -0.1972935061996084
0.04089384671664831 -0.20936827077784734
0.040889865873994756 -0.22055459071491068
0.04088552396442536 -0.23062894338842568
0.04090239263886647 -0.23926184180799087
0.04099322281975114 -0.24599815450136228
0.04122417786485785 -0.25031313549547807
0.041605572885438744 -0.2518202022221926
0.041986967906019565 -0.250313135495475
0.04221792295112611 -0.2459981545013559
0.04230875313201063 -0.23926184180798266
0.04232562180645166 -0.2306289433884172
0.04232127989688226 -0.2205545907149025
0.042317299054228735 -0.20936827077783948
0.042316186171468116 -0.19729350619960084
0.04231604117731645 -0.18448970405382306
0.04231609334863871 -0.1710776865679449
0.04231623949117202 -0.1571544414730342
0.04231647837504145 -0.142800743550084
0.042316756629781786 -0.1280752204916344
0.04231674072670594 -0.1130199212103225
0.04231531725384213 -0.09767363353944386
0.04230970078175822 -0.08207652733729578
0.04229449915261006 -0.06626895964008264
0.04226355175255588 -0.05028860008499955
0.04222191129609977 -0.034171880850710594
0.04220821436851632 -0.0179851909124308
0.04227404868248899 -0.0019351523811071945
0.044890129494505056 -0.0019949311359222983
0.0449416775683147 -0.01800986024012801
0.04492082447978884 -0.0341699519146335
0.044861070999908076 -0.05027972416568826
0.04479675205131459 -0.06626133644919287
0.04473527708917656 -0.08207104612111658
0.04467228342077538 -0.09766924992801229
0.044602804955088456 -0.11301568935114059
0.04452358778876188 -0.12807054987276673
0.044432200666731064 -0.14279529257543078
0.044326462234078046 -0.15714812749686993
0.04420388845507722 -0.17107044131935079
0.04406039418741083 -0.18448116053189728
0.04388998025194096 -0.19728321641445853
0.04368441200160164 -0.20935547721925174
0.04342986298071254 -0.22053819091674207
0.0431072816391385 -0.23061066974164843
0.042705017953673666 -0.23924840695865995
0.04225847676707191 -0.24599750768686762
0.04186825849550915 -0.25032851813949253
0.04160557288543832 -0.25185310164675523
0.04134288727536747 -0.25032851813948953
0.040952669003804766 -0.24599750768686124
0.0405061278172032 -0.23924840695865168
0.0401038641317385 -0.23061066974163993
0.03978128279016455 -0.2205381909167339
0.03952673376927549 -0.2093554772192439
0.039321165518936184 -0.197283216414451
0.03915075158346634 -0.18448116053189031
0.039007257315799966 -0.17107044131934446
0.038884683536799136 -0.15714812749686433
0.038778945104146124 -0.14279529257542564
0.0386875579821153 -0.12807054987276212
0.038608340815788726 -0.1130156893511365
0.03853886235010181 -0.09766924992800871
0.03847586868170063 -0.08207104612111372
0.038414393719562616 -0.06626133644919055
0.038350074770969134 -0.05027972416568661
0.03829032129108837 -0.034169951914632395
0.038269468202562516 -0.0180098602401275
0.038321016276372154 -0.0019949311359224466
0.04884141748908747 -0.002041453490687093
0.04887925332889994 -0.018031262084953772
0.04885028650191122 -0.03416733867987009
0.04877308513290379 -0.05026870114450011
0.04867686975081821 -0.06624971655703606
0.04857015547436149 -0.08206011505786502
0.04845022387143068 -0.09765818730849563
0.048312838758438566 -0.1130035595237973
0.04815455814050925 -0.12805658329733036
0.04797179198875985 -0.14277887592771663
0.04776056545582641 -0.1571291477010597
0.047515904032421175 -0.17104873795104802
0.04722965702614164 -0.18445568053277003
0.046890125307544085 -0.19725276351017543
0.04648212300953614 -0.20931861460107806
0.04598203635550104 -0.22049190754932474
0.0453413370544302 -0.2305526206886439
0.044501201094142746 -0.23917697771552054
0.04348661477901099 -0.24592610385110555
0.0424543800076782 -0.25027258462062724
0.04160557288543789 -0.25183655482959716
0.04075676576319765 -0.25027258462062424
0.03972453099186505 -0.24592610385109923
0.03870994467673384 -0.23917697771551233
0.0378698087164468 -0.2305526206886354
0.03722910941537612 -0.22049190754931663
0.03672902276134108 -0.2093186146010702
0.03632102046333319 -0.19725276351016793
0.035981488744735675 -0.18445568053276307
0.03569524173845616 -0.17104873795104167
0.035450580315050925 -0.15712914770105404
0.03523935378211748 -0.14277887592771152
0.03505658763036807 -0.12805658329732578
0.034898307012438755 -0.11300355952379319
0.03476092189944665 -0.09765818730849204
0.03464099029651586 -0.08206011505786216
0.03453427602005914 -0.06624971655703375
0.03443806063797356 -0.05026870114449846
0.03436085926896614 -0.034167338679868986
0.034331892441977416 -0.018031262084953262
0.034369728281789885 -0.002041453490687239
0.05279316858371621 -0.002076306103775844
0.05281805881033087 -0.018049033949482166
0.05278018160109968 -0.03416364111842508
0.05268586548144758 -0.050255609926379216
0.052558857423947294 -0.06623431161965668
0.052407752512822994 -0.08204386965893667
0.052231255937910566 -0.09764050179014842
0.052026108358173506 -0.1129835668995681
0.05178900756012369 -0.1280333859430523
0.051515445522053754 -0.14275159824434994
0.05119973367476582 -0.15709766272088088
0.05083430746917371 -0.17101277022281125
0.05040679732984795 -0.1844135750064533
0.049900727282849104 -0.19720249566544196
0.04929520245187831 -0.20925937388989513
0.04855262894036753 -0.22041741830150827
0.047572773053943626 -0.230439913170079
0.04626461384458694 -0.2390170359625361
0.04465427321722569 -0.24574144450164567
0.04297371059685039 -0.2501223926286655
0.04160557288543752 -0.2517697909966567
0.04023743517402478 -0.25012239262866265
0.038556872553649965 -0.2457414445016394
0.03694653192628945 -0.239017035962528
0.035638372716933354 -0.23043991317007056
0.03465851683050972 -0.22041741830150013
0.03391594331899901 -0.20925937388988727
0.033310418488028286 -0.19720249566543444
0.0328043484410295 -0.18441357500644634
0.032376838301703764 -0.1710127702228049
0.03201141209611166 -0.15709766272087522
0.03169570024882371 -0.14275159824434483
0.03142213821075377 -0.1280333859430477
0.03118503741270396 -0.112983566899564
0.030979889832966907 -0.09764050179014486
0.03080339325805449 -0.08204386965893382
0.030652288346930203 -0.06623431161965436
0.03052528028942992 -0.05025560992637757
0.03043096416977783 -0.034163641118423974
0.03039308696054663 -0.018049033949481656
0.0304179771871613 -0.0020763061037759882
0.05674727039654074 -0.002101037826457209
0.05676021604474167 -0.01806301517850614
0.05671290291996261 -0.03415851528601087
0.0566016732079873 -0.05024047226849472
0.05644467152619888 -0.06621527693000998
0.05624980420674453 -0.0820224176609443
0.05601700880527251 -0.0976162384419202
0.055744202674050745 -0.11295575294655696
0.05542860190758745 -0.1280010592938087
0.05506509448774799 -0.14271364053338104
0.05464648054642503 -0.15705393726249395
0.054162253371775916 -0.17096290060314687
0.05359591754653639 -0.18435524009261844
0.05292795619829158 -0.19713427992244303
0.05212619665588867 -0.20917664507336203
0.05111548388768725 -0.22029529838208584
0.04977587466962101 -0.23024779645463564
0.04798548982560429 -0.2387421529378875
0.04576393755657795 -0.24541717421843703
0.04343932090507963 -0.249849739959362
0.041605572885437356 -0.25165480888677255
0.03977182486579536 -0.24984973995935933
0.03744720821429779 -0.24541717421843093
0.03522565594527221 -0.23874215293787954
0.03343527110125602 -0.2302477964546273
0.03209566188319007 -0.22029529838207768
0.031084949114988745 -0.20917664507335418
0.030283189572585918 -0.19713427992243557
0.0296152282243412 -0.18435524009261145
0.029048892399101706 -0.17096290060314054
0.028564665224452605 -0.15705393726248829
0.02814605128312963 -0.14271364053337593
0.027782543863290148 -0.1280010592938041
0.027466943096826853 -0.11295575294655287
0.027194136965605107 -0.09761623844191664
0.0269613415641331 -0.08202241766094144
0.026766474244678765 -0.06621527693000766
0.026609472562890358 -0.05024047226849307
0.02649824285091505 -0.03415851528600976
0.026450929726135986 -0.01806301517850562
0.02646387537433691 -0.0021010378264573536
0.060705294946686764 -0.00211721766538696
0.060707586302169304 -0.018073205675473977
0.06065070271656962 -0.03415170146491346
0.06052279671078063 -0.05022328408477537
0.06033634770688944 -0.06619271388120845
0.06009809684046037 -0.08199583155353095
0.05980913363551969 -0.09758542456181532
0.05946869261315277 -0.1129201547634015
0.05907493254551317 -0.12795974032298654
0.05862259996370148 -0.14266524247074144
0.058103164441590006 -0.15699839801788146
0.05750331895531243 -0.1708995856604197
0.056802226418925246 -0.18428242296077801
0.05596987142563534 -0.19704483778100068
0.05495146290371385 -0.20905358381905234
0.05365508339073516 -0.22011110535631
0.05194827425938603 -0.22996651437647136
0.0496792621878146 -0.23834340087200018
0.046849810733663524 -0.24494418842662186
0.043876926921747 -0.24944510419000795
0.04160557288543739 -0.25149910591007446
0.0393342188491282 -0.24944510419000554
0.03636133503721265 -0.244944188426616
0.033531883583062264 -0.23834340087199224
0.03126287151149116 -0.2299665143764631
0.029556062380142252 -0.22011110535630188
0.028259682867163655 -0.2090535838190445
0.027241274345242258 -0.19704483778099316
0.026408919351952494 -0.18428242296077108
0.02570782681556535 -0.17089958566041336
0.025107981329287776 -0.15699839801787582
0.02458854580717627 -0.1426652424707363
0.02413621322536456 -0.1279597403229819
0.02374245315772497 -0.11292015476339742
0.023402012135358058 -0.09758542456181174
0.023113048930417403 -0.08199583155352812
0.022874798063988348 -0.06619271388120614
0.022688349060097174 -0.05022328408477372
0.02256044305430819 -0.03415170146491236
0.022503559468708502 -0.018073205675473457
0.022505850824191043 -0.002117217665387104
0.06466845609934149 -0.002126478721406816
0.0646617620772698 -0.01807974161493297
0.06459573433010066 -0.0341430511758647
0.06445156874457256 -0.050204038484240744
0.06423598674596555 -0.06616667011821781
0.06395445033425054 -0.08196414233939711
0.06360929696747307 -0.09754806739261344
0.06320114619762329 -0.11287678684417216
0.06272945238529982 -0.12790959944815772
0.0621897625906323 -0.14260669891347638
0.06157194615098188 -0.15693160359505123
0.060861346742772826 -0.17082378714439736
0.06002024411844877 -0.18418963954052828
0.05901091512999033 -0.19692227648529578
0.05776328424229125 -0.2088801821546303
0.05617015861880627 -0.21985768274938763
0.05409325489406627 -0.22959331759456525
0.0513630764822673 -0.2378206104649147
0.047945655576215974 -0.24431913845090084
0.04431485679231246 -0.248898979489097
0.04160557288543756 -0.2513095878301789
0.03889628897856316 -0.24889897948909487
0.03526549019466079 -0.24431913845089517
0.03184806928860997 -0.23782061046490685
0.02911789087681114 -0.22959331759455703
0.027040987152071285 -0.21985768274937956
0.025447861528586378 -0.20888018215462245
0.024200230640887388 -0.19692227648528834
0.023190901652429107 -0.18418963954052137
0.022349799028105112 -0.17082378714439106
0.021639199619896042 -0.1569316035950456
0.02102138318024558 -0.14260669891347122
0.020481693385578044 -0.12790959944815308
0.020009999573254583 -0.11287678684416806
0.019601848803404823 -0.09754806739260988
0.01925669543662737 -0.08196414233939427
0.018975159024912383 -0.0661666701182155
0.018759577026305388 -0.0502040384842391
0.018615411440777288 -0.03414305117586359
0.018549383693608156 -0.018079741614932452
0.018542689671536477 -0.0021264787214069604
0.06863751013027866 -0.0021305453388417266
0.06862403683448622 -0.01808289365537003
0.0685501207379987 -0.034132560029716555
0.06839040325240846 -0.050182737202571194
0.0681457392437952 -0.06613713559812477
0.06782070475215617 -0.08192733205384624
0.06741915727617623 -0.09750415961943716
0.06694316924801287 -0.1128256189181095
0.06639346718434144 -0.12785082860844377
0.06576787973797393 -0.14253827427756535
0.06505689862270543 -0.1568551016159863
0.06423277682877644 -0.17073320718817533
0.06324065932588602 -0.18406896196433709
0.062046039490162914 -0.19675998775322173
0.06056174244836324 -0.20865093553011835
0.05866428782945862 -0.21953027755079688
0.0562132640966086 -0.22912838315444653
0.05304729663014063 -0.2371798437435135
0.04908460313739593 -0.24354322513400578
0.04478449340240649 -0.2481979029641889
0.041605572885437786 -0.2510887966410133
0.038426652368469615 -0.24819790296418703
0.03412654263348132 -0.24354322513400037
0.03016384914073704 -0.23717984374350565
0.026997881674269055 -0.2291283831544384
0.024546857941419094 -0.2195302775507888
0.022649403322514527 -0.20865093553011052
0.021165106280714933 -0.19675998775321435
0.019970486444991997 -0.18406896196433023
0.018978368942101708 -0.17073320718816898
0.018154247148172615 -0.15685510161598065
0.017443266032904078 -0.14253827427756022
0.016817678586536565 -0.12785082860843916
0.01626797652286514 -0.1128256189181054
0.01579198849470181 -0.09750415961943358
0.015390441018721895 -0.08192733205384338
0.01506540652708289 -0.06613713559812245
0.014820742518469642 -0.05018273720256955
0.014661025032879416 -0.03413256002971544
0.014587108936391889 -0.01808289365536951
0.014573635640599455 -0.0021305453388418727
0.07261257204422551 -0.0021312363167175657
0.07259535703069386 -0.018083101530168424
0.07251607561677269 -0.03412041077842039
0.07234184443837616 -0.05015938439632114
0.07206778528603468 -0.0661040305853137
0.07169869916141429 -0.08188533571432843
0.07124036675886493 -0.09745365718268559
0.07069635667696578 -0.11276666598808237
0.07006832410753204 -0.12778326291463415
0.06935774973629351 -0.14246133099178196
0.06855931129305776 -0.156767109348307
0.06760544696233908 -0.17061841189204377
0.06645996559392141 -0.18391646174767878
0.06507512608500751 -0.19655381339055342
0.06334877113505329 -0.2083626522375322
0.06114324958529997 -0.2191252890161556
0.05831135363664048 -0.2285714834720043
0.0547295755410032 -0.23643246778613977
0.050297929208813055 -0.2426247223395595
0.04533219843450325 -0.24732440183980045
0.041605572885437946 -0.2508298290134654
0.03787894733637321 -0.24732440183979884
0.032913216562064515 -0.24262472233955434
0.028481570229874752 -0.23643246778613192
0.02489979213423735 -0.22857148347199616
0.0220678961855779 -0.21912528901614756
0.019862374635824624 -0.2083626522375244
0.018136019685870478 -0.19655381339054603
0.016751180176956742 -0.18391646174767196
0.015605698808539258 -0.17061841189203739
0.014651834477820406 -0.15676710934830135
0.013853396034584619 -0.14246133099177682
0.013142821663346085 -0.12778326291462952
0.012514789093912364 -0.11276666598807826
0.011970779012013256 -0.09745365718268201
0.01151244660946392 -0.08188533571432556
0.011143360484843564 -0.06610403058531138
0.010869301332502098 -0.05015938439631949
0.01069507015410556 -0.03412041077841926
0.010615788740184397 -0.0180831015301679
0.010598573726652755 -0.0021312363167177153
0.07659278740226566 -0.0021304297339761274
0.07657626829177713 -0.018081075685514463
0.07649612945442147 -0.03410702563469155
0.07630860425049359 -0.05013394820450717
0.07600430149169646 -0.06606719267793203
0.07559025557093729 -0.08183803672993553
0.07507455878219581 -0.09739649602643423
0.074462302799331 -0.11269992539932977
0.07375528516920782 -0.12770662925072465
0.07296132382739116 -0.14237741958455002
0.07206954135550508 -0.15666383854707722
0.07097935728104432 -0.17047556127055044
0.06967793896748403 -0.18372956641990915
0.06809958334968289 -0.1963011166332787
0.0661271227702777 -0.20801308054371762
0.06361135990330469 -0.21864119847255917
0.06039821965142202 -0.22791911880057933
0.05639171530240241 -0.23559107438440088
0.0515982943821063 -0.2415870339301418
0.04605052881075219 -0.24626101190065763
0.041605572885438015 -0.25050178940330237
0.037160616960124404 -0.24626101190065622
0.03161285138877126 -0.2415870339301369
0.026819430468475583 -0.235591074384393
0.022812926119455915 -0.2279191188005712
0.019599785867573324 -0.21864119847255112
0.017084023000600343 -0.20801308054370982
0.01511156242119526 -0.19630111663327132
0.013533206803394253 -0.18372956641990237
0.012231788489834186 -0.17047556127054403
0.011141604415373317 -0.1566638385470715
0.010249821943487027 -0.14237741958454495
0.009455860601670439 -0.12770662925072002
0.00874884297154729 -0.11269992539932568
0.008136586988682514 -0.09739649602643065
0.007620890199941066 -0.08183803672993269
0.007206844279181921 -0.06606719267792972
0.006902541520384812 -0.05013394820450553
0.0067150163164569395 -0.03410702563469042
0.006634877479101266 -0.018081075685513936
0.006618358368612744 -0.002130429733976278
0.08057573466217822 -0.0021299601945498096
0.08056688223344195 -0.01807803409823164
0.08049358240389332 -0.034093107542652705
0.08029348971417144 -0.050106269507895665
0.07995745879079046 -0.06602636851549065
0.07949711797369197 -0.08178527769242831
0.078923438407326 -0.09733257397576879
0.07824227967955069 -0.1126253757576591
0.07745683442203344 -0.12762088881223665
0.07657550618101124 -0.14228578541784737
0.0755769487118263 -0.15653740409136285
0.07435442438556644 -0.17030411500645087
0.07289636882655479 -0.18350606478767778
0.07112126814145185 -0.19600014417997744
0.0689000126898775 -0.2076005460482398
0.06607202408483016 -0.21807730791734642
0.06248135817504745 -0.2271706463328436
0.05804793199526663 -0.23465045343885085
0.05288005683066296 -0.24048475595474988
0.0471768485438794 -0.24501363243318572
0.04160557288543804 -0.25
0.036034297226996796 -0.2450136324331845
0.030331088940214034 -0.2404847559547452
0.025163213775611135 -0.23465045343884308
0.0207297875958305 -0.22717064633283549
0.01713912168604794 -0.21807730791733837
0.014311133081000654 -0.20760054604823203
0.01208987762942643 -0.19600014417997008
0.010314776944323627 -0.18350606478767106
0.008856721385312176 -0.17030411500644455
0.007634197059052356 -0.15653740409135694
0.006635639589867048 -0.14228578541784226
0.005754311348844942 -0.12762088881223202
0.004968866091327737 -0.112625375757655
0.004287707363552464 -0.0973325739757652
0.003714027797186531 -0.08178527769242547
0.0032536869800880715 -0.06602636851548832
0.002917656056707115 -0.05010626950789402
0.0027175633669852305 -0.03409310754265158
0.0026442635374365952 -0.01807803409823112
0.0026354111087003437 -0.0021299601945499592
SCALARS Stress float 6
LOOKUP_TABLE default
-148.59816761290523 -741.7961199278197 -303.69563795273723 7.282492801274647 0.0 0.0
410.92014378348085 213.90826588954343 191.81717288499294 -40.05086074335509 0.0 0.0
205.14495019004372 -20.12675537495155 55.50545844452762 -12.030538573291746 0.0 0.0
212.3925092057873 16.272728815855103 68.59957140649269 -1.6921907287722981 0.0 0.0
244.30835025368205 5.855944972101335 75.049288567735 -4.121557026949856 0.0 0.0
294.1714225991869 8.351866863613319 90.75698683884006 -4.2222922513907335 0.0 0.0
349.90487400137914 8.510136729444065 107.28127494946071 -4.358929004213515 0.0 0.0
409.41217728009144 8.803918614901571 124.604595783767 -4.634175277864433 0.0 0.0
453.3049973338684 15.41637545396837 143.20886833215826 -5.5843008844037545 0.0 0.0
502.76989586720026 41.85348527430266 171.41157573158006 -1.5025006641998475 0.0 0.0
533.8037266074173 32.15722203040873 189.83879460607358 0.6485800838849372 0.0 0.0
569.9972252940347 32.894589010998196 215.36644377343754 -0.34195007559782775 0.0 0.0
611.0031633438442 45.691262515721164 247.93625757643113 -0.03017029110166547 0.0 0.0
653.6602691462274 58.441760281115904 283.75016642243963 0.09610592516595506 0.0 0.0
699.7546717865487 73.54695853383132 323.1560316254044 -0.1297397185108169 0.0 0.0
745.4250210625906 88.59066359761432 361.9274019667854 -0.618210301496207 0.0 0.0
786.344018072982 101.26019591991457 395.7568039800112 -1.1769127100865862 0.0 0.0
820.1031480854318 111.25422389774282 422.7640596110872 -1.5435361512471824 0.0 0.0
846.9406433556976 120.47093096228929 443.94254716449984 -1.5093500628577456 0.0 0.0
866.243430320892 129.14454671188815 459.43163663358075 -0.9647719583483809 0.0 0.0
873.520078549496 132.91317680355172 465.372476382674 1.2863488052516914e-11 0.0 0.0
866.2434303210052 129.14454671201707 459.43163663369063 0.9647719583883143 0.0 0.0
846.9406433557801 120.47093096238324 443.94254716457743 1.509350062896778 0.0 0.0
820.1031480853977 111.25422389771083 422.764059611055 1.5435361512787429 0.0 0.0
786.344018072962 101.26019591988147 395.7568039799891 1.17691271010845 0.0 0.0
745.425021062674 88.59066359770361 361.92740196686117 0.6182103014912723 0.0 0.0
699.7546717864805 73.54695853376731 323.1560316253468 0.12973971852375143 0.0 0.0
653.660269146314 58.441760281230216 283.75016642250955 -0.09610592515534222 0.0 0.0
611.0031633438587 45.69126251575224 247.93625757644062 0.030170291109867797 0.0 0.0
569.9972252940763 32.89458901106726 215.3664437734692 0.3419500756001481 0.0 0.0
533.8037266072399 32.15722203011399 189.8387946059388 -0.6485800838134974 0.0 0.0
502.76989586727876 41.853485274373625 171.4115757316342 1.5025006641367646 0.0 0.0
453.30499733386404 15.416375454029044 143.2088683321702 5.584300884396024 0.0 0.0
409.41217728008564 8.803918614931886 124.60459578377453 4.6341752778865155 0.0 0.0
349.9048740013617 8.510136729446252 107.28127494945637 4.358929004202138 0.0 0.0
294.17142259917773 8.351866863632765 90.75698683884315 4.2222922514016386 0.0 0.0
244.30835025365405 5.855944972047212 75.04928856771036 4.121557026941835 0.0 0.0
212.3925092057902 16.272728815879283 68.59957140650084 1.6921907287760058 0.0 0.0
205.14495019004815 -20.126755374947347 55.50545844453021 12.030538573281186 0.0 0.0
410.92014378356043 213.90826588956946 191.81717288502722 40.05086074334535 0.0 0.0
-148.59816761291944 -741.7961199278424 -303.6956379527621 -7.282492801273621 0.0 0.0
-197.09130534848248 -763.6335167806141 -315.9893712303725 3.781034278727226 0.0 0.0
247.4896520229226 148.0136747565818 122.44297622376874 -28.085003729569436 0.0 0.0
144.26890968457127 -21.726536766976146 36.762711875278534 -8.326714986077972 0.0 0.0
189.65906820245038 7.344402102687961 59.1010410915415 -6.945669517501496 0.0 0.0
217.1556228169324 0.8963714948334811 65.41559829352975 -9.971592602629174 0.0 0.0
262.4216004271881 0.7276673893691517 78.94478034496716 -11.2780458917214 0.0 0.0
311.0321719814443 0.2584844442507696 93.41117730211928 -11.85063671769441 0.0 0.0
363.66296931928736 -0.8933223643448674 108.35732488803934 -11.950825783076 0.0 0.0
415.45733962119886 -5.524921726906948 121.5981757433311 -12.173805437285425 0.0 0.0
455.4116446126638 14.494710707149098 144.2764166938077 -9.223180323682813 0.0 0.0
492.0896324993115 9.402639699378474 162.7334650119705 -4.647743203457875 0.0 0.0
524.5908862041973 1.9970046332972964 182.4787715041774 -7.5504215980508755 0.0 0.0
559.5497443091655 6.9865931525849 208.2327539241681 -7.9012798198786385 0.0 0.0
592.8266055159378 9.497074355430088 234.74756827722754 -8.819109162183935 0.0 0.0
627.4438329551269 12.40490007132901 262.9154153902658 -10.018499012427519 0.0 0.0
660.6857827841388 14.366120299475416 289.3834747390329 -10.984471514845097 0.0 0.0
689.279638252375 14.116019015846776 310.8068950822346 -11.29297215892892 0.0 0.0
710.7281763327516 11.349451686904906 325.40123636233113 -10.501379033262268 0.0 0.0
725.3288919669759 8.110732309621655 334.40765132521216 -8.301695491788728 0.0 0.0
734.696111482033 6.822391697893333 340.14767010528664 -4.673847106918043 0.0 0.0
737.8919601602873 6.528975267993248 342.12141889297965 2.4287238886699924e-11 0.0 0.0
734.6961114820447 6.822391697925533 340.14767010530477 4.673847106993471 0.0 0.0
725.3288919670564 8.110732309714777 334.4076513252879 8.30169549186769 0.0 0.0
710.728176332794 11.349451686946223 325.4012363623676 10.501379033325613 0.0 0.0
689.2796382523717 14.116019015824982 310.80689508222724 11.292972158960488 0.0 0.0
660.6857827842053 14.366120299546159 289.38347473909346 10.984471514842715 0.0 0.0
627.4438329550782 12.404900071287425 262.9154153902268 10.018499012445083 0.0 0.0
592.8266055160003 9.497074355519548 234.74756827727768 8.819109162199954 0.0 0.0
559.5497443091737 6.986593152615205 208.23275392417312 7.901279819878919 0.0 0.0
524.5908862041925 1.9970046332949183 182.4787715041735 7.55042159804933 0.0 0.0
492.08963249924227 9.402639699228901 162.73346501191358 4.647743203516839 0.0 0.0
455.41164461276077 14.494710707281168 144.2764166938777 9.223180323636122 0.0 0.0
415.457339621201 -5.524921726849365 121.59817574334872 12.173805437295139 0.0 0.0
363.6629693192975 -0.8933223642983164 108.35732488805655 11.950825783089766 0.0 0.0
311.0321719814378 0.25848444427420936 93.41117730212439 11.85063671768214 0.0 0.0
262.42160042718956 0.7276673894011607 78.94478034497718 11.278045891724037 0.0 0.0
217.15562281691484 0.89637149479664 65.41559829351344 9.971592602617928 0.0 0.0
189.65906820244757 7.344402102694057 59.10104109154249 6.945669517503644 0.0 0.0
144.26890968456527 -21.72653676697489 36.76271187527713 8.326714986071277 0.0 0.0
247.48965202300298 148.013674756616 122.44297622380756 28.085003729577675 0.0 0.0
-197.09130534857766 -763.6335167807667 -315.98937123048086 -3.7810342787281943 0.0 0.0
-160.55822441362662 -666.3244211986557 -256.11780739321046 -43.80552040175926 0.0 0.0
151.0089256425015 89.9314860090477 73.36102275551684 -45.178483532677205 0.0 0.0
108.8368592636442 3.471028838395626 33.69236643061194 -5.657683551289218 0.0 0.0
158.1953140857417 1.1051247976716487 47.790131665024006 -16.06050630560146 0.0 0.0
193.26800492588654 2.8429075090563733 58.833273730482865 -19.84024611268162 0.0 0.0
232.89723685560347 0.6934425941864513 70.07720383493697 -22.71585011973641 0.0 0.0
276.79156484868815 0.3974326197351088 83.15669924052695 -23.846489686002002 0.0 0.0
321.85765693451884 0.08655078932380639 96.59722367751 -24.095143739768286 0.0 0.0
369.11635115139507 -2.6376849222197682 109.29241057719798 -23.95616596063899 0.0 0.0
415.86264209329227 0.21893482354017368 124.50986375039415 -20.880533417902654 0.0 0.0
463.1766201906373 7.369307852191142 146.16851646738107 -11.726069447587392 0.0 0.0
499.2044817557125 2.453465630495507 166.30646254909777 -15.51239934679126 0.0 0.0
536.5712838456079 5.633316893377847 191.46520357541547 -15.809400438481509 0.0 0.0
571.9852038684238 8.624550242991894 218.59077875307133 -17.30455682267153 0.0 0.0
607.552071231304 10.982774010260458 247.33592317076932 -19.402359883513512 0.0 0.0
641.7140258991511 12.511709040650096 274.8531858728548 -21.252010365929003 0.0 0.0
671.0293332950575 11.790651991947334 297.26346084983305 -22.014707002154097 0.0 0.0
692.8771453300673 8.430296540299244 312.42876022475417 -20.6828730348241 0.0 0.0
707.9945882106692 4.984492189158004 321.96159679357083 -16.468417178850366 0.0 0.0
718.4830785920277 4.394845301415509 328.71214160529587 -9.299723089565463 0.0 0.0
722.0967111174289 4.377727532161205 331.05971355525804 4.856293145394375e-11 0.0 0.0
718.4830785920319 4.394845301450444 328.7121416053116 9.29972308970586 0.0 0.0
707.9945882107387 4.984492189248563 321.9615967936394 16.468417179011322 0.0 0.0
692.8771453300756 8.430296540310112 312.4287602247628 20.68287303494544 0.0 0.0
671.0293332950117 11.790651991878743 297.26346084978826 22.014707002199607 0.0 0.0
641.7140258992091 12.511709040713146 274.85318587290783 21.252010365934286 0.0 0.0
607.5520712313061 10.982774010276472 247.33592317077287 19.40235988353609 0.0 0.0
571.9852038684447 8.62455024303932 218.59077875308878 17.304556822693744 0.0 0.0
536.5712838456399 5.633316893447569 191.4652035754385 15.809400438490702 0.0 0.0
499.20448175564707 2.4534656303926745 166.3064625490474 15.512399346804685 0.0 0.0
463.1766201906572 7.369307852161265 146.1685164673856 11.726069447602821 0.0 0.0
415.86264209334706 0.21893482363229566 124.50986375043728 20.880533417865493 0.0 0.0
369.1163511514095 -2.6376849221674803 109.29241057721839 23.956165960638707 0.0 0.0
321.85765693451657 0.08655078934683269 96.59722367751638 24.095143739769988 0.0 0.0
276.79156484869713 0.39743261978076483 83.15669924054336 23.846489685995202 0.0 0.0
232.8972368555888 0.693442594182929 70.07720383493151 22.715850119731893 0.0 0.0
193.26800492587984 2.8429075090619182 58.83327373048253 19.84024611267731 0.0 0.0
158.19531408574053 1.1051247976679437 47.790131665022535 16.060506305594057 0.0 0.0
108.83685926364174 3.4710288383885852 33.692366430609084 5.657683551288766 0.0 0.0
151.00892564256145 89.93148600907469 73.36102275554491 45.17848353269051 0.0 0.0
-160.55822441360968 -666.3244211987197 -256.1178073932393 43.8055204017053 0.0 0.0
-133.04419060879985 -587.9437992939344 -213.77322779813778 -69.45006426503073 0.0 0.0
91.73714717261977 39.93000718504372 39.16210573620536 -55.8614301828851 0.0 0.0
79.811032383544 16.31927964863411 28.83909360965343 -17.035980659147324 0.0 0.0
128.2993893061587 2.4946137957749555 39.23820093058009 -23.107216240155683 0.0 0.0
167.08435839935183 3.01515027720073 51.029852602965754 -29.520998697246046 0.0 0.0
203.43239381972947 1.348997246362109 61.434417319827475 -32.78939042927392 0.0 0.0
242.14671977654857 0.5025053191281386 72.79476752870299 -34.419852777934615 0.0 0.0
281.8252100338309 0.0013404823250579428 84.54192516359355 -34.88465329734224 0.0 0.0
322.3335473196019 -0.393310550453906 96.63189149212857 -34.33923607712765 0.0 0.0
368.20604380661223 -4.809568103823373 108.28704266056589 -32.31349174589789 0.0 0.0
423.0115106741507 -1.21403639485633 126.14521983331139 -24.803855439526505 0.0 0.0
465.87718448245835 6.197578288752883 149.5415155308891 -22.73903472047441 0.0 0.0
507.8037399878841 4.251245547245107 172.25384479964612 -23.591217374989686 0.0 0.0
546.7922222740586 8.092462004557632 199.89768183108683 -25.358484396926283 0.0 0.0
584.027265348482 9.899590643859433 229.20325247044465 -28.319394549787837 0.0 0.0
619.6020266228646 11.042099868180635 258.0031484685407 -31.30445975423941 0.0 0.0
649.9674285122392 9.824346070110057 281.7232556549733 -32.76433354191142 0.0 0.0
672.4951840207675 5.716967728864025 297.7301496110272 -30.95009446277037 0.0 0.0
688.2585573469881 1.6408972108719617 307.8022262257299 -24.626064338173173 0.0 0.0
699.7872338135311 1.163099250047193 315.31977166167997 -13.855414643149963 0.0 0.0
703.6642622871263 1.0590393810610799 317.8246374140232 8.29691870762872e-11 0.0 0.0
699.7872338135768 1.1630992501373534 315.3197716617378 13.855414643358051 0.0 0.0
688.25855734706 1.640897210979917 307.802226225806 24.626064338402106 0.0 0.0
672.4951840208228 5.7169677289387195 297.73014961108254 30.950094462935304 0.0 0.0
649.9674285121903 9.824346070045923 281.7232556549293 32.764333541980825 0.0 0.0
619.6020266228727 11.042099868188275 258.00314846855173 31.304459754254566 0.0 0.0
584.027265348505 9.89959064389964 229.20325247046537 28.319394549810834 0.0 0.0
546.7922222740249 8.092462004542107 199.89768183106287 25.358484396937143 0.0 0.0
507.8037399879182 4.251245547326055 172.25384479967272 23.59121737500017 0.0 0.0
465.8771844823962 6.197578288649382 149.54151553084003 22.7390347204902 0.0 0.0
423.0115106742417 -1.2140363947401167 126.14521983337357 24.80385543950012 0.0 0.0
368.2060438066098 -4.809568103874854 108.2870426605492 32.31349174589184 0.0 0.0
322.3335473196225 -0.3933105504126193 96.63189149214733 34.33923607712208 0.0 0.0
281.82521003381413 0.001340482309441171 84.54192516358388 34.884653297351996 0.0 0.0
242.14671977654262 0.5025053191346182 72.79476752870319 34.41985277793277 0.0 0.0
203.43239381972828 1.348997246374377 61.434417319830814 32.78939042926569 0.0 0.0
167.0843583993523 3.015150277217241 51.02985260297086 29.52099869725248 0.0 0.0
128.29938930616294 2.4946137957879517 39.238200930585265 23.107216240151587 0.0 0.0
79.81103238354582 16.319279648617503 28.839093609648998 17.035980659142535 0.0 0.0
91.73714717263132 39.9300071850492 39.1621057362105 55.861430182891155 0.0 0.0
-133.04419060875077 -587.9437992938318 -213.77322779809253 69.45006426497332 0.0 0.0
-118.46823053730904 -496.87791432822917 -184.00636325828611 -71.91057018001885 0.0 0.0
55.95635937340969 -1.540856015690717 16.244603838589633 -65.11004226379464 0.0 0.0
56.869296857107884 20.665065984737716 23.260308852553674 -31.74915103618026 0.0 0.0
100.89039387331513 5.920963089078646 32.04340708871813 -31.51138662028365 0.0 0.0
140.1071860252718 3.5901214488128526 43.1091922422254 -38.130036036301604 0.0 0.0
173.66903954956234 1.9064558698347769 52.672648625819136 -41.78356252474815 0.0 0.0
207.39730812544204 0.7164616811328506 62.43413094197247 -43.5938208930972 0.0 0.0
241.74496239885326 0.07645988279089078 72.54642668449323 -44.205746666459106 0.0 0.0
277.5502549605682 -0.7118685960071894 83.0426396931482 -43.900535708449944 0.0 0.0
315.97801949690654 -3.8237268339861448 93.72543136098726 -42.39395311160143 0.0 0.0
366.70148036831944 -3.1960313136784473 108.33405729522964 -39.04509423606712 0.0 0.0
428.2241913516301 -1.8234239919019295 127.33807070915415 -34.492173133236555 0.0 0.0
468.09660137291905 4.338270086110642 150.79759604667348 -31.94730604103269 0.0 0.0
514.5389183865069 7.471646047540085 177.82090985335336 -32.9941123807095 0.0 0.0
555.2018958990366 9.170889124044635 207.66166114503764 -36.52603179656562 0.0 0.0
593.0519926473186 9.926522877115056 237.90323795954606 -40.827883320633205 0.0 0.0
625.0528107714088 8.196425239547864 263.37105051032216 -43.30397465551822 0.0 0.0
648.6951464389387 3.184308844320052 280.63211758970283 -41.233669902209705 0.0 0.0
665.3900663977217 -1.9092753395402133 291.40967431554395 -32.8647245122832 0.0 0.0
678.1112126513768 -2.7078481257945457 299.66324044855867 -18.482143500713214 0.0 0.0
682.2179512459779 -3.168143654693166 302.2242473366763 1.1149392520337642e-10 0.0 0.0
678.1112126515046 -2.7078481256021263 299.66324044869583 18.4821435009778 0.0 0.0
665.390066397744 -1.909275339460347 291.4096743155842 32.864724512567605 0.0 0.0
648.6951464389856 3.1843088444063916 280.63211758975825 41.2336699024133 0.0 0.0
625.0528107714106 8.196425239553456 263.3710505103246 43.303974655613 0.0 0.0
593.0519926473268 9.92652287713313 237.9032379595552 40.827883320654266 0.0 0.0
555.2018958990586 9.170889124087108 207.66166114505444 36.526031796581094 0.0 0.0
514.5389183864415 7.471646047491005 177.82090985330905 32.99411238071756 0.0 0.0
468.0966013729336 4.3382700861648615 150.7975960466864 31.94730604103816 0.0 0.0
428.2241913516325 -1.8234239918810404 127.33807070915982 34.49217313325445 0.0 0.0
366.70148036838765 -3.1960313135552276 108.33405729528683 39.045094236056194 0.0 0.0
315.9780194968998 -3.8237268340443724 93.72543136096773 42.3939531116047 0.0 0.0
277.55025496058386 -0.7118685959929245 83.04263969315713 43.90053570844094 0.0 0.0
241.74496239886358 0.07645988282348148 72.54642668450609 44.205746666464485 0.0 0.0
207.39730812542618 0.7164616811098699 62.4341309419608 43.593820893103825 0.0 0.0
173.66903954956211 1.9064558698509457 52.67264862582392 41.78356252474097 0.0 0.0
140.10718602527248 3.5901214488180253 43.10919224222714 38.130036036304766 0.0 0.0
100.89039387333334 5.920963089102272 32.04340708873068 31.511386620290956 0.0 0.0
56.8692968571151 20.665065984735136 23.260308852555063 31.749151036173863 0.0 0.0
55.956359373424846 -1.540856015675832 16.24460383859868 65.11004226378816 0.0 0.0
-118.46823053729422 -496.87791432821115 -184.0063632582766 71.9105701800126 0.0 0.0
-99.44059150900215 -419.03536815622726 -155.57791450161056 -68.87215808811811 0.0 0.0
32.267939702732576 -30.854132589221855 0.42884820637818155 -71.01018888714074 0.0 0.0
38.72336324324692 19.51521778051395 17.471574307128254 -46.0269227540021 0.0 0.0
76.27848689515864 9.155659726850052 25.6302439866026 -40.83683766280496 0.0 0.0
113.21843833001583 4.644729456214 35.35895033586894 -45.94939049329104 0.0 0.0
143.69125110186403 2.415291786704401 43.831962866570514 -49.60479598880248 0.0 0.0
172.58543101758545 0.9620537962952741 52.064245444164214 -51.42925086746358 0.0 0.0
201.6510498773061 0.1660690699990362 60.54513568419153 -52.13125333074126 0.0 0.0
232.05475599927485 -1.0192610128384394 69.31064849593092 -52.1354683491151 0.0 0.0
265.4066993772631 -3.898225713265468 78.44210811361584 -52.05009930007145 0.0 0.0
305.66278022149004 -2.9876751702537607 90.9370010977861 -51.10210679508666 0.0 0.0
359.82442718795653 -1.4447447311595756 106.82487523551042 -47.30445192496205 0.0 0.0
423.29897378566704 -3.7061778305583584 125.00804405578597 -45.26542131311897 0.0 0.0
468.66806761791395 7.10719922955441 152.0438933692739 -40.74961016489549 0.0 0.0
517.6221026797116 8.565115716611224 181.48382934930373 -43.8992470904081 0.0 0.0
559.6058001329918 8.97694604903608 213.06276836162857 -49.35951776084403 0.0 0.0
594.4226820387322 6.750090613620823 240.8158231768617 -53.16709904512229 0.0 0.0
620.0178081364505 0.7895794133889976 260.0410431388626 -51.257249275477335 0.0 0.0
638.2550618134 -5.569643580600452 272.0001708350847 -41.12690096052118 0.0 0.0
652.5666682404578 -7.02897758995564 281.1726693463871 -23.238850594777585 0.0 0.0
656.9086681899973 -8.143974511606565 283.72484551848515 1.2894219025838538e-10 0.0 0.0
652.5666682405886 -7.028977589740988 281.17266934653304 23.238850595075178 0.0 0.0
638.2550618133895 -5.5696435805265185 272.000170835105 41.12690096084225 0.0 0.0
620.0178081363682 0.7895794133626612 260.0410431388131 51.25724927570195 0.0 0.0
594.4226820387287 6.7500906136379974 240.81582317686278 53.167099045222464 0.0 0.0
559.6058001330258 8.976946049098526 213.0627683616591 49.35951776087514 0.0 0.0
517.6221026797318 8.565115716662245 181.4838293493188 43.89924709042465 0.0 0.0
468.6680676178519 7.107199229505094 152.04389336923276 40.749610164893085 0.0 0.0
423.29897378566096 -3.7061778304949495 125.00804405580045 45.26542131311176 0.0 0.0
359.82442718794454 -1.4447447311631882 106.82487523550596 47.30445192495422 0.0 0.0
305.6627802215167 -2.9876751702153075 90.93700109780562 51.10210679508429 0.0 0.0
265.406699377239 -3.8982257133587335 78.44210811358059 52.050099300084256 0.0 0.0
232.0547559992978 -1.019261012806642 69.31064849594736 52.13546834911333 0.0 0.0
201.6510498773373 0.1660690700732521 60.545135684223155 52.131253330737124 0.0 0.0
172.5854310175656 0.9620537962699076 52.06424544415066 51.429250867464766 0.0 0.0
143.6912511018494 2.415291786686086 43.83196286656063 49.604795988798976 0.0 0.0
113.21843833000887 4.644729456205147 35.3589503358642 45.949390493290245 0.0 0.0
76.27848689516112 9.15565972685312 25.63024398660427 40.83683766280673 0.0 0.0
38.723363243257225 19.515217780525468 17.471574307134805 46.02692275399605 0.0 0.0
32.26793970273662 -30.854132589217258 0.4288482063807679 71.01018888713936 0.0 0.0
-99.44059150899466 -419.0353681562168 -155.5779145016052 68.87215808811669 0.0 0.0
-81.01379412659843 -352.61003096234714 -130.08714752668362 -64.11821532091253 0.0 0.0
16.36963366015649 -49.69551794050034 -9.997765284103153 -73.91344969811027 0.0 0.0
24.024905592726913 15.348193422048936 11.811929704432753 -58.20687200267387 0.0 0.0
54.29759908621303 11.34598010365007 19.693073756958935 -50.15121011553167 0.0 0.0
86.94123116365779 5.86941451149701 27.84319370254644 -53.05940299876994 0.0 0.0
113.67861221791037 2.921770972922799 34.980114957249945 -56.235994683103016 0.0 0.0
137.74748398411785 1.2032650654356556 41.68522471486606 -57.93093017957695 0.0 0.0
161.4466034335963 0.2205360576554842 48.50014184737552 -58.66305429144599 0.0 0.0
186.19506946486408 -1.1045484693631247 55.52715629865028 -59.08871885480698 0.0 0.0
213.4990020379931 -3.5276495259035787 62.99140575362683 -60.1261087395498 0.0 0.0
246.66068269441348 -3.5309254223435254 72.92896797378754 -61.19243173487022 0.0 0.0
287.706259022829 -0.4454439366598911 86.34781183582554 -59.9504866255497 0.0 0.0
340.9443129368062 0.6136386608130462 102.10311152403892 -57.00846769164467 0.0 0.0
408.7775820077777 -3.6246555623786008 119.99815574771215 -55.30931749602561 0.0 0.0
461.37887623156985 8.119541007695597 149.67216115149245 -51.12460177465983 0.0 0.0
514.1778225293488 7.36984317443335 181.15068383551315 -56.57856331473186 0.0 0.0
554.2405200741099 4.936099247711148 211.58101889553117 -61.578415578157234 0.0 0.0
583.6177842169162 -1.7657693420258753 233.9052994525835 -60.30806043702686 0.0 0.0
604.7033691437492 -9.31722356078004 248.08712644960366 -48.993366683717944 0.0 0.0
621.4498230484477 -11.595317309692572 258.7393044288939 -27.999107349814686 0.0 0.0
626.0761368395467 -13.737512432947295 261.2674061317119 1.2317258324401337e-10 0.0 0.0
621.4498230485651 -11.595317309469143 258.7393044290318 27.99910735012159 0.0 0.0
604.7033691437573 -9.317223560659428 248.08712644964615 48.99336668404318 0.0 0.0
583.6177842167948 -1.7657693420695804 233.9052994525052 60.30806043724527 0.0 0.0
554.2405200740382 4.936099247661488 211.58101889547441 61.57841557823336 0.0 0.0
514.1778225293517 7.369843174472177 181.15068383551935 56.578563314746795 0.0 0.0
461.37887623159247 8.119541007763758 149.67216115151126 51.12460177467247 0.0 0.0
408.7775820077041 -3.6246555624339245 119.9981557476731 55.30931749601009 0.0 0.0
340.9443129367823 0.6136386608586739 102.10311152404671 57.00846769164214 0.0 0.0
287.70625902281427 -0.44544393668036264 86.3478118358149 59.95048662554983 0.0 0.0
246.66068269444418 -3.530925422295141 72.92896797381123 61.19243173487082 0.0 0.0
213.4990020379643 -3.5276495259896095 62.99140575359236 60.12610873956188 0.0 0.0
186.1950694648797 -1.1045484693418717 55.527156298661325 59.088718854812754 0.0 0.0
161.44660343361505 0.22053605768922346 48.500141847391276 58.6630542914416 0.0 0.0
137.74748398411035 1.20326506541824 41.68522471485857 57.9309301795744 0.0 0.0
113.67861221790457 2.921770972910055 34.98011495724439 56.23599468310207 0.0 0.0
86.94123116365482 5.869414511484366 27.84319370254176 53.059402998764526 0.0 0.0
54.29759908622251 11.345980103674542 19.693073756969117 50.15121011552856 0.0 0.0
24.024905592727663 15.348193422049755 11.811929704433224 58.206872002666536 0.0 0.0
16.369633660164837 -49.6955179404879 -9.997765284096916 73.91344969810532 0.0 0.0
-81.01379412659607 -352.6100309623402 -130.08714752668084 64.11821532090745 0.0 0.0
-65.287045653887 -294.85983486498117 -108.04406415566046 -58.79928889396712 0.0 0.0
5.507928974968701 -60.42480615622466 -16.47506315437679 -74.61358300784467 0.0 0.0
11.784476101458395 10.056028911491289 6.552151503884905 -67.6550671649204 0.0 0.0
34.54464963854893 12.327700056923012 14.061704908641579 -58.643782871499695 0.0 0.0
61.536529909032915 6.968411416742769 20.551482397732702 -59.34302851930275 0.0 0.0
83.80768326958045 3.40793395130231 26.16468516626482 -61.67174614984866 0.0 0.0
102.91191758686813 1.4095898394587425 31.296452227898055 -63.08674652929461 0.0 0.0
121.13313153367086 0.280117303699419 36.42397465121108 -63.803747176032616 0.0 0.0
139.9966892224843 -0.986438703251993 41.703075155769696 -64.61869299353745 0.0 0.0
160.84100228378225 -2.9224429925961113 47.375567787355834 -66.52937679564491 0.0 0.0
185.93618127392824 -3.1163597546454644 54.845946455784826 -69.04735470361757 0.0 0.0
217.39872620927352 -1.226066700993994 64.8445692112838 -70.28765861207319 0.0 0.0
255.98275023937552 -0.24097830781883078 76.79238145188833 -69.58674604444974 0.0 0.0
305.316675902494 1.369751577316801 92.09851280390036 -66.76001297056816 0.0 0.0
381.8133825895397 -3.8211794684862546 110.38507489712755 -66.01350935424091 0.0 0.0
441.5406667494026 3.334055935219826 139.7015833742542 -64.1751950048798 0.0 0.0
495.20314469067216 0.796461071291223 171.33943661650565 -68.23816660555927 0.0 0.0
532.6895945771395 -5.747049758045392 198.0305568124192 -67.1614975279112 0.0 0.0
559.7618044212452 -13.712104611969288 216.39149872557792 -55.30850092493122 0.0 0.0
580.979426508708 -16.346970779462783 229.94562392205546 -32.244823271705165 0.0 0.0
586.1202563547796 -19.92135538133599 232.6239784325056 9.453060556552373e-11 0.0 0.0
580.979426508796 -16.34697077925526 229.94562392217094 32.24482327196569 0.0 0.0
559.7618044212561 -13.71210461182533 216.3914987256206 55.3085009252154 0.0 0.0
532.6895945770816 -5.747049757990098 198.03055681238905 67.16149752808579 0.0 0.0
495.20314469054983 0.796461071203848 171.33943661641328 68.23816660561045 0.0 0.0
441.5406667493826 3.3340559352377896 139.70158337424544 64.17519500488633 0.0 0.0
381.8133825895171 -3.8211794684407665 110.38507489713434 66.013509354246 0.0 0.0
305.3166759024666 1.369751577337202 92.09851280389896 66.76001297055947 0.0 0.0
255.98275023935753 -0.2409783078157428 76.79238145188349 69.58674604444549 0.0 0.0
217.39872620927267 -1.2260667009829596 64.84456921128685 70.28765861207187 0.0 0.0
185.9361812739379 -3.116359754619654 54.84594645579548 69.0473547036124 0.0 0.0
160.84100228378657 -2.9224429926006685 47.37556778735576 66.52937679565743 0.0 0.0
139.99668922246804 -0.9864387032977275 41.70307515575108 64.61869299354157 0.0 0.0
121.13313153367444 0.2801173037101927 36.42397465121539 63.803747176028295 0.0 0.0
102.91191758686173 1.4095898394386461 31.296452227890097 63.086746529293336 0.0 0.0
83.80768326957194 3.4079339512881015 26.164685166258018 61.67174614985212 0.0 0.0
61.53652990903643 6.968411416748299 20.55148239773542 59.343028519294755 0.0 0.0
34.544649638564294 12.32770005694576 14.06170490865302 58.643782871499425 0.0 0.0
11.784476101469384 10.05602891151244 6.552151503894549 67.65506716491345 0.0 0.0
5.507928974970516 -60.42480615621713 -16.475063154373984 74.61358300784038 0.0 0.0
-65.28704565388685 -294.85983486497486 -108.04406415565852 58.7992888939632 0.0 0.0
-52.28009423020568 -244.58928071409085 -89.06081248328897 -53.59899198164527 0.0 0.0
-2.1883916892433635 -65.05815071535551 -20.173962721379652 -73.68619419688909 0.0 0.0
1.2713028709896028 4.829527243073506 1.8302490342189301 -74.29969851703495 0.0 0.0
16.5799567023651 12.284277639694679 8.65927030261793 -65.73769387396408 0.0 0.0
37.079780357552835 7.751279968100584 13.449318097696018 -64.59664869842277 0.0 0.0
54.209027472922934 3.819229114104695 17.408476976108286 -65.88014788815438 0.0 0.0
68.11719905198 1.5695734407054327 20.90603174780563 -66.88447275833457 0.0 0.0
80.73526678626698 0.356756844411926 24.327607089203664 -67.52948028155629 0.0 0.0
93.52566213092574 -0.7182913749254859 27.842211226800075 -68.62616574405378 0.0 0.0
107.58942409685665 -2.099587013642206 31.646951124964335 -71.16980975977694 0.0 0.0
124.4390427207935 -2.3006180628257047 36.64152739739033 -74.72989571668842 0.0 0.0
145.47142653083807 -1.0864655502320213 43.3154882941818 -77.41299642049816 0.0 0.0
171.62143599755998 -0.6139116579324853 51.300281543350124 -78.71672078585932 0.0 0.0
204.74001231772496 -0.3217304217538903 61.32975217697909 -78.9662739701722 0.0 0.0
248.00144109597193 3.596696898571931 75.77534819672765 -76.57724875695348 0.0 0.0
318.88500405910577 -1.191949912510648 93.28475006346845 -77.09514542074903 0.0 0.0
397.76967955720994 -15.01747967911308 114.61754110979199 -79.56359739795413 0.0 0.0
448.7612434274439 -14.570015297102291 145.15416069664082 -73.63893842694367 0.0 0.0
488.83255527474 -21.73491511576642 169.25061439568418 -59.80564742237432 0.0 0.0
520.5867503657395 -22.13895639256784 188.877117079347 -35.2605647592304 0.0 0.0
527.433897365696 -27.48581747895914 192.4221989647734 3.5644376339405426e-11 0.0 0.0
520.5867503657456 -22.13895639243021 188.8771170793938 35.260564759351986 0.0 0.0
488.8325552745704 -21.7349151158351 169.2506143955816 59.80564742254645 0.0 0.0
448.76124342737745 -14.570015297072043 145.1541606965932 73.63893842704351 0.0 0.0
397.76967955707175 -15.01747967911048 114.6175411097432 79.56359739795774 0.0 0.0
318.88500405901186 -1.1919499125735795 93.28475006342418 77.09514542074146 0.0 0.0
248.00144109594612 3.5966968985694736 75.77534819671894 76.57724875695222 0.0 0.0
204.74001231767394 -0.32173042181586053 61.329752176945085 78.96627397017193 0.0 0.0
171.62143599757735 -0.6139116578549393 51.3002815433786 78.7167207858407 0.0 0.0
145.47142653083702 -1.0864655502216745 43.315488294184604 77.41299642049071 0.0 0.0
124.4390427207995 -2.3006180628150825 36.64152739739532 74.72989571669191 0.0 0.0
107.58942409686554 -2.0995870136369836 31.646951124968563 71.16980975979936 0.0 0.0
93.52566213089861 -0.7182913749932216 27.842211226771614 68.62616574406825 0.0 0.0
80.73526678627461 0.3567568444227473 24.327607089209206 67.52948028155296 0.0 0.0
68.11719905198468 1.5695734406985429 20.906031747804963 66.88447275832733 0.0 0.0
54.20902747292708 3.8192291141103767 17.408476976111235 65.88014788814944 0.0 0.0
37.07978035754132 7.751279968070395 13.449318097683516 64.59664869841679 0.0 0.0
16.579956702359766 12.284277639675798 8.659270302610665 65.73769387395573 0.0 0.0
1.2713028709923124 4.829527243084765 1.8302490342231237 74.29969851702967 0.0 0.0
-2.188391689238521 -65.05815071534158 -20.17396272137403 73.68619419687991 0.0 0.0
-52.28009423020227 -244.5892807140852 -89.06081248328624 53.59899198164857 0.0 0.0
-41.73037716910957 -200.63989560720944 -72.71108183289569 -48.70017512833324 0.0 0.0
-7.917712664215071 -65.2904504560883 -21.962448936091008 -71.52676411305511 0.0 0.0
-8.04683175884422 0.3277161933704942 -2.3157346696421177 -78.3080193632072 0.0 0.0
0.0021235922899607296 11.512147579676311 3.4542813515898803 -71.0819696404508 0.0 0.0
13.534291396017979 8.137263277960065 6.501466402193413 -68.60351332444986 0.0 0.0
24.959018272138465 4.099935910432066 8.717686254771158 -68.80297163217536 0.0 0.0
33.40314879876959 1.6747221773417431 10.523361292833396 -69.30531921069043 0.0 0.0
40.28740065031359 0.4426419413988796 12.219012777513742 -69.81099748494331 0.0 0.0
46.86257888737585 -0.3502056630341902 13.953711967302494 -71.0528481102586 0.0 0.0
53.95192324171287 -1.1176854350765077 15.850271341990902 -73.97839972275347 0.0 0.0
62.39433952872255 -1.242314130328254 18.345607619518287 -78.14727565036951 0.0 0.0
72.92841962322883 -0.6306442593525958 21.68933260916287 -81.7051487655146 0.0 0.0
86.01775589299683 -0.39812907217286964 25.68588804624718 -84.10281625499972 0.0 0.0
102.58593819561086 -0.2033227536975062 30.71478463257401 -86.0388758296959 0.0 0.0
124.23618969402014 0.8334865696945353 37.50785671599066 -87.26585824164852 0.0 0.0
154.74255655289926 2.759992264014972 47.36742762915273 -85.67142246737275 0.0 0.0
204.70776144921558 -2.778503645689873 60.5370134610485 -86.45657371140277 0.0 0.0
288.0142820631879 -29.645840516090935 74.6289066531646 -84.89025067507151 0.0 0.0
355.64470030884013 -44.925195284876736 94.67899186226227 -65.36023596673246 0.0 0.0
403.3360561166998 -38.592319985519346 120.44568538331222 -40.652258268058404 0.0 0.0
416.7214766091459 -41.072446603928626 128.01320476411217 -1.3599787962448318e-11 0.0 0.0
403.33605611669736 -38.59231998537074 120.44568538335625 40.652258268054524 0.0 0.0
355.6447003086144 -44.92519528498833 94.67899186214575 65.36023596681399 0.0 0.0
288.014282062994 -29.64584051604764 74.62890665312347 84.8902506751282 0.0 0.0
204.7077614491094 -2.778503645672645 60.53701346102317 86.45657371138397 0.0 0.0
154.74255655286763 2.759992263993467 47.36742762913651 85.67142246736539 0.0 0.0
124.2361896939882 0.8334865696354454 37.507856715963385 87.26585824165483 0.0 0.0
102.58593819556916 -0.20332275377148368 30.7147846325393 86.03887582969395 0.0 0.0
86.01775589300813 -0.3981290721241295 25.68588804626519 84.10281625499742 0.0 0.0
72.92841962324033 -0.6306442593249066 21.68933260917462 81.70514876550277 0.0 0.0
62.39433952871206 -1.2423141303577563 18.345607619506282 78.14727565036895 0.0 0.0
53.95192324171458 -1.1176854350673595 15.850271341994162 73.9783997227726 0.0 0.0
46.86257888731746 -0.35020566316322677 13.953711967246269 71.05284811026806 0.0 0.0
40.28740065032325 0.4426419414213953 12.21901277752339 69.81099748494702 0.0 0.0
33.40314879879202 1.6747221773791066 10.523361292851336 69.30531921068572 0.0 0.0
24.959018272143 4.0999359104270505 8.717686254771012 68.80297163216457 0.0 0.0
13.53429139601687 8.13726327795044 6.501466402190193 68.60351332444318 0.0 0.0
0.002123592290954157 11.512147579667994 3.454281351587685 71.08196964044139 0.0 0.0
-8.046831758845801 0.3277161933725148 -2.315734669641986 78.30801936319725 0.0 0.0
-7.917712664215875 -65.29045045606888 -21.96244893608543 71.52676411304806 0.0 0.0
-41.730377169116366 -200.63989560721436 -72.71108183289923 48.70017512833371 0.0 0.0
-33.29042546530394 -162.08062605067934 -58.61131545479499 -44.08837016161711 0.0 0.0
-12.445150139350334 -62.46008519003772 -22.471570598816406 -68.38245095209416 0.0 0.0
-16.55101941478353 -3.1463632245170445 -5.90921479179017 -79.92324355019917 0.0 0.0
-15.526375772183838 10.302467115095755 -1.5671725971264245 -74.49492921552432 0.0 0.0
-9.19605202584519 8.125256300174163 -0.32123871770130885 -71.17352357242807 0.0 0.0
-3.914051533918429 4.212149774750294 0.08942947224955977 -70.36545929118104 0.0 0.0
-1.1986787909718926 1.7158680439649534 0.15515677589791932 -70.32360519248216 0.0 0.0
-0.17160198754768619 0.5222722467802177 0.1052010777697594 -70.62518710896649 0.0 0.0
0.10118507346090766 0.06792436083197129 0.05073283028786402 -71.86528428313767 0.0 0.0
0.1176886540661215 -0.05689224933779746 0.0182389214184977 -74.90938081823279 0.0 0.0
0.07921375528172625 -0.06197970096180594 0.005170216295975916 -79.2823281628571 0.0 0.0
0.04603438261854009 -0.0197107069355138 0.007897102704908843 -83.13092598324911 0.0 0.0
0.002008026770427662 0.06418720952416268 0.019858570888376725 -85.9094253125196 0.0 0.0
-0.25780391259998225 0.20478889128953304 -0.015904506393132678 -88.30783050099564 0.0 0.0
-1.0800486818395694 0.7450950078616128 -0.10048610219339071 -90.15111963877962 0.0 0.0
-1.482294089928434 1.8800311631585478 0.11933108073127308 -90.73403072865737 0.0 0.0
2.657836800192456 -1.7421148212866262 0.265471677250142 -89.55561150601052 0.0 0.0
22.71440498094371 -16.824293246204746 1.861827976145932 -92.4133507310947 0.0 0.0
72.76458453985478 -35.20849667053788 11.324189579076485 -80.62628169027646 0.0 0.0
150.78355866669432 -50.57159262876368 28.408947443413044 -49.97307449319331 0.0 0.0
178.64614066905642 -67.1086443519848 31.461095442090926 -3.5427660804998595e-11 0.0 0.0
150.78355866663162 -50.571592628739296 28.40894744340359 49.97307449316172 0.0 0.0
72.76458453978921 -35.20849667049514 11.324189579070516 80.62628169034072 0.0 0.0
22.71440498094026 -16.82429324606433 1.8618279761864933 92.41335073111172 0.0 0.0
2.6578368001568364 -1.7421148213203876 0.2654716772293817 89.55561150600394 0.0 0.0
-1.4822940899162287 1.8800311631716964 0.11933108073888121 90.73403072865096 0.0 0.0
-1.0800486818967343 0.745095007716066 -0.10048610225419985 90.15111963878606 0.0 0.0
-0.25780391259795543 0.2047888912927116 -0.01590450639157437 88.307830500992 0.0 0.0
0.0020080267648481254 0.0641872095034759 0.019858570880496362 85.90942531251144 0.0 0.0
0.046034382602273105 -0.019710706986382664 0.007897102684766732 83.13092598323796 0.0 0.0
0.07921375530385255 -0.061979700922045966 0.0051702163145428415 79.2823281628514 0.0 0.0
0.11768865408635776 -0.05689224929385772 0.018238921437750744 74.90938081824731 0.0 0.0
0.10118507343851402 0.0679243607865101 0.050732830267506746 71.86528428314034 0.0 0.0
-0.1716019875319148 0.5222722468213148 0.10520107778681975 70.62518710897776 0.0 0.0
-1.1986787909795922 1.7158680439450953 0.15515677588965127 70.32360519248112 0.0 0.0
-3.914051533923187 4.212149774742413 0.08942947224576758 70.36545929117891 0.0 0.0
-9.196052025827743 8.125256300211772 -0.32123871768479206 71.17352357242056 0.0 0.0
-15.526375772177445 10.302467115107923 -1.5671725971208565 74.49492921551948 0.0 0.0
-16.55101941478636 -3.1463632245265374 -5.909214791793868 79.92324355019007 0.0 0.0
-12.445150139341004 -62.460085190016486 -22.471570598807244 68.3824509520934 0.0 0.0
-33.290425465310584 -162.08062605068724 -58.61131545479933 44.08837016162335 0.0 0.0
-26.63174430891517 -128.22801083573796 -46.45792654339593 -39.6708274628614 0.0 0.0
-16.249479484763377 -57.591724748930424 -22.152361270108134 -64.39741082254031 0.0 0.0
-24.506727343598925 -5.51148661800131 -9.005464188480069 -79.38998240620484 0.0 0.0
-30.274986216669895 8.891973490751822 -6.414903817775421 -75.90577656047586 0.0 0.0
-31.232710506432973 7.760797748785498 -7.041573827294243 -72.15667550226166 0.0 0.0
-32.41985868129498 4.141246755961721 -8.48358357759998 -70.48764787006995 0.0 0.0
-35.67068111512631 1.686445403234377 -10.195270713567583 -69.90978965778332 0.0 0.0
-40.60236469917999 0.5788618644121124 -12.007050850430366 -69.95818150813247 0.0 0.0
-46.66267724992057 0.4821430562005231 -13.85416025811601 -71.05069486866998 0.0 0.0
-53.7243949190893 1.0056135758615046 -15.815634402968337 -73.94992811597805 0.0 0.0
-62.24327970268966 1.1196625231114952 -18.337085153873446 -78.126157637933 0.0 0.0
-72.84100595346668 0.5940929465337474 -21.674073902079883 -81.69486483614803 0.0 0.0
-86.0132292900944 0.5256721284059895 -25.646267148506524 -84.09282353688033 0.0 0.0
-103.02706862830546 0.6177282065153724 -30.722802126537037 -85.92825527055706 0.0 0.0
-126.23686466708921 0.509109858448733 -37.70509778605197 -86.75485674636577 0.0 0.0
-157.64250017497005 0.8169319985200652 -47.172994398052026 -84.67007551485717 0.0 0.0
-201.01134583967058 -0.7681616299410656 -60.44188497527898 -87.78301278326254 0.0 0.0
-239.14321394271508 -6.811114354403003 -72.38848556869011 -97.15145926910681 0.0 0.0
-233.7862017629125 -28.885140082957886 -80.17669386523174 -92.56881838549475 0.0 0.0
-187.42732256756284 -46.53214511424551 -72.72827121209114 -69.54516608090671 0.0 0.0
-192.25575833645297 -94.29822720322426 -82.68454556030953 -3.75983688627457e-11 0.0 0.0
-187.427322567587 -46.532145114342185 -72.72827121213169 69.5451660808884 0.0 0.0
-233.78620176285773 -28.885140082931493 -80.17669386520366 92.56881838556721 0.0 0.0
-239.14321394257678 -6.811114354278301 -72.3884855686125 97.1514592691328 0.0 0.0
-201.01134583957906 -0.7681616298956824 -60.44188497523933 87.78301278323868 0.0 0.0
-157.6425001749977 0.816931998371386 -47.17299439810478 84.67007551484718 0.0 0.0
-126.23686466704723 0.509109858509907 -37.70509778602098 86.75485674636616 0.0 0.0
-103.02706862832946 0.6177282064342573 -30.722802126568563 85.92825527056884 0.0 0.0
-86.01322929007422 0.5256721284296721 -25.646267148493358 84.09282353687425 0.0 0.0
-72.84100595345892 0.5940929465450243 -21.674073902074163 81.69486483613986 0.0 0.0
-62.24327970264629 1.119662523211395 -18.337085153830472 78.12615763792998 0.0 0.0
-53.72439491907884 1.0056135758923281 -15.815634402955943 73.94992811599381 0.0 0.0
-46.6626772499364 0.48214305617498976 -13.854160258128422 71.05069486867492 0.0 0.0
-40.60236469917542 0.5788618644182754 -12.007050850427142 69.95818150814009 0.0 0.0
-35.67068111514 1.6864454031961467 -10.195270713583152 69.90978965778353 0.0 0.0
-32.41985868128979 4.141246755961199 -8.483583577598576 70.4876478700822 0.0 0.0
-31.23271050642468 7.760797748789689 -7.041573827290496 72.15667550225399 0.0 0.0
-30.274986216663276 8.891973490763142 -6.414903817770038 75.90577656046484 0.0 0.0
-24.506727343605036 -5.511486618019628 -9.005464188487398 79.38998240620157 0.0 0.0
-16.249479484761675 -57.591724748924285 -22.152361270105782 64.39741082253845 0.0 0.0
-26.631744308921316 -128.2280108357397 -46.457926543398294 39.67082746286679 0.0 0.0
-21.480666195571114 -98.62904139540343 -36.032912277292354 -35.332772277762345 0.0 0.0
-19.615453004017052 -51.45465497332107 -21.321032393201442 -59.650021261373126 0.0 0.0
-32.088837378458265 -6.817417988105888 -11.671876609969242 -76.92409368297653 0.0 0.0
-44.44934547800648 7.449444585298498 -11.099970267812395 -75.3076875969188 0.0 0.0
-52.70238727700385 7.110877470516538 -13.677452941946193 -71.44157911866009 0.0 0.0
-60.59632738239293 3.894389561298442 -17.010581346328344 -69.09317854555586 0.0 0.0
-70.01150755260824 1.586428481686624 -20.52752372127648 -68.03407667225919 0.0 0.0
-80.97070661442305 0.5976659262337877 -24.111912206456783 -67.80599773985827 0.0 0.0
-93.33462649893153 0.8389289888493071 -27.748709253024657 -68.61897293000783 0.0 0.0
-107.38542402932559 1.99342385646888 -31.617600051856996 -71.11394061909245 0.0 0.0
-124.30953762027879 2.180281667216839 -36.638776785918594 -74.69002505579472 0.0 0.0
-145.3993196788097 1.0608372140421607 -43.301544739430256 -77.390074550418 0.0 0.0
-171.61345892633489 0.728883959716069 -51.26331447162345 -78.69876982512265 0.0 0.0
-204.96957933322295 0.8146333159071901 -61.25194181970162 -78.80158907399132 0.0 0.0
-249.27647051469233 -2.2657691098312 -75.75503201095563 -76.05013462309374 0.0 0.0
-321.94089691338513 4.128645702404805 -93.24743264566605 -74.91479539121035 0.0 0.0
-397.63251194033137 13.591465687954033 -114.58956317307046 -81.91181864532771 0.0 0.0
-444.4409110526978 4.318044629279777 -140.6510654038702 -91.98195885223686 0.0 0.0
-465.67505680420874 -14.636574236255433 -158.793584945105 -98.94189530148464 0.0 0.0
-449.2716571946262 -45.55382115069109 -165.5119280702596 -79.29380156695817 0.0 0.0
-476.3436265580375 -164.80059210820917 -211.58805888768973 -5.439204642243567e-12 0.0 0.0
-449.2716571946896 -45.5538211508875 -165.51192807034775 79.29380156696834 0.0 0.0
-465.67505680404525 -14.636574236167803 -158.7935849450056 98.94189530160256 0.0 0.0
-444.4409110525843 4.318044629304486 -140.65106540380478 91.98195885229921 0.0 0.0
-397.6325119402104 13.591465687979408 -114.58956317302122 81.91181864531583 0.0 0.0
-321.9408969133352 4.128645702348472 -93.24743264567074 74.91479539119877 0.0 0.0
-249.2764705145944 -2.2657691096732995 -75.75503201087874 76.0501346230993 0.0 0.0
-204.96957933320311 0.8146333158982109 -61.251941819698345 78.80158907399874 0.0 0.0
-171.6134589263091 0.7288839597376462 -51.263314471609256 78.69876982511995 0.0 0.0
-145.39931967878405 1.0608372140855644 -43.30154473940954 77.39007455041015 0.0 0.0
-124.30953762025648 2.180281667268597 -36.63877678589636 74.6900250557992 0.0 0.0
-107.38542402934671 1.9934238564337157 -31.617600051873886 71.11394061909621 0.0 0.0
-93.33462649895601 0.838928988798408 -27.748709253047277 68.61897293001529 0.0 0.0
-80.97070661441647 0.5976659262434596 -24.1119122064519 67.80599773986484 0.0 0.0
-70.01150755260426 1.5864284816779066 -20.527523721277905 68.03407667226125 0.0 0.0
-60.59632738238524 3.894389561296753 -17.010581346326546 69.09317854555847 0.0 0.0
-52.70238727700941 7.110877470499467 -13.677452941952982 71.44157911865898 0.0 0.0
-44.4493454780108 7.4494445852806885 -11.099970267819032 75.3076875969098 0.0 0.0
-32.08883737845706 -6.817417988101168 -11.671876609967464 76.92409368296967 0.0 0.0
-19.61545300402257 -51.45465497332363 -21.321032393203854 59.65002126137134 0.0 0.0
-21.480666195573985 -98.6290413954014 -36.03291227729261 35.3327722777639 0.0 0.0
-17.62254118442568 -73.02980970553884 -27.195705266989346 -30.965775153795512 0.0 0.0
-22.689711583852397 -44.617671505571344 -20.192214926827113 -54.181168392530644 0.0 0.0
-39.39771999386413 -7.188699932287478 -13.975925977845478 -72.70291391263586 0.0 0.0
-58.19820807702138 6.0786536872004655 -15.635866316946267 -72.7229039324566 0.0 0.0
-73.72669500283634 6.248588983505032 -20.243431805799386 -68.94736836873066 0.0 0.0
-88.50200188501849 3.496281522602956 -25.50171610872465 -66.11492701534199 0.0 0.0
-104.2366674827683 1.424798084751758 -30.843560819404964 -64.66899089077032 0.0 0.0
-121.25287103962359 0.5691841042656127 -36.205106080607386 -64.17581638991786 0.0 0.0
-139.8246062778097 1.0905572234131113 -41.62021471631899 -64.60156504509332 0.0 0.0
-160.67752237874745 2.8254512174542867 -47.35562134838794 -66.44872902654117 0.0 0.0
-185.8385147774449 3.0037558270156524 -54.85042768512878 -68.99150154488213 0.0 0.0
-217.35531684157797 1.202176480367442 -64.83870545957652 -70.25579773784314 0.0 0.0
-255.9863881002011 0.3593510336389949 -76.75947900732217 -69.53556529301058 0.0 0.0
-305.6104670408876 -0.8929229101639478 -92.03443944897828 -66.67505777957786 0.0 0.0
-381.97360415074843 4.576418743852155 -110.24045935400125 -65.04259522548513 0.0 0.0
-442.6689892155115 -2.33069649873074 -139.99576989772336 -61.50263188393678 0.0 0.0
-497.3721245401553 0.7270818924350166 -171.30380719447425 -68.88576818048966 0.0 0.0
-534.9778452424982 -3.1095506248050526 -198.91305799872936 -83.27238886922707 0.0 0.0
-553.59713708628 -14.61903908265837 -216.2742719952138 -98.19034922087832 0.0 0.0
-564.3115456193124 -51.59970715761835 -232.41480142764254 -92.32988411290187 0.0 0.0
-670.1654612589332 -249.70288616036586 -335.9389347850602 3.742428589248448e-11 0.0 0.0
-564.3115456193806 -51.599707157850865 -232.41480142774518 92.3298841130358 0.0 0.0
-553.5971370860748 -14.619039082581283 -216.27427199509904 98.19034922109432 0.0 0.0
-534.9778452424084 -3.1095506248161002 -198.91305799867794 83.2723888693593 0.0 0.0
-497.3721245401078 0.7270818924206255 -171.30380719443758 68.88576818051763 0.0 0.0
-442.66898921539445 -2.3306964986233583 -139.99576989764807 61.50263188393903 0.0 0.0
-381.97360415068545 4.576418743906753 -110.24045935396671 65.04259522550174 0.0 0.0
-305.61046704085885 -0.8929229101892058 -92.0344394489782 66.67505777958192 0.0 0.0
-255.98638810015353 0.3593510337034763 -76.7594790072884 69.53556529301068 0.0 0.0
-217.35531684157945 1.2021764803509514 -64.8387054595819 70.25579773783616 0.0 0.0
-185.83851477745375 3.003755827002515 -54.85042768513535 68.99150154488538 0.0 0.0
-160.6775223787905 2.8254512173641544 -47.35562134842793 66.4487290265454 0.0 0.0
-139.82460627779216 1.090557223453461 -41.620214716301604 64.60156504510904 0.0 0.0
-121.25287103961878 0.5691841042639243 -36.205106080606434 64.17581638991533 0.0 0.0
-104.23666748276847 1.4247980847397528 -30.843560819408616 64.66899089077538 0.0 0.0
-88.50200188500905 3.49628152261243 -25.501716108718988 66.114927015336 0.0 0.0
-73.72669500283621 6.248588983490987 -20.243431805803557 68.94736836872603 0.0 0.0
-58.19820807701798 6.078653687198651 -15.635866316945801 72.72290393245466 0.0 0.0
-39.39771999386266 -7.188699932290332 -13.975925977845895 72.70291391263544 0.0 0.0
-22.689711583845828 -44.61767150555907 -20.19221492682147 54.18116839252484 0.0 0.0
-17.622541184424286 -73.02980970553878 -27.195705266988917 30.965775153804607 0.0 0.0
-14.889406948092887 -51.338934418541356 -19.868502409990274 -26.485505020726166 0.0 0.0
-25.51120422829933 -37.495709495439066 -18.902074117121515 -48.01610501922149 0.0 0.0
-46.46750072794202 -6.794144804706263 -15.978493659794486 -66.86275270276337 0.0 0.0
-71.62065659135082 4.828335750780014 -20.037696252171234 -68.17660833334953 0.0 0.0
-94.41875708272707 5.246618885665901 -26.751641459118353 -64.61387121932088 0.0 0.0
-116.21066257767728 2.984557143345719 -33.96783163029946 -61.49848090006787 0.0 0.0
-138.3790379259344 1.2191247714036295 -41.14797394635922 -59.79081684385751 0.0 0.0
-161.4376273940479 0.4961115196961158 -48.282454762305534 -59.0849838434053 0.0 0.0
-186.05816650625096 1.1900386025673102 -55.46043837110508 -59.05650435250621 0.0 0.0
-213.39328100167813 3.442191228411577 -62.98532693197998 -60.025019432145925 0.0 0.0
-246.60507308270482 3.432880136132808 -72.94174703749493 -61.124662829903755 0.0 0.0
-287.6938706245253 0.40858745201517 -86.35518577900858 -59.910122754486544 0.0 0.0
-341.04417274550843 -0.437376083914665 -102.07407041007414 -56.95109137082055 0.0 0.0
-408.6615058020898 4.07589379800986 -119.84523354751342 -55.19388241962624 0.0 0.0
-460.8644355862674 -8.05157151394836 -149.40400992052085 -49.873394624230706 0.0 0.0
-514.6609279307713 -7.2169446858305815 -181.2910058050665 -53.75649421313554 0.0 0.0
-556.6367596984504 -3.776868521318246 -212.33567656300926 -59.68084654652644 0.0 0.0
-586.6007714753894 -1.3677536768258882 -235.40444415989117 -71.54965303379902 0.0 0.0
-598.1069971468677 -3.749861123614364 -246.35852949798834 -89.25011729926307 0.0 0.0
-607.2812092404696 -36.515160461758235 -261.9604531168072 -95.50917545313963 0.0 0.0
-819.602705937516 -343.60750375318355 -452.26209840634306 8.72759642334131e-11 0.0 0.0
-607.2812092405186 -36.51516046200067 -261.96045311692114 95.50917545339065 0.0 0.0
-598.1069971468061 -3.7498611237189206 -246.35852949800093 89.25011729955568 0.0 0.0
-586.6007714752224 -1.3677536767384468 -235.40444415977552 71.54965303398588 0.0 0.0
-556.6367596983608 -3.7768685212673683 -212.33567656294127 59.6808465465882 0.0 0.0
-514.6609279307033 -7.216944685774811 -181.29100580501594 53.7564942131463 0.0 0.0
-460.86443558620726 -8.051571513892501 -149.4040099204813 49.87339462423371 0.0 0.0
-408.66150580202407 4.075893798037672 -119.84523354748582 55.19388241962589 0.0 0.0
-341.0441727454753 -0.4373760839278821 -102.074070410069 56.95109137082768 0.0 0.0
-287.69387062450977 0.4085874520280729 -86.35518577899992 59.9101227544848 0.0 0.0
-246.6050730827104 3.4328801361215198 -72.94174703750005 61.12466282990883 0.0 0.0
-213.39328100168893 3.4421912284050036 -62.98532693198518 60.02501943214692 0.0 0.0
-186.0581665062518 1.19003860257541 -55.46043837110292 59.05650435251478 0.0 0.0
-161.4376273940679 0.4961115196339376 -48.28245476233018 59.084983843404345 0.0 0.0
-138.37903792591237 1.2191247714300444 -41.147973946344706 59.7908168438526 0.0 0.0
-116.21066257768224 2.9845571433199583 -33.96783163030867 61.498480900063484 0.0 0.0
-94.41875708270935 5.24661888569201 -26.7516414591052 64.61387121931803 0.0 0.0
-71.62065659133569 4.8283357508044595 -20.037696252159364 68.17660833334917 0.0 0.0
-46.46750072794487 -6.794144804709555 -15.978493659796325 66.86275270276467 0.0 0.0
-25.511204228295835 -37.49570949542198 -18.902074117115344 48.01610501921846 0.0 0.0
-14.889406948098381 -51.33893441854253 -19.868502409992267 26.48550502072751 0.0 0.0
-13.13518089614173 -33.586390658353594 -14.016471466348598 -21.849347016449425 0.0 0.0
-28.022252304906715 -30.390236072248666 -17.523746513146616 -41.18266052057552 0.0 0.0
-53.267202786861255 -5.835273561214601 -17.730742904422755 -59.49545853357395 0.0 0.0
-84.7730604189305 3.7058139456887966 -24.32017394197251 -61.675987495574425 0.0 0.0
-114.88544955461359 4.177457654787048 -33.21239756994795 -58.392941316231045 0.0 0.0
-143.80743466451062 2.4070571736727433 -42.420113247251365 -55.20443947912121 0.0 0.0
-172.48927882077277 0.9892643589677017 -51.45000433854149 -53.381784718099716 0.0 0.0
-201.5295385301937 0.40613445936833115 -60.337021221247596 -52.55208335394501 0.0 0.0
-231.9774229974512 1.0864293208764353 -69.26729810297245 -52.085172739469 0.0 0.0
-265.3747611373675 3.8275264798950124 -78.45378053279894 -51.93477265027394 0.0 0.0
-305.65939554279015 2.9040330970466375 -90.96109919075145 -51.0279537695811 0.0 0.0
-359.8578546725026 1.4025225029661046 -106.84728512213627 -47.25632481411448 0.0 0.0
-423.3379899251704 3.906350146342852 -124.97168604397069 -45.225545145980284 0.0 0.0
-468.28210892552386 -6.660593540172746 -151.7759016733004 -40.51363070127717 0.0 0.0
-516.6121489169002 -8.24133138549912 -180.73174468087242 -42.76736578957856 0.0 0.0
-559.8961686719194 -9.87808097155033 -213.17957131594153 -46.65517452296787 0.0 0.0
-597.9077573647706 -7.7513001583602055 -243.03204412618476 -49.75502029116212 0.0 0.0
-622.2769390565128 0.41717832607184846 -260.82376041406076 -57.05409912110486 0.0 0.0
-626.3396789455679 8.51715352394179 -263.5475970302144 -74.79618925010486 0.0 0.0
-621.6873330184957 -10.051011768813737 -269.00913469150925 -93.63492572789711 0.0 0.0
-956.3097636290682 -449.77745037089153 -570.0526899027279 1.1356604545653681e-10 0.0 0.0
-621.6873330185659 -10.051011769083022 -269.009134691644 93.63492572818367 0.0 0.0
-626.3396789455362 8.517153523826483 -263.54759703024337 74.79618925041206 0.0 0.0
-622.2769390563682 0.41717832616290673 -260.82376041395673 57.05409912130065 0.0 0.0
-597.9077573647359 -7.75130015835372 -243.03204412616245 49.75502029124465 0.0 0.0
-559.8961686718908 -9.878080971540715 -213.17957131592064 46.655174522999665 0.0 0.0
-516.6121489168672 -8.241331385477336 -180.73174468084989 42.76736578959435 0.0 0.0
-468.28210892545746 -6.6605935401081195 -151.77590167325587 40.51363070127405 0.0 0.0
-423.3379899251838 3.906350146235204 -124.97168604400316 45.2255451459763 0.0 0.0
-359.8578546725079 1.402522502917968 -106.84728512215295 47.25632481411629 0.0 0.0
-305.65939554278975 2.9040330970667063 -90.96109919074541 51.027953769581266 0.0 0.0
-265.3747611373693 3.827526479922693 -78.45378053279113 51.934772650284515 0.0 0.0
-231.97742299745494 1.0864293208762101 -69.2672981029736 52.085172739467986 0.0 0.0
-201.52953853019358 0.4061344593546434 -60.337021221251675 52.55208335394346 0.0 0.0
-172.4892788207663 0.9892643589563445 -51.45000433854295 53.3817847181008 0.0 0.0
-143.80743466450332 2.40705717366503 -42.42011324725149 55.20443947911019 0.0 0.0
-114.88544955459359 4.177457654813802 -33.212397569933934 58.39294131623747 0.0 0.0
-84.77306041891626 3.705813945707737 -24.32017394196255 61.675987495563 0.0 0.0
-53.2672027868598 -5.835273561217016 -17.730742904423042 59.495458533569064 0.0 0.0
-28.02225230490177 -30.390236072242253 -17.523746513143212 41.18266052057513 0.0 0.0
-13.135180896138152 -33.58639065835123 -14.016471466346815 21.84934701644701 0.0 0.0
-12.194634156773446 -19.872066786710402 -9.620010283045154 -17.08317814277125 0.0 0.0
-30.06289151146807 -23.530228115964032 -16.077935888229632 -33.72791588367955 0.0 0.0
-59.695005121046194 -4.549029450875274 -19.273210371576432 -50.636998422259865 0.0 0.0
-97.67646646613923 2.6956706399697725 -28.494238747850844 -53.19161306171755 0.0 0.0
-135.23507092547308 3.1171488162129695 -39.63537663277803 -50.2440103397369 0.0 0.0
-171.38627178994275 1.8229161391598443 -50.86900669523485 -47.20823342428336 0.0 0.0
-206.63219460830175 0.7454796493717624 -61.76601448767897 -45.43749443738833 0.0 0.0
-241.56163133214034 0.35913084887778024 -72.36075014497877 -44.579376548455265 0.0 0.0
-277.5654649366983 0.7621004141027456 -83.03210348979798 -43.833525581815024 0.0 0.0
-316.0341995032091 3.771274984104153 -93.75798898932597 -42.27351983746453 0.0 0.0
-366.7606605479285 3.1176649145067454 -108.37590454083798 -38.96439867892435 0.0 0.0
-428.30070445201426 1.8029060674216462 -127.3697913376989 -34.45665628749741 0.0 0.0
-468.0006884929269 -4.139811923262533 -150.72676647051966 -31.916667978646846 0.0 0.0
-514.0159424967965 -7.029944563565956 -177.42896609071215 -32.71776120035818 0.0 0.0
-553.8199310944708 -8.524097062259969 -206.50806899832799 -35.42920133810189 0.0 0.0
-592.8874896734193 -11.10046968660017 -237.7108694978039 -38.571240634477974 0.0 0.0
-629.7984885853934 -12.074365483588359 -267.2254262057118 -39.81393763553236 0.0 0.0
-651.0318131723534 -0.7692540741593348 -281.5556851931426 -42.09477782611877 0.0 0.0
-646.9693059870468 19.218756558678145 -274.97852525329154 -57.55851353413963 0.0 0.0
-615.6272908662362 28.877592505579905 -257.79891882821215 -88.71401680350394 0.0 0.0
-1094.6284024285799 -570.1091235801983 -696.0941849315842 1.1753797934943577e-10 0.0 0.0
-615.6272908662766 28.87759250537227 -257.79891882831174 88.71401680377463 0.0 0.0
-646.9693059870108 19.21875655861527 -274.9785252532987 57.558513534408085 0.0 0.0
-651.0318131722854 -0.7692540741228102 -281.5556851930935 42.09477782628904 0.0 0.0
-629.7984885854519 -12.074365483670727 -267.225426205766 39.813937635611744 0.0 0.0
-592.8874896734001 -11.100469686592971 -237.7108694977898 38.571240634515775 0.0 0.0
-553.8199310944568 -8.524097062258068 -206.5080689983193 35.42920133812514 0.0 0.0
-514.0159424968504 -7.0299445636644915 -177.4289660907544 32.71776120037718 0.0 0.0
-468.000688492961 -4.139811923346675 -150.72676647054638 31.916667978642508 0.0 0.0
-428.3007044519759 1.8029060674725024 -127.36979133767221 34.45665628751768 0.0 0.0
-366.7606605479324 3.1176649145409367 -108.37590454082807 38.96439867891703 0.0 0.0
-316.03419950325565 3.7712749840277433 -93.75798898936308 42.27351983746988 0.0 0.0
-277.5654649367294 0.7621004140335117 -83.0321034898281 43.833525581813696 0.0 0.0
-241.5616313321283 0.3591308488926015 -72.36075014497068 44.5793765484476 0.0 0.0
-206.63219460831044 0.7454796493382693 -61.766014487691635 45.43749443739684 0.0 0.0
-171.3862717899089 1.8229161392174325 -50.86900669520742 47.208233424275434 0.0 0.0
-135.23507092547243 3.117148816194829 -39.63537663278328 50.24401033974794 0.0 0.0
-97.6764664661322 2.695670639983014 -28.494238747844747 53.19161306171182 0.0 0.0
-59.69500512103985 -4.5490294508672156 -19.27321037157211 50.63699842226049 0.0 0.0
-30.062891511461064 -23.530228115965052 -16.077935888227834 33.7279158836792 0.0 0.0
-12.19463415676595 -19.872066786709677 -9.620010283042689 17.083178142767817 0.0 0.0
-11.813331001128038 -10.290982858450368 -6.631294157873521 -12.330082069280639 0.0 0.0
-31.348304268527464 -17.127202088110977 -14.542651906991528 -25.73412280563525 0.0 0.0
-65.56491851983877 -3.2196931631104135 -20.63538350488475 -40.2383077416396 0.0 0.0
-110.32795213409374 1.7870182278175408 -32.562280171882854 -42.641614730175185 0.0 0.0
-155.58726475561613 2.1543952191366564 -46.029860860943835 -40.134681826775356 0.0 0.0
-199.05741694752672 1.2903653397311177 -59.33011548233866 -37.5027608324445 0.0 0.0
-240.85701970523442 0.5230464206720988 -72.10019198536865 -35.96227872074746 0.0 0.0
-281.6733322810403 0.31918150718424454 -84.4000163983798 -35.180893022225284 0.0 0.0
-322.4792343793698 0.4293575261827609 -96.66473311224723 -34.26172493576159 0.0 0.0
-368.3671168867476 4.775495644663518 -108.34392554429452 -32.19877827984058 0.0 0.0
-423.14451308324726 1.1475441851699442 -126.20673248981802 -24.727381113967372 0.0 0.0
-465.9428869046062 -6.193611604517863 -149.57493111906166 -22.727673481798323 0.0 0.0
-507.616674117671 -4.027903728546841 -172.12177666346872 -23.566121502433024 0.0 0.0
-546.1315137177263 -7.660649725877626 -199.37314815221444 -25.092365953817357 0.0 0.0
-582.5772212390309 -9.242532636007644 -227.95024131983394 -27.348115620465308 0.0 0.0
-618.4284420133096 -11.397363937228304 -256.98883081600604 -29.46144884248531 0.0 0.0
-654.7146584810832 -15.29768796701575 -286.02184672318316 -30.334306816546633 0.0 0.0
-677.2168661078917 -6.6031366496913755 -301.23639981300767 -28.77642719708708 0.0 0.0
-666.1716195226244 24.35214048134923 -286.39225993915085 -38.358191837271626 0.0 0.0
-591.2255651254369 82.27447863860743 -228.99869774562413 -80.16372906845594 0.0 0.0
-1239.3466077766961 -702.459439046539 -832.4475576034779 9.355716201753239e-11 0.0 0.0
-591.2255651254683 82.27447863845094 -228.9986977456997 80.16372906867782 0.0 0.0
-666.1716195227112 24.35214048119779 -286.3922599392516 38.35819183748867 0.0 0.0
-677.2168661078084 -6.603136649619018 -301.23639981293735 28.776427197228397 0.0 0.0
-654.7146584811699 -15.297687967116133 -286.02184672326126 30.33430681661038 0.0 0.0
-618.4284420133107 -11.397363937236754 -256.98883081600894 29.461448842526725 0.0 0.0
-582.5772212390425 -9.242532636026445 -227.95024131984405 27.348115620488137 0.0 0.0
-546.1315137177289 -7.660649725904478 -199.3731481522176 25.092365953829532 0.0 0.0
-507.6166741176826 -4.02790372860154 -172.12177666348003 23.566121502439483 0.0 0.0
-465.9428869045249 -6.193611604394864 -149.5749311190013 22.7276734818333 0.0 0.0
-423.1445130832745 1.1475441851964638 -126.20673248981969 24.727381113940073 0.0 0.0
-368.36711688680055 4.775495644549885 -108.34392554434484 32.19877827983139 0.0 0.0
-322.4792343793806 0.42935752615388545 -96.66473311225893 34.26172493575566 0.0 0.0
-281.6733322810264 0.31918150719682 -84.40001639837185 35.18089302222441 0.0 0.0
-240.85701970522314 0.5230464206626668 -72.10019198536814 35.96227872075384 0.0 0.0
-199.05741694748437 1.2903653397949266 -59.33011548230682 37.50276083244445 0.0 0.0
-155.58726475559138 2.1543952191667577 -46.02986086092739 40.13468182678693 0.0 0.0
-110.32795213408136 1.787018227831774 -32.56228017187487 42.64161473017934 0.0 0.0
-65.56491851982446 -3.2196931630832593 -20.6353835048723 40.23830774163946 0.0 0.0
-31.3483042685133 -17.127202088096382 -14.542651906982904 25.734122805635522 0.0 0.0
-11.813331001111514 -10.290982858450274 -6.631294157868535 12.330082069281243 0.0 0.0
-11.520333223836577 -4.810247353513657 -4.899174173205069 -7.944359514773174 0.0 0.0
-31.42593047610011 -11.470486846277964 -12.86892519671342 -17.331599282615407 0.0 0.0
-70.58535605403382 -2.1910921275536897 -21.832934454476252 -28.10076927515487 0.0 0.0
-122.71943934604796 1.0202381528164564 -36.509760357969434 -29.886136014696902 0.0 0.0
-176.09143732789707 1.3925930053353563 -52.40965329676848 -28.048300615600805 0.0 0.0
-226.9416251567122 0.8660330764859567 -67.82267762406785 -26.09839636993798 0.0 0.0
-275.2131863030936 0.3631322469554137 -82.45501621684144 -24.973485545729737 0.0 0.0
-321.8795369610268 0.12570034972479038 -96.53902352244617 -24.29187763394423 0.0 0.0
-369.4496738372229 2.688888008633744 -109.37015779379954 -23.892950612249304 0.0 0.0
-416.1201465770244 -0.2699746407019452 -124.60615529032442 -20.78182752685721 0.0 0.0
-463.3430709566403 -7.43450542710029 -146.25398506519315 -11.674868817782695 0.0 0.0
-499.2405844651722 -2.4107921747160486 -166.32489125813697 -15.520001381875556 0.0 0.0
-536.3050672450851 -5.391267155910243 -191.26535286139588 -15.794722591262557 0.0 0.0
-571.1991583415082 -8.179468709790154 -217.94010988381984 -17.083824940095546 0.0 0.0
-606.166437637271 -10.480185179533677 -246.1387234984888 -18.680423291114725 0.0 0.0
-640.0074591648829 -12.26264376831174 -273.4181379804697 -19.856851725469767 0.0 0.0
-672.227229079862 -14.561973660794195 -298.59619027677104 -20.579507989324156 0.0 0.0
-701.1232077470366 -15.4965228789426 -319.847138984628 -19.138520341062936 0.0 0.0
-692.5060841406597 15.716876719975822 -306.09347448174344 -18.675904149852382 0.0 0.0
-552.9461931217372 148.0504999495287 -185.5993501091581 -63.89131415966986 0.0 0.0
-1384.731829426617 -834.0926990116909 -971.939313615612 6.257039331103442e-11 0.0 0.0
-552.9461931216871 148.0504999495029 -185.5993501091418 63.89131415982941 0.0 0.0
-692.5060841408216 15.7168767197749 -306.0934744819009 18.675904150011025 0.0 0.0
-701.1232077469425 -15.496522878847 -319.84713898454163 19.13852034116287 0.0 0.0
-672.2272290799278 -14.561973660864997 -298.59619027683004 20.57950798936335 0.0 0.0
-640.0074591649068 -12.262643768341956 -273.41813798049066 19.856851725501954 0.0 0.0
-606.1664376372935 -10.480185179565304 -246.13872349850715 18.680423291131714 0.0 0.0
-571.1991583414012 -8.179468709680386 -217.9401098837388 17.083824940114106 0.0 0.0
-536.305067245089 -5.3912671559464656 -191.26535286140108 15.794722591271572 0.0 0.0
-499.2405844651114 -2.410792174632719 -166.32489125809042 15.520001381894872 0.0 0.0
-463.3430709566261 -7.434505427024881 -146.253985065174 11.674868817797725 0.0 0.0
-416.12014657708966 -0.2699746408221988 -124.60615529037885 20.78182752682136 0.0 0.0
-369.4496738372058 2.6888880086697253 -109.37015779378345 23.89295061224769 0.0 0.0
-321.8795369610077 0.12570034972679553 -96.53902352244006 24.29187763394498 0.0 0.0
-275.2131863030704 0.3631322469687095 -82.45501621683053 24.973485545731002 0.0 0.0
-226.9416251567058 0.8660330764657801 -67.82267762407201 26.098396369942407 0.0 0.0
-176.09143732787834 1.392593005349279 -52.409653296758705 28.048300615597107 0.0 0.0
-122.7194393460404 1.0202381528320452 -36.50976035796251 29.886136014690802 0.0 0.0
-70.5853560540227 -2.19109212752847 -21.832934454465356 28.100769275153564 0.0 0.0
-31.425930476090713 -11.47048684626084 -12.868925196705463 17.33159928260695 0.0 0.0
-11.520333223840419 -4.8102473535214 -4.899174173208544 7.944359514773064 0.0 0.0
-10.3824077320342 -3.047271261250878 -4.028903697985523 -4.677060698626799 0.0 0.0
-29.605598637884352 -7.119507178014767 -11.017531744769736 -8.70145093491031 0.0 0.0
-74.32737787368725 -1.8510347286348192 -22.853523780696626 -13.735131779824862 0.0 0.0
-134.87582105622087 0.564085948951133 -40.29352053218092 -14.767878851862866 0.0 0.0
-196.94691918353166 0.937111364253379 -58.80294234578348 -13.98024100049921 0.0 0.0
-255.168399216486 0.5959848414334259 -76.37172431251575 -13.041163403026378 0.0 0.0
-309.6669702443443 0.2528934869452317 -92.84838820457543 -12.456645647865212 0.0 0.0
-363.9951013067121 1.0710456249517586 -108.39637637757434 -12.068687429839494 0.0 0.0
-412.3798094941366 2.7970796545311103 -122.59387162904729 -12.32390563530028 0.0 0.0
-456.67803318259473 -13.852991943237786 -144.1949236019268 -9.117174044709934 0.0 0.0
-492.2315442101891 -9.42067753533486 -162.81372736086507 -4.635985249434749 0.0 0.0
-524.5976528872702 -1.9320876174417378 -182.47953802630028 -7.562699838993375 0.0 0.0
-559.2008456547135 -6.710550445014256 -207.95491099864617 -7.904137003459793 0.0 0.0
-591.9821914001421 -9.07481393508772 -234.03009147882227 -8.687111586098082 0.0 0.0
-626.1103421391689 -11.98957676479882 -261.7742618513902 -9.5841945455792 0.0 0.0
-658.841818776287 -13.894112451719995 -287.8757710337294 -10.227272110633603 0.0 0.0
-687.2242633816591 -13.730940071168344 -309.22982420937035 -10.526383391937978 0.0 0.0
-709.2332528701895 -11.259490732888292 -324.4246814970212 -11.025524043117425 0.0 0.0
-741.5667368239729 -22.887641356666776 -348.87121707659486 -7.741793394804998 0.0 0.0
-523.4347148362529 203.1491416734591 -148.24184571817477 -27.506468675506675 0.0 0.0
-1492.2955796732897 -914.1356538829805 -1075.1911394225842 4.030553668599168e-11 0.0 0.0
-523.4347148362147 203.1491416734664 -148.24184571815047 27.506468675581363 0.0 0.0
-741.5667368241483 -22.887641356867466 -348.87121707676016 7.741793394883729 0.0 0.0
-709.2332528701387 -11.259490732834676 -324.42468149697225 11.025524043167751 0.0 0.0
-687.2242633816886 -13.730940071200369 -309.22982420939746 10.526383391954479 0.0 0.0
-658.841818776296 -13.894112451733239 -287.87577103373724 10.227272110653455 0.0 0.0
-626.1103421391903 -11.98957676482671 -261.7742618514082 9.584194545590956 0.0 0.0
-591.9821914000894 -9.074813935037573 -234.03009147878115 8.687111586109317 0.0 0.0
-559.2008456547495 -6.710550445083717 -207.95491099867579 7.90413700347254 0.0 0.0
-524.5976528872385 -1.9320876174086097 -182.47953802627507 7.562699838996725 0.0 0.0
-492.23154421008263 -9.420677535133965 -162.81372736078177 4.6359852494830145 0.0 0.0
-456.6780331826417 -13.85299194328264 -144.19492360195784 9.117174044661486 0.0 0.0
-412.37980949408524 2.797079654594278 -122.59387162901307 12.323905635298804 0.0 0.0
-363.99510130668443 1.0710456249728428 -108.39637637755979 12.068687429841262 0.0 0.0
-309.66697024430243 0.25289348699562403 -92.84838820454773 12.45664564786183 0.0 0.0
-255.16839921649319 0.5959848413837768 -76.37172431253282 13.041163403019398 0.0 0.0
-196.9469191835246 0.9371113642457948 -58.802942345783634 13.98024100049404 0.0 0.0
-134.87582105620967 0.5640859489603263 -40.293520532174774 14.767878851855068 0.0 0.0
-74.32737787368454 -1.8510347286322961 -22.853523780695046 13.735131779820158 0.0 0.0
-29.605598637885702 -7.119507178018585 -11.01753174477129 8.701450934896728 0.0 0.0
-10.38240773202962 -3.0472712612472193 -4.028903697983051 4.677060698629176 0.0 0.0
-5.416589234445514 -1.2894406030781105 -2.011808951257087 -3.1317046214429003 0.0 0.0
-24.137870827245905 -3.659994568115075 -8.339359618608292 -3.676520652342491 0.0 0.0
-75.94776086352029 -1.9598270978961132 -23.372276388424915 -4.674212873959174 0.0 0.0
-148.48925831941057 -2.805953320386646 -45.38856349193915 -5.209352251445866 0.0 0.0
-220.9049175366958 -4.950102150068465 -67.75650590602928 -5.168249209668261 0.0 0.0
-287.1118165421985 -7.093992787916517 -88.2617427990345 -4.933292138531889 0.0 0.0
-349.2763305922665 -8.349104113706455 -107.03824580522095 -4.627991443100331 0.0 0.0
-410.2431720759334 -8.787105311831716 -124.84900506675446 -4.723438773168578 0.0 0.0
-455.8805548021361 -14.10799905001231 -143.04269029509837 -5.510870904321351 0.0 0.0
-502.6196152238422 -42.400470366980784 -171.73764977538758 -1.4925727797370243 0.0 0.0
-533.9321454266669 -32.15173733817406 -189.91996081628787 0.6408768904611399 0.0 0.0
-569.9742765188597 -32.80994428284295 -215.3468869953116 -0.36548922922861493 0.0 0.0
-610.4690815886479 -45.25077514091847 -247.4946346851716 -0.08209629755905823 0.0 0.0
-652.4563855349124 -57.69967428801027 -282.7042590940456 0.10108588026303877 0.0 0.0
-698.2746685893924 -72.97793973130403 -321.852449678771 0.08566892499887757 0.0 0.0
-743.660558147738 -88.11802014448281 -360.42771741268706 -0.2928646358366791 0.0 0.0
-782.0529157715421 -98.59368606730982 -392.04861545966276 -0.8695860106668825 0.0 0.0
-799.808062976284 -93.36532936847331 -404.5352201455087 -3.298921185894308 0.0 0.0
-801.5177015700193 -78.70866860900033 -402.81090997822037 -2.897527108485754 0.0 0.0
-647.7960427440585 93.54829445820724 -255.40738012021762 -7.615075668038955 0.0 0.0
-1832.9194920543653 -1230.08595779388 -1392.1421066915505 2.6545876607997343e-11 0.0 0.0
-647.796042744184 93.54829445807272 -255.40738012033324 7.615075668065465 0.0 0.0
-801.5177015701524 -78.70866860915834 -402.8109099783475 2.897527108520533 0.0 0.0
-799.8080629762107 -93.3653293684039 -404.53522014543955 3.298921185923515 0.0 0.0
-782.0529157715227 -98.59368606729575 -392.0486154596462 0.8695860106761835 0.0 0.0
-743.6605581477071 -88.11802014445226 -360.4277174126596 0.2928646358490248 0.0 0.0
-698.2746685894278 -72.97793973134806 -321.85244967880146 -0.08566892499090173 0.0 0.0
-652.4563855349157 -57.699674288024354 -282.7042590940474 -0.10108588025903487 0.0 0.0
-610.4690815887037 -45.25077514100562 -247.4946346852148 0.08209629756316872 0.0 0.0
-569.9742765188894 -32.80994428290515 -215.34688699533322 0.3654892292329919 0.0 0.0
-533.9321454264599 -32.1517373378449 -189.91996081613124 -0.6408768904119775 0.0 0.0
-502.6196152238588 -42.40047036695762 -171.7376497753973 1.4925727796946866 0.0 0.0
-455.8805548020341 -14.10799904988199 -143.04269029502882 5.5108709043079465 0.0 0.0
-410.24317207587393 -8.787105311745995 -124.84900506671129 4.723438773171964 0.0 0.0
-349.27633059222273 -8.349104113652 -107.03824580519161 4.6279914430978835 0.0 0.0
-287.111816542184 -7.093992787919204 -88.26174279903093 4.933292138517242 0.0 0.0
-220.90491753666606 -4.950102150030705 -67.75650590600902 5.16824920966922 0.0 0.0
-148.4892583194097 -2.805953320391554 -45.38856349194037 5.209352251443669 0.0 0.0
-75.94776086353488 -1.9598270979161683 -23.372276388435314 4.674212873943732 0.0 0.0
-24.137870827243212 -3.659994568127189 -8.339359618611118 3.676520652326073 0.0 0.0
-5.41658923441693 -1.2894406030600838 -2.011808951243104 3.131704621453955 0.0 0.0
SCALARS Strain float 6
LOOKUP_TABLE default
0.0015903913384860504 -0.003978571189472976 0.0 -0.00013763850412845953 0.0 0.0
0.0013325779195206887 0.00030071324559534634 0.0 -0.0004726035403486309 0.0 0.0
0.0009726566963458544 -0.0004916093898266146 0.0 -0.00015639700145279268 0.0 0.0
0.0009346540956954145 -0.0003401244768391443 0.0 -2.199847947403986e-05 0.0 0.0
0.001100183900958656 -0.0004497567333716189 0.0 -5.35802413503481e-05 0.0 0.0
0.0013221938324422548 -0.0005356332798389738 0.0 -5.4889799268079546e-05 0.0 0.0
0.0015711919504291234 -0.0006397993790685557 0.0 -5.7786897308148796e-05 0.0 0.0
0.001829456718149838 -0.0007438153347923164 0.0 -5.955542449124372e-05 0.0 0.0
0.0020799950423207804 -0.0008561345600807916 0.0 -5.98772971165766e-05 0.0 0.0
0.002347603186196294 -0.000915533272450127 0.0 -4.31372282726811e-06 0.0 0.0
0.0027746193686178783 -0.0012630198821300788 0.0 5.126692283891777e-05 0.0 0.0
0.0033498246399872034 -0.0017133081238302596 0.0 4.0426492249885705e-05 0.0 0.0
0.004045666964637563 -0.00223640559776557 0.0 6.632590469715253e-05 0.0 0.0
0.005014947845913144 -0.0030232434542135766 0.0 0.00010083796405492565 0.0 0.0
0.006356773792869988 -0.004163858468978419 0.0 0.00012753903567369214 0.0 0.0
0.008102476049223513 -0.005710589875969532 0.0 0.00013134019092847848 0.0 0.0
0.01016504809987235 -0.007598326063926533 0.0 0.00010263958087714984 0.0 0.0
0.012307381655669119 -0.009599138792480599 0.0 5.234515099320251e-05 0.0 0.0
0.014186682637121091 -0.011363974394156122 0.0 6.176568702024861e-06 0.0 0.0
0.015465850164000632 -0.012556210936667912 0.0 -1.2134096430157278e-05 0.0 0.0
0.01591790396876332 -0.01297429250529188 0.0 9.405995947397994e-16 0.0 0.0
0.015465850163999869 -0.012556210936666444 0.0 1.2134096433127559e-05 0.0 0.0
0.014186682637120019 -0.011363974394154534 0.0 -6.176568699243015e-06 0.0 0.0
0.012307381655668628 -0.009599138792480299 0.0 -5.234515099106121e-05 0.0 0.0
0.010165048099872776 -0.007598326063927113 0.0 -0.00010263958087582326 0.0 0.0
0.008102476049223675 -0.005710589875969194 0.0 -0.00013134019092879415 0.0 0.0
0.0063567737928694745 -0.004163858468978284 0.0 -0.00012753903567327328 0.0 0.0
0.005014947845912635 -0.003023243454212528 0.0 -0.00010083796405465193 0.0 0.0
0.004045666964637196 -0.002236405597765093 0.0 -6.632590469695074e-05 0.0 0.0
0.0033498246399870212 -0.0017133081238297934 0.0 -4.042649224979733e-05 0.0 0.0
0.002774619368618358 -0.0012630198821317723 0.0 -5.1266922837694005e-05 0.0 0.0
0.002347603186196612 -0.0009155332724500378 0.0 4.3137228262766955e-06 0.0 0.0
0.0020799950423205527 -0.0008561345600804251 0.0 5.9877297116484705e-05 0.0 0.0
0.0018294567181497542 -0.0007438153347921715 0.0 5.955542449153201e-05 0.0 0.0
0.001571191950429044 -0.0006397993790685153 0.0 5.778689730800105e-05 0.0 0.0
0.001322193832442175 -0.0005356332798388673 0.0 5.488979926822125e-05 0.0 0.0
0.0011001839009586339 -0.0004497567333718104 0.0 5.35802413502438e-05 0.0 0.0
0.0009346540956953809 -0.00034012447683904007 0.0 2.1998479474088087e-05 0.0 0.0
0.0009726566963458665 -0.0004916093898266043 0.0 0.00015639700145265545 0.0 0.0
0.0013325779195209539 0.0003007132455953602 0.0 0.0004726035403485155 0.0 0.0
0.001590391338486482 -0.00397857118947353 0.0 0.0001376385041285978 0.0 0.0
0.0009844826896572535 -0.0035379110763761913 0.0 2.6370583549238316e-05 0.0 0.0
0.0007862681669623403 0.0002496244390442061 0.0 -0.0003643214346621968 0.0 0.0
0.0006987902857604028 -0.0003801801161746555 0.0 -0.00010824729481901363 0.0 0.0
0.0008486271762209077 -0.00033641815342754785 0.0 -9.029370372751944e-05 0.0 0.0
0.000986310159402117 -0.00041937497419152576 0.0 -0.00012963070383417922 0.0 0.0
0.0011925993305344363 -0.0005084112342113871 0.0 -0.00014661459659237822 0.0 0.0
0.001415151881022483 -0.0006057482135668538 0.0 -0.00015411997225536742 0.0 0.0
0.001647380629151435 -0.0007051266854654715 0.0 -0.00015650752938106344 0.0 0.0
0.0018738235611687093 -0.000810762373893462 0.0 -0.00015462387940444334 0.0 0.0
0.0021054778782159554 -0.0008771123341887131 0.0 -0.0001085572767687947 0.0 0.0
0.0024760672766639554 -0.0011476158022426337 0.0 -3.4680949592242695e-05 0.0 0.0
0.002988507230121008 -0.0015703739054376625 0.0 -8.694216458433114e-05 0.0 0.0
0.0036023384633765165 -0.0020528002806046784 0.0 -9.923282537655946e-05 0.0 0.0
0.004453807049472993 -0.002779664553175801 0.0 -0.00012552201861469755 0.0 0.0
0.005651774535488885 -0.003846246238655441 0.0 -0.00018146146435204046 0.0 0.0
0.007239498879365637 -0.005310628123720342 0.0 -0.00027023234197587554 0.0 0.0
0.009144200584320007 -0.007115795479619092 0.0 -0.0003777024435086988 0.0 0.0
0.011135044786176445 -0.009040087057412471 0.0 -0.00045394839807018264 0.0 0.0
0.01287234906192758 -0.010736654510723958 0.0 -0.000431213178492649 0.0 0.0
0.014039279640488109 -0.01187594729391768 0.0 -0.00027064851061499404 0.0 0.0
0.014446887225499472 -0.012273802516856953 0.0 1.6902169767962771e-15 0.0 0.0
0.014039279640486868 -0.011875947293916316 0.0 0.00027064851062024846 0.0 0.0
0.01287234906192658 -0.01073665451072246 0.0 0.0004312131784978514 0.0 0.0
0.011135044786176673 -0.009040087057412459 0.0 0.0004539483980740004 0.0 0.0
0.009144200584320826 -0.0071157954796199786 0.0 0.00037770244351037686 0.0 0.0
0.007239498879365822 -0.005310628123720132 0.0 0.00027023234197567653 0.0 0.0
0.005651774535488437 -0.003846246238655251 0.0 0.00018146146435254446 0.0 0.0
0.0044538070494724745 -0.0027796645531748773 0.0 0.00012552201861505924 0.0 0.0
0.0036023384633761145 -0.00205280028060419 0.0 9.92328253765566e-05 0.0 0.0
0.0029885072301209766 -0.0015703739054376542 0.0 8.694216458436143e-05 0.0 0.0
0.002476067276664357 -0.0011476158022435867 0.0 3.4680949593159124e-05 0.0 0.0
0.0021054778782161206 -0.0008771123341882803 0.0 0.00010855727676812027 0.0 0.0
0.0018738235611686035 -0.0008107623738932036 0.0 0.0001546238794045752 0.0 0.0
0.001647380629151398 -0.0007051266854652861 0.0 0.00015650752938124176 0.0 0.0
0.0014151518810224081 -0.0006057482135667352 0.0 0.00015411997225520747 0.0 0.0
0.0011925993305343802 -0.0005084112342112443 0.0 0.0001466145965924125 0.0 0.0
0.000986310159402109 -0.00041937497419165917 0.0 0.00012963070383403298 0.0 0.0
0.0008486271762208831 -0.0003364181534275148 0.0 9.029370372754737e-05 0.0 0.0
0.0006987902857603732 -0.000380180116174638 0.0 0.00010824729481892658 0.0 0.0
0.0007862681669625584 0.00024962443904429495 0.0 0.0003643214346622704 0.0 0.0
0.0009844826896577067 -0.003537911076377358 0.0 -2.637058354902691e-05 0.0 0.0
0.0006676859917384687 -0.002833686897749455 0.0 -0.0006151486923549373 0.0 0.0
0.0004984750251608639 0.0001301278436532683 0.0 -0.0005812007380559175 0.0 0.0
0.0004884392034147096 -0.00019643869434940608 0.0 -7.354988616675984e-05 0.0 0.0
0.000717633685734665 -0.0003034525446377903 0.0 -0.00020878658197281898 0.0 0.0
0.0008738257527701242 -0.0003639373804392722 0.0 -0.00025792319946486115 0.0 0.0
0.0010583302146343321 -0.0004509944480648784 0.0 -0.0002953060515565733 0.0 0.0
0.0012586266264530475 -0.000537935233035147 0.0 -0.0003100043659180259 0.0 0.0
0.0014645616596523463 -0.0006274787968496407 0.0 -0.00031376811741035923 0.0 0.0
0.0016717839096611273 -0.0007202417560483804 0.0 -0.0003100965368289856 0.0 0.0
0.0018851165262536366 -0.0008039336449191829 0.0 -0.0002638856661015431 0.0 0.0
0.002189437046286423 -0.0009560081572660031 0.0 -0.00013387496926429277 0.0 0.0
0.002623292120813039 -0.0012873633009424263 0.0 -0.00020360106463292976 0.0 0.0
0.003164076729268434 -0.00169673712063963 0.0 -0.00023267422126108217 0.0 0.0
0.0038998499071502216 -0.0023014488414212476 0.0 -0.0002938732089032537 0.0 0.0
0.004950066350665815 -0.003218324813841146 0.0 -0.0004072451463093259 0.0 0.0
0.0063712239063788275 -0.004513066064753514 0.0 -0.0005788930061877641 0.0 0.0
0.008107522212705456 -0.00614735532043178 0.0 -0.0007818898297896462 0.0 0.0
0.009944337336846467 -0.007916864932656226 0.0 -0.0009227465209811255 0.0 0.0
0.011552606201107029 -0.009482724846720232 0.0 -0.0008679581322799113 0.0 0.0
0.012629648049268518 -0.010526467918271047 0.0 -0.0005411016229810831 0.0 0.0
0.013004482807382577 -0.01088941450297288 0.0 3.1563835746484248e-15 0.0 0.0
0.012629648049267233 -0.010526467918269644 0.0 0.0005411016229900898 0.0 0.0
0.01155260620110607 -0.009482724846718813 0.0 0.0008679581322895969 0.0 0.0
0.009944337336846822 -0.007916864932656522 0.0 0.0009227465209876611 0.0 0.0
0.008107522212706277 -0.006147355320432919 0.0 0.0007818898297918 0.0 0.0
0.006371223906379003 -0.00451306606475334 0.0 0.0005788930061878281 0.0 0.0
0.004950066350665434 -0.003218324813840722 0.0 0.0004072451463099057 0.0 0.0
0.003899849907149721 -0.0023014488414205754 0.0 0.00029387320890368975 0.0 0.0
0.0031640767292680253 -0.0016967371206389728 0.0 0.00023267422126122697 0.0 0.0
0.0026232921208131587 -0.0012873633009429836 0.0 0.0002036010646332253 0.0 0.0
0.002189437046286718 -0.0009560081572663091 0.0 0.00013387496926449215 0.0 0.0
0.0018851165262536796 -0.0008039336449188466 0.0 0.00026388566610105745 0.0 0.0
0.001671783909661104 -0.0007202417560481829 0.0 0.0003100965368289856 0.0 0.0
0.0014645616596522932 -0.0006274787968495335 0.0 0.0003137681174103806 0.0 0.0
0.0012586266264529998 -0.0005379352330349568 0.0 0.0003100043659179376 0.0 0.0
0.0010583302146342727 -0.00045099444806486583 0.0 0.0002953060515565146 0.0 0.0
0.000873825752770083 -0.00036393738043923393 0.0 0.0002579231994648051 0.0 0.0
0.0007176336857346668 -0.00030345254463780475 0.0 0.0002087865819727227 0.0 0.0
0.0004884392034147118 -0.0001964386943494332 0.0 7.354988616675395e-05 0.0 0.0
0.0004984750251610584 0.00013012784365330407 0.0 0.0005812007380561 0.0 0.0
0.0006676859917388617 -0.00283368689775 0.0 0.0006151486923541623 0.0 0.0
0.0005092893960891652 -0.00237881183149091 0.0 -0.0008731207701690421 0.0 0.0
0.0003438075891808126 -2.1490689930747023e-06 0.0 -0.0007301816658683687 0.0 0.0
0.0003313176020302887 -8.137879074662557e-05 0.0 -0.00022146774856891517 0.0 0.0
0.000578897724441261 -0.00023883331637623335 0.0 -0.0003003938111220238 0.0 0.0
0.0007543542876765094 -0.0003120955651174727 0.0 -0.0003837729830641987 0.0 0.0
0.0009229868472493629 -0.0003905552304775247 0.0 -0.00042626207558056097 0.0 0.0
0.0011007876896109966 -0.0004698997043622368 0.0 -0.00044745808611315 0.0 0.0
0.0012821823957207927 -0.0005494454443612936 0.0 -0.00045343477911124607 0.0 0.0
0.001468380740527206 -0.000631236484004653 0.0 -0.00044745909412948853 0.0 0.0
0.001670076344315456 -0.0007267093075887467 0.0 -0.00041688903166933224 0.0 0.0
0.0019183698799797493 -0.0008224844917545372 0.0 -0.00030785464613417094 0.0 0.0
0.002269659669205438 -0.0010264271126012368 0.0 -0.00029698927465041455 0.0 0.0
0.0027335268993161537 -0.0013649092386466026 0.0 -0.000334968148506095 0.0 0.0
0.0033551840002618927 -0.0018456192680424868 0.0 -0.0004107302364399067 0.0 0.0
0.004255151969869218 -0.0026088917529436457 0.0 -0.0005589566572028234 0.0 0.0
0.005501014192675636 -0.003723719642756463 0.0 -0.0007942528598651525 0.0 0.0
0.007058247796384615 -0.005175217735909968 0.0 -0.0010789408983336122 0.0 0.0
0.008737119806038158 -0.0067852352033168405 0.0 -0.0012793133298737124 0.0 0.0
0.010224981008835683 -0.008229577647268503 0.0 -0.0012032515377804016 0.0 0.0
0.011227431003927488 -0.00919489079447697 0.0 -0.0007474351470197713 0.0 0.0
0.011577194001482051 -0.009532098123317633 0.0 4.913116354726688e-15 0.0 0.0
0.011227431003926107 -0.009194890794475205 0.0 0.0007474351470318774 0.0 0.0
0.01022498100883465 -0.00822957764726696 0.0 0.0012032515377927992 0.0 0.0
0.008737119806038217 -0.0067852352033165265 0.0 0.0012793133298815832 0.0 0.0
0.007058247796385138 -0.005175217735910806 0.0 0.0010789408983364545 0.0 0.0
0.0055010141926757836 -0.0037237196427565584 0.0 0.0007942528598655274 0.0 0.0
0.004255151969868894 -0.002608891752943154 0.0 0.0005589566572033343 0.0 0.0
0.0033551840002614434 -0.0018456192680421828 0.0 0.0004107302364400647 0.0 0.0
0.002733526899315784 -0.001364909238645951 0.0 0.00033496814850623904 0.0 0.0
0.002269659669205471 -0.0010264271126017 0.0 0.0002969892746507029 0.0 0.0
0.0019183698799799466 -0.0008224844917541957 0.0 0.00030785464613381007 0.0 0.0
0.0016700763443155326 -0.0007267093075889643 0.0 0.0004168890316692491 0.0 0.0
0.001468380740527224 -0.0006312364840045099 0.0 0.00044745909412941746 0.0 0.0
0.0012821823957207472 -0.0005494454443613322 0.0 0.00045343477911137303 0.0 0.0
0.0011007876896109567 -0.0004698997043621956 0.0 0.00044745808611312615 0.0 0.0
0.0009229868472493338 -0.0003905552304774667 0.0 0.00042626207558045396 0.0 0.0
0.0007543542876764795 -0.0003120955651173985 0.0 0.0003837729830642821 0.0 0.0
0.0005788977244412549 -0.0002388333163761825 0.0 0.0003003938111219706 0.0 0.0
0.0003313176020303294 -8.137879074670468e-05 0.0 0.000221467748568853 0.0 0.0
0.0003438075891808549 -2.149068993072983e-06 0.0 0.0007301816658684441 0.0 0.0
0.0005092893960891847 -0.0023788118314905338 0.0 0.0008731207701683188 0.0 0.0
0.00042309386617261674 -0.0020217988824202658 0.0 -0.0009291570960820626 0.0 0.0
0.0002585154727366693 -0.00011719525834405208 0.0 -0.0008471915675063972 0.0 0.0
0.00021845842202960233 -1.6869078640803725e-05 0.0 -0.0004127389634703434 0.0 0.0
0.00044750541409988064 -0.00016979588599765665 0.0 -0.00040964802606368754 0.0 0.0
0.0006304869595898018 -0.00025687396015718154 0.0 -0.0004956904684719209 0.0 0.0
0.0007864765410043307 -0.00032998025291389833 0.0 -0.000543186312821726 0.0 0.0
0.0009422606516925525 -0.0004011648501954575 0.0 -0.0005667196716102635 0.0 0.0
0.0010997904821433405 -0.0004710547842110654 0.0 -0.0005746747066639683 0.0 0.0
0.0012640628930966737 -0.000544300840981255 0.0 -0.0005705881349967877 0.0 0.0
0.0014467311713538835 -0.000634971723306068 0.0 -0.0005526749468379599 0.0 0.0
0.0016603860452983044 -0.0007167070325985629 0.0 -0.0005037100136303254 0.0 0.0
0.0019392851877704093 -0.0008318075116326449 0.0 -0.00042575441740111 0.0 0.0
0.002312499887573797 -0.0010660349525623903 0.0 -0.000431211666418667 0.0 0.0
0.002824157731135365 -0.0014244947825605631 0.0 -0.0004861959139517186 0.0 0.0
0.0035716210092824286 -0.00202755211694619 0.0 -0.0006403839995136133 0.0 0.0
0.0046335473008262415 -0.0029517837938582816 0.0 -0.0009117043956127955 0.0 0.0
0.006000056410791118 -0.004206815837748558 0.0 -0.001258048404517364 0.0 0.0
0.007513955799265094 -0.005648932653519173 0.0 -0.0015151159648824951 0.0 0.0
0.00888513184706542 -0.006975350916317966 0.0 -0.0014382466491361157 0.0 0.0
0.00982335533775821 -0.007873222127809927 0.0 -0.0008970254423798162 0.0 0.0
0.01015361875717429 -0.008191070647318369 0.0 5.9105281433047274e-15 0.0 0.0
0.009823355337756747 -0.007873222127807552 0.0 0.0008970254423935358 0.0 0.0
0.008885131847064125 -0.0069753509163163864 0.0 0.0014382466491497693 0.0 0.0
0.007513955799264723 -0.005648932653518421 0.0 0.0015151159648909393 0.0 0.0
0.006000056410791199 -0.0042068158377486205 0.0 0.0012580484045205712 0.0 0.0
0.004633547300826197 -0.002951783793858167 0.0 0.0009117043956132483 0.0 0.0
0.003571621009282126 -0.0020275521169457254 0.0 0.0006403839995138656 0.0 0.0
0.0028241577311349836 -0.0014244947825605004 0.0 0.00048619591395181205 0.0 0.0
0.0023124998875735303 -0.0010660349525619599 0.0 0.0004312116664187184 0.0 0.0
0.0019392851877703676 -0.0008318075116325443 0.0 0.0004257544174013548 0.0 0.0
0.0016603860452983792 -0.0007167070325981406 0.0 0.0005037100136301867 0.0 0.0
0.001446731171353965 -0.0006349717233063186 0.0 0.0005526749468380028 0.0 0.0
0.0012640628930967164 -0.0005443008409812202 0.0 0.0005705881349966702 0.0 0.0
0.001099790482143323 -0.0004710547842109371 0.0 0.0005746747066640383 0.0 0.0
0.0009422606516925247 -0.00040116485019553097 0.0 0.0005667196716103497 0.0 0.0
0.0007864765410042983 -0.00032998025291382433 0.0 0.0005431863128216327 0.0 0.0
0.0006304869595897944 -0.0002568739601571592 0.0 0.0004956904684719621 0.0 0.0
0.0004475054140999173 -0.00016979588599758466 0.0 0.00040964802606378235 0.0 0.0
0.00021845842202964014 -1.6869078640829543e-05 0.0 0.00041273896347026023 0.0 0.0
0.00025851547273670884 -0.00011719525834401333 0.0 0.0008471915675063122 0.0 0.0
0.0004230938661726526 -0.0020217988824202176 0.0 0.0009291570960819847 0.0 0.0
0.0003650914501908252 -0.0017131991985245057 0.0 -0.0008958797397514697 0.0 0.0
0.00020692745377885613 -0.00020324214313907833 0.0 -0.0009230598835564736 0.0 0.0
0.00013813662808477128 1.3283682577007001e-05 0.0 -0.0005983499958020274 0.0 0.0
0.0003292135789056143 -0.0001070847976883916 0.0 -0.0005308788896164645 0.0 0.0
0.0005060866719619548 -0.0001996424357177571 0.0 -0.0005973420764127836 0.0 0.0
0.0006490853735294076 -0.00026920836201912974 0.0 -0.0006448623478544323 0.0 0.0
0.0007833877062272382 -0.0003321642457111481 0.0 -0.0006685802612770266 0.0 0.0
0.0009171884422552443 -0.0003924639329922511 0.0 -0.0006777062932996361 0.0 0.0
0.0010578366987717357 -0.00045714441180700087 0.0 -0.0006777610885384964 0.0 0.0
0.0012149923202269765 -0.0005350911566717492 0.0 -0.0006764798598730226 0.0 0.0
0.001399280011483981 -0.0006120557991859365 0.0 -0.0006665721152740025 0.0 0.0
0.001626103654993757 -0.0006956945396091424 0.0 -0.0006101723374448506 0.0 0.0
0.0019160203576485462 -0.0008268186776267571 0.0 -0.0005604425455385341 0.0 0.0
0.0023140923627436943 -0.0010584540423102095 0.0 -0.0005518666128926947 0.0 0.0
0.0029060536999472356 -0.0014907116044559816 0.0 -0.0006664130225162813 0.0 0.0
0.0037757380247201685 -0.0022124469956328555 0.0 -0.00093279381140373 0.0 0.0
0.004937907615354635 -0.0032539304236962052 0.0 -0.0013088396892767336 0.0 0.0
0.006274921092280241 -0.0045132242309028365 0.0 -0.0016157498662759209 0.0 0.0
0.0075272343971626385 -0.005717863219026869 0.0 -0.001564389676419652 0.0 0.0
0.008407551022133945 -0.006554130302140162 0.0 -0.0009886712519714556 0.0 0.0
0.008722647627658954 -0.0068576685492652 0.0 6.025724624131312e-15 0.0 0.0
0.008407551022132453 -0.006554130302137691 0.0 0.0009886712519850088 0.0 0.0
0.007527234397161062 -0.005717863219025127 0.0 0.001564389676432995 0.0 0.0
0.006274921092279323 -0.004513224230902233 0.0 0.0016157498662838824 0.0 0.0
0.004937907615354235 -0.003253930423695778 0.0 0.0013088396892794515 0.0 0.0
0.0037757380247199013 -0.0022124469956323342 0.0 0.00093279381140428 0.0 0.0
0.0029060536999469372 -0.0014907116044555122 0.0 0.0006664130225164607 0.0 0.0
0.0023140923627433816 -0.0010584540423102017 0.0 0.0005518666128926328 0.0 0.0
0.0019160203576483329 -0.0008268186776263995 0.0 0.0005604425455384456 0.0 0.0
0.0016261036549937151 -0.0006956945396091414 0.0 0.0006101723374447505 0.0 0.0
0.001399280011484028 -0.0006120557991858138 0.0 0.000666572115273973 0.0 0.0
0.0012149923202270478 -0.0005350911566721259 0.0 0.0006764798598731889 0.0 0.0
0.001057836698771778 -0.0004571444118069009 0.0 0.0006777610885384736 0.0 0.0
0.0009171884422552417 -0.00039246393299197444 0.0 0.0006777062932995826 0.0 0.0
0.0007833877062271971 -0.0003321642457112248 0.0 0.000668580261277042 0.0 0.0
0.0006490853735293769 -0.0002692083620191846 0.0 0.0006448623478543866 0.0 0.0
0.0005060866719619403 -0.0001996424357177838 0.0 0.0005973420764127734 0.0 0.0
0.00032921357890561953 -0.00010708479768838245 0.0 0.0005308788896164875 0.0 0.0
0.0001381366280847957 1.3283682577039319e-05 0.0 0.0005983499958019487 0.0 0.0
0.0002069274537788657 -0.0002032421431390655 0.0 0.0009230598835564556 0.0 0.0
0.0003650914501908388 -0.0017131991985244724 0.0 0.0008958797397514511 0.0 0.0
0.0003189767971005539 -0.0014463987423318126 0.0 -0.000833536799171863 0.0 0.0
0.00017138809313768774 -0.00025803539226658173 0.0 -0.0009608748460754337 0.0 0.0
7.938434327391203e-05 2.2985714164505197e-05 0.0 -0.0007566893360347602 0.0 0.0
0.0002249294146401517 -5.425610874650761e-05 0.0 -0.0006519657315019117 0.0 0.0
0.00038413724349722385 -0.00014282956474182128 0.0 -0.0006897722389840091 0.0 0.0
0.0005115402321942927 -0.00020837923589812644 0.0 -0.0007310679308803395 0.0 0.0
0.0006244046852501368 -0.0002631327377212976 0.0 -0.0007531020923345005 0.0 0.0
0.000734152000310435 -0.00031381743763318027 0.0 -0.0007626197057887979 0.0 0.0
0.0008493414355803898 -0.0003681060809920871 0.0 -0.0007681533451124908 0.0 0.0
0.0009782993758483804 -0.00043237385931694773 0.0 -0.0007816394136141475 0.0 0.0
0.0011289945936841489 -0.0004968771431924337 0.0 -0.0007953011512072955 0.0 0.0
0.0013133297404172278 -0.0005661124865732385 0.0 -0.0007820962236237765 0.0 0.0
0.001542196545240818 -0.0006548744189975015 0.0 -0.0007378731772133976 0.0 0.0
0.0018363826718233419 -0.0007860805074371199 0.0 -0.0006820980007377623 0.0 0.0
0.002269933683903737 -0.0010315925271222215 0.0 -0.0006872153609856508 0.0 0.0
0.0029383763293889327 -0.001532979630310341 0.0 -0.000880382907857759 0.0 0.0
0.0038799461725212998 -0.0023384308960865954 0.0 -0.0012303321856683826 0.0 0.0
0.005021210713174077 -0.003389696084519129 0.0 -0.0015626500232889416 0.0 0.0
0.006144406641663392 -0.004457460097598246 0.0 -0.0015608053694018465 0.0 0.0
0.006968329068764616 -0.005231141448429319 0.0 -0.0010108987381674634 0.0 0.0
0.007271407793067073 -0.005524195731990446 0.0 4.931439371441693e-15 0.0 0.0
0.006968329068763152 -0.005231141448426897 0.0 0.0010108987381794157 0.0 0.0
0.006144406641661583 -0.004457460097596093 0.0 0.0015608053694131097 0.0 0.0
0.005021210713172617 -0.003389696084518155 0.0 0.0015626500232951927 0.0 0.0
0.003879946172520515 -0.002338430896086165 0.0 0.001230332185669984 0.0 0.0
0.0029383763293885645 -0.0015329796303098781 0.0 0.0008803829078579434 0.0 0.0
0.002269933683903468 -0.0010315925271217326 0.0 0.0006872153609857666 0.0 0.0
0.0018363826718231064 -0.0007860805074372203 0.0 0.0006820980007375718 0.0 0.0
0.0015421965452406495 -0.0006548744189972738 0.0 0.0007378731772133817 0.0 0.0
0.0013133297404171996 -0.0005661124865733018 0.0 0.0007820962236237763 0.0 0.0
0.0011289945936841933 -0.0004968771431922727 0.0 0.0007953011512073031 0.0 0.0
0.0009782993758484166 -0.00043237385931728286 0.0 0.0007816394136143045 0.0 0.0
0.0008493414355804193 -0.0003681060809920208 0.0 0.0007681533451125657 0.0 0.0
0.0007341520003104543 -0.00031381743763306323 0.0 0.0007626197057887407 0.0 0.0
0.0006244046852501363 -0.00026313273772136204 0.0 0.0007531020923344672 0.0 0.0
0.0005115402321942912 -0.0002083792358981731 0.0 0.0007310679308803269 0.0 0.0
0.00038413724349723507 -0.00014282956474187305 0.0 0.000689772238983939 0.0 0.0
0.00022492941464014702 -5.425610874641469e-05 0.0 0.0006519657315018712 0.0 0.0
7.938434327391385e-05 2.298571416450746e-05 0.0 0.000756689336034665 0.0 0.0
0.00017138809313770137 -0.0002580353922665414 0.0 0.0009608748460753691 0.0 0.0
0.00031897679710055104 -0.0014463987423317852 0.0 0.0008335367991717969 0.0 0.0
0.00027792062026152744 -0.001214302509610585 0.0 -0.0007643907556215725 0.0 0.0
0.0001428894488407456 -0.00028567332951201117 0.0 -0.0009699765791019808 0.0 0.0
3.401010988422768e-05 2.2775203149441508e-05 0.0 -0.0008795158731439653 0.0 0.0
0.0001331391407443978 -1.1271031536170694e-05 0.0 -0.0007623691773294961 0.0 0.0
0.00026640280882345147 -8.828996137643458e-05 0.0 -0.0007714593707509359 0.0 0.0
0.00037467948767155163 -0.00014791888289725636 0.0 -0.0008017326999480328 0.0 0.0
0.0004655005248333055 -0.0001942646055248556 0.0 -0.0008201277048808302 0.0 0.0
0.0005506095197359885 -0.00023493507275882574 0.0 -0.0008294487132884244 0.0 0.0
0.000638908491433645 -0.00027748184008364094 0.0 -0.0008400430089159867 0.0 0.0
0.0007375253242267717 -0.0003269370700696877 0.0 -0.0008648818983433838 0.0 0.0
0.0008520865263179322 -0.00037675499036779686 0.0 -0.0008976156111470282 0.0 0.0
0.0009914148049628532 -0.00042938034752372636 0.0 -0.0009135580991878284 0.0 0.0
0.001166694373864411 -0.0005016260670975208 0.0 -0.000906486167916424 0.0 0.0
0.0013874103532200328 -0.0005898404726526105 0.0 -0.0008693565046814062 0.0 0.0
0.0016824691919361697 -0.0007057146358998076 0.0 -0.0008090925698515025 0.0 0.0
0.0021407727694666935 -0.0009716201573489402 0.0 -0.0008489048685234921 0.0 0.0
0.002841648171289984 -0.0015069700865330464 0.0 -0.0010694409650945547 0.0 0.0
0.0037589116959915736 -0.002308965492728546 0.0 -0.001354980637023136 0.0 0.0
0.0047301450095759675 -0.003205262612506259 0.0 -0.001399316772561512 0.0 0.0
0.005490754090954087 -0.0039015979316514857 0.0 -0.0009416739304856436 0.0 0.0
0.005782562235449331 -0.004184916476637433 0.0 3.142668417166483e-15 0.0 0.0
0.005490754090952812 -0.0039015979316493875 0.0 0.0009416739304939677 0.0 0.0
0.0047301450095740055 -0.0032052626125039017 0.0 0.0013993167725692684 0.0 0.0
0.0037589116959898016 -0.0023089654927268403 0.0 0.00135498063702678 0.0 0.0
0.0028416481712889756 -0.001506970086532641 0.0 0.001069440965095334 0.0 0.0
0.002140772769466318 -0.0009716201573485858 0.0 0.0008489048685235629 0.0 0.0
0.0016824691919359858 -0.0007057146358995638 0.0 0.0008090925698515756 0.0 0.0
0.0013874103532198834 -0.0005898404726524777 0.0 0.0008693565046813147 0.0 0.0
0.0011666943738643158 -0.0005016260670974653 0.0 0.0009064861679163605 0.0 0.0
0.0009914148049628277 -0.0004293803475236745 0.0 0.0009135580991878108 0.0 0.0
0.0008520865263179259 -0.0003767549903676983 0.0 0.0008976156111469612 0.0 0.0
0.0007375253242268002 -0.00032693707006971676 0.0 0.0008648818983435468 0.0 0.0
0.0006389084914336602 -0.0002774818400838174 0.0 0.0008400430089160406 0.0 0.0
0.0005506095197359839 -0.00023493507275878378 0.0 0.0008294487132883679 0.0 0.0
0.00046550052483331546 -0.00019426460552493446 0.0 0.0008201277048808134 0.0 0.0
0.0003746794876715407 -0.00014791888289730445 0.0 0.0008017326999480772 0.0 0.0
0.0002664028088234566 -8.828996137641631e-05 0.0 0.0007714593707508317 0.0 0.0
0.00013313914074442333 -1.1271031536097158e-05 0.0 0.0007623691773294924 0.0 0.0
3.401010988423645e-05 2.277520314951631e-05 0.0 0.0008795158731438751 0.0 0.0
0.00014288944884073925 -0.0002856733295119805 0.0 0.0009699765791019248 0.0 0.0
0.0002779206202615158 -0.0012143025096105567 0.0 0.0007643907556215214 0.0 0.0
0.0002390746686450414 -0.0010109350435002127 0.0 -0.0006967868957613886 0.0 0.0
0.00011690621170888585 -0.00029174722196084285 0.0 -0.0009579205245595582 0.0 0.0
-3.63315006099065e-06 1.9495308357554736e-05 0.0 -0.0009658960807214542 0.0 0.0
5.14844615983566e-05 2.356254769099885e-05 0.0 -0.0008545900203615332 0.0 0.0
0.00015359800468906927 -3.7037247842370356e-05 0.0 -0.0008397564330794958 0.0 0.0
0.00023920357822929524 -8.833011110302335e-05 0.0 -0.0008564419225460068 0.0 0.0
0.0003068725874771334 -0.0001256869789961513 0.0 -0.0008694981458583494 0.0 0.0
0.0003666497880309115 -0.00015581052659114633 0.0 -0.0008778832436602316 0.0 0.0
0.000426942430876817 -0.00018564326691121623 0.0 -0.0008921401546726987 0.0 0.0
0.0004936260743173002 -0.0002193524979009425 0.0 -0.0009252075268771005 0.0 0.0
0.0005706838496021206 -0.0002531239454914042 0.0 -0.0009714886443169496 0.0 0.0
0.0006640135985382655 -0.00028861269998868994 0.0 -0.0010063689534664762 0.0 0.0
0.0007820372224163938 -0.00033742161065043833 0.0 -0.0010232524396039334 0.0 0.0
0.0009323818251476103 -0.00040088575700170977 0.0 -0.0010270200999041188 0.0 0.0
0.0011267235834947935 -0.0004719766111122499 0.0 -0.0010021878954145306 0.0 0.0
0.0014080885090394534 -0.0005861329006193258 0.0 -0.0009563848500696746 0.0 0.0
0.0018548179328788088 -0.0008600784509030312 0.0 -0.001002851088755752 0.0 0.0
0.0025089297288583613 -0.0013502389512043953 0.0 -0.001126359516966079 0.0 0.0
0.003284470111374674 -0.002011773602265359 0.0 -0.0011284405809107673 0.0 0.0
0.00395694423856127 -0.002582294416456233 0.0 -0.0007734081971717946 0.0 0.0
0.004232356213916479 -0.0028476156562134572 0.0 8.97394138166252e-16 0.0 0.0
0.0039569442385601825 -0.002582294416454763 0.0 0.0007734081971747812 0.0 0.0
0.003284470111372825 -0.0020117736022641905 0.0 0.0011284405809141814 0.0 0.0
0.0025089297288567185 -0.0013502389512029208 0.0 0.0011263595169672851 0.0 0.0
0.0018548179328780022 -0.0008600784509025937 0.0 0.0010028510887557709 0.0 0.0
0.0014080885090392088 -0.0005861329006194842 0.0 0.0009563848500696256 0.0 0.0
0.0011267235834946769 -0.00047197661111220797 0.0 0.0010021878954145132 0.0 0.0
0.0009323818251474969 -0.0004008857570018906 0.0 0.0010270200999041121 0.0 0.0
0.0007820372224163221 -0.00033742161065011974 0.0 0.0010232524396036923 0.0 0.0
0.0006640135985382408 -0.0002886126999886408 0.0 0.0010063689534663793 0.0 0.0
0.0005706838496021274 -0.00025312394549136766 0.0 0.0009714886443169947 0.0 0.0
0.0004936260743173304 -0.00021935249790093605 0.0 0.0009252075268773917 0.0 0.0
0.0004269424308768255 -0.00018564326691147145 0.0 0.0008921401546728869 0.0 0.0
0.00036664978803092505 -0.00015581052659111196 0.0 0.0008778832436601887 0.0 0.0
0.0003068725874771681 -0.00012568697899619172 0.0 0.0008694981458582554 0.0 0.0
0.000239203578229303 -8.833011110300557e-05 0.0 0.0008564419225459427 0.0 0.0
0.0001535980046890758 -3.703724784248528e-05 0.0 0.0008397564330794178 0.0 0.0
5.14844615983691e-05 2.3562547690923358e-05 0.0 0.0008545900203614243 0.0 0.0
-3.6331500610002768e-06 1.949530835760068e-05 0.0 0.0009658960807213857 0.0 0.0
0.00011690621170888085 -0.00029174722196078913 0.0 0.0009579205245594388 0.0 0.0
0.00023907466864504575 -0.0010109350435001934 0.0 0.0006967868957614315 0.0 0.0
0.00020137458031460972 -0.0008315372895330393 0.0 -0.0006331022766683321 0.0 0.0
9.129078576719361e-05 -0.00028163200987998244 0.0 -0.0009298479334697166 0.0 0.0
-3.725213107981367e-05 1.7182430609581974e-05 0.0 -0.0010180042517216935 0.0 0.0
-2.2439025435449482e-05 5.237613048256179e-05 0.0 -0.0009240656053258601 0.0 0.0
4.571336245985969e-05 1.0632679692483234e-05 0.0 -0.0008918456732178483 0.0 0.0
0.00010556865811288747 -3.001537723820409e-05 0.0 -0.0008944386312182795 0.0 0.0
0.00014871861878858523 -5.751615425069575e-05 0.0 -0.0009009691497389755 0.0 0.0
0.00018244452117319906 -7.654641043474661e-05 0.0 -0.0009075429673042631 0.0 0.0
0.00021390763498047678 -9.297546459718845e-05 0.0 -0.0009236870254333621 0.0 0.0
0.0002476607373481927 -0.00011029171905093817 0.0 -0.0009617191963957957 0.0 0.0
0.0002863167574098278 -0.00012732149137400256 0.0 -0.0010159145834548035 0.0 0.0
0.0003330540655914288 -0.00014507984964535052 0.0 -0.0010621669339516897 0.0 0.0
0.0003921571410038727 -0.00016954611126973037 0.0 -0.0010933366113149968 0.0 0.0
0.0004671624981597396 -0.00020096769801076483 0.0 -0.0011185053857860469 0.0 0.0
0.000563437653278177 -0.0002382825873187663 0.0 -0.0011339998333501258 0.0 0.0
0.0007011437752162729 -0.00029140382232413866 0.0 -0.0011209630188745113 0.0 0.0
0.0009295266565677465 -0.00040459411403859815 0.0 -0.0010918794712096375 0.0 0.0
0.001310078666568977 -0.0006440839701684536 0.0 -0.0010740620638538248 0.0 0.0
0.0018384407142924037 -0.0010276437205199518 0.0 -0.000986843333885151 0.0 0.0
0.0023663264352176546 -0.0013959475921886694 0.0 -0.0006710002773494594 0.0 0.0
0.0026012748397230886 -0.0015939503701844302 0.0 -5.52292586664116e-16 0.0 0.0
0.002366326435216896 -0.0013959475921875302 0.0 0.0006710002773493398 0.0 0.0
0.0018384407142912524 -0.0010276437205197083 0.0 0.0009868433338860569 0.0 0.0
0.001310078666567987 -0.0006440839701678478 0.0 0.001074062063854317 0.0 0.0
0.0009295266565672748 -0.0004045941140383548 0.0 0.0010918794712095228 0.0 0.0
0.0007011437752161657 -0.00029140382232417016 0.0 0.0011209630188743988 0.0 0.0
0.0005634376532781471 -0.0002382825873189731 0.0 0.0011339998333502086 0.0 0.0
0.0004671624981596941 -0.00020096769801102008 0.0 0.001118505385786021 0.0 0.0
0.000392157141003829 -0.0001695461112695306 0.0 0.001093336611314966 0.0 0.0
0.000333054065591427 -0.00014507984964524692 0.0 0.0010621669339515357 0.0 0.0
0.0002863167574098375 -0.00012732149137411626 0.0 0.0010159145834547961 0.0 0.0
0.0002476607373481827 -0.0001102917190508999 0.0 0.0009617191963960435 0.0 0.0
0.00021390763498046277 -9.297546459766169e-05 0.0 0.0009236870254334848 0.0 0.0
0.00018244452117319906 -7.654641043466299e-05 0.0 0.0009075429673043116 0.0 0.0
0.00014871861878861442 -5.7516154250569494e-05 0.0 0.0009009691497389144 0.0 0.0
0.00010556865811291787 -3.001537723823575e-05 0.0 0.0008944386312181394 0.0 0.0
4.5713362459873416e-05 1.0632679692441594e-05 0.0 0.0008918456732177611 0.0 0.0
-2.243902543542873e-05 5.2376130482522005e-05 0.0 0.0009240656053257381 0.0 0.0
-3.72521310798248e-05 1.7182430609594242e-05 0.0 0.0010180042517215643 0.0 0.0
9.129078576715208e-05 -0.00028163200987989256 0.0 0.0009298479334696244 0.0 0.0
0.00020137458031458852 -0.0008315372895330487 0.0 0.0006331022766683384 0.0 0.0
0.00016458578493169177 -0.0006725505188732485 0.0 -0.0005731488121010223 0.0 0.0
6.51717329865295e-05 -0.00025992534484293843 0.0 -0.000888971862377224 0.0 0.0
-6.917173004945682e-05 1.7958535187275315e-05 0.0 -0.0010390021661525893 0.0 0.0
-9.073482063787317e-05 7.715265812944417e-05 0.0 -0.0009684340798018162 0.0 0.0
-5.768628650293526e-05 5.490221761619057e-05 0.0 -0.000925255806441565 0.0 0.0
-2.602262654009191e-05 2.6797681966254763e-05 0.0 -0.0009147509707853536 0.0 0.0
-8.799931184653757e-06 1.0144623242435721e-05 0.0 -0.0009142068675022685 0.0 0.0
-1.7992199245633941e-06 2.7109625985679737e-06 0.0 -0.0009181274324165645 0.0 0.0
3.2793958062479254e-07 1.1174494853670053e-07 0.0 -0.00093424869568079 0.0 0.0
6.464232622095561e-07 -4.883526099159109e-07 0.0 -0.0009738219506370263 0.0 0.0
4.81283003407368e-07 -4.36474462175583e-07 0.0 -0.0010306702661171418 0.0 0.0
2.4789231943862794e-07 -1.7945076266275716e-07 0.0 -0.001080702037782239 0.0 0.0
-1.1602853676668975e-07 2.8813615113260237e-07 0.0 -0.001116822529062755 0.0 0.0
-1.5723461403444733e-06 1.434507084937315e-06 0.0 -0.0011480017965129435 0.0 0.0
-6.367156767700182e-06 5.4962772153575074e-06 0.0 -0.0011719645553041349 0.0 0.0
-1.040344027868855e-05 1.1437576586611317e-05 0.0 -0.001179971123969065 0.0 0.0
1.565845608963537e-05 -1.3296068777323337e-05 0.0 -0.0011698996907071756 0.0 0.0
0.00013462356915722057 -0.00011911968973545092 0.0 -0.0011579760133822207 0.0 0.0
0.00040223153248923225 -0.0003044709775924455 0.0 -0.0010842919603249062 0.0 0.0
0.000765437582109508 -0.0005081957551468204 0.0 -0.0007615819212416095 0.0 0.0
0.0009534875514521478 -0.0006674903679338223 0.0 -6.338788001436502e-16 0.0 0.0
0.0007654375821092179 -0.0005081957551466264 0.0 0.0007615819212413313 0.0 0.0
0.00040223153248883424 -0.0003044709775921051 0.0 0.0010842919603255819 0.0 0.0
0.0001346235691569394 -0.00011911968973481453 0.0 0.0011579760133825136 0.0 0.0
1.5658456089537724e-05 -1.3296068777405987e-05 0.0 0.001169899690707125 0.0 0.0
-1.0403440278658504e-05 1.1437576586647245e-05 0.0 0.0011799711239689704 0.0 0.0
-6.367156767676438e-06 5.496277214806712e-06 0.0 0.001171964555304219 0.0 0.0
-1.5723461403414985e-06 1.4345070849478505e-06 0.0 0.0011480017965128958 0.0 0.0
-1.1602853675172099e-07 2.881361510493526e-07 0.0 0.0011168225290626482 0.0 0.0
2.4789231946377465e-07 -1.794507628624977e-07 0.0 0.0010807020377820932 0.0 0.0
4.812830034305022e-07 -4.3647446203781396e-07 0.0 0.001030670266117068 0.0 0.0
6.464232622159631e-07 -4.883526097554651e-07 0.0 0.0009738219506372147 0.0 0.0
3.2793958061153817e-07 1.1174494837351963e-07 0.0 0.0009342486956808241 0.0 0.0
-1.7992199245717832e-06 2.710962598724221e-06 0.0 0.0009181274324167104 0.0 0.0
-8.79993118465007e-06 1.0144623242360391e-05 0.0 0.0009142068675022546 0.0 0.0
-2.6022626540098204e-05 2.6797681966228193e-05 0.0 0.000914750970785326 0.0 0.0
-5.768628650292921e-05 5.490221761632768e-05 0.0 0.000925255806441467 0.0 0.0
-9.073482063786783e-05 7.715265812948707e-05 0.0 0.0009684340798017533 0.0 0.0
-6.917173004945121e-05 1.7958535187237653e-05 0.0 0.001039002166152471 0.0 0.0
6.517173298653058e-05 -0.00025992534484286015 0.0 0.000888971862377214 0.0 0.0
0.00016458578493167694 -0.0006725505188732714 0.0 0.0005731488121011036 0.0 0.0
0.00012887018452412493 -0.0005315055479002232 0.0 -0.0005157207570171983 0.0 0.0
3.836873160474092e-05 -0.0002303558626123449 0.0 -0.0008371663406930241 0.0 0.0
-0.00010075821050827257 2.2710854208111947e-05 0.0 -0.001032069771280663 0.0 0.0
-0.00015509053559281408 9.949470250542707e-05 0.0 -0.0009867750952861861 0.0 0.0
-0.0001572423884144018 9.621541524451832e-05 0.0 -0.0009380367815294015 0.0 0.0
-0.00015558578817401758 8.206139716815105e-05 0.0 -0.0009163394223109097 0.0 0.0
-0.0001655901676101317 7.723115475921271e-05 0.0 -0.0009088272655511833 0.0 0.0
-0.00018586954001687257 8.180843264647607e-05 0.0 -0.000909456359605722 0.0 0.0
-0.00021325536044672962 9.318597154305752e-05 0.0 -0.00092365903329271 0.0 0.0
-0.0002464069433547864 0.000109338111862394 0.0 -0.0009613490655077147 0.0 0.0
-0.00028539026456730535 0.00012646885990040215 0.0 -0.0010156400492931292 0.0 0.0
-0.00033258505833401415 0.00014474308451598855 0.0 -0.0010620332428699245 0.0 0.0
-0.00039238525392032116 0.0001701176052999313 0.0 -0.0010932067059794442 0.0 0.0
-0.00046997773226149504 0.0002037134471648406 0.0 -0.001117067318517242 0.0 0.0
-0.0005751465890355351 0.0002482808838461501 0.0 -0.0011273366634153169 0.0 0.0
-0.0007214129530789238 0.0003134158279299199 0.0 -0.0011081382454644463 0.0 0.0
-0.0009060562837985959 0.00038161349890881427 0.0 -0.0011087046023731141 0.0 0.0
-0.0010610060900832342 0.00042432046235161777 0.0 -0.0012395051551425424 0.0 0.0
-0.001045949322705634 0.0003602532512834297 0.0 -0.001383179179741461 0.0 0.0
-0.0008161298520419887 0.0002027543742541898 0.0 -0.001168481735757792 0.0 0.0
-0.0006567140251771014 -8.176303702287248e-05 0.0 -4.53413348533438e-16 0.0 0.0
-0.0008161298520419401 0.00020275437425381807 0.0 0.0011684817357578464 0.0 0.0
-0.0010459493227053427 0.0003602532512833566 0.0 0.001383179179742022 0.0 0.0
-0.00106100609008283 0.00042432046235189457 0.0 0.0012395051551426436 0.0 0.0
-0.0009060562837983008 0.0003816134989088725 0.0 0.0011087046023729357 0.0 0.0
-0.0007214129530787603 0.000313415827929298 0.0 0.0011081382454643195 0.0 0.0
-0.0005751465890354621 0.0002482808838463455 0.0 0.001127336663415317 0.0 0.0
-0.0004699777322614459 0.00020371344716451834 0.0 0.001117067318517395 0.0 0.0
-0.00039238525392027557 0.00017011760529999972 0.0 0.001093206705979365 0.0 0.0
-0.0003325850583340008 0.00014474308451602473 0.0 0.0010620332428698178 0.0 0.0
-0.0002853902645673029 0.00012646885990077214 0.0 0.0010156400492930895 0.0 0.0
-0.00024640694335479875 0.0001093381118625138 0.0 0.0009613490655079201 0.0 0.0
-0.0002132553604467519 9.318597154297217e-05 0.0 0.0009236590332927742 0.0 0.0
-0.00018586954001686382 8.180843264649521e-05 0.0 0.0009094563596058209 0.0 0.0
-0.00016559016761011954 7.723115475906546e-05 0.0 0.0009088272655511859 0.0 0.0
-0.00015558578817399295 8.20613971681385e-05 0.0 0.0009163394223110687 0.0 0.0
-0.00015724238841437215 9.621541524452122e-05 0.0 0.0009380367815293017 0.0 0.0
-0.00015509053559280606 9.949470250546567e-05 0.0 0.0009867750952860432 0.0 0.0
-0.00010075821050826467 2.2710854208040515e-05 0.0 0.0010320697712806204 0.0 0.0
3.836873160473671e-05 -0.00023035586261232024 0.0 0.0008371663406929996 0.0 0.0
0.0001288701845241004 -0.000531505547900219 0.0 0.0005157207570172682 0.0 0.0
9.458959953118811e-05 -0.00040687483926772205 0.0 -0.0004593260396109105 0.0 0.0
1.1086266029698511e-05 -0.00019586854677077764 0.0 -0.0007754502763978508 0.0 0.0
-0.00013271024499517863 3.155398104211181e-05 0.0 -0.0010000132178786948 0.0 0.0
-0.0002167709388662615 0.00012057119654522078 0.0 -0.0009789999387599445 0.0 0.0
-0.0002536620731778748 0.00013512414768100778 0.0 -0.0009287405285425812 0.0 0.0
-0.00028330734923441976 0.00013588231089957414 0.0 -0.0008982113210922263 0.0 0.0
-0.0003216458949036564 0.0001437406893192602 0.0 -0.0008844429967393695 0.0 0.0
-0.0003695821636517809 0.00016061225786248869 0.0 -0.0008814779706181577 0.0 0.0
-0.0004263084620983945 0.00018581964857218076 0.0 -0.0008920466480901018 0.0 0.0
-0.0004924908558535457 0.00021847165540411827 0.0 -0.0009244812280482019 0.0 0.0
-0.0005698599454233416 0.0002523238799453803 0.0 -0.0009709703257253315 0.0 0.0
-0.0006636355371059661 0.0002883554826975708 0.0 -0.0010060709691554343 0.0 0.0
-0.000782223406096368 0.00033792762721988347 0.0 -0.0010230162367236438 0.0 0.0
-0.0009344175207568698 0.000403603745082835 0.0 -0.0010249324308443076 0.0 0.0
-0.0011351111900538007 0.0004805166467828423 0.0 -0.0009949777975533267 0.0 0.0
-0.001425982443882423 0.0006038630761691293 0.0 -0.0009286778111823811 0.0 0.0
-0.001851044076697863 0.0008537828578469675 0.0 -0.0010288806337191442 0.0 0.0
-0.002318402844274021 0.0011568549806194428 0.0 -0.0014188744985107013 0.0 0.0
-0.002558526358080691 0.0012803159261095523 0.0 -0.0018905263806144519 0.0 0.0
-0.0023513023669663726 0.0010306275541352185 0.0 -0.0018608032164083646 0.0 0.0
-0.0021220178056006876 0.0004165532504928144 0.0 -2.975592862386467e-16 0.0 0.0
-0.002351302366966049 0.0010306275541342002 0.0 0.0018608032164089123 0.0 0.0
-0.0025585263580797614 0.0012803159261093235 0.0 0.0018905263806159281 0.0 0.0
-0.00231840284427281 0.0011568549806186402 0.0 0.0014188744985110223 0.0 0.0
-0.0018510440766971508 0.0008537828578466474 0.0 0.001028880633718908 0.0 0.0
-0.0014259824438821506 0.0006038630761688349 0.0 0.0009286778111823085 0.0 0.0
-0.0011351111900536602 0.00048051664678336694 0.0 0.000994977797553395 0.0 0.0
-0.0009344175207567618 0.00040360374508275503 0.0 0.0010249324308444037 0.0 0.0
-0.0007822234060962931 0.0003379276272199316 0.0 0.0010230162367236089 0.0 0.0
-0.0006636355371059346 0.00028835548269771834 0.0 0.001006070969155332 0.0 0.0
-0.0005698599454233408 0.0002523238799455722 0.0 0.0009709703257253898 0.0 0.0
-0.0004924908558535733 0.0002184716554039995 0.0 0.0009244812280482509 0.0 0.0
-0.0004263084620984069 0.00018581964857199696 0.0 0.000892046648090199 0.0 0.0
-0.0003695821636517698 0.0001606122578625199 0.0 0.000881477970618243 0.0 0.0
-0.0003216458949036214 0.00014374068931921277 0.0 0.0008844429967393961 0.0 0.0
-0.00028330734923438154 0.0001358823108995514 0.0 0.0008982113210922599 0.0 0.0
-0.0002536620731778668 0.00013512414768094088 0.0 0.0009287405285425666 0.0 0.0
-0.0002167709388662465 0.0001205711965451482 0.0 0.0009789999387598274 0.0 0.0
-0.0001327102449951823 3.155398104213093e-05 0.0 0.001000013217878606 0.0 0.0
1.1086266029678392e-05 -0.00019586854677077853 0.0 0.0007754502763978273 0.0 0.0
9.458959953117103e-05 -0.0004068748392677071 0.0 0.00045932603961093056 0.0 0.0
6.222556653666385e-05 -0.0002979216788505716 0.0 -0.00040255507699934177 0.0 0.0
-1.6233728270664283e-05 -0.00015876546776183746 0.0 -0.0007043551891028983 0.0 0.0
-0.0001652416611041212 4.411696929612701e-05 0.0 -0.0009451378808642665 0.0 0.0
-0.0002766552214404881 0.00014114438002695376 0.0 -0.0009453977511219356 0.0 0.0
-0.00034764121078074007 0.00017219813513047873 0.0 -0.0008963157887934988 0.0 0.0
-0.00040950185754590993 0.00018848698460362945 0.0 -0.000859494051199446 0.0 0.0
-0.00047705519331186174 0.00020974433287701864 0.0 -0.0008406968815800143 0.0 0.0
-0.0005528104722336052 0.00023903288620167451 0.0 -0.0008342856130689321 0.0 0.0
-0.0006383285451496899 0.0002776200176082586 0.0 -0.0008398203455862129 0.0 0.0
-0.0007365923566973368 0.0003261769716779745 0.0 -0.0008638334773450351 0.0 0.0
-0.000851422566100055 0.0003760521928289388 0.0 -0.0008968895200834677 0.0 0.0
-0.0009911704311473305 0.00042918673950575613 0.0 -0.0009131436601917931 0.0 0.0
-0.0011669752329057511 0.0005022022007579826 0.0 -0.0009058542013145748 0.0 0.0
-0.0013894935974620556 0.0005924179386619957 0.0 -0.0008680941505647646 0.0 0.0
-0.0016851229281019749 0.0007098476385801802 0.0 -0.0007982850633202478 0.0 0.0
-0.0021530367474183404 0.0009830458361944087 0.0 -0.000808436439298761 0.0 0.0
-0.002860018869725729 0.0015241211700413398 0.0 -0.0010768340003306778 0.0 0.0
-0.0036481247958974174 0.002174123888165353 0.0 -0.0017054705071505565 0.0 0.0
-0.004113629059670684 0.0025446481633423783 0.0 -0.0024950819448269204 0.0 0.0
-0.0038108754147352106 0.0021142233063260645 0.0 -0.002610728631756657 0.0 0.0
-0.0034203442785320157 0.0009087297141232948 0.0 8.897505128502292e-16 0.0 0.0
-0.0038108754147344517 0.002114223306324499 0.0 0.0026107286317601933 0.0 0.0
-0.004113629059669174 0.0025446481633416627 0.0 0.0024950819448320066 0.0 0.0
-0.0036481247958957816 0.002174123888163975 0.0 0.001705470507152908 0.0 0.0
-0.0028600188697246822 0.001524121170040432 0.0 0.0010768340003309666 0.0 0.0
-0.002153036747417931 0.0009830458361945983 0.0 0.0008084364392988671 0.0 0.0
-0.0016851229281017908 0.0007098476385803 0.0 0.0007982850633204558 0.0 0.0
-0.0013894935974618993 0.0005924179386618464 0.0 0.0008680941505648356 0.0 0.0
-0.0011669752329056568 0.0005022022007581798 0.0 0.0009058542013145711 0.0 0.0
-0.0009911704311473047 0.00042918673950568414 0.0 0.0009131436601917022 0.0 0.0
-0.0008514225661000694 0.00037605219282889617 0.0 0.0008968895200835098 0.0 0.0
-0.0007365923566973574 0.00032617697167764846 0.0 0.0008638334773450899 0.0 0.0
-0.0006383285451496886 0.0002776200176084079 0.0 0.0008398203455864176 0.0 0.0
-0.0005528104722335801 0.00023903288620165738 0.0 0.0008342856130688994 0.0 0.0
-0.0004770551933118391 0.00020974433287696435 0.0 0.0008406968815800798 0.0 0.0
-0.00040950185754588553 0.0001884869846036542 0.0 0.0008594940511993678 0.0 0.0
-0.00034764121078071204 0.0001721981351304146 0.0 0.0008963157887934383 0.0 0.0
-0.0002766552214404693 0.00014114438002693896 0.0 0.0009453977511219107 0.0 0.0
-0.00016524166110410898 4.411696929611117e-05 0.0 0.0009451378808642608 0.0 0.0
-1.623372827065833e-05 -0.00015876546776179447 0.0 0.0007043551891028229 0.0 0.0
6.222556653667011e-05 -0.00029792167885057415 0.0 0.0004025550769994599 0.0 0.0
3.2364120502333e-05 -0.0002045578080555821 0.0 -0.0003443115652694403 0.0 0.0
-4.295934572265578e-05 -0.00012085862995906411 0.0 -0.0006242093652498794 0.0 0.0
-0.00019817854594295897 5.969826755807342e-05 0.0 -0.000869215785135924 0.0 0.0
-0.0003352892422046672 0.00016162920801918312 0.0 -0.0008862959083335441 0.0 0.0
-0.00043983625155345676 0.00020798869224109763 0.0 -0.0008399803258511713 0.0 0.0
-0.0005345784011579559 0.00024019052702869362 0.0 -0.0007994802517008824 0.0 0.0
-0.0006320019158672387 0.0002753861416654585 0.0 -0.0007772806189701475 0.0 0.0
-0.0007355086221063255 0.0003170606808330107 0.0 -0.0007681047899642688 0.0 0.0
-0.000848885232878448 0.0003682281003288706 0.0 -0.0007677345565825808 0.0 0.0
-0.000977651701453038 0.0004317788680425449 0.0 -0.0007803252526178972 0.0 0.0
-0.0011285513949650934 0.0004963235149969594 0.0 -0.0007944212530862142 0.0 0.0
-0.0013132037498607878 0.0005659228119577506 0.0 -0.0007815711069619157 0.0 0.0
-0.0015428714668554186 0.0006557602283764237 0.0 -0.0007370787037336801 0.0 0.0
-0.0018371511133096659 0.0007882894222064793 0.0 -0.0006810355119982719 0.0 0.0
-0.002265590388255418 0.0010289503542139451 0.0 -0.0006699708153757555 0.0 0.0
-0.0029379024828345827 0.0015315647259912465 0.0 -0.0008266669747538487 0.0 0.0
-0.003912492577603704 0.002366993968038146 0.0 -0.0011810621675400377 0.0 0.0
-0.0050149213913038195 0.0033681754526796058 0.0 -0.0018884804886134489 0.0 0.0
-0.005682711150655821 0.003986280375118881 0.0 -0.0029067961946539294 0.0 0.0
-0.00519795583892575 0.0033864421932876788 0.0 -0.0032809617109363495 0.0 0.0
-0.004584370049105347 0.0013534254329112593 0.0 2.6453448806473823e-15 0.0 0.0
-0.005197955838924454 0.0033864421932855732 0.0 0.0032809617109441167 0.0 0.0
-0.005682711150653944 0.003986280375116891 0.0 0.002906796194663139 0.0 0.0
-0.005014921391302214 0.003368175452678742 0.0 0.0018884804886185463 0.0 0.0
-0.003912492577602681 0.0023669939680375416 0.0 0.001181062167541314 0.0 0.0
-0.0029379024828341 0.0015315647259911114 0.0 0.0008266669747540368 0.0 0.0
-0.0022655903882551906 0.001028950354214028 0.0 0.0006699708153757755 0.0 0.0
-0.0018371511133094326 0.0007882894222064879 0.0 0.0006810355119982756 0.0 0.0
-0.0015428714668552631 0.0006557602283763189 0.0 0.0007370787037337834 0.0 0.0
-0.001313203749860739 0.000565922811957776 0.0 0.0007815711069618895 0.0 0.0
-0.001128551394965097 0.000496323514996919 0.0 0.0007944212530862798 0.0 0.0
-0.0009776517014530744 0.00043177886804253603 0.0 0.0007803252526179101 0.0 0.0
-0.0008488852328784679 0.0003682281003289092 0.0 0.0007677345565826921 0.0 0.0
-0.0007355086221062952 0.0003170606808327668 0.0 0.0007681047899642565 0.0 0.0
-0.0006320019158671901 0.0002753861416655359 0.0 0.0007772806189700838 0.0 0.0
-0.0005345784011579282 0.00024019052702858613 0.0 0.0007994802517008251 0.0 0.0
-0.00043983625155342705 0.00020798869224118193 0.0 0.000839980325851134 0.0 0.0
-0.00033528924220464605 0.00016162920801926484 0.0 0.0008862959083335391 0.0 0.0
-0.00019817854594296556 5.969826755806401e-05 0.0 0.0008692157851359404 0.0 0.0
-4.295934572267324e-05 -0.00012085862995899309 0.0 0.00062420936524984 0.0 0.0
3.236412050231025e-05 -0.0002045578080555766 0.0 0.00034431156526945763 0.0 0.0
5.728388706344629e-06 -0.0001272044747480325 0.0 -0.00028404151121384243 0.0 0.0
-6.824028764644068e-05 -8.363218213416334e-05 0.0 -0.0005353745867674817 0.0 0.0
-0.00023098698923585022 7.732055073085298e-05 0.0 -0.0007734409609364615 0.0 0.0
-0.000392943762100227 0.0001821689212697985 0.0 -0.0008017878374424674 0.0 0.0
-0.0005308748379003266 0.0002430340589607775 0.0 -0.0007591082371110036 0.0 0.0
-0.0006590175892121851 0.0002913766077360067 0.0 -0.0007176577132285758 0.0 0.0
-0.0007867552841345029 0.0003408552465338098 0.0 -0.0006939632013352965 0.0 0.0
-0.0009177513625081494 0.0003948305119240036 0.0 -0.0006831770836012852 0.0 0.0
-0.0010576158118141125 0.00045729922825501774 0.0 -0.000677107245613097 0.0 0.0
-0.0012147101299039564 0.0005347080995234135 0.0 -0.0006749816041970064 0.0 0.0
-0.0013991012604863099 0.0006116683372133198 0.0 -0.0006656009643135431 0.0 0.0
-0.001626172528330953 0.0006955672937476074 0.0 -0.0006095643236361098 0.0 0.0
-0.0019168094120963742 0.0008280027604507767 0.0 -0.0005599322911643577 0.0 0.0
-0.0023134543940142426 0.0010600171857362483 0.0 -0.0005491564143491723 0.0 0.0
-0.002893485043625225 0.0014823145936586814 0.0 -0.000647396537123815 0.0 0.0
-0.0037539858054097854 0.002188078163490963 0.0 -0.0008677895411787377 0.0 0.0
-0.004969776503650694 0.003272394300352061 0.0 -0.0012034682723863746 0.0 0.0
-0.006373079407153126 0.0046077123648641215 0.0 -0.0018341592793730689 0.0 0.0
-0.007252919082584502 0.00549017883768082 0.0 -0.0029685390493196036 0.0 0.0
-0.006555297310282686 0.004753802351325049 0.0 -0.0038159674181515923 0.0 0.0
-0.005678385090773507 0.0017261052829681293 0.0 3.977395669763073e-15 0.0 0.0
-0.006555297310280917 0.004753802351322329 0.0 0.0038159674181620796 0.0 0.0
-0.007252919082582425 0.005490178837678518 0.0 0.0029685390493316478 0.0 0.0
-0.00637307940715187 0.004607712364863548 0.0 0.0018341592793799056 0.0 0.0
-0.004969776503650019 0.0032723943003515154 0.0 0.0012034682723885647 0.0 0.0
-0.0037539858054093846 0.00218807816349068 0.0 0.0008677895411793944 0.0 0.0
-0.0028934850436249894 0.0014823145936585995 0.0 0.0006473965371240473 0.0 0.0
-0.0023134543940139516 0.0010600171857363082 0.0 0.000549156414349088 0.0 0.0
-0.0019168094120961391 0.0008280027604502346 0.0 0.0005599322911643034 0.0 0.0
-0.0016261725283309005 0.0006955672937474144 0.0 0.0006095643236361417 0.0 0.0
-0.001399101260486349 0.0006116683372134122 0.0 0.0006656009643135467 0.0 0.0
-0.0012147101299040176 0.0005347080995235424 0.0 0.0006749816041971433 0.0 0.0
-0.0010576158118141285 0.0004572992282550238 0.0 0.0006771072456130837 0.0 0.0
-0.0009177513625081223 0.0003948305119239411 0.0 0.0006831770836012649 0.0 0.0
-0.0007867552841344513 0.00034085524653374545 0.0 0.0006939632013353103 0.0 0.0
-0.0006590175892121371 0.0002913766077359574 0.0 0.0007176577132284324 0.0 0.0
-0.0005308748379002878 0.00024303405896086022 0.0 0.0007591082371110871 0.0 0.0
-0.0003929437621001991 0.00018216892126985692 0.0 0.0008017878374423189 0.0 0.0
-0.000230986989235839 7.732055073083917e-05 0.0 0.0007734409609363977 0.0 0.0
-6.824028764643068e-05 -8.363218213414384e-05 0.0 0.0005353745867674769 0.0 0.0
5.728388706356305e-06 -0.00012720447474802874 0.0 0.0002840415112138111 0.0 0.0
-1.6735055179233925e-05 -6.663836727382409e-05 0.0 -0.0002220813158560263 0.0 0.0
-9.090221155104989e-05 -4.843989948027363e-05 0.0 -0.00043846290648783415 0.0 0.0
-0.0002627416658715534 9.570717598455756e-05 0.0 -0.0006582809794893784 0.0 0.0
-0.0004496844801688747 0.000202734411020834 0.0 -0.0006914909698023281 0.0 0.0
-0.0006213980129025178 0.0002778914154184415 0.0 -0.0006531721344165798 0.0 0.0
-0.0007833622231156011 0.0003424974984235656 0.0 -0.0006137070345156838 0.0 0.0
-0.0009416301707840479 0.0004063247118908298 0.0 -0.0005906874276860485 0.0 0.0
-0.0010998057277165504 0.00047267922646006754 0.0 -0.0005795318951299185 0.0 0.0
-0.0012642295087387408 0.0005445585727139535 0.0 -0.0005697168924890333 0.0 0.0
-0.001446882792897428 0.0006348409658805662 0.0 -0.0005511063122546089 0.0 0.0
-0.0016605198098243474 0.0007164820094758276 0.0 -0.000502689383074185 0.0 0.0
-0.0019396275406663812 0.0008318923612217972 0.0 -0.0004252555645263384 0.0 0.0
-0.002313039515978118 0.0010673049822046996 0.0 -0.0004309471413193222 0.0 0.0
-0.002821199845196914 0.001424250138894765 0.0 -0.00048233794498964556 0.0 0.0
-0.003550945638980082 0.0020132414446699647 0.0 -0.0006178601068679805 0.0 0.0
-0.004587536685281225 0.0029041390275655757 0.0 -0.000845397106301455 0.0 0.0
-0.006008852670673707 0.0041906561101243195 0.0 -0.0011287104582960556 0.0 0.0
-0.007684499147312876 0.0058177856424335645 0.0 -0.001567103858789396 0.0 0.0
-0.008810274612443552 0.007004816463080233 0.0 -0.0026739992615658044 0.0 0.0
-0.007925103363473024 0.006236006129095286 0.0 -0.0042002293208001 0.0 0.0
-0.006773209767186632 0.002051546345305905 0.0 4.699799577290165e-15 0.0 0.0
-0.007925103363470958 0.006236006129092524 0.0 0.004200229320811679 0.0 0.0
-0.008810274612441502 0.0070048164630781146 0.0 0.002673999261578281 0.0 0.0
-0.0076844991473120705 0.005817785642433066 0.0 0.0015671038587965211 0.0 0.0
-0.0060088526706733566 0.004190656110123578 0.0 0.0011287104582985927 0.0 0.0
-0.004587536685280954 0.0029041390275653866 0.0 0.0008453971063024099 0.0 0.0
-0.0035509456389798697 0.0020132414446698 0.0 0.0006178601068684131 0.0 0.0
-0.002821199845196593 0.001424250138894056 0.0 0.0004823379449898573 0.0 0.0
-0.0023130395159778475 0.001067304982204139 0.0 0.0004309471413192366 0.0 0.0
-0.0019396275406663335 0.0008318923612219819 0.0 0.00042525556452661776 0.0 0.0
-0.0016605198098244155 0.0007164820094759754 0.0 0.0005026893830740809 0.0 0.0
-0.0014468827928974966 0.0006348409658803147 0.0 0.0005511063122546803 0.0 0.0
-0.0012642295087387477 0.0005445585727136998 0.0 0.0005697168924890162 0.0 0.0
-0.0010998057277165246 0.00047267922646011134 0.0 0.0005795318951298187 0.0 0.0
-0.0009416301707840223 0.0004063247118906944 0.0 0.000590687427686159 0.0 0.0
-0.0007833622231155596 0.0003424974984237615 0.0 0.0006137070345155806 0.0 0.0
-0.0006213980129024794 0.00027789141541835775 0.0 0.0006531721344167232 0.0 0.0
-0.0004496844801688684 0.00020273441102088046 0.0 0.0006914909698022537 0.0 0.0
-0.00026274166587154024 9.570717598458183e-05 0.0 0.0006582809794893861 0.0 0.0
-9.090221155101601e-05 -4.843989948029192e-05 0.0 0.00043846290648782966 0.0 0.0
-1.6735055179201213e-05 -6.663836727383546e-05 0.0 0.0002220813158559816 0.0 0.0
-3.3683239481154365e-05 -2.3787976553749508e-05 0.0 -0.00016029106690064828 0.0 0.0
-0.00010923674034998357 -1.6799576177276395e-05 0.0 -0.00033454359647325824 0.0 0.0
-0.0002920419775972011 0.00011320198722153318 0.0 -0.0005230980006413149 0.0 0.0
-0.0005054768677543708 0.00022327043959805253 0.0 -0.0005543409914922773 0.0 0.0
-0.00071212312531537 0.0003131976645205233 0.0 -0.0005217508637480796 0.0 0.0
-0.0009082274595237222 0.00039403312534345357 0.0 -0.0004875358908217785 0.0 0.0
-0.0010969193801791271 0.00047205104963926484 0.0 -0.000467509623369717 0.0 0.0
-0.0012821126147934798 0.0005506042804490076 0.0 -0.00045728383954582284 0.0 0.0
-0.0014691118875486855 0.0006316826676178167 0.0 -0.00044646058815879725 0.0 0.0
-0.0016707107020450303 0.0007268396084722727 0.0 -0.0004154055311221541 0.0 0.0
-0.001918878636496845 0.0008224712337210543 0.0 -0.0003068404278832665 0.0 0.0
-0.0022702991210242517 0.0010268762617678803 0.0 -0.0002968243376072413 0.0 0.0
-0.0027334216732669138 0.0013658889642475399 0.0 -0.00033486832894488304 0.0 0.0
-0.0033486460969034816 0.0018423154737118447 0.0 -0.00040641218214067427 0.0 0.0
-0.004227189575880369 0.0025876495854906217 0.0 -0.0005354277831587589 0.0 0.0
-0.005435597939693283 0.0036619686661601937 0.0 -0.0007313546979417215 0.0 0.0
-0.007021238999147476 0.005109170612804908 0.0 -0.0009714640280247475 0.0 0.0
-0.00891082619901583 0.006940713393874649 0.0 -0.0011860571807695648 0.0 0.0
-0.010328504034667674 0.008472080556706821 0.0 -0.0020112058628588107 0.0 0.0
-0.009348787814947702 0.007872888246482796 0.0 -0.00434525617280549 0.0 0.0
-0.007947301292421112 0.0023987940835676833 0.0 4.256144048309096e-15 0.0 0.0
-0.00934878781494557 0.007872888246480135 0.0 0.004345256172816379 0.0 0.0
-0.010328504034665708 0.00847208055670418 0.0 0.002011205862870369 0.0 0.0
-0.00891082619901533 0.006940713393874601 0.0 0.001186057180776416 0.0 0.0
-0.007021238999147434 0.005109170612804342 0.0 0.0009714640280271223 0.0 0.0
-0.005435597939693162 0.003661968666160048 0.0 0.0007313546979429511 0.0 0.0
-0.004227189575880195 0.0025876495854903676 0.0 0.0005354277831592922 0.0 0.0
-0.003348646096903166 0.001842315473711463 0.0 0.0004064121821408358 0.0 0.0
-0.0027334216732665347 0.0013658889642470067 0.0 0.000334868328944961 0.0 0.0
-0.002270299121024231 0.0010268762617683877 0.0 0.00029682433760781877 0.0 0.0
-0.001918878636497047 0.0008224712337212513 0.0 0.00030684042788289145 0.0 0.0
-0.0016707107020450655 0.0007268396084718746 0.0 0.00041540553112204303 0.0 0.0
-0.0014691118875486727 0.0006316826676177011 0.0 0.000446460588158718 0.0 0.0
-0.00128211261479344 0.0005506042804490375 0.0 0.0004572838395458112 0.0 0.0
-0.001096919380179058 0.0004720510496392003 0.0 0.00046750962336979996 0.0 0.0
-0.0009082274595236539 0.00039403312534366146 0.0 0.000487535890821778 0.0 0.0
-0.0007121231253153161 0.00031319766452061196 0.0 0.0005217508637482299 0.0 0.0
-0.000505476867754342 0.0002232704395980932 0.0 0.0005543409914923314 0.0 0.0
-0.00029204197759718885 0.00011320198722162883 0.0 0.0005230980006413131 0.0 0.0
-0.00010923674034994759 -1.679957617723763e-05 0.0 0.00033454359647326187 0.0 0.0
-3.368323948107935e-05 -2.37879765537813e-05 0.0 0.00016029106690065614 0.0 0.0
-4.303753382910481e-05 5.780243279941842e-07 0.0 -0.0001032766736920513 0.0 0.0
-0.00012062053431601347 9.089849277830469e-06 0.0 -0.00022531079067400034 0.0 0.0
-0.0003168907403971242 0.0001276719751249967 0.0 -0.0003653100005770133 0.0 0.0
-0.0005603629134225104 0.00024394499032010837 0.0 -0.00038851976819105963 0.0 0.0
-0.0008039315962023355 0.00034971460096367503 0.0 -0.0003646279080028106 0.0 0.0
-0.0010342731589621883 0.00044647661955359984 0.0 -0.00033927915280919374 0.0 0.0
-0.0012529281055606394 0.0005383179650146797 0.0 -0.0003246553120944866 0.0 0.0
-0.0014650533141661126 0.0006284675938986167 0.0 -0.00031633940834509624 0.0 0.0
-0.0016732586758403296 0.0007209967885955512 0.0 -0.00030924133029259024 0.0 0.0
-0.0018862660180928603 0.0008042734650767583 0.0 -0.0002625875950049638 0.0 0.0
-0.0021903784674430376 0.0009563153445451701 0.0 -0.00013313746132906511 0.0 0.0
-0.0026241821239204313 0.00128822958812438 0.0 -0.0002037882378752748 0.0 0.0
-0.003162901096664466 0.001696977722139683 0.0 -0.0002328536651469826 0.0 0.0
-0.00388899307358516 0.0022943555997149215 0.0 -0.0002900188147168558 0.0 0.0
-0.00491484562463444 0.0031892749320038528 0.0 -0.00038744292243050085 0.0 0.0
-0.006296771873016014 0.004445395391188685 0.0 -0.0005256786738597757 0.0 0.0
-0.008017092555370956 0.0060463217693361 0.0 -0.0007091956884131321 0.0 0.0
-0.010016780534784274 0.007943846795563056 0.0 -0.0008444552231350577 0.0 0.0
-0.01174672138312493 0.009780956019320077 0.0 -0.0010464613435239474 0.0 0.0
-0.0108654454042189 0.009684455317656169 0.0 -0.00392620630065383 0.0 0.0
-0.009316563872662562 0.002935036188554723 0.0 3.1795312910309903e-15 0.0 0.0
-0.010865445404216781 0.009684455317654134 0.0 0.003926206300662758 0.0 0.0
-0.011746721383123084 0.009780956019317185 0.0 0.0010464613435334428 0.0 0.0
-0.010016780534783961 0.007943846795563297 0.0 0.0008444552231404976 0.0 0.0
-0.008017092555371063 0.006046321769335818 0.0 0.0007091956884147854 0.0 0.0
-0.006296771873015907 0.004445395391188427 0.0 0.0005256786738608447 0.0 0.0
-0.004914845624634277 0.003189274932003544 0.0 0.0003874429224309605 0.0 0.0
-0.0038889930735848646 0.002294355599715223 0.0 0.0002900188147172515 0.0 0.0
-0.0031629010966640328 0.0016969777221391583 0.0 0.00023285366514710795 0.0 0.0
-0.002624182123920425 0.0012882295881247565 0.0 0.00020378823787567786 0.0 0.0
-0.0021903784674433017 0.0009563153445456512 0.0 0.00013313746132926127 0.0 0.0
-0.0018862660180928963 0.0008042734650763146 0.0 0.0002625875950044918 0.0 0.0
-0.0016732586758403173 0.0007209967885956776 0.0 0.00030924133029256774 0.0 0.0
-0.001465053314166035 0.0006284675938985931 0.0 0.0003163394083451064 0.0 0.0
-0.0012529281055605594 0.000538317965014695 0.0 0.0003246553120945031 0.0 0.0
-0.00103427315896212 0.00044647661955349554 0.0 0.0003392791528092514 0.0 0.0
-0.0008039315962022776 0.00034971460096370197 0.0 0.00036462790800276235 0.0 0.0
-0.0005603629134225064 0.00024394499032016453 0.0 0.00038851976819098054 0.0 0.0
-0.00031689074039712285 0.00012767197512508974 0.0 0.0003653100005769964 0.0 0.0
-0.00012062053431600411 9.08984927789006e-06 0.0 0.00022531079067389032 0.0 0.0
-4.303753382910717e-05 5.780243279664383e-07 0.0 0.00010327667369204982 0.0 0.0
-4.12977762213164e-05 6.380610838775191e-06 0.0 -6.080178908214838e-05 0.0 0.0
-0.00012082243480524503 2.5337159683907297e-05 0.0 -0.000113118862153834 0.0 0.0
-0.0003345800516044392 0.00013651617883840173 0.0 -0.0001785567131377232 0.0 0.0
-0.0006147849534062598 0.0002655744421273583 0.0 -0.00019198242507421727 0.0 0.0
-0.0008979358494453631 0.0003883103491152396 0.0 -0.00018174313300648972 0.0 0.0
-0.0011621783868758064 0.0005002901095006698 0.0 -0.0001695351242393429 0.0 0.0
-0.001409940964507873 0.0006054160345839234 0.0 -0.0001620025944373699 0.0 0.0
-0.0016490920162349858 0.0007064511521163167 0.0 -0.00015805151743843537 0.0 0.0
-0.001876223714924771 0.0008118705119874657 0.0 -0.00015431615901830278 0.0 0.0
-0.0021071797671284205 0.0008777278696729016 0.0 -0.00010772939685210764 0.0 0.0
-0.0024774581829335603 0.0011485262847207812 0.0 -3.4490013657857956e-05 0.0 0.0
-0.00298950298502631 0.0015714844279642857 0.0 -8.727272490308881e-05 0.0 0.0
-0.0035997174142017837 0.002051984800005036 0.0 -9.992804024338134e-05 0.0 0.0
-0.004438520246507918 0.002768346052879812 0.0 -0.00012368237253885313 0.0 0.0
-0.005610279307972762 0.0038105309464620436 0.0 -0.00016889452497951795 0.0 0.0
-0.00716112889856961 0.005239905494046135 0.0 -0.00023867532342614338 0.0 0.0
-0.009024555751127846 0.007004185695803449 0.0 -0.0003373221977672902 0.0 0.0
-0.01099990658664464 0.008910071736444444 0.0 -0.0004931116406359056 0.0 0.0
-0.012926483114562771 0.010699831924048305 0.0 -0.0004267837860714545 0.0 0.0
-0.012490901870835371 0.011553847033073434 0.0 -0.001920193794569966 0.0 0.0
-0.01111238981328475 0.004149145067327043 0.0 2.237359603141087e-15 0.0 0.0
-0.012490901870833435 0.011553847033071633 0.0 0.001920193794574703 0.0 0.0
-0.012926483114561035 0.01069983192404548 0.0 0.00042678378607658677 0.0 0.0
-0.010999906586644194 0.008910071736444307 0.0 0.0004931116406389582 0.0 0.0
-0.009024555751127827 0.007004185695803255 0.0 0.0003373221977680822 0.0 0.0
-0.007161128898569467 0.005239905494045932 0.0 0.00023867532342689948 0.0 0.0
-0.005610279307972574 0.003810530946461722 0.0 0.00016889452497986256 0.0 0.0
-0.004438520246507616 0.002768346052879799 0.0 0.0001236823725391155 0.0 0.0
-0.0035997174142013465 0.0020519848000043277 0.0 9.992804024358446e-05 0.0 0.0
-0.0029895029850261733 0.0015714844279643282 0.0 8.72727249032362e-05 0.0 0.0
-0.002477458182933952 0.0011485262847219552 0.0 3.449001365861349e-05 0.0 0.0
-0.002107179767128596 0.0008777278696728323 0.0 0.00010772939685141242 0.0 0.0
-0.0018762237149246687 0.0008118705119876603 0.0 0.00015431615901828453 0.0 0.0
-0.0016490920162349006 0.000706451152116358 0.0 0.00015805151743845765 0.0 0.0
-0.0014099409645077804 0.0006054160345840715 0.0 0.0001620025944373261 0.0 0.0
-0.0011621783868757429 0.0005002901095004579 0.0 0.0001695351242392522 0.0 0.0
-0.0008979358494453164 0.0003883103491151914 0.0 0.00018174313300642255 0.0 0.0
-0.0006147849534062266 0.00026557444212737836 0.0 0.00019198242507411587 0.0 0.0
-0.00033458005160443173 0.00013651617883840794 0.0 0.00017855671313766208 0.0 0.0
-0.0001208224348052437 2.5337159683892545e-05 0.0 0.00011311886215365748 0.0 0.0
-4.1297776221302696e-05 6.38061083878291e-06 0.0 6.080178908217931e-05 0.0 0.0
-2.213107184072477e-05 4.695394263163346e-06 0.0 -4.0712160078757696e-05 0.0 0.0
-0.00010269032285614448 3.0415872828205917e-05 0.0 -4.7794768480452406e-05 0.0 0.0
-0.00034174064908811983 0.0001391809203884372 0.0 -6.076476736146927e-05 0.0 0.0
-0.0006701545163785641 0.0002767869661150913 0.0 -6.772157926879626e-05 0.0 0.0
-0.0009954646755993325 0.00040824162441374526 0.0 -6.718723972568737e-05 0.0 0.0
-0.0012925254793305662 0.0005275903750722668 0.0 -6.413279780091461e-05 0.0 0.0
-0.0015685478676766016 0.0006392205066542132 0.0 -6.132633023640309e-05 0.0 0.0
-0.0018332549816156966 0.0007454964167066568 0.0 -6.0624743387721614e-05 0.0 0.0
-0.0020834668731743175 0.0008574043848798246 0.0 -6.001954697909569e-05 0.0 0.0
-0.002349857137758929 0.0009163416670265076 0.0 -3.820562706921017e-06 0.0 0.0
-0.0027763522443059983 0.0012643445571437404 0.0 5.116157745767118e-05 0.0 0.0
-0.0033507248565894134 0.0017144626409953843 0.0 3.984517482762514e-05 0.0 0.0
-0.004041445305143271 0.002235016322313795 0.0 6.426212379947907e-05 0.0 0.0
-0.00499544517084665 0.003009724533012712 0.0 9.874634198724184e-05 0.0 0.0
-0.006311555070777108 0.004125344954778173 0.0 0.00013244452428690047 0.0 0.0
-0.008023318143537534 0.005638905552127718 0.0 0.00014401645950013722 0.0 0.0
-0.010030115111954395 0.007484724677357363 0.0 0.00011495333437384653 0.0 0.0
-0.012001626680480597 0.009406209455500062 0.0 -8.047009874056739e-05 0.0 0.0
-0.013588854314234022 0.01102277975391954 0.0 -0.0001363492573520609 0.0 0.0
-0.014093104931531155 0.012473794674719017 0.0 -0.0006308577252905701 0.0 0.0
-0.013928189146103269 0.005017894033023678 0.0 1.8544193958192068e-15 0.0 0.0
-0.014093104931529994 0.012473794674717107 0.0 0.0006308577252923677 0.0 0.0
-0.013588854314232067 0.011022779753916754 0.0 0.00013634925735443227 0.0 0.0
-0.012001626680479415 0.009406209455499302 0.0 8.047009874254996e-05 0.0 0.0
-0.01003011511195399 0.007484724677357064 0.0 -0.0001149533343733195 0.0 0.0
-0.008023318143537309 0.005638905552127668 0.0 -0.00014401645949957702 0.0 0.0
-0.006311555070776879 0.004125344954777723 0.0 -0.00013244452428665847 0.0 0.0
-0.0049954451708462844 0.0030097245330123084 0.0 -9.874634198713743e-05 0.0 0.0
-0.004041445305142824 0.0022350163223129747 0.0 -6.426212379942908e-05 0.0 0.0
-0.003350724856589094 0.0017144626409948374 0.0 -3.9845174827482944e-05 0.0 0.0
-0.0027763522443064142 0.001264344557145542 0.0 -5.1161577456778826e-05 0.0 0.0
-0.0023498571377592622 0.0009163416670268344 0.0 3.820562706228104e-06 0.0 0.0
-0.002083466873174135 0.0008574043848802451 0.0 6.001954697892382e-05 0.0 0.0
-0.0018332549816155936 0.0007454964167069307 0.0 6.062474338776357e-05 0.0 0.0
-0.0015685478676765088 0.0006392205066543759 0.0 6.132633023637172e-05 0.0 0.0
-0.0012925254793304947 0.0005275903750722262 0.0 6.413279780072414e-05 0.0 0.0
-0.0009954646755992707 0.00040824162441385905 0.0 6.718723972569987e-05 0.0 0.0
-0.0006701545163785505 0.00027678696611506724 0.0 6.772157926876772e-05 0.0 0.0
-0.0003417406490881473 0.00013918092038837446 0.0 6.076476736126854e-05 0.0 0.0
-0.0001026903228561086 3.0415872828145547e-05 0.0 4.779476848023897e-05 0.0 0.0
-2.213107184062987e-05 4.695394263189631e-06 0.0 4.0712160078901414e-05 0.0 0.0
SCALARS Statev float 8
LOOKUP_TABLE default
0.0 0.0009006175886174092 0.0007651445397297405 -0.0009480312981823394 0.000182886758452599 -0.0002323109105450299 0.0 0.0
0.0 5.881512440961483e-05 -0.00011343464123491151 0.00013527789115033977 -2.1843249915428346e-05 4.805764931498529e-05 0.0 0.0
0.0 0.0 0.0 0.0 0.0 0.0 0.0 0.0
0.0 0.0 0.0 0.0 0.0 0.0 0.0 0.0
0.0 0.0 0.0 0.0 0.0 0.0 0.0 0.0
0.0 0.0 0.0 0.0 0.0 0.0 0.0 0.0
0.0 3.0515200442633847e-05 -4.645302059414807e-06 3.429160710483706e-06 1.2161413489310283e-06 -1.12082025337311e-06 0.0 0.0
0.0 0.00015283129594173986 -1.7491396652616672e-05 1.3190231728963554e-05 4.3011649236546315e-06 6.888541209938788e-07 0.0 0.0
0.0 0.00011400608494545936 5.140792133062883e-05 -3.8445638851593475e-05 -1.2962282479036038e-05 1.2718614380672248e-05 0.0 0.0
0.0 0.00017873542765367654 0.00015365129836911661 -0.00011352849142347024 -4.012280694564619e-05 1.5218785807329887e-05 0.0 0.0
0.0 0.0004612010987004683 0.00043859476053551623 -0.000338342210461887 -0.00010025255007362902 4.283538174841358e-05 0.0 0.0
0.0 0.00092614647126941 0.0008722300626936812 -0.0006997355652840426 -0.00017249449740963844 4.487184323265753e-05 0.0 0.0
0.0 0.0015313103540739214 0.0014310924280565706 -0.001176452778963763 -0.0002546396490928078 6.671811848147418e-05 0.0 0.0
0.0 0.0024396281074193678 0.0022599343902373384 -0.0019093366022661547 -0.00035059778797118344 9.958858702776819e-05 0.0 0.0
0.0 0.003762037265163963 0.0034530549191760965 -0.002997227206529645 -0.0004558277126464522 0.00012922565201433275 0.0 0.0
0.0 0.005551322769706679 0.0050511280422571615 -0.004492514559413539 -0.0005586134828436204 0.00013937692484792928 0.0 0.0
0.0 0.0077270873113497954 0.00697885350935733 -0.006331475810446616 -0.0006473776989107115 0.00011793944610827574 0.0 0.0
0.0 0.010030341180672975 0.009007893340505205 -0.008291109100424531 -0.0007167842400806742 7.2411120959416e-05 0.0 0.0
0.0 0.012070062583673909 0.01079859963753279 -0.010030004263187271 -0.0007685953743455191 2.5798119519175535e-05 0.0 0.0
0.0 0.013460419653744168 0.012017497287414372 -0.011213421069795643 -0.0008040762176187333 4.0793902837151083e-07 0.0 0.0
0.0 0.013951800085576675 0.012447732055795182 -0.011630519556911384 -0.0008172124988837981 7.731445691994132e-16 0.0 0.0
0.0 0.013460419653743087 0.012017497287413399 -0.011213421069794487 -0.0008040762176189194 -4.079390259205092e-07 0.0 0.0
0.0 0.01207006258367236 0.010798599637531556 -0.010030004263185911 -0.0007685953743456421 -2.579811951690104e-05 0.0 0.0
0.0 0.01003034118067249 0.009007893340504784 -0.008291109100424172 -0.0007167842400806129 -7.241112095768482e-05 0.0 0.0
0.0 0.007727087311350231 0.006978853509357773 -0.0063314758104470945 -0.0006473776989106802 -0.00011793944610723314 0.0 0.0
0.0 0.005551322769706648 0.005051128042257149 -0.00449251455941341 -0.0005586134828437396 -0.00013937692484818068 0.0 0.0
0.0 0.003762037265163585 0.003453054919175742 -0.002997227206529379 -0.0004558277126463624 -0.0001292256520140821 0.0 0.0
0.0 0.002439628107418595 0.0022599343902366745 -0.0019093366022654443 -0.0003505977879712315 -9.958858702763257e-05 0.0 0.0
0.0 0.0015313103540734925 0.0014310924280561917 -0.0011764527789634054 -0.0002546396490927864 -6.671811848137905e-05 0.0 0.0
0.0 0.0009261464712691494 0.000872230062693443 -0.0006997355652838119 -0.00017249449740963053 -4.487184323259927e-05 0.0 0.0
0.0 0.00046120109870126315 0.00043859476053623777 -0.0003383422104625745 -0.0001002525500736633 -4.283538174811854e-05 0.0 0.0
0.0 0.00017873542765378173 0.00015365129836922875 -0.0001135284914235365 -4.012280694569217e-05 -1.521878580750131e-05 0.0 0.0
0.0 0.0001140060849452924 5.1407921330531416e-05 -3.844563885151915e-05 -1.2962282479011625e-05 -1.2718614380663656e-05 0.0 0.0
0.0 0.00015283129594166167 -1.7491396652613704e-05 1.3190231728959393e-05 4.301164923653403e-06 -6.888541209926996e-07 0.0 0.0
0.0 3.051520044261147e-05 -4.645302059411057e-06 3.4291607104806727e-06 1.2161413489300233e-06 1.1208202533732049e-06 0.0 0.0
0.0 0.0 0.0 0.0 0.0 0.0 0.0 0.0
0.0 0.0 0.0 0.0 0.0 0.0 0.0 0.0
0.0 0.0 0.0 0.0 0.0 0.0 0.0 0.0
0.0 0.0 0.0 0.0 0.0 0.0 0.0 0.0
0.0 5.881512440973666e-05 -0.00011343464123495341 0.0001352778911503942 -2.184324991544153e-05 -4.805764931497402e-05 0.0 0.0
0.0 0.0009006175886178584 0.0007651445397301722 -0.0009480312981828401 0.00018288675845266834 0.0002323109105451547 0.0 0.0
0.0 0.0005260612068591799 0.0003505048843831862 -0.0004893645073414048 0.0001388596229582183 -2.2782862074215554e-05 0.0 0.0
0.0 -9.452392872272325e-05 -4.549511668174699e-05 6.445500763133428e-05 -1.8959890949587235e-05 7.836138222057379e-07 0.0 0.0
0.0 0.0 0.0 0.0 0.0 0.0 0.0 0.0
0.0 0.0 0.0 0.0 0.0 0.0 0.0 0.0
0.0 0.0 0.0 0.0 0.0 0.0 0.0 0.0
0.0 0.0 0.0 0.0 0.0 0.0 0.0 0.0
0.0 -2.558890876638598e-06 4.955137348157698e-07 -3.756118627620895e-07 -1.1990187205361093e-07 -6.169492534011254e-08 0.0 0.0
0.0 6.143085081389813e-05 -9.738213659460273e-06 7.3703676672428125e-06 2.367845992216979e-06 -1.1467942010753478e-06 0.0 0.0
0.0 0.0002490598697064181 -2.9353255912649082e-05 2.2445507787867455e-05 6.907748124782401e-06 3.635591280267169e-06 0.0 0.0
0.0 0.00010265846759556998 6.657634625407086e-05 -5.005379576475145e-05 -1.6522550489319322e-05 1.1344067439081865e-05 0.0 0.0
0.0 0.0002881800134802301 0.00027382327123442053 -0.00021239435447260302 -6.142891676181759e-05 2.5739712052709698e-05 0.0 0.0
0.0 0.0006838691480823267 0.0006422664633062326 -0.0005197544420415872 -0.00012251202126464542 1.1213316190330169e-05 0.0 0.0
0.0 0.0012103172255842932 0.0011274187624458183 -0.000936059499017603 -0.00019135926342821527 3.4838122818628525e-06 0.0 0.0
0.0 0.00201188063890987 0.0018560409858422904 -0.0015857886642632038 -0.00027025232157908634 -1.0873599506306413e-05 0.0 0.0
0.0 0.003205534774306957 0.0029275358439056413 -0.002572731866493997 -0.0003548039774116452 -5.122097719048279e-05 0.0 0.0
0.0 0.004854672570981224 0.0043916943580027045 -0.003957354838932961 -0.00043433951906974335 -0.00012743421228288937 0.0 0.0
0.0 0.006891692044382796 0.006185186764205255 -0.005686245774696412 -0.0004989409895088407 -0.00023089380544262284 0.0 0.0
0.0 0.00906416977595655 0.008086529936586541 -0.007542640196804375 -0.000543889739782171 -0.0003174304706377729 0.0 0.0
0.0 0.01098335283059485 0.009759482177544953 -0.009187603357333787 -0.0005718788202111647 -0.00032329113709939533 0.0 0.0
0.0 0.01227873018109137 0.01088625417578271 -0.010297793580026167 -0.000588460595756544 -0.00020988849822505944 0.0 0.0
0.0 0.012732857421778534 0.011280403015939496 -0.010686427324617017 -0.0005939756913224774 1.3744701991141861e-15 0.0 0.0
0.0 0.012278730181090118 0.01088625417578149 -0.010297793580024922 -0.0005884605957565687 0.00020988849822933337 0.0 0.0
0.0 0.01098335283059345 0.009759482177543804 -0.009187603357332517 -0.0005718788202112832 0.0003232911371035715 0.0 0.0
0.0 0.00906416977595666 0.008086529936586673 -0.007542640196804447 -0.0005438897397822281 0.0003174304706407674 0.0 0.0
0.0 0.006891692044383623 0.006185186764206048 -0.0056862457746972035 -0.0004989409895088415 0.00023089380544389057 0.0 0.0
0.0 0.0048546725709812605 0.004391694358002757 -0.003957354838932914 -0.00043433951906984007 0.00012743421228272135 0.0 0.0
0.0 0.003205534774306607 0.002927535843905317 -0.0025727318664937305 -0.000354803977411586 5.1220977190758433e-05 0.0 0.0
0.0 0.002011880638909148 0.001856040985841668 -0.0015857886642625593 -0.00027025232157910884 1.0873599506459872e-05 0.0 0.0
0.0 0.0012103172255838591 0.0011274187624454289 -0.0009360594990172462 -0.00019135926342818245 -3.483812281869351e-06 0.0 0.0
0.0 0.0006838691480823157 0.0006422664633062162 -0.0005197544420415804 -0.00012251202126463631 -1.1213316190279918e-05 0.0 0.0
0.0 0.0002881800134807105 0.0002738232712348587 -0.00021239435447299731 -6.142891676186131e-05 -2.5739712052559783e-05 0.0 0.0
0.0 0.00010265846759549056 6.657634625405461e-05 -5.005379576472864e-05 -1.652255048932577e-05 -1.1344067439149353e-05 0.0 0.0
0.0 0.0002490598697062758 -2.9353255912652216e-05 2.244550778786781e-05 6.907748124783719e-06 -3.635591280261628e-06 0.0 0.0
0.0 6.143085081385417e-05 -9.738213659452182e-06 7.3703676672363776e-06 2.367845992215775e-06 1.1467942010747596e-06 0.0 0.0
0.0 -2.5588908766494376e-06 4.955137348170295e-07 -3.756118627630538e-07 -1.1990187205402302e-07 6.169492533971886e-08 0.0 0.0
0.0 0.0 0.0 0.0 0.0 0.0 0.0 0.0
0.0 0.0 0.0 0.0 0.0 0.0 0.0 0.0
0.0 0.0 0.0 0.0 0.0 0.0 0.0 0.0
0.0 0.0 0.0 0.0 0.0 0.0 0.0 0.0
0.0 -9.452392872285077e-05 -4.5495116681821144e-05 6.445500763143066e-05 -1.8959890949609407e-05 -7.836138222394911e-07 0.0 0.0
0.0 0.0005260612068599496 0.0003505048843837238 -0.0004893645073421116 0.00013885962295838764 2.2782862074439726e-05 0.0 0.0
0.0 7.671810082983757e-05 8.681377091880249e-05 -0.00012707883946643132 4.0265068547628865e-05 -4.567692713206689e-05 0.0 0.0
0.0 -1.0278276581102167e-05 -1.163083990479682e-05 1.7025336205057298e-05 -5.394496300260482e-06 6.11954786888629e-06 0.0 0.0
0.0 0.0 0.0 0.0 0.0 0.0 0.0 0.0
0.0 0.0 0.0 0.0 0.0 0.0 0.0 0.0
0.0 0.0 0.0 0.0 0.0 0.0 0.0 0.0
0.0 0.0 0.0 0.0 0.0 0.0 0.0 0.0
0.0 0.0 0.0 0.0 0.0 0.0 0.0 0.0
0.0 -1.3058023617347772e-06 2.990366800031807e-07 -2.2922987821668207e-07 -6.980680178636967e-08 -5.312487933714932e-07 0.0 0.0
0.0 8.74304315926658e-05 -1.3815757613380803e-05 1.0559811155607762e-05 3.2559464577728455e-06 1.3336206593213161e-06 0.0 0.0
0.0 0.00015063845663112053 -7.103486351923532e-06 5.530439728645741e-06 1.5730466232778055e-06 7.561268331191485e-06 0.0 0.0
0.0 0.00018129982628412134 0.00010386068181259408 -7.883699153993154e-05 -2.5023690272662665e-05 1.856393355434337e-05 0.0 0.0
0.0 0.00040282972769041774 0.00038040960430386537 -0.0003013642126376886 -7.9045391666177e-05 -1.939873124643394e-06 0.0 0.0
0.0 0.0008297243150954561 0.0007768680907435832 -0.0006328489739749842 -0.00014401911676859865 -2.7152015560822464e-05 0.0 0.0
0.0 0.0014892439292162921 0.001380746881302197 -0.0011587076187039639 -0.0002220392625982332 -6.891397020852369e-05 0.0 0.0
0.0 0.0025077284344129586 0.0022997840402808395 -0.001990906692289338 -0.0003088773479915001 -0.00015501446782365024 0.0 0.0
0.0 0.0039609871934508135 0.003593701119253329 -0.0032007737922987553 -0.0003929273269545722 -0.00030261687143068723 0.0 0.0
0.0 0.005802017070482251 0.00521595671549284 -0.004753869389174181 -0.0004620873263186583 -0.0004956986387616429 0.0 0.0
0.0 0.007796483368037757 0.006961240195343711 -0.00645105755702549 -0.0005101826383182219 -0.0006538691715284121 0.0 0.0
0.0 0.009564424214685684 0.008503052393527775 -0.007962713030159661 -0.0005403393633681134 -0.0006538687089548566 0.0 0.0
0.0 0.01074988346497098 0.009536893136668449 -0.008977649314482139 -0.0005592438221863148 -0.00042020522281673196 0.0 0.0
0.0 0.011163358242079289 0.009897155413426562 -0.009331568503624658 -0.0005655869098019051 2.52510685971874e-15 0.0 0.0
0.0 0.01074988346496983 0.00953689313666722 -0.008977649314480881 -0.0005592438221863347 0.0004202052228239135 0.0 0.0
0.0 0.009564424214684498 0.008503052393526707 -0.007962713030158488 -0.0005403393633682164 0.0006538687089624497 0.0 0.0
0.0 0.007796483368038196 0.006961240195344052 -0.006451057557025815 -0.0005101826383182357 0.0006538691715333701 0.0 0.0
0.0 0.005802017070483219 0.00521595671549372 -0.004753869389175114 -0.00046208732631860633 0.0004956986387632052 0.0 0.0
0.0 0.003960987193450868 0.0035937011192533883 -0.0032007737922987328 -0.0003929273269546561 0.00030261687143068214 0.0 0.0
0.0 0.0025077284344125514 0.0022997840402804773 -0.0019909066922889863 -0.0003088773479914908 0.00015501446782393647 0.0 0.0
0.0 0.0014892439292157166 0.00138074688130169 -0.0011587076187034723 -0.00022203926259821807 6.891397020867105e-05 0.0 0.0
0.0 0.0008297243150949839 0.0007768680907431546 -0.0006328489739745933 -0.00014401911676856103 2.715201556084782e-05 0.0 0.0
0.0 0.000402829727690666 0.0003804096043040836 -0.0003013642126379057 -7.904539166617748e-05 1.9398731247644042e-06 0.0 0.0
0.0 0.00018129982628431443 0.00010386068181275206 -7.883699154005116e-05 -2.502369027270035e-05 -1.8563933554344467e-05 0.0 0.0
0.0 0.00015063845663103214 -7.10348635195135e-06 5.53043972866839e-06 1.5730466232825027e-06 -7.561268331194063e-06 0.0 0.0
0.0 8.74304315925872e-05 -1.381575761336666e-05 1.0559811155595914e-05 3.255946457770962e-06 -1.3336206593175017e-06 0.0 0.0
0.0 -1.3058023617460156e-06 2.990366800050499e-07 -2.2922987821835792e-07 -6.980680178690192e-08 5.3124879337076e-07 0.0 0.0
0.0 0.0 0.0 0.0 0.0 0.0 0.0 0.0
0.0 0.0 0.0 0.0 0.0 0.0 0.0 0.0
0.0 0.0 0.0 0.0 0.0 0.0 0.0 0.0
0.0 0.0 0.0 0.0 0.0 0.0 0.0 0.0
0.0 0.0 0.0 0.0 0.0 0.0 0.0 0.0
0.0 -1.0278276581141865e-05 -1.1630839904819521e-05 1.7025336205089922e-05 -5.394496300270334e-06 -6.119547868876421e-06 0.0 0.0
0.0 7.671810083013353e-05 8.681377091897195e-05 -0.0001270788394666749 4.0265068547702414e-05 4.56769271319933e-05 0.0 0.0
0.0 0.0002934098028578928 -2.8065191504943833e-05 4.068103736835563e-05 -1.2615845863412152e-05 2.9730065276357685e-05 0.0 0.0
0.0 -3.930945986357365e-05 3.7600226995872525e-06 -5.450225555055607e-06 1.690202855468403e-06 -3.983073490862302e-06 0.0 0.0
0.0 0.0 0.0 0.0 0.0 0.0 0.0 0.0
0.0 0.0 0.0 0.0 0.0 0.0 0.0 0.0
0.0 0.0 0.0 0.0 0.0 0.0 0.0 0.0
0.0 0.0 0.0 0.0 0.0 0.0 0.0 0.0
0.0 0.0 0.0 0.0 0.0 0.0 0.0 0.0
0.0 9.617306614980113e-07 -1.287559794838514e-07 9.855602321771378e-08 3.0199956266143905e-08 6.571375420301819e-08 0.0 0.0
0.0 -6.9129439324369115e-06 1.0708753417082521e-06 -8.217730347875045e-07 -2.491023069207308e-07 -1.0490251268290982e-06 0.0 0.0
0.0 9.754672846260845e-05 -1.5737662882490884e-05 1.2078162631137305e-05 3.6595002513537528e-06 3.186361027340442e-06 0.0 0.0
0.0 0.000199714088763704 -9.290898233322363e-06 7.3207859809373485e-06 1.97011225238469e-06 1.4595474579673665e-05 0.0 0.0
0.0 0.00012663066569148612 0.00017388238752260882 -0.0001342869540249801 -3.959543349762867e-05 -1.3818232842471865e-06 0.0 0.0
0.0 0.00048794392157066317 0.00045926583489707003 -0.0003660790892015331 -9.318674569553704e-05 -2.8282322631229117e-05 0.0 0.0
0.0 0.0010011755604503274 0.0009332081046450671 -0.0007660467219075572 -0.00016716138273751004 -8.106993927986499e-05 0.0 0.0
0.0 0.0018386396443567784 0.001693669907798264 -0.0014385439294345532 -0.00025512597836371115 -0.00019080452805558134 0.0 0.0
0.0 0.0030844952984064493 0.002806571932066394 -0.0024625223794602588 -0.00034404955260613595 -0.00038729488306004023 0.0 0.0
0.0 0.004716960498507375 0.004245732056411044 -0.003826803440009699 -0.00041892861640134343 -0.0006530045622887637 0.0 0.0
0.0 0.006528342985791537 0.005829814561944158 -0.005358482041513469 -0.00047133252043068887 -0.0008769621018576975 0.0 0.0
0.0 0.008153031091325716 0.007247852907255644 -0.0067436909579637865 -0.0005041619492918597 -0.0008831127013841499 0.0 0.0
0.0 0.009243615055575301 0.008203219141227425 -0.007678045782514389 -0.0005251733587130325 -0.0005673147566588216 0.0 0.0
0.0 0.009624400655322145 0.008537198205239047 -0.008005159970671213 -0.0005320382345678352 3.834633348701044e-15 0.0 0.0
0.0 0.009243615055574052 0.008203219141226036 -0.007678045782512919 -0.0005251733587131175 0.0005673147566682227 0.0 0.0
0.0 0.008153031091324613 0.0072478529072545275 -0.006743690957962558 -0.0005041619492919706 0.0008831127013935717 0.0 0.0
0.0 0.006528342985791637 0.005829814561944134 -0.0053584820415133625 -0.0004713325204307706 0.0008769621018634246 0.0 0.0
0.0 0.00471696049850807 0.004245732056411649 -0.003826803440010357 -0.000418928616401292 0.0006530045622907038 0.0 0.0
0.0 0.0030844952984066033 0.002806571932066532 -0.002462522379460364 -0.0003440495526061675 0.00038729488306021793 0.0 0.0
0.0 0.0018386396443563794 0.001693669907797916 -0.001438543929434196 -0.0002551259783637199 0.00019080452805579336 0.0 0.0
0.0 0.001001175560449951 0.0009332081046447265 -0.0007660467219072621 -0.0001671613827374641 8.106993927988177e-05 0.0 0.0
0.0 0.00048794392157024905 0.00045926583489669273 -0.000366079089201195 -9.318674569549755e-05 2.8282322631236707e-05 0.0 0.0
0.0 0.00012663066569161292 0.00017388238752272426 -0.00013428695402509282 -3.959543349763173e-05 1.381823284330308e-06 0.0 0.0
0.0 0.00019971408876365217 -9.290898233311799e-06 7.32078598092764e-06 1.9701122523844686e-06 -1.4595474579691404e-05 0.0 0.0
0.0 9.75467284627186e-05 -1.5737662882504708e-05 1.2078162631148337e-05 3.659500251356326e-06 -3.186361027344894e-06 0.0 0.0
0.0 -6.9129439324704e-06 1.0708753417140786e-06 -8.217730347922131e-07 -2.4910230692190656e-07 1.049025126830299e-06 0.0 0.0
0.0 9.61730661496341e-07 -1.2875597948361295e-07 9.855602321752119e-08 3.019995626608597e-08 -6.571375420289141e-08 0.0 0.0
0.0 0.0 0.0 0.0 0.0 0.0 0.0 0.0
0.0 0.0 0.0 0.0 0.0 0.0 0.0 0.0
0.0 0.0 0.0 0.0 0.0 0.0 0.0 0.0
0.0 0.0 0.0 0.0 0.0 0.0 0.0 0.0
0.0 0.0 0.0 0.0 0.0 0.0 0.0 0.0
0.0 -3.9309459863537074e-05 3.7600226995878005e-06 -5.4502255550562485e-06 1.6902028554682686e-06 3.98307349085917e-06 0.0 0.0
0.0 0.0002934098028576197 -2.8065191504947913e-05 4.0681037368360406e-05 -1.2615845863411148e-05 -2.9730065276334307e-05 0.0 0.0
0.0 5.7848359266463874e-05 -5.89139752061106e-06 8.87879852748799e-06 -2.9874010068768786e-06 5.680316258182819e-06 0.0 0.0
0.0 -7.750210574457231e-06 7.892976039692267e-07 -1.189533447599525e-06 4.002358436302915e-07 -7.610180770667323e-07 0.0 0.0
0.0 0.0 0.0 0.0 0.0 0.0 0.0 0.0
0.0 0.0 0.0 0.0 0.0 0.0 0.0 0.0
0.0 0.0 0.0 0.0 0.0 0.0 0.0 0.0
0.0 0.0 0.0 0.0 0.0 0.0 0.0 0.0
0.0 0.0 0.0 0.0 0.0 0.0 0.0 0.0
0.0 0.0 0.0 0.0 0.0 0.0 0.0 0.0
0.0 1.3943397825804908e-06 -1.9222506045607774e-07 1.4784397935552857e-07 4.438108110055133e-08 1.1882921306162002e-07 0.0 0.0
0.0 -1.1105641806522038e-05 1.6936306598525468e-06 -1.2979128492967904e-06 -3.9571781055571544e-07 -1.5535563871415626e-06 0.0 0.0
0.0 9.093630047066801e-05 -1.5414317570965976e-05 1.1826430465152901e-05 3.5878871058131517e-06 3.876211438547314e-06 0.0 0.0
0.0 0.0002505946017616624 -1.356379891186251e-05 1.0653001418040884e-05 2.910797493821237e-06 2.2643833330965116e-05 0.0 0.0
0.0 0.00015640975848243827 0.00020472067990837792 -0.00015938500686355498 -4.5335673044822754e-05 -1.589668788524201e-05 0.0 0.0
0.0 0.0005644834644990764 0.0005294019730541697 -0.0004233132704384733 -0.00010608870261569627 -5.727245300249483e-05 0.0 0.0
0.0 0.0012105364955182054 0.0011208603551908685 -0.0009291112270003015 -0.00019174912819056657 -0.0001655455861582602 0.0 0.0
0.0 0.0022348759442522965 0.0020400319788446406 -0.0017549835623335607 -0.0002850484165110797 -0.000380941912444564 0.0 0.0
0.0 0.00364313125688972 0.0032821435705588787 -0.002915162172023703 -0.00036698139853517616 -0.0006950967339956271 0.0 0.0
0.0 0.0052622249559878785 0.004696204706721436 -0.00427086330169781 -0.00042534140502362643 -0.000979078256153769 0.0 0.0
0.0 0.006746525847231318 0.005992432113540815 -0.005530604928550367 -0.00046182718499044765 -0.0010110052304764339 0.0 0.0
0.0 0.007752150803314481 0.006878232362985473 -0.006393021207531052 -0.00048521115545441956 -0.0006567575768705445 0.0 0.0
0.0 0.008105968229554601 0.007191113156467377 -0.006698566631170921 -0.0004925465252964546 4.461275099343354e-15 0.0 0.0
0.0 0.007752150803313019 0.006878232362983865 -0.006393021207529239 -0.0004852111554546256 0.0006567575768808245 0.0 0.0
0.0 0.0067465258472302735 0.00599243211353959 -0.005530604928549093 -0.00046182718499049595 0.0010110052304863908 0.0 0.0
0.0 0.005262224955987627 0.004696204706721042 -0.004270863301697339 -0.00042534140502370363 0.0009790782561595662 0.0 0.0
0.0 0.0036431312568898306 0.003282143570558964 -0.0029151621720237856 -0.00036698139853517757 0.0006950967339976021 0.0 0.0
0.0 0.0022348759442522544 0.002040031978844596 -0.0017549835623335097 -0.00028504841651108624 0.0003809419124447428 0.0 0.0
0.0 0.0012105364955178344 0.001120860355190545 -0.0009291112269999911 -0.0001917491281905537 0.00016554558615831138 0.0 0.0
0.0 0.0005644834644988739 0.0005294019730539765 -0.00042331327043832996 -0.00010608870261564652 5.72724530024836e-05 0.0 0.0
0.0 0.00015640975848220672 0.00020472067990813834 -0.00015938500686335408 -4.533567304478425e-05 1.5896687885222357e-05 0.0 0.0
0.0 0.0002505946017616513 -1.3563798911876684e-05 1.0653001418049192e-05 2.9107974938279928e-06 -2.264383333095312e-05 0.0 0.0
0.0 9.093630047055978e-05 -1.5414317570961327e-05 1.1826430465146999e-05 3.587887105814417e-06 -3.876211438543843e-06 0.0 0.0
0.0 -1.1105641806514233e-05 1.6936306598511225e-06 -1.297912849295507e-06 -3.957178105555567e-07 1.5535563871417625e-06 0.0 0.0
0.0 1.394339782583969e-06 -1.9222506045661582e-07 1.4784397935596135e-07 4.4381081100656745e-08 -1.1882921306192866e-07 0.0 0.0
0.0 0.0 0.0 0.0 0.0 0.0 0.0 0.0
0.0 0.0 0.0 0.0 0.0 0.0 0.0 0.0
0.0 0.0 0.0 0.0 0.0 0.0 0.0 0.0
0.0 0.0 0.0 0.0 0.0 0.0 0.0 0.0
0.0 0.0 0.0 0.0 0.0 0.0 0.0 0.0
0.0 0.0 0.0 0.0 0.0 0.0 0.0 0.0
0.0 -7.750210574453675e-06 7.892976039688361e-07 -1.189533447598871e-06 4.002358436300892e-07 7.610180770662521e-07 0.0 0.0
0.0 5.784835926643732e-05 -5.891397520608144e-06 8.878798527483105e-06 -2.987401006875368e-06 -5.6803162581792355e-06 0.0 0.0
0.0 -4.66033633173702e-06 3.74483749079159e-07 -5.501167592879655e-07 1.7563301020880615e-07 -5.416846059343328e-07 0.0 0.0
0.0 6.243666782731775e-07 -5.017130907216991e-08 7.370167069701833e-08 -2.3530361624848362e-08 7.25719763562377e-08 0.0 0.0
0.0 0.0 0.0 0.0 0.0 0.0 0.0 0.0
0.0 0.0 0.0 0.0 0.0 0.0 0.0 0.0
0.0 0.0 0.0 0.0 0.0 0.0 0.0 0.0
0.0 0.0 0.0 0.0 0.0 0.0 0.0 0.0
0.0 0.0 0.0 0.0 0.0 0.0 0.0 0.0
0.0 0.0 0.0 0.0 0.0 0.0 0.0 0.0
0.0 0.0 0.0 0.0 0.0 0.0 0.0 0.0
0.0 1.6453767366154938e-06 -2.253530588137379e-07 1.7318313089658728e-07 5.216992791714375e-08 1.7143102790608902e-07 0.0 0.0
0.0 -1.8822578875311147e-05 2.890099267830026e-06 -2.217751355753836e-06 -6.723479120762109e-07 -2.244726937875809e-06 0.0 0.0
0.0 7.904989373375426e-05 -1.4948285189499095e-05 1.1503137681855806e-05 3.4451475076431796e-06 4.785537579655818e-06 0.0 0.0
0.0 0.00025497170092301917 -1.8521711941948494e-05 1.4172738288214334e-05 4.348973653733329e-06 2.800793153201253e-05 0.0 0.0
0.0 0.00016374894212266907 0.00020947866355236703 -0.00016292209697720003 -4.65565665751669e-05 -2.2121680749053343e-05 0.0 0.0
0.0 0.000646763768517862 0.0006030166041475495 -0.0004848782849955148 -0.00011813831915203443 -9.572281034097621e-05 0.0 0.0
0.0 0.001430019797925669 0.0013107685956712056 -0.0010983288731361053 -0.00021243972253510074 -0.00029112008051275734 0.0 0.0
0.0 0.0025920352932635544 0.0023371430758466986 -0.002034823118940919 -0.000302319956905779 -0.0006176674016901435 0.0 0.0
0.0 0.0040021629737320465 0.003566077985426367 -0.0031970838510568117 -0.00036899413436955426 -0.0009494056256947151 0.0 0.0
0.0 0.005342403040079369 0.004735604878977363 -0.004324632152151138 -0.0004109727268262242 -0.0010297399639328767 0.0 0.0
0.0 0.006269087936976053 0.005555933218566302 -0.005118376407810116 -0.0004375568107561831 -0.0006865661942393466 0.0 0.0
0.0 0.006600713373684796 0.005851475593219284 -0.005405998406144444 -0.00044547718707483967 4.349304119979913e-15 0.0 0.0
0.0 0.006269087936974643 0.0055559332185646975 -0.005118376407808304 -0.00043755681075639374 0.0006865661942490311 0.0 0.0
0.0 0.005342403040078271 0.004735604878975983 -0.004324632152149753 -0.00041097272682623094 0.001029739963942045 0.0 0.0
0.0 0.004002162973731635 0.003566077985425745 -0.0031970838510562735 -0.0003689941343694692 0.0009494056256997569 0.0 0.0
0.0 0.0025920352932631684 0.0023371430758463443 -0.0020348231189405807 -0.00030231995690576427 0.0006176674016915593 0.0 0.0
0.0 0.0014300197979253348 0.0013107685956709088 -0.0010983288731357993 -0.00021243972253510946 0.00029112008051290273 0.0 0.0
0.0 0.0006467637685175214 0.0006030166041472505 -0.00048487828499524735 -0.0001181383191520032 9.572281034094036e-05 0.0 0.0
0.0 0.0001637489421225488 0.00020947866355222903 -0.0001629220969771002 -4.655656657512845e-05 2.2121680749022664e-05 0.0 0.0
0.0 0.00025497170092280373 -1.8521711942014498e-05 1.4172738288267307e-05 4.34897365374666e-06 -2.8007931532007345e-05 0.0 0.0
0.0 7.904989373373675e-05 -1.494828518949361e-05 1.150313768185031e-05 3.445147507642182e-06 -4.785537579654621e-06 0.0 0.0
0.0 -1.8822578875310937e-05 2.8900992678300597e-06 -2.2177513557538204e-06 -6.723479120761032e-07 2.244726937877286e-06 0.0 0.0
0.0 1.6453767366185886e-06 -2.253530588142158e-07 1.7318313089697784e-07 5.2169927917238495e-08 -1.7143102790643305e-07 0.0 0.0
0.0 0.0 0.0 0.0 0.0 0.0 0.0 0.0
0.0 0.0 0.0 0.0 0.0 0.0 0.0 0.0
0.0 0.0 0.0 0.0 0.0 0.0 0.0 0.0
0.0 0.0 0.0 0.0 0.0 0.0 0.0 0.0
0.0 0.0 0.0 0.0 0.0 0.0 0.0 0.0
0.0 0.0 0.0 0.0 0.0 0.0 0.0 0.0
0.0 0.0 0.0 0.0 0.0 0.0 0.0 0.0
0.0 6.243666782731001e-07 -5.017130907216663e-08 7.370167069700915e-08 -2.353036162484607e-08 -7.257197635622114e-08 0.0 0.0
0.0 -4.660336331736439e-06 3.7448374907913426e-07 -5.501167592878967e-07 1.7563301020878891e-07 5.416846059342089e-07 0.0 0.0
0.0 0.0 0.0 0.0 0.0 0.0 0.0 0.0
0.0 0.0 0.0 0.0 0.0 0.0 0.0 0.0
0.0 0.0 0.0 0.0 0.0 0.0 0.0 0.0
0.0 0.0 0.0 0.0 0.0 0.0 0.0 0.0
0.0 0.0 0.0 0.0 0.0 0.0 0.0 0.0
0.0 0.0 0.0 0.0 0.0 0.0 0.0 0.0
0.0 0.0 0.0 0.0 0.0 0.0 0.0 0.0
0.0 0.0 0.0 0.0 0.0 0.0 0.0 0.0
0.0 0.0 0.0 0.0 0.0 0.0 0.0 0.0
0.0 0.0 0.0 0.0 0.0 0.0 0.0 0.0
0.0 1.610621781340288e-06 -2.1175596075297258e-07 1.619599215856466e-07 4.979603916731472e-08 2.0046134601731404e-07 0.0 0.0
0.0 -2.5497421711426874e-05 3.651997151831429e-06 -2.8041606019574148e-06 -8.478365498740924e-07 -2.7398974916304078e-06 0.0 0.0
0.0 3.6540773133479884e-05 -8.449894165935571e-06 6.628524389701104e-06 1.8213697762344307e-06 3.2369027779833977e-06 0.0 0.0
0.0 0.00023052232020783213 -3.294498793754546e-05 2.520637700800777e-05 7.73861092953772e-06 3.692312671057068e-05 0.0 0.0
0.0 0.0001248154346085421 0.0001997268559846706 -0.0001556136760861064 -4.41131798985645e-05 -2.2595537915072463e-05 0.0 0.0
0.0 0.0007142335446990375 0.0006502680072571074 -0.0005268360866352149 -0.00012343192062189232 -0.00014486158476624477 0.0 0.0
0.0 0.0015881873002615812 0.0014335192493656137 -0.0012143790838706893 -0.00021914016549492445 -0.0004298127831523384 0.0 0.0
0.0 0.00275910395727308 0.002451331087255332 -0.0021545826123047494 -0.00029674847495058217 -0.0007786452376075924 0.0 0.0
0.0 0.003940926921072109 0.003479044650277883 -0.0031316882364043177 -0.00034735641387356465 -0.0009238916025135135 0.0 0.0
0.0 0.004789736313162894 0.00423179593420118 -0.0038528811706648423 -0.00037891476353633686 -0.0006469103426198725 0.0 0.0
0.0 0.00510336855434229 0.004512321949417484 -0.004124492855368822 -0.00038782909404866075 3.3300727626806026e-15 0.0 0.0
0.0 0.004789736313161633 0.004231795934199671 -0.0038528811706631566 -0.00037891476353651515 0.0006469103426278353 0.0 0.0
0.0 0.003940926921070701 0.0034790446502762752 -0.003131688236402691 -0.0003473564138735842 0.0009238916025205482 0.0 0.0
0.0 0.002759103957272151 0.002451331087254296 -0.0021545826123038573 -0.0002967484749504379 0.0007786452376110043 0.0 0.0
0.0 0.0015881873002609194 0.0014335192493650274 -0.0012143790838702044 -0.00021914016549482278 0.00042981278315295027 0.0 0.0
0.0 0.0007142335446986864 0.0006502680072567932 -0.0005268360866349326 -0.00012343192062186102 0.0001448615847662349 0.0 0.0
0.0 0.00012481543460830864 0.000199726855984418 -0.00015561367608589606 -4.411317989852201e-05 2.259553791502443e-05 0.0 0.0
0.0 0.00023052232020774743 -3.294498793755564e-05 2.5206377008015388e-05 7.73861092953979e-06 -3.6923126710559124e-05 0.0 0.0
0.0 3.6540773133315485e-05 -8.449894165903599e-06 6.628524389676019e-06 1.8213697762277385e-06 -3.2369027779664905e-06 0.0 0.0
0.0 -2.549742171141855e-05 3.6519971518302383e-06 -2.8041606019564305e-06 -8.478365498737099e-07 2.7398974916284698e-06 0.0 0.0
0.0 1.6106217813429395e-06 -2.1175596075337402e-07 1.6195992158597727e-07 4.9796039167379395e-08 -2.004613460176549e-07 0.0 0.0
0.0 0.0 0.0 0.0 0.0 0.0 0.0 0.0
0.0 0.0 0.0 0.0 0.0 0.0 0.0 0.0
0.0 0.0 0.0 0.0 0.0 0.0 0.0 0.0
0.0 0.0 0.0 0.0 0.0 0.0 0.0 0.0
0.0 0.0 0.0 0.0 0.0 0.0 0.0 0.0
0.0 0.0 0.0 0.0 0.0 0.0 0.0 0.0
0.0 0.0 0.0 0.0 0.0 0.0 0.0 0.0
0.0 0.0 0.0 0.0 0.0 0.0 0.0 0.0
0.0 0.0 0.0 0.0 0.0 0.0 0.0 0.0
0.0 0.0 0.0 0.0 0.0 0.0 0.0 0.0
0.0 0.0 0.0 0.0 0.0 0.0 0.0 0.0
0.0 0.0 0.0 0.0 0.0 0.0 0.0 0.0
0.0 0.0 0.0 0.0 0.0 0.0 0.0 0.0
0.0 0.0 0.0 0.0 0.0 0.0 0.0 0.0
0.0 0.0 0.0 0.0 0.0 0.0 0.0 0.0
0.0 0.0 0.0 0.0 0.0 0.0 0.0 0.0
0.0 0.0 0.0 0.0 0.0 0.0 0.0 0.0
0.0 0.0 0.0 0.0 0.0 0.0 0.0 0.0
0.0 0.0 0.0 0.0 0.0 0.0 0.0 0.0
0.0 0.0 0.0 0.0 0.0 0.0 0.0 0.0
0.0 0.0 0.0 0.0 0.0 0.0 0.0 0.0
0.0 1.2578149627704397e-06 -1.510723180798578e-07 1.149291120796011e-07 3.614320600026299e-08 1.8146276912357112e-07 0.0 0.0
0.0 -1.2538004675079367e-05 1.6077273836375928e-06 -1.2584780215308577e-06 -3.492493621067539e-07 -1.8584693385770984e-06 0.0 0.0
0.0 -1.2954891288135183e-05 1.0293702793881979e-06 -5.664474796029508e-07 -4.6292279978553513e-07 -1.4763360640199156e-06 0.0 0.0
0.0 0.0002690765096810099 -6.675187786856675e-05 5.168894767262452e-05 1.506293019594224e-05 4.908305175362921e-05 0.0 0.0
0.0 6.5809151850498e-05 0.0001476228946838924 -0.00011642706183955434 -3.119583284433774e-05 -1.4627333460054912e-05 0.0 0.0
0.0 0.0006962986216489315 0.0006238362943683191 -0.0005111385199287355 -0.00011269777443958341 -0.00018234479922228417 0.0 0.0
0.0 0.0015680265085020637 0.001383888983687437 -0.0011841500168539817 -0.0001997389668334549 -0.00048188116916029024 0.0 0.0
0.0 0.0025546215514621294 0.002235355078640154 -0.001972472134726178 -0.0002628829439139756 -0.0006803062605374062 0.0 0.0
0.0 0.0033148931723605743 0.002906254938124436 -0.0026034755021080262 -0.0003027794360164094 -0.0005224912279534763 0.0 0.0
0.0 0.003612794123993302 0.003171014888252188 -0.0028571933475498253 -0.0003138215407023628 1.9136168344369153e-15 0.0 0.0
0.0 0.0033148931723595487 0.002906254938123205 -0.002603475502106661 -0.00030277943601654403 0.0005224912279584139 0.0 0.0
0.0 0.002554621551460411 0.0022353550786384166 -0.00197247213472446 -0.00026288294391395664 0.0006803062605414683 0.0 0.0
0.0 0.0015680265085005155 0.0013838889836859925 -0.0011841500168526843 -0.00019973896683330843 0.0004818811691616648 0.0 0.0
0.0 0.0006962986216481718 0.0006238362943676515 -0.0005111385199282156 -0.00011269777443943586 0.00018234479922239798 0.0 0.0
0.0 6.580915185031426e-05 0.00014762289468362976 -0.00011642706183933282 -3.119583284429681e-05 1.4627333460040543e-05 0.0 0.0
0.0 0.0002690765096807795 -6.675187786855958e-05 5.1688947672617155e-05 1.5062930195942654e-05 -4.908305175362246e-05 0.0 0.0
0.0 -1.2954891288251262e-05 1.0293702794048304e-06 -5.664474796156632e-07 -4.6292279978917235e-07 1.4763360640418897e-06 0.0 0.0
0.0 -1.2538004675023148e-05 1.607727383630158e-06 -1.2584780215251823e-06 -3.492493621049854e-07 1.8584693385693607e-06 0.0 0.0
0.0 1.257814962768622e-06 -1.5107231807962378e-07 1.1492911207941759e-07 3.614320600020914e-08 -1.814627691232817e-07 0.0 0.0
0.0 0.0 0.0 0.0 0.0 0.0 0.0 0.0
0.0 0.0 0.0 0.0 0.0 0.0 0.0 0.0
0.0 0.0 0.0 0.0 0.0 0.0 0.0 0.0
0.0 0.0 0.0 0.0 0.0 0.0 0.0 0.0
0.0 0.0 0.0 0.0 0.0 0.0 0.0 0.0
0.0 0.0 0.0 0.0 0.0 0.0 0.0 0.0
0.0 0.0 0.0 0.0 0.0 0.0 0.0 0.0
0.0 0.0 0.0 0.0 0.0 0.0 0.0 0.0
0.0 0.0 0.0 0.0 0.0 0.0 0.0 0.0
0.0 0.0 0.0 0.0 0.0 0.0 0.0 0.0
0.0 0.0 0.0 0.0 0.0 0.0 0.0 0.0
0.0 0.0 0.0 0.0 0.0 0.0 0.0 0.0
0.0 0.0 0.0 0.0 0.0 0.0 0.0 0.0
0.0 0.0 0.0 0.0 0.0 0.0 0.0 0.0
0.0 0.0 0.0 0.0 0.0 0.0 0.0 0.0
0.0 0.0 0.0 0.0 0.0 0.0 0.0 0.0
0.0 0.0 0.0 0.0 0.0 0.0 0.0 0.0
0.0 0.0 0.0 0.0 0.0 0.0 0.0 0.0
0.0 0.0 0.0 0.0 0.0 0.0 0.0 0.0
0.0 0.0 0.0 0.0 0.0 0.0 0.0 0.0
0.0 0.0 0.0 0.0 0.0 0.0 0.0 0.0
0.0 0.0 0.0 0.0 0.0 0.0 0.0 0.0
0.0 0.0 0.0 0.0 0.0 0.0 0.0 0.0
0.0 4.2553639123671847e-07 -4.040274327994619e-08 3.052395058927507e-08 9.878792690671646e-09 6.49306122377076e-08 0.0 0.0
0.0 -2.316879188598145e-06 1.9379619182323926e-07 -1.72458150884333e-07 -2.133804093888597e-08 -4.585382918803256e-07 0.0 0.0
0.0 -3.772941287332016e-05 5.774445657882908e-06 -4.294911666060278e-06 -1.479533991822576e-06 -6.683661574135162e-06 0.0 0.0
0.0 0.0001308204866571018 -4.819731102963927e-05 3.808148012708875e-05 1.0115830902550384e-05 4.585204040006319e-05 0.0 0.0
0.0 0.0001809403740795914 1.53696272387775e-05 -1.6410221506962878e-05 1.0405942681854322e-06 3.147567741765187e-05 0.0 0.0
0.0 0.0004834571949778974 0.00046099972982044905 -0.0003865157685327571 -7.44839612876919e-05 -0.00016905331741581142 0.0 0.0
0.0 0.0012570976903820308 0.001061580883920851 -0.00091597427218089 -0.0001456066117399609 -0.00035096716441990113 0.0 0.0
0.0 0.0018731742567327716 0.0016041177277627417 -0.0014074038333257636 -0.00019671389443697747 -0.0003150208553017994 0.0 0.0
0.0 0.0021474348710545563 0.00184259129931672 -0.001630402424322958 -0.00021218887499376175 4.339790245916353e-16 0.0 0.0
0.0 0.0018731742567320725 0.0016041177277618989 -0.0014074038333249028 -0.00019671389443699588 0.00031502085530320505 0.0 0.0
0.0 0.0012570976903806337 0.001061580883919593 -0.0009159742721797873 -0.0001456066117398053 0.00035096716442107733 0.0 0.0
0.0 0.00048345719497648983 0.0004609997298191133 -0.0003865157685316051 -7.448396128750814e-05 0.00016905331741571934 0.0 0.0
0.0 0.000180940374079026 1.5369627238593284e-05 -1.6410221506819242e-05 1.0405942682255827e-06 -3.1475677417679195e-05 0.0 0.0
0.0 0.00013082048665703905 -4.819731102957465e-05 3.80814801270377e-05 1.0115830902536493e-05 -4.585204040001316e-05 0.0 0.0
0.0 -3.772941287329401e-05 5.774445657879279e-06 -4.294911666057727e-06 -1.4795339918215135e-06 6.683661574134321e-06 0.0 0.0
0.0 -2.3168791885785067e-06 1.9379619182123434e-07 -1.7245815088284503e-07 -2.133804093838917e-08 4.5853829187709946e-07 0.0 0.0
0.0 4.255363912312584e-07 -4.040274327937736e-08 3.0523950588841e-08 9.878792690535312e-09 -6.493061223679867e-08 0.0 0.0
0.0 0.0 0.0 0.0 0.0 0.0 0.0 0.0
0.0 0.0 0.0 0.0 0.0 0.0 0.0 0.0
0.0 0.0 0.0 0.0 0.0 0.0 0.0 0.0
0.0 0.0 0.0 0.0 0.0 0.0 0.0 0.0
0.0 0.0 0.0 0.0 0.0 0.0 0.0 0.0
0.0 0.0 0.0 0.0 0.0 0.0 0.0 0.0
0.0 0.0 0.0 0.0 0.0 0.0 0.0 0.0
0.0 0.0 0.0 0.0 0.0 0.0 0.0 0.0
0.0 0.0 0.0 0.0 0.0 0.0 0.0 0.0
0.0 0.0 0.0 0.0 0.0 0.0 0.0 0.0
0.0 0.0 0.0 0.0 0.0 0.0 0.0 0.0
0.0 0.0 0.0 0.0 0.0 0.0 0.0 0.0
0.0 0.0 0.0 0.0 0.0 0.0 0.0 0.0
0.0 0.0 0.0 0.0 0.0 0.0 0.0 0.0
0.0 0.0 0.0 0.0 0.0 0.0 0.0 0.0
0.0 0.0 0.0 0.0 0.0 0.0 0.0 0.0
0.0 0.0 0.0 0.0 0.0 0.0 0.0 0.0
0.0 0.0 0.0 0.0 0.0 0.0 0.0 0.0
0.0 0.0 0.0 0.0 0.0 0.0 0.0 0.0
0.0 0.0 0.0 0.0 0.0 0.0 0.0 0.0
0.0 0.0 0.0 0.0 0.0 0.0 0.0 0.0
0.0 0.0 0.0 0.0 0.0 0.0 0.0 0.0
0.0 0.0 0.0 0.0 0.0 0.0 0.0 0.0
0.0 0.0 0.0 0.0 0.0 0.0 0.0 0.0
0.0 0.0 0.0 0.0 0.0 0.0 0.0 0.0
0.0 0.0 0.0 0.0 0.0 0.0 0.0 0.0
0.0 2.0151444896334133e-06 -2.312802633959276e-07 1.6604944777726445e-07 6.52308156186587e-08 4.5632379130506976e-07 0.0 0.0
0.0 -2.543727835586264e-05 2.622122291528023e-06 -2.0388073711355977e-06 -5.833149203923727e-07 -7.234526798665002e-06 0.0 0.0
0.0 1.4693195550385926e-05 -7.374385955293503e-06 7.16556655524729e-06 2.0881940004600753e-07 3.20559870385985e-05 0.0 0.0
0.0 0.00014624552041501575 -6.251814454135218e-05 4.811001548652989e-05 1.4408129054822344e-05 2.9511194922104623e-05 0.0 0.0
0.0 0.0002529950764372871 0.00013484790761428058 -0.00012753220583891451 -7.315701775366141e-06 -0.00013716026631762916 0.0 0.0
0.0 0.0005743242404833544 0.0004724262027308452 -0.000417313380011055 -5.511282271979048e-05 -0.00014252091986470005 0.0 0.0
0.0 0.0008428486835304456 0.0006480785939176348 -0.0005714861151049 -7.659247881273489e-05 -3.7574381540200763e-16 0.0 0.0
0.0 0.0005743242404829929 0.0004724262027303875 -0.00041731338001059596 -5.5112822719791555e-05 0.0001425209198646313 0.0 0.0
0.0 0.00025299507643654904 0.0001348479076139165 -0.00012753220583862642 -7.315701775289775e-06 0.00013716026631747523 0.0 0.0
0.0 0.00014624552041444633 -6.251814454136911e-05 4.811001548656671e-05 1.4408129054802176e-05 -2.951119492234989e-05 0.0 0.0
0.0 1.4693195550356391e-05 -7.374385955246783e-06 7.165566555207388e-06 2.088194000393091e-07 -3.2055987038469e-05 0.0 0.0
0.0 -2.543727835578989e-05 2.6221222915222156e-06 -2.0388073711312965e-06 -5.833149203908896e-07 7.2345267986485316e-06 0.0 0.0
0.0 2.015144489628598e-06 -2.3128026339564424e-07 1.6604944777707153e-07 6.523081561857363e-08 -4.5632379130404744e-07 0.0 0.0
0.0 0.0 0.0 0.0 0.0 0.0 0.0 0.0
0.0 0.0 0.0 0.0 0.0 0.0 0.0 0.0
0.0 0.0 0.0 0.0 0.0 0.0 0.0 0.0
0.0 0.0 0.0 0.0 0.0 0.0 0.0 0.0
0.0 0.0 0.0 0.0 0.0 0.0 0.0 0.0
0.0 0.0 0.0 0.0 0.0 0.0 0.0 0.0
0.0 0.0 0.0 0.0 0.0 0.0 0.0 0.0
0.0 0.0 0.0 0.0 0.0 0.0 0.0 0.0
0.0 0.0 0.0 0.0 0.0 0.0 0.0 0.0
0.0 0.0 0.0 0.0 0.0 0.0 0.0 0.0
0.0 0.0 0.0 0.0 0.0 0.0 0.0 0.0
0.0 0.0 0.0 0.0 0.0 0.0 0.0 0.0
0.0 0.0 0.0 0.0 0.0 0.0 0.0 0.0
0.0 0.0 0.0 0.0 0.0 0.0 0.0 0.0
0.0 0.0 0.0 0.0 0.0 0.0 0.0 0.0
0.0 0.0 0.0 0.0 0.0 0.0 0.0 0.0
0.0 0.0 0.0 0.0 0.0 0.0 0.0 0.0
0.0 0.0 0.0 0.0 0.0 0.0 0.0 0.0
0.0 0.0 0.0 0.0 0.0 0.0 0.0 0.0
0.0 0.0 0.0 0.0 0.0 0.0 0.0 0.0
0.0 0.0 0.0 0.0 0.0 0.0 0.0 0.0
0.0 0.0 0.0 0.0 0.0 0.0 0.0 0.0
0.0 0.0 0.0 0.0 0.0 0.0 0.0 0.0
0.0 0.0 0.0 0.0 0.0 0.0 0.0 0.0
0.0 0.0 0.0 0.0 0.0 0.0 0.0 0.0
0.0 0.0 0.0 0.0 0.0 0.0 0.0 0.0
0.0 0.0 0.0 0.0 0.0 0.0 0.0 0.0
0.0 0.0 0.0 0.0 0.0 0.0 0.0 0.0
0.0 0.0 0.0 0.0 0.0 0.0 0.0 0.0
0.0 -1.9805822804014977e-06 7.0735367883957005e-09 -7.023742977186138e-09 -4.979381122166543e-11 -4.287244965192103e-07 0.0 0.0
0.0 -1.808714073922635e-05 1.5430737261839216e-07 -2.0053195472634108e-07 4.6224582108035874e-08 -5.6767411290390895e-06 0.0 0.0
0.0 8.625556850442737e-05 -1.3921536525862385e-06 1.8661259312072842e-06 -4.7397227862118967e-07 4.339754612201105e-05 0.0 0.0
0.0 7.561050311652184e-07 2.582149152766485e-06 -2.2953330613593087e-06 -2.868160914071586e-07 -3.615029835131249e-05 0.0 0.0
0.0 7.649102209614347e-05 -2.172417900198991e-05 1.3450967162159037e-05 8.273211839830752e-06 -0.0001119319528300968 0.0 0.0
0.0 9.501410924744558e-05 6.7855247420248696e-06 -1.6786292007177534e-05 1.0000767265152779e-05 -1.7360406122097875e-16 0.0 0.0
0.0 7.649102209622993e-05 -2.172417900194366e-05 1.3450967162123099e-05 8.273211839820522e-06 0.00011193195283022918 0.0 0.0
0.0 7.561050311662721e-07 2.58214915275116e-06 -2.2953330613398146e-06 -2.868160914114117e-07 3.6150298351152456e-05 0.0 0.0
0.0 8.62555685041789e-05 -1.3921536525787179e-06 1.866125931197254e-06 -4.7397227861854264e-07 -4.339754612193908e-05 0.0 0.0
0.0 -1.808714073930767e-05 1.5430737261701067e-07 -2.0053195472474506e-07 4.6224582107748386e-08 5.676741129073187e-06 0.0 0.0
0.0 -1.9805822803603344e-06 7.073536788456925e-09 -7.02374297725807e-09 -4.979381120166751e-11 4.287244965076416e-07 0.0 0.0
0.0 0.0 0.0 0.0 0.0 0.0 0.0 0.0
0.0 0.0 0.0 0.0 0.0 0.0 0.0 0.0
0.0 0.0 0.0 0.0 0.0 0.0 0.0 0.0
0.0 0.0 0.0 0.0 0.0 0.0 0.0 0.0
0.0 0.0 0.0 0.0 0.0 0.0 0.0 0.0
0.0 0.0 0.0 0.0 0.0 0.0 0.0 0.0
0.0 0.0 0.0 0.0 0.0 0.0 0.0 0.0
0.0 0.0 0.0 0.0 0.0 0.0 0.0 0.0
0.0 0.0 0.0 0.0 0.0 0.0 0.0 0.0
0.0 0.0 0.0 0.0 0.0 0.0 0.0 0.0
0.0 0.0 0.0 0.0 0.0 0.0 0.0 0.0
0.0 0.0 0.0 0.0 0.0 0.0 0.0 0.0
0.0 0.0 0.0 0.0 0.0 0.0 0.0 0.0
0.0 0.0 0.0 0.0 0.0 0.0 0.0 0.0
0.0 0.0 0.0 0.0 0.0 0.0 0.0 0.0
0.0 0.0 0.0 0.0 0.0 0.0 0.0 0.0
0.0 0.0 0.0 0.0 0.0 0.0 0.0 0.0
0.0 0.0 0.0 0.0 0.0 0.0 0.0 0.0
0.0 0.0 0.0 0.0 0.0 0.0 0.0 0.0
0.0 0.0 0.0 0.0 0.0 0.0 0.0 0.0
0.0 0.0 0.0 0.0 0.0 0.0 0.0 0.0
0.0 0.0 0.0 0.0 0.0 0.0 0.0 0.0
0.0 0.0 0.0 0.0 0.0 0.0 0.0 0.0
0.0 0.0 0.0 0.0 0.0 0.0 0.0 0.0
0.0 0.0 0.0 0.0 0.0 0.0 0.0 0.0
0.0 0.0 0.0 0.0 0.0 0.0 0.0 0.0
0.0 0.0 0.0 0.0 0.0 0.0 0.0 0.0
0.0 0.0 0.0 0.0 0.0 0.0 0.0 0.0
0.0 0.0 0.0 0.0 0.0 0.0 0.0 0.0
0.0 2.151155415839806e-06 2.437524085061113e-07 -1.7760912580535373e-07 -6.614328270078506e-08 4.7647428743844513e-07 0.0 0.0
0.0 -2.6172352030158004e-05 -2.7345458033712936e-06 2.1079260777863594e-06 6.266197255851026e-07 -7.427263771302803e-06 0.0 0.0
0.0 2.0540914436446242e-05 7.18537549192705e-06 -6.725539163904799e-06 -4.598363280225207e-07 3.2474563809298986e-05 0.0 0.0
0.0 7.11244145986348e-05 1.5910579745701812e-05 -8.921515143475045e-06 -6.989064602226611e-06 2.3463815355845834e-05 0.0 0.0
0.0 0.00010717969604625253 -4.061106481335596e-05 3.373460825600284e-05 6.87645655735322e-06 -0.0001797845407300293 0.0 0.0
0.0 0.00011147922106646629 -5.788386369367947e-05 4.5181709155936265e-05 1.2702154537743143e-05 -0.00026439457670600477 0.0 0.0
0.0 0.0002300436959023106 3.909060735986301e-05 -2.2682356851894884e-05 -1.640825050796823e-05 3.5114597861374275e-17 0.0 0.0
0.0 0.00011147922106669575 -5.788386369371554e-05 4.51817091559509e-05 1.2702154537764578e-05 0.0002643945767062976 0.0 0.0
0.0 0.00010717969604601576 -4.061106481325669e-05 3.37346082559221e-05 6.8764565573345916e-06 0.00017978454072964837 0.0 0.0
0.0 7.112441459840004e-05 1.591057974571773e-05 -8.921515143497712e-06 -6.989064602220048e-06 -2.346381535608252e-05 0.0 0.0
0.0 2.054091443640468e-05 7.185375491891992e-06 -6.7255391638766995e-06 -4.598363280153788e-07 -3.2474563809166964e-05 0.0 0.0
0.0 -2.617235203019193e-05 -2.734545803371824e-06 2.107926077787368e-06 6.26619725584483e-07 7.427263771306184e-06 0.0 0.0
0.0 2.1511554158617065e-06 2.4375240850738565e-07 -1.7760912580636895e-07 -6.614328270101643e-08 -4.7647428744283625e-07 0.0 0.0
0.0 0.0 0.0 0.0 0.0 0.0 0.0 0.0
0.0 0.0 0.0 0.0 0.0 0.0 0.0 0.0
0.0 0.0 0.0 0.0 0.0 0.0 0.0 0.0
0.0 0.0 0.0 0.0 0.0 0.0 0.0 0.0
0.0 0.0 0.0 0.0 0.0 0.0 0.0 0.0
0.0 0.0 0.0 0.0 0.0 0.0 0.0 0.0
0.0 0.0 0.0 0.0 0.0 0.0 0.0 0.0
0.0 0.0 0.0 0.0 0.0 0.0 0.0 0.0
0.0 0.0 0.0 0.0 0.0 0.0 0.0 0.0
0.0 0.0 0.0 0.0 0.0 0.0 0.0 0.0
0.0 0.0 0.0 0.0 0.0 0.0 0.0 0.0
0.0 0.0 0.0 0.0 0.0 0.0 0.0 0.0
0.0 0.0 0.0 0.0 0.0 0.0 0.0 0.0
0.0 0.0 0.0 0.0 0.0 0.0 0.0 0.0
0.0 0.0 0.0 0.0 0.0 0.0 0.0 0.0
0.0 0.0 0.0 0.0 0.0 0.0 0.0 0.0
0.0 0.0 0.0 0.0 0.0 0.0 0.0 0.0
0.0 0.0 0.0 0.0 0.0 0.0 0.0 0.0
0.0 0.0 0.0 0.0 0.0 0.0 0.0 0.0
0.0 0.0 0.0 0.0 0.0 0.0 0.0 0.0
0.0 0.0 0.0 0.0 0.0 0.0 0.0 0.0
0.0 0.0 0.0 0.0 0.0 0.0 0.0 0.0
0.0 0.0 0.0 0.0 0.0 0.0 0.0 0.0
0.0 0.0 0.0 0.0 0.0 0.0 0.0 0.0
0.0 0.0 0.0 0.0 0.0 0.0 0.0 0.0
0.0 0.0 0.0 0.0 0.0 0.0 0.0 0.0
0.0 4.429122963257062e-07 4.224276744525767e-08 -3.1952675634369206e-08 -1.0290091810892099e-08 6.777100295070164e-08 0.0 0.0
0.0 -2.558856736275284e-06 -2.2558684644665523e-07 1.982967739121832e-07 2.729007253450705e-08 -5.117728824205202e-07 0.0 0.0
0.0 -3.720564031013315e-05 -5.7600391615190245e-06 4.298238543526294e-06 1.461800617992918e-06 -6.326047453107726e-06 0.0 0.0
0.0 0.0001338328153757445 5.0043860269610236e-05 -3.9562646681471215e-05 -1.0481213588139942e-05 4.521452890335346e-05 0.0 0.0
0.0 0.00016066342628257387 -1.4378663223880346e-05 1.7492416737094643e-05 -3.113753513213719e-06 3.597300867011603e-05 0.0 0.0
0.0 0.00034564792821152645 -0.00030069782017241674 0.0002576267927881924 4.307102738422423e-05 -0.0002231090334316221 0.0 0.0
0.0 0.000658141758058506 -0.0004902963128316875 0.0004167958346668588 7.350047816482867e-05 -0.0006042817416951525 0.0 0.0
0.0 0.0007202205967383188 -0.0004215427048246674 0.0003362212819913453 8.532142283332217e-05 -0.0008299837960379089 0.0 0.0
0.0 0.0003701048024351238 -0.00030488264930434816 0.00020865868286526964 9.622396643907856e-05 -2.2646272877790974e-16 0.0 0.0
0.0 0.0007202205967382625 -0.000421542704824455 0.00033622128199108195 8.532142283337345e-05 0.0008299837960383239 0.0 0.0
0.0 0.0006581417580580898 -0.0004902963128312951 0.00041679583466658663 7.350047816470837e-05 0.000604281741695095 0.0 0.0
0.0 0.00034564792821060883 -0.0003006978201716386 0.0002576267927875344 4.307102738410428e-05 0.00022310903343113225 0.0 0.0
0.0 0.00016066342628206834 -1.4378663223661744e-05 1.749241673690283e-05 -3.1137535132403447e-06 -3.597300867019789e-05 0.0 0.0
0.0 0.00013383281537571927 5.004386026954242e-05 -3.956264668141654e-05 -1.0481213588126312e-05 -4.521452890327551e-05 0.0 0.0
0.0 -3.7205640310111926e-05 -5.760039161515943e-06 4.298238543523858e-06 1.4618006179921743e-06 6.326047453104063e-06 0.0 0.0
0.0 -2.558856736271071e-06 -2.2558684644632243e-07 1.9829677391192397e-07 2.7290072534399536e-08 5.117728824199579e-07 0.0 0.0
0.0 4.429122963240644e-07 4.2242767445081805e-08 -3.195267563423767e-08 -1.0290091810848457e-08 -6.77710029504272e-08 0.0 0.0
0.0 0.0 0.0 0.0 0.0 0.0 0.0 0.0
0.0 0.0 0.0 0.0 0.0 0.0 0.0 0.0
0.0 0.0 0.0 0.0 0.0 0.0 0.0 0.0
0.0 0.0 0.0 0.0 0.0 0.0 0.0 0.0
0.0 0.0 0.0 0.0 0.0 0.0 0.0 0.0
0.0 0.0 0.0 0.0 0.0 0.0 0.0 0.0
0.0 0.0 0.0 0.0 0.0 0.0 0.0 0.0
0.0 0.0 0.0 0.0 0.0 0.0 0.0 0.0
0.0 0.0 0.0 0.0 0.0 0.0 0.0 0.0
0.0 0.0 0.0 0.0 0.0 0.0 0.0 0.0
0.0 0.0 0.0 0.0 0.0 0.0 0.0 0.0
0.0 0.0 0.0 0.0 0.0 0.0 0.0 0.0
0.0 0.0 0.0 0.0 0.0 0.0 0.0 0.0
0.0 0.0 0.0 0.0 0.0 0.0 0.0 0.0
0.0 0.0 0.0 0.0 0.0 0.0 0.0 0.0
0.0 0.0 0.0 0.0 0.0 0.0 0.0 0.0
0.0 0.0 0.0 0.0 0.0 0.0 0.0 0.0
0.0 0.0 0.0 0.0 0.0 0.0 0.0 0.0
0.0 0.0 0.0 0.0 0.0 0.0 0.0 0.0
0.0 0.0 0.0 0.0 0.0 0.0 0.0 0.0
0.0 0.0 0.0 0.0 0.0 0.0 0.0 0.0
0.0 0.0 0.0 0.0 0.0 0.0 0.0 0.0
0.0 0.0 0.0 0.0 0.0 0.0 0.0 0.0
0.0 1.2598013203567964e-06 1.5135959174588917e-07 -1.1517634781273693e-07 -3.618324393316057e-08 1.8171040016784093e-07 0.0 0.0
0.0 -1.2784398326669583e-05 -1.6434843652701946e-06 1.286644928502602e-06 3.5683943676769733e-07 -1.8918525054372314e-06 0.0 0.0
0.0 -1.1824868236878015e-05 -8.323057963311769e-07 4.1519347801668074e-07 4.171123183142729e-07 -1.3183994302527237e-06 0.0 0.0
0.0 0.00027202095417223123 6.624903173654367e-05 -5.135555039620519e-05 -1.4893481340338118e-05 4.726867461105884e-05 0.0 0.0
0.0 6.911412771312094e-05 -0.0001531815009354632 0.00012070218001820981 3.247932091725336e-05 -8.902224807583114e-06 0.0 0.0
0.0 0.0006967328737388847 -0.0006290233349780114 0.0005174718629772206 0.00011155147200079085 -0.0001813190139843124 0.0 0.0
0.0 0.001447363938047098 -0.0012762694826202283 0.0010888352864275364 0.00018743419619269205 -0.0006229294518506043 0.0 0.0
0.0 0.0020048057785273378 -0.0016919833408560916 0.0014629362451334294 0.0002290470957226617 -0.0012186074049555023 0.0 0.0
0.0 0.0017828325654840602 -0.001415339449516541 0.0011771323215437235 0.00023820712797281677 -0.0014104401382889335 0.0 0.0
0.0 0.001224078332855956 -0.0009479797036554872 0.0006480875508591343 0.00029989215279635197 4.0345873343616834e-16 0.0 0.0
0.0 0.0017828325654839806 -0.0014153394495159434 0.0011771323215430647 0.00023820712797287898 0.0014104401382907274 0.0 0.0
0.0 0.002004805778526911 -0.0016919833408553194 0.0014629362451328088 0.00022904709572251134 0.00121860740495778 0.0 0.0
0.0 0.0014473639380457534 -0.0012762694826189797 0.0010888352864264264 0.0001874341961925532 0.0006229294518512365 0.0 0.0
0.0 0.0006967328737379282 -0.0006290233349771685 0.0005174718629765108 0.00011155147200065737 0.00018131901398423715 0.0 0.0
0.0 6.911412771305616e-05 -0.00015318150093536487 0.00012070218001815136 3.247932091721362e-05 8.902224807659776e-06 0.0 0.0
0.0 0.00027202095417221177 6.62490317365457e-05 -5.135555039621196e-05 -1.4893481340334225e-05 -4.726867461106682e-05 0.0 0.0
0.0 -1.1824868237008328e-05 -8.323057963558711e-07 4.1519347803685304e-07 4.171123183189297e-07 1.318399430270792e-06 0.0 0.0
0.0 -1.2784398326645043e-05 -1.643484365266599e-06 1.2866449284996262e-06 3.568394367669815e-07 1.8918525054324379e-06 0.0 0.0
0.0 1.259801320355787e-06 1.5135959174576047e-07 -1.1517634781264219e-07 -3.6183243933119336e-08 -1.817104001676482e-07 0.0 0.0
0.0 0.0 0.0 0.0 0.0 0.0 0.0 0.0
0.0 0.0 0.0 0.0 0.0 0.0 0.0 0.0
0.0 0.0 0.0 0.0 0.0 0.0 0.0 0.0
0.0 0.0 0.0 0.0 0.0 0.0 0.0 0.0
0.0 0.0 0.0 0.0 0.0 0.0 0.0 0.0
0.0 0.0 0.0 0.0 0.0 0.0 0.0 0.0
0.0 0.0 0.0 0.0 0.0 0.0 0.0 0.0
0.0 0.0 0.0 0.0 0.0 0.0 0.0 0.0
0.0 0.0 0.0 0.0 0.0 0.0 0.0 0.0
0.0 0.0 0.0 0.0 0.0 0.0 0.0 0.0
0.0 0.0 0.0 0.0 0.0 0.0 0.0 0.0
0.0 0.0 0.0 0.0 0.0 0.0 0.0 0.0
0.0 0.0 0.0 0.0 0.0 0.0 0.0 0.0
0.0 0.0 0.0 0.0 0.0 0.0 0.0 0.0
0.0 0.0 0.0 0.0 0.0 0.0 0.0 0.0
0.0 0.0 0.0 0.0 0.0 0.0 0.0 0.0
0.0 0.0 0.0 0.0 0.0 0.0 0.0 0.0
0.0 0.0 0.0 0.0 0.0 0.0 0.0 0.0
0.0 0.0 0.0 0.0 0.0 0.0 0.0 0.0
0.0 0.0 0.0 0.0 0.0 0.0 0.0 0.0
0.0 0.0 0.0 0.0 0.0 0.0 0.0 0.0
0.0 1.60306219153957e-06 2.106700963874288e-07 -1.611158640042757e-07 -4.955423238315579e-08 1.9936370253496016e-07 0.0 0.0
0.0 -2.5507486237686953e-05 -3.6542942286519423e-06 2.8062900923741562e-06 8.4800413627786e-07 -2.739511153590504e-06 0.0 0.0
0.0 3.7086528389141594e-05 8.582227131139829e-06 -6.7302559373764506e-06 -1.8519711937636932e-06 3.2854840869870947e-06 0.0 0.0
0.0 0.00023170960323696724 3.25024060765276e-05 -2.485015580797479e-05 -7.652250268552664e-06 3.648495945686953e-05 0.0 0.0
0.0 0.0001228351187687135 -0.0001974515824757849 0.00015380554352350433 4.364603895228067e-05 -2.1616685260756397e-05 0.0 0.0
0.0 0.0007098363273065897 -0.0006473597689170724 0.000523721548816643 0.00012363822010042971 -0.00012783254998308677 0.0 0.0
0.0 0.001600848603130566 -0.0014534775967379409 0.001232419656252547 0.00022105794048539302 -0.0004052111624351941 0.0 0.0
0.0 0.0027371871194909543 -0.0024370758306819476 0.002142006397610814 0.0002950694330711333 -0.0009583349991740618 0.0 0.0
0.0 0.0035407350793475977 -0.003067338750853887 0.0027383313907696685 0.0003290073600842187 -0.0017465446697635092 0.0 0.0
0.0 0.0031196083956176695 -0.0026092632130912496 0.0022651555020605546 0.0003441077110306943 -0.002039342430045534 0.0 0.0
0.0 0.0020505920179219395 -0.0016801609226570556 0.0011636657451613885 0.0005164951774956664 1.5108899374671747e-15 0.0 0.0
0.0 0.0031196083956175845 -0.0026092632130902444 0.002265155502059417 0.0003441077110308269 0.0020393424300500377 0.0 0.0
0.0 0.003540735079346811 -0.003067338750852494 0.0027383313907682763 0.00032900736008421806 0.0017465446697689153 0.0 0.0
0.0 0.002737187119490007 -0.0024370758306808743 0.0021420063976099364 0.0002950694330709369 0.0009583349991767301 0.0 0.0
0.0 0.00160084860312976 -0.0014534775967371895 0.0012324196562519256 0.0002210579404852644 0.0004052111624356672 0.0 0.0
0.0 0.0007098363273062588 -0.0006473597689167686 0.0005237215488164066 0.00012363822010036214 0.0001278325499831346 0.0 0.0
0.0 0.00012283511876866527 -0.00019745158247571468 0.0001538055435234578 4.3646038952256766e-05 2.1616685260737285e-05 0.0 0.0
0.0 0.00023170960323688197 3.250240607651596e-05 -2.4850155807965292e-05 -7.65225026855059e-06 -3.648495945686139e-05 0.0 0.0
0.0 3.708652838902716e-05 8.582227131117974e-06 -6.730255937358126e-06 -1.8519711937596638e-06 -3.2854840869763154e-06 0.0 0.0
0.0 -2.5507486237663107e-05 -3.6542942286483518e-06 2.8062900923712026e-06 8.480041362770987e-07 2.7395111535872267e-06 0.0 0.0
0.0 1.6030621915391823e-06 2.1067009638738874e-07 -1.6111586400423763e-07 -4.955423238314134e-08 -1.993637025349085e-07 0.0 0.0
0.0 0.0 0.0 0.0 0.0 0.0 0.0 0.0
0.0 0.0 0.0 0.0 0.0 0.0 0.0 0.0
0.0 0.0 0.0 0.0 0.0 0.0 0.0 0.0
0.0 0.0 0.0 0.0 0.0 0.0 0.0 0.0
0.0 0.0 0.0 0.0 0.0 0.0 0.0 0.0
0.0 0.0 0.0 0.0 0.0 0.0 0.0 0.0
0.0 0.0 0.0 0.0 0.0 0.0 0.0 0.0
0.0 0.0 0.0 0.0 0.0 0.0 0.0 0.0
0.0 0.0 0.0 0.0 0.0 0.0 0.0 0.0
0.0 0.0 0.0 0.0 0.0 0.0 0.0 0.0
0.0 0.0 0.0 0.0 0.0 0.0 0.0 0.0
0.0 0.0 0.0 0.0 0.0 0.0 0.0 0.0
0.0 0.0 0.0 0.0 0.0 0.0 0.0 0.0
0.0 0.0 0.0 0.0 0.0 0.0 0.0 0.0
0.0 0.0 0.0 0.0 0.0 0.0 0.0 0.0
0.0 0.0 0.0 0.0 0.0 0.0 0.0 0.0
0.0 0.0 0.0 0.0 0.0 0.0 0.0 0.0
0.0 0.0 0.0 0.0 0.0 0.0 0.0 0.0
0.0 0.0 0.0 0.0 0.0 0.0 0.0 0.0
0.0 1.638128728835619e-06 2.2429470352517193e-07 -1.723453813112058e-07 -5.194932221397243e-08 1.7044025655480972e-07 0.0 0.0
0.0 -1.8815573014591094e-05 -2.8898819129160963e-06 2.2174296277740705e-06 6.724522851419182e-07 -2.23756530898879e-06 0.0 0.0
0.0 7.89267412349113e-05 1.4949601102804497e-05 -1.1503028459181121e-05 -3.4465726436232703e-06 4.767898947378468e-06 0.0 0.0
0.0 0.00025571351201200796 1.828253368303693e-05 -1.399350423464914e-05 -4.2890294483877675e-06 2.7999795733386034e-05 0.0 0.0
0.0 0.0001639892065918514 -0.00020969859220683297 0.00016323313753887554 4.646545466795741e-05 -2.247921523256897e-05 0.0 0.0
0.0 0.0006373609538504374 -0.000593883913140282 0.0004775054101895184 0.0001163785029507635 -9.142078185929385e-05 0.0 0.0
0.0 0.0014048112335404836 -0.0012890914404814267 0.0010778549583669232 0.0002112364821145036 -0.00026127227238015543 0.0 0.0
0.0 0.002602302383949105 -0.002356412733253657 0.0020497410989074294 0.00030667163434622735 -0.0005566530086012668 0.0 0.0
0.0 0.0040866743742115925 -0.003652304585002544 0.0032809754240279015 0.0003713291609746427 -0.0010924559907987059 0.0 0.0
0.0 0.0051313478542934785 -0.0045037663531160696 0.004112762156097434 0.00039100419701863255 -0.0019961885890682407 0.0 0.0
0.0 0.004528493226557237 -0.0038654508648806925 0.0034680127086041098 0.00039743815627658234 -0.00259871338368893 0.0 0.0
0.0 0.0029024818087692882 -0.002426581483038595 0.0016854488545248933 0.0007411326285137005 2.5012002018154345e-15 0.0 0.0
0.0 0.004528493226556865 -0.003865450864879176 0.003468012708602431 0.00039743815627674666 0.0025987133836956923 0.0 0.0
0.0 0.0051313478542924975 -0.0045037663531143695 0.004112762156095717 0.00039100419701865207 0.001996188589076291 0.0 0.0
0.0 0.004086674374210952 -0.003652304585001721 0.0032809754240272467 0.0003713291609744764 0.001092455990802997 0.0 0.0
0.0 0.0026023023839485287 -0.002356412733253114 0.0020497410989069363 0.00030667163434617824 0.0005566530086023843 0.0 0.0
0.0 0.0014048112335401603 -0.001289091440481123 0.0010778549583666667 0.00021123648211445595 0.00026127227238039857 0.0 0.0
0.0 0.0006373609538502859 -0.0005938839131401437 0.00047750541018941057 0.0001163785029507328 9.14207818593206e-05 0.0 0.0
0.0 0.00016398920659173161 -0.0002096985922067099 0.00016323313753877888 4.6465454667931095e-05 2.247921523252535e-05 0.0 0.0
0.0 0.0002557135120117517 1.8282533683128755e-05 -1.3993504234721686e-05 -4.289029448407115e-06 -2.7999795733388656e-05 0.0 0.0
0.0 7.892674123482098e-05 1.4949601102786672e-05 -1.1503028459166445e-05 -3.4465726436200435e-06 -4.767898947370293e-06 0.0 0.0
0.0 -1.8815573014607025e-05 -2.8898819129185493e-06 2.2174296277759323e-06 6.724522851425884e-07 2.2375653089901636e-06 0.0 0.0
0.0 1.6381287288410945e-06 2.2429470352599737e-07 -1.7234538131186118e-07 -5.194932221413825e-08 -1.704402565554401e-07 0.0 0.0
0.0 0.0 0.0 0.0 0.0 0.0 0.0 0.0
0.0 0.0 0.0 0.0 0.0 0.0 0.0 0.0
0.0 0.0 0.0 0.0 0.0 0.0 0.0 0.0
0.0 0.0 0.0 0.0 0.0 0.0 0.0 0.0
0.0 0.0 0.0 0.0 0.0 0.0 0.0 0.0
0.0 0.0 0.0 0.0 0.0 0.0 0.0 0.0
0.0 0.0 0.0 0.0 0.0 0.0 0.0 0.0
0.0 0.0 0.0 0.0 0.0 0.0 0.0 0.0
0.0 0.0 0.0 0.0 0.0 0.0 0.0 0.0
0.0 0.0 0.0 0.0 0.0 0.0 0.0 0.0
0.0 0.0 0.0 0.0 0.0 0.0 0.0 0.0
0.0 0.0 0.0 0.0 0.0 0.0 0.0 0.0
0.0 0.0 0.0 0.0 0.0 0.0 0.0 0.0
0.0 0.0 0.0 0.0 0.0 0.0 0.0 0.0
0.0 0.0 0.0 0.0 0.0 0.0 0.0 0.0
0.0 0.0 0.0 0.0 0.0 0.0 0.0 0.0
0.0 0.0 0.0 0.0 0.0 0.0 0.0 0.0
0.0 1.3978299463283112e-06 1.9281133120796496e-07 -1.4828199630451334e-07 -4.452933490346003e-08 1.1894007456204658e-07 0.0 0.0
0.0 -1.109083351138168e-05 -1.6918663892152398e-06 1.2963082212428023e-06 3.955581679725114e-07 -1.550554367569856e-06 0.0 0.0
0.0 9.077624672621693e-05 1.5396133475798556e-05 -1.1811162729855748e-05 -3.5849707459426355e-06 3.847799751831818e-06 0.0 0.0
0.0 0.0002507497793791795 1.3525653688274788e-05 -1.0627912799880852e-05 -2.8977408883944322e-06 2.268096721112783e-05 0.0 0.0
0.0 0.00015704397489654413 -0.00020533594110415642 0.00015991285937584225 4.542308172831429e-05 -1.6030457596913036e-05 0.0 0.0
0.0 0.0005629609001899108 -0.0005278084986943488 0.00042223249883133174 0.00010557599986301708 -5.70070493849891e-05 0.0 0.0
0.0 0.0011929280959214962 -0.0011043942325986108 0.0009153699298420665 0.0001890243027565439 -0.00015728048947265616 0.0 0.0
0.0 0.00218536928648844 -0.001996316245690733 0.0017137438372417414 0.00028257240844899043 -0.00034397097805324134 0.0 0.0
0.0 0.003629402282192069 -0.0032788099152806904 0.0029054920653556024 0.00037331784992508633 -0.0006111292690341345 0.0 0.0
0.0 0.005421280576776309 -0.004852827490352062 0.004422750665256117 0.0004300768250959441 -0.001019871747049852 0.0 0.0
0.0 0.00673489728562885 -0.005959067735550239 0.005525800933426334 0.0004332668021239048 -0.0019257385856219888 0.0 0.0
0.0 0.006017370890209427 -0.005190348898625791 0.004781478852025714 0.0004088700466000764 -0.003046947102354549 0.0 0.0
0.0 0.0038138215413877187 -0.0031993727178114065 0.0022160080821666513 0.0009833646356447552 3.1730260779960773e-15 0.0 0.0
0.0 0.0060173708902087645 -0.005190348898623983 0.00478147885202378 0.0004088700466002024 0.003046947102362609 0.0 0.0
0.0 0.006734897285627607 -0.005959067735548473 0.005525800933424575 0.0004332668021239003 0.0019257385856309766 0.0 0.0
0.0 0.0054212805767758325 -0.0048528274903514666 0.004422750665255613 0.00043007682509585556 0.0010198717470547634 0.0 0.0
0.0 0.0036294022821915816 -0.0032788099152802515 0.002905492065355104 0.0003733178499251463 0.0006111292690356402 0.0 0.0
0.0 0.002185369286488227 -0.0019963162456905275 0.001713743837241567 0.0002825724084489598 0.0003439709780537049 0.0 0.0
0.0 0.0011929280959213232 -0.0011043942325984497 0.000915369929841926 0.000189024302756524 0.00015728048947278618 0.0 0.0
0.0 0.0005629609001894835 -0.0005278084986939705 0.0004222324988309709 0.00010557599986300003 5.7007049384953895e-05 0.0 0.0
0.0 0.0001570439748962771 -0.00020533594110388177 0.00015991285937561132 4.5423081728270346e-05 1.6030457596883963e-05 0.0 0.0
0.0 0.00025074977937924466 1.3525653688247571e-05 -1.0627912799852785e-05 -2.8977408883940472e-06 -2.2680967211112054e-05 0.0 0.0
0.0 9.077624672629544e-05 1.5396133475815822e-05 -1.181116272986964e-05 -3.5849707459467732e-06 -3.847799751840404e-06 0.0 0.0
0.0 -1.1090833511420117e-05 -1.691866389221393e-06 1.2963082212477119e-06 3.955581679736286e-07 1.550554367571913e-06 0.0 0.0
0.0 1.397829946324938e-06 1.9281133120745727e-07 -1.4828199630409776e-07 -4.4529334903352434e-08 -1.1894007456171695e-07 0.0 0.0
0.0 0.0 0.0 0.0 0.0 0.0 0.0 0.0
0.0 0.0 0.0 0.0 0.0 0.0 0.0 0.0
0.0 0.0 0.0 0.0 0.0 0.0 0.0 0.0
0.0 0.0 0.0 0.0 0.0 0.0 0.0 0.0
0.0 0.0 0.0 0.0 0.0 0.0 0.0 0.0
0.0 0.0 0.0 0.0 0.0 0.0 0.0 0.0
0.0 0.0 0.0 0.0 0.0 0.0 0.0 0.0
0.0 0.0 0.0 0.0 0.0 0.0 0.0 0.0
0.0 0.0 0.0 0.0 0.0 0.0 0.0 0.0
0.0 0.0 0.0 0.0 0.0 0.0 0.0 0.0
0.0 0.0 0.0 0.0 0.0 0.0 0.0 0.0
0.0 0.0 0.0 0.0 0.0 0.0 0.0 0.0
0.0 0.0 0.0 0.0 0.0 0.0 0.0 0.0
0.0 0.0 0.0 0.0 0.0 0.0 0.0 0.0
0.0 0.0 0.0 0.0 0.0 0.0 0.0 0.0
0.0 9.884247377550532e-07 1.3279427492884585e-07 -1.0165010604382294e-07 -3.114416888502746e-08 6.776974310601307e-08 0.0 0.0
0.0 -6.915215396956468e-06 -1.068779030932966e-06 8.199287494772766e-07 2.488502814556409e-07 -1.0581639938965937e-06 0.0 0.0
0.0 9.777032285888247e-05 1.57722375392615e-05 -1.210443339760808e-05 -3.6678041416535405e-06 3.17858651577356e-06 0.0 0.0
0.0 0.00019984755155915844 9.255146462418684e-06 -7.293355564393052e-06 -1.9617908980255823e-06 1.4615526598309505e-05 0.0 0.0
0.0 0.00012698369747365625 -0.00017423750058658978 0.0001345675927549676 3.9669907831622325e-05 -1.3645823438631162e-06 0.0 0.0
0.0 0.0004883430929589072 -0.0004595628232665814 0.00036642080671856457 9.314201654801674e-05 -2.8508749413253776e-05 0.0 0.0
0.0 0.000996321854960909 -0.0009285392251319874 0.0007623617295363217 0.0001661774955956663 -8.021142474104853e-05 0.0 0.0
0.0 0.0018129018381427572 -0.0016700926306189754 0.001418071054832362 0.0002520215757866119 -0.00017990228009270978 0.0 0.0
0.0 0.0030164913462223672 -0.0027460350217565865 0.0024058295766023626 0.00034020544515422365 -0.0003483558629894124 0.0 0.0
0.0 0.004658874138600739 -0.0041996450087773566 0.0037745542948335875 0.000425090713943767 -0.0005771180394096414 0.0 0.0
0.0 0.006687402221258555 -0.005986501173170419 0.005506049178241759 0.0004804519949286635 -0.0008119636272074331 0.0 0.0
0.0 0.008312966286903301 -0.007390706116241256 0.006921474035107413 0.0004692320811338419 -0.001512549368974279 0.0 0.0
0.0 0.0076145715755604505 -0.0066127463179810435 0.006231179458983167 0.0003815668589978767 -0.0033031276949155633 0.0 0.0
0.0 0.004857800258059848 -0.004052928748512657 0.0028034000307301174 0.0012495287177825374 3.039994471432106e-15 0.0 0.0
0.0 0.007614571575559432 -0.006612746317979102 0.006231179458981128 0.00038156685899797286 0.0033031276949235674 0.0 0.0
0.0 0.008312966286901388 -0.007390706116239236 0.006921474035105247 0.0004692320811339878 0.0015125493689830162 0.0 0.0
0.0 0.0066874022212583374 -0.005986501173170123 0.005506049178241578 0.0004804519949285457 0.0008119636272124468 0.0 0.0
0.0 0.004658874138600489 -0.004199645008777153 0.0037745542948332753 0.0004250907139438776 0.0005771180394111876 0.0 0.0
0.0 0.0030164913462222545 -0.0027460350217564772 0.002405829576602253 0.0003402054451542239 0.0003483558629901038 0.0 0.0
0.0 0.001812901838142535 -0.0016700926306187865 0.0014180710548321698 0.00025202157578661647 0.00017990228009294633 0.0 0.0
0.0 0.0009963218549605983 -0.000928539225131704 0.000762361729536066 0.00016617749559563765 8.021142474105196e-05 0.0 0.0
0.0 0.0004883430929585412 -0.0004595628232662441 0.00036642080671827053 9.314201654797398e-05 2.8508749413247688e-05 0.0 0.0
0.0 0.00012698369747374066 -0.00017423750058670023 0.0001345675927550731 3.9669907831626736e-05 1.364582343985868e-06 0.0 0.0
0.0 0.00019984755155928648 9.255146462391357e-06 -7.2933555643724155e-06 -1.961790898018665e-06 -1.4615526598329451e-05 0.0 0.0
0.0 9.777032285873948e-05 1.5772237539244057e-05 -1.2104433397592672e-05 -3.667804141651439e-06 -3.178586515765107e-06 0.0 0.0
0.0 -6.915215396920565e-06 -1.0687790309272237e-06 8.19928749472497e-07 2.488502814545759e-07 1.058163993894679e-06 0.0 0.0
0.0 9.884247377563337e-07 1.3279427492903572e-07 -1.0165010604397573e-07 -3.1144168885059e-08 -6.776974310610239e-08 0.0 0.0
0.0 0.0 0.0 0.0 0.0 0.0 0.0 0.0
0.0 0.0 0.0 0.0 0.0 0.0 0.0 0.0
0.0 0.0 0.0 0.0 0.0 0.0 0.0 0.0
0.0 0.0 0.0 0.0 0.0 0.0 0.0 0.0
0.0 0.0 0.0 0.0 0.0 0.0 0.0 0.0
0.0 0.0 0.0 0.0 0.0 0.0 0.0 0.0
0.0 0.0 0.0 0.0 0.0 0.0 0.0 0.0
0.0 0.0 0.0 0.0 0.0 0.0 0.0 0.0
0.0 0.0 0.0 0.0 0.0 0.0 0.0 0.0
0.0 0.0 0.0 0.0 0.0 0.0 0.0 0.0
0.0 0.0 0.0 0.0 0.0 0.0 0.0 0.0
0.0 0.0 0.0 0.0 0.0 0.0 0.0 0.0
0.0 0.0 0.0 0.0 0.0 0.0 0.0 0.0
0.0 0.0 0.0 0.0 0.0 0.0 0.0 0.0
0.0 -1.1785675343660972e-06 -2.7561412006074447e-07 2.112514247831211e-07 6.436269527779188e-08 -5.44999103821176e-07 0.0 0.0
0.0 8.845265334414616e-05 1.3967788668035759e-05 -1.067739889415099e-05 -3.290389773885795e-06 1.3670276666506312e-06 0.0 0.0
0.0 0.0001511106541436149 7.020519895722574e-06 -5.466114520754994e-06 -1.554405374967373e-06 7.576162844179808e-06 0.0 0.0
0.0 0.00018170630621980064 -0.00010419584839827567 7.909228764792126e-05 2.5103560750354997e-05 1.8635833302109892e-05 0.0 0.0
0.0 0.0004035637980871176 -0.00038108272674384976 0.0003019353354129968 7.91473913308526e-05 -2.0282199108926625e-06 0.0 0.0
0.0 0.0008292863464591314 -0.0007763606904649998 0.0006325784277595133 0.00014378226270548656 -2.7522271460569347e-05 0.0 0.0
0.0 0.001480079219579091 -0.0013721766497680318 0.0011515440409258799 0.00022063260884215167 -6.792909049561357e-05 0.0 0.0
0.0 0.0024737183405289668 -0.0022689417994651183 0.0019632181161978817 0.0003057236832672372 -0.0001445974196460094 0.0 0.0
0.0 0.0038842603954488577 -0.0035252557498147725 0.0031365702143122147 0.0003886855355025565 -0.0002675396014286688 0.0 0.0
0.0 0.005698504634907543 -0.005125693655877993 0.004662896508605122 0.0004627971472728708 -0.00044166208455191815 0.0 0.0
0.0 0.007843319948049488 -0.007014179988844446 0.0064898738898602724 0.0005243060989841713 -0.0005956544587012395 0.0 0.0
0.0 0.009787515431015826 -0.008719755859064282 0.008204472297786591 0.0005152835612776912 -0.0008036745895758666 0.0 0.0
0.0 0.009331017070753584 -0.008157037713849659 0.007836384503062179 0.0003206532107874778 -0.0030956192165781213 0.0 0.0
0.0 0.006162866953609181 -0.005101952744470432 0.003570492969049836 0.0015314597754205986 2.366813342535856e-15 0.0 0.0
0.0 0.00933101707075232 -0.008157037713847808 0.007836384503060375 0.00032065321078743266 0.0030956192165849765 0.0 0.0
0.0 0.009787515431013444 -0.008719755859062164 0.008204472297784229 0.0005152835612779348 0.0008036745895832998 0.0 0.0
0.0 0.007843319948049397 -0.007014179988844329 0.006489873889860305 0.0005243060989840239 0.0005956544587053803 0.0 0.0
0.0 0.005698504634907483 -0.005125693655877969 0.004662896508605007 0.00046279714727296117 0.0004416620845530619 0.0 0.0
0.0 0.0038842603954486786 -0.003525255749814622 0.0031365702143120416 0.00038868553550258015 0.00026753960142931923 0.0 0.0
0.0 0.0024737183405287326 -0.002268941799464918 0.0019632181161976696 0.0003057236832672479 0.00014459741964624822 0.0 0.0
0.0 0.0014800792195790735 -0.0013721766497679859 0.0011515440409259146 0.00022063260884207155 6.79290904957681e-05 0.0 0.0
0.0 0.0008292863464587013 -0.0007763606904646085 0.0006325784277591559 0.00014378226270545216 2.7522271460577485e-05 0.0 0.0
0.0 0.0004035637980872419 -0.00038108272674395303 0.00030193533541311734 7.914739133083583e-05 2.0282199110445135e-06 0.0 0.0
0.0 0.0001817063062200261 -0.00010419584839846997 7.909228764807591e-05 2.5103560750393822e-05 -1.8635833302109255e-05 0.0 0.0
0.0 0.00015111065414348375 7.020519895751008e-06 -5.46611452077709e-06 -1.5544053749735275e-06 -7.576162844185846e-06 0.0 0.0
0.0 8.845265334419239e-05 1.3967788668041413e-05 -1.067739889415478e-05 -3.2903897738866744e-06 -1.3670276666522808e-06 0.0 0.0
0.0 -1.1785675343981887e-06 -2.7561412006616686e-07 2.1125142478731688e-07 6.436269527885697e-08 5.449991038216215e-07 0.0 0.0
0.0 0.0 0.0 0.0 0.0 0.0 0.0 0.0
0.0 0.0 0.0 0.0 0.0 0.0 0.0 0.0
0.0 0.0 0.0 0.0 0.0 0.0 0.0 0.0
0.0 0.0 0.0 0.0 0.0 0.0 0.0 0.0
0.0 0.0 0.0 0.0 0.0 0.0 0.0 0.0
0.0 0.0 0.0 0.0 0.0 0.0 0.0 0.0
0.0 0.0 0.0 0.0 0.0 0.0 0.0 0.0
0.0 0.0 0.0 0.0 0.0 0.0 0.0 0.0
0.0 0.0 0.0 0.0 0.0 0.0 0.0 0.0
0.0 0.0 0.0 0.0 0.0 0.0 0.0 0.0
0.0 0.0 0.0 0.0 0.0 0.0 0.0 0.0
0.0 0.0 0.0 0.0 0.0 0.0 0.0 0.0
0.0 0.0 0.0 0.0 0.0 0.0 0.0 0.0
0.0 -2.548064113949688e-06 -4.993553625962895e-07 3.7852947581776536e-07 1.2082588677855373e-07 -6.620101512215196e-08 0.0 0.0
0.0 6.248737183372573e-05 9.895494169640984e-06 -7.491292534871889e-06 -2.404201634768684e-06 -1.1585808505219068e-06 0.0 0.0
0.0 0.00014405516938330196 5.980144584138321e-06 -4.5754079699656945e-06 -1.4047366141717121e-06 5.894614240600879e-06 0.0 0.0
0.0 0.00013182224313912241 -6.0861474533193636e-05 4.568339421230834e-05 1.5178080320885191e-05 1.0793865729121486e-05 0.0 0.0
0.0 0.0002890622922611144 -0.000274652069226914 0.00021306176504087422 6.159030418603973e-05 2.57777945847938e-05 0.0 0.0
0.0 0.0006848272108000589 -0.0006431321590555721 0.0005205290796811387 0.00012260307937443331 1.1042373003825127e-05 0.0 0.0
0.0 0.0012085845460635808 -0.0011257113780937067 0.0009348039172500676 0.00019090746084363914 2.8257408015959165e-06 0.0 0.0
0.0 0.001997978455472189 -0.00184326664762807 0.001574701698236804 0.00026856494939126666 -1.0749921919578149e-05 0.0 0.0
0.0 0.003164260958648851 -0.002890373355201199 0.0025386519243001983 0.0003517214309009999 -4.429999588698835e-05 0.0 0.0
0.0 0.004774066202158404 -0.004319574629916348 0.00388929967158971 0.0004302749583266364 -0.00010572078598790663 0.0 0.0
0.0 0.006765528215292039 -0.006072875580640357 0.005578159264772747 0.0004947163158676105 -0.0002004792136720964 0.0 0.0
0.0 0.008915926750550984 -0.007957266580638556 0.00741588228855807 0.000541384292080489 -0.00034977982807537914 0.0 0.0
0.0 0.010963883814425247 -0.009776287718092804 0.009178613199980786 0.0005976745181120152 -0.00032614047193898967 0.0 0.0
0.0 0.011110000872715133 -0.009791367352721183 0.009530586483874495 0.000260780868846683 -0.001562609701788379 0.0 0.0
0.0 0.008011451369555101 -0.0066349021048766514 0.004868593258098133 0.0017663088467785174 1.714015214482334e-15 0.0 0.0
0.0 0.01111000087271334 -0.009791367352719389 0.009530586483872757 0.00026078086884663034 0.001562609701792145 0.0 0.0
0.0 0.010963883814422754 -0.009776287718090736 0.009178613199978456 0.0005976745181122772 0.00032614047194309815 0.0 0.0
0.0 0.008915926750550538 -0.007957266580638212 0.007415882288557813 0.0005413842920804012 0.00034977982807777745 0.0 0.0
0.0 0.0067655282152919395 -0.006072875580640282 0.0055781592647726275 0.0004947163158676538 0.00020047921367267394 0.0 0.0
0.0 0.004774066202158225 -0.004319574629916193 0.0038892996715895493 0.00043027495832664267 0.00010572078598840453 0.0 0.0
0.0 0.0031642609586485806 -0.0028903733552009744 0.002538651924299958 0.00035172143090101635 4.429999588718014e-05 0.0 0.0
0.0 0.001997978455472007 -0.0018432666476278963 0.0015747016982366805 0.00026856494939121544 1.0749921919694375e-05 0.0 0.0
0.0 0.0012085845460630571 -0.0011257113780932379 0.0009348039172496087 0.00019090746084362905 -2.8257408015585657e-06 0.0 0.0
0.0 0.0006848272107999906 -0.0006431321590555059 0.0005205290796811008 0.0001226030793744048 -1.1042373003721206e-05 0.0 0.0
0.0 0.0002890622922616629 -0.0002746520692274124 0.00021306176504132831 6.159030418608421e-05 -2.5777794584665636e-05 0.0 0.0
0.0 0.00013182224313913334 -6.0861474533248734e-05 4.568339421234642e-05 1.5178080320902652e-05 -1.0793865729186935e-05 0.0 0.0
0.0 0.00014405516938330846 5.980144584129129e-06 -4.575407969958323e-06 -1.4047366141710976e-06 -5.8946142405999325e-06 0.0 0.0
0.0 6.248737183372656e-05 9.895494169640807e-06 -7.491292534872346e-06 -2.4042016347684037e-06 1.1585808505212994e-06 0.0 0.0
0.0 -2.5480641139513505e-06 -4.993553625965834e-07 3.785294758180643e-07 1.2082588677856178e-07 6.620101512228228e-08 0.0 0.0
0.0 0.0 0.0 0.0 0.0 0.0 0.0 0.0
0.0 0.0 0.0 0.0 0.0 0.0 0.0 0.0
0.0 0.0 0.0 0.0 0.0 0.0 0.0 0.0
0.0 0.0 0.0 0.0 0.0 0.0 0.0 0.0
0.0 0.0 0.0 0.0 0.0 0.0 0.0 0.0
0.0 0.0 0.0 0.0 0.0 0.0 0.0 0.0
0.0 0.0 0.0 0.0 0.0 0.0 0.0 0.0
0.0 0.0 0.0 0.0 0.0 0.0 0.0 0.0
0.0 0.0 0.0 0.0 0.0 0.0 0.0 0.0
0.0 0.0 0.0 0.0 0.0 0.0 0.0 0.0
0.0 0.0 0.0 0.0 0.0 0.0 0.0 0.0
0.0 0.0 0.0 0.0 0.0 0.0 0.0 0.0
0.0 3.1106206772306806e-05 4.752760406340357e-06 -3.505837373485779e-06 -1.2469230328546317e-06 -1.162441476098812e-06 0.0 0.0
0.0 0.00015510173559505288 1.7506713196091314e-05 -1.3206322448216233e-05 -4.300390747875292e-06 7.799606634699107e-07 0.0 0.0
0.0 0.00017269236123784677 -3.9790133181303805e-05 2.9559512484034633e-05 1.0230620697269519e-05 1.1621774777081843e-05 0.0 0.0
0.0 0.0001645079324005477 -0.0001579662418532706 0.00011680812136256679 4.1158120490703726e-05 1.558288342966031e-05 0.0 0.0
0.0 0.0004624839229755304 -0.00043979906440435614 0.0003393250844701785 0.00010047397993417767 4.2830177881676316e-05 0.0 0.0
0.0 0.0009270998903975432 -0.0008730887209123456 0.0007005306171383419 0.00017255810377400362 4.4596534807597125e-05 0.0 0.0
0.0 0.0015283219530606877 -0.001428218011939167 0.0011743246236076586 0.0002538933883315088 6.532937566774692e-05 0.0 0.0
0.0 0.0024220640445677083 -0.0022437691432451714 0.0018954819375093263 0.00034828720573584434 9.743222554382217e-05 0.0 0.0
0.0 0.0037169981088287602 -0.003412427311945258 0.0029600439760324474 0.0004523833359128102 0.00013133082826191514 0.0 0.0
0.0 0.005469635461996464 -0.0049778339591345965 0.004423363239509494 0.0005544707196251041 0.00014782369976601396 0.0 0.0
0.0 0.007590291881181768 -0.006855813985387146 0.006216540810847106 0.0006392731745400364 0.00012625795251251608 0.0 0.0
0.0 0.009748067371007021 -0.00874943718987015 0.00806652117765974 0.0006829160122104078 -3.758412332394113e-05 0.0 0.0
0.0 0.011529211750278923 -0.010303545174264756 0.009609830179642181 0.0006937149946225731 -9.868140494174624e-05 0.0 0.0
0.0 0.012424849543239525 -0.011096913346303878 0.010651248068131568 0.0004456652781723115 -0.0005318617416060641 0.0 0.0
0.0 0.010342869268464734 -0.00869693378255959 0.006330731423874206 0.0023662023586853848 1.5083420623618338e-15 0.0 0.0
0.0 0.012424849543237686 -0.011096913346302464 0.010651248068129966 0.0004456652781724994 0.0005318617416075165 0.0 0.0
0.0 0.011529211750276314 -0.010303545174262562 0.009609830179639798 0.0006937149946227713 9.86814049436655e-05 0.0 0.0
0.0 0.009748067371005805 -0.008749437189869124 0.008066521177658846 0.0006829160122102761 3.758412332554434e-05 0.0 0.0
0.0 0.007590291881181393 -0.00685581398538679 0.006216540810846789 0.0006392731745400036 -0.0001262579525121096 0.0 0.0
0.0 0.005469635461996293 -0.00497783395913444 0.004423363239509379 0.0005544707196250591 -0.0001478236997656142 0.0 0.0
0.0 0.003716998108828407 -0.003412427311944962 0.0029600439760321196 0.0004523833359128435 -0.00013133082826177674 0.0 0.0
0.0 0.002422064044567297 -0.002243769143244813 0.001895481937508985 0.0003482872057358273 -9.743222554376986e-05 0.0 0.0
0.0 0.0015283219530600875 -0.0014282180119386354 0.0011743246236071252 0.0002538933883315102 -6.532937566775031e-05 0.0 0.0
0.0 0.0009270998903971739 -0.0008730887209120042 0.0007005306171380297 0.00017255810377397445 -4.459653480751195e-05 0.0 0.0
0.0 0.00046248392297632956 -0.0004397990644050798 0.0003393250844708803 0.0001004739799341994 -4.283017788142317e-05 0.0 0.0
0.0 0.00016450793240078857 -0.0001579662418535004 0.00011680812136273861 4.115812049076183e-05 -1.5582883429802803e-05 0.0 0.0
0.0 0.00017269236123789477 -3.979013318133046e-05 2.95595124840606e-05 1.0230620697269746e-05 -1.1621774777079525e-05 0.0 0.0
0.0 0.00015510173559509904 1.750671319609014e-05 -1.3206322448217062e-05 -4.3003907478733815e-06 -7.799606634719374e-07 0.0 0.0
0.0 3.1106206772305106e-05 4.752760406339987e-06 -3.505837373485716e-06 -1.2469230328541395e-06 1.1624414760992504e-06 0.0 0.0
0.0 0.0 0.0 0.0 0.0 0.0 0.0 0.0
0.0 0.0 0.0 0.0 0.0 0.0 0.0 0.0
0.0 0.0 0.0 0.0 0.0 0.0 0.0 0.0
0.0 0.0 0.0 0.0 0.0 0.0 0.0 0.0
0.0 0.0 0.0 0.0 0.0 0.0 0.0 0.0
0.0 0.0 0.0 0.0 0.0 0.0 0.0 0.0
SCALARS Wm float 4
LOOKUP_TABLE default
0.9595441007467743 0.7248487110875854 0.0829458395896624 0.15174955006952578
0.2742184773848057 0.30849176126649147 -0.012013332014230198 -0.022259951867455528
0.08576056031246726 0.08576056031246726 0.0 0.0
0.09726098168565273 0.09726098168565273 0.0 0.0
0.1343980646358732 0.1343980646358732 0.0 0.0
0.19452675591191076 0.19452675591191076 0.0 0.0
0.27491539881119237 0.27567548382537554 -0.0001982458856081556 -0.0005618391285749979
0.3744058201328277 0.37768863907213956 -0.0010116067269841267 -0.0022712122123278054
0.46761642252656654 0.4570933606248032 0.0024175825167776477 0.008105479384985771
0.5748343528473642 0.5417140831901207 0.009121229392113604 0.023999040265129692
0.7275600299048853 0.6243232764171549 0.03405658868709574 0.06918016480063473
0.9325317945764319 0.712671280341407 0.08093854355453824 0.13892197068048667
1.1951938455123923 0.8138110229728512 0.15168626937418533 0.22969655316535606
1.5677252631052434 0.9303348413221011 0.27144620565984473 0.3659442161232973
2.0981094541148133 1.0674725297997039 0.46633133458623244 0.5643055897288765
2.8056903776288085 1.2147971347446371 0.7581948274281671 0.8326984154560033
3.6567039340151264 1.351662989049033 1.1459778482636134 1.159063096702479
4.550189393257073 1.4582057818068177 1.587432434349254 1.5045511771010014
5.340251112214547 1.5293532643520404 2.000388460311273 1.810509387551234
5.883669561534722 1.5723628678972494 2.29224374557561 2.0190629480618614
6.077366469939866 1.5873476705790244 2.3972487865240586 2.0927700128367817
5.883669561534665 1.5723628678975847 2.2922437455753797 2.0190629480617
5.340251112214226 1.529353264352273 2.000388460310953 1.8105093875509972
4.550189393256789 1.4582057818067005 1.5874324343491568 1.5045511771009314
3.656703934015193 1.3516629890489533 1.1459778482636942 1.1590630967025457
2.8056903776290483 1.2147971347448878 0.7581948274281629 0.8326984154559984
2.098109454114541 1.067472529799547 0.46633133458617415 0.56430558972882
1.5677252631051468 0.9303348413222289 0.27144620565973676 0.36594421612318156
1.1951938455122866 0.8138110229728631 0.15168626937413196 0.22969655316529164
0.9325317945764231 0.7126712803414652 0.0809385435545099 0.13892197068044787
0.7275600299048836 0.6243232764169628 0.03405658868716677 0.0691801648007539
0.5748343528475126 0.5417140831902438 0.00912122939212232 0.02399904026514642
0.4676164225264863 0.45709336062474326 0.0024175825167717722 0.008105479384971066
0.3744058201327951 0.3776886390721065 -0.0010116067269837412 -0.002271212212327432
0.27491539881116595 0.27567548382534846 -0.00019824588560791661 -0.0005618391285745791
0.19452675591188723 0.19452675591188723 0.0 0.0
0.1343980646358643 0.1343980646358643 0.0 0.0
0.09726098168564808 0.09726098168564808 0.0 0.0
0.0857605603124631 0.0857605603124631 0.0 0.0
0.27421847738493355 0.30849176126663386 -0.012013332014236551 -0.022259951867463823
0.9595441007469176 0.7248487110875914 0.08294583958971885 0.15174955006960758
0.9730284389136497 0.860470255590492 0.03588060531826257 0.07667757800489529
0.03285697129803764 0.04755775180217477 -0.004686419139830073 -0.01001436136430708
0.0468135043347796 0.0468135043347796 0.0 0.0
0.07922458576216222 0.07922458576216222 0.0 0.0
0.10901501078049632 0.10901501078049632 0.0 0.0
0.1590686984124815 0.1590686984124815 0.0 0.0
0.22341868752285585 0.22333205394020558 2.9142724114109135e-05 5.749085853611199e-05
0.3038114198567095 0.3055047802452781 -0.0004868686161185855 -0.0012064917724500751
0.3961215901063072 0.4019843397392892 -0.0016065149043521974 -0.004256234728629741
0.4769832078503954 0.4633650634199042 0.0032082969881879276 0.010409847442303301
0.6121051675369803 0.5498989304612497 0.018979235063851123 0.04322700201187946
0.7899198426321771 0.6319277150163012 0.05541175534180137 0.10258037227407446
1.0121434220753385 0.7175725859570135 0.1130232523234471 0.18154758379487798
1.325782843387509 0.8107185690514538 0.21328217841914993 0.301782095916905
1.7798580014513004 0.917321079326822 0.3817067059162027 0.48083021620827543
2.39976990195333 1.0304352616671881 0.6411337546389584 0.7282008856471834
3.1608141392046916 1.1338261011118649 0.9932342314354023 1.0337538066574252
3.9668719691653385 1.2085662251260763 1.3986802776457499 1.3596254663935117
4.676096721231654 1.2506272180841316 1.777966578558205 1.647502924589319
5.157685090530034 1.2721397990876289 2.043735764278542 1.8418095271638606
5.327463952769254 1.2789056304561088 2.1386297090461794 1.909928613266968
5.157685090529602 1.2721397990876475 2.0437357642782805 1.8418095271636754
4.6760967212312625 1.2506272180842342 1.77796657855792 1.647502924589108
3.9668719691653704 1.208566225126072 1.3986802776457694 1.3596254663935294
3.1608141392049793 1.1338261011118798 0.9932342314355513 1.0337538066575482
2.399769901953499 1.0304352616673444 0.6411337546389652 0.7282008856471892
1.779858001451111 0.9173210793267367 0.38170670591615097 0.48083021620822286
1.325782843387367 0.8107185690515164 0.21328217841905353 0.301782095916797
1.012143422075209 0.7175725859569997 0.11302325232339683 0.1815475837948128
0.7899198426321496 0.6319277150162773 0.055411755341799734 0.10258037227407257
0.612105167537088 0.5498989304612463 0.018979235063890248 0.04322700201195158
0.4769832078504797 0.4633650634199928 0.0032082969881864626 0.010409847442300495
0.39612159010626236 0.40198433973924436 -0.001606514904352307 -0.004256234728629596
0.30381141985669585 0.30550478024526295 -0.00048686861611810185 -0.0012064917724490026
0.22341868752283317 0.2233320539401827 2.91427241141314e-05 5.7490858536266365e-05
0.15906869841246576 0.15906869841246576 0.0 0.0
0.10901501078049333 0.10901501078049333 0.0 0.0
0.07922458576215784 0.07922458576215784 0.0 0.0
0.04681350433477034 0.04681350433477034 0.0 0.0
0.03285697129807316 0.047557751802234566 -0.004686419139838734 -0.010014361364322644
0.9730284389140714 0.8604702555907365 0.03588060531832602 0.0766775780050088
0.7202994498490936 0.694014960764815 0.006343083333983856 0.019941405750295033
-0.005842610190959323 -0.0023211563791607527 -0.000849812028432145 -0.002671641783366454
0.0290559613520827 0.0290559613520827 0.0 0.0
0.05765844912508863 0.05765844912508863 0.0 0.0
0.0875203231158904 0.0875203231158904 0.0 0.0
0.12803631382067274 0.12803631382067274 0.0 0.0
0.17987614616238493 0.17987614616238493 0.0 0.0
0.2419873112685026 0.24191510121170967 3.0200461962562647e-05 4.20095948304506e-05
0.316565354690922 0.31898514438527265 -0.0006923414798715506 -0.0017274482144791225
0.39862310235681586 0.40011274270680053 -0.0006732323202604774 -0.0008164080297242346
0.5105435453032858 0.48850818572722793 0.005843786646863917 0.016191572929193893
0.6628132066977656 0.5738085769528447 0.028580170550083533 0.06042445919483742
0.8558983831522666 0.660994437796517 0.07044529805908513 0.12445864729666435
1.124117800168955 0.7543692308180573 0.1463619799824501 0.2233865893684476
1.5162289520923884 0.8593368246339038 0.28073286227759775 0.3761592651808871
2.0626301642917517 0.9714507546336628 0.49703133065734817 0.5941480790007401
2.746330809900804 1.0752121855750987 0.8008160637533661 0.8703025605723382
3.4791115453934314 1.15119165830133 1.1584473818864285 1.1694725052056747
4.125485190930149 1.1952737509177094 1.4955478078095472 1.4346636322028932
4.563133843900353 1.2199180859283927 1.730733238226231 1.6124825197457289
4.716677382768967 1.227820123512088 1.8143535229448906 1.6745037363119892
4.563133843899998 1.2199180859284464 1.7307332382259988 1.6124825197455543
4.125485190929826 1.195273750917796 1.4955478078093132 1.4346636322027182
3.4791115453935495 1.1511916583012982 1.1584473818865089 1.1694725052057418
2.746330809901082 1.0752121855750665 0.8008160637535318 0.8703025605724835
2.0626301642919 0.9714507546337954 0.49703133065735694 0.5941480790007475
1.5162289520922834 0.8593368246339168 0.28073286227754035 0.37615926518082626
1.124117800168805 0.754369230818065 0.1463619799823789 0.2233865893683612
0.8558983831521553 0.6609944377965262 0.07044529805903543 0.12445864729659352
0.6628132066977557 0.573808576952776 0.028580170550105158 0.06042445919487469
0.5105435453033947 0.4885081857273014 0.005843786646875118 0.01619157292921841
0.3986231023568234 0.40011274270681396 -0.0006732323202620035 -0.0008164080297285274
0.31656535469091596 0.31898514438526376 -0.0006923414798706415 -0.001727448214477259
0.2419873112684849 0.24191510121169166 3.020046196263884e-05 4.2009594830647354e-05
0.17987614616236955 0.17987614616236955 0.0 0.0
0.12803631382065697 0.12803631382065697 0.0 0.0
0.08752032311588165 0.08752032311588165 0.0 0.0
0.05765844912508794 0.05765844912508794 0.0 0.0
0.029055961352083153 0.029055961352083153 0.0 0.0
-0.005842610190955759 -0.002321156379150398 -0.0008498120284343142 -0.0026716417833710527
0.7202994498492632 0.6940149607649336 0.006343083334000051 0.019941405750329374
0.5719902178636946 0.5804557396260392 -0.002418521352320329 -0.006047000410024461
-0.01086544043041191 -0.011999605290276084 0.00032402042161582944 0.0008101444382483609
0.01983979023571597 0.01983979023571597 0.0 0.0
0.040345929659300256 0.040345929659300256 0.0 0.0
0.06891232442891407 0.06891232442891407 0.0 0.0
0.10190595443722546 0.10190595443722546 0.0 0.0
0.1426089918726727 0.1426089918726727 0.0 0.0
0.19082990637034622 0.19085167610150797 -5.1208754877985844e-06 -1.664885567395261e-05
0.24740843615545746 0.2471939818435179 6.866807332078074e-05 0.0001457862386188465
0.3198773279470957 0.32266544242571393 -0.0008050395803802074 -0.001983074898237913
0.41568057762369437 0.41784699068103354 -0.0008397160196393053 -0.0013266970376998965
0.5378366386064856 0.5001719727863133 0.010280915216696055 0.027383750603476212
0.7044053937538375 0.5950510193840648 0.03616278608784826 0.07319158828192462
0.9294979433277393 0.6903556440856912 0.08896596517215723 0.1501763340698907
1.2606840460951725 0.7945853520720393 0.1903027474199248 0.2757959466032083
1.7322502165408786 0.9061889472876206 0.3633869744565308 0.46267429479672756
2.336306695296958 1.0107759413050557 0.6179866792110157 0.7075440747808857
2.995914316280001 1.0889520875974166 0.9277107808138491 0.9792514478687344
3.583398844386649 1.1355973653348315 1.2248468153529442 1.2229546636988728
3.9824200186109553 1.1628106726380882 1.433067087636537 1.3865422583363296
4.122200720441191 1.1712563843356327 1.5072842378071936 1.443660098298365
3.9824200186106653 1.1628106726382295 1.4330670876362939 1.3865422583361422
3.5833988443863936 1.1355973653349518 1.2248468153527339 1.222954663698708
2.9959143162802007 1.088952087597588 0.9277107808138635 0.9792514478687487
2.336306695297144 1.0107759413050272 0.6179866792111274 0.7075440747809891
1.7322502165409297 0.906188947287626 0.3633869744565526 0.46267429479675093
1.2606840460951005 0.7945853520720798 0.19030274741987183 0.27579594660314843
0.9294979433275619 0.6903556440856128 0.08896596517211486 0.15017633406983427
0.7044053937537329 0.595051019384061 0.03616278608780958 0.07319158828186259
0.5378366386064719 0.5001719727862703 0.01028091521670528 0.027383750603496165
0.4156805776237823 0.41784699068111925 -0.0008397160196388833 -0.0013266970376980007
0.31987732794712437 0.32266544242574524 -0.0008050395803810759 -0.0019830748982398176
0.24740843615546002 0.24719398184351934 6.86680733210661e-05 0.00014578623861956556
0.19082990637033936 0.19085167610150106 -5.120875487786299e-06 -1.6648855673923166e-05
0.14260899187265816 0.14260899187265816 0.0 0.0
0.10190595443721773 0.10190595443721773 0.0 0.0
0.06891232442891121 0.06891232442891121 0.0 0.0
0.04034592965929897 0.04034592965929897 0.0 0.0
0.01983979023571669 0.01983979023571669 0.0 0.0
-0.010865440430386957 -0.011999605290250999 0.00032402042161579897 0.0008101444382482191
0.5719902178634606 0.5804557396258044 -0.0024185213523201013 -0.0060470004100234
0.4315101282010515 0.43301905405198216 -0.0003861924327140241 -0.0011227334182164614
0.0024326475627338517 0.0022304898311362067 5.173997523436679e-05 0.0001504177563632675
0.017336495663367323 0.017336495663367323 0.0 0.0
0.029346559940904723 0.029346559940904723 0.0 0.0
0.0537163757020492 0.0537163757020492 0.0 0.0
0.08036174018573036 0.08036174018573036 0.0 0.0
0.11138760399340775 0.11138760399340775 0.0 0.0
0.14757343192983557 0.14757343192983557 0.0 0.0
0.19071911746441622 0.19075275175929773 -8.541084740097565e-06 -2.5093210141410978e-05
0.2448141053017092 0.24447740348993804 0.00010558474098011522 0.00023111707079097034
0.3202693189386437 0.3229653377055325 -0.0008080828414861362 -0.0018879359254026125
0.4309823846675278 0.4343610429598613 -0.0011262189195121286 -0.0022524393728212072
0.5557845494066572 0.5108355121156846 0.012511249570394681 0.032437787720577725
0.7425024953854523 0.6145998936086527 0.04323008211709351 0.08467251965970606
1.0144276565553867 0.7202464057548652 0.1126007763238557 0.18158047447666564
1.4101130100462462 0.8322678181682026 0.2426138002032748 0.3352313916747688
1.9320767385177402 0.9384808938643041 0.44712615610550205 0.5464696885479338
2.517600202335978 1.0199965393349784 0.708269919602818 0.7893337433981813
3.048558661511724 1.0700664030908522 0.9665133813361695 1.011978877084701
3.4127330396683804 1.0998444470097626 1.1500659721614364 1.162822620497182
3.540581778416168 1.1085494119860932 1.2161371319968706 1.215895234433204
3.4127330396682076 1.0998444470100823 1.150065972161163 1.1628226204969625
3.048558661511409 1.0700664030908855 0.9665133813359781 1.0119788770845453
2.5176002023359714 1.0199965393350559 0.7082699196027707 0.7893337433981439
1.9320767385178266 0.9384808938643587 0.4471261561055172 0.5464696885479509
1.410113010046282 0.8322678181682501 0.24261380020326917 0.33523139167476257
1.0144276565553112 0.7202464057548889 0.1126007763238123 0.18158047447661
0.7425024953853011 0.6145998936085513 0.04323008211707413 0.08467251965967576
0.5557845494065684 0.5108355121156548 0.01251124957037523 0.03243778772053824
0.43098238466753525 0.434361042959871 -0.001126218919512803 -0.002252439372822888
0.32026931893864785 0.32296533770553487 -0.0008080828414855632 -0.001887935925401607
0.2448141053017436 0.24447740348997285 0.00010558474098000789 0.00023111707079077353
0.19071911746442052 0.19075275175930215 -8.541084740126774e-06 -2.5093210141480563e-05
0.14757343192983846 0.14757343192983846 0.0 0.0
0.11138760399340564 0.11138760399340564 0.0 0.0
0.08036174018571832 0.08036174018571832 0.0 0.0
0.05371637570204923 0.05371637570204923 0.0 0.0
0.02934655994091139 0.02934655994091139 0.0 0.0
0.017336495663366855 0.017336495663366855 0.0 0.0
0.002432647562733715 0.002230489831136216 5.1739975234328244e-05 0.00015041775636317773
0.43151012820101703 0.43301905405194646 -0.0003861924327137364 -0.001122733418215791
0.322230631777688 0.32213183848045135 2.1129449785233144e-05 7.766384745144072e-05
0.017540682004734316 0.017553917796840405 -2.830809503233589e-06 -1.040498260285372e-05
0.01960737699215916 0.01960737699215916 0.0 0.0
0.024201920434384735 0.024201920434384735 0.0 0.0
0.042453438275379826 0.042453438275379826 0.0 0.0
0.06313747263627346 0.06313747263627346 0.0 0.0
0.085871049858239 0.085871049858239 0.0 0.0
0.1117975152111358 0.1117975152111358 0.0 0.0
0.14281882179985672 0.14281882179985672 0.0 0.0
0.18255732545545955 0.18259817216017882 -1.0709989121614022e-05 -3.013671559767163e-05
0.23583842920828213 0.23528223135538467 0.00016815853419892458 0.00038803931869854234
0.31385505916000356 0.3164551162846634 -0.0007724055928461872 -0.0018276515318136036
0.4291918025038693 0.4339238469441865 -0.0015501023441687393 -0.003181942096148552
0.5626511812542435 0.5167629120797702 0.012674403744240292 0.03321386543023311
0.7791085752273437 0.6311220339735358 0.05097197598951589 0.09701456526429211
1.0984077502913627 0.7455439457904941 0.138360834821281 0.21450296967958776
1.5353041648951418 0.854813581374783 0.2916852895191859 0.3888052940011732
2.044330575650968 0.9413685422872423 0.5026375873171346 0.6003244460465915
2.519560290567074 0.9964527688278 0.7217470657273687 0.8013604560119054
2.851662592570503 1.0294115012347373 0.8818879007893553 0.9403631905464104
2.9690615680010626 1.0382365438775258 0.9407180180708148 0.990107006052722
2.851662592570292 1.0294115012349883 0.8818879007891048 0.9403631905461989
2.5195602905667585 0.9964527688278391 0.7217470657271787 0.801360456011741
2.0443305756507226 0.9413685422871279 0.5026375873170646 0.6003244460465301
1.535304164894978 0.8548135813747343 0.29168528951912853 0.3888052940011152
1.0984077502912926 0.7455439457905156 0.13836083482123968 0.21450296967953764
0.7791085752272483 0.6311220339735253 0.050971975989482346 0.09701456526424092
0.5626511812541174 0.5167629120796767 0.012674403744229925 0.03321386543021085
0.4291918025037783 0.43392384694410846 -0.0015501023441725484 -0.0031819420961577225
0.3138550591599752 0.31645511628463346 -0.0007724055928455953 -0.0018276515318127408
0.23583842920830328 0.23528223135540577 0.00016815853419895903 0.00038803931869858344
0.1825573254554876 0.182598172160207 -1.070998912164143e-05 -3.0136715597735677e-05
0.14281882179986422 0.14281882179986422 0.0 0.0
0.11179751521113147 0.11179751521113147 0.0 0.0
0.08587104985823295 0.08587104985823295 0.0 0.0
0.06313747263626768 0.06313747263626768 0.0 0.0
0.042453438275375795 0.042453438275375795 0.0 0.0
0.024201920434383947 0.024201920434383947 0.0 0.0
0.019607376992156915 0.019607376992156915 0.0 0.0
0.017540682004733722 0.01755391779683981 -2.8308095032330953e-06 -1.0404982602852072e-05
0.3222306317776732 0.32213183848043647 2.1129449785229444e-05 7.766384745142836e-05
0.23839905450166324 0.23839905450166324 0.0 0.0
0.02938187470819861 0.02938187470819861 0.0 0.0
0.02458602030220158 0.02458602030220158 0.0 0.0
0.023551922119107272 0.023551922119107272 0.0 0.0
0.03515111495286743 0.03515111495286743 0.0 0.0
0.050026456058490466 0.050026456058490466 0.0 0.0
0.06571794361913265 0.06571794361913265 0.0 0.0
0.08305259317618985 0.08305259317618985 0.0 0.0
0.10377934106159085 0.10377934106159085 0.0 0.0
0.13081391949180854 0.13081391949180854 0.0 0.0
0.16758813052640198 0.1676279683314626 -1.0403303230625756e-05 -2.943450182999056e-05
0.217804564596762 0.21712826993108597 0.0001826532545547652 0.0004936414111212595
0.29133654763592615 0.2926951829939425 -0.00037738406139911857 -0.00098125129661726
0.40693539859565403 0.41499247710379805 -0.0025527124296842478 -0.005504366078459542
0.5550068956823835 0.5120495588219799 0.011320208922555178 0.03163712793784819
0.8012482170686587 0.6391524860474276 0.05636733521617995 0.10572839580505138
1.1489375255941867 0.7533804029457831 0.15732902765037762 0.23822809499802594
1.5767176499954354 0.8477214445563376 0.315130611792124 0.4138655936469734
1.9949248284453858 0.9107286387149507 0.4930571515805054 0.5911390381499299
2.2968283996497902 0.94854959812552 0.6298183545498361 0.7184604469744341
2.4050850459397934 0.9575959942299554 0.6819837685584946 0.7655052831513438
2.2968283996496694 0.9485495981257988 0.6298183545496262 0.7184604469742448
1.9949248284450205 0.9107286387150211 0.4930571515802806 0.5911390381497188
1.576717649995005 0.8477214445561849 0.31513061179198676 0.4138655936468335
1.1489375255938437 0.7533804029456249 0.15732902765029197 0.23822809499792677
0.8012482170685659 0.6391524860474225 0.05636733521614352 0.10572839580500006
0.555006895682315 0.5120495588219742 0.01132020892253482 0.03163712793780586
0.40693539859554606 0.4149924771036902 -0.0025527124296840895 -0.005504366078460138
0.2913365476358563 0.2926951829938664 -0.0003773840613971444 -0.0009812512966129417
0.2178045645967632 0.21712826993108744 0.0001826532545546547 0.0004936414111210731
0.1675881305264082 0.16762796833146892 -1.040330323064905e-05 -2.943450183004647e-05
0.1308139194918334 0.1308139194918334 0.0 0.0
0.10377934106159636 0.10377934106159636 0.0 0.0
0.08305259317618882 0.08305259317618882 0.0 0.0
0.06571794361913044 0.06571794361913044 0.0 0.0
0.05002645605848961 0.05002645605848961 0.0 0.0
0.03515111495286429 0.03515111495286429 0.0 0.0
0.02355192211910685 0.02355192211910685 0.0 0.0
0.024586020302195984 0.024586020302195984 0.0 0.0
0.029381874708191463 0.029381874708191463 0.0 0.0
0.23839905450164817 0.23839905450164817 0.0 0.0
0.1740461927130434 0.1740461927130434 0.0 0.0
0.03677292427073826 0.03677292427073826 0.0 0.0
0.030385364583903503 0.030385364583903503 0.0 0.0
0.025843770204116746 0.025843770204116746 0.0 0.0
0.031373635148318924 0.031373635148318924 0.0 0.0
0.04078946838425967 0.04078946838425967 0.0 0.0
0.05061052021565862 0.05061052021565862 0.0 0.0
0.061040355093744954 0.061040355093744954 0.0 0.0
0.07350354611597523 0.07350354611597523 0.0 0.0
0.09022264195478351 0.09022264195478351 0.0 0.0
0.11316854785936277 0.11316854785936277 0.0 0.0
0.14422735953069693 0.14425715957066204 -7.412900134941121e-06 -2.2387139830183935e-05
0.1873290145058519 0.1870162379762174 7.53486704591205e-05 0.00023742785917542025
0.24958625217905495 0.24912048394761355 0.00017904359757214843 0.0002867246338691753
0.3643723120724674 0.3797457163306081 -0.004216849614830012 -0.011156554643310572
0.5229806625130755 0.4928556618525548 0.00677994457791514 0.023345056082605575
0.7805121761408911 0.6228151575211088 0.05405256044266405 0.1036444581771183
1.118168547785905 0.7285487443902474 0.1544158271438749 0.23520397625178271
1.4739017279889008 0.8045102050166483 0.286198290241336 0.3831932327309166
1.745657928213078 0.8510614472843386 0.39736250504461723 0.4972339758841221
1.8458199115341014 0.8611169347882246 0.44278385798286796 0.5419191187630088
1.7456579282129 0.8510614472844706 0.39736250504446013 0.4972339758839687
1.4739017279884319 0.8045102050166822 0.28619829024109067 0.3831932327306589
1.118168547785383 0.7285487443901529 0.15441582714368007 0.23520397625155068
0.7805121761404695 0.6228151575208779 0.05405256044258602 0.10364445817700572
0.5229806625129599 0.49285566185250196 0.006779944577894991 0.023345056082562907
0.36437231207238013 0.37974571633051757 -0.004216849614829188 -0.011156554643308194
0.24958625217899771 0.24912048394755293 0.00017904359757311584 0.00028672463387168125
0.18732901450582568 0.1870162379761926 7.534867045871651e-05 0.00023742785917434144
0.14422735953068183 0.14425715957064691 -7.4129001349263504e-06 -2.2387139830149996e-05
0.11316854785936536 0.11316854785936536 0.0 0.0
0.09022264195480212 0.09022264195480212 0.0 0.0
0.07350354611597622 0.07350354611597622 0.0 0.0
0.061040355093742414 0.061040355093742414 0.0 0.0
0.05061052021565732 0.05061052021565732 0.0 0.0
0.040789468384261625 0.040789468384261625 0.0 0.0
0.0313736351483132 0.0313736351483132 0.0 0.0
0.025843770204117468 0.025843770204117468 0.0 0.0
0.03038536458389844 0.03038536458389844 0.0 0.0
0.03677292427073135 0.03677292427073135 0.0 0.0
0.17404619271303293 0.17404619271303293 0.0 0.0
0.12520032498349273 0.12520032498349273 0.0 0.0
0.04000887649986882 0.04000887649986882 0.0 0.0
0.03561461118911968 0.03561461118911968 0.0 0.0
0.02966251628285672 0.02966251628285672 0.0 0.0
0.0304220020354098 0.0304220020354098 0.0 0.0
0.03510897875440361 0.03510897875440361 0.0 0.0
0.04027296912450198 0.04027296912450198 0.0 0.0
0.045540194589539 0.045540194589539 0.0 0.0
0.0519183141814262 0.0519183141814262 0.0 0.0
0.06103097282695874 0.06103097282695874 0.0 0.0
0.07393894646202424 0.07393894646202424 0.0 0.0
0.09060747347862186 0.09060747347862186 0.0 0.0
0.11244613784030089 0.11245473456152316 -1.6833032933506583e-06 -6.913417928924583e-06
0.14369846868496375 0.14365752591653444 2.8464292519715086e-06 3.809633917733438e-05
0.18834904008015518 0.1869795714780505 0.0004039253995502204 0.0009655432025544218
0.2805748170454732 0.29210257100232034 -0.003135274759826158 -0.008392479197020993
0.45129879519264016 0.45137272662621963 -0.0019296621016147014 0.0018557306680352485
0.6846979242938502 0.566316826154435 0.037789286921696835 0.08059181121771843
0.9633256309077484 0.6603026663611491 0.11574438371682469 0.18727858082977464
1.1979035588212226 0.722696624982736 0.1942307953390457 0.2809761384994412
1.2891876750741806 0.736152989024544 0.23091945547049694 0.32211523057913993
1.1979035588210907 0.7226966249828014 0.1942307953389531 0.28097613849933595
0.9633256309070404 0.6603026663608146 0.11574438371665695 0.1872785808295688
0.6846979242932288 0.5663168261541992 0.0377892869215484 0.08059181121748137
0.45129879519230004 0.4513727266259195 -0.0019296621016244649 0.0018557306680049598
0.28057481704537185 0.29210257100220205 -0.0031352747598208026 -0.008392479197009322
0.18834904008013717 0.18697957147803326 0.0004039253995500165 0.0009655432025539137
0.14369846868491004 0.14365752591648115 2.8464292518688583e-06 3.8096339177006206e-05
0.11244613784027599 0.11245473456149813 -1.6833032933215644e-06 -6.913417928831061e-06
0.09060747347862158 0.09060747347862158 0.0 0.0
0.07393894646202571 0.07393894646202571 0.0 0.0
0.061030972826986926 0.061030972826986926 0.0 0.0
0.051918314181437004 0.051918314181437004 0.0 0.0
0.045540194589535274 0.045540194589535274 0.0 0.0
0.040272969124498945 0.040272969124498945 0.0 0.0
0.035108978754400465 0.035108978754400465 0.0 0.0
0.030422002035402573 0.030422002035402573 0.0 0.0
0.029662516282848293 0.029662516282848293 0.0 0.0
0.03561461118911489 0.03561461118911489 0.0 0.0
0.04000887649985556 0.04000887649985556 0.0 0.0
0.1252003249834892 0.1252003249834892 0.0 0.0
0.08843148708041385 0.08843148708041385 0.0 0.0
0.03997663665332251 0.03997663665332251 0.0 0.0
0.039434386257606625 0.039434386257606625 0.0 0.0
0.03388021113209177 0.03388021113209177 0.0 0.0
0.0315275221092023 0.0315275221092023 0.0 0.0
0.03261001470740658 0.03261001470740658 0.0 0.0
0.03446498259614095 0.03446498259614095 0.0 0.0
0.03638461185536444 0.03638461185536444 0.0 0.0
0.03897975486841063 0.03897975486841063 0.0 0.0
0.043430712581678105 0.043430712581678105 0.0 0.0
0.050224060022382395 0.050224060022382395 0.0 0.0
0.05824655534173904 0.05824655534173904 0.0 0.0
0.06698041649316244 0.06698041649316244 0.0 0.0
0.07816712704444033 0.07816712704444033 0.0 0.0
0.09375623422753834 0.09381747362516665 -1.992553607488291e-05 -4.1313861553414205e-05
0.11645848610672692 0.11558239059572455 0.0002693350547370718 0.0006067604562652892
0.1701850298273079 0.17357400083845348 -0.0008791748484643914 -0.002509796162681199
0.307559767304753 0.32387734788234274 -0.005538078637923636 -0.010779501939666078
0.4974499823358056 0.4554115959533412 0.011311458313652045 0.0307269280688125
0.6716799594905773 0.5324332721444571 0.04688412039261118 0.09236256695350903
0.7505766751013978 0.5558942154994793 0.06985890769898488 0.12482355190293372
0.671679959490508 0.5324332721445025 0.046884120392565565 0.09236256695343988
0.4974499823354373 0.45541159595308006 0.011311458313615425 0.030726928068741707
0.30755976730432766 0.32387734788193023 -0.0055380786379249205 -0.010779501939677647
0.1701850298271408 0.17357400083826804 -0.0008791748484587561 -0.002509796162668554
0.11645848610674686 0.11558239059574668 0.00026933505473637504 0.0006067604562637826
0.09375623422752208 0.09381747362515029 -1.992553607486655e-05 -4.1313861553336745e-05
0.07816712704444896 0.07816712704444896 0.0 0.0
0.06698041649313911 0.06698041649313911 0.0 0.0
0.05824655534172247 0.05824655534172247 0.0 0.0
0.050224060022391395 0.050224060022391395 0.0 0.0
0.04343071258169941 0.04343071258169941 0.0 0.0
0.038979754868413846 0.038979754868413846 0.0 0.0
0.03638461185536673 0.03638461185536673 0.0 0.0
0.034464982596138546 0.034464982596138546 0.0 0.0
0.03261001470739607 0.03261001470739607 0.0 0.0
0.03152752210919788 0.03152752210919788 0.0 0.0
0.03388021113208246 0.03388021113208246 0.0 0.0
0.039434386257596495 0.039434386257596495 0.0 0.0
0.039976636653309555 0.039976636653309555 0.0 0.0
0.08843148708041405 0.08843148708041405 0.0 0.0
0.06103024175802048 0.06103024175802048 0.0 0.0
0.03762753073730252 0.03762753073730252 0.0 0.0
0.04146665729410189 0.04146665729410189 0.0 0.0
0.03769998717954642 0.03769998717954642 0.0 0.0
0.03399104257470673 0.03399104257470673 0.0 0.0
0.03291088355160816 0.03291088355160816 0.0 0.0
0.03298293656610681 0.03298293656610681 0.0 0.0
0.033457603444847696 0.033457603444847696 0.0 0.0
0.03466406836432421 0.03466406836432421 0.0 0.0
0.03752009296251355 0.03752009296251355 0.0 0.0
0.042265743215155874 0.042265743215155874 0.0 0.0
0.04740281694112597 0.04740281694112597 0.0 0.0
0.05180089322569225 0.05180089322569225 0.0 0.0
0.05633311774193972 0.05633311774193972 0.0 0.0
0.06134237670535557 0.06134237670535557 0.0 0.0
0.06682012822957033 0.06679427850330465 -6.274680799822781e-08 2.5912473073683585e-05
0.07480010579301148 0.07414038374203849 0.00023460023465055797 0.0004251218163225093
0.10554539151399744 0.1100149906796459 -0.0011972319257720625 -0.003272367239876418
0.16832870640904235 0.16413763987941601 0.0008563595805116469 0.0033347069491146673
0.2685762021434824 0.26716630805195773 -0.00020777669407363435 0.001617670785598382
0.3372491826547982 0.33369442740562216 -0.00044192480412646215 0.003996680053302514
0.2685762021435747 0.2671663080520285 -0.00020777669406712356 0.0016176707856133845
0.16832870640888803 0.16413763987928082 0.0008563595805066956 0.003334706949100543
0.10554539151388599 0.11001499067952494 -0.001197231925769085 -0.0032723672398699013
0.07480010579299269 0.07414038374201726 0.00023460023465098501 0.00042512181632440855
0.06682012822955784 0.06679427850329314 -6.274680825298144e-08 2.5912473072934245e-05
0.06134237670537615 0.06134237670537615 0.0 0.0
0.05633311774191471 0.05633311774191471 0.0 0.0
0.051800893225685436 0.051800893225685436 0.0 0.0
0.04740281694111103 0.04740281694111103 0.0 0.0
0.042265743215158254 0.042265743215158254 0.0 0.0
0.03752009296253006 0.03752009296253006 0.0 0.0
0.03466406836433376 0.03466406836433376 0.0 0.0
0.033457603444858076 0.033457603444858076 0.0 0.0
0.03298293656610108 0.03298293656610108 0.0 0.0
0.03291088355160704 0.03291088355160704 0.0 0.0
0.0339910425746998 0.0339910425746998 0.0 0.0
0.03769998717954233 0.03769998717954233 0.0 0.0
0.04146665729409308 0.04146665729409308 0.0 0.0
0.0376275307372962 0.0376275307372962 0.0 0.0
0.061030241758026474 0.061030241758026474 0.0 0.0
0.04090358836462422 0.04090358836462422 0.0 0.0
0.033786778284452826 0.033786778284452826 0.0 0.0
0.041668938385377635 0.041668938385377635 0.0 0.0
0.040641247297422425 0.040641247297422425 0.0 0.0
0.03726490377562298 0.03726490377562298 0.0 0.0
0.03567942919301551 0.03567942919301551 0.0 0.0
0.035673968558905644 0.035673968558905644 0.0 0.0
0.03669671642981852 0.03669671642981852 0.0 0.0
0.03896155590272212 0.03896155590272212 0.0 0.0
0.04333721112073044 0.04333721112073044 0.0 0.0
0.05014257250836687 0.05014257250836687 0.0 0.0
0.05820026043774822 0.05820026043774822 0.0 0.0
0.06700398316269693 0.06700398316269693 0.0 0.0
0.07846794299688599 0.07846794299688599 0.0 0.0
0.09506081388955356 0.09512475209523485 -2.0437086838328874e-05 -4.35011188429787e-05
0.11800507217732695 0.11710214703895863 0.0002765800931031662 0.0006263450452651558
0.15987228694619837 0.1633056096259987 -0.000896420829700889 -0.0025369018500994217
0.22443827763618007 0.230032007342648 -0.0019778786629859055 -0.003615851043482006
0.2642868847587142 0.24160668986480033 0.006603240502573988 0.016076954391339788
0.28175214534211535 0.24698125519985784 0.010154625169129178 0.024616264973128296
0.3482508447431063 0.3616685535851439 -0.0038573315647581763 -0.009560377277279274
0.28175214534233184 0.2469812552000361 0.010154625169142246 0.02461626497315352
0.26428688475855966 0.24160668986470016 0.006603240502555176 0.01607695439130427
0.22443827763591923 0.23003200734240675 -0.0019778786629912315 -0.0036158510434963253
0.15987228694611974 0.16330560962590332 -0.0008964208296957009 -0.002536901850087884
0.11800507217729003 0.11710214703892194 0.0002765800931027918 0.0006263450452652879
0.09506081388958659 0.09512475209526831 -2.0437086838388417e-05 -4.350111884332097e-05
0.07846794299687958 0.07846794299687958 0.0 0.0
0.06700398316268004 0.06700398316268004 0.0 0.0
0.058200260437744726 0.058200260437744726 0.0 0.0
0.050142572508372514 0.050142572508372514 0.0 0.0
0.04333721112074511 0.04333721112074511 0.0 0.0
0.03896155590272093 0.03896155590272093 0.0 0.0
0.036696716429823306 0.036696716429823306 0.0 0.0
0.035673968558906685 0.035673968558906685 0.0 0.0
0.03567942919302593 0.03567942919302593 0.0 0.0
0.0372649037756129 0.0372649037756129 0.0 0.0
0.040641247297411705 0.040641247297411705 0.0 0.0
0.04166893838537521 0.04166893838537521 0.0 0.0
0.03378677828444999 0.03378677828444999 0.0 0.0
0.040903588364627354 0.040903588364627354 0.0 0.0
0.026429478445753895 0.026429478445753895 0.0 0.0
0.029111349418017508 0.029111349418017508 0.0 0.0
0.04022197279356385 0.04022197279356385 0.0 0.0
0.042496684458727764 0.042496684458727764 0.0 0.0
0.04099180832407936 0.04099180832407936 0.0 0.0
0.04068202539167134 0.04068202539167134 0.0 0.0
0.04245759669599252 0.04245759669599252 0.0 0.0
0.04609838863886105 0.04609838863886105 0.0 0.0
0.05188023170944412 0.05188023170944412 0.0 0.0
0.06085972219817726 0.06085972219817726 0.0 0.0
0.07379370346659146 0.07379370346659146 0.0 0.0
0.09052776223506015 0.09052776223506015 0.0 0.0
0.11247720040124995 0.11248618921033565 -1.7765968765112462e-06 -7.212212209214602e-06
0.14410225167929613 0.1440541889924675 4.792067857095496e-06 4.327061897152772e-05
0.1907601805001102 0.18941358235551817 0.000397950002163844 0.000948648142428207
0.2837961086855177 0.2956880599513183 -0.0032510505693292367 -0.008640900696471393
0.4424843162552478 0.4433778031913569 -0.0021972833361812677 0.0013037964000721537
0.618410237086746 0.540366697640482 0.023564039869541503 0.0544794995767226
0.7424910013089575 0.5885206178094339 0.055249119791379246 0.0987212637081447
0.7154708863308263 0.5567198685634719 0.059997464082244864 0.09875355368510927
0.7582402738315224 0.6577471101378727 0.031163124108524842 0.06933003958512493
0.7154708863308998 0.5567198685635508 0.05999746408224563 0.0987535536851033
0.742491001308681 0.5885206178092632 0.05524911979133569 0.09872126370808235
0.6184102370862579 0.5403666976402248 0.02356403986945628 0.054479499576576725
0.4424843162549059 0.44337780319106573 -0.0021972833361944585 0.0013037964000345483
0.28379610868546973 0.29568805995125136 -0.003251050569323077 -0.008640900696458611
0.19076018050006321 0.18941358235547182 0.0003979500021636069 0.0009486481424277556
0.14410225167928606 0.14405418899245753 4.792067857080056e-06 4.327061897147218e-05
0.11247720040122906 0.11248618921031474 -1.7765968765023508e-06 -7.21221220918599e-06
0.09052776223504515 0.09052776223504515 0.0 0.0
0.07379370346659386 0.07379370346659386 0.0 0.0
0.06085972219818087 0.06085972219818087 0.0 0.0
0.05188023170946031 0.05188023170946031 0.0 0.0
0.04609838863886419 0.04609838863886419 0.0 0.0
0.04245759669599142 0.04245759669599142 0.0 0.0
0.040682025391671296 0.040682025391671296 0.0 0.0
0.04099180832407687 0.04099180832407687 0.0 0.0
0.04249668445871711 0.04249668445871711 0.0 0.0
0.04022197279355673 0.04022197279355673 0.0 0.0
0.029111349418016633 0.029111349418016633 0.0 0.0
0.026429478445753423 0.026429478445753423 0.0 0.0
0.01632675750886628 0.01632675750886628 0.0 0.0
0.024107362547021085 0.024107362547021085 0.0 0.0
0.03744381206897356 0.03744381206897356 0.0 0.0
0.043280830674566825 0.043280830674566825 0.0 0.0
0.045017113785138396 0.045017113785138396 0.0 0.0
0.047821259168035514 0.047821259168035514 0.0 0.0
0.05334909961601943 0.05334909961601943 0.0 0.0
0.0617287120026504 0.0617287120026504 0.0 0.0
0.07344686056658548 0.07344686056658548 0.0 0.0
0.09000575647787123 0.09000575647787123 0.0 0.0
0.11299025997491441 0.11299025997491441 0.0 0.0
0.14414326679437098 0.1441731220913797 -7.429020175105683e-06 -2.2426276833605723e-05
0.18736301815076611 0.1870431633485706 7.732931803703469e-05 0.0002425254841584699
0.2504041915737182 0.2499784210827864 0.00016745123013589536 0.00025831926079591385
0.3653509762197323 0.38051945567286316 -0.0041552327845619 -0.011013246668568963
0.5252499901212928 0.49395382725665554 0.007179162053671794 0.024117000810965468
0.7819871021259874 0.6243126842296374 0.05403331562219706 0.10364110227415316
1.0808618750098258 0.7243790138900247 0.13937827043057596 0.21710459068922536
1.290197279781237 0.7771054098926362 0.21237100308824497 0.30072086680035603
1.2455277145925703 0.7896426464955112 0.18846018323430755 0.2674248848627512
1.300135574695394 1.0029909121098834 0.11353291267493111 0.18361174991058007
1.2455277145927968 0.7896426464957481 0.18846018323430977 0.2674248848627392
1.290197279780836 0.7771054098923551 0.2123710030881888 0.300720866800292
1.0808618750092887 0.7243790138898545 0.13937827043040996 0.21710459068902394
0.7819871021256022 0.6243126842294917 0.05403331562209988 0.1036411022740105
0.5252499901211294 0.49395382725650927 0.0071791620536671 0.024117000810952846
0.3653509762196705 0.38051945567280204 -0.00415523278456216 -0.011013246668569402
0.2504041915736523 0.2499784210827155 0.00016745123013740647 0.0002583192607992709
0.1873630181507424 0.18704316334854768 7.732931803678707e-05 0.0002425254841579183
0.14414326679435918 0.1441731220913679 -7.429020175097446e-06 -2.242627683358598e-05
0.11299025997492214 0.11299025997492214 0.0 0.0
0.09000575647788087 0.09000575647788087 0.0 0.0
0.07344686056659573 0.07344686056659573 0.0 0.0
0.061728712002642024 0.061728712002642024 0.0 0.0
0.05334909961602304 0.05334909961602304 0.0 0.0
0.04782125916802754 0.04782125916802754 0.0 0.0
0.04501711378513161 0.04501711378513161 0.0 0.0
0.04328083067456382 0.04328083067456382 0.0 0.0
0.037443812068972876 0.037443812068972876 0.0 0.0
0.02410736254701524 0.02410736254701524 0.0 0.0
0.016326757508870127 0.016326757508870127 0.0 0.0
0.009557506618548015 0.009557506618548015 0.0 0.0
0.019164239544144767 0.019164239544144767 0.0 0.0
0.033727768712408214 0.033727768712408214 0.0 0.0
0.04318223908735605 0.04318223908735605 0.0 0.0
0.049388633620439916 0.049388633620439916 0.0 0.0
0.057162953480318614 0.057162953480318614 0.0 0.0
0.06848183713830598 0.06848183713830598 0.0 0.0
0.08373524055973713 0.08373524055973713 0.0 0.0
0.10371664058932396 0.10371664058932396 0.0 0.0
0.13059937877624125 0.13059937877624125 0.0 0.0
0.1674192605707885 0.1674588793162703 -1.0336846442814894e-05 -2.92818990389892e-05
0.2177342591987737 0.217057494724455 0.00018281688969437767 0.0004939475846243056
0.29157251708017484 0.2929563896742891 -0.0003851814276018916 -0.000998691166512323
0.40733317575844774 0.4152771652742615 -0.0025167009921390404 -0.005427288523674717
0.5532963076890494 0.5107559794326573 0.011212853402968244 0.031327474853423846
0.799803817820392 0.6387276948616877 0.05600695335201182 0.10506916960669241
1.1565242537130391 0.757452796565881 0.1589441667211927 0.24012729042596537
1.575231666742749 0.8528619999321225 0.3117915988214537 0.4105780679891726
1.8517358486723967 0.8888548723240199 0.43177071442288745 0.5311102619254895
1.7422249266421845 0.901128462391756 0.37315520494451143 0.4679412593059179
1.8909743213903283 1.3659782287298337 0.21740728991276637 0.30758880274772804
1.7422249266423615 0.9011284623919454 0.3731552049445105 0.4679412593059055
1.8517358486720832 0.8888548723239449 0.43177071442276715 0.5311102619253713
1.5752316667422586 0.8528619999319114 0.3117915988213168 0.4105780679890307
1.1565242537126792 0.7574527965657453 0.1589441667210895 0.2401272904258443
0.7998038178201795 0.6387276948615602 0.056006953351976585 0.10506916960664289
0.5532963076889554 0.5107559794325799 0.01121285340296313 0.03132747485341265
0.4073331757583726 0.4152771652741828 -0.002516700992138016 -0.005427288523672129
0.2915725170800957 0.29295638967420523 -0.0003851814276002942 -0.0009986911665092312
0.2177342591987653 0.2170574947244473 0.0001828168896941236 0.0004939475846237872
0.16741926057078968 0.16745887931627146 -1.0336846442811474e-05 -2.9281899038984155e-05
0.13059937877625802 0.13059937877625802 0.0 0.0
0.10371664058933398 0.10371664058933398 0.0 0.0
0.08373524055972895 0.08373524055972895 0.0 0.0
0.06848183713829674 0.06848183713829674 0.0 0.0
0.057162953480310814 0.057162953480310814 0.0 0.0
0.049388633620436814 0.049388633620436814 0.0 0.0
0.04318223908735394 0.04318223908735394 0.0 0.0
0.03372776871241008 0.03372776871241008 0.0 0.0
0.019164239544140406 0.019164239544140406 0.0 0.0
0.009557506618548586 0.009557506618548586 0.0 0.0
0.005262759363593455 0.005262759363593455 0.0 0.0
0.014585319876261379 0.014585319876261379 0.0 0.0
0.029497568506030337 0.029497568506030337 0.0 0.0
0.042527587922562504 0.042527587922562504 0.0 0.0
0.054355224149540346 0.054355224149540346 0.0 0.0
0.06895406767239293 0.06895406767239293 0.0 0.0
0.08812770648602126 0.08812770648602126 0.0 0.0
0.11235862695159742 0.11235862695159742 0.0 0.0
0.14278429422979882 0.14278429422979882 0.0 0.0
0.18240636565012558 0.182447001717087 -1.0645876963348626e-05 -2.999018999807608e-05
0.23572696438888505 0.23517119773552977 0.00016794846083798164 0.00038781819251730077
0.31384918078466306 0.31644925653254324 -0.0007725400331038964 -0.0018275357147761262
0.4295208825311231 0.434203843630548 -0.001535221575375933 -0.0031477395240490226
0.5622929363890196 0.5163047026842855 0.012714219672479442 0.03327401403225437
0.7742871843279692 0.6286186742985885 0.05006436696979841 0.09560414305958195
1.0897760166051758 0.7436804588336016 0.13537387274854934 0.21072168502302507
1.545827263670265 0.8622435850623545 0.2932383209974932 0.39034535761041733
2.080976815865277 0.9521113494087181 0.5158643103436609 0.6130011561128984
2.4208496227106564 0.9646942591186827 0.6864531854479513 0.7697021781440225
2.226439298058595 0.9557687473138692 0.5913965666973636 0.6792739840473629
2.541550367644602 1.7704532260065644 0.3357248703120716 0.4353722713259653
2.2264392980588026 0.9557687473141805 0.5913965666973157 0.6792739840473068
2.420849622710436 0.9646942591187742 0.6864531854477879 0.7697021781438746
2.0809768158647595 0.9521113494084011 0.5158643103435555 0.6130011561128023
1.5458272636699917 0.8622435850622514 0.2932383209974093 0.39034535761033107
1.0897760166050297 0.7436804588335441 0.13537387274850946 0.21072168502297647
0.7742871843278646 0.6286186742985219 0.05006436696978336 0.09560414305955933
0.5622929363888833 0.5163047026841808 0.012714219672468685 0.03327401403223368
0.4295208825310372 0.43420384363048076 -0.0015352215753813882 -0.0031477395240621176
0.3138491807846308 0.31644925653250694 -0.0007725400331025439 -0.0018275357147735114
0.2357269643889076 0.235171197735552 0.0001679484608380865 0.00038781819251758863
0.18240636565014576 0.18244700171710734 -1.0645876963396992e-05 -2.99901899981869e-05
0.14278429422979871 0.14278429422979871 0.0 0.0
0.11235862695159538 0.11235862695159538 0.0 0.0
0.08812770648600887 0.08812770648600887 0.0 0.0
0.06895406767238106 0.06895406767238106 0.0 0.0
0.05435522414953968 0.05435522414953968 0.0 0.0
0.042527587922550826 0.042527587922550826 0.0 0.0
0.029497568506025876 0.029497568506025876 0.0 0.0
0.014585319876260008 0.014585319876260008 0.0 0.0
0.005262759363592274 0.005262759363592274 0.0 0.0
0.002726358133633047 0.002726358133633047 0.0 0.0
0.010604507990247316 0.010604507990247316 0.0 0.0
0.025175171684789298 0.025175171684789298 0.0 0.0
0.041765807070393936 0.041765807070393936 0.0 0.0
0.06037315719390508 0.06037315719390508 0.0 0.0
0.0836324223254873 0.0836324223254873 0.0 0.0
0.1127104472227015 0.1127104472227015 0.0 0.0
0.1479631035764369 0.1479631035764369 0.0 0.0
0.190776850258292 0.19081058348585528 -8.570441132638472e-06 -2.5162786430594627e-05
0.24479657478369252 0.24446030196038057 0.00010545567025904622 0.00023081715305289815
0.32026427429435483 0.32295634251985156 -0.000806866670529303 -0.0018852015549675346
0.43110998395615285 0.4344822935865203 -0.0011244347322340192 -0.002247874898133547
0.555954566193715 0.5108465330679702 0.012565247756637855 0.032542785369106854
0.7412376955221078 0.613701633754514 0.04309192675846811 0.08444413500912568
1.0061863282708585 0.7166814153901344 0.11056569839589481 0.17893921448482955
1.3923847092691406 0.8286330369819853 0.23594627927463052 0.327805393012525
1.9381269282736218 0.9485571870668263 0.44515939886696937 0.5444103423398257
2.5855517817893032 1.0371417385825659 0.735217956690291 0.8131920865164465
2.9978057128174838 1.0231725970425156 0.9643985229306369 1.0102345928443313
2.709710866264121 0.9656103876325497 0.8414948451001546 0.9026056335314163
3.2905616086700866 2.246409142324953 0.47207923513697664 0.5720732312081582
2.7097108662640594 0.9656103876326946 0.8414948451000488 0.9026056335313168
2.997805712817006 1.0231725970424486 0.9643985229304127 1.0102345928441445
2.5855517817890488 1.0371417385824668 0.7352179566902071 0.8131920865163759
1.938126928273563 0.9485571870669179 0.4451593988668927 0.5444103423397528
1.3923847092690413 0.8286330369819472 0.23594627927460135 0.3278053930124933
1.0061863282707866 0.716681415390109 0.1105656983958741 0.17893921448480352
0.74123769552203 0.6137016337545422 0.04309192675842613 0.08444413500906149
0.5559545661936367 0.510846533067959 0.012565247756615841 0.03254278536906176
0.431109983956152 0.4344822935865127 -0.0011244347322316407 -0.00224787489812897
0.3202642742943763 0.3229563425198765 -0.000806866670530463 -0.0018852015549696106
0.2447965747837138 0.24446030196040075 0.00010545567025937895 0.0002308171530536639
0.1907768502582889 0.19081058348585203 -8.570441132610098e-06 -2.516278643052889e-05
0.1479631035764257 0.1479631035764257 0.0 0.0
0.11271044722270278 0.11271044722270278 0.0 0.0
0.0836324223254758 0.0836324223254758 0.0 0.0
0.06037315719390574 0.06037315719390574 0.0 0.0
0.04176580707038902 0.04176580707038902 0.0 0.0
0.02517517168478894 0.02517517168478894 0.0 0.0
0.010604507990245676 0.010604507990245676 0.0 0.0
0.002726358133632074 0.002726358133632074 0.0 0.0
0.0013579691715188296 0.0013579691715188296 0.0 0.0
0.007382540915311902 0.007382540915311902 0.0 0.0
0.021164348656880074 0.021164348656880074 0.0 0.0
0.04148494403976321 0.04148494403976321 0.0 0.0
0.06812250825147821 0.06812250825147821 0.0 0.0
0.10183632781385368 0.10183632781385368 0.0 0.0
0.14279059936767025 0.14279059936767025 0.0 0.0
0.19110933653513995 0.19113181181603373 -5.317766142528414e-06 -1.7157514751256768e-05
0.2476536074665066 0.24743921355908444 6.869184047539934e-05 0.00014570206694677605
0.320066078896752 0.32286104593022297 -0.0008073264823630047 -0.0019876405511080235
0.4158517330864856 0.4180113702905461 -0.0008380192591968408 -0.0013216179448634876
0.5380683377455384 0.5003197188940891 0.010308021582681452 0.02744059726876761
0.7043068053964684 0.5948537460948086 0.036201595312175594 0.07325146398948441
0.926852325907304 0.6889734777466191 0.08843056991321725 0.14944827824746754
1.2494259214275816 0.7905089811521037 0.18698166458444837 0.2719352756910296
1.706249503209954 0.9003631097464834 0.35341269150777554 0.4524737019556955
2.3268144095700682 1.0193773189918733 0.6086059697845925 0.698831120793602
3.0741341062762757 1.1147437151547046 0.9562800579327847 1.0031103331887865
3.5815950983658227 1.0798172094606215 1.254832945869689 1.2469449430355122
3.1995316894943064 0.9297969441982361 1.1275490089619897 1.1421857363340806
4.18119172253133 2.8139573960238127 0.6385642877985412 0.7286700387089773
3.199531689494086 0.9297969441983496 1.127549008961808 1.142185736333929
3.581595098365282 1.0798172094607312 1.254832945869326 1.2469449430352246
3.0741341062760323 1.114743715154536 0.956280057932742 1.0031103331887536
2.326814409570157 1.0193773189920434 0.6086059697845502 0.6988311207935642
1.706249503209918 0.9003631097464808 0.3534126915077584 0.45247370195567926
1.2494259214275376 0.790508981152123 0.18698166458441853 0.27193527569099607
0.9268523259072333 0.6889734777466286 0.08843056991318336 0.14944827824742105
0.7043068053963654 0.5948537460947945 0.03620159531214158 0.07325146398942944
0.5380683377454879 0.5003197188940119 0.010308021582689073 0.02744059726878701
0.41585173308656126 0.4180113702906166 -0.0008380192591954527 -0.0013216179448598642
0.32006607889675687 0.32286104593022436 -0.0008073264823618662 -0.001987640551105554
0.24765360746650888 0.24743921355908777 6.869184047507893e-05 0.00014570206694605216
0.19110933653513026 0.1911318118160241 -5.317766142537923e-06 -1.715751475128095e-05
0.14279059936765684 0.14279059936765684 0.0 0.0
0.10183632781384008 0.10183632781384008 0.0 0.0
0.068122508251476 0.068122508251476 0.0 0.0
0.04148494403976272 0.04148494403976272 0.0 0.0
0.021164348656878617 0.021164348656878617 0.0 0.0
0.007382540915311011 0.007382540915311011 0.0 0.0
0.0013579691715180776 0.0013579691715180776 0.0 0.0
0.0006822086625903343 0.0006822086625903343 0.0 0.0
0.004979501705630142 0.004979501705630142 0.0 0.0
0.017872676750977107 0.017872676750977107 0.0 0.0
0.04247876164784761 0.04247876164784761 0.0 0.0
0.07853345975326523 0.07853345975326523 0.0 0.0
0.12440258136716893 0.12440258136716893 0.0 0.0
0.1790595516273978 0.1790595516273978 0.0 0.0
0.24235203215316725 0.24228313166157742 2.940502342252799e-05 3.9495468167225e-05
0.3171481936127394 0.3195974105386336 -0.0007016959331301421 -0.0017475209927641825
0.3990489379346087 0.4005232548883279 -0.000669655115849712 -0.0008046618378696248
0.5108924136435617 0.48878128649933045 0.005867419190248417 0.016243707953982965
0.6631187817886468 0.57393896206608 0.02864524996886227 0.06053456975370476
0.8553671911636932 0.6605753557778805 0.07039888338138553 0.12439295200442696
1.1197468242722615 0.7524990648720697 0.1452358764779795 0.22201188292221224
1.5020776590769933 0.8550405718290905 0.27597933615446735 0.37105775109343514
2.0325702295446133 0.9648992824633478 0.48503188777637757 0.5826390593048882
2.712517747733205 1.0746846605314855 0.7830573919655869 0.8547756952361325
3.5242698006814157 1.1803683847446265 1.167403423729354 1.1764979922074357
4.165318028220354 1.1579519406273031 1.5392387729406303 1.4681273146524207
3.6962987439021564 0.8445979292562243 1.4520482540328536 1.3996525606130787
5.245393712282971 3.4610484328296276 0.8599152364119677 0.9244300430413761
3.6962987439016843 0.8445979292561823 1.452048254032612 1.3996525606128891
4.165318028219804 1.1579519406275791 1.53923877294016 1.4681273146520633
3.524269800681173 1.180368384744415 1.1674034237293347 1.1764979922074226
2.7125177477333415 1.0746846605316411 0.7830573919655772 0.8547756952361227
2.032570229544562 0.9648992824633507 0.48503188777635026 0.5826390593048607
1.5020776590769809 0.8550405718291454 0.27597933615443493 0.37105775109340045
1.119746824272106 0.7524990648719194 0.1452358764779773 0.22201188292220952
0.8553671911635642 0.660575355777862 0.07039888338133944 0.12439295200436246
0.6631187817886103 0.5739389620660145 0.028645249968872525 0.06053456975372344
0.5108924136436458 0.4887812864993698 0.005867419190262454 0.01624370795401369
0.39904893793461926 0.4005232548883443 -0.000669655115851247 -0.0008046618378738232
0.3171481936127375 0.31959741053863283 -0.0007016959331304208 -0.0017475209927649573
0.24235203215313933 0.2422831316615487 2.9405023422786348e-05 3.949546816789112e-05
0.17905955162737708 0.17905955162737708 0.0 0.0
0.12440258136715253 0.12440258136715253 0.0 0.0
0.07853345975325135 0.07853345975325135 0.0 0.0
0.04247876164784624 0.04247876164784624 0.0 0.0
0.017872676750976355 0.017872676750976355 0.0 0.0
0.00497950170562697 0.00497950170562697 0.0 0.0
0.0006822086625906051 0.0006822086625906051 0.0 0.0
0.0003220083707232745 0.0003220083707232745 0.0 0.0
0.0033098920444844552 0.0033098920444844552 0.0 0.0
0.015844927740132894 0.015844927740132894 0.0 0.0
0.045876346301978996 0.045876346301978996 0.0 0.0
0.09280778788285826 0.09280778788285826 0.0 0.0
0.15235668259185903 0.15235668259185903 0.0 0.0
0.2222282020764394 0.2221405364022953 2.9733979562147066e-05 5.793169458193964e-05
0.30458742566833996 0.30631150816814867 -0.0004968850691858123 -0.0012271974306228746
0.392266533921137 0.3934233314759761 -0.0005664075571943841 -0.0005903899976447107
0.4789260884378136 0.4664514387705285 0.002962861204009971 0.009511788463275096
0.6126087571830154 0.550198272963109 0.019051140390426245 0.04335934382948024
0.7902440897832059 0.6320117591480814 0.0555082489551561 0.1027240816799684
1.011013913023178 0.716907192605918 0.11281903853884713 0.1812876818784128
1.3196021183059885 0.808469360699318 0.2114359892490679 0.2996967683576026
1.7630902547010394 0.9128857180642854 0.3755653927865147 0.4746391438502392
2.368005024797747 1.0240372721676503 0.627857822306335 0.7161099303237611
3.1116588881990443 1.126246737137469 0.9705829187677651 1.0148292322938102
3.9102275007301905 1.2026145931564651 1.3702238949910521 1.3373890125826744
4.7134455183224055 1.2946520309951794 1.7742109151633467 1.6445825721638787
4.18324686508114 0.7123902929749253 1.8043564411988455 1.6665001309073688
6.440006907057549 4.043363439638102 1.1949257619861726 1.201717705433274
4.183246865080448 0.7123902929748662 1.804356441198482 1.6665001309071001
4.713445518321839 1.2946520309954919 1.7742109151628411 1.6445825721635057
3.910227500729827 1.2026145931562526 1.3702238949909649 1.337389012582608
3.1116588881991047 1.126246737137562 0.9705829187677474 1.014829232293794
2.3680050247976894 1.0240372721676498 0.6278578223063056 0.7161099303237339
1.7630902547009921 0.9128857180643184 0.3755653927864748 0.47463914385019906
1.3196021183058302 0.8084693606992118 0.21143598924904336 0.29969676835757536
1.0110139130230666 0.7169071926059462 0.11281903853878619 0.18128768187833416
0.7902440897831208 0.6320117591480146 0.055508248955148165 0.10272408167995815
0.6126087571830989 0.5501982729630653 0.019051140390471153 0.0433593438295625
0.47892608843788326 0.46645143877058615 0.002962861204013201 0.009511788463283774
0.3922665339210963 0.39342333147593334 -0.0005664075571938807 -0.0005903899976430281
0.30458742566831265 0.30631150816812125 -0.0004968850691857804 -0.001227197430622857
0.22222820207640856 0.22214053640226444 2.9733979562165955e-05 5.793169458197714e-05
0.15235668259184335 0.15235668259184335 0.0 0.0
0.09280778788284777 0.09280778788284777 0.0 0.0
0.04587634630197223 0.04587634630197223 0.0 0.0
0.015844927740131777 0.015844927740131777 0.0 0.0
0.003309892044483602 0.003309892044483602 0.0 0.0
0.00032200837072295346 0.00032200837072295346 0.0 0.0
5.9631804500884786e-05 5.9631804500884786e-05 0.0 0.0
0.0022310946360579566 0.0022310946360579566 0.0 0.0
0.015933274777549224 0.015933274777549224 0.0 0.0
0.05308231780093914 0.05308231780093914 0.0 0.0
0.11233608832264916 0.11233608832264916 0.0 0.0
0.1867741157781685 0.1867741157781685 0.0 0.0
0.27431636922059666 0.2750948200116214 -0.00020390630117456617 -0.0005745444898502358
0.37600458327703584 0.37929603429067593 -0.0010155464053572443 -0.0022759046082828256
0.4715965723838781 0.4634056620384284 0.0019154602401309608 0.006275450105318689
0.5750315542826528 0.5410140580786068 0.00934130635095265 0.024676189853093437
0.728165913532566 0.6246201031518033 0.034173221938691 0.06937258844207154
0.9327902881669288 0.712683917748969 0.08104138686833613 0.1390649835496238
1.1931949387173357 0.8126357515084083 0.15131089420050234 0.22924829300842464
1.559332706694478 0.9270283442888911 0.268994755694217 0.3633096067113707
2.07943956720692 1.0625347484208496 0.4593551025008749 0.5575497162851955
2.772783376824962 1.2080672623080364 0.744270795217456 0.8204453192994701
3.5955302229132147 1.336322780094705 1.1206636606412337 1.1385437821772768
4.385066703663533 1.3911525825182756 1.5317040154941564 1.4622101056511
5.018125672514473 1.3997602940871514 1.888983615885366 1.729381762541955
4.571583937677389 0.6347836212296223 2.0730728849616744 1.8637274314860932
9.762170274800352 6.564627600560978 1.6461122839696065 1.5514303902697661
4.571583937676962 0.6347836212298541 2.073072884961291 1.8637274314858172
5.018125672513882 1.3997602940874916 1.8889836158848317 1.7293817625415595
4.385066703662842 1.3911525825180067 1.5317040154939172 1.462210105650918
3.595530222913071 1.3363227800946882 1.1206636606411642 1.1385437821772193
2.77278337682482 1.208067262307949 0.7442707952174259 0.8204453192994451
2.079439567206886 1.0625347484209233 0.45935510250082057 0.5575497162851424
1.5593327066943463 0.9270283442888774 0.2689947556941601 0.36330960671130885
1.193194938717241 0.8126357515084776 0.15131089420042862 0.22924829300833474
0.9327902881668664 0.7126839177490021 0.08104138686829579 0.13906498354956823
0.728165913532525 0.6246201031515708 0.034173221938762696 0.06937258844219152
0.57503155428277 0.5410140580786695 0.009341306350970871 0.02467618985312952
0.4715965723837777 0.4634056620383218 0.001915460240132848 0.006275450105323082
0.3760045832769926 0.37929603429063263 -0.0010155464053573193 -0.0022759046082827354
0.27431636922056063 0.27509482001158536 -0.00020390630117454985 -0.0005745444898501938
0.18677411577814834 0.18677411577814834 0.0 0.0
0.11233608832263364 0.11233608832263364 0.0 0.0
0.053082317800934815 0.053082317800934815 0.0 0.0
0.01593327477755035 0.01593327477755035 0.0 0.0
0.002231094636057736 0.002231094636057736 0.0 0.0
5.963180450044567e-05 5.963180450044567e-05 0.0 0.0