# vtk DataFile Version 3.0
Some data
ASCII
DATASET UNSTRUCTURED_GRID
POINTS 861 float
0.0 0.0 0.0
0.4 0.0 0.0
0.8 0.0 0.0
1.2000000000000002 0.0 0.0
1.6 0.0 0.0
2.0 0.0 0.0
2.4000000000000004 0.0 0.0
2.8000000000000003 0.0 0.0
3.2 0.0 0.0
3.6 0.0 0.0
4.0 0.0 0.0
4.4 0.0 0.0
4.800000000000001 0.0 0.0
5.2 0.0 0.0
5.6000000000000005 0.0 0.0
6.0 0.0 0.0
6.4 0.0 0.0
6.800000000000001 0.0 0.0
7.2 0.0 0.0
7.6000000000000005 0.0 0.0
8.0 0.0 0.0
8.4 0.0 0.0
8.8 0.0 0.0
9.200000000000001 0.0 0.0
9.600000000000001 0.0 0.0
10.0 0.0 0.0
10.4 0.0 0.0
10.8 0.0 0.0
11.200000000000001 0.0 0.0
11.600000000000001 0.0 0.0
12.0 0.0 0.0
12.4 0.0 0.0
12.8 0.0 0.0
13.200000000000001 0.0 0.0
13.600000000000001 0.0 0.0
14.0 0.0 0.0
14.4 0.0 0.0
14.8 0.0 0.0
15.200000000000001 0.0 0.0
15.600000000000001 0.0 0.0
16.0 0.0 0.0
0.0 0.1 0.0
0.4 0.1 0.0
0.8 0.1 0.0
1.2000000000000002 0.1 0.0
1.6 0.1 0.0
2.0 0.1 0.0
2.4000000000000004 0.1 0.0
2.8000000000000003 0.1 0.0
3.2 0.1 0.0
3.6 0.1 0.0
4.0 0.1 0.0
4.4 0.1 0.0
4.800000000000001 0.1 0.0
5.2 0.1 0.0
5.6000000000000005 0.1 0.0
6.0 0.1 0.0
6.4 0.1 0.0
6.800000000000001 0.1 0.0
7.2 0.1 0.0
7.6000000000000005 0.1 0.0
8.0 0.1 0.0
8.4 0.1 0.0
8.8 0.1 0.0
9.200000000000001 0.1 0.0
9.600000000000001 0.1 0.0
10.0 0.1 0.0
10.4 0.1 0.0
10.8 0.1 0.0
11.200000000000001 0.1 0.0
11.600000000000001 0.1 0.0
12.0 0.1 0.0
12.4 0.1 0.0
12.8 0.1 0.0
13.200000000000001 0.1 0.0
13.600000000000001 0.1 0.0
14.0 0.1 0.0
14.4 0.1 0.0
14.8 0.1 0.0
15.200000000000001 0.1 0.0
15.600000000000001 0.1 0.0
16.0 0.1 0.0
0.0 0.2 0.0
0.4 0.2 0.0
0.8 0.2 0.0
1.2000000000000002 0.2 0.0
1.6 0.2 0.0
2.0 0.2 0.0
2.4000000000000004 0.2 0.0
2.8000000000000003 0.2 0.0
3.2 0.2 0.0
3.6 0.2 0.0
4.0 0.2 0.0
4.4 0.2 0.0
4.800000000000001 0.2 0.0
5.2 0.2 0.0
5.6000000000000005 0.2 0.0
6.0 0.2 0.0
6.4 0.2 0.0
6.800000000000001 0.2 0.0
7.2 0.2 0.0
7.6000000000000005 0.2 0.0
8.0 0.2 0.0
8.4 0.2 0.0
8.8 0.2 0.0
9.200000000000001 0.2 0.0
9.600000000000001 0.2 0.0
10.0 0.2 0.0
10.4 0.2 0.0
10.8 0.2 0.0
11.200000000000001 0.2 0.0
11.600000000000001 0.2 0.0
12.0 0.2 0.0
12.4 0.2 0.0
12.8 0.2 0.0
13.200000000000001 0.2 0.0
13.600000000000001 0.2 0.0
14.0 0.2 0.0
14.4 0.2 0.0
14.8 0.2 0.0
15.200000000000001 0.2 0.0
15.600000000000001 0.2 0.0
16.0 0.2 0.0
0.0 0.30000000000000004 0.0
0.4 0.30000000000000004 0.0
0.8 0.30000000000000004 0.0
1.2000000000000002 0.30000000000000004 0.0
1.6 0.30000000000000004 0.0
2.0 0.30000000000000004 0.0
2.4000000000000004 0.30000000000000004 0.0
2.8000000000000003 0.30000000000000004 0.0
3.2 0.30000000000000004 0.0
3.6 0.30000000000000004 0.0
4.0 0.30000000000000004 0.0
4.4 0.30000000000000004 0.0
4.800000000000001 0.30000000000000004 0.0
5.2 0.30000000000000004 0.0
5.6000000000000005 0.30000000000000004 0.0
6.0 0.30000000000000004 0.0
6.4 0.30000000000000004 0.0
6.800000000000001 0.30000000000000004 0.0
7.2 0.30000000000000004 0.0
7.6000000000000005 0.30000000000000004 0.0
8.0 0.30000000000000004 0.0
8.4 0.30000000000000004 0.0
8.8 0.30000000000000004 0.0
9.200000000000001 0.30000000000000004 0.0
9.600000000000001 0.30000000000000004 0.0
10.0 0.30000000000000004 0.0
10.4 0.30000000000000004 0.0
10.8 0.30000000000000004 0.0
11.200000000000001 0.30000000000000004 0.0
11.600000000000001 0.30000000000000004 0.0
12.0 0.30000000000000004 0.0
12.4 0.30000000000000004 0.0
12.8 0.30000000000000004 0.0
13.200000000000001 0.30000000000000004 0.0
13.600000000000001 0.30000000000000004 0.0
14.0 0.30000000000000004 0.0
14.4 0.30000000000000004 0.0
14.8 0.30000000000000004 0.0
15.200000000000001 0.30000000000000004 0.0
15.600000000000001 0.30000000000000004 0.0
16.0 0.30000000000000004 0.0
0.0 0.4 0.0
0.4 0.4 0.0
0.8 0.4 0.0
1.2000000000000002 0.4 0.0
1.6 0.4 0.0
2.0 0.4 0.0
2.4000000000000004 0.4 0.0
2.8000000000000003 0.4 0.0
3.2 0.4 0.0
3.6 0.4 0.0
4.0 0.4 0.0
4.4 0.4 0.0
4.800000000000001 0.4 0.0
5.2 0.4 0.0
5.6000000000000005 0.4 0.0
6.0 0.4 0.0
6.4 0.4 0.0
6.800000000000001 0.4 0.0
7.2 0.4 0.0
7.6000000000000005 0.4 0.0
8.0 0.4 0.0
8.4 0.4 0.0
8.8 0.4 0.0
9.200000000000001 0.4 0.0
9.600000000000001 0.4 0.0
10.0 0.4 0.0
10.4 0.4 0.0
10.8 0.4 0.0
11.200000000000001 0.4 0.0
11.600000000000001 0.4 0.0
12.0 0.4 0.0
12.4 0.4 0.0
12.8 0.4 0.0
13.200000000000001 0.4 0.0
13.600000000000001 0.4 0.0
14.0 0.4 0.0
14.4 0.4 0.0
14.8 0.4 0.0
15.200000000000001 0.4 0.0
15.600000000000001 0.4 0.0
16.0 0.4 0.0
0.0 0.5 0.0
0.4 0.5 0.0
0.8 0.5 0.0
1.2000000000000002 0.5 0.0
1.6 0.5 0.0
2.0 0.5 0.0
2.4000000000000004 0.5 0.0
2.8000000000000003 0.5 0.0
3.2 0.5 0.0
3.6 0.5 0.0
4.0 0.5 0.0
4.4 0.5 0.0
4.800000000000001 0.5 0.0
5.2 0.5 0.0
5.6000000000000005 0.5 0.0
6.0 0.5 0.0
6.4 0.5 0.0
6.800000000000001 0.5 0.0
7.2 0.5 0.0
7.6000000000000005 0.5 0.0
8.0 0.5 0.0
8.4 0.5 0.0
8.8 0.5 0.0
9.200000000000001 0.5 0.0
9.600000000000001 0.5 0.0
10.0 0.5 0.0
10.4 0.5 0.0
10.8 0.5 0.0
11.200000000000001 0.5 0.0
11.600000000000001 0.5 0.0
12.0 0.5 0.0
12.4 0.5 0.0
12.8 0.5 0.0
13.200000000000001 0.5 0.0
13.600000000000001 0.5 0.0
14.0 0.5 0.0
14.4 0.5 0.0
14.8 0.5 0.0
15.200000000000001 0.5 0.0
15.600000000000001 0.5 0.0
16.0 0.5 0.0
0.0 0.6000000000000001 0.0
0.4 0.6000000000000001 0.0
0.8 0.6000000000000001 0.0
1.2000000000000002 0.6000000000000001 0.0
1.6 0.6000000000000001 0.0
2.0 0.6000000000000001 0.0
2.4000000000000004 0.6000000000000001 0.0
2.8000000000000003 0.6000000000000001 0.0
3.2 0.6000000000000001 0.0
3.6 0.6000000000000001 0.0
4.0 0.6000000000000001 0.0
4.4 0.6000000000000001 0.0
4.800000000000001 0.6000000000000001 0.0
5.2 0.6000000000000001 0.0
5.6000000000000005 0.6000000000000001 0.0
6.0 0.6000000000000001 0.0
6.4 0.6000000000000001 0.0
6.800000000000001 0.6000000000000001 0.0
7.2 0.6000000000000001 0.0
7.6000000000000005 0.6000000000000001 0.0
8.0 0.6000000000000001 0.0
8.4 0.6000000000000001 0.0
8.8 0.6000000000000001 0.0
9.200000000000001 0.6000000000000001 0.0
9.600000000000001 0.6000000000000001 0.0
10.0 0.6000000000000001 0.0
10.4 0.6000000000000001 0.0
10.8 0.6000000000000001 0.0
11.200000000000001 0.6000000000000001 0.0
11.600000000000001 0.6000000000000001 0.0
12.0 0.6000000000000001 0.0
12.4 0.6000000000000001 0.0
12.8 0.6000000000000001 0.0
13.200000000000001 0.6000000000000001 0.0
13.600000000000001 0.6000000000000001 0.0
14.0 0.6000000000000001 0.0
14.4 0.6000000000000001 0.0
14.8 0.6000000000000001 0.0
15.200000000000001 0.6000000000000001 0.0
15.600000000000001 0.6000000000000001 0.0
16.0 0.6000000000000001 0.0
0.0 0.7000000000000001 0.0
0.4 0.7000000000000001 0.0
0.8 0.7000000000000001 0.0
1.2000000000000002 0.7000000000000001 0.0
1.6 0.7000000000000001 0.0
2.0 0.7000000000000001 0.0
2.4000000000000004 0.7000000000000001 0.0
2.8000000000000003 0.7000000000000001 0.0
3.2 0.7000000000000001 0.0
3.6 0.7000000000000001 0.0
4.0 0.7000000000000001 0.0
4.4 0.7000000000000001 0.0
4.800000000000001 0.7000000000000001 0.0
5.2 0.7000000000000001 0.0
5.6000000000000005 0.7000000000000001 0.0
6.0 0.7000000000000001 0.0
6.4 0.7000000000000001 0.0
6.800000000000001 0.7000000000000001 0.0
7.2 0.7000000000000001 0.0
7.6000000000000005 0.7000000000000001 0.0
8.0 0.7000000000000001 0.0
8.4 0.7000000000000001 0.0
8.8 0.7000000000000001 0.0
9.200000000000001 0.7000000000000001 0.0
9.600000000000001 0.7000000000000001 0.0
10.0 0.7000000000000001 0.0
10.4 0.7000000000000001 0.0
10.8 0.7000000000000001 0.0
11.200000000000001 0.7000000000000001 0.0
11.600000000000001 0.7000000000000001 0.0
12.0 0.7000000000000001 0.0
12.4 0.7000000000000001 0.0
12.8 0.7000000000000001 0.0
13.200000000000001 0.7000000000000001 0.0
13.600000000000001 0.7000000000000001 0.0
14.0 0.7000000000000001 0.0
14.4 0.7000000000000001 0.0
14.8 0.7000000000000001 0.0
15.200000000000001 0.7000000000000001 0.0
15.600000000000001 0.7000000000000001 0.0
16.0 0.7000000000000001 0.0
0.0 0.8 0.0
0.4 0.8 0.0
0.8 0.8 0.0
1.2000000000000002 0.8 0.0
1.6 0.8 0.0
2.0 0.8 0.0
2.4000000000000004 0.8 0.0
2.8000000000000003 0.8 0.0
3.2 0.8 0.0
3.6 0.8 0.0
4.0 0.8 0.0
4.4 0.8 0.0
4.800000000000001 0.8 0.0
5.2 0.8 0.0
5.6000000000000005 0.8 0.0
6.0 0.8 0.0
6.4 0.8 0.0
6.800000000000001 0.8 0.0
7.2 0.8 0.0
7.6000000000000005 0.8 0.0
8.0 0.8 0.0
8.4 0.8 0.0
8.8 0.8 0.0
9.200000000000001 0.8 0.0
9.600000000000001 0.8 0.0
10.0 0.8 0.0
10.4 0.8 0.0
10.8 0.8 0.0
11.200000000000001 0.8 0.0
11.600000000000001 0.8 0.0
12.0 0.8 0.0
12.4 0.8 0.0
12.8 0.8 0.0
13.200000000000001 0.8 0.0
13.600000000000001 0.8 0.0
14.0 0.8 0.0
14.4 0.8 0.0
14.8 0.8 0.0
15.200000000000001 0.8 0.0
15.600000000000001 0.8 0.0
16.0 0.8 0.0
0.0 0.9 0.0
0.4 0.9 0.0
0.8 0.9 0.0
1.2000000000000002 0.9 0.0
1.6 0.9 0.0
2.0 0.9 0.0
2.4000000000000004 0.9 0.0
2.8000000000000003 0.9 0.0
3.2 0.9 0.0
3.6 0.9 0.0
4.0 0.9 0.0
4.4 0.9 0.0
4.800000000000001 0.9 0.0
5.2 0.9 0.0
5.6000000000000005 0.9 0.0
6.0 0.9 0.0
6.4 0.9 0.0
6.800000000000001 0.9 0.0
7.2 0.9 0.0
7.6000000000000005 0.9 0.0
8.0 0.9 0.0
8.4 0.9 0.0
8.8 0.9 0.0
9.200000000000001 0.9 0.0
9.600000000000001 0.9 0.0
10.0 0.9 0.0
10.4 0.9 0.0
10.8 0.9 0.0
11.200000000000001 0.9 0.0
11.600000000000001 0.9 0.0
12.0 0.9 0.0
12.4 0.9 0.0
12.8 0.9 0.0
13.200000000000001 0.9 0.0
13.600000000000001 0.9 0.0
14.0 0.9 0.0
14.4 0.9 0.0
14.8 0.9 0.0
15.200000000000001 0.9 0.0
15.600000000000001 0.9 0.0
16.0 0.9 0.0
0.0 1.0 0.0
0.4 1.0 0.0
0.8 1.0 0.0
1.2000000000000002 1.0 0.0
1.6 1.0 0.0
2.0 1.0 0.0
2.4000000000000004 1.0 0.0
2.8000000000000003 1.0 0.0
3.2 1.0 0.0
3.6 1.0 0.0
4.0 1.0 0.0
4.4 1.0 0.0
4.800000000000001 1.0 0.0
5.2 1.0 0.0
5.6000000000000005 1.0 0.0
6.0 1.0 0.0
6.4 1.0 0.0
6.800000000000001 1.0 0.0
7.2 1.0 0.0
7.6000000000000005 1.0 0.0
8.0 1.0 0.0
8.4 1.0 0.0
8.8 1.0 0.0
9.200000000000001 1.0 0.0
9.600000000000001 1.0 0.0
10.0 1.0 0.0
10.4 1.0 0.0
10.8 1.0 0.0
11.200000000000001 1.0 0.0
11.600000000000001 1.0 0.0
12.0 1.0 0.0
12.4 1.0 0.0
12.8 1.0 0.0
13.200000000000001 1.0 0.0
13.600000000000001 1.0 0.0
14.0 1.0 0.0
14.4 1.0 0.0
14.8 1.0 0.0
15.200000000000001 1.0 0.0
15.600000000000001 1.0 0.0
16.0 1.0 0.0
0.0 1.1 0.0
0.4 1.1 0.0
0.8 1.1 0.0
1.2000000000000002 1.1 0.0
1.6 1.1 0.0
2.0 1.1 0.0
2.4000000000000004 1.1 0.0
2.8000000000000003 1.1 0.0
3.2 1.1 0.0
3.6 1.1 0.0
4.0 1.1 0.0
4.4 1.1 0.0
4.800000000000001 1.1 0.0
5.2 1.1 0.0
5.6000000000000005 1.1 0.0
6.0 1.1 0.0
6.4 1.1 0.0
6.800000000000001 1.1 0.0
7.2 1.1 0.0
7.6000000000000005 1.1 0.0
8.0 1.1 0.0
8.4 1.1 0.0
8.8 1.1 0.0
9.200000000000001 1.1 0.0
9.600000000000001 1.1 0.0
10.0 1.1 0.0
10.4 1.1 0.0
10.8 1.1 0.0
11.200000000000001 1.1 0.0
11.600000000000001 1.1 0.0
12.0 1.1 0.0
12.4 1.1 0.0
12.8 1.1 0.0
13.200000000000001 1.1 0.0
13.600000000000001 1.1 0.0
14.0 1.1 0.0
14.4 1.1 0.0
14.8 1.1 0.0
15.200000000000001 1.1 0.0
15.600000000000001 1.1 0.0
16.0 1.1 0.0
0.0 1.2000000000000002 0.0
0.4 1.2000000000000002 0.0
0.8 1.2000000000000002 0.0
1.2000000000000002 1.2000000000000002 0.0
1.6 1.2000000000000002 0.0
2.0 1.2000000000000002 0.0
2.4000000000000004 1.2000000000000002 0.0
2.8000000000000003 1.2000000000000002 0.0
3.2 1.2000000000000002 0.0
3.6 1.2000000000000002 0.0
4.0 1.2000000000000002 0.0
4.4 1.2000000000000002 0.0
4.800000000000001 1.2000000000000002 0.0
5.2 1.2000000000000002 0.0
5.6000000000000005 1.2000000000000002 0.0
6.0 1.2000000000000002 0.0
6.4 1.2000000000000002 0.0
6.800000000000001 1.2000000000000002 0.0
7.2 1.2000000000000002 0.0
7.6000000000000005 1.2000000000000002 0.0
8.0 1.2000000000000002 0.0
8.4 1.2000000000000002 0.0
8.8 1.2000000000000002 0.0
9.200000000000001 1.2000000000000002 0.0
9.600000000000001 1.2000000000000002 0.0
10.0 1.2000000000000002 0.0
10.4 1.2000000000000002 0.0
10.8 1.2000000000000002 0.0
11.200000000000001 1.2000000000000002 0.0
11.600000000000001 1.2000000000000002 0.0
12.0 1.2000000000000002 0.0
12.4 1.2000000000000002 0.0
12.8 1.2000000000000002 0.0
13.200000000000001 1.2000000000000002 0.0
13.600000000000001 1.2000000000000002 0.0
14.0 1.2000000000000002 0.0
14.4 1.2000000000000002 0.0
14.8 1.2000000000000002 0.0
15.200000000000001 1.2000000000000002 0.0
15.600000000000001 1.2000000000000002 0.0
16.0 1.2000000000000002 0.0
0.0 1.3 0.0
0.4 1.3 0.0
0.8 1.3 0.0
1.2000000000000002 1.3 0.0
1.6 1.3 0.0
2.0 1.3 0.0
2.4000000000000004 1.3 0.0
2.8000000000000003 1.3 0.0
3.2 1.3 0.0
3.6 1.3 0.0
4.0 1.3 0.0
4.4 1.3 0.0
4.800000000000001 1.3 0.0
5.2 1.3 0.0
5.6000000000000005 1.3 0.0
6.0 1.3 0.0
6.4 1.3 0.0
6.800000000000001 1.3 0.0
7.2 1.3 0.0
7.6000000000000005 1.3 0.0
8.0 1.3 0.0
8.4 1.3 0.0
8.8 1.3 0.0
9.200000000000001 1.3 0.0
9.600000000000001 1.3 0.0
10.0 1.3 0.0
10.4 1.3 0.0
10.8 1.3 0.0
11.200000000000001 1.3 0.0
11.600000000000001 1.3 0.0
12.0 1.3 0.0
12.4 1.3 0.0
12.8 1.3 0.0
13.200000000000001 1.3 0.0
13.600000000000001 1.3 0.0
14.0 1.3 0.0
14.4 1.3 0.0
14.8 1.3 0.0
15.200000000000001 1.3 0.0
15.600000000000001 1.3 0.0
16.0 1.3 0.0
0.0 1.4000000000000001 0.0
0.4 1.4000000000000001 0.0
0.8 1.4000000000000001 0.0
1.2000000000000002 1.4000000000000001 0.0
1.6 1.4000000000000001 0.0
2.0 1.4000000000000001 0.0
2.4000000000000004 1.4000000000000001 0.0
2.8000000000000003 1.4000000000000001 0.0
3.2 1.4000000000000001 0.0
3.6 1.4000000000000001 0.0
4.0 1.4000000000000001 0.0
4.4 1.4000000000000001 0.0
4.800000000000001 1.4000000000000001 0.0
5.2 1.4000000000000001 0.0
5.6000000000000005 1.4000000000000001 0.0
6.0 1.4000000000000001 0.0
6.4 1.4000000000000001 0.0
6.800000000000001 1.4000000000000001 0.0
7.2 1.4000000000000001 0.0
7.6000000000000005 1.4000000000000001 0.0
8.0 1.4000000000000001 0.0
8.4 1.4000000000000001 0.0
8.8 1.4000000000000001 0.0
9.200000000000001 1.4000000000000001 0.0
9.600000000000001 1.4000000000000001 0.0
10.0 1.4000000000000001 0.0
10.4 1.4000000000000001 0.0
10.8 1.4000000000000001 0.0
11.200000000000001 1.4000000000000001 0.0
11.600000000000001 1.4000000000000001 0.0
12.0 1.4000000000000001 0.0
12.4 1.4000000000000001 0.0
12.8 1.4000000000000001 0.0
13.200000000000001 1.4000000000000001 0.0
13.600000000000001 1.4000000000000001 0.0
14.0 1.4000000000000001 0.0
14.4 1.4000000000000001 0.0
14.8 1.4000000000000001 0.0
15.200000000000001 1.4000000000000001 0.0
15.600000000000001 1.4000000000000001 0.0
16.0 1.4000000000000001 0.0
0.0 1.5 0.0
0.4 1.5 0.0
0.8 1.5 0.0
1.2000000000000002 1.5 0.0
1.6 1.5 0.0
2.0 1.5 0.0
2.4000000000000004 1.5 0.0
2.8000000000000003 1.5 0.0
3.2 1.5 0.0
3.6 1.5 0.0
4.0 1.5 0.0
4.4 1.5 0.0
4.800000000000001 1.5 0.0
5.2 1.5 0.0
5.6000000000000005 1.5 0.0
6.0 1.5 0.0
6.4 1.5 0.0
6.800000000000001 1.5 0.0
7.2 1.5 0.0
7.6000000000000005 1.5 0.0
8.0 1.5 0.0
8.4 1.5 0.0
8.8 1.5 0.0
9.200000000000001 1.5 0.0
9.600000000000001 1.5 0.0
10.0 1.5 0.0
10.4 1.5 0.0
10.8 1.5 0.0
11.200000000000001 1.5 0.0
11.600000000000001 1.5 0.0
12.0 1.5 0.0
12.4 1.5 0.0
12.8 1.5 0.0
13.200000000000001 1.5 0.0
13.600000000000001 1.5 0.0
14.0 1.5 0.0
14.4 1.5 0.0
14.8 1.5 0.0
15.200000000000001 1.5 0.0
15.600000000000001 1.5 0.0
16.0 1.5 0.0
0.0 1.6 0.0
0.4 1.6 0.0
0.8 1.6 0.0
1.2000000000000002 1.6 0.0
1.6 1.6 0.0
2.0 1.6 0.0
2.4000000000000004 1.6 0.0
2.8000000000000003 1.6 0.0
3.2 1.6 0.0
3.6 1.6 0.0
4.0 1.6 0.0
4.4 1.6 0.0
4.800000000000001 1.6 0.0
5.2 1.6 0.0
5.6000000000000005 1.6 0.0
6.0 1.6 0.0
6.4 1.6 0.0
6.800000000000001 1.6 0.0
7.2 1.6 0.0
7.6000000000000005 1.6 0.0
8.0 1.6 0.0
8.4 1.6 0.0
8.8 1.6 0.0
9.200000000000001 1.6 0.0
9.600000000000001 1.6 0.0
10.0 1.6 0.0
10.4 1.6 0.0
10.8 1.6 0.0
11.200000000000001 1.6 0.0
11.600000000000001 1.6 0.0
12.0 1.6 0.0
12.4 1.6 0.0
12.8 1.6 0.0
13.200000000000001 1.6 0.0
13.600000000000001 1.6 0.0
14.0 1.6 0.0
14.4 1.6 0.0
14.8 1.6 0.0
15.200000000000001 1.6 0.0
15.600000000000001 1.6 0.0
16.0 1.6 0.0
0.0 1.7000000000000002 0.0
0.4 1.7000000000000002 0.0
0.8 1.7000000000000002 0.0
1.2000000000000002 1.7000000000000002 0.0
1.6 1.7000000000000002 0.0
2.0 1.7000000000000002 0.0
2.4000000000000004 1.7000000000000002 0.0
2.8000000000000003 1.7000000000000002 0.0
3.2 1.7000000000000002 0.0
3.6 1.7000000000000002 0.0
4.0 1.7000000000000002 0.0
4.4 1.7000000000000002 0.0
4.800000000000001 1.7000000000000002 0.0
5.2 1.7000000000000002 0.0
5.6000000000000005 1.7000000000000002 0.0
6.0 1.7000000000000002 0.0
6.4 1.7000000000000002 0.0
6.800000000000001 1.7000000000000002 0.0
7.2 1.7000000000000002 0.0
7.6000000000000005 1.7000000000000002 0.0
8.0 1.7000000000000002 0.0
8.4 1.7000000000000002 0.0
8.8 1.7000000000000002 0.0
9.200000000000001 1.7000000000000002 0.0
9.600000000000001 1.7000000000000002 0.0
10.0 1.7000000000000002 0.0
10.4 1.7000000000000002 0.0
10.8 1.7000000000000002 0.0
11.200000000000001 1.7000000000000002 0.0
11.600000000000001 1.7000000000000002 0.0
12.0 1.7000000000000002 0.0
12.4 1.7000000000000002 0.0
12.8 1.7000000000000002 0.0
13.200000000000001 1.7000000000000002 0.0
13.600000000000001 1.7000000000000002 0.0
14.0 1.7000000000000002 0.0
14.4 1.7000000000000002 0.0
14.8 1.7000000000000002 0.0
15.200000000000001 1.7000000000000002 0.0
15.600000000000001 1.7000000000000002 0.0
16.0 1.7000000000000002 0.0
0.0 1.8 0.0
0.4 1.8 0.0
0.8 1.8 0.0
1.2000000000000002 1.8 0.0
1.6 1.8 0.0
2.0 1.8 0.0
2.4000000000000004 1.8 0.0
2.8000000000000003 1.8 0.0
3.2 1.8 0.0
3.6 1.8 0.0
4.0 1.8 0.0
4.4 1.8 0.0
4.800000000000001 1.8 0.0
5.2 1.8 0.0
5.6000000000000005 1.8 0.0
6.0 1.8 0.0
6.4 1.8 0.0
6.800000000000001 1.8 0.0
7.2 1.8 0.0
7.6000000000000005 1.8 0.0
8.0 1.8 0.0
8.4 1.8 0.0
8.8 1.8 0.0
9.200000000000001 1.8 0.0
9.600000000000001 1.8 0.0
10.0 1.8 0.0
10.4 1.8 0.0
10.8 1.8 0.0
11.200000000000001 1.8 0.0
11.600000000000001 1.8 0.0
12.0 1.8 0.0
12.4 1.8 0.0
12.8 1.8 0.0
13.200000000000001 1.8 0.0
13.600000000000001 1.8 0.0
14.0 1.8 0.0
14.4 1.8 0.0
14.8 1.8 0.0
15.200000000000001 1.8 0.0
15.600000000000001 1.8 0.0
16.0 1.8 0.0
0.0 1.9000000000000001 0.0
0.4 1.9000000000000001 0.0
0.8 1.9000000000000001 0.0
1.2000000000000002 1.9000000000000001 0.0
1.6 1.9000000000000001 0.0
2.0 1.9000000000000001 0.0
2.4000000000000004 1.9000000000000001 0.0
2.8000000000000003 1.9000000000000001 0.0
3.2 1.9000000000000001 0.0
3.6 1.9000000000000001 0.0
4.0 1.9000000000000001 0.0
4.4 1.9000000000000001 0.0
4.800000000000001 1.9000000000000001 0.0
5.2 1.9000000000000001 0.0
5.6000000000000005 1.9000000000000001 0.0
6.0 1.9000000000000001 0.0
6.4 1.9000000000000001 0.0
6.800000000000001 1.9000000000000001 0.0
7.2 1.9000000000000001 0.0
7.6000000000000005 1.9000000000000001 0.0
8.0 1.9000000000000001 0.0
8.4 1.9000000000000001 0.0
8.8 1.9000000000000001 0.0
9.200000000000001 1.9000000000000001 0.0
9.600000000000001 1.9000000000000001 0.0
10.0 1.9000000000000001 0.0
10.4 1.9000000000000001 0.0
10.8 1.9000000000000001 0.0
11.200000000000001 1.9000000000000001 0.0
11.600000000000001 1.9000000000000001 0.0
12.0 1.9000000000000001 0.0
12.4 1.9000000000000001 0.0
12.8 1.9000000000000001 0.0
13.200000000000001 1.9000000000000001 0.0
13.600000000000001 1.9000000000000001 0.0
14.0 1.9000000000000001 0.0
14.4 1.9000000000000001 0.0
14.8 1.9000000000000001 0.0
15.200000000000001 1.9000000000000001 0.0
15.600000000000001 1.9000000000000001 0.0
16.0 1.9000000000000001 0.0
0.0 2.0 0.0
0.4 2.0 0.0
0.8 2.0 0.0
1.2000000000000002 2.0 0.0
1.6 2.0 0.0
2.0 2.0 0.0
2.4000000000000004 2.0 0.0
2.8000000000000003 2.0 0.0
3.2 2.0 0.0
3.6 2.0 0.0
4.0 2.0 0.0
4.4 2.0 0.0
4.800000000000001 2.0 0.0
5.2 2.0 0.0
5.6000000000000005 2.0 0.0
6.0 2.0 0.0
6.4 2.0 0.0
6.800000000000001 2.0 0.0
7.2 2.0 0.0
7.6000000000000005 2.0 0.0
8.0 2.0 0.0
8.4 2.0 0.0
8.8 2.0 0.0
9.200000000000001 2.0 0.0
9.600000000000001 2.0 0.0
10.0 2.0 0.0
10.4 2.0 0.0
10.8 2.0 0.0
11.200000000000001 2.0 0.0
11.600000000000001 2.0 0.0
12.0 2.0 0.0
12.4 2.0 0.0
12.8 2.0 0.0
13.200000000000001 2.0 0.0
13.600000000000001 2.0 0.0
14.0 2.0 0.0
14.4 2.0 0.0
14.8 2.0 0.0
15.200000000000001 2.0 0.0
15.600000000000001 2.0 0.0
16.0 2.0 0.0
CELLS 800 4000
4 0 1 42 41
4 1 2 43 42
4 2 3 44 43
4 3 4 45 44
4 4 5 46 45
4 5 6 47 46
4 6 7 48 47
4 7 8 49 48
4 8 9 50 49
4 9 10 51 50
4 10 11 52 51
4 11 12 53 52
4 12 13 54 53
4 13 14 55 54
4 14 15 56 55
4 15 16 57 56
4 16 17 58 57
4 17 18 59 58
4 18 19 60 59
4 19 20 61 60
4 20 21 62 61
4 21 22 63 62
4 22 23 64 63
4 23 24 65 64
4 24 25 66 65
4 25 26 67 66
4 26 27 68 67
4 27 28 69 68
4 28 29 70 69
4 29 30 71 70
4 30 31 72 71
4 31 32 73 72
4 32 33 74 73
4 33 34 75 74
4 34 35 76 75
4 35 36 77 76
4 36 37 78 77
4 37 38 79 78
4 38 39 80 79
4 39 40 81 80
4 41 42 83 82
4 42 43 84 83
4 43 44 85 84
4 44 45 86 85
4 45 46 87 86
4 46 47 88 87
4 47 48 89 88
4 48 49 90 89
4 49 50 91 90
4 50 51 92 91
4 51 52 93 92
4 52 53 94 93
4 53 54 95 94
4 54 55 96 95
4 55 56 97 96
4 56 57 98 97
4 57 58 99 98
4 58 59 100 99
4 59 60 101 100
4 60 61 102 101
4 61 62 103 102
4 62 63 104 103
4 63 64 105 104
4 64 65 106 105
4 65 66 107 106
4 66 67 108 107
4 67 68 109 108
4 68 69 110 109
4 69 70 111 110
4 70 71 112 111
4 71 72 113 112
4 72 73 114 113
4 73 74 115 114
4 74 75 116 115
4 75 76 117 116
4 76 77 118 117
4 77 78 119 118
4 78 79 120 119
4 79 80 121 120
4 80 81 122 121
4 82 83 124 123
4 83 84 125 124
4 84 85 126 125
4 85 86 127 126
4 86 87 128 127
4 87 88 129 128
4 88 89 130 129
4 89 90 131 130
4 90 91 132 131
4 91 92 133 132
4 92 93 134 133
4 93 94 135 134
4 94 95 136 135
4 95 96 137 136
4 96 97 138 137
4 97 98 139 138
4 98 99 140 139
4 99 100 141 140
4 100 101 142 141
4 101 102 143 142
4 102 103 144 143
4 103 104 145 144
4 104 105 146 145
4 105 106 147 146
4 106 107 148 147
4 107 108 149 148
4 108 109 150 149
4 109 110 151 150
4 110 111 152 151
4 111 112 153 152
4 112 113 154 153
4 113 114 155 154
4 114 115 156 155
4 115 116 157 156
4 116 117 158 157
4 117 118 159 158
4 118 119 160 159
4 119 120 161 160
4 120 121 162 161
4 121 122 163 162
4 123 124 165 164
4 124 125 166 165
4 125 126 167 166
4 126 127 168 167
4 127 128 169 168
4 128 129 170 169
4 129 130 171 170
4 130 131 172 171
4 131 132 173 172
4 132 133 174 173
4 133 134 175 174
4 134 135 176 175
4 135 136 177 176
4 136 137 178 177
4 137 138 179 178
4 138 139 180 179
4 139 140 181 180
4 140 141 182 181
4 141 142 183 182
4 142 143 184 183
4 143 144 185 184
4 144 145 186 185
4 145 146 187 186
4 146 147 188 187
4 147 148 189 188
4 148 149 190 189
4 149 150 191 190
4 150 151 192 191
4 151 152 193 192
4 152 153 194 193
4 153 154 195 194
4 154 155 196 195
4 155 156 197 196
4 156 157 198 197
4 157 158 199 198
4 158 159 200 199
4 159 160 201 200
4 160 161 202 201
4 161 162 203 202
4 162 163 204 203
4 164 165 206 205
4 165 166 207 206
4 166 167 208 207
4 167 168 209 208
4 168 169 210 209
4 169 170 211 210
4 170 171 212 211
4 171 172 213 212
4 172 173 214 213
4 173 174 215 214
4 174 175 216 215
4 175 176 217 216
4 176 177 218 217
4 177 178 219 218
4 178 179 220 219
4 179 180 221 220
4 180 181 222 221
4 181 182 223 222
4 182 183 224 223
4 183 184 225 224
4 184 185 226 225
4 185 186 227 226
4 186 187 228 227
4 187 188 229 228
4 188 189 230 229
4 189 190 231 230
4 190 191 232 231
4 191 192 233 232
4 192 193 234 233
4 193 194 235 234
4 194 195 236 235
4 195 196 237 236
4 196 197 238 237
4 197 198 239 238
4 198 199 240 239
4 199 200 241 240
4 200 201 242 241
4 201 202 243 242
4 202 203 244 243
4 203 204 245 244
4 205 206 247 246
4 206 207 248 247
4 207 208 249 248
4 208 209 250 249
4 209 210 251 250
4 210 211 252 251
4 211 212 253 252
4 212 213 254 253
4 213 214 255 254
4 214 215 256 255
4 215 216 257 256
4 216 217 258 257
4 217 218 259 258
4 218 219 260 259
4 219 220 261 260
4 220 221 262 261
4 221 222 263 262
4 222 223 264 263
4 223 224 265 264
4 224 225 266 265
4 225 226 267 266
4 226 227 268 267
4 227 228 269 268
4 228 229 270 269
4 229 230 271 270
4 230 231 272 271
4 231 232 273 272
4 232 233 274 273
4 233 234 275 274
4 234 235 276 275
4 235 236 277 276
4 236 237 278 277
4 237 238 279 278
4 238 239 280 279
4 239 240 281 280
4 240 241 282 281
4 241 242 283 282
4 242 243 284 283
4 243 244 285 284
4 244 245 286 285
4 246 247 288 287
4 247 248 289 288
4 248 249 290 289
4 249 250 291 290
4 250 251 292 291
4 251 252 293 292
4 252 253 294 293
4 253 254 295 294
4 254 255 296 295
4 255 256 297 296
4 256 257 298 297
4 257 258 299 298
4 258 259 300 299
4 259 260 301 300
4 260 261 302 301
4 261 262 303 302
4 262 263 304 303
4 263 264 305 304
4 264 265 306 305
4 265 266 307 306
4 266 267 308 307
4 267 268 309 308
4 268 269 310 309
4 269 270 311 310
4 270 271 312 311
4 271 272 313 312
4 272 273 314 313
4 273 274 315 314
4 274 275 316 315
4 275 276 317 316
4 276 277 318 317
4 277 278 319 318
4 278 279 320 319
4 279 280 321 320
4 280 281 322 321
4 281 282 323 322
4 282 283 324 323
4 283 284 325 324
4 284 285 326 325
4 285 286 327 326
4 287 288 329 328
4 288 289 330 329
4 289 290 331 330
4 290 291 332 331
4 291 292 333 332
4 292 293 334 333
4 293 294 335 334
4 294 295 336 335
4 295 296 337 336
4 296 297 338 337
4 297 298 339 338
4 298 299 340 339
4 299 300 341 340
4 300 301 342 341
4 301 302 343 342
4 302 303 344 343
4 303 304 345 344
4 304 305 346 345
4 305 306 347 346
4 306 307 348 347
4 307 308 349 348
4 308 309 350 349
4 309 310 351 350
4 310 311 352 351
4 311 312 353 352
4 312 313 354 353
4 313 314 355 354
4 314 315 356 355
4 315 316 357 356
4 316 317 358 357
4 317 318 359 358
4 318 319 360 359
4 319 320 361 360
4 320 321 362 361
4 321 322 363 362
4 322 323 364 363
4 323 324 365 364
4 324 325 366 365
4 325 326 367 366
4 326 327 368 367
4 328 329 370 369
4 329 330 371 370
4 330 331 372 371
4 331 332 373 372
4 332 333 374 373
4 333 334 375 374
4 334 335 376 375
4 335 336 377 376
4 336 337 378 377
4 337 338 379 378
4 338 339 380 379
4 339 340 381 380
4 340 341 382 381
4 341 342 383 382
4 342 343 384 383
4 343 344 385 384
4 344 345 386 385
4 345 346 387 386
4 346 347 388 387
4 347 348 389 388
4 348 349 390 389
4 349 350 391 390
4 350 351 392 391
4 351 352 393 392
4 352 353 394 393
4 353 354 395 394
4 354 355 396 395
4 355 356 397 396
4 356 357 398 397
4 357 358 399 398
4 358 359 400 399
4 359 360 401 400
4 360 361 402 401
4 361 362 403 402
4 362 363 404 403
4 363 364 405 404
4 364 365 406 405
4 365 366 407 406
4 366 367 408 407
4 367 368 409 408
4 369 370 411 410
4 370 371 412 411
4 371 372 413 412
4 372 373 414 413
4 373 374 415 414
4 374 375 416 415
4 375 376 417 416
4 376 377 418 417
4 377 378 419 418
4 378 379 420 419
4 379 380 421 420
4 380 381 422 421
4 381 382 423 422
4 382 383 424 423
4 383 384 425 424
4 384 385 426 425
4 385 386 427 426
4 386 387 428 427
4 387 388 429 428
4 388 389 430 429
4 389 390 431 430
4 390 391 432 431
4 391 392 433 432
4 392 393 434 433
4 393 394 435 434
4 394 395 436 435
4 395 396 437 436
4 396 397 438 437
4 397 398 439 438
4 398 399 440 439
4 399 400 441 440
4 400 401 442 441
4 401 402 443 442
4 402 403 444 443
4 403 404 445 444
4 404 405 446 445
4 405 406 447 446
4 406 407 448 447
4 407 408 449 448
4 408 409 450 449
4 410 411 452 451
4 411 412 453 452
4 412 413 454 453
4 413 414 455 454
4 414 415 456 455
4 415 416 457 456
4 416 417 458 457
4 417 418 459 458
4 418 419 460 459
4 419 420 461 460
4 420 421 462 461
4 421 422 463 462
4 422 423 464 463
4 423 424 465 464
4 424 425 466 465
4 425 426 467 466
4 426 427 468 467
4 427 428 469 468
4 428 429 470 469
4 429 430 471 470
4 430 431 472 471
4 431 432 473 472
4 432 433 474 473
4 433 434 475 474
4 434 435 476 475
4 435 436 477 476
4 436 437 478 477
4 437 438 479 478
4 438 439 480 479
4 439 440 481 480
4 440 441 482 481
4 441 442 483 482
4 442 443 484 483
4 443 444 485 484
4 444 445 486 485
4 445 446 487 486
4 446 447 488 487
4 447 448 489 488
4 448 449 490 489
4 449 450 491 490
4 451 452 493 492
4 452 453 494 493
4 453 454 495 494
4 454 455 496 495
4 455 456 497 496
4 456 457 498 497
4 457 458 499 498
4 458 459 500 499
4 459 460 501 500
4 460 461 502 501
4 461 462 503 502
4 462 463 504 503
4 463 464 505 504
4 464 465 506 505
4 465 466 507 506
4 466 467 508 507
4 467 468 509 508
4 468 469 510 509
4 469 470 511 510
4 470 471 512 511
4 471 472 513 512
4 472 473 514 513
4 473 474 515 514
4 474 475 516 515
4 475 476 517 516
4 476 477 518 517
4 477 478 519 518
4 478 479 520 519
4 479 480 521 520
4 480 481 522 521
4 481 482 523 522
4 482 483 524 523
4 483 484 525 524
4 484 485 526 525
4 485 486 527 526
4 486 487 528 527
4 487 488 529 528
4 488 489 530 529
4 489 490 531 530
4 490 491 532 531
4 492 493 534 533
4 493 494 535 534
4 494 495 536 535
4 495 496 537 536
4 496 497 538 537
4 497 498 539 538
4 498 499 540 539
4 499 500 541 540
4 500 501 542 541
4 501 502 543 542
4 502 503 544 543
4 503 504 545 544
4 504 505 546 545
4 505 506 547 546
4 506 507 548 547
4 507 508 549 548
4 508 509 550 549
4 509 510 551 550
4 510 511 552 551
4 511 512 553 552
4 512 513 554 553
4 513 514 555 554
4 514 515 556 555
4 515 516 557 556
4 516 517 558 557
4 517 518 559 558
4 518 519 560 559
4 519 520 561 560
4 520 521 562 561
4 521 522 563 562
4 522 523 564 563
4 523 524 565 564
4 524 525 566 565
4 525 526 567 566
4 526 527 568 567
4 527 528 569 568
4 528 529 570 569
4 529 530 571 570
4 530 531 572 571
4 531 532 573 572
4 533 534 575 574
4 534 535 576 575
4 535 536 577 576
4 536 537 578 577
4 537 538 579 578
4 538 539 580 579
4 539 540 581 580
4 540 541 582 581
4 541 542 583 582
4 542 543 584 583
4 543 544 585 584
4 544 545 586 585
4 545 546 587 586
4 546 547 588 587
4 547 548 589 588
4 548 549 590 589
4 549 550 591 590
4 550 551 592 591
4 551 552 593 592
4 552 553 594 593
4 553 554 595 594
4 554 555 596 595
4 555 556 597 596
4 556 557 598 597
4 557 558 599 598
4 558 559 600 599
4 559 560 601 600
4 560 561 602 601
4 561 562 603 602
4 562 563 604 603
4 563 564 605 604
4 564 565 606 605
4 565 566 607 606
4 566 567 608 607
4 567 568 609 608
4 568 569 610 609
4 569 570 611 610
4 570 571 612 611
4 571 572 613 612
4 572 573 614 613
4 574 575 616 615
4 575 576 617 616
4 576 577 618 617
4 577 578 619 618
4 578 579 620 619
4 579 580 621 620
4 580 581 622 621
4 581 582 623 622
4 582 583 624 623
4 583 584 625 624
4 584 585 626 625
4 585 586 627 626
4 586 587 628 627
4 587 588 629 628
4 588 589 630 629
4 589 590 631 630
4 590 591 632 631
4 591 592 633 632
4 592 593 634 633
4 593 594 635 634
4 594 595 636 635
4 595 596 637 636
4 596 597 638 637
4 597 598 639 638
4 598 599 640 639
4 599 600 641 640
4 600 601 642 641
4 601 602 643 642
4 602 603 644 643
4 603 604 645 644
4 604 605 646 645
4 605 606 647 646
4 606 607 648 647
4 607 608 649 648
4 608 609 650 649
4 609 610 651 650
4 610 611 652 651
4 611 612 653 652
4 612 613 654 653
4 613 614 655 654
4 615 616 657 656
4 616 617 658 657
4 617 618 659 658
4 618 619 660 659
4 619 620 661 660
4 620 621 662 661
4 621 622 663 662
4 622 623 664 663
4 623 624 665 664
4 624 625 666 665
4 625 626 667 666
4 626 627 668 667
4 627 628 669 668
4 628 629 670 669
4 629 630 671 670
4 630 631 672 671
4 631 632 673 672
4 632 633 674 673
4 633 634 675 674
4 634 635 676 675
4 635 636 677 676
4 636 637 678 677
4 637 638 679 678
4 638 639 680 679
4 639 640 681 680
4 640 641 682 681
4 641 642 683 682
4 642 643 684 683
4 643 644 685 684
4 644 645 686 685
4 645 646 687 686
4 646 647 688 687
4 647 648 689 688
4 648 649 690 689
4 649 650 691 690
4 650 651 692 691
4 651 652 693 692
4 652 653 694 693
4 653 654 695 694
4 654 655 696 695
4 656 657 698 697
4 657 658 699 698
4 658 659 700 699
4 659 660 701 700
4 660 661 702 701
4 661 662 703 702
4 662 663 704 703
4 663 664 705 704
4 664 665 706 705
4 665 666 707 706
4 666 667 708 707
4 667 668 709 708
4 668 669 710 709
4 669 670 711 710
4 670 671 712 711
4 671 672 713 712
4 672 673 714 713
4 673 674 715 714
4 674 675 716 715
4 675 676 717 716
4 676 677 718 717
4 677 678 719 718
4 678 679 720 719
4 679 680 721 720
4 680 681 722 721
4 681 682 723 722
4 682 683 724 723
4 683 684 725 724
4 684 685 726 725
4 685 686 727 726
4 686 687 728 727
4 687 688 729 728
4 688 689 730 729
4 689 690 731 730
4 690 691 732 731
4 691 692 733 732
4 692 693 734 733
4 693 694 735 734
4 694 695 736 735
4 695 696 737 736
4 697 698 739 738
4 698 699 740 739
4 699 700 741 740
4 700 701 742 741
4 701 702 743 742
4 702 703 744 743
4 703 704 745 744
4 704 705 746 745
4 705 706 747 746
4 706 707 748 747
4 707 708 749 748
4 708 709 750 749
4 709 710 751 750
4 710 711 752 751
4 711 712 753 752
4 712 713 754 753
4 713 714 755 754
4 714 715 756 755
4 715 716 757 756
4 716 717 758 757
4 717 718 759 758
4 718 719 760 759
4 719 720 761 760
4 720 721 762 761
4 721 722 763 762
4 722 723 764 763
4 723 724 765 764
4 724 725 766 765
4 725 726 767 766
4 726 727 768 767
4 727 728 769 768
4 728 729 770 769
4 729 730 771 770
4 730 731 772 771
4 731 732 773 772
4 732 733 774 773
4 733 734 775 774
4 734 735 776 775
4 735 736 777 776
4 736 737 778 777
4 738 739 780 779
4 739 740 781 780
4 740 741 782 781
4 741 742 783 782
4 742 743 784 783
4 743 744 785 784
4 744 745 786 785
4 745 746 787 786
4 746 747 788 787
4 747 748 789 788
4 748 749 790 789
4 749 750 791 790
4 750 751 792 791
4 751 752 793 792
4 752 753 794 793
4 753 754 795 794
4 754 755 796 795
4 755 756 797 796
4 756 757 798 797
4 757 758 799 798
4 758 759 800 799
4 759 760 801 800
4 760 761 802 801
4 761 762 803 802
4 762 763 804 803
4 763 764 805 804
4 764 765 806 805
4 765 766 807 806
4 766 767 808 807
4 767 768 809 808
4 768 769 810 809
4 769 770 811 810
4 770 771 812 811
4 771 772 813 812
4 772 773 814 813
4 773 774 815 814
4 774 775 816 815
4 775 776 817 816
4 776 777 818 817
4 777 778 819 818
4 779 780 821 820
4 780 781 822 821
4 781 782 823 822
4 782 783 824 823
4 783 784 825 824
4 784 785 826 825
4 785 786 827 826
4 786 787 828 827
4 787 788 829 828
4 788 789 830 829
4 789 790 831 830
4 790 791 832 831
4 791 792 833 832
4 792 793 834 833
4 793 794 835 834
4 794 795 836 835
4 795 796 837 836
4 796 797 838 837
4 797 798 839 838
4 798 799 840 839
4 799 800 841 840
4 800 801 842 841
4 801 802 843 842
4 802 803 844 843
4 803 804 845 844
4 804 805 846 845
4 805 806 847 846
4 806 807 848 847
4 807 808 849 848
4 808 809 850 849
4 809 810 851 850
4 810 811 852 851
4 811 812 853 852
4 812 813 854 853
4 813 814 855 854
4 814 815 856 855
4 815 816 857 856
4 816 817 858 857
4 817 818 859 858
4 818 819 860 859
CELL_TYPES 800
9
9
9
9
9
9
9
9
9
9
9
9
9
9
9
9
9
9
9
9
9
9
9
9
9
9
9
9
9
9
9
9
9
9
9
9
9
9
9
9
9
9
9
9
9
9
9
9
9
9
9
9
9
9
9
9
9
9
9
9
9
9
9
9
9
9
9
9
9
9
9
9
9
9
9
9
9
9
9
9
9
9
9
9
9
9
9
9
9
9
9
9
9
9
9
9
9
9
9
9
9
9
9
9
9
9
9
9
9
9
9
9
9
9
9
9
9
9
9
9
9
9
9
9
9
9
9
9
9
9
9
9
9
9
9
9
9
9
9
9
9
9
9
9
9
9
9
9
9
9
9
9
9
9
9
9
9
9
9
9
9
9
9
9
9
9
9
9
9
9
9
9
9
9
9
9
9
9
9
9
9
9
9
9
9
9
9
9
9
9
9
9
9
9
9
9
9
9
9
9
9
9
9
9
9
9
9
9
9
9
9
9
9
9
9
9
9
9
9
9
9
9
9
9
9
9
9
9
9
9
9
9
9
9
9
9
9
9
9
9
9
9
9
9
9
9
9
9
9
9
9
9
9
9
9
9
9
9
9
9
9
9
9
9
9
9
9
9
9
9
9
9
9
9
9
9
9
9
9
9
9
9
9
9
9
9
9
9
9
9
9
9
9
9
9
9
9
9
9
9
9
9
9
9
9
9
9
9
9
9
9
9
9
9
9
9
9
9
9
9
9
9
9
9
9
9
9
9
9
9
9
9
9
9
9
9
9
9
9
9
9
9
9
9
9
9
9
9
9
9
9
9
9
9
9
9
9
9
9
9
9
9
9
9
9
9
9
9
9
9
9
9
9
9
9
9
9
9
9
9
9
9
9
9
9
9
9
9
9
9
9
9
9
9
9
9
9
9
9
9
9
9
9
9
9
9
9
9
9
9
9
9
9
9
9
9
9
9
9
9
9
9
9
9
9
9
9
9
9
9
9
9
9
9
9
9
9
9
9
9
9
9
9
9
9
9
9
9
9
9
9
9
9
9
9
9
9
9
9
9
9
9
9
9
9
9
9
9
9
9
9
9
9
9
9
9
9
9
9
9
9
9
9
9
9
9
9
9
9
9
9
9
9
9
9
9
9
9
9
9
9
9
9
9
9
9
9
9
9
9
9
9
9
9
9
9
9
9
9
9
9
9
9
9
9
9
9
9
9
9
9
9
9
9
9
9
9
9
9
9
9
9
9
9
9
9
9
9
9
9
9
9
9
9
9
9
9
9
9
9
9
9
9
9
9
9
9
9
9
9
9
9
9
9
9
9
9
9
9
9
9
9
9
9
9
9
9
9
9
9
9
9
9
9
9
9
9
9
9
9
9
9
9
9
9
9
9
9
9
9
9
9
9
9
9
9
9
9
9
9
9
9
9
9
9
9
9
9
9
9
9
9
9
9
9
9
9
9
9
9
9
9
9
9
9
9
9
9
9
9
9
9
9
9
9
9
9
9
9
9
9
9
9
9
9
9
9
9
9
9
9
9
9
9
9
9
9
9
9
9
9
9
9
9
9
9
9
9
9
9
9
9
9
9
9
9
9
9
9
9
9
9
9
9
9
9
9
9
9
9
9
9
9
9
9
9
9
9
9
9
9
9
9
9
9
9
9
9
9
9
9
9
9
9
9
9
9
9
9
9
9
9
9
9
9
9
9
9
9
9
9
9
9
9
9
9
9
9
9
9
9
9
9
9
9
9
9
9
9
9
9
9
9
9
9
9
9
9
9
9
9
9
9
9
9
9
9
9
9
9
9
9
9
9
9
9
9
9
9
9
POINT_DATA 861
SCALARS Disp float 2
LOOKUP_TABLE default
0.0 0.0
0.004605441219075115 -0.1509971931727314
0.005670122845368791 -0.2944537781872611
0.006399431450188776 -0.4371588791543409
0.007283443406071697 -0.5795647073114553
0.008548200621283685 -0.7214143887884391
0.010554943120227055 -0.8623824849765026
0.013691494852965712 -1.0020823704782948
0.01839792597935344 -1.1400371434218097
0.0251458661694505 -1.2756349459380394
0.034419475206372875 -1.4080565283950028
0.04672843815344634 -1.5362165692599028
0.06262369601999301 -1.6587524601572554
0.08269011226651835 -1.7740696447031807
0.10754373476921959 -1.8803841410164999
0.13775976838734647 -1.9757554829254533
0.17374037728547326 -2.05812497967611
0.21554759219047193 -2.1253808690348017
0.2627507516153266 -2.175498537449345
0.3143505342447346 -2.2067685969389905
0.36870562345906205 -2.218018457701367
0.423060712673387 -2.206768596938929
0.47466049530278626 -2.175498537449218
0.5218636547276252 -2.1253808690346188
0.5636708696326043 -2.05812497967588
0.5996514785307097 -1.975755482925191
0.6298675121488153 -1.8803841410162117
0.6547211346514948 -1.7740696447028745
0.6747875508979982 -1.658752460156941
0.6906828087645231 -1.5362165692595897
0.7029917717115772 -1.4080565283946997
0.7122653807484837 -1.2756349459377534
0.7190133209385681 -1.1400371434215442
0.723719752064946 -1.0020823704780544
0.7268563037976778 -0.8623824849762894
0.728863046296617 -0.7214143887882577
0.7301278035118273 -0.5795647073113054
0.7310118154677094 -0.43715887915422474
0.7317411240725291 -0.2944537781871781
0.7328058056988219 -0.15099719317268365
0.7374112469178937 0.0
0.03767568873933488 -0.00199140781642607
0.04080068540503844 -0.15115355977061312
0.041379545870583 -0.2945157782905606
0.04203437763421113 -0.4372396483586097
0.04282270103302938 -0.5796734820032177
0.043916291578722566 -0.7216230551763028
0.04565925673249829 -0.8627819597331746
0.04842103079106694 -1.0027737563866828
0.052614477289186376 -1.1411320839818972
0.058667332954224216 -1.2772455569056058
0.06700884261434635 -1.4102965521889452
0.0780803093212808 -1.5392078388824073
0.09236237903382091 -1.6626291271549725
0.11039207547641734 -1.7789769404212075
0.13273638502668444 -1.8864707837094004
0.15993433002522298 -1.9831483650453268
0.1923705005392868 -2.0668911576444366
0.23012297102194887 -2.135487691120343
0.27282806683577326 -2.186783087853935
0.31957011880867464 -2.2189220686261724
0.3687056234590545 -2.2305194297384867
0.41784112810943175 -2.2189220686261097
0.4645831800823249 -2.1867830878538053
0.5072882758961357 -2.1354876911201557
0.5450407463787807 -2.0668911576442017
0.5774769168928258 -1.9831483650450596
0.604674861891345 -1.8864707837091073
0.6270191714415925 -1.7789769404208966
0.6450488678841693 -1.662629127154653
0.6593309375966899 -1.5392078388820898
0.6704024043036069 -1.4102965521886384
0.6787439139637146 -1.2772455569053165
0.6847967696287408 -1.1411320839816292
0.6889902161268514 -1.0027737563864405
0.6917519901854139 -0.8627819597329605
0.693494955339186 -0.7216230551761207
0.6945885458848777 -0.5796734820030677
0.6953768692836956 -0.4372396483584936
0.6960317010473235 -0.29451577829047754
0.696610561512868 -0.15115355977056513
0.6997355581785669 -0.001991407816423757
0.07452547441446272 -0.003549529649559555
0.0767743952900576 -0.15122682948232893
0.07711094904972861 -0.2945533499737682
0.07764674269854595 -0.43731238994345284
0.07834615063578536 -0.5797643326083756
0.07928667241473984 -0.7217891636026149
0.08076752244214325 -0.8631119761567629
0.08315445813403041 -1.0033633828028532
0.08682639841994017 -1.1420850194089534
0.0921706531044105 -1.2786628938078552
0.09956379680036179 -1.4122779608514762
0.10938577019096762 -1.5418580889946787
0.12204971611760869 -1.6660663551242378
0.13802860393999225 -1.7833344867040026
0.15784484444154043 -1.8918859188775072
0.18199535305445302 -1.9897403758095775
0.21085116498424059 -2.0747273923560368
0.24452252403599634 -2.1445471245385934
0.28271994703631287 -2.1969249210538413
0.3246039548827871 -2.229848094016826
0.3687056234590473 -2.241766726471512
0.412807292035305 -2.229848094016761
0.4546912998817714 -2.1969249210537094
0.49288872288207614 -2.144547124538402
0.5265600819338172 -2.074727392355798
0.5554158938635883 -1.9897403758093062
0.5795664024764834 -1.89188591887721
0.5993826429780141 -1.7833344867036869
0.6153615308003801 -1.6660663551239139
0.6280254767270043 -1.5418580889943572
0.6378474501175944 -1.4122779608511657
0.6452405938135328 -1.2786628938075633
0.6505848484979927 -1.1420850194086833
0.6542567887838945 -1.0033633828026094
0.6566437244757762 -0.8631119761565479
0.6581245745031767 -0.7217891636024323
0.6590650962821301 -0.5797643326082254
0.6597645042193692 -0.43731238994333677
0.6603002978681864 -0.29455334997368526
0.6606368516278576 -0.15122682948228067
0.6628857725034479 -0.003549529649554834
0.11094470906442369 -0.004792833185189022
0.112616168824771 -0.15127605433998462
0.11282266966247416 -0.29457457933984854
0.11324206599602546 -0.4373726146507671
0.11384802174762843 -0.5798428017902978
0.11465537844597243 -0.7219186671028257
0.11588787046960258 -0.8633741290376914
0.11790049579720767 -1.0038524703345577
0.1210472523317101 -1.1428949198717748
0.12567426119987996 -1.2798849778977721
0.1321091347248076 -1.4139986148413186
0.14067306357606674 -1.5441669221591277
0.1517158192580786 -1.6690647237286074
0.16564472859771853 -1.7871405461416674
0.1829201843760025 -1.8966256906806263
0.20400341314578263 -1.9955255577175934
0.22925378759809667 -2.081627080597438
0.2588149922168933 -2.1525546447672226
0.29247738452396854 -2.2059207090491615
0.3295305575352778 -2.239567514814118
0.36870562345904045 -2.251807577925133
0.4078806893828003 -2.2395675148140524
0.44493386239410276 -2.205920709049027
0.47859625470116735 -2.1525546447670285
0.5081574593199509 -2.0816270805971957
0.5334078337722509 -1.9955255577173183
0.5544910625420157 -1.8966256906803247
0.5717665183202844 -1.787140546141348
0.5856954276599088 -1.6690647237282799
0.596738183341906 -1.5441669221588024
0.6053021121931516 -1.4139986148410049
0.6117369857180677 -1.2798849778974775
0.6163639945862284 -1.1428949198715028
0.6195107511207238 -1.0038524703343126
0.6215233764483243 -0.8633741290374753
0.6227558684719522 -0.7219186671026427
0.6235632251702953 -0.5798428017901476
0.624169180921898 -0.43737261465065097
0.6245885772554494 -0.2945745793397657
0.6247950780931525 -0.15127605433993607
0.6264665378534958 -0.004792833185182138
0.1471148362700913 -0.005790129661819622
0.1483641208947324 -0.15131727235965584
0.1484989016523527 -0.2945866068595017
0.14881837526589947 -0.43741934360800777
0.1493268899684193 -0.5799103607169155
0.15001312717222617 -0.7220210800903004
0.15102572977555365 -0.8635739647404926
0.15266806616803846 -1.0042426894549932
0.15529085869042042 -1.143562680934509
0.159197263111058 -1.2809113475172629
0.16466883075757655 -1.4154583260983804
0.17197259297160983 -1.5461345961700308
0.18139441423180944 -1.6716256784181152
0.19327533222371393 -1.7903968202264768
0.2080161130875256 -1.9006891179396754
0.22602494599133255 -2.000500590667249
0.24764988137893187 -2.0875850147111166
0.2730709597771752 -2.1595031973944394
0.30216977635390246 -2.213768516190114
0.33439909347135843 -2.2480947830480087
0.3687056234590336 -2.260668920798608
0.4030121534467063 -2.2480947830479416
0.4352414705641561 -2.213768516189978
0.46434028714087383 -2.1595031973942422
0.48976136553910593 -2.0875850147108714
0.5113863009266929 -2.0005005906669706
0.5293951338304869 -1.9006891179393708
0.5441359146942852 -1.7903968202261542
0.5560168326861765 -1.6716256784177843
0.5654386539463636 -1.5461345961697024
0.5727424161603852 -1.4154583260980642
0.578213983806894 -1.280911347516966
0.5821203882275237 -1.143562680934235
0.5847431807498996 -1.004242689454747
0.5863855171423807 -0.8635739647402759
0.5873981197457064 -0.7220210800901172
0.5880843569495128 -0.5799103607167652
0.5885928716520323 -0.4374193436078917
0.5889123452655792 -0.29458660685941884
0.5890471260231994 -0.15131727235960704
0.5902964106478372 -0.0057901296618108914
0.18311946946583174 -0.006585257437723215
0.18404551171434233 -0.1513553402100015
0.18413758777655245 -0.294594332222097
0.18437331904622525 -0.4374534914676321
0.18478255293477763 -0.5799670963294808
0.18535427348710087 -0.7221029314520845
0.1861720966304573 -0.8637222017900412
0.18747315607305173 -1.0045370928287403
0.18957168213809802 -1.144090538826664
0.19275940578213413 -1.281743498698778
0.19726810009181958 -1.4166581140065744
0.203313273232616 -1.5477631448084068
0.21112087039110816 -1.673752092544024
0.22096491337060373 -1.793106369692262
0.233177352509766 -1.904079358233942
0.24812146288541445 -2.0046660155869604
0.26611789248214146 -2.092597304728482
0.2873695267734703 -2.1653854548545675
0.31186688261774115 -2.2204637722415015
0.33925217949690795 -2.2554353821898254
0.3687056234590268 -2.268365890046281
0.39815906742114326 -2.255435382189757
0.4255443643003044 -2.2204637722413634
0.4500417201445672 -2.165385454854368
0.4712933544358865 -2.0925973047282342
0.48928978403260315 -2.004666015586679
0.5042338944082406 -1.9040793582336342
0.5164463335473917 -1.7931063696919365
0.5262903765268765 -1.6737520925436904
0.534097973685358 -1.547763144808076
0.540143146826145 -1.4166581140062555
0.5446518411358222 -1.281743498698479
0.5478395647798517 -1.1440905388263887
0.5499380908448931 -1.004537092828493
0.5512391502874846 -0.8637222017898242
0.5520569734308398 -0.7221029314519013
0.5526286939831627 -0.5799670963293304
0.5530379278717149 -0.43745349146751594
0.5532736591413876 -0.29459433222201425
0.5533657352035977 -0.15135534020995248
0.5542917774521058 -0.006585257437712922
0.21900386992015114 -0.007212119212210517
0.21967960426649488 -0.15139152342614748
0.2197425740834672 -0.2946002765900636
0.21990624770106582 -0.4374765452484386
0.2202172558863084 -0.5800122204421015
0.220674879969944 -0.7221684844270376
0.22131642303083085 -0.8638305795739831
0.2223100533212831 -1.0047474466268582
0.22391026918134574 -1.1444821179624738
0.22638174819204177 -1.2823846510250747
0.22993372174786844 -1.4176011078488266
0.23472698591477523 -1.5490560216825882
0.24093091979669448 -1.675448666000177
0.24875398443584534 -1.7952749794882754
0.2584607438975311 -1.9068012940637888
0.27035326041004454 -2.0080259927636974
0.2847269869305498 -2.096664166925917
0.30179772470839933 -2.1701948145467367
0.3216481468209519 -2.2259973073576163
0.3441343407891493 -2.261585187971864
0.3687056234590197 -2.274903436756457
0.39327690612888805 -2.261585187971795
0.4157631000970807 -2.225997307357477
0.43561352220962646 -2.1701948145465355
0.45268425998746814 -2.096664166925667
0.46705798650796504 -2.008025992763413
0.4789505030204694 -1.9068012940634789
0.4886572624821464 -1.7952749794879481
0.4964803271212888 -1.6754486659998415
0.5026842610031996 -1.549056021682255
0.5074775251700988 -1.4176011078485065
0.5110294987259189 -1.282384651024774
0.5135009777366097 -1.1444821179621976
0.5151011935966687 -1.00474744662661
0.5160948238871188 -0.8638305795737656
0.5167363669480048 -0.7221684844268543
0.5171939910316402 -0.580012220441951
0.5175049992168825 -0.4374765452483224
0.5176686728344811 -0.2946002765899808
0.5177316426514534 -0.15139152342609832
0.5184073769977952 -0.007212119212198943
0.2547989845896018 -0.007697529784022218
0.2552805175719948 -0.15142706124215422
0.255319651936552 -0.29460501628317237
0.2554183527790167 -0.43748994202550295
0.2556337265243774 -0.5800449361955978
0.25597324905459357 -0.7222198717169411
0.256454645660742 -0.8639072325399001
0.25717028620725574 -1.0048887120442023
0.2583115767792092 -1.1447490359922279
0.26009162698030236 -1.28284051675107
0.2626949549502855 -1.4182925009762772
0.2662466784353012 -1.55001874827171
0.27086277723225477 -1.676722188738688
0.2766876192678756 -1.7969108827882556
0.2839154659504533 -1.9088640433305597
0.2927857637409029 -2.010587472827428
0.30355399643837744 -2.099789080233526
0.31643718510274665 -2.173927960645796
0.3315969059066185 -2.23035621108623
0.3490969937890286 -2.266529362291377
0.3687056234590122 -2.2802757647503933
0.38831425312899465 -2.266529362291307
0.405814341011401 -2.2303562110860886
0.42097406181526736 -2.1739279606455932
0.43385725047963053 -2.099789080233274
0.44462548317709844 -2.0105874728271416
0.4534957809675411 -1.908864043330248
0.46072362765011243 -1.7969108827879263
0.4665484696857272 -1.6767221887383505
0.4711645684826746 -1.5500187482713754
0.47471629196768445 -1.4182925009759555
0.4773196199376627 -1.2828405167507682
0.4790996701387523 -1.1447490359919508
0.4802409607107031 -1.0048887120439538
0.48095660125721557 -0.8639072325396824
0.4814379978633634 -0.7222198717167578
0.48177752039357935 -0.5800449361954473
0.48199289413894 -0.43748994202538677
0.4820915949814046 -0.2946050162830895
0.4821307293459616 -0.15142706124210506
0.48261226232835336 -0.0076975297840096565
0.2905222163726626 -0.00806777674882326
0.2908613789551615 -0.15146284003244037
0.2908738941431325 -0.29460793848239913
0.2909122859911936 -0.4374947756918532
0.29103529955094176 -0.5800651019186671
0.2912533217859294 -0.7222561836862111
0.29157540557258577 -0.863960602835989
0.29204545949068816 -1.0049758229179515
0.29277072432659995 -1.1449097566378965
0.293903278073463 -1.2831251260774255
0.29558477529200217 -1.4187415078488113
0.29791258540000337 -1.5506603182109788
0.3009586298105911 -1.677582619641375
0.3048117573095544 -1.798025861851575
0.309596394805753 -1.910280383347159
0.31548156190767124 -2.012362201413425
0.32267125259874646 -2.1019805560059335
0.331381159238758 -2.1765854853024766
0.3418110310485855 -2.233525897370856
0.35420240058482794 -2.270242089338604
0.3687056234590045 -2.2844656785548367
0.38320884633318053 -2.270242089338534
0.39560021586942046 -2.233525897370714
0.4060300876792439 -2.176585485302273
0.4147399943192512 -2.1019805560056803
0.4219296850103218 -2.0123622014131373
0.42781485211223563 -1.910280383346846
0.43259948960843003 -1.7980258618512446
0.43645261710738964 -1.6775826196410364
0.43949866151797345 -1.5506603182106429
0.4418264716259708 -1.4187415078484886
0.44350796884450683 -1.2831251260771228
0.4446405225913677 -1.144909756637619
0.445365787427278 -1.0049758229177028
0.4458358413453797 -0.8639606028357713
0.4461579251320358 -0.7222561836860277
0.44637594736702324 -0.5800651019185166
0.44649896092677127 -0.43749477569173695
0.44653735277483236 -0.29460793848231626
0.44654986796280316 -0.15146284003239124
0.44688903054530127 -0.008067776748809985
0.32618498918981786 -0.008350500486746222
0.3264259870296523 -0.15150001597446763
0.3264105105864689 -0.29460783288006065
0.3263916533387071 -0.4374918882518647
0.3264253981911105 -0.5800729481074886
0.3265209552448497 -0.7222761595350107
0.32667861000224585 -0.8639927310835783
0.3269146865193797 -1.0050247365646954
0.3272701203442115 -1.1449894820029858
0.32781507372063673 -1.2832641239097216
0.3286248129481849 -1.4189692615482812
0.3297637377207178 -1.550998451235795
0.3312650565946204 -1.6780469874167288
0.33317291283548023 -1.798638502077683
0.3355512571829144 -1.9110705349562138
0.3384926347999388 -2.013369595578161
0.3421367719359487 -2.1032535794356666
0.3466833509358852 -2.178178567153397
0.35238772815467934 -2.235498798834479
0.3595469240724355 -2.272686139243202
0.36870562345899666 -2.287439285701577
0.37786432284555777 -2.2726861392431315
0.38502351876331264 -2.235498798834337
0.39072789598210433 -2.1781785671531924
0.39527447498203827 -2.103253579435413
0.398918612118046 -2.0133695955778723
0.4018599897350683 -1.9110705349559
0.4042383340825008 -1.7986385020773517
0.4061461903233592 -1.6780469874163897
0.4076475091972601 -1.5509984512354587
0.40878643396979136 -1.4189692615479579
0.40959617319733826 -1.283264123909419
0.41014112657376267 -1.1449894820027082
0.41049656039859395 -1.0050247365644465
0.41073263691572737 -0.8639927310833605
0.41089029167312346 -0.7222761595348272
0.4109858487268626 -0.580072948107338
0.41101959357926604 -0.4374918882517485
0.41100073633150425 -0.29460783287997766
0.4109852598883208 -0.15150001597441853
0.4112262577281547 -0.008350500486732457
0.3618029393478581 -0.008567772256405622
0.3619748036702108 -0.1515386720160776
0.36193396521038956 -0.2946040917216029
0.3618606361816908 -0.4374818030632272
0.36180813382902455 -0.580068767365651
0.36178196044619093 -0.7222794757398051
0.36177247387987055 -0.8640026582074808
0.36177022629163147 -1.0050409514646306
0.3617700236814496 -1.1450144260436645
0.361770326322258 -1.283303384444673
0.36177050984341014 -1.4190287924264586
0.3617708645989843 -1.551085827903043
0.3617687982748191 -1.6781675589654588
0.3617624238918633 -1.7987979939925405
0.36175178575930217 -1.9112823271582728
0.3617575714226434 -2.013654472689044
0.3618586255134015 -2.1036478279569124
0.36224452426508424 -2.178741219123095
0.36323284331430145 -2.236307491881221
0.36519641586159757 -2.273838767451922
0.3687056234589886 -2.289149796486395
0.37221483105637987 -2.273838767451851
0.3741784036036755 -2.2363074918810786
0.37516672265289197 -2.1787412191228896
0.3755526214045746 -2.1036478279566584
0.3756536754953333 -2.0136544726887555
0.37565946115867493 -1.9112823271579586
0.3756488230261144 -1.7987979939922094
0.3756424486431593 -1.6781675589651195
0.375640382318995 -1.5510858279027069
0.3756407370745698 -1.4190287924261353
0.3756409205957225 -1.2833033844443706
0.37564122323653126 -1.145014426043387
0.3756410206263495 -1.0050409514643814
0.3756387730381105 -0.864002658207263
0.3756292864717903 -0.7222794757396217
0.3756031130889567 -0.5800687673655006
0.3755506107362906 -0.4374818030631109
0.37547728170759187 -0.29460409172151997
0.37543644324777065 -0.15153867201602852
0.3756083075701231 -0.008567772256391588
0.3973874367105179 -0.008737747537198024
0.39751207490549956 -0.15157635357893184
0.397448137709392 -0.29459704518284674
0.3973237212578099 -0.43746480861546
0.39718795379729066 -0.5800530213102749
0.39704218233661726 -0.7222662331863535
0.3968665632259747 -0.8639899777172747
0.3966255752028068 -1.0050242438149162
0.39626989438255816 -1.144989589699899
0.39572556592231517 -1.2832641710386752
0.39491680328381845 -1.4189695820415273
0.39377819394240865 -1.5509980554227827
0.39227260466414976 -1.6780453410975986
0.3903516168285185 -1.7986346519657033
0.38795233813942115 -1.911067600360731
0.38502363713301946 -2.0133868137056528
0.3815748335289825 -2.103346485169672
0.37774477146210717 -2.178457870848595
0.37385176461830505 -2.2361165791722675
0.37040783786080433 -2.2738101679672473
0.36870562345898056 -2.2897124360493564
0.36700340905715656 -2.273810167967177
0.36355948229965557 -2.236116579172125
0.35966647545585495 -2.17845787084839
0.35583641338898264 -2.1033464851694186
0.35238760978494915 -2.0133868137053645
0.3494589087785502 -1.9110676003604172
0.3470596300894556 -1.7986346519653722
0.34513864225382745 -1.6780453410972598
0.34363305297557195 -1.550998055422447
0.34249444363416504 -1.4189695820412043
0.3416856809956708 -1.283264171038373
0.3411413525354293 -1.1449895896996216
0.3407856717151816 -1.005024243814667
0.3405446836920142 -0.8639899777170569
0.34036906458137206 -0.72226623318617
0.3402232931206988 -0.5800530213101245
0.3400875256601797 -0.43746480861534376
0.33996310920859774 -0.29459704518276375
0.33989917201249026 -0.15157635357888277
0.34002381020747174 -0.008737747537183798
0.4329545498540158 -0.008868908250461396
0.4330425768128891 -0.15161124112005123
0.4329576010141337 -0.2945868615630243
0.43278535399679813 -0.4374412754418708
0.43256958042111743 -0.5800263038120272
0.43230734013987254 -0.7222367520690478
0.4319685455174825 -0.8639551421027445
0.43149460899297554 -1.0049748708458397
0.4307691225678464 -1.144909968895151
0.4296377329285276 -1.2831254135300916
0.4279570810034384 -1.418741909649908
0.4256290168803481 -1.550659445254404
0.42257945130711344 -1.6775789080650252
0.4187149633332067 -1.7980175576645296
0.41391087065200266 -1.910273999621999
0.40803401415628815 -2.012396723914479
0.4010157634333108 -2.10216524424421
0.392944072768018 -2.177135319443461
0.38415492112299504 -2.2347600162591954
0.37550525809428864 -2.2726896360043676
0.3687056234589727 -2.289279887093311
0.3619059888236565 -2.2726896360042974
0.353256325794951 -2.2347600162590537
0.344467174149931 -2.177135319443257
0.3363954834846433 -2.102165244243958
0.3293772327616722 -2.0123967239141916
0.3235003762659626 -1.9102739996216858
0.31869628358476365 -1.7980175576641997
0.31483179561086233 -1.6775789080646877
0.31178223003763333 -1.550659445254069
0.3094541659145482 -1.418741909649586
0.3077735139894634 -1.2831254135297898
0.30664212435014765 -1.1449099688948736
0.3059166379250203 -1.0049748708455906
0.3054427014005143 -0.8639551421025268
0.3051039067781249 -0.7222367520688643
0.3048416664968802 -0.5800263038118767
0.30462589292119985 -0.43744127544175454
0.30445364590386437 -0.2945868615629414
0.3043686701051091 -0.15161124112000215
0.30445669706398226 -0.008868908250447022
0.4685158925410752 -0.008966852165890932
0.4685722685449986 -0.15164175330051854
0.4684672459555293 -0.2945735996939962
0.46825010162937575 -0.4374116489489264
0.4679579742220221 -0.579989177330517
0.4675832745269961 -0.7221920376732565
0.4670885339121587 -0.8638990335388678
0.46636900033167644 -1.0048873559455007
0.46522860629156193 -1.1447495280903637
0.46344991439416583 -1.2828411026083475
0.46084691744904493 -1.4182928469721179
0.4572944796225308 -1.5500174201011516
0.4526763465701708 -1.6767169506543318
0.4468454239820382 -1.7968991384438904
0.43960547023961116 -1.9088545359505427
0.4307383652585852 -2.0106347793604713
0.4200857300402403 -2.100047900798394
0.4076832476174433 -2.1747072499077666
0.39398259897332505 -2.2321843160296475
0.38017092423502313 -2.270326524237666
0.36870562345896496 -2.2878629559215766
0.35724032268290695 -2.2703265242375954
0.34342864794460676 -2.232184316029506
0.3297279993004932 -2.1747072499075637
0.3173255168777034 -2.1000479007981436
0.30667288165936657 -2.0106347793601858
0.297805776678348 -1.9088545359502307
0.29056582293592836 -1.7968991384435617
0.2847349003478036 -1.6767169506539958
0.28011676729545126 -1.5500174201008183
0.2765643294689445 -1.418292846971797
0.2739613325238298 -1.2828411026080466
0.2721826406264382 -1.1447495280900868
0.2710422465863267 -1.004887355945252
0.27032271300584604 -0.86389903353865
0.2698279723910094 -0.722192037673073
0.26945327269598374 -0.5799891773303666
0.2691611452886305 -0.43741164894881024
0.2689440009624771 -0.2945735996939132
0.2688389783730079 -0.1516417533004695
0.26889535437693124 -0.008966852165876437
0.5040789736518727 -0.009036566334648602
0.5041071073155448 -0.15166663006377673
0.5039821105068815 -0.29455717508276064
0.5037226097313705 -0.43737633870070636
0.5033574272774405 -0.5799424769136812
0.5028771377688764 -0.7221334039354754
0.5022244540335561 -0.8638195549699097
0.5012293325293694 -1.0047459857601597
0.4996306740376515 -1.1444830699159678
0.49716026479961783 -1.2823854402899948
0.49360789713215253 -1.4176012293576183
0.48881365376662833 -1.5490543138122261
0.4826096505272655 -1.6754428845528355
0.4747889149117772 -1.7952622512854113
0.46508462135277473 -1.9067905992119105
0.45319253485456124 -2.0080790851735966
0.43885627705210467 -2.09696641390234
0.4220803909256534 -2.1711521036976973
0.40345752255840633 -2.228376053373403
0.38459250500329933 -2.266763380619426
0.3687056234589574 -2.285506601304581
0.3528187419146161 -2.2667633806193552
0.3339537243595121 -2.2283760533732617
0.315330855992271 -2.1711521036974957
0.2985549698658288 -2.096966413902092
0.284218712063382 -2.0080790851733132
0.27232662556517817 -1.9067905992116003
0.2626223320061854 -1.795262251285085
0.25480159639070715 -1.6754428845525018
0.24859759315135424 -1.5490543138118946
0.24380334978583948 -1.4176012293572995
0.2402509821183822 -1.2823854402896955
0.23778057288035445 -1.1444830699156918
0.23618191438864075 -1.0047459857599115
0.23518679288445654 -0.8638195549696921
0.23453410914913714 -0.7221334039352921
0.23405381964057373 -0.5799424769135307
0.23368863718664395 -0.4373763387005902
0.23342913641113322 -0.2945571750826776
0.23330413960247 -0.15166663006372771
0.23333227326614214 -0.00903656633463401
0.5396492029193264 -0.00908274759701471
0.5396523513215508 -0.15168506964717918
0.5395073259338448 -0.29453740110054466
0.5392075919478584 -0.4373357521911497
0.5387733741769427 -0.5798871591709102
0.5381932073839442 -0.7220620646270748
0.5373682716011127 -0.8637088564356864
0.5360670523312563 -1.0045359002683314
0.5339703374703623 -1.1440919633661262
0.5307828835903572 -1.2817443064090082
0.5262732419617329 -1.4166578962156096
0.5202269837888491 -1.547761175488294
0.5124216222923441 -1.673746989987247
0.5025896764550735 -1.793096134978382
0.4903986836424625 -1.9040711177245935
0.4754586556727083 -2.0047176118978007
0.45743146801776424 -2.0929103548791157
0.43629354413741733 -2.1664629122924928
0.41278285424332356 -2.2233414394428648
0.3889503896761745 -2.2620292643696702
0.36870562345895 -2.282229199656204
0.3484608572417266 -2.2620292643696
0.32462839267458177 -2.2233414394427253
0.3011177027804954 -2.1664629122922934
0.2799797789001588 -2.09291035487887
0.26195259124522674 -2.00471761189752
0.24701256327548435 -1.904071117724286
0.23482157046288538 -1.7930961349780583
0.22498962462562677 -1.673746989986916
0.217184263129134 -1.5477611754879654
0.21113800495626153 -1.4166578962152934
0.20662836332764695 -1.2817443064087106
0.2034409094476493 -1.1440919633658517
0.20134419458676064 -1.0045359002680838
0.20004297531690765 -0.863708856435469
0.1992180395340777 -0.7220620646268917
0.19863787274107975 -0.57988715917076
0.1982036549701644 -0.4373357521910336
0.19790392098417836 -0.29453740110046167
0.19775889559647242 -0.15168506964713016
0.1977620439986968 -0.009082747597000087
0.5752305162512953 -0.009109992306232708
0.5752124555539495 -0.15169673064946337
0.575047976145958 -0.29451410111329895
0.5747098380514643 -0.4372902707378391
0.574210455356391 -0.5798243502883734
0.573528735222111 -0.7219755238878911
0.5725151706455024 -0.863559067607734
0.570874257704869 -1.004242003528212
0.5682521236399695 -1.1435643554493482
0.5643450816919666 -1.2809119890878342
0.5588721662082633 -1.4154577115663924
0.5515677113260893 -1.5461325836024165
0.542150809974883 -1.671622516663986
0.5302906359465545 -1.7903925956350792
0.515588940792844 -1.9006879913084642
0.49760070894271674 -2.0005478540818533
0.4759170057809529 -2.087883676152349
0.4504796155545876 -2.1606476725668644
0.4221544365256918 -2.21709200470458
0.3933783661837899 -2.2561276674000568
0.36870562345894264 -2.278015426650718
0.34403288073409727 -2.256127667399988
0.3152568103922006 -2.2170920047044427
0.2869316313633137 -2.1606476725666672
0.26149424113696024 -2.087883676152106
0.23981053797521024 -2.0005478540815758
0.22182230612509699 -1.90068799130816
0.2071206109714006 -1.7903925956347586
0.1952604369430864 -1.6716225166636582
0.18584353559189445 -1.5461325836020905
0.17853908070973343 -1.415457711566079
0.17306616522604157 -1.2809119890875387
0.16915912327804747 -1.1435643554490753
0.1665369892131545 -1.0042420035279656
0.1648960762725254 -0.8635590676075173
0.16388251169591894 -0.721975523887708
0.16320079156163972 -0.5798243502882232
0.16270140886656692 -0.4372902707377229
0.16236327077207344 -0.2945141011132161
0.16219879136408205 -0.1516967306494143
0.16218073066673627 -0.009109992306218066
0.6108254631538483 -0.00912293444381819
0.6107910659441844 -0.1517017090908311
0.6106090877481994 -0.2944872486011474
0.610234500756181 -0.43724022234281695
0.6096720480851842 -0.5797548882361555
0.6088829173624525 -0.721870560532883
0.6076563678876222 -0.863359045484015
0.6056444215415306 -1.0038520031722593
0.6024964737759325 -1.1428964971065019
0.5978679137467874 -1.2798853051206343
0.5914315662410309 -1.4139976363179825
0.5828679128943528 -1.544165246117712
0.5718331218010604 -1.669064656354592
0.55793078247274 -1.7871448409707373
0.54070586660199 -1.8966362584005922
0.5196708218486815 -1.9955734625136627
0.4944013736330815 -2.081904532480936
0.4648033774834729 -2.1537313050010005
0.43176744078210305 -2.209637625783846
0.39800250193804054 -2.249035928134531
0.36870562345893554 -2.2728195252443433
0.33940874497983253 -2.249035928134463
0.3056438061357763 -2.209637625783711
0.27260786943441684 -2.153731305000806
0.24300987328482193 -2.081904532480696
0.21774042506923763 -1.9955734625133883
0.19670538031594503 -1.8966362584002916
0.17948046444521149 -1.78714484097042
0.16557812511690753 -1.6690646563542682
0.15454333402363152 -1.5441652461173894
0.1459796806769684 -1.413997636317672
0.1395433331712247 -1.2798853051203414
0.13491477314208988 -1.142896497106231
0.13176682537649942 -1.0038520031720142
0.1297548790304131 -0.8633590454837989
0.12852832955558546 -0.7218705605327002
0.12773919883285478 -0.5797548882360052
0.12717674616185842 -0.4372402223427009
0.12680215916984028 -0.29448724860106446
0.12662018097385552 -0.15170170909078204
0.12658578376419166 -0.009122934443803528
0.6464349602054692 -0.00912631076837718
0.6463909424288337 -0.15170060206947253
0.6461959784625795 -0.2944570453929368
0.6457867966114178 -0.4371860194879426
0.6451608108068991 -0.5796780529693545
0.644252173268718 -0.72174195939025
0.6427815854192913 -0.8630973891351105
0.6403930858229333 -1.0033624766559406
0.6367177531688437 -1.1420861344566602
0.6313712463707195 -1.2786628074338506
0.6239767410075014 -1.4122767470239468
0.6141565291493029 -1.541857282408583
0.60150364689228 -1.6660703275714879
0.5855543234855127 -1.7833484700701439
0.5657931607279851 -1.8919114421225276
0.5417201913871972 -1.989800767130727
0.5129506969577075 -2.0750054945293153
0.47940642083803553 -2.1457584009352946
0.44182820189305555 -2.2009893024616174
0.402988267179682 -2.240704612871246
0.36870562345892816 -2.266557454327687
0.3344229797381767 -2.2407046128711787
0.29558304502481053 -2.2009893024614846
0.25800482607984265 -2.145758400935103
0.22446054996018636 -2.0750054945290795
0.19569105553071425 -1.9898007671304565
0.17161808618994442 -1.8919114421222312
0.151856923432435 -1.7833484700698305
0.13590760002568683 -1.6660703275711681
0.12325471776868231 -1.5418572824082646
0.11343450591050043 -1.41227674702364
0.10604000054729665 -1.2786628074335606
0.10069349374918393 -1.1420861344563917
0.09701816109510306 -1.0033624766556972
0.09462966149875122 -0.8630973891348953
0.09315907364932798 -0.7217419593900674
0.09225043611114818 -0.5796780529692045
0.09162445030663004 -0.43718601948782654
0.09121526845546866 -0.2944570453928539
0.09102030448921475 -0.1517006020694235
0.09097628671257926 -0.009126310768362525
0.6820576222245333 -0.009124949349131375
0.6820138913529125 -0.15169468883187937
0.6818147292575448 -0.294424146673264
0.6813724041937383 -0.4371276647676855
0.6806774885129846 -0.5795923710014257
0.6796272514562841 -0.721579920329531
0.6778954025507017 -0.8627677223431707
0.6751285678714574 -1.002771616472218
0.6709299907335237 -1.1411324280937847
0.664874291661175 -1.2772449963052876
0.656531722127876 -1.410295307711211
0.6454637626559425 -1.5392085142053837
0.6311955789757672 -1.6626378471438121
0.613196633569884 -1.779000809605545
0.5909084156485006 -1.886513103988814
0.5638150596004307 -1.983235861253188
0.531597717540092 -2.0672167426859347
0.49431829426728496 -2.1368044154721155
0.45262198530980347 -2.1911856436837724
0.40861686967843786 -2.2310483363996703
0.3687056234589205 -2.2590807929281973
0.32879437723940624 -2.2310483363996045
0.284789261608049 -2.1911856436836428
0.2430929526505813 -2.1368044154719277
0.20581352937779218 -2.0672167426857033
0.17359618731747326 -1.9832358612529222
0.1465028312694234 -1.8865131039885223
0.12421461334806057 -1.779000809605236
0.10621566794219851 -1.6626378471434973
0.0919474842620436 -1.5392085142050695
0.08087952479012865 -1.410295307710908
0.0725369552568454 -1.2772449963050008
0.06648125618450941 -1.1411324280935184
0.062282679046585444 -1.0027716164719762
0.059515844367348116 -0.8627677223429566
0.05778399546176976 -0.7215799203293489
0.056733758405071104 -0.5795923710012756
0.05603884272431791 -0.4371276647675694
0.0555965176605119 -0.29442414667318106
0.05539735556514438 -0.15169468883183038
0.0553536246935236 -0.009124949349116706
0.7176884192263752 -0.009123593734588297
0.7176607426643148 -0.15168645182676005
0.7174731694455114 -0.294389725406246
0.7169975712322461 -0.4370647611793866
0.7162194619757952 -0.5794931907644437
0.7150039049187752 -0.7213778915774554
0.7130041635435651 -0.8623673429701496
0.7098597807515389 -1.0020785500047105
0.7051469191198145 -1.1400364403760608
0.6983955472341451 -1.2756338741907935
0.6891213454913132 -1.4080554973040837
0.6768175108924935 -1.5362193062098726
0.6609384549170472 -1.6587664571047627
0.6409037859954336 -1.7741033040877594
0.6161084811137311 -1.88044487216752
0.5860260976562944 -1.9758849652282007
0.5503968749157709 -2.0585540868998304
0.5094593514811798 -2.1269337435385296
0.46412575276547763 -2.180391392706949
0.4158871761714269 -2.2199866407839157
0.36870562345891267 -2.25
0.32152407074640177 -2.2199866407838518
0.2732854941523604 -2.180391392706822
0.22795189543667407 -2.1269337435383466
0.1870143720021035 -2.058554086899604
0.1513851492616019 -1.97588496522794
0.12130276580418747 -1.8804448721672333
0.09650746092250805 -1.774103304087456
0.07647279200091758 -1.6587664571044531
0.0605937360254937 -1.5362193062095635
0.04828990142669451 -1.4080554973037849
0.039015699683879634 -1.2756338741905102
0.0322643277982239 -1.1400364403757974
0.02755146616651038 -1.0020785500044709
0.02440708337449193 -0.8623673429699369
0.022407341999286495 -0.7213778915772739
0.0211917849422687 -0.5794931907642937
0.020413675685818675 -0.43706476117927057
0.019938077472553654 -0.294389725406163
0.019750504253750474 -0.15168645182671106
0.019722827691690127 -0.009123593734573639
SCALARS Stress float 6
LOOKUP_TABLE default
-1033.8116959924168 -1818.116231690746 -1348.3096306032528 -11.1522392620029 0.0 0.0
1205.4232084500882 697.9788321565932 858.5917483400434 -24.8387497380485 0.0 0.0
525.993187857865 95.90834255988806 189.34184753098984 -35.89017863612132 0.0 0.0
447.89652914001744 16.5299025514143 140.05289740364648 -3.5596275890783 0.0 0.0
553.1798236078497 49.13222293871613 196.79522657597704 0.015439935658386972 0.0 0.0
637.7791649931814 81.6685338149782 281.9076832215193 0.7018188459569226 0.0 0.0
735.2824937979045 108.05899075891325 373.8436268837884 0.22086170146248252 0.0 0.0
830.2246581862331 150.0994970694208 464.6105897591344 -0.5716888787373602 0.0 0.0
929.7490771826057 203.20705742979905 551.3231377538983 -1.6121483519778155 0.0 0.0
1041.6759174426597 272.98524827328924 645.7522633385452 -2.7888733243724273 0.0 0.0
1170.3980115542083 362.7118409989685 755.8786677327821 -3.9970346326419626 0.0 0.0
1315.597490616095 472.4350027656492 883.2574026087923 -5.1289605938401 0.0 0.0
1473.3209516608622 595.9875712145868 1023.4028092100708 -5.852863799889439 0.0 0.0
1638.5847236686445 728.3225202962116 1171.6383841671104 -6.464846350890918 0.0 0.0
1803.5421505451327 861.6160694929576 1320.1633909780867 -6.923425322866416 0.0 0.0
1959.7902508915693 987.8702036918326 1460.83051870873 -7.199934382123391 0.0 0.0
2099.6498310311576 1100.3406939997678 1586.5095102890682 -7.142611096703507 0.0 0.0
2215.233368992548 1192.214815018922 1689.9253444396913 -6.579377491537602 0.0 0.0
2302.006354775364 1260.0334526178221 1767.0469535722984 -5.461724884711648 0.0 0.0
2350.265991468035 1295.348846585897 1808.821628371389 -5.104161274307368 0.0 0.0
2346.395508085804 1288.706261020341 1803.8995632029391 -2.5790924951252236e-11 0.0 0.0
2350.265991467397 1295.3488465852868 1808.8216283707025 5.10416127440778 0.0 0.0
2302.006354774696 1260.0334526171832 1767.046953571591 5.46172488467141 0.0 0.0
2215.233368992577 1192.214815019028 1689.925344439642 6.579377491511771 0.0 0.0
2099.64983103079 1100.3406939994927 1586.509510288597 7.1426110966664655 0.0 0.0
1959.790250890753 987.8702036911247 1460.8305187079543 7.199934382155103 0.0 0.0
1803.5421505439788 861.6160694919238 1320.1633909770978 6.923425322875733 0.0 0.0
1638.5847236674604 728.3225202951601 1171.6383841661225 6.464846350847505 0.0 0.0
1473.3209516602299 595.9875712141385 1023.4028092094314 5.852863799859755 0.0 0.0
1315.597490614851 472.4350027645942 883.2574026078407 5.128960593866568 0.0 0.0
1170.3980115527609 362.711840997712 755.8786677317199 3.997034632554705 0.0 0.0
1041.6759174426757 272.9852482735595 645.7522633384154 2.788873324307737 0.0 0.0
929.7490771814773 203.2070574288855 551.3231377530436 1.6121483519816557 0.0 0.0
830.2246581856563 150.09949706910615 464.6105897586159 0.5716888788094785 0.0 0.0
735.2824937972907 108.05899075851913 373.8436268832339 -0.22086170151961682 0.0 0.0
637.7791649928233 81.66853381490694 281.90768322114366 -0.7018188459665229 0.0 0.0
553.179823607232 49.13222293825797 196.79522657557425 -0.015439935708707608 0.0 0.0
447.8965291396353 16.5299025512311 140.0528974034764 3.5596275891813605 0.0 0.0
525.9931878575776 95.90834255983503 189.3418475308688 35.8901786361357 0.0 0.0
1205.4232084497437 697.97883215629 858.5917483395456 24.83874973804128 0.0 0.0
-1033.8116959899264 -1818.1162316882387 -1348.3096306007396 11.15223926152727 0.0 0.0
-1317.5052989371343 -2070.7101436392236 -1579.362849193054 -10.01390075829573 0.0 0.0
815.5528844541451 391.1071208683011 534.1599277137017 -36.670029120598805 0.0 0.0
363.5071805539209 39.02683595751563 119.59416045386175 -29.019576472601134 0.0 0.0
396.9033654473034 1.6446489566187865 119.64698934498416 -16.47962294456292 0.0 0.0
493.3543197918989 20.72736480314121 163.0512884240297 -15.053168067298344 0.0 0.0
580.1288952395051 27.76260408550204 228.0187774040875 -18.643936002747328 0.0 0.0
651.1017185837503 38.305286611109 302.3270518691413 -20.92250563518278 0.0 0.0
721.4920056399008 53.7900570541471 369.1999738401011 -21.78186190770528 0.0 0.0
787.8246084193455 72.95573269201594 423.46854300348394 -22.01572450283247 0.0 0.0
854.8805808695835 98.03169982652517 473.6963729893629 -22.154083851511235 0.0 0.0
924.596965181826 129.40559672820237 525.5265263169207 -22.06543424461426 0.0 0.0
996.7756767942263 165.41894335193368 579.9663050860063 -21.80123561515186 0.0 0.0
1069.1962315580552 204.96010776194984 635.9600901839622 -21.26315632647469 0.0 0.0
1139.3799444539836 242.52589574748495 689.7429032835533 -20.644959141674317 0.0 0.0
1201.0002821792132 272.85882059246654 735.6053377133181 -20.060037658021376 0.0 0.0
1249.0572613595623 291.2912804492132 768.7414432580514 -19.30996373720619 0.0 0.0
1280.2644439930125 295.31642892428437 786.2880502185088 -18.110311637752748 0.0 0.0
1294.9381167057873 286.29481483984284 789.1072442788056 -16.22403593426669 0.0 0.0
1293.7863393371645 266.13835880238275 778.5836573234877 -13.667609948686046 0.0 0.0
1262.114515773778 221.55798794522175 741.0576912434202 -11.434894782184859 0.0 0.0
1204.3604309334899 161.2660806538385 683.0823760225925 -3.6415315207705135e-12 0.0 0.0
1262.1145157741744 221.5579879456517 741.0576912436228 11.434894782309073 0.0 0.0
1293.7863393363468 266.1383588015943 778.5836573228321 13.66760994868067 0.0 0.0
1294.9381167065171 286.2948148406525 789.1072442793288 16.22403593427983 0.0 0.0
1280.2644439933495 295.3164289247109 786.2880502187388 18.110311637781535 0.0 0.0
1249.057261358927 291.2912804486783 768.7414432575885 19.30996373726954 0.0 0.0
1201.0002821786848 272.85882059205164 735.6053377128969 20.060037658017222 0.0 0.0
1139.3799444536203 242.5258957472709 689.7429032832576 20.644959141629904 0.0 0.0
1069.1962315579676 204.96010776203912 635.9600901838731 21.263156326468167 0.0 0.0
996.7756767934427 165.4189433513455 579.9663050854854 21.801235615203545 0.0 0.0
924.596965181129 129.4055967277133 525.5265263164412 22.065434244596126 0.0 0.0
854.880580869233 98.03169982639636 473.69637298909623 22.154083851499774 0.0 0.0
787.824608418504 72.9557326913794 423.46854300288436 22.015724502809892 0.0 0.0
721.4920056394102 53.79005705390758 369.1999738396887 21.781861907734115 0.0 0.0
651.1017185832748 38.30528661087931 302.3270518687137 20.922505635080647 0.0 0.0
580.1288952392612 27.76260408554805 228.0187774038291 18.64393600275521 0.0 0.0
493.3543197916073 20.727364803163738 163.05128842388967 15.053168067257975 0.0 0.0
396.9033654471041 1.6446489565973554 119.64698934492793 16.479622944628133 0.0 0.0
363.5071805538341 39.02683595743684 119.59416045381766 29.019576472580074 0.0 0.0
815.5528844536339 391.1071208679046 534.1599277131284 36.670029120597206 0.0 0.0
-1317.5052989352266 -2070.7101436372272 -1579.3628491910176 10.013900757842707 0.0 0.0
-1079.6690693578903 -1798.6899678625743 -1314.0532901932997 -49.091837883066844 0.0 0.0
617.8507055388218 298.6524528697192 393.1820652038712 -101.73560419442198 0.0 0.0
259.65498293144475 46.66391918393505 91.89560497013704 -30.102469578305442 0.0 0.0
338.90878167967975 -0.7812064445170225 101.45768565668135 -36.53489259407653 0.0 0.0
447.3117848210674 13.344911151043629 140.99990894874782 -37.17417482186395 0.0 0.0
548.4127938833819 24.109543032931064 201.80522575026464 -36.88427412365466 0.0 0.0
622.8029153781961 36.2218567413197 277.9180411449156 -39.60911632502559 0.0 0.0
695.2709683381506 47.858523865994705 346.88312423151297 -41.111739731676344 0.0 0.0
760.5208791204666 64.73178376905939 402.77946890424477 -41.77809638656049 0.0 0.0
824.7026643288482 86.23261589054759 451.38622712854607 -42.11047792367901 0.0 0.0
890.4860487704356 113.82066320559989 499.98483618826435 -41.9237609574264 0.0 0.0
958.2534028620621 146.81437328071007 550.9236053356633 -41.11722714942504 0.0 0.0
1027.4276768585582 182.09424694464673 603.2577352485694 -40.037378199384385 0.0 0.0
1093.0860306399989 216.57077440998353 653.2840962590575 -38.84150940393602 0.0 0.0
1151.5743339668138 244.16035372155682 696.216080783504 -37.6631449586523 0.0 0.0
1197.5942237010174 260.88950917018616 727.484925650133 -36.208289028666286 0.0 0.0
1229.0253463940232 265.3013732172699 745.3477613478865 -33.968811746539025 0.0 0.0
1244.5254441734546 257.0673390921341 749.0118820805876 -30.65986600203452 0.0 0.0
1239.4389583130276 232.80112618101091 734.6012066830556 -26.335385290842243 0.0 0.0
1219.3165661425526 199.73822961591145 708.3774985869762 -21.001628307684925 0.0 0.0
1146.4119937004832 124.56566719041768 635.7375928158389 1.2644196800692953e-10 0.0 0.0
1219.316566142532 199.7382296158848 708.3774985870167 21.001628307763724 0.0 0.0
1239.4389583129127 232.80112618095973 734.6012066829885 26.335385290884943 0.0 0.0
1244.5254441735442 257.06733909226415 749.0118820806142 30.659866002020458 0.0 0.0
1229.0253463946246 265.30137321794587 745.3477613482929 33.96881174644596 0.0 0.0
1197.594223700094 260.88950916936074 727.4849256495228 36.20828902864987 0.0 0.0
1151.5743339668577 244.1603537217622 696.2160807834848 37.663144958757144 0.0 0.0
1093.0860306390493 216.5707744091568 653.2840962583779 38.841509403968104 0.0 0.0
1027.4276768584566 182.09424694469382 603.2577352484823 40.037378199335706 0.0 0.0
958.2534028613122 146.8143732801535 550.9236053351843 41.11722714944267 0.0 0.0
890.486048770184 113.82066320555941 499.98483618804516 41.9237609574448 0.0 0.0
824.7026643284831 86.23261589039326 451.38622712826395 42.110477923570976 0.0 0.0
760.5208791199353 64.73178376876264 402.77946890383697 41.77809638653769 0.0 0.0
695.2709683374565 47.858523865537364 346.88312423096875 41.11173973168192 0.0 0.0
622.8029153779037 36.22185674134275 277.9180411445917 39.609116324993266 0.0 0.0
548.4127938830711 24.109543032920335 201.80522574999813 36.88427412367889 0.0 0.0
447.3117848207695 13.344911151145073 140.99990894866875 37.174174821860824 0.0 0.0
338.90878167959517 -0.7812064444124165 101.45768565668733 36.53489259403301 0.0 0.0
259.65498293121874 46.663919183477645 91.89560496993205 30.10246957825676 0.0 0.0
617.8507055382372 298.6524528694412 393.1820652033348 101.73560419435485 0.0 0.0
-1079.6690693560834 -1798.6899678607122 -1314.0532901913223 49.091837882726665 0.0 0.0
-871.425857863719 -1559.5253198344844 -1081.2241525178147 -62.85800172316753 0.0 0.0
463.70562248030086 204.5819569226075 279.33060106135963 -143.56507531899982 0.0 0.0
191.45180624900271 45.50474582814471 71.08696562314422 -52.37979810443409 0.0 0.0
283.36070832705656 3.9150898191893573 86.18509368774917 -55.929230893726924 0.0 0.0
392.8830567400445 5.968029234810888 119.39892389227815 -60.84297673786318 0.0 0.0
502.16069886812943 19.48600163595595 173.46753151611838 -57.0969519938794 0.0 0.0
593.2025809679097 31.352931468774468 248.67137276081405 -59.78787897343321 0.0 0.0
663.9238226371858 42.205163370446705 320.2180474594225 -60.79433264001673 0.0 0.0
729.1953001336599 56.57328963375229 378.68097301407374 -61.38545360818263 0.0 0.0
790.8771848105004 74.89447054739219 426.77056680884203 -61.58941395740754 0.0 0.0
852.462676896595 98.56877356049021 472.3069173987512 -61.04070184334415 0.0 0.0
916.258028482993 127.20672961840414 519.4451368128617 -59.77565081637502 0.0 0.0
980.9657005511611 159.69832926667647 568.3183740208005 -58.0910928118164 0.0 0.0
1043.069405268439 189.52174399738607 614.3032432524319 -56.50232701114735 0.0 0.0
1097.88623089931 214.28855010090132 654.005406117636 -54.833948833802054 0.0 0.0
1142.7886770955809 230.63392642426885 684.5422661108969 -52.704720287014304 0.0 0.0
1174.814710896914 235.44554228458645 702.9207785619789 -49.652452961566695 0.0 0.0
1190.5970944550522 227.2030331902803 706.765811408497 -45.309313130792745 0.0 0.0
1188.2001714123094 205.2095092997825 694.8308025962775 -39.23833355101623 0.0 0.0
1174.161231523558 177.5368564534454 674.2286684864584 -29.85040479990072 0.0 0.0
1070.3900994881633 71.46019871124886 571.4962887610702 1.0290790442013531e-10 0.0 0.0
1174.1612315229997 177.53685645292754 674.2286684860545 29.850404799996937 0.0 0.0
1188.200171412684 205.20950930018296 694.8308025965206 39.23833355113031 0.0 0.0
1190.5970944551277 227.2030331904549 706.7658114085748 45.309313130819575 0.0 0.0
1174.8147108974204 235.4455422851318 702.9207785622417 49.652452961498504 0.0 0.0
1142.7886770949954 230.63392642379688 684.5422661105134 52.70472028695813 0.0 0.0
1097.8862308994876 214.28855010122808 654.0054061177101 54.833948833948 0.0 0.0
1043.0694052667943 189.52174399585812 614.3032432513085 56.502327011129175 0.0 0.0
980.9657005507498 159.69832926642138 568.3183740205226 58.09109281182574 0.0 0.0
916.2580284825748 127.20672961814869 519.4451368125524 59.77565081632206 0.0 0.0
852.4626768958998 98.56877355996444 472.3069173982644 61.040701843286406 0.0 0.0
790.8771848105473 74.89447054767642 426.77056680881793 61.58941395738999 0.0 0.0
729.1953001333551 56.573289633695595 378.68097301381465 61.385453608187085 0.0 0.0
663.9238226366979 42.20516337021914 320.2180474589873 60.794332639969085 0.0 0.0
593.2025809677189 31.35293146896076 248.67137276057167 59.78787897350247 0.0 0.0
502.16069886776074 19.486001635973164 173.46753151588354 57.09695199381145 0.0 0.0
392.8830567396226 5.968029234737453 119.39892389214097 60.842976737831584 0.0 0.0
283.3607083271021 3.9150898192812473 86.18509368778786 55.92923089361227 0.0 0.0
191.45180624896773 45.50474582798787 71.08696562308667 52.37979810436911 0.0 0.0
463.7056224797799 204.58195692243163 279.3306010609257 143.56507531889932 0.0 0.0
-871.4258578621253 -1559.5253198327575 -1081.2241525160325 62.858001722976326 0.0 0.0
-691.8730432412411 -1350.220174310932 -877.3616329819964 -63.714695129695734 0.0 0.0
350.6909497580423 123.5467589008414 192.58848021233683 -172.61777209719858 0.0 0.0
141.47817361475722 38.92703896836132 54.12156377493556 -80.99988384987094 0.0 0.0
231.98725410475092 10.551130528269615 72.76227074609807 -76.80020275260068 0.0 0.0
331.36229571231127 4.223698389155757 100.39759939530498 -83.41090992771584 0.0 0.0
449.8451200197315 8.045738094588692 143.22314819760234 -83.38710232154155 0.0 0.0
550.6242031966918 24.767291041898847 213.76349726948214 -80.16032278836886 0.0 0.0
626.7328860533098 38.058149266184316 289.3583010155932 -80.65660301100156 0.0 0.0
692.6953701153898 48.83850646145284 350.16682558779576 -80.86153497425992 0.0 0.0
752.3183695434047 63.85627458942621 398.75589532529364 -80.56350843611476 0.0 0.0
810.4878899821647 83.3273895616659 442.01797016156405 -79.5020639144919 0.0 0.0
869.811195638387 107.68044104702044 485.44141151261005 -77.68254362153716 0.0 0.0
930.341599505599 135.36139225335918 530.0870022652814 -75.60825272444666 0.0 0.0
988.125089591749 162.9510413104162 572.9267774346088 -73.56299572969105 0.0 0.0
1040.079296540029 184.58320995962418 609.6772149721475 -71.50009984722556 0.0 0.0
1083.1355437137127 198.65320417062188 638.1717608267289 -68.90431468856525 0.0 0.0
1115.893932469904 204.72658947147337 657.5777665994624 -65.20852382841049 0.0 0.0
1134.622423464506 199.09397018593933 664.1927473428594 -60.0887009149704 0.0 0.0
1136.2674193429366 180.2980019946638 655.8601566774362 -52.274933574194115 0.0 0.0
1124.6806176784391 153.60642241962893 636.9489613400194 -39.051702031419616 0.0 0.0
982.1677811708936 8.668698478527268 496.5457020722984 8.338751911196596e-11 0.0 0.0
1124.6806176788853 153.60642242012057 636.9489613403865 39.05170203158857 0.0 0.0
1136.267419342903 180.2980019947004 655.8601566773705 52.274933574338945 0.0 0.0
1134.6224234648466 199.093970186348 664.1927473431726 60.08870091505858 0.0 0.0
1115.893932470551 204.72658947219648 657.577766599849 65.20852382842818 0.0 0.0
1083.1355437136417 198.6532041706863 638.1717608266422 68.90431468858516 0.0 0.0
1040.079296540027 184.58320995977053 609.6772149720599 71.50009984733984 0.0 0.0
988.1250895908076 162.95104130961957 572.9267774339518 73.56299572970829 0.0 0.0
930.3415995049584 135.3613922528929 530.0870022648496 75.60825272455455 0.0 0.0
869.811195637925 107.68044104669757 485.441411512264 77.6825436214684 0.0 0.0
810.4878899818457 83.32738956157498 442.0179701612922 79.5020639144845 0.0 0.0
752.318369543291 63.85627458955791 398.7558953251754 80.56350843614317 0.0 0.0
692.6953701148939 48.83850646119784 350.16682558740007 80.86153497425096 0.0 0.0
626.7328860531597 38.05814926637166 289.358301015357 80.65660301096455 0.0 0.0
550.6242031963342 24.767291041863682 213.7634972691433 80.16032278832554 0.0 0.0
449.84512001930364 8.045738094483 143.22314819738156 83.3871023214112 0.0 0.0
331.36229571211624 4.223698389296597 100.3975993952954 83.41090992765861 0.0 0.0
231.98725410476598 10.551130528336708 72.76227074612221 76.80020275247556 0.0 0.0
141.47817361472283 38.92703896830684 54.12156377490892 80.99988384972873 0.0 0.0
350.69094975753444 123.5467589006683 192.5884802119611 172.61777209704874 0.0 0.0
-691.8730432398668 -1350.2201743093392 -877.3616329804152 63.71469512965072 0.0 0.0
-534.9563920479115 -1164.5698490914926 -697.894824199611 -64.17164339297605 0.0 0.0
261.84783165966064 61.49323744032992 127.35520887137986 -187.82703621522253 0.0 0.0
102.43339213641757 28.878343265132884 39.39352062046513 -108.02514742044875 0.0 0.0
184.05475662203796 16.021520320247582 60.022845871554914 -98.19954901706997 0.0 0.0
271.6118702929931 4.16369314180308 82.67164914731482 -104.77220576804838 0.0 0.0
380.997901367788 2.8650939672064686 116.09097262149703 -107.82754228300287 0.0 0.0
488.87705662582607 18.071481214133353 175.81599465340102 -102.61377917144414 0.0 0.0
582.7345263681934 29.90922742118834 250.20425882348917 -102.02709439881347 0.0 0.0
647.4439047281694 42.24670395435563 315.6228895819876 -99.74461980981744 0.0 0.0
708.1738322549428 52.89511895607474 365.93350033591076 -99.1321424219557 0.0 0.0
763.1025220536304 68.17643185355406 407.9338265277568 -97.32199665397593 0.0 0.0
818.1386604201296 88.14140531932233 448.1375899227818 -94.87091148259378 0.0 0.0
874.0589940825485 111.77587272701706 488.9712642784258 -92.33535710458969 0.0 0.0
927.709511339192 134.60248986359514 527.5911684623186 -90.0439168377184 0.0 0.0
976.4953689979236 154.11956451925676 561.7882029564144 -87.72183511550222 0.0 0.0
1017.8392165349168 167.38092130817427 589.1121037698174 -84.62033222621966 0.0 0.0
1051.078848490697 172.69039807974144 608.3901464610545 -80.54125376028688 0.0 0.0
1074.0203991370608 171.0223969981286 619.0331578704663 -74.90620566587576 0.0 0.0
1081.4034561860337 157.2140954686994 616.0624817384088 -65.69031435203922 0.0 0.0
1071.181916740006 129.6020333995518 597.4167660262477 -49.16675288132717 0.0 0.0
881.5335217634039 -62.49269710567381 411.4742333670003 7.484501907129015e-11 0.0 0.0
1071.18191673908 129.6020333986038 597.416766025739 49.16675288139129 0.0 0.0
1081.403456186073 157.21409546880383 616.0624817384902 65.6903143521368 0.0 0.0
1074.0203991369267 171.02239699807524 619.0331578703822 74.90620566592017 0.0 0.0
1051.0788484915465 172.6903980807136 608.3901464616331 80.54125376038994 0.0 0.0
1017.8392165349933 167.38092130840778 589.112103769882 84.62033222635965 0.0 0.0
976.4953689975076 154.1195645189412 561.7882029560677 87.72183511552835 0.0 0.0
927.7095113383966 134.60248986292248 527.5911684617126 90.0439168377314 0.0 0.0
874.0589940817003 111.77587272632533 488.9712642778272 92.33535710463833 0.0 0.0
818.1386604197626 88.14140531914285 448.13758992253054 94.87091148259915 0.0 0.0
763.1025220536193 68.17643185378226 407.93382652771595 97.32199665404877 0.0 0.0
708.1738322547442 52.895118956100106 365.93350033572045 99.13214242191182 0.0 0.0
647.4439047274238 42.24670395386249 315.6228895814328 99.74461980985242 0.0 0.0
582.7345263682528 29.909227421672902 250.20425882339637 102.02709439885201 0.0 0.0
488.8770566254633 18.071481214090205 175.8159946531096 102.61377917133956 0.0 0.0
380.9979013674581 2.8650939673380678 116.09097262142595 107.82754228287938 0.0 0.0
271.61187029293166 4.163693141999763 82.67164914735645 104.77220576792476 0.0 0.0
184.05475662192518 16.021520320276025 60.022845871529675 98.19954901687441 0.0 0.0
102.433392136316 28.87834326506433 39.393520620414094 108.02514742021347 0.0 0.0
261.84783165928275 61.4932374402179 127.35520887110907 187.8270362151085 0.0 0.0
-534.9563920466688 -1164.5698490900688 -697.8948241982087 64.17164339289037 0.0 0.0
-401.2833968065818 -993.4057603631534 -541.3237756480733 -65.71332950830582 0.0 0.0
192.2155987110465 11.881734457114428 78.29018852250894 -196.00951080660735 0.0 0.0
70.11035139867587 18.306567000174766 26.52507551965519 -130.45819060507728 0.0 0.0
138.7195156460796 19.395662891390202 47.43455356124092 -118.44316546849224 0.0 0.0
213.73004514608735 6.104954393229361 65.96050321679976 -123.72685135254952 0.0 0.0
305.59424492576744 -1.4257489207895466 90.46030718001202 -131.95649334776522 0.0 0.0
417.05574172936946 6.570132163121848 135.78059604763237 -129.73533863764803 0.0 0.0
514.7771495148676 23.44236971134927 203.88628619053029 -122.82739616336714 0.0 0.0
596.2871632201995 31.237832954913905 271.0413841395113 -121.34942257863753 0.0 0.0
654.0369188263712 42.56194321539103 325.513861305269 -116.88287079212553 0.0 0.0
708.683818529954 53.0949039712054 368.02742994964643 -114.46390890232746 0.0 0.0
759.8265372677773 68.44364874834937 405.96993624239417 -111.41908215037704 0.0 0.0
810.9535281245464 87.5113586950475 443.16870218809106 -108.41873164100683 0.0 0.0
860.0514981837038 106.6444237781815 478.16140107745906 -105.83044170037243 0.0 0.0
905.2660124426063 123.22214122050347 509.3465886668548 -103.33306869497916 0.0 0.0
944.6988670529435 133.65130834646163 534.4086190692932 -100.26253308825399 0.0 0.0
977.9104332538308 140.78028820172395 554.6607024045466 -95.47289119529268 0.0 0.0
1006.3562734613267 143.13711324544164 569.9670667228677 -89.51983335758158 0.0 0.0
1021.2341469785191 134.68020978101967 573.3735818883943 -79.7633143306195 0.0 0.0
1013.3003792832594 106.79364077114877 555.8786248608318 -60.812193917413744 0.0 0.0
766.335503947103 -142.15751190079777 315.2385850084685 -5.639577693727915e-11 0.0 0.0
1013.3003792826362 106.79364077065182 555.8786248604489 60.81219391750629 0.0 0.0
1021.2341469784354 134.6802097810566 573.3735818884264 79.76331433090989 0.0 0.0
1006.3562734611498 143.13711324535086 569.9670667227157 89.5198333577226 0.0 0.0
977.9104332542938 140.7802882023381 554.6607024047541 95.47289119547405 0.0 0.0
944.698867053012 133.65130834664907 534.4086190693869 100.26253308828905 0.0 0.0
905.2660124419854 123.22214121991934 509.34658866638745 103.33306869488128 0.0 0.0
860.0514981831458 106.64442377776905 478.16140107707486 105.83044170039403 0.0 0.0
810.9535281246475 87.51135869543529 443.16870218810544 108.41873164116666 0.0 0.0
759.8265372673364 68.44364874804162 405.96993624211586 111.41908215039305 0.0 0.0
708.6838185292929 53.09490397069312 368.0274299491241 114.46390890225356 0.0 0.0
654.036918826053 42.561943215182566 325.5138613049683 116.8828707919605 0.0 0.0
596.2871632196936 31.237832954682105 271.0413841390802 121.34942257855306 0.0 0.0
514.7771495144574 23.442369711313717 203.88628619021583 122.82739616342963 0.0 0.0
417.05574172886855 6.5701321629395615 135.78059604733235 129.73533863759886 0.0 0.0
305.5942449254255 -1.4257489206150713 90.46030717998805 131.95649334758556 0.0 0.0
213.7300451460379 6.104954393388818 65.96050321683035 123.72685135236514 0.0 0.0
138.71951564604794 19.395662891419192 47.43455356124014 118.4431654682979 0.0 0.0
70.11035139871716 18.30656700024556 26.525075519688812 130.45819060491033 0.0 0.0
192.21559871065105 11.881734456911795 78.29018852224506 196.00951080643125 0.0 0.0
-401.28339680571287 -993.405760361997 -541.3237756469737 65.71332950827859 0.0 0.0
-283.46574315673195 -847.9341260954734 -405.8277442883613 -77.79113439432479 0.0 0.0
132.0236345636543 -25.076704004668986 40.1786455526478 -195.13372873603953 0.0 0.0
41.96666360605197 9.565835528558726 15.45977441522472 -147.8485064764545 0.0 0.0
95.17843852270157 20.759803109736012 34.78226722196731 -136.12520425608776 0.0 0.0
156.27721579423837 8.813108591469872 49.51615643602349 -140.2350633871849 0.0 0.0
226.89486850421693 -0.6280904167839502 67.55953420693307 -150.5270346901822 0.0 0.0
325.9616703975535 -1.1479516003453014 98.27634660238449 -156.4182704017078 0.0 0.0
428.002905165893 11.010621350057114 150.6276947931857 -146.83441905871598 0.0 0.0
518.5627439407123 23.079158494642122 215.09939216196216 -140.54665674733886 0.0 0.0
588.5537870009612 28.309065623919498 271.5608734205617 -136.60673531819486 0.0 0.0
641.8602056011058 37.13522685224306 316.9117269597886 -130.877758894008 0.0 0.0
690.4194171197926 48.80945515006931 354.91873298420785 -127.04593255746498 0.0 0.0
737.6347882731632 63.23745013835626 389.8316789515717 -123.66995700444164 0.0 0.0
781.6056564156871 77.89700842678059 421.2218757834937 -120.84003069228092 0.0 0.0
823.1478890710218 91.02988601648933 449.4393121283124 -118.3676462601519 0.0 0.0
859.9163802671357 100.56267533265145 473.0808750345291 -115.28317436640245 0.0 0.0
892.9136359164606 105.7542359470962 492.49777924578393 -110.4422046522896 0.0 0.0
925.7600966784662 112.38290399613021 511.9985276273746 -103.8228718927338 0.0 0.0
951.3187366628248 113.92451853874044 525.6621406247258 -94.12025591512203 0.0 0.0
949.6374784061261 88.31361207515795 512.7439629141688 -74.72842537403095 0.0 0.0
630.790040800336 -230.6262630835153 205.01881381218598 7.169376203819411e-12 0.0 0.0
949.6374784064138 88.3136120754782 512.7439629143738 74.72842537417534 0.0 0.0
951.3187366631149 113.92451853918391 525.6621406249925 94.12025591530588 0.0 0.0
925.7600966781388 112.38290399592665 511.9985276271211 103.82287189288908 0.0 0.0
892.9136359167053 105.75423594745722 492.4977792458409 110.44220465245999 0.0 0.0
859.9163802669859 100.56267533256246 473.08087503442096 115.2831743663746 0.0 0.0
823.1478890710736 91.02988601672499 449.43931212831006 118.36764626021579 0.0 0.0
781.6056564154183 77.89700842665698 421.22187578330164 120.84003069230556 0.0 0.0
737.6347882736014 63.23745013904526 389.8316789518409 123.6699570046535 0.0 0.0
690.419417119577 48.80945515006213 354.91873298404124 127.0459325574581 0.0 0.0
641.8602056004602 37.13522685173902 316.9117269592789 130.87775889396372 0.0 0.0
588.5537870010489 28.309065624330614 271.56087342054656 136.60673531818145 0.0 0.0
518.5627439403341 23.07915849449503 215.09939216161027 140.54665674725948 0.0 0.0
428.0029051651285 11.010621349464635 150.62769479265648 146.83441905865556 0.0 0.0
325.96167039701703 -1.1479516005871555 98.27634660212988 156.41827040161326 0.0 0.0
226.89486850393507 -0.6280904167642478 67.55953420686492 150.5270346899953 0.0 0.0
156.27721579406955 8.813108591262324 49.51615643590958 140.23506338703123 0.0 0.0
95.17843852273454 20.759803109923325 34.78226722203319 136.12520425590452 0.0 0.0
41.96666360597604 9.565835528592105 15.459774415211916 147.84850647632908 0.0 0.0
132.02363456326816 -25.07670400495735 40.17864555239933 195.1337287357796 0.0 0.0
-283.4657431559705 -847.9341260943647 -405.82774428746507 77.79113439439314 0.0 0.0
-200.30484470819147 -705.5886784909925 -302.58000548718746 -88.33044249633927 0.0 0.0
80.0469004431541 -54.09978085360981 11.464656170659094 -188.14578402651554 0.0 0.0
15.507773206943778 3.5490775836184203 5.71855450859106 -160.47086004738486 0.0 0.0
53.19655683476563 20.659738110149945 22.15651903117316 -150.39340969852634 0.0 0.0
98.63079332954516 11.464921982036177 33.02187667210826 -153.4079959286507 0.0 0.0
149.5790311000723 1.8949962228070945 45.372691030419034 -164.50368669693768 0.0 0.0
219.49087435772833 -2.6460135200766484 64.4948454414528 -178.3209658308791 0.0 0.0
314.62423678862933 -3.462200710446636 95.85088394845967 -178.62216434624906 0.0 0.0
409.68197660277247 6.1338141728083455 144.2057965638806 -163.9560514172336 0.0 0.0
488.9298680233142 13.740917916324289 197.09317080753488 -153.79031741184735 0.0 0.0
549.2728221800234 20.2135245520157 244.4293023458315 -145.7387910416353 0.0 0.0
598.7996063082918 27.28579281334728 283.3162647841201 -141.14931654657278 0.0 0.0
643.2443759844649 38.25830292322655 318.48306946084443 -137.53296622102465 0.0 0.0
682.7636616639486 48.6092976772029 348.1819390673411 -134.71641538007987 0.0 0.0
719.7801211786697 58.324513955764246 374.2941745525171 -132.4670407674818 0.0 0.0
754.0239345043427 65.73481011956075 396.7204991649621 -129.81863873515016 0.0 0.0
787.1499722011338 71.53988449226685 417.310469883217 -125.2777808800036 0.0 0.0
820.6616294630492 77.73397763873373 437.44965504500743 -117.97979910012835 0.0 0.0
858.0350507707324 87.73566398364241 461.03575591593 -108.30644388669276 0.0 0.0
875.5308247221647 76.30531618526045 465.3417360408561 -92.01230197022197 0.0 0.0
466.6048671459841 -324.95822938546917 78.57957700172824 2.6133761821256485e-11 0.0 0.0
875.5308247222006 76.30531618554184 465.341736040955 92.01230197048417 0.0 0.0
858.0350507698876 87.73566398279695 461.03575591540385 108.30644388702822 0.0 0.0
820.6616294634266 77.7339776394212 437.4496550452747 117.97979910045649 0.0 0.0
787.1499722009632 71.5398844920671 417.310469883014 125.27778088008108 0.0 0.0
754.0239345036701 65.73481011886282 396.72049916446815 129.81863873507967 0.0 0.0
719.7801211789852 58.324513956321766 374.29417455277905 132.467040767592 0.0 0.0
682.7636616637436 48.609297677138244 348.1819390671452 134.71641538010857 0.0 0.0
643.2443759837234 38.25830292251759 318.483069460328 137.53296622107922 0.0 0.0
598.7996063080651 27.285792813270206 283.3162647839316 141.1493165465982 0.0 0.0
549.2728221797302 20.213524551890558 244.42930234555652 145.7387910415383 0.0 0.0
488.92986802286225 13.74091791602577 197.0931708072146 153.79031741181953 0.0 0.0
409.6819766022603 6.133814172394819 144.20579656349634 163.95605141715473 0.0 0.0
314.62423678813695 -3.4622007106208095 95.85088394822198 178.62216434622573 0.0 0.0
219.49087435739378 -2.6460135200365786 64.49484544138167 178.32096583062886 0.0 0.0
149.57903110006993 1.8949962231782917 45.37269103054209 164.50368669666594 0.0 0.0
98.63079332932594 11.464921981642561 33.02187667192206 153.4079959285256 0.0 0.0
53.19655683481645 20.659738110346108 22.156519031247253 150.39340969835632 0.0 0.0
15.507773206970336 3.549077583813117 5.7185545086571405 160.4708600472482 0.0 0.0
80.0469004427543 -54.09978085384053 11.464656170442737 188.14578402630403 0.0 0.0
-200.30484470767593 -705.5886784900983 -302.5800054865639 88.33044249640486 0.0 0.0
-137.98439397423957 -586.2358665018932 -224.52120868672154 -104.82544683728794 0.0 0.0
34.234014155869616 -72.42274600521613 -10.440354336711163 -175.31784457527152 0.0 0.0
-9.335336887577952 0.22612031208285677 -2.7324382747096583 -168.42982509783207 0.0 0.0
12.492936150834055 19.611696305221997 9.631692009630534 -160.74800524028808 0.0 0.0
41.39252378246341 13.721027074741004 16.536523022455885 -162.7683197577581 0.0 0.0
72.02937629308559 4.970818711272525 23.02705297002356 -174.76864258640705 0.0 0.0
108.79358420185741 -0.2760367948625593 32.426070445217455 -189.75571855369267 0.0 0.0
161.45571933827583 -2.3506912328899006 47.76756892573407 -196.09169991470878 0.0 0.0
237.63095107698848 -6.626310050625387 70.06384533923772 -192.63204495702968 0.0 0.0
318.92641642597766 -14.382368102474278 96.4929110412006 -180.82177120798477 0.0 0.0
391.65986312414486 -17.858702045094446 125.90239485269038 -169.72977755038937 0.0 0.0
442.61661041570375 -12.738184717562394 156.4996231642532 -158.04940972242056 0.0 0.0
483.24238381481206 -1.514738105301106 186.65849080803838 -151.8515968312292 0.0 0.0
519.8460993231561 12.842851004833399 215.85606494200053 -148.28777810276767 0.0 0.0
553.5817726942627 22.918047685637745 243.46687962230408 -147.0341779451613 0.0 0.0
585.4053279697714 30.46765160725532 269.3955520213836 -147.6544995042473 0.0 0.0
619.1651652676445 36.19067567551747 295.6618665765802 -145.53827576528164 0.0 0.0
656.0520632612494 40.0979122692275 321.36310962832823 -137.87647201440853 0.0 0.0
696.3970531237361 43.318592143102364 346.0312891658526 -125.74146348212025 0.0 0.0
755.6376804974251 63.16129678973087 388.19030461740886 -114.30343394634255 0.0 0.0
241.04711734288162 -424.86059029704927 -78.10712274044288 8.923706218411098e-11 0.0 0.0
755.6376804982467 63.16129679077749 388.19030461800025 114.30343394657248 0.0 0.0
696.3970531221867 43.31859214146993 346.0312891648018 125.7414634822926 0.0 0.0
656.0520632622121 40.0979122706375 321.3631096290752 137.87647201490643 0.0 0.0
619.1651652676528 36.19067567546611 295.66186657642044 145.53827576535699 0.0 0.0
585.4053279694264 30.467651607063438 269.3955520211945 147.6544995042161 0.0 0.0
553.5817726945326 22.91804768609596 243.46687962250343 147.03417794514183 0.0 0.0
519.8460993228479 12.842851004582855 215.8560649418042 148.28777810286937 0.0 0.0
483.2423838145734 -1.5147381055068259 186.65849080780566 151.8515968312372 0.0 0.0
442.6166104148944 -12.738184718512825 156.4996231636832 158.04940972232362 0.0 0.0
391.6598631242652 -17.85870204465349 125.90239485279385 169.72977755042058 0.0 0.0
318.92641642494 -14.382368103721667 96.49291104050631 180.82177120780818 0.0 0.0
237.6309510766974 -6.626310050552994 70.0638453391639 192.63204495700077 0.0 0.0
161.45571933814568 -2.3506912326154903 47.76756892577431 196.0916999147159 0.0 0.0
108.79358420162181 -0.2760367950905369 32.42607044507904 189.75571855345703 0.0 0.0
72.02937629308607 4.970818711380742 23.027052970055887 174.76864258616925 0.0 0.0
41.39252378232393 13.721027074460014 16.53652302233022 162.7683197575102 0.0 0.0
12.492936150954304 19.611696305471582 9.631692009741396 160.74800524011295 0.0 0.0
-9.335336887593892 0.22612031210205252 -2.732438274708951 168.42982509765775 0.0 0.0
34.23401415557823 -72.42274600537462 -10.44035433685703 175.31784457506333 0.0 0.0
-137.98439397408055 -586.2358665012345 -224.5212086864039 104.8254468373317 0.0 0.0
-108.57760476993998 -470.3986131368116 -174.31100528194804 -108.2055860831814 0.0 0.0
0.17551699503832197 -84.05031895632197 -25.07804511700916 -162.7746189440033 0.0 0.0
-32.19968967806321 -1.945521301140158 -10.240226311336452 -172.426846101585 0.0 0.0
-26.72776513283093 18.30757490823848 -2.525332116836772 -166.98147994665095 0.0 0.0
-14.989219654455397 15.484895523595586 0.1489824775919013 -168.0745258898645 0.0 0.0
-6.272583094203236 8.216753960913682 0.5842325550445491 -178.73722093926744 0.0 0.0
-2.318593419061596 1.9750220962199005 -0.10685951786173664 -194.3419119504649 0.0 0.0
-0.47897459821445665 0.247981257295812 -0.06850622427089537 -200.76487642082802 0.0 0.0
-0.022625087125945242 -0.13601547614213594 -0.04808257797073878 -197.17117069181603 0.0 0.0
0.11317113309976179 0.021737855091036096 0.05111985327786073 -185.29874724047878 0.0 0.0
0.24727914366110326 -0.49880681563883655 -0.213282489750668 -180.17498450137649 0.0 0.0
-0.6298061294762789 0.5010427547108769 0.04856553675059061 -177.61016352581362 0.0 0.0
-2.2487693735065903 1.211353120756879 -0.1222278732782911 -175.97059643473276 0.0 0.0
-1.9416517586230526 0.7695042163137202 0.1646052930901476 -171.54125678217918 0.0 0.0
1.4097007576099259 2.0066080979188854 0.8873865895904203 -164.55592310369644 0.0 0.0
14.842010505215796 5.911052494254314 2.97646458306518 -157.61305978832777 0.0 0.0
49.60876063836561 14.185911117350756 8.286519755519464 -151.82457118270625 0.0 0.0
131.23284005757336 15.872617648352161 13.521429860409341 -145.5156385202599 0.0 0.0
313.4106439703975 -46.174278179126304 33.24503756044119 -140.91134500341994 0.0 0.0
473.925096835779 -24.07674780177851 160.56743128173204 -158.8428165969613 0.0 0.0
-306.37055459646274 -605.070911356288 -384.92490675584 -2.8137492336099967e-11 0.0 0.0
473.9250968357994 -24.07674780202906 160.56743128178158 158.84281659712582 0.0 0.0
313.41064396993124 -46.174278179874165 33.245037560081315 140.91134500393366 0.0 0.0
131.23284005788742 15.872617648656231 13.52142986066788 145.5156385208084 0.0 0.0
49.60876063861416 14.185911117387548 8.286519755620333 151.82457118292018 0.0 0.0
14.842010505375796 5.911052494434969 2.976464583152037 157.61305978839448 0.0 0.0
1.409700757671743 2.0066080977547713 0.8873865895588153 164.55592310366876 0.0 0.0
-1.9416517583280921 0.7695042163758359 0.16460529321089012 171.5412567821986 0.0 0.0
-2.248769372932834 1.211353121149795 -0.12222787297594095 175.9705964349763 0.0 0.0
-0.6298061293859476 0.5010427539291484 0.04856553653248241 177.61016352579134 0.0 0.0
0.24727914398382467 -0.498806815669246 -0.21328248966724317 180.17498450133417 0.0 0.0
0.11317113302954596 0.021737854351665753 0.05111985303309474 185.29874724032155 0.0 0.0
-0.02262508700368926 -0.1360154761668304 -0.048082577939317694 197.17117069186065 0.0 0.0
-0.4789745979229405 0.24798125786661518 -0.06850622400908524 200.76487642078195 0.0 0.0
-2.318593418999889 1.975022096219584 -0.1068595178436369 194.34191195024636 0.0 0.0
-6.272583094124036 8.216753960945649 0.5842325550779448 178.7372209390079 0.0 0.0
-14.989219654506595 15.484895523397679 0.14898247751700278 168.07452588971123 0.0 0.0
-26.72776513270636 18.30757490843384 -2.525332116741085 166.9814799464795 0.0 0.0
-32.19968967801491 -1.945521301068465 -10.240226311300665 172.4268461013962 0.0 0.0
0.17551699496496753 -84.05031895638142 -25.078045117047452 162.7746189438003 0.0 0.0
-108.5776047698481 -470.3986131362102 -174.3110052817613 108.20558608310711 0.0 0.0
-89.82968663899172 -369.44015513589403 -137.7723996374526 -102.9697466220637 0.0 0.0
-21.440212553330134 -88.93208117579661 -33.11234190855276 -152.71490185344442 0.0 0.0
-53.44520539348259 -3.9737112733412667 -17.22671669295867 -172.47383801435146 0.0 0.0
-64.18920455459401 17.036921462977006 -14.143608580526736 -168.98393512159313 0.0 0.0
-70.2884149693506 16.59048663567465 -16.10501335239831 -168.93323358935845 0.0 0.0
-83.56651161201907 11.19314777802765 -21.686566344757765 -176.96323626205435 0.0 0.0
-113.48409651923292 4.416725993743663 -32.52182626603656 -191.56738139334422 0.0 0.0
-162.47750199270192 2.731896002804861 -47.97087416804498 -196.31190557539085 0.0 0.0
-237.5485437189918 6.329167717479844 -70.14355302170092 -192.6142423776606 0.0 0.0
-318.6928000245922 14.357938260981884 -96.41978849485218 -180.77219150879156 0.0 0.0
-392.70004934859435 18.392864865157144 -125.59336158171658 -169.93461994944067 0.0 0.0
-442.49144228342215 12.587906507062417 -156.76397991833204 -157.9028108066428 0.0 0.0
-483.98007531075257 1.4001587948338354 -187.40352858145616 -151.28016821991451 0.0 0.0
-520.9488491528989 -11.655817837535835 -216.4710909386998 -147.71294970319386 0.0 0.0
-551.4015922157097 -17.861367268650923 -239.90550951860803 -146.76086289983175 0.0 0.0
-571.5736142155715 -17.517599034329166 -252.47723186038058 -149.27890014812996 0.0 0.0
-579.2857379449509 -11.982772951897616 -251.5632516665964 -154.93240365581468 0.0 0.0
-575.961130638753 -2.9924302825159117 -233.21530916787117 -165.99397886923916 0.0 0.0
-561.1230359919391 35.0516656987289 -190.823075456391 -174.78349917478144 0.0 0.0
-334.48239830395806 66.15598845051215 -75.18319583906307 -119.32139486083489 0.0 0.0
-825.0114001228745 -818.3423037888958 -809.6408156569271 -1.3177725577406818e-10 0.0 0.0
-334.48239830449256 66.15598844918264 -75.18319583964447 119.32139486131337 0.0 0.0
-561.1230359925329 35.05166569794322 -190.82307545679217 174.78349917522414 0.0 0.0
-575.9611306384913 -2.992430282492421 -233.21530916767003 165.99397886927062 0.0 0.0
-579.2857379453213 -11.982772952452692 -251.5632516668803 154.93240365604504 0.0 0.0
-571.5736142154947 -17.51759903441281 -252.47723186033224 149.27890014810748 0.0 0.0
-551.401592215384 -17.8613672684224 -239.9055095182539 146.76086289972415 0.0 0.0
-520.9488491522552 -11.655817836861019 -216.47109093824523 147.71294970320344 0.0 0.0
-483.9800753107741 1.400158794506602 -187.40352858149123 151.2801682200078 0.0 0.0
-442.491442283078 12.587906507031889 -156.76397991810177 157.90281080668746 0.0 0.0
-392.70004934832474 18.392864864898172 -125.5933615816038 169.93461994948726 0.0 0.0
-318.69280002400086 14.357938260773494 -96.41978849470925 180.77219150862652 0.0 0.0
-237.5485437182739 6.329167717697083 -70.14355302141523 192.614242377675 0.0 0.0
-162.47750199230356 2.7318960028988633 -47.970874167892376 196.3119055754043 0.0 0.0
-113.48409651868293 4.416725994348993 -32.521826265692134 191.56738139315848 0.0 0.0
-83.56651161186272 11.19314777789575 -21.686566344752336 176.96323626182627 0.0 0.0
-70.28841496913896 16.59048663592371 -16.10501335226018 168.9332335891745 0.0 0.0
-64.1892045545311 17.036921462920912 -14.143608580524136 168.9839351214486 0.0 0.0
-53.44520539337713 -3.973711273221797 -17.226716692891447 172.47383801419056 0.0 0.0
-21.440212553356275 -88.93208117576685 -33.112341908552075 152.71490185327858 0.0 0.0
-89.82968663891731 -369.4401551355001 -137.77239963731705 102.9697466219799 0.0 0.0
-72.9268326965998 -283.01768510391355 -106.78335534015399 -93.3502323990821 0.0 0.0
-36.70327636566505 -87.59830494456759 -37.29074758289032 -142.03266443353374 0.0 0.0
-73.0398822567329 -5.53808634356366 -23.572569330174613 -168.62707440665562 0.0 0.0
-99.89821161231117 15.58293914539178 -25.298431834211073 -166.6770625187496 0.0 0.0
-124.0401271851252 17.003436641684065 -32.11202064043088 -165.00130327278853 0.0 0.0
-160.60688105677622 14.112590920465461 -43.66374189254944 -172.03062302526325 0.0 0.0
-222.09518797711212 6.031324867715822 -64.53265768411713 -177.7623311717665 0.0 0.0
-314.81847861982703 3.4466706470641437 -96.04786201101037 -178.77083021389456 0.0 0.0
-409.7003094476812 -6.408277227214988 -144.28492976677475 -163.96648385875082 0.0 0.0
-488.91804446055903 -13.846493427420512 -197.09036404763864 -153.724977321329 0.0 0.0
-549.1546724009761 -20.110436211191583 -244.34474797641275 -145.66374265168915 0.0 0.0
-598.8623453354849 -27.195411413360702 -283.37249937640775 -140.99566729169945 0.0 0.0
-643.644408382467 -37.964046354667445 -318.69890405931454 -136.8851312328929 0.0 0.0
-683.2490738830137 -47.67942542943461 -348.1506056005382 -133.66427123143754 0.0 0.0
-717.2929932013157 -54.29687344007144 -371.34234346223207 -131.8705065394065 0.0 0.0
-740.9430790697769 -53.85523861829763 -384.55783104037596 -132.39540641781548 0.0 0.0
-751.6229439196768 -46.427794044989156 -386.7017015080061 -136.5042269452853 0.0 0.0
-747.7682660992957 -34.7116767868842 -378.99414899115004 -144.52350364662936 0.0 0.0
-715.388305634583 -3.9711039575704206 -349.2419049399082 -154.1075261219267 0.0 0.0
-667.043589450438 30.94142380245968 -310.5995504121328 -157.33697569150505 0.0 0.0
-1530.6272689749856 -1085.690990212843 -1259.5247155092582 -3.531397396727698e-12 0.0 0.0
-667.0435894500678 30.941423802640244 -310.59955041193905 157.33697569167802 0.0 0.0
-715.3883056338113 -3.97110395696194 -349.24190493934117 154.10752612211897 0.0 0.0
-747.7682660987896 -34.71167678647292 -378.99414899081603 144.52350364686848 0.0 0.0
-751.622943920444 -46.427794046076066 -386.7017015085631 136.50422694550684 0.0 0.0
-740.9430790696775 -53.8552386182679 -384.55783104031104 132.39540641781045 0.0 0.0
-717.2929932004464 -54.29687343917789 -371.3423434615831 131.87050653933392 0.0 0.0
-683.2490738823374 -47.67942542887272 -348.15060560006845 133.66427123142702 0.0 0.0
-643.6444083824459 -37.964046354980624 -318.6989040593096 136.88513123295826 0.0 0.0
-598.8623453352593 -27.19541141340276 -283.3724993761851 140.9956672916972 0.0 0.0
-549.1546724008989 -20.110436211490832 -244.34474797631853 145.66374265172058 0.0 0.0
-488.9180444599842 -13.846493427211957 -197.09036404721297 153.72497732127857 0.0 0.0
-409.70030944693394 -6.408277226817388 -144.28492976630002 163.9664838588093 0.0 0.0
-314.81847861944954 3.446670646716453 -96.04786201094612 178.77083021398272 0.0 0.0
-222.09518797640794 6.031324868059945 -64.53265768382573 177.76233117156403 0.0 0.0
-160.60688105663303 14.112590920296025 -43.66374189255998 172.03062302504543 0.0 0.0
-124.04012718493821 17.0034366418479 -32.11202064032536 165.0013032726605 0.0 0.0
-99.89821161222969 15.582939145257779 -25.298431834231273 166.6770625185389 0.0 0.0
-73.03988225665694 -5.538086343514943 -23.5725693301367 168.62707440649842 0.0 0.0
-36.70327636563655 -87.59830494454337 -37.29074758287417 142.0326644333964 0.0 0.0
-72.92683269648892 -283.0176851036052 -106.78335534002822 93.3502323989943 0.0 0.0
-58.78043054414027 -209.43126604331778 -80.46350897623739 -81.9333728680287 0.0 0.0
-48.32670891595705 -81.57831152468177 -38.971454839267196 -129.67626288497638 0.0 0.0
-91.29028157803991 -6.5073535680694015 -29.34048645892824 -160.74270935219522 0.0 0.0
-133.9503747196985 13.982375193987801 -35.98498100536675 -160.2973255926524 0.0 0.0
-176.36567955352584 16.92047445760641 -47.754488026135675 -157.13894575015408 0.0 0.0
-233.18657233326246 13.890147393912642 -65.73343479456402 -156.63583619176782 0.0 0.0
-327.6231146480148 5.356065937267014 -97.6864912770175 -159.61265492472643 0.0 0.0
-428.2880025238567 -11.177764346052458 -150.77628180333483 -147.3543256110509 0.0 0.0
-518.6294746366615 -23.368956303825172 -215.18283204540808 -140.51509266300718 0.0 0.0
-588.6036879915588 -28.40291193403544 -271.61582640560243 -136.56136983168398 0.0 0.0
-641.6808538250756 -36.97794778477761 -316.7871999375639 -130.81652433750875 0.0 0.0
-690.3412775787715 -48.61807452097587 -354.81884175250775 -126.86580251851534 0.0 0.0
-737.7982056398693 -62.95794272166372 -389.84484647171496 -122.96812527326553 0.0 0.0
-782.1867474589466 -77.46717722225796 -421.37783412320204 -119.48844402902036 0.0 0.0
-821.9501025935064 -88.62295306891872 -447.83762127412365 -117.32789718594763 0.0 0.0
-850.2505524065195 -91.49045878562815 -463.99976120907627 -117.78417138822263 0.0 0.0
-863.0746029946561 -82.8932952921166 -466.40477275261986 -122.29442822067496 0.0 0.0
-850.9545423834334 -57.31304675986445 -448.14996326976984 -129.83771681670257 0.0 0.0
-811.9487707162504 -14.550782891243983 -408.7953459243844 -136.95576742489675 0.0 0.0
-719.3333683528057 65.53222115130865 -328.6700869193035 -142.45787920996995 0.0 0.0
-1967.6237416209688 -1323.7064882540008 -1607.0812683738213 3.6280312087910715e-11 0.0 0.0
-719.3333683513777 65.53222115277833 -328.67008691838333 142.45787920996287 0.0 0.0
-811.9487707146744 -14.550782889598324 -408.79534592330026 136.95576742496283 0.0 0.0
-850.9545423827008 -57.31304675931003 -448.1499632692612 129.8377168168595 0.0 0.0
-863.0746029953848 -82.89329529313706 -466.4047727531074 122.29442822098224 0.0 0.0
-850.2505524063813 -91.49045878551414 -463.99976120898657 117.78417138816306 0.0 0.0
-821.9501025930365 -88.62295306854683 -447.83762127375013 117.32789718591096 0.0 0.0
-782.1867474585556 -77.467177221989 -421.3778341229281 119.48844402901221 0.0 0.0
-737.7982056398154 -62.957942721790914 -389.84484647167665 122.96812527328584 0.0 0.0
-690.3412775781794 -48.61807452058706 -354.8188417520593 126.86580251843922 0.0 0.0
-641.6808538251198 -36.977947785139754 -316.787199937568 130.81652433754172 0.0 0.0
-588.6036879912291 -28.40291193407395 -271.61582640532043 136.5613698316915 0.0 0.0
-518.6294746363209 -23.36895630395866 -215.18283204508646 140.51509266303555 0.0 0.0
-428.28800252333207 -11.177764346072214 -150.77628180302543 147.35432561112563 0.0 0.0
-327.62311464727134 5.356065937664354 -97.68649127664827 159.61265492464491 0.0 0.0
-233.18657233278324 13.890147393956468 -65.73343479443328 156.63583619149418 0.0 0.0
-176.3656795532899 16.92047445753317 -47.754488026094 157.13894575002402 0.0 0.0
-133.95037471951514 13.982375194034196 -35.98498100529689 160.29732559250053 0.0 0.0
-91.2902815778863 -6.507353567910519 -29.34048645883409 160.74270935204973 0.0 0.0
-48.32670891599618 -81.57831152476565 -38.97145483930413 129.67626288482379 0.0 0.0
-58.78043054411257 -209.43126604307588 -80.46350897615649 81.93337286792395 0.0 0.0
-47.926628946020486 -147.89760045354757 -58.7472688198704 -69.89287935108197 0.0 0.0
-57.5883737916666 -72.2811125707529 -38.960845908725844 -115.41131172144685 0.0 0.0
-108.51233037384912 -6.729173829609282 -34.573002276495814 -148.97545267639168 0.0 0.0
-166.41278906569698 12.04533997538187 -46.31767486823218 -149.51062094132342 0.0 0.0
-225.97788626572202 15.630547388835472 -63.02723866500874 -144.16697150123633 0.0 0.0
-309.6070813349838 14.223256092411468 -87.79183673112965 -141.21106989122154 0.0 0.0
-414.2324373097911 -4.868960700585303 -135.33411872790373 -130.210794167881 0.0 0.0
-514.7772608960126 -23.77152791053276 -203.9245157103235 -123.13304127571209 0.0 0.0
-596.4727027424985 -31.567105505564488 -271.21571225294593 -121.29150757641229 0.0 0.0
-654.0690002024878 -42.604262476383646 -325.5718049093099 -116.8466355475323 0.0 0.0
-708.50746339058 -52.87873495633182 -367.8688060011814 -114.43357984372287 0.0 0.0
-759.5379931019161 -68.08089266145059 -405.6737101473343 -111.24240728445515 0.0 0.0
-810.7104570705612 -87.00912867807898 -442.8405308205819 -107.73985376923379 0.0 0.0
-860.6225970853097 -106.57076478281627 -478.4412084183907 -104.41584831916552 0.0 0.0
-906.1386013169706 -123.20234625658276 -509.8510233140366 -102.05491316962855 0.0 0.0
-940.2688979111607 -129.3089708478027 -530.218662483701 -102.29914725468359 0.0 0.0
-951.679148962967 -118.60869905197109 -530.9373093570546 -105.94631196008088 0.0 0.0
-930.803988331517 -80.4986470476119 -502.07488499722103 -112.51331591796082 0.0 0.0
-870.1324936826867 -13.002966937197229 -439.6017738941789 -118.95040246162586 0.0 0.0
-747.7148416583699 98.47020051690151 -327.54262602450285 -124.5833080556304 0.0 0.0
-2307.998035798907 -1562.2753033879546 -1903.93792780838 4.597566771735728e-11 0.0 0.0
-747.7148416577671 98.47020051746061 -327.5426260240631 124.58330805576485 0.0 0.0
-870.1324936826843 -13.00296693731957 -439.6017738941402 118.9504024618659 0.0 0.0
-930.8039883314253 -80.4986470476117 -502.0748849972109 112.51331591807588 0.0 0.0
-951.6791489631764 -118.60869905229423 -530.9373093571959 105.94631196012598 0.0 0.0
-940.2688979109187 -129.30897084767605 -530.2186624834669 102.29914725470721 0.0 0.0
-906.1386013164112 -123.20234625610539 -509.8510233136002 102.05491316962741 0.0 0.0
-860.6225970851939 -106.57076478288485 -478.4412084182894 104.41584831918209 0.0 0.0
-810.7104570707568 -87.00912867845753 -442.8405308207318 107.7398537692522 0.0 0.0
-759.5379931014227 -68.08089266112601 -405.67371014698824 111.24240728441553 0.0 0.0
-708.5074633905331 -52.87873495654137 -367.86880600115103 114.43357984367319 0.0 0.0
-654.0690002021912 -42.604262476434045 -325.5718049090789 116.84663554757104 0.0 0.0
-596.4727027424374 -31.567105505950718 -271.2157122527841 121.29150757651824 0.0 0.0
-514.7772608952985 -23.771527910186087 -203.92451570978204 123.13304127568664 0.0 0.0
-414.2324373091714 -4.868960700299705 -135.3341187275313 130.2107941677969 0.0 0.0
-309.6070813345042 14.223256092281202 -87.7918367310453 141.2110698911294 0.0 0.0
-225.97788626555166 15.63054738869062 -63.02723866500313 144.16697150112867 0.0 0.0
-166.41278906563235 12.04533997526953 -46.31767486824796 149.51062094119382 0.0 0.0
-108.51233037377496 -6.729173829612013 -34.57300227647415 148.975452676261 0.0 0.0
-57.588373791600674 -72.28111257073773 -38.96084590870151 115.41131172131334 0.0 0.0
-47.92662894587358 -147.89760045335782 -58.747268819769424 69.89287935096823 0.0 0.0
-40.24202057054975 -97.93446110617745 -41.452944503018166 -57.5455483306778 0.0 0.0
-65.11278493324261 -60.98304594575589 -37.828749263699535 -99.35197595297771 0.0 0.0
-124.82717928654817 -6.164659585633928 -39.29784603133281 -133.38469395411266 0.0 0.0
-197.34491028488878 9.999085751677647 -56.204116362198235 -134.69276291204517 0.0 0.0
-273.22740046566037 12.717907838659505 -78.16429655044703 -126.40693109382434 0.0 0.0
-379.71847941896317 8.624281767459628 -112.39479328127516 -118.13517793819965 0.0 0.0
-487.1916624590024 -15.732002026840277 -174.70483800441357 -104.60058747033696 0.0 0.0
-582.9553105291178 -30.430599890829495 -250.36734142971653 -102.11434036955993 0.0 0.0
-647.6022477391389 -42.445501593422776 -315.7715471800441 -99.68700542671336 0.0 0.0
-708.18913077707 -52.89588804330271 -365.9716686716008 -99.11777991682757 0.0 0.0
-762.9168742453315 -67.95973778750734 -407.76628584505977 -97.2916478900265 0.0 0.0
-817.6596648773916 -87.61285278990243 -447.6642511765894 -94.69120810530892 0.0 0.0
-873.2976890715275 -110.90593437769975 -488.19373803635807 -91.72604981899231 0.0 0.0
-927.9411690251952 -134.56684948076412 -527.6895118404925 -88.80447384892047 0.0 0.0
-979.394203709029 -156.53884734979576 -564.4351793033312 -86.5020070473014 0.0 0.0
-1018.6416863826619 -167.8818300176018 -589.9085196790166 -85.8428520731912 0.0 0.0
-1029.8043050765245 -153.06884494838494 -588.4771845537556 -88.44438600715624 0.0 0.0
-996.4541340026774 -101.24174615257641 -546.6099017871647 -93.94181826915114 0.0 0.0
-911.3865720242907 -8.694339123607975 -459.2689550710188 -100.11500656187161 0.0 0.0
-764.8666449387927 127.33051986446371 -321.45006673709537 -108.52529017059032 0.0 0.0
-2607.442037506358 -1795.1679755897278 -2175.411123775228 8.380851568290382e-11 0.0 0.0
-764.8666449393695 127.33051986371972 -321.45006673755097 108.52529017088673 0.0 0.0
-911.3865720253461 -8.694339124819834 -459.268955071695 100.1150065621587 0.0 0.0
-996.4541340029838 -101.24174615297093 -546.6099017873671 93.94181826925707 0.0 0.0
-1029.8043050764934 -153.06884494842774 -588.4771845537355 88.44438600711594 0.0 0.0
-1018.6416863820281 -167.8818300171157 -589.9085196784997 85.8428520732876 0.0 0.0
-979.3942037091132 -156.5388473500062 -564.4351793033345 86.50200704737333 0.0 0.0
-927.9411690248445 -134.5668494805618 -527.689511840196 88.8044738489232 0.0 0.0
-873.2976890715756 -110.90593437794024 -488.19373803641565 91.72604981899529 0.0 0.0
-817.6596648768857 -87.61285278961184 -447.6642511762221 94.69120810530993 0.0 0.0
-762.9168742450818 -67.959737787496 -407.76628584490356 97.2916478900044 0.0 0.0
-708.1891307764275 -52.89588804288486 -365.9716686711306 99.1177799167667 0.0 0.0
-647.6022477394706 -42.445501594179945 -315.771547180122 99.68700542680307 0.0 0.0
-582.9553105285434 -30.43059989059004 -250.36734142921205 102.11434036953601 0.0 0.0
-487.1916624588282 -15.732002027110118 -174.7048380042276 104.60058747023874 0.0 0.0
-379.7184794183605 8.624281767592041 -112.39479328103788 118.13517793815862 0.0 0.0
-273.22740046540355 12.717907838524432 -78.16429655042471 126.40693109375238 0.0 0.0
-197.34491028468412 9.99908575167925 -56.20411636213734 134.69276291200583 0.0 0.0
-124.82717928649166 -6.164659585811821 -39.297846031369104 133.38469395402734 0.0 0.0
-65.11278493318231 -60.983045945640015 -37.82874926364669 99.35197595288723 0.0 0.0
-40.24202057055614 -97.93446110613299 -41.45294450300672 57.545548330541116 0.0 0.0
-35.34095790781709 -59.30749493134836 -28.394535851749637 -45.04189888214385 0.0 0.0
-71.03144524925317 -48.72715087821663 -35.92757883824093 -81.65868428190223 0.0 0.0
-140.21598676103733 -4.979929054422509 -43.55877474463796 -114.085849130471 0.0 0.0
-226.71694630065798 7.779579700054304 -65.68850604685419 -115.6136464047267 0.0 0.0
-323.6603436658424 9.689617940505498 -93.54120573380439 -106.28295170378321 0.0 0.0
-435.66886469841563 -4.8007813009912415 -140.32306282650944 -88.70217509087102 0.0 0.0
-549.1733117729734 -22.89759614568091 -212.4501611789445 -81.62669203894012 0.0 0.0
-626.8607681863508 -38.360935934950305 -289.4399341566447 -80.55322130365856 0.0 0.0
-692.8353742968075 -48.941234563457506 -350.2927501430752 -80.81160761671697 0.0 0.0
-752.3346875809605 -63.8483003624046 -398.7871859389622 -80.57227126264755 0.0 0.0
-810.2831703444165 -83.095510955318 -441.82805330563684 -79.47117408874703 0.0 0.0
-869.1779420368748 -107.0204505135312 -484.82582685772286 -77.49431290743533 0.0 0.0
-929.1759449886673 -134.20250302093717 -528.9595825614786 -75.09930477703072 0.0 0.0
-987.7463995631817 -162.62041420320668 -572.5664058955733 -72.67174214856396 0.0 0.0
-1043.3618636416136 -187.80734902478935 -612.8868547277797 -70.58630721643308 0.0 0.0
-1088.1728708168414 -203.3163912722984 -643.0966599987828 -69.22710679805769 0.0 0.0
-1101.6630868606617 -190.56916583000373 -643.8951194400668 -69.91372063618061 0.0 0.0
-1057.0785932875388 -125.57590853218588 -589.9330539874218 -74.23266412924353 0.0 0.0
-946.5251342845966 -6.071765473523399 -476.14980944272315 -81.6664418714779 0.0 0.0
-771.2909609147235 157.89092796265524 -308.76754591962373 -94.54858814043925 0.0 0.0
-2876.6049585812075 -2015.6056273969125 -2424.53179042583 2.1437074337882223e-11 0.0 0.0
-771.2909609150588 157.8909279622302 -308.76754591997366 94.5485881405717 0.0 0.0
-946.5251342858212 -6.071765474895514 -476.14980944350236 81.66644187174767 0.0 0.0
-1057.078593287279 -125.57590853200706 -589.93305398715 74.23266412935477 0.0 0.0
-1101.6630868604075 -190.56916582983416 -643.8951194399067 69.91372063621442 0.0 0.0
-1088.1728708159299 -203.31639127148551 -643.0966599981265 69.22710679806985 0.0 0.0
-1043.361863641924 -187.80734902526254 -612.8868547279303 70.58630721648744 0.0 0.0
-987.7463995628436 -162.62041420303353 -572.5664058953105 72.67174214861622 0.0 0.0
-929.1759449888913 -134.20250302136887 -528.9595825616603 75.09930477710014 0.0 0.0
-869.1779420357476 -107.02045051253813 -484.8258268569442 77.49431290732852 0.0 0.0
-810.2831703440911 -83.09551095525038 -441.82805330541754 79.47117408876224 0.0 0.0
-752.3346875803059 -63.84830036193437 -398.7871859384783 80.57227126253734 0.0 0.0
-692.835374296609 -48.9412345636195 -350.2927501428301 80.81160761678844 0.0 0.0
-626.8607681859924 -38.36093593493209 -289.43993415627085 80.55322130368118 0.0 0.0
-549.1733117726507 -22.897596145797873 -212.45016117860953 81.62669203888234 0.0 0.0
-435.6688646976963 -4.800781300630037 -140.32306282611802 88.7021750907619 0.0 0.0
-323.6603436653419 9.689617940747612 -93.54120573359513 106.28295170368492 0.0 0.0
-226.71694630046193 7.7795797000243425 -65.68850604680492 115.61364640460043 0.0 0.0
-140.21598676088996 -4.9799290543465355 -43.55877474457093 114.08584913036678 0.0 0.0
-71.0314452491822 -48.72715087810163 -35.92757883818515 81.65868428184376 0.0 0.0
-35.34095790779885 -59.30749493130552 -28.39453585173131 45.04189888205176 0.0 0.0
-32.56646543403669 -31.889432597526188 -19.336769409468857 -32.670526666409 0.0 0.0
-75.05215767556714 -36.41951813475432 -33.44150274309644 -62.535255556975514 0.0 0.0
-154.38883036911912 -3.4680477821963405 -47.357063445394616 -91.0099986057404 0.0 0.0
-255.21452669946908 5.195930526059811 -75.00306846983528 -92.29819382399836 0.0 0.0
-372.33207437171706 3.585847167479895 -110.25009632886375 -80.70037238255962 0.0 0.0
-493.97553198251984 -13.250440884387087 -168.66290650667673 -64.05895017332836 0.0 0.0
-591.5981257442161 -30.568423080067987 -247.69715769286927 -60.35737955303732 0.0 0.0
-663.8838346625096 -42.1019173769766 -320.13088708795794 -60.63222714887281 0.0 0.0
-729.3328289766026 -56.63713250127185 -378.7949285169934 -61.350291398415145 0.0 0.0
-790.9084370621258 -74.89601369332357 -426.80862359920604 -61.6139001464712 0.0 0.0
-852.2143842678856 -98.30174971850109 -472.0730426713976 -61.006387411482066 0.0 0.0
-915.5347948982178 -126.48770885660517 -518.7522866434531 -59.5888506010646 0.0 0.0
-979.6590607358447 -158.48532692727534 -567.0893945997593 -57.706923034059315 0.0 0.0
-1042.0578133308381 -188.744859124033 -613.4179146255136 -55.98771541520417 0.0 0.0
-1099.401390557257 -216.06623895448703 -655.6347956825593 -54.335393106381595 0.0 0.0
-1147.6990458735613 -235.45940710043698 -689.4322747781953 -52.47397404385472 0.0 0.0
-1169.4083352543448 -229.61230743781053 -697.678027979 -51.16686301767604 0.0 0.0
-1122.1815391759278 -160.4525766123295 -640.394837148774 -53.69219959994418 0.0 0.0
-983.857462387028 -11.84557111937572 -498.08857498205595 -63.11716648963789 0.0 0.0
-765.5026500144058 195.78655831769223 -286.28341325518477 -81.4391890936214 0.0 0.0
-3115.5375638672613 -2213.8225914224267 -2646.8071360117206 4.68070027181966e-11 0.0 0.0
-765.5026500146716 195.7865583173708 -286.28341325536485 81.43918909374655 0.0 0.0
-983.8574623877407 -11.845571120168131 -498.088574982401 63.11716648974039 0.0 0.0
-1122.1815391756818 -160.45257661215956 -640.3948371486491 53.69219959998301 0.0 0.0
-1169.4083352539694 -229.61230743752313 -697.6780279787831 51.16686301773577 0.0 0.0
-1147.6990458727823 -235.4594070997358 -689.4322747775996 52.47397404384786 0.0 0.0
-1099.4013905569911 -216.06623895436638 -655.6347956823396 54.33539310641627 0.0 0.0
-1042.0578133302397 -188.74485912355743 -613.4179146250411 55.987715415136925 0.0 0.0
-979.6590607354858 -158.48532692715145 -567.0893945995507 57.706923034160305 0.0 0.0
-915.5347948975344 -126.48770885610014 -518.7522866429566 59.58885060107187 0.0 0.0
-852.214384267719 -98.3017497186115 -472.0730426712952 61.00638741156991 0.0 0.0
-790.9084370617202 -74.89601369313735 -426.80862359892785 61.61390014641603 0.0 0.0
-729.3328289764302 -56.63713250140323 -378.79492851680436 61.35029139846586 0.0 0.0
-663.883834662332 -42.101917377099724 -320.13088708769516 60.63222714882986 0.0 0.0
-591.5981257437494 -30.568423079923708 -247.69715769241657 60.35737955297038 0.0 0.0
-493.9755319818478 -13.250440884006313 -168.66290650624234 64.058950173243 0.0 0.0
-372.33207437130835 3.5858471673149865 -110.2500963287972 80.70037238248935 0.0 0.0
-255.21452669926862 5.195930526033072 -75.00306846978337 92.2981938238751 0.0 0.0
-154.38883036888114 -3.4680477819447946 -47.35706344524776 91.00999860568626 0.0 0.0
-75.05215767553146 -36.4195181348131 -33.44150274310337 62.535255556952315 0.0 0.0
-32.566465434031805 -31.889432597517498 -19.336769409464786 32.6705266663689 0.0 0.0
-30.789795031549474 -15.40980810493195 -13.859880940944427 -21.148684562628922 0.0 0.0
-76.37639869264765 -25.01817202018615 -30.418371213850136 -42.25317208148258 0.0 0.0
-166.91334554377852 -2.1915130534799347 -50.73145757917753 -63.73570972004426 0.0 0.0
-283.45697608035266 2.2320636462690007 -84.36093453748045 -64.3718558220587 0.0 0.0
-416.7219698822464 -6.641763654017157 -129.48276882685133 -51.7993299783429 0.0 0.0
-541.2287368765155 -21.38755916563077 -197.79906283278245 -40.901516769927014 0.0 0.0
-621.3407458194397 -35.32403157684308 -276.95702410807235 -39.74050337935445 0.0 0.0
-695.0280144314625 -47.3481734427756 -346.55221855210203 -40.97177433704507 0.0 0.0
-760.7049737898117 -64.83500664991863 -402.9371454009451 -41.76009912176213 0.0 0.0
-824.7284885777731 -86.22208921867968 -451.40998467628987 -42.13636038061791 0.0 0.0
-890.1776631231285 -113.50593764550914 -499.693145688223 -41.889652723275894 0.0 0.0
-957.5121697975462 -146.11522263251368 -550.2266487629316 -40.95921444384776 0.0 0.0
-1026.2023999559594 -181.01763267929906 -602.1354802847645 -39.789468762052145 0.0 0.0
-1091.6018462564043 -215.39188886551392 -651.9817045817138 -38.62168107043746 0.0 0.0
-1150.1810882062005 -243.19161232348392 -695.0738314719424 -37.504212769410074 0.0 0.0
-1196.237864815309 -259.91983906391977 -726.3790013580408 -35.87867260370714 0.0 0.0
-1224.5135122843024 -260.99237305154065 -741.1262203866363 -33.395803369575766 0.0 0.0
-1204.920831728659 -218.55534267527713 -710.8594187902212 -32.948033610546595 0.0 0.0
-1043.1958518807558 -44.08646613485675 -544.1084682714061 -42.65841159776397 0.0 0.0
-739.0860924796493 251.3204601943819 -244.86655189207062 -67.9481622056356 0.0 0.0
-3309.2723751827966 -2371.443576569749 -2825.7579088230937 6.45172804070171e-12 0.0 0.0
-739.0860924798352 251.32046019413627 -244.86655189216648 67.94816220576173 0.0 0.0
-1043.1958518813071 -44.086466135482134 -544.1084682717988 42.65841159786967 0.0 0.0
-1204.9208317285866 -218.55534267525812 -710.8594187901616 32.94803361062637 0.0 0.0
-1224.5135122845754 -260.99237305189706 -741.1262203867989 33.395803369549704 0.0 0.0
-1196.237864814631 -259.9198390633436 -726.3790013574674 35.87867260373483 0.0 0.0
-1150.1810882059046 -243.1916123233197 -695.0738314716859 37.50421276941185 0.0 0.0
-1091.6018462554819 -215.39188886472084 -651.9817045809953 38.621681070360616 0.0 0.0
-1026.2023999551702 -181.01763267868697 -602.1354802842603 39.789468762090436 0.0 0.0
-957.512169797005 -146.11522263217174 -550.2266487625392 40.95921444381511 0.0 0.0
-890.1776631228031 -113.50593764541398 -499.6931456880062 41.88965272326979 0.0 0.0
-824.7284885772027 -86.22208921831553 -451.40998467584774 42.1363603805067 0.0 0.0
-760.704973789346 -64.83500664972729 -402.93714540056806 41.760099121730185 0.0 0.0
-695.0280144310968 -47.348173442720196 -346.5522185517424 40.97177433710053 0.0 0.0
-621.3407458192307 -35.324031577010494 -276.95702410778057 39.740503379368555 0.0 0.0
-541.228736875932 -21.38755916531852 -197.79906283232674 40.901516769838224 0.0 0.0
-416.7219698817289 -6.641763654088596 -129.48276882672027 51.79932997836477 0.0 0.0
-283.45697608008504 2.2320636464166723 -84.36093453735212 64.37185582201315 0.0 0.0
-166.91334554354728 -2.191513053352702 -50.731457579069996 63.73570972006561 0.0 0.0
-76.37639869259269 -25.018172020287604 -30.418371213864088 42.253172081465 0.0 0.0
-30.78979503147802 -15.409808104886459 -13.85988094090934 21.14868456258439 0.0 0.0
-27.866721020341323 -8.957129020925954 -11.047155012380182 -12.081046333761812 0.0 0.0
-73.57922386384465 -15.98423581804937 -26.869037904568213 -21.153498289262394 0.0 0.0
-177.04664778499392 -1.8991274124530277 -53.68373255923407 -31.174231161305823 0.0 0.0
-312.8613161066696 -0.7106742007764737 -94.057703652495 -31.29834487397582 0.0 0.0
-464.400167198749 -14.244144725406594 -149.9206367081629 -23.132555886284358 0.0 0.0
-574.7683898153123 -28.25206344400656 -225.61374118074013 -20.07878819027246 0.0 0.0
-649.1151811094738 -36.58127730774342 -300.8653696971094 -21.00803727509138 0.0 0.0
-721.2007531053971 -53.40498016456401 -368.96002439120554 -21.71948811580829 0.0 0.0
-788.0531958449467 -73.01937006694402 -423.6148640164448 -22.008314652629117 0.0 0.0
-854.8888262087032 -97.99922557607982 -473.6967191027112 -22.167577264343556 0.0 0.0
-924.2301433775426 -129.0461385416975 -525.1800466928801 -22.0404120998215 0.0 0.0
-996.0607477722301 -164.78003776886374 -579.3081877507232 -21.705609255346236 0.0 0.0
-1068.1507045872331 -204.09483916139476 -635.0339682248685 -21.147799001993253 0.0 0.0
-1137.5138982989292 -240.96795266038401 -688.0802726208132 -20.598297980304274 0.0 0.0
-1196.5971711030948 -268.9337859593836 -731.5278863268246 -20.051129593943774 0.0 0.0
-1238.8084015659142 -281.838829805627 -759.0343300684349 -19.048688163330542 0.0 0.0
-1261.1794968871602 -277.66803684355386 -768.1117257728108 -17.03676725837845 0.0 0.0
-1269.4396468791222 -263.44106157311467 -765.3084435643691 -14.602534438595647 0.0 0.0
-1200.2094565449509 -178.87111857387956 -689.5354062379685 -19.35176954585693 0.0 0.0
-726.5868641330646 291.9086593921902 -218.11773373585737 -48.3725589671735 0.0 0.0
-3321.9769525418437 -2348.8899338326664 -2824.5550688040817 2.262545706344099e-11 0.0 0.0
-726.5868641331484 291.9086593920758 -218.1177337358754 48.372558967250676 0.0 0.0
-1200.2094565453756 -178.87111857436685 -689.5354062382777 19.351769545923297 0.0 0.0
-1269.4396468796665 -263.44106157371607 -765.3084435647395 14.602534438551977 0.0 0.0
-1261.179496887291 -277.6680368437924 -768.1117257728741 17.03676725836376 0.0 0.0
-1238.8084015652144 -281.8388298050314 -759.0343300678564 19.048688163336596 0.0 0.0
-1196.597171102585 -268.9337859590049 -731.5278863263766 20.051129593925594 0.0 0.0
-1137.5138982981562 -240.9679526597566 -688.0802726201999 20.598297980361274 0.0 0.0
-1068.1507045869414 -204.0948391612962 -635.0339682246644 21.14779900198371 0.0 0.0
-996.0607477719693 -164.78003776879243 -579.3081877505758 21.705609255325097 0.0 0.0
-924.2301433769584 -129.04613854135144 -525.1800466924875 22.04041209984067 0.0 0.0
-854.8888262080088 -97.99922557562054 -473.6967191021651 22.16757726431902 0.0 0.0
-788.0531958441821 -73.01937006642375 -423.61486401591037 22.0083146526182 0.0 0.0
-721.2007531048756 -53.40498016431377 -368.960024390774 21.71948811588166 0.0 0.0
-649.115181109407 -36.58127730802101 -300.8653696969024 21.008037275118305 0.0 0.0
-574.7683898149977 -28.25206344406505 -225.6137411804265 20.078788190223243 0.0 0.0
-464.40016719803214 -14.244144724930681 -149.9206367077546 23.1325558862793 0.0 0.0
-312.86131610638824 -0.710674200920671 -94.05770365247153 31.29834487397907 0.0 0.0
-177.04664778480026 -1.8991274122724036 -53.68373255912178 31.17423116132455 0.0 0.0
-73.5792238639022 -15.984235818136995 -26.86903790461175 21.153498289157998 0.0 0.0
-27.866721020392408 -8.957129020933342 -11.047155012397722 12.081046333796767 0.0 0.0
-17.06428460634711 -4.3338922091436665 -6.4194530446472315 -7.6288624621141885 0.0 0.0
-62.935593422268546 -8.86908922644244 -21.5414047946133 -8.780882734537906 0.0 0.0
-183.4658469254473 -2.977083807593548 -55.93287921991225 -10.652677778086314 0.0 0.0
-349.74107296718125 -11.157400007154639 -108.15075410351965 -9.861744693239334 0.0 0.0
-523.7302815985057 -43.453908293262515 -182.95607111795547 -3.09241475952566 0.0 0.0
-642.4570108837961 -77.99875174983464 -278.96199713169506 -0.11914626775519466 0.0 0.0
-733.7438619061547 -106.66060269329498 -372.77627481804296 0.24948024127548152 0.0 0.0
-830.5311721129343 -150.08992780760587 -464.8243273864253 -0.5481775861786247 0.0 0.0
-930.1173772725197 -203.4557988102801 -551.6341836691985 -1.6167272341894492 0.0 0.0
-1041.6777201851626 -272.9447011699739 -645.7505239875759 -2.800852532232483 0.0 0.0
-1169.7931578991565 -362.1234394348022 -755.3040805607977 -3.9929350910001613 0.0 0.0
-1314.5358881733202 -471.46790781658206 -882.2628353699009 -5.092960543628157 0.0 0.0
-1472.0229399552595 -594.8759157982004 -1022.2290096609888 -5.831192933590971 0.0 0.0
-1635.9643791316269 -725.9952308649684 -1169.246428148363 -6.529955542701501 0.0 0.0
-1793.9102387308367 -852.488676215643 -1310.9971905450461 -7.047830885322529 0.0 0.0
-1928.0350596239757 -957.1672285282798 -1430.0714606359466 -7.164367190594838 0.0 0.0
-2016.331295690989 -1019.3308922687546 -1505.275240965441 -6.514874620003432 0.0 0.0
-2035.3603013102895 -1016.8796989101668 -1513.8516757828204 -4.518753425824816 0.0 0.0
-2025.1691625222288 -990.8093758941122 -1495.3761460586495 -6.436684243748099 0.0 0.0
-1967.131689237623 -929.6594851045597 -1432.3115634869985 -36.08408023978927 0.0 0.0
-5034.320322156995 -4033.0470886117146 -4505.6088388889475 -1.794830950530013e-11 0.0 0.0
-1967.1316892379302 -929.6594851049099 -1432.3115634871097 36.08408023980609 0.0 0.0
-2025.1691625219682 -990.8093758939036 -1495.376146058291 6.436684243846173 0.0 0.0
-2035.3603013106363 -1016.8796989105956 -1513.851675783064 4.518753425786446 0.0 0.0
-2016.3312956902093 -1019.3308922680656 -1505.2752409647637 6.514874620083539 0.0 0.0
-1928.0350596227795 -957.1672285271808 -1430.0714606349468 7.164367190472319 0.0 0.0
-1793.910238729691 -852.4886762146275 -1310.9971905440043 7.0478308853071 0.0 0.0
-1635.9643791306266 -725.9952308641244 -1169.2464281474731 6.5299555427525675 0.0 0.0
-1472.0229399545367 -594.8759157976614 -1022.229009660323 5.831192933511552 0.0 0.0
-1314.5358881733464 -471.46790781684376 -882.2628353698315 5.092960543645891 0.0 0.0
-1169.793157898333 -362.12343943419376 -755.3040805601186 3.9929350910892047 0.0 0.0
-1041.6777201844238 -272.9447011694697 -645.7505239869242 2.800852532143754 0.0 0.0
-930.1173772720672 -203.4557988101103 -551.6341836688104 1.6167272340854133 0.0 0.0
-830.5311721123605 -150.08992780730767 -464.824327385909 0.5481775862244298 0.0 0.0
-733.7438619057986 -106.66060269324487 -372.7762748176269 -0.24948024127509782 0.0 0.0
-642.4570108834248 -77.99875174980703 -278.961997131288 0.1191462677773174 0.0 0.0
-523.7302815978915 -43.453908292950935 -182.9560711175718 3.092414759522079 0.0 0.0
-349.74107296691705 -11.157400007336609 -108.15075410349883 9.861744693307806 0.0 0.0
-183.46584692516592 -2.9770838073077854 -55.93287921974212 10.65267777804403 0.0 0.0
-62.93559342220736 -8.869089226477861 -21.54140479460556 8.78088273436932 0.0 0.0
-17.06428460630371 -4.33389220913226 -6.41945304463079 7.628862462230236 0.0 0.0
SCALARS Strain float 6
LOOKUP_TABLE default
0.011513603047687799 -0.019914078164260628 0.0 -0.0007360955384795838 0.0 0.0
0.007087653556710994 -0.0015636659788175395 0.0 -0.006114780874443079 0.0 0.0
0.002242487788892082 -0.0006200010329945962 0.0 -0.0006078772248696417 0.0 0.0
0.0020166507008786373 -0.000807692042688481 0.0 -3.919956501907019e-05 0.0 0.0
0.002685961463868638 -0.0010877469176235528 0.0 7.318922695404518e-05 0.0 0.0
0.004089374642694196 -0.002086663878634836 0.0 0.0001586874930797699 0.0 0.0
0.006429117789602536 -0.003994747566721321 0.0 0.00020815901039285714 0.0 0.0
0.009803728573907992 -0.006913859083878418 0.0 0.00022703632437847117 0.0 0.0
0.014317964145605998 -0.010949405600873388 0.0 0.0002247937736485934 0.0 0.0
0.02002693653377431 -0.016106109675665337 0.0 0.00019043663124543845 0.0 0.0
0.02697821497999483 -0.022400237939422883 0.0 0.00016664492740545877 0.0 0.0
0.035255276017025196 -0.029912696225044118 0.0 0.00014879697552885353 0.0 0.0
0.044952092641340036 -0.038766669977168974 0.0 7.04858341815806e-05 0.0 0.0
0.056150048436533304 -0.0490729571802694 0.0 -1.996897506565884e-05 0.0 0.0
0.06883707015103528 -0.06086642692900286 0.0 -0.000180795203192322 0.0 0.0
0.08274580314531717 -0.07392882119873287 0.0 -0.00043043194574767245 0.0 0.0
0.09723477975390676 -0.08766177968326683 0.0 -0.0007305000985499781 0.0 0.0
0.11126296791231663 -0.10106822085541417 0.0 -0.0009631589017743889 0.0 0.0
0.12350367756782821 -0.11284550404589738 0.0 -0.0009615076757699547 0.0 0.0
0.13244358980466944 -0.12153471687181888 0.0 -0.0009540546756268112 0.0 0.0
0.13588772303581584 -0.1250097203711977 0.0 1.695692197767329e-15 0.0 0.0
0.13244358980465526 -0.12153471687180839 0.0 0.0009540546756335259 0.0 0.0
0.12350367756779787 -0.11284550404587088 0.0 0.0009615076757741401 0.0 0.0
0.11126296791227253 -0.10106822085536996 0.0 0.0009631589017775116 0.0 0.0
0.09723477975385547 -0.08766177968321778 0.0 0.0007305000985489305 0.0 0.0
0.0827458031452638 -0.07392882119868414 0.0 0.0004304319457463868 0.0 0.0
0.06883707015098152 -0.06086642692895544 0.0 0.00018079520319190393 0.0 0.0
0.05615004843647893 -0.04907295718022146 0.0 1.9968975064359098e-05 0.0 0.0
0.04495209264128565 -0.038766669977118036 0.0 -7.048583418317882e-05 0.0 0.0
0.035255276016973876 -0.0299126962249993 0.0 -0.0001487969755299336 0.0 0.0
0.026978214979950628 -0.022400237939386232 0.0 -0.00016664492740770974 0.0 0.0
0.020026936533738424 -0.016106109675629147 0.0 -0.00019043663124734323 0.0 0.0
0.014317964145577896 -0.010949405600851073 0.0 -0.00022479377364877432 0.0 0.0
0.009803728573887309 -0.006913859083860548 0.0 -0.00022703632437725066 0.0 0.0
0.006429117789588838 -0.003994747566710743 0.0 -0.00020815901039370453 0.0 0.0
0.0040893746426867 -0.0020866638786289516 0.0 -0.00015868749307930449 0.0 0.0
0.002685961463865475 -0.0010877469176233444 0.0 -7.318922695428475e-05 0.0 0.0
0.00201665070087727 -0.000807692042688583 0.0 3.919956502044524e-05 0.0 0.0
0.0022424877888905627 -0.0006200010329939993 0.0 0.0006078772248690585 0.0 0.0
0.007087653556705958 -0.001563665978814789 0.0 0.00611478087443406 0.0 0.0
0.011513603047679812 -0.01991407816423764 0.0 0.000736095538442898 0.0 0.0
0.007812491664258897 -0.01774764824779772 0.0 -0.0002780078131539396 0.0 0.0
0.0046298214140601405 -0.0011481815479878442 0.0 -0.004810692737755777 0.0 0.0
0.0015421152864658564 -0.0004978589325352595 0.0 -0.0004034797131964218 0.0 0.0
0.0018039439530579673 -0.0007675539455601546 0.0 -0.0002105733990354859 0.0 0.0
0.002352392430639283 -0.0009981264846011429 0.0 -0.00016572237354798083 0.0 0.0
0.0035456946243361334 -0.0018738740708779465 0.0 -0.00019323819516509248 0.0 0.0
0.00563092401543046 -0.0036474559013024536 0.0 -0.0003754799033939558 0.0 0.0
0.008694025695860102 -0.006405061622791808 0.0 -0.0006228389055798558 0.0 0.0
0.012807877703946589 -0.010239379935716894 0.0 -0.0009473884457200652 0.0 0.0
0.017992956656449958 -0.015139739349079012 0.0 -0.0013316505840098854 0.0 0.0
0.024266220458820705 -0.021107162282366816 0.0 -0.0017312445010572797 0.0 0.0
0.03169192052434319 -0.028207598673878842 0.0 -0.002129058519927513 0.0 0.0
0.040389707693920696 -0.03656947483491273 0.0 -0.0025812764354217733 0.0 0.0
0.050467507491079464 -0.04632421000410939 0.0 -0.0031096123256657677 0.0 0.0
0.06192781818600711 -0.05750888930503714 0.0 -0.003708732418545333 0.0 0.0
0.07454264439075292 -0.06992446442061932 0.0 -0.004347544083262819 0.0 0.0
0.08773580124590721 -0.08301206339963553 0.0 -0.004870219099933491 0.0 0.0
0.10057195787060794 -0.09583127751895916 0.0 -0.004990253534250221 0.0 0.0
0.11180893473340721 -0.10713191802248107 0.0 -0.004446994777354973 0.0 0.0
0.11984694577910174 -0.11539748538917685 0.0 -0.0034033241654268633 0.0 0.0
0.12283876162594652 -0.11874134385072668 0.0 4.520689378395559e-15 0.0 0.0
0.11984694577908794 -0.115397485389161 0.0 0.0034033241654407545 0.0 0.0
0.11180893473337988 -0.1071319180224583 0.0 0.004446994777368197 0.0 0.0
0.10057195787056977 -0.09583127751891676 0.0 0.004990253534259132 0.0 0.0
0.0877358012458627 -0.08301206339958908 0.0 0.004870219099934887 0.0 0.0
0.07454264439070545 -0.06992446442057491 0.0 0.004347544083261528 0.0 0.0
0.061927818185958244 -0.05750888930499101 0.0 0.003708732418543721 0.0 0.0
0.05046750749103019 -0.04632421000406186 0.0 0.0031096123256637884 0.0 0.0
0.04038970769387183 -0.03656947483486408 0.0 0.0025812764354187353 0.0 0.0
0.03169192052429711 -0.02820759867383653 0.0 0.002129058519924852 0.0 0.0
0.024266220458780973 -0.02110716228233044 0.0 0.0017312445010531248 0.0 0.0
0.01799295665641746 -0.015139739349047988 0.0 0.0013316505840063539 0.0 0.0
0.012807877703921026 -0.010239379935695493 0.0 0.0009473884457175409 0.0 0.0
0.008694025695841373 -0.006405061622775358 0.0 0.0006228389055786072 0.0 0.0
0.005630924015418376 -0.0036474559012926394 0.0 0.0003754799033914734 0.0 0.0
0.0035456946243299673 -0.0018738740708726894 0.0 0.00019323819516517233 0.0 0.0
0.002352392430636984 -0.000998126484599663 0.0 0.00016572237354775044 0.0 0.0
0.0018039439530572986 -0.000767553945560039 0.0 0.00021057339903633428 0.0 0.0
0.0015421152864658232 -0.0004978589325356456 0.0 0.00040347971319599325 0.0 0.0
0.004629821414054414 -0.0011481815479850797 0.0 0.004810692737745981 0.0 0.0
0.007812491664247282 -0.017747648247774233 0.0 0.00027800781312575665 0.0 0.0
0.005622302188987215 -0.014007126843814742 0.0 -0.0028481479564794673 0.0 0.0
0.003231843294082379 -0.000612472846857555 0.0 -0.004677358306598024 0.0 0.0
0.001090434260610447 -0.000294005246439413 0.0 -0.00039133161694898677 0.0 0.0
0.0015440019825709503 -0.0006648314607872619 0.0 -0.0004752864841876637 0.0 0.0
0.0020499121452423855 -0.0008465989354006669 0.0 -0.00046936350095750333 0.0 0.0
0.003026714757947357 -0.0014780596326142003 0.0 -0.0004891200992348325 0.0 0.0
0.004834732149113216 -0.002960846522584354 0.0 -0.0008247053147763632 0.0 0.0
0.0075735949722461615 -0.005393569739374842 0.0 -0.0013189790345345717 0.0 0.0
0.011270243712975105 -0.008814179449387559 0.0 -0.0019605135436338364 0.0 0.0
0.015921747975527017 -0.013197104960831143 0.0 -0.002706535574874954 0.0 0.0
0.0215188963581964 -0.018510313261867785 0.0 -0.0034925334312232315 0.0 0.0
0.02810739914655864 -0.024795416383601755 0.0 -0.004271721567022399 0.0 0.0
0.03580354218628079 -0.03217798286817727 0.0 -0.005078296015366495 0.0 0.0
0.044743910404914704 -0.040818028602296615 0.0 -0.006011189085080978 0.0 0.0
0.054958436393076036 -0.05077453485613231 0.0 -0.007088364635378602 0.0 0.0
0.06625790067837518 -0.061885963361332466 0.0 -0.008206426245363723 0.0 0.0
0.078158963726929 -0.07367961476501061 0.0 -0.00909200061722036 0.0 0.0
0.08983597756509028 -0.08533476823439788 0.0 -0.009286804897533439 0.0 0.0
0.10010178855848834 -0.09568810597613414 0.0 -0.008379623406813615 0.0 0.0
0.10748209552841809 -0.10322723093972709 0.0 -0.006250063139072425 0.0 0.0
0.11025417144064752 -0.106440740933234 0.0 1.1176389674849574e-14 0.0 0.0
0.10748209552840504 -0.10322723093971421 0.0 0.006250063139095623 0.0 0.0
0.10010178855846398 -0.0956881059761103 0.0 0.00837962340683792 0.0 0.0
0.08983597756505739 -0.08533476823436446 0.0 0.009286804897547296 0.0 0.0
0.07815896372689013 -0.07367961476496843 0.0 0.009092000617220004 0.0 0.0
0.06625790067833269 -0.06188596336129472 0.0 0.008206426245360245 0.0 0.0
0.05495843639303232 -0.05077453485608813 0.0 0.007088364635378137 0.0 0.0
0.04474391040487105 -0.04081802860225788 0.0 0.006011189085079645 0.0 0.0
0.03580354218623781 -0.03217798286813453 0.0 0.0050782960153601675 0.0 0.0
0.028107399146517695 -0.024795416383564393 0.0 0.004271721567016291 0.0 0.0
0.021518896358160483 -0.018510313261832893 0.0 0.0034925334312166396 0.0 0.0
0.01592174797549774 -0.013197104960803454 0.0 0.0027065355748673806 0.0 0.0
0.011270243712952089 -0.008814179449367018 0.0 0.0019605135436293504 0.0 0.0
0.007573594972229428 -0.0053935697393615 0.0 0.0013189790345313483 0.0 0.0
0.004834732149102821 -0.0029608465225751425 0.0 0.0008247053147739363 0.0 0.0
0.0030267147579423528 -0.0014780596326103724 0.0 0.0004891200992347748 0.0 0.0
0.002049912145240553 -0.0008465989353993864 0.0 0.00046936350095773004 0.0 0.0
0.0015440019825703555 -0.0006648314607866149 0.0 0.00047528648418707737 0.0 0.0
0.0010904342606103113 -0.0002940052464410543 0.0 0.00039133161694835435 0.0 0.0
0.0032318432940767056 -0.000612472846854678 0.0 0.004677358306586488 0.0 0.0
0.005622302188975699 -0.014007126843791934 0.0 0.002848147956459723 0.0 0.0
0.0041786494008682895 -0.01120300006130033 0.0 -0.00326124360884604 0.0 0.0
0.0023474507475630953 -0.0004522143866345581 0.0 -0.004278554669950464 0.0 0.0
0.0007823714640680803 -0.0001662844286674968 0.0 -0.000680937375357643 0.0 0.0
0.0012816901064428286 -0.0005347683227748382 0.0 -0.0007271152262941254 0.0 0.0
0.0017666405624337006 -0.0007301405426994332 0.0 -0.0007788689019037175 0.0 0.0
0.002549810902467691 -0.0011595824384272825 0.0 -0.0007818852718103942 0.0 0.0
0.004056396689044046 -0.002309942918649048 0.0 -0.0011262173726128081 0.0 0.0
0.006449227327634407 -0.004396533260700297 0.0 -0.0018329483725640886 0.0 0.0
0.009717206753340361 -0.007388307627777389 0.0 -0.002718333101616974 0.0 0.0
0.01382735299137186 -0.011242268547038387 0.0 -0.0037465686786925453 0.0 0.0
0.018748502970233484 -0.015901826234521802 0.0 -0.0048272605406207165 0.0 0.0
0.024508355666588728 -0.021382535876760204 0.0 -0.005898522205899925 0.0 0.0
0.031214581277064724 -0.027796616469387456 0.0 -0.006993539407170928 0.0 0.0
0.03900545639740488 -0.035311667612368355 0.0 -0.008217567271415416 0.0 0.0
0.04794835568508019 -0.044015995310844484 0.0 -0.009624921239981937 0.0 0.0
0.057917004027617756 -0.05380107428835625 0.0 -0.01110377271161784 0.0 0.0
0.06851447383888823 -0.0642881117754013 0.0 -0.012292776838579914 0.0 0.0
0.07902949615733976 -0.0747803642792321 0.0 -0.012624856858760344 0.0 0.0
0.08839445664798062 -0.08421797568136376 0.0 -0.011516940970671628 0.0 0.0
0.09528529866884008 -0.09123344515591328 0.0 -0.008382893152106694 0.0 0.0
0.09793766480940327 -0.09451097163548232 0.0 1.4086388305800668e-14 0.0 0.0
0.09528529866882783 -0.09123344515590384 0.0 0.008382893152138103 0.0 0.0
0.08839445664795884 -0.08421797568134 0.0 0.011516940970702456 0.0 0.0
0.07902949615731014 -0.07478036427920183 0.0 0.012624856858777782 0.0 0.0
0.06851447383885448 -0.0642881117753649 0.0 0.012292776838581161 0.0 0.0
0.05791700402758117 -0.05380107428832255 0.0 0.011103772711612381 0.0 0.0
0.047948355685041785 -0.04401599531080495 0.0 0.009624921239980088 0.0 0.0
0.039005456397366356 -0.035311667612338414 0.0 0.008217567271412474 0.0 0.0
0.031214581277027094 -0.027796616469351703 0.0 0.006993539407164217 0.0 0.0
0.024508355666553388 -0.02138253587672684 0.0 0.005898522205890519 0.0 0.0
0.018748502970202197 -0.015901826234493936 0.0 0.004827260540611397 0.0 0.0
0.01382735299134617 -0.01124226854701208 0.0 0.0037465686786835144 0.0 0.0
0.009717206753320148 -0.007388307627758415 0.0 0.002718333101611114 0.0 0.0
0.006449227327619923 -0.004396533260688111 0.0 0.001832948372559221 0.0 0.0
0.00405639668903545 -0.002309942918640947 0.0 0.0011262173726112514 0.0 0.0
0.002549810902463527 -0.001159582438424292 0.0 0.0007818852718089857 0.0 0.0
0.0017666405624322257 -0.0007301405426992233 0.0 0.0007788689019036377 0.0 0.0
0.0012816901064428014 -0.0005347683227744592 0.0 0.0007271152262925906 0.0 0.0
0.0007823714640682268 -0.0001662844286681422 0.0 0.0006809373753567983 0.0 0.0
0.002347450747558117 -0.0004522143866318435 0.0 0.004278554669940099 0.0 0.0
0.004178649400858451 -0.011203000061280277 0.0 0.0032612436088325274 0.0 0.0
0.0031232115616026852 -0.008962121262671024 0.0 -0.0029440547375502377 0.0 0.0
0.001730081727826743 -0.0003964293500843014 0.0 -0.0038488820492460383 0.0 0.0
0.0005678179639588409 -9.876441124273257e-05 0.0 -0.0010529984900483219 0.0 0.0
0.0010349853950832313 -0.00040438408432499364 0.0 -0.0009984270707681464 0.0 0.0
0.0014934398829084014 -0.0006214726959148574 0.0 -0.001079514667119687 0.0 0.0
0.0021235497589179335 -0.0009213217462940878 0.0 -0.001085029823829185 0.0 0.0
0.003318673744765348 -0.0017403637617492019 0.0 -0.0013558809015921651 0.0 0.0
0.0053314111435834475 -0.003423112470913272 0.0 -0.0021225938632999978 0.0 0.0
0.00816149617877442 -0.005978094774445142 0.0 -0.0032136735458975652 0.0 0.0
0.011722465083945187 -0.009292604005028937 0.0 -0.004443833543568501 0.0 0.0
0.015969162325689776 -0.013297495826278986 0.0 -0.0057342339808997495 0.0 0.0
0.02090697934279112 -0.017981113246395074 0.0 -0.007008142116922123 0.0 0.0
0.02662842406513014 -0.02343684407708164 0.0 -0.008302524405409612 0.0 0.0
0.03327712356964522 -0.029829117752971666 0.0 -0.009728375537524486 0.0 0.0
0.04093701720952333 -0.03726833776657972 0.0 -0.011343872382147995 0.0 0.0
0.04954221036425788 -0.04570228934683573 0.0 -0.01302962226614243 0.0 0.0
0.05880751723230322 -0.05485112065522154 0.0 -0.014432733988763546 0.0 0.0
0.06814986871871315 -0.06415405043672658 0.0 -0.014956704065861227 0.0 0.0
0.07666016711772904 -0.07271531596169899 0.0 -0.013791991598098501 0.0 0.0
0.08316980888141408 -0.07933933687853778 0.0 -0.01001739595246632 0.0 0.0
0.08576632496918489 -0.08279156060574147 0.0 1.5024006344566132e-14 0.0 0.0
0.08316980888140295 -0.07933933687852403 0.0 0.010017395952502454 0.0 0.0
0.07666016711770947 -0.07271531596167953 0.0 0.013791991598132738 0.0 0.0
0.06814986871868743 -0.06415405043669872 0.0 0.014956704065881909 0.0 0.0
0.058807517232273857 -0.054851120655188663 0.0 0.014432733988767283 0.0 0.0
0.04954221036422615 -0.04570228934680418 0.0 0.013029622266137346 0.0 0.0
0.04093701720949044 -0.03726833776654672 0.0 0.01134387238214433 0.0 0.0
0.033277123569612085 -0.0298291177529433 0.0 0.00972837553752047 0.0 0.0
0.026628424065097932 -0.023436844077052522 0.0 0.008302524405404445 0.0 0.0
0.020906979342760906 -0.01798111324636714 0.0 0.007008142116910608 0.0 0.0
0.015969162325663144 -0.013297495826253721 0.0 0.005734233980888022 0.0 0.0
0.011722465083923156 -0.009292604005007102 0.0 0.004443833543559046 0.0 0.0
0.008161496178757005 -0.005978094774430015 0.0 0.0032136735458905084 0.0 0.0
0.0053314111435711475 -0.0034231124709013707 0.0 0.0021225938632942016 0.0 0.0
0.003318673744758445 -0.001740363761743763 0.0 0.0013558809015893072 0.0 0.0
0.002123549758915111 -0.0009213217462927736 0.0 0.0010850298238271928 0.0 0.0
0.0014934398829073911 -0.0006214726959139745 0.0 0.0010795146671191123 0.0 0.0
0.0010349853950831587 -0.00040438408432470855 0.0 0.000998427070766505 0.0 0.0
0.0005678179639587907 -9.876441124291341e-05 0.0 0.0010529984900464735 0.0 0.0
0.0017300817278224582 -0.0003964293500821296 0.0 0.0038488820492366795 0.0 0.0
0.0031232115615946673 -0.008962121262653916 0.0 0.0029440547375419865 0.0 0.0
0.0023151056212764773 -0.0071099477519545075 0.0 -0.002480038680396795 0.0 0.0
0.0012726478884009088 -0.0003712553324581682 0.0 -0.003433926621655015 0.0 0.0
0.00040975916485369097 -6.834865280965964e-05 0.0 -0.0014043269164658338 0.0 0.0
0.000806206447781499 -0.000286008202153818 0.0 -0.0012765929583983015 0.0 0.0
0.001226193051094504 -0.0005092986259302816 0.0 -0.001359970391120255 0.0 0.0
0.0017369296195995606 -0.0007370216836865774 0.0 -0.0013851178371114196 0.0 0.0
0.002648603232438561 -0.0012830741674518394 0.0 -0.001589235444433811 0.0 0.0
0.0042494818845508825 -0.002523785859325141 0.0 -0.002250485529555494 0.0 0.0
0.0066078121363529994 -0.004597185139823969 0.0 -0.0034109548829200807 0.0 0.0
0.009620522442151952 -0.007366517539058096 0.0 -0.004787043569968795 0.0 0.0
0.01319233431310234 -0.010713908752232458 0.0 -0.006200102685577008 0.0 0.0
0.017315962874110722 -0.014607127562786246 0.0 -0.007595508455985084 0.0 0.0
0.022064550172484657 -0.019114937910308688 0.0 -0.008996503280393964 0.0 0.0
0.02757060264832232 -0.02439079630899211 0.0 -0.010515821051740915 0.0 0.0
0.03394568689351341 -0.03056088062056623 0.0 -0.012226403318346029 0.0 0.0
0.04117567496546935 -0.037627010482243525 0.0 -0.014005861024615074 0.0 0.0
0.04906007986006978 -0.045395761074006814 0.0 -0.01551377132641878 0.0 0.0
0.05718623766949957 -0.05345808576148824 0.0 -0.016199259735153897 0.0 0.0
0.06485331590429705 -0.06114395583751073 0.0 -0.015170556833825906 0.0 0.0
0.0710484260516072 -0.06745202461927556 0.0 -0.011201410667020316 0.0 0.0
0.07363360990529433 -0.07117257978924486 0.0 1.5836724293061266e-14 0.0 0.0
0.07104842605159699 -0.0674520246192702 0.0 0.011201410667055458 0.0 0.0
0.06485331590427994 -0.061143955837493186 0.0 0.015170556833859011 0.0 0.0
0.05718623766947763 -0.053458085761466816 0.0 0.01619925973517404 0.0 0.0
0.04906007986004495 -0.04539576107397715 0.0 0.015513771326422655 0.0 0.0
0.041175674965442687 -0.03762701048221614 0.0 0.014005861024611193 0.0 0.0
0.03394568689348565 -0.030560880620540617 0.0 0.012226403318340724 0.0 0.0
0.027570602648294872 -0.02439079630896881 0.0 0.010515821051735836 0.0 0.0
0.02206455017245808 -0.019114937910286362 0.0 0.008996503280388313 0.0 0.0
0.017315962874085673 -0.014607127562762796 0.0 0.007595508455974559 0.0 0.0
0.013192334313080345 -0.01071390875221011 0.0 0.006200102685565074 0.0 0.0
0.009620522442133485 -0.00736651753904035 0.0 0.0047870435699574635 0.0 0.0
0.00660781213633851 -0.0045971851398130745 0.0 0.0034109548829135096 0.0 0.0
0.004249481884541283 -0.002523785859314639 0.0 0.0022504855295506195 0.0 0.0
0.0026486032324335874 -0.0012830741674482598 0.0 0.0015892354444304012 0.0 0.0
0.0017369296195977118 -0.0007370216836852669 0.0 0.0013851178371100835 0.0 0.0
0.0012261930510938557 -0.0005092986259292798 0.0 0.0013599703911186473 0.0 0.0
0.000806206447780932 -0.00028600820215347005 0.0 0.001276592958395762 0.0 0.0
0.00040975916485336234 -6.834865280977349e-05 0.0 0.0014043269164627755 0.0 0.0
0.0012726478883977868 -0.00037125533245656626 0.0 0.0034339266216479227 0.0 0.0
0.0023151056212703564 -0.007109947751940254 0.0 0.0024800386803898837 0.0 0.0
0.0016893358658593622 -0.00556136173149498 0.0 -0.002050934915992074 0.0 0.0
0.0009233802041450675 -0.0003586051607637272 0.0 -0.0030601674340542395 0.0 0.0
0.00028330429321363453 -5.3420305376622766e-05 0.0 -0.0016959564778660048 0.0 0.0
0.0005933522535514513 -0.0001822527893540297 0.0 -0.001539761151090399 0.0 0.0
0.0009607903360976987 -0.0003891993305854654 0.0 -0.001609056025250162 0.0 0.0
0.0013739589306530546 -0.0005847013242830745 0.0 -0.0016780710773886237 0.0 0.0
0.0020439666891738473 -0.0009251537492936 0.0 -0.0018109575983521636 0.0 0.0
0.003242307688143596 -0.0017580960773101017 0.0 -0.0023287723145931703 0.0 0.0
0.0050896185884483245 -0.0032924858278190745 0.0 -0.003347032292214705 0.0 0.0
0.007529315708153361 -0.005485090261459302 0.0 -0.004737631367100719 0.0 0.0
0.010431547153416789 -0.008171934848515172 0.0 -0.006204939029562666 0.0 0.0
0.013746497561032512 -0.011278017316515464 0.0 -0.007642421675761957 0.0 0.0
0.017533748151337635 -0.014850480973322266 0.0 -0.009064163051376476 0.0 0.0
0.02191228012604578 -0.019022565479967092 0.0 -0.0105772555931556 0.0 0.0
0.026999094967749077 -0.023923425483089143 0.0 -0.012248199390842106 0.0 0.0
0.03283280379127346 -0.029607286202336054 0.0 -0.014007086800218702 0.0 0.0
0.03930558037294349 -0.03595887752522329 0.0 -0.015530507447619107 0.0 0.0
0.04615144986300261 -0.0427125289561433 0.0 -0.01632813389324158 0.0 0.0
0.052920770100937424 -0.049462194223641565 0.0 -0.015587850337022001 0.0 0.0
0.05882184579758483 -0.055469900507754334 0.0 -0.011908590287947473 0.0 0.0
0.06142820667467355 -0.059549373520563983 0.0 1.2481769090522121e-14 0.0 0.0
0.05882184579757621 -0.05546990050774867 0.0 0.011908590287981784 0.0 0.0
0.05292077010092303 -0.0494621942236272 0.0 0.01558785033705768 0.0 0.0
0.04615144986298438 -0.04271252895612595 0.0 0.0163281338932625 0.0 0.0
0.03930558037292329 -0.03595887752520049 0.0 0.015530507447622712 0.0 0.0
0.032832803791251544 -0.029607286202313433 0.0 0.014007086800212221 0.0 0.0
0.026999094967726702 -0.023923425483070096 0.0 0.012248199390834146 0.0 0.0
0.021912280126024315 -0.01902256547994833 0.0 0.010577255593150271 0.0 0.0
0.017533748151316475 -0.014850480973300086 0.0 0.009064163051370781 0.0 0.0
0.013746497561012422 -0.011278017316497439 0.0 0.007642421675751862 0.0 0.0
0.01043154715339887 -0.008171934848500652 0.0 0.006204939029549443 0.0 0.0
0.0075293157081386276 -0.005485090261446219 0.0 0.004737631367087615 0.0 0.0
0.005089618588437421 -0.0032924858278105067 0.0 0.003347032292207352 0.0 0.0
0.0032423076881363216 -0.001758096077304347 0.0 0.002328772314589823 0.0 0.0
0.0020439666891700963 -0.0009251537492918156 0.0 0.0018109575983499006 0.0 0.0
0.0013739589306516775 -0.0005847013242820809 0.0 0.0016780710773872114 0.0 0.0
0.0009607903360971187 -0.00038919933058460425 0.0 0.001609056025247668 0.0 0.0
0.0005933522535512509 -0.00018225278935383616 0.0 0.0015397611510878724 0.0 0.0
0.00028330429321368435 -5.342030537638114e-05 0.0 0.0016959564778638342 0.0 0.0
0.0009233802041425589 -0.000358605160762943 0.0 0.003060167434047782 0.0 0.0
0.0016893358658543443 -0.00556136173148371 0.0 0.0020509349159875557 0.0 0.0
0.0012038324559825624 -0.004278287683063696 0.0 -0.0017320963827724251 0.0 0.0
0.0006508341836877926 -0.0003565830314645265 0.0 -0.002725484680604449 0.0 0.0
0.00017229400877743917 -3.8309461677768256e-05 0.0 -0.0019220006808590645 0.0 0.0
0.0003925932347818157 -9.115221707300577e-05 0.0 -0.0017697084398928115 0.0 0.0
0.0006936203444711611 -0.0002644073828276973 0.0 -0.0018221937911308559 0.0 0.0
0.001026148920455824 -0.0004384962958670919 0.0 -0.0019356613504507877 0.0 0.0
0.0014962964408277474 -0.000650116310028562 0.0 -0.00204113770030181 0.0 0.0
0.0023211638980839854 -0.0011418814554657133 0.0 -0.00237522346838449 0.0 0.0
0.0036516759663083485 -0.002138193377113715 0.0 -0.003137480157313391 0.0 0.0
0.005479222713845481 -0.0037023752617545945 0.0 -0.00432168182295541 0.0 0.0
0.007693814318748564 -0.005701999999922286 0.0 -0.005717521680131244 0.0 0.0
0.010209777852461637 -0.008021482641953508 0.0 -0.00710911227687279 0.0 0.0
0.013051176040718024 -0.010669768205991829 0.0 -0.008476618076199045 0.0 0.0
0.016315860897748127 -0.013754411816496205 0.0 -0.009888453871294224 0.0 0.0
0.02012268059128416 -0.017395446416852506 0.0 -0.011417483007856144 0.0 0.0
0.024548163109905197 -0.021681043248636556 0.0 -0.013014788640574558 0.0 0.0
0.02956427670230459 -0.0265819454000859 0.0 -0.014454281431977575 0.0 0.0
0.03505363683530128 -0.03195335377869734 0.0 -0.015291740914086681 0.0 0.0
0.04082476085785244 -0.03764295006619987 0.0 -0.014937330918808632 0.0 0.0
0.04638589694049222 -0.04328450683370134 0.0 -0.012059143101811796 0.0 0.0
0.0490215741749577 -0.04781120899189968 0.0 1.1537645838721744e-14 0.0 0.0
0.046385896940486 -0.043284506833693434 0.0 0.012059143101842695 0.0 0.0
0.04082476085784093 -0.03764295006618635 0.0 0.014937330918840183 0.0 0.0
0.03505363683528694 -0.031953353778684614 0.0 0.015291740914105283 0.0 0.0
0.02956427670228883 -0.02658194540006881 0.0 0.01445428143197958 0.0 0.0
0.02454816310988821 -0.021681043248620285 0.0 0.013014788640566814 0.0 0.0
0.020122680591267456 -0.01739544641683524 0.0 0.01141748300785029 0.0 0.0
0.01631586089773263 -0.013754411816481878 0.0 0.009888453871289721 0.0 0.0
0.013051176040702692 -0.010669768205973717 0.0 0.008476618076193728 0.0 0.0
0.010209777852446571 -0.008021482641939203 0.0 0.007109112276862827 0.0 0.0
0.007693814318735196 -0.005701999999912236 0.0 0.005717521680119622 0.0 0.0
0.005479222713834844 -0.0037023752617429935 0.0 0.004321681822945332 0.0 0.0
0.003651675966300469 -0.00213819337710759 0.0 0.003137480157306832 0.0 0.0
0.0023211638980790246 -0.0011418814554645248 0.0 0.00237522346838129 0.0 0.0
0.0014962964408253782 -0.0006501163100282584 0.0 0.002041137700299808 0.0 0.0
0.0010261489204547588 -0.0004384962958666869 0.0 0.0019356613504491068 0.0 0.0
0.0006936203444707653 -0.0002644073828282823 0.0 0.0018221937911288015 0.0 0.0
0.0003925932347815972 -9.1152217072215e-05 0.0 0.0017697084398904102 0.0 0.0
0.0001722940087770306 -3.8309461677470385e-05 0.0 0.0019220006808574963 0.0 0.0
0.0006508341836860391 -0.00035658303146461905 0.0 0.0027254846805986038 0.0 0.0
0.0012038324559795893 -0.00427828768305519 0.0 0.0017320963827703725 0.0 0.0
0.0008479064562472538 -0.003264853513619996 0.0 -0.001557635207962383 0.0 0.0
0.0004395972130873486 -0.0003647736615669418 0.0 -0.0024478548786823675 0.0 0.0
6.36337950400816e-05 -1.4082984441775074e-05 0.0 -0.0020856263246814928 0.0 0.0
0.0002017567597615131 -9.731131809335577e-06 0.0 -0.0019549514968826794 0.0 0.0
0.0004262947434196724 -0.00014005955945229308 0.0 -0.001993401659281898 0.0 0.0
0.000675132527054962 -0.0002814390903483652 0.0 -0.0021308451953712068 0.0 0.0
0.000990172130948468 -0.0004274927183902589 0.0 -0.002279727332156097 0.0 0.0
0.0014941484425177367 -0.0006801226024644517 0.0 -0.002464440691764537 0.0 0.0
0.002322273228468469 -0.0012022300537895456 0.0 -0.002893911124331379 0.0 0.0
0.0035175637067526807 -0.002118035793258334 0.0 -0.003672455311971497 0.0 0.0
0.005011634158175439 -0.0033838028600196956 0.0 -0.004769700177445009 0.0 0.0
0.006717318148236218 -0.004898514820424698 0.0 -0.005966093313621475 0.0 0.0
0.008623964886938782 -0.006623993390201705 0.0 -0.007195532738916897 0.0 0.0
0.01079720624395238 -0.008638096447135389 0.0 -0.008445736794207064 0.0 0.0
0.013337255747646106 -0.011032458128272207 0.0 -0.009741468290007414 0.0 0.0
0.01634357224124181 -0.013910613753664083 0.0 -0.011090860528289096 0.0 0.0
0.01987449666385843 -0.017322496010705183 0.0 -0.012365227373457953 0.0 0.0
0.023924723062298807 -0.021253032538005236 0.0 -0.013200847540460331 0.0 0.0
0.02852655168258741 -0.025712938741246767 0.0 -0.013116643804855182 0.0 0.0
0.03361824051302375 -0.030783884759127154 0.0 -0.011425075062940365 0.0 0.0
0.03625805718544074 -0.03581760475591631 0.0 1.0299053276874304e-14 0.0 0.0
0.03361824051301994 -0.030783884759122547 0.0 0.011425075062969036 0.0 0.0
0.02852655168257922 -0.025712938741243016 0.0 0.013116643804885163 0.0 0.0
0.023924723062288364 -0.02125303253799211 0.0 0.01320084754047646 0.0 0.0
0.01987449666384736 -0.01732249601069527 0.0 0.012365227373457136 0.0 0.0
0.01634357224123062 -0.013910613753656596 0.0 0.0110908605282815 0.0 0.0
0.013337255747635328 -0.011032458128259152 0.0 0.009741468290002383 0.0 0.0
0.010797206243942578 -0.008638096447126525 0.0 0.008445736794203816 0.0 0.0
0.008623964886929328 -0.006623993390196187 0.0 0.007195532738913152 0.0 0.0
0.006717318148226406 -0.004898514820415874 0.0 0.005966093313612514 0.0 0.0
0.005011634158166701 -0.0033838028600123456 0.0 0.004769700177434841 0.0 0.0
0.0035175637067461516 -0.0021180357932539446 0.0 0.0036724553119647993 0.0 0.0
0.002322273228463983 -0.00120223005378768 0.0 0.0028939111243266335 0.0 0.0
0.0014941484425150054 -0.0006801226024635284 0.0 0.0024644406917626034 0.0 0.0
0.0009901721309472423 -0.00042749271838976474 0.0 0.0022797273321535226 0.0 0.0
0.0006751325270544943 -0.0002814390903469135 0.0 0.0021308451953692665 0.0 0.0
0.00042629474341938787 -0.00014005955945360667 0.0 0.001993401659280013 0.0 0.0
0.00020175675976135903 -9.731131808539375e-06 0.0 0.0019549514968804937 0.0 0.0
6.363379503982487e-05 -1.408298444094367e-05 0.0 0.002085626324679848 0.0 0.0
0.0004395972130861194 -0.0003647736615674062 0.0 0.0024478548786793976 0.0 0.0
0.000847906456245273 -0.0032648535136139503 0.0 0.0015576352079608104 0.0 0.0
0.000602494599586075 -0.002499977537911784 0.0 -0.0014701738433257785 0.0 0.0
0.0002819017458138277 -0.0003791599181859433 0.0 -0.0022545419163966397 0.0 0.0
-4.2917113681423754e-05 1.9233803981014234e-05 0.0 -0.002189485010461196 0.0 0.0
1.8609505802004207e-05 6.486314312936896e-05 0.0 -0.002089643081798866 0.0 0.0
0.00016162738267823504 -1.832723491891436e-05 0.0 -0.0021161677135186274 0.0 0.0
0.0003165147639191823 -0.00011646026797041889 0.0 -0.002256535418804173 0.0 0.0
0.0004921640931624615 -0.0002102768574580367 0.0 -0.002450379750681737 0.0 0.0
0.0007393879274570714 -0.0003256427333948315 0.0 -0.002622104644542551 0.0 0.0
0.0011254840015713923 -0.0005233470288401904 0.0 -0.0028027374070348308 0.0 0.0
0.001693365754966852 -0.0008912918362374439 0.0 -0.0031394831876437345 0.0 0.0
0.002435830000101365 -0.001436422888237883 0.0 -0.003739236400551982 0.0 0.0
0.0033003045580443533 -0.0021275484603195645 0.0 -0.004555761340654756 0.0 0.0
0.004261468893453016 -0.0029246966204179137 0.0 -0.005499221231219861 0.0 0.0
0.0053577507353675365 -0.0038606607048275584 0.0 -0.006526101512811743 0.0 0.0
0.006649652455573204 -0.005009719055568791 0.0 -0.007636912107852016 0.0 0.0
0.008231893441292862 -0.006461356378096038 0.0 -0.008848758024455259 0.0 0.0
0.010238395169932956 -0.008336359754893474 0.0 -0.010074349895769321 0.0 0.0
0.012813695273413174 -0.010778669103095561 0.0 -0.010989699116884017 0.0 0.0
0.01607946642068782 -0.013907972551822448 0.0 -0.011025403783676545 0.0 0.0
0.0203973691303967 -0.017983390566587557 0.0 -0.009955532200023905 0.0 0.0
0.022896748466402845 -0.023420589657792076 0.0 8.849258131826687e-15 0.0 0.0
0.02039736913039499 -0.017983390566580937 0.0 0.009955532200046458 0.0 0.0
0.016079466420683242 -0.013907972551826325 0.0 0.011025403783699712 0.0 0.0
0.012813695273406972 -0.01077866910308313 0.0 0.01098969911689551 0.0 0.0
0.010238395169927025 -0.008336359754887945 0.0 0.010074349895766242 0.0 0.0
0.008231893441287436 -0.006461356378092063 0.0 0.008848758024448298 0.0 0.0
0.00664965245556841 -0.005009719055562145 0.0 0.007636912107847199 0.0 0.0
0.0053577507353635475 -0.0038606607048250786 0.0 0.006526101512809947 0.0 0.0
0.004261468893449125 -0.0029246966204153793 0.0 0.005499221231214957 0.0 0.0
0.003300304558040266 -0.002127548460320136 0.0 0.004555761340647578 0.0 0.0
0.002435830000097709 -0.001436422888232897 0.0 0.0037392364005450042 0.0 0.0
0.0016933657549641327 -0.0008912918362406831 0.0 0.0031394831876399043 0.0 0.0
0.0011254840015695834 -0.0005233470288389663 0.0 0.0028027374070330436 0.0 0.0
0.0007393879274558534 -0.00032564273339324453 0.0 0.002622104644541456 0.0 0.0
0.0004921640931618506 -0.00021027685745863 0.0 0.0024503797506786875 0.0 0.0
0.00031651476391897273 -0.00011646026796992726 0.0 0.002256535418801198 0.0 0.0
0.0001616273826781543 -1.83272349199259e-05 0.0 0.002116167713515533 0.0 0.0
1.860950580206039e-05 6.486314313027421e-05 0.0 0.0020896430817966853 0.0 0.0
-4.291711368153293e-05 1.923380398113134e-05 0.0 0.0021894850104589997 0.0 0.0
0.0002819017458129906 -0.0003791599181862973 0.0 0.0022545419163942427 0.0 0.0
0.0006024945995846173 -0.0024999775379080554 0.0 0.0014701738433253227 0.0 0.0
0.00042966080588162456 -0.0019362352522590246 0.0 -0.0014150117956793686 0.0 0.0
0.00016378232816425265 -0.00038168802232083825 0.0 -0.0021149599522605066 0.0 0.0
-0.00014270936065007467 5.3938486068995e-05 0.0 -0.0022407781943216804 0.0 0.0
-0.00015728922670630216 0.00013539818202344374 0.0 -0.0021705049595461975 0.0 0.0
-9.834466937476877e-05 9.963398606823291e-05 0.0 -0.0021843128148217243 0.0 0.0
-4.4574936442467126e-05 4.963174328597712e-05 0.0 -0.0023112280934491224 0.0 0.0
-1.466769319929194e-05 1.3766831517885078e-05 0.0 -0.0025120785373874224 0.0 0.0
-3.062748026103602e-06 2.4637488957245272e-06 0.0 -0.002710266378094345 0.0 0.0
1.2503828313565712e-07 -5.384845656133025e-07 0.0 -0.0028291710333200586 0.0 0.0
6.077024505957813e-07 -2.356447676583591e-07 0.0 -0.002965496970100934 0.0 0.0
6.728459078381979e-07 -1.6024662312948796e-06 0.0 -0.0032681026447949238 0.0 0.0
-2.1394607387915346e-06 1.9790650627620246e-06 0.0 -0.003851177065295989 0.0 0.0
-1.0550883901219753e-05 8.231595649164008e-06 0.0 -0.004602467264224764 0.0 0.0
-2.1265644396186822e-05 1.925055989774845e-05 0.0 -0.005499940275826107 0.0 0.0
-6.065586524826622e-06 1.4672977415064437e-05 0.0 -0.006565193588096413 0.0 0.0
0.0001335496926241715 -8.609063745910084e-05 0.0 -0.007801864332896421 0.0 0.0
0.0006086910530510466 -0.0004645286700285739 0.0 -0.00916812507739371 0.0 0.0
0.0017177722511250058 -0.0013965184759923389 0.0 -0.010517477274275306 0.0 0.0
0.0036898644956416715 -0.0030889016889382452 0.0 -0.011551753092905221 0.0 0.0
0.0068409751808590005 -0.0056201436202275344 0.0 -0.011748311814623569 0.0 0.0
0.008773018993477917 -0.011365751738895091 0.0 8.55739090699359e-15 0.0 0.0
0.006840975180858594 -0.005620143620227489 0.0 0.011748311814640134 0.0 0.0
0.0036898644956402027 -0.0030889016889399236 0.0 0.011551753092916523 0.0 0.0
0.001717772251123973 -0.0013965184759895492 0.0 0.010517477274277993 0.0 0.0
0.0006086910530515952 -0.00046452867002835135 0.0 0.009168125077389741 0.0 0.0
0.0001335496926253688 -8.609063745944226e-05 0.0 0.007801864332890884 0.0 0.0
-6.065586523577621e-06 1.467297741354753e-05 0.0 0.006565193588091241 0.0 0.0
-2.126564439448354e-05 1.9250559897000786e-05 0.0 0.005499940275823172 0.0 0.0
-1.0550883899251276e-05 8.23159564973289e-06 0.0 0.004602467264219948 0.0 0.0
-2.13946073691104e-06 1.9790650590624287e-06 0.0 0.003851177065290327 0.0 0.0
6.728459094232744e-07 -1.6024662321285904e-06 0.0 0.00326810264478906 0.0 0.0
6.077024518423698e-07 -2.3564477101379542e-07 0.0 0.0029654969700978993 0.0 0.0
1.2503828375640352e-07 -5.384845659760969e-07 0.0 0.002829171033319655 0.0 0.0
-3.0627480259081476e-06 2.4637488977773624e-06 0.0 0.002710266378092437 0.0 0.0
-1.4667693199005596e-05 1.3766831517757688e-05 0.0 0.002512078537384697 0.0 0.0
-4.457493644220922e-05 4.963174328600833e-05 0.0 0.0023112280934467046 0.0 0.0
-9.834466937461234e-05 9.963398606742854e-05 0.0 0.002184312814819647 0.0 0.0
-0.00015728922670612565 0.0001353981820240984 0.0 0.0021705049595440807 0.0 0.0
-0.0001427093606499939 5.3938486069225835e-05 0.0 0.002240778194319293 0.0 0.0
0.00016378232816401968 -0.0003816880223209474 0.0 0.0021149599522579006 0.0 0.0
0.0004296608058811191 -0.001936235252256759 0.0 0.0014150117956788215 0.0 0.0
0.0003115954874541464 -0.0015056799702788232 0.0 -0.0013384625735459305 0.0 0.0
7.587624859271307e-05 -0.00036284551986807224 0.0 -0.0019852563436696313 0.0 0.0
-0.0002354420596120238 8.615079289245869e-05 0.0 -0.002242389776939562 0.0 0.0
-0.0003252298901267215 0.00020263810678243388 0.0 -0.002196381083748879 0.0 0.0
-0.0003519236514908496 0.00021231776811870098 0.0 -0.0021945477531529725 0.0 0.0
-0.00040173821414500913 0.00021361835378751068 0.0 -0.002294297040341855 0.0 0.0
-0.0005207589172631416 0.00023758052368008984 0.0 -0.002467155097643869 0.0 0.0
-0.0007458360542706417 0.0003304030939547579 0.0 -0.002627601471559924 0.0 0.0
-0.0011250116006144728 0.0005222857425680467 0.0 -0.0028044145977148484 0.0 0.0
-0.001691363873424655 0.0008898545729077298 0.0 -0.003137957395687935 0.0 0.0
-0.0024342149748831387 0.001434413882752831 0.0 -0.0037344996799931864 0.0 0.0
-0.003305248274585811 0.002131913243196426 0.0 -0.004553937413269789 0.0 0.0
-0.004283221392362651 0.0029432545021679003 0.0 -0.005492480517179181 0.0 0.0
-0.0054003331559107194 0.0039021816400524514 0.0 -0.006515126872199008 0.0 0.0
-0.00665997461937377 0.00504163768136783 0.0 -0.007644777711434727 0.0 0.0
-0.00797188076304826 0.006288743872827692 0.0 -0.00896639234295306 0.0 0.0
-0.009098582088640346 0.007412918563513459 0.0 -0.010553131829130405 0.0 0.0
-0.009653836138346854 0.008029498398168564 0.0 -0.012464874988575018 0.0 0.0
-0.009171167001628506 0.007737378110129315 0.0 -0.014579982354848253 0.0 0.0
-0.006432676449155624 0.0057456572377706065 0.0 -0.015450609932906185 0.0 0.0
-0.004255536004559695 -0.0006504530345776999 0.0 7.263287193914891e-15 0.0 0.0
-0.006432676449156193 0.005745657237766287 0.0 0.015450609932922466 0.0 0.0
-0.009171167001627026 0.00773737811012427 0.0 0.01457998235486142 0.0 0.0
-0.009653836138341178 0.008029498398163866 0.0 0.012464874988577623 0.0 0.0
-0.009098582088632304 0.007412918563502995 0.0 0.010553131829124998 0.0 0.0
-0.007971880763040647 0.006288743872820165 0.0 0.00896639234294602 0.0 0.0
-0.006659974619366937 0.005041637681362815 0.0 0.007644777711428663 0.0 0.0
-0.005400333155903412 0.0039021816400486905 0.0 0.006515126872193659 0.0 0.0
-0.0042832213923545415 0.0029432545021590233 0.0 0.005492480517171727 0.0 0.0
-0.003305248274577932 0.002131913243189635 0.0 0.004553937413261783 0.0 0.0
-0.0024342149748764314 0.0014344138827463698 0.0 0.003734499679984562 0.0 0.0
-0.0016913638734196656 0.0008898545729037926 0.0 0.0031379573956824857 0.0 0.0
-0.0011250116006115488 0.0005222857425675647 0.0 0.0028044145977145015 0.0 0.0
-0.0007458360542689675 0.00033040309395437315 0.0 0.002627601471558923 0.0 0.0
-0.0005207589172618767 0.0002375805236818245 0.0 0.002467155097641772 0.0 0.0
-0.00040173821414409336 0.0002136183537866547 0.0 0.002294297040339263 0.0 0.0
-0.000351923651490375 0.00021231776811942408 0.0 0.002194547753150641 0.0 0.0
-0.0003252298901263132 0.00020263810678204463 0.0 0.002196381083746928 0.0 0.0
-0.00023544205961178208 8.615079289280128e-05 0.0 0.0022423897769375477 0.0 0.0
7.587624859253068e-05 -0.00036284551986788126 0.0 0.001985256343667529 0.0 0.0
0.00031159548745377023 -0.00150567997027724 0.0 0.0013384625735449335 0.0 0.0
0.00022006739718310228 -0.0011455231434644372 0.0 -0.0012135530211880674 0.0 0.0
3.813950147341423e-06 -0.0003269986079335874 0.0 -0.0018464734432082626 0.0 0.0
-0.00032152852011366293 0.0001172274442527206 0.0 -0.002192001671588211 0.0 0.0
-0.0004850257412702992 0.00026579833266803817 0.0 -0.002167400953424365 0.0 0.0
-0.0005975173211568912 0.00031921989878914704 0.0 -0.0021442436603138527 0.0 0.0
-0.0007512936295436154 0.0003709775654858949 0.0 -0.0022055869115022307 0.0 0.0
-0.0010159139336212274 0.0004547208920342001 0.0 -0.0023127950400696875 0.0 0.0
-0.0014992786870451505 0.0006844393470776041 0.0 -0.0024764078461595525 0.0 0.0
-0.002321095080560028 0.0012003080476766857 0.0 -0.002894618810296214 0.0 0.0
-0.0035150519555100738 0.0021153421516388357 0.0 -0.0036681835841933345 0.0 0.0
-0.005010895060224397 0.0033836753470472356 0.0 -0.004766968829258003 0.0 0.0
-0.006722037120406265 0.004903176608155758 0.0 -0.005964819618285475 0.0 0.0
-0.008642566933926853 0.006641952216333953 0.0 -0.007178930982552446 0.0 0.0
-0.010835725818888513 0.008677567609062542 0.0 -0.008399828678618817 0.0 0.0
-0.013351186471148184 0.01106532205094094 0.0 -0.009708297311486664 0.0 0.0
-0.0161188840233648 0.013760171725907901 0.0 -0.011290415149935014 0.0 0.0
-0.018862426735337657 0.016492921856392312 0.0 -0.013368761854938602 0.0 0.0
-0.021076052887894665 0.01875310470414002 0.0 -0.016051084242050838 0.0 0.0
-0.021798518342161687 0.01966131571309756 0.0 -0.01878872392603315 0.0 0.0
-0.019311622080027912 0.01741821864790768 0.0 -0.01933440667155008 0.0 0.0
-0.016999086588290167 0.009247400638895993 0.0 9.921750920849348e-15 0.0 0.0
-0.01931162208002711 0.017418218647908372 0.0 0.0193344066715733 0.0 0.0
-0.02179851834215683 0.019661315713096598 0.0 0.018788723926056062 0.0 0.0
-0.021076052887884514 0.018753104704132353 0.0 0.016051084242060906 0.0 0.0
-0.018862426735323484 0.01649292185637332 0.0 0.013368761854935282 0.0 0.0
-0.016118884023350863 0.013760171725894353 0.0 0.011290415149927496 0.0 0.0
-0.013351186471135668 0.011065322050933246 0.0 0.009708297311478872 0.0 0.0
-0.010835725818875416 0.008677567609052856 0.0 0.008399828678611911 0.0 0.0
-0.008642566933912983 0.006641952216319506 0.0 0.007178930982544159 0.0 0.0
-0.006722037120392747 0.004903176608143054 0.0 0.005964819618274204 0.0 0.0
-0.005010895060212457 0.0033836753470350388 0.0 0.004766968829246764 0.0 0.0
-0.0035150519555007123 0.002115342151631893 0.0 0.003668183584185424 0.0 0.0
-0.002321095080553875 0.0012003080476737722 0.0 0.002894618810292845 0.0 0.0
-0.0014992786870415482 0.0006844393470741894 0.0 0.0024764078461582285 0.0 0.0
-0.0010159139336191924 0.0004547208920348449 0.0 0.0023127950400681193 0.0 0.0
-0.0007512936295427182 0.00037097756548492406 0.0 0.0022055869114999205 0.0 0.0
-0.0005975173211563592 0.0003192198987895276 0.0 0.00214424366031222 0.0 0.0
-0.000485025741269775 0.00026579833266736857 0.0 0.0021674009534224455 0.0 0.0
-0.00032152852011338857 0.00011722744425277136 0.0 0.002192001671586068 0.0 0.0
3.8139501474255976e-06 -0.00032699860793353387 0.0 0.001846473443206432 0.0 0.0
0.0002200673971830054 -0.0011455231434632502 0.0 0.0012135530211869257 0.0 0.0
0.00014094000980863133 -0.0008382904209360224 0.0 -0.0010651338472843727 0.0 0.0
-6.080823193232832e-05 -0.0002769447186274838 0.0 -0.0016857818968527719 0.0 0.0
-0.00040270864452858496 0.0001484324013185098 0.0 -0.0020898220967710307 0.0 0.0
-0.0006365896668839895 0.0003246837058218346 0.0 -0.00208319337278855 0.0 0.0
-0.0008335338779745715 0.0004191344917304609 0.0 -0.0020362516237969427 0.0 0.0
-0.0010868003873293118 0.000516740667861484 0.0 -0.002038332115418277 0.0 0.0
-0.0015178427441496594 0.0006779356641741285 0.0 -0.0020896052599372714 0.0 0.0
-0.0023249095257460604 0.0011444254283995714 0.0 -0.0023895005074000817 0.0 0.0
-0.003648857421888322 0.0021344948959165317 0.0 -0.00313442597953267 0.0 0.0
-0.005477111053146294 0.0036998662004839 0.0 -0.004316489246741207 0.0 0.0
-0.0076942934645438926 0.005703401461449056 0.0 -0.0057163162224344675 0.0 0.0
-0.01021321359859266 0.008025657210888147 0.0 -0.007106945171366152 0.0 0.0
-0.013061319550615708 0.010680117560949207 0.0 -0.0084511518276629 0.0 0.0
-0.01633859541319956 0.013776531895590746 0.0 -0.00980222372741098 0.0 0.0
-0.020133823404316235 0.01741700205044314 0.0 -0.011300797641866363 0.0 0.0
-0.024399675249213618 0.02158819370441117 0.0 -0.013199102568448362 0.0 0.0
-0.028818897051427414 0.02599415170934862 0.0 -0.0158880200901492 0.0 0.0
-0.032628913833644094 0.029916078728817942 0.0 -0.019488928250889607 0.0 0.0
-0.03439040422802527 0.03191981442896151 0.0 -0.023011085735318015 0.0 0.0
-0.0315962193929502 0.029631276924708606 0.0 -0.024162065319858515 0.0 0.0
-0.02866325194014529 0.01886642894364769 0.0 1.113258790708116e-14 0.0 0.0
-0.03159621939294774 0.02963127692471377 0.0 0.024162065319886267 0.0 0.0
-0.034390404228017306 0.031919814428962134 0.0 0.023011085735345087 0.0 0.0
-0.032628913833629314 0.029916078728806764 0.0 0.01948892825090314 0.0 0.0
-0.028818897051408297 0.02599415170932505 0.0 0.015888020090149522 0.0 0.0
-0.024399675249194258 0.02158819370439248 0.0 0.013199102568439456 0.0 0.0
-0.0201338234042977 0.017417002050427035 0.0 0.01130079764185754 0.0 0.0
-0.01633859541318051 0.013776531895573568 0.0 0.00980222372740258 0.0 0.0
-0.013061319550596376 0.010680117560929805 0.0 0.008451151827652964 0.0 0.0
-0.010213213598573866 0.008025657210872214 0.0 0.007106945171353041 0.0 0.0
-0.0076942934645268714 0.005703401461431217 0.0 0.00571631622242077 0.0 0.0
-0.005477111053132885 0.0036998662004716397 0.0 0.004316489246731233 0.0 0.0
-0.003648857421878886 0.0021344948959081535 0.0 0.003134425979526735 0.0 0.0
-0.0023249095257401966 0.0011444254283953363 0.0 0.0023895005073975703 0.0 0.0
-0.0015178427441465568 0.0006779356641740462 0.0 0.002089605259935358 0.0 0.0
-0.0010868003873277582 0.0005167406678612376 0.0 0.0020383321154160577 0.0 0.0
-0.0008335338779735492 0.0004191344917298476 0.0 0.0020362516237959444 0.0 0.0
-0.0006365896668832183 0.00032468370582166255 0.0 0.002083193372786526 0.0 0.0
-0.00040270864452818727 0.00014843240131892546 0.0 0.0020898220967690774 0.0 0.0
-6.0808231932343e-05 -0.000276944718627789 0.0 0.0016857818968507938 0.0 0.0
0.00014094000980828568 -0.0008382904209349757 0.0 0.0010651338472830111 0.0 0.0
7.033415918002448e-05 -0.0005794771556189015 0.0 -0.0009086074315640658 0.0 0.0
-0.00012107893123911487 -0.0002165817333031759 0.0 -0.0015003470523788096 0.0 0.0
-0.0004806219802177868 0.00018099296725787822 0.0 -0.0019367359045842488 0.0 0.0
-0.0007808540368011652 0.00037948378888407044 0.0 -0.0019441756962367538 0.0 0.0
-0.0010568399531175764 0.0005100907980337858 0.0 -0.0018693317688584375 0.0 0.0
-0.0014162165548555403 0.0006498652309081364 0.0 -0.001796683285543985 0.0 0.0
-0.0020597565493838304 0.0009508855159072697 0.0 -0.0018670388360854774 0.0 0.0
-0.0032422249948807834 0.001757278385847045 0.0 -0.0023391336846727644 0.0 0.0
-0.005086334662189504 0.0032878236211874843 0.0 -0.0033406622682911656 0.0 0.0
-0.007528471131873634 0.005483980996697276 0.0 -0.004732853321105398 0.0 0.0
-0.010433263791236831 0.008174753782540638 0.0 -0.006204469339349576 0.0 0.0
-0.013747808256108874 0.011281223064287468 0.0 -0.007639548162429795 0.0 0.0
-0.017530923568563925 0.014849803335425477 0.0 -0.009033543230614635 0.0 0.0
-0.021906286468113403 0.019015017327540358 0.0 -0.010463380958667199 0.0 0.0
-0.026995475071519982 0.023917091129744782 0.0 -0.012054975345975523 0.0 0.0
-0.032785430375837636 0.0295858373133523 0.0 -0.014118316292421865 0.0 0.0
-0.03889017991113467 0.03568772959639062 0.0 -0.017112583267506313 0.0 0.0
-0.04424844311712278 0.04122168807637013 0.0 -0.021210566738957947 0.0 0.0
-0.0468598574029425 0.04421438293391431 0.0 -0.025512819802167946 0.0 0.0
-0.04343987387431114 0.04148629933997918 0.0 -0.027515857708216098 0.0 0.0
-0.03971720386085413 0.028168781326863623 0.0 1.3052059433249497e-14 0.0 0.0
-0.0434398738743066 0.041486299339977856 0.0 0.027515857708247042 0.0 0.0
-0.04685985740293133 0.044214382933903056 0.0 0.02551281980219939 0.0 0.0
-0.044248443117104165 0.04122168807635161 0.0 0.02121056673897376 0.0 0.0
-0.038890179911111294 0.03568772959636598 0.0 0.017112583267505137 0.0 0.0
-0.03278543037581336 0.029585837313329234 0.0 0.014118316292415306 0.0 0.0
-0.026995475071495755 0.023917091129723525 0.0 0.012054975345966511 0.0 0.0
-0.021906286468088728 0.019015017327515975 0.0 0.01046338095865855 0.0 0.0
-0.01753092356853895 0.014849803335399047 0.0 0.009033543230603968 0.0 0.0
-0.013747808256084595 0.011281223064265532 0.0 0.0076395481624164305 0.0 0.0
-0.010433263791215055 0.008174753782518602 0.0 0.006204469339334088 0.0 0.0
-0.007528471131856288 0.005483980996680878 0.0 0.004732853321094677 0.0 0.0
-0.005086334662176823 0.003287823621174481 0.0 0.003340662268284675 0.0 0.0
-0.003242224994872382 0.0017572783858418486 0.0 0.0023391336846681527 0.0 0.0
-0.002059756549379531 0.0009508855159055258 0.0 0.0018670388360826 0.0 0.0
-0.0014162165548535792 0.0006498652309070425 0.0 0.0017966832855436442 0.0 0.0
-0.0010568399531165505 0.0005100907980328216 0.0 0.0018693317688570688 0.0 0.0
-0.0007808540368006862 0.00037948378888346453 0.0 0.0019441756962352082 0.0 0.0
-0.000480621980217438 0.00018099296725771575 0.0 0.0019367359045825245 0.0 0.0
-0.00012107893123884454 -0.00021658173330323544 0.0 0.0015003470523770736 0.0 0.0
7.033415918032288e-05 -0.0005794771556183246 0.0 0.0009086074315625869 0.0 0.0
7.871005561044634e-06 -0.0003671298579205354 0.0 -0.0007480921282988117 0.0 0.0
-0.00017734623185202986 -0.0001505029284333663 0.0 -0.00129157568738871 0.0 0.0
-0.0005559492171155892 0.00021536984730855923 0.0 -0.0017340249845801295 0.0 0.0
-0.0009174396961276368 0.0004303398143368181 0.0 -0.0017510559874877802 0.0 0.0
-0.001267980704892742 0.000590633126537846 0.0 -0.0016427501501530054 0.0 0.0
-0.0017563782197874728 0.0007894002379219157 0.0 -0.0015191343147965197 0.0 0.0
-0.0026576938158597552 0.0013024368108792428 0.0 -0.001638711491839717 0.0 0.0
-0.004247417663437903 0.0025199111597385753 0.0 -0.0022542577855516432 0.0 0.0
-0.006605210926123751 0.004593572333098539 0.0 -0.0034032596642556445 0.0 0.0
-0.009621369385786702 0.007367256010802761 0.0 -0.004783331600110642 0.0 0.0
-0.013194874751885055 0.010717588956129247 0.0 -0.006199740968553359 0.0 0.0
-0.017314524586735776 0.014608651049047999 0.0 -0.007591079417241728 0.0 0.0
-0.022046634167219543 0.019101839444248352 0.0 -0.008962902124522784 0.0 0.0
-0.027528673312352175 0.024348278251659288 0.0 -0.01039655449779689 0.0 0.0
-0.03391377597795654 0.0305130395172322 0.0 -0.01200524894892771 0.0 0.0
-0.04120901953087277 0.03765615545871424 0.0 -0.014008176002375186 0.0 0.0
-0.048956389419113615 0.04541368874995631 0.0 -0.016877981849124438 0.0 0.0
-0.055810767218050894 0.052522155654166014 0.0 -0.021042732560015414 0.0 0.0
-0.059178943076553595 0.0564202433441158 0.0 -0.025973370260044103 0.0 0.0
-0.05509653848046697 0.05317856609684413 0.0 -0.02968039436422079 0.0 0.0
-0.0506119155430599 0.03745587326931727 0.0 1.426723322817125e-14 0.0 0.0
-0.05509653848046024 0.053178566096833836 0.0 0.029680394364254174 0.0 0.0
-0.059178943076539064 0.05642024334409537 0.0 0.025973370260075256 0.0 0.0
-0.05581076721802877 0.05252215565414213 0.0 0.02104273256003255 0.0 0.0
-0.048956389419085825 0.04541368874992843 0.0 0.016877981849124497 0.0 0.0
-0.04120901953084312 0.037656155458687876 0.0 0.014008176002371746 0.0 0.0
-0.03391377597792672 0.030513039517201794 0.0 0.012005248948920848 0.0 0.0
-0.02752867331232198 0.02434827825163078 0.0 0.010396554497788783 0.0 0.0
-0.02204663416718924 0.019101839444217377 0.0 0.00896290212451273 0.0 0.0
-0.01731452458670659 0.014608651049021124 0.0 0.0075910794172297374 0.0 0.0
-0.013194874751858815 0.010717588956103852 0.0 0.006199740968538884 0.0 0.0
-0.009621369385765235 0.007367256010784353 0.0 0.004783331600098636 0.0 0.0
-0.006605210926107894 0.0045935723330803434 0.0 0.003403259664248005 0.0 0.0
-0.004247417663427081 0.0025199111597303888 0.0 0.0022542577855463653 0.0 0.0
-0.0026576938158536416 0.0013024368108733107 0.0 0.0016387114918351828 0.0 0.0
-0.0017563782197848312 0.0007894002379212186 0.0 0.001519134314796251 0.0 0.0
-0.0012679807048916187 0.0005906331265370107 0.0 0.0016427501501524698 0.0 0.0
-0.0009174396961267269 0.0004303398143364424 0.0 0.0017510559874873207 0.0 0.0
-0.0005559492171149825 0.00021536984730763717 0.0 0.0017340249845790104 0.0 0.0
-0.00017734623185198145 -0.00015050292843295668 0.0 0.0012915756873875341 0.0 0.0
7.871005560928841e-06 -0.00036712985792032056 0.0 0.0007480921282970346 0.0 0.0
-4.515174336443853e-05 -0.00020093423401739173 0.0 -0.0005855446854678699 0.0 0.0
-0.0002281751316715795 -8.319721825984205e-05 0.0 -0.0010615628956647289 0.0 0.0
-0.0006282718781065962 0.0002507624969864004 0.0 -0.001483116038696123 0.0 0.0
-0.0010469009869587516 0.00047764924166383556 0.0 -0.0015032674272306727 0.0 0.0
-0.0014763785366915454 0.0006613546737732625 0.0 -0.0013631968963579676 0.0 0.0
-0.0021191058886108486 0.0009575204709590154 0.0 -0.001219846756659594 0.0 0.0
-0.0033180968965526034 0.0017490547583574071 0.0 -0.0013926181178542162 0.0 0.0
-0.005328808756916102 0.00341948548036021 0.0 -0.00211976375064648 0.0 0.0
-0.008161470016127905 0.0059773312981212245 0.0 -0.0032068004216762396 0.0 0.0
-0.011724946789632878 0.009295006441868219 0.0 -0.004441544364155408 0.0 0.0
-0.015971712957346847 0.013301299488136097 0.0 -0.005734121746737642 0.0 0.0
-0.02090169529172545 0.017979646852909197 0.0 -0.00700136084447474 0.0 0.0
-0.026596344224418544 0.02341166816327638 0.0 -0.00826751749724771 0.0 0.0
-0.033202336477548666 0.02975647003822475 0.0 -0.00962631321726568 0.0 0.0
-0.040862408754797165 0.037174296620008804 0.0 -0.011158158260830634 0.0 0.0
-0.04958991876486396 0.04572074692068806 0.0 -0.012933775174989967 0.0 0.0
-0.05890136673516136 0.05502911199089988 0.0 -0.015275245029677587 0.0 0.0
-0.06720321156907635 0.06365803645746208 0.0 -0.018961243960010938 0.0 0.0
-0.0713765617134971 0.06851906829509538 0.0 -0.024427060847593246 0.0 0.0
-0.06681101633343642 0.06496668117569301 0.0 -0.030893716123343302 0.0 0.0
-0.06168185681211588 0.04704837205930798 0.0 1.3262828335580679e-14 0.0 0.0
-0.06681101633342752 0.06496668117568193 0.0 0.030893716123373473 0.0 0.0
-0.07137656171347954 0.06851906829507098 0.0 0.02442706084762404 0.0 0.0
-0.06720321156905053 0.06365803645743766 0.0 0.018961243960028917 0.0 0.0
-0.05890136673512927 0.055029111990869024 0.0 0.01527524502968029 0.0 0.0
-0.04958991876482909 0.04572074692065794 0.0 0.01293377517498694 0.0 0.0
-0.040862408754762 0.037174296619971764 0.0 0.011158158260825252 0.0 0.0
-0.03320233647751331 0.02975647003819091 0.0 0.009626313217258835 0.0 0.0
-0.02659634422438277 0.023411668163238954 0.0 0.008267517497239396 0.0 0.0
-0.02090169529169124 0.017979646852880782 0.0 0.007001360844462748 0.0 0.0
-0.015971712957316156 0.013301299488106629 0.0 0.0057341217467251 0.0 0.0
-0.011724946789607461 0.009295006441846018 0.0 0.0044415443641432515 0.0 0.0
-0.008161470016108823 0.005977331298102705 0.0 0.003206800421669794 0.0 0.0
-0.005328808756902544 0.003419485480348155 0.0 0.0021197637506412867 0.0 0.0
-0.003318096896544438 0.00174905475835032 0.0 0.0013926181178504195 0.0 0.0
-0.0021191058886071115 0.000957520470958222 0.0 0.0012198467566579183 0.0 0.0
-0.0014763785366900164 0.0006613546737736375 0.0 0.0013631968963569616 0.0 0.0
-0.0010469009869578125 0.00047764924166332696 0.0 0.001503267427229047 0.0 0.0
-0.0006282718781060737 0.0002507624969864587 0.0 0.0014831160386947683 0.0 0.0
-0.0002281751316714808 -8.319721825945716e-05 0.0 0.001061562895663969 0.0 0.0
-4.5151743364439e-05 -0.00020093423401723237 0.0 0.0005855446854666729 0.0 0.0
-8.59930241596909e-05 -8.15923107223726e-05 0.0 -0.00042471684666331715 0.0 0.0
-0.00027046925706105963 -1.935710004577626e-05 0.0 -0.0008129583222406816 0.0 0.0
-0.000695706485004209 0.0002852786018107889 0.0 -0.0011831299818746254 0.0 0.0
-0.0011712995787690973 0.0005212562494826081 0.0 -0.0011997567439931164 0.0 0.0
-0.0016894792421607721 0.0007314865950945706 0.0 -0.0010361454850421345 0.0 0.0
-0.00251960024695243 0.001167822488205262 0.0 -0.0008880063267901064 0.0 0.0
-0.004048119776152174 0.0023083923631178637 0.0 -0.0011447294302761829 0.0 0.0
-0.00644986763961218 0.00439763436135729 0.0 -0.001827673937788132 0.0 0.0
-0.009720634743429067 0.007391104963439326 0.0 -0.0027134797910972033 0.0 0.0
-0.013831134418626982 0.011245908269917676 0.0 -0.0037456006205872083 0.0 0.0
-0.018750001065543344 0.015904822712227762 0.0 -0.004827052250155761 0.0 0.0
-0.02449805554996322 0.02137650596916666 0.0 -0.005889685929693991 0.0 0.0
-0.031171413027015954 0.02776094546249016 0.0 -0.006960308979296559 0.0 0.0
-0.03890906899883789 0.03522062782467714 0.0 -0.008146064862709983 0.0 0.0
-0.04782495078007317 0.04388274592968453 0.0 -0.009514677252951447 0.0 0.0
-0.05788061621113563 0.05373543475563131 0.0 -0.010987930378027913 0.0 0.0
-0.06858430545651067 0.06439090811516832 0.0 -0.012528847225399856 0.0 0.0
-0.07829241606372307 0.07444635815784903 0.0 -0.01503234021139871 0.0 0.0
-0.0835010944317905 0.08051351121481366 0.0 -0.02076195208009473 0.0 0.0
-0.0788272716539596 0.0771152726440559 0.0 -0.030927869346160868 0.0 0.0
-0.0732421961977602 0.057289861615157395 0.0 1.2756289080595451e-14 0.0 0.0
-0.07882727165394898 0.07711527264404365 0.0 0.03092786934618765 0.0 0.0
-0.08350109443176959 0.0805135112147889 0.0 0.020761952080120487 0.0 0.0
-0.07829241606369294 0.07444635815781997 0.0 0.015032340211413253 0.0 0.0
-0.06858430545647401 0.06439090811513339 0.0 0.012528847225403279 0.0 0.0
-0.057880616211096116 0.05373543475559589 0.0 0.010987930378026143 0.0 0.0
-0.04782495078003263 0.043882745929645216 0.0 0.009514677252947346 0.0 0.0
-0.038909068998796925 0.03522062782463924 0.0 0.008146064862702052 0.0 0.0
-0.031171413026975004 0.027760945462450615 0.0 0.006960308979291053 0.0 0.0
-0.024498055549923948 0.02137650596913077 0.0 0.005889685929685434 0.0 0.0
-0.018750001065508542 0.01590482271219328 0.0 0.004827052250146104 0.0 0.0
-0.013831134418598122 0.011245908269890546 0.0 0.003745600620576733 0.0 0.0
-0.009720634743406592 0.007391104963417312 0.0 0.0027134797910913135 0.0 0.0
-0.006449867639595949 0.004397634361341695 0.0 0.0018276739377825466 0.0 0.0
-0.004048119776142455 0.0023083923631102743 0.0 0.0011447294302727874 0.0 0.0
-0.00251960024694792 0.0011678224882037268 0.0 0.0008880063267885125 0.0 0.0
-0.001689479242158791 0.0007314865950932099 0.0 0.0010361454850416583 0.0 0.0
-0.001171299578768126 0.0005212562494820882 0.0 0.0011997567439914706 0.0 0.0
-0.0006957064850036167 0.0002852786018114694 0.0 0.0011831299818739216 0.0 0.0
-0.0002704692570607826 -1.9357100046113305e-05 0.0 0.0008129583222403803 0.0 0.0
-8.599302415968563e-05 -8.159231072234256e-05 0.0 0.0004247168466627956 0.0 0.0
-0.00011004444158893285 -1.0074526565918903e-05 0.0 -0.00027493289931417606 0.0 0.0
-0.00029872717861218384 3.5101294758815895e-05 0.0 -0.0005492912370592735 0.0 0.0
-0.0007551822717699064 0.00031550963941703435 0.0 -0.0008285642263605754 0.0 0.0
-0.001293959569600413 0.0005627878756572846 0.0 -0.0008367422827361851 0.0 0.0
-0.0019182791783746273 0.0008125861736483973 0.0 -0.0006677227388819945 0.0 0.0
-0.002974031734509881 0.0014532010167600225 0.0 -0.0005524997380378142 0.0 0.0
-0.004823859307230948 0.002956615704222238 0.0 -0.0008304732667156018 0.0 0.0
-0.007579790313059427 0.005401933500206752 0.0 -0.0013152000023033403 0.0 0.0
-0.011277299315267204 0.00882034506358584 0.0 -0.001957828684431877 0.0 0.0
-0.01592626520167771 0.013201544076732227 0.0 -0.00270637613717171 0.0 0.0
-0.021518396526770688 0.01851164303385694 0.0 -0.0034923142841897263 0.0 0.0
-0.02809136764402676 0.02478365956164079 0.0 -0.0042627268764773504 0.0 0.0
-0.035752757079737685 0.03213404605389764 0.0 -0.005051698703416832 0.0 0.0
-0.0446381077053687 0.04072015682596138 0.0 -0.0059721377030806325 0.0 0.0
-0.05479266512289453 0.05061577205889133 0.0 -0.007052626093176679 0.0 0.0
-0.06605307971284699 0.061688006302372395 0.0 -0.00814637674973833 0.0 0.0
-0.07789221318645195 0.07343894897500708 0.0 -0.008965322720657814 0.0 0.0
-0.08890311883081498 0.08463444764442664 0.0 -0.009905175996317336 0.0 0.0
-0.09552269207294195 0.09225991050036787 0.0 -0.014410042281437099 0.0 0.0
-0.09140322304265937 0.08993795867430453 0.0 -0.028888351130600003 0.0 0.0
-0.08570660930188181 0.06869366158073044 0.0 8.087280845003875e-15 0.0 0.0
-0.091403223042647 0.08993795867429129 0.0 0.028888351130622006 0.0 0.0
-0.09552269207291758 0.09225991050034048 0.0 0.014410042281458296 0.0 0.0
-0.08890311883078023 0.0846344476443922 0.0 0.0099051759963293 0.0 0.0
-0.0778922131864105 0.073438948974964 0.0 0.008965322720659561 0.0 0.0
-0.06605307971280246 0.06168800630233161 0.0 0.008146376749738527 0.0 0.0
-0.05479266512284899 0.050615772058847194 0.0 0.007052626093173869 0.0 0.0
-0.04463810770532201 0.040720156825919646 0.0 0.005972137703074479 0.0 0.0
-0.035752757079690924 0.03213404605385468 0.0 0.005051698703412841 0.0 0.0
-0.02809136764398302 0.02478365956159954 0.0 0.0042627268764712225 0.0 0.0
-0.02151839652673211 0.01851164303381968 0.0 0.0034923142841814534 0.0 0.0
-0.01592626520164562 0.013201544076702886 0.0 0.002706376137163323 0.0 0.0
-0.011277299315241981 0.008820345063562711 0.0 0.001957828684426791 0.0 0.0
-0.007579790313040862 0.005401933500189742 0.0 0.0013152000023003358 0.0 0.0
-0.004823859307218861 0.002956615704210815 0.0 0.0008304732667134315 0.0 0.0
-0.0029740317345038395 0.001453201016756685 0.0 0.0005524997380361905 0.0 0.0
-0.0019182791783724294 0.0008125861736473536 0.0 0.0006677227388828552 0.0 0.0
-0.0012939595695993875 0.0005627878756573463 0.0 0.0008367422827354938 0.0 0.0
-0.0007551822717691025 0.0003155096394171623 0.0 0.000828564226360853 0.0 0.0
-0.00029872717861173596 3.510129475824715e-05 0.0 0.0005492912370590451 0.0 0.0
-0.0001100444415886964 -1.0074526565851234e-05 0.0 0.0002749328993135971 0.0 0.0
-0.00010932717905174743 1.3585168944452477e-05 0.0 -0.00015705360233890357 0.0 0.0
-0.00030361620873529705 7.075121356237247e-05 0.0 -0.0002749954777604111 0.0 0.0
-0.0008018589489674388 0.00033659993345407676 0.0 -0.00040526500509697566 0.0 0.0
-0.0014215509307002395 0.0006062915427803575 0.0 -0.0004064073060604236 0.0 0.0
-0.00218144092181785 0.0009243110245532129 0.0 -0.00027206360782617466 0.0 0.0
-0.0034776074528536267 0.0018203390639735077 0.0 -0.00021053092689499533 0.0 0.0
-0.005623354481033354 0.003650230824804701 0.0 -0.00037672955698903976 0.0 0.0
-0.008706764771472572 0.006419633256150236 0.0 -0.0006224075452386193 0.0 0.0
-0.012817845262853162 0.010248470402996491 0.0 -0.0009458950364824257 0.0 0.0
-0.017997835757059596 0.015144666215284597 0.0 -0.001332095204654754 0.0 0.0
-0.024263161256540513 0.02110624859931629 0.0 -0.001731374956060248 0.0 0.0
-0.03167017894013611 0.028189880993552463 0.0 -0.0021232655747974068 0.0 0.0
-0.04033391135757325 0.03651935233362625 0.0 -0.0025663291263646956 0.0 0.0
-0.05035895415908326 0.046225829911922985 0.0 -0.0030967585066477856 0.0 0.0
-0.06172696746181669 0.05733284977503808 0.0 -0.0037172126308240927 0.0 0.0
-0.07413837263551087 0.06957900951263095 0.0 -0.00435001702591403 0.0 0.0
-0.08687095666643209 0.08225703814742501 0.0 -0.0047298029833418515 0.0 0.0
-0.09871966528786058 0.09412328698382738 0.0 -0.004696473031575855 0.0 0.0
-0.10712678073605887 0.10298954877334514 0.0 -0.006317146797332759 0.0 0.0
-0.10489545231360389 0.10358986043665046 0.0 -0.02037439159680557 0.0 0.0
-0.09977811554878971 0.08278727163843241 0.0 4.530230357513432e-15 0.0 0.0
-0.10489545231358924 0.10358986043663532 0.0 0.020374391596818097 0.0 0.0
-0.1071267807360312 0.10298954877331498 0.0 0.006317146797345339 0.0 0.0
-0.09871966528782107 0.09412328698378483 0.0 0.004696473031580979 0.0 0.0
-0.0868709566663851 0.08225703814737723 0.0 0.004729802983341908 0.0 0.0
-0.07413837263546104 0.06957900951258485 0.0 0.004350017025914123 0.0 0.0
-0.06172696746176584 0.05733284977498988 0.0 0.003717212630822155 0.0 0.0
-0.05035895415903117 0.04622582991187486 0.0 0.0030967585066467703 0.0 0.0
-0.04033391135752128 0.03651935233357548 0.0 0.0025663291263621187 0.0 0.0
-0.031670178940087355 0.028189880993504668 0.0 0.002123265574793719 0.0 0.0
-0.02426316125649777 0.021106248599276168 0.0 0.0017313749560558976 0.0 0.0
-0.01799783575702403 0.015144666215252438 0.0 0.0013320952046509782 0.0 0.0
-0.012817845262824935 0.010248470402971895 0.0 0.0009458950364797396 0.0 0.0
-0.008706764771451603 0.006419633256131674 0.0 0.0006224075452376381 0.0 0.0
-0.005623354481019609 0.0036502308247909473 0.0 0.0003767295569880267 0.0 0.0
-0.003477607452846275 0.0018203390639672961 0.0 0.0002105309268942488 0.0 0.0
-0.0021814409218148126 0.000924311024553377 0.0 0.0002720636078264074 0.0 0.0
-0.0014215509306990013 0.00060629154277944 0.0 0.0004064073060604948 0.0 0.0
-0.0008018589489669098 0.00033659993345452096 0.0 0.0004052650050972191 0.0 0.0
-0.0003036162087353879 7.075121356208596e-05 0.0 0.00027499547775905404 0.0 0.0
-0.00010932717905196544 1.3585168944518461e-05 0.0 0.00015705360233935799 0.0 0.0
-6.919140515104921e-05 1.3556145430773181e-05 0.0 -9.917521200748444e-05 0.0 0.0
-0.0002690622260797591 8.237005119311055e-05 0.0 -0.00011415147554899276 0.0 0.0
-0.000828964290085978 0.0003442126701800716 0.0 -0.00013848481111512206 0.0 0.0
-0.0015671343371452973 0.0006290358829895858 0.0 -0.00012766131266866128 0.0 0.0
-0.0024920828918385584 0.000991802369819111 0.0 2.8321630521440386e-05 0.0 0.0
-0.004019123040287575 0.0020202875207569228 0.0 0.00017384436778010881 0.0 0.0
-0.006430155209045303 0.004003793730210318 0.0 0.0002117868945662898 0.0 0.0
-0.009821555529688284 0.006930664675074348 0.0 0.00022575704342771947 0.0 0.0
-0.014330291896742313 0.010959877177238312 0.0 0.00022512863030538558 0.0 0.0
-0.020031967035626624 0.016111221144941193 0.0 0.0001887345696729365 0.0 0.0
-0.026972545427064322 0.0223981040712748 0.0 0.00016444361052473733 0.0 0.0
-0.035228613217832404 0.0298920799551128 0.0 0.0001487826146624057 0.0 0.0
-0.0448921561213249 0.03871390039049595 0.0 7.37620654427608e-05 0.0 0.0
-0.05603746725414523 0.048975055177855296 0.0 -2.6494572949374746e-05 0.0 0.0
-0.06859711042392405 0.060682318212940956 0.0 -0.00022642177324546514 0.0 0.0
-0.08213950774745016 0.07350896024987368 0.0 -0.0005261378567509283 0.0 0.0
-0.09570843271889333 0.08662655786104284 0.0 -0.0008193991311197246 0.0 0.0
-0.10783890268786672 0.09870671933586006 0.0 -0.0008860601199485729 0.0 0.0
-0.11696521913719121 0.10794250976824132 0.0 -0.001278446999990494 0.0 0.0
-0.1192751616332064 0.110616956157548 0.0 -0.014307694186423959 0.0 0.0
-0.11795388178128145 0.09080792928196607 0.0 1.0824674490095276e-15 0.0 0.0
-0.11927516163319017 0.11061695615753013 0.0 0.014307694186427872 0.0 0.0
-0.11696521913715967 0.10794250976821147 0.0 0.001278446999995412 0.0 0.0
-0.1078389026878212 0.0987067193358127 0.0 0.000886060119949697 0.0 0.0
-0.09570843271884022 0.08662655786099381 0.0 0.0008193991311217803 0.0 0.0
-0.08213950774739497 0.07350896024982516 0.0 0.000526137856749034 0.0 0.0
-0.06859711042386721 0.06068231821289057 0.0 0.00022642177324419185 0.0 0.0
-0.05603746725408741 0.04897505517780295 0.0 2.6494572949525667e-05 0.0 0.0
-0.04489215612126799 0.038713900390442944 0.0 -7.37620654445454e-05 0.0 0.0
-0.03522861321777887 0.029892079955058833 0.0 -0.00014878261466409488 0.0 0.0
-0.026972545427017623 0.022398104071232328 0.0 -0.00016444361052533234 0.0 0.0
-0.02003196703558823 0.016111221144906596 0.0 -0.00018873456967500105 0.0 0.0
-0.014330291896711558 0.01095987717720959 0.0 -0.00022512863030756483 0.0 0.0
-0.009821555529664946 0.006930664675053792 0.0 -0.00022575704342690513 0.0 0.0
-0.006430155209029861 0.004003793730196521 0.0 -0.00021178689456623104 0.0 0.0
-0.004019123040279049 0.0020202875207500095 0.0 -0.00017384436777914832 0.0 0.0
-0.0024920828918347663 0.0009918023698179388 0.0 -2.832163052100676e-05 0.0 0.0
-0.0015671343371438128 0.0006290358829883077 0.0 0.00012766131266956805 0.0 0.0
-0.000828964290085255 0.00034421267018082315 0.0 0.00013848481111457234 0.0 0.0
-0.0002690622260794117 8.237005119283008e-05 0.0 0.0001141514755468011 0.0 0.0
-6.919140515087395e-05 1.3556145430740438e-05 0.0 9.917521200899306e-05 0.0 0.0
SCALARS Statev float 8
LOOKUP_TABLE default
0.0 0.01503488514060532 0.011933022734208884 -0.014396678995700398 0.0024636562614915192 -0.0005911164280735451 0.0 0.0
0.0 0.004724709267734272 0.0033953933852055064 -0.0019575377044153083 -0.0014378556807901944 -0.005791877127848448 0.0 0.0
0.0 8.873373366440973e-07 4.039713473907381e-05 -2.654019271075408e-05 -1.385694202831988e-05 -0.00014130490260006462 0.0 0.0
0.0 9.515504365781938e-05 1.2042255111142246e-05 -8.417415630057219e-06 -3.6248394810851107e-06 7.075593638947713e-06 0.0 0.0
0.0 0.0005896784415253622 0.00028895352010143034 -0.00020844545704139358 -8.050806306003706e-05 7.29885077904862e-05 0.0 0.0
0.0 0.001398098708558916 0.0014458431432830337 -0.0011154762753876764 -0.00033036686789535743 0.00014956384808232986 0.0 0.0
0.0 0.0037534812502949834 0.0034755592470770637 -0.0028713533394933476 -0.0006042059075837152 0.00020528780827384492 0.0 0.0
0.0 0.007190720956762601 0.0065746704132196585 -0.00572210369730747 -0.0008525667159121921 0.00023446827980205676 0.0 0.0
0.0 0.011963797310453207 0.010801014052468512 -0.009743832565617627 -0.0010571814868508833 0.0002457517022243052 0.0 0.0
0.0 0.018156330355142844 0.016196663213978765 -0.014939893645859969 -0.0012567695681188025 0.00022669198446228006 0.0 0.0
0.0 0.025802803121642185 0.02280411068532141 -0.02132438212548725 -0.001479728559834145 0.00021860637762980437 0.0 0.0
0.0 0.03466987392912817 0.030710827172006377 -0.028976588899035028 -0.0017342382729713462 0.00021547346324877516 0.0 0.0
0.0 0.04522961712695783 0.04001457345367271 -0.03800152219193551 -0.0020130512617371784 0.00014657306358014331 0.0 0.0
0.0 0.057525890648979526 0.05080706617488507 -0.04849923511999683 -0.002307831054888268 6.407402749592352e-05 0.0 0.0
0.0 0.07156773281825465 0.06309202858901619 -0.060488948964182845 -0.0026030796248332983 -9.079067399505843e-05 0.0 0.0
0.0 0.08711134577362085 0.07661990297446016 -0.07373724106279159 -0.0028826619116685505 -0.0003368327987800686 0.0 0.0
0.0 0.10340070572953466 0.0907668059051842 -0.08763424414128532 -0.0031325617638989552 -0.0006376461542928324 0.0 0.0
0.0 0.11924344236571538 0.10451001130654182 -0.10117155686036042 -0.0033384544461812545 -0.0008776269943844017 0.0 0.0
0.0 0.133113917341955 0.11653426640323664 -0.11304209134646499 -0.003492175056771717 -0.0008905052522687018 0.0 0.0
0.0 0.1430762943654376 0.1253485155597652 -0.12177282967498923 -0.0035756858847760488 -0.0008877005790608153 0.0 0.0
0.0 0.14699797407423834 0.1287946542317217 -0.1252278090693663 -0.0035668451623554805 2.0304938286308527e-15 0.0 0.0
0.0 0.14307629436542366 0.12534851555975224 -0.12177282967497767 -0.003575685884774488 0.0008877005790662263 0.0 0.0
0.0 0.13311391734192202 0.11653426640320756 -0.11304209134643738 -0.003492175056770141 0.000890505252273412 0.0 0.0
0.0 0.11924344236566461 0.10451001130649766 -0.10117155686031679 -0.003338454446180804 0.000877626994387857 0.0 0.0
0.0 0.1034007057294766 0.09076680590513365 -0.08763424414123615 -0.0031325617638975644 0.0006376461542922677 0.0 0.0
0.0 0.08711134577356254 0.07661990297440864 -0.07373724106274174 -0.0028826619116669554 0.0003368327987783707 0.0 0.0
0.0 0.07156773281819653 0.06309202858896518 -0.06048894896413345 -0.0026030796248316347 9.079067399451806e-05 0.0 0.0
0.0 0.05752589064892076 0.050807066174833576 -0.048499235119946915 -0.002307831054886684 -6.407402749666023e-05 0.0 0.0
0.0 0.0452296171268975 0.04001457345361986 -0.038001522191884234 -0.0020130512617356046 -0.00014657306358135578 0.0 0.0
0.0 0.03466987392907341 0.030710827171958267 -0.028976588898988232 -0.0017342382729700363 -0.0002154734632501998 0.0 0.0
0.0 0.02580280312159622 0.02280411068528097 -0.02132438212544807 -0.0014797285598328912 -0.0002186063776309211 0.0 0.0
0.0 0.018156330355101932 0.01619666321394301 -0.014939893645825313 -0.0012567695681177252 -0.00022669198446334353 0.0 0.0
0.0 0.011963797310425173 0.010801014052443408 -0.009743832565593719 -0.0010571814868496746 -0.000245751702224536 0.0 0.0
0.0 0.007190720956741928 0.0065746704132006095 -0.005722103697289671 -0.0008525667159109357 -0.00023446827980177373 0.0 0.0
0.0 0.0037534812502826795 0.003475559247065012 -0.0028713533394825533 -0.0006042059075824552 -0.00020528780827394944 0.0 0.0
0.0 0.0013980987085530255 0.00144584314327666 -0.0011154762753825364 -0.000330366867894123 -0.00014956384808173956 0.0 0.0
0.0 0.000589678441522776 0.0002889535201000622 -0.00020844545704042498 -8.05080630596365e-05 -7.298850779007152e-05 0.0 0.0
0.0 9.515504365697131e-05 1.2042255111153662e-05 -8.417415630070816e-06 -3.624839481082344e-06 -7.0755936389123795e-06 0.0 0.0
0.0 8.873373360553319e-07 4.039713473873021e-05 -2.654019271050459e-05 -1.3856942028225141e-05 0.00014130490259929457 0.0 0.0
0.0 0.004724709267725632 0.003395393385200987 -0.0019575377044123037 -0.0014378556807886768 0.005791877127839525 0.0 0.0
0.0 0.015034885140586486 0.01193302273419598 -0.014396678995682444 0.00246365626148645 0.0005911164280430427 0.0 0.0
0.0 0.012088862006438678 0.008924908669696151 -0.011739399751796884 0.0028144910821007348 -0.00014782710329609542 0.0 0.0
0.0 0.0027189085031574444 0.0019399575646624197 -0.00107914793407758 -0.0008608096305848392 -0.004333982359187993 0.0 0.0
0.0 -2.6519642445269504e-05 -3.7489121686682086e-05 3.1658899188836184e-05 5.830222497845936e-06 -2.6225219052607e-05 0.0 0.0
0.0 9.688048004332718e-06 1.3645832738551088e-06 -9.516581548174755e-07 -4.129251190376726e-07 3.661699243832085e-06 0.0 0.0
0.0 0.0002631306342174647 0.0001612888115205444 -0.00011715489629295588 -4.413391522758841e-05 2.9968811326897672e-05 0.0 0.0
0.0 0.0012524704769082513 0.0010287222203729928 -0.0008004655823400681 -0.00022825663803292714 4.9132972870622885e-05 0.0 0.0
0.0 0.003114164292097526 0.0028863639302320826 -0.002408839178678662 -0.00047752475155341776 -0.00010348733013657966 0.0 0.0
0.0 0.0063020199157173854 0.0057210507140019705 -0.00503797393884254 -0.000683076775159434 -0.0003396747007796871 0.0 0.0
0.0 0.010750760663025452 0.009613391075393114 -0.008787218872042727 -0.0008261722033503776 -0.0006611840271832431 0.0 0.0
0.0 0.01644688518823818 0.014576145861325876 -0.013637032417423214 -0.0009391134439026515 -0.0010436474939402392 0.0 0.0
0.0 0.023434743353715603 0.02062563381747926 -0.01957900502875971 -0.001046628788719561 -0.0014443938558772957 0.0 0.0
0.0 0.03188778318455005 0.02782612001302897 -0.026669580417818157 -0.0011565395952107922 -0.0018456424569305392 0.0 0.0
0.0 0.04136501287889446 0.03630510683304927 -0.03503654089110945 -0.0012685659419398028 -0.0023048554031776035 0.0 0.0
0.0 0.05273163908740919 0.046169010967356094 -0.04479315521124051 -0.0013758557561155637 -0.0028412278568239998 0.0 0.0
0.0 0.06570968018213581 0.057435513012569724 -0.055968274978160655 -0.0014672380344090705 -0.0034479519289910545 0.0 0.0
0.0 0.08008375492889412 0.069887407169516 -0.06835422276593893 -0.0015331844035770949 -0.0040965145546791384 0.0 0.0
0.0 0.09522667287340777 0.08295688574465636 -0.08138881680293965 -0.0015680689417165998 -0.004634785048642706 0.0 0.0
0.0 0.11005375566868343 0.09571037037575701 -0.09413668355168149 -0.0015736868240755829 -0.0047793410671047535 0.0 0.0
0.0 0.12307360428561777 0.10690708606091019 -0.10535405482150197 -0.0015530312394081193 -0.0042693158480220554 0.0 0.0
0.0 0.13251948238676645 0.11498029671901581 -0.11350051701837717 -0.0014797797006386015 -0.003254670533258461 0.0 0.0
0.0 0.13637226621226736 0.11808348215629373 -0.11671651004356173 -0.0013669721127319708 4.567093231377939e-15 0.0 0.0
0.0 0.13251948238674982 0.11498029671900097 -0.11350051701836253 -0.0014797797006383744 0.003254670533270737 0.0 0.0
0.0 0.12307360428558893 0.10690708606088477 -0.1053540548214775 -0.0015530312394072484 0.00426931584803535 0.0 0.0
0.0 0.11005375566863712 0.09571037037571717 -0.09413668355164122 -0.0015736868240758897 0.004779341067113493 0.0 0.0
0.0 0.09522667287335507 0.08295688574461114 -0.08138881680289455 -0.0015680689417166035 0.004634785048643728 0.0 0.0
0.0 0.08008375492884154 0.06988740716947021 -0.06835422276589354 -0.0015331844035765354 0.0040965145546770255 0.0 0.0
0.0 0.06570968018208134 0.05743551301252224 -0.0559682749781139 -0.0014672380344083807 0.0034479519289894963 0.0 0.0
0.0 0.05273163908735373 0.04616901096730788 -0.0447931552111929 -0.0013758557561149528 0.0028412278568226003 0.0 0.0
0.0 0.04136501287883852 0.036305106833000866 -0.03503654089106151 -0.0012685659419393559 0.0023048554031746492 0.0 0.0
0.0 0.03188778318450004 0.02782612001298515 -0.026669580417774865 -0.0011565395952102462 0.0018456424569272055 0.0 0.0
0.0 0.0234347433536723 0.02062563381744156 -0.019579005028722646 -0.0010466287887189415 0.0014443938558733752 0.0 0.0
0.0 0.016446885188202916 0.014576145861294527 -0.013637032417392479 -0.0009391134439020368 0.0010436474939368569 0.0 0.0
0.0 0.010750760662999919 0.009613391075369904 -0.008787218872020308 -0.0008261722033495965 0.0006611840271810124 0.0 0.0
0.0 0.0063020199156986895 0.005721050713984718 -0.00503797393882625 -0.0006830767751584668 0.0003396747007780635 0.0 0.0
0.0 0.0031141642920863373 0.0028863639302213924 -0.002408839178669054 -0.00047752475155233746 0.00010348733013542503 0.0 0.0
0.0 0.0012524704769021591 0.0010287222203677268 -0.0008004655823357946 -0.00022825663803193187 -4.913297287064537e-05 0.0 0.0
0.0 0.0002631306342154777 0.00016128881151952792 -0.00011715489629223627 -4.4133915227291976e-05 -2.996881132660323e-05 0.0 0.0
0.0 9.688048003846747e-06 1.364583274065547e-06 -9.516581549777622e-07 -4.129251190876238e-07 -3.661699243831449e-06 0.0 0.0
0.0 -2.6519642445179952e-05 -3.7489121686466086e-05 3.1658899188647864e-05 5.830222497818083e-06 2.6225219052452257e-05 0.0 0.0
0.0 0.002718908503149165 0.0019399575646577936 -0.001079147934074459 -0.000860809630583334 0.004333982359178217 0.0 0.0
0.0 0.012088862006418902 0.008924908669681045 -0.011739399751777466 0.0028144910820964084 0.00014782710327380076 0.0 0.0
0.0 0.008799216188985179 0.006351532648692855 -0.008604260543828655 0.002252727895135801 -0.0022099540639995987 0.0 0.0
0.0 0.00188528332833463 0.0011803415434986553 -0.0005891859550921116 -0.0005911555884065446 -0.003354795452070538 0.0 0.0
0.0 1.2634912319597936e-08 -1.3678156687548327e-09 1.0394932843731892e-09 3.2832238438154863e-10 4.875689838480855e-10 0.0 0.0
0.0 2.4741584509922023e-06 4.7279299079793027e-07 -3.757275601353786e-07 -9.706543066267752e-08 -3.3288046466886384e-07 0.0 0.0
0.0 7.743589309503394e-05 4.487045128673484e-05 -3.08559505011624e-05 -1.4014500785572693e-05 1.3900771726728151e-05 0.0 0.0
0.0 0.0008392917433196687 0.00062352294170524 -0.00047328031832838565 -0.00015024262337685372 -9.624535627322106e-06 0.0 0.0
0.0 0.0023005621454474192 0.0021919274190515883 -0.001790874371506285 -0.00040105304754530467 -0.00030978680255103034 0.0 0.0
0.0 0.005157613018000415 0.004689352602701668 -0.004069631219850319 -0.0006197213828513464 -0.0007845264180227795 0.0 0.0
0.0 0.009102831311163066 0.00816890619638273 -0.007392887846195788 -0.0007760183501869351 -0.0014173982906085494 0.0 0.0
0.0 0.014247705866738888 0.012604662918411417 -0.011714134703097786 -0.0008905282153136372 -0.002159099361867126 0.0 0.0
0.0 0.02049781967103254 0.017987174363435023 -0.016993710250457737 -0.0009934641129772685 -0.0029475245387766895 0.0 0.0
0.0 0.027789875516396178 0.024362739100172885 -0.02326572273770871 -0.0010970163624641587 -0.0037371976140798714 0.0 0.0
0.0 0.03660580215261134 0.031844431775277814 -0.03064242598473979 -0.00120200579053804 -0.004557810098774499 0.0 0.0
0.0 0.04641721566779746 0.040583262557718276 -0.03928132728399794 -0.0013019352737203135 -0.005506249462829813 0.0 0.0
0.0 0.0580002442234788 0.05061112937499957 -0.04922365100261461 -0.0013874783723849644 -0.006598743750916122 0.0 0.0
0.0 0.07087160371313798 0.061752491212100594 -0.060302792183156644 -0.00144969902894386 -0.007735718487991063 0.0 0.0
0.0 0.08449705629727076 0.07352981069680664 -0.07204456196948411 -0.0014852487273224943 -0.008650406064515354 0.0 0.0
0.0 0.09791564035029464 0.08512246917598205 -0.08362979894047748 -0.0014926702355045555 -0.008888226639506992 0.0 0.0
0.0 0.10979294253180247 0.09535569726621931 -0.09389105135954505 -0.00146464590667422 -0.008037263398032663 0.0 0.0
0.0 0.11840996621252248 0.10274768629000967 -0.10133438099071237 -0.0014133052992971848 -0.00597704197107252 0.0 0.0
0.0 0.12204177251316481 0.10566256636215453 -0.10439034488941158 -0.0012722214727428427 9.530570777016578e-15 0.0 0.0
0.0 0.11840996621250843 0.10274768628999674 -0.10133438099069933 -0.0014133052992974578 0.005977041971094697 0.0 0.0
0.0 0.10979294253177513 0.09535569726619535 -0.09389105135952124 -0.0014646459066741358 0.008037263398056415 0.0 0.0
0.0 0.09791564035025666 0.08512246917594897 -0.08362979894044459 -0.0014926702355043582 0.008888226639521029 0.0 0.0
0.0 0.08449705629722361 0.07352981069676637 -0.0720445619694438 -0.0014852487273226097 0.008650406064516206 0.0 0.0
0.0 0.07087160371309205 0.061752491212060535 -0.0603027921831171 -0.0014496990289434308 0.0077357184879877985 0.0 0.0
0.0 0.05800024422342859 0.050611129374955925 -0.04922365100257142 -0.001387478372384495 0.006598743750914295 0.0 0.0
0.0 0.04641721566775027 0.0405832625576771 -0.03928132728395752 -0.0013019352737195801 0.00550624946282806 0.0 0.0
0.0 0.03660580215256224 0.03184443177523529 -0.030642425984697595 -0.001202005790537686 0.004557810098768804 0.0 0.0
0.0 0.027789875516351443 0.024362739100134145 -0.02326572273767042 -0.0010970163624637239 0.0037371976140735345 0.0 0.0
0.0 0.020497819670992963 0.01798717436339997 -0.016993710250423344 -0.0009934641129766104 0.002947524538769856 0.0 0.0
0.0 0.014247705866707457 0.012604662918383306 -0.0117141347030703 -0.0008905282153130049 0.0021590993618609577 0.0 0.0
0.0 0.009102831311139217 0.008168906196361313 -0.007392887846175173 -0.0007760183501861382 0.0014173982906043603 0.0 0.0
0.0 0.005157613017984024 0.004689352602686905 -0.004069631219836548 -0.0006197213828503534 0.000784526418019483 0.0 0.0
0.0 0.0023005621454377134 0.0021919274190422035 -0.0017908743714981138 -0.0004010530475440896 0.00030978680254902403 0.0 0.0
0.0 0.0008392917433148525 0.0006235229417013748 -0.0004732803183253708 -0.00015024262337600365 9.624535626949159e-06 0.0 0.0
0.0 7.743589309387996e-05 4.487045128642632e-05 -3.085595050095451e-05 -1.4014500785471793e-05 -1.3900771726460741e-05 0.0 0.0
0.0 2.4741584506782686e-06 4.7279299079135925e-07 -3.7572756012885704e-07 -9.706543066248022e-08 3.3288046464832705e-07 0.0 0.0
0.0 1.2634912310065045e-08 -1.367815667713223e-09 1.0394932835817643e-09 3.283223841315191e-10 -4.875689834762404e-10 0.0 0.0
0.0 0.0018852833283280056 0.0011803415434946834 -0.0005891859550895258 -0.0005911555884051564 0.003354795452059875 0.0 0.0
0.0 0.008799216188965122 0.006351532648678064 -0.00860426054380948 0.0022527278951314186 0.002209954063984276 0.0 0.0
0.0 0.00652569589637152 0.004574654481658436 -0.00633434847770021 0.0017596939960417687 -0.0024440895864448614 0.0 0.0
0.0 0.0012868750706200105 0.0007547914721375418 -0.00036056983593510514 -0.00039422163620243567 -0.002412208690803469 0.0 0.0
0.0 0.0 0.0 0.0 0.0 0.0 0.0 0.0
0.0 -2.8912648774110233e-07 3.684006795353483e-08 -2.506884857652638e-08 -1.177121937701202e-08 -3.522467567548589e-08 0.0 0.0
0.0 1.3513737542477511e-05 -9.72429157588819e-06 8.442282074996139e-06 1.2820095008922947e-06 1.2089795688504082e-05 0.0 0.0
0.0 0.0004108344964696 0.0003284377078551549 -0.0002435701010306903 -8.486760682446393e-05 -3.9624895889962116e-05 0.0 0.0
0.0 0.0017595422476679732 0.0015104202405488798 -0.0012038966453998346 -0.00030652359514904426 -0.0003489749459581764 0.0 0.0
0.0 0.004047046299211411 0.003673243030693281 -0.003131346272407618 -0.0005418967582856638 -0.001042622048243871 0.0 0.0
0.0 0.007526341126176282 0.0067241116466438 -0.006009359666224551 -0.0007147519804192507 -0.001920322204710599 0.0 0.0
0.0 0.012056301180358067 0.01062546462335371 -0.009790269272346335 -0.0008351953510073716 -0.002945906297246247 0.0 0.0
0.0 0.01749375208769736 0.015342503122189368 -0.014407515710881233 -0.0009349874113081288 -0.004033731416657242 0.0 0.0
0.0 0.023995735063736767 0.020897043323820662 -0.019865014776908444 -0.0010320285469122136 -0.00512143874528705 0.0 0.0
0.0 0.031383205409427 0.027401777829240137 -0.026271182003862897 -0.0011305958253772477 -0.006238355200617316 0.0 0.0
0.0 0.040400827427248424 0.034995846851937414 -0.03377321735957399 -0.0012226294923634213 -0.0074830370202705 0.0 0.0
0.0 0.05043689569780459 0.043761365464911446 -0.042459600605823565 -0.001301764859087863 -0.008912079905142511 0.0 0.0
0.0 0.061606629836247734 0.05357582493094259 -0.05221324750566787 -0.0013625774252747113 -0.010418611347886651 0.0 0.0
0.0 0.07380301071528511 0.06404794976567352 -0.06264873625263588 -0.0013992135130376441 -0.01164729495007955 0.0 0.0
0.0 0.08587873166540279 0.07447746395196268 -0.0730703350863882 -0.0014071288655744876 -0.012035835788060036 0.0 0.0
0.0 0.0966530439281363 0.08380351625876317 -0.08241947676684983 -0.0013840394919132516 -0.011006842634508414 0.0 0.0
0.0 0.1045859862811015 0.09069214079863216 -0.08934854458816546 -0.0013435962104667875 -0.007994837889707982 0.0 0.0
0.0 0.1081768834941784 0.09355014904317094 -0.09240544304666473 -0.001144705996506233 1.2750651229298526e-14 0.0 0.0
0.0 0.10458598628109052 0.09069214079862128 -0.08934854458815494 -0.0013435962104663818 0.007994837889738138 0.0 0.0
0.0 0.09665304392811082 0.08380351625874044 -0.08241947676682715 -0.001384039491913304 0.011006842634537765 0.0 0.0
0.0 0.08587873166536907 0.07447746395193308 -0.07307033508635855 -0.001407128865574501 0.012035835788077126 0.0 0.0
0.0 0.07380301071524414 0.06404794976563845 -0.06264873625260109 -0.0013992135130373809 0.01164729495008168 0.0 0.0
0.0 0.0616066298362075 0.05357582493090765 -0.05221324750563326 -0.001362577425274381 0.010418611347881926 0.0 0.0
0.0 0.05043689569776005 0.04376136546487275 -0.042459600605785304 -0.0013017648590874762 0.008912079905138759 0.0 0.0
0.0 0.040400827427209476 0.034995846851903135 -0.03377321735954056 -0.0012226294923625637 0.007483037020267799 0.0 0.0
0.0 0.03138320540938464 0.027401777829203753 -0.02627118200382691 -0.0011305958253768566 0.006238355200610482 0.0 0.0
0.0 0.023995735063698065 0.02089704332378657 -0.019865014776874898 -0.0010320285469116773 0.005121438745278331 0.0 0.0
0.0 0.017493752087664016 0.015342503122160045 -0.01440751571085251 -0.0009349874113075252 0.0040337314166486735 0.0 0.0
0.0 0.012056301180328985 0.010625464623328173 -0.009790269272321416 -0.000835195351006755 0.0029459062972374446 0.0 0.0
0.0 0.007526341126154591 0.006724111646624637 -0.00600935966620614 -0.0007147519804184976 0.0019203222047046817 0.0 0.0
0.0 0.004047046299197722 0.003673243030680242 -0.003131346272395679 -0.0005418967582845611 0.0010426220482396226 0.0 0.0
0.0 0.0017595422476586312 0.0015104202405411538 -0.001203896645393315 -0.00030652359514783884 0.00034897494595571913 0.0 0.0
0.0 0.0004108344964657773 0.00032843770785250795 -0.00024357010102869106 -8.486760682381671e-05 3.962489588943691e-05 0.0 0.0
0.0 1.3513737541929066e-05 -9.724291575569367e-06 8.44228207473432e-06 1.2820095008350173e-06 -1.208979568817293e-05 0.0 0.0
0.0 -2.8912648765985233e-07 3.6840067894976894e-08 -2.5068848530531624e-08 -1.1771219364432718e-08 3.522467563099607e-08 0.0 0.0
0.0 0.0 0.0 0.0 0.0 0.0 0.0 0.0
0.0 0.0012868750706142417 0.0007547914721342528 -0.00036056983593294324 -0.00039422163620131124 0.0024122086907944077 0.0 0.0
0.0 0.006525695896355401 0.004574654481645894 -0.006334348477683727 0.0017596939960378376 0.0024440895864338346 0.0 0.0
0.0 0.004637764304082814 0.003241204066869499 -0.004564872405451221 0.001323668338581723 -0.0021157637008641923 0.0 0.0
0.0 0.00102726505908387 0.0004508298377062989 -0.00019924399963293994 -0.00025158583807335873 -0.001604851011982455 0.0 0.0
0.0 0.0 0.0 0.0 0.0 0.0 0.0 0.0
0.0 -2.1175026786527247e-07 1.9226471027512064e-08 -1.544969006812908e-08 -3.77678095938152e-09 -2.443498433731356e-08 0.0 0.0
0.0 -1.405223114540929e-05 -6.439648976463802e-06 5.048654800788333e-06 1.3909941756754686e-06 4.827161940619171e-06 0.0 0.0
0.0 0.0001730681143388423 0.00010122748825756243 -7.194803444103071e-05 -2.9279453816531533e-05 -9.974936491443966e-07 0.0 0.0
0.0 0.001226064921354314 0.0009233489112489611 -0.0007176186662594356 -0.00020573024498952484 -0.0003137967053433698 0.0 0.0
0.0 0.0029971620229834 0.0026888713887395655 -0.002239266436640839 -0.0004496049520987255 -0.001074058024156977 0.0 0.0
0.0 0.005983306511588947 0.005296527326271344 -0.004657994013197628 -0.0006385333130737157 -0.0021624735912321863 0.0 0.0
0.0 0.009866951171320196 0.008654791491100242 -0.00788527398067302 -0.000769517510427222 -0.0033965079338990093 0.0 0.0
0.0 0.014590505401118711 0.012704740915363794 -0.01183537398387172 -0.0008693669314920739 -0.004700707150011354 0.0 0.0
0.0 0.02014369341655654 0.01744760614343863 -0.016486636540903682 -0.0009609696025349398 -0.005998269049842138 0.0 0.0
0.0 0.026680849739903274 0.02297488865938011 -0.021923008135692115 -0.0010518805236879691 -0.007319617119991805 0.0 0.0
0.0 0.03398313506278029 0.029440314849804014 -0.028302295158984213 -0.0011380196908197969 -0.0087720565930385 0.0 0.0
0.0 0.04278738908040794 0.03692801136422084 -0.03571661904910958 -0.0012113923151112578 -0.010414371084134061 0.0 0.0
0.0 0.05269400720688214 0.04538177009318532 -0.04411359441087817 -0.0012681756823071438 -0.01213386617519108 0.0 0.0
0.0 0.06313673454570891 0.054521504104060106 -0.05321454605397487 -0.0013069580500852454 -0.013585023178994205 0.0 0.0
0.0 0.07381819912004306 0.06377168667768383 -0.06245129753144521 -0.0013203891462386307 -0.014175550953966616 0.0 0.0
0.0 0.08356786509470902 0.07223306725902251 -0.07092861460764174 -0.0013044526513807811 -0.013112417461633977 0.0 0.0
0.0 0.09101393829790348 0.07873223886866133 -0.07746492462210829 -0.0012673142465529949 -0.009509723826057862 0.0 0.0
0.0 0.09467901394220944 0.08161330766415664 -0.08061683387326932 -0.0009964737908873603 1.3938936810342639e-14 0.0 0.0
0.0 0.09101393829789113 0.0787322388686493 -0.07746492462209575 -0.0012673142465534255 0.009509723826091804 0.0 0.0
0.0 0.08356786509468815 0.07223306725900305 -0.07092861460762263 -0.0013044526513804478 0.01311241746166633 0.0 0.0
0.0 0.07381819912001315 0.06377168667765747 -0.062451297531418426 -0.001320389146239072 0.01417555095398615 0.0 0.0
0.0 0.06313673454567287 0.05452150410402915 -0.05321454605394406 -0.0013069580500851246 0.013585023178997718 0.0 0.0
0.0 0.05269400720684604 0.045381770093153945 -0.04411359441084718 -0.0012681756823067197 0.012133866175185743 0.0 0.0
0.0 0.0427873890803703 0.036928011364188044 -0.03571661904907744 -0.0012113923151106042 0.01041437108412891 0.0 0.0
0.0 0.033983135062745376 0.029440314849773396 -0.02830229515895426 -0.0011380196908191188 0.008772056593034261 0.0 0.0
0.0 0.026680849739868652 0.022974888659349744 -0.02192300813566227 -0.0010518805236874713 0.007319617119985236 0.0 0.0
0.0 0.02014369341652344 0.01744760614340973 -0.01648663654087534 -0.0009609696025343863 0.005998269049831519 0.0 0.0
0.0 0.014590505401089176 0.012704740915338218 -0.011835373983846887 -0.0008693669314913304 0.004700707149999723 0.0 0.0
0.0 0.009866951171295489 0.0086547914910788 -0.007885273980652191 -0.0007695175104266033 0.0033965079338891843 0.0 0.0
0.0 0.005983306511571045 0.005296527326255431 -0.004657994013182565 -0.0006385333130728631 0.0021624735912252457 0.0 0.0
0.0 0.0029971620229704995 0.0026888713887279407 -0.002239266436630454 -0.0004496049520974878 0.0010740580241516617 0.0 0.0
0.0 0.0012260649213469126 0.0009233489112432855 -0.000717618666254866 -0.00020573024498841987 0.0003137967053410745 0.0 0.0
0.0 0.00017306811433654112 0.00010122748825638912 -7.19480344401608e-05 -2.927945381622792e-05 9.97493648846745e-07 0.0 0.0
0.0 -1.4052231145934048e-05 -6.43964897630206e-06 5.0486548006598946e-06 1.390994175642099e-06 -4.827161940449597e-06 0.0 0.0
0.0 -2.117502677458955e-07 1.9226471016883667e-08 -1.5449690059872236e-08 -3.776780957015529e-09 2.4434984322558555e-08 0.0 0.0
0.0 0.0 0.0 0.0 0.0 0.0 0.0 0.0
0.0 0.001027265059078262 0.0004508298377037301 -0.00019924399963122772 -0.0002515858380725015 0.0016048510119750458 0.0 0.0
0.0 0.00463776430406985 0.0032412040668593697 -0.004564872405437643 0.0013236683385782668 0.002115763700856527 0.0 0.0
0.0 0.003273448145461251 0.00219619057157938 -0.003136375330868328 0.0009401847592889495 -0.001645807316288106 0.0 0.0
0.0 0.000541884276112148 0.00024668139957017025 -9.491695886325693e-05 -0.0001517644407069137 -0.0009921751508571229 0.0 0.0
0.0 0.0 0.0 0.0 0.0 0.0 0.0 0.0
0.0 9.284367499638105e-09 -7.860409871244372e-10 5.99985333389106e-10 1.8605565373520125e-10 1.1788236078775784e-09 0.0 0.0
0.0 -2.6733441972951482e-06 -1.613286936785194e-06 1.3081875211649529e-06 3.050994156202537e-07 2.0682838643738122e-06 0.0 0.0
0.0 1.0111897992506101e-05 1.0374212643675596e-05 -5.7138425386822395e-06 -4.660370104993484e-06 1.6640212567617893e-05 0.0 0.0
0.0 0.0005659801728845992 0.0004950491631107317 -0.0003763919966036656 -0.00011865716650706611 -0.0002552563152050371 0.0 0.0
0.0 0.002289058003268227 0.001755979482076932 -0.0014239238186435589 -0.00033205566343337366 -0.0009241333023709192 0.0 0.0
0.0 0.004364123477181023 0.003907397003016667 -0.003363818468130513 -0.00054357853488615 -0.002114274825392454 0.0 0.0
0.0 0.007757611774371895 0.0067078962098152195 -0.006019832134952189 -0.0006880640748630278 -0.0034983257184833696 0.0 0.0
0.0 0.011708014882021986 0.01009098709040615 -0.009298236388628148 -0.0007927507017780073 -0.004934916729075323 0.0 0.0
0.0 0.016319050579351808 0.014029688064873227 -0.013148420213868492 -0.0008812678510047316 -0.006362186606711363 0.0 0.0
0.0 0.02167055367902588 0.01859537590758008 -0.01762927188640231 -0.0009661040211777813 -0.0077961436380342974 0.0 0.0
0.0 0.027995849478680987 0.023925345579115225 -0.022880857738607818 -0.0010444878405074121 -0.009345250132850574 0.0 0.0
0.0 0.035204931090914514 0.030137071699737304 -0.029024053085231 -0.0011130186145063023 -0.0110860194618445 0.0 0.0
0.0 0.04333258887026325 0.03722121842041177 -0.0360534881083273 -0.001167730312084452 -0.012905796705674216 0.0 0.0
0.0 0.05264330388715302 0.04497630643442748 -0.043770009571977894 -0.0012062968624496147 -0.014466735027535047 0.0 0.0
0.0 0.061836396274567614 0.053001219006117144 -0.05177361741096759 -0.0012276015951495473 -0.015225479061497516 0.0 0.0
0.0 0.07038549243078121 0.06060621348917755 -0.05938382740796757 -0.0012223860812099452 -0.0143165827472494 0.0 0.0
0.0 0.07748000014879969 0.06678304466704589 -0.06559713676212393 -0.001185907904921903 -0.010562242879563068 0.0 0.0
0.0 0.08132933485993873 0.06974941460086931 -0.06892060467102087 -0.0008288099298484061 1.486267706130029e-14 0.0 0.0
0.0 0.07748000014879293 0.06678304466703809 -0.06559713676211602 -0.0011859079049221708 0.010562242879597374 0.0 0.0
0.0 0.07038549243076334 0.060606213489160496 -0.05938382740795037 -0.001222386081210135 0.014316582747281231 0.0 0.0
0.0 0.06183639627454388 0.05300121900609569 -0.05177361741094624 -0.0012276015951494083 0.01522547906151708 0.0 0.0
0.0 0.05264330388712152 0.04497630643440074 -0.043770009571950944 -0.0012062968624497752 0.014466735027537585 0.0 0.0
0.0 0.04333258887023243 0.037221218420385165 -0.03605348810830086 -0.0011677303120843081 0.012905796705668517 0.0 0.0
0.0 0.03520493109088398 0.030137071699710617 -0.02902405308520497 -0.0011130186145056657 0.011086019461838854 0.0 0.0
0.0 0.027995849478652378 0.023925345579089836 -0.022880857738583265 -0.0010444878405065857 0.00934525013284533 0.0 0.0
0.0 0.021670553678997884 0.018595375907555813 -0.017629271886378695 -0.0009661040211770978 0.007796143638028014 0.0 0.0
0.0 0.016319050579324004 0.014029688064849373 -0.013148420213845073 -0.0008812678510042955 0.006362186606700768 0.0 0.0
0.0 0.01170801488199615 0.010090987090384496 -0.009298236388607021 -0.0007927507017774771 0.004934916729062439 0.0 0.0
0.0 0.007757611774351545 0.0067078962097974985 -0.006019832134935154 -0.0006880640748623359 0.003498325718472611 0.0 0.0
0.0 0.004364123477167543 0.003907397003004333 -0.0033638184681191014 -0.0005435785348852343 0.002114274825385428 0.0 0.0
0.0 0.0022890580032564932 0.0017559794820676245 -0.00142392381863553 -0.00033205566343209376 0.0009241333023655431 0.0 0.0
0.0 0.0005659801728796898 0.0004950491631070693 -0.00037639199660085155 -0.00011865716650621797 0.0002552563152029867 0.0 0.0
0.0 1.0111897991672951e-05 1.0374212643566473e-05 -5.713842538631048e-06 -4.660370104935436e-06 -1.664021256734857e-05 0.0 0.0
0.0 -2.673344197717756e-06 -1.6132869367683748e-06 1.3081875211535971e-06 3.050994156147641e-07 -2.0682838643750095e-06 0.0 0.0
0.0 9.284367478450311e-09 -7.860409853173938e-10 5.99985332009828e-10 1.8605565330757216e-10 -1.1788236051675036e-09 0.0 0.0
0.0 0.0 0.0 0.0 0.0 0.0 0.0 0.0
0.0 0.000541884276107802 0.00024668139956836283 -9.49169588620679e-05 -0.00015176444070629433 0.000992175150851513 0.0 0.0
0.0 0.0032734481454508297 0.0021961905715712857 -0.003136375330857227 0.0009401847592859369 0.0016458073162823087 0.0 0.0
0.0 0.002040038165641801 0.0013936585458754313 -0.0020082436883611947 0.0006145851424857632 -0.0011966616323840986 0.0 0.0
0.0 0.00028596835545711616 9.756009505926976e-05 -1.2255152198966202e-05 -8.530494286030338e-05 -0.0005120437935683446 0.0 0.0
0.0 0.0 0.0 0.0 0.0 0.0 0.0 0.0
0.0 0.0 0.0 0.0 0.0 0.0 0.0 0.0
0.0 -2.2773181053113737e-06 2.382967823053397e-07 -1.8828000728164495e-07 -5.001677502368458e-08 -6.069576670176877e-07 0.0 0.0
0.0 -2.5096633304023743e-05 -2.046045658694884e-05 1.650924847954231e-05 3.9512081074066015e-06 3.7363336132324666e-05 0.0 0.0
0.0 0.00024146490458507874 0.00017221407284313112 -0.00012874990344370643 -4.346416939942489e-05 -0.00012439819606273935 0.0 0.0
0.0 0.0011945551405065594 0.0010094149244220774 -0.0007973127723087513 -0.00021210215211332623 -0.0007320161644693969 0.0 0.0
0.0 0.003354469713910491 0.002561601597988965 -0.002147682171554078 -0.0004139194264348869 -0.001769489798692417 0.0 0.0
0.0 0.005570339034443953 0.004811244820802495 -0.004228573807338796 -0.0005826710134637018 -0.003218154046803086 0.0 0.0
0.0 0.00889621034133762 0.007519811561648293 -0.0068223424956518 -0.0006974690659964932 -0.00471690821383241 0.0 0.0
0.0 0.012610917492734245 0.01065898525217974 -0.009871540849991955 -0.0007874444021877805 -0.006193973607807053 0.0 0.0
0.0 0.016865531554161126 0.014275000602039614 -0.013406854421328551 -0.0008681461807110646 -0.007654719540043382 0.0 0.0
0.0 0.021834581340936104 0.018489231372410726 -0.017548468249966254 -0.0009407631224444674 -0.00920145985105076 0.0 0.0
0.0 0.027598605283355247 0.023421618000367087 -0.02241761728752746 -0.0010040007128396097 -0.010904869497807378 0.0 0.0
0.0 0.03453263825445352 0.029111399347132375 -0.028056881514885 -0.0010545178322473594 -0.012703673870071399 0.0 0.0
0.0 0.041602583588419596 0.03545918969258375 -0.034363922262744345 -0.001095267429839402 -0.014289359862080303 0.0 0.0
0.0 0.049613796479534907 0.04218932476564845 -0.04106372951209422 -0.0011255952535541855 -0.015164376059593025 0.0 0.0
0.0 0.05743773669486919 0.048876680053548956 -0.04774368367924628 -0.0011329963743026627 -0.014550927250723949 0.0 0.0
0.0 0.06403903797018479 0.0547493522996165 -0.05365010020539395 -0.001099252094222546 -0.011118031767021091 0.0 0.0
0.0 0.06820780722379495 0.05785615076459952 -0.05721622482762666 -0.0006399259369728845 1.3215123439991316e-14 0.0 0.0
0.0 0.0640390379701799 0.05474935229960967 -0.0536501002053873 -0.0010992520942223122 0.0111180317670542 0.0 0.0
0.0 0.05743773669485549 0.04887668005353508 -0.047743683679232214 -0.0011329963743028951 0.014550927250755848 0.0 0.0
0.0 0.04961379647951594 0.04218932476563073 -0.0410637295120769 -0.0011255952535538275 0.0151643760596121 0.0 0.0
0.0 0.0416025835883946 0.035459189692562454 -0.03436392226272361 -0.001095267429838824 0.014289359862081548 0.0 0.0
0.0 0.03453263825442781 0.029111399347110527 -0.02805688151486309 -0.0010545178322474429 0.01270367387006446 0.0 0.0
0.0 0.027598605283331558 0.023421618000346235 -0.02241761728750713 -0.0010040007128390806 0.010904869497800694 0.0 0.0
0.0 0.02183458134091344 0.01848923137239085 -0.017548468249946846 -0.0009407631224440028 0.009201459851045148 0.0 0.0
0.0 0.016865531554136448 0.014275000602018547 -0.013406854421308134 -0.0008681461807104026 0.0076547195400356125 0.0 0.0
0.0 0.012610917492711718 0.010658985252160975 -0.009871540849973468 -0.0007874444021875123 0.006193973607796752 0.0 0.0
0.0 0.008896210341318163 0.007519811561632134 -0.00682234249563649 -0.0006974690659956418 0.004716908213820146 0.0 0.0
0.0 0.0055703390344273565 0.0048112448207885865 -0.004228573807325601 -0.0005826710134629879 0.0032181540467921287 0.0 0.0
0.0 0.0033544697138982154 0.0025616015979795952 -0.0021476821715457574 -0.00041391942643383736 0.001769489798686162 0.0 0.0
0.0 0.0011945551404992343 0.0010094149244163292 -0.0007973127723039062 -0.00021210215211242244 0.0007320161644652384 0.0 0.0
0.0 0.0002414649045816282 0.00017221407284116175 -0.00012874990344221207 -4.346416939894964e-05 0.00012439819606111492 0.0 0.0
0.0 -2.509663330422598e-05 -2.0460456586390326e-05 1.6509248479114845e-05 3.951208107275384e-06 -3.736333613140101e-05 0.0 0.0
0.0 -2.2773181051105646e-06 2.382967822577907e-07 -1.8828000724604006e-07 -5.00167750117475e-08 6.069576669216433e-07 0.0 0.0
0.0 0.0 0.0 0.0 0.0 0.0 0.0 0.0
0.0 0.0 0.0 0.0 0.0 0.0 0.0 0.0
0.0 0.00028596835545378034 9.75600950580387e-05 -1.2255152198157615e-05 -8.530494285988113e-05 0.0005120437935641753 0.0 0.0
0.0 0.002040038165634031 0.0013936585458694528 -0.002008243688352755 0.0006145851424833035 0.0011966616323799343 0.0 0.0
0.0 0.001534744212422496 0.0007405183661904705 -0.0010725572837539696 0.0003320389175634993 -0.0007208116356462016 0.0 0.0
0.0 2.123518355328631e-05 1.3368923191489145e-05 2.7103908733271867e-05 -4.0472831924761015e-05 -0.00018874620703593432 0.0 0.0
0.0 1.501239477888374e-07 -8.943371455963241e-10 1.017711353153143e-09 -1.233742075570957e-10 2.99033348444305e-08 0.0 0.0
0.0 -4.0385216131657434e-07 1.4147665862676704e-08 -1.0174004682524616e-08 -3.973661180153169e-09 -8.078456367062322e-08 0.0 0.0
0.0 4.3532378676917943e-07 -2.718369587910372e-07 2.1713256034618637e-07 5.47043984448607e-08 8.620329025481376e-07 0.0 0.0
0.0 -1.3187423543660147e-05 -7.928256380036752e-06 6.3257602835527336e-06 1.6024960964839884e-06 2.119010052158078e-05 0.0 0.0
0.0 2.8455133495741162e-05 1.2180681343038345e-05 -8.019526526928366e-06 -4.1611548161101055e-06 -7.700185079609232e-06 0.0 0.0
0.0 0.0005219693326430606 0.00042360684646938453 -0.00032898866227738083 -9.461818419200367e-05 -0.0004663760206211814 0.0 0.0
0.0 0.0017835392427918673 0.0014161300725896936 -0.0011530959654329142 -0.0002630341071567793 -0.0013103736195979856 0.0 0.0
0.0 0.0039528909999329755 0.002986258687407397 -0.0025537485992419076 -0.0004325100881654873 -0.0025457942638188787 0.0 0.0
0.0 0.0061737661543806175 0.005015583721461083 -0.00444951823534216 -0.0005660654861189199 -0.00401611081450914 0.0 0.0
0.0 0.008931067966306837 0.007363273049064093 -0.006697522692547854 -0.0006657503565162468 -0.005457515153625745 0.0 0.0
0.0 0.012167307267118196 0.010042605792987096 -0.009294755755846507 -0.0007478500371405796 -0.006868908635141302 0.0 0.0
0.0 0.01587029782881104 0.013156510941985104 -0.012339655560331337 -0.0008168553816537667 -0.008317533472294572 0.0 0.0
0.0 0.020311815267917043 0.01681764494314626 -0.015941715045135953 -0.0008759298980102951 -0.00987870360647417 0.0 0.0
0.0 0.0253693706535509 0.021109046534120286 -0.020184360742347314 -0.0009246857917729653 -0.011516107373811322 0.0 0.0
0.0 0.03132427123474208 0.0259970865455116 -0.025032599457078013 -0.0009644870884335843 -0.013018532771497808 0.0 0.0
0.0 0.03752644038617813 0.031361408499344205 -0.03035863036221922 -0.0010027781371249786 -0.013942043579481138 0.0 0.0
0.0 0.043864309101548885 0.037027547163283506 -0.03599710134296226 -0.0010304458203212817 -0.013713767591912045 0.0 0.0
0.0 0.0502306142295237 0.042539295910945595 -0.04153250273209668 -0.0010067931788489183 -0.011087673571949393 0.0 0.0
0.0 0.054894233513703844 0.04582921279704903 -0.04540436439456332 -0.0004248484024856993 1.1443970771018996e-14 0.0 0.0
0.0 0.050230614229518994 0.04253929591093872 -0.04153250273208965 -0.0010067931788490304 0.011087673571978415 0.0 0.0
0.0 0.043864309101537824 0.03702754716327162 -0.03599710134295011 -0.0010304458203215146 0.013713767591941204 0.0 0.0
0.0 0.037526440386164046 0.03136140849933083 -0.03035863036220635 -0.0010027781371245083 0.013942043579497725 0.0 0.0
0.0 0.03132427123472286 0.02599708654549525 -0.025032599457062283 -0.000964487088432961 0.0130185327714976 0.0 0.0
0.0 0.02536937065353088 0.021109046534103754 -0.02018436074233099 -0.0009246857917727821 0.011516107373803944 0.0 0.0
0.0 0.020311815267897843 0.01681764494312964 -0.01594171504511979 -0.0008759298980098537 0.009878703606467486 0.0 0.0
0.0 0.015870297828793952 0.013156510941970472 -0.012339655560317084 -0.0008168553816533954 0.00831753347228975 0.0 0.0
0.0 0.012167307267098726 0.010042605792971017 -0.009294755755830778 -0.0007478500371402356 0.0068689086351332316 0.0 0.0
0.0 0.008931067966289773 0.007363273049049841 -0.006697522692534088 -0.0006657503565157473 0.00545751515361587 0.0 0.0
0.0 0.006173766154365997 0.005015583721449425 -0.0044495182353313225 -0.0005660654861180956 0.004016110814498094 0.0 0.0
0.0 0.003952890999919379 0.002986258687396917 -0.002553748599232254 -0.0004325100881646637 0.0025457942638089726 0.0 0.0
0.0 0.0017835392427831243 0.001416130072582957 -0.0011530959654271484 -0.0002630341071558079 0.0013103736195924588 0.0 0.0
0.0 0.0005219693326392263 0.00042360684646656333 -0.00032898866227517036 -9.461818419139303e-05 0.00046637602061876777 0.0 0.0
0.0 2.845513349467918e-05 1.2180681342606963e-05 -8.019526526602512e-06 -4.161154816004509e-06 7.700185078835837e-06 0.0 0.0
0.0 -1.3187423544599211e-05 -7.928256379765715e-06 6.325760283334262e-06 1.602496096431499e-06 -2.1190100520831326e-05 0.0 0.0
0.0 4.3532378655638135e-07 -2.718369588245779e-07 2.1713256037469488e-07 5.470439844987257e-08 -8.620329026046295e-07 0.0 0.0
0.0 -4.0385216122886154e-07 1.4147665859095061e-08 -1.0174004680004456e-08 -3.973661179089202e-09 8.078456365178302e-08 0.0 0.0
0.0 1.5012394747879627e-07 -8.94337143643398e-10 1.0177113510135556e-09 -1.2337420737023362e-10 -2.990333478189685e-08 0.0 0.0
0.0 2.1235183551444432e-05 1.3368923190861442e-05 2.710390873366907e-05 -4.047283192453062e-05 0.00018874620703346733 0.0 0.0
0.0 0.0015347442124157265 0.0007405183661866969 -0.0010725572837485193 0.00033203891756182247 0.0007208116356432619 0.0 0.0
0.0 0.0006290525712888156 0.0003371776538209413 -0.0004912373964581022 0.00015405974263716147 -0.0004093394555099724 0.0 0.0
0.0 -4.2272758400805784e-05 -2.4589976152847845e-05 4.2992577621826825e-05 -1.8402601468979034e-05 -1.959686337666181e-06 0.0 0.0
0.0 2.2756234019458266e-06 -3.622856323065417e-09 1.1119213435067454e-08 -7.496357112000574e-09 4.94855934509731e-07 0.0 0.0
0.0 7.864306231303351e-07 -1.6387003304045022e-09 -2.085611771306629e-10 1.847261507534281e-09 1.628291981626507e-07 0.0 0.0
0.0 -1.96217167625882e-07 -1.2902524683678821e-07 9.483564000615189e-08 3.418960683063534e-08 9.022877905623493e-07 0.0 0.0
0.0 -1.4333360879331472e-05 -1.8610975655603227e-06 1.5135117333363654e-06 3.475858322239619e-07 7.70273168898295e-06 0.0 0.0
0.0 -5.199734398567786e-06 -1.450899295810953e-05 1.1715928908896023e-05 2.7930640492134734e-06 3.8445223645331206e-05 0.0 0.0
0.0 0.0001750557637890568 5.9610283431609346e-05 -4.709891780658503e-05 -1.2511365625024268e-05 -0.0001423525552632981 0.0 0.0
0.0 0.0007483790061759663 0.0004993727615596394 -0.0004020674649036076 -9.730529665603157e-05 -0.0007624824559073414 0.0 0.0
0.0 0.0019849052929750044 0.0013891654997218983 -0.0011577058245936817 -0.00023145967512821686 -0.0016731811856174814 0.0 0.0
0.0 0.003470339132043112 0.0026622342876220914 -0.002294317295990992 -0.0003679169916310994 -0.00287509589390375 0.0 0.0
0.0 0.005416853737237066 0.004189223203090959 -0.0037117699778528167 -0.0004774532252381419 -0.00413115219851603 0.0 0.0
0.0 0.007593482842346519 0.005942855065592562 -0.0053726937366498735 -0.0005701613289426847 -0.005407604178043575 0.0 0.0
0.0 0.010092401305354269 0.007978574790749456 -0.007334724534424466 -0.0006438502563249787 -0.006694423394266025 0.0 0.0
0.0 0.013084129622624221 0.01038728317451518 -0.00968296925445425 -0.0007043139200609353 -0.008019396760030153 0.0 0.0
0.0 0.016672735015171424 0.013267135532646877 -0.01251317115375793 -0.0007539643788889557 -0.009403218224732144 0.0 0.0
0.0 0.020851219345429776 0.016672022334415986 -0.01587350477003999 -0.0007985175643759846 -0.010736616222017905 0.0 0.0
0.0 0.025398535543128917 0.02059419036400917 -0.019754535499436822 -0.0008396548645723622 -0.011667110152158659 0.0 0.0
0.0 0.030535740364043783 0.025059533558583105 -0.024173010851134987 -0.000886522707448088 -0.011708660034328173 0.0 0.0
0.0 0.03645858617920302 0.030053056967752102 -0.029154102498908933 -0.0008989544688431432 -0.010228915137327479 0.0 0.0
0.0 0.04147122719142102 0.03355546487113521 -0.03337503694276738 -0.00018042792836786838 9.958180113844861e-15 0.0 0.0
0.0 0.03645858617920323 0.03005305696774869 -0.029154102498905536 -0.0008989544688431607 0.010228915137352742 0.0 0.0
0.0 0.030535740364039624 0.02505953355857709 -0.024173010851129068 -0.0008865227074479922 0.011708660034353795 0.0 0.0
0.0 0.025398535543116788 0.020594190363998278 -0.019754535499426164 -0.0008396548645721022 0.011667110152170524 0.0 0.0
0.0 0.020851219345416068 0.01667202233440516 -0.015873504770029644 -0.0007985175643755247 0.010736616222016082 0.0 0.0
0.0 0.016672735015159354 0.013267135532637265 -0.012513171153748706 -0.0007539643788885423 0.00940321822472546 0.0 0.0
0.0 0.013084129622610637 0.010387283174504052 -0.009682969254443114 -0.0007043139200609352 0.008019396760023686 0.0 0.0
0.0 0.010092401305343411 0.007978574790740284 -0.007334724534415884 -0.0006438502563244036 0.006694423394262404 0.0 0.0
0.0 0.007593482842337438 0.005942855065584979 -0.0053726937366426995 -0.0005701613289422794 0.005407604178039122 0.0 0.0
0.0 0.005416853737224495 0.0041892232030818835 -0.0037117699778442294 -0.0004774532252376556 0.004131152198506739 0.0 0.0
0.0 0.0034703391320330245 0.002662234287614221 -0.0022943172959838704 -0.0003679169916303515 0.002875095893894844 0.0 0.0
0.0 0.001984905292967255 0.001389165499716699 -0.001157705824588958 -0.00023145967512774084 0.001673181185611146 0.0 0.0
0.0 0.0007483790061712572 0.0004993727615565186 -0.00040206746490101903 -9.730529665549926e-05 0.000762482455903622 0.0 0.0
0.0 0.00017505576378714014 5.961028343072155e-05 -4.7098917805885907e-05 -1.251136562483556e-05 0.00014235255526166954 0.0 0.0
0.0 -5.1997343998349775e-06 -1.4508992957708604e-05 1.171592890858124e-05 2.793064049127413e-06 -3.844522364465246e-05 0.0 0.0
0.0 -1.4333360878922907e-05 -1.861097565275139e-06 1.513511733113131e-06 3.475858321619729e-07 -7.702731687391394e-06 0.0 0.0
0.0 -1.9621716835817565e-07 -1.2902524689490047e-07 9.483564005246953e-08 3.418960684244255e-08 -9.022877908187859e-07 0.0 0.0
0.0 7.864306230353753e-07 -1.6387003332195712e-09 -2.0856117435996048e-10 1.847261507578611e-09 -1.6282919813890725e-07 0.0 0.0
0.0 2.2756234013447927e-06 -3.6228563214464765e-09 1.1119213431972399e-08 -7.496357110524799e-09 -4.948559343785076e-07 0.0 0.0
0.0 -4.227275840138267e-05 -2.458997615274887e-05 4.299257762159194e-05 -1.8402601468843048e-05 1.959686337445178e-06 0.0 0.0
0.0 0.0006290525712841305 0.0003371776538186596 -0.0004912373964548184 0.00015405974263615855 0.0004093394555075474 0.0 0.0
0.0 0.00020685367266523155 7.628095667435088e-05 -0.00011255660939375968 3.6275652719408925e-05 -0.00010744303444103516 0.0 0.0
0.0 -2.9653207037910252e-05 -1.3562975478411227e-05 1.8644301568875188e-05 -5.081326090463952e-06 2.4590063081890003e-05 0.0 0.0
0.0 5.096525743868014e-07 9.381252579871773e-11 1.5396771685514519e-09 -1.6334896943491657e-09 1.0271581062143611e-07 0.0 0.0
0.0 4.096640072979324e-07 9.90752011270457e-09 -8.396156044114786e-09 -1.5113640685919163e-09 8.098632487915903e-08 0.0 0.0
0.0 2.4518883938008143e-07 5.108891171324727e-08 -3.8800085240431103e-08 -1.2288826472807821e-08 -1.795566677726243e-07 0.0 0.0
0.0 -6.237715185833742e-06 -1.6353100243015911e-06 1.2702823678821978e-06 3.650276564193682e-07 1.5456934819119065e-05 0.0 0.0
0.0 1.0312780183508028e-06 -3.578777371293318e-06 2.9328084868883578e-06 6.459688844049851e-07 1.644459051626781e-05 0.0 0.0
0.0 6.356985346911523e-05 2.3464730495865618e-07 -5.434483436716015e-08 -1.8030247059153817e-07 -7.291254565133607e-05 0.0 0.0
0.0 0.00019740979203283635 3.248554911936835e-05 -2.867328396272428e-05 -3.812265156644008e-06 -0.000298520822593444 0.0 0.0
0.0 0.0005708425518523073 0.00022189948724505296 -0.0001962510045243052 -2.5648482720748132e-05 -0.000788800161939932 0.0 0.0
0.0 0.0013715432228663155 0.0006395962236920343 -0.0005707859910471577 -6.88102326448763e-05 -0.00153274929239692 0.0 0.0
0.0 0.002226087297852081 0.001302863663635871 -0.001165183186361817 -0.00013768047727405437 -0.0025011190142632898 0.0 0.0
0.0 0.0034027698956505823 0.0021229726034330608 -0.001912271617957133 -0.00021070098547592553 -0.0035251504724138813 0.0 0.0
0.0 0.004817860240884142 0.0031015686126720067 -0.002821321713453991 -0.0002802468992180188 -0.004598360397475763 0.0 0.0
0.0 0.0064619588734145614 0.004281320983063802 -0.00392873631552213 -0.00035258466754166964 -0.005725467794564915 0.0 0.0
0.0 0.008476107327338634 0.005754661606886963 -0.005331493316145581 -0.0004231682907413781 -0.006929249530900043 0.0 0.0
0.0 0.011027638786905629 0.007640348156972882 -0.007145072585504725 -0.0004952755714681584 -0.00818235231082066 0.0 0.0
0.0 0.014235466777032649 0.01007562648995326 -0.00951303590510733 -0.0005625905848459259 -0.009197304980696704 0.0 0.0
0.0 0.01794148152599119 0.013181505977032569 -0.012560922999103578 -0.0006205829779290054 -0.00939076475840898 0.0 0.0
0.0 0.02247924970068485 0.017296208130020283 -0.016583455072863955 -0.00071275305715631 -0.008469587558721455 0.0 0.0
0.0 0.028785607372268478 0.0209370613101322 -0.021051876714403173 0.00011481540427096346 7.68742708379122e-15 0.0 0.0
0.0 0.02247924970068548 0.017296208130016918 -0.016583455072860458 -0.0007127530571564656 0.008469587558741016 0.0 0.0
0.0 0.017941481525992935 0.013181505977031712 -0.012560922999103191 -0.0006205829779285242 0.00939076475842991 0.0 0.0
0.0 0.014235466777022445 0.01007562648994548 -0.009513035905099386 -0.0005625905848461015 0.009197304980701728 0.0 0.0
0.0 0.011027638786895515 0.00764034815696659 -0.007145072585499165 -0.0004952755714674243 0.008182352310816599 0.0 0.0
0.0 0.008476107327332035 0.005754661606882689 -0.00533149331614145 -0.0004231682907412382 0.0069292495308934865 0.0 0.0
0.0 0.006461958873407945 0.004281320983058646 -0.003928736315517071 -0.0003525846675415742 0.005725467794560356 0.0 0.0
0.0 0.0048178602408789324 0.0031015686126688886 -0.0028213217134510156 -0.00028024689921787486 0.004598360397472645 0.0 0.0
0.0 0.003402769895644964 0.002122972603429706 -0.001912271617954277 -0.0002107009854754285 0.003525150472408873 0.0 0.0
0.0 0.002226087297847289 0.0013028636636335503 -0.0011651831863597056 -0.00013768047727384395 0.0025011190142573696 0.0 0.0
0.0 0.0013715432228599 0.0006395962236885933 -0.0005707859910440409 -6.881023264455194e-05 0.0015327492923895365 0.0 0.0
0.0 0.0005708425518502121 0.00022189948724460936 -0.0001962510045239053 -2.5648482720704032e-05 0.0007888001619383972 0.0 0.0
0.0 0.00019740979203189047 3.248554911901271e-05 -2.867328396240949e-05 -3.8122651566031316e-06 0.0002985208225920327 0.0 0.0
0.0 6.356985346787889e-05 2.3464730486327408e-07 -5.434483428707054e-08 -1.8030247057625587e-07 7.291254565014843e-05 0.0 0.0
0.0 1.0312780177104404e-06 -3.578777371275575e-06 2.9328084868738997e-06 6.459688844016907e-07 -1.6444590516254578e-05 0.0 0.0
0.0 -6.237715186283506e-06 -1.6353100243027323e-06 1.2702823678819549e-06 3.650276564207786e-07 -1.545693481900216e-05 0.0 0.0
0.0 2.45188838994224e-07 5.108891171993818e-08 -3.8800085244754234e-08 -1.2288826475187122e-08 1.795566679010805e-07 0.0 0.0
0.0 4.096640068308793e-07 9.90752010832275e-09 -8.39615604017302e-09 -1.5113640681489081e-09 -8.098632478345155e-08 0.0 0.0
0.0 5.096525740515149e-07 9.381252618957887e-11 1.539677166806176e-09 -1.6334896929998106e-09 -1.0271581055161462e-07 0.0 0.0
0.0 -2.965320703811226e-05 -1.3562975478247984e-05 1.864430156865747e-05 -5.08132609040948e-06 -2.4590063081579938e-05 0.0 0.0
0.0 0.00020685367266284904 7.628095667356271e-05 -0.00011255660939261041 3.627565271904757e-05 0.00010744303444001117 0.0 0.0
0.0 6.64175433225797e-06 5.48440210318502e-06 -8.575101652798241e-06 3.090699549613178e-06 -8.339176598009995e-06 0.0 0.0
0.0 -7.204131683600151e-07 -7.878029209356969e-07 1.2097802778153215e-06 -4.219773568796133e-07 1.1100940115368528e-06 0.0 0.0
0.0 3.5637643855583632e-06 1.0466321526454694e-08 6.2185905963190185e-09 -1.668491212277834e-08 7.708049989247887e-07 0.0 0.0
0.0 1.2405663355666563e-06 2.296314495505155e-08 -1.9338392250235115e-08 -3.624752704813151e-09 2.542797602654144e-07 0.0 0.0
0.0 -3.06065201376172e-07 5.2245899289476945e-08 -5.084731504025002e-08 -1.3985842492270966e-09 6.560217465143657e-07 0.0 0.0
0.0 -5.6508184145258925e-06 -1.0541197513607363e-08 1.544767267068039e-08 -4.9064751570700114e-09 1.235577876135414e-05 0.0 0.0
0.0 5.67860714805125e-06 -2.7248223644669265e-07 2.5354163140054835e-07 1.8940605046134715e-08 1.4366317968621816e-05 0.0 0.0
0.0 5.701716452345149e-05 -3.9866248549396173e-07 4.02621375517462e-07 -3.958890023494746e-09 -0.00010032298462358004 0.0 0.0
0.0 0.00020389640822054698 -3.798336240387747e-08 3.553131745236499e-08 2.452044951543139e-09 -0.0002659458143264491 0.0 0.0
0.0 0.00032841520996566484 1.511333476500856e-07 -9.789756354708497e-08 -5.323578410302905e-08 -0.000556613255974709 0.0 0.0
0.0 0.0006130568281733557 -1.6316837685518872e-06 9.425628277651071e-07 6.891209407867513e-07 -0.0009258278462770294 0.0 0.0
0.0 0.000798122509078285 1.8339823457820854e-06 -1.3980095998809987e-06 -4.359727459010697e-07 -0.0015422449394604115 0.0 0.0
0.0 0.0011404487775748529 2.326650837530846e-06 -1.3816658247973074e-06 -9.449850127331592e-07 -0.0023148495105732385 0.0 0.0
0.0 0.0015922044205110356 -1.0156221338965428e-05 1.2737469117880443e-05 -2.5812477789148255e-06 -0.003269903937657778 0.0 0.0
0.0 0.002331409050664285 -8.773098281611967e-06 8.085567946270296e-06 6.875303353412503e-07 -0.004425966587748358 0.0 0.0
0.0 0.003226341815513342 7.267091571407146e-05 -8.891818729795094e-05 1.6247271583879445e-05 -0.005752894555648158 0.0 0.0
0.0 0.0043436363165745015 0.00039435589616852295 -0.00044861530502449955 5.425940885597716e-05 -0.007194405652018529 0.0 0.0
0.0 0.00567051566490103 0.0011056991221002812 -0.0012587501593571253 0.0001530510372568418 -0.00862577397351193 0.0 0.0
0.0 0.007710484028299379 0.0021034174148616565 -0.0023380467757463563 0.00023462936088470085 -0.00971990560786076 0.0 0.0
0.0 0.011340559747357787 0.004676085721900035 -0.004548021089042374 -0.00012806463285765953 -0.009683355198863073 0.0 0.0
0.0 0.019686487388915593 0.008819878039292038 -0.009377340374142104 0.0005574623348500741 8.920381794341736e-15 0.0 0.0
0.0 0.011340559747361124 0.004676085721899224 -0.0045480210890409736 -0.00012806463285825208 0.009683355198877499 0.0 0.0
0.0 0.0077104840282982935 0.0021034174148608573 -0.0023380467757455354 0.00023462936088467903 0.00971990560786538 0.0 0.0
0.0 0.0056705156648934815 0.0011056991220985222 -0.0012587501593549976 0.0001530510372564758 0.008625773973507483 0.0 0.0
0.0 0.0043436363165671515 0.0003943558961680359 -0.000448615305023938 5.4259408855901036e-05 0.007194405652011777 0.0 0.0
0.0 0.003226341815509748 7.26709157148703e-05 -8.891818729882522e-05 1.624727158395599e-05 0.005752894555641753 0.0 0.0
0.0 0.0023314090506590265 -8.773098280966216e-06 8.08556794561991e-06 6.875303353457769e-07 0.0044259665877435465 0.0 0.0
0.0 0.001592204420509713 -1.015622133846328e-05 1.2737469117446058e-05 -2.5812477789827643e-06 0.0032699039376545896 0.0 0.0
0.0 0.0011404487775700113 2.326650837673771e-06 -1.3816658248789343e-06 -9.449850127949316e-07 0.0023148495105652558 0.0 0.0
0.0 0.0007981225090758075 1.8339823457106974e-06 -1.398009599863184e-06 -4.3597274584749316e-07 0.0015422449394550397 0.0 0.0
0.0 0.0006130568281701356 -1.6316837685004978e-06 9.425628276923893e-07 6.891209408080949e-07 0.0009258278462717156 0.0 0.0
0.0 0.00032841520996546784 1.5113334777182243e-07 -9.789756367812536e-08 -5.323578409366149e-08 0.0005566132559737198 0.0 0.0
0.0 0.0002038964082197633 -3.7983362384432567e-08 3.553131744356904e-08 2.45204494083981e-09 0.0002659458143254662 0.0 0.0
0.0 5.701716452232446e-05 -3.986624855071621e-07 4.026213755462455e-07 -3.958890039064776e-09 0.00010032298462227112 0.0 0.0
0.0 5.67860714749646e-06 -2.7248223644219374e-07 2.535416313944779e-07 1.894060504772473e-08 -1.436631796850505e-05 0.0 0.0
0.0 -5.650818414627418e-06 -1.054119755363998e-08 1.5447672710941886e-08 -4.906475157308039e-09 -1.2355778760398659e-05 0.0 0.0
0.0 -3.0606520196723015e-07 5.22458992926352e-08 -5.0847315044252465e-08 -1.3985842483794608e-09 -6.560217465991512e-07 0.0 0.0
0.0 1.2405663350389034e-06 2.2963144945294832e-08 -1.9338392241929008e-08 -3.624752703366745e-09 -2.542797601527055e-07 0.0 0.0
0.0 3.5637643852961112e-06 1.0466321526893375e-08 6.218590594824565e-09 -1.6684912121708747e-08 -7.708049988575556e-07 0.0 0.0
0.0 -7.20413168755352e-07 -7.87802920948451e-07 1.2097802778357358e-06 -4.2197735688729794e-07 -1.1100940115027244e-06 0.0 0.0
0.0 6.641754331488119e-06 5.4844021034025465e-06 -8.575101653121564e-06 3.090699549719119e-06 8.339176598428703e-06 0.0 0.0
0.0 1.2392568618169737e-06 -7.491151091484791e-08 1.1767598598030642e-07 -4.2764475065472074e-08 1.441325408975938e-07 0.0 0.0
0.0 1.0193361657633564e-07 1.0676732839692013e-08 -1.3945681913414806e-08 3.26894907372364e-09 3.7380425146472035e-08 0.0 0.0
0.0 -9.308721177299775e-07 -1.6674594060726732e-08 1.1466129503141021e-08 5.208464557585681e-09 -2.2988275299216306e-07 0.0 0.0
0.0 1.4320640195600563e-06 5.610196992411463e-08 -4.5720235132274035e-08 -1.0381734791842189e-08 4.100728318312199e-07 0.0 0.0
0.0 -2.009860276182356e-06 2.466332808179186e-07 -2.2480754229554358e-07 -2.1825738522372785e-08 1.584283508687236e-06 0.0 0.0
0.0 -7.058806853666628e-06 3.542160649912222e-07 -2.2700203779285427e-07 -1.2721402719833592e-07 6.2250310648509045e-06 0.0 0.0
0.0 1.7089494338024273e-05 4.503914924583897e-06 -3.5119904665328044e-06 -9.919244580511483e-07 2.3220860469605983e-05 0.0 0.0
0.0 6.967048175462441e-05 -1.3070115549923827e-06 1.0710496996131714e-06 2.359618553792255e-07 -7.554669907984276e-05 0.0 0.0
0.0 0.00019794566218175118 -3.2990459975845276e-05 2.910175886960832e-05 3.888701106236731e-06 -0.0003004294468052599 0.0 0.0
0.0 0.0005687163775835962 -0.00022099264865249883 0.00019539599882365368 2.5596649828845373e-05 -0.000787918906073645 0.0 0.0
0.0 0.0013734457289824307 -0.0006315154732150056 0.0005650094420315788 6.650603118342698e-05 -0.0015253496206504582 0.0 0.0
0.0 0.002240637304172947 -0.0013090551732856046 0.0011700905773584832 0.000138964595927121 -0.0025012008727834313 0.0 0.0
0.0 0.003427261897072215 -0.0021423260704888226 0.0019291783023554173 0.00021314776813340287 -0.0035258383303202914 0.0 0.0
0.0 0.0048610956382693134 -0.0031377792733105793 0.0028543308191027327 0.0002834484542078468 -0.004594858526057489 0.0 0.0
0.0 0.006458228506592894 -0.004289616973476108 0.003943983865109607 0.0003456331083664996 -0.005736886493736916 0.0 0.0
0.0 0.008213790985230642 -0.005519004938312467 0.005140255598885409 0.00037874933942705217 -0.007025766641027369 0.0 0.0
0.0 0.00987737539427491 -0.006597472435843333 0.006226558943855625 0.0003709134919877097 -0.008539010581604814 0.0 0.0
0.0 0.011271789363067027 -0.007128342094328668 0.00683069588987121 0.00029764620445745296 -0.01030695326327491 0.0 0.0
0.0 0.011489998438051163 -0.006599208936305303 0.006434200614463174 0.00016500832184214006 -0.012307796865576096 0.0 0.0
0.0 0.009613018888748541 -0.004773805268718661 0.004800378904303513 -2.6573635584853633e-05 -0.013899431799715338 0.0 0.0
0.0 0.018724958038708602 -0.002572453683114056 0.0009892801606970767 0.0015831735224169808 8.979796073393942e-15 0.0 0.0
0.0 0.009613018888753537 -0.004773805268719421 0.004800378904304165 -2.6573635584742393e-05 0.013899431799725394 0.0 0.0
0.0 0.011489998438048507 -0.006599208936302634 0.006434200614460565 0.00016500832184207644 0.012307796865583505 0.0 0.0
0.0 0.011271789363060862 -0.007128342094323962 0.006830695889867084 0.00029764620445687476 0.01030695326327711 0.0 0.0
0.0 0.009877375394262446 -0.0065974724358346965 0.0062265589438469555 0.00037091349198774075 0.00853901058159641 0.0 0.0
0.0 0.008213790985221145 -0.005519004938305293 0.00514025559887849 0.00037874933942679944 0.007025766641020621 0.0 0.0
0.0 0.006458228506586295 -0.004289616973470029 0.003943983865104471 0.0003456331083655603 0.005736886493732247 0.0 0.0
0.0 0.0048610956382617015 -0.0031377792733047966 0.0028543308190972453 0.0002834484542075522 0.004594858526052013 0.0 0.0
0.0 0.0034272618970614946 -0.002142326070481147 0.0019291783023480922 0.00021314776813305503 0.003525838330311625 0.0 0.0
0.0 0.002240637304163103 -0.0013090551732791457 0.001170090577352706 0.0001389645959264397 0.0025012008727748453 0.0 0.0
0.0 0.001373445728972842 -0.0006315154732098663 0.0005650094420269861 6.650603118287966e-05 0.0015253496206412275 0.0 0.0
0.0 0.0005687163775788109 -0.00022099264865056527 0.0001953959988218601 2.5596649828705172e-05 0.0007879189060703401 0.0 0.0
0.0 0.00019794566218090298 -3.2990459975756615e-05 2.9101758869545726e-05 3.8887011062109215e-06 0.00030042944680472745 0.0 0.0
0.0 6.967048175324686e-05 -1.3070115549399013e-06 1.0710496995850054e-06 2.3596185535489596e-07 7.554669907866823e-05 0.0 0.0
0.0 1.7089494337081976e-05 4.503914924523273e-06 -3.511990466483059e-06 -9.91924458040203e-07 -2.322086046928919e-05 0.0 0.0
0.0 -7.058806853950156e-06 3.5421606493535627e-07 -2.2700203774657498e-07 -1.2721402718877266e-07 -6.225031064478673e-06 0.0 0.0
0.0 -2.0098602767286553e-06 2.4663328081506314e-07 -2.248075422930799e-07 -2.182573852198744e-08 -1.5842835086272801e-06 0.0 0.0
0.0 1.4320640188784207e-06 5.610196993746734e-08 -4.57202351428678e-08 -1.0381734794599212e-08 -4.100728319029739e-07 0.0 0.0
0.0 -9.308721178535671e-07 -1.667459406631258e-08 1.1466129507440013e-08 5.208464558869588e-09 2.2988275306980592e-07 0.0 0.0
0.0 1.0193361634669551e-07 1.0676732833700947e-08 -1.3945681909328034e-08 3.2689490756309226e-09 -3.7380425093418424e-08 0.0 0.0
0.0 1.2392568610875138e-06 -7.491151086901853e-08 1.1767598590977797e-07 -4.276447504077999e-08 -1.441325408055337e-07 0.0 0.0
0.0 0.0 0.0 0.0 0.0 0.0 0.0 0.0
0.0 -2.421719605901748e-07 -3.2468155202972983e-09 1.8808664176063756e-09 1.3659491026902043e-09 -4.880557232414907e-08 0.0 0.0
0.0 2.194708513430086e-07 4.907659394130952e-09 -8.014098223716456e-10 -4.106249571757952e-09 1.5029569831201663e-07 0.0 0.0
0.0 -6.89898141245033e-07 -1.079222419721778e-07 8.867177129588964e-08 1.9250470676279285e-08 -5.991406806200445e-07 0.0 0.0
0.0 6.92508036559287e-06 2.0438770614749694e-08 -2.5506157607373787e-08 5.06738699267041e-09 7.732822323984208e-07 0.0 0.0
0.0 2.660424873306749e-06 7.414049282139739e-06 -5.991323540420776e-06 -1.4227257417189385e-06 3.081118782619152e-05 0.0 0.0
0.0 -6.619147582630509e-06 6.810007039732003e-06 -5.3775007962229625e-06 -1.4325062435089695e-06 -1.8847348367225018e-06 0.0 0.0
0.0 0.00018665345494322524 -6.408808099193518e-05 5.0906482896027375e-05 1.318159809590761e-05 -0.00015238705337892354 0.0 0.0
0.0 0.0007472297488129154 -0.0004986333438126058 0.00040137157499107675 9.726176882152943e-05 -0.0007630545201324529 0.0 0.0
0.0 0.001980503267384127 -0.001386867019419867 0.001155562006013642 0.00023130501340622416 -0.001669758879016057 0.0 0.0
0.0 0.00346886086525058 -0.0026618044745009227 0.0022939783975371103 0.0003678260769638122 -0.002873340174786044 0.0 0.0
0.0 0.0054223510103507296 -0.004193577259913492 0.003715801398154724 0.0004777758617587703 -0.0041318759434933825 0.0 0.0
0.0 0.007611815377701467 -0.005959339317635491 0.005388257479444617 0.0005710818381908715 -0.005399424276524838 0.0 0.0
0.0 0.010125246506623624 -0.008013225496018404 0.007368865216984386 0.0006443602790340188 -0.00666219315261013 0.0 0.0
0.0 0.01308861633278846 -0.010403180330495062 0.009703853413145974 0.0006993269173490801 -0.00799398072647438 0.0 0.0
0.0 0.016446485870085015 -0.013071788232503921 0.012341196553834156 0.000730591678669768 -0.009569274866503412 0.0 0.0
0.0 0.019867125907357924 -0.01575400625906876 0.015017573858475734 0.0007364324005930316 -0.011594206904649889 0.0 0.0
0.0 0.02264166067127658 -0.017957770296065233 0.017236519465438773 0.0007212508306264794 -0.014172278694644653 0.0 0.0
0.0 0.0242269540826421 -0.018751396327334982 0.01808422591702367 0.0006671704103113109 -0.0167853260864481 0.0 0.0
0.0 0.0224261601543147 -0.016395891322690228 0.015797046819101525 0.0005988445035886972 -0.017289025987560516 0.0 0.0
0.0 0.023202394732150553 -0.012863773801998383 0.010490627613233838 0.0023731461887645474 9.968154773831728e-15 0.0 0.0
0.0 0.022426160154320876 -0.016395891322690724 0.015797046819102156 0.0005988445035885544 0.01728902598758148 0.0 0.0
0.0 0.024226954082643 -0.018751396327332227 0.018084225917021673 0.0006671704103105452 0.016785326086468513 0.0 0.0
0.0 0.022641660671266918 -0.017957770296056493 0.017236519465430304 0.0007212508306261865 0.014172278694651614 0.0 0.0
0.0 0.01986712590733858 -0.015754006259053224 0.015017573858460188 0.0007364324005930355 0.011594206904643689 0.0 0.0
0.0 0.016446485870068445 -0.013071788232490344 0.012341196553820707 0.0007305916786696377 0.00956927486649596 0.0 0.0
0.0 0.013088616332775685 -0.010403180330484575 0.00970385341313609 0.0006993269173484796 0.007993980726467526 0.0 0.0
0.0 0.010125246506610857 -0.008013225496007142 0.007368865216973609 0.0006443602790335275 0.00666219315260336 0.0 0.0
0.0 0.007611815377684914 -0.005959339317622185 0.0053882574794317725 0.0005710818381904083 0.005399424276515702 0.0 0.0
0.0 0.005422351010334353 -0.004193577259900833 0.0037158013981429005 0.0004777758617579322 0.004131875943482139 0.0 0.0
0.0 0.0034688608652361855 -0.002661804474489674 0.0022939783975266664 0.00036782607696300793 0.002873340174774396 0.0 0.0
0.0 0.001980503267373807 -0.0013868670194124282 0.0011555620060071572 0.00023130501340527088 0.0016697588790088012 0.0 0.0
0.0 0.0007472297488074211 -0.0004986333438088814 0.00040137157498800814 9.726176882087315e-05 0.000763054520128324 0.0 0.0
0.0 0.00018665345494065958 -6.408808099064468e-05 5.090648289501357e-05 1.318159809563101e-05 0.0001523870533764527 0.0 0.0
0.0 -6.619147583220901e-06 6.810007039198647e-06 -5.3775007958053685e-06 -1.432506243393292e-06 1.8847348377864565e-06 0.0 0.0
0.0 2.6604248720191235e-06 7.414049282051061e-06 -5.991323540345584e-06 -1.4227257417055798e-06 -3.081118782567001e-05 0.0 0.0
0.0 6.925080365108762e-06 2.043877061585856e-08 -2.5506157607212976e-08 5.067386991352276e-09 -7.732822323665016e-07 0.0 0.0
0.0 -6.89898141382449e-07 -1.0792224208669329e-07 8.867177138819081e-08 1.925047069851396e-08 5.991406814405921e-07 0.0 0.0
0.0 2.1947085078275395e-07 4.907659418665086e-09 -8.014098443638812e-10 -4.106249574301003e-09 -1.502956984116229e-07 0.0 0.0
0.0 -2.421719603617441e-07 -3.246815517878595e-09 1.8808664168966315e-09 1.3659491009815945e-09 4.8805572277769595e-08 0.0 0.0
0.0 0.0 0.0 0.0 0.0 0.0 0.0 0.0
0.0 0.0 0.0 0.0 0.0 0.0 0.0 0.0
0.0 4.708975586266584e-08 6.631015335524161e-10 -4.066369113317879e-10 -2.56464622220512e-10 9.52065192162231e-09 0.0 0.0
0.0 -8.431200303313022e-07 -2.8996678881907022e-08 2.3017103404619397e-08 5.97957547729079e-09 -1.6687519249258124e-07 0.0 0.0
0.0 1.6302002311930184e-06 1.5829799743445e-07 -1.312037357022039e-07 -2.7094261732252467e-08 6.718599159314231e-07 0.0 0.0
0.0 5.973380108688914e-07 2.0434994402640516e-06 -1.6481319270632999e-06 -3.953675132007851e-07 6.5546709550603315e-06 0.0 0.0
0.0 -1.5382508158357945e-05 1.3675432360236299e-06 -1.0900797998190108e-06 -2.7746343620457e-07 -2.0662449252954324e-06 0.0 0.0
0.0 8.113616705156944e-05 -1.822280891921112e-05 1.319092560024505e-05 5.0318833189659054e-06 -1.4640745915827415e-05 0.0 0.0
0.0 0.0005348420253627099 -0.00042640058235085673 0.00033171782363904665 9.468275871181045e-05 -0.00047389427445641944 0.0 0.0
0.0 0.001780118007027633 -0.0014135377312288647 0.0011506212174125533 0.00026291651381631065 -0.0013077297749135774 0.0 0.0
0.0 0.0039498869487490556 -0.002984120720697957 0.0025515514885583353 0.0004325692321396214 -0.0025411914389293156 0.0 0.0
0.0 0.006169987871415424 -0.005016536917002026 0.004450589119728985 0.00056594779727304 -0.004015701406046852 0.0 0.0
0.0 0.008935771479657743 -0.007366662585109029 0.006701007404496107 0.0006656551806129181 -0.005457689738625453 0.0 0.0
0.0 0.012176236705220294 -0.010051532706206425 0.009303442696390149 0.0007480900098162755 -0.006852566199110449 0.0 0.0
0.0 0.015882238120010647 -0.013175929192923019 0.012358520909328813 0.0008174082835942038 -0.008248873955033714 0.0 0.0
0.0 0.020299495217547786 -0.016828763752863258 0.015955435229986284 0.0008733285228769806 -0.009775534978449041 0.0 0.0
0.0 0.02520862698822635 -0.020981657817173066 0.020074270527915918 0.0009073872892571598 -0.011667908340401469 0.0 0.0
0.0 0.03065685264788501 -0.02532747113852124 0.024414399122188297 0.0009130720163329396 -0.014298192523280424 0.0 0.0
0.0 0.03540179336265589 -0.029132335636771377 0.028253987204137455 0.0008783484326339024 -0.01780103793227247 0.0 0.0
0.0 0.038039841953052204 -0.030965679567667458 0.03016145216845678 0.0008042273992106802 -0.021230660758794356 0.0 0.0
0.0 0.03557352640741631 -0.02839425934983817 0.02773161063604389 0.0006626487137942727 -0.022310112890128908 0.0 0.0
0.0 0.03285132790300737 -0.023221314866982177 0.020122903869925504 0.0030984109970566536 1.0661610483353456e-14 0.0 0.0
0.0 0.03557352640742364 -0.02839425934983926 0.027731610636045224 0.0006626487137940177 0.022310112890156747 0.0 0.0
0.0 0.03803984195305199 -0.030965679567663287 0.03016145216845315 0.0008042273992100927 0.02123066075882057 0.0 0.0
0.0 0.03540179336264284 -0.029132335636758662 0.028253987204125364 0.00087834843263329 0.017801037932283964 0.0 0.0
0.0 0.030656852647860652 -0.025327471138500746 0.024414399122168 0.0009130720163327542 0.014298192523276753 0.0 0.0
0.0 0.025208626988203878 -0.020981657817154102 0.020074270527897002 0.0009073872892570895 0.011667908340393336 0.0 0.0
0.0 0.020299495217527073 -0.01682876375284596 0.015955435229969585 0.0008733285228763762 0.009775534978440695 0.0 0.0
0.0 0.01588223811998957 -0.013175929192905111 0.012358520909311287 0.000817408283593824 0.008248873955025422 0.0 0.0
0.0 0.012176236705197347 -0.010051532706187498 0.009303442696371522 0.0007480900098159736 0.006852566199100248 0.0 0.0
0.0 0.008935771479636638 -0.007366662585091938 0.006701007404479792 0.0006656551806121467 0.005457689738613332 0.0 0.0
0.0 0.006169987871394459 -0.005016536916985333 0.004450589119712884 0.0005659477972724508 0.004015701406032728 0.0 0.0
0.0 0.003949886948733726 -0.002984120720685832 0.0025515514885471845 0.0004325692321386476 0.0025411914389192438 0.0 0.0
0.0 0.0017801180070171534 -0.0014135377312208502 0.0011506212174058358 0.0002629165138150132 0.0013077297749072739 0.0 0.0
0.0 0.0005348420253577047 -0.0004264005823471825 0.0003317178236361613 9.468275871102086e-05 0.00047389427445293736 0.0 0.0
0.0 8.113616704976572e-05 -1.822280891867603e-05 1.3190925599845144e-05 5.031883318831042e-06 1.4640745914974002e-05 0.0 0.0
0.0 -1.5382508158581633e-05 1.3675432354431993e-06 -1.0900797993695296e-06 -2.774634360736487e-07 2.0662449266337385e-06 0.0 0.0
0.0 5.97338010011901e-07 2.043499440059117e-06 -1.6481319268940561e-06 -3.9536751316505666e-07 -6.554670954368292e-06 0.0 0.0
0.0 1.6302002306694722e-06 1.582979974631598e-07 -1.312037357263033e-07 -2.7094261736863896e-08 -6.718599159815086e-07 0.0 0.0
0.0 -8.431200300362501e-07 -2.8996678872773777e-08 2.301710339753103e-08 5.979575475243381e-09 1.6687519243153147e-07 0.0 0.0
0.0 4.708975583477513e-08 6.631015331494612e-10 -4.066369110840808e-10 -2.5646462206536185e-10 -9.520651915847124e-09 0.0 0.0
0.0 0.0 0.0 0.0 0.0 0.0 0.0 0.0
0.0 0.0 0.0 0.0 0.0 0.0 0.0 0.0
0.0 0.0 0.0 0.0 0.0 0.0 0.0 0.0
0.0 -2.95889627028445e-07 -1.3592507698731995e-08 1.083743040721265e-08 2.7550772915178707e-09 -5.501979115714737e-08 0.0 0.0
0.0 -2.1870654042085608e-06 -1.985938119557044e-07 1.6139310626743544e-07 3.720070568827147e-08 -5.376239995494975e-07 0.0 0.0
0.0 6.6588018463301165e-06 1.9544412967737796e-06 -1.569626306487704e-06 -3.848149902860697e-07 4.838860657635014e-06 0.0 0.0
0.0 9.784346531600163e-06 2.1465980861301156e-05 -1.734942665309101e-05 -4.11655420821022e-06 3.906062304189481e-05 0.0 0.0
0.0 0.0002597543746200265 -0.0001988989819776083 0.00015088048535365385 4.80184966239545e-05 -0.00017429851190302364 0.0 0.0
0.0 0.0012025690726287935 -0.0010098827558320048 0.0007980833604902043 0.00021179939534179962 -0.0007384041480885075 0.0 0.0
0.0 0.003349497559155946 -0.002558145375114777 0.0021441265262221398 0.00041401884889263527 -0.0017638726697978054 0.0 0.0
0.0 0.0055676281414440195 -0.004810390231939738 0.004227541101411499 0.0005828491305282423 -0.0032138470589874782 0.0 0.0
0.0 0.008899308622808324 -0.007521847785720201 0.006824583053234656 0.0006972647324855392 -0.004716832801381179 0.0 0.0
0.0 0.012613459789252532 -0.010660750194812472 0.009873809972720849 0.0007869402220916223 -0.006193396867731878 0.0 0.0
0.0 0.016861581914180995 -0.014272145772459104 0.013404522496979154 0.0008676232754799499 -0.007632925131614594 0.0 0.0
0.0 0.021815140052579184 -0.018480691442488668 0.01753927544319889 0.0009414159992897645 -0.009105974930518044 0.0 0.0
0.0 0.0275609919946574 -0.023414362119291057 0.02240911842408118 0.0010052436952098526 -0.010728261474770353 0.0 0.0
0.0 0.0344595751479802 -0.02907337733627908 0.028026650826999018 0.0010467265092800597 -0.012788427378110976 0.0 0.0
0.0 0.04128247513585607 -0.035106103178933375 0.03405684840417045 0.0010492547747628649 -0.015735281212025266 0.0 0.0
0.0 0.04805032605754211 -0.040468283473532464 0.03947486300161508 0.0009934204719174121 -0.019747893632024453 0.0 0.0
0.0 0.05191128479133676 -0.043188102045776125 0.04231479636723501 0.000873305678541069 -0.023966464570166802 0.0 0.0
0.0 0.048795091294780234 -0.040044908304280695 0.039381062135870365 0.0006638461684103112 -0.025896274703492903 0.0 0.0
0.0 0.043327741524080685 -0.0333765335286541 0.029662253898392464 0.003714279630261609 1.2446640940133591e-14 0.0 0.0
0.0 0.04879509129478245 -0.040044908304277656 0.0393810621358678 0.0006638461684098563 0.02589627470352209 0.0 0.0
0.0 0.051911284791328324 -0.04318810204576512 0.04231479636722441 0.0008733056785406964 0.023966464570195127 0.0 0.0
0.0 0.04805032605752243 -0.04046828347351428 0.03947486300159672 0.000993420471917499 0.019747893632038778 0.0 0.0
0.0 0.0412824751358285 -0.03510610317890965 0.03405684840414688 0.0010492547747627742 0.0157352812120235 0.0 0.0
0.0 0.03445957514795289 -0.029073377336255472 0.028026650826976026 0.0010467265092794426 0.01278842737810411 0.0 0.0
0.0 0.027560991994630944 -0.023414362119268263 0.022409118424059037 0.0010052436952092266 0.010728261474761351 0.0 0.0
0.0 0.02181514005255124 -0.018480691442464524 0.017539275443175167 0.0009414159992893286 0.009105974930509185 0.0 0.0
0.0 0.016861581914151068 -0.014272145772433955 0.0134045224969541 0.0008676232754798381 0.007632925131603689 0.0 0.0
0.0 0.01261345978922563 -0.010660750194789657 0.009873809972698546 0.000786940222091119 0.006193396867719028 0.0 0.0
0.0 0.008899308622782955 -0.0075218477856989294 0.006824583053213778 0.000697264732485144 0.004716832801366335 0.0 0.0
0.0 0.005567628141425213 -0.004810390231923601 0.004227541101396143 0.0005828491305274568 0.003213847058976255 0.0 0.0
0.0 0.0033494975591404222 -0.0025581453751027388 0.0021441265262114022 0.0004140188488913384 0.0017638726697899376 0.0 0.0
0.0 0.0012025690726207368 -0.001009882755825842 0.0007980833604851582 0.00021179939534068362 0.0007384041480842268 0.0 0.0
0.0 0.0002597543746162593 -0.0001988989819754203 0.00015088048535197033 4.8018496623449836e-05 0.00017429851190124023 0.0 0.0
0.0 9.784346531194561e-06 2.1465980860795555e-05 -1.7349426652687612e-05 -4.116554208107997e-06 -3.906062304103857e-05 0.0 0.0
0.0 6.658801845049856e-06 1.9544412967395184e-06 -1.5696263064635226e-06 -3.8481499027597266e-07 -4.838860657603643e-06 0.0 0.0
0.0 -2.1870654047751402e-06 -1.9859381199215337e-07 1.6139310629650027e-07 3.720070569565604e-08 5.376239996885668e-07 0.0 0.0
0.0 -2.9588962689353585e-07 -1.3592507692400482e-08 1.0837430402124616e-08 2.755077290274585e-09 5.50197911312241e-08 0.0 0.0
0.0 0.0 0.0 0.0 0.0 0.0 0.0 0.0
0.0 0.0 0.0 0.0 0.0 0.0 0.0 0.0
0.0 0.0 0.0 0.0 0.0 0.0 0.0 0.0
0.0 0.0 0.0 0.0 0.0 0.0 0.0 0.0
0.0 -1.336041538324973e-07 -7.0791082984345225e-09 5.607259907490537e-09 1.4718483909442396e-09 -2.3963176664436898e-08 0.0 0.0
0.0 -1.555711219258034e-07 -2.2690618974109305e-08 2.0845607799569463e-08 1.8450111745549255e-09 -5.006963119288666e-08 0.0 0.0
0.0 -9.497333134184669e-06 -1.3285632121322877e-08 -4.395817961256877e-08 5.7243811733885104e-08 5.399540667106074e-07 0.0 0.0
0.0 7.591514456670875e-05 -1.344158996338055e-05 8.108920034260115e-06 5.3326699291206356e-06 1.66229984000758e-05 0.0 0.0
0.0 0.0006049286065048394 -0.0005073907636116235 0.0003882520703183199 0.00011913869329330387 -0.00027890385472533624 0.0 0.0
0.0 0.0022913664716773356 -0.0017538380227731323 0.0014220801812544705 0.00033175784151866146 -0.0009267713607473642 0.0 0.0
0.0 0.004360851766398315 -0.0039045252605882583 0.00336073914868688 0.0005437861119013781 -0.0021073285937083706 0.0 0.0
0.0 0.0077574143734691955 -0.006708725066973709 0.006020494251846269 0.0006882308151274449 -0.003494800461191882 0.0 0.0
0.0 0.011711181322238366 -0.01009387941610725 0.009301362904931202 0.0007925165111760412 -0.004934949545983014 0.0 0.0
0.0 0.01631875996797414 -0.014029141918298552 0.01314872943891654 0.0008804124793820057 -0.00636009371187271 0.0 0.0
0.0 0.021651107083258906 -0.01857879523048299 0.017614131975475022 0.0009646632550079502 -0.007770463476875884 0.0 0.0
0.0 0.027938874825865094 -0.023882352009208088 0.02283766647776457 0.0010446855314435238 -0.009242096337760922 0.0 0.0
0.0 0.03513421478116823 -0.030098265999391107 0.028979989679462637 0.0011182763199284193 -0.010880722857312789 0.0 0.0
0.0 0.043335936565497106 -0.037252496623504376 0.03608273929970973 0.0011697573237946877 -0.012892218925423696 0.0 0.0
0.0 0.05262093948881426 -0.044919686937984205 0.04375161074025281 0.001168076197731414 -0.015728204831031406 0.0 0.0
0.0 0.06077644487391337 -0.05180027401994712 0.05071376833124413 0.0010865056887029434 -0.019821488922516454 0.0 0.0
0.0 0.06516294707685744 -0.05532395515772408 0.054407731749090874 0.000916223408633246 -0.02467187517473977 0.0 0.0
0.0 0.06167691273069195 -0.051563384576081964 0.05091243843000797 0.0006509461460739834 -0.02826956559200311 0.0 0.0
0.0 0.05466999338858413 -0.04353057400457555 0.03925743340534353 0.004273140599232015 1.3176959523519827e-14 0.0 0.0
0.0 0.061676912730687664 -0.05156338457607414 0.050912438429999846 0.0006509461460742806 0.02826956559203265 0.0 0.0
0.0 0.06516294707684127 -0.05532395515770709 0.054407731749073915 0.0009162234086332256 0.024671875174767197 0.0 0.0
0.0 0.060776444873888495 -0.051800274019924354 0.05071376833122144 0.001086505688702904 0.019821488922532205 0.0 0.0
0.0 0.05262093948878232 -0.0449196869379566 0.043751610740225225 0.0011680761977312965 0.015728204831031992 0.0 0.0
0.0 0.043335936565465125 -0.03725249662347641 0.03608273929968267 0.0011697573237937835 0.012892218925419004 0.0 0.0
0.0 0.03513421478113336 -0.030098265999361152 0.02897998967943315 0.0011182763199279948 0.010880722857304993 0.0 0.0
0.0 0.027938874825831895 -0.02388235200917889 0.022837666477736024 0.0010446855314428715 0.009242096337752782 0.0 0.0
0.0 0.021651107083223944 -0.0185787952304529 0.01761413197544509 0.0009646632550078041 0.0077704634768657925 0.0 0.0
0.0 0.016318759967941875 -0.014029141918270906 0.013148729438889522 0.0008804124793813642 0.006360093711860709 0.0 0.0
0.0 0.0117111813222086 -0.01009387941608201 0.009301362904906353 0.0007925165111756517 0.0049349495459688275 0.0 0.0
0.0 0.007757414373446242 -0.006708725066954122 0.006020494251827441 0.0006882308151266846 0.003494800461180669 0.0 0.0
0.0 0.004360851766380791 -0.0039045252605719935 0.0033607391486718554 0.0005437861119001342 0.0021073285936995647 0.0 0.0
0.0 0.0022913664716657186 -0.0017538380227640682 0.0014220801812467065 0.0003317578415173604 0.0009267713607423972 0.0 0.0
0.0 0.0006049286064981858 -0.0005073907636065076 0.0003882520703142777 0.00011913869329223044 0.00027890385472207913 0.0 0.0
0.0 7.591514456524496e-05 -1.344158996319807e-05 8.108920034161067e-06 5.332669929036801e-06 -1.662299839981108e-05 0.0 0.0
0.0 -9.497333134741707e-06 -1.3285632451151485e-08 -4.395817935388182e-08 5.7243811805002705e-08 -5.39954066311303e-07 0.0 0.0
0.0 -1.5557112224163688e-07 -2.2690618993482742e-08 2.084560781404829e-08 1.8450111794521656e-09 5.006963124489742e-08 0.0 0.0
0.0 -1.3360415377959937e-07 -7.079108295548217e-09 5.6072599052097004e-09 1.4718483903391005e-09 2.396317665472527e-08 0.0 0.0
0.0 0.0 0.0 0.0 0.0 0.0 0.0 0.0
0.0 0.0 0.0 0.0 0.0 0.0 0.0 0.0
0.0 0.0 0.0 0.0 0.0 0.0 0.0 0.0
0.0 0.0 0.0 0.0 0.0 0.0 0.0 0.0
0.0 0.0 0.0 0.0 0.0 0.0 0.0 0.0
0.0 -1.5477553788273684e-06 -1.796449756610425e-07 1.4316464229561966e-07 3.6480333365399747e-08 -2.900239692254974e-07 0.0 0.0
0.0 -1.2917892090258618e-06 1.6145799947718874e-05 -1.2895740028735324e-05 -3.2500599189835036e-06 1.8481475791213734e-05 0.0 0.0
0.0 0.00015460211093791884 -0.00015844733131002128 0.00011753648617658388 4.0910845133437055e-05 -6.671848047827095e-05 0.0 0.0
0.0 0.0012558266803761754 -0.0009252519736746759 0.000721107529657935 0.00020414444401674117 -0.00033147112134799454 0.0 0.0
0.0 0.0029950507780189786 -0.0026862062211217407 0.0022368391065204687 0.00044936711460127215 -0.0010725718736989186 0.0 0.0
0.0 0.0059829830231041626 -0.005296144121703664 0.004657345284278689 0.0006387988374249784 -0.002156249522658918 0.0 0.0
0.0 0.009869338252111472 -0.008657226581180122 0.00788756513340036 0.0007696614477797631 -0.0033941048377409888 0.0 0.0
0.0 0.01459397392810477 -0.012707682452016193 0.011838610207437608 0.0008690722445785825 -0.004700996483583931 0.0 0.0
0.0 0.020139437804831767 -0.017443574997597952 0.01648374345213496 0.0009598315454630046 -0.00599393477667808 0.0 0.0
0.0 0.026646445700017708 -0.022945207627848834 0.02189547738705584 0.0010497302407929867 -0.007291226535146311 0.0 0.0
0.0 0.033893511547482234 -0.029366384709880924 0.02822910290105264 0.0011372818088282838 -0.008681580569334347 0.0 0.0
0.0 0.04267761176263871 -0.03684664074221795 0.03562896028757867 0.0012176804546392944 -0.010240536267017007 0.0 0.0
0.0 0.05270555429644304 -0.04541867398768637 0.04414042458082611 0.0012782494068602043 -0.012033822786615224 0.0 0.0
0.0 0.06327720946661904 -0.054644747728763134 0.05336362051059881 0.0012811272181643349 -0.014366366661407238 0.0 0.0
0.0 0.07309987732889514 -0.06299108204641807 0.061815398529210586 0.0011756835172075219 -0.017996219326330772 0.0 0.0
0.0 0.07861073784095429 -0.06736726840444851 0.06641541470687204 0.0009518536975764355 -0.023365397103264025 0.0 0.0
0.0 0.07459231909073487 -0.06318087645579827 0.06255713877562823 0.0006237376801700164 -0.02966458447751759 0.0 0.0
0.0 0.06613972145459353 -0.05395903814594396 0.04917469507278199 0.0047843430731619695 1.299047674985232e-14 0.0 0.0
0.0 0.07459231909072785 -0.06318087645578883 0.06255713877561822 0.000623737680170626 0.029664584477546035 0.0 0.0
0.0 0.07861073784093346 -0.06736726840442803 0.06641541470685149 0.0009518536975764366 0.023365397103291323 0.0 0.0
0.0 0.07309987732886719 -0.06299108204639287 0.061815398529186015 0.0011756835172068198 0.017996219326347308 0.0 0.0
0.0 0.06327720946658316 -0.05464474772873185 0.05336362051056772 0.0012811272181641718 0.0143663666614095 0.0 0.0
0.0 0.05270555429640595 -0.045418673987653854 0.044140424580794285 0.0012782494068595085 0.012033822786612029 0.0 0.0
0.0 0.04267761176259739 -0.03684664074218218 0.0356289602875433 0.0012176804546388709 0.010240536267010913 0.0 0.0
0.0 0.03389351154744265 -0.0293663847098466 0.028229102901018842 0.0011372818088277365 0.00868158056932682 0.0 0.0
0.0 0.026646445699976408 -0.022945207627812866 0.02189547738701997 0.001049730240792912 0.007291226535137092 0.0 0.0
0.0 0.02013943780479589 -0.01744357499756673 0.016483743452104432 0.0009598315454622927 0.005993934776667476 0.0 0.0
0.0 0.014593973928070724 -0.012707682451986698 0.011838610207408621 0.0008690722445780754 0.004700996483571191 0.0 0.0
0.0 0.009869338252084567 -0.00865722658115655 0.007887565133377513 0.0007696614477790313 0.003394104837730266 0.0 0.0
0.0 0.005982983023084084 -0.005296144121685454 0.004657345284261644 0.0006387988374238079 0.002156249522651544 0.0 0.0
0.0 0.00299505077800505 -0.0026862062211093865 0.0022368391065094202 0.0004493671145999677 0.0010725718736934308 0.0 0.0
0.0 0.0012558266803671615 -0.0009252519736677967 0.0007211075296524198 0.00020414444401537513 0.00033147112134494913 0.0 0.0
0.0 0.00015460211093552096 -0.00015844733130875193 0.00011753648617565085 4.0910845133100654e-05 6.671848047801396e-05 0.0 0.0
0.0 -1.2917892099254502e-06 1.6145799947421884e-05 -1.2895740028505973e-05 -3.250059918915778e-06 -1.8481475790942328e-05 0.0 0.0
0.0 -1.5477553787470985e-06 -1.7964497567326362e-07 1.4316464230495788e-07 3.648033336830675e-08 2.9002396924120745e-07 0.0 0.0
0.0 0.0 0.0 0.0 0.0 0.0 0.0 0.0
0.0 0.0 0.0 0.0 0.0 0.0 0.0 0.0
0.0 0.0 0.0 0.0 0.0 0.0 0.0 0.0
0.0 0.0 0.0 0.0 0.0 0.0 0.0 0.0
0.0 0.0 0.0 0.0 0.0 0.0 0.0 0.0
0.0 0.0 0.0 0.0 0.0 0.0 0.0 0.0
0.0 -8.536701321507196e-07 6.234781258495251e-08 -4.979590164752779e-08 -1.2551910937416271e-08 1.1977571886192295e-07 0.0 0.0
0.0 1.3654655602603749e-05 1.218475595573722e-05 -1.0315896793700022e-05 -1.8688591620369881e-06 1.2959355931140832e-05 0.0 0.0
0.0 0.0004263425545623246 -0.00032259260812642554 0.0002401170348934025 8.247557323302314e-05 -5.52399745368377e-05 0.0 0.0
0.0 0.0017618231285167346 -0.001507527518590498 0.0012022915533625761 0.0003052359652279205 -0.0003600834960866978 0.0 0.0
0.0 0.004049437814992291 -0.003673797672997033 0.0031321218656164725 0.0005416758073805602 -0.001039454984852785 0.0 0.0
0.0 0.007530017018564815 -0.006727118690073451 0.006012098989705291 0.0007150197003681558 -0.0019159260029178067 0.0 0.0
0.0 0.012060593737794155 -0.010629149189255145 0.009793812747392293 0.0008353364418628567 -0.002944619918683082 0.0 0.0
0.0 0.01749640136115106 -0.015344491332788764 0.01440990032041134 0.0009345910123774085 -0.004033969213806494 0.0 0.0
0.0 0.02398602879811122 -0.02088824156872222 0.019857513891137185 0.0010307276775850306 -0.005115030871880152 0.0 0.0
0.0 0.031336628502452626 -0.027361479805627288 0.026233249414123125 0.001128230391504117 -0.006210118979853789 0.0 0.0
0.0 0.04029096836933134 -0.03490202409280802 0.03368113852836278 0.0012208855644452617 -0.007418224562312328 0.0 0.0
0.0 0.050286067266254925 -0.04363549537924247 0.04233052284509724 0.0013049725341451812 -0.008808317142568484 0.0 0.0
0.0 0.06153812394806095 -0.05352945850458578 0.05215703481015585 0.0013724236944299797 -0.010305768715457804 0.0 0.0
0.0 0.07386935351050461 -0.06412819928336418 0.06273834010750734 0.0013898591758567682 -0.011863678006170065 0.0 0.0
0.0 0.08523523198937014 -0.0738827794884851 0.07260475647642362 0.0012780230120614836 -0.014334341616599435 0.0 0.0
0.0 0.09189346233719332 -0.07934670833900753 0.07834982001435689 0.0009968883246506749 -0.019941428915729434 0.0 0.0
0.0 0.08798476245720543 -0.07513550368629382 0.07455866075756305 0.0005768429287308543 -0.02986915988794378 0.0 0.0
0.0 0.07875503922202433 -0.0649554529695751 0.05971545752245104 0.005239995447124068 1.2150003225741557e-14 0.0 0.0
0.0 0.08798476245719557 -0.0751355036862826 0.07455866075755174 0.0005768429287308735 0.029869159887968944 0.0 0.0
0.0 0.09189346233716895 -0.07934670833898472 0.07834982001433452 0.0009968883246501414 0.019941428915753862 0.0 0.0
0.0 0.08523523198933648 -0.07388277948845576 0.07260475647639426 0.0012780230120614828 0.014334341616613469 0.0 0.0
0.0 0.07386935351046366 -0.06412819928332861 0.06273834010747187 0.0013898591758566775 0.011863678006172714 0.0 0.0
0.0 0.061538123948017866 -0.053529458504548204 0.052157034810118984 0.0013724236944292218 0.010305768715456121 0.0 0.0
0.0 0.050286067266209045 -0.04363549537920272 0.04233052284505805 0.0013049725341446616 0.008808317142563936 0.0 0.0
0.0 0.04029096836928616 -0.03490202409276863 0.0336811385283241 0.0012208855644445095 0.007418224562305272 0.0 0.0
0.0 0.031336628502406816 -0.027361479805587615 0.026233249414083823 0.0011282303915037977 0.006210118979846968 0.0 0.0
0.0 0.023986028798068867 -0.02088824156868486 0.019857513891100534 0.0010307276775843313 0.005115030871871499 0.0 0.0
0.0 0.017496401361112194 -0.01534449133275481 0.014409900320377818 0.0009345910123769803 0.004033969213795696 0.0 0.0
0.0 0.01206059373776255 -0.010629149189227617 0.009793812747365262 0.0008353364418623537 0.0029446199186733235 0.0 0.0
0.0 0.007530017018540657 -0.006727118690051754 0.006012098989684477 0.0007150197003672722 0.0019159260029112573 0.0 0.0
0.0 0.004049437814975587 -0.003673797672981481 0.003132121865602154 0.0005416758073793284 0.001039454984847758 0.0 0.0
0.0 0.0017618231285069581 -0.0015075275185822171 0.0012022915533556442 0.0003052359652265732 0.00036008349608417263 0.0 0.0
0.0 0.0004263425545586334 -0.0003225926081240534 0.00024011703489162331 8.247557323243034e-05 5.523997453635327e-05 0.0 0.0
0.0 1.3654655601982587e-05 1.2184755955526991e-05 -1.0315896793523297e-05 -1.8688591620038319e-06 -1.2959355930703143e-05 0.0 0.0
0.0 -8.536701327252893e-07 6.234781259174363e-08 -4.9795901655210865e-08 -1.2551910936527332e-08 -1.197757189055124e-07 0.0 0.0
0.0 0.0 0.0 0.0 0.0 0.0 0.0 0.0
0.0 0.0 0.0 0.0 0.0 0.0 0.0 0.0
0.0 0.0 0.0 0.0 0.0 0.0 0.0 0.0
0.0 0.0 0.0 0.0 0.0 0.0 0.0 0.0
0.0 0.0 0.0 0.0 0.0 0.0 0.0 0.0
0.0 0.0 0.0 0.0 0.0 0.0 0.0 0.0
0.0 6.490207670272919e-07 1.320044645334514e-07 -9.930850081010308e-08 -3.2695963723363214e-08 9.184295057829934e-08 0.0 0.0
0.0 3.8538179093962604e-05 -3.885612768469807e-05 2.6487883854836724e-05 1.2368243829861403e-05 5.668550836463086e-06 0.0 0.0
0.0 0.0008044275091997316 -0.0005966679831249222 0.00045159711302422895 0.0001450708701006928 -2.078002002876302e-05 0.0 0.0
0.0 0.0022938682718169597 -0.0021855771616611213 0.0017857892072151843 0.00039978795444593784 -0.0003138467227839939 0.0 0.0
0.0 0.0051738222991478035 -0.004695500828894432 0.0040763040179452835 0.0006191968109491532 -0.0007825669359217546 0.0 0.0
0.0 0.009109440310216379 -0.008175432674394441 0.007399056918049301 0.0007763757563451303 -0.001414947395848969 0.0 0.0
0.0 0.014253319159882696 -0.012609070869631303 0.011718446812944528 0.00089062405668677 -0.0021586034522236776 0.0 0.0
0.0 0.020498585668206615 -0.017987306836155643 0.01699436650886746 0.0009929403272881596 -0.0029477487987871393 0.0 0.0
0.0 0.027773797088669734 -0.02434831960213219 0.023252627446962635 0.0010956921551695674 -0.00373025708870733 0.0 0.0
0.0 0.03655081281713698 -0.03179647474940398 0.030596627396933057 0.001199847352470935 -0.004534435609510155 0.0 0.0
0.0 0.04630000581914895 -0.040481158864257516 0.03918174094403177 0.0012994179202256918 -0.005470055849164943 0.0 0.0
0.0 0.05781559136731469 -0.05044915784755666 0.04906384774099155 0.0013853101065651851 -0.006565071327174348 0.0 0.0
0.0 0.0706404882550093 -0.06155133864940337 0.06010368019843197 0.0014476584509713615 -0.0076799540058901375 0.0 0.0
0.0 0.08418413777699592 -0.07327282351518768 0.07179545124125837 0.0014773722739294167 -0.008531177276853328 0.0 0.0
0.0 0.0968863990533665 -0.08427263681436994 0.08285355398202474 0.0014190828323452022 -0.00947685155938023 0.0 0.0
0.0 0.10509284739004952 -0.09118900521514754 0.09009938635081391 0.0010896188643336124 -0.013855482930666163 0.0 0.0
0.0 0.10202726011597214 -0.08769811171780766 0.08720542740677503 0.0004926843110324514 -0.028005025021926734 0.0 0.0
0.0 0.09258170346670788 -0.0769560496540571 0.07134833403757035 0.005607715616486652 8.010085650322907e-15 0.0 0.0
0.0 0.10202726011595964 -0.08769811171779489 0.08720542740676258 0.0004926843110322842 0.0280050250219471 0.0 0.0
0.0 0.10509284739002085 -0.09118900521512195 0.09009938635078822 0.0010896188643338104 0.01385548293068599 0.0 0.0
0.0 0.0968863990533266 -0.08427263681433542 0.08285355398199036 0.0014190828323450417 0.009476851559391156 0.0 0.0
0.0 0.0841841377769474 -0.07327282351514568 0.0717954512412164 0.001477372273929286 0.008531177276855411 0.0 0.0
0.0 0.07064048825496022 -0.061551338649360514 0.06010368019839017 0.0014476584509703755 0.00767995400588997 0.0 0.0
0.0 0.057815591367263164 -0.05044915784751197 0.049063847740947415 0.001385310106564594 0.006565071327171516 0.0 0.0
0.0 0.0463000058190981 -0.040481158864213204 0.039181740943988526 0.0012994179202246731 0.005470055849159793 0.0 0.0
0.0 0.036550812817085984 -0.03179647474935951 0.03059662739688896 0.0011998473524705178 0.004534435609505665 0.0 0.0
0.0 0.027773797088621075 -0.024348319602090062 0.02325262744692109 0.0010956921551689312 0.003730257088701625 0.0 0.0
0.0 0.02049858566816444 -0.01798730683611823 0.01699436650883054 0.000992940327287706 0.0029477487987789467 0.0 0.0
0.0 0.014253319159848718 -0.012609070869600851 0.011718446812914889 0.0008906240566859618 0.002158603452216736 0.0 0.0
0.0 0.009109440310190255 -0.008175432674370696 0.007399056918026473 0.0007763757563442302 0.0014149473958442987 0.0 0.0
0.0 0.005173822299129052 -0.004695500828877072 0.004076304017929085 0.0006191968109479874 0.0007825669359180292 0.0 0.0
0.0 0.002293868271805074 -0.002185577161649893 0.0017857892072053506 0.0003997879544445413 0.00031384672278164053 0.0 0.0
0.0 0.0008044275091944037 -0.0005966679831206485 0.0004515971130208898 0.00014507087009975832 2.078002002829361e-05 0.0 0.0
0.0 3.8538179093280024e-05 -3.885612768499844e-05 2.6487883855122957e-05 1.2368243829875348e-05 -5.668550835886641e-06 0.0 0.0
0.0 6.490207665491874e-07 1.320044646348301e-07 -9.930850089284596e-08 -3.26959637420049e-08 -9.18429506771796e-08 0.0 0.0
0.0 0.0 0.0 0.0 0.0 0.0 0.0 0.0
0.0 0.0 0.0 0.0 0.0 0.0 0.0 0.0
0.0 0.0 0.0 0.0 0.0 0.0 0.0 0.0
0.0 0.0 0.0 0.0 0.0 0.0 0.0 0.0
0.0 0.0 0.0 0.0 0.0 0.0 0.0 0.0
0.0 0.0 0.0 0.0 0.0 0.0 0.0 0.0
0.0 -1.360146185777672e-06 6.030830532010519e-07 -5.336158545071406e-07 -6.946719869391022e-08 4.7117730126206725e-07 0.0 0.0
0.0 0.0001786890702759696 -0.00010568725797445948 7.405054231987828e-05 3.163671565458119e-05 2.865961869552208e-05 0.0 0.0
0.0 0.0011537786521445485 -0.000984564210714185 0.0007610261846994625 0.00022353802601472278 5.049331957854664e-05 0.0 0.0
0.0 0.00310370922478913 -0.0028839485459932644 0.0024081663851335438 0.0004757821608597213 -0.00010362507241285185 0.0 0.0
0.0 0.00630541381536994 -0.005734308512779241 0.00505141699072815 0.0006828915220510863 -0.0003400541997331116 0.0 0.0
0.0 0.01076736306278541 -0.009622530634753509 0.008796065163539125 0.0008264654712143876 -0.0006597869459982473 0.0 0.0
0.0 0.01645317395522279 -0.014580935543034261 0.013641784025197876 0.0009391515178363814 -0.001043916700218288 0.0 0.0
0.0 0.023432846963860273 -0.020623349817504667 0.019577364006919142 0.0010459858105855409 -0.0014448495987625686 0.0 0.0
0.0 0.03186533292014629 -0.027806007539554332 0.02665072777911235 0.001155279760441974 -0.0018410926544779058 0.0 0.0
0.0 0.04130403385891844 -0.03625185104571649 0.03498504952021507 0.001266801525501401 -0.002291407739338784 0.0 0.0
0.0 0.052613328680003915 -0.046064957005510415 0.04469227841884529 0.001372678586665095 -0.0028289806329038296 0.0 0.0
0.0 0.06549589619218817 -0.057244674114730526 0.05578533111869012 0.0014593429960404057 -0.003456547946102824 0.0 0.0
0.0 0.0796541233409555 -0.06950564036749238 0.06799143956420757 0.0015142008032848634 -0.0041023840797907345 0.0 0.0
0.0 0.09427353983816834 -0.08213372882592082 0.08060144149765285 0.0015322873282679836 -0.004508325008982931 0.0 0.0
0.0 0.10791301348907643 -0.09391559131117118 0.09238837015602772 0.0015272211551434905 -0.004506640083874112 0.0 0.0
0.0 0.11776113075006348 -0.10242834324055186 0.10104928707204017 0.0013790561685115975 -0.0060655737932366165 0.0 0.0
0.0 0.11699318171405439 -0.10115183160445407 0.10071326024288613 0.00043857136156797403 -0.019745548330232315 0.0 0.0
0.0 0.1086837684459985 -0.09092839829003559 0.08531192327557684 0.005616475014458645 4.240531537025305e-15 0.0 0.0
0.0 0.11699318171403836 -0.10115183160443925 0.1007132602428714 0.0004385713615677687 0.019745548330243837 0.0 0.0
0.0 0.11776113075003061 -0.1024283432405233 0.10104928707201133 0.0013790561685117742 0.006065573793248337 0.0 0.0
0.0 0.10791301348902893 -0.09391559131113043 0.09238837015598682 0.0015272211551436237 0.004506640083879803 0.0 0.0
0.0 0.09427353983811403 -0.08213372882587365 0.08060144149760592 0.0015322873282677455 0.004508325008983181 0.0 0.0
0.0 0.0796541233409004 -0.06950564036744429 0.0679914395641604 0.0015142008032839151 0.0041023840797907475 0.0 0.0
0.0 0.06549589619213134 -0.05724467411468098 0.05578533111864149 0.0014593429960394974 0.0034565479461011227 0.0 0.0
0.0 0.05261332867994639 -0.04606495700546032 0.04469227841879612 0.0013726785866641318 0.002828980632902074 0.0 0.0
0.0 0.041304033858859765 -0.03625185104566551 0.034985049520164534 0.001266801525500964 0.0022914077393363305 0.0 0.0
0.0 0.031865332920091416 -0.027806007539506558 0.02665072777906481 0.0011552797604417369 0.0018410926544744927 0.0 0.0
0.0 0.02343284696381321 -0.020623349817463738 0.01957736400687876 0.0010459858105849728 0.0014448495987579686 0.0 0.0
0.0 0.01645317395518511 -0.01458093554300066 0.013641784025165277 0.0009391515178353809 0.001043916700214831 0.0 0.0
0.0 0.01076736306275676 -0.009622530634727525 0.008796065163513877 0.0008264654712136428 0.0006597869459957026 0.0 0.0
0.0 0.006305413815348968 -0.005734308512759857 0.00505141699070977 0.0006828915220500861 0.00034005419973117627 0.0 0.0
0.0 0.0031037092247751677 -0.00288394854597996 0.002408166385121588 0.00047578216085837047 0.00010362507241148872 0.0 0.0
0.0 0.0011537786521374166 -0.0009845642107080231 0.0007610261846944849 0.0002235380260135379 -5.0493319578653375e-05 0.0 0.0
0.0 0.0001786890702741077 -0.00010568725797367932 7.405054231935049e-05 3.163671565432892e-05 -2.865961869522361e-05 0.0 0.0
0.0 -1.3601461859210423e-06 6.03083052852524e-07 -5.336158542466638e-07 -6.946719860580237e-08 -4.711773012331625e-07 0.0 0.0
0.0 0.0 0.0 0.0 0.0 0.0 0.0 0.0
0.0 0.0 0.0 0.0 0.0 0.0 0.0 0.0
0.0 0.0 0.0 0.0 0.0 0.0 0.0 0.0
0.0 0.0 0.0 0.0 0.0 0.0 0.0 0.0
0.0 0.0 0.0 0.0 0.0 0.0 0.0 0.0
0.0 0.0 0.0 0.0 0.0 0.0 0.0 0.0
0.0 -1.1201873115275805e-06 2.608796524598125e-06 -2.0148575806924323e-06 -5.939389439055683e-07 5.413683434500882e-07 0.0 0.0
0.0 0.00036921830518860213 -0.000213046452962857 0.00014904238221073198 6.400407075212542e-05 6.852302239527389e-05 0.0 0.0
0.0 0.0015616009803972152 -0.0013422791091908881 0.0010281527674828586 0.00031412634170802914 0.0001753932692609264 0.0 0.0
0.0 0.00373982726194706 -0.0034805912157815358 0.002877316538590495 0.00060327467719104 0.00020854365142970846 0.0 0.0
0.0 0.007215885080504699 -0.006591271051914661 0.0057380810648633394 0.0008531899870513163 0.00023288335204804135 0.0 0.0
0.0 0.011978249641696062 -0.01081233998409893 0.009754528829877136 0.0010578111542217928 0.00024614608434984865 0.0 0.0
0.0 0.018162923519666335 -0.016201621272437138 0.014944802284531955 0.0012568189879051742 0.0002251456525919585 0.0 0.0
0.0 0.02579867249354768 -0.02279972091756194 0.02132107541075888 0.0014786455068030511 0.000216351766707739 0.0 0.0
0.0 0.034642725626509815 -0.03068652989174553 0.028954221408880876 0.0017323084828646527 0.0002149911017295717 0.0 0.0
0.0 0.045165001986007994 -0.03995769880973738 0.037946902045062576 0.002010796764674755 0.0001495675735794428 0.0 0.0
0.0 0.05740561111669906 -0.050700507847007095 0.04839721512126015 0.0023032927257469237 5.839484910574299e-05 0.0 0.0
0.0 0.07132302317221645 -0.06287278803041092 0.06028740045010535 0.002585387580305512 -0.00013479997173627273 0.0 0.0
0.0 0.08651315610287445 -0.07608019048307661 0.07325763661212518 0.0028225538709513508 -0.0004330010832731962 0.0 0.0
0.0 0.10190036822240615 -0.08941368544028966 0.08644080251740195 0.00297288292288759 -0.000734705761059681 0.0 0.0
0.0 0.11584510668286822 -0.10145819824335475 0.09846729986477121 0.002990898378583418 -0.000827316325412851 0.0 0.0
0.0 0.1262746860000549 -0.11056865160750921 0.10761573868484058 0.0029529129226687377 -0.001194770104821767 0.0 0.0
0.0 0.12854372968998432 -0.11298245975990562 0.11016608870398387 0.00281637105592172 -0.013838601143306704 0.0 0.0
0.0 0.12437847021680393 -0.10559026406174749 0.09666327098345573 0.008926993078291675 1.304512053934559e-15 0.0 0.0
0.0 0.1285437296899649 -0.11298245975988855 0.11016608870396713 0.002816371055921289 0.01383860114331039 0.0 0.0
0.0 0.1262746860000193 -0.11056865160747811 0.10761573868481059 0.0029529129226676483 0.0011947701048254135 0.0 0.0
0.0 0.11584510668281472 -0.1014581982433085 0.09846729986472512 0.0029908983785834715 0.0008273163254144747 0.0 0.0
0.0 0.10190036822234759 -0.08941368544023841 0.08644080251735169 0.0029728829228864075 0.0007347057610606958 0.0 0.0
0.0 0.08651315610281476 -0.07608019048302427 0.07325763661207449 0.002822553870949794 0.0004330010832728926 0.0 0.0
0.0 0.07132302317215497 -0.06287278803035672 0.060287400450053166 0.0025853875803035454 0.00013479997173520067 0.0 0.0
0.0 0.05740561111663586 -0.050700507846951674 0.04839721512120643 0.0023032927257452384 -5.839484910625647e-05 0.0 0.0
0.0 0.045165001985945176 -0.03995769880968228 0.037946902045008966 0.0020107967646733186 -0.00014956757358019525 0.0 0.0
0.0 0.03464272562644847 -0.030686529891692155 0.028954221408828286 0.0017323084828638714 -0.0002149911017314916 0.0 0.0
0.0 0.025798672493497057 -0.022799720917517426 0.021321075410715627 0.001478645506801803 -0.00021635176670949195 0.0 0.0
0.0 0.018162923519624695 -0.0162016212724007 0.014944802284496923 0.0012568189879037816 -0.00022514565259286988 0.0 0.0
0.0 0.011978249641663049 -0.010812339984069603 0.009754528829848823 0.0010578111542207866 -0.00024614608435067514 0.0 0.0
0.0 0.007215885080481108 -0.006591271051892967 0.005738081064842925 0.0008531899870500426 -0.00023288335204782289 0.0 0.0
0.0 0.0037398272619320236 -0.0034805912157671753 0.0028773165385776074 0.0006032746771895698 -0.00020854365142965463 0.0 0.0
0.0 0.0015616009803897247 -0.0013422791091835672 0.0010281527674769753 0.0003141263417065922 -0.00017539326926025345 0.0 0.0
0.0 0.0003692183051857979 -0.00021304645296109338 0.00014904238220949878 6.40040707515958e-05 -6.852302239479389e-05 0.0 0.0
0.0 -1.120187311661991e-06 2.6087965245191228e-06 -2.0148575806329545e-06 -5.939389438861817e-07 -5.413683434334086e-07 0.0 0.0
0.0 0.0 0.0 0.0 0.0 0.0 0.0 0.0
0.0 0.0 0.0 0.0 0.0 0.0 0.0 0.0
0.0 0.0 0.0 0.0 0.0 0.0 0.0 0.0
SCALARS Wm float 4
LOOKUP_TABLE default
10.47464883420222 1.9325602826718966 4.145913252615657 4.39617529891466
4.795517527539338 2.376796912857217 1.0519230027434574 1.3667976119386662
0.540768540768201 0.5375315941907445 -0.0037278455368514977 0.006964792114307924
0.451513199373151 0.4456040771388998 0.0017111797152911839 0.0041979425189600725
0.8038123694865114 0.6651257962616757 0.048797161125632066 0.08988941209920348
1.576444458467597 0.8909571691329058 0.22948504525393199 0.45600224408075957
3.0729425387714864 1.2147412473134764 0.7419995481793735 1.1162017432786373
5.412477059349532 1.5835597982999658 1.675696253285057 2.153221007764504
8.771865199086468 2.019618203233886 3.166396943263021 3.5858500525895556
13.311918309250128 2.556971424161868 5.329334316433997 5.425612568654275
19.177904762576997 3.2387257693666474 8.2579534601273 7.6812255330830475
26.43778774734557 4.096792532633259 11.960902306640966 10.380092908071362
35.371904729303544 5.133855679920697 16.679304978922296 13.55874407046054
46.12897515276975 6.352144313556113 22.52400020608621 17.25283063312743
58.717261757769094 7.665964355943533 29.594325896540493 21.456971505285047
72.83519740474793 8.91059786643547 37.84121188431874 26.083387653993753
87.68512334165804 9.86953611428143 46.87136392764056 30.94422329973604
102.03319973003698 10.356268430830609 56.003429756403015 35.673501542803365
114.43274633597457 10.364237925210931 64.25231704206108 39.81619136870257
123.08753389678466 9.904767886496257 70.31342668491813 42.86933932537026
126.01085468146752 9.158995851497075 72.73229123675083 44.11956759321965
123.08753389676767 9.904767886491852 70.31342668490956 42.86933932536628
114.43274633594017 10.364237925206279 64.2523170420411 39.816191368692756
102.03319972999664 10.356268430835552 56.00342975637317 35.67350154278789
87.68512334160741 9.869536114281003 46.87136392760764 30.9442232997187
72.83519740469302 8.910597866429894 37.84121188428708 26.08338765397609
58.717261757714525 7.665964355936454 29.594325896510476 21.456971505267582
46.12897515271631 6.352144313549054 22.524000206057448 17.252830633109788
35.37190472925552 5.1338556799186845 16.679304978894457 13.558744070442396
26.43778774729936 4.0967925326271795 11.96090230661731 10.380092908054875
19.177904762537175 3.2387257693591254 8.257953460108844 7.681225533069192
13.3119183092215 2.5569714241604315 5.329334316419011 5.425612568642063
8.771865199064418 2.0196182032296393 3.166396943253741 3.5858500525810424
5.412477059335069 1.5835597982979588 1.675696253279006 2.1532210077581038
3.072942538762176 1.2147412473112076 0.7419995481762953 1.1162017432746734
1.5764444584631714 0.8909571691317165 0.22948504525296265 0.45600224407849294
0.8038123694846994 0.6651257962605409 0.04879716112537519 0.08988941209878315
0.45151319937250645 0.4456040771382658 0.0017111797152826655 0.004197942518958108
0.5407685407675323 0.5375315941901653 -0.003727845536861031 0.006964792114228041
4.79551752753477 2.3767969128576203 1.0519230027411146 1.3667976119360337
10.474648834178625 1.9325602826605375 4.145913252609064 4.396175298909032
12.21472299222454 5.487848257546112 3.1607697415517912 3.566104993126639
1.7553840732547084 0.3905121825883756 0.5475706269743006 0.8173012636920313
0.23284573100152156 0.2518277995402512 -0.004808005041705882 -0.01417406349702379
0.36009403400679807 0.35976499438692905 -4.8851695260643786e-05 0.000377891315129578
0.6174555854136479 0.5473636249132121 0.01989781685464924 0.050194143645786754
1.2702912337759427 0.7766462035429409 0.17005661015104462 0.32358842008195676
2.5279200022887083 1.0110858357430348 0.5864676664846579 0.9303665000610161
4.586954925583396 1.2848146425919622 1.418237051690934 1.8839032313005002
7.557424318625942 1.5773039009581746 2.767297566438946 3.2128228512288217
11.528258890558837 1.9014912758019815 4.708416240556241 4.918351374200614
16.60335109949909 2.271720507470291 7.3290288233505585 7.002601768678235
22.94817592641218 2.7082921453318165 10.75667595459563 9.483207826484737
30.551853360835675 3.224331391911583 14.920378136444805 12.4071438324793
39.82460953060856 3.8087282982334996 20.20473831703349 15.811142915341572
50.724761648500014 4.423374232573529 26.593550741820756 19.70783667410572
63.03579236493594 4.970191356071068 34.048372993174475 24.017228015690403
76.13798668724667 5.321902462477865 42.28663589878162 28.52944832598717
88.99627924703543 5.3843468989038215 50.669966495163095 32.94196585296849
100.2111200582725 5.121970895038043 58.26259827400986 36.8265508892246
108.11822919152449 4.583724550479564 63.899327721460544 39.63517691958436
111.0233453449196 4.020721119848216 66.22765916854857 40.774965056522866
108.11822919151871 4.58372455048865 63.89932772145059 39.63517691957944
100.21112005824108 5.121970895032458 58.26259827399277 36.82655088921585
88.99627924699959 5.384346898908451 50.6699664951364 32.94196585295472
76.13798668720416 5.321902462480448 42.28663589875245 28.52944832597126
63.035792364888046 4.9701913560668345 34.04837299314647 24.017228015674732
50.724761648453615 4.423374232571124 26.593550741793127 19.707836674089368
39.82460953056359 3.8087282982317334 20.20473831700691 15.811142915324957
30.551853360794006 3.224331391911949 14.920378136419554 12.407143832462486
22.94817592637273 2.7082921453286755 10.756675954574446 9.483207826469615
16.603351099465847 2.2717205074670446 7.32902882333361 7.002601768665196
11.528258890532783 1.9014912757993663 4.708416240543557 4.918351374189854
7.557424318606844 1.5773039009552967 2.7672975664306714 3.212822851220873
4.586954925570654 1.2848146425903322 1.41823705168565 1.8839032312946724
2.527920002280826 1.0110858357413057 0.5864676664820585 0.9303665000574615
1.2702912337723207 0.7766462035420556 0.17005661014995524 0.3235884200803097
0.6174555854125086 0.5473636249125543 0.0198978168544774 0.05019414364547675
0.36009403400653867 0.35976499438659654 -4.885169525020474e-05 0.0003778913151923924
0.2328457310015433 0.2518277995401492 -0.004808005041666994 -0.014174063496938902
1.7553840732496755 0.3905121825878596 0.5475706269721992 0.8173012636896169
12.214722992201544 5.487848257535633 3.160769741545245 3.5661049931206605
9.04268192442974 4.297337544963733 2.1286686077876547 2.6166757716783478
1.0615477849811255 0.13953042078966893 0.35616550393135166 0.5658518602601055
0.14663863051461218 0.14663906697227055 -1.80369121587346e-08 -4.1842074621861334e-07
0.2721118496710883 0.2718955230231994 6.494990861322603e-05 0.00015137673927567371
0.4785538973491467 0.46156971784224227 0.0035135447462252417 0.013470634760679206
0.9900353883137817 0.6975447498105326 0.09752968364065043 0.19496095486259904
2.0367894690364925 0.9253581247305162 0.4075334047334762 0.7038979395725002
3.8336915592863137 1.1900798094469804 1.1017907415642034 1.541821008275128
6.441672438246923 1.463291694137793 2.247571285489412 2.730809458619719
9.947050109141525 1.755289618776664 3.9330253065655887 4.258735183799274
14.392990805015362 2.081283001709409 6.195024868203058 6.1166829351028955
19.848576313977244 2.4579064393838372 9.07161753628027 8.319052338313139
26.593416678987776 2.908548612815316 12.784711216076024 10.90015685009644
34.577688622936265 3.427655222225072 17.228052966144038 13.921980434567146
44.120146358688764 3.973919056285659 22.755311518536015 17.390915783867072
54.958959149199 4.479185069858711 29.227387142844634 21.25238693649566
66.58436591934026 4.841749810412785 36.39693448546485 25.34568162346265
78.07657794095728 4.95429518067872 43.76502724653398 29.35725551374458
88.14189921106814 4.743408488499361 50.506242196990236 32.89224852557855
95.28478143644314 4.3229775479412895 55.52041006092024 35.44139382758162
97.84783113521576 3.667750718420247 57.65247054368877 36.52760987310677
95.28478143642373 4.322977547934522 55.52041006091199 35.44139382757719
88.14189921105086 4.743408488506007 50.50624219697447 32.89224852557038
78.07657794092098 4.954295180675168 43.76502724651283 29.357255513732998
66.58436591930432 4.841749810416482 36.3969344854394 25.34568162344843
54.95895914915746 4.479185069854633 29.22738714282094 21.252386936481862
44.120146358647645 3.9739190562842346 22.755311518511395 17.390915783852012
34.57768862289356 3.4276552222184677 17.22805296612212 13.92198043455297
26.5934166789504 2.9085486128142533 12.784711216054514 10.900156850081634
19.848576313942345 2.4579064393806345 9.071617536262018 8.319052338299706
14.392990804986331 2.081283001707592 6.195024868187997 6.116682935090742
9.94705010911992 1.755289618775643 3.9330253065546894 4.258735183789585
6.4416724382303645 1.4632916941359757 2.2475712854820347 2.730809458612356
3.8336915592748912 1.1900798094449108 1.101790741559847 1.5418210082701338
2.0367894690298662 0.9253581247291184 0.40753340473143895 0.7038979395693084
0.9900353883109448 0.6975447498096431 0.09752968363992506 0.19496095486137713
0.47855389734825354 0.4615697178414997 0.0035135447461671515 0.013470634760586417
0.2721118496708867 0.27189552302300374 6.494990861122066e-05 0.00015137673927181179
0.1466386305144589 0.14663906697211693 -1.8036912141597065e-08 -4.184207459031903e-07
1.0615477849772372 0.1395304207895124 0.356165503929721 0.565851860258003
9.042681924408413 4.297337544954733 2.1286686077814783 2.616675771672205
6.743586385020049 3.3351938824793477 1.4635506471037896 1.9448418554369142
0.6915265268704499 0.07809702117689148 0.22050028536507302 0.3929292203284853
0.10363243415362144 0.10363243415362144 0.0 0.0
0.20547109048388412 0.20545554298445684 3.7149797163349665e-06 1.1832519710925948e-05
0.3737847050339982 0.37889928324428185 -0.00149944658637245 -0.0036151316239111803
0.7419399334530703 0.5981359802057062 0.04115652815382777 0.10264742509353625
1.6026162753489128 0.8473274053627657 0.2695019288854745 0.48578694110067255
3.1097805399329106 1.0893349854493726 0.8111501829050118 1.2092953715785257
5.368822373807488 1.3451212411393032 1.7685142072747313 2.2551869253934513
8.40252104536769 1.6085979153730419 3.1897430436680643 3.6041800863265836
12.214825243838428 1.8919043630082213 5.083886313685895 5.239034567144313
16.925085576929565 2.2194075784786786 7.54209688220304 7.16358111624785
22.584465635288836 2.604948401130069 10.564117234759085 9.415399999399678
29.55951287598712 3.0533951130486585 14.464329639857901 12.041788123080579
37.72153287248253 3.5415982871505953 19.09701669109679 15.082917894235132
47.043468652736024 4.009353531261592 24.54005720590651 18.494057915567925
57.24916963281016 4.377682698351601 30.74227495021287 22.12921198424569
67.43462167185828 4.5410565596959405 37.144427487102185 25.749137625060147
76.44888404827391 4.417927127191402 43.04505937736404 28.985897543718476
82.95201076357603 4.080965773222793 47.50014610480945 31.370898885543802
85.29151682535392 3.2986274860323084 49.56226219932833 32.430627139993256
82.95201076357002 4.080965773226184 47.500146104803235 31.37089888554057
76.44888404825136 4.417927127190767 43.0450593773498 28.98589754371081
67.43462167183539 4.541056559701329 37.14442748708391 25.749137625050164
57.24916963277641 4.377682698351459 30.74227495019158 22.129211984233375
47.043468652702785 4.009353531260493 24.54005720588647 18.49405791555585
37.721532872445714 3.541598287148244 19.0970166910757 15.082917894221756
29.559512875953313 3.053395113044044 14.464329639840445 12.04178812306883
22.584465635255295 2.6049484011270505 10.564117234741287 9.41539999938696
16.925085576900592 2.2194075784768716 7.5420968821877405 7.163581116235975
12.21482524381266 1.8919043630048893 5.08388631367371 5.23903456713406
8.402521045347777 1.6085979153716643 3.189743043658397 3.604180086317713
5.368822373793178 1.345121241137987 1.7685142072683688 2.255186925386821
3.1097805399235807 1.0893349854478946 0.8111501829016392 1.2092953715740469
1.602616275343533 0.8473274053617312 0.26950192888365115 0.48578694109814957
0.7419399334508079 0.5981359802047294 0.041156528153381014 0.1026474250926977
0.3737847050333817 0.378899283243531 -0.0014994465863517024 -0.0036151316237974878
0.20547109048375123 0.20545554298434549 3.7149797144992818e-06 1.1832519691228685e-05
0.10363243415362926 0.10363243415362926 0.0 0.0
0.6915265268674562 0.07809702117692473 0.22050028536376332 0.3929292203267681
6.743586385002738 3.3351938824719456 1.4635506470991444 1.9448418554316476
4.948186518921187 2.5662129532549303 0.965867713839811 1.4161058518264453
0.507023026659287 0.10675419721443752 0.1500613115553893 0.25020751788946033
0.094160247756483 0.094160247756483 0.0 0.0
0.16304246480658988 0.16303503598807162 4.1024249203392503e-07 7.018576026238409e-06
0.2952980180439696 0.2982396525220958 -0.000680672400194478 -0.0022609620779317006
0.5538714801156523 0.5152336072501476 0.008715624818858654 0.029922248046645835
1.2092715711654156 0.7482556966372107 0.16272303066316038 0.2982928438650454
2.42683460052578 0.9837298968852002 0.5528580798200468 0.8902466238205337
4.332107097881417 1.2207989157180303 1.3229977151805485 1.7883104669828382
6.897386655209262 1.4584997722293742 2.4815992905930973 2.9572875923867925
10.126070601661656 1.7070947841356854 4.049527542209183 4.369448275316787
14.065494193554128 1.9857615303729066 6.059239951766031 6.020492711415196
18.859518957243754 2.3154168441205547 8.602875438873085 7.941226674250115
24.548565619494166 2.6991076167306325 11.661925363761046 10.18753263900248
31.45680152204224 3.1197768789524045 15.547026678773191 12.789997964316658
39.44595159266709 3.5508694710892454 20.161814435698957 15.733267685878875
48.13500602329964 3.9269379616241715 25.288495538804035 18.919572522871423
57.02315043923667 4.147390687226123 30.746565615326134 22.129194136684422
65.07185013548151 4.119860990411093 35.89980265706732 25.05218648800309
71.07510943335171 3.8534913716368395 39.93773614377584 27.283881917939027
73.26797910478152 2.9280275706884806 41.956731045089064 28.383220489004
71.07510943334371 3.853491371639255 39.9377361437691 27.283881917935343
65.07185013546587 4.119860990412894 35.89980265705611 25.05218648799684
57.02315043920943 4.147390687223543 30.746565615310477 22.129194136675416
48.135006023275416 3.926937961628796 25.288495538785973 18.919572522860616
39.44595159263983 3.5508694710901394 20.16181443568166 15.733267685868052
31.45680152201282 3.119776878951372 15.547026678756101 12.78999796430536
24.54856561946572 2.6991076167276944 11.661925363746054 10.18753263899196
18.85951895721547 2.315416844116962 8.602875438859009 7.941226674239491
14.06549419352935 1.98576153037081 6.059239951753502 6.020492711405039
10.126070601641658 1.707094784135043 4.0495275421988985 4.369448275307718
6.897386655192864 1.4584997722282318 2.48159929058534 2.957287592379296
4.332107097869069 1.2207989157161943 1.3229977151756356 1.7883104669772394
2.4268346005178527 0.9837298968842261 0.55285807981705 0.8902466238165762
1.2092715711611213 0.7482556966360329 0.16272303066191462 0.2982928438631739
0.5538714801140832 0.5152336072491135 0.008715624818694319 0.02992224804627503
0.2952980180435826 0.2982396525216349 -0.0006806724001785136 -0.0022609620778739205
0.1630424648064297 0.16303503598791563 4.1024249179030226e-07 7.018576022264267e-06
0.09416024775632621 0.09416024775632621 0.0 0.0
0.5070230266568376 0.10675419721443626 0.15006131155430957 0.2502075178880923
4.948186518907569 2.566212953249041 0.9658677138363485 1.4161058518221796
3.558965060824023 1.9617549410532504 0.6156659418709735 0.9815441778998008
0.3590678822331441 0.1429713577828133 0.0681907671791389 0.1479057572711915
0.10544569835440926 0.10544569835440926 0.0 0.0
0.1416417635011395 0.1416420829638198 -1.2239768657509634e-08 -3.072229116306911e-07
0.24134233566862762 0.2420820804650079 -0.00011012209290342648 -0.0006296227034768048
0.41489355876483314 0.4159828925393777 -0.0023626573895469557 0.0012733236150024676
0.8538871879503052 0.6267388286178043 0.06445666423553258 0.16269169509696826
1.8308146578722924 0.8739969333598798 0.3673830218764831 0.5894347026359291
3.3217773203297702 1.0853745826595684 0.9030219113295768 1.333380826340625
5.455829060672727 1.3048375242129855 1.8308683014177152 2.320123235042024
8.103841618166555 1.5213565968853893 3.072889504791227 3.509595516489935
11.30635933030421 1.758109671366709 4.65728267595539 4.890966982982115
15.159508870691246 2.03423208666875 6.638928309130317 6.486348474892174
19.84354798909863 2.356096958845571 9.139210807257209 8.348240222995845
25.414788910266886 2.7239590921303396 12.17167163333004 10.519158184806505
31.904735882962363 3.1046651838540202 15.805233806761034 12.994836892347305
39.30352044728649 3.472129058650595 20.1342267325628 15.697164656073085
46.88273755026884 3.7599373998045853 24.62810362400406 18.494696526460196
53.936377512926654 3.8375118325620976 28.974065900251052 21.124799780113506
59.53420599400692 3.641679984541185 32.665455734322 23.227070275143756
61.65005210801087 2.5630142519160093 34.70698826672014 24.380049589374735
59.5342059939919 3.6416799845318346 32.6654557343184 23.227070275141635
53.936377512910255 3.8375118325602777 28.974065900241847 21.124799780108148
46.88273755025122 3.759937399805885 24.628103623992203 18.494696526453126
39.30352044726274 3.4721290586513285 20.13422673254773 15.697164656063702
31.904735882938027 3.1046651838530197 15.805233806746973 12.994836892338046
25.414788910241526 2.7239590921274073 12.171671633316798 10.519158184797327
19.84354798907458 2.35609695884201 9.139210807245462 8.348240222987107
15.159508870668931 2.0342320866656585 6.638928309119571 6.486348474883706
11.306359330284467 1.7581096713654063 4.657282675945436 4.890966982973623
8.10384161814846 1.5213565968836704 3.0728895047827187 3.5095955164820722
5.455829060659414 1.3048375242119912 1.8308683014117055 2.320123235035714
3.321777320319918 1.085374582657573 0.9030219113260533 1.3333808263362918
1.8308146578659799 0.873996933359205 0.3673830218740485 0.5894347026327256
0.8538871879473857 0.6267388286167992 0.06445666423485456 0.16269169509573184
0.41489355876398176 0.41598289253853776 -0.0023626573895508 0.001273323614994846
0.2413423356682587 0.2420820804646348 -0.00011012209290267234 -0.0006296227034735214
0.1416417635007736 0.14164208296345318 -1.2239768622387086e-08 -3.0722291093115194e-07
0.10544569835405793 0.10544569835405793 0.0 0.0
0.35906788223142244 0.1429713577828412 0.06819076717841223 0.1479057572701693
3.5589650608133327 1.9617549410485324 0.6156659418684406 0.9815441778963592
2.4630868915315296 1.476793581367488 0.34927677866460705 0.6370165314994343
0.2758354164811206 0.18337382803527075 0.025335312121355973 0.06712627632449393
0.1262097627855098 0.1262097627855098 0.0 0.0
0.13663200295194539 0.13663200295194539 0.0 0.0
0.2052176391454124 0.20508315732267224 1.300778600397963e-05 0.00012147403673620275
0.32176744385468126 0.33412202188113066 -0.0031607799513710304 -0.009193798075078344
0.5977205862045173 0.523147214000317 0.01629598973720665 0.05827738246699336
1.2438449818367412 0.725495819646607 0.16858610082466283 0.34976306136547136
2.454176887247285 0.9545079256371654 0.6042240303194026 0.8954449312907165
4.052468761909265 1.1393268389343194 1.2189621798834425 1.694179743091502
6.1680338676035475 1.332354261623756 2.173321639345342 2.662357966634448
8.678142221746155 1.5329222729316765 3.3695594667440356 3.775660482070444
11.66180869277043 1.7612113452914104 4.849168779547658 5.051428567931362
15.260896936110226 2.027427058521826 6.698836201708563 6.534633675879839
19.591719015770437 2.334067185619225 8.98496080453589 8.272691025615321
24.817402850569586 2.6770350594149117 11.865849350831084 10.274518440323586
30.547457014701596 3.0230974053883295 15.01871465600347 12.505644953309801
36.89973785738788 3.3522709678749196 18.706731660660033 14.840735228852939
43.15647208388232 3.5515022943679138 22.453604110258105 17.151365679256294
48.336311226553555 3.4492209328151358 25.732202890132708 19.154887403605702
50.457653138908974 2.212888119730258 27.844565383615546 20.400199635563187
48.33631122655762 3.4492209328230703 25.732202890130264 19.154887403604285
43.15647208387135 3.551502294367779 22.453604110251376 17.151365679252184
36.899737857370454 3.3522709678722102 18.706731660651023 14.840735228847223
30.54745701468311 3.023097405388602 15.018714655992161 12.50564495330235
24.817402850551805 2.6770350594159344 11.86584935081999 10.27451844031587
19.591719015751725 2.334067185617427 8.984960804526201 8.27269102560809
15.260896936093785 2.0274270585210052 6.698836201699832 6.534633675872946
11.66180869275608 1.7612113452934006 4.849168779538771 5.051428567923908
8.678142221729674 1.5329222729295597 3.3695594667364777 3.7756604820636395
6.168033867589675 1.3323542616218516 2.173321639339378 2.662357966628444
4.0524687618982895 1.1393268389329367 1.2189621798788879 1.694179743086466
2.454176887240007 0.9545079256360123 0.6042240303165954 0.8954449312874004
1.2438449818321609 0.7254958196453842 0.16858610082332734 0.34976306136344926
0.5977205862023895 0.523147213999234 0.01629598973686186 0.05827738246629344
0.3217674438540261 0.3341220218801643 -0.003160779951296108 -0.009193798074842085
0.20521763914496785 0.20508315732225363 1.3007785999386622e-05 0.00012147403671481543
0.13663200295160888 0.13663200295160888 0.0 0.0
0.12620976278525814 0.12620976278525814 0.0 0.0
0.275835416479651 0.18337382803498242 0.02533531212089821 0.06712627632377013
2.4630868915241506 1.476793581364414 0.34927677866291934 0.6370165314968185
1.6897654187011322 1.1413637098798972 0.19982855430666013 0.34857315451457527
0.2114725593803618 0.19816314732209356 -0.003487839834791297 0.01679725189305952
0.14894460732869136 0.1489497927745443 -2.1719582759986377e-07 -4.968250025342334e-06
0.1427835983741043 0.14276891071439732 1.0481594009914824e-06 1.3639500306005479e-05
0.1836334167704084 0.18382581738287845 -2.061534156250399e-05 -0.0001717852709075063
0.26329715585585445 0.2691345021564596 -0.0013731405892095907 -0.004464205711395643
0.41567252339980104 0.4147900167701863 -0.003131906101700217 0.004014412731315109
0.7990286526524306 0.5820702679451412 0.05697541933042013 0.1599829653768695
1.5756653223298827 0.7766256445632598 0.2794248404258916 0.5196148373407313
2.814027187215234 0.9692743487703329 0.7543182233921173 1.0904346150527826
4.326177001835223 1.1311832386176428 1.3658561830018043 1.8291375802157774
6.1666042476268945 1.2996739197515597 2.1871416745841263 2.6797886532912076
8.348632761887547 1.4880928442341823 3.2195188571354207 3.641021060517942
10.948155831612832 1.7021745484524335 4.492664580654857 4.753316702505544
14.129324053356036 1.9569843178437505 6.112731055410583 6.059608680101706
17.916966190298652 2.250531936559507 8.077007091164582 7.589427162574566
22.397611327275893 2.571962963347285 10.508624857312046 9.317023506616565
27.294759148829026 2.9213980416939465 13.16895671862729 11.20440438850779
32.429665857310596 3.2300301012593367 16.038553353552903 13.161082402498366
37.300397870411864 3.2658926988100103 18.997387555135862 15.03711761646598
39.52980757642752 1.8811057639704525 21.236904499644503 16.41179731281256
37.30039787040468 3.26589269880644 18.99738755513358 15.037117616464647
32.42966585730392 3.2300301012611006 16.038553353547787 13.161082402495047
27.29475914881901 2.921398041694391 13.168956718621072 11.204404388503557
22.397611327261508 2.5719629633468433 10.508624857303923 9.317023506610749
17.916966190282224 2.2505319365570453 8.077007091156588 7.589427162568589
14.129324053343822 1.9569843178445907 6.112731055403324 6.05960868009591
10.948155831600246 1.7021745484510549 4.49266458064878 4.753316702500406
8.348632761874262 1.4880928442332901 3.2195188571289206 3.6410210605120517
6.1666042476166565 1.2996739197518754 2.1871416745788705 2.67978865328591
4.326177001824734 1.131183238615729 1.365856182997728 1.8291375802112755
2.8140271872078655 0.9692743487702029 0.7543182233887761 1.0904346150488862
1.5756653223247619 0.7766256445623267 0.2794248404241514 0.5196148373382835
0.7990286526497064 0.5820702679439648 0.05697541932988511 0.15998296537585593
0.41567252339861327 0.41479001676925337 -0.0031319061017567153 0.004014412731116515
0.2632971558553726 0.269134502155804 -0.0013731405891868095 -0.004464205711244747
0.18363341677000483 0.18382581738248857 -2.061534156203008e-05 -0.0001717852709216716
0.14278359837379084 0.14276891071408734 1.0481594006314481e-06 1.3639500302894402e-05
0.14894460732845285 0.14894979277429496 -2.171958270000216e-07 -4.968250015090288e-06
0.21147255937939374 0.19816314732172102 -0.0034878398349739185 0.016797251892646595
1.6897654186959228 1.141363709877522 0.19982855430549548 0.3485731545129055
1.086903970350523 0.8487777732922668 0.07121093683422039 0.16691526022403605
0.1815356740643573 0.19859715299948422 -0.007105494571310883 -0.009955984363816036
0.16919702007380902 0.16928308913041065 -7.296353753386552e-06 -7.877270284823133e-05
0.15541153174254158 0.15543983349771928 -1.911838206656354e-06 -2.6389916971011686e-05
0.1747607158079466 0.17494594655189843 -2.4312711673442583e-05 -0.0001609180322783323
0.22569702370810754 0.22778437327719395 -0.0005942813283270779 -0.0014930682407593703
0.3111914643740552 0.32319280347131124 -0.004011398156104901 -0.007989940941151233
0.493340441576924 0.4536063875582299 0.007206837217568083 0.03252721680112611
0.8969124178082872 0.5931214996793073 0.0882273303065855 0.21556358782239451
1.6209395843804717 0.7496767240965941 0.314766566021233 0.5564962942626454
2.5991565345682623 0.8921581362420098 0.6658476637875942 1.0411507345386593
3.815184268184904 1.0369414460829307 1.1621311293836267 1.6161116927183459
5.242431591956353 1.1905121548960995 1.7814071581105115 2.270512278949742
6.931018947017083 1.3593398909987642 2.5475681921329176 3.024110863885402
8.995943620953245 1.56123234584596 3.5247425658797535 3.9099687092275333
11.539613248124338 1.8068727665432585 4.7695594985985785 4.963180982982502
14.609187525685252 2.1035662393805943 6.306543855205286 6.199077431099362
18.114713796312966 2.424330248911411 8.093458986235403 7.596924561166158
22.155764416838586 2.8111435181506272 10.192913514723921 9.151707383964032
26.647971095012146 3.0788519230132616 12.704689215369681 10.864429956629198
29.024008879728232 1.5973313975596302 14.954619883100936 12.472057599067668
26.647971095016977 3.0788519230179907 12.704689215369758 10.864429956629232
22.15576441682486 2.81114351814 10.192913514722097 9.151707383962766
18.114713796307647 2.424330248914491 8.093458986230573 7.596924561162579
14.60918752567365 2.1035662393783756 6.306543855200047 6.199077431095228
11.539613248113673 1.8068727665405533 4.769559498594225 4.963180982978894
8.995943620944052 1.5612323458454016 3.524742565875162 3.9099687092234854
6.93101894700996 1.3593398909983017 2.5475681921294893 3.024110863882169
5.242431591948303 1.1905121548937352 1.7814071581077642 2.2705122789468053
3.8151842681760053 1.0369414460811055 1.1621311293802126 1.6161116927146884
2.5991565345621335 0.8921581362415646 0.665847663785103 1.041150734535466
1.6209395843750616 0.7496767240948439 0.3147665660196518 0.556496294260566
0.896912417805422 0.5931214996784125 0.0882273303058631 0.21556358782114626
0.4933404415756392 0.4536063875575213 0.007206837217403953 0.03252721680071415
0.3111914643732495 0.32319280347031915 -0.0040113981560819 -0.007989940940987822
0.2256970237077258 0.22778437327647688 -0.0005942813282798775 -0.0014930682404711174
0.17476071580761304 0.17494594655162157 -2.431271168171558e-05 -0.00016091803232679922
0.15541153174220795 0.1554398334973816 -1.91183820609508e-06 -2.638991696751545e-05
0.1691970200735414 0.16928308913012013 -7.2963537516321735e-06 -7.877270282710897e-05
0.1815356740639792 0.19859715299907055 -0.0071054945713027355 -0.009955984363788688
1.0869039703471675 0.8487777732906425 0.07121093683358394 0.16691526022294104
0.7034731581514323 0.6499776239896785 0.01380170584615181 0.039693828315602024
0.17020792575691437 0.18000652233107928 -0.002359987140894735 -0.007438609433270151
0.18446092265951664 0.18447831669518225 -9.224449329999089e-07 -1.6471590732581265e-05
0.1707346960065334 0.17074877945766642 -6.269657850398564e-07 -1.3456485347957748e-05
0.17633775572488708 0.1762996381837001 6.873791338741312e-06 3.1243749848258436e-05
0.2062425548035532 0.20967545325952303 -0.0007116711586933778 -0.0027212272972764054
0.2573228467205846 0.2620439978630561 -0.001744180611586249 -0.0029769705308853004
0.32864079210021535 0.31421261496094854 0.002439055429693535 0.01198912170957324
0.45381712794281365 0.38700385667341924 0.015581029900113452 0.05123224136928076
0.7090926431036678 0.4817766566805786 0.06653882712290249 0.16077715930018704
1.1624598918310134 0.6002469625668393 0.20101293603327225 0.36119999323090135
1.7350482681989492 0.6928451186710299 0.3839928664089263 0.658210283118993
2.4581974505437136 0.7903639869586606 0.6540359263200844 1.013797537264969
3.346557488989232 0.9070848601154727 1.008143197486333 1.4313294313874267
4.433564406911508 1.0496387636876379 1.4587550887655842 1.925170554458285
5.820771131889644 1.2377427272745019 2.0497893772502858 2.533239027364855
7.628708862027305 1.4916411551151958 2.8448403674822265 3.292227339429882
9.932582956416166 1.7997788707599183 3.9120527376957277 4.220751347960525
12.654891557025191 2.1184569567543488 5.21861710047897 5.317817499791875
16.331867767449538 2.6894275690736635 6.9334714824495345 6.708968715926342
19.47511519314012 1.4096083341732397 9.461697495383794 8.603809363583085
16.331867767452806 2.6894275690765275 6.93347148244977 6.708968715926506
12.654891557027025 2.1184569567549776 5.218617100479624 5.31781749979242
9.932582956411231 1.7997788707616125 3.9120527376921537 4.220751347957468
7.628708862022738 1.4916411551168098 2.844840367478976 3.2922273394269492
5.8207711318861195 1.237742727275051 2.0497893772482616 2.533239027362809
4.433564406907804 1.0496387636878968 1.4587550887637089 1.925170554456198
3.3465574889850394 0.9070848601140304 1.0081431974849882 1.4313294313860192
2.458197450541456 0.7903639869594851 0.6540359263187292 1.01379753726324
1.7350482681951924 0.6928451186697726 0.38399286640783536 0.6582102831175846
1.1624598918276765 0.600246962566594 0.20101293603203013 0.3611999932290527
0.709092643102263 0.4817766566796807 0.06653882712271307 0.16077715929986927
0.45381712794214446 0.3870038566731378 0.01558102989999864 0.05123224136900799
0.3286407920997202 0.31421261496075403 0.0024390554295983706 0.011989121709367855
0.25732284671984884 0.262043997862321 -0.001744180611587689 -0.0029769705308845163
0.20624255480301576 0.20967545325895642 -0.0007116711586824115 -0.0027212272972583105
0.1763377557243604 0.17629963818314992 6.873791340812603e-06 3.12437498696328e-05
0.17073469600620306 0.17074877945731942 -6.269657839693201e-07 -1.3456485332418166e-05
0.18446092265912836 0.18447831669478187 -9.224449321673981e-07 -1.6471590721401528e-05
0.17020792575665264 0.1800065223306932 -0.0023599871408585666 -0.007438609433181992
0.7034731581497025 0.6499776239885379 0.013801705845963947 0.03969382831520053
0.45977707496967424 0.45657792167274525 0.0002509442300316855 0.0029482090668972926
0.16628628893422998 0.16671907408999778 -3.310778687687429e-05 -0.0003996773688909684
0.19426588816382845 0.19439986894494962 -1.105474144848618e-05 -0.00012292603967267707
0.18590969285612216 0.18595429772738117 -3.0090264717618683e-06 -4.159584478721377e-05
0.18557376066571998 0.18570980429717845 -1.9951904845496086e-05 -0.00011609172661299414
0.20456352482787185 0.20731069973953228 -0.0006110978218389139 -0.002136077089821527
0.24087415138583296 0.24468990863398032 -0.0013965510638343415 -0.002419206184313043
0.28256192546679704 0.26143550561878254 0.0037486364444691343 0.017377783403545365
0.3185110213378013 0.25384621410996483 0.018455178137480578 0.04620962909035611
0.35717840837235526 0.2208049195740024 0.04012977993775224 0.0962437088606006
0.4432871285496801 0.2035010988498763 0.08492752500941539 0.15485850469038862
0.5809289291965192 0.20846860621710747 0.13378329906154404 0.2386770239178674
0.7914306861472855 0.2416172501364155 0.21061788392584124 0.33919555208502916
1.0718201645588934 0.28600316043211493 0.3140479485724048 0.4717690555543736
1.46070868123466 0.29040975203882646 0.4783588538591222 0.6919400753367105
1.9589685230872567 0.2989027489827966 0.6930971966424515 0.9669685774620084
2.613895247214178 0.3257141665397888 0.9910419142149413 1.297139166459448
3.4651790446056987 0.38159089796800827 1.3884013409271003 1.69518680571059
4.831616364772124 0.5677655291516879 1.9812945637851311 2.2825562718353045
7.793114938653766 1.476176154201176 2.945854974274686 3.371083810177906
12.87994159997929 1.2717462891922744 5.744557065713267 5.863638245073751
7.793114938650811 1.476176154196282 2.945854974275732 3.3710838101788014
4.83161636477211 0.5677655291518754 1.9812945637849857 2.282556271835249
3.465179044597144 0.38159089796334006 1.3884013409251317 1.695186805708672
2.6138952472088803 0.325714166538376 0.9910419142131004 1.2971391664574017
1.958968523084375 0.2989027489822229 0.6930971966414043 0.9669685774607467
1.4607086812307708 0.2904097520372084 0.47835885385816057 0.691940075335402
1.0718201645593985 0.2860031604332541 0.3140479485721074 0.47176905555403764
0.7914306861445146 0.24161725013567376 0.21061788392492017 0.3391955520839205
0.58092892919549 0.2084686062174198 0.1337832990610297 0.23867702391704138
0.4432871285478662 0.20350109884948647 0.08492752500880263 0.15485850468957668
0.35717840837211146 0.22080491957400827 0.040129779937676524 0.09624370886042687
0.31851102133750153 0.25384621410992747 0.018455178137390733 0.04620962909018331
0.2825619254663091 0.2614355056186306 0.003748636444361853 0.017377783403316718
0.24087415138534762 0.24468990863347406 -0.001396551063830956 -0.00241920618429545
0.20456352482746093 0.20731069973892413 -0.0006110978218052928 -0.002136077089657958
0.18557376066537412 0.18570980429685272 -1.9951904849808632e-05 -0.00011609172662876742
0.1859096928557517 0.18595429772699085 -3.009026470089872e-06 -4.1595844769073125e-05
0.19426588816341483 0.1943998689445243 -1.105474144691902e-05 -0.00012292603966245578
0.16628628893389458 0.16671907408966113 -3.310778687600598e-05 -0.00039967736889058835
0.45977707496873066 0.456577921671681 0.000250944230032627 0.002948209067016897
0.30641980547850584 0.306463234186901 -2.4699665670363174e-06 -4.095874182818501e-05
0.15797727097976222 0.1579813384729108 -3.861226354782416e-07 -3.6813705130687944e-06
0.19813569486246663 0.19809473031517222 3.629066649855069e-06 3.733548064456226e-05
0.19885423919376924 0.19892938642645577 -6.334213441018723e-06 -6.881301924561872e-05
0.20017119548613116 0.20051191401032564 -4.920102617394251e-05 -0.00029151749802050963
0.21981146436263235 0.22142000362899808 -0.0005190272679537577 -0.0010895119984119502
0.2644607314498125 0.27030900503629124 -0.0017313158864359 -0.004116957700042786
0.3309384311173395 0.3155482704544168 0.0028526286864283294 0.012537531976494288
0.454111459690772 0.3867084107066905 0.015792910032479388 0.05161013895160183
0.7080061749300416 0.4812229083421186 0.06631262857192916 0.1604706380159941
1.1615607812528057 0.603064674953284 0.19987731793592137 0.35861878836360006
1.740182943996907 0.6934193329994411 0.38718739757784115 0.6595762134196248
2.4715745849243564 0.7927564592413816 0.6587984499807723 1.0200196757022018
3.3707543892567466 0.9109154940879969 1.018204964059703 1.4416339311090471
4.426609546219819 1.0440297111427936 1.4587990512468563 1.923780783830167
5.617650433768819 1.1921574571968585 1.9749969291473994 2.4504960474245596
6.797691443138017 1.3463853360096607 2.496742548383451 2.9545635587449053
7.778935235935986 1.5018766652912787 2.9608103313959715 3.316248239248738
8.125939272694609 1.5917864791745713 3.1271085857969 3.407044207723134
6.50200838740302 0.8346416737709765 2.7769360272624315 2.890430686369611
13.03425305689152 2.2854661711354036 5.206473433001286 5.542313452754835
6.502008387408232 0.8346416737727971 2.7769360272642993 2.890430686371131
8.125939272691392 1.5917864791730856 3.127108585795982 3.4070442077223264
7.778935235933899 1.5018766652932016 2.9608103313938656 3.3162482392468333
6.797691443128281 1.3463853360078764 2.496742548379351 2.954563558741056
5.6176504337625515 1.1921574571963425 1.9749969291445455 2.450496047421661
4.426609546217306 1.0440297111444967 1.4587990512449232 1.9237807838278862
3.370754389250474 0.9109154940859956 1.0182049640576587 1.4416339311068194
2.4715745849173145 0.7927564592403773 0.6587984499780438 1.0200196756988946
1.740182943991257 0.6934193329986682 0.3871873975757558 0.6595762134168323
1.161560781247764 0.6030646749524647 0.19987731793418245 0.3586187883611168
0.7080061749275222 0.48122290834097364 0.06631262857144735 0.16047063801510125
0.4541114596901803 0.3867084107062224 0.015792910032444263 0.05161013895151355
0.33093843111662485 0.3155482704539971 0.002852628686330642 0.01253753197629706
0.264460731449267 0.2703090050356771 -0.0017313158864217448 -0.004116957699988445
0.21981146436205956 0.22142000362835212 -0.0005190272679451342 -0.001089511998347458
0.20017119548573747 0.2005119140099212 -4.920102617214602e-05 -0.0002915174980115111
0.1988542391934024 0.19892938642610547 -6.334213442775941e-06 -6.881301926028135e-05
0.19813569486210014 0.19809473031479136 3.6290666505998523e-06 3.7335480658225726e-05
0.15797727097946615 0.15798133847260684 -3.861226352988379e-07 -3.681370505393053e-06
0.3064198054779228 0.3064632341862913 -2.4699665649585164e-06 -4.095874180351584e-05
0.19777531722111202 0.19777531722111202 0.0 0.0
0.14425270042234561 0.1442441929712115 4.6505239045753023e-07 8.042398743661904e-06
0.1952215196024318 0.19524912615091025 -1.6992276973434657e-06 -2.5907320781160523e-05
0.20834354714293135 0.20822586995250503 1.3671689846786928e-05 0.00010400550057954624
0.21832782332192072 0.2184354614071588 -4.036715759901874e-06 -0.00010360136947820054
0.2514772724514201 0.25867215427650025 -0.0014340857673715368 -0.005760796057708648
0.3222696191224139 0.3254812456347257 -0.0023867749162384865 -0.0008248515960732738
0.49742810017428585 0.45426793032916135 0.008360855231298788 0.03479931461382563
0.896475538948237 0.5928894623006856 0.08813419075346951 0.21545188589408165
1.6189185890898425 0.7494655066609491 0.31390718419913577 0.5555458982297565
2.598472578985372 0.892033798004683 0.6655172086172821 1.0409215723634067
3.8187458097854234 1.0374217506010448 1.1635814419226334 1.6177426172617435
5.25430569000827 1.1918208607083502 1.786719409308528 2.275765419991392
6.951774245108649 1.3606725664204917 2.5578181135036657 3.0332835651844903
8.987795797872321 1.5520770273693998 3.5261436973808014 3.9095750731221175
11.340341539466547 1.7575739935307766 4.689439404684782 4.893328141250985
13.82024734021073 1.9697106198680017 5.941719869729415 5.908816850613316
16.03800339863004 2.1982057661407786 7.033959326180041 6.805838306309225
17.214697182178117 2.269315307452766 7.672084788118925 7.273297086606425
15.913994230761334 2.2621306581425324 7.025151628329175 6.626711944289626
19.215225293328835 5.038414942617259 7.206173605454765 6.9706367452568045
15.913994230768965 2.2621306581458507 7.025151628331679 6.626711944291438
17.21469718218596 2.2693153074599124 7.672084788119334 7.273297086606718
16.038003398620543 2.1982057661379657 7.033959326176213 6.805838306306359
13.820247340198396 1.9697106198687582 5.941719869722108 5.908816850607532
11.340341539454416 1.7575739935295542 4.689439404678854 4.893328141246004
8.987795797860809 1.5520770273660829 3.5261436973764657 3.909575073118263
6.9517742450992674 1.36067256641919 2.557818113499569 3.03328356518051
5.254305689998524 1.1918208607084932 1.786719409303626 2.2757654199864037
3.818745809775187 1.0374217506000876 1.1635814419182116 1.6177426172568885
2.598472578976625 0.8920337980038743 0.6655172086137502 1.0409215723589997
1.61891858908363 0.7494655066596068 0.3139071841970579 0.555545898226966
0.8964755389445033 0.5928894622992477 0.08813419075261796 0.2154518858926374
0.4974281001727576 0.4542679303284881 0.008360855231054357 0.034799314613215164
0.322269619121609 0.3254812456336237 -0.00238677491618522 -0.0008248515958295234
0.2514772724508744 0.25867215427583395 -0.0014340857673378967 -0.005760796057621546
0.2183278233215623 0.21843546140679931 -4.036715761760949e-06 -0.00010360136947525463
0.20834354714254727 0.20822586995196188 1.3671689860569597e-05 0.00010400550072479789
0.19522151960205253 0.19524912615055287 -1.6992276998158665e-06 -2.590732080051181e-05
0.14425270042210273 0.14424419297097668 4.6505239000204435e-07 8.042398736028437e-06
0.19777531722071368 0.19777531722071368 0.0 0.0
0.12176935486834889 0.12176935486834889 0.0 0.0
0.12532773390237162 0.12532939482384042 -9.533615641300818e-08 -1.565585312364224e-06
0.18578073725203476 0.1857502760372342 2.1056555596612594e-06 2.83555592408956e-05
0.2138504796067973 0.21398716095921214 -1.3813154811556876e-05 -0.0001228681976033242
0.23965485740529965 0.2412175390468882 -0.00026614266855399084 -0.0012965389730345983
0.2938515943419133 0.2947179831373514 -0.0008395889246645098 -2.6799870773546434e-05
0.43296434644893633 0.4275313632045139 -0.0010002773885347386 0.006433260632957159
0.8034867710755043 0.5832915975326973 0.05858769192015299 0.1616074816226542
1.5739465681516136 0.776548760782845 0.27871381564302034 0.518683991725748
2.81244745291883 0.9693711539162781 0.7538115080115075 1.0892647909910453
4.32552359341949 1.1309256222510298 1.3644707953948234 1.8301271757736384
6.16935726051256 1.2996911623680063 2.1885691647803824 2.681096933364172
8.354774039189916 1.488522201988066 3.2225464533689223 3.6437053838329296
10.95635786846034 1.7025784440344947 4.496990693185573 4.756788731240275
14.111504269550316 1.9479499522269874 6.108077866238033 6.055476451085298
17.759106964375547 2.206231695525242 8.012817802526929 7.540057466323373
21.810215092731625 2.464674460337769 10.22977625248011 9.11576437991374
25.454461040099336 2.6336133896472327 12.25015351632815 10.570694134123944
27.433703224410444 2.618272214931848 13.434801986622988 11.380629022855619
25.397525546983644 2.3211377522045264 12.41319280740959 10.663194987369527
28.539400371302612 7.552241038325973 11.164268931912208 9.822890401064441
25.397525546986422 2.321137752201843 12.413192807412832 10.663194987371753
27.433703224401615 2.6182722149232096 13.434801986622826 11.38062902285557
25.454461040089793 2.633613389647317 12.250153516322463 10.57069413412002
21.810215092715932 2.4646744603395603 10.2297762524699 9.115764379906468
17.7591069643593 2.206231695524739 8.012817802517963 7.540057466316598
14.111504269534528 1.9479499522252297 6.10807786623021 6.055476451079088
10.956357868443636 1.7025784440316014 4.496990693178071 4.756788731233965
8.354774039173954 1.488522201986642 3.2225464533612778 3.6437053838260334
6.169357260498904 1.2996911623671286 2.188569164773916 2.6810969333578605
4.325523593406742 1.130925622250405 1.3644707953889665 1.8301271757673716
2.8124474529094674 0.9693711539150827 0.7538115080077372 1.0892647909866457
1.5739465681459122 0.7765487607820873 0.2787138156409488 0.5186839917228768
0.8034867710724102 0.5832915975316652 0.05858769191944277 0.161607481621302
0.43296434644752696 0.42753136320340285 -0.0010002773886017514 0.006433260632725715
0.293851594341151 0.29471798313626096 -0.0008395889246282697 -2.6799870481716316e-05
0.239654857404958 0.2412175390463942 -0.0002661426685348716 -0.0012965389729013913
0.21385047960636186 0.21398716095879197 -1.3813154813695827e-05 -0.000122868197616452
0.18578073725167243 0.18575027603688296 2.1056555587426653e-06 2.835555923076314e-05
0.12532773390214103 0.1253293948236088 -9.533615634106578e-08 -1.565585311427026e-06
0.12176935486807441 0.12176935486807441 0.0 0.0
0.07110197013318616 0.07110197013318616 0.0 0.0
0.10331686570993552 0.10331686570993552 0.0 0.0
0.17090573362515082 0.1708952927997019 6.169848764971448e-07 9.823840572470336e-06
0.21578576344705058 0.21567012404540592 1.4178190106642582e-05 0.00010146121153798815
0.2628260786344257 0.26406690066943517 -0.00021313980301795822 -0.0010276822319914786
0.35365341441274056 0.3663739621581935 -0.003256560156309782 -0.00946398758914319
0.6116527949503352 0.5203425070888725 0.020875798077131982 0.07043448978433067
1.2462636583555382 0.7259649460913384 0.16971963069827062 0.35057908156592976
2.4518490567652793 0.9547638807952376 0.6030328122345568 0.8940523637354858
4.051432579295822 1.1395473456568717 1.2181863269176407 1.6936989067213104
6.169320534762149 1.3320957976528502 2.1743383006598456 2.6628864364494538
8.679029612357864 1.5321830337541873 3.3704335616661716 3.7764130169375068
11.657607549729724 1.7596097617269861 4.847828459801923 5.050169328200819
15.245869911330395 2.0257586667032914 6.691496932184342 6.528614312442761
19.561531684609815 2.3305179704145105 8.969680734164674 8.26133298003063
24.748423024810712 2.6608252339267797 11.834452151875855 10.253145639008073
30.214786711510822 2.931378930725855 14.873773001014706 12.409634779770261
35.35980659311246 3.0128936470710537 17.97403333127025 14.372879614771136
38.07161869026189 2.783115271969169 19.80127767346861 15.487225744824116
35.347351587507696 2.391246595914917 18.367306987590887 14.588798004001887
38.75022401188994 9.962769350144253 15.795953292451319 12.991501369294376
35.347351587500505 2.39124659590601 18.36730698759196 14.588798004002527
38.071618690250574 2.7831152719644843 19.801277673464504 15.487225744821593
35.359806593092564 3.0128936470663 17.974033331260955 14.372879614765308
30.214786711492085 2.9313789307279006 14.873773001002272 12.409634779761916
24.748423024789815 2.6608252339258645 11.834452151864076 10.253145638999868
19.561531684589802 2.3305179704134105 8.969680734153844 8.261332980022544
15.245869911311246 2.025758666703325 6.69149693217358 6.52861431243434
11.657607549709931 1.759609761726978 4.847828459791138 5.050169328191811
8.679029612338098 1.5321830337517395 3.3704335616571153 3.7764130169292427
6.169320534745722 1.3320957976520522 2.174338300652054 2.662886436441616
4.051432579283755 1.1395473456557585 1.218186326912466 1.6936989067155321
2.45184905675666 0.9547638807944328 0.6030328122309748 0.8940523637312525
1.2462636583504105 0.7259649460897976 0.1697196306968406 0.35057908156377304
0.6116527949478454 0.5203425070875443 0.020875798076741944 0.0704344897835589
0.3536534144120622 0.3663739621572272 -0.003256560156236547 -0.009463987588928338
0.2628260786339402 0.2640669006689433 -0.00021313980301779066 -0.0010276822319851416
0.21578576344672096 0.21567012404504882 1.4178190108226958e-05 0.00010146121156387788
0.170905733624849 0.17089529279940496 6.169848761276928e-07 9.823840567913113e-06
0.10331686570972995 0.10331686570972995 0.0 0.0
0.07110197013298705 0.07110197013298705 0.0 0.0
0.03909296861580902 0.03909296861580902 0.0 0.0
0.08079284060066608 0.08079284060066608 0.0 0.0
0.15234711788095684 0.15234240419582828 2.7264122338958563e-07 4.441043905202767e-06
0.21524923972561633 0.2152383545378684 2.7243248821822685e-06 8.160862865767281e-06
0.28771646804913703 0.28795299138739444 -0.00011946272612485031 -0.0001170606121326522
0.44169246762560876 0.44039267776574403 -0.0010234690479988128 0.002323258907863458
0.8660831134331756 0.6287171720760144 0.06891485722736812 0.16845108412979326
1.830988755936516 0.8745071156760603 0.3673589062022248 0.5891227340582312
3.3201928337328828 1.085907981357539 0.9021769323954427 1.3321079199799017
5.456074187286326 1.3050451537851648 1.830825612693832 2.3202034208073283
8.105557968907654 1.5210286295094797 3.0739427874905765 3.5105865519075996
11.304480516741844 1.7563743746794946 4.657207599936375 4.890898542125972
15.141258648417512 2.0292802211462626 6.631531936496518 6.480446490774729
19.79752232087922 2.3504490984830158 9.116032545410505 8.331040676985701
25.370387954219954 2.7309319047944176 12.141351389272163 10.498104660153377
31.926946601250688 3.124066081904906 15.806557941009721 12.996322578336061
39.22031901079613 3.4061729032626697 20.123019113495317 15.691126994038129
45.62865516895251 3.353332250413951 24.09968874288447 18.175634175654114
48.74364924903433 2.8594132396981045 26.318231191713785 19.56600481762245
45.554499598004995 2.49906406296164 24.59771562059838 18.45771991444498
49.88474212275811 12.453262876868397 21.11763537601215 16.31384386987756
45.55449959800132 2.4990640629614087 24.59771562059623 18.457719914443693
48.74364924902225 2.859413239699084 26.318231191705614 19.566004817617543
45.62865516893822 3.353332250419473 24.099688742872104 18.175634175646646
39.220319010770204 3.406172903261547 20.123019113479995 15.691126994028664
31.926946601225087 3.1240660819035346 15.806557940995116 12.996322578326435
25.37038795419166 2.7309319047917517 12.141351389257032 10.498104660142873
19.797522320854142 2.3504490984816813 9.11603254539686 8.3310406769756
15.14125864839319 2.02928022114601 6.631531936483089 6.480446490764087
11.30448051671953 1.7563743746785225 4.657207599924842 4.890898542116167
8.105557968887803 1.521028629508509 3.0739427874807754 3.5105865518985153
5.456074187270546 1.3050451537830867 1.830825612687061 2.3202034208003988
3.3201928337225692 1.0859079813574806 0.9021769323908642 1.332107919974225
1.8309887559294593 0.874507115674497 0.36735890619982503 0.5891227340551373
0.8660831134294033 0.6287171720749732 0.06891485722639708 0.16845108412803347
0.44169246762457753 0.44039267776474655 -0.001023469048004343 0.0023232589078353355
0.2877164680487337 0.28795299138685604 -0.00011946272611227697 -0.00011706061200996299
0.21524923972538462 0.21523835453762574 2.7243248828526515e-06 8.160862875989513e-06
0.15234711788072172 0.15234240419559505 2.726412232514537e-07 4.441043903424872e-06
0.08079284060052074 0.08079284060052074 0.0 0.0
0.03909296861568449 0.03909296861568449 0.0 0.0
0.020180814568834606 0.020180814568834606 0.0 0.0
0.05993433873147747 0.05993433873147747 0.0 0.0
0.13236840271366238 0.13236840271366238 0.0 0.0
0.21387560399504185 0.21379750454916577 7.619375007894011e-06 7.04800708681847e-05
0.3208390985660531 0.3284348395540196 -0.0015733310935286309 -0.006022409894437833
0.563118886587193 0.49911421008501317 0.013194102205611182 0.05081057429656813
1.2149151670035647 0.7492786125258953 0.16548390855598738 0.30015264592168206
2.4262943480028163 0.9843709761586915 0.5521713272118192 0.8897520446323058
4.332100267755544 1.2213260391230447 1.3229652086833052 1.7878090199491943
6.899014272823724 1.458696879743487 2.4823524504731047 2.9579649426071337
10.12781549120324 1.7065766753689 4.050743507696986 4.370495308137353
14.059711302285882 1.9828595906212154 6.057655460270809 6.01919625139386
18.826767768219273 2.3069123603672796 8.589003504699967 7.930851903152032
24.472848428224562 2.6886735205829773 11.623576250609483 10.1605986570321
31.38636025944746 3.1317913706719906 15.497340275331256 12.75722861344423
39.5074746010884 3.6019411671834516 20.16783247064128 15.737700963263663
48.21536539693318 3.8940500383861476 25.35873370589886 18.962581652648176
55.95188132325565 3.667866856878719 30.37078576979647 21.913228696580468
59.73620269456084 2.913768194229871 33.25828625710969 23.564148243221293
56.15591414237001 2.6072037209254164 31.179426950757307 22.36928347068729
61.66871917387379 15.012701027158105 26.81062446423685 19.845393682478825
56.155914142366534 2.607203720927703 31.17942695075366 22.369283470685147
59.73620269454796 2.913768194234312 33.258286257098604 23.564148243215044
55.951881323232776 3.6678668568786863 30.37078576978194 21.91322869657214
48.21536539690563 3.8940500383874546 25.358733705880848 18.962581652637336
39.507474601055804 3.601941167179838 20.167832470623466 15.737700963252514
31.386360259418232 3.1317913706739664 15.497340275312459 12.75722861343179
24.47284842819407 2.688673520581378 11.623576250592507 10.160598657020188
18.826767768190223 2.3069123603675874 8.589003504683191 7.930851903139443
14.059711302257654 1.9828595906175153 6.057655460257248 6.0191962513828905
10.127815491179108 1.7065766753670382 4.050743507685128 4.370495308126938
6.899014272804176 1.4586968797406819 2.482352450464615 2.9579649425988817
4.332100267742717 1.2213260391220793 1.3229652086777937 1.7878090199428436
2.4262943479940455 0.9843709761573735 0.5521713272085408 0.8897520446281324
1.2149151669986415 0.7492786125247467 0.16548390855447692 0.3001526459194172
0.5631188865852265 0.4991142100836558 0.013194102205406472 0.05081057429616455
0.3208390985654597 0.32843483955329145 -0.0015733310934953686 -0.00602240989433638
0.2138756039946221 0.21379750454874052 7.619375008272022e-06 7.048007087333941e-05
0.13236840271342848 0.13236840271342848 0.0 0.0
0.059934338731385525 0.059934338731385525 0.0 0.0
0.020180814568764763 0.020180814568764763 0.0 0.0
0.009914813836523494 0.009914813836523494 0.0 0.0
0.042358862580091985 0.042358862580091985 0.0 0.0
0.11330815142622114 0.11330815142622114 0.0 0.0
0.214599215606524 0.21463434214240285 -5.366821986119281e-06 -2.9759713892735238e-05
0.36797343222995127 0.3741025858695184 -0.0017180919127813218 -0.004411061726785685
0.7378316864687939 0.5949295689717582 0.04138044938735575 0.10152166810967994
1.601858504837515 0.8465694036114915 0.2695198634582848 0.4857692377677393
3.111193082286758 1.0898006761965016 0.8118273706478117 1.209565035442444
5.371163511336009 1.3455635521343245 1.7695568014469718 2.2560431577547138
8.405238075478142 1.6087391905304846 3.191144017742406 3.605354867205251
12.215629829631233 1.891001069956389 5.084846567038268 5.239782192636578
16.914171112290727 2.215263069943392 7.538277599185863 7.16063044316147
22.540105182477316 2.5941631171500594 10.544538371907501 9.401403693419756
29.46316389332127 3.0391130892590192 14.415159952992399 12.008890851069864
37.60942764724726 3.5456905678669166 19.02584726808411 15.037889811296232
47.03985291924582 4.0597782312001325 24.506519662875085 18.4735550251706
57.30192829742203 4.374720658884917 30.77776696927374 22.14944066926338
66.37033681536563 4.020043647618194 36.79500493141627 25.5552882363312
70.94524973877877 2.9825200686729616 40.40163249403554 27.56109717607025
67.3536488967915 2.672151037034921 38.30355229724082 26.377945562515748
74.54324971534466 17.590025355016216 33.3462302635955 23.60699409673294
67.35364889678156 2.6721510370331982 38.30355229723547 26.377945562512906
70.94524973876219 2.9825200686770397 40.40163249402216 27.561097176062994
66.37033681533735 4.02004364761812 36.79500493139808 25.55528823632116
57.301928297385594 4.374720658882116 30.777766969252404 22.149440669251078
47.039852919207625 4.059778231196278 24.506519662853634 18.473555025157705
37.60942764720968 3.545690567864805 19.025847268062396 15.03788981128248
29.46316389328502 3.039113089256645 14.415159952972125 12.00889085105625
22.54010518244474 2.5941631171505106 10.544538371888265 9.401403693405966
16.914171112257105 2.2152630699395592 7.538277599169104 7.1606304431484435
12.215629829603337 1.8910010699545223 5.084846567024113 5.239782192624705
8.405238075455806 1.608739190528221 3.1911440177319315 3.6053548671956532
5.371163511319921 1.3455635521328442 1.769556801439827 2.2560431577472495
3.111193082276191 1.0898006761954302 0.8118273706437718 1.209565035436989
1.6018585048313927 0.8465694036099779 0.2695198634563719 0.4857692377650431
0.7378316864663592 0.5949295689704907 0.0413804493869394 0.10152166810892892
0.36797343222906426 0.37410258586852463 -0.0017180919127673694 -0.004411061726693001
0.21459921560610307 0.2146343421419907 -5.3668219884518935e-06 -2.9759713899101863e-05
0.11330815142605705 0.11330815142605705 0.0 0.0
0.042358862580016976 0.042358862580016976 0.0 0.0
0.009914813836503415 0.009914813836503415 0.0 0.0
0.004838375939391986 0.004838375939391986 0.0 0.0
0.02897258417532169 0.02897258417532169 0.0 0.0
0.09769931745402324 0.09769931745402324 0.0 0.0
0.22173277598762225 0.22177994116241057 -4.788096160758802e-06 -4.237707862755357e-05
0.436430109679794 0.42285954561705835 0.002115382326816735 0.011455181735918975
0.9685916150710242 0.689280683660613 0.09265776505615198 0.18665316635425883
2.033669171208209 0.924847760837243 0.40567215186176875 0.703149258509197
3.8400190260921865 1.1902323787928772 1.1060435235787343 1.5437431237205765
6.446222447890365 1.463578044548338 2.2496983500406222 2.7329460533014043
9.950444069306332 1.7553164056131236 3.9349121901262434 4.260215473566969
14.391855625756456 2.079760481870765 6.195285927370611 6.116809216515077
19.83187285365628 2.452663222512292 9.065039722872966 8.31416990827102
26.541422634705047 2.897185338292732 12.76063491694457 10.883602379467742
34.47200742723254 3.4115158201457128 17.17368668712435 13.88680491996248
43.96083984735156 3.960352215624174 22.664943333433023 17.335544298294362
54.76408279445975 4.4720056368293815 29.109054795152055 21.183022362478308
66.27838080980227 4.797264764562689 36.23304083650645 25.24807520873315
76.73849415951551 4.499836521738224 43.18179864825756 29.056858989519732
82.39786639998866 3.1076534328942027 47.81296139319738 31.47725157389706
79.26713745156209 2.618361571994848 46.09651994518507 30.552255934382153
88.60085469549537 20.03837715093742 40.79831652304914 27.76416102150883
79.26713745155106 2.618361571994666 46.09651994517803 30.552255934378373
82.39786639996453 3.107653432895188 47.812961393181006 31.47725157388837
76.73849415948057 4.499836521737432 43.181798648235336 29.056858989507788
66.27838080976221 4.79726476456328 36.23304083648028 25.248075208718692
54.7640827944162 4.472005636825774 29.10905479512681 21.18302236246361
43.96083984730895 3.960352215622242 22.66494333340775 17.33554429827894
34.47200742719134 3.411515820143364 17.173686687100773 13.886804919947211
26.541422634662514 2.8971853382879003 12.760634916922237 10.883602379452375
19.831872853619267 2.45266322250973 9.065039722853113 8.314169908256419
14.391855625725919 2.0797604818692994 6.195285927354554 6.1168092165020695
9.950444069282014 1.7553164056110813 3.9349121901144435 4.2602154735564834
6.44622244787247 1.4635780445466735 2.2496983500325465 2.7329460532932517
3.840019026079834 1.1902323787914597 1.1060435235736945 1.54374312371468
2.0336691712007253 0.924847760836079 0.4056721518593542 0.7031492585052916
0.9685916150674762 0.6892806836592089 0.09265776505536298 0.18665316635290433
0.43643010967888046 0.4228595456160394 0.0021153823268084187 0.011455181736032601
0.2217327759872686 0.22177994116210067 -4.788096167367652e-06 -4.23770786646742e-05
0.09769931745389458 0.09769931745389458 0.0 0.0
0.02897258417527487 0.02897258417527487 0.0 0.0
0.004838375939374015 0.004838375939374015 0.0 0.0
0.00229633233200103 0.00229633233200103 0.0 0.0
0.019769025334326815 0.019769025334326815 0.0 0.0
0.08887950485636731 0.08887950485636731 0.0 0.0
0.24212858983977467 0.24238830358408062 -5.213044394649912e-05 -0.00020758330035949843
0.54459373369571 0.4998263336265949 0.012366602169079128 0.03240079790003585
1.235005787571358 0.7675465492546898 0.15797146694162376 0.30948777137504463
2.524240475247269 1.0099425172319951 0.5843763452909642 0.9299216127243095
4.5923541949501185 1.2841780451428617 1.4195675927178815 1.8886085570893751
7.565673463725012 1.5775748300062593 2.7721455907896217 3.215953042929134
11.531905025629001 1.9013066107998524 4.710605362495095 4.919993052334055
16.599579459019413 2.269428977062584 7.328243830629391 7.001906651327441
22.9257104795176 2.7021987919613926 10.747135977898083 9.476375709658125
30.495299006160007 3.213596116602056 14.892862363752299 12.388840525805668
39.71549050799787 3.791773147151651 20.148075222773844 15.775642138072365
50.51671512989856 4.387586723592376 26.485760807287196 19.643367599018983
62.58072232339762 4.871283058663034 33.82042261586885 23.889016648865734
75.08957672297443 5.082710580509939 41.75692247663828 28.249943665826233
86.68107733337233 4.929933987044357 49.44287218740704 32.3082711589209
94.03344710871022 3.6625824186923652 55.13207171721471 35.23879297280315
91.94797324926728 2.2885675548417663 54.68560285768165 34.97380283674388
103.8149908293538 21.380801242873794 49.88966130894838 32.54452827753162
91.94797324924916 2.288567554837878 54.68560285767225 34.973802836739026
94.0334471086853 3.662582418696597 55.13207171719549 35.23879297279324
86.6810773333332 4.929933987046614 49.44287218737984 32.308271158906756
75.08957672293005 5.082710580512053 41.75692247660822 28.24994366580975
62.580722323348475 4.871283058659682 33.820422615839554 23.88901664884926
50.516715129851455 4.3875867235911 26.485760807258423 19.643367599001948
39.71549050794985 3.791773147148439 20.148075222746282 15.775642138055131
30.495299006113985 3.213596116600101 14.892862363725813 12.38884052578807
22.925710479474706 2.70219879195835 10.747135977874844 9.47637570964151
16.599579458984074 2.2694289770597766 7.328243830610984 7.001906651313319
11.531905025600985 1.9013066107968843 4.71060536248155 4.9199930523225515
7.565673463703625 1.5775748300030907 2.7721455907803207 3.2159530429202126
4.592354194935441 1.2841780451406748 1.419567592711975 1.888608557082793
2.524240475238668 1.0099425172310714 0.584376345287726 0.9299216127198698
1.2350057875671399 0.767546549253642 0.1579714669403807 0.30948777137311756
0.5445937336941524 0.4998263336253971 0.012366602168956223 0.03240079789979901
0.24212858983937757 0.242388303583566 -5.21304439370573e-05 -0.00020758330025151038
0.08887950485625855 0.08887950485625855 0.0 0.0
0.019769025334304434 0.019769025334304434 0.0 0.0
0.002296332332005016 0.002296332332005016 0.0 0.0
0.0006297733758619363 0.0006297733758619363 0.0 0.0
0.014175179699641566 0.014175179699641566 0.0 0.0
0.09157158443761712 0.09157158443761712 0.0 0.0
0.2880692792772578 0.28913892165530314 -0.00023486739174953923 -0.0008347749862957932
0.7043663788261803 0.6074501089551212 0.031175804128663942 0.06574046574239492
1.5656334973773287 0.912111915676552 0.23216214433503057 0.4213594373657463
3.070401000015429 1.2128367011643768 0.7390894356770323 1.1184748631740205
5.425622250115056 1.5840589049775435 1.6826195133570705 2.158943831780442
8.780761987478433 2.019988502626937 3.171067166616943 3.58970631823456
13.315162340680189 2.5561689607648423 5.331670032990243 5.4273233469251005
19.170306331656725 3.234234565356962 8.256226599982137 7.679845166317627
26.408257518391622 4.087189976415924 11.94914845049412 10.37191909148158
35.30879187851676 5.119967846831094 16.649470810036966 13.539353221648701
46.00395567169402 6.32211654622356 22.46510448566642 17.216734639804052
58.402753031304414 7.550521730654895 29.466890348566345 21.385340952083148
71.94360205062623 8.520156950076146 37.51655531505945 25.90688978549062
85.39150426407942 8.869107058250593 46.02329082657896 30.49910637924985
97.07451587455752 8.396176021506403 54.01678529214922 34.661554560901955
105.56249309935518 7.628726525173276 60.15559662893029 37.778169945251605
102.33073252357195 2.296152166772124 61.501731887117614 38.53284846968215
149.22978037017106 53.10170367256266 59.01156017051637 37.11651652709205
102.33073252356081 2.2961521667783247 61.50173188710602 38.53284846967643
105.56249309932336 7.628726525173162 60.15559662890921 37.77816994524097
97.07451587451737 8.396176021513753 54.01678529211803 34.661554560885634
85.39150426402465 8.86910705824627 46.02329082654586 30.499106379232526
71.94360205056745 8.520156950067648 37.516555315027105 25.906889785472643
58.402753031248125 7.550521730648944 29.466890348534545 21.385340952064627
46.00395567163842 6.3221165462179245 22.465104485635432 17.216734639785084
35.30879187846486 5.11996784682708 16.649470810007987 13.539353221629797
26.408257518346332 4.087189976415511 11.949148450467648 10.371919091463166
19.170306331615876 3.2342345653516205 8.256226599961867 7.679845166302387
13.315162340648167 2.5561689607604676 5.33167003297501 5.42732334691269
8.780761987455332 2.0199885026247717 3.1710671666060106 3.589706318224551
5.425622250098383 1.5840589049750693 1.6826195133501853 2.158943831773126
3.070401000005364 1.2128367011627348 0.7390894356733547 1.1184748631692751
1.5656334973723904 0.9121119156753796 0.23216214433367469 0.42135943736333625
0.704366378824071 0.60745010895384 0.031175804128377234 0.06574046574185348
0.28806927927673015 0.2891389216547392 -0.0002348673917372768 -0.0008347749862717319
0.09157158443746055 0.09157158443746055 0.0 0.0
0.014175179699586168 0.014175179699586168 0.0 0.0
0.0006297733758627174 0.0006297733758627174 0.0 0.0
CELL_DATA 800
SCALARS Stress float 6
LOOKUP_TABLE default
150.9288362900705 -505.58573128354317 -183.25546278938924 -106.48358614159585 0.0 0.0
394.9321936232692 -31.42694678595243 117.79180760853922 59.458943804027854 0.0 0.0
384.1809581007749 6.865693717814024 117.11780954067193 -4.994598533974695 0.0 0.0
445.37865535680265 -7.677607114046126 133.64880836762035 -13.189666484257536 0.0 0.0
517.9365253515939 -12.695661551581669 175.12378770107534 -11.125824120906849 0.0 0.0
586.6082358922857 -4.813070400400768 241.41925611832102 -9.504549090798609 0.0 0.0
652.8616812162074 3.3012221489388587 303.1390535523329 -9.514743975845738 0.0 0.0
719.0007246227887 19.53234106960238 358.07427843623645 -10.457828453816497 0.0 0.0
785.9969827966622 42.096696639924 408.5249108880678 -11.649752478960067 0.0 0.0
854.2460077386254 70.00167802945708 458.61459611291014 -12.537966175289117 0.0 0.0
923.2857638520491 101.58294922081024 509.6662795653719 -12.95532851551736 0.0 0.0
992.5635112041297 136.36399088105696 562.0606842907091 -12.898457566570546 0.0 0.0
1062.2124564699102 172.68765362611927 615.263531245507 -12.691489415820984 0.0 0.0
1132.8693134698824 211.0743062682298 669.9178860495442 -12.444813940967556 0.0 0.0
1205.2691576076945 252.6578873783219 726.997558495523 -12.105262467243355 0.0 0.0
1278.9435917054216 297.5513824837622 786.3419379300138 -11.506405855807063 0.0 0.0
1351.6040240199234 344.5043267135179 846.194881884016 -10.438596627843417 0.0 0.0
1419.6536256752522 391.06143341848224 903.5132397524251 -8.841394956207512 0.0 0.0
1479.1689505371232 434.49138128232806 954.9310651952479 -7.336368695224137 0.0 0.0
1542.6917752227373 489.25587748897544 1013.5642019767445 -8.814491114915244 0.0 0.0
1542.6917752223894 489.2558774886319 1013.5642019764374 8.814491114926255 0.0 0.0
1479.1689505364086 434.49138128164896 954.9310651945525 7.336368695313678 0.0 0.0
1419.6536256753093 391.06143341859627 903.5132397523688 8.841394956181524 0.0 0.0
1351.6040240200064 344.5043267136824 846.1948818840095 10.438596627862033 0.0 0.0
1278.9435917051728 297.5513824836081 786.3419379297657 11.506405855824646 0.0 0.0
1205.269157607201 252.65788737794105 726.99755849511 12.105262467262385 0.0 0.0
1132.86931346917 211.07430626764798 669.9178860489832 12.444813940931649 0.0 0.0
1062.2124564695541 172.68765362592157 615.2635312451695 12.691489415797081 0.0 0.0
992.563511203294 136.3639908804031 562.0606842900961 12.898457566575722 0.0 0.0
923.285763850935 101.58294921989328 509.6662795646288 12.955328515464984 0.0 0.0
854.2460077381722 70.00167802922721 458.6145961125628 12.537966175225671 0.0 0.0
785.9969827963544 42.09669663984309 408.5249108878246 11.64975247900584 0.0 0.0
719.0007246223407 19.532341069396153 358.0742784358914 10.457828453810164 0.0 0.0
652.8616812155263 3.301222148494311 303.1390535518261 9.514743975859961 0.0 0.0
586.6082358920484 -4.813070400378901 241.41925611806607 9.504549090768037 0.0 0.0
517.9365253513419 -12.695661551598267 175.12378770089015 11.125824120900413 0.0 0.0
445.378655356406 -7.677607114215 133.64880836745195 13.189666484253788 0.0 0.0
384.1809581006383 6.8656937178313395 117.11780954063929 4.994598534055095 0.0 0.0
394.9321936233312 -31.42694678572997 117.79180760858796 -59.45894380398813 0.0 0.0
150.92883629056283 -505.58573128304585 -183.25546278889067 106.48358614127545 0.0 0.0
54.847970281363644 -535.2447733013236 -239.38359579174363 -148.6265975330364 0.0 0.0
244.12513641480462 -17.178672221591622 68.08393925796388 12.66473512234318 0.0 0.0
337.05054523834326 23.224995359988128 108.08217205317146 -10.369228386866073 0.0 0.0
405.6524147679752 -5.1396333774797265 120.33882864289217 -32.7531886276554 0.0 0.0
487.96907333067264 -13.981797165832655 154.93534806510584 -31.756383375321573 0.0 0.0
561.5809125201281 -6.304971414851254 219.29642238038764 -28.227780650182435 0.0 0.0
632.1420305543531 1.5691124612574434 285.12535162231427 -28.576215501106546 0.0 0.0
699.287374235493 16.906377853018654 343.2683798630442 -30.020993442529896 0.0 0.0
765.1803936460619 37.96452388352848 394.3682276495136 -31.80941774208838 0.0 0.0
830.8523465028832 63.55199346202843 442.8900956302682 -32.95248595520468 0.0 0.0
896.1866587572526 92.10902846586416 490.95743673397334 -33.09120742541407 0.0 0.0
961.1450127895295 122.34341150950267 539.0761463466522 -32.48892510753051 0.0 0.0
1025.9020121630704 154.6413682160355 587.8861550814686 -31.605706977141928 0.0 0.0
1091.6940034549102 188.87435255146175 638.0717991228737 -30.717108025827155 0.0 0.0
1158.9536573583782 225.7222563060164 690.2427625981855 -29.70002792920011 0.0 0.0
1227.1437777505655 265.4450757896235 744.2864842392823 -28.13859366591845 0.0 0.0
1294.5494178751399 307.2317279101148 798.9419885992189 -25.67985958524305 0.0 0.0
1358.750794987578 349.81742603253065 852.3394924253423 -22.39067976905071 0.0 0.0
1420.449392520153 395.38505009644547 905.806468093504 -19.033205034647274 0.0 0.0
1464.5537531224575 430.26989565958587 945.1043086704349 -14.79057611770963 0.0 0.0
1464.553753123046 430.2698956601929 945.1043086708846 14.790576117864287 0.0 0.0
1420.449392520129 395.38505009646155 905.8064680934982 19.03320503469101 0.0 0.0
1358.750794987489 349.8174260324954 852.3394924251843 22.390679769021055 0.0 0.0
1294.5494178754243 307.2317279104759 798.9419885993082 25.679859585266637 0.0 0.0
1227.1437777500407 265.445075789185 744.2864842388815 28.13859366590156 0.0 0.0
1158.9536573577172 225.72225630546833 690.2427625977031 29.7000279292172 0.0 0.0
1091.694003454793 188.87435255148606 638.0717991227757 30.717108025864167 0.0 0.0
1025.902012163297 154.64136821642938 587.8861550815785 31.60570697718139 0.0 0.0
961.1450127890246 122.34341150917577 539.0761463462794 32.488925107541576 0.0 0.0
896.1866587564165 92.10902846523331 490.957436733363 33.09120742541954 0.0 0.0
830.852346502252 63.55199346159928 442.89009562981005 32.952485955159176 0.0 0.0
765.1803936451793 37.964523882849235 394.36822764892105 31.809417742037002 0.0 0.0
699.2873742349623 16.906377852716695 343.2683798626299 30.020993442484055 0.0 0.0
632.1420305537205 1.5691124608638773 285.12535162180853 28.576215501018574 0.0 0.0
561.5809125199477 -6.3049714147310745 219.29642238017883 28.227780650204377 0.0 0.0
487.96907333059113 -13.981797165558838 154.93534806506975 31.75638337531649 0.0 0.0
405.6524147678579 -5.139633377237128 120.33882864293324 32.75318862763262 0.0 0.0
337.05054523817813 23.2249953597846 108.08217205306127 10.369228386870132 0.0 0.0
244.1251364149273 -17.1786722213621 68.08393925806958 -12.66473512244139 0.0 0.0
54.847970281613556 -535.244773300973 -239.38359579139464 148.6265975328497 0.0 0.0
9.634538626921085 -536.809085487412 -253.90853888847494 -162.5400628678023 0.0 0.0
142.11209119169288 -16.51704194642292 37.67851477358098 -39.52585591033372 0.0 0.0
274.4654324925589 28.11807173350924 90.7750512678204 -31.624965356052968 0.0 0.0
359.14312950206573 1.6841509513904633 108.29030198175985 -51.229529288131786 0.0 0.0
448.1328745716795 -11.963169293312987 136.32263770064742 -54.44845008322439 0.0 0.0
533.7214230281053 -10.44261120726163 193.41901722683573 -49.305143782234 0.0 0.0
607.054429620773 0.7814026801519098 263.78877329959045 -47.935627108905464 0.0 0.0
675.1034459872777 14.268063931873279 324.844016523708 -49.563907495494874 0.0 0.0
740.5775861260197 33.901979803024645 377.59877262521366 -51.60004927649584 0.0 0.0
803.783582005841 56.962435122516624 424.91954652213735 -52.7416916842723 0.0 0.0
865.4451217600188 82.05469780336239 469.9711958732627 -52.54772752394345 0.0 0.0
925.855278574965 108.61631329317365 514.2124914935838 -51.378486854920844 0.0 0.0
986.2746839153839 136.34939384536904 558.679043417872 -50.00291016296187 0.0 0.0
1047.1124189307668 166.30612136259452 604.313532641939 -48.55118143024271 0.0 0.0
1109.0071943100943 198.28873698290693 651.4056550523318 -46.89848333263346 0.0 0.0
1171.6471044659493 232.56499772332802 699.9790130805297 -44.52239553100521 0.0 0.0
1233.873846574962 269.04970430593147 749.4075681371352 -40.985201029293876 0.0 0.0
1295.4186052704795 308.70728611767896 799.9881158582931 -36.335976942746306 0.0 0.0
1351.6690684716896 348.2678522169378 847.7791338951066 -30.147395786026305 0.0 0.0
1390.0002224830937 376.4042375554451 880.8739751925755 -20.187280461505754 0.0 0.0
1390.0002224825262 376.40423755491025 880.8739751921674 20.18728046167999 0.0 0.0
1351.66906847151 348.26785221678807 847.7791338950068 30.147395786084537 0.0 0.0
1295.4186052701468 308.7072861174031 799.9881158580184 36.33597694276829 0.0 0.0
1233.8738465745876 269.0497043056226 749.4075681367879 40.985201029248614 0.0 0.0
1171.6471044658076 232.56499772324443 699.9790130803699 44.52239553088864 0.0 0.0
1109.0071943095397 198.28873698247028 651.4056550519193 46.8984833326972 0.0 0.0
1047.1124189303791 166.30612136236462 604.3135326416784 48.55118143035236 0.0 0.0
986.2746839142906 136.34939384442166 558.6790434171046 50.00291016296053 0.0 0.0
925.8552785741406 108.61631329249613 514.2124914929674 51.37848685485481 0.0 0.0
865.4451217598984 82.0546978034522 469.97119587315035 52.547727523967936 0.0 0.0
803.7835820059385 56.962435122842464 424.91954652215315 52.741691684236926 0.0 0.0
740.5775861259731 33.90197980321686 377.5987726251336 51.600049276497145 0.0 0.0
675.103445986659 14.268063931489479 324.84401652324163 49.56390749548254 0.0 0.0
607.0544296201599 0.7814026798043372 263.7887732990937 47.935627108927235 0.0 0.0
533.72142302803 -10.442611206954496 193.4190172267289 49.30514378232252 0.0 0.0
448.13287457135254 -11.963169293291443 136.3226377005087 54.4484500832291 0.0 0.0
359.1431295018648 1.684150951368209 108.29030198170551 51.22952928808124 0.0 0.0
274.4654324925646 28.118071733499512 90.77505126781922 31.624965356029485 0.0 0.0
142.1120911917644 -16.51704194627027 37.67851477364823 39.52585591017145 0.0 0.0
9.634538627101577 -536.8090854871199 -253.90853888816423 162.5400628676254 0.0 0.0
-6.615415499006787 -520.3392045893189 -243.86638004849215 -165.08048870338624 0.0 0.0
84.13580266209479 -22.453380534264898 18.50472663834896 -83.7618519567429 0.0 0.0
214.76018783458653 27.47252347425411 72.66981339265217 -59.673751962910146 0.0 0.0
309.1542695022793 6.870645111144409 94.79940956740825 -71.21582133507194 0.0 0.0
398.79081678974933 -8.818503473185674 118.59409029690028 -78.42057549800126 0.0 0.0
493.29616117603786 -12.179379005664128 166.4456339883074 -72.58876338989376 0.0 0.0
574.580310128126 -1.7307198971682798 236.36442673290878 -68.24292707416012 0.0 0.0
646.1742006609253 12.270793647818948 302.5727083197612 -69.2798512187694 0.0 0.0
711.207507211569 29.675667178559582 357.1734255523762 -71.0143031653567 0.0 0.0
772.2476637064171 50.106490378425114 403.9693866880779 -71.92524006335465 0.0 0.0
830.4770573169214 71.85146293108707 446.5152256474131 -71.32744193944292 0.0 0.0
886.9686890595874 94.56998526778365 487.25016352746877 -69.67624505898452 0.0 0.0
942.5128271168234 118.17595786765563 527.3813614380477 -67.81087173632106 0.0 0.0
998.7789763142391 143.56940407028208 568.5461612786012 -65.95252962926048 0.0 0.0
1055.4471558057835 170.42352149851578 610.517346925884 -63.76562172446514 0.0 0.0
1112.0749638086681 199.20806293432375 653.367964867895 -60.68703564448201 0.0 0.0
1169.4037489992468 230.5248305455097 697.7814538657527 -56.38643268845915 0.0 0.0
1226.392632705794 264.9665361217794 743.4969631247789 -50.42480956117329 0.0 0.0
1278.3648871171995 299.06093612727557 786.442070124916 -41.261018883813094 0.0 0.0
1314.5408207570413 323.3702495442742 816.5586059333549 -25.934055649806815 0.0 0.0
1314.5408207569683 323.37024954422714 816.5586059332874 25.934055649958495 0.0 0.0
1278.3648871173882 299.06093612752477 786.442070124975 41.2610188839883 0.0 0.0
1226.392632705898 264.9665361219569 743.4969631248155 50.42480956126391 0.0 0.0
1169.403748999847 230.52483054622297 697.781453866155 56.38643268859687 0.0 0.0
1112.0749638085256 199.20806293425144 653.367964867652 60.68703564439986 0.0 0.0
1055.4471558051205 170.4235214979699 610.517346925377 63.76562172454686 0.0 0.0
998.7789763136208 143.569404069799 568.5461612782013 65.95252962931605 0.0 0.0
942.5128271159242 118.17595786690875 527.3813614374554 67.81087173637428 0.0 0.0
886.9686890594458 94.56998526783045 487.2501635273247 69.67624505899883 0.0 0.0
830.47705731598 71.85146293027681 446.5152256467226 71.32744193929987 0.0 0.0
772.2476637054198 50.10649037758118 403.9693866873704 71.92524006325695 0.0 0.0
711.2075072113681 29.675667178609025 357.17342555218744 71.01430316536738 0.0 0.0
646.1742006607992 12.270793647964929 302.57270831958743 69.27985121870628 0.0 0.0
574.5803101279943 -1.7307198969587958 236.3644267327167 68.2429270741746 0.0 0.0
493.2961611757568 -12.17937900558955 166.44563398811144 72.58876338983178 0.0 0.0
398.79081678950604 -8.818503472943728 118.59409029688784 78.42057549791366 0.0 0.0
309.15426950217386 6.870645111190129 94.79940956739169 71.2158213349841 0.0 0.0
214.76018783470477 27.47252347434138 72.66981339271383 59.673751962801255 0.0 0.0
84.13580266218898 -22.453380533913414 18.504726638482666 83.7618519566148 0.0 0.0
-6.615415498898955 -520.3392045889715 -243.86638004818576 165.08048870332675 0.0 0.0
-9.191646557838169 -493.43351892988846 -220.78460441559315 -163.39264055051856 0.0 0.0
49.92688382313255 -28.924976098880826 6.300572317275516 -118.07872468294195 0.0 0.0
162.69016903373816 23.709828245666174 55.9199991838213 -88.20926691719923 0.0 0.0
256.42582913059374 10.023760633656366 79.93459918161392 -92.51942529878998 0.0 0.0
342.18825313759834 -4.161028502874462 101.7289370730651 -101.08699058932064 0.0 0.0
441.4669366432372 -12.344530690069377 139.67265739251886 -98.6531795578452 0.0 0.0
534.135974111062 -5.172128382927511 204.05749295760137 -91.05659836922769 0.0 0.0
610.7845691373038 9.871545823097902 274.51483742725685 -89.12449399114554 0.0 0.0
676.1827869959883 25.51073906741832 332.11383018216134 -90.16630327312204 0.0 0.0
735.533063026487 43.01741816672603 379.2655171617861 -90.56822255298799 0.0 0.0
790.7798928785588 61.430834356769296 420.0325031085672 -89.49030421800406 0.0 0.0
843.207387875357 80.31461287708152 457.45760021786816 -87.35243123309543 0.0 0.0
894.5198150196707 99.89515851873136 493.7766543526229 -85.1472023376251 0.0 0.0
945.4195749936987 120.73734239659905 530.1311843396214 -82.87170115727533 0.0 0.0
996.7866470603641 142.60554776914296 567.0343198850962 -80.26012851744014 0.0 0.0
1048.5345920301984 165.81698333336743 604.7141971468861 -76.73740676928247 0.0 0.0
1099.8138109404408 191.1229632283963 643.1399630796853 -71.79879820979883 0.0 0.0
1151.3888604626316 219.35714427048848 683.0779796011484 -64.70738052601212 0.0 0.0
1199.835121330462 248.0736872328648 721.5869563155577 -52.849715578282776 0.0 0.0
1235.94126438388 269.77322317686003 750.348257336052 -32.493253553487726 0.0 0.0
1235.941264384133 269.7732231771505 750.3482573362721 32.49325355365839 0.0 0.0
1199.8351213303783 248.07368723283227 721.5869563155328 52.84971557837625 0.0 0.0
1151.3888604628323 219.35714427076985 683.0779796013226 64.70738052611144 0.0 0.0
1099.813810940395 191.12296322841615 643.1399630796531 71.79879820981066 0.0 0.0
1048.5345920307855 165.81698333405086 604.7141971472544 76.73740676930224 0.0 0.0
996.7866470604591 142.60554776941507 567.0343198850395 80.26012851760629 0.0 0.0
945.4195749933419 120.73734239639468 530.1311843392813 82.87170115732557 0.0 0.0
894.5198150189251 99.89515851813589 493.7766543520759 85.14720233767929 0.0 0.0
843.2073878748035 80.31461287669474 457.45760021746935 87.35243123309324 0.0 0.0
790.7798928783943 61.43083435680275 420.03250310838786 89.49030421801027 0.0 0.0
735.5330630268484 43.01741816738782 379.26551716197065 90.56822255307297 0.0 0.0
676.182786995645 25.51073906733385 332.11383018188394 90.16630327314968 0.0 0.0
610.7845691369172 9.871545823022707 274.5148374268966 89.12449399114807 0.0 0.0
534.1359741107552 -5.172128382886168 204.05749295732232 91.05659836921646 0.0 0.0
441.46693664286045 -12.344530690141982 139.67265739230197 98.65317955772531 0.0 0.0
342.1882531373809 -4.161028502811551 101.72893707302171 101.08699058920485 0.0 0.0
256.42582913056924 10.023760633904551 79.93459918168166 92.51942529866245 0.0 0.0
162.69016903367648 23.709828245554355 55.91999918376926 88.20926691700708 0.0 0.0
49.92688382311014 -28.92497609876233 6.30057231730434 118.0787246827135 0.0 0.0
-9.191646557682617 -493.4335189295014 -220.78460441525922 163.39264055044524 0.0 0.0
-5.703927143136056 -459.64494504050606 -191.15323261560638 -160.29573632945943 0.0 0.0
27.874526198379858 -34.34782296176285 -1.9419890290148982 -143.40670574450107 0.0 0.0
117.68540507801504 18.57050462343925 40.87677291043628 -113.82385162394237 0.0 0.0
203.05575939609065 12.103134876161722 64.5476682816757 -113.34169519488 0.0 0.0
282.71004065133263 -0.6393785875523845 84.57701647566084 -122.33637138984874 0.0 0.0
373.9612056918141 -10.26507033467628 113.58084505740885 -124.91744459849355 0.0 0.0
476.2317188628516 -7.064566874614548 168.1849760161586 -117.13298260483015 0.0 0.0
563.4419753441629 5.7352471203441855 237.70414590944807 -110.72341312126223 0.0 0.0
633.7211738019325 21.009512873502977 300.44231726636247 -109.34112553641995 0.0 0.0
692.3313429499512 35.857068726457626 349.3635828958794 -108.73817352996363 0.0 0.0
744.652710158906 50.64321809073104 389.05059798026787 -107.06133958479006 0.0 0.0
793.5877906977645 65.91234121725806 424.08094250600476 -104.51091541289956 0.0 0.0
840.4898386717455 81.64494240333092 456.8493501623278 -101.91712295428412 0.0 0.0
886.5286456799936 97.84786365628545 488.75855154280293 -99.42973425627652 0.0 0.0
932.6978515630318 114.7112555811095 520.700181497687 -96.5510866283868 0.0 0.0
978.5412978485045 132.78154508053416 552.926294910461 -92.52007671851771 0.0 0.0
1024.1750289144334 151.45983227656026 585.2929580327693 -87.16868545336793 0.0 0.0
1069.557177609469 172.1445634101595 618.4224612836953 -79.32054179387944 0.0 0.0
1114.233341789912 194.97729778409558 652.1188946458028 -65.29238450345674 0.0 0.0
1151.9076362219953 214.5881449267544 680.5771333093887 -40.35587465762547 0.0 0.0
1151.907636220738 214.58814492549837 680.5771333085755 40.35587465765056 0.0 0.0
1114.2333417885498 194.97729778275172 652.1188946449079 65.29238450354038 0.0 0.0
1069.5571776093882 172.1445634101686 618.4224612836686 79.32054179399529 0.0 0.0
1024.1750289148283 151.45983227707742 585.2929580330158 87.16868545350462 0.0 0.0
978.5412978485123 132.78154508065458 552.9262949104314 92.52007671857656 0.0 0.0
932.6978515625786 114.71125558077645 520.7001814973839 96.55108662840797 0.0 0.0
886.5286456791068 97.8478636554669 488.7585515421617 99.42973425623921 0.0 0.0
840.4898386709966 81.64494240273584 456.8493501617629 101.91712295435022 0.0 0.0
793.587790696961 65.91234121662434 424.0809425054457 104.51091541292845 0.0 0.0
744.6527101585256 50.64321809055295 389.05059797999655 107.0613395848041 0.0 0.0
692.3313429494002 35.85706872606446 349.363582895442 108.73817352986443 0.0 0.0
633.7211738013594 21.009512873071216 300.4423172658926 109.34112553629473 0.0 0.0
563.4419753437653 5.735247120283461 237.7041459090977 110.72341312128273 0.0 0.0
476.2317188627854 -7.064566874161553 168.18497601610161 117.13298260486832 0.0 0.0
373.9612056916384 -10.265070334282637 113.58084505743388 124.91744459839498 0.0 0.0
282.710040651318 -0.6393785872064086 84.57701647576307 122.33637138975149 0.0 0.0
203.05575939597776 12.103134876186543 64.54766828164928 113.34169519466008 0.0 0.0
117.68540507804894 18.570504623600176 40.87677291049473 113.82385162369899 0.0 0.0
27.874526198449516 -34.347822961525594 -1.9419890289228237 143.40670574437937 0.0 0.0
-5.703927143041923 -459.64494504015175 -191.15323261529934 160.2957363293545 0.0 0.0
-0.05445527049933219 -420.3040933714301 -158.72034044369875 -156.77983576173762 0.0 0.0
11.124959678885686 -39.493159165623474 -8.510459846021336 -161.03303563415434 0.0 0.0
77.83574895991164 13.427991122267198 27.379122024653647 -135.04448813102147 0.0 0.0
150.54438209104393 13.845910389819647 49.31708774425907 -132.34293266139153 0.0 0.0
219.70530996756509 1.7949212274717246 66.4587939629889 -141.45504276868076 0.0 0.0
299.1478192846196 -6.502537528430552 89.09137058995385 -149.00398964381833 0.0 0.0
400.25561616979144 -7.355166183917699 130.59786496593117 -145.32799436377314 0.0 0.0
498.11841222115373 1.8942111443460106 192.9702788994241 -135.51793484229154 0.0 0.0
577.2923486352505 15.158965739978942 257.7950536193552 -129.60451306970995 0.0 0.0
639.3681338448521 28.440030960830402 311.108155211167 -126.74984306764975 0.0 0.0
689.6408582330372 39.53784485814284 351.1392879295059 -124.14614083133792 0.0 0.0
735.5073811290644 51.38865002452568 385.00107405917 -121.17242257861177 0.0 0.0
778.2585313529679 63.18920122226231 414.92884292904523 -118.26746781254195 0.0 0.0
819.3293050538856 75.22547904260747 442.9426391904071 -115.57084445388368 0.0 0.0
859.5981848152959 86.90900636278984 469.6784219202675 -112.60692804208124 0.0 0.0
900.7844371208874 99.8128788259763 497.1437669423165 -108.32848953654423 0.0 0.0
940.327334397981 112.26934920500094 523.4588261140897 -102.34661446608354 0.0 0.0
978.2205785757188 124.34042453139915 548.6537504763226 -94.14036133242301 0.0 0.0
1018.5364919283422 139.04265226583158 576.1518921198694 -79.00718796079579 0.0 0.0
1059.5097899303823 156.54577346438762 605.1338653901246 -50.26601336085762 0.0 0.0
1059.5097899311568 156.54577346517232 605.1338653906749 50.26601336089031 0.0 0.0
1018.5364919286226 139.0426522662273 576.1518921200948 79.0071879610288 0.0 0.0
978.2205785757227 124.34042453153222 548.6537504763145 94.14036133261374 0.0 0.0
940.3273343976435 112.26934920478826 523.4588261137656 102.34661446627419 0.0 0.0
900.7844371211906 99.81287882645236 497.1437669424106 108.32848953666053 0.0 0.0
859.5981848151274 86.9090063627485 469.67842192013745 112.60692804210859 0.0 0.0
819.3293050538812 75.22547904272234 442.9426391904126 115.57084445390478 0.0 0.0
778.2585313532013 63.189201222726766 414.9288429291967 118.26746781270863 0.0 0.0
735.5073811292071 51.388650024977935 385.001074059275 121.17242257876899 0.0 0.0
689.640858232192 39.53784485741324 351.1392879288868 124.14614083125852 0.0 0.0
639.368133844438 28.440030960601526 311.1081552108037 126.74984306756457 0.0 0.0
577.2923486351184 15.158965740070734 257.7950536191663 129.6045130696196 0.0 0.0
498.1184122204866 1.8942111439826235 192.97027889894233 135.51793484229873 0.0 0.0
400.2556161689364 -7.3551661845751735 130.59786496541037 145.32799436371468 0.0 0.0
299.1478192841914 -6.5025375286274105 89.09137058975998 149.00398964362944 0.0 0.0
219.70530996735536 1.794921227401634 66.45879396291485 141.4550427684602 0.0 0.0
150.5443820910322 13.845910389948818 49.31708774429429 132.3429326611823 0.0 0.0
77.83574895990736 13.427991122314168 27.37912202466645 135.0444881308464 0.0 0.0
11.124959678818428 -39.4931591656523 -8.510459846050159 161.0330356339195 0.0 0.0
-0.05445527050090959 -420.3040933711792 -158.72034044349087 156.77983576164263 0.0 0.0
3.3930970200973647 -376.99595838781545 -128.52679829281348 -153.37903435542592 0.0 0.0
-4.945324190943831 -44.64816207567127 -14.878017185744516 -171.409545121664 0.0 0.0
41.66242532484585 9.332395933716079 15.298446377568578 -151.8328150725471 0.0 0.0
99.46221488039461 15.149515048048961 34.38186221578592 -148.40713793566576 0.0 0.0
155.06364570258683 4.379169554214499 47.82843214751983 -157.66027836091706 0.0 0.0
216.49305432858958 -3.1315726139249698 64.60810039145157 -168.54492157572014 0.0 0.0
301.3412593549425 -4.84637733879584 93.36123377429392 -172.37628609994613 0.0 0.0
405.77330393573857 -0.4490777236987826 141.69410515914387 -164.1947814321289 0.0 0.0
497.20584550700994 8.632355994975097 201.2143359096711 -153.19408007771693 0.0 0.0
566.6276006406249 19.953281012884034 257.3943639488938 -145.5557478097623 0.0 0.0
619.6237195380038 28.02533580022542 300.61741079045703 -141.3389014438503 0.0 0.0
662.7394988797383 36.36568711340319 334.7322138307642 -137.4795473984628 0.0 0.0
701.778925489593 44.811468657260136 363.61564995253093 -134.22306472520899 0.0 0.0
738.0977994717512 52.64103929975937 388.7660731665461 -131.39718971692824 0.0 0.0
773.167294600232 59.72072665254064 411.6060299859544 -128.5261635201514 0.0 0.0
808.155066272574 66.60082427427864 433.4353312837692 -124.19451066595225 0.0 0.0
843.8599727571498 73.90837627985087 455.41514348010315 -117.60820515225521 0.0 0.0
874.7734702382835 77.53783875557549 473.15672129978145 -108.8463766374138 0.0 0.0
906.062577700025 79.89763919507152 490.16734012827476 -93.91539546906525 0.0 0.0
950.8449003698224 93.497963552339 518.9628470016031 -63.23263818221106 0.0 0.0
950.8449003693208 93.49796355185018 518.9628470012407 63.232638182320315 0.0 0.0
906.0625776996 79.8976391947499 490.1673401280077 93.91539546933765 0.0 0.0
874.7734702386342 77.53783875613072 473.156721300042 108.84637663770118 0.0 0.0
843.8599727571653 73.90837628006116 455.41514348009247 117.60820515246641 0.0 0.0
808.1550662723687 66.60082427412763 433.43533128357404 124.194510665925 0.0 0.0
773.1672946001519 59.720726652538275 411.6060299858126 128.52616352016787 0.0 0.0
738.0977994718 52.64103930004839 388.76607316657214 131.39718971705184 0.0 0.0
701.7789254894828 44.811468657310954 363.61564995243884 134.2230647253109 0.0 0.0
662.7394988794825 36.36568711330747 334.7322138305196 137.479547398465 0.0 0.0
619.6237195378199 28.02533580028885 300.6174107902862 141.3389014438483 0.0 0.0
566.627600640499 19.95328101297917 257.3943639487095 145.5557478097078 0.0 0.0
497.20584550706377 8.632355995452794 201.21433590966032 153.1940800777449 0.0 0.0
405.7733039351869 -0.4490777239372399 141.69410515878906 164.19478143207914 0.0 0.0
301.34125935435725 -4.84637733908752 93.361233774012 172.37628609983474 0.0 0.0
216.49305432830104 -3.1315726140873794 64.60810039131268 168.5449215755608 0.0 0.0
155.0636457024395 4.3791695541718125 47.82843214746694 157.66027836079968 0.0 0.0
99.46221488037821 15.149515048118097 34.381862215802556 148.40713793548463 0.0 0.0
41.66242532486507 9.332395933846318 15.298446377613413 151.8328150724062 0.0 0.0
-4.945324191041924 -44.648162075663826 -14.878017185771839 171.40954512157305 0.0 0.0
3.3930970200886783 -376.995958387544 -128.5267982926423 153.37903435528813 0.0 0.0
-0.9660688722809958 -330.68292245620887 -105.49994458870626 -147.72125668720759 0.0 0.0
-22.38266806441743 -50.331081181080165 -21.812884484131214 -177.7234248392566 0.0 0.0
8.301049209138725 6.846663749444327 4.544018045717937 -164.1433492949534 0.0 0.0
49.89706475967278 15.932357729505243 19.747713023252974 -160.93776558350928 0.0 0.0
89.45986664536233 7.789435360608316 29.182659395879597 -169.49991312452698 0.0 0.0
130.4317678085934 -0.18620747879795907 39.33078873094081 -183.54494801871212 0.0 0.0
184.65731046354867 -2.290456782300534 56.35993250863047 -192.91546225382496 0.0 0.0
267.043731328044 0.5593556918697313 86.23604636243465 -192.20096943694028 0.0 0.0
367.52936834293655 4.401452765843528 129.70313748300353 -182.2768610433671 0.0 0.0
451.3258958157805 10.036942360799504 178.78111121328783 -168.50404897919623 0.0 0.0
511.8782370131423 16.554317637947243 223.55993496769992 -159.60551001762312 0.0 0.0
556.2513740385848 20.78429791503111 258.81438042925123 -154.30398164140956 0.0 0.0
593.2697129700834 26.02436895534153 288.8007518104021 -150.236233446228 0.0 0.0
625.6646666982049 30.351731361460054 313.8676663044834 -147.02703503727497 0.0 0.0
655.1737521385908 32.91467873499687 334.63758398901734 -144.09071290725166 0.0 0.0
683.9057096948075 33.77864407714925 352.41405198469425 -140.13466326438396 0.0 0.0
715.4557415267428 34.61523547233516 369.96934633385126 -133.398865071207 0.0 0.0
747.5318704530738 34.5278931294296 386.88759294743414 -123.22472870115548 0.0 0.0
766.9740741822144 19.45162076241769 390.29929325271513 -109.10749610058772 0.0 0.0
811.6407229347761 20.437297526558282 412.4807641553178 -80.69360128712822 0.0 0.0
811.6407229349286 20.437297526781663 412.48076415540845 80.69360128735056 0.0 0.0
766.9740741814787 19.451620761903968 390.2992932522883 109.10749610103151 0.0 0.0
747.5318704523952 34.527893128789 386.88759294693017 123.22472870139254 0.0 0.0
715.4557415268395 34.61523547276073 369.96934633392743 133.3988650715114 0.0 0.0
683.905709694084 33.77864407639352 352.4140519841713 140.13466326432018 0.0 0.0
655.173752138175 32.91467873452606 334.63758398870283 144.09071290714712 0.0 0.0
625.6646666981849 30.351731361578373 313.86766630447687 147.02703503733633 0.0 0.0
593.2697129696635 26.024368955069676 288.80075181012364 150.23623344630255 0.0 0.0
556.2513740377308 20.784297914086885 258.81438042858736 154.30398164128982 0.0 0.0
511.8782370126921 16.55431763755231 223.5599349673027 159.60551001752475 0.0 0.0
451.32589581502305 10.036942360128428 178.78111121276635 168.50404897909408 0.0 0.0
367.5293683421862 4.4014527651112125 129.7031374824876 182.27686104327623 0.0 0.0
267.0437313273353 0.5593556912076032 86.23604636199435 192.20096943688665 0.0 0.0
184.6573104634167 -2.2904567819901587 56.35993250867413 192.9154622537138 0.0 0.0
130.43176780856294 -0.1862074787060255 39.33078873095566 183.54494801844413 0.0 0.0
89.45986664532357 7.789435360724603 29.18265939590614 169.49991312425834 0.0 0.0
49.897064759609876 15.932357729418376 19.747713023208448 160.93776558330472 0.0 0.0
8.301049209202764 6.8466637495937 4.54401804578208 164.14334929476894 0.0 0.0
-22.38266806450685 -50.33108118108109 -21.812884484158836 177.72342483912757 0.0 0.0
-0.9660688723930306 -330.68292245593824 -105.49994458861329 147.72125668707605 0.0 0.0
-10.094466279256398 -282.95951216011207 -88.72669836709468 -138.52980632278303 0.0 0.0
-39.095432581718285 -55.125160109445886 -28.26342956729386 -181.2058955979927 0.0 0.0
-23.04883622651508 5.317522630628374 -5.319241453859188 -172.32229126372638 0.0 0.0
1.917188375974996 16.499441031011273 5.524759116226876 -169.35774928651657 0.0 0.0
23.851933416852685 11.169613886353787 10.504589620526886 -176.91764467407688 0.0 0.0
41.92514149561723 3.77469852336662 13.796957661284347 -191.30353244075403 0.0 0.0
61.692107439993435 0.056100535056359035 19.039812990268256 -204.39697537758593 0.0 0.0
90.43709339979013 0.10107373241392459 28.58399048912785 -210.7526813878657 0.0 0.0
133.82143545016163 2.315743148764934 44.13639309628704 -205.24127966664523 0.0 0.0
190.30323366307763 4.175609398362166 64.74434205386808 -194.66455979928273 0.0 0.0
249.12088912081356 6.392897750646423 89.2670546313547 -181.62734636790995 0.0 0.0
296.4595480868384 7.143836652898273 113.55891890097172 -173.1249116746634 0.0 0.0
339.0555093485701 9.80483267035089 139.40716020165704 -167.78003468121034 0.0 0.0
378.4241013424858 8.997889660867102 164.18410100091546 -163.4722116470455 0.0 0.0
408.2705334132377 7.006641110560707 185.02659334838725 -159.10268479746404 0.0 0.0
437.8161227858054 1.5908295120842695 203.52348410998403 -155.25087363184048 0.0 0.0
473.7962230295486 -5.469708311045977 222.22085268309826 -149.40202981609147 0.0 0.0
519.858693702939 -10.852418584843974 245.5663512896371 -139.3120658405007 0.0 0.0
562.0168145495479 -26.723037563241462 263.13337501775163 -121.8447780572329 0.0 0.0
586.2320751777922 -77.74346347521569 251.10576942218833 -100.97347335589596 0.0 0.0
586.232075178488 -77.74346347436594 251.10576942269614 100.973473356151 0.0 0.0
562.016814549262 -26.723037563452493 263.1333750175965 121.8447780575714 0.0 0.0
519.8586937029941 -10.852418584861823 245.56635128964035 139.31206584076415 0.0 0.0
473.79622303032295 -5.469708309881497 222.2208526836988 149.40202981630165 0.0 0.0
437.81612278577063 1.590829512054711 203.5234841099377 155.25087363182257 0.0 0.0
408.2705334138114 7.006641111544766 185.02659334882082 159.10268479752222 0.0 0.0
378.4241013423854 8.997889660812106 164.18410100084196 163.47221164718232 0.0 0.0
339.05550934855114 9.80483267038948 139.4071602016164 167.7800346813699 0.0 0.0
296.4595480868114 7.1438366528979955 113.55891890093652 173.1249116746818 0.0 0.0
249.12088912063192 6.392897750388659 89.26705463118351 181.6273463678785 0.0 0.0
190.30323366284057 4.175609398004273 64.74434205367889 194.6645597991655 0.0 0.0
133.82143545004814 2.315743148733988 44.13639309623016 205.24127966666936 0.0 0.0
90.43709339986619 0.10107373281489274 28.58399048926837 210.75268138788957 0.0 0.0
61.69210743991929 0.05610053507899426 19.03981299025037 204.39697537744172 0.0 0.0
41.92514149552822 3.7746985230825 13.796957661171758 191.30353244053603 0.0 0.0
23.851933416701872 11.16961388604541 10.50458962038933 176.91764467382842 0.0 0.0
1.9171883760340993 16.499441031048214 5.52475911625573 169.35774928632665 0.0 0.0
-23.048836226437974 5.317522630770195 -5.31924145379362 172.32229126354412 0.0 0.0
-39.09543258178135 -55.125160109563566 -28.26342956734905 181.2058955977702 0.0 0.0
-10.094466279380985 -282.95951215988663 -88.72669836706805 138.52980632267898 0.0 0.0
-20.00089775271685 -236.7979046056775 -77.02923342423375 -127.17492850408335 0.0 0.0
-52.93613586639995 -56.352002694930846 -32.784206639509335 -180.83275105650424 0.0 0.0
-52.68205210603301 3.844370043831534 -14.65077680505562 -176.59701320337217 0.0 0.0
-44.47519832214843 16.92292677099526 -8.265103831627716 -173.4407440649643 0.0 0.0
-41.150412106403394 14.228422184033459 -8.07201520032746 -179.21670873023893 0.0 0.0
-46.95859254796857 7.885287536714442 -11.810133946402374 -192.25931189924052 0.0 0.0
-62.87818217157073 2.8548223698938218 -18.528547526823218 -204.513751195937 0.0 0.0
-90.4350806627636 0.324115221102681 -28.456194877131985 -210.85881524071027 0.0 0.0
-133.54550975151324 -2.3048905284949104 -44.041362457838375 -205.25003339397279 0.0 0.0
-190.15910184161856 -4.383063100173228 -64.76030607543629 -194.620989775236 0.0 0.0
-249.37741796353052 -5.726067433832416 -88.8484677704545 -181.61003780610312 0.0 0.0
-297.44472090295585 -6.252883498343415 -113.61127681207196 -172.81935720691146 0.0 0.0
-342.13014628841574 -8.37171782785206 -140.19978575779237 -167.30250768223934 0.0 0.0
-383.8336831380026 -10.205711537619976 -166.98655791344686 -163.10441791448818 0.0 0.0
-413.1300014937103 -16.482168426705655 -191.24546715889875 -160.23162944364148 0.0 0.0
-430.93100235657244 -26.69674193845937 -212.21127492459817 -160.2246738181494 0.0 0.0
-426.9030852091738 -39.41359523609515 -224.5577372000664 -162.02571985205557 0.0 0.0
-372.93338949416005 -40.875047727256515 -215.9689757597025 -163.66313023923112 0.0 0.0
-198.41046815979826 -35.169399602526425 -142.86102954506165 -165.20010522682392 0.0 0.0
24.64242386593085 -168.85702128233123 -61.51485106984944 -130.53055331907146 0.0 0.0
24.64242386515903 -168.8570212838029 -61.514851070499645 130.53055331942784 0.0 0.0
-198.41046816048433 -35.16939960360244 -142.8610295455754 165.20010522729459 0.0 0.0
-372.9333894943981 -40.875047727693214 -215.9689757598533 163.66313023945958 0.0 0.0
-426.90308520911174 -39.41359523632336 -224.55773720005362 162.02571985224426 0.0 0.0
-430.93100235652037 -26.69674193869251 -212.2112749245986 160.2246738181522 0.0 0.0
-413.13000149412363 -16.482168427581968 -191.24546715921898 160.23162944365134 0.0 0.0
-383.8336831374784 -10.205711537429409 -166.9865579131558 163.10441791454434 0.0 0.0
-342.1301462877608 -8.371717827443923 -140.19978575736377 167.30250768231895 0.0 0.0
-297.44472090232966 -6.252883498214565 -113.61127681174449 172.8193572069286 0.0 0.0
-249.37741796319474 -5.726067434383534 -88.84846777044044 181.61003780613245 0.0 0.0
-190.15910184114594 -4.3830631005364005 -64.7603060753792 194.62098977511215 0.0 0.0
-133.5455097512795 -2.3048905289325337 -44.041362457884304 205.25003339401084 0.0 0.0
-90.43508066263335 0.3241152209046003 -28.45619487714741 210.8588152407204 0.0 0.0
-62.878182171192165 2.85482237043818 -18.52854752653877 204.51375119576966 0.0 0.0
-46.95859254772387 7.885287536895686 -11.810133946273206 192.2593118989962 0.0 0.0
-41.15041210623602 14.228422184245254 -8.072015200213968 179.21670873004115 0.0 0.0
-44.475198322062056 16.922926771042526 -8.265103831587886 173.44074406482184 0.0 0.0
-52.68205210591319 3.8443700439415105 -14.650776804987062 176.59701320314684 0.0 0.0
-52.93613586632548 -56.352002694764096 -32.784206639438324 180.83275105632936 0.0 0.0
-20.000897752748376 -236.79790460548193 -77.02923342418788 127.17492850390263 0.0 0.0
-24.227066135051533 -192.85363755543128 -65.12421110714484 -114.46910651670098 0.0 0.0
-64.36770911546945 -54.732890690038474 -35.729825226225685 -176.58695513499916 0.0 0.0
-80.38695327400865 2.600357013441265 -23.336088283744825 -176.71362213535986 0.0 0.0
-89.34094689675328 16.96233069446844 -21.707851830237765 -173.1704776972777 0.0 0.0
-104.76698722922885 16.698364366653877 -26.442176952748326 -176.1853705164766 0.0 0.0
-134.52678283352662 11.199084619619079 -37.38905534160031 -185.86135841694465 0.0 0.0
-185.60663716087305 5.120795538708194 -55.820541658053756 -193.8458662688715 0.0 0.0
-266.9395255635375 -0.19543081442777677 -86.11013742163676 -192.39197004308255 0.0 0.0
-367.2765392839352 -4.474689872096818 -129.62679974110634 -182.29616698080665 0.0 0.0
-451.1539628942906 -9.98754043470693 -178.6678484050935 -168.45251011521353 0.0 0.0
-511.5896373840611 -16.098729729459876 -223.2761482040311 -159.4594243875594 0.0 0.0
-556.102052493695 -19.838928475197406 -258.42279883348056 -153.89288105396454 0.0 0.0
-593.7030044251401 -24.85204000954738 -288.549002159927 -149.31632930541667 0.0 0.0
-628.337665942733 -31.461791777563704 -315.5700489555338 -146.20350234488077 0.0 0.0
-661.617733112237 -41.21490196758859 -341.4144789780936 -145.36772897912874 0.0 0.0
-692.4084587841528 -54.816869336143895 -366.356834672269 -147.5039080177384 0.0 0.0
-717.6385546175502 -71.90554784892149 -389.5705286484272 -153.5505290319836 0.0 0.0
-731.8215005001659 -89.26561850072147 -407.47614100106 -163.29854033697353 0.0 0.0
-768.5074404766599 -144.2118574118132 -453.03712861073103 -172.67851882805152 0.0 0.0
-745.4748796122362 -211.88142019070347 -473.59705109714423 -184.47055712614087 0.0 0.0
-745.4748796122756 -211.88142019068565 -473.5970510971798 184.47055712630697 0.0 0.0
-768.5074404773197 -144.2118574128885 -453.0371286112659 172.6785188285313 0.0 0.0
-731.821500500271 -89.26561850121081 -407.4761410012118 163.29854033729032 0.0 0.0
-717.6385546172623 -71.90554784874917 -389.57052864821435 153.55052903208212 0.0 0.0
-692.408458784234 -54.81686933644485 -366.35683467234435 147.50390801780713 0.0 0.0
-661.6177331117407 -41.21490196719141 -341.4144789777523 145.36772897911095 0.0 0.0
-628.3376659419637 -31.461791776769317 -315.5700489549804 146.20350234481646 0.0 0.0
-593.703004425123 -24.852040009707153 -288.5490021599023 149.31632930542247 0.0 0.0
-556.1020524937535 -19.838928475637537 -258.4227988335087 153.8928810539934 0.0 0.0
-511.58963738369346 -16.098729729441107 -223.2761482037376 159.45942438754477 0.0 0.0
-451.15396289375394 -9.987540434537149 -178.66784840468966 168.452510115116 0.0 0.0
-367.27653928295257 -4.474689871449135 -129.62679974052992 182.2961669808427 0.0 0.0
-266.93952556276713 -0.19543081401633078 -86.1101374212503 192.39197004311262 0.0 0.0
-185.6066371604065 5.1207955389317386 -55.820541657834845 193.84586626878718 0.0 0.0
-134.5267828331894 11.199084619687726 -37.38905534147885 185.86135841679072 0.0 0.0
-104.76698722905532 16.698364366786592 -26.442176952659043 176.1853705162331 0.0 0.0
-89.340946896637 16.96233069445403 -21.707851830207787 173.1704776970817 0.0 0.0
-80.38695327396528 2.6003570133251412 -23.33608828376921 176.71362213517543 0.0 0.0
-64.36770911542462 -54.732890690013434 -35.72982522620537 176.5869551348791 0.0 0.0
-24.22706613499896 -192.85363755520896 -65.12421110706237 114.46910651660062 0.0 0.0
-25.51213515313383 -152.09431715007386 -53.2819356909623 -101.25926226366049 0.0 0.0
-73.89462947628499 -50.6247198268766 -37.35542193534828 -168.28624931935124 0.0 0.0
-106.31434488562536 1.5823180469478348 -31.416657910984796 -172.62293510847002 0.0 0.0
-132.46471195781322 16.64436592376108 -34.735332226010655 -168.37678106722845 0.0 0.0
-166.7989609163914 18.034683923043158 -44.7210149220396 -168.2672360932441 0.0 0.0
-219.3718181508424 13.110800917722765 -62.64110686389218 -172.39714942391734 0.0 0.0
-301.5856878244301 7.490605578546364 -92.76507283318655 -173.48537342672702 0.0 0.0
-405.39554864781985 0.6424656368959738 -141.53294495065353 -164.52331687551893 0.0 0.0
-497.0924645585376 -8.679352856142824 -201.14982670319546 -153.15702246444857 0.0 0.0
-566.5683508334462 -19.92439036414661 -257.3538038479036 -145.50129599097173 0.0 0.0
-619.4472607336647 -27.711315310615632 -300.43556485208734 -141.2169448340433 0.0 0.0
-662.4771103630162 -35.58150440508258 -334.2966163640679 -137.0391132258145 0.0 0.0
-701.8329862471239 -43.73338403186871 -363.1236526648569 -133.12127736035728 0.0 0.0
-739.8764047173902 -53.18006733236818 -389.76531248049577 -130.078114667755 0.0 0.0
-778.5132101247334 -65.92314967941319 -417.0189994983631 -129.16758367343976 0.0 0.0
-817.0060571827937 -83.28681027801301 -445.79084630683843 -131.63503358499315 0.0 0.0
-853.0390375127909 -104.62187336260597 -475.1648154056121 -138.32133214585525 0.0 0.0
-894.1273117426158 -139.0259127324566 -513.5475431340903 -146.18826020009217 0.0 0.0
-938.8260280768333 -190.34621346268145 -562.1338722172516 -153.87182091926752 0.0 0.0
-1008.4309574395263 -305.63251173122114 -651.4138168485897 -164.92060152366824 0.0 0.0
-1008.4309574391348 -305.63251173089157 -651.4138168484245 164.92060152376393 0.0 0.0
-938.826028075549 -190.34621346137223 -562.1338722164205 153.8718209193393 0.0 0.0
-894.1273117414028 -139.02591273115476 -513.5475431331878 146.18826020013793 0.0 0.0
-853.0390375126829 -104.62187336268585 -475.1648154054995 138.32133214605255 0.0 0.0
-817.006057182926 -83.28681027840162 -445.7908463069434 131.63503358511795 0.0 0.0
-778.5132101246551 -65.92314967940555 -417.01899949828214 129.1675836733982 0.0 0.0
-739.8764047165262 -53.18006733159489 -389.765312479876 130.07811466773714 0.0 0.0
-701.8329862462556 -43.73338403112173 -363.1236526642153 133.12127736034228 0.0 0.0
-662.4771103630137 -35.58150440536124 -334.2966163639993 137.039113225847 0.0 0.0
-619.4472607334976 -27.711315310780797 -300.4355648519148 141.21694483409954 0.0 0.0
-566.5683508331375 -19.92439036417513 -257.3538038476435 145.50129599093162 0.0 0.0
-497.09246455832925 -8.679352856475042 -201.14982670303027 153.15702246454137 0.0 0.0
-405.3955486474516 0.6424656365474215 -141.5329449504997 164.52331687564032 0.0 0.0
-301.58568782395145 7.490605578337937 -92.76507283307518 173.48537342665546 0.0 0.0
-219.37181815034353 13.110800917926113 -62.64110686368536 172.39714942370796 0.0 0.0
-166.79896091630667 18.034683922843563 -44.72101492207736 168.2672360930916 0.0 0.0
-132.4647119576326 16.644365923698672 -34.73533222597621 168.37678106708398 0.0 0.0
-106.3143448855083 1.5823180470182319 -31.41665791092938 172.62293510833203 0.0 0.0
-73.89462947618632 -50.62471982680429 -37.35542193529722 168.28624931920274 0.0 0.0
-25.512135153153373 -152.09431714998425 -53.28193569094128 101.2592622634854 0.0 0.0
-26.130938029896544 -115.1450525796663 -42.38279718286884 -87.8158979212007 0.0 0.0
-82.28661592304952 -44.553771684161596 -38.05211628216333 -156.11328123728606 0.0 0.0
-130.57379816785112 0.9054659881181362 -38.89770772148317 -164.23059412090532 0.0 0.0
-173.91326840381163 15.607384211003748 -47.48611646968624 -159.2382333235852 0.0 0.0
-226.41380881683787 18.02678466009492 -62.64584154489678 -155.09372516128036 0.0 0.0
-299.42901840539344 14.808990188246456 -87.23942378373629 -153.60053406199833 0.0 0.0
-399.374509579256 9.633511554606052 -129.79654414585337 -146.87307487271093 0.0 0.0
-497.7980926965806 -1.77063484411563 -192.76820551281457 -135.70034184210294 0.0 0.0
-577.3194769334983 -15.254202884485007 -257.8132979544436 -129.52242101841227 0.0 0.0
-639.3495866188161 -28.438641393787513 -311.1148227227035 -126.70541129806048 0.0 0.0
-689.5285102208863 -39.32315706936954 -351.0143191715022 -124.05290592535323 0.0 0.0
-735.336726758772 -50.8677185982797 -384.6997609150984 -120.74585274387003 0.0 0.0
-778.1725976860314 -62.290974652023266 -414.4396549866875 -117.09206165358545 0.0 0.0
-820.0508626112872 -74.95846023520195 -443.08549776951895 -113.9359454266469 0.0 0.0
-862.5544597223208 -90.22641976840794 -472.6364812669418 -112.76670632481319 0.0 0.0
-907.5566011646827 -111.47608575036331 -506.0727437637579 -115.12506712935556 0.0 0.0
-956.5909104597558 -142.17637923862293 -546.130288273683 -121.007782898361 0.0 0.0
-1011.5388045910306 -186.1434407278868 -595.9937209998209 -127.87943729974882 0.0 0.0
-1077.7117102190443 -253.75258514839976 -662.9527018012486 -132.99660255882307 0.0 0.0
-1161.0220371235766 -372.868049327495 -762.47827570925 -142.31986974657931 0.0 0.0
-1161.0220371230819 -372.868049327057 -762.478275708941 142.31986974668027 0.0 0.0
-1077.7117102177695 -253.75258514713974 -662.9527018003967 132.99660255894253 0.0 0.0
-1011.538804590275 -186.14344072718828 -595.993720999312 127.87943729981976 0.0 0.0
-956.5909104591001 -142.1763792380969 -546.1302882732057 121.00778289851368 0.0 0.0
-907.5566011649302 -111.47608575080643 -506.0727437638915 115.12506712946957 0.0 0.0
-862.55445972214 -90.22641976831548 -472.6364812668044 112.7667063247907 0.0 0.0
-820.0508626111541 -74.95846023515163 -443.0854977694172 113.93594542656948 0.0 0.0
-778.1725976862672 -62.290974652449215 -414.43965498686606 117.09206165362544 0.0 0.0
-735.3367267582609 -50.86771859790883 -384.6997609147316 120.74585274378921 0.0 0.0
-689.5285102201872 -39.32315706884687 -351.01431917099035 124.05290592527568 0.0 0.0
-639.3495866188097 -28.43864139411891 -311.1148227226215 126.70541129808475 0.0 0.0
-577.3194769331928 -15.254202884575879 -257.8132979541582 129.52242101846358 0.0 0.0
-497.79809269569273 -1.770634843539166 -192.76820551216966 135.70034184209453 0.0 0.0
-399.37450957847204 9.633511554960853 -129.79654414542054 146.87307487271153 0.0 0.0
-299.42901840491004 14.80899018832564 -87.23942378355986 153.60053406185128 0.0 0.0
-226.4138088165486 18.026784660078263 -62.64584154481892 155.09372516116312 0.0 0.0
-173.91326840359258 15.607384211073684 -47.48611646960399 159.23823332341416 0.0 0.0
-130.5737981676818 0.9054659882723075 -38.89770772138689 164.230594120736 0.0 0.0
-82.28661592297132 -44.55377168410368 -38.0521162821225 156.1132812370875 0.0 0.0
-26.130938029866787 -115.1450525795933 -42.38279718283802 87.8158979210961 0.0 0.0
-26.753638843648993 -82.47776364570716 -32.769420746806844 -74.0858351397943 0.0 0.0
-90.10300907803375 -37.14920299657915 -38.175663622383865 -140.48449427617822 0.0 0.0
-153.38553353280986 0.5995883327977394 -45.83455130398899 -151.61685431558914 0.0 0.0
-213.78353420057473 13.871173192915396 -59.95214870186372 -145.66772535082788 0.0 0.0
-283.55449337078994 17.33640041915103 -79.9244675960463 -138.03141794692667 0.0 0.0
-372.97369553254913 16.51829755659461 -111.96219430887638 -130.08211155281907 0.0 0.0
-474.82350120431 8.80652402664202 -167.23594146965758 -118.25998643019095 0.0 0.0
-563.3265198663546 -5.726193913815557 -237.57552742744252 -110.72394372890739 0.0 0.0
-633.8536905389699 -21.154698343818886 -300.5549828200256 -109.24388948870545 0.0 0.0
-692.3493735484009 -35.851951556277434 -349.3869274630272 -108.71828180575066 0.0 0.0
-744.6154686931552 -50.5268424787891 -388.99248548128776 -106.97640203995161 0.0 0.0
-793.5887981480722 -65.69338220265905 -423.9885557647599 -104.11468709132731 0.0 0.0
-840.3689485413546 -81.0373340543113 -456.49244383481584 -100.81136022623244 0.0 0.0
-885.9809973643069 -96.683245948424 -487.8952530808974 -97.7846595762127 0.0 0.0
-932.5472447833625 -114.61893608698028 -520.5184538275217 -96.30118661019107 0.0 0.0
-983.7221063808245 -140.48820722273354 -559.112349721948 -97.772485845277 0.0 0.0
-1044.2587797938215 -179.73952644451376 -609.0068769380132 -102.71925037188453 0.0 0.0
-1114.6406461319825 -236.5665863737319 -672.7533414747375 -108.54816733383524 0.0 0.0
-1194.5922956712677 -316.6802332708877 -752.8283467329297 -113.17238883027 0.0 0.0
-1274.348476008895 -430.3862535936627 -848.7503760448064 -125.4703589437443 0.0 0.0
-1274.348476009109 -430.38625359397736 -848.7503760449358 125.47035894395239 0.0 0.0
-1194.5922956718543 -316.68023327165133 -752.8283467332824 113.17238883057541 0.0 0.0
-1114.6406461330353 -236.56658637496056 -672.7533414754555 108.54816733405707 0.0 0.0
-1044.2587797938381 -179.73952644462994 -609.0068769380326 102.71925037188763 0.0 0.0
-983.7221063804238 -140.48820722240646 -559.1123497215663 97.77248584526976 0.0 0.0
-932.5472447830439 -114.61893608682018 -520.5184538272315 96.30118661030457 0.0 0.0
-885.9809973637059 -96.68324594795595 -487.89525308044324 97.78465957623116 0.0 0.0
-840.3689485407621 -81.03733405388533 -456.49244383434575 100.81136022623579 0.0 0.0
-793.5887981482725 -65.69338220308124 -423.98855576486477 104.11468709135427 0.0 0.0
-744.6154686931438 -50.52684247902178 -388.9924854812732 106.97640203993154 0.0 0.0
-692.3493735479749 -35.85195155608467 -349.38692746272056 108.7182818056921 0.0 0.0
-633.853690539187 -21.15469834443264 -300.5549828200962 109.24388948878797 0.0 0.0
-563.3265198661097 -5.726193914008365 -237.57552742720353 110.72394372896775 0.0 0.0
-474.8235012037305 8.806524026836959 -167.23594146923844 118.25998643013298 0.0 0.0
-372.9736955322304 16.51829755636879 -111.96219430879941 130.08211155273682 0.0 0.0
-283.55449337059633 17.33640041876034 -79.92446759611295 138.0314179469061 0.0 0.0
-213.7835342005043 13.87117319269181 -59.95214870191181 145.66772535073488 0.0 0.0
-153.38553353275046 0.5995883325519635 -45.834551304045476 151.61685431553803 0.0 0.0
-90.10300907800064 -37.14920299664426 -38.17566362239347 140.484494276048 0.0 0.0
-26.75363884358628 -82.47776364561776 -32.76942074676121 74.08583513966406 0.0 0.0
-27.464163647881044 -54.52388497240274 -24.59641458608513 -59.941359223564675 0.0 0.0
-97.44546876654424 -28.97225039277592 -37.925315747796034 -121.7965518416481 0.0 0.0
-174.98688830221897 0.5896199103533908 -52.31918051755968 -134.89763964117043 0.0 0.0
-251.75735280621979 11.153550476191059 -72.17064929490488 -127.7490922742789 0.0 0.0
-335.9872311343132 17.0337684150221 -96.3518125285797 -117.13252337999208 0.0 0.0
-437.07918208345325 16.641030734554903 -137.80065546083432 -103.85292286316647 0.0 0.0
-532.9151344330019 6.437020008858937 -203.14059695257947 -91.76347542718594 0.0 0.0
-610.9250814825076 -10.020696863641483 -274.57315803108827 -88.92361641074751 0.0 0.0
-676.3367388876156 -25.651326241068475 -332.2587324967687 -90.09933987100327 0.0 0.0
-735.5529496830313 -43.0090193755495 -379.28130016883085 -90.5629198809916 0.0 0.0
-790.814336322281 -61.40108840384618 -420.0388969479328 -89.40026670506911 0.0 0.0
-843.3544053227733 -80.34816304381332 -457.5486886068628 -86.99437727508689 0.0 0.0
-894.3863959934101 -99.58595178123755 -493.5709018147751 -84.25349560830551 0.0 0.0
-943.8355405635064 -118.94494404774832 -528.4850957591404 -81.51204389320998 0.0 0.0
-994.0027833360253 -139.73414255248488 -564.2148813458547 -79.61394626860712 0.0 0.0
-1051.221793620063 -169.36835209198046 -607.6252579449223 -79.90722480894122 0.0 0.0
-1121.4171551810025 -216.98714143200817 -666.3708890935834 -83.39209380170426 0.0 0.0
-1205.7530959557673 -286.6394337682224 -743.3393873612426 -88.86037951129889 0.0 0.0
-1294.753490229707 -375.59430661274376 -832.407251568722 -95.35806446965793 0.0 0.0
-1372.5616175989098 -486.1346726570989 -926.3218607901342 -112.58719371808817 0.0 0.0
-1372.561617599446 -486.13467265771607 -926.3218607906234 112.58719371824606 0.0 0.0
-1294.753490230648 -375.59430661380895 -832.4072515694752 95.35806446988687 0.0 0.0
-1205.753095956241 -286.6394337688258 -743.3393873615523 88.86037951147932 0.0 0.0
-1121.417155180735 -216.98714143185364 -666.3708890932446 83.39209380180797 0.0 0.0
-1051.2217936197408 -169.36835209177687 -607.6252579446725 79.90722480901051 0.0 0.0
-994.0027833358374 -139.73414255242716 -564.2148813456861 79.61394626865845 0.0 0.0
-943.8355405637963 -118.94494404819353 -528.4850957593 81.51204389323763 0.0 0.0
-894.3863959933894 -99.58595178139547 -493.57090181474456 84.25349560834772 0.0 0.0
-843.3544053218661 -80.34816304309467 -457.5486886062315 86.99437727508467 0.0 0.0
-790.8143363215546 -61.40108840330923 -420.038896947397 89.40026670500727 0.0 0.0
-735.5529496823301 -43.00901937508277 -379.2813001683124 90.5629198809509 0.0 0.0
-676.336738887164 -25.651326240845624 -332.25873249635066 90.09933987092197 0.0 0.0
-610.9250814823863 -10.020696863887883 -274.5731580308864 88.9236164107892 0.0 0.0
-532.9151344327614 6.437020008667531 -203.14059695231308 91.76347542715669 0.0 0.0
-437.079182083151 16.641030734401305 -137.8006554606775 103.8529228630851 0.0 0.0
-335.9872311338703 17.033768415038292 -96.35181252845587 117.13252337988078 0.0 0.0
-251.75735280589157 11.1535504764569 -72.17064929472865 127.7490922742291 0.0 0.0
-174.98688830198788 0.5896199104158466 -52.3191805174716 134.8976396411427 0.0 0.0
-97.44546876653648 -28.9722503928397 -37.92531574781285 121.79655184154561 0.0 0.0
-27.46416364785809 -54.52388497230292 -24.596414586048304 59.94135922346219 0.0 0.0
-27.992898870492112 -31.689900563423315 -17.904839830174627 -45.31575183576975 0.0 0.0
-103.97665280912007 -20.523982210708972 -37.35019050594871 -100.38673117757507 0.0 0.0
-195.49349612981092 0.7235644869726876 -58.43097949285147 -114.04289792091507 0.0 0.0
-288.3948466367451 7.726439169366569 -84.20257822610978 -106.126362637136 0.0 0.0
-387.3324846623899 17.017856616014303 -112.90363952089182 -93.08259104537555 0.0 0.0
-489.3067073670778 15.729369020965883 -164.03024698519764 -76.93125144506327 0.0 0.0
-574.1671780227321 2.1326805884346953 -235.94635758982344 -68.25407226641934 0.0 0.0
-646.4314029172608 -12.454380566344241 -302.7686135802689 -69.04029675299489 0.0 0.0
-711.3358636319949 -29.769578809556577 -357.29001816039545 -70.97938054344766 0.0 0.0
-772.2846233853791 -50.112615020074436 -403.99409098229364 -71.92727925208072 0.0 0.0
-830.5651273361584 -71.89433634572288 -446.5763465649999 -71.22619596763035 0.0 0.0
-887.1564110640552 -94.7345375916259 -487.42234390989483 -69.36913260232973 0.0 0.0
-942.297672198288 -118.0198999269596 -527.2158414393039 -67.19966856424901 0.0 0.0
-996.8740920935793 -141.7848865241461 -566.7539811346521 -65.04768758357048 0.0 0.0
-1051.38659657766 -166.3513203053488 -606.4987701077249 -62.92139481379453 0.0 0.0
-1111.2066334861374 -198.3164737595595 -652.3584045973962 -61.61023579638331 0.0 0.0
-1188.9210912757821 -251.76401122971274 -717.65328928606 -63.37614531063671 0.0 0.0
-1285.3947880257938 -332.3898875466668 -806.046439348075 -69.12086559091661 0.0 0.0
-1385.1694963257175 -431.8734126204165 -905.7923666323459 -78.99487047735573 0.0 0.0
-1465.5703958492063 -544.1142526126613 -1002.2269242573896 -101.80425363836419 0.0 0.0
-1465.5703958486683 -544.1142526121573 -1002.2269242570361 101.8042536384514 0.0 0.0
-1385.169496326315 -431.8734126210904 -905.792366632711 78.99487047750415 0.0 0.0
-1285.394788026342 -332.3898875473452 -806.0464393483263 69.1208655911328 0.0 0.0
-1188.9210912749522 -251.76401122896192 -717.65328928542 63.37614531068721 0.0 0.0
-1111.2066334853953 -198.31647375891185 -652.3584045968445 61.61023579641042 0.0 0.0
-1051.3865965770901 -166.35132030487995 -606.4987701072753 62.92139481375532 0.0 0.0
-996.8740920930113 -141.7848865237226 -566.7539811342281 65.04768758360758 0.0 0.0
-942.2976721983903 -118.01989992725679 -527.2158414393261 67.19966856432052 0.0 0.0
-887.1564110635438 -94.73453759133416 -487.4223439095408 69.36913260239568 0.0 0.0
-830.5651273352964 -71.89433634503996 -446.5763465643888 71.22619596756628 0.0 0.0
-772.2846233848959 -50.11261501985843 -403.994090981973 71.92727925211857 0.0 0.0
-711.335863631843 -29.769578809650376 -357.29001816023793 70.97938054341193 0.0 0.0
-646.4314029168686 -12.454380566297903 -302.76861357991976 69.04029675308252 0.0 0.0
-574.1671780221482 2.13268058868902 -235.94635758932887 68.25407226642142 0.0 0.0
-489.3067073665994 15.729369021074321 -164.03024698487548 76.93125144500657 0.0 0.0
-387.33248466188417 17.017856616142048 -112.90363952069252 93.0825910452728 0.0 0.0
-288.39484663645123 7.726439169370156 -84.20257822602902 106.12636263696561 0.0 0.0
-195.49349612963397 0.7235644870119224 -58.43097949278662 114.04289792072719 0.0 0.0
-103.97665280894071 -20.523982210504013 -37.35019050583342 100.38673117747258 0.0 0.0
-27.992898870477763 -31.68990056338629 -17.90483983015921 45.31575183573986 0.0 0.0
-27.698872235619344 -14.364685024499343 -12.619067178035605 -30.343442598787732 0.0 0.0
-108.79194138671127 -12.218272056755055 -36.30306403303989 -76.43404208300717 0.0 0.0
-215.07255505967868 0.5799633095598313 -64.34777752503564 -88.9616882892617 0.0 0.0
-324.39722751256113 5.019982569811928 -95.80149806618508 -81.02666798221335 0.0 0.0
-434.57656550747623 17.11935811140689 -130.05693208968572 -66.37128595176806 0.0 0.0
-530.8421417706329 12.127885882259214 -191.3528429283675 -51.850430557617955 0.0 0.0
-607.3235268683297 -1.0169203044727482 -263.98110379997394 -47.658512253769224 0.0 0.0
-675.3627704413066 -14.400661371233348 -325.0639150911553 -49.359919107737355 0.0 0.0
-740.6619599937599 -33.938077800430264 -377.66588768570693 -51.587050587437815 0.0 0.0
-803.8492907141699 -56.99811451864902 -424.968185827972 -52.74433736344176 0.0 0.0
-865.5599496581133 -82.15257565787141 -470.07071982066776 -52.44551623490406 0.0 0.0
-925.9567306300643 -108.76976729730106 -514.3381154376689 -51.143300157327914 0.0 0.0
-985.9197435251767 -136.18300800279195 -558.437248658923 -49.65339194827463 0.0 0.0
-1045.4792508594005 -164.97892280665653 -602.8730223621424 -48.08666713651655 0.0 0.0
-1105.5604309813543 -195.0579396178595 -648.1112857103504 -46.17483080071394 0.0 0.0
-1168.6227280664561 -229.48936308570833 -696.8937256381073 -43.709014102803906 0.0 0.0
-1244.259017208135 -280.0945355865166 -759.7115721887803 -43.08489146163642 0.0 0.0
-1351.8279369486304 -370.59734131541825 -858.3535308684208 -48.77405450636852 0.0 0.0
-1468.6009313099134 -485.8451932344411 -974.5033850676034 -62.894814254091436 0.0 0.0
-1561.807693713925 -608.888386419555 -1083.0398449237362 -91.88004437108525 0.0 0.0
-1561.807693714499 -608.8883864201725 -1083.0398449241009 91.88004437117544 0.0 0.0
-1468.6009313100412 -485.84519323462445 -974.5033850675661 62.89481425416393 0.0 0.0
-1351.8279369484171 -370.5973413152758 -858.3535308682845 48.77405450647434 0.0 0.0
-1244.2590172081168 -280.09453558658214 -759.7115721887996 43.084891461678396 0.0 0.0
-1168.6227280657686 -229.4893630851098 -696.8937256375916 43.709014102789794 0.0 0.0
-1105.560430980765 -195.05793961736748 -648.1112857098592 46.17483080067689 0.0 0.0
-1045.4792508591702 -164.97892280657402 -602.8730223619543 48.0866671365247 0.0 0.0
-985.9197435241058 -136.18300800184392 -558.4372486581561 49.65339194819898 0.0 0.0
-925.956730629163 -108.7697672966102 -514.3381154369808 51.14330015739353 0.0 0.0
-865.5599496578794 -82.15257565785363 -470.0707198204706 52.44551623487523 0.0 0.0
-803.849290713981 -56.998114518714125 -424.9681858278534 52.74433736345505 0.0 0.0
-740.6619599937179 -33.938077800634275 -377.66588768562946 51.58705058733614 0.0 0.0
-675.3627704414922 -14.400661371730422 -325.06391509118527 49.359919107722675 0.0 0.0
-607.3235268680901 -1.0169203045477815 -263.98110379968784 47.65851225368952 0.0 0.0
-530.8421417701143 12.127885882479239 -191.35284292796064 51.850430557572544 0.0 0.0
-434.57656550708384 17.119358111353577 -130.0569320895375 66.37128595173675 0.0 0.0
-324.3972275123534 5.019982569570999 -95.80149806620385 81.02666798217533 0.0 0.0
-215.07255505946287 0.5799633096523085 -64.34777752494317 88.9616882891827 0.0 0.0
-108.79194138659078 -12.218272056746112 -36.303064033001064 76.43404208297514 0.0 0.0
-27.698872235631217 -14.364685024582212 -12.619067178064027 30.343442598826165 0.0 0.0
-25.333877679151822 -2.863247753731374 -8.459137629864959 -15.537212622352712 0.0 0.0
-110.24706462309668 -4.598239491248291 -34.45359123430349 -49.91368160311982 0.0 0.0
-233.9186118085703 0.02767178524677938 -70.16728200699704 -59.14025771959379 0.0 0.0
-361.56781369948015 3.48251755248344 -107.38641168354246 -52.69391334617775 0.0 0.0
-474.81755191683453 17.68990480001483 -147.86640306481445 -39.41866407483101 0.0 0.0
-560.4458610857698 6.337137092702694 -218.1496162405909 -29.101872454691183 0.0 0.0
-632.8372109507444 -2.1521028441834886 -285.777169299972 -28.30166183044528 0.0 0.0
-699.4041059578378 -16.964709480693656 -343.4084380812542 -29.89020300750925 0.0 0.0
-765.2332870488332 -37.955065546002544 -394.3965878549782 -31.80297103160747 0.0 0.0
-830.9504396914365 -63.62494859168528 -442.97031879353165 -32.9510305004221 0.0 0.0
-896.2917767494839 -92.23074981422963 -491.065764931067 -33.01125407870181 0.0 0.0
-961.0846671916016 -122.38904364469155 -539.0709227251168 -32.34369243429156 0.0 0.0
-1025.4078582794818 -154.38382020786364 -587.5240987330802 -31.451410823819586 0.0 0.0
-1090.5821765373307 -188.1234974246596 -637.1607545763709 -30.53039635129801 0.0 0.0
-1157.3674444003855 -224.5821023720822 -688.8937931322047 -29.219117120989353 0.0 0.0
-1225.46019428052 -264.3025097548163 -742.8657998081361 -26.757533466431344 0.0 0.0
-1296.4496303789492 -310.28818296226666 -801.2310405579389 -23.86365928466633 0.0 0.0
-1387.3635068337899 -382.77157391720874 -882.3342557272674 -26.990535857347535 0.0 0.0
-1548.2847702976205 -539.1929628801652 -1040.8406087333824 -44.84246456777837 0.0 0.0
-1671.6189154075582 -688.9647925845318 -1178.2528270147604 -81.78353346747245 0.0 0.0
-1671.6189154072435 -688.9647925842363 -1178.2528270145733 81.78353346752903 0.0 0.0
-1548.2847702978993 -539.1929628804897 -1040.8406087335843 44.842464567837425 0.0 0.0
-1387.3635068341355 -382.7715739176289 -882.3342557274159 26.990535857474278 0.0 0.0
-1296.4496303788712 -310.28818296226973 -801.2310405576708 23.863659284640455 0.0 0.0
-1225.4601942803806 -264.30250975478043 -742.8657998078993 26.75753346650638 0.0 0.0
-1157.3674444000344 -224.58210237185844 -688.8937931318309 29.21911712099913 0.0 0.0
-1090.5821765366222 -188.12349742408645 -637.1607545757836 30.530396351319553 0.0 0.0
-1025.407858278519 -154.3838202070645 -587.5240987323853 31.45141082382174 0.0 0.0
-961.0846671908341 -122.38904364411532 -539.0709227245909 32.34369243429976 0.0 0.0
-896.291776748881 -92.23074981383621 -491.06576493061766 33.011254078649486 0.0 0.0
-830.9504396906192 -63.624948591098416 -442.9703187929176 32.95103050040244 0.0 0.0
-765.2332870476198 -37.95506554500514 -394.3965878541342 31.802971031580693 0.0 0.0
-699.4041059569056 -16.964709480024563 -343.40843808057434 29.890203007595595 0.0 0.0
-632.8372109504797 -2.152102844259879 -285.7771692996746 28.301661830521624 0.0 0.0
-560.4458610856054 6.3371370924856265 -218.14961624037798 29.101872454734877 0.0 0.0
-474.81755191634016 17.68990480019501 -147.86640306453464 39.418664074823425 0.0 0.0
-361.56781369907907 3.482517552631397 -107.38641168338887 52.693913346146175 0.0 0.0
-233.91861180831862 0.02767178531803971 -70.16728200690017 59.14025771963222 0.0 0.0
-110.24706462299312 -4.598239491191711 -34.45359123425545 49.91368160312622 0.0 0.0
-25.33387767915329 -2.8632477537525913 -8.459137629871764 15.537212622284391 0.0 0.0
-18.497144222082788 2.6139927645795473 -4.764945437250972 -2.1158001867151484 0.0 0.0
-105.54076603598796 1.645465256380346 -31.168590233882284 -20.34282917247439 0.0 0.0
-252.76753248551495 -1.3785520355695375 -76.24382535632533 -23.473554006121244 0.0 0.0
-401.1102107367891 4.8505897046019815 -119.17140151857643 -21.412293436331414 0.0 0.0
-510.2180257155159 15.395821525612192 -168.27664424153312 -13.6363548393951 0.0 0.0
-587.3875247062095 3.0666348112034214 -241.9027228585508 -9.336783205042984 0.0 0.0
-653.41625124102 -3.754010234043541 -303.72605674760865 -9.43847757477625 0.0 0.0
-719.2068339079887 -19.56303444068005 -358.24389960927033 -10.397257515203593 0.0 0.0
-786.0397768465748 -42.06773061787216 -408.53726075190053 -11.637540601776035 0.0 0.0
-854.3529711287563 -70.09131722301437 -458.7064551759824 -12.53335802460277 0.0 0.0
-923.3607439949901 -101.70287631352362 -509.76166731559067 -12.92208431101672 0.0 0.0
-992.3405277853915 -136.27801770273473 -561.9111528735416 -12.852543597406342 0.0 0.0
-1061.6262841643143 -172.3400187163661 -614.8037597172532 -12.654602627077143 0.0 0.0
-1132.3548978976542 -210.9185364352322 -669.5849698964059 -12.351387804874495 0.0 0.0
-1205.6615353238165 -253.6704059121924 -727.6856340018908 -11.719196566845445 0.0 0.0
-1280.7736637168948 -300.67218427535255 -788.7776248173236 -10.348147937025827 0.0 0.0
-1353.602809699098 -349.21638752758787 -849.4531956707452 -7.667436585645222 0.0 0.0
-1422.6679466016953 -399.73238121332463 -908.9846918991993 -6.004198879107251 0.0 0.0
-1520.9813711555262 -489.3361835290408 -1002.1236047547706 -20.120209904067824 0.0 0.0
-1866.4663924013175 -852.7538941372902 -1357.557686102401 -66.03056786629097 0.0 0.0
-1866.466392401356 -852.75389413735 -1357.5576861024301 66.03056786632158 0.0 0.0
-1520.9813711555407 -489.33618352909446 -1002.1236047547102 20.120209904100918 0.0 0.0
-1422.6679466020814 -399.73238121378074 -908.9846918994153 6.004198879149519 0.0 0.0
-1353.6028096990553 -349.21638752762465 -849.453195670714 7.667436585605305 0.0 0.0
-1280.7736637163594 -300.6721842749229 -788.777624816929 10.34814793702511 0.0 0.0
-1205.6615353233176 -253.67040591180347 -727.6856340014727 11.719196566796125 0.0 0.0
-1132.354897897035 -210.91853643475184 -669.584969895919 12.351387804900835 0.0 0.0
-1061.6262841637617 -172.34001871598824 -614.8037597167831 12.654602627047218 0.0 0.0
-992.3405277851837 -136.27801770273058 -561.91115287333 12.852543597421104 0.0 0.0
-923.3607439945589 -101.70287631330731 -509.76166731526195 12.922084311037175 0.0 0.0
-854.3529711283284 -70.09131722282737 -458.7064551756725 12.533358024593465 0.0 0.0
-786.0397768463713 -42.06773061792249 -408.53726075173086 11.637540601692582 0.0 0.0
-719.2068339076806 -19.563034440638543 -358.24389960902215 10.397257515207155 0.0 0.0
-653.4162512407569 -3.7540102340817008 -303.7260567473485 9.438477574782032 0.0 0.0
-587.38752470609 3.066634810999542 -241.90272285835238 9.336783205040563 0.0 0.0
-510.21802571513706 15.395821525664545 -168.27664424127684 13.636354839426746 0.0 0.0
-401.11021073643656 4.850589704431255 -119.17140151853431 21.412293436290454 0.0 0.0
-252.7675324852844 -1.378552035519526 -76.24382535624116 23.473554006112703 0.0 0.0
-105.54076603588905 1.6454652564532353 -31.168590233830738 20.342829172376174 0.0 0.0
-18.497144222091563 2.6139927645639687 -4.764945437258278 2.1158001866980682 0.0 0.0
SCALARS Strain float 6
LOOKUP_TABLE default
0.009663047355973342 -0.010738872071539063 0.0 -0.005844516782157 0.0 0.0
0.0020544276147977936 -0.0010918335059060813 0.0 0.0009998316377911876 0.0 0.0
0.0017301754605601443 -0.0007138465378416226 0.0 -6.436774772805576e-05 0.0 0.0
0.0020904191933764603 -0.0009477194801557065 0.0 -0.00017855819725282052 0.0 0.0
0.002947934701131463 -0.0015872053981292877 0.0 -0.0002123253906033129 0.0 0.0
0.0046871345658988615 -0.0030407057226784495 0.0 -0.0002967280826182417 0.0 0.0
0.007372907239134129 -0.00545430332529917 0.0 -0.0004453549422632208 0.0 0.0
0.011124847030633963 -0.008931632342376705 0.0 -0.0006609394337408758 0.0 0.0
0.01600099481891861 -0.0135277576382693 0.0 -0.0009490038268895606 0.0 0.0
0.02201889837130564 -0.019253173807543655 0.0 -0.001286551211642839 0.0 0.0
0.02922553706750987 -0.026156467082233403 0.0 -0.0016329665689126527 0.0 0.0
0.0377216594738585 -0.03433968310110669 0.0 -0.001993703054085555 0.0 0.0
0.047620140861402205 -0.0439198135787191 0.0 -0.002378016146565909 0.0 0.0
0.05899741506621053 -0.0549696920546352 0.0 -0.002787357165071197 0.0 0.0
0.07176747327083183 -0.06739762406386873 0.0 -0.0032250945793932395 0.0 0.0
0.08552097426523818 -0.0807953004409998 0.0 -0.0036169372287578327 0.0 0.0
0.09944960673457569 -0.0943650002693408 0.0 -0.0037880181167948834 0.0 0.0
0.11238531904834884 -0.1069568624506565 0.0 -0.0035028611755508754 0.0 0.0
0.12292729325288651 -0.11719011045885708 0.0 -0.0027768014054198598 0.0 0.0
0.12936324233088456 -0.12327221862150761 0.0 -0.00246110452370063 0.0 0.0
0.12936324233087765 -0.12327221862150273 0.0 0.002461104523704405 0.0 0.0
0.12292729325286542 -0.1171901104588402 0.0 0.0027768014054355694 0.0 0.0
0.11238531904831221 -0.10695686245061964 0.0 0.0035028611755570926 0.0 0.0
0.09944960673453004 -0.09436500026929462 0.0 0.003788018116800629 0.0 0.0
0.08552097426518804 -0.08079530044095096 0.0 0.003616937228751671 0.0 0.0
0.07176747327078106 -0.06739762406382055 0.0 0.0032250945793934616 0.0 0.0
0.05899741506615863 -0.054969692054587016 0.0 0.002787357165070281 0.0 0.0
0.04762014086135044 -0.04391981357866914 0.0 0.0023780161465655203 0.0 0.0
0.037721659473806984 -0.03433968310105939 0.0 0.0019937030540816414 0.0 0.0
0.02922553706746392 -0.02615646708219299 0.0 0.0016329665689099326 0.0 0.0
0.02201889837126761 -0.019253173807507684 0.0 0.0012865512116377875 0.0 0.0
0.016000994818888253 -0.013527757638240212 0.0 0.0009490038268887835 0.0 0.0
0.011124847030610646 -0.008931632342355389 0.0 0.0006609394337391272 0.0 0.0
0.007372907239117987 -0.005454303325286292 0.0 0.0004453549422625547 0.0 0.0
0.004687134565889262 -0.0030407057226697898 0.0 0.00029672808261702044 0.0 0.0
0.002947934701127447 -0.0015872053981261791 0.0 0.0002123253906028688 0.0 0.0
0.0020904191933749927 -0.0009477194801557065 0.0 0.00017855819725273725 0.0 0.0
0.0017301754605595632 -0.000713846537841345 0.0 6.436774772911047e-05 0.0 0.0
0.002054427614796822 -0.0010918335059044437 0.0 -0.0009998316377894667 0.0 0.0
0.009663047355963489 -0.010738872071526238 0.0 0.005844516782129355 0.0 0.0
0.006717396926623053 -0.00815695772424646 0.0 -0.006931836932960456 0.0 0.0
0.0011442677815194646 -0.0005542069746171108 0.0 0.0001646415565904613 0.0 0.0
0.0014882817655568342 -0.0005515663402538284 0.0 -0.00013479632976481914 0.0 0.0
0.0018596641700720784 -0.0008179609500053031 0.0 -0.00042814705145949317 0.0 0.0
0.002542640405809586 -0.001284795157349694 0.0 -0.0004988530152892356 0.0 0.0
0.004029768976473901 -0.002480624249502572 0.0 -0.0007089136604632729 0.0 0.0
0.006435887188069766 -0.004598214198793915 0.0 -0.0010955388614560524 0.0 0.0
0.009831733480036488 -0.007712809216133376 0.0 -0.0016232128830569459 0.0 0.0
0.014246387936885211 -0.011851361646527003 0.0 -0.002287977748562514 0.0 0.0
0.01966831669509177 -0.016993727823901406 0.0 -0.0030412062276920226 0.0 0.0
0.02611680012192533 -0.023158293874011138 0.0 -0.003812193267319186 0.0 0.0
0.03368251954897648 -0.030437390407685117 0.0 -0.004572953235282257 0.0 0.0
0.04251073033122499 -0.03897387126030383 0.0 -0.005400603320686176 0.0 0.0
0.05270068756476917 -0.04886340725451066 0.0 -0.006331654934968067 0.0 0.0
0.06418556701431398 -0.06003572966178883 0.0 -0.007317635614565804 0.0 0.0
0.07661497805481417 -0.07214122737925521 0.0 -0.008203824061042447 0.0 0.0
0.08927978691802205 -0.08447834064925308 0.0 -0.008619244778072355 0.0 0.0
0.10112814851767614 -0.09600633309078521 0.0 -0.008134325488114102 0.0 0.0
0.11078257477421938 -0.1053392929527992 0.0 -0.0066991107957669604 0.0 0.0
0.11654646653330046 -0.11086661061839553 0.0 -0.004225811588224215 0.0 0.0
0.11654646653329358 -0.11086661061838532 0.0 0.004225811588240147 0.0 0.0
0.1107825747741994 -0.10533929295277922 0.0 0.006699110795793051 0.0 0.0
0.10112814851764448 -0.09600633309075413 0.0 0.008134325488130978 0.0 0.0
0.08927978691798269 -0.08447834064921222 0.0 0.008619244778082069 0.0 0.0
0.07661497805477016 -0.07214122737921391 0.0 0.008203824061036702 0.0 0.0
0.06418556701426797 -0.060035729661746196 0.0 0.0073176356145647214 0.0 0.0
0.052700687564722626 -0.048863407254464475 0.0 0.006331654934967235 0.0 0.0
0.04251073033117869 -0.03897387126025609 0.0 0.005400603320684816 0.0 0.0
0.033682519548931006 -0.03043739040764204 0.0 0.004572953235276289 0.0 0.0
0.02611680012188386 -0.023158293873973834 0.0 0.0038121932673140235 0.0 0.0
0.01966831669505764 -0.01699372782387032 0.0 0.0030412062276836682 0.0 0.0
0.01424638793685759 -0.011851361646503689 0.0 0.002287977748558434 0.0 0.0
0.009831733480015564 -0.007712809216114946 0.0 0.001623212883052394 0.0 0.0
0.006435887188055267 -0.00459821419878248 0.0 0.0010955388614526385 0.0 0.0
0.004029768976465925 -0.0024806242494951336 0.0 0.0007089136604619128 0.0 0.0
0.0025426404058063456 -0.0012847951573461414 0.0 0.0004988530152885418 0.0 0.0
0.0018596641700711347 -0.0008179609500040264 0.0 0.0004281470514592156 0.0 0.0
0.0014882817655564873 -0.0005515663402544391 0.0 0.00013479632976487466 0.0 0.0
0.0011442677815195756 -0.0005542069746163059 0.0 -0.00016464155659173807 0.0 0.0
0.006717396926611524 -0.008156957724233032 0.0 0.0069318369329382235 0.0 0.0
0.00490047579492775 -0.006462641966425681 0.0 -0.006395610311084432 0.0 0.0
0.0006788182467177273 -0.00035227111868002536 0.0 -0.0005138361268343383 0.0 0.0
0.0011939874779608 -0.00040727036697302266 0.0 -0.0004111245496286886 0.0 0.0
0.0016317046110529698 -0.0006934694461825375 0.0 -0.0006666902089541571 0.0 0.0
0.0021848480966231154 -0.0010398634106650873 0.0 -0.0007729846680810948 0.0 0.0
0.0033916775637919394 -0.0019582819056965795 0.0 -0.0010275728178073262 0.0 0.0
0.0054994512743653245 -0.0037562020631642934 0.0 -0.0015802564755129922 0.0 0.0
0.00852337102551523 -0.00649493997262951 0.0 -0.002370649804410846 0.0 0.0
0.012464079440800226 -0.010159922763691709 0.0 -0.003337605494927065 0.0 0.0
0.017285021526098655 -0.014713690398797663 0.0 -0.004416149884383408 0.0 0.0
0.022982377802331228 -0.020147435771457944 0.0 -0.005522387778539833 0.0 0.0
0.029633377010816135 -0.026536008844092684 0.0 -0.006615601995953874 0.0 0.0
0.037384746452529385 -0.034022140210172136 0.0 -0.007768803500050131 0.0 0.0
0.04636462034979021 -0.042729156203919594 0.0 -0.009088397929638142 0.0 0.0
0.056542171728366016 -0.05262476855567533 0.0 -0.010525904832338506 0.0 0.0
0.06763273297762694 -0.0634243507470873 0.0 -0.011807260756951654 0.0 0.0
0.0790407045881903 -0.07453604235015421 0.0 -0.012458666466660884 0.0 0.0
0.08982476913423972 -0.08501654111974677 0.0 -0.011930297653720834 0.0 0.0
0.09867147607222927 -0.09357604396306174 0.0 -0.009792272709193861 0.0 0.0
0.10409591812502891 -0.09880136125456662 0.0 -0.005565356194706217 0.0 0.0
0.10409591812502186 -0.09880136125456263 0.0 0.005565356194731419 0.0 0.0
0.09867147607221105 -0.09357604396304442 0.0 0.009792272709229222 0.0 0.0
0.08982476913421178 -0.08501654111972057 0.0 0.011930297653744537 0.0 0.0
0.07904070458815576 -0.07453604235012179 0.0 0.01245866646667071 0.0 0.0
0.06763273297758884 -0.06342435074705 0.0 0.011807260756943494 0.0 0.0
0.056542171728324986 -0.052624768555637136 0.0 0.010525904832337174 0.0 0.0
0.04636462034974914 -0.04272915620388029 0.0 0.009088397929637504 0.0 0.0
0.03738474645248824 -0.03402214021013661 0.0 0.007768803500046995 0.0 0.0
0.02963337701077659 -0.02653600884405738 0.0 0.00661560199594402 0.0 0.0
0.022982377802294535 -0.02014743577142153 0.0 0.005522387778532201 0.0 0.0
0.01728502152606823 -0.014713690398766355 0.0 0.0044161498843725555 0.0 0.0
0.01246407944077571 -0.010159922763667062 0.0 0.0033376054949206813 0.0 0.0
0.008523371025496523 -0.006494939972613745 0.0 0.0023706498044053226 0.0 0.0
0.005499451274352751 -0.0037562020631546345 0.0 0.0015802564755100779 0.0 0.0
0.003391677563785417 -0.001958281905689807 0.0 0.0010275728178060772 0.0 0.0
0.002184848096620451 -0.001039863410663311 0.0 0.0007729846680805119 0.0 0.0
0.0016317046110523592 -0.000693469446182482 0.0 0.0006666902089536852 0.0 0.0
0.001193987477960845 -0.00040727036697307817 0.0 0.0004111245496283833 0.0 0.0
0.000678818246717755 -0.00035227111867947025 0.0 0.0005138361268322289 0.0 0.0
0.004900475794917147 -0.006462641966413512 0.0 0.006395610311065253 0.0 0.0
0.0036509304812354787 -0.005192572481509117 0.0 -0.00542255843764472 0.0 0.0
0.0004266019941543478 -0.0002662276966219901 0.0 -0.0010889040754376578 0.0 0.0
0.0009235874338725733 -0.0002937823844695875 0.0 -0.0007757587755178319 0.0 0.0
0.0013930880676534946 -0.0005714394192918304 0.0 -0.0009256178572237261 0.0 0.0
0.0018669923776886144 -0.0008498595704616863 0.0 -0.0010501461221679442 0.0 0.0
0.002806368283697014 -0.0015112434513796513 0.0 -0.0012823930702979547 0.0 0.0
0.004568702150112382 -0.002950274116184648 0.0 -0.0019066841302991522 0.0 0.0
0.007211936321105478 -0.005289900915848467 0.0 -0.0028971676232105448 0.0 0.0
0.010666766611009307 -0.008470653411124296 0.0 -0.004090364411497266 0.0 0.0
0.014883051464307732 -0.012430404382761884 0.0 -0.0054122796860952005 0.0 0.0
0.019834613831615514 -0.017136926339824665 0.0 -0.006759594595263874 0.0 0.0
0.02558072117776434 -0.022643143502054652 0.0 -0.008095482925585457 0.0 0.0
0.032262284164430534 -0.02908614387158548 0.0 -0.009512712278145763 0.0 0.0
0.040020295802619565 -0.03659850671929332 0.0 -0.011089141127604785 0.0 0.0
0.048865077091983934 -0.045192301043523564 0.0 -0.01280186692031074 0.0 0.0
0.05859413729989166 -0.05466483531666988 0.0 -0.014394300522714953 0.0 0.0
0.06872785377129983 -0.06453243370447881 0.0 -0.01529687686079767 0.0 0.0
0.07845151110475312 -0.07398179884084843 0.0 -0.014797431895937907 0.0 0.0
0.08660311266095652 -0.08187537687421775 0.0 -0.012161701948491255 0.0 0.0
0.09185199488929761 -0.08694305553682824 0.0 -0.006675071396648247 0.0 0.0
0.09185199488929054 -0.08694305553682158 0.0 0.006675071396679 0.0 0.0
0.08660311266094022 -0.08187537687420043 0.0 0.012161701948533055 0.0 0.0
0.07845151110472803 -0.07398179884082268 0.0 0.014797431895966218 0.0 0.0
0.0687278537712695 -0.06453243370444506 0.0 0.015296876860811826 0.0 0.0
0.05859413729985877 -0.054664835316637905 0.0 0.014394300522708625 0.0 0.0
0.04886507709194854 -0.04519230104349159 0.0 0.01280186692030727 0.0 0.0
0.040020295802583705 -0.03659850671926046 0.0 0.011089141127601565 0.0 0.0
0.03226228416439475 -0.02908614387155417 0.0 0.009512712278142432 0.0 0.0
0.02558072117773033 -0.022643143502021124 0.0 0.008095482925575548 0.0 0.0
0.01983461383158397 -0.01713692633979802 0.0 0.00675959459525205 0.0 0.0
0.014883051464281316 -0.012430404382740567 0.0 0.005412279686082266 0.0 0.0
0.010666766610987977 -0.008470653411103646 0.0 0.004090364411489966 0.0 0.0
0.007211936321089185 -0.0052899009158324795 0.0 0.002897167623202801 0.0 0.0
0.004568702150101939 -0.002950274116174434 0.0 0.0019066841302950444 0.0 0.0
0.00280636828369199 -0.0015112434513754325 0.0 0.0012823930702949016 0.0 0.0
0.0018669923776866992 -0.0008498595704597989 0.0 0.0010501461221664732 0.0 0.0
0.0013930880676529533 -0.0005714394192914418 0.0 0.0009256178572226159 0.0 0.0
0.0009235874338729411 -0.00029378238446942095 0.0 0.0007757587755164164 0.0 0.0
0.00042660199415409106 -0.00026622769662057455 0.0 0.0010889040754359924 0.0 0.0
0.0036509304812265275 -0.0051925724814986425 0.0 0.005422558437631203 0.0 0.0
0.002719158591439584 -0.004165978131246223 0.0 -0.004441411760891217 0.0 0.0
0.0002835710247880707 -0.00022896606470501624 0.0 -0.0015350234208782454 0.0 0.0
0.0006940061040244597 -0.0002093661110980083 0.0 -0.00114672046992359 0.0 0.0
0.0011471857388402618 -0.0004544173609485336 0.0 -0.0012027437300250743 0.0 0.0
0.0015724471951626198 -0.0006929348717470418 0.0 -0.0013241467138205287 0.0 0.0
0.0022880321833548545 -0.001150442056663481 0.0 -0.0015276278862942638 0.0 0.0
0.003679244793849047 -0.002213202116477575 0.0 -0.0020972358919148504 0.0 0.0
0.005901648234285274 -0.004111306329509956 0.0 -0.003162230083344958 0.0 0.0
0.008867660080842131 -0.006800045368350993 0.0 -0.004537202474815927 0.0 0.0
0.012475327445255001 -0.010159695448545003 0.0 -0.0060199323345467015 0.0 0.0
0.016686169193537118 -0.014141682732849326 0.0 -0.007526878115607344 0.0 0.0
0.021536773023364708 -0.018774813821424097 0.0 -0.009014355378102412 0.0 0.0
0.027156201214250067 -0.02417981795846802 0.0 -0.010576587164807055 0.0 0.0
0.03369152500371744 -0.030498948800257608 0.0 -0.01232750497294774 0.0 0.0
0.0411911790993193 -0.03777832606989007 0.0 -0.014208881019128816 0.0 0.0
0.049526706230407905 -0.045888574685386985 0.0 -0.015947001495278723 0.0 0.0
0.0583408908619651 -0.05447273738746805 0.0 -0.017050025514236677 0.0 0.0
0.06699521552624761 -0.06288756755757907 0.0 -0.016701178927592153 0.0 0.0
0.07451826749577847 -0.0701792759660207 0.0 -0.013871384560832367 0.0 0.0
0.07969996743724282 -0.07518784194744921 0.0 -0.007615376881105529 0.0 0.0
0.07969996743723638 -0.07518784194744121 0.0 0.007615376881138225 0.0 0.0
0.07451826749576354 -0.07017927596600604 0.0 0.013871384560873279 0.0 0.0
0.06699521552622584 -0.06288756755755598 0.0 0.016701178927622184 0.0 0.0
0.05834089086193921 -0.054472737387442294 0.0 0.017050025514249778 0.0 0.0
0.049526706230379636 -0.045888574685355454 0.0 0.01594700149527417 0.0 0.0
0.041191179099289266 -0.037778326069859425 0.0 0.014208881019125763 0.0 0.0
0.03369152500368677 -0.030498948800228742 0.0 0.01232750497294377 0.0 0.0
0.027156201214220105 -0.024179817958441818 0.0 0.010576587164803142 0.0 0.0
0.021536773023335842 -0.018774813821397895 0.0 0.009014355378092254 0.0 0.0
0.016686169193510736 -0.014141682732823568 0.0 0.007526878115595381 0.0 0.0
0.012475327445232776 -0.010159695448520356 0.0 0.0060199323345328515 0.0 0.0
0.008867660080823847 -0.006800045368334118 0.0 0.004537202474807767 0.0 0.0
0.005901648234271639 -0.004111306329497966 0.0 0.0031622300833377692 0.0 0.0
0.0036792447938408523 -0.0022132021164704696 0.0 0.0020972358919102707 0.0 0.0
0.0022880321833511907 -0.0011504420566611495 0.0 0.0015276278862906278 0.0 0.0
0.0015724471951615582 -0.0006929348717463757 0.0 0.0013241467138190854 0.0 0.0
0.001147185738839679 -0.00045441736094736784 0.0 0.0012027437300234367 0.0 0.0
0.0006940061040243972 -0.00020936611109839687 0.0 0.001146720469921092 0.0 0.0
0.00028357102478773766 -0.00022896606470443337 0.0 0.0015350234208752755 0.0 0.0
0.0027191585914325134 -0.004165978131237401 0.0 0.004441411760880254 0.0 0.0
0.0020022207435679423 -0.00331522495316644 0.0 -0.0035943937004097593 0.0 0.0
0.0001938073489780659 -0.00021063792056286168 0.0 -0.001864287174678514 0.0 0.0
0.0004992561090892619 -0.00014499074386548072 0.0 -0.001479710071111251 0.0 0.0
0.0009003025922436972 -0.0003408894671358409 0.0 -0.00147344203753344 0.0 0.0
0.001286680794948529 -0.0005533854378696468 0.0 -0.0015885767125555506 0.0 0.0
0.0018242077553041053 -0.0008696537944750116 0.0 -0.0017770424400444518 0.0 0.0
0.0028683621663083206 -0.0015936579102995285 0.0 -0.0022585793714434976 0.0 0.0
0.004623427406386167 -0.0030096646696382567 0.0 -0.003232725209528775 0.0 0.0
0.007074003318415185 -0.005163657310531589 0.0 -0.004639718902616774 0.0 0.0
0.01007583483189016 -0.007920730842745582 0.0 -0.006224019834653732 0.0 0.0
0.013548046634628962 -0.01117935358216915 0.0 -0.007803259103452309 0.0 0.0
0.017514413800514265 -0.014947251651672211 0.0 -0.009358179627780072 0.0 0.0
0.022083884523308048 -0.019325916260833242 0.0 -0.01098013594128161 0.0 0.0
0.027398998251060055 -0.02445272812930188 0.0 -0.012761816631458756 0.0 0.0
0.033545783610202454 -0.030409565032918806 0.0 -0.01468825050418382 0.0 0.0
0.04046269514654037 -0.03713419687086139 0.0 -0.016507369264484373 0.0 0.0
0.04790296508647286 -0.04438110944802531 0.0 -0.01771203526694387 0.0 0.0
0.05543472244602926 -0.0517144740414226 0.0 -0.017553702056568254 0.0 0.0
0.06233936355920518 -0.058416704490765525 0.0 -0.014882235725954096 0.0 0.0
0.06753090828998683 -0.06343676246107055 0.0 -0.008400139340139945 0.0 0.0
0.06753090828998103 -0.06343676246107144 0.0 0.008400139340170198 0.0 0.0
0.06233936355919216 -0.05841670449075975 0.0 0.014882235725995008 0.0 0.0
0.05543472244601082 -0.05171447404140439 0.0 0.01755370205659812 0.0 0.0
0.04790296508645121 -0.04438110944800133 0.0 0.017712035266956805 0.0 0.0
0.04046269514651707 -0.037134196870837854 0.0 0.016507369264479543 0.0 0.0
0.033545783610177196 -0.030409565032895713 0.0 0.014688250504177547 0.0 0.0
0.027398998251035145 -0.024452728129281676 0.0 0.012761816631452982 0.0 0.0
0.022083884523284025 -0.019325916260813036 0.0 0.01098013594127717 0.0 0.0
0.017514413800490514 -0.014947251651652449 0.0 0.009358179627771024 0.0 0.0
0.013548046634607541 -0.011179353582149387 0.0 0.007803259103440652 0.0 0.0
0.010075834831871633 -0.007920730842729817 0.0 0.0062240198346386055 0.0 0.0
0.007074003318400468 -0.00516365731051982 0.0 0.004639718902606282 0.0 0.0
0.004623427406375447 -0.003009664669629153 0.0 0.0032327252095222248 0.0 0.0
0.0028683621663020964 -0.0015936579102926451 0.0 0.0022585793714393343 0.0 0.0
0.0018242077553015934 -0.000869653794472014 0.0 0.0017770424400418428 0.0 0.0
0.001286680794947842 -0.0005533854378680925 0.0 0.0015885767125543848 0.0 0.0
0.0009003025922431351 -0.00034088946713550783 0.0 0.0014734420375305812 0.0 0.0
0.0004992561090891023 -0.00014499074386481459 0.0 0.0014797100711080868 0.0 0.0
0.00019380734897792018 -0.000210637920561918 0.0 0.0018642871746769318 0.0 0.0
0.0020022207435623773 -0.0033152249531593634 0.0 0.0035943937004009885 0.0 0.0
0.0014465841609209579 -0.0026047419390922144 0.0 -0.002906029715333075 0.0 0.0
0.00012763022691189563 -0.0002013875455774139 0.0 -0.0020934294632440065 0.0 0.0
0.0003279680750791769 -9.068235086551191e-05 0.0 -0.0017555783457032792 0.0 0.0
0.0006579774132541016 -0.00023056265280385624 0.0 -0.0017204581245980899 0.0 0.0
0.0009964332673147586 -0.000420515216998707 0.0 -0.0018398007692565221 0.0 0.0
0.00140367458379409 -0.0006402012791018041 0.0 -0.0020038613895766444 0.0 0.0
0.002136588546207477 -0.001089591916303867 0.0 -0.0023806556170526405 0.0 0.0
0.003426883040020118 -0.0020409172354902694 0.0 -0.003186041685370733 0.0 0.0
0.005314411514736564 -0.0036139187787473936 0.0 -0.004436585346183242 0.0 0.0
0.007694126907262247 -0.005736294267228548 0.0 -0.005979991357811076 0.0 0.0
0.010431234564903094 -0.008270598582861721 0.0 -0.007571822796777317 0.0 0.0
0.013525040848591074 -0.011181246638165554 0.0 -0.009112356200277338 0.0 0.0
0.017059883343464574 -0.014547130192456015 0.0 -0.010691298084129608 0.0 0.0
0.02116825768032933 -0.01849326283375552 0.0 -0.0124075594725096 0.0 0.0
0.02595351787870391 -0.023121146652507196 0.0 -0.014249033327068783 0.0 0.0
0.03142744902247473 -0.028431966856696356 0.0 -0.0160021627669672 0.0 0.0
0.03744240805277334 -0.03429029703333919 0.0 -0.017254560530487573 0.0 0.0
0.04376267864553053 -0.04046024913836366 0.0 -0.017347331664072263 0.0 0.0
0.04998285231325933 -0.04651539024063123 0.0 -0.015144229346514548 0.0 0.0
0.05522489042481771 -0.05158251156724791 0.0 -0.009017549055152896 0.0 0.0
0.0552248904248135 -0.051582511567239475 0.0 0.00901754905518054 0.0 0.0
0.049982852313248685 -0.04651539024061879 0.0 0.015144229346555071 0.0 0.0
0.043762678645515266 -0.040460249138348114 0.0 0.01734733166410174 0.0 0.0
0.03744240805275603 -0.03429029703332365 0.0 0.017254560530500673 0.0 0.0
0.03142744902245605 -0.028431966856675928 0.0 0.016002162766962313 0.0 0.0
0.02595351787868369 -0.023121146652487656 0.0 0.014249033327060845 0.0 0.0
0.021168257680310457 -0.018493262833736424 0.0 0.012407559472503993 0.0 0.0
0.017059883343446505 -0.014547130192436253 0.0 0.010691298084126222 0.0 0.0
0.013525040848572714 -0.011181246638145792 0.0 0.009112356200268068 0.0 0.0
0.010431234564886274 -0.008270598582849287 0.0 0.007571822796764993 0.0 0.0
0.0076941269072478 -0.005736294267216113 0.0 0.005979991357796366 0.0 0.0
0.00531441151472567 -0.0036139187787369575 0.0 0.004436585346173416 0.0 0.0
0.0034268830400122074 -0.0020409172354853844 0.0 0.0031860416853650153 0.0 0.0
0.0021365885462031886 -0.001089591916303645 0.0 0.002380655617049532 0.0 0.0
0.0014036745837923414 -0.0006402012791016931 0.0 0.0020038613895736745 0.0 0.0
0.0009964332673141618 -0.000420515216998818 0.0 0.0018398007692543017 0.0 0.0
0.0006579774132537963 -0.00023056265280324562 0.0 0.0017204581245953698 0.0 0.0
0.0003279680750790659 -9.068235086528986e-05 0.0 0.0017555783457010032 0.0 0.0
0.00012763022691164583 -0.0002013875455774139 0.0 0.0020934294632409534 0.0 0.0
0.0014465841609169194 -0.0026047419390872618 0.0 0.002906029715326608 0.0 0.0
0.0010258694561148946 -0.0020301287754359576 0.0 -0.0023852775960487294 0.0 0.0
6.456194066020715e-05 -0.00019350494756492642 0.0 -0.002228298914984911 0.0 0.0
0.0001713658631573023 -3.877932788504124e-05 0.0 -0.0019738265959431123 0.0 0.0
0.00042298413138601443 -0.00012499694709755538 0.0 -0.0019291193024294495 0.0 0.0
0.0006969309565047904 -0.00028238846169614806 0.0 -0.002049292821608123 0.0 0.0
0.001004350491005973 -0.00044841132679374063 0.0 -0.0022355617500228464 0.0 0.0
0.0014821180807702283 -0.000702405849189347 0.0 -0.002516208506450013 0.0 0.0
0.002333194259831514 -0.0012391575970891466 0.0 -0.0030712179308474696 0.0 0.0
0.0036407549349453117 -0.0022266498601219986 0.0 -0.004029569545206613 0.0 0.0
0.0053560314856528485 -0.003668080994448042 0.0 -0.0053281003213551115 0.0 0.0
0.00734941699127116 -0.005452884059013785 0.0 -0.006777685539906264 0.0 0.0
0.009577679009426687 -0.0075100042097788755 0.0 -0.008223379656525531 0.0 0.0
0.01209746191823012 -0.009877049830031348 0.0 -0.009689967224633944 0.0 0.0
0.01501560522347041 -0.012656595399594295 0.0 -0.01123426806246769 0.0 0.0
0.018444331115459858 -0.015955343012982404 0.0 -0.012872924343578285 0.0 0.0
0.02244740423568714 -0.019831021792025894 0.0 -0.014459680862571322 0.0 0.0
0.02699136913047588 -0.024245002145441674 0.0 -0.015623610654114717 0.0 0.0
0.031986990767124204 -0.029136054706536907 0.0 -0.015920331746124505 0.0 0.0
0.03736432177331564 -0.03441206665926888 0.0 -0.014514019277286794 0.0 0.0
0.04263981568020034 -0.03951320425835281 0.0 -0.009435455615102728 0.0 0.0
0.04263981568019809 -0.03951320425835325 0.0 0.009435455615127375 0.0 0.0
0.037364321773307826 -0.03441206665926311 0.0 0.014514019277324375 0.0 0.0
0.03198699076711231 -0.029136054706522696 0.0 0.015920331746150596 0.0 0.0
0.02699136913046299 -0.02424500214542835 0.0 0.015623610654124875 0.0 0.0
0.022447404235673166 -0.019831021792013015 0.0 0.014459680862564606 0.0 0.0
0.018444331115445647 -0.015955343012968637 0.0 0.01287292434357079 0.0 0.0
0.015015605223457143 -0.012656595399580306 0.0 0.011234268062464248 0.0 0.0
0.012097461918218047 -0.00987704983001958 0.0 0.009689967224631058 0.0 0.0
0.009577679009413947 -0.007510004209767329 0.0 0.008223379656516816 0.0 0.0
0.007349416991259031 -0.005452884059002239 0.0 0.006777685539894884 0.0 0.0
0.00535603148564287 -0.003668080994438494 0.0 0.005328100321343288 0.0 0.0
0.003640754934938137 -0.002226649860113783 0.0 0.004029569545199285 0.0 0.0
0.0023331942598263378 -0.00123915759708626 0.0 0.003071217930842085 0.0 0.0
0.0014821180807676887 -0.000702405849189125 0.0 0.0025162085064474315 0.0 0.0
0.0010043504910049045 -0.00044841132679385165 0.0 0.002235561750020515 0.0 0.0
0.0006969309565043047 -0.00028238846169614806 0.0 0.002049292821607096 0.0 0.0
0.00042298413138582014 -0.0001249969470972223 0.0 0.0019291193024272013 0.0 0.0
0.00017136586315713576 -3.8779327884486126e-05 0.0 0.0019738265959412804 0.0 0.0
6.456194065974918e-05 -0.00019350494756470438 0.0 0.0022282989149838284 0.0 0.0
0.0010258694561124104 -0.002030128775432606 0.0 0.002385277596044122 0.0 0.0
0.0007252005279166501 -0.0015994983997510426 0.0 -0.002043819005943026 0.0 0.0
-3.7015690154545977e-06 -0.00018535169844380306 0.0 -0.00231002160530408 0.0 0.0
2.4418250374136363e-05 1.4965211634465625e-05 0.0 -0.002133696772323307 0.0 0.0
0.00019594801518939275 -2.479374416453073e-05 0.0 -0.0020919026646362138 0.0 0.0
0.0003919741109085634 -0.00013911018810486286 0.0 -0.0022042059983875817 0.0 0.0
0.0005996731800656102 -0.00026052048194413757 0.0 -0.0024220489300295356 0.0 0.0
0.0008826630440453148 -0.00040520947166555743 0.0 -0.002696874662091203 0.0 0.0
0.0013508733259294664 -0.0006431950591647695 0.0 -0.003030233716279196 0.0 0.0
0.0020968839041103776 -0.0010936159869268103 0.0 -0.0035565558589044644 0.0 0.0
0.003114045557609163 -0.0018337576588294269 0.0 -0.004392732745649663 0.0 0.0
0.004333418600667646 -0.0028294336214300664 0.0 -0.005479050177615519 0.0 0.0
0.0056842041056129194 -0.0040125040008471835 0.0 -0.006675651490443746 0.0 0.0
0.007201229674778875 -0.005385040007307218 0.0 -0.007955534539167142 0.0 0.0
0.008953727304541012 -0.007013959175812712 0.0 -0.009278103452208142 0.0 0.0
0.01103318089867826 -0.008987728868953049 0.0 -0.01064642201312227 0.0 0.0
0.013542284783856398 -0.0114020879723431 0.0 -0.011994961915168634 0.0 0.0
0.016570607049935 -0.01433052640326915 0.0 -0.01307384109619436 0.0 0.0
0.02016781128577702 -0.017829916572717153 0.0 -0.013431360670722037 0.0 0.0
0.024438206817498254 -0.02208475684110356 0.0 -0.012773312502081025 0.0 0.0
0.029577402825922236 -0.027088285256688938 0.0 -0.009498302155260818 0.0 0.0
0.02957740282592139 -0.02708828525668716 0.0 0.009498302155282357 0.0 0.0
0.024438206817493577 -0.022084756841102227 0.0 0.012773312502115386 0.0 0.0
0.020167811285768944 -0.017829916572712712 0.0 0.01343136067074574 0.0 0.0
0.01657060704992644 -0.01433052640325938 0.0 0.013073841096201522 0.0 0.0
0.01354228478384796 -0.01140208797233866 0.0 0.011994961915161195 0.0 0.0
0.011033180898670086 -0.008987728868947276 0.0 0.010646422013113999 0.0 0.0
0.008953727304533643 -0.007013959175805162 0.0 0.009278103452204423 0.0 0.0
0.007201229674772491 -0.005385040007302777 0.0 0.007955534539165254 0.0 0.0
0.005684204105605994 -0.004012504000845185 0.0 0.006675651490436196 0.0 0.0
0.004333418600660721 -0.0028294336214256255 0.0 0.005479050177605971 0.0 0.0
0.003114045557603709 -0.0018337576588278726 0.0 0.004392732745640782 0.0 0.0
0.002096883904106603 -0.0010936159869270323 0.0 0.003556555858899746 0.0 0.0
0.0013508733259269545 -0.0006431950591658797 0.0 0.003030233716276587 0.0 0.0
0.0008826630440438715 -0.00040520947166367005 0.0 0.0026968746620885664 0.0 0.0
0.0005996731800652078 -0.00026052048194358246 0.0 0.0024220489300255388 0.0 0.0
0.00039197411090821643 -0.00013911018810430775 0.0 0.0022042059983845286 0.0 0.0
0.00019594801518928173 -2.4793744164808285e-05 0.0 0.0020919026646336603 0.0 0.0
2.4418250374136363e-05 1.4965211635020736e-05 0.0 0.002133696772321003 0.0 0.0
-3.7015690158570536e-06 -0.00018535169844363653 0.0 0.0023100216053025258 0.0 0.0
0.000725200527914957 -0.0015994983997488464 0.0 0.0020438190059405004 0.0 0.0
0.0005160777027338609 -0.0012796390563467874 0.0 -0.0018166850662475198 0.0 0.0
-7.039362875578548e-05 -0.00017457441576113064 0.0 -0.0023551894415022867 0.0 0.0
-0.00011523284557572733 6.913173547623552e-05 0.0 -0.0022400210572634527 0.0 0.0
-2.3446875328569927e-05 7.132965237499622e-05 0.0 -0.0022014377930707485 0.0 0.0
8.672958863202573e-05 4.322685215440991e-06 0.0 -0.0022986955558187416 0.0 0.0
0.00018521023884469912 -6.621664348416267e-05 0.0 -0.0025253471254736704 0.0 0.0
0.00029228616111849626 -0.00013071011918786013 0.0 -0.002840855173450757 0.0 0.0
0.00044403901831246984 -0.00020579470306980596 0.0 -0.0031455594742058057 0.0 0.0
0.0006815700215420384 -0.0003210228781516111 0.0 -0.0034287206903832468 0.0 0.0
0.001012403435875428 -0.0004939570656448122 0.0 -0.003783434541199393 0.0 0.0
0.0014240994101338 -0.0007345377271281706 0.0 -0.00434366258766411 0.0 0.0
0.001874065687171772 -0.001039741079890355 0.0 -0.0051084912618605816 0.0 0.0
0.002376852322380038 -0.0014003173179388817 0.0 -0.006061173427135469 0.0 0.0
0.002959632768591333 -0.0018564205845827964 0.0 -0.007195259391474695 0.0 0.0
0.0036839541004570903 -0.0024833465647127184 0.0 -0.008511681695436424 0.0 0.0
0.004681489033459954 -0.003395628160644204 0.0 -0.009912722905929927 0.0 0.0
0.006165597189524044 -0.00478450245472084 0.0 -0.01110783907163121 0.0 0.0
0.008365870335014167 -0.0068567250821987 0.0 -0.011576688104904476 0.0 0.0
0.011403460581315347 -0.009806606277307228 0.0 -0.01092523523035882 0.0 0.0
0.01583488372994034 -0.014315694967690806 0.0 -0.009332760420290076 0.0 0.0
0.01583488372994045 -0.01431569496768681 0.0 0.009332760420307673 0.0 0.0
0.011403460581313155 -0.00980660627730634 0.0 0.010925235230383301 0.0 0.0
0.008365870335010253 -0.0068567250821947034 0.0 0.011576688104919963 0.0 0.0
0.006165597189520686 -0.004784502454712403 0.0 0.011107839071632652 0.0 0.0
0.004681489033457956 -0.0033956281606424277 0.0 0.009912722905922489 0.0 0.0
0.003683954100454856 -0.002483346564706501 0.0 0.008511681695430373 0.0 0.0
0.002959632768589987 -0.0018564205845819082 0.0 0.007195259391472308 0.0 0.0
0.0023768523223791083 -0.0014003173179379935 0.0 0.006061173427134636 0.0 0.0
0.001874065687170759 -0.0010397410798894668 0.0 0.005108491261854309 0.0 0.0
0.0014240994101325788 -0.0007345377271281706 0.0 0.004343662587657893 0.0 0.0
0.001012403435874526 -0.0004939570656454784 0.0 0.003783434541192565 0.0 0.0
0.0006815700215414139 -0.0003210228781513891 0.0 0.003428720690381526 0.0 0.0
0.0004440390183119286 -0.0002057947030680296 0.0 0.0031455594742049175 0.0 0.0
0.0002922861611180244 -0.00013071011918752706 0.0 0.0028408551734475096 0.0 0.0
0.0001852102388448379 -6.62166434852729e-05 0.0 0.002525347125470534 0.0 0.0
8.672958863194247e-05 4.322685214330768e-06 0.0 0.002298695555815633 0.0 0.0
-2.3446875328375638e-05 7.132965237505173e-05 0.0 0.0022014377930683893 0.0 0.0
-0.00011523284557565794 6.913173547673512e-05 0.0 0.0022400210572611767 0.0 0.0
-7.039362875584099e-05 -0.00017457441576154697 0.0 0.002355189441499539 0.0 0.0
0.0005160777027329033 -0.0012796390563455749 0.0 0.0018166850662462986 0.0 0.0
0.0003706281466678979 -0.0010382842182331542 0.0 -0.0016530392620147383 0.0 0.0
-0.00013096956991089093 -0.0001531751204907894 0.0 -0.002350420465344727 0.0 0.0
-0.00024718185035117746 0.00012020493261666321 0.0 -0.0022955555921896076 0.0 0.0
-0.0002353372664818526 0.0001637025157162908 0.0 -0.002254446024622714 0.0 0.0
-0.00021493105438376292 0.00014494304413836812 0.0 -0.002329691019329061 0.0 0.0
-0.00023138209620367223 0.0001296152182883592 0.0 -0.002537102565594057 0.0 0.0
-0.00030404451425875 0.00014694069960174971 0.0 -0.0028435079070923963 0.0 0.0
-0.0004448542880380185 0.00020771996740043264 0.0 -0.003147427518601975 0.0 0.0
-0.0006800322742933351 0.000320248748817642 0.0 -0.003428873168902613 0.0 0.0
-0.0010107238966807486 0.0004921189546462923 0.0 -0.003780858528470099 0.0 0.0
-0.0014228182322945926 0.0007349143259589574 0.0 -0.004338772153136383 0.0 0.0
-0.001884569503030037 0.0010499517406032943 0.0 -0.00510559225776458 0.0 0.0
-0.0024092027732338234 0.0014277994734857025 0.0 -0.0060596857390537995 0.0 0.0
-0.0030123960270730665 0.0018903441218949268 0.0 -0.007197875367079609 0.0 0.0
-0.0036536441788255353 0.0024119289046669046 0.0 -0.008531108142141919 0.0 0.0
-0.004184686891598566 0.002845008853159303 0.0 -0.010029914785074368 0.0 0.0
-0.004305204143990757 0.0029234553087000847 0.0 -0.011673694993360462 0.0 0.0
-0.0036308597432311296 0.0023713049172688905 0.0 -0.013435383847116122 0.0 0.0
-0.0018504427627557274 0.0010975609681409537 0.0 -0.01487936394104944 0.0 0.0
0.002258741494459121 -0.002670200391431621 0.0 -0.012959511399734336 0.0 0.0
0.002258741494459107 -0.002670200391437394 0.0 0.012959511399747492 0.0 0.0
-0.0018504427627567266 0.001097560968137401 0.0 0.014879363941064483 0.0 0.0
-0.0036308597432301165 0.002371304917266226 0.0 0.01343538384712023 0.0 0.0
-0.004305204143987065 0.002923455308696088 0.0 0.01167369499335813 0.0 0.0
-0.0041846868915935975 0.002845008853153974 0.0 0.01002991478506604 0.0 0.0
-0.0036536441788216495 0.002411928904659799 0.0 0.008531108142135424 0.0 0.0
-0.003012396027068834 0.0018903441218927064 0.0 0.007197875367075002 0.0 0.0
-0.0024092027732290633 0.001427799473483926 0.0 0.006059685739050358 0.0 0.0
-0.0018845695030247633 0.0010499517406001857 0.0 0.005105592257757585 0.0 0.0
-0.00142281823229011 0.0007349143259540725 0.0 0.0043387721531303325 0.0 0.0
-0.0010107238966768628 0.0004921189546427396 0.0 0.0037808585284626606 0.0 0.0
-0.0006800322742909481 0.0003202487488147554 0.0 0.0034288731689005036 0.0 0.0
-0.0004448542880368528 0.00020771996739910037 0.0 0.003147427518600754 0.0 0.0
-0.0003040445142580006 0.00014694069960341505 0.0 0.0028435079070888714 0.0 0.0
-0.00023138209620289507 0.00012961521828869227 0.0 0.0025371025655906154 0.0 0.0
-0.00021493105438344373 0.00014494304413903425 0.0 0.002329691019327007 0.0 0.0
-0.00023533726648156117 0.0001637025157163463 0.0 0.002254446024620965 0.0 0.0
-0.00024718185035085827 0.00012020493261694076 0.0 0.0022955555921868043 0.0 0.0
-0.00013096956991087705 -0.00015317512049017878 0.0 0.0023504204653426175 0.0 0.0
0.00037062814666741217 -0.0010382842182322487 0.0 0.0016530392620124623 0.0 0.0
0.00026583144231860645 -0.0008302412719138619 0.0 -0.0014880983847171125 0.0 0.0
-0.00018614124357858863 -0.0001235196064848787 0.0 -0.0022955639979536646 0.0 0.0
-0.0003708293361471132 0.00016858396705848877 0.0 -0.002297241420675028 0.0 0.0
-0.0004394262952499006 0.00025125335918485536 0.0 -0.002250254517139727 0.0 0.0
-0.0005100146773978353 0.00028099307776718874 0.0 -0.002295653030963879 0.0 0.0
-0.0006430171662907963 0.0003215836591797805 0.0 -0.0024669677319563987 0.0 0.0
-0.0008936556845935695 0.0004210429180331321 0.0 -0.0027124131425378117 0.0 0.0
-0.0013514590567222234 0.0006449688691230193 0.0 -0.0030342450405826393 0.0 0.0
-0.0020946476244522866 0.0010918915666580098 0.0 -0.0035555565096430097 0.0 0.0
-0.0031117682044824735 0.0018321495010142907 0.0 -0.004390160274174493 0.0 0.0
-0.004333341830625101 0.0028314127999899963 0.0 -0.00547700794439171 0.0 0.0
-0.0056939435643669906 0.004025216004762244 0.0 -0.006670087702280891 0.0 0.0
-0.007231844761922526 0.005417636668733294 0.0 -0.00793398484625224 0.0 0.0
-0.009004214212876699 0.007053475199525039 0.0 -0.009252342854273121 0.0 0.0
-0.011006946877645238 0.008918452649529396 0.0 -0.010707874367501091 0.0 0.0
-0.013083817908767795 0.010856653583182663 0.0 -0.0124037051042033 0.0 0.0
-0.014877190915210184 0.012518961652980387 0.0 -0.014400670046520625 0.0 0.0
-0.015852698111031335 0.013395571591027444 0.0 -0.016591967371255234 0.0 0.0
-0.015116987232758866 0.012385474379760453 0.0 -0.017526126984318324 0.0 0.0
-0.010627311296424663 0.007765404594624492 0.0 -0.015128547796433689 0.0 0.0
-0.010627311296425218 0.007765404594624936 0.0 0.015128547796451508 0.0 0.0
-0.015116987232758075 0.012385474379755124 0.0 0.017526126984346246 0.0 0.0
-0.01585269811102573 0.013395571591020339 0.0 0.016591967371272054 0.0 0.0
-0.014877190915199956 0.012518961652971505 0.0 0.014400670046521402 0.0 0.0
-0.013083817908755832 0.010856653583169784 0.0 0.012403705104194418 0.0 0.0
-0.011006946877635662 0.00891845264952229 0.0 0.01070787436749393 0.0 0.0
-0.009004214212866915 0.007053475199519488 0.0 0.009252342854266238 0.0 0.0
-0.007231844761911882 0.005417636668722414 0.0 0.007933984846246245 0.0 0.0
-0.005693943564355611 0.00402521600474981 0.0 0.006670087702270289 0.0 0.0
-0.004333341830615081 0.0028314127999813365 0.0 0.0054770079443808295 0.0 0.0
-0.0031117682044738137 0.0018321495010078515 0.0 0.004390160274162724 0.0 0.0
-0.002094647624446541 0.0010918915666566775 0.0 0.00355555650963868 0.0 0.0
-0.001351459056718865 0.0006449688691227973 0.0 0.003034245040581418 0.0 0.0
-0.0008936556845916405 0.0004210429180330211 0.0 0.0027124131425355913 0.0 0.0
-0.0006430171662894085 0.0003215836591794474 0.0 0.002466967731954456 0.0 0.0
-0.0005100146773973774 0.0002809930777675218 0.0 0.0022956530309611867 0.0 0.0
-0.0004394262952493594 0.0002512533591845778 0.0 0.0022502545171372845 0.0 0.0
-0.0003708293361467524 0.00016858396705793366 0.0 0.002297241420673113 0.0 0.0
-0.00018614124357843598 -0.00012351960648485094 0.0 0.0022955639979521936 0.0 0.0
0.00026583144231841216 -0.0008302412719129529 0.0 0.001488098384715808 0.0 0.0
0.00018050370349588507 -0.0006422804794842252 0.0 -0.0013163704094275863 0.0 0.0
-0.00023749798528086008 -8.625155719615973e-05 0.0 -0.0021876501780381807 0.0 0.0
-0.00048673917936140065 0.00021444180986207595 0.0 -0.002243616047354402 0.0 0.0
-0.0006348762287928938 0.0003337648722727682 0.0 -0.002187488772271956 0.0 0.0
-0.0007961749703385979 0.0004092043865078221 0.0 -0.002194994809558315 0.0 0.0
-0.001041919046534362 0.0005041147983403382 0.0 -0.002302118465136088 0.0 0.0
-0.001491837631236545 0.0007181173210784042 0.0 -0.0025381652702745894 0.0 0.0
-0.0023323505815546625 0.0012397785256315075 0.0 -0.0030772124306356896 0.0 0.0
-0.0036376019208936433 0.0022237586326578906 0.0 -0.004025447994386366 0.0 0.0
-0.00535456108776268 0.0036668679976716856 0.0 -0.005325211048259837 0.0 0.0
-0.007350627437005583 0.005455439155212849 0.0 -0.00677613997796539 0.0 0.0
-0.009584623281993304 0.007519912819728969 0.0 -0.008211951678551765 0.0 0.0
-0.012119263202549219 0.009901883156661517 0.0 -0.009639267176884181 0.0 0.0
-0.01505505802953884 0.012689414460478332 0.0 -0.011139498147952565 0.0 0.0
-0.01842995184592558 0.015907041127320554 0.0 -0.012883956178483424 0.0 0.0
-0.022088607426652848 0.019396439999117554 0.0 -0.015105463663434182 0.0 0.0
-0.02559271636011219 0.022727064907550165 0.0 -0.017991073104004884 0.0 0.0
-0.02811225036142652 0.025018848826208195 0.0 -0.02104294017324282 0.0 0.0
-0.02807667220876038 0.024694059981246852 0.0 -0.02262306498616612 0.0 0.0
-0.022831169264217743 0.018900214692179063 0.0 -0.019330022762434174 0.0 0.0
-0.022831169264217743 0.01890021469218084 0.0 0.01933002276245671 0.0 0.0
-0.028076672208757106 0.024694059981250405 0.0 0.022623064986196928 0.0 0.0
-0.028112250361417027 0.02501884882620553 0.0 0.021042940173263802 0.0 0.0
-0.0255927163600968 0.022727064907535066 0.0 0.017991073104009825 0.0 0.0
-0.022088607426635 0.019396439999098458 0.0 0.015105463663427132 0.0 0.0
-0.018429951845910147 0.015907041127305455 0.0 0.012883956178474598 0.0 0.0
-0.015055058029523227 0.01268941446046723 0.0 0.01113949814794396 0.0 0.0
-0.012119263202532718 0.009901883156649527 0.0 0.009639267176877742 0.0 0.0
-0.009584623281976623 0.007519912819711871 0.0 0.008211951678540497 0.0 0.0
-0.007350627436989915 0.005455439155197528 0.0 0.006776139977952567 0.0 0.0
-0.005354561087749385 0.003666867997659473 0.0 0.005325211048246403 0.0 0.0
-0.003637601920884234 0.0022237586326485648 0.0 0.0040254479943795385 0.0 0.0
-0.0023323505815485424 0.0012397785256257343 0.0 0.003077212430631804 0.0 0.0
-0.0014918376312332282 0.0007181173210758507 0.0 0.002538165270271814 0.0 0.0
-0.001041919046532544 0.0005041147983403382 0.0 0.0023021184651333404 0.0 0.0
-0.000796174970337904 0.0004092043865068229 0.0 0.0021949948095566496 0.0 0.0
-0.0006348762287919779 0.00033376487227215756 0.0 0.0021874887722702074 0.0 0.0
-0.00048673917936102595 0.00021444180986218697 0.0 0.0022436160473527367 0.0 0.0
-0.00023749798528055477 -8.625155719602096e-05 0.0 0.0021876501780362934 0.0 0.0
0.0001805037034956214 -0.0006422804794837794 0.0 0.0013163704094253104 0.0 0.0
0.00010563708449431997 -0.0004729546600791834 0.0 -0.0011416066729756091 0.0 0.0
-0.00028752424766576024 -4.226076011298874e-05 0.0 -0.0020294726560847187 0.0 0.0
-0.0005958063770805933 0.0002586742972781608 0.0 -0.0021346528243597895 0.0 0.0
-0.0008216373266045351 0.00041005332527954685 0.0 -0.002069777456140842 0.0 0.0
-0.0010687365044876052 0.0005266707730843256 0.0 -0.0020256527191731266 0.0 0.0
-0.0014342804376972773 0.0006905615336955107 0.0 -0.0020925168086670942 0.0 0.0
-0.0021433188558362126 0.0011042437714952058 0.0 -0.00241217990065129 0.0 0.0
-0.003423815664790608 0.002039141798683586 0.0 -0.0031870706569256946 0.0 0.0
-0.005311376419287195 0.0036106024637423406 0.0 -0.0044303403573051625 0.0 0.0
-0.007694205765732709 0.005736399664262093 0.0 -0.005977766346444091 0.0 0.0
-0.010433351490047982 0.008273619517124464 0.0 -0.007571302843526029 0.0 0.0
-0.013527670364653549 0.011185861952109244 0.0 -0.009097736111276011 0.0 0.0
-0.01706457275452611 0.01455476629987662 0.0 -0.010617968718498683 0.0 0.0
-0.02118030912678688 0.01850411948555486 0.0 -0.01224147157692701 0.0 0.0
-0.02594898934904931 0.02309815462753395 0.0 -0.014169308168820505 0.0 0.0
-0.031236116276001882 0.028185905414644274 0.0 -0.016751979669130723 0.0 0.0
-0.036472960686560196 0.033183165530616066 0.0 -0.02021784703053847 0.0 0.0
-0.04040439626420668 0.03681704433156918 0.0 -0.024015935280526313 0.0 0.0
-0.04084586536676109 0.03685703137242369 0.0 -0.02617939755076465 0.0 0.0
-0.03419022790050025 0.029597491176179602 0.0 -0.023241661619989362 0.0 0.0
-0.03419022790049911 0.029597491176180935 0.0 0.02324166162001634 0.0 0.0
-0.04084586536675519 0.036857031372424576 0.0 0.026179397550800954 0.0 0.0
-0.040404396264193426 0.036817044331559856 0.0 0.02401593528055118 0.0 0.0
-0.036472960686540004 0.03318316553059919 0.0 0.020217847030546132 0.0 0.0
-0.031236116275979553 0.028185905414620294 0.0 0.016751979669124728 0.0 0.0
-0.025948989349028048 0.023098154627513523 0.0 0.014169308168812511 0.0 0.0
-0.02118030912676544 0.018504119485533987 0.0 0.012241471576915797 0.0 0.0
-0.017064572754503807 0.01455476629985264 0.0 0.01061796871849019 0.0 0.0
-0.013527670364631511 0.011185861952089704 0.0 0.009097736111262744 0.0 0.0
-0.01043335149002697 0.008273619517106923 0.0 0.007571302843511041 0.0 0.0
-0.007694205765714987 0.005736399664243885 0.0 0.005977766346429103 0.0 0.0
-0.005311376419274205 0.00361060246373035 0.0 0.004430340357296669 0.0 0.0
-0.0034238156647815043 0.002039141798678701 0.0 0.0031870706569196716 0.0 0.0
-0.002143318855831071 0.0011042437714932074 0.0 0.002412179900648015 0.0 0.0
-0.0014342804376950222 0.0006905615336947335 0.0 0.0020925168086646795 0.0 0.0
-0.0010687365044863492 0.0005266707730837705 0.0 0.00202565271917185 0.0 0.0
-0.0008216373266037927 0.00041005332527954685 0.0 0.002069777456139038 0.0 0.0
-0.0005958063770801422 0.0002586742972785494 0.0 0.00213465282435768 0.0 0.0
-0.0002875242476655174 -4.2260760112877715e-05 0.0 0.0020294726560821374 0.0 0.0
0.00010563708449431303 -0.0004729546600789093 0.0 0.0011416066729742491 0.0 0.0
3.9102582370525996e-05 -0.00032310422884285206 0.0 -0.0009631158568173259 0.0 0.0
-0.00033752774546172426 6.671994067730669e-06 0.0 -0.001826298425590317 0.0 0.0
-0.0006990434518716893 0.00030180245886368695 0.0 -0.0019709051684317913 0.0 0.0
-0.000999250281057129 0.00047952126163808284 0.0 -0.0018922859109677947 0.0 0.0
-0.001325570376953189 0.0006332852558578184 0.0 -0.0017972080245977629 0.0 0.0
-0.0018470243976898004 0.0009101892131201383 0.0 -0.0018667426406853427 0.0 0.0
-0.002870425967553769 0.0016039201302591177 0.0 -0.0022841564314015073 0.0 0.0
-0.004619216690764871 0.003005960208349645 0.0 -0.0032295178940149327 0.0 0.0
-0.007072328897548358 0.00516120215414273 0.0 -0.004631980653884593 0.0 0.0
-0.010077511620112056 0.007922335114976642 0.0 -0.006221905491182789 0.0 0.0
-0.013550626923009873 0.011182357329703407 0.0 -0.007802080400109546 0.0 0.0
-0.017511705919834725 0.014945164447603743 0.0 -0.009341472612955315 0.0 0.0
-0.022065851815948723 0.019310054363087747 0.0 -0.010896973112763664 0.0 0.0
-0.02736910796451686 0.024427988971729597 0.0 -0.012555044175968533 0.0 0.0
-0.03354014308495967 0.030404773815563946 0.0 -0.014517809629442935 0.0 0.0
-0.040454306821750705 0.03708766149509968 0.0 -0.0171435307185403 0.0 0.0
-0.04739226250849757 0.04372625214214487 0.0 -0.02073108812379998 0.0 0.0
-0.05266694782667611 0.048619026678715205 0.0 -0.024935671549191407 0.0 0.0
-0.05337185265281999 0.048843650901469804 0.0 -0.02792785842707296 0.0 0.0
-0.04516455970195814 0.0400575894906634 0.0 -0.026889521600272692 0.0 0.0
-0.0451645597019559 0.04005758949065985 0.0 0.026889521600303168 0.0 0.0
-0.05337185265281094 0.04884365090145737 0.0 0.027927858427110652 0.0 0.0
-0.05266694782665947 0.048619026678692556 0.0 0.024935671549218108 0.0 0.0
-0.047392262508473476 0.04372625214212045 0.0 0.02073108812380564 0.0 0.0
-0.040454306821723615 0.03708766149507481 0.0 0.01714353071853497 0.0 0.0
-0.03354014308493282 0.030404773815538633 0.0 0.014517809629437939 0.0 0.0
-0.02736910796448961 0.024427988971705394 0.0 0.012555044175958985 0.0 0.0
-0.022065851815921092 0.0193100543630631 0.0 0.010896973112755837 0.0 0.0
-0.017511705919807094 0.014945164447574655 0.0 0.009341472612943241 0.0 0.0
-0.013550626922984088 0.011182357329677206 0.0 0.007802080400093669 0.0 0.0
-0.010077511620089775 0.007922335114956214 0.0 0.006221905491166829 0.0 0.0
-0.007072328897531732 0.0051612021541243 0.0 0.004631980653875434 0.0 0.0
-0.004619216690752964 0.0030059602083383208 0.0 0.0032295178940082714 0.0 0.0
-0.002870425967546497 0.0016039201302542327 0.0 0.0022841564313960394 0.0 0.0
-0.0018470243976866849 0.0009101892131173628 0.0 0.0018667426406825394 0.0 0.0
-0.001325570376951718 0.00063328525585582 0.0 0.0017972080245978461 0.0 0.0
-0.0009992502810564213 0.0004795212616369726 0.0 0.0018922859109667123 0.0 0.0
-0.0006990434518709537 0.0003018024588624657 0.0 0.0019709051684311807 0.0 0.0
-0.0003375277454614467 6.671994067369846e-06 0.0 0.0018262984255886239 0.0 0.0
3.910258237063702e-05 -0.00032310422884256756 0.0 0.0009631158568156328 0.0 0.0
-1.864036890167342e-05 -0.00019452855751106446 0.0 -0.0007792376699063408 0.0 0.0
-0.0003868809946218632 5.819492480763078e-05 0.0 -0.0015833551739414253 0.0 0.0
-0.0007973401006002856 0.00034390720278143494 0.0 -0.0017536693153352156 0.0 0.0
-0.0011670005824861163 0.0005414516792362489 0.0 -0.0016602217475977787 0.0 0.0
-0.0015773586590981659 0.0007467481086024241 0.0 -0.0015445537315270375 0.0 0.0
-0.002298125449300109 0.0011816478356806437 0.0 -0.0016257849977852623 0.0 0.0
-0.0036776652631121953 0.00221842784035875 0.0 -0.0021169526013917195 0.0 0.0
-0.005898561157241855 0.00410752328448738 0.0 -0.0031530610575642437 0.0 0.0
-0.008868119785009843 0.006799626189758934 0.0 -0.004530049495627075 0.0 0.0
-0.012478196390409702 0.010162509851954882 0.0 -0.006018528615750862 0.0 0.0
-0.016688391318822188 0.014143882675474062 0.0 -0.0075244302170326405 0.0 0.0
-0.021527828559639056 0.018765326045692143 0.0 -0.008995108351758485 0.0 0.0
-0.027115149831999003 0.02414006333282015 0.0 -0.010498294082686654 0.0 0.0
-0.033615859957901784 0.030433328797160986 0.0 -0.012131889815184038 0.0 0.0
-0.041160324774851875 0.037764421160383144 0.0 -0.013971394081295885 0.0 0.0
-0.04963861352088483 0.04598218271357091 0.0 -0.016272751148777798 0.0 0.0
-0.05821914263339016 0.05420959226197697 0.0 -0.019537646383070872 0.0 0.0
-0.0647948361537371 0.06032337231956664 0.0 -0.023865305612416843 0.0 0.0
-0.06576066863631357 0.060755158539491205 0.0 -0.028156565577934944 0.0 0.0
-0.05614688617758981 0.05057684987549749 0.0 -0.030469735633454065 0.0 0.0
-0.056146886177585995 0.05057684987549038 0.0 0.030469735633484096 0.0 0.0
-0.06576066863630176 0.060755158539473886 0.0 0.02815656557797186 0.0 0.0
-0.06479483615371681 0.060323372319543545 0.0 0.023865305612444765 0.0 0.0
-0.05821914263336243 0.05420959226195077 0.0 0.019537646383079865 0.0 0.0
-0.049638613520852665 0.045982182713540265 0.0 0.01627275114877552 0.0 0.0
-0.04116032477481953 0.03776442116035161 0.0 0.013971394081292748 0.0 0.0
-0.03361585995786914 0.03043332879712657 0.0 0.012131889815175934 0.0 0.0
-0.02711514983196614 0.024140063332787065 0.0 0.0104982940826788 0.0 0.0
-0.021527828559605888 0.0187653260456635 0.0 0.008995108351748188 0.0 0.0
-0.01668839131879194 0.014143882675447417 0.0 0.007524430217018069 0.0 0.0
-0.012478196390383021 0.010162509851931567 0.0 0.006018528615736485 0.0 0.0
-0.008868119784989671 0.006799626189740948 0.0 0.0045300494956167225 0.0 0.0
-0.0058985611572270474 0.004107523284472725 0.0 0.003153061057557166 0.0 0.0
-0.003677665263102571 0.002218427840349757 0.0 0.0021169526013859186 0.0 0.0
-0.0022981254492955017 0.0011816478356766469 0.0 0.0016257849977812933 0.0 0.0
-0.001577358659096445 0.000746748108601869 0.0 0.0015445537315258717 0.0 0.0
-0.0011670005824851865 0.0005414516792368596 0.0 0.0016602217475972236 0.0 0.0
-0.0007973401005993558 0.0003439072027812684 0.0 0.0017536693153348548 0.0 0.0
-0.0003868809946217036 5.8194924807325465e-05 0.0 0.001583355173940093 0.0 0.0
-1.8640368901763626e-05 -0.00019452855751065506 0.0 0.0007792376699050085 0.0 0.0
-6.557238376206365e-05 -8.960289476611649e-05 0.0 -0.0005891047738650068 0.0 0.0
-0.0004330720049706138 0.00010937035391905825 0.0 -0.0013050275053084759 0.0 0.0
-0.0008909063581402366 0.000384504535868857 0.0 -0.0014825576729718959 0.0 0.0
-0.0013272942075875926 0.0005975522362006158 0.0 -0.0013796546372923657 0.0 0.0
-0.0018385635712646897 0.0008721270361301547 0.0 -0.0012546830246338014 0.0 0.0
-0.0028001425642985855 0.0015249273936359664 0.0 -0.0013631389264129323 0.0 0.0
-0.004566074108406204 0.0029501123983579625 0.0 -0.001913061616996753 0.0 0.0
-0.007212602288122066 0.005289293493994318 0.0 -0.002885987456100858 0.0 0.0
-0.010669502471434889 0.008472711550230994 0.0 -0.0040846411118543036 0.0 0.0
-0.01488657873682489 0.012433796078049397 0.0 -0.005411406656941453 0.0 0.0
-0.019835135286065203 0.01713706366557144 0.0 -0.0067550942895369115 0.0 0.0
-0.02556461555562345 0.022625988970492283 0.0 -0.008074112150857682 0.0 0.0
-0.032203141695811094 0.029028074868681975 0.0 -0.009450537722234087 0.0 0.0
-0.03990826378057549 0.036497437861070736 0.0 -0.01094815470239302 0.0 0.0
-0.04877909575429487 0.0451306223803134 0.0 -0.012561140032521623 0.0 0.0
-0.058691439221704694 0.05476767619801848 0.0 -0.014311211256744283 0.0 0.0
-0.06879423296996728 0.06447755618638418 0.0 -0.01669781226315581 0.0 0.0
-0.07670139466283216 0.07185373243299109 0.0 -0.02075448522421869 0.0 0.0
-0.07817626148245548 0.07273059093129852 0.0 -0.02685675625439371 0.0 0.0
-0.06746202650494056 0.06143820335950201 0.0 -0.03396851667937478 0.0 0.0
-0.0674620265049355 0.06143820335949979 0.0 0.03396851667940387 0.0 0.0
-0.07817626148244099 0.07273059093128076 0.0 0.026856756254426795 0.0 0.0
-0.0767013946628081 0.071853732432964 0.0 0.02075448522424539 0.0 0.0
-0.06879423296993532 0.06447755618635664 0.0 0.016697812263163636 0.0 0.0
-0.05869143922166796 0.054767676197985615 0.0 0.014311211256743755 0.0 0.0
-0.04877909575425726 0.04513062238027876 0.0 0.012561140032518014 0.0 0.0
-0.039908263780537384 0.03649743786103543 0.0 0.010948154702386498 0.0 0.0
-0.03220314169577284 0.029028074868642895 0.0 0.00945053772222701 0.0 0.0
-0.025564615555584917 0.02262598897045609 0.0 0.00807411215084955 0.0 0.0
-0.01983513528603026 0.017137063665540797 0.0 0.0067550942895232835 0.0 0.0
-0.014886578736794435 0.012433796078020976 0.0 0.005411406656929629 0.0 0.0
-0.010669502471411144 0.008472711550207679 0.0 0.0040846411118451165 0.0 0.0
-0.007212602288104282 0.005289293493978109 0.0 0.0028859874560955845 0.0 0.0
-0.004566074108394214 0.0029501123983486366 0.0 0.0019130616169920622 0.0 0.0
-0.0028001425642926597 0.0015249273936318586 0.0 0.0013631389264096572 0.0 0.0
-0.0018385635712623583 0.0008721270361294886 0.0 0.0012546830246321916 0.0 0.0
-0.0013272942075864477 0.0005975522362002272 0.0 0.0013796546372904228 0.0 0.0
-0.000890906358139508 0.0003845045358686905 0.0 0.0014825576729694534 0.0 0.0
-0.0004330720049701975 0.00010937035391964112 0.0 0.0013050275053071436 0.0 0.0
-6.557238376207059e-05 -8.960289476597598e-05 0.0 0.0005891047738646182 0.0 0.0
-9.80187328742943e-05 -1.1346516002014306e-05 0.0 -0.0003944647537842405 0.0 0.0
-0.00047117770279886395 0.00015655114784585145 0.0 -0.0009936425470790933 0.0 0.0
-0.0009797110539751797 0.00042203031542487057 0.0 -0.0011565019477604022 0.0 0.0
-0.0014855480943943566 0.000655190608376488 0.0 -0.0010530813336794564 0.0 0.0
-0.002122210326141072 0.0010271820471695614 0.0 -0.000934380257126638 0.0 0.0
-0.003371421655321283 0.0019512874576878003 0.0 -0.0010825261803174835 0.0 0.0
-0.005500557428061881 0.0037559143261163275 0.0 -0.001578147445984751 0.0 0.0
-0.0085291005246097 0.006499445830802308 0.0 -0.002360471297133626 0.0 0.0
-0.012468833534086565 0.010164301683126764 0.0 -0.003333791154936927 0.0 0.0
-0.01728856608621812 0.014716934904096535 0.0 -0.0044153015322925815 0.0 0.0
-0.022979831506095866 0.02014426501582256 0.0 -0.00551622637335375 0.0 0.0
-0.029609591687894066 0.02651146246116398 0.0 -0.006594862518882416 0.0 0.0
-0.03731457841885952 0.03395349841848572 0.0 -0.0077275783735403225 0.0 0.0
-0.04623259828534704 0.04260593589329065 0.0 -0.009013811158959384 0.0 0.0
-0.05638501761762063 0.052487558305001514 0.0 -0.010349843079034304 0.0 0.0
-0.06754867830636199 0.06335866667278145 0.0 -0.011426282391618914 0.0 0.0
-0.07892784033660066 0.07435971008663378 0.0 -0.012462765261612052 0.0 0.0
-0.08826769455793736 0.08310613693967239 0.0 -0.015602505558885038 0.0 0.0
-0.09075609194679504 0.08489819292757117 0.0 -0.02365938418742186 0.0 0.0
-0.07947440274982387 0.0729669308997094 0.0 -0.03711672199964672 0.0 0.0
-0.07947440274981805 0.07296693089970052 0.0 0.03711672199966981 0.0 0.0
-0.09075609194677789 0.0848981929275534 0.0 0.023659384187449783 0.0 0.0
-0.0882676945579093 0.0831061369396453 0.0 0.015602505558908242 0.0 0.0
-0.07892784033656391 0.07435971008659692 0.0 0.012462765261618047 0.0 0.0
-0.06754867830632062 0.0633586666727437 0.0 0.01142628239161872 0.0 0.0
-0.05638501761757796 0.05248755830496199 0.0 0.010349843079032167 0.0 0.0
-0.04623259828530365 0.04260593589324824 0.0 0.009013811158954138 0.0 0.0
-0.03731457841881529 0.03395349841844708 0.0 0.007727578373532773 0.0 0.0
-0.029609591687850635 0.026511462461125124 0.0 0.0065948625188782806 0.0 0.0
-0.02297983150605634 0.020144265015783924 0.0 0.005516226373342481 0.0 0.0
-0.017288566086184325 0.014716934904063228 0.0 0.004415301532282118 0.0 0.0
-0.012468833534059417 0.010164301683099453 0.0 0.003333791154928323 0.0 0.0
-0.00852910052458914 0.006499445830780326 0.0 0.002360471297127409 0.0 0.0
-0.005500557428047656 0.003755914326103005 0.0 0.001578147445979311 0.0 0.0
-0.003371421655313664 0.0019512874576824712 0.0 0.0010825261803143749 0.0 0.0
-0.0021222103261380985 0.001027182047167563 0.0 0.000934380257125611 0.0 0.0
-0.0014855480943931285 0.0006551906083751557 0.0 0.0010530813336791511 0.0 0.0
-0.0009797110539743782 0.00042203031542487057 0.0 0.0011565019477593752 0.0 0.0
-0.0004711777027983331 0.00015655114784565716 0.0 0.000993642547078677 0.0 0.0
-9.801873287418675e-05 -1.134651600236819e-05 0.0 0.0003944647537847401 0.0 0.0
-0.00010968581032036462 3.6373284194868294e-05 0.0 -0.00020198376409058527 0.0 0.0
-0.0004926575770271557 0.00019405978632985876 0.0 -0.0006488778608405577 0.0 0.0
-0.001064383643710226 0.00045626719964958484 0.0 -0.0007688233503547193 0.0 0.0
-0.001651126856590468 0.0007201834409293895 0.0 -0.0006844982019109103 0.0 0.0
-0.002448593243602082 0.0012386051432388134 0.0 -0.0006055402179939162 0.0 0.0
-0.0040030459437614685 0.0024585292632941513 0.0 -0.0007345631032425193 0.0 0.0
-0.006444167844502829 0.004602634878313028 0.0 -0.001089731162674551 0.0 0.0
-0.009842387240029254 0.007722832732989682 0.0 -0.0016169887118377413 0.0 0.0
-0.014252757338091199 0.011857587457191565 0.0 -0.0022851372101894696 0.0 0.0
-0.019671343620646126 0.016996252206492812 0.0 -0.0030401816908748325 0.0 0.0
-0.02611021416266507 0.023151037579675515 0.0 -0.003806104213439687 0.0 0.0
-0.03365133242149784 0.030406243154375012 0.0 -0.004557144676032299 0.0 0.0
-0.042435336015813147 0.03890070446137228 0.0 -0.005380170361193648 0.0 0.0
-0.05256172584863886 0.04872999299156211 0.0 -0.0063062580201333485 0.0 0.0
-0.0639579067360724 0.05981622005626308 0.0 -0.007214487171972206 0.0 0.0
-0.07623354561228543 0.0717682886045985 0.0 -0.007772567061078428 0.0 0.0
-0.08852962424059857 0.08371368653280031 0.0 -0.00763125393203079 0.0 0.0
-0.09909315987807694 0.09378822120512043 0.0 -0.008486877942488258 0.0 0.0
-0.10355631293092386 0.09729967624710145 0.0 -0.017360574329388367 0.0 0.0
-0.09274236242533941 0.08566468935532567 0.0 -0.039213609987469256 0.0 0.0
-0.09274236242533206 0.0856646893553199 0.0 0.03921360998748552 0.0 0.0
-0.10355631293090414 0.09729967624708014 0.0 0.01736057432940996 0.0 0.0
-0.0990931598780446 0.09378822120508623 0.0 0.008486877942506965 0.0 0.0
-0.08852962424055667 0.08371368653275901 0.0 0.007631253932032345 0.0 0.0
-0.0762335456122389 0.07176828860455275 0.0 0.007772567061079677 0.0 0.0
-0.06395790673602456 0.05981622005621712 0.0 0.0072144871719714565 0.0 0.0
-0.05256172584859026 0.04872999299151726 0.0 0.0063062580201311 0.0 0.0
-0.04243533601576294 0.038900704461326985 0.0 0.005380170361188985 0.0 0.0
-0.033651332421449257 0.03040624315433016 0.0 0.004557144676029357 0.0 0.0
-0.02611021416262112 0.023151037579634437 0.0 0.003806104213431638 0.0 0.0
-0.01967134362060877 0.016996252206459506 0.0 0.003040181690867727 0.0 0.0
-0.01425275733806088 0.011857587457167362 0.0 0.0022851372101851675 0.0 0.0
-0.00984238724000604 0.00772283273297103 0.0 0.001616988711835271 0.0 0.0
-0.006444167844486426 0.004602634878297596 0.0 0.0010897311626725248 0.0 0.0
-0.004003045943752044 0.0024585292632850475 0.0 0.0007345631032410482 0.0 0.0
-0.0024485932435980642 0.001238605143236704 0.0 0.000605540217993028 0.0 0.0
-0.0016511268565891739 0.0007201834409295005 0.0 0.0006844982019106605 0.0 0.0
-0.00106438364370922 0.0004562671996494183 0.0 0.0007688233503552189 0.0 0.0
-0.0004926575770267949 0.00019405978632991427 0.0 0.0006488778608406409 0.0 0.0
-0.00010968581032032992 3.637328419477462e-05 0.0 0.0002019837640896971 0.0 0.0
-8.925929210140682e-05 4.796309831189838e-05 0.0 -2.7505402427296932e-05 0.0 0.0
-0.0004834191427136869 0.00021329136068670707 0.0 -0.00026445677924216704 0.0 0.0
-0.0011474040963397325 0.0004866242765849127 0.0 -0.00030515620207957617 0.0 0.0
-0.0018412811715057542 0.0008104191264042271 0.0 -0.0002807172669038738 0.0 0.0
-0.0028322426421505953 0.0015060449452877211 0.0 -0.0002471780498861098 0.0 0.0
-0.004664487850990551 0.0030120406254834364 0.0 -0.0002944944811435757 0.0 0.0
-0.0073890218390881 0.005467229202642754 0.0 -0.00044400708978448167 0.0 0.0
-0.011139298462072705 0.008945270926156823 0.0 -0.0006576711592832796 0.0 0.0
-0.016008838697522704 0.01353554916109001 0.0 -0.0009465827364886215 0.0 0.0
-0.022020964095163548 0.019254662608108042 0.0 -0.0012855234669797988 0.0 0.0
-0.029214742588441367 0.02614509201319315 0.0 -0.0016294112500092606 0.0 0.0
-0.037684049569527145 0.034302990172803804 0.0 -0.001987483902491982 0.0 0.0
-0.04754201790937099 0.04384447778417511 0.0 -0.002374619971762304 0.0 0.0
-0.05885440350385748 0.054828686695398865 0.0 -0.0027812386248857734 0.0 0.0
-0.07146967438188329 0.06709563923140749 0.0 -0.0031480453008468356 0.0 0.0
-0.08480820600107775 0.0800677590554586 0.0 -0.0032615267227559253 0.0 0.0
-0.09777118338424762 0.0926666385984527 0.0 -0.0027580888332298104 0.0 0.0
-0.10878738459147969 0.10332461455205122 0.0 -0.0015744733772493635 0.0 0.0
-0.11530461528177037 0.10927973296289162 0.0 -0.0054520562477646806 0.0 0.0
-0.1088659986650399 0.10071244271975788 0.0 -0.03620573721585829 0.0 0.0
-0.10886599866503133 0.100712442719749 0.0 0.036205737215864564 0.0 0.0
-0.11530461528174814 0.10927973296286941 0.0 0.0054520562477740064 0.0 0.0
-0.10878738459144274 0.10332461455201214 0.0 0.0015744733772581343 0.0 0.0
-0.09777118338419957 0.09266663859840474 0.0 0.002758088833228617 0.0 0.0
-0.08480820600102576 0.0800677590554093 0.0 0.0032615267227559808 0.0 0.0
-0.07146967438183029 0.06709563923135708 0.0 0.003148045300845531 0.0 0.0
-0.05885440350380277 0.05482868669534735 0.0 0.0027812386248859677 0.0 0.0
-0.04754201790931581 0.043844477784122704 0.0 0.0023746199717600003 0.0 0.0
-0.03768404956947345 0.03430299017275096 0.0 0.0019874839024912883 0.0 0.0
-0.029214742588392774 0.02614509201314652 0.0 0.0016294112500049862 0.0 0.0
-0.022020964095122615 0.019254662608068962 0.0 0.001285523466976246 0.0 0.0
-0.016008838697489647 0.013535549161057592 0.0 0.0009465827364857349 0.0 0.0
-0.011139298462046858 0.008945270926132176 0.0 0.0006576711592816142 0.0 0.0
-0.007389021839069697 0.005467229202625323 0.0 0.0004440070897833992 0.0 0.0
-0.0046644878509797755 0.0030120406254728893 0.0 0.00029449448114265975 0.0 0.0
-0.002832242642145556 0.0015060449452840574 0.0 0.0002471780498861098 0.0 0.0
-0.00184128117150403 0.0008104191264029503 0.0 0.0002807172669033464 0.0 0.0
-0.001147404096338781 0.00048662427658469065 0.0 0.00030515620207946514 0.0 0.0
-0.000483419142713379 0.00021329136068684584 0.0 0.0002644567792408903 0.0 0.0
-8.925929210141636e-05 4.79630983118446e-05 0.0 2.7505402427074888e-05 0.0 0.0
SCALARS Statev float 8
LOOKUP_TABLE default
0.0 0.010308632758604653 0.007875141383413591 -0.008259433354870324 0.0003842919714567374 -0.004460230162316253 0.0 0.0
0.0 0.0003470021065556611 0.00020931393791532752 -0.00016561277012860654 -4.3701167786721034e-05 0.0002268653683388253 0.0 0.0
0.0 3.342380937738801e-05 -4.754075056001044e-06 3.773145031477424e-06 9.809300245235895e-07 5.62033213615258e-07 0.0 0.0
0.0 0.0001244290524867384 5.248271847280861e-05 -4.079024899884148e-05 -1.169246947396722e-05 -7.092532957472533e-06 0.0 0.0
0.0 0.0008362207191036164 0.0006018942635977337 -0.00048413662079237543 -0.00011775764280535849 -6.768967703152388e-05 0.0 0.0
0.0 0.002292386898584141 0.0021090026650143136 -0.0017745991326605357 -0.00033440353235377797 -0.00017316894443785978 0.0 0.0
0.0 0.00504461736244662 0.004568259246604999 -0.004036808333891054 -0.000531450912713945 -0.0003216632705772262 0.0 0.0
0.0 0.009059166382063622 0.008096253336778778 -0.00741368154313618 -0.0006825717936425959 -0.0005249876638412613 0.0 0.0
0.0 0.014406085214586709 0.012746942316227288 -0.011946458280941825 -0.0008004840352854596 -0.0007975570446630798 0.0 0.0
0.0 0.021104941357143706 0.018540592743826065 -0.017633891291913638 -0.000906701451912427 -0.0011235576513640806 0.0 0.0
0.0 0.029230655963127752 0.025525982091428895 -0.024514953763211323 -0.0010110283282175705 -0.0014645472982109272 0.0 0.0
0.0 0.03861507825093742 0.0338064789305955 -0.032689566762269716 -0.001116912168325766 -0.001826023105720138 0.0 0.0
0.0 0.04969213097126282 0.043491005356360087 -0.04226703786527657 -0.0012239674910834906 -0.002213026784160236 0.0 0.0
0.0 0.0625461845457355 0.05465455678733777 -0.05332088278669721 -0.0013336740006405536 -0.002625574583838619 0.0 0.0
0.0 0.07701383094167745 0.06721061065160412 -0.06576251342660552 -0.0014480972249985907 -0.003067726167319076 0.0 0.0
0.0 0.0926606254252339 0.08075209628733175 -0.07918512905896546 -0.0015669672283662942 -0.0034673539526323405 0.0 0.0
0.0 0.10852862145094327 0.09447763542737236 -0.09279082354405249 -0.001686811883319918 -0.0036523163606329194 0.0 0.0
0.0 0.12326185793218979 0.10722891292972894 -0.10542741931960739 -0.0018014936101215235 -0.0033879230411201777 0.0 0.0
0.0 0.13525560596878897 0.11761558216991726 -0.11571141734167016 -0.0019041648282470628 -0.0026814286123819464 0.0 0.0
0.0 0.14235545997411564 0.12390401357396945 -0.12188411404315326 -0.0020198995308161535 -0.0023465161392067315 0.0 0.0
0.0 0.14235545997410892 0.12390401357396331 -0.12188411404314764 -0.0020198995308156552 0.0023465161392103636 0.0 0.0
0.0 0.13525560596876718 0.11761558216989768 -0.115711417341652 -0.0019041648282456768 0.0026814286123964916 0.0 0.0
0.0 0.12326185793214736 0.10722891292969211 -0.1054274193195711 -0.001801493610120986 0.003387923041126733 0.0 0.0
0.0 0.10852862145089051 0.09447763542732655 -0.092790823544007 -0.0016868118833195153 0.0036523163606384224 0.0 0.0
0.0 0.09266062542517702 0.08075209628728224 -0.07918512905891659 -0.001566967228365658 0.0034673539526259506 0.0 0.0
0.0 0.0770138309416207 0.06721061065155463 -0.06576251342655678 -0.0014480972249978376 0.0030677261673190508 0.0 0.0
0.0 0.06254618454567812 0.05465455678728773 -0.053320882786648024 -0.0013336740006396894 0.0026255745838381695 0.0 0.0
0.0 0.049692130971204555 0.04349100535630931 -0.04226703786522666 -0.001223967491082634 0.002213026784160158 0.0 0.0
0.0 0.038615078250880966 0.033806478930546266 -0.032689566762221324 -0.0011169121683249352 0.001826023105716157 0.0 0.0
0.0 0.02923065596307889 0.025525982091386026 -0.02451495376316911 -0.0010110283282169015 0.0014645472982088878 0.0 0.0
0.0 0.02110494135710169 0.018540592743789434 -0.01763389129187772 -0.0009067014519117151 0.0011235576513598537 0.0 0.0
0.0 0.014406085214553733 0.012746942316197983 -0.011946458280913159 -0.0008004840352848272 0.0007975570446617076 0.0 0.0
0.0 0.009059166382039541 0.008096253336756874 -0.007413681543115022 -0.0006825717936418519 0.0005249876638395951 0.0 0.0
0.0 0.005044617362431457 0.004568259246590836 -0.004036808333877735 -0.0005314509127130997 0.0003216632705763752 0.0 0.0
0.0 0.002292386898575155 0.00210900266500555 -0.0017745991326527238 -0.00033440353235282636 0.00017316894443703595 0.0 0.0
0.0 0.0008362207190996455 0.0006018942635946753 -0.0004841366207898398 -0.00011775764280483554 6.768967703116345e-05 0.0 0.0
0.0 0.00012442905248569744 5.248271847281782e-05 -4.0790248998844554e-05 -1.1692469473973271e-05 7.092532957438011e-06 0.0 0.0
0.0 3.342380937687491e-05 -4.754075055922566e-06 3.7731450314146314e-06 9.80930024507978e-07 -5.620332136057866e-07 0.0 0.0
0.0 0.0003470021065538752 0.00020931393791445295 -0.00016561277012791517 -4.370116778653797e-05 -0.00022686536833762096 0.0 0.0
0.0 0.010308632758588673 0.00787514138340277 -0.008259433354858502 0.00038429197145572916 0.004460230162292775 0.0 0.0
0.0 0.007374967269278011 0.0052812145215766345 -0.005757537296005413 0.00047632277442877837 -0.004999691165030982 0.0 0.0
0.0 0.0 0.0 0.0 0.0 0.0 0.0 0.0
0.0 9.430826945183483e-08 -1.020951514236367e-08 7.758883502814768e-09 2.450631639548195e-09 3.6392644398315674e-09 0.0 0.0
0.0 3.690159340765702e-05 4.2008891303209036e-06 -3.27591800160351e-06 -9.249711287176295e-07 -2.355599299973001e-06 0.0 0.0
0.0 0.0005071020503330221 0.0003142253655051323 -0.00025052953942686314 -6.369582607826918e-05 -8.602003141005523e-05 0.0 0.0
0.0 0.0016729268485758712 0.001541351590321565 -0.0012777833900775423 -0.0002635682002440229 -0.00034195251201090126 0.0 0.0
0.0 0.0040918566672386095 0.0037052187314233582 -0.0032301586878352015 -0.00047506004358815573 -0.0007240480599416673 0.0 0.0
0.0 0.007696395943124786 0.006875558745433118 -0.006233507474250664 -0.0006420512711824536 -0.0012329399683040571 0.0 0.0
0.0 0.012507023137906352 0.011068985095954465 -0.010301861334001282 -0.0007671237619531824 -0.0018744553179153654 0.0 0.0
0.0 0.018510028091282077 0.0162737180962158 -0.01540087412801182 -0.0008728439682039737 -0.0026128239102743618 0.0 0.0
0.0 0.025726307787008827 0.022510466525938824 -0.02153812287310362 -0.0009723436528351919 -0.003382007570788803 0.0 0.0
0.0 0.03430170539617849 0.029868923821813064 -0.02879877572652836 -0.0010701480952847132 -0.00415059720888436 0.0 0.0
0.0 0.04410898259521373 0.038495011555355896 -0.0373263958505172 -0.0011686157048386842 -0.004989729129983331 0.0 0.0
0.0 0.05555537531869517 0.048482636775006124 -0.0472131303134013 -0.0012695064616048113 -0.005932332530632314 0.0 0.0
0.0 0.0685619730120729 0.059764746255878395 -0.05839054631338406 -0.0013741999424943363 -0.006931535251486202 0.0 0.0
0.0 0.08265427574583695 0.0719938565061047 -0.07051130736521856 -0.0014825491408861288 -0.007838022343385508 0.0 0.0
0.0 0.09703153740160783 0.08446630040341035 -0.0828742621790921 -0.0015920382243182131 -0.008285406603464194 0.0 0.0
0.0 0.11049509335245541 0.09613762992042504 -0.09443878478982848 -0.001698845130596549 -0.007843246651116444 0.0 0.0
0.0 0.12143093771221902 0.10563211508890352 -0.10382683441236094 -0.0018052806765426223 -0.006451679130316545 0.0 0.0
0.0 0.12792184696743059 0.1112867590741832 -0.10940347300400413 -0.0018832860701791096 -0.00403353409869399 0.0 0.0
0.0 0.12792184696742095 0.11128675907417496 -0.10940347300399539 -0.0018832860701795658 0.004033534098707912 0.0 0.0
0.0 0.12143093771219646 0.1056321150888837 -0.10382683441234108 -0.0018052806765426054 0.006451679130342067 0.0 0.0
0.0 0.11049509335241975 0.09613762992039356 -0.09443878478979759 -0.0016988451305959453 0.007843246651133704 0.0 0.0
0.0 0.09703153740156203 0.08446630040337025 -0.0828742621790525 -0.0015920382243176912 0.008285406603473603 0.0 0.0
0.0 0.08265427574578774 0.07199385650606205 -0.07051130736517645 -0.001482549140885569 0.00783802234337998 0.0 0.0
0.0 0.06856197301202206 0.059764746255834146 -0.05839054631334041 -0.001374199942493738 0.006931535251484898 0.0 0.0
0.0 0.05555537531864206 0.04848263677496005 -0.04721313031335555 -0.0012695064616044607 0.005932332530631 0.0 0.0
0.0 0.044108982595160016 0.03849501155530922 -0.03732639585047092 -0.0011686157048383032 0.004989729129981458 0.0 0.0
0.0 0.034301705396128056 0.029868923821769065 -0.028798775726484965 -0.0010701480952840967 0.004150597208878249 0.0 0.0
0.0 0.02572630778696412 0.022510466525899674 -0.02153812287306533 -0.0009723436528343407 0.0033820075707835695 0.0 0.0
0.0 0.018510028091245388 0.016273718096183495 -0.015400874127980222 -0.0008728439682032733 0.0026128239102665993 0.0 0.0
0.0 0.012507023137878437 0.01106898509592935 -0.010301861333976784 -0.0007671237619525627 0.001874455317911953 0.0 0.0
0.0 0.007696395943103354 0.006875558745413772 -0.006233507474232142 -0.000642051271181631 0.0012329399683001013 0.0 0.0
0.0 0.004091856667225112 0.003705218731410673 -0.0032301586878235055 -0.0004750600435871665 0.000724048059939397 0.0 0.0
0.0 0.0016729268485679448 0.0015413515903143582 -0.0012777833900712884 -0.00026356820024306935 0.0003419525120092559 0.0 0.0
0.0 0.0005071020503293488 0.0003142253655026563 -0.0002505295394248559 -6.369582607780041e-05 8.602003140942742e-05 0.0 0.0
0.0 3.6901593407027805e-05 4.200889130389463e-06 -3.275918001654148e-06 -9.249711287351745e-07 2.355599299991548e-06 0.0 0.0
0.0 9.430826938068039e-08 -1.0209515134588993e-08 7.758883496907494e-09 2.4506316376819497e-09 -3.6392644370560787e-09 0.0 0.0
0.0 0.0 0.0 0.0 0.0 0.0 0.0 0.0
0.0 0.0073749672692603446 0.005281214521564905 -0.005757537295992839 0.00047632277442793405 0.004999691165011177 0.0 0.0
0.0 0.0054299281733222095 0.003666226665229314 -0.004145007539380951 0.0004787808741516383 -0.004282589493803002 0.0 0.0
0.0 0.0 0.0 0.0 0.0 0.0 0.0 0.0
0.0 0.0 0.0 0.0 0.0 0.0 0.0 0.0
0.0 4.196293121727125e-06 9.506429423664686e-07 -7.400537137514491e-07 -2.1058922861504046e-07 -7.063282084438407e-07 0.0 0.0
0.0 0.00022425725076277586 0.00013072292637571957 -0.00010336429579003196 -2.735863058568753e-05 -6.515481699917776e-05 0.0 0.0
0.0 0.0012654279599287799 0.0009975350576807741 -0.00081535818927786 -0.0001821768684029133 -0.00038660594863828423 0.0 0.0
0.0 0.003176602437380749 0.0028610343902310724 -0.0024538442721845077 -0.000407190118046565 -0.0009570933230972211 0.0 0.0
0.0 0.0063530238016714 0.005656521916262213 -0.005066359098522398 -0.0005901628177398135 -0.0017263190069694127 0.0 0.0
0.0 0.010639164139248758 0.009378442638812485 -0.008652168124579982 -0.0007262745142325021 -0.0026668048543326195 0.0 0.0
0.0 0.015965998786910233 0.01398892658853643 -0.013155447881618279 -0.00083347870691815 -0.003730507892487868 0.0 0.0
0.0 0.022351746764799053 0.01948319103404607 -0.018554584784024834 -0.0009286062500212418 -0.004839267320728568 0.0 0.0
0.0 0.02979354498213306 0.025938343825121446 -0.02491898875545573 -0.0010193550696657111 -0.005947681666839902 0.0 0.0
0.0 0.038623629827760575 0.03349591568884733 -0.0323864565883991 -0.0011094591004482306 -0.007118765667931627 0.0 0.0
0.0 0.04865578956321054 0.04228498773614318 -0.041083547883373504 -0.0012014398527696536 -0.008457232571044988 0.0 0.0
0.0 0.06012977101707155 0.0522716773448684 -0.050975592966546225 -0.0012960843783221573 -0.009916224549014271 0.0 0.0
0.0 0.07270844839095963 0.06317331347150298 -0.06177973655938423 -0.0013935769121187333 -0.011228469615048586 0.0 0.0
0.0 0.08562727475373669 0.0743990212639801 -0.07290636874961573 -0.0014926525143643358 -0.011925858853280062 0.0 0.0
0.0 0.09778896507975826 0.08501071921085128 -0.08341696746864201 -0.0015937517422092288 -0.011457929953465132 0.0 0.0
0.0 0.10771834468997597 0.09370720120903889 -0.09201821092059623 -0.0016889902884425925 -0.009400356563975518 0.0 0.0
0.0 0.11375111620704878 0.09903183433173547 -0.09727707114583035 -0.0017547631859050697 -0.005302921548706643 0.0 0.0
0.0 0.11375111620704292 0.09903183433172985 -0.09727707114582514 -0.0017547631859046824 0.0053029215487295795 0.0 0.0
0.0 0.10771834468995653 0.0937072012090212 -0.09201821092057859 -0.0016889902884425873 0.009400356564010122 0.0 0.0
0.0 0.09778896507972815 0.08501071921082416 -0.08341696746861534 -0.0015937517422087667 0.01145792995348855 0.0 0.0
0.0 0.08562727475369875 0.07439902126394643 -0.07290636874958284 -0.0014926525143636243 0.011925858853290477 0.0 0.0
0.0 0.07270844839091598 0.06317331347146524 -0.06177973655934696 -0.0013935769121182714 0.011228469615041942 0.0 0.0
0.0 0.06012977101702621 0.052271677344828876 -0.0509755929665073 -0.0012960843783215825 0.009916224549012111 0.0 0.0
0.0 0.04865578956316475 0.042284987736103306 -0.04108354788333403 -0.0012014398527692765 0.008457232571042923 0.0 0.0
0.0 0.03862362982771697 0.03349591568880907 -0.03238645658836162 -0.001109459100447455 0.007118765667928508 0.0 0.0
0.0 0.02979354498209004 0.025938343825084084 -0.024918988755419196 -0.0010193550696648826 0.005947681666830908 0.0 0.0
0.0 0.022351746764757943 0.019483191034009945 -0.018554584783989216 -0.0009286062500207262 0.004839267320720618 0.0 0.0
0.0 0.015965998786875674 0.013988926588506029 -0.01315544788158843 -0.0008334787069175944 0.0037305078924774757 0.0 0.0
0.0 0.010639164139221514 0.00937844263878837 -0.008652168124556487 -0.0007262745142318833 0.0026668048543262183 0.0 0.0
0.0 0.00635302380165268 0.0056565219162453256 -0.005066359098506341 -0.0005901628177389854 0.0017263190069640496 0.0 0.0
0.0 0.003176602437369129 0.002861034390220298 -0.002453844272174776 -0.000407190118045522 0.0009570933230940239 0.0 0.0
0.0 0.0012654279599216057 0.0009975350576749288 -0.0008153581892728966 -0.00018217686840203148 0.0003866059486358844 0.0 0.0
0.0 0.00022425725076064923 0.00013072292637451402 -0.00010336429578906197 -2.7358630585451922e-05 6.515481699853369e-05 0.0 0.0
0.0 4.196293121449182e-06 9.506429426457866e-07 -7.400537139676431e-07 -2.1058922867816305e-07 7.063282086291232e-07 0.0 0.0
0.0 0.0 0.0 0.0 0.0 0.0 0.0 0.0
0.0 0.0 0.0 0.0 0.0 0.0 0.0 0.0
0.0 0.005429928173306786 0.0036662266652187133 -0.004145007539369506 0.0004787808741507939 0.004282589493786123 0.0 0.0
0.0 0.003941275139912202 0.0025376991817737957 -0.0029665991518837706 0.00042889997010997244 -0.0032765120845006986 0.0 0.0
0.0 0.0 0.0 0.0 0.0 0.0 0.0 0.0
0.0 0.0 0.0 0.0 0.0 0.0 0.0 0.0
0.0 1.7764958665315978e-06 -1.7819784007305854e-07 1.3787375697884427e-07 4.03240830942293e-08 1.8782013220909485e-07 0.0 0.0
0.0 7.91870489648161e-05 3.7701673975439786e-05 -2.9689692465783617e-05 -8.011981509656054e-06 -3.067864069392791e-05 0.0 0.0
0.0 0.0007830431807855298 0.0005712868602907894 -0.0004607338636048128 -0.00011055299668597657 -0.00033873914622933583 0.0 0.0
0.0 0.0023582313353027384 0.0020477511597253627 -0.0017252034114072546 -0.0003225477483181076 -0.0010195260783350706 0.0 0.0
0.0 0.005049090289214748 0.004453330570752221 -0.003928134520616532 -0.0005251960501356899 -0.0019965295573665426 0.0 0.0
0.0 0.008793379119580827 0.007691002714047866 -0.007016460347871177 -0.0006745423661766886 -0.003167178470347629 0.0 0.0
0.0 0.013440312685354207 0.011702926961375402 -0.010916611259062268 -0.0007863157023131262 -0.00447725156527159 0.0 0.0
0.0 0.018979889719051478 0.016459778577898657 -0.015580695230033598 -0.0008790833478650531 -0.005832337850051115 0.0 0.0
0.0 0.025457164496540313 0.02201860795565928 -0.02105466514951299 -0.0009639428061462875 -0.0071896917398186575 0.0 0.0
0.0 0.03300782502704462 0.028518056007804972 -0.027472182378091452 -0.0010458736297135204 -0.008631170945573589 0.0 0.0
0.0 0.04183216134957513 0.03609457426907169 -0.03496536603325547 -0.0011292082358162244 -0.010231758242424397 0.0 0.0
0.0 0.05190341738031345 0.04475925261559162 -0.04354547189691864 -0.0012137807186729716 -0.011972913837892693 0.0 0.0
0.0 0.062764357278466 0.054312626522551644 -0.053012711238326654 -0.001299915284224988 -0.013605369059336687 0.0 0.0
0.0 0.0742297359983935 0.06427329445292049 -0.06288428005290886 -0.001389014400011629 -0.014563853235847702 0.0 0.0
0.0 0.08515268294993156 0.07383224319009399 -0.07235179712771148 -0.0014804460623825345 -0.014141909371642655 0.0 0.0
0.0 0.09420677900553585 0.0818395427347488 -0.08027347111899097 -0.0015660716157578681 -0.011625308703001684 0.0 0.0
0.0 0.09993734774856299 0.08698918406872885 -0.08536325764451401 -0.0016259264242148013 -0.006337928673200759 0.0 0.0
0.0 0.09993734774855569 0.08698918406872197 -0.08536325764450733 -0.0016259264242146443 0.0063379286732295394 0.0 0.0
0.0 0.09420677900551827 0.08183954273473203 -0.08027347111897451 -0.0015660716157575058 0.011625308703041206 0.0 0.0
0.0 0.08515268294990402 0.0738322431900687 -0.0723517971276864 -0.0014804460623822956 0.014141909371669786 0.0 0.0
0.0 0.07422973599835782 0.06427329445288883 -0.06288428005287716 -0.0013890144000116705 0.014563853235860066 0.0 0.0
0.0 0.06276435727842854 0.054312626522518996 -0.053012711238294895 -0.0012999152842240946 0.013605369059331428 0.0 0.0
0.0 0.05190341738027478 0.04475925261555796 -0.04354547189688569 -0.0012137807186722493 0.01197291383788816 0.0 0.0
0.0 0.041832161349535976 0.0360945742690376 -0.03496536603322172 -0.001129208235815878 0.010231758242420456 0.0 0.0
0.0 0.033007825027006665 0.028518056007771672 -0.027472182378058645 -0.0010458736297130277 0.008631170945569568 0.0 0.0
0.0 0.02545716449650205 0.022018607955625834 -0.02105466514948012 -0.0009639428061457092 0.007189691739808563 0.0 0.0
0.0 0.01897988971901852 0.01645977857786957 -0.01558069523000535 -0.0008790833478642284 0.005832337850041151 0.0 0.0
0.0 0.01344031268532691 0.011702926961351645 -0.01091661125903929 -0.0007863157023123505 0.004477251565259926 0.0 0.0
0.0 0.008793379119557595 0.007691002714027331 -0.0070164603478513575 -0.0006745423661759719 0.00316717847034019 0.0 0.0
0.0 0.005049090289197069 0.004453330570736518 -0.003928134520601725 -0.0005251960501347914 0.0019965295573596193 0.0 0.0
0.0 0.0023582313352915768 0.002047751159715604 -0.0017252034113985737 -0.00032254774831703037 0.0010195260783307746 0.0 0.0
0.0 0.0007830431807799982 0.0005712868602869888 -0.0004607338636016824 -0.00011055299668530645 0.00033873914622708834 0.0 0.0
0.0 7.918704896336641e-05 3.770167397508519e-05 -2.9689692465489476e-05 -8.0119815095958e-06 3.067864069359557e-05 0.0 0.0
0.0 1.7764958662467406e-06 -1.7819784004332652e-07 1.3787375695581053e-07 4.032408308752122e-08 -1.8782013217738892e-07 0.0 0.0
0.0 0.0 0.0 0.0 0.0 0.0 0.0 0.0
0.0 0.0 0.0 0.0 0.0 0.0 0.0 0.0
0.0 0.003941275139899193 0.002537699181765287 -0.0029665991518744114 0.0004288999701091233 0.0032765120844879553 0.0 0.0
0.0 0.0027478024707433893 0.0016937896392105523 -0.0020437749130569273 0.00034998527384637595 -0.002317307433734476 0.0 0.0
0.0 0.0 0.0 0.0 0.0 0.0 0.0 0.0
0.0 0.0 0.0 0.0 0.0 0.0 0.0 0.0
0.0 6.929946244958124e-08 -5.867089801559984e-09 4.478351496008589e-09 1.388738305550426e-09 8.798859195521545e-09 0.0 0.0
0.0 2.594091715057024e-05 7.857792329914316e-06 -6.253943916674514e-06 -1.6038484132398249e-06 -1.0015836159360516e-05 0.0 0.0
0.0 0.000404797563817932 0.0002716896901923426 -0.0002170100121595001 -5.4679678032842636e-05 -0.000245136552042276 0.0 0.0
0.0 0.0016969648830848414 0.0013068929701557487 -0.0010800512739599427 -0.00022684169619580552 -0.0009135001131148905 0.0 0.0
0.0 0.0038416965118936988 0.003274304963474287 -0.002832714948778605 -0.00044159001469568163 -0.0020036116614600657 0.0 0.0
0.0 0.006983539564243885 0.0060231829997365585 -0.005415154137920861 -0.000608028861815697 -0.0033650405322653404 0.0 0.0
0.0 0.010957391148173186 0.009431086533115335 -0.008702584669096224 -0.0007285018640191112 -0.0048425454413578576 0.0 0.0
0.0 0.015670896389068854 0.013454464735342328 -0.012632618310652485 -0.000821846424689844 -0.006363504160773291 0.0 0.0
0.0 0.02113124995777483 0.01812739440363035 -0.017225389403669668 -0.0009020049999606834 -0.007878773772072172 0.0 0.0
0.0 0.02755209338687876 0.023574109858458744 -0.022596849047003237 -0.0009772608114555117 -0.00946967353441793 0.0 0.0
0.0 0.03490373072774254 0.029940729918853277 -0.02888930937324062 -0.001051420545612661 -0.011250172857903161 0.0 0.0
0.0 0.04346141287712951 0.03727170566549883 -0.03614562235831759 -0.001126083307181221 -0.013165499348402094 0.0 0.0
0.0 0.05304668244495489 0.04543983004097729 -0.0442377864182882 -0.0012020436226890824 -0.01494941520727805 0.0 0.0
0.0 0.06286827817109784 0.05409321619672502 -0.05281392154257984 -0.0012792946541451715 -0.016116641137509293 0.0 0.0
0.0 0.07248408530507659 0.0625919239097419 -0.06123265301883585 -0.001359270890906063 -0.015859982980753994 0.0 0.0
0.0 0.08075132092211913 0.0699735828544488 -0.06853751128571597 -0.0014360715687327982 -0.013184338258314691 0.0 0.0
0.0 0.08630446519562096 0.07505044333609279 -0.07355727378075361 -0.0014931695553391507 -0.0071929645849101885 0.0 0.0
0.0 0.08630446519561362 0.07505044333608585 -0.07355727378074636 -0.0014931695553394356 0.007192964584940666 0.0 0.0
0.0 0.08075132092210449 0.0699735828544342 -0.06853751128570132 -0.0014360715687328487 0.013184338258354387 0.0 0.0
0.0 0.07248408530505317 0.06259192390971982 -0.0612326530188136 -0.0013592708909062096 0.015859982980782734 0.0 0.0
0.0 0.06286827817106949 0.05409321619669934 -0.0528139215425543 -0.001279294654145049 0.016116641137522238 0.0 0.0
0.0 0.05304668244492065 0.04543983004094766 -0.044237786418258644 -0.0012020436226890176 0.014949415207273243 0.0 0.0
0.0 0.043461412877095075 0.03727170566546865 -0.036145622358288255 -0.0011260833071803868 0.013165499348396881 0.0 0.0
0.0 0.03490373072770877 0.02994072991882358 -0.028889309373211783 -0.0010514205456118018 0.011250172857898536 0.0 0.0
0.0 0.027552093386847262 0.023574109858430795 -0.022596849046975995 -0.0009772608114547883 0.00946967353441331 0.0 0.0
0.0 0.02113124995774356 0.018127394403603073 -0.01722538940364296 -0.0009020049999600999 0.007878773772062041 0.0 0.0
0.0 0.01567089638903911 0.01345446473531655 -0.01263261831062741 -0.0008218464246891442 0.006363504160761248 0.0 0.0
0.0 0.010957391148146046 0.009431086533092572 -0.008702584669074066 -0.0007285018640184991 0.004842545441342903 0.0 0.0
0.0 0.006983539564224262 0.006023182999719449 -0.0054151541379044935 -0.0006080288618149518 0.0033650405322568208 0.0 0.0
0.0 0.00384169651187922 0.0032743049634619318 -0.002832714948767359 -0.0004415900146945731 0.0020036116614528445 0.0 0.0
0.0 0.0016969648830760142 0.0013068929701487305 -0.0010800512739539225 -0.00022684169619480813 0.0009135001131104566 0.0 0.0
0.0 0.0004047975638142918 0.00027168969019012823 -0.00021701001215769608 -5.4679678032432116e-05 0.0002451365520401989 0.0 0.0
0.0 2.5940917149815247e-05 7.857792329968575e-06 -6.253943916714022e-06 -1.6038484132544817e-06 1.0015836159422245e-05 0.0 0.0
0.0 6.92994622914334e-08 -5.86708978807203e-09 4.478351485713519e-09 1.3887383023585593e-09 -8.798859175293273e-09 0.0 0.0
0.0 0.0 0.0 0.0 0.0 0.0 0.0 0.0
0.0 0.0 0.0 0.0 0.0 0.0 0.0 0.0
0.0 0.00274780247073261 0.0016937896392037856 -0.0020437749130493067 0.00034998527384552024 0.0023173074337244654 0.0 0.0
0.0 0.0017710168596166537 0.001054543112799454 -0.0013122859676020233 0.0002577428548025688 -0.0015105491281267869 0.0 0.0
0.0 0.0 0.0 0.0 0.0 0.0 0.0 0.0
0.0 0.0 0.0 0.0 0.0 0.0 0.0 0.0
0.0 0.0 0.0 0.0 0.0 0.0 0.0 0.0
0.0 1.0357222223247195e-05 -9.629514759713054e-07 7.42040758605245e-07 2.2091071736606066e-07 1.7961155124832236e-06 0.0 0.0
0.0 0.0001654160753427026 0.00010937538892913342 -8.701536667779572e-05 -2.236002225133761e-05 -0.0001531156602640356 0.0 0.0
0.0 0.0009908172958547415 0.000728884185706378 -0.0005917100336079404 -0.0001371741520984373 -0.0007358505975807059 0.0 0.0
0.0 0.002718645949682274 0.002171376619210041 -0.0018366217233595614 -0.00033475489585047994 -0.0017933208389523663 0.0 0.0
0.0 0.005269302150547677 0.004387575194615321 -0.003867459638296661 -0.0005201155563186589 -0.0032182842706433143 0.0 0.0
0.0 0.008529819807191896 0.0071920090945739095 -0.006537473797609125 -0.0006545352969647841 -0.004810423578764204 0.0 0.0
0.0 0.01239928752965835 0.010484323807940931 -0.009732014710414044 -0.0007523090975268842 -0.006411461688850038 0.0 0.0
0.0 0.01688298255856502 0.014281464772610337 -0.013450310257952847 -0.0008311545146574904 -0.007999537727412378 0.0 0.0
0.0 0.022081483434238755 0.01868917676879781 -0.017788132189598786 -0.0009010445791990244 -0.009655213342875916 0.0 0.0
0.0 0.02816200858774172 0.023846264645458717 -0.022879036651749115 -0.000967227993709596 -0.011469230086127161 0.0 0.0
0.0 0.03524765480705782 0.029835411508005488 -0.028803024261233275 -0.0010323872467722236 -0.013433086378014792 0.0 0.0
0.0 0.042990887029085045 0.03659855041728434 -0.03550090320712561 -0.0010976472101587474 -0.015304608267143643 0.0 0.0
0.0 0.05150072458848511 0.04388721912736469 -0.04272420662898731 -0.0011630124983773565 -0.01657884235605009 0.0 0.0
0.0 0.059924885094309356 0.0512727870950227 -0.05004322740013365 -0.001229559694889034 -0.016522535013247824 0.0 0.0
0.0 0.06725768467945185 0.05803884113890047 -0.05674206262503243 -0.0012967785138680032 -0.014033434727409158 0.0 0.0
0.0 0.07271109796774966 0.06311411802623107 -0.06176097603140725 -0.001353141994823819 -0.007875512969590813 0.0 0.0
0.0 0.07271109796774791 0.06311411802622845 -0.06176097603140496 -0.0013531419948235235 0.00787551296962074 0.0 0.0
0.0 0.06725768467944394 0.0580388411388909 -0.05674206262502333 -0.0012967785138675878 0.014033434727448984 0.0 0.0
0.0 0.05992488509429128 0.05127278709500463 -0.05004322740011565 -0.0012295596948890082 0.01652253501327618 0.0 0.0
0.0 0.0515007245884606 0.04388721912734221 -0.04272420662896495 -0.0011630124983772207 0.016578842356061246 0.0 0.0
0.0 0.04299088702905805 0.036598550417261136 -0.03550090320710271 -0.0010976472101584063 0.015304608267138049 0.0 0.0
0.0 0.03524765480703016 0.02983541150798154 -0.02880302426120965 -0.0010323872467718875 0.013433086378008243 0.0 0.0
0.0 0.028162008587716024 0.02384626464543605 -0.022879036651727108 -0.0009672279937089477 0.011469230086121872 0.0 0.0
0.0 0.022081483434213785 0.01868917676877579 -0.017788132189577574 -0.0009010445791982163 0.009655213342870617 0.0 0.0
0.0 0.016882982558539955 0.014281464772588815 -0.01345031025793196 -0.0008311545146568511 0.007999537727402955 0.0 0.0
0.0 0.012399287529634463 0.010484323807920738 -0.009732014710394369 -0.0007523090975263651 0.0064114616888381985 0.0 0.0
0.0 0.008529819807171478 0.007192009094556891 -0.006537473797592876 -0.0006545352969640134 0.004810423578750368 0.0 0.0
0.0 0.005269302150532243 0.004387575194602116 -0.003867459638284298 -0.0005201155563178171 0.003218284270634451 0.0 0.0
0.0 0.0027186459496708927 0.002171376619200692 -0.001836621723351276 -0.0003347548958494154 0.001793320838945549 0.0 0.0
0.0 0.00099081729584763 0.0007288841857010796 -0.0005917100336035071 -0.0001371741520975724 0.0007358505975760463 0.0 0.0
0.0 0.000165416075340435 0.00010937538892812835 -8.701536667699247e-05 -2.23600222511359e-05 0.00015311566026270776 0.0 0.0
0.0 1.035722222266242e-05 -9.62951475913127e-07 7.420407585612027e-07 2.2091071735193387e-07 -1.7961155123846205e-06 0.0 0.0
0.0 0.0 0.0 0.0 0.0 0.0 0.0 0.0
0.0 0.0 0.0 0.0 0.0 0.0 0.0 0.0
0.0 0.0 0.0 0.0 0.0 0.0 0.0 0.0
0.0 0.0017710168596082201 0.0010545431127944103 -0.0013122859675961164 0.00025774285480170624 0.0015105491281193798 0.0 0.0
0.0 0.001034793456405622 0.0005783197865507614 -0.0007413836658063611 0.00016306387925559972 -0.000867891850430486 0.0 0.0
0.0 0.0 0.0 0.0 0.0 0.0 0.0 0.0
0.0 0.0 0.0 0.0 0.0 0.0 0.0 0.0
0.0 0.0 0.0 0.0 0.0 0.0 0.0 0.0
0.0 4.1719671195767116e-06 2.8729026262397706e-07 -2.436672402346562e-07 -4.362302238932495e-08 -8.852132636724803e-07 0.0 0.0
0.0 8.563766617278499e-05 3.1818736963277105e-05 -2.532980664779132e-05 -6.488930315485834e-06 -6.680952420700619e-05 0.0 0.0
0.0 0.0004935799868186249 0.0003201745135315401 -0.0002565358636806947 -6.36386498508454e-05 -0.0004913916903235897 0.0 0.0
0.0 0.0016721768688224324 0.0012285877139800042 -0.0010137552545311328 -0.00021483245944887096 -0.001424308532420943 0.0 0.0
0.0 0.003629515998719921 0.002837380800599312 -0.00243708250406538 -0.00040029829653393184 -0.0027517266762770126 0.0 0.0
0.0 0.006174607503529022 0.005006608517295983 -0.0044527799884486715 -0.0005538285288473116 -0.00433224339793163 0.0 0.0
0.0 0.009205809023713273 0.00756904597291938 -0.006907117587908621 -0.0006619283850107595 -0.005957922965969924 0.0 0.0
0.0 0.012700242580211647 0.010502088529071297 -0.00975742720550583 -0.0007446613235654648 -0.007537114706755385 0.0 0.0
0.0 0.016754984021100018 0.013885767752926695 -0.013073295137144308 -0.0008124726157823813 -0.009153821002566563 0.0 0.0
0.0 0.021448492909594465 0.017848863332409422 -0.01697598231260212 -0.0008728810198072957 -0.01090513849460911 0.0 0.0
0.0 0.026967316594250678 0.022490408097052016 -0.0215617767742178 -0.0009286313228342089 -0.012785143262521725 0.0 0.0
0.0 0.0332443938237206 0.027818961805522728 -0.026834138944731432 -0.000984822860791287 -0.014593892402992123 0.0 0.0
0.0 0.04000530331078572 0.03369436364376207 -0.03265596453859609 -0.001038399105165976 -0.015924054542428488 0.0 0.0
0.0 0.047018585546518624 0.039881067015163515 -0.03879163976744259 -0.001089427247720936 -0.016123506966750762 0.0 0.0
0.0 0.05379661124683496 0.045962961670196166 -0.04481857092588806 -0.0011443907443080864 -0.014117135903024202 0.0 0.0
0.0 0.059259337944835705 0.051069860933447564 -0.04986827495158909 -0.001201585981858468 -0.008364090881461745 0.0 0.0
0.0 0.05925933794482956 0.051069860933441485 -0.049868274951582595 -0.0012015859818588811 0.008364090881488966 0.0 0.0
0.0 0.05379661124682539 0.04596296167018506 -0.044818570925876856 -0.0011443907443081998 0.014117135903061698 0.0 0.0
0.0 0.047018585546504614 0.039881067015148416 -0.03879163976742772 -0.0010894272477206908 0.016123506966777758 0.0 0.0
0.0 0.040005303310769 0.033694363643745645 -0.032655964538580474 -0.0010383991051651803 0.015924054542439108 0.0 0.0
0.0 0.03324439382369828 0.02781896180550339 -0.026834138944712788 -0.0009848228607905885 0.014593892402985725 0.0 0.0
0.0 0.026967316594227613 0.022490408097032382 -0.0215617767741985 -0.0009286313228338735 0.012785143262513433 0.0 0.0
0.0 0.02144849290957284 0.017848863332390753 -0.016975982312583595 -0.0008728810198071579 0.010905138494603232 0.0 0.0
0.0 0.016754984021078966 0.013885767752908383 -0.01307329513712629 -0.0008124726157820917 0.00915382100256101 0.0 0.0
0.0 0.012700242580189848 0.010502088529053058 -0.009757427205487959 -0.0007446613235650974 0.0075371147067440705 0.0 0.0
0.0 0.009205809023695534 0.007569045972904764 -0.0069071175878947354 -0.0006619283850100264 0.005957922965958633 0.0 0.0
0.0 0.006174607503512196 0.005006608517282718 -0.004452779988436259 -0.0005538285288464594 0.004332243397918026 0.0 0.0
0.0 0.0036295159987067387 0.0028373808005889333 -0.0024370825040558844 -0.000400298296533048 0.002751726676268361 0.0 0.0
0.0 0.0016721768688145295 0.0012285877139741616 -0.0010137552545261541 -0.00021483245944800775 0.001424308532415132 0.0 0.0
0.0 0.0004935799868155857 0.0003201745135297593 -0.00025653586367924895 -6.36386498505101e-05 0.0004913916903212412 0.0 0.0
0.0 8.563766617147747e-05 3.181873696308287e-05 -2.5329806647628946e-05 -6.48893031545385e-06 6.680952420649184e-05 0.0 0.0
0.0 4.171967119439448e-06 2.872902628596489e-07 -2.4366724042088025e-07 -4.362302243877471e-08 8.852132643192699e-07 0.0 0.0
0.0 0.0 0.0 0.0 0.0 0.0 0.0 0.0
0.0 0.0 0.0 0.0 0.0 0.0 0.0 0.0
0.0 0.0 0.0 0.0 0.0 0.0 0.0 0.0
0.0 0.0010347934563993664 0.0005783197865474189 -0.0007413836658023532 0.00016306387925493426 0.000867891850425254 0.0 0.0
0.0 0.0005049516268324692 0.00025061983599346444 -0.00033284953540595457 8.222969941249034e-05 -0.0003913501494281922 0.0 0.0
0.0 1.266647607192392e-07 -7.072771973675951e-10 8.507483974345466e-10 -1.4347120006705642e-10 2.5171596720899338e-08 0.0 0.0
0.0 0.0 0.0 0.0 0.0 0.0 0.0 0.0
0.0 8.694762653476193e-07 -2.987712020632065e-08 2.159330647060148e-08 8.283813735721381e-09 1.7349073420562356e-07 0.0 0.0
0.0 3.1262451907694405e-06 -7.586945554222343e-08 5.3807307939399874e-08 2.206214760281003e-08 2.9079708379877763e-07 0.0 0.0
0.0 4.9649856393731414e-05 1.4100011029314979e-05 -1.1101731644054057e-05 -2.9982793852609237e-06 -4.447776953848486e-05 0.0 0.0
0.0 0.00022866029090295027 0.00010818406864876303 -8.612022280151329e-05 -2.2063845847249737e-05 -0.00027531678715071327 0.0 0.0
0.0 0.0008356346154784024 0.0005161952813059892 -0.00041571109482832925 -0.0001004841864776599 -0.0009366857722297939 0.0 0.0
0.0 0.00213544205811482 0.001469495745267231 -0.0012221813679718528 -0.00024731437729537804 -0.0020380465041962923 0.0 0.0
0.0 0.0038746633470653985 0.0029389149498923904 -0.0025318144526281844 -0.0004071004972642057 -0.0034358755998282016 0.0 0.0
0.0 0.006153568487121529 0.004744262513467165 -0.004212649042522221 -0.0005316134709449413 -0.00494027982113621 0.0 0.0
0.0 0.00863433974321288 0.006820628366444247 -0.006195625076280137 -0.000625003290164109 -0.006436145540345514 0.0 0.0
0.0 0.011510974719146048 0.009201207968696841 -0.008503015310154462 -0.000698192658542375 -0.007945067383206227 0.0 0.0
0.0 0.014896446627690357 0.011987226894811112 -0.011229504787135646 -0.000757722107675465 -0.009526104596147623 0.0 0.0
0.0 0.018933710375462626 0.01528548477741644 -0.014476786659365828 -0.0008086981180506133 -0.011202084217816315 0.0 0.0
0.0 0.023551111418157276 0.01915668313766134 -0.018301640317062773 -0.0008550428205985668 -0.012845152223913943 0.0 0.0
0.0 0.028756927583818093 0.023566054546330064 -0.022665631352485047 -0.0009004231938450151 -0.0140947039871354 0.0 0.0
0.0 0.034223213786492304 0.028439165256015822 -0.027501848613007685 -0.0009373166430081195 -0.014505328849838127 0.0 0.0
0.0 0.03991205947493627 0.033689106353800534 -0.03271720997850179 -0.0009718963752987294 -0.013293119136188946 0.0 0.0
0.0 0.045257555126798556 0.03880428239418214 -0.037775982455057366 -0.0010282999391247735 -0.008613431318733985 0.0 0.0
0.0 0.04525755512679902 0.03880428239418112 -0.03777598245505666 -0.0010282999391244465 0.00861343131875721 0.0 0.0
0.0 0.03991205947493263 0.03368910635379396 -0.03271720997849545 -0.0009718963752985136 0.013293119136222985 0.0 0.0
0.0 0.034223213786481334 0.0284391652560034 -0.027501848612995334 -0.0009373166430080629 0.01450532884986048 0.0 0.0
0.0 0.028756927583805096 0.023566054546317394 -0.022665631352472772 -0.0009004231938446229 0.014094703987142812 0.0 0.0
0.0 0.023551111418141202 0.019156683137647873 -0.01830164031704974 -0.0008550428205981257 0.012845152223907582 0.0 0.0
0.0 0.01893371037544576 0.015285484777402415 -0.014476786659352382 -0.0008086981180500281 0.011202084217808609 0.0 0.0
0.0 0.014896446627675048 0.011987226894798073 -0.01122950478712299 -0.0007577221076750883 0.009526104596142573 0.0 0.0
0.0 0.011510974719132672 0.009201207968685256 -0.008503015310143252 -0.0006981926585420038 0.007945067383202015 0.0 0.0
0.0 0.0086343397431983 0.006820628366432276 -0.006195625076268863 -0.0006250032901634135 0.006436145540336771 0.0 0.0
0.0 0.006153568487106925 0.0047442625134557935 -0.0042126490425115235 -0.0005316134709442677 0.004940279821124856 0.0 0.0
0.0 0.0038746633470525356 0.0029389149498829075 -0.002531814452619577 -0.0004071004972633301 0.003435875599817086 0.0 0.0
0.0 0.002135442058105583 0.0014694957452604878 -0.0012221813679659608 -0.000247314377294527 0.0020380465041886014 0.0 0.0
0.0 0.0008356346154734279 0.0005161952813026811 -0.00041571109482561007 -0.00010048418647707094 0.0009366857722250561 0.0 0.0
0.0 0.00022866029090131565 0.00010818406864828895 -8.612022280113355e-05 -2.2063845847155442e-05 0.00027531678714958006 0.0 0.0
0.0 4.964985639279095e-05 1.4100011029237186e-05 -1.1101731643994236e-05 -2.9982793852429284e-06 4.4477769538224425e-05 0.0 0.0
0.0 3.1262451905066905e-06 -7.586945543476332e-08 5.380730785251002e-08 2.206214758226024e-08 -2.9079708330007893e-07 0.0 0.0
0.0 8.694762648168817e-07 -2.987712019000699e-08 2.1593306458356525e-08 8.283813731647456e-09 -1.7349073409897767e-07 0.0 0.0
0.0 0.0 0.0 0.0 0.0 0.0 0.0 0.0
0.0 1.2666476022059354e-07 -7.072771946710994e-10 8.50748394078545e-10 -1.4347119940746084e-10 -2.5171596621278046e-08 0.0 0.0
0.0 0.0005049516268283688 0.0002506198359916876 -0.0003328495354037161 8.22296994120286e-05 0.00039135014942537604 0.0 0.0
0.0 0.00015689746201710028 7.575657171068255e-05 -0.00010578280766147909 3.0026235950796546e-05 -0.00012344266900932732 0.0 0.0
0.0 1.8030073051673429e-06 -4.177191184509683e-09 1.0378638774830307e-08 -6.201447590320216e-09 3.8291760625588695e-07 0.0 0.0
0.0 8.129603515550081e-07 -9.729788138728575e-10 -5.062304710215263e-10 1.479209284894036e-09 1.6676851108718092e-07 0.0 0.0
0.0 1.3942118126280809e-06 -1.7202479833820512e-08 1.1633862331670308e-08 5.568617502153395e-09 2.882879494068393e-07 0.0 0.0
0.0 3.878259473662209e-06 1.3291981648362555e-07 -9.357584604158552e-08 -3.9343970442044236e-08 -7.071277687307342e-07 0.0 0.0
0.0 4.0987797769731e-05 6.23121290085728e-06 -4.945609740846449e-06 -1.285603160010837e-06 -3.596460578627799e-05 0.0 0.0
0.0 0.0001484736276571846 4.0480705317066266e-05 -3.2231323295786054e-05 -8.249382021280178e-06 -0.0001889736527914787 0.0 0.0
0.0 0.0003618851698124833 0.00014584777237070307 -0.00011607217108840027 -2.9775601282302776e-05 -0.0005316211135989723 0.0 0.0
0.0 0.0009244304604257585 0.00046039394776896554 -0.00036977449201711787 -9.06194557518476e-05 -0.0011869566653406923 0.0 0.0
0.0 0.001892576462361045 0.0011406431588913916 -0.0009387818600898219 -0.0002018612988015694 -0.0022021801089201123 0.0 0.0
0.0 0.0031823934982662156 0.0021341987945104053 -0.0018090479516485393 -0.0003251508428618652 -0.003404178547386418 0.0 0.0
0.0 0.004781577315273586 0.0033223452529364188 -0.002893826858720585 -0.00042851839421583236 -0.004669699729105421 0.0 0.0
0.0 0.006580996109633438 0.004707118791077073 -0.004192056154913197 -0.000515062636163873 -0.006002463504366179 0.0 0.0
0.0 0.008691055101878916 0.006341733067548903 -0.00575641933311598 -0.0005853137344329198 -0.007366751996723567 0.0 0.0
0.0 0.011195016185883791 0.008308640532071329 -0.007667585258436621 -0.0006410552736347051 -0.008773242745328 0.0 0.0
0.0 0.014172919121266662 0.010702045279475127 -0.010016501550209594 -0.0006855437292655369 -0.01017321129273164 0.0 0.0
0.0 0.01770012220810066 0.013600205215010567 -0.012875464948839937 -0.0007247402661706395 -0.01133965585026867 0.0 0.0
0.0 0.021686762621158245 0.01706227516262695 -0.01630092684326354 -0.0007613483193634156 -0.011829439197607016 0.0 0.0
0.0 0.02627339020891481 0.021217962817609883 -0.02044610489376325 -0.0007718579238466278 -0.011354915052773385 0.0 0.0
0.0 0.031348511830302024 0.026168576303771167 -0.02535428951368659 -0.0008142867900845877 -0.00844928533852815 0.0 0.0
0.0 0.03134851183030244 0.02616857630377003 -0.025354289513685565 -0.0008142867900844769 0.008449285338546799 0.0 0.0
0.0 0.02627339020891609 0.02121796281760747 -0.0204461048937611 -0.0007718579238463674 0.011354915052801976 0.0 0.0
0.0 0.021686762621154817 0.017062275162620544 -0.01630092684325767 -0.0007613483193628744 0.011829439197627637 0.0 0.0
0.0 0.017700122208092077 0.013600205215002274 -0.012875464948832033 -0.0007247402661702368 0.011339655850271874 0.0 0.0
0.0 0.014172919121257462 0.010702045279468388 -0.010016501550203245 -0.0006855437292651405 0.010173211292725033 0.0 0.0
0.0 0.011195016185873995 0.008308640532064055 -0.0076675852584295896 -0.0006410552736344626 0.008773242745321087 0.0 0.0
0.0 0.008691055101870057 0.006341733067541802 -0.005756419333109062 -0.0005853137344327394 0.0073667519967190506 0.0 0.0
0.0 0.006580996109627358 0.004707118791071965 -0.004192056154908445 -0.0005150626361635188 0.0060024635043633215 0.0 0.0
0.0 0.004781577315266452 0.003322345252931352 -0.0028938268587161424 -0.00042851839421521046 0.004669699729099429 0.0 0.0
0.0 0.0031823934982575745 0.002134198794504543 -0.001809047951643395 -0.00032515084286114683 0.0034041785473781488 0.0 0.0
0.0 0.001892576462354618 0.0011406431588879358 -0.0009387818600868306 -0.0002018612988011047 0.0022021801089125584 0.0 0.0
0.0 0.0009244304604225397 0.0004603939477670698 -0.0003697744920155777 -9.061945575149192e-05 0.0011869566653371548 0.0 0.0
0.0 0.0003618851698106825 0.00014584777237008074 -0.00011607217108792323 -2.9775601282157418e-05 0.0005316211135970603 0.0 0.0
0.0 0.0001484736276557325 4.048070531681392e-05 -3.223132329558302e-05 -8.24938202123089e-06 0.000188973652790287 0.0 0.0
0.0 4.098779776885822e-05 6.231212900767365e-06 -4.945609740774414e-06 -1.285603159992938e-06 3.596460578576489e-05 0.0 0.0
0.0 3.878259473343275e-06 1.3291981654466052e-07 -9.357584608621444e-08 -3.93439704584479e-08 7.071277691701539e-07 0.0 0.0
0.0 1.3942118121365584e-06 -1.7202479827439693e-08 1.1633862327329383e-08 5.568617500112952e-09 -2.8828794930130727e-07 0.0 0.0
0.0 8.12960351106587e-07 -9.729788137991681e-10 -5.062304704954294e-10 1.479209284295063e-09 -1.667685109932312e-07 0.0 0.0
0.0 1.8030073045943297e-06 -4.1771911826671024e-09 1.0378638770354691e-08 -6.201447587687759e-09 -3.8291760613307903e-07 0.0 0.0
0.0 0.00015689746201504336 7.575657171009491e-05 -0.0001057828076606646 3.0026235950569613e-05 0.0001234426690085119 0.0 0.0
0.0 2.5790979202924063e-05 9.020718339332772e-06 -1.3073242515753554e-05 4.052524176420787e-06 -1.5797584051340238e-05 0.0 0.0
0.0 2.3409661729961703e-06 6.496376963596438e-10 1.3091562580591183e-08 -1.3741200276949575e-08 4.872012716183131e-07 0.0 0.0
0.0 8.28283976103979e-07 8.757322001854407e-09 -7.994197467743662e-09 -7.631245341108108e-10 1.6872916499049268e-07 0.0 0.0
0.0 1.0341171999299922e-06 3.4830124123105497e-09 -4.631541757330647e-09 1.1485293450206947e-09 2.129476539670559e-07 0.0 0.0
0.0 5.455561020512527e-06 -1.877319191668789e-08 9.400339741409076e-09 9.372852175272426e-09 1.2338249442580408e-06 0.0 0.0
0.0 3.6748499015447136e-05 1.942015643589395e-06 -1.5069873656434195e-06 -4.3502827794596475e-07 -3.840120374386783e-05 0.0 0.0
0.0 0.00012326621032847975 1.2469494206516004e-05 -9.8927412177494e-06 -2.57675298876661e-06 -0.00018369449354214008 0.0 0.0
0.0 0.0002897226722225948 3.488114764583189e-05 -2.7768445898498662e-05 -7.112701747333202e-06 -0.00040577461616355184 0.0 0.0
0.0 0.0004851940760626176 8.214104865880814e-05 -6.566485107576282e-05 -1.6476197583045346e-05 -0.0007605840547168589 0.0 0.0
0.0 0.0008357228609073833 0.0001642671947383852 -0.00013226374906120453 -3.2003445677180685e-05 -0.0012527952638087172 0.0 0.0
0.0 0.001218202269169127 0.0003219848931027338 -0.00025892030025315035 -6.306459284958354e-05 -0.0019825070848812805 0.0 0.0
0.0 0.0018345562280588333 0.0005728220800683851 -0.00046043256267313127 -0.00011238951739525378 -0.0028578674100899577 0.0 0.0
0.0 0.002597774584407877 0.0009053927649451991 -0.0007316474769652954 -0.00017374528797990373 -0.003880032976279735 0.0 0.0
0.0 0.0035445275836022555 0.0013272852478715777 -0.0010874977293720302 -0.00023978751849954794 -0.005070120640063104 0.0 0.0
0.0 0.0047296367780454195 0.0019306512850793235 -0.0016284340801230846 -0.0003022172049562386 -0.006443346793069392 0.0 0.0
0.0 0.006236312094610831 0.002800079889964029 -0.0024415728978609413 -0.00035850699210308564 -0.007894461548716 0.0 0.0
0.0 0.008099174302551457 0.004121742790934379 -0.0037131282995966405 -0.0004086144913377375 -0.00916561268402202 0.0 0.0
0.0 0.010413066678044067 0.006118647765556661 -0.005654325421785616 -0.00046432234377104297 -0.009765631248977967 0.0 0.0
0.0 0.013372933347296896 0.008947992014749374 -0.008435265805140072 -0.0005127262096092984 -0.009341253115614791 0.0 0.0
0.0 0.01762309221236676 0.013163766812971836 -0.012670970883414758 -0.0004927959295570767 -0.008020105266663429 0.0 0.0
0.0 0.01762309221236676 0.013163766812970504 -0.012670970883413204 -0.0004927959295572979 0.00802010526667771 0.0 0.0
0.0 0.013372933347298995 0.008947992014748059 -0.00843526580513879 -0.000512726209609268 0.009341253115634874 0.0 0.0
0.0 0.010413066678041798 0.00611864776555245 -0.005654325421781442 -0.0004643223437710034 0.009765631248990029 0.0 0.0
0.0 0.008099174302545196 0.004121742790929797 -0.0037131282995919624 -0.00040861449133783214 0.009165612684020732 0.0 0.0
0.0 0.006236312094605824 0.002800079889962091 -0.002441572897859139 -0.00035850699210295076 0.007894461548708796 0.0 0.0
0.0 0.004729636778039366 0.0019306512850763475 -0.0016284340801202767 -0.0003022172049560702 0.0064433467930625835 0.0 0.0
0.0 0.003544527583599159 0.0013272852478705415 -0.0010874977293711275 -0.00023978751849941375 0.005070120640058939 0.0 0.0
0.0 0.002597774584405669 0.0009053927649443612 -0.0007316474769646897 -0.000173745287979671 0.003880032976276828 0.0 0.0
0.0 0.0018345562280548022 0.0005728220800674536 -0.000460432562672335 -0.0001123895173951186 0.0028578674100834455 0.0 0.0
0.0 0.0012182022691656497 0.0003219848931017775 -0.0002589203002523907 -6.306459284938688e-05 0.001982507084875472 0.0 0.0
0.0 0.0008357228609036847 0.00016426719473784792 -0.00013226374906072063 -3.200344567712728e-05 0.0012527952638034137 0.0 0.0
0.0 0.0004851940760613395 8.214104865861925e-05 -6.566485107564156e-05 -1.647619758297761e-05 0.0007605840547148242 0.0 0.0
0.0 0.0002897226722217964 3.4881147645722505e-05 -2.7768445898402243e-05 -7.1127017473202405e-06 0.00040577461616235315 0.0 0.0
0.0 0.00012326621032733345 1.2469494206422017e-05 -9.892741217667565e-06 -2.5767529887544435e-06 0.0001836944935407671 0.0 0.0
0.0 3.674849901474746e-05 1.942015643578101e-06 -1.5069873656354091e-06 -4.350282779426959e-07 3.8401203743565775e-05 0.0 0.0
0.0 5.4555610200182124e-06 -1.87731919147807e-08 9.400339740515117e-09 9.372852174262189e-09 -1.2338249441362645e-06 0.0 0.0
0.0 1.0341171994111593e-06 3.4830124097744975e-09 -4.63154175459075e-09 1.1485293448161685e-09 -2.1294765385734702e-07 0.0 0.0
0.0 8.282839756553083e-07 8.757321996808003e-09 -7.99419746324245e-09 -7.631245335657651e-10 -1.687291648967851e-07 0.0 0.0
0.0 2.340966172321822e-06 6.496376968874008e-10 1.3091562575233056e-08 -1.3741200272117913e-08 -4.87201271473837e-07 0.0 0.0
0.0 2.579097920210272e-05 9.020718339376287e-06 -1.3073242515815269e-05 4.052524176438931e-06 1.5797584051471728e-05 0.0 0.0
0.0 1.746363269014452e-06 -1.080716133846742e-07 1.601080298073669e-07 -5.203641642269867e-08 2.3480853834527648e-07 0.0 0.0
0.0 1.9028631458580495e-06 6.795419448546787e-09 4.3792250009357676e-09 -1.1174644449477697e-08 4.0529838982822875e-07 0.0 0.0
0.0 1.006612653282911e-06 1.8800037151531995e-08 -1.6160969127413305e-08 -2.6390680241173787e-09 2.0557945423080885e-07 0.0 0.0
0.0 1.3830639415008088e-06 2.5459537940910303e-08 -2.257136934973081e-08 -2.8881685911793595e-09 2.8364822182210734e-07 0.0 0.0
0.0 7.098138076180707e-06 5.561662381305766e-08 -3.270774189545579e-08 -2.2908881917592475e-08 1.2619416404509853e-07 0.0 0.0
0.0 4.1033923075619236e-05 -2.4764030783612753e-06 2.0356908632305923e-06 4.4071221513067704e-07 -3.773151090393039e-05 0.0 0.0
0.0 0.0001253915139156546 -1.3164191136290466e-05 1.0556493204689705e-05 2.6076979316007482e-06 -0.00018482914154521534 0.0 0.0
0.0 0.00029051060942555837 -3.487700420824455e-05 2.776247798507589e-05 7.1145262231685995e-06 -0.0004062629204727415 0.0 0.0
0.0 0.0004848382128086456 -8.18241050152689e-05 6.539289314608918e-05 1.6431211869179697e-05 -0.0007606227347809667 0.0 0.0
0.0 0.0008340231019584164 -0.00016364344123606994 0.0001316551582715762 3.19882829644938e-05 -0.0012507856613920307 0.0 0.0
0.0 0.0012223255683600238 -0.0003177929452833702 0.000256205834527142 6.158711075622815e-05 -0.0019778416616570427 0.0 0.0
0.0 0.0018378491028503148 -0.0005771421389808808 0.0004646321615224698 0.00011250997745841103 -0.0028589406140747302 0.0 0.0
0.0 0.0026079068035677736 -0.0009214092971702114 0.0007461631645556506 0.00017524613261456017 -0.0038847531391846884 0.0 0.0
0.0 0.0035697222659871854 -0.0013590160155596536 0.0011151423180058525 0.0002438736975538006 -0.005077517934191263 0.0 0.0
0.0 0.004706018534853492 -0.0018995856247353902 0.0015877765438215194 0.0003118090809138697 -0.00644809695937458 0.0 0.0
0.0 0.005946442323719412 -0.0023883939051102896 0.002013779146929844 0.00037461475818044334 -0.007946994025438426 0.0 0.0
0.0 0.0070366493406156675 -0.00256664571659913 0.0021433320512667005 0.0004233136653324287 -0.00956736063528374 0.0 0.0
0.0 0.007810079236837398 -0.0021514588309907677 0.001692326608024379 0.00045913222296638766 -0.011307763154006117 0.0 0.0
0.0 0.008143515903589747 -0.001125436065678118 0.0007615007195962961 0.0003639353460818213 -0.012731762573100729 0.0 0.0
0.0 0.007687100792477916 0.0017899715666011957 -0.0018812239258258422 9.125235922464672e-05 -0.011262614206586407 0.0 0.0
0.0 0.007687100792482089 0.0017899715666018583 -0.0018812239258263904 9.12523592245325e-05 0.01126261420659493 0.0 0.0
0.0 0.008143515903592703 -0.0011254360656780713 0.0007615007195963234 0.00036393534608174694 0.012731762573109654 0.0 0.0
0.0 0.007810079236835021 -0.002151458830989446 0.001692326608023315 0.0004591322229661296 0.011307763154007257 0.0 0.0
0.0 0.0070366493406098535 -0.002566645716596072 0.0021433320512639566 0.0004233136653321158 0.009567360635278955 0.0 0.0
0.0 0.005946442323711678 -0.0023883939051059324 0.0020137791469257583 0.00037461475818017397 0.007946994025430063 0.0 0.0
0.0 0.004706018534846156 -0.0018995856247312325 0.0015877765438176952 0.0003118090809135366 0.006448096959367957 0.0 0.0
0.0 0.0035697222659822293 -0.0013590160155573195 0.0011151423180039022 0.00024387369755341743 0.005077517934185925 0.0 0.0
0.0 0.0026079068035626376 -0.0009214092971674711 0.000746163164553459 0.00017524613261401194 0.003884753139180212 0.0 0.0
0.0 0.0018378491028445546 -0.0005771421389780537 0.0004646321615201473 0.00011250997745790622 0.0028589406140675133 0.0 0.0
0.0 0.0012223255683553244 -0.0003177929452813723 0.00025620583452553745 6.158711075583482e-05 0.0019778416616506103 0.0 0.0
0.0 0.0008340231019538203 -0.00016364344123500653 0.0001316551582706339 3.1988282964372575e-05 0.0012507856613862022 0.0 0.0
0.0 0.00048483821280676415 -8.182410501477596e-05 6.539289314567242e-05 1.643121186910352e-05 0.0007606227347783626 0.0 0.0
0.0 0.00029051060942431587 -3.487700420805021e-05 2.776247798490624e-05 7.114526223143944e-06 0.0004062629204713893 0.0 0.0
0.0 0.00012539151391451883 -1.316419113619063e-05 1.0556493204627748e-05 2.607697931562876e-06 0.00018482914154386524 0.0 0.0
0.0 4.103392307482083e-05 -2.4764030783419752e-06 2.0356908632182303e-06 4.4071221512375577e-07 3.773151090366461e-05 0.0 0.0
0.0 7.098138075775484e-06 5.5616623783291445e-08 -3.270774186699933e-08 -2.2908881916295988e-08 -1.2619416352786782e-07 0.0 0.0
0.0 1.38306394101384e-06 2.5459537931086613e-08 -2.257136934122153e-08 -2.8881685898646692e-09 -2.8364822171881803e-07 0.0 0.0
0.0 1.0066126526757192e-06 1.8800037139368483e-08 -1.616096911716342e-08 -2.639068022204588e-09 -2.0557945410441137e-07 0.0 0.0
0.0 1.9028631450714174e-06 6.795419446720134e-09 4.37922499599115e-09 -1.1174644442706392e-08 -4.052983896639658e-07 0.0 0.0
0.0 1.7463632684856744e-06 -1.0807161335057875e-07 1.601080297566021e-07 -5.2036416406020456e-08 -2.3480853827189452e-07 0.0 0.0
0.0 0.0 0.0 0.0 0.0 0.0 0.0 0.0
0.0 3.3206270015814023e-07 3.228124362425176e-09 -1.4545472289870203e-09 -1.773577133437446e-09 6.641880132428198e-08 0.0 0.0
0.0 1.2523608697427146e-06 1.8333174746515837e-09 -2.3803453477331766e-09 5.470278730805705e-10 3.566708464990499e-08 0.0 0.0
0.0 4.433390297608247e-06 1.6015753021184142e-07 -1.3149237797340506e-07 -2.8665152238422848e-08 9.6169292488308e-07 0.0 0.0
0.0 9.502507270034509e-06 -7.954601308328255e-07 6.875096609536226e-07 1.0795046987921033e-07 -5.24321424968333e-06 0.0 0.0
0.0 4.950077980582282e-05 -9.66820820613492e-06 7.71447881899467e-06 1.9537293871402115e-06 -5.077007253611794e-05 0.0 0.0
0.0 0.00015647715283072293 -4.1672117968222325e-05 3.32981721112009e-05 8.373945857021435e-06 -0.0001924168810424823 0.0 0.0
0.0 0.00036364826294726915 -0.00014621978125863296 0.00011637152871739692 2.9848252541236027e-05 -0.0005331494300225659 0.0 0.0
0.0 0.0009217785167492734 -0.0004594171624524157 0.00036891000748093174 9.050715497148391e-05 -0.0011857063388925233 0.0 0.0
0.0 0.0018894907327381377 -0.0011389814732707209 0.0009373544862387493 0.00020162698703197126 -0.002200277642676717 0.0 0.0
0.0 0.0031822643935823965 -0.0021344559606050317 0.0018096077702551574 0.0003248481903498742 -0.003404035427353437 0.0 0.0
0.0 0.00478937810983845 -0.003330825892861532 0.0029026233701474682 0.000428202522714064 -0.004669480248579353 0.0 0.0
0.0 0.00660465283690277 -0.004733431303051037 0.00421851885890343 0.000514912444147604 -0.005992872565281824 0.0 0.0
0.0 0.008729999410561353 -0.006383073644262681 0.0057949225860654575 0.0005881510581972241 -0.00735169732378967 0.0 0.0
0.0 0.011174231534608765 -0.008272802283502575 0.007619978841231843 0.0006528234422707299 -0.008818093890772418 0.0 0.0
0.0 0.013796078995008725 -0.01025353617085965 0.00954258998967875 0.0007109461811809001 -0.0104861542999727 0.0 0.0
0.0 0.01628206305771902 -0.011981212256868455 0.011217675767326029 0.0007635364895424287 -0.012404513169104838 0.0 0.0
0.0 0.018038088489309243 -0.012938703247783177 0.012132953221279212 0.000805750026503969 -0.014469086346874578 0.0 0.0
0.0 0.017658898841353684 -0.012170323509409383 0.011274216813188433 0.0008961066962209459 -0.015281306239553654 0.0 0.0
0.0 0.013271528222053401 -0.007928154605295253 0.006996203799513939 0.0009319508057813119 -0.012730430553793855 0.0 0.0
0.0 0.013271528222058135 -0.007928154605295638 0.006996203799514182 0.000931950805781457 0.012730430553809517 0.0 0.0
0.0 0.017658898841357087 -0.012170323509407707 0.011274216813186688 0.0008961066962210175 0.01528130623957534 0.0 0.0
0.0 0.01803808848930632 -0.012938703247778006 0.01213295322127417 0.0008057500265038364 0.014469086346887278 0.0 0.0
0.0 0.0162820630577086 -0.01198121225685909 0.011217675767317036 0.0007635364895420546 0.012404513169104334 0.0 0.0
0.0 0.013796078994993684 -0.010253536170847847 0.00954258998966714 0.0007109461811807035 0.010486154299962925 0.0 0.0
0.0 0.011174231534598358 -0.008272802283494375 0.007619978841224008 0.0006528234422703639 0.008818093890765488 0.0 0.0
0.0 0.008729999410551293 -0.006383073644254722 0.0057949225860579184 0.0005881510581968029 0.007351697323783624 0.0 0.0
0.0 0.006604652836890443 -0.004733431303040681 0.004218518858893412 0.0005149124441472663 0.005992872565275753 0.0 0.0
0.0 0.0047893781098236575 -0.0033308258928505625 0.0029026233701371046 0.0004282025227134573 0.004669480248568374 0.0 0.0
0.0 0.003182264393569981 -0.002134455960596382 0.0018096077702473956 0.00032484819034898633 0.0034040354273427473 0.0 0.0
0.0 0.0018894907327275594 -0.001138981473263884 0.0009373544862328719 0.00020162698703101172 0.002200277642666216 0.0 0.0
0.0 0.0009217785167448891 -0.00045941716244974685 0.0003689100074786996 9.050715497104718e-05 0.0011857063388877247 0.0 0.0
0.0 0.00036364826294568947 -0.00014621978125792918 0.00011637152871685281 2.984825254107639e-05 0.0005331494300209543 0.0 0.0
0.0 0.0001564771528290599 -4.167211796796248e-05 3.329817211100037e-05 8.373945856962055e-06 0.00019241688104135835 0.0 0.0
0.0 4.95007798049025e-05 -9.668208206148231e-06 7.714478819006442e-06 1.95372938714178e-06 5.077007253617642e-05 0.0 0.0
0.0 9.502507269710274e-06 -7.954601309094324e-07 6.875096610172894e-07 1.0795046989212643e-07 5.2432142501563494e-06 0.0 0.0
0.0 4.433390297146278e-06 1.6015753019507324e-07 -1.3149237795953612e-07 -2.8665152235533242e-08 -9.61692924777465e-07 0.0 0.0
0.0 1.252360869477489e-06 1.8333174079007189e-09 -2.380345293765925e-09 5.470278858650919e-10 -3.566708416767487e-08 0.0 0.0
0.0 3.3206269971330245e-07 3.2281243589135146e-09 -1.4545472286881782e-09 -1.7735771302251563e-09 -6.64188012348373e-08 0.0 0.0
0.0 0.0 0.0 0.0 0.0 0.0 0.0 0.0
0.0 0.0 0.0 0.0 0.0 0.0 0.0 0.0
0.0 3.514827227909665e-07 4.949457227588909e-09 -3.035179226646225e-09 -1.914278000941817e-09 7.106311338534543e-08 0.0 0.0
0.0 2.3595770756542535e-06 8.103527067074457e-08 -6.628456757845172e-08 -1.4750703092293867e-08 4.821090557083344e-07 0.0 0.0
0.0 6.5906872819304125e-06 3.108815427979235e-07 -2.5702362177301864e-07 -5.385792102489637e-08 1.4093816020137892e-06 0.0 0.0
0.0 1.462492693162905e-05 -2.2096622551355017e-06 1.751003134959854e-06 4.586591201756616e-07 -7.520740346141705e-06 0.0 0.0
0.0 6.486877546993962e-05 -1.935541469940415e-05 1.554140622962261e-05 3.8140084697815234e-06 -6.095552262516304e-05 0.0 0.0
0.0 0.00024103734230030858 -0.00011182089299635458 8.91381521992474e-05 2.2682740797107197e-05 -0.00028285541572713787 0.0 0.0
0.0 0.0008376196169683943 -0.0005167085572861997 0.0004161734570493176 0.00010053510023688215 -0.0009384093112539434 0.0 0.0
0.0 0.0021304291023343984 -0.0014668833674399628 0.0012197919600460054 0.00024709140739395685 -0.002034406702348535 0.0 0.0
0.0 0.003871847789829007 -0.002937636624913524 0.002530606717470394 0.00040702990744312894 -0.0034336942003772046 0.0 0.0
0.0 0.0061547568109122895 -0.004745611453581314 0.004214171493387299 0.0005314399601940164 -0.004940319695122826 0.0 0.0
0.0 0.008640075324033884 -0.006827054911331948 0.006202659751663756 0.0006243951596681918 -0.0064304432066161765 0.0 0.0
0.0 0.011522465945259897 -0.009220383826358687 0.00852311511845289 0.0006972687079057956 -0.007908690571199537 0.0 0.0
0.0 0.014913101223766446 -0.012020094075671185 0.011260852221343343 0.0007592418543278415 -0.00944848265727175 0.0 0.0
0.0 0.018907756752988218 -0.015261799019068576 0.014443358561282975 0.0008184404577855958 -0.011204777590728708 0.0 0.0
0.0 0.02327484446053395 -0.018797193625616156 0.01791867869527317 0.0008785149303429822 -0.013394208226829272 0.0 0.0
0.0 0.02767800823289111 -0.022197201205700564 0.02125786849498559 0.0009393327107149655 -0.016192895786108767 0.0 0.0
0.0 0.03086415356732741 -0.02462047398651326 0.02360246610755542 0.0010180078789578436 -0.01914249279064162 0.0 0.0
0.0 0.03120198086490166 -0.024511262196896113 0.023394351198119133 0.0011169109987769865 -0.02062273131421564 0.0 0.0
0.0 0.02483718472977954 -0.019224583969889828 0.017938610089402996 0.0012859738804868275 -0.017186054942626487 0.0 0.0
0.0 0.02483718472978549 -0.019224583969891046 0.017938610089403957 0.0012859738804870836 0.017186054942647782 0.0 0.0
0.0 0.031201980864907976 -0.024511262196896047 0.023394351198119313 0.0011169109987767215 0.020622731314245517 0.0 0.0
0.0 0.030864153567324266 -0.024620473986506526 0.023602466107549416 0.0010180078789571029 0.01914249279066201 0.0 0.0
0.0 0.027678008232875174 -0.022197201205685663 0.02125786849497122 0.0009393327107144445 0.01619289578611114 0.0 0.0
0.0 0.023274844460512756 -0.01879719362559839 0.017918678695255662 0.0008785149303427257 0.013394208226820598 0.0 0.0
0.0 0.018907756752969976 -0.015261799019053404 0.014443358561268077 0.0008184404577853202 0.011204777590720421 0.0 0.0
0.0 0.014913101223750407 -0.012020094075657803 0.011260852221330601 0.0007592418543271987 0.009448482657263377 0.0 0.0
0.0 0.011522465945243561 -0.009220383826344445 0.00852311511843943 0.0006972687079050107 0.007908690571193292 0.0 0.0
0.0 0.008640075324013927 -0.006827054911315595 0.006202659751648158 0.0006243951596674343 0.006430443206604485 0.0 0.0
0.0 0.006154756810893557 -0.004745611453566471 0.004214171493373314 0.0005314399601931568 0.0049403196951092725 0.0 0.0
0.0 0.0038718477898129046 -0.0029376366249014253 0.0025306067174591775 0.0004070299074422489 0.003433694200364292 0.0 0.0
0.0 0.0021304291023239025 -0.0014668833674318458 0.0012197919600389008 0.00024709140739294507 0.0020344067023405007 0.0 0.0
0.0 0.0008376196169624251 -0.0005167085572822128 0.0004161734570460703 0.00010053510023614257 0.0009384093112484793 0.0 0.0
0.0 0.00024103734229782926 -0.00011182089299557696 8.913815219862116e-05 2.2682740796955765e-05 0.00028285541572529256 0.0 0.0
0.0 6.486877546873568e-05 -1.935541469946515e-05 1.554140622966437e-05 3.8140084698007324e-06 6.095552262513673e-05 0.0 0.0
0.0 1.462492693107506e-05 -2.2096622552211923e-06 1.751003135029015e-06 4.586591201921348e-07 7.520740346458598e-06 0.0 0.0
0.0 6.590687281374371e-06 3.1088154276881837e-07 -2.570236217490074e-07 -5.385792101982278e-08 -1.4093816018841068e-06 0.0 0.0
0.0 2.3595770750547986e-06 8.103527064889636e-08 -6.628456756069521e-08 -1.4750703088195763e-08 -4.821090555798598e-07 0.0 0.0
0.0 3.5148272258278746e-07 4.949457224581214e-09 -3.0351792247973143e-09 -1.914277999783761e-09 -7.106311334223886e-08 0.0 0.0
0.0 0.0 0.0 0.0 0.0 0.0 0.0 0.0
0.0 0.0 0.0 0.0 0.0 0.0 0.0 0.0
0.0 0.0 0.0 0.0 0.0 0.0 0.0 0.0
0.0 1.762862297087584e-06 7.425115861487428e-08 -6.029149643128876e-08 -1.3959662183589334e-08 3.448992119798501e-07 0.0 0.0
0.0 5.04395238341488e-06 1.1091702649922354e-07 -8.267308571861373e-08 -2.82439407806136e-08 3.1957706576533906e-07 0.0 0.0
0.0 2.0810687870692907e-05 -3.5960457306186534e-06 2.947374241249126e-06 6.486714893695588e-07 -9.434292076481993e-06 0.0 0.0
0.0 0.00010139070957074196 -4.5780996063544984e-05 3.651391947058385e-05 9.267076592961124e-06 -9.570986586111615e-05 0.0 0.0
0.0 0.0005159049093875353 -0.0003266908568268034 0.00026231963313451157 6.437122369229201e-05 -0.000502829927306048 0.0 0.0
0.0 0.0016711794454011874 -0.0012266334618431002 0.0010121455255900714 0.00021448793625302869 -0.0014229662129783562 0.0 0.0
0.0 0.00362419909370684 -0.0028343802858780956 0.002434174315832853 0.00040020597004524297 -0.002746548884065803 0.0 0.0
0.0 0.0061714388795003775 -0.005006788028813365 0.004452896257218751 0.0005538917715946121 -0.0043305959995693045 0.0 0.0
0.0 0.00920838635500025 -0.007571215153304858 0.006909421058382729 0.0006617940949221275 -0.005958615066496437 0.0 0.0
0.0 0.012701059906522844 -0.010504337950129755 0.009760145813589836 0.0007441921365399146 -0.007528040025605701 0.0 0.0
0.0 0.01674719559504631 -0.013888805710554017 0.013077302794127658 0.0008115029164263557 -0.00909577191700207 0.0 0.0
0.0 0.021430541468197062 -0.017857120750737525 0.016984207246159663 0.0008729135045778612 -0.010760304286380598 0.0 0.0
0.0 0.026940996896362614 -0.02248051140199073 0.021546500314892098 0.0009340110870986162 -0.012703340986597932 0.0 0.0
0.0 0.033137789696470736 -0.02762465651444965 0.026622841826003427 0.0010018146884462212 -0.015255353796449102 0.0 0.0
0.0 0.03934037185693716 -0.03272246613552988 0.03163996562870902 0.0010825005068208471 -0.018644745852859777 0.0 0.0
0.0 0.04416297000689271 -0.03651990798384309 0.03533646274682234 0.0011834452370207285 -0.022353502595629578 0.0 0.0
0.0 0.04486309981286399 -0.036832364746090335 0.03551479768013525 0.0013175670659550775 -0.024450441717499948 0.0 0.0
0.0 0.03689279908765058 -0.030088137202437484 0.02857658095356784 0.001511556248869643 -0.021391503313283832 0.0 0.0
0.0 0.036892799087655775 -0.030088137202437696 0.028576580953568183 0.0015115562488694978 0.021391503313309496 0.0 0.0
0.0 0.04486309981286715 -0.03683236474608765 0.03551479768013303 0.0013175670659546202 0.0244504417175347 0.0 0.0
0.0 0.04416297000688414 -0.0365199079838318 0.03533646274681142 0.0011834452370203656 0.022353502595653524 0.0 0.0
0.0 0.03934037185691763 -0.03272246613551146 0.031639965628691216 0.0010825005068202333 0.018644745852865453 0.0 0.0
0.0 0.03313778969644435 -0.027624656514426946 0.02662284182598109 0.0010018146884458526 0.015255353796441624 0.0 0.0
0.0 0.026940996896338387 -0.022480511401970025 0.021546500314871684 0.0009340110870983388 0.012703340986590232 0.0 0.0
0.0 0.021430541468172096 -0.01785712075071652 0.016984207246138888 0.0008729135045776274 0.010760304286370394 0.0 0.0
0.0 0.016747195595019738 -0.013888805710531443 0.013077302794105185 0.0008115029164262559 0.00909577191699306 0.0 0.0
0.0 0.012701059906498441 -0.010504337950109167 0.00976014581356976 0.0007441921365394036 0.0075280400255934845 0.0 0.0
0.0 0.00920838635497714 -0.0075712151532857895 0.006909421058364391 0.0006617940949214007 0.005958615066482457 0.0 0.0
0.0 0.0061714388794788366 -0.00500678802879605 0.004452896257202334 0.000553891771593715 0.004330595999554002 0.0 0.0
0.0 0.0036241990936920847 -0.002834380285866342 0.0024341743158222033 0.0004002059700441381 0.0027465488840566427 0.0 0.0
0.0 0.00167117944539276 -0.0012266334618366037 0.001012145525584603 0.00021448793625200054 0.001422966212972443 0.0 0.0
0.0 0.0005159049093834095 -0.00032669085682440036 0.0002623196331325644 6.437122369183605e-05 0.0005028299273027652 0.0 0.0
0.0 0.00010139070956912555 -4.5780996063323184e-05 3.6513919470400474e-05 9.26707659292276e-06 9.570986586061286e-05 0.0 0.0
0.0 2.0810687869837414e-05 -3.596045730717098e-06 2.947374241327932e-06 6.486714893891229e-07 9.434292076729107e-06 0.0 0.0
0.0 5.043952382935684e-06 1.109170263746747e-07 -8.267308561636606e-08 -2.824394075831884e-08 -3.1957706534619295e-07 0.0 0.0
0.0 1.7628622966370727e-06 7.425115859493936e-08 -6.029149641515662e-08 -1.3959662179784548e-08 -3.4489921188806817e-07 0.0 0.0
0.0 0.0 0.0 0.0 0.0 0.0 0.0 0.0
0.0 0.0 0.0 0.0 0.0 0.0 0.0 0.0
0.0 0.0 0.0 0.0 0.0 0.0 0.0 0.0
0.0 0.0 0.0 0.0 0.0 0.0 0.0 0.0
0.0 6.301117771691601e-07 3.177133557320747e-08 -2.5610055499987776e-08 -6.161280073216576e-09 1.139376708674144e-07 0.0 0.0
0.0 7.479034888138472e-06 5.4592668232219e-07 -4.381286801518101e-07 -1.0779800217037303e-07 1.3945185929680183e-06 0.0 0.0
0.0 3.149206338254875e-05 -1.6800108645819479e-06 1.3848123118088383e-06 2.951985527731123e-07 -2.7995912877162825e-06 0.0 0.0
0.0 0.00020566481640914346 -0.00012532176515547713 0.00010019389057502706 2.5127874580450085e-05 -0.00017567519049869475 0.0 0.0
0.0 0.0010085300833757717 -0.0007339525876967426 0.0005967983461149565 0.00013715424158178605 -0.0007467766078090249 0.0 0.0
0.0 0.0027152595146706145 -0.002167536673444985 0.0018332381069780272 0.0003342985664669574 -0.0017901066255391368 0.0 0.0
0.0 0.005265435352236732 -0.004385624966599276 0.0038653626358233313 0.0005202623307759451 -0.0032118100905314225 0.0 0.0
0.0 0.008531120612781143 -0.007193623070899009 0.0065389904212408865 0.0006546326496581183 -0.00480856782770803 0.0 0.0
0.0 0.01240198368649224 -0.01048682857148421 0.009734579610835688 0.0007522489606485224 -0.006411387173590175 0.0 0.0
0.0 0.016877534931761366 -0.014278284836045492 0.013447265327747789 0.0008310195082977027 -0.00798798168076806 0.0 0.0
0.0 0.02204977502139592 -0.01867030174007564 0.01776994894479505 0.0009003527952805805 -0.009586425429822642 0.0 0.0
0.0 0.028101594866350756 -0.023816070726239306 0.02285059082580391 0.0009654799004353911 -0.011283843601477767 0.0 0.0
0.0 0.03521926557553825 -0.029830112945914613 0.02879826994808252 0.0010318429978320948 -0.01326589420351045 0.0 0.0
0.0 0.04304820758263164 -0.0365850971252636 0.03547585084705919 0.0011092462782044035 -0.015872488402551697 0.0 0.0
0.0 0.05123962330083511 -0.04335408821460225 0.04214505128926969 0.0012090369253325629 -0.01939573786896548 0.0 0.0
0.0 0.05754175459657885 -0.0484577244877889 0.04712076862917379 0.0013369558586151166 -0.023524545373851548 0.0 0.0
0.0 0.05847547625637607 -0.04900315404446937 0.047505921104217946 0.0014972329402514156 -0.026456617372279452 0.0 0.0
0.0 0.04898864414194072 -0.04071152226637137 0.039024872480551163 0.001686649785820196 -0.025258406934004017 0.0 0.0
0.0 0.048988644141942546 -0.04071152226636873 0.03902487248054867 0.0016866497858200496 0.025258406934031787 0.0 0.0
0.0 0.058475476256369535 -0.049003154044459075 0.04750592110420793 0.0014972329402511539 0.02645661737231317 0.0 0.0
0.0 0.05754175459656039 -0.048457724487769915 0.047120768629154625 0.0013369558586152843 0.023524545373875366 0.0 0.0
0.0 0.051239623300808744 -0.043354088214578285 0.0421450512892458 0.0012090369253324614 0.0193957378689711 0.0 0.0
0.0 0.04304820758260182 -0.036585097125237456 0.03547585084703386 0.0011092462782035862 0.015872488402546465 0.0 0.0
0.0 0.03521926557550859 -0.029830112945888675 0.02879826994805732 0.0010318429978313616 0.01326589420350398 0.0 0.0
0.0 0.028101594866321106 -0.023816070726213678 0.02285059082577895 0.0009654799004347236 0.011283843601467981 0.0 0.0
0.0 0.022049775021366232 -0.01867030174004963 0.017769948944769864 0.0009003527952797578 0.009586425429814771 0.0 0.0
0.0 0.016877534931728895 -0.01427828483601765 0.013447265327720356 0.0008310195082972933 0.007987981680755636 0.0 0.0
0.0 0.012401983686461966 -0.010486828571458811 0.00973457961081069 0.0007522489606481178 0.00641138717357456 0.0 0.0
0.0 0.008531120612756361 -0.007193623070878109 0.006538990421220594 0.0006546326496575135 0.004808567827692832 0.0 0.0
0.0 0.005265435352216992 -0.00438562496658259 0.003865362635807539 0.0005202623307750516 0.00321181009052119 0.0 0.0
0.0 0.0027152595146575464 -0.002167536673434233 0.001833238106968393 0.0003342985664658407 0.0017901066255316905 0.0 0.0
0.0 0.0010085300833684847 -0.0007339525876914467 0.0005967983461105946 0.00013715424158085196 0.0007467766078043106 0.0 0.0
0.0 0.00020566481640625715 -0.00012532176515417902 0.00010019389057397418 2.5127874580204883e-05 0.00017567519049696084 0.0 0.0
0.0 3.14920633816931e-05 -1.6800108647654355e-06 1.3848123119545004e-06 2.9519855281083366e-07 2.79959128806683e-06 0.0 0.0
0.0 7.479034887487536e-06 5.459266822702636e-07 -4.3812868011058e-07 -1.0779800215968128e-07 -1.3945185928411796e-06 0.0 0.0
0.0 6.301117768796378e-07 3.177133555832444e-08 -2.5610055487985994e-08 -6.161280070339225e-09 -1.1393767081387647e-07 0.0 0.0
0.0 0.0 0.0 0.0 0.0 0.0 0.0 0.0
0.0 0.0 0.0 0.0 0.0 0.0 0.0 0.0
0.0 0.0 0.0 0.0 0.0 0.0 0.0 0.0
0.0 0.0 0.0 0.0 0.0 0.0 0.0 0.0
0.0 0.0 0.0 0.0 0.0 0.0 0.0 0.0
0.0 3.241628952765024e-06 2.6053331691204254e-07 -2.0807629639336721e-07 -5.2457020518637325e-08 5.164519678466237e-07 0.0 0.0
0.0 4.7423604338862505e-05 -1.639956959693634e-05 1.3070701032974374e-05 3.3288685639619766e-06 -2.1830927587140544e-05 0.0 0.0
0.0 0.00043415255518157745 -0.0002944689759722617 0.00023612292569143785 5.83460502808241e-05 -0.00027569700056409807 0.0 0.0
0.0 0.0017063332160133977 -0.0013081449563627666 0.0010821591432360832 0.000225985813126683 -0.0009240274208383024 0.0 0.0
0.0 0.0038376831982821448 -0.0032708265321714112 0.002829379409535194 0.00044144712263621756 -0.001997054044224526 0.0 0.0
0.0 0.006982615785208999 -0.00602330117867852 0.0054149896138877005 0.0006083115647908175 -0.003358758077304033 0.0 0.0
0.0 0.0109602880505337 -0.009433867121311116 0.008705303574054836 0.0007285635472562833 -0.0048412106572979716 0.0 0.0
0.0 0.01567289245773727 -0.01345647961523845 0.012634608267587971 0.0008218713476504737 -0.006362226749866742 0.0 0.0
0.0 0.021118377707922187 -0.018117901810501203 0.017215712220016756 0.000902189590484434 -0.007864181447182355 0.0 0.0
0.0 0.027497288971516 -0.023532953132425972 0.022556057145014057 0.0009768959874119046 -0.009402998639778682 0.0 0.0
0.0 0.03480172569106411 -0.029867827314794586 0.028819572562915757 0.0010482547518788207 -0.01107223324457231 0.0 0.0
0.0 0.043410170513490214 -0.03724623439401926 0.03612576537612275 0.0011204690178965087 -0.012936412779803992 0.0 0.0
0.0 0.05319371634182024 -0.04554799496783987 0.04434075389668333 0.0012072410711565463 -0.015233957226261563 0.0 0.0
0.0 0.06290028888579417 -0.05393709390327353 0.05261284590272513 0.0013242480005484017 -0.018453549163648716 0.0 0.0
0.0 0.07047568658206169 -0.06031103890565245 0.05883293076343223 0.0014781081422202292 -0.022710120678769954 0.0 0.0
0.0 0.07180943021802141 -0.06109890352243723 0.059442388959857276 0.001656514562579934 -0.026916910739829394 0.0 0.0
0.0 0.061355768827358284 -0.05140276288976611 0.049559198021199416 0.0018435648685666583 -0.02900610211511892 0.0 0.0
0.0 0.061355768827356695 -0.051402762889761276 0.04955919802119385 0.0018435648685673743 0.029006102115146898 0.0 0.0
0.0 0.07180943021800949 -0.06109890352242344 0.05944238895984275 0.0016565145625806912 0.026916910739863333 0.0 0.0
0.0 0.07047568658204008 -0.06031103890563118 0.05883293076341098 0.0014781081422201615 0.022710120678795534 0.0 0.0
0.0 0.06290028888576449 -0.0539370939032464 0.05261284590269907 0.00132424800054734 0.018453549163656362 0.0 0.0
0.0 0.05319371634178445 -0.04554799496780863 0.044340753896652534 0.0012072410711560862 0.015233957226258386 0.0 0.0
0.0 0.04341017051345394 -0.03724623439398751 0.03612576537609147 0.0011204690178960339 0.012936412779800188 0.0 0.0
0.0 0.03480172569102581 -0.029867827314761404 0.02881957256288289 0.0010482547518785152 0.011072233244563846 0.0 0.0
0.0 0.027497288971478764 -0.0235329531323934 0.02255605714498184 0.0009768959874115453 0.009402998639770278 0.0 0.0
0.0 0.021118377707887145 -0.018117901810470547 0.01721571221998683 0.0009021895904837169 0.007864181447172087 0.0 0.0
0.0 0.015672892457704528 -0.013456479615210229 0.012634608267560535 0.0008218713476496897 0.006362226749852974 0.0 0.0
0.0 0.01096028805050499 -0.009433867121286464 0.008705303574031018 0.0007285635472554428 0.004841210657284123 0.0 0.0
0.0 0.006982615785187536 -0.006023301178659645 0.005414989613869904 0.0006083115647897391 0.003358758077294737 0.0 0.0
0.0 0.003837683198265906 -0.0032708265321572776 0.0028293794095222554 0.00044144712263502104 0.0019970540442169065 0.0 0.0
0.0 0.001706333216002816 -0.0013081449563542326 0.0010821591432288078 0.00022598581312542477 0.0009240274208328818 0.0 0.0
0.0 0.0004341525551767612 -0.0002944689759691608 0.00023612292568889762 5.8346050280263e-05 0.0002756970005611869 0.0 0.0
0.0 4.7423604338073884e-05 -1.6399569597219648e-05 1.3070701033188343e-05 3.3288685640313223e-06 2.183092758742164e-05 0.0 0.0
0.0 3.2416289522024286e-06 2.6053331686397295e-07 -2.080762963552667e-07 -5.245702050872393e-08 -5.164519677547741e-07 0.0 0.0
0.0 0.0 0.0 0.0 0.0 0.0 0.0 0.0
0.0 0.0 0.0 0.0 0.0 0.0 0.0 0.0
0.0 0.0 0.0 0.0 0.0 0.0 0.0 0.0
0.0 0.0 0.0 0.0 0.0 0.0 0.0 0.0
0.0 0.0 0.0 0.0 0.0 0.0 0.0 0.0
0.0 0.0 0.0 0.0 0.0 0.0 0.0 0.0
0.0 3.047876462314115e-06 -3.418298898180588e-08 2.390305950066755e-08 1.0279929481156489e-08 -1.192300959785427e-08 0.0 0.0
0.0 9.358395741666881e-05 -4.572982231005615e-05 3.668356677516062e-05 9.046255534895669e-06 -4.460934104391939e-05 0.0 0.0
0.0 0.0008030502956260358 -0.0005760603444095438 0.00046627511700272396 0.00010978522740682039 -0.0003630326576271098 0.0 0.0
0.0 0.0023589435319756667 -0.0020459587337946263 0.0017242786919969557 0.00032168004179767125 -0.0010257586775333013 0.0 0.0
0.0 0.005049352783233128 -0.0044532797647556825 0.003927765372079745 0.0005255143926759372 -0.0019884635983119245 0.0 0.0
0.0 0.008795971161201229 -0.007693412548729842 0.0070186206215901905 0.0006747919271396502 -0.003161909164789484 0.0 0.0
0.0 0.013444185555088506 -0.011706315678901548 0.01091994108159826 0.0007863745973032883 -0.004476352026664404 0.0 0.0
0.0 0.018979746552624875 -0.016460015673750494 0.015580823136448315 0.0008791925373021779 -0.005829153741957718 0.0 0.0
0.0 0.025436260203865996 -0.02200206882255545 0.021037793525989487 0.0009642752965659527 -0.007172313427027396 0.0 0.0
0.0 0.032935922888730526 -0.02845950694686905 0.027413904097860382 0.0010456028490086482 -0.00857694203089885 0.0 0.0
0.0 0.04169903868904046 -0.03598670162159579 0.03486092018384912 0.0011257814377466724 -0.010102534763806603 0.0 0.0
0.0 0.05179754132796838 -0.04468143790702618 0.04347555093181207 0.001205886975214112 -0.011743161899942293 0.0 0.0
0.0 0.06286772188509174 -0.05441141837180944 0.05311391100969097 0.0012975073621184362 -0.0135102781913913 0.0 0.0
0.0 0.07433655248358896 -0.06430375346436204 0.06287651467168998 0.0014272387926720584 -0.015873922374117534 0.0 0.0
0.0 0.0833737275417637 -0.0719820752130453 0.07037852002966362 0.0016035551833816842 -0.01985591397153677 0.0 0.0
0.0 0.08531563032397858 -0.07325691266970603 0.07145351519996351 0.0018033974697425287 -0.025829822938188085 0.0 0.0
0.0 0.07402731833553211 -0.062453686290999594 0.06045707864240542 0.001996607648594147 -0.03264506138207605 0.0 0.0
0.0 0.07402731833553225 -0.06245368629099596 0.06045707864240201 0.0019966076485939425 0.032645061382104004 0.0 0.0
0.0 0.08531563032396355 -0.07325691266969012 0.07145351519994766 0.0018033974697424472 0.02582982293821924 0.0 0.0
0.0 0.08337372754173664 -0.0719820752130199 0.07037852002963874 0.0016035551833811013 0.01985591397156066 0.0 0.0
0.0 0.07433655248355552 -0.06430375346433213 0.0628765146716609 0.0014272387926712287 0.015873922374124702 0.0 0.0
0.0 0.06286772188505206 -0.05441141837177462 0.05311391100965682 0.0012975073621177623 0.01351027819139042 0.0 0.0
0.0 0.05179754132792706 -0.04468143790699005 0.043475550931776616 0.0012058869752134217 0.011743161899939195 0.0 0.0
0.0 0.04169903868899833 -0.03598670162155926 0.034860920183813184 0.00112578143774604 0.0101025347637996 0.0 0.0
0.0 0.03293592288868646 -0.028459506946830762 0.027413904097822607 0.0010456028490081603 0.008576942030890843 0.0 0.0
0.0 0.02543626020382385 -0.02200206882251851 0.021037793525953134 0.0009642752965653872 0.007172313427018406 0.0 0.0
0.0 0.018979746552587627 -0.016460015673717916 0.015580823136416469 0.0008791925373014399 0.005829153741944922 0.0 0.0
0.0 0.013444185555055457 -0.011706315678872703 0.010919941081569963 0.0007863745973027335 0.004476352026652088 0.0 0.0
0.0 0.008795971161175163 -0.007693412548706761 0.007018620621567809 0.0006747919271389499 0.003161909164780761 0.0 0.0
0.0 0.0050493527832149426 -0.004453279764739266 0.003927765372064416 0.0005255143926748493 0.0019884635983055117 0.0 0.0
0.0 0.0023589435319640415 -0.002045958733784432 0.001724278691987976 0.0003216800417964558 0.001025758677528584 0.0 0.0
0.0 0.0008030502956199871 -0.0005760603444053645 0.0004662751169992748 0.00010978522740608983 0.00036303265762457177 0.0 0.0
0.0 9.35839574151067e-05 -4.572982230976299e-05 3.668356677491335e-05 9.04625553484952e-06 4.4609341043645045e-05 0.0 0.0
0.0 3.047876461932866e-06 -3.418298917958183e-08 2.390305965610095e-08 1.0279929523493503e-08 1.1923009869997731e-08 0.0 0.0
0.0 0.0 0.0 0.0 0.0 0.0 0.0 0.0
0.0 0.0 0.0 0.0 0.0 0.0 0.0 0.0
0.0 0.0 0.0 0.0 0.0 0.0 0.0 0.0
0.0 0.0 0.0 0.0 0.0 0.0 0.0 0.0
0.0 0.0 0.0 0.0 0.0 0.0 0.0 0.0
0.0 0.0 0.0 0.0 0.0 0.0 0.0 0.0
0.0 3.222048404641219e-06 2.657699238892745e-07 -2.0739284069088161e-07 -5.837708319840322e-08 2.6535008931703896e-07 0.0 0.0
0.0 0.00020698855448011286 -0.00011873385957110902 9.463501021678416e-05 2.4098849354324793e-05 -7.155353975365321e-05 0.0 0.0
0.0 0.00125551180577243 -0.0009860483820372805 0.0008073555512280037 0.00017869283080927694 -0.0004084705830684501 0.0 0.0
0.0 0.003176802585805452 -0.0028614368298769018 0.002454041981636236 0.000407394848240666 -0.0009585867866857511 0.0 0.0
0.0 0.006359679670613573 -0.005661483537096751 0.005070809109359782 0.000590674427736967 -0.0017187923487330405 0.0 0.0
0.0 0.010644562050046264 -0.009382929682346972 0.008656500300609715 0.0007264293817372499 -0.0026631594973002357 0.0 0.0
0.0 0.015970073032068408 -0.013992269083167204 0.013158699261876568 0.0008335698212906319 -0.003729625146567839 0.0 0.0
0.0 0.022348115200593096 -0.019480366701023107 0.018551581889893747 0.0009287848111293618 -0.004834434662299996 0.0 0.0
0.0 0.029764666043398093 -0.025914469858846198 0.024894869028548886 0.0010196008302972965 -0.0059299996168371534 0.0 0.0
0.0 0.038542294359467225 -0.033426910086226204 0.03231787797022353 0.0011090321160026615 -0.007082084278212752 0.0 0.0
0.0 0.048506235795605125 -0.042156979948803235 0.04095830209749162 0.0011986778513116267 -0.00838868448618467 0.0 0.0
0.0 0.059949605272104745 -0.05212196930070617 0.05083234042805325 0.0012896288726529318 -0.009749570278625023 0.0 0.0
0.0 0.07259208879369503 -0.06309513929911544 0.06170783880765315 0.00138730049146229 -0.010858065208282463 0.0 0.0
0.0 0.08544497306856216 -0.07426625441222293 0.07275422688047099 0.0015120275317519246 -0.011902661672610778 0.0 0.0
0.0 0.09598316149267007 -0.08335198118146997 0.08164385144452391 0.0017081297369460314 -0.014968442850302247 0.0 0.0
0.0 0.09904302399781305 -0.08560361015769855 0.0836627624191771 0.0019408477385214858 -0.022841751602118675 0.0 0.0
0.0 0.08760948941195916 -0.07420325662826918 0.07204410152385068 0.0021591551044184616 -0.03592228142282261 0.0 0.0
0.0 0.08760948941195393 -0.07420325662826197 0.0720441015238435 0.0021591551044184976 0.03592228142284453 0.0 0.0
0.0 0.09904302399779522 -0.08560361015768096 0.08366276241916012 0.001940847738520833 0.022841751602145653 0.0 0.0
0.0 0.09598316149263966 -0.08335198118144255 0.08164385144449662 0.001708129736945883 0.014968442850324074 0.0 0.0
0.0 0.08544497306852022 -0.0742662544121864 0.07275422688043445 0.0015120275317519502 0.011902661672616228 0.0 0.0
0.0 0.07259208879364967 -0.06309513929907583 0.06170783880761421 0.001387300491461641 0.010858065208282452 0.0 0.0
0.0 0.059949605272057616 -0.05212196930066497 0.05083234042801289 0.0012896288726520976 0.009749570278623367 0.0 0.0
0.0 0.04850623579555603 -0.04215697994876059 0.04095830209744942 0.0011986778513111559 0.008388684486179318 0.0 0.0
0.0 0.038542294359419776 -0.03342691008618476 0.03231787797018291 0.0011090321160018566 0.007082084278206186 0.0 0.0
0.0 0.02976466604335134 -0.02591446985880521 0.02489486902850896 0.0010196008302962448 0.005929999616832165 0.0 0.0
0.0 0.0223481152005491 -0.019480366700984426 0.018551581889855666 0.0009287848111287536 0.004834434662289103 0.0 0.0
0.0 0.015970073032030914 -0.013992269083134272 0.01315869926184405 0.0008335698212902245 0.003729625146557202 0.0 0.0
0.0 0.010644562050016144 -0.009382929682320223 0.008656500300583602 0.0007264293817366194 0.0026631594972929534 0.0 0.0
0.0 0.006359679670590616 -0.005661483537076054 0.005070809109339962 0.0005906744277360924 0.001718792348727014 0.0 0.0
0.0 0.0031768025857908688 -0.0028614368298635587 0.002454041981624077 0.00040739484823948245 0.0009585867866813472 0.0 0.0
0.0 0.0012555118057650783 -0.0009860483820313144 0.0008073555512229627 0.00017869283080835065 0.0004084705830659319 0.0 0.0
0.0 0.00020698855447771734 -0.00011873385956995532 9.463501021586321e-05 2.409884935409221e-05 7.155353975303317e-05 0.0 0.0
0.0 3.2220484040444087e-06 2.657699236895969e-07 -2.073928405351896e-07 -5.837708315439878e-08 -2.653500891281966e-07 0.0 0.0
0.0 0.0 0.0 0.0 0.0 0.0 0.0 0.0
0.0 0.0 0.0 0.0 0.0 0.0 0.0 0.0
0.0 0.0 0.0 0.0 0.0 0.0 0.0 0.0
0.0 0.0 0.0 0.0 0.0 0.0 0.0 0.0
0.0 0.0 0.0 0.0 0.0 0.0 0.0 0.0
0.0 0.0 0.0 0.0 0.0 0.0 0.0 0.0
0.0 7.5267995886207145e-06 8.563707103441762e-07 -6.604849075615341e-07 -1.9588580278261263e-07 5.22671589400542e-07 0.0 0.0
0.0 0.0004279764997961837 -0.0002697702314151084 0.00021612968676626586 5.364054464884276e-05 -9.309758502111309e-05 0.0 0.0
0.0 0.00165119494974715 -0.0015185353570544514 0.001258950361841097 0.0002595849952133539 -0.000356238761331534 0.0 0.0
0.0 0.0040979489007965325 -0.00371187569796534 0.003235473822157871 0.0004764018758074681 -0.0007218095588787622 0.0 0.0
0.0 0.007700550772420572 -0.006885926431582987 0.006243437464334512 0.0006424889672484739 -0.001228416072740121 0.0 0.0
0.0 0.01251494909769059 -0.011075118382948505 0.010307917972565861 0.0007672004103826372 -0.0018716985867785725 0.0 0.0
0.0 0.018513573102098606 -0.01627648432326677 0.015403495811723789 0.0008729885115429757 -0.0026118182943693454 0.0 0.0
0.0 0.02571829085497184 -0.022503700051035594 0.021531155016225836 0.0009725450348097651 -0.003376957910416563 0.0 0.0
0.0 0.03426556608571703 -0.029838099035094545 0.028767954987723394 0.0010701440473711442 -0.004136676674386508 0.0 0.0
0.0 0.0440236143135915 -0.03842115860282715 0.03725322562689276 0.001167932975934383 -0.004971302020483993 0.0 0.0
0.0 0.05539928567700745 -0.04834674134395375 0.04707899608201486 0.0012677452619388688 -0.005909362867566474 0.0 0.0
0.0 0.06830053345282282 -0.059541283357326905 0.058169738711824605 0.0013715446455023219 -0.006834638649399344 0.0 0.0
0.0 0.08219578122159472 -0.07161699710522726 0.07013731216223959 0.0014796849429876769 -0.00742471912601482 0.0 0.0
0.0 0.09609276950076664 -0.08371465492398412 0.0821186064412063 0.0015960484827778707 -0.007321026361330129 0.0 0.0
0.0 0.10799904291112271 -0.09405400108837471 0.09229753243086489 0.0017564686575098393 -0.008136000976342738 0.0 0.0
0.0 0.1131210179034408 -0.09818493943685608 0.09611195299295577 0.0020729864439002345 -0.01677762229000725 0.0 0.0
0.0 0.10253419127319367 -0.08718509427770056 0.08483470570461486 0.0023503885730856676 -0.038150424052392114 0.0 0.0
0.0 0.10253419127318814 -0.08718509427769405 0.08483470570460835 0.0023503885730856476 0.03815042405240764 0.0 0.0
0.0 0.11312101790341828 -0.09818493943683576 0.09611195299293536 0.002072986443900339 0.016777622290028077 0.0 0.0
0.0 0.10799904291108495 -0.0940540010883415 0.09229753243083205 0.0017564686575094334 0.0081360009763598 0.0 0.0
0.0 0.09609276950071893 -0.08371465492394223 0.08211860644116555 0.0015960484827766434 0.007321026361332019 0.0 0.0
0.0 0.08219578122154174 -0.07161699710518102 0.07013731216219424 0.0014796849429867557 0.007424719126015094 0.0 0.0
0.0 0.06830053345276907 -0.05954128335727991 0.058169738711778614 0.0013715446455013149 0.006834638649398468 0.0 0.0
0.0 0.05539928567695385 -0.04834674134390695 0.04707899608196908 0.001267745261937855 0.005909362867563946 0.0 0.0
0.0 0.04402361431353688 -0.03842115860277952 0.03725322562684595 0.0011679329759335514 0.004971302020479303 0.0 0.0
0.0 0.03426556608566408 -0.029838099035048138 0.028767954987677598 0.0010701440473705303 0.004136676674383459 0.0 0.0
0.0 0.025718290854923585 -0.0225037000509934 0.021531155016184373 0.0009725450348090127 0.003376957910409195 0.0 0.0
0.0 0.01851357310205893 -0.0162764843232317 0.01540349581168969 0.0008729885115420121 0.0026118182943624954 0.0 0.0
0.0 0.012514949097660736 -0.01107511838292149 0.010307917972539757 0.000767200410381734 0.0018716985867746185 0.0 0.0
0.0 0.007700550772398001 -0.006885926431562411 0.006243437464314934 0.0006424889672474766 0.0012284160727365284 0.0 0.0
0.0 0.0040979489007800084 -0.0037118756979499287 0.0032354738221436635 0.00047640187580626393 0.0007218095588757435 0.0 0.0
0.0 0.0016511949497379247 -0.0015185353570458548 0.0012589503618336442 0.00025958499521221026 0.0003562387613294948 0.0 0.0
0.0 0.00042797649979261446 -0.00026977023141287244 0.00021612968676441678 5.364054464845544e-05 9.309758502032352e-05 0.0 0.0
0.0 7.52679958793711e-06 8.563707100854644e-07 -6.604849073583799e-07 -1.9588580272713073e-07 -5.226715892399073e-07 0.0 0.0
0.0 0.0 0.0 0.0 0.0 0.0 0.0 0.0
0.0 0.0 0.0 0.0 0.0 0.0 0.0 0.0
0.0 0.0 0.0 0.0 0.0 0.0 0.0 0.0
0.0 0.0 0.0 0.0 0.0 0.0 0.0 0.0
0.0 0.0 0.0 0.0 0.0 0.0 0.0 0.0
0.0 0.0 0.0 0.0 0.0 0.0 0.0 0.0
0.0 2.2867796578978746e-05 -7.211335542770478e-06 5.7437594981689765e-06 1.467576044601649e-06 -2.3574522315653207e-06 0.0 0.0
0.0 0.0007738453837517651 -0.000510473747646897 0.00041132383272408674 9.914991492281016e-05 -6.990543697397343e-05 0.0 0.0
0.0 0.0022670095530262814 -0.002085804359530524 0.0017527720800802789 0.00033303227945024477 -0.0001731162994780169 0.0 0.0
0.0 0.005052480735174541 -0.004583160683355479 0.004050285791830029 0.0005328748915254481 -0.0003213068813123904 0.0 0.0
0.0 0.009076714116593002 -0.008109974693607688 0.0074269099980843346 0.0006830646955233487 -0.000522506811585633 0.0 0.0
0.0 0.014416066683618178 -0.012754547300344489 0.011954022257781659 0.0008005250425628323 -0.0007952947086655329 0.0 0.0
0.0 0.021107503290831345 -0.01854239589811826 0.017635530054766008 0.0009068658433522561 -0.0011225898126599628 0.0 0.0
0.0 0.02921813029920275 -0.025515135683910086 0.024503922777794895 0.001011212906115183 -0.0014614241539660428 0.0 0.0
0.0 0.03857243648339791 -0.0337696306864646 0.032653002740329076 0.0011166279461355194 -0.0018204008357256994 0.0 0.0
0.0 0.04960440736657139 -0.04341460215619984 0.042191532811934586 0.0012230693442652459 -0.002210110137610301 0.0 0.0
0.0 0.06238370241714091 -0.05451338427386667 0.053180369575883936 0.0013330146979827003 -0.002620670583422405 0.0 0.0
0.0 0.07666493636921616 -0.06691340076513533 0.06546397050697988 0.0014494302581554413 -0.0029956957454778453 0.0 0.0
0.0 0.09180689698492087 -0.08003851239613229 0.07846679304403403 0.0015717193520982478 -0.0031270007995745893 0.0 0.0
0.0 0.10652322641582479 -0.09280117371054962 0.09110813652803587 0.0016930371825136976 -0.0026584121576164227 0.0 0.0
0.0 0.1189743769245783 -0.10363712046814 0.1018257975003665 0.0018113229677734675 -0.0014964187918209693 0.0 0.0
0.0 0.12633095508882494 -0.10993689810841845 0.10794175641667138 0.001995141691747003 -0.0051904935190118 0.0 0.0
0.0 0.12004677779075086 -0.10284913407339286 0.10014017607268876 0.002708958000704095 -0.0353473398335965 0.0 0.0
0.0 0.12004677779074151 -0.10284913407338422 0.10014017607268007 0.0027089580007040918 0.03534733983360239 0.0 0.0
0.0 0.12633095508879955 -0.10993689810839613 0.1079417564166495 0.001995141691746599 0.0051904935190206945 0.0 0.0
0.0 0.1189743769245346 -0.10363712046810213 0.10182579750032879 0.0018113229677732834 0.0014964187918291906 0.0 0.0
0.0 0.10652322641576957 -0.09280117371050181 0.0911081365279882 0.0016930371825135502 0.002658412157615748 0.0 0.0
0.0 0.09180689698486275 -0.08003851239608173 0.07846679304398399 0.0015717193520977215 0.0031270007995746543 0.0 0.0
0.0 0.07666493636915678 -0.06691340076508362 0.06546397050692891 0.0014494302581546823 0.0029956957454771813 0.0 0.0
0.0 0.062383702417079974 -0.0545133842738136 0.05318036957583168 0.0013330146979819147 0.002620670583422257 0.0 0.0
0.0 0.04960440736650981 -0.043414602156146155 0.04219153281188183 0.0012230693442642916 0.0022101101376083864 0.0 0.0
0.0 0.038572436483337136 -0.03376963068641163 0.03265300274027684 0.001116627946134779 0.0018204008357248138 0.0 0.0
0.0 0.02921813029914869 -0.025515135683862836 0.024503922777748325 0.0010112129061145105 0.001461424153961503 0.0 0.0
0.0 0.021107503290785895 -0.018542395898078722 0.017635530054727098 0.0009068658433516292 0.001122589812656531 0.0 0.0
0.0 0.014416066683581854 -0.012754547300312268 0.011954022257750052 0.0008005250425622138 0.0007952947086637314 0.0 0.0
0.0 0.009076714116565732 -0.008109974693582945 0.007426909998060316 0.0006830646955226318 0.0005225068115839212 0.0 0.0
0.0 0.005052480735155622 -0.004583160683338058 0.004050285791813574 0.0005328748915244848 0.0003213068813112328 0.0 0.0
0.0 0.0022670095530157738 -0.002085804359520354 0.001752772080071228 0.00033303227944912625 0.00017311629947713245 0.0 0.0
0.0 0.0007738453837467034 -0.0005104737476432891 0.00041132383272111397 9.914991492217563e-05 6.990543697356209e-05 0.0 0.0
0.0 2.286779657845715e-05 -7.211335543001505e-06 5.7437594983378215e-06 1.4675760446636728e-06 2.3574522315704842e-06 0.0 0.0
0.0 0.0 0.0 0.0 0.0 0.0 0.0 0.0
0.0 0.0 0.0 0.0 0.0 0.0 0.0 0.0
0.0 0.0 0.0 0.0 0.0 0.0 0.0 0.0