# vtk DataFile Version 3.0
Some data
ASCII
DATASET UNSTRUCTURED_GRID
POINTS 861 float
0.0 0.0 0.0
0.4 0.0 0.0
0.8 0.0 0.0
1.2000000000000002 0.0 0.0
1.6 0.0 0.0
2.0 0.0 0.0
2.4000000000000004 0.0 0.0
2.8000000000000003 0.0 0.0
3.2 0.0 0.0
3.6 0.0 0.0
4.0 0.0 0.0
4.4 0.0 0.0
4.800000000000001 0.0 0.0
5.2 0.0 0.0
5.6000000000000005 0.0 0.0
6.0 0.0 0.0
6.4 0.0 0.0
6.800000000000001 0.0 0.0
7.2 0.0 0.0
7.6000000000000005 0.0 0.0
8.0 0.0 0.0
8.4 0.0 0.0
8.8 0.0 0.0
9.200000000000001 0.0 0.0
9.600000000000001 0.0 0.0
10.0 0.0 0.0
10.4 0.0 0.0
10.8 0.0 0.0
11.200000000000001 0.0 0.0
11.600000000000001 0.0 0.0
12.0 0.0 0.0
12.4 0.0 0.0
12.8 0.0 0.0
13.200000000000001 0.0 0.0
13.600000000000001 0.0 0.0
14.0 0.0 0.0
14.4 0.0 0.0
14.8 0.0 0.0
15.200000000000001 0.0 0.0
15.600000000000001 0.0 0.0
16.0 0.0 0.0
0.0 0.1 0.0
0.4 0.1 0.0
0.8 0.1 0.0
1.2000000000000002 0.1 0.0
1.6 0.1 0.0
2.0 0.1 0.0
2.4000000000000004 0.1 0.0
2.8000000000000003 0.1 0.0
3.2 0.1 0.0
3.6 0.1 0.0
4.0 0.1 0.0
4.4 0.1 0.0
4.800000000000001 0.1 0.0
5.2 0.1 0.0
5.6000000000000005 0.1 0.0
6.0 0.1 0.0
6.4 0.1 0.0
6.800000000000001 0.1 0.0
7.2 0.1 0.0
7.6000000000000005 0.1 0.0
8.0 0.1 0.0
8.4 0.1 0.0
8.8 0.1 0.0
9.200000000000001 0.1 0.0
9.600000000000001 0.1 0.0
10.0 0.1 0.0
10.4 0.1 0.0
10.8 0.1 0.0
11.200000000000001 0.1 0.0
11.600000000000001 0.1 0.0
12.0 0.1 0.0
12.4 0.1 0.0
12.8 0.1 0.0
13.200000000000001 0.1 0.0
13.600000000000001 0.1 0.0
14.0 0.1 0.0
14.4 0.1 0.0
14.8 0.1 0.0
15.200000000000001 0.1 0.0
15.600000000000001 0.1 0.0
16.0 0.1 0.0
0.0 0.2 0.0
0.4 0.2 0.0
0.8 0.2 0.0
1.2000000000000002 0.2 0.0
1.6 0.2 0.0
2.0 0.2 0.0
2.4000000000000004 0.2 0.0
2.8000000000000003 0.2 0.0
3.2 0.2 0.0
3.6 0.2 0.0
4.0 0.2 0.0
4.4 0.2 0.0
4.800000000000001 0.2 0.0
5.2 0.2 0.0
5.6000000000000005 0.2 0.0
6.0 0.2 0.0
6.4 0.2 0.0
6.800000000000001 0.2 0.0
7.2 0.2 0.0
7.6000000000000005 0.2 0.0
8.0 0.2 0.0
8.4 0.2 0.0
8.8 0.2 0.0
9.200000000000001 0.2 0.0
9.600000000000001 0.2 0.0
10.0 0.2 0.0
10.4 0.2 0.0
10.8 0.2 0.0
11.200000000000001 0.2 0.0
11.600000000000001 0.2 0.0
12.0 0.2 0.0
12.4 0.2 0.0
12.8 0.2 0.0
13.200000000000001 0.2 0.0
13.600000000000001 0.2 0.0
14.0 0.2 0.0
14.4 0.2 0.0
14.8 0.2 0.0
15.200000000000001 0.2 0.0
15.600000000000001 0.2 0.0
16.0 0.2 0.0
0.0 0.30000000000000004 0.0
0.4 0.30000000000000004 0.0
0.8 0.30000000000000004 0.0
1.2000000000000002 0.30000000000000004 0.0
1.6 0.30000000000000004 0.0
2.0 0.30000000000000004 0.0
2.4000000000000004 0.30000000000000004 0.0
2.8000000000000003 0.30000000000000004 0.0
3.2 0.30000000000000004 0.0
3.6 0.30000000000000004 0.0
4.0 0.30000000000000004 0.0
4.4 0.30000000000000004 0.0
4.800000000000001 0.30000000000000004 0.0
5.2 0.30000000000000004 0.0
5.6000000000000005 0.30000000000000004 0.0
6.0 0.30000000000000004 0.0
6.4 0.30000000000000004 0.0
6.800000000000001 0.30000000000000004 0.0
7.2 0.30000000000000004 0.0
7.6000000000000005 0.30000000000000004 0.0
8.0 0.30000000000000004 0.0
8.4 0.30000000000000004 0.0
8.8 0.30000000000000004 0.0
9.200000000000001 0.30000000000000004 0.0
9.600000000000001 0.30000000000000004 0.0
10.0 0.30000000000000004 0.0
10.4 0.30000000000000004 0.0
10.8 0.30000000000000004 0.0
11.200000000000001 0.30000000000000004 0.0
11.600000000000001 0.30000000000000004 0.0
12.0 0.30000000000000004 0.0
12.4 0.30000000000000004 0.0
12.8 0.30000000000000004 0.0
13.200000000000001 0.30000000000000004 0.0
13.600000000000001 0.30000000000000004 0.0
14.0 0.30000000000000004 0.0
14.4 0.30000000000000004 0.0
14.8 0.30000000000000004 0.0
15.200000000000001 0.30000000000000004 0.0
15.600000000000001 0.30000000000000004 0.0
16.0 0.30000000000000004 0.0
0.0 0.4 0.0
0.4 0.4 0.0
0.8 0.4 0.0
1.2000000000000002 0.4 0.0
1.6 0.4 0.0
2.0 0.4 0.0
2.4000000000000004 0.4 0.0
2.8000000000000003 0.4 0.0
3.2 0.4 0.0
3.6 0.4 0.0
4.0 0.4 0.0
4.4 0.4 0.0
4.800000000000001 0.4 0.0
5.2 0.4 0.0
5.6000000000000005 0.4 0.0
6.0 0.4 0.0
6.4 0.4 0.0
6.800000000000001 0.4 0.0
7.2 0.4 0.0
7.6000000000000005 0.4 0.0
8.0 0.4 0.0
8.4 0.4 0.0
8.8 0.4 0.0
9.200000000000001 0.4 0.0
9.600000000000001 0.4 0.0
10.0 0.4 0.0
10.4 0.4 0.0
10.8 0.4 0.0
11.200000000000001 0.4 0.0
11.600000000000001 0.4 0.0
12.0 0.4 0.0
12.4 0.4 0.0
12.8 0.4 0.0
13.200000000000001 0.4 0.0
13.600000000000001 0.4 0.0
14.0 0.4 0.0
14.4 0.4 0.0
14.8 0.4 0.0
15.200000000000001 0.4 0.0
15.600000000000001 0.4 0.0
16.0 0.4 0.0
0.0 0.5 0.0
0.4 0.5 0.0
0.8 0.5 0.0
1.2000000000000002 0.5 0.0
1.6 0.5 0.0
2.0 0.5 0.0
2.4000000000000004 0.5 0.0
2.8000000000000003 0.5 0.0
3.2 0.5 0.0
3.6 0.5 0.0
4.0 0.5 0.0
4.4 0.5 0.0
4.800000000000001 0.5 0.0
5.2 0.5 0.0
5.6000000000000005 0.5 0.0
6.0 0.5 0.0
6.4 0.5 0.0
6.800000000000001 0.5 0.0
7.2 0.5 0.0
7.6000000000000005 0.5 0.0
8.0 0.5 0.0
8.4 0.5 0.0
8.8 0.5 0.0
9.200000000000001 0.5 0.0
9.600000000000001 0.5 0.0
10.0 0.5 0.0
10.4 0.5 0.0
10.8 0.5 0.0
11.200000000000001 0.5 0.0
11.600000000000001 0.5 0.0
12.0 0.5 0.0
12.4 0.5 0.0
12.8 0.5 0.0
13.200000000000001 0.5 0.0
13.600000000000001 0.5 0.0
14.0 0.5 0.0
14.4 0.5 0.0
14.8 0.5 0.0
15.200000000000001 0.5 0.0
15.600000000000001 0.5 0.0
16.0 0.5 0.0
0.0 0.6000000000000001 0.0
0.4 0.6000000000000001 0.0
0.8 0.6000000000000001 0.0
1.2000000000000002 0.6000000000000001 0.0
1.6 0.6000000000000001 0.0
2.0 0.6000000000000001 0.0
2.4000000000000004 0.6000000000000001 0.0
2.8000000000000003 0.6000000000000001 0.0
3.2 0.6000000000000001 0.0
3.6 0.6000000000000001 0.0
4.0 0.6000000000000001 0.0
4.4 0.6000000000000001 0.0
4.800000000000001 0.6000000000000001 0.0
5.2 0.6000000000000001 0.0
5.6000000000000005 0.6000000000000001 0.0
6.0 0.6000000000000001 0.0
6.4 0.6000000000000001 0.0
6.800000000000001 0.6000000000000001 0.0
7.2 0.6000000000000001 0.0
7.6000000000000005 0.6000000000000001 0.0
8.0 0.6000000000000001 0.0
8.4 0.6000000000000001 0.0
8.8 0.6000000000000001 0.0
9.200000000000001 0.6000000000000001 0.0
9.600000000000001 0.6000000000000001 0.0
10.0 0.6000000000000001 0.0
10.4 0.6000000000000001 0.0
10.8 0.6000000000000001 0.0
11.200000000000001 0.6000000000000001 0.0
11.600000000000001 0.6000000000000001 0.0
12.0 0.6000000000000001 0.0
12.4 0.6000000000000001 0.0
12.8 0.6000000000000001 0.0
13.200000000000001 0.6000000000000001 0.0
13.600000000000001 0.6000000000000001 0.0
14.0 0.6000000000000001 0.0
14.4 0.6000000000000001 0.0
14.8 0.6000000000000001 0.0
15.200000000000001 0.6000000000000001 0.0
15.600000000000001 0.6000000000000001 0.0
16.0 0.6000000000000001 0.0
0.0 0.7000000000000001 0.0
0.4 0.7000000000000001 0.0
0.8 0.7000000000000001 0.0
1.2000000000000002 0.7000000000000001 0.0
1.6 0.7000000000000001 0.0
2.0 0.7000000000000001 0.0
2.4000000000000004 0.7000000000000001 0.0
2.8000000000000003 0.7000000000000001 0.0
3.2 0.7000000000000001 0.0
3.6 0.7000000000000001 0.0
4.0 0.7000000000000001 0.0
4.4 0.7000000000000001 0.0
4.800000000000001 0.7000000000000001 0.0
5.2 0.7000000000000001 0.0
5.6000000000000005 0.7000000000000001 0.0
6.0 0.7000000000000001 0.0
6.4 0.7000000000000001 0.0
6.800000000000001 0.7000000000000001 0.0
7.2 0.7000000000000001 0.0
7.6000000000000005 0.7000000000000001 0.0
8.0 0.7000000000000001 0.0
8.4 0.7000000000000001 0.0
8.8 0.7000000000000001 0.0
9.200000000000001 0.7000000000000001 0.0
9.600000000000001 0.7000000000000001 0.0
10.0 0.7000000000000001 0.0
10.4 0.7000000000000001 0.0
10.8 0.7000000000000001 0.0
11.200000000000001 0.7000000000000001 0.0
11.600000000000001 0.7000000000000001 0.0
12.0 0.7000000000000001 0.0
12.4 0.7000000000000001 0.0
12.8 0.7000000000000001 0.0
13.200000000000001 0.7000000000000001 0.0
13.600000000000001 0.7000000000000001 0.0
14.0 0.7000000000000001 0.0
14.4 0.7000000000000001 0.0
14.8 0.7000000000000001 0.0
15.200000000000001 0.7000000000000001 0.0
15.600000000000001 0.7000000000000001 0.0
16.0 0.7000000000000001 0.0
0.0 0.8 0.0
0.4 0.8 0.0
0.8 0.8 0.0
1.2000000000000002 0.8 0.0
1.6 0.8 0.0
2.0 0.8 0.0
2.4000000000000004 0.8 0.0
2.8000000000000003 0.8 0.0
3.2 0.8 0.0
3.6 0.8 0.0
4.0 0.8 0.0
4.4 0.8 0.0
4.800000000000001 0.8 0.0
5.2 0.8 0.0
5.6000000000000005 0.8 0.0
6.0 0.8 0.0
6.4 0.8 0.0
6.800000000000001 0.8 0.0
7.2 0.8 0.0
7.6000000000000005 0.8 0.0
8.0 0.8 0.0
8.4 0.8 0.0
8.8 0.8 0.0
9.200000000000001 0.8 0.0
9.600000000000001 0.8 0.0
10.0 0.8 0.0
10.4 0.8 0.0
10.8 0.8 0.0
11.200000000000001 0.8 0.0
11.600000000000001 0.8 0.0
12.0 0.8 0.0
12.4 0.8 0.0
12.8 0.8 0.0
13.200000000000001 0.8 0.0
13.600000000000001 0.8 0.0
14.0 0.8 0.0
14.4 0.8 0.0
14.8 0.8 0.0
15.200000000000001 0.8 0.0
15.600000000000001 0.8 0.0
16.0 0.8 0.0
0.0 0.9 0.0
0.4 0.9 0.0
0.8 0.9 0.0
1.2000000000000002 0.9 0.0
1.6 0.9 0.0
2.0 0.9 0.0
2.4000000000000004 0.9 0.0
2.8000000000000003 0.9 0.0
3.2 0.9 0.0
3.6 0.9 0.0
4.0 0.9 0.0
4.4 0.9 0.0
4.800000000000001 0.9 0.0
5.2 0.9 0.0
5.6000000000000005 0.9 0.0
6.0 0.9 0.0
6.4 0.9 0.0
6.800000000000001 0.9 0.0
7.2 0.9 0.0
7.6000000000000005 0.9 0.0
8.0 0.9 0.0
8.4 0.9 0.0
8.8 0.9 0.0
9.200000000000001 0.9 0.0
9.600000000000001 0.9 0.0
10.0 0.9 0.0
10.4 0.9 0.0
10.8 0.9 0.0
11.200000000000001 0.9 0.0
11.600000000000001 0.9 0.0
12.0 0.9 0.0
12.4 0.9 0.0
12.8 0.9 0.0
13.200000000000001 0.9 0.0
13.600000000000001 0.9 0.0
14.0 0.9 0.0
14.4 0.9 0.0
14.8 0.9 0.0
15.200000000000001 0.9 0.0
15.600000000000001 0.9 0.0
16.0 0.9 0.0
0.0 1.0 0.0
0.4 1.0 0.0
0.8 1.0 0.0
1.2000000000000002 1.0 0.0
1.6 1.0 0.0
2.0 1.0 0.0
2.4000000000000004 1.0 0.0
2.8000000000000003 1.0 0.0
3.2 1.0 0.0
3.6 1.0 0.0
4.0 1.0 0.0
4.4 1.0 0.0
4.800000000000001 1.0 0.0
5.2 1.0 0.0
5.6000000000000005 1.0 0.0
6.0 1.0 0.0
6.4 1.0 0.0
6.800000000000001 1.0 0.0
7.2 1.0 0.0
7.6000000000000005 1.0 0.0
8.0 1.0 0.0
8.4 1.0 0.0
8.8 1.0 0.0
9.200000000000001 1.0 0.0
9.600000000000001 1.0 0.0
10.0 1.0 0.0
10.4 1.0 0.0
10.8 1.0 0.0
11.200000000000001 1.0 0.0
11.600000000000001 1.0 0.0
12.0 1.0 0.0
12.4 1.0 0.0
12.8 1.0 0.0
13.200000000000001 1.0 0.0
13.600000000000001 1.0 0.0
14.0 1.0 0.0
14.4 1.0 0.0
14.8 1.0 0.0
15.200000000000001 1.0 0.0
15.600000000000001 1.0 0.0
16.0 1.0 0.0
0.0 1.1 0.0
0.4 1.1 0.0
0.8 1.1 0.0
1.2000000000000002 1.1 0.0
1.6 1.1 0.0
2.0 1.1 0.0
2.4000000000000004 1.1 0.0
2.8000000000000003 1.1 0.0
3.2 1.1 0.0
3.6 1.1 0.0
4.0 1.1 0.0
4.4 1.1 0.0
4.800000000000001 1.1 0.0
5.2 1.1 0.0
5.6000000000000005 1.1 0.0
6.0 1.1 0.0
6.4 1.1 0.0
6.800000000000001 1.1 0.0
7.2 1.1 0.0
7.6000000000000005 1.1 0.0
8.0 1.1 0.0
8.4 1.1 0.0
8.8 1.1 0.0
9.200000000000001 1.1 0.0
9.600000000000001 1.1 0.0
10.0 1.1 0.0
10.4 1.1 0.0
10.8 1.1 0.0
11.200000000000001 1.1 0.0
11.600000000000001 1.1 0.0
12.0 1.1 0.0
12.4 1.1 0.0
12.8 1.1 0.0
13.200000000000001 1.1 0.0
13.600000000000001 1.1 0.0
14.0 1.1 0.0
14.4 1.1 0.0
14.8 1.1 0.0
15.200000000000001 1.1 0.0
15.600000000000001 1.1 0.0
16.0 1.1 0.0
0.0 1.2000000000000002 0.0
0.4 1.2000000000000002 0.0
0.8 1.2000000000000002 0.0
1.2000000000000002 1.2000000000000002 0.0
1.6 1.2000000000000002 0.0
2.0 1.2000000000000002 0.0
2.4000000000000004 1.2000000000000002 0.0
2.8000000000000003 1.2000000000000002 0.0
3.2 1.2000000000000002 0.0
3.6 1.2000000000000002 0.0
4.0 1.2000000000000002 0.0
4.4 1.2000000000000002 0.0
4.800000000000001 1.2000000000000002 0.0
5.2 1.2000000000000002 0.0
5.6000000000000005 1.2000000000000002 0.0
6.0 1.2000000000000002 0.0
6.4 1.2000000000000002 0.0
6.800000000000001 1.2000000000000002 0.0
7.2 1.2000000000000002 0.0
7.6000000000000005 1.2000000000000002 0.0
8.0 1.2000000000000002 0.0
8.4 1.2000000000000002 0.0
8.8 1.2000000000000002 0.0
9.200000000000001 1.2000000000000002 0.0
9.600000000000001 1.2000000000000002 0.0
10.0 1.2000000000000002 0.0
10.4 1.2000000000000002 0.0
10.8 1.2000000000000002 0.0
11.200000000000001 1.2000000000000002 0.0
11.600000000000001 1.2000000000000002 0.0
12.0 1.2000000000000002 0.0
12.4 1.2000000000000002 0.0
12.8 1.2000000000000002 0.0
13.200000000000001 1.2000000000000002 0.0
13.600000000000001 1.2000000000000002 0.0
14.0 1.2000000000000002 0.0
14.4 1.2000000000000002 0.0
14.8 1.2000000000000002 0.0
15.200000000000001 1.2000000000000002 0.0
15.600000000000001 1.2000000000000002 0.0
16.0 1.2000000000000002 0.0
0.0 1.3 0.0
0.4 1.3 0.0
0.8 1.3 0.0
1.2000000000000002 1.3 0.0
1.6 1.3 0.0
2.0 1.3 0.0
2.4000000000000004 1.3 0.0
2.8000000000000003 1.3 0.0
3.2 1.3 0.0
3.6 1.3 0.0
4.0 1.3 0.0
4.4 1.3 0.0
4.800000000000001 1.3 0.0
5.2 1.3 0.0
5.6000000000000005 1.3 0.0
6.0 1.3 0.0
6.4 1.3 0.0
6.800000000000001 1.3 0.0
7.2 1.3 0.0
7.6000000000000005 1.3 0.0
8.0 1.3 0.0
8.4 1.3 0.0
8.8 1.3 0.0
9.200000000000001 1.3 0.0
9.600000000000001 1.3 0.0
10.0 1.3 0.0
10.4 1.3 0.0
10.8 1.3 0.0
11.200000000000001 1.3 0.0
11.600000000000001 1.3 0.0
12.0 1.3 0.0
12.4 1.3 0.0
12.8 1.3 0.0
13.200000000000001 1.3 0.0
13.600000000000001 1.3 0.0
14.0 1.3 0.0
14.4 1.3 0.0
14.8 1.3 0.0
15.200000000000001 1.3 0.0
15.600000000000001 1.3 0.0
16.0 1.3 0.0
0.0 1.4000000000000001 0.0
0.4 1.4000000000000001 0.0
0.8 1.4000000000000001 0.0
1.2000000000000002 1.4000000000000001 0.0
1.6 1.4000000000000001 0.0
2.0 1.4000000000000001 0.0
2.4000000000000004 1.4000000000000001 0.0
2.8000000000000003 1.4000000000000001 0.0
3.2 1.4000000000000001 0.0
3.6 1.4000000000000001 0.0
4.0 1.4000000000000001 0.0
4.4 1.4000000000000001 0.0
4.800000000000001 1.4000000000000001 0.0
5.2 1.4000000000000001 0.0
5.6000000000000005 1.4000000000000001 0.0
6.0 1.4000000000000001 0.0
6.4 1.4000000000000001 0.0
6.800000000000001 1.4000000000000001 0.0
7.2 1.4000000000000001 0.0
7.6000000000000005 1.4000000000000001 0.0
8.0 1.4000000000000001 0.0
8.4 1.4000000000000001 0.0
8.8 1.4000000000000001 0.0
9.200000000000001 1.4000000000000001 0.0
9.600000000000001 1.4000000000000001 0.0
10.0 1.4000000000000001 0.0
10.4 1.4000000000000001 0.0
10.8 1.4000000000000001 0.0
11.200000000000001 1.4000000000000001 0.0
11.600000000000001 1.4000000000000001 0.0
12.0 1.4000000000000001 0.0
12.4 1.4000000000000001 0.0
12.8 1.4000000000000001 0.0
13.200000000000001 1.4000000000000001 0.0
13.600000000000001 1.4000000000000001 0.0
14.0 1.4000000000000001 0.0
14.4 1.4000000000000001 0.0
14.8 1.4000000000000001 0.0
15.200000000000001 1.4000000000000001 0.0
15.600000000000001 1.4000000000000001 0.0
16.0 1.4000000000000001 0.0
0.0 1.5 0.0
0.4 1.5 0.0
0.8 1.5 0.0
1.2000000000000002 1.5 0.0
1.6 1.5 0.0
2.0 1.5 0.0
2.4000000000000004 1.5 0.0
2.8000000000000003 1.5 0.0
3.2 1.5 0.0
3.6 1.5 0.0
4.0 1.5 0.0
4.4 1.5 0.0
4.800000000000001 1.5 0.0
5.2 1.5 0.0
5.6000000000000005 1.5 0.0
6.0 1.5 0.0
6.4 1.5 0.0
6.800000000000001 1.5 0.0
7.2 1.5 0.0
7.6000000000000005 1.5 0.0
8.0 1.5 0.0
8.4 1.5 0.0
8.8 1.5 0.0
9.200000000000001 1.5 0.0
9.600000000000001 1.5 0.0
10.0 1.5 0.0
10.4 1.5 0.0
10.8 1.5 0.0
11.200000000000001 1.5 0.0
11.600000000000001 1.5 0.0
12.0 1.5 0.0
12.4 1.5 0.0
12.8 1.5 0.0
13.200000000000001 1.5 0.0
13.600000000000001 1.5 0.0
14.0 1.5 0.0
14.4 1.5 0.0
14.8 1.5 0.0
15.200000000000001 1.5 0.0
15.600000000000001 1.5 0.0
16.0 1.5 0.0
0.0 1.6 0.0
0.4 1.6 0.0
0.8 1.6 0.0
1.2000000000000002 1.6 0.0
1.6 1.6 0.0
2.0 1.6 0.0
2.4000000000000004 1.6 0.0
2.8000000000000003 1.6 0.0
3.2 1.6 0.0
3.6 1.6 0.0
4.0 1.6 0.0
4.4 1.6 0.0
4.800000000000001 1.6 0.0
5.2 1.6 0.0
5.6000000000000005 1.6 0.0
6.0 1.6 0.0
6.4 1.6 0.0
6.800000000000001 1.6 0.0
7.2 1.6 0.0
7.6000000000000005 1.6 0.0
8.0 1.6 0.0
8.4 1.6 0.0
8.8 1.6 0.0
9.200000000000001 1.6 0.0
9.600000000000001 1.6 0.0
10.0 1.6 0.0
10.4 1.6 0.0
10.8 1.6 0.0
11.200000000000001 1.6 0.0
11.600000000000001 1.6 0.0
12.0 1.6 0.0
12.4 1.6 0.0
12.8 1.6 0.0
13.200000000000001 1.6 0.0
13.600000000000001 1.6 0.0
14.0 1.6 0.0
14.4 1.6 0.0
14.8 1.6 0.0
15.200000000000001 1.6 0.0
15.600000000000001 1.6 0.0
16.0 1.6 0.0
0.0 1.7000000000000002 0.0
0.4 1.7000000000000002 0.0
0.8 1.7000000000000002 0.0
1.2000000000000002 1.7000000000000002 0.0
1.6 1.7000000000000002 0.0
2.0 1.7000000000000002 0.0
2.4000000000000004 1.7000000000000002 0.0
2.8000000000000003 1.7000000000000002 0.0
3.2 1.7000000000000002 0.0
3.6 1.7000000000000002 0.0
4.0 1.7000000000000002 0.0
4.4 1.7000000000000002 0.0
4.800000000000001 1.7000000000000002 0.0
5.2 1.7000000000000002 0.0
5.6000000000000005 1.7000000000000002 0.0
6.0 1.7000000000000002 0.0
6.4 1.7000000000000002 0.0
6.800000000000001 1.7000000000000002 0.0
7.2 1.7000000000000002 0.0
7.6000000000000005 1.7000000000000002 0.0
8.0 1.7000000000000002 0.0
8.4 1.7000000000000002 0.0
8.8 1.7000000000000002 0.0
9.200000000000001 1.7000000000000002 0.0
9.600000000000001 1.7000000000000002 0.0
10.0 1.7000000000000002 0.0
10.4 1.7000000000000002 0.0
10.8 1.7000000000000002 0.0
11.200000000000001 1.7000000000000002 0.0
11.600000000000001 1.7000000000000002 0.0
12.0 1.7000000000000002 0.0
12.4 1.7000000000000002 0.0
12.8 1.7000000000000002 0.0
13.200000000000001 1.7000000000000002 0.0
13.600000000000001 1.7000000000000002 0.0
14.0 1.7000000000000002 0.0
14.4 1.7000000000000002 0.0
14.8 1.7000000000000002 0.0
15.200000000000001 1.7000000000000002 0.0
15.600000000000001 1.7000000000000002 0.0
16.0 1.7000000000000002 0.0
0.0 1.8 0.0
0.4 1.8 0.0
0.8 1.8 0.0
1.2000000000000002 1.8 0.0
1.6 1.8 0.0
2.0 1.8 0.0
2.4000000000000004 1.8 0.0
2.8000000000000003 1.8 0.0
3.2 1.8 0.0
3.6 1.8 0.0
4.0 1.8 0.0
4.4 1.8 0.0
4.800000000000001 1.8 0.0
5.2 1.8 0.0
5.6000000000000005 1.8 0.0
6.0 1.8 0.0
6.4 1.8 0.0
6.800000000000001 1.8 0.0
7.2 1.8 0.0
7.6000000000000005 1.8 0.0
8.0 1.8 0.0
8.4 1.8 0.0
8.8 1.8 0.0
9.200000000000001 1.8 0.0
9.600000000000001 1.8 0.0
10.0 1.8 0.0
10.4 1.8 0.0
10.8 1.8 0.0
11.200000000000001 1.8 0.0
11.600000000000001 1.8 0.0
12.0 1.8 0.0
12.4 1.8 0.0
12.8 1.8 0.0
13.200000000000001 1.8 0.0
13.600000000000001 1.8 0.0
14.0 1.8 0.0
14.4 1.8 0.0
14.8 1.8 0.0
15.200000000000001 1.8 0.0
15.600000000000001 1.8 0.0
16.0 1.8 0.0
0.0 1.9000000000000001 0.0
0.4 1.9000000000000001 0.0
0.8 1.9000000000000001 0.0
1.2000000000000002 1.9000000000000001 0.0
1.6 1.9000000000000001 0.0
2.0 1.9000000000000001 0.0
2.4000000000000004 1.9000000000000001 0.0
2.8000000000000003 1.9000000000000001 0.0
3.2 1.9000000000000001 0.0
3.6 1.9000000000000001 0.0
4.0 1.9000000000000001 0.0
4.4 1.9000000000000001 0.0
4.800000000000001 1.9000000000000001 0.0
5.2 1.9000000000000001 0.0
5.6000000000000005 1.9000000000000001 0.0
6.0 1.9000000000000001 0.0
6.4 1.9000000000000001 0.0
6.800000000000001 1.9000000000000001 0.0
7.2 1.9000000000000001 0.0
7.6000000000000005 1.9000000000000001 0.0
8.0 1.9000000000000001 0.0
8.4 1.9000000000000001 0.0
8.8 1.9000000000000001 0.0
9.200000000000001 1.9000000000000001 0.0
9.600000000000001 1.9000000000000001 0.0
10.0 1.9000000000000001 0.0
10.4 1.9000000000000001 0.0
10.8 1.9000000000000001 0.0
11.200000000000001 1.9000000000000001 0.0
11.600000000000001 1.9000000000000001 0.0
12.0 1.9000000000000001 0.0
12.4 1.9000000000000001 0.0
12.8 1.9000000000000001 0.0
13.200000000000001 1.9000000000000001 0.0
13.600000000000001 1.9000000000000001 0.0
14.0 1.9000000000000001 0.0
14.4 1.9000000000000001 0.0
14.8 1.9000000000000001 0.0
15.200000000000001 1.9000000000000001 0.0
15.600000000000001 1.9000000000000001 0.0
16.0 1.9000000000000001 0.0
0.0 2.0 0.0
0.4 2.0 0.0
0.8 2.0 0.0
1.2000000000000002 2.0 0.0
1.6 2.0 0.0
2.0 2.0 0.0
2.4000000000000004 2.0 0.0
2.8000000000000003 2.0 0.0
3.2 2.0 0.0
3.6 2.0 0.0
4.0 2.0 0.0
4.4 2.0 0.0
4.800000000000001 2.0 0.0
5.2 2.0 0.0
5.6000000000000005 2.0 0.0
6.0 2.0 0.0
6.4 2.0 0.0
6.800000000000001 2.0 0.0
7.2 2.0 0.0
7.6000000000000005 2.0 0.0
8.0 2.0 0.0
8.4 2.0 0.0
8.8 2.0 0.0
9.200000000000001 2.0 0.0
9.600000000000001 2.0 0.0
10.0 2.0 0.0
10.4 2.0 0.0
10.8 2.0 0.0
11.200000000000001 2.0 0.0
11.600000000000001 2.0 0.0
12.0 2.0 0.0
12.4 2.0 0.0
12.8 2.0 0.0
13.200000000000001 2.0 0.0
13.600000000000001 2.0 0.0
14.0 2.0 0.0
14.4 2.0 0.0
14.8 2.0 0.0
15.200000000000001 2.0 0.0
15.600000000000001 2.0 0.0
16.0 2.0 0.0
CELLS 800 4000
4 0 1 42 41
4 1 2 43 42
4 2 3 44 43
4 3 4 45 44
4 4 5 46 45
4 5 6 47 46
4 6 7 48 47
4 7 8 49 48
4 8 9 50 49
4 9 10 51 50
4 10 11 52 51
4 11 12 53 52
4 12 13 54 53
4 13 14 55 54
4 14 15 56 55
4 15 16 57 56
4 16 17 58 57
4 17 18 59 58
4 18 19 60 59
4 19 20 61 60
4 20 21 62 61
4 21 22 63 62
4 22 23 64 63
4 23 24 65 64
4 24 25 66 65
4 25 26 67 66
4 26 27 68 67
4 27 28 69 68
4 28 29 70 69
4 29 30 71 70
4 30 31 72 71
4 31 32 73 72
4 32 33 74 73
4 33 34 75 74
4 34 35 76 75
4 35 36 77 76
4 36 37 78 77
4 37 38 79 78
4 38 39 80 79
4 39 40 81 80
4 41 42 83 82
4 42 43 84 83
4 43 44 85 84
4 44 45 86 85
4 45 46 87 86
4 46 47 88 87
4 47 48 89 88
4 48 49 90 89
4 49 50 91 90
4 50 51 92 91
4 51 52 93 92
4 52 53 94 93
4 53 54 95 94
4 54 55 96 95
4 55 56 97 96
4 56 57 98 97
4 57 58 99 98
4 58 59 100 99
4 59 60 101 100
4 60 61 102 101
4 61 62 103 102
4 62 63 104 103
4 63 64 105 104
4 64 65 106 105
4 65 66 107 106
4 66 67 108 107
4 67 68 109 108
4 68 69 110 109
4 69 70 111 110
4 70 71 112 111
4 71 72 113 112
4 72 73 114 113
4 73 74 115 114
4 74 75 116 115
4 75 76 117 116
4 76 77 118 117
4 77 78 119 118
4 78 79 120 119
4 79 80 121 120
4 80 81 122 121
4 82 83 124 123
4 83 84 125 124
4 84 85 126 125
4 85 86 127 126
4 86 87 128 127
4 87 88 129 128
4 88 89 130 129
4 89 90 131 130
4 90 91 132 131
4 91 92 133 132
4 92 93 134 133
4 93 94 135 134
4 94 95 136 135
4 95 96 137 136
4 96 97 138 137
4 97 98 139 138
4 98 99 140 139
4 99 100 141 140
4 100 101 142 141
4 101 102 143 142
4 102 103 144 143
4 103 104 145 144
4 104 105 146 145
4 105 106 147 146
4 106 107 148 147
4 107 108 149 148
4 108 109 150 149
4 109 110 151 150
4 110 111 152 151
4 111 112 153 152
4 112 113 154 153
4 113 114 155 154
4 114 115 156 155
4 115 116 157 156
4 116 117 158 157
4 117 118 159 158
4 118 119 160 159
4 119 120 161 160
4 120 121 162 161
4 121 122 163 162
4 123 124 165 164
4 124 125 166 165
4 125 126 167 166
4 126 127 168 167
4 127 128 169 168
4 128 129 170 169
4 129 130 171 170
4 130 131 172 171
4 131 132 173 172
4 132 133 174 173
4 133 134 175 174
4 134 135 176 175
4 135 136 177 176
4 136 137 178 177
4 137 138 179 178
4 138 139 180 179
4 139 140 181 180
4 140 141 182 181
4 141 142 183 182
4 142 143 184 183
4 143 144 185 184
4 144 145 186 185
4 145 146 187 186
4 146 147 188 187
4 147 148 189 188
4 148 149 190 189
4 149 150 191 190
4 150 151 192 191
4 151 152 193 192
4 152 153 194 193
4 153 154 195 194
4 154 155 196 195
4 155 156 197 196
4 156 157 198 197
4 157 158 199 198
4 158 159 200 199
4 159 160 201 200
4 160 161 202 201
4 161 162 203 202
4 162 163 204 203
4 164 165 206 205
4 165 166 207 206
4 166 167 208 207
4 167 168 209 208
4 168 169 210 209
4 169 170 211 210
4 170 171 212 211
4 171 172 213 212
4 172 173 214 213
4 173 174 215 214
4 174 175 216 215
4 175 176 217 216
4 176 177 218 217
4 177 178 219 218
4 178 179 220 219
4 179 180 221 220
4 180 181 222 221
4 181 182 223 222
4 182 183 224 223
4 183 184 225 224
4 184 185 226 225
4 185 186 227 226
4 186 187 228 227
4 187 188 229 228
4 188 189 230 229
4 189 190 231 230
4 190 191 232 231
4 191 192 233 232
4 192 193 234 233
4 193 194 235 234
4 194 195 236 235
4 195 196 237 236
4 196 197 238 237
4 197 198 239 238
4 198 199 240 239
4 199 200 241 240
4 200 201 242 241
4 201 202 243 242
4 202 203 244 243
4 203 204 245 244
4 205 206 247 246
4 206 207 248 247
4 207 208 249 248
4 208 209 250 249
4 209 210 251 250
4 210 211 252 251
4 211 212 253 252
4 212 213 254 253
4 213 214 255 254
4 214 215 256 255
4 215 216 257 256
4 216 217 258 257
4 217 218 259 258
4 218 219 260 259
4 219 220 261 260
4 220 221 262 261
4 221 222 263 262
4 222 223 264 263
4 223 224 265 264
4 224 225 266 265
4 225 226 267 266
4 226 227 268 267
4 227 228 269 268
4 228 229 270 269
4 229 230 271 270
4 230 231 272 271
4 231 232 273 272
4 232 233 274 273
4 233 234 275 274
4 234 235 276 275
4 235 236 277 276
4 236 237 278 277
4 237 238 279 278
4 238 239 280 279
4 239 240 281 280
4 240 241 282 281
4 241 242 283 282
4 242 243 284 283
4 243 244 285 284
4 244 245 286 285
4 246 247 288 287
4 247 248 289 288
4 248 249 290 289
4 249 250 291 290
4 250 251 292 291
4 251 252 293 292
4 252 253 294 293
4 253 254 295 294
4 254 255 296 295
4 255 256 297 296
4 256 257 298 297
4 257 258 299 298
4 258 259 300 299
4 259 260 301 300
4 260 261 302 301
4 261 262 303 302
4 262 263 304 303
4 263 264 305 304
4 264 265 306 305
4 265 266 307 306
4 266 267 308 307
4 267 268 309 308
4 268 269 310 309
4 269 270 311 310
4 270 271 312 311
4 271 272 313 312
4 272 273 314 313
4 273 274 315 314
4 274 275 316 315
4 275 276 317 316
4 276 277 318 317
4 277 278 319 318
4 278 279 320 319
4 279 280 321 320
4 280 281 322 321
4 281 282 323 322
4 282 283 324 323
4 283 284 325 324
4 284 285 326 325
4 285 286 327 326
4 287 288 329 328
4 288 289 330 329
4 289 290 331 330
4 290 291 332 331
4 291 292 333 332
4 292 293 334 333
4 293 294 335 334
4 294 295 336 335
4 295 296 337 336
4 296 297 338 337
4 297 298 339 338
4 298 299 340 339
4 299 300 341 340
4 300 301 342 341
4 301 302 343 342
4 302 303 344 343
4 303 304 345 344
4 304 305 346 345
4 305 306 347 346
4 306 307 348 347
4 307 308 349 348
4 308 309 350 349
4 309 310 351 350
4 310 311 352 351
4 311 312 353 352
4 312 313 354 353
4 313 314 355 354
4 314 315 356 355
4 315 316 357 356
4 316 317 358 357
4 317 318 359 358
4 318 319 360 359
4 319 320 361 360
4 320 321 362 361
4 321 322 363 362
4 322 323 364 363
4 323 324 365 364
4 324 325 366 365
4 325 326 367 366
4 326 327 368 367
4 328 329 370 369
4 329 330 371 370
4 330 331 372 371
4 331 332 373 372
4 332 333 374 373
4 333 334 375 374
4 334 335 376 375
4 335 336 377 376
4 336 337 378 377
4 337 338 379 378
4 338 339 380 379
4 339 340 381 380
4 340 341 382 381
4 341 342 383 382
4 342 343 384 383
4 343 344 385 384
4 344 345 386 385
4 345 346 387 386
4 346 347 388 387
4 347 348 389 388
4 348 349 390 389
4 349 350 391 390
4 350 351 392 391
4 351 352 393 392
4 352 353 394 393
4 353 354 395 394
4 354 355 396 395
4 355 356 397 396
4 356 357 398 397
4 357 358 399 398
4 358 359 400 399
4 359 360 401 400
4 360 361 402 401
4 361 362 403 402
4 362 363 404 403
4 363 364 405 404
4 364 365 406 405
4 365 366 407 406
4 366 367 408 407
4 367 368 409 408
4 369 370 411 410
4 370 371 412 411
4 371 372 413 412
4 372 373 414 413
4 373 374 415 414
4 374 375 416 415
4 375 376 417 416
4 376 377 418 417
4 377 378 419 418
4 378 379 420 419
4 379 380 421 420
4 380 381 422 421
4 381 382 423 422
4 382 383 424 423
4 383 384 425 424
4 384 385 426 425
4 385 386 427 426
4 386 387 428 427
4 387 388 429 428
4 388 389 430 429
4 389 390 431 430
4 390 391 432 431
4 391 392 433 432
4 392 393 434 433
4 393 394 435 434
4 394 395 436 435
4 395 396 437 436
4 396 397 438 437
4 397 398 439 438
4 398 399 440 439
4 399 400 441 440
4 400 401 442 441
4 401 402 443 442
4 402 403 444 443
4 403 404 445 444
4 404 405 446 445
4 405 406 447 446
4 406 407 448 447
4 407 408 449 448
4 408 409 450 449
4 410 411 452 451
4 411 412 453 452
4 412 413 454 453
4 413 414 455 454
4 414 415 456 455
4 415 416 457 456
4 416 417 458 457
4 417 418 459 458
4 418 419 460 459
4 419 420 461 460
4 420 421 462 461
4 421 422 463 462
4 422 423 464 463
4 423 424 465 464
4 424 425 466 465
4 425 426 467 466
4 426 427 468 467
4 427 428 469 468
4 428 429 470 469
4 429 430 471 470
4 430 431 472 471
4 431 432 473 472
4 432 433 474 473
4 433 434 475 474
4 434 435 476 475
4 435 436 477 476
4 436 437 478 477
4 437 438 479 478
4 438 439 480 479
4 439 440 481 480
4 440 441 482 481
4 441 442 483 482
4 442 443 484 483
4 443 444 485 484
4 444 445 486 485
4 445 446 487 486
4 446 447 488 487
4 447 448 489 488
4 448 449 490 489
4 449 450 491 490
4 451 452 493 492
4 452 453 494 493
4 453 454 495 494
4 454 455 496 495
4 455 456 497 496
4 456 457 498 497
4 457 458 499 498
4 458 459 500 499
4 459 460 501 500
4 460 461 502 501
4 461 462 503 502
4 462 463 504 503
4 463 464 505 504
4 464 465 506 505
4 465 466 507 506
4 466 467 508 507
4 467 468 509 508
4 468 469 510 509
4 469 470 511 510
4 470 471 512 511
4 471 472 513 512
4 472 473 514 513
4 473 474 515 514
4 474 475 516 515
4 475 476 517 516
4 476 477 518 517
4 477 478 519 518
4 478 479 520 519
4 479 480 521 520
4 480 481 522 521
4 481 482 523 522
4 482 483 524 523
4 483 484 525 524
4 484 485 526 525
4 485 486 527 526
4 486 487 528 527
4 487 488 529 528
4 488 489 530 529
4 489 490 531 530
4 490 491 532 531
4 492 493 534 533
4 493 494 535 534
4 494 495 536 535
4 495 496 537 536
4 496 497 538 537
4 497 498 539 538
4 498 499 540 539
4 499 500 541 540
4 500 501 542 541
4 501 502 543 542
4 502 503 544 543
4 503 504 545 544
4 504 505 546 545
4 505 506 547 546
4 506 507 548 547
4 507 508 549 548
4 508 509 550 549
4 509 510 551 550
4 510 511 552 551
4 511 512 553 552
4 512 513 554 553
4 513 514 555 554
4 514 515 556 555
4 515 516 557 556
4 516 517 558 557
4 517 518 559 558
4 518 519 560 559
4 519 520 561 560
4 520 521 562 561
4 521 522 563 562
4 522 523 564 563
4 523 524 565 564
4 524 525 566 565
4 525 526 567 566
4 526 527 568 567
4 527 528 569 568
4 528 529 570 569
4 529 530 571 570
4 530 531 572 571
4 531 532 573 572
4 533 534 575 574
4 534 535 576 575
4 535 536 577 576
4 536 537 578 577
4 537 538 579 578
4 538 539 580 579
4 539 540 581 580
4 540 541 582 581
4 541 542 583 582
4 542 543 584 583
4 543 544 585 584
4 544 545 586 585
4 545 546 587 586
4 546 547 588 587
4 547 548 589 588
4 548 549 590 589
4 549 550 591 590
4 550 551 592 591
4 551 552 593 592
4 552 553 594 593
4 553 554 595 594
4 554 555 596 595
4 555 556 597 596
4 556 557 598 597
4 557 558 599 598
4 558 559 600 599
4 559 560 601 600
4 560 561 602 601
4 561 562 603 602
4 562 563 604 603
4 563 564 605 604
4 564 565 606 605
4 565 566 607 606
4 566 567 608 607
4 567 568 609 608
4 568 569 610 609
4 569 570 611 610
4 570 571 612 611
4 571 572 613 612
4 572 573 614 613
4 574 575 616 615
4 575 576 617 616
4 576 577 618 617
4 577 578 619 618
4 578 579 620 619
4 579 580 621 620
4 580 581 622 621
4 581 582 623 622
4 582 583 624 623
4 583 584 625 624
4 584 585 626 625
4 585 586 627 626
4 586 587 628 627
4 587 588 629 628
4 588 589 630 629
4 589 590 631 630
4 590 591 632 631
4 591 592 633 632
4 592 593 634 633
4 593 594 635 634
4 594 595 636 635
4 595 596 637 636
4 596 597 638 637
4 597 598 639 638
4 598 599 640 639
4 599 600 641 640
4 600 601 642 641
4 601 602 643 642
4 602 603 644 643
4 603 604 645 644
4 604 605 646 645
4 605 606 647 646
4 606 607 648 647
4 607 608 649 648
4 608 609 650 649
4 609 610 651 650
4 610 611 652 651
4 611 612 653 652
4 612 613 654 653
4 613 614 655 654
4 615 616 657 656
4 616 617 658 657
4 617 618 659 658
4 618 619 660 659
4 619 620 661 660
4 620 621 662 661
4 621 622 663 662
4 622 623 664 663
4 623 624 665 664
4 624 625 666 665
4 625 626 667 666
4 626 627 668 667
4 627 628 669 668
4 628 629 670 669
4 629 630 671 670
4 630 631 672 671
4 631 632 673 672
4 632 633 674 673
4 633 634 675 674
4 634 635 676 675
4 635 636 677 676
4 636 637 678 677
4 637 638 679 678
4 638 639 680 679
4 639 640 681 680
4 640 641 682 681
4 641 642 683 682
4 642 643 684 683
4 643 644 685 684
4 644 645 686 685
4 645 646 687 686
4 646 647 688 687
4 647 648 689 688
4 648 649 690 689
4 649 650 691 690
4 650 651 692 691
4 651 652 693 692
4 652 653 694 693
4 653 654 695 694
4 654 655 696 695
4 656 657 698 697
4 657 658 699 698
4 658 659 700 699
4 659 660 701 700
4 660 661 702 701
4 661 662 703 702
4 662 663 704 703
4 663 664 705 704
4 664 665 706 705
4 665 666 707 706
4 666 667 708 707
4 667 668 709 708
4 668 669 710 709
4 669 670 711 710
4 670 671 712 711
4 671 672 713 712
4 672 673 714 713
4 673 674 715 714
4 674 675 716 715
4 675 676 717 716
4 676 677 718 717
4 677 678 719 718
4 678 679 720 719
4 679 680 721 720
4 680 681 722 721
4 681 682 723 722
4 682 683 724 723
4 683 684 725 724
4 684 685 726 725
4 685 686 727 726
4 686 687 728 727
4 687 688 729 728
4 688 689 730 729
4 689 690 731 730
4 690 691 732 731
4 691 692 733 732
4 692 693 734 733
4 693 694 735 734
4 694 695 736 735
4 695 696 737 736
4 697 698 739 738
4 698 699 740 739
4 699 700 741 740
4 700 701 742 741
4 701 702 743 742
4 702 703 744 743
4 703 704 745 744
4 704 705 746 745
4 705 706 747 746
4 706 707 748 747
4 707 708 749 748
4 708 709 750 749
4 709 710 751 750
4 710 711 752 751
4 711 712 753 752
4 712 713 754 753
4 713 714 755 754
4 714 715 756 755
4 715 716 757 756
4 716 717 758 757
4 717 718 759 758
4 718 719 760 759
4 719 720 761 760
4 720 721 762 761
4 721 722 763 762
4 722 723 764 763
4 723 724 765 764
4 724 725 766 765
4 725 726 767 766
4 726 727 768 767
4 727 728 769 768
4 728 729 770 769
4 729 730 771 770
4 730 731 772 771
4 731 732 773 772
4 732 733 774 773
4 733 734 775 774
4 734 735 776 775
4 735 736 777 776
4 736 737 778 777
4 738 739 780 779
4 739 740 781 780
4 740 741 782 781
4 741 742 783 782
4 742 743 784 783
4 743 744 785 784
4 744 745 786 785
4 745 746 787 786
4 746 747 788 787
4 747 748 789 788
4 748 749 790 789
4 749 750 791 790
4 750 751 792 791
4 751 752 793 792
4 752 753 794 793
4 753 754 795 794
4 754 755 796 795
4 755 756 797 796
4 756 757 798 797
4 757 758 799 798
4 758 759 800 799
4 759 760 801 800
4 760 761 802 801
4 761 762 803 802
4 762 763 804 803
4 763 764 805 804
4 764 765 806 805
4 765 766 807 806
4 766 767 808 807
4 767 768 809 808
4 768 769 810 809
4 769 770 811 810
4 770 771 812 811
4 771 772 813 812
4 772 773 814 813
4 773 774 815 814
4 774 775 816 815
4 775 776 817 816
4 776 777 818 817
4 777 778 819 818
4 779 780 821 820
4 780 781 822 821
4 781 782 823 822
4 782 783 824 823
4 783 784 825 824
4 784 785 826 825
4 785 786 827 826
4 786 787 828 827
4 787 788 829 828
4 788 789 830 829
4 789 790 831 830
4 790 791 832 831
4 791 792 833 832
4 792 793 834 833
4 793 794 835 834
4 794 795 836 835
4 795 796 837 836
4 796 797 838 837
4 797 798 839 838
4 798 799 840 839
4 799 800 841 840
4 800 801 842 841
4 801 802 843 842
4 802 803 844 843
4 803 804 845 844
4 804 805 846 845
4 805 806 847 846
4 806 807 848 847
4 807 808 849 848
4 808 809 850 849
4 809 810 851 850
4 810 811 852 851
4 811 812 853 852
4 812 813 854 853
4 813 814 855 854
4 814 815 856 855
4 815 816 857 856
4 816 817 858 857
4 817 818 859 858
4 818 819 860 859
CELL_TYPES 800
9
9
9
9
9
9
9
9
9
9
9
9
9
9
9
9
9
9
9
9
9
9
9
9
9
9
9
9
9
9
9
9
9
9
9
9
9
9
9
9
9
9
9
9
9
9
9
9
9
9
9
9
9
9
9
9
9
9
9
9
9
9
9
9
9
9
9
9
9
9
9
9
9
9
9
9
9
9
9
9
9
9
9
9
9
9
9
9
9
9
9
9
9
9
9
9
9
9
9
9
9
9
9
9
9
9
9
9
9
9
9
9
9
9
9
9
9
9
9
9
9
9
9
9
9
9
9
9
9
9
9
9
9
9
9
9
9
9
9
9
9
9
9
9
9
9
9
9
9
9
9
9
9
9
9
9
9
9
9
9
9
9
9
9
9
9
9
9
9
9
9
9
9
9
9
9
9
9
9
9
9
9
9
9
9
9
9
9
9
9
9
9
9
9
9
9
9
9
9
9
9
9
9
9
9
9
9
9
9
9
9
9
9
9
9
9
9
9
9
9
9
9
9
9
9
9
9
9
9
9
9
9
9
9
9
9
9
9
9
9
9
9
9
9
9
9
9
9
9
9
9
9
9
9
9
9
9
9
9
9
9
9
9
9
9
9
9
9
9
9
9
9
9
9
9
9
9
9
9
9
9
9
9
9
9
9
9
9
9
9
9
9
9
9
9
9
9
9
9
9
9
9
9
9
9
9
9
9
9
9
9
9
9
9
9
9
9
9
9
9
9
9
9
9
9
9
9
9
9
9
9
9
9
9
9
9
9
9
9
9
9
9
9
9
9
9
9
9
9
9
9
9
9
9
9
9
9
9
9
9
9
9
9
9
9
9
9
9
9
9
9
9
9
9
9
9
9
9
9
9
9
9
9
9
9
9
9
9
9
9
9
9
9
9
9
9
9
9
9
9
9
9
9
9
9
9
9
9
9
9
9
9
9
9
9
9
9
9
9
9
9
9
9
9
9
9
9
9
9
9
9
9
9
9
9
9
9
9
9
9
9
9
9
9
9
9
9
9
9
9
9
9
9
9
9
9
9
9
9
9
9
9
9
9
9
9
9
9
9
9
9
9
9
9
9
9
9
9
9
9
9
9
9
9
9
9
9
9
9
9
9
9
9
9
9
9
9
9
9
9
9
9
9
9
9
9
9
9
9
9
9
9
9
9
9
9
9
9
9
9
9
9
9
9
9
9
9
9
9
9
9
9
9
9
9
9
9
9
9
9
9
9
9
9
9
9
9
9
9
9
9
9
9
9
9
9
9
9
9
9
9
9
9
9
9
9
9
9
9
9
9
9
9
9
9
9
9
9
9
9
9
9
9
9
9
9
9
9
9
9
9
9
9
9
9
9
9
9
9
9
9
9
9
9
9
9
9
9
9
9
9
9
9
9
9
9
9
9
9
9
9
9
9
9
9
9
9
9
9
9
9
9
9
9
9
9
9
9
9
9
9
9
9
9
9
9
9
9
9
9
9
9
9
9
9
9
9
9
9
9
9
9
9
9
9
9
9
9
9
9
9
9
9
9
9
9
9
9
9
9
9
9
9
9
9
9
9
9
9
9
9
9
9
9
9
9
9
9
9
9
9
9
9
9
9
9
9
9
9
9
9
9
9
9
9
9
9
9
9
9
9
9
9
9
9
9
9
9
9
9
9
9
9
9
9
9
9
9
9
9
9
9
9
9
9
9
9
9
9
9
9
9
9
9
9
9
9
9
9
9
9
9
9
9
9
9
9
9
9
9
9
9
9
9
9
9
9
9
9
9
9
9
9
9
9
9
9
9
9
9
9
9
9
9
9
9
9
9
9
9
POINT_DATA 861
SCALARS Disp float 2
LOOKUP_TABLE default
0.0 0.0
0.0037907436285858154 -0.11116742191432472
0.004737175210313159 -0.21587036496363482
0.005439611981866319 -0.31998727587553116
0.006270890713929566 -0.4238196215125781
0.007389310381585032 -0.5271830829672249
0.009051648425538367 -0.6298437079680813
0.011483852561118947 -0.7315490058727371
0.014931646643663466 -0.8319869651489117
0.01966002758414006 -0.930749696821619
0.025958653466815695 -1.0272881914644367
0.03418350163305213 -1.1208696789757568
0.04479474337505601 -1.210553932875746
0.058345717333139334 -1.2952085200440429
0.07547087221624393 -1.3735305002631277
0.09680337852837323 -1.4440643131211286
0.12283130436917934 -1.5052221318333787
0.1537188161354853 -1.5553256344985735
0.18914947116200806 -1.5927255845361297
0.2282588625987244 -1.6160215276840233
0.26961342946338024 -1.6242781271959048
0.3109679963280349 -1.6160215276839862
0.35007738776474634 -1.5927255845360537
0.3855080427912605 -1.555325634498463
0.41639555455755517 -1.5052221318332404
0.4424234803983496 -1.4440643131209718
0.46375598671046747 -1.3735305002629548
0.4808811415935601 -1.2952085200438592
0.4944321155516307 -1.2105539328755568
0.505043357293622 -1.120869678975568
0.5132682054598473 -1.0272881914642533
0.519566831342513 -0.9307496968214447
0.524295212282982 -0.8319869651487489
0.5277430063655203 -0.7315490058725886
0.5301752105010961 -0.6298437079679488
0.5318375485450464 -0.5271830829671111
0.5329559682127003 -0.42381962151248354
0.5337872469447631 -0.31998727587545733
0.534489683716316 -0.21587036496358109
0.5354361152980426 -0.11116742191429273
0.539226858926626 0.0
0.027750117050950367 -0.001703353343485394
0.030265552806851025 -0.11126004856760754
0.030790820789055463 -0.21593714346652107
0.0314278787033402 -0.32006328584511506
0.032173317267355186 -0.4239153126800729
0.03315035035958532 -0.5273502317716482
0.034606789012653176 -0.6301406275786886
0.036761651848647776 -0.7320305892042389
0.03984247253316946 -0.8327142886992192
0.044083607640865 -0.931785703645056
0.04973864996264067 -1.028704875864559
0.05711447915300619 -1.1227603286884005
0.06661258095815215 -1.2130394339581703
0.07874568766050573 -1.2984335792319952
0.09410106414914292 -1.3776540071879086
0.11327334091446915 -1.4492310215935007
0.13672410148369085 -1.5115213547248718
0.16461870436220694 -1.5627492488857764
0.19669074719127316 -1.6011391803554864
0.23215612167809907 -1.6251555918915117
0.26961342946337563 -1.6336941571679742
0.30707073724865114 -1.625155591891474
0.3425361117354726 -1.601139180355409
0.3746081545645314 -1.5627492488856638
0.4025027574430379 -1.511521354724731
0.4259535180122493 -1.4492310215933413
0.44512579477756514 -1.3776540071877335
0.46048117126619154 -1.298433579231809
0.47261427796853384 -1.2130394339579784
0.4821123797736686 -1.122760328688209
0.4894882089640239 -1.028704875864373
0.49514325128579073 -0.9317857036448799
0.49938438639347926 -0.832714288699055
0.5024652070779952 -0.7320305892040893
0.5046200699139856 -0.6301406275785552
0.5060765085670508 -0.5273502317715341
0.5070535416592797 -0.4239153126799782
0.5077989802232943 -0.32006328584504123
0.5084360381375789 -0.21593714346646734
0.5089613061197834 -0.11126004856757543
0.5114767418756805 -0.001703353343483412
0.05478019616324879 -0.0030277846978477743
0.05656605905199828 -0.1112978135365013
0.05687113784357037 -0.21597822055736202
0.05739171821226712 -0.3201334383438467
0.0580574531505645 -0.4239974704949314
0.05890869971657728 -0.5274845491784842
0.06015656223674643 -0.6303869013874759
0.06203191676850692 -0.7324410793417883
0.0647397130076424 -0.8333446463733237
0.06848758304166273 -0.932691614890369
0.07349408515403465 -1.0299490784846945
0.08002197020813671 -1.124422789954976
0.08841659539009661 -1.2152270403214198
0.09913191124095055 -1.3012804951966892
0.11271300639765543 -1.381307410148618
0.12970719866271244 -1.4538263710660275
0.15055106910254784 -1.5171448669994656
0.1754262675135555 -1.5694003402247647
0.2041270031381054 -1.6087023787443007
0.23594371386423119 -1.6333758505400646
0.26961342946337147 -1.642177453900099
0.30328314506251064 -1.6333758505400264
0.33509985578863255 -1.6087023787442218
0.3638005914131758 -1.5694003402246501
0.3886757898241752 -1.5171448669993228
0.40951966026400155 -1.4538263710658657
0.42651385252904916 -1.3813074101484404
0.4400949476857445 -1.3012804951965005
0.45081026353658854 -1.2152270403212255
0.4592048887185386 -1.124422789954782
0.4657327737726314 -1.0299490784845065
0.4707392758849956 -0.9326916148901913
0.4744871459190095 -0.8333446463731582
0.4771949421581399 -0.7324410793416376
0.4790702966898966 -0.6303869013873418
0.4803181592100635 -0.5274845491783698
0.4811694057760754 -0.42399747049483666
0.4818351407143725 -0.32013343834377295
0.4823557210830692 -0.21597822055730834
0.48266079987464144 -0.11129781353646898
0.4844466627633875 -0.003027784697843781
0.08143461951164864 -0.004081639881025006
0.08274893603767319 -0.11132404442812212
0.08293453094760456 -0.21600093958809422
0.08334004362541733 -0.32019158772256434
0.08391730001098933 -0.42407061771629734
0.08465997512879894 -0.5275911430982344
0.08570856098272572 -0.630582649672599
0.08730109986226504 -0.7327815529792455
0.08963238748567995 -0.8338780515328
0.09288285945062644 -0.9334676251220363
0.09723894440965582 -1.0310213634942442
0.10292033897820473 -1.125859815134729
0.11021980048301849 -1.2171207929522545
0.11953075922112615 -1.3037506783760033
0.13133616251307678 -1.3844897982780793
0.1461421188771591 -1.4578464735814327
0.16436049550247953 -1.5220869560887127
0.18619095624516044 -1.575274275198092
0.21149434877915424 -1.615411654451843
0.23966999118980417 -1.6406941223668468
0.2696134294633676 -1.649756635037219
0.29955686773692985 -1.6406941223668081
0.3277325101475762 -1.615411654451763
0.35303590268156415 -1.575274275197976
0.3748663634242379 -1.5220869560885684
0.3930847400495505 -1.457846473581269
0.4078906964136243 -1.3844897982778999
0.41969609970556665 -1.3037506783758126
0.42900705844366577 -1.2171207929520582
0.4363065199484709 -1.1258598151345331
0.4419879145170117 -1.0310213634940546
0.44634399947603426 -0.9334676251218569
0.4495944714409751 -0.8338780515326334
0.45192575906438553 -0.732781552979094
0.4535182979439216 -0.6305826496724644
0.45456688379784665 -0.5275911430981198
0.45530955891565567 -0.4240706177162025
0.4558868153012273 -0.3201915877224905
0.45629232797904007 -0.2160009395880406
0.4564779228889716 -0.11132404442808957
0.45779223941499314 -0.004081639881019219
0.10786960036845197 -0.004924393263297014
0.1088459136751934 -0.111350748434052
0.10896533382605506 -0.2160130623944865
0.10927113225656435 -0.320236338290008
0.10975386447097803 -0.42413468741597343
0.11039317505420923 -0.5276788089541935
0.11126813077583744 -0.6307321750886411
0.11257645350967253 -0.7330527508221711
0.11452984755478701 -0.8343157885722927
0.11728113067655402 -0.9341146749113566
0.12098643025990514 -1.031923644820388
0.12582607631876036 -1.1270739941458106
0.13203933664713322 -1.2187248364932481
0.13995747198461161 -1.305848675529992
0.1500027162369956 -1.3872023956415385
0.16262076616706952 -1.461289788033437
0.1782003071738889 -1.526343762642607
0.19696270921007014 -1.5803651064335331
0.21884091296432173 -1.6212635665529191
0.2433684263897792 -1.6471176331860393
0.2696134294633638 -1.656447626724175
0.2958584325369474 -1.647117633186
0.3203859459624014 -1.621263566552838
0.34226414971664787 -1.5803651064334157
0.361026551752823 -1.5263437626424612
0.3766060927596354 -1.4612897880332716
0.3892241426897021 -1.3872023956413573
0.3992693869420789 -1.3058486755297996
0.4071875222795499 -1.21872483649305
0.4134007826079155 -1.127073994145613
0.41824042866676375 -1.0319236448201965
0.4219457282501091 -0.934114674911176
0.42469701137187116 -0.8343157885721249
0.4266504054169818 -0.7330527508220188
0.42795872815081426 -0.630732175088506
0.42883368387244125 -0.5276788089540788
0.429472994455672 -0.42413468741587856
0.42995572667008536 -0.32023633828993414
0.4302615251005946 -0.2160130623944329
0.4303809452514563 -0.11135074843401928
0.4313572585581953 -0.004924393263289694
0.13415851116623986 -0.005594483232112264
0.13488117276946948 -0.11138061269852549
0.13496069227815416 -0.21601987404998843
0.13518254356908924 -0.3202685821439129
0.13556887498385115 -0.424188411305255
0.1361042516625603 -0.5277516293950926
0.13682504344089677 -0.6308452831251479
0.1378728613388508 -0.7332557580912848
0.1394424710026051 -0.8346597344414097
0.1416947926422243 -0.934634927751438
0.14475115908213315 -1.0326581663613168
0.14875430287470087 -1.128069151008104
0.15389348511225784 -1.2200441323257676
0.1604370184270618 -1.3075795750995691
0.16873498260644623 -1.3894503153457844
0.17918077072077515 -1.4641583090299597
0.19212465169740145 -1.5299129554530246
0.20779645714089015 -1.5846669068796355
0.22621548182427806 -1.6262528366446
0.24706902304709194 -1.6526474652861836
0.26961342946336003 -1.6622583607763184
0.2921578358796271 -1.6526474652861434
0.3130113771024378 -1.626252836644518
0.3314304017858213 -1.5846669068795167
0.34710220722930485 -1.5299129554528772
0.36004608820592515 -1.4641583090297927
0.37049187632024794 -1.389450315345602
0.3787898404996264 -1.307579575099375
0.38533337381442423 -1.220044132325568
0.39047255605197523 -1.128069151007905
0.39447569984453706 -1.032658166361124
0.39753206628444115 -0.9346349277512561
0.39978438792405624 -0.834659734441241
0.4013539975878073 -0.7332557580911321
0.40240181548575943 -0.6308452831250124
0.40312260726409505 -0.5277516293949779
0.40365798394280383 -0.42418841130516005
0.40404431535756546 -0.32026858214383896
0.40426616664850057 -0.21601987404993486
0.4043456861571852 -0.11138061269849263
0.40506834776041284 -0.005594483232103665
0.16034155334672565 -0.006122138612387903
0.16087203463713587 -0.11141346588507343
0.16092345682450027 -0.21602414811642853
0.16107330045854387 -0.32028989624973486
0.16136491545366657 -0.42423052537015205
0.1617919687772174 -0.5278119603860226
0.16236783026516355 -0.6309316960944085
0.16318317316951148 -0.7334011438814354
0.1643878228909957 -0.8349117668722668
0.16613769138266926 -0.93503141320797
0.16854926462017136 -1.0332286708866596
0.17172289294414086 -1.128849827770072
0.17580099303451388 -1.2210847571492571
0.18098912652459723 -1.3089507815548331
0.18756725525090645 -1.391239602022602
0.19585805394301908 -1.466457396666327
0.2061763353479845 -1.532796236518014
0.2187529449723251 -1.5881747554387802
0.23367514953767202 -1.6303711535840808
0.2508037168092486 -1.657277975966732
0.2696134294633561 -1.6671897357834589
0.28842314211746267 -1.6572779759666914
0.30555170938903653 -1.6303711535839978
0.3204739139543798 -1.5881747554386605
0.333050523578716 -1.5327962365178656
0.34336880498367656 -1.4664573966661587
0.3516596036757841 -1.3912396020224185
0.3582377324020886 -1.3089507815546377
0.3634258658921672 -1.2210847571490562
0.3675039659825355 -1.128849827769872
0.3706775943065004 -1.033228670886466
0.37308916754399846 -0.9350314132077874
0.37483903603566887 -0.8349117668720973
0.37604368575715064 -0.7334011438812823
0.37685902866149723 -0.630931696094273
0.3774348901494428 -0.5278119603859078
0.37786194347299334 -0.42423052537005707
0.3781535584681158 -0.32028989624966087
0.3783034021021594 -0.21602414811637494
0.37835482428952366 -0.1114134658850405
0.3788853055799325 -0.006122138612378266
0.18644658758732444 -0.006530826143396425
0.18683003288998054 -0.11144978748889381
0.18685851885279775 -0.21602663322622867
0.1869442135390159 -0.32030175774010183
0.18714434479087827 -0.4242606361670241
0.18745926345930777 -0.5278592787571492
0.18789494699109924 -0.6309959794204212
0.1884964488116391 -0.7335016449384624
0.18936780001501746 -0.8350816374347657
0.19063117549441694 -0.9353082782729818
0.19239909573102268 -1.0336401788638054
0.19475072974952912 -1.1294220473730658
0.19778224767926655 -1.221854295461645
0.20163806518255195 -1.3099713862654776
0.2065245219205505 -1.3925805390883346
0.21269292220492841 -1.4681947440190635
0.22040529877857143 -1.5349978575752856
0.2298841688044439 -1.5908873940859518
0.24127785007769836 -1.6336083519037634
0.2546097254800057 -1.6609959495675994
0.26961342946335193 -1.6712350806389946
0.2846171334466976 -1.6609959495675584
0.2979490088490028 -1.6336083519036797
0.3093426901222542 -1.5908873940858312
0.3188215601481232 -1.5349978575751362
0.32653393672176234 -1.468194744018894
0.3327023370061364 -1.3925805390881498
0.33758879374413153 -1.3099713862652813
0.3414446112474135 -1.2218542954614433
0.34447612917714754 -1.1294220473728644
0.3468277631956504 -1.033640178863611
0.34859568343225317 -0.9353082782727984
0.3498590589116505 -0.8350816374345958
0.35073041011502715 -0.7335016449383089
0.3513319119355662 -0.6309959794202858
0.35176759546735725 -0.5278592787570345
0.3520825141357865 -0.4242606361669291
0.35228264538764875 -0.3203017577400279
0.35236834007386686 -0.21602663322617505
0.35239682603668393 -0.11144978748886085
0.35278027133933915 -0.006530826143386007
0.2124889115281825 -0.006844170993482886
0.21276575371507744 -0.11148944001885672
0.21277015450185074 -0.21602710708166314
0.21279770627372194 -0.3203053260521167
0.21290984336755456 -0.4242789339316639
0.21311080198197527 -0.5278920721914758
0.2134005708314077 -0.6310427025432663
0.21380310977594738 -0.7335677148888644
0.21437239926764287 -0.8351850463504391
0.2151832597275803 -0.935477363464467
0.21632377258394797 -1.033900407051064
0.21786315595608982 -1.1297946479723486
0.2198610182911305 -1.2223630669637018
0.22240785154684747 -1.3106537416965276
0.2256365964040655 -1.3934865319032192
0.22972069426624667 -1.4693828886361624
0.23485656443636765 -1.5365266693596609
0.24125264151734996 -1.5928066493683115
0.2490892841353377 -1.635954376107018
0.2585307130984714 -1.6637812640008751
0.26961342946334754 -1.6743802307357545
0.2806961458282234 -1.6637812640008336
0.2901375747913556 -1.635954376106934
0.29797421740934116 -1.5928066493681903
0.30437029449032077 -1.5365266693595112
0.3095061646604394 -1.4693828886359923
0.31359026252261785 -1.3934865319030338
0.31681900737983376 -1.3106537416963309
0.3193658406355486 -1.2223630669634995
0.3213637029705871 -1.129794647972147
0.32290308634272674 -1.033900407050869
0.3240435991990925 -0.9354773634642832
0.3248544596590287 -0.8351850463502689
0.3254237491507232 -0.7335677148887108
0.3258262880952623 -0.6310427025431309
0.32611605694469453 -0.5278920721913609
0.32631701555911513 -0.4242789339315689
0.3264291526529477 -0.3203053260520427
0.32645670442481883 -0.21602710708160952
0.32646110521159205 -0.11148944001882377
0.3267379473984864 -0.0068441709934719186
0.23847850165867301 -0.007087857288661545
0.23868183473965135 -0.11153155212669336
0.23866329372414483 -0.2160251168690197
0.23863701736129006 -0.3203015094165824
0.23866460945425017 -0.4242856514096752
0.23875129253053687 -0.5279098141299692
0.2388921864785634 -0.631070476948956
0.23909346034989976 -0.7336071092763258
0.2393764001414006 -0.835241681317264
0.2397792995397941 -0.9355614964598382
0.2403320921367168 -1.0340283456505994
0.2410846276661274 -1.1299839174427084
0.24206578330994483 -1.2226277374763972
0.24332340091900176 -1.3110167513164825
0.2449270418007387 -1.3939784985418116
0.24696594037449987 -1.470042495567845
0.24956172543483238 -1.5373986214467517
0.25288687860921655 -1.593943789725189
0.2571699280200221 -1.637406085465638
0.26263447915723614 -1.6656072146149756
0.269613429463343 -1.6765998216620148
0.27659237976944995 -1.6656072146149339
0.2820569309066632 -1.6374060854655537
0.2863399803174672 -1.5939437897250675
0.28966513349184986 -1.5373986214466016
0.2922609185521812 -1.4700424955676745
0.2942998171259412 -1.3939784985416257
0.2959034580076772 -1.3110167513162858
0.2971610756167335 -1.2226277374761947
0.2981422312605499 -1.1299839174425066
0.2988947667899596 -1.034028345650404
0.2994475593868816 -0.9355614964596541
0.2998504587852746 -0.8352416813170938
0.30013339857677507 -0.7336071092761721
0.30033467244811124 -0.6310704769488205
0.3004755663961377 -0.5279098141298543
0.3005622494724243 -0.4242856514095803
0.30058984156538454 -0.3203015094165084
0.30056356520252975 -0.21602511686896603
0.3005450241870232 -0.11153155212666042
0.30074835726800125 -0.007087857288650217
0.26442950609927307 -0.007280301503661916
0.2645818270766973 -0.1115741059741083
0.2645422357151708 -0.21602065066239357
0.26446605464200945 -0.32029089140595157
0.2644123576299413 -0.4242811603427928
0.26438576342181846 -0.5279123486569789
0.2643760862996309 -0.6310787354402528
0.26437395503322336 -0.7336201551793816
0.26437406315201945 -0.8352602181542262
0.2643745267906787 -0.9355883226643894
0.2643748785566775 -1.0340656524640444
0.2643750397618012 -1.1300357343499143
0.26437448584225 -1.222697319285811
0.2643716803799046 -1.3111113269165589
0.2643666009725623 -1.394107869166722
0.264369887043461 -1.4702209520174925
0.2644315013838301 -1.5376564629946041
0.2646937486430488 -1.5943334989774534
0.2654249380787577 -1.6379960477951354
0.2669509442331101 -1.6664643281749738
0.26961342946333827 -1.6778651335342905
0.27227591469356677 -1.666464328174932
0.2738019208479188 -1.6379960477950508
0.2745331102836272 -1.5943334989773315
0.2747953575428459 -1.537656462994454
0.27485697188321534 -1.4702209520173217
0.2748602579541143 -1.3941078691665358
0.2748551785467722 -1.3111113269163621
0.27485237308442745 -1.2226973192856083
0.27485181916487667 -1.1300357343497123
0.2748519803700008 -1.0340656524638492
0.274852332136 -0.9355883226642053
0.2748527957746596 -0.835260218154056
0.27485290389345574 -0.733620155179228
0.27485077262704827 -0.6310787354401173
0.27484109550486086 -0.527912348656864
0.27481450129673807 -0.4242811603426979
0.2747608042846701 -0.3202908914058775
0.2746846232115087 -0.21602065066233986
0.2746450318499823 -0.11157410597407535
0.27479735282740636 -0.007280301503650366
0.29035586352807025 -0.007432692419345677
0.2904705160459192 -0.11161469835872685
0.290411493504752 -0.21601384516558772
0.29028891459636713 -0.32027392254115716
0.29015716306767764 -0.42426594073095597
0.2900193904640379 -0.527899789310275
0.2898601306072152 -0.6310673397412306
0.289654437171442 -0.7336065765542099
0.289371784152972 -0.8352418665767992
0.2889697920109868 -0.9355616447881627
0.2884176873162188 -1.0340284335338452
0.2876655148749804 -1.1299838207836628
0.28668332086140225 -1.2226270682590032
0.28542033992195437 -1.3110150811868935
0.28380605515459006 -1.3939771183403775
0.2817723315964352 -1.470050897687676
0.27929289427556997 -1.537455464201109
0.27644836159647607 -1.5941328651464302
0.2734956616282532 -1.6378685636718218
0.2708969387862189 -1.666457532382143
0.26961342946333383 -1.6782872328337226
0.26832992014044854 -1.6664575323821014
0.2657311972984141 -1.6378685636717372
0.2627784973301919 -1.5941328651463085
0.2599339646510996 -1.5374554642009586
0.2574545273302362 -1.4700508976875057
0.25542080377208315 -1.3939771183401917
0.25380651900472023 -1.3110150811866967
0.25254353806527424 -1.222627068258801
0.2515613440516981 -1.129983820783461
0.2508091716104614 -1.03402843353365
0.25025706691569494 -0.9355616447879789
0.24985507477371083 -0.835241866576629
0.24957242175524136 -0.7336065765540561
0.24936672831946857 -0.6310673397410952
0.24920746846264616 -0.5278997893101602
0.24906969585900665 -0.4242659407308611
0.2489379443303173 -0.3202739225410831
0.24881536542193258 -0.21601384516553399
0.2487563428807654 -0.11161469835869392
0.2488709953986143 -0.007432692419333949
0.3162709445458845 -0.007550551614595584
0.3163533577126936 -0.11165162559586565
0.31627588680015595 -0.2160046288102858
0.3161098821666195 -0.32025103725782134
0.31590342067394694 -0.4242405535088912
0.3156574236051431 -0.5278725102989551
0.31535091268668336 -0.6310365486531156
0.3149449836691903 -0.7335667144390384
0.3143758430264331 -0.835185400917483
0.3135659747599631 -0.9354776857492846
0.31242609276305705 -1.0339005838933513
0.310886906601255 -1.1297944643831466
0.3088884612862522 -1.222361724620344
0.3063376530110423 -1.3106500193367936
0.30309802280883713 -1.3934827987534035
0.29901260071113545 -1.4694001179218246
0.29397108380740194 -1.5366403857421456
0.28799859044745674 -1.5931875791651482
0.2813567542145411 -1.636885791811715
0.27476597193391067 -1.6656642040338956
0.2696134294633293 -1.678002335976194
0.2644608869927477 -1.6656642040338538
0.2578701047121175 -1.6368857918116304
0.2512282684792036 -1.5931875791650267
0.2452557751192613 -1.5366403857419961
0.24021425821553127 -1.469400117921655
0.23612883611783242 -1.3934827987532181
0.23288920591563003 -1.3106500193365975
0.23033839764042324 -1.2223617246201421
0.22833995232542367 -1.1297944643829452
0.22680076616362485 -1.0339005838931565
0.22566088416672156 -0.935477685749101
0.22485101590025336 -0.835185400917313
0.22428187525749735 -0.7335667144388845
0.22387594624000498 -0.6310365486529804
0.22356943532154575 -0.5278725102988403
0.22332343825274226 -0.42424055350879636
0.22311697676006992 -0.3202510372577473
0.22295097212653361 -0.21600462881023202
0.2228735012139961 -0.11165162559583272
0.22295591438080506 -0.007550551614583725
0.34218302959963126 -0.007638612917622269
0.3422363679894346 -0.1116834195538326
0.34214039246940126 -0.2159928241664297
0.3419334133364385 -0.3202226395916586
0.34165558496610665 -0.4242055876644929
0.34130512611092745 -0.5278312908503464
0.34085653686986855 -0.630987101386941
0.3402516013282151 -0.7335002076247462
0.3393808390695431 -0.8350822579043914
0.33811841147407823 -0.9353088269314773
0.3363508369249644 -1.0336404065049452
0.3339991106505184 -1.129421793709164
0.33096777828888246 -1.2218526256084115
0.3271110614484662 -1.3099661644385538
0.32221760857429405 -1.392574195045897
0.31604232991129055 -1.4682167968949609
0.30838386851268157 -1.5351555615960162
0.2992085018405529 -1.5914279508199736
0.28885105105349007 -1.6349861252775455
0.2783119028951139 -1.6639322393957523
0.2696134294633247 -1.6770115149953502
0.2609149560315358 -1.6639322393957108
0.2503758078731605 -1.6349861252774616
0.24001835708610011 -1.5914279508198528
0.2308429904139756 -1.5351555615958676
0.22318452901537114 -1.4682167968947921
0.21700925035237167 -1.392574195045712
0.21211579747820375 -1.3099661644383587
0.20825908063779178 -1.2218526256082105
0.20522774827616047 -1.1294217937089635
0.20287602200171884 -1.0336404065047513
0.20110844745260892 -0.9353088269312942
0.19984601985714692 -0.8350822579042219
0.19897525759847687 -0.7335002076245924
0.19837032205682442 -0.6309871013868056
0.1979217328157662 -0.5278312908502317
0.19757127396058743 -0.42420558766439803
0.19729344559025588 -0.3202226395915846
0.1970864664572933 -0.21599282416637597
0.19699049093726015 -0.11168341955379964
0.19704382932706338 -0.007638612917610327
0.36809805080285785 -0.007701228663357443
0.3681250034377923 -0.11170905533895144
0.36801003261376686 -0.21597813384940065
0.3677640186188946 -0.32018907628225884
0.36741796712154173 -0.424161798748417
0.3669681384419297 -0.5277768674951802
0.36638197170772047 -0.6309201614008051
0.3655654564598996 -0.7333995350743626
0.3643614470058438 -0.8349126897210885
0.36261226470905666 -0.9350321535944187
0.3602005711221208 -1.03322883915528
0.35702665634184744 -1.1288495168671033
0.3529494523377963 -1.22108324873589
0.34776494624686455 -1.308945515593833
0.3411891992341113 -1.3912318168144215
0.33289079109559266 -1.4664794779410424
0.32257131039029435 -1.5329752542899067
0.31015044074816306 -1.5888320012813715
0.2960626253028322 -1.6321547399950378
0.28164735925761786 -1.6612893082603775
0.26961342946332045 -1.675343148060394
0.25757949966902344 -1.661289308260336
0.24316423362381073 -1.632154739994954
0.22907641817848318 -1.5888320012812516
0.21665554853635688 -1.5329752542897594
0.20633606783106417 -1.4664794779408747
0.1980376596925508 -1.3912318168142377
0.1914619126798029 -1.308945515593639
0.18627740658887673 -1.2210832487356904
0.1822002025848314 -1.128849516866904
0.17902628780456373 -1.0332288391550872
0.17661459421763276 -0.9350321535942364
0.17486541192084948 -0.8349126897209194
0.17366140246679648 -0.7333995350742091
0.17284488721897728 -0.6309201614006696
0.1722587204847687 -0.5277768674950654
0.17180889180515727 -0.42416179874832216
0.1714628403078048 -0.3201890762821849
0.1712168263129327 -0.21597813384934691
0.1711018554889074 -0.11170905533891846
0.17112880812384187 -0.007701228663345433
0.3940205140372938 -0.007742567910169425
0.3940239961727067 -0.11172796657605281
0.3938897498373731 -0.21596021884893304
0.3936063117033746 -0.32015071378258314
0.3931952184170719 -0.4241097585824805
0.39265142237115935 -0.5277111429813757
0.3919249793594019 -0.6308316317560548
0.3908764897672163 -0.7332541405198743
0.389307737268455 -0.8346609578504989
0.38705542853034813 -0.9346357308920924
0.3839986090699508 -1.0326582096126085
0.3799949823648385 -1.1280687764300048
0.3748573826104326 -1.2200433053397486
0.36832245322631013 -1.3075763464331305
0.3600398015790301 -1.3894438978581234
0.349592030363102 -1.4641760137127924
0.33659898242567615 -1.5300887603435256
0.320937903005212 -1.5853920807270439
0.3031396977635938 -1.6283927778654994
0.28491375397715957 -1.6577571034396967
0.26961342946331623 -1.6730164099996716
0.25431310494947357 -1.6577571034396554
0.23608716116304168 -1.6283927778654164
0.21828895592142764 -1.5853920807269248
0.20262787650096933 -1.5300887603433797
0.18963482856355 -1.4641760137126263
0.17918705734762833 -1.3894438978579409
0.1709044057003549 -1.3075763464329377
0.16436947631623935 -1.2200433053395503
0.15923187656184037 -1.1280687764298067
0.15522824985673495 -1.032658209612417
0.15217143039634343 -0.9346357308919113
0.14991912165824134 -0.8346609578503305
0.1483503691594837 -0.7332541405197213
0.1473018795673004 -0.6308316317559195
0.14657543655554403 -0.5277111429812611
0.14603164050963208 -0.42410975858238575
0.1456205472233298 -0.3201507137825092
0.14533710908933156 -0.2159602188488793
0.14520286275399807 -0.11172796657601984
0.145206344889411 -0.007742567910157375
0.4199537765553534 -0.007766768189477322
0.41993734141172506 -0.1117399993175254
0.41978439338203066 -0.21593883631814742
0.41946498287652 -0.320107821533297
0.4189916310797708 -0.42405032526037845
0.41835732070630743 -0.5276339599388433
0.4174822022998769 -0.6307169434838789
0.41617474767111234 -0.7330513175103197
0.4142212472509506 -0.8343171453669097
0.41146924254122447 -0.9341153947171897
0.4077631985501215 -1.0319235153947195
0.4029231272583163 -1.1270735897775528
0.3967123917102783 -1.2187251979269524
0.38880714447847 -1.3058495634626102
0.37878881223814787 -1.387200947577243
0.3661826032100707 -1.4613019595605121
0.3505359179951605 -1.5264975507891991
0.331681257849216 -1.5811132869474747
0.31023508241110315 -1.6237083896165097
0.2882228910398886 -1.6533383159315236
0.2696134294633121 -1.6700248003048468
0.25100396788673657 -1.6533383159314827
0.228991776515525 -1.6237083896164277
0.20754560107741712 -1.581113286947357
0.18869094093147945 -1.526497550789055
0.17304425571657667 -1.4613019595603474
0.16043804668850709 -1.3872009475770624
0.15041971444819258 -1.3058495634624192
0.1425144672163925 -1.2187251979267562
0.1363037316683627 -1.1270735897773565
0.13146366037656546 -1.0319235153945296
0.12775761638546929 -0.9341153947170099
0.12500561167574875 -0.8343171453667423
0.12305211125559146 -0.7330513175101675
0.12174465662682984 -0.630716943483744
0.12086953822040088 -0.5276339599387287
0.1202352278469382 -0.42405032526028374
0.1197618760501894 -0.3201078215332231
0.11944246554467908 -0.21593883631809374
0.11928951751498482 -0.1117399993174924
0.1192730823713565 -0.007766768189465253
0.44590000432629484 -0.007778044004971782
0.4458682951550007 -0.11174538719202269
0.445698739579975 -0.21591395749743986
0.4453449454900528 -0.32006052694293824
0.44481123099497205 -0.4239845682221026
0.4440868053261396 -0.5275440308668201
0.443044550417852 -0.6305669778471324
0.4414524206128661 -0.7327801774431306
0.43911945110494827 -0.8338792347314468
0.43586753742326445 -0.9334681457900605
0.4315105293696025 -1.031021047591731
0.42582907361608735 -1.1258595221043888
0.41853359393038947 -1.2171228613583964
0.40923839975625304 -1.3037570765129902
0.3974660792354747 -1.384496408429198
0.38269004592696126 -1.4578570798215904
0.3644356665055793 -1.5222143087016706
0.3425019500452777 -1.576016849284093
0.3175067431960699 -1.6181116473540513
0.2916819961416921 -1.6480146784291145
0.2696134294633082 -1.6663364328917887
0.247544862784925 -1.6480146784290741
0.22172011573055087 -1.6181116473539703
0.1967249088813489 -1.576016849283977
0.1747911924210551 -1.522214308701528
0.15653681299968167 -1.4578570798214274
0.14176077969117673 -1.3844964084290192
0.12998845917040736 -1.3037570765128013
0.12069326499628019 -1.2171228613582021
0.11339778531059184 -1.1258595221041947
0.10771632955708567 -1.0310210475915431
0.10335932150343158 -0.9334681457898822
0.10010740782175406 -0.8338792347312806
0.0977744383138414 -0.7327801774429793
0.09618230850885916 -0.630566977846998
0.09514005360057363 -0.5275440308667058
0.0944156279317419 -0.4239845682220079
0.09388191343666162 -0.3200605269428644
0.09352811934673977 -0.2159139574973862
0.0933585637717143 -0.1117453871919897
0.09332685460042012 -0.007778044004959693
0.471859876316773 -0.007780736667048407
0.47181930245413983 -0.11174480642194166
0.4716377714465467 -0.21588585219738934
0.4712513331459937 -0.32000892243539525
0.47065780750252206 -0.42391297364815717
0.46983772888480113 -0.5274379156327412
0.46860094720522033 -0.6303716919290676
0.4667239786998574 -0.7324391962967887
0.46401262462425813 -0.833345358273836
0.4602627887623241 -0.9326918468532356
0.45525525859415916 -1.0299486026046731
0.4487280215906858 -1.1244228780864547
0.44033924992340795 -1.2152313433745212
0.42964117181165745 -1.301292895623108
0.41609353116729675 -1.3813236032259861
0.39914433429114504 -1.45384306448065
0.3783387595588652 -1.5172632082334057
0.353499820152399 -1.5701419699768773
0.32512060831592127 -1.6116169324848162
0.2954337132084442 -1.641746253882443
0.26961342946330397 -1.661886536690349
0.24379314571816468 -1.641746253882403
0.214106250610692 -1.6116169324847365
0.18572703877422114 -1.5701419699767631
0.1608880993677636 -1.5172632082332653
0.1400825246354935 -1.4538430644804892
0.1231333277593514 -1.3813236032258096
0.10958568711500073 -1.3012928956229213
0.09888760900326081 -1.2152313433743298
0.09049883733599358 -1.1244228780862628
0.08397160033253032 -1.0299486026044873
0.07896407016437407 -0.9326918468530591
0.07521423430244722 -0.8333453582736712
0.07250288022685368 -0.7324391962966383
0.07062591172149507 -0.6303716919289338
0.06938913004191685 -0.5274379156326271
0.06856905142419695 -0.4239129736480625
0.06797552578072581 -0.3200089224353214
0.06758908748017317 -0.21588585219733572
0.06740755647258025 -0.11174480642190866
0.06736698260994708 -0.007780736667036323
0.49783191116058695 -0.007779290769094378
0.49779193450199244 -0.11173955602617716
0.497607110835732 -0.21585524979246382
0.4971898609024073 -0.3199528884568225
0.4965336007912138 -0.4238352753426858
0.49560033611607235 -0.5273072161172918
0.49415592189520546 -0.6301259235271399
0.4919960971939717 -0.7320274637110941
0.488910330393018 -0.8327142930386437
0.4846667158143545 -0.9317855722749397
0.479010652618177 -1.0287043104028157
0.47163644708280367 -1.122761168795028
0.46214618713375333 -1.213046461160742
0.4500307789405147 -1.298451810651687
0.43470609475290617 -1.3776798044633376
0.4155899061042735 -1.4492623118216443
0.39226602618670203 -1.5116650783937229
0.36467932029532824 -1.563552399792053
0.33329580083687643 -1.6042666643276189
0.29972512242359955 -1.634465528282361
0.2696134294632995 -1.6565523592972111
0.23950173650300083 -1.6344655282823217
0.20593105808972892 -1.6042666643275405
0.1745475386312851 -1.5635523997919407
0.1469608327399213 -1.5116650783935845
0.12363695282236056 -1.4492623118214856
0.10452076417373875 -1.3776798044631637
0.0891960799861415 -1.2984518106515026
0.07708067179291458 -1.2130464611605536
0.06759041184387615 -1.1227611687948387
0.060216206308513896 -1.028704310402632
0.05456014311234591 -0.9317855722747652
0.050316528533690334 -0.8327142930384804
0.04723076173274306 -0.732027463710945
0.045070937031514116 -0.6301259235270068
0.04362652281065032 -0.527307216117178
0.042693258135510254 -0.42383527534259124
0.04203699802431732 -0.31995288845674874
0.041619748090993 -0.2158552497924102
0.04143492442473275 -0.11173955602614419
0.041394947766138286 -0.0077792907690823
0.5238111184047662 -0.0077780912943069165
0.5237869177289898 -0.11173205226804049
0.5236139010312317 -0.21582336566335028
0.5231669940887801 -0.319892328163435
0.5224375338497298 -0.4237475250987135
0.5213699899002563 -0.5271470359984404
0.5197152117720641 -0.6298281028720233
0.5172755211874007 -0.731544332878539
0.5138217113586709 -0.8319860223717559
0.5090902313500615 -0.9307491354911303
0.5027907705568531 -1.0272876559709223
0.49456861424469606 -1.1208716697217578
0.4839669653748801 -1.2105640989206758
0.47043386047535374 -1.2952321596956418
0.45333709479813505 -1.3735655133677556
0.43207270985952206 -1.444118408925889
0.40626008077778686 -1.5054312633913207
0.37597874924462626 -1.5562949303785136
0.34195588280884526 -1.5962123026413542
0.30540582263062027 -1.6261182052921304
0.269613429463295 -1.6500000000000004
0.23382103629597087 -1.6261182052920917
0.19727097611775143 -1.5962123026412776
0.16324810968197995 -1.5562949303784037
0.13296677814883084 -1.505431263391185
0.10715414906710741 -1.444118408925733
0.08588976412850674 -1.3735655133675841
0.06879299845130069 -1.2952321596954603
0.05525989355178713 -1.2105640989204904
0.04465824468198416 -1.1208716697215715
0.03643608836983953 -1.0272876559707413
0.03013662757664129 -0.9307491354909577
0.025405147568040524 -0.8319860223715945
0.02195133773931773 -0.7315443328783913
0.01951164715465965 -0.6298281028718912
0.01785686902647101 -0.527147035998327
0.01678932507699925 -0.423747525098619
0.0160598648379497 -0.3198923281633613
0.015612957895498408 -0.2158233656632967
0.015439941197740465 -0.11173205226800749
0.015415740521964138 -0.007778091294294849
SCALARS Stress float 6
LOOKUP_TABLE default
-901.3652477876614 -1672.1824965957314 -1204.7894373113104 -0.6565263853453995 0.0 0.0
1103.9288672434725 638.4353365225072 755.2370362656214 -23.888505842712924 0.0 0.0
479.43696750829946 57.14097520079962 160.07226365980114 -32.69616335702087 0.0 0.0
430.36492990051 15.122442452062755 133.03496948831554 -4.21748944669873 0.0 0.0
526.3083193602415 37.32528084339163 176.47206214667764 -1.3753947143766736 0.0 0.0
594.2140787174009 64.25905081720074 243.7564181044993 -0.6585102935828746 0.0 0.0
677.5978597741986 79.42432033581476 317.4686290622329 -1.3492048389759348 0.0 0.0
757.7707689733138 112.45492375819514 396.8565360879574 -1.8477383088898194 0.0 0.0
841.8790375217741 156.18183465214088 475.43076567706595 -2.3352804027509158 0.0 0.0
937.0681199257571 214.93812754038254 559.8388998187766 -3.0120590772079474 0.0 0.0
1047.1481603576551 290.6736399824321 655.9274796189478 -3.815061046539266 0.0 0.0
1171.2825601848199 382.8928665358714 765.1322027105289 -4.696092412953009 0.0 0.0
1305.7668689849133 484.88928755923894 883.2232438893127 -5.240803848046011 0.0 0.0
1446.8212314444424 593.1384338706282 1007.3249206654705 -5.701168908676589 0.0 0.0
1587.147256639073 700.7750228345635 1130.5813436426026 -6.105675264522983 0.0 0.0
1719.2971877061955 801.2454895557914 1246.1850564625488 -6.4604122671022015 0.0 0.0
1837.1871225135083 889.9258447311521 1348.9210797344654 -6.549593503808904 0.0 0.0
1934.8222915909057 962.314008289404 1433.6460096236249 -6.063283610750052 0.0 0.0
2007.741367746522 1015.2876663517634 1496.52090864209 -4.8970433099299955 0.0 0.0
2047.6699089843005 1042.0336848336678 1529.9493070976005 -3.961497430918878 0.0 0.0
2047.0487687002203 1038.0437315899242 1527.966220183352 -3.629629929946532e-11 0.0 0.0
2047.6699089845495 1042.0336848339402 1529.9493070977528 3.961497430940627 0.0 0.0
2007.7413677463394 1015.2876663516184 1496.5209086418465 4.897043309969979 0.0 0.0
1934.8222915899594 962.3140082884944 1433.6460096228768 6.063283610759457 0.0 0.0
1837.1871225126602 889.9258447303606 1348.9210797335863 6.549593503802869 0.0 0.0
1719.2971877060227 801.2454895557132 1246.185056462342 6.460412267120795 0.0 0.0
1587.1472566376788 700.7750228332256 1130.5813436414926 6.105675264538647 0.0 0.0
1446.8212314438142 593.1384338701174 1007.3249206649052 5.701168908620486 0.0 0.0
1305.7668689836369 484.8892875580892 883.2232438882995 5.2408038480367 0.0 0.0
1171.2825601843738 382.8928665355832 765.1322027101133 4.696092412973474 0.0 0.0
1047.148160357125 290.67363998208975 655.9274796184219 3.8150610464647645 0.0 0.0
937.0681199251192 214.93812753993782 559.8388998182628 3.0120590773137472 0.0 0.0
841.8790375213783 156.1818346519368 475.43076567665446 2.335280402726559 0.0 0.0
757.7707689728384 112.45492375794538 396.85653608752153 1.8477383088638373 0.0 0.0
677.597859774065 79.42432033596324 317.4686290619665 1.3492048390141225 0.0 0.0
594.2140787170412 64.25905081711002 243.7564181041764 0.6585102935468097 0.0 0.0
526.3083193598316 37.32528084321589 176.4720621464331 1.375394714426398 0.0 0.0
430.364929900152 15.122442451843302 133.0349694881538 4.2174894466843735 0.0 0.0
479.43696750801433 57.14097520078341 160.07226365971007 32.69616335694563 0.0 0.0
1103.928867243034 638.4353365220544 755.2370362650802 23.88850584279499 0.0 0.0
-901.3652477853452 -1672.1824965934225 -1204.7894373089987 0.6565263847713467 0.0 0.0
-1147.750014632462 -1885.0030584122014 -1392.4139766989397 1.8698551446004714 0.0 0.0
742.3335416430277 363.6975326867829 468.4297065444432 -40.15447673584032 0.0 0.0
330.3189771229728 21.24679793529302 105.24892592938829 -25.52895061838029 0.0 0.0
380.71405413521535 2.8217439695967026 115.11833004364046 -16.36604651386838 0.0 0.0
469.1099702141165 14.626562416378396 148.18579663946585 -14.997181289825939 0.0 0.0
548.6202059045486 19.05148362535172 199.58262313311545 -17.51967692501204 0.0 0.0
610.4941767235315 26.807082634680967 261.77862281912866 -19.768849812264484 0.0 0.0
675.1880482891303 41.88384654744271 325.04663285846027 -20.56628247622605 0.0 0.0
737.1765088661157 62.64955076453401 382.1932494749423 -20.58923511993041 0.0 0.0
801.8535106556426 91.16291365989959 437.29929722870725 -20.39591504267455 0.0 0.0
871.2256433691676 126.95481261275735 493.89668846242466 -19.962091031537277 0.0 0.0
944.3369715389036 166.93656584688 552.1558867606092 -19.52584781100824 0.0 0.0
1017.3909475157224 209.055546814995 610.2902086723229 -18.926157739205742 0.0 0.0
1088.2476977230158 247.2698686038997 664.8465464265321 -18.30576881067338 0.0 0.0
1150.2088425500833 276.82292096234187 710.4768064892991 -17.87702616257345 0.0 0.0
1198.1837420139657 293.4379769291925 742.6317529021849 -17.458805747693088 0.0 0.0
1229.3155743288423 295.5288453368394 759.1698199527942 -16.67154579941395 0.0 0.0
1244.7189371323132 285.6652244926641 762.0050901360512 -15.050856621302092 0.0 0.0
1246.8225353700063 267.7405931706446 754.337173463761 -12.453803661843397 0.0 0.0
1227.2833688779178 234.86186699449573 728.7240440883966 -9.493661573379459 0.0 0.0
1189.4858516815218 193.69322186207717 690.138897565666 -1.6218137943724287e-11 0.0 0.0
1227.2833688777189 234.86186699431713 728.7240440882119 9.493661573415267 0.0 0.0
1246.822535370115 267.74059317078996 754.3371734638306 12.453803661931579 0.0 0.0
1244.7189371320349 285.66522449242643 762.0050901358394 15.050856621309176 0.0 0.0
1229.3155743283985 295.52884533644635 759.1698199524054 16.67154579939701 0.0 0.0
1198.1837420140773 293.43797692937966 742.63175290221 17.458805747665338 0.0 0.0
1150.2088425492789 276.8229209616262 710.476806488644 17.877026162551136 0.0 0.0
1088.2476977225328 247.26986860352213 664.8465464261374 18.305768810669736 0.0 0.0
1017.3909475150431 209.05554681445392 610.2902086718218 18.92615773922874 0.0 0.0
944.3369715386356 166.93656584676233 552.1558867604269 19.525847811042663 0.0 0.0
871.2256433688086 126.95481261257441 493.8966884621002 19.962091031457135 0.0 0.0
801.8535106552323 91.16291365969295 437.2992972283663 20.39591504275123 0.0 0.0
737.1765088657104 62.64955076432052 382.1932494745808 20.589235119939758 0.0 0.0
675.1880482887753 41.88384654730636 325.0466328581171 20.566282476266565 0.0 0.0
610.4941767234329 26.807082634865708 261.77862281893357 19.768849812256406 0.0 0.0
548.6202059041693 19.051483625218538 199.58262313281756 17.519676924933325 0.0 0.0
469.1099702137195 14.626562416298194 148.1857966392975 14.997181289810971 0.0 0.0
380.71405413496274 2.8217439694373727 115.11833004352748 16.366046513861942 0.0 0.0
330.31897712294705 21.24679793530601 105.24892592938781 25.52895061827187 0.0 0.0
742.3335416425705 363.69753268638516 468.4297065439368 40.154476735900786 0.0 0.0
-1147.7500146306709 -1885.0030584103138 -1392.4139766970268 -1.8698551451150482 0.0 0.0
-931.5163986047274 -1634.3159479319022 -1147.555386375506 -39.135408791658776 0.0 0.0
545.2355736917931 267.39435899494737 334.218966227786 -102.18788382277293 0.0 0.0
241.06081923144913 33.20590146055764 82.27995054312512 -25.07543876964272 0.0 0.0
325.2208891810966 -1.6100783332355737 97.08156240020101 -35.614926142480165 0.0 0.0
420.3232581467852 10.021921853771321 129.50566963220945 -36.61361045651735 0.0 0.0
517.4465467798021 15.854089260762892 176.36422635749167 -34.923474608835534 0.0 0.0
582.2059477181356 26.06218518437285 238.68728977736663 -37.61344135214292 0.0 0.0
649.2772573306539 36.30812993361257 301.4744070293041 -39.12435057513323 0.0 0.0
710.6492255360331 54.99577274624865 359.7393384876326 -39.45301161745129 0.0 0.0
772.9007530972549 79.96340152122161 413.81474442594174 -39.19391033036195 0.0 0.0
838.3157746131754 111.71650399593706 467.74062622487224 -38.50517309497614 0.0 0.0
906.5694788303791 148.49598792821888 522.7873149589007 -37.43225075556507 0.0 0.0
976.7421456392806 185.97311307141607 577.600401587964 -36.25788679170914 0.0 0.0
1042.876022510076 221.14099451752475 628.4920026760299 -35.107880954943184 0.0 0.0
1101.499536280871 247.61409724890007 670.963279645984 -34.22935069865458 0.0 0.0
1147.1090845764174 262.1458307820632 700.904305368887 -33.33429103696662 0.0 0.0
1178.3181017924167 264.4748743724227 717.6216460095324 -31.745603145199805 0.0 0.0
1194.9136750140972 255.76562921219352 721.7136872084035 -28.780046399515452 0.0 0.0
1194.865868377728 235.44164838177883 711.9112115207274 -24.23540896298983 0.0 0.0
1181.6263455188193 208.71667353935695 692.3472458954329 -17.97225635928474 0.0 0.0
1132.2585171277374 156.11614832606233 642.5751603574357 8.109068971862143e-12 0.0 0.0
1181.62634551819 208.71667353874034 692.3472458949698 17.972256359353228 0.0 0.0
1194.8658683779308 235.4416483820201 711.9112115208492 24.235408963076495 0.0 0.0
1194.9136750135965 255.76562921172243 721.7136872080159 28.780046399538364 0.0 0.0
1178.318101791873 264.4748743719321 717.6216460091325 31.74560314519519 0.0 0.0
1147.109084576225 262.1458307819453 700.9043053686946 33.334291037024116 0.0 0.0
1101.4995362798918 247.6140972479697 670.9632796452266 34.22935069856696 0.0 0.0
1042.8760225095923 221.14099451714654 628.4920026756115 35.10788095490234 0.0 0.0
976.7421456387731 185.97311307104505 577.6004015875241 36.25788679173332 0.0 0.0
906.5694788297019 148.49598792769325 522.7873149584294 37.43225075556954 0.0 0.0
838.3157746125678 111.71650399547246 467.74062622440044 38.50517309494231 0.0 0.0
772.9007530970795 79.96340152124827 413.81474442573466 39.1939103303493 0.0 0.0
710.6492255356259 54.99577274605145 359.73933848727125 39.45301161745595 0.0 0.0
649.2772573301463 36.30812993334539 301.4744070288701 39.12435057517948 0.0 0.0
582.2059477178574 26.062185184382084 238.68728977707616 37.61344135213518 0.0 0.0
517.4465467793979 15.854089260622994 176.36422635720697 34.9234746087693 0.0 0.0
420.32325814642576 10.021921853685196 129.5056696320736 36.61361045648331 0.0 0.0
325.2208891809872 -1.6100783332280595 97.08156240017296 35.61492614244177 0.0 0.0
241.06081923144893 33.20590146044952 82.27995054309268 25.075438769531733 0.0 0.0
545.2355736914436 267.39435899476643 334.21896622740525 102.18788382268424 0.0 0.0
-931.5163986030797 -1634.3159479301612 -1147.5553863736936 39.1354087913481 0.0 0.0
-746.026372615531 -1416.6156817845906 -935.9837016922727 -54.517377355257466 0.0 0.0
401.6925395154303 173.26931978259367 230.14554429763123 -141.16223375780254 0.0 0.0
178.82937830362252 38.35342902631203 65.15484219898035 -47.188400433024086 0.0 0.0
271.3569670958661 3.2394050350466235 82.38442708131763 -53.07340945873551 0.0 0.0
367.2652189755147 3.9427972023893596 110.70687083063244 -59.59152919674428 0.0 0.0
470.5481224405149 11.583110328149708 151.75743529305316 -55.078667457617335 0.0 0.0
554.3496957539369 21.624875109865563 211.5441346396377 -57.085791273727466 0.0 0.0
618.0286620175424 31.0980867037801 274.0861146677483 -58.06685130551981 0.0 0.0
679.9922860244028 47.24869751649494 333.5032617626678 -58.170275741858894 0.0 0.0
740.1063206957914 69.0142719226478 387.3274323972425 -57.65268290952098 0.0 0.0
801.3495085857586 96.75402544332222 438.9053314744414 -56.483902284771276 0.0 0.0
865.6507675476112 128.73107404640334 490.64272717128017 -54.8909109935368 0.0 0.0
931.0705934668928 163.5198763756513 542.43175241299 -53.0283783264885 0.0 0.0
994.0501016097413 193.68321114788262 589.5421227714529 -51.525330673468915 0.0 0.0
1048.7656261298007 217.18500123786856 628.6854253522218 -50.262505386790835 0.0 0.0
1092.9109507803753 231.12951208773316 657.6252369845439 -48.88578172621704 0.0 0.0
1124.685903703531 233.79058194633217 674.8077614974836 -46.71259323313286 0.0 0.0
1141.900266945758 225.3849711019162 679.4575379535123 -42.75185421290973 0.0 0.0
1143.7052065353857 206.41781568207696 671.3042966385422 -36.3015878638848 0.0 0.0
1133.5368046009553 182.05813840745623 654.3738696879693 -26.00601609065692 0.0 0.0
1062.5717432484228 107.69323980538073 583.6007987089232 4.389999475051809e-11 0.0 0.0
1133.536804600772 182.05813840731332 654.3738696878748 26.006016090781088 0.0 0.0
1143.7052065353041 206.41781568202097 671.3042966384156 36.30158786399808 0.0 0.0
1141.9002669450472 225.3849711012528 679.4575379530069 42.751854212974656 0.0 0.0
1124.6859037029042 233.7905819457634 674.8077614969861 46.71259323317602 0.0 0.0
1092.9109507798478 231.12951208727753 657.6252369841282 48.88578172626467 0.0 0.0
1048.7656261288475 217.18500123702245 628.6854253515171 50.26250538683822 0.0 0.0
994.0501016093049 193.68321114754997 589.542122771101 51.525330673539926 0.0 0.0
931.0705934663621 163.5198763752445 542.4317524125445 53.028378326506264 0.0 0.0
865.6507675469225 128.73107404583774 490.64272717074 54.89091099348969 0.0 0.0
801.3495085852851 96.75402544302334 438.90533147406376 56.4839022847532 0.0 0.0
740.1063206956014 69.01427192264362 387.3274323970223 57.6526829095043 0.0 0.0
679.9922860241588 47.24869751647906 333.50326176240475 58.170275741848414 0.0 0.0
618.0286620171591 31.098086703619014 274.08611466737955 58.066851305475566 0.0 0.0
554.3496957535576 21.624875109778948 211.54413463931246 57.08579127367915 0.0 0.0
470.5481224402896 11.58311032838985 151.75743529298126 55.07866745758197 0.0 0.0
367.265218975186 3.942797202285247 110.7068708305118 59.59152919669256 0.0 0.0
271.3569670958094 3.239405035117166 82.38442708132061 53.07340945867631 0.0 0.0
178.82937830360828 38.35342902619379 65.15484219894061 47.18840043290427 0.0 0.0
401.6925395150824 173.2693197824311 230.14554429729708 141.162233757656 0.0 0.0
-746.026372614139 -1416.6156817830783 -935.9837016906798 54.517377355041944 0.0 0.0
-586.3456783208688 -1223.9286939558083 -751.442372014688 -57.77187560472397 0.0 0.0
298.19417652387307 92.77036474842878 152.44819372116902 -168.51412786405277 0.0 0.0
132.17867917627763 35.84090437864671 50.40587506647729 -75.0908205536082 0.0 0.0
220.9533986813827 10.082233299917696 69.3099677242989 -72.27285923233175 0.0 0.0
309.36945836358393 3.4878377567831564 93.93548001361829 -80.22737039939821 0.0 0.0
416.5321858740981 2.4178282050458035 126.25068431238556 -80.93861507730175 0.0 0.0
512.8071568773728 15.044493644510032 180.11375277052218 -76.84508548284626 0.0 0.0
581.0917716163506 28.188971776422846 243.77946335239625 -76.83213589035239 0.0 0.0
643.7285972874877 39.781901967489844 302.70545852174126 -76.79818029953934 0.0 0.0
702.1977613651305 58.23199231567467 356.67786351375173 -75.7342372255396 0.0 0.0
760.370687117662 81.58011683596479 406.6330547439453 -74.04556019914646 0.0 0.0
820.2103351607211 109.06546354850184 455.4510098704453 -71.80884705081033 0.0 0.0
881.6239940061687 138.59710809473182 503.55275527405485 -69.51049575535781 0.0 0.0
940.0571389517863 166.81612577498777 547.9971700231876 -67.52223154733072 0.0 0.0
992.0307370071714 186.94516963317434 584.2902881327439 -65.91841862638151 0.0 0.0
1034.3534803273926 198.43002651958165 611.1222073938889 -64.23934708731507 0.0 0.0
1066.7955247262462 202.53483771870918 629.3856286510652 -61.62627512822785 0.0 0.0
1086.3591201494228 196.1543783892243 636.285916623273 -56.926196740049996 0.0 0.0
1090.989995055487 179.08657375932475 630.5411866109583 -48.59062058778523 0.0 0.0
1081.6612645001187 154.09453999462067 613.7097090641604 -34.389488396988504 0.0 0.0
983.3771099088387 52.1025709314928 516.4598133916314 6.481926106971514e-11 0.0 0.0
1081.661264500478 154.09453999502261 613.7097090644389 34.389488397067225 0.0 0.0
1090.9899950550312 179.08657375890976 630.5411866106136 48.590620587912454 0.0 0.0
1086.3591201493548 196.15437838921645 636.2859166232593 56.92619674013466 0.0 0.0
1066.7955247259356 202.53483771846584 629.3856286507564 61.6262751282965 0.0 0.0
1034.35348032705 198.43002651929055 611.12220739363 64.2393470872903 0.0 0.0
992.0307370066298 186.9451696327388 584.2902881322841 65.91841862643149 0.0 0.0
940.0571389512762 166.81612577457264 547.9971700228454 67.52223154734295 0.0 0.0
881.6239940057005 138.59710809436876 503.5527552737057 69.51049575532399 0.0 0.0
820.2103351604298 109.06546354835461 455.45100987022323 71.80884705081004 0.0 0.0
760.3706871174654 81.58011683592964 406.63305474371725 74.04556019911183 0.0 0.0
702.1977613648662 58.231992315620616 356.6778635134875 75.73423722551429 0.0 0.0
643.7285972873849 39.781901967663835 302.70545852156954 76.79818029956988 0.0 0.0
581.0917716158277 28.188971776104353 243.77946335195463 76.83213589026651 0.0 0.0
512.8071568770007 15.044493644423625 180.11375277023427 76.84508548279402 0.0 0.0
416.5321858737608 2.417828205183694 126.25068431230481 80.93861507721064 0.0 0.0
309.36945836330693 3.487837756691226 93.93548001350933 80.2273703992922 0.0 0.0
220.95339868126484 10.08223329986431 69.30996772424764 72.27285923222516 0.0 0.0
132.17867917623764 35.84090437852384 50.40587506642842 75.09082055349747 0.0 0.0
298.19417652353974 92.77036474828566 152.44819372089773 168.51412786389017 0.0 0.0
-586.345678319663 -1223.9286939544274 -751.4423720132885 57.77187560457817 0.0 0.0
-447.19364518906815 -1052.9114148876038 -590.9313086135085 -61.937430036507244 0.0 0.0
217.08846335977654 32.38710129448592 95.09400273858127 -180.90925609226264 0.0 0.0
95.02725644394363 28.543855023213027 37.071333440146994 -101.48821650062364 0.0 0.0
173.77804919028455 15.62140599722277 56.81983655625221 -92.29465839889409 0.0 0.0
254.90445164029396 3.9204110693224257 77.64781026318236 -99.88399151913825 0.0 0.0
348.17511084576023 0.13356352702471763 103.91803170776544 -103.74936469387728 0.0 0.0
449.3568456687005 9.52072006172309 147.70096753246574 -99.2373986793509 0.0 0.0
538.8490259538844 19.644020097339386 206.41653185597275 -97.65824545017608 0.0 0.0
597.7685091881115 34.23198091145939 266.76082457370643 -94.37628854925028 0.0 0.0
658.291561712382 47.33618552288396 320.456560936421 -93.58891518962947 0.0 0.0
713.6487708060258 66.44498042465489 369.5349783882364 -91.20943578275244 0.0 0.0
769.2398593563878 89.21414942361656 415.9156993933948 -88.29027801025853 0.0 0.0
826.1472729127167 114.59943632529973 461.1488709661811 -85.4291492922431 0.0 0.0
880.8262012451545 137.76375047392094 502.0809200461764 -83.16639968319073 0.0 0.0
929.6631735472071 155.91269058566823 536.2533667787608 -81.2859106887636 0.0 0.0
970.3904371779328 166.91749685907703 562.213665585515 -79.16186721301517 0.0 0.0
1003.357679459353 170.02374477041639 580.2378998244145 -76.41500375968113 0.0 0.0
1025.9639731775724 166.5370134081843 590.1453295949353 -71.24154754752351 0.0 0.0
1034.9079978497653 153.0493385825118 588.4287770401805 -61.284594879517655 0.0 0.0
1025.9214063572358 126.09032456055832 570.8485917764754 -43.5895983866587 0.0 0.0
893.9523699357114 -9.917956338622183 441.2009585289483 7.201172991244675e-11 0.0 0.0
1025.92140635736 126.09032456072453 570.8485917766268 43.589598386806514 0.0 0.0
1034.9079978494983 153.04933858230464 588.4287770400025 61.28459487966765 0.0 0.0
1025.963973177236 166.537013407899 590.1453295947057 71.24154754763477 0.0 0.0
1003.3576794591838 170.0237447703119 580.2378998241913 76.41500375973482 0.0 0.0
970.3904371775395 166.9174968587616 562.2136655852413 79.16186721304084 0.0 0.0
929.6631735465135 155.9126905850461 536.2533667781984 81.28591068879427 0.0 0.0
880.8262012449457 137.76375047385568 502.0809200460053 83.16639968323994 0.0 0.0
826.1472729122887 114.59943632496693 461.14887096584175 85.42914929224037 0.0 0.0
769.2398593563059 89.21414942373735 415.9156993933178 88.29027801027526 0.0 0.0
713.6487708053807 66.44498042416879 369.534978387706 91.20943578280463 0.0 0.0
658.2915617121442 47.33618552283485 320.4565609361831 93.58891518957687 0.0 0.0
597.768509187979 34.23198091161358 266.76082457351924 94.37628854927462 0.0 0.0
538.8490259531362 19.64402009677848 206.4165318554112 97.65824545009836 0.0 0.0
449.3568456683731 9.520720061772149 147.7009675322838 99.23739867935222 0.0 0.0
348.1751108453495 0.13356352709528085 103.91803170768506 103.74936469372211 0.0 0.0
254.9044516401657 3.920411069411176 77.64781026316743 99.88399151900003 0.0 0.0
173.77804919021446 15.621405997229015 56.81983655623302 92.29465839872223 0.0 0.0
95.02725644392143 28.54385502317946 37.07133344013025 101.48821650046064 0.0 0.0
217.08846335942587 32.387101294338926 95.09400273834359 180.90925609209407 0.0 0.0
-447.1936451881068 -1052.9114148864141 -590.9313086123458 61.93743003645603 0.0 0.0
-330.18048819014757 -894.0853731416687 -453.48980386578893 -66.99687974088715 0.0 0.0
154.22313982295333 -15.953876376760016 52.48343424214592 -186.64072024569842 0.0 0.0
63.83416514294985 19.929833148938357 25.129199487566453 -123.5696217391321 0.0 0.0
129.4280408604567 19.012461260112033 44.53215063617062 -111.5093628862538 0.0 0.0
200.166767728797 6.447652201810544 61.99112481753547 -117.29436039647783 0.0 0.0
276.45653440188465 -1.1052119220695524 82.34702956394538 -124.12496281446718 0.0 0.0
378.71432751522855 -0.39173004111572396 114.43940952597852 -126.33835350595047 0.0 0.0
468.27881887695855 14.143143262900924 165.35631106169282 -117.81354550765447 0.0 0.0
547.8719398224513 22.28368011732921 221.66077989425332 -115.99260872089316 0.0 0.0
603.0633515426113 37.619145758666825 276.84227957347747 -110.33972581633091 0.0 0.0
659.2504656315572 51.22484534997655 325.24440871702876 -107.93735085874869 0.0 0.0
711.200478072763 68.96197993778175 369.92688854868766 -104.49062692322552 0.0 0.0
763.6432234990139 89.61295537742589 412.7319692160408 -101.08578120394262 0.0 0.0
814.0243742535929 109.10666544825335 451.2549307723947 -98.45104511348262 0.0 0.0
859.6880573658655 124.43648601513756 483.3957367572744 -96.18524132137645 0.0 0.0
899.1547670471673 132.7543670275984 507.67845384005153 -94.18028140921086 0.0 0.0
931.8922535443709 138.2420485958359 526.9172855234825 -90.90763490103802 0.0 0.0
958.4830946526574 137.05201893825125 540.0057391733038 -85.45959973800034 0.0 0.0
973.1868820257321 126.86921633650626 542.8881518072533 -74.66765852537789 0.0 0.0
965.6506586286516 98.87295688247326 525.6906345018753 -54.14297451087918 0.0 0.0
792.2430778896278 -78.66550601113056 356.7635890658654 5.100453392969939e-11 0.0 0.0
965.6506586283624 98.87295688224495 525.6906345016732 54.14297451103919 0.0 0.0
973.1868820255316 126.86921633638403 542.888151807135 74.66765852558225 0.0 0.0
958.4830946522217 137.05201893790496 540.0057391730029 85.45959973816775 0.0 0.0
931.892253544171 138.24204859569159 526.9172855232455 90.90763490112624 0.0 0.0
899.1547670468808 132.75436702736494 507.67845383985815 94.18028140917673 0.0 0.0
859.688057365547 124.43648601495842 483.39573675701183 96.18524132144262 0.0 0.0
814.0243742534883 109.10666544827791 451.25493077226184 98.45104511356891 0.0 0.0
763.6432234983778 89.61295537689146 412.7319692155583 101.08578120395859 0.0 0.0
711.2004780729574 68.96197993817759 369.92688854876843 104.49062692325728 0.0 0.0
659.2504656311054 51.224845349697574 325.24440871660755 107.93735085872666 0.0 0.0
603.0633515425768 37.6191457588786 276.84227957336566 110.33972581627418 0.0 0.0
547.8719398221575 22.283680117317147 221.66077989396726 115.99260872087314 0.0 0.0
468.27881887641877 14.14314326264233 165.356311061327 117.81354550763454 0.0 0.0
378.71432751479335 -0.3917300411773046 114.4394095258073 126.33835350589385 0.0 0.0
276.456534401651 -1.1052119220133183 82.34702956389802 124.12496281434116 0.0 0.0
200.16676772865816 6.447652201822455 61.991124817496775 117.2943603963071 0.0 0.0
129.4280408604032 19.012461260083725 44.53215063614606 111.50936288609003 0.0 0.0
63.83416514292233 19.929833148940762 25.129199487558918 123.56962173891378 0.0 0.0
154.2231398226278 -15.953876376886193 52.48343424195689 186.6407202454747 0.0 0.0
-330.18048818937604 -894.085373140591 -453.48980386484783 66.9968797409331 0.0 0.0
-225.931682337329 -763.6075034785987 -336.2351386014419 -83.84436606629092 0.0 0.0
98.61008836869269 -50.327716730080944 19.23933482402589 -182.99931338745915 0.0 0.0
36.71923605885529 12.484965314182526 14.761291187562101 -140.88522595233474 0.0 0.0
87.28961240295172 20.45400709371535 32.32308584900011 -128.49804616184497 0.0 0.0
145.40245822817795 9.123320000647515 46.359018174192194 -132.47208763137567 0.0 0.0
206.62271371860191 0.2323677559637276 61.99178003036106 -140.75620776242366 0.0 0.0
287.7264909449675 -2.0093965549033306 85.00762867210629 -148.18456062764483 0.0 0.0
380.5623950769434 2.870098241411383 120.6731280580264 -142.49037507744023 0.0 0.0
466.5192636273591 14.576479727407506 169.90973795057866 -134.57368477867328 0.0 0.0
536.8063449238855 22.306813034297246 220.57102330244965 -130.6076488912263 0.0 0.0
591.1258397895924 35.151688192905695 269.1034704517265 -124.23259030635535 0.0 0.0
640.7573105514857 48.65285621827789 313.0092951914731 -119.92036311382421 0.0 0.0
690.0707152142826 64.33535479821481 354.4040395150933 -116.36602096571902 0.0 0.0
736.0055562206265 79.38887478760275 391.1266155580553 -113.39325880296755 0.0 0.0
778.7631932939634 91.23772150733788 421.9600226409603 -110.87693017879116 0.0 0.0
816.161153280542 99.39148014636936 446.20297824792385 -108.60579099031928 0.0 0.0
849.5434865673948 103.42952695657436 465.47400705656935 -105.61209180637013 0.0 0.0
878.8324349525565 105.22789995517101 481.5494032181764 -99.58020159890054 0.0 0.0
901.249349914742 102.14837434615897 492.01889062218424 -88.35532838457982 0.0 0.0
898.6231114048716 74.88512618267384 478.00879308882526 -66.69244109404546 0.0 0.0
672.5308421879347 -154.53179995732563 260.39355621325353 5.751843445978011e-11 0.0 0.0
898.6231114045854 74.8851261824637 478.00879308866286 66.6924410942459 0.0 0.0
901.2493499146042 102.14837434612873 492.01889062208494 88.3553283848704 0.0 0.0
878.8324349525444 105.22789995525957 481.54940321817367 99.58020159909171 0.0 0.0
849.5434865666556 103.42952695579996 465.4740070559848 105.61209180636561 0.0 0.0
816.1611532803161 99.39148014626346 446.2029782477905 108.60579099034986 0.0 0.0
778.7631932940575 91.23772150756332 421.960022640989 110.87693017887433 0.0 0.0
736.0055562202359 79.38887478728361 391.12661555775736 113.3932588029834 0.0 0.0
690.0707152137379 64.3353547977855 354.40403951467675 116.3660209657285 0.0 0.0
640.7573105511817 48.65285621810516 313.0092951912481 119.92036311385618 0.0 0.0
591.1258397892609 35.15168819273568 269.10347045141594 124.23259030632283 0.0 0.0
536.8063449238209 22.306813034504664 220.57102330234952 130.60764889121157 0.0 0.0
466.5192636271443 14.576479727587182 169.90973795042063 134.57368477870153 0.0 0.0
380.56239507659586 2.8700982415311618 120.67312805788869 142.4903750774664 0.0 0.0
287.7264909445782 -2.0093965548664334 85.00762867201173 148.18456062753347 0.0 0.0
206.62271371849903 0.232367756153937 61.99178003038853 140.7562077622752 0.0 0.0
145.40245822801316 9.123320000514322 46.35901817410237 132.4720876312147 0.0 0.0
87.2896124028418 20.454007093644876 32.323085848946 128.49804616167353 0.0 0.0
36.719236058798565 12.484965314202737 14.761291187551056 140.88522595213254 0.0 0.0
98.61008836839564 -50.32771673020102 19.239334823870838 182.9993133872167 0.0 0.0
-225.93168233667132 -763.607503477647 -336.235138600709 83.84436606636145 0.0 0.0
-159.82768227589938 -633.8248622376907 -252.87258503053866 -95.42000161849838 0.0 0.0
51.031437623952144 -74.55740732181981 -5.108766258275735 -173.29345202048248 0.0 0.0
11.62882977585828 6.647920061859124 5.4844923374507495 -153.57936432867737 0.0 0.0
47.15393952690259 20.481714214192554 20.290696122328544 -142.36649624077515 0.0 0.0
90.93545528115123 11.484759731814593 30.726496017757903 -144.77370217283945 0.0 0.0
135.8695924366708 2.8453920954876377 41.651248325943826 -153.1888383395809 0.0 0.0
191.47976168766942 -1.602845812359337 56.57163402014288 -164.99484913900596 0.0 0.0
269.0532279380393 -3.9787654549167115 78.65746550492034 -170.29543713523967 0.0 0.0
353.98723098392696 -1.7827585340160805 110.27954107500099 -161.2734767579665 0.0 0.0
430.4722827203143 5.84445384315474 150.24611898637502 -149.87845801778457 0.0 0.0
492.6872398131681 17.46557993849709 194.3653560816268 -140.07219230793964 0.0 0.0
545.5168496646473 25.719131226966894 234.86741199173233 -134.33422403997602 0.0 0.0
593.3866589365 38.111590461979155 275.3314579443035 -130.4528399029796 0.0 0.0
636.1008167657271 48.736497816476955 311.48637848937364 -127.74172416826309 0.0 0.0
675.6374412093155 57.33902146969328 342.65160325299667 -125.154154039697 0.0 0.0
711.6451616849577 63.56515822221639 367.8908283274579 -122.90851625674998 0.0 0.0
746.1269992761969 69.24079060510985 390.18956339308517 -120.19488539120607 0.0 0.0
775.8514225572391 70.89359532958659 407.71569587691033 -113.84117847043014 0.0 0.0
806.6540126023489 72.5614794903806 425.2453414213512 -102.32603218043634 0.0 0.0
819.5087972888264 55.25104481688138 424.66836946072004 -82.15069500283637 0.0 0.0
526.7785773407214 -235.12070202890806 149.8850232319212 8.201439527510956e-11 0.0 0.0
819.5087972887319 55.251044816884885 424.6683694607369 82.1506950030964 0.0 0.0
806.6540126021068 72.56147949025431 425.24534142116795 102.32603218072748 0.0 0.0
775.851422556958 70.89359532938013 407.71569587670945 113.84117847062336 0.0 0.0
746.1269992755598 69.24079060449037 390.1895633925626 120.19488539125499 0.0 0.0
711.6451616847963 63.56515822217191 367.89082832731907 122.90851625679821 0.0 0.0
675.6374412093401 57.33902146984481 342.6516032529812 125.15415403973563 0.0 0.0
636.1008167651083 48.73649781591191 311.4863784889469 127.74172416827969 0.0 0.0
593.3866589362201 38.111590461783926 275.33145794406477 130.4528399030463 0.0 0.0
545.5168496641777 25.719131226568273 234.86741199135864 134.3342240398889 0.0 0.0
492.6872398127793 17.465579938278076 194.36535608132183 140.07219230793524 0.0 0.0
430.47228272012444 5.844453843334566 150.2461189862615 149.87845801776422 0.0 0.0
353.98723098352605 -1.78275853409713 110.27954107481622 161.27347675801366 0.0 0.0
269.0532279377208 -3.9787654546470126 78.65746550490918 170.29543713517413 0.0 0.0
191.4797616875781 -1.602845811988895 56.57163402023393 164.99484913886172 0.0 0.0
135.86959243669017 2.8453920957904946 41.651248326041014 153.18883833940777 0.0 0.0
90.93545528103085 11.48475973164351 30.726496017670097 144.77370217267094 0.0 0.0
47.1539395268588 20.481714214141178 20.290696122299988 142.36649624059297 0.0 0.0
11.628829775904073 6.647920062019277 5.484492337512334 153.57936432848427 0.0 0.0
51.031437623602784 -74.55740732191543 -5.108766258432097 173.29345202020434 0.0 0.0
-159.82768227556872 -633.8248622369707 -252.87258503009863 95.42000161858239 0.0 0.0
-115.09533076350834 -527.8019213454132 -193.26267211573628 -108.33409127609755 0.0 0.0
13.43616911906938 -87.46212677921059 -22.143889548934037 -160.91700561574567 0.0 0.0
-11.358042220751571 2.2271992819807656 -2.7389703630609166 -161.7033962415339 0.0 0.0
8.76947222386441 19.62193478915904 8.517539715799966 -152.61773677289244 0.0 0.0
37.16889258556883 13.488636998088023 15.198423373488748 -153.66197401307312 0.0 0.0
64.89433579357605 5.526411549307786 21.123729095061975 -162.05395722928114 0.0 0.0
94.86377454833685 0.4507790258092552 28.458091061342188 -174.64520192973686 0.0 0.0
132.77610579107028 -0.8443377823519285 39.60104497118683 -180.5333899508654 0.0 0.0
186.18779112823083 -1.1916936638908515 55.72388675192558 -178.7201155143155 0.0 0.0
253.47209607363223 -7.890438733280451 74.32783992646745 -173.18486758881957 0.0 0.0
318.6412066920526 -11.83332378537548 95.90866360064206 -167.85982055059475 0.0 0.0
378.1976823502053 -15.585975684238353 118.22933268797864 -158.22594764804705 0.0 0.0
428.4236799325861 -9.933398605919734 145.11219644623142 -150.7523580233897 0.0 0.0
471.07790703778085 -0.8694554189726489 174.11505504937256 -144.2418715781508 0.0 0.0
507.07938588850897 11.935822614611528 204.22879242702302 -140.04860667364963 0.0 0.0
541.7126019582194 25.291796864243558 234.51441916063678 -141.02593372373698 0.0 0.0
578.1897826265631 32.75057364081431 265.161953072446 -141.47635167597244 0.0 0.0
612.5619326716985 33.7984057948717 291.6422544219948 -135.11507776978328 0.0 0.0
646.6799048186316 28.64320428919254 312.7480131117898 -121.33723824781273 0.0 0.0
693.3857210519991 33.69958139595419 342.4426643813695 -102.02844473750665 0.0 0.0
322.82979206751105 -322.283035066106 10.884129291603386 5.03348474012455e-11 0.0 0.0
693.385721051847 33.69958139598964 342.4426643813819 102.02844473776415 0.0 0.0
646.6799048180734 28.643204288702375 312.74801311142255 121.33723824819836 0.0 0.0
612.5619326718285 33.79840579512564 291.642254422054 135.11507776997482 0.0 0.0
578.189782626173 32.750573640403346 265.16195307216634 141.47635167613134 0.0 0.0
541.7126019583407 25.29179686454021 234.51441916073586 141.02593372374469 0.0 0.0
507.07938588852505 11.935822614731212 204.22879242703402 140.04860667372083 0.0 0.0
471.07790703739823 -0.8694554193890198 174.11505504910286 144.24187157816354 0.0 0.0
428.4236799326255 -9.933398605660882 145.11219644626203 150.75235802351875 0.0 0.0
378.1976823501837 -15.585975683897455 118.22933268803801 158.22594764807565 0.0 0.0
318.64120669164123 -11.833323785962595 95.90866360032352 167.85982055057525 0.0 0.0
253.47209607349123 -7.8904387330063495 74.32783992650229 173.18486758868332 0.0 0.0
186.18779112782272 -1.1916936643188958 55.723886751671046 178.72011551430478 0.0 0.0
132.77610579101258 -0.8443377821023534 39.601044971243624 180.53338995077388 0.0 0.0
94.86377454845048 0.450779026252883 28.458091061510913 174.64520192958005 0.0 0.0
64.89433579356789 5.526411549369431 21.123729095078367 162.05395722910652 0.0 0.0
37.16889258548611 13.488636997866578 15.198423373397585 153.66197401285154 0.0 0.0
8.769472223878676 19.621934789110743 8.517539715789725 152.61773677270088 0.0 0.0
-11.358042220689642 2.227199282142176 -2.7389703629941295 161.7033962413508 0.0 0.0
13.436169118975924 -87.46212677922857 -22.143889548970876 160.91700561560242 0.0 0.0
-115.09533076332696 -527.8019213447552 -193.26267211546806 108.33409127606203 0.0 0.0
-96.57658716458718 -420.02956069619 -155.08045706926097 -103.53377397084815 0.0 0.0
-10.012240643090923 -95.69666759922613 -31.70066190533474 -152.4613897842047 0.0 0.0
-32.46053973610327 -1.5255947672864947 -10.192378596512171 -165.8280469142225 0.0 0.0
-27.796998729228186 18.406737455430804 -2.816353431598252 -158.95424652875673 0.0 0.0
-15.652546520539783 14.955820551786507 -0.20858985229361648 -158.77286245809404 0.0 0.0
-6.423459858590389 8.26378436936805 0.5521432803086808 -165.89754515409166 0.0 0.0
-2.1748102543821233 2.532467602079978 0.10511909363491334 -178.544611287294 0.0 0.0
-0.35061268341308605 0.401990969683518 0.015959745841235495 -184.29347851631417 0.0 0.0
0.08604121654611063 -0.16800913561316833 -0.023832509206597408 -184.2694264935241 0.0 0.0
0.17294451708259828 -0.06775683764039897 0.033619420486719065 -176.72652416728894 0.0 0.0
0.09888962635249499 -0.022344074763886113 0.024353286140845753 -171.26050961689765 0.0 0.0
-0.08994870471073568 0.08929451447164283 -0.0031447135647475477 -165.38098868117342 0.0 0.0
-0.9139861122950066 0.5390098810655761 -0.05159396934755023 -164.57815592307742 0.0 0.0
-1.8380677296594996 1.1323982503228578 -0.04705010314407332 -162.97480025818305 0.0 0.0
1.490839172643362 0.31081039883526174 0.5280187370835066 -159.57785890129057 0.0 0.0
15.648531167968073 1.032684991043638 2.8762413060814467 -150.3887704860933 0.0 0.0
46.06890602082598 6.948923211805727 7.2887846165452075 -142.89732658559586 0.0 0.0
130.55353390016262 -2.30130490572553 19.957152232505337 -140.32638383199034 0.0 0.0
277.1542480503406 -58.04204576902079 35.439526047988785 -136.2839621630817 0.0 0.0
413.6608508549488 -48.357653554794275 126.70950014436713 -135.06120410715286 0.0 0.0
-166.66470587523733 -470.0691379439464 -253.68754766481976 2.865618853320484e-11 0.0 0.0
413.6608508547436 -48.357653555239 126.70950014415718 135.0612041073094 0.0 0.0
277.154248050188 -58.04204576889663 35.439526047969416 136.28396216360085 0.0 0.0
130.55353390035364 -2.301304905770813 19.95715223262244 140.32638383248417 0.0 0.0
46.06890602100144 6.9489232120791655 7.288784616698997 142.89732658568326 0.0 0.0
15.64853116817548 1.0326849910758966 2.87624130616004 150.38877048610286 0.0 0.0
1.4908391727229358 0.3108103986513946 0.5280187370580336 159.57785890129117 0.0 0.0
-1.8380677293362524 1.1323982508559531 -0.047050102879051536 162.97480025818817 0.0 0.0
-0.9139861121085602 0.5390098808960495 -0.0515939693502645 164.57815592322947 0.0 0.0
-0.08994870425807022 0.08929451502557129 -0.0031447132507729236 165.38098868115844 0.0 0.0
0.09888962608593843 -0.02234407582258413 0.02435328573936424 171.26050961682182 0.0 0.0
0.17294451725718218 -0.06775683761021334 0.033619420550978774 176.72652416721328 0.0 0.0
0.08604121657986852 -0.16800913581475996 -0.02383250925784619 184.26942649358642 0.0 0.0
-0.35061268314602323 0.4019909701689708 0.015959746068196168 184.29347851619949 0.0 0.0
-2.1748102542247025 2.532467602310503 0.10511909375103867 178.54461128718094 0.0 0.0
-6.42345985850178 8.263784369451182 0.5521432803601831 165.89754515390618 0.0 0.0
-15.65254652055027 14.955820551595687 -0.2085898523541223 158.77286245790418 0.0 0.0
-27.796998729087854 18.40673745561268 -2.816353431501879 158.95424652856076 0.0 0.0
-32.460539736044794 -1.5255947671895913 -10.192378596465824 165.82804691407017 0.0 0.0
-10.012240643121594 -95.6966675992707 -31.700661905352312 152.46138978409044 0.0 0.0
-96.57658716452887 -420.0295606956102 -155.08045706910997 103.53377397067487 0.0 0.0
-78.75423894479728 -330.70978374502545 -122.84560733310455 -95.97445281003164 0.0 0.0
-25.999853081913535 -96.3317107081262 -36.69875517726412 -143.75487281420635 0.0 0.0
-51.87064251036115 -4.626001119389425 -16.94963207082497 -165.81544772940347 0.0 0.0
-62.605722266072306 16.972879158734493 -13.688309738733334 -161.2533990949562 0.0 0.0
-67.27424333404589 15.786677847443599 -15.44793246523512 -159.75048178673083 0.0 0.0
-76.9136144637427 10.73559642029116 -19.871374685911757 -164.72374694319518 0.0 0.0
-99.25447802424338 4.766325022678622 -28.14068702811533 -176.53544223495075 0.0 0.0
-133.53037648200169 1.5376898288049525 -39.621996391174385 -180.7372174190812 0.0 0.0
-185.97688663201257 0.8721896735016106 -55.75543646731002 -178.70830715448875 0.0 0.0
-253.15804980236993 7.720692601783042 -74.28087800869449 -173.14737995771327 0.0 0.0
-318.4548786557941 11.808985975454263 -95.85589059081778 -167.78682524079542 0.0 0.0
-378.32818477767785 15.744977368072822 -118.22090993163405 -158.38257635111495 0.0 0.0
-429.0150566649821 10.169152162158639 -145.40177747084772 -150.35214516549274 0.0 0.0
-471.921980147363 1.3774087199726388 -174.47754591784008 -143.6618475002646 0.0 0.0
-505.964210210591 -9.125714868446217 -202.23924507358407 -140.27195678411118 0.0 0.0
-532.4430229482223 -14.287000657021792 -221.9102866129578 -142.85013460292245 0.0 0.0
-547.6344856278301 -11.226842666621586 -228.42679053360274 -149.00972041441793 0.0 0.0
-548.6442686476654 5.090496928460453 -214.91710209013533 -159.46903714020948 0.0 0.0
-537.332288724141 26.847795633557496 -183.5148047695242 -162.4115588339012 0.0 0.0
-338.65326091819713 23.07059894213727 -110.50208840355091 -105.05857939333644 0.0 0.0
-656.1214613502531 -660.7739071957337 -630.4973898195464 -1.1199574601050699e-10 0.0 0.0
-338.65326091795407 23.070598942254676 -110.5020884033723 105.05857939371867 0.0 0.0
-537.3322887236594 26.847795634087063 -183.51480476920563 162.4115588342355 0.0 0.0
-548.6442686474834 5.090496928336776 -214.91710209001815 159.46903714044865 0.0 0.0
-547.6344856276885 -11.22684266637205 -228.42679053350759 149.00972041459727 0.0 0.0
-532.4430229480541 -14.287000657112241 -221.91028661287095 142.85013460293513 0.0 0.0
-505.96421021073996 -9.125714868743664 -202.2392450736194 140.271956784147 0.0 0.0
-471.92198014691326 1.3774087204058745 -174.4775459175391 143.66184750033295 0.0 0.0
-429.0150566647835 10.169152162008956 -145.4017774707236 150.35214516558452 0.0 0.0
-378.32818477710794 15.744977368234348 -118.22090993137803 158.38257635110583 0.0 0.0
-318.4548786554387 11.808985975056846 -95.85589059078222 167.78682524080818 0.0 0.0
-253.15804980155377 7.720692602104689 -74.2808780083553 173.14737995764037 0.0 0.0
-185.97688663179 0.8721896730439895 -55.75543646738082 178.70830715449603 0.0 0.0
-133.53037648146153 1.5376898294415695 -39.62199639081904 180.73721741899146 0.0 0.0
-99.25447802415096 4.766325022457585 -28.14068702815645 176.53544223476635 0.0 0.0
-76.913614463628 10.7355964202451 -19.87137468589164 164.72374694299896 0.0 0.0
-67.27424333395173 15.786677847414197 -15.447932465216034 159.75048178660302 0.0 0.0
-62.60572226589613 16.972879158971867 -13.688309738609764 161.2533990947743 0.0 0.0
-51.870642510252154 -4.62600111927299 -16.94963207075778 165.815447729272 0.0 0.0
-25.99985308194514 -96.3317107081832 -36.69875517729051 143.75487281411043 0.0 0.0
-78.75423894468597 -330.7097837446461 -122.84560733295572 95.97445280990937 0.0 0.0
-63.32988673038232 -253.42764186971863 -95.02725858003026 -85.9118919515351 0.0 0.0
-37.983612055099755 -91.79646413451344 -38.93400265513702 -133.71853768296162 0.0 0.0
-69.8080723134837 -6.8218743040473155 -22.989771783685683 -161.89430485615355 0.0 0.0
-95.75411281864339 15.306347590959227 -24.136189906526226 -159.39828628625602 0.0 0.0
-117.48263455077867 16.013625946030754 -30.43492616031625 -156.62053816781213 0.0 0.0
-146.79661557541138 12.82310418182596 -40.09783082428969 -159.7971101249829 0.0 0.0
-193.81877171472226 5.541060543981876 -56.40136307570101 -164.53855031644275 0.0 0.0
-269.4209564205383 4.556869772363928 -78.63212734917161 -170.59422571045127 0.0 0.0
-353.87418679024563 1.3840355300600944 -110.36873598708908 -161.19971466926535 0.0 0.0
-430.4031596968977 -5.933346104399577 -150.2127670954518 -149.85242627788108 0.0 0.0
-492.5980493917235 -17.433894257040958 -194.3180832932427 -140.04956722466446 0.0 0.0
-545.475083686469 -25.624272618967044 -234.85263045028688 -134.25028728688136 0.0 0.0
-593.668160122909 -38.00346121595561 -275.50524606518127 -130.0293095312404 0.0 0.0
-636.6899174384644 -48.358999111560145 -311.68326098529474 -126.9692595522377 0.0 0.0
-674.5510758586331 -55.18851112805458 -341.10986425366673 -124.90113889485103 0.0 0.0
-703.199647658387 -55.867235425805006 -360.0180110251003 -125.34669302410018 0.0 0.0
-718.3682483107316 -48.949440561798326 -366.68221319495626 -129.58658155927034 0.0 0.0
-719.1891546263864 -38.96020392774817 -363.5208208421771 -138.28206403982006 0.0 0.0
-699.4802071868179 -19.60941137294158 -345.2009667151844 -147.66747207217767 0.0 0.0
-680.1815178203216 -15.053966746388944 -331.11001896372176 -146.2511385216725 0.0 0.0
-1309.5565305887242 -897.7271642976928 -1044.0997974097784 1.1720402426362853e-11 0.0 0.0
-680.1815178200252 -15.053966746295359 -331.1100189636137 146.2511385220248 0.0 0.0
-699.4802071869684 -19.609411373313364 -345.2009667153422 147.6674720725969 0.0 0.0
-719.1891546261263 -38.960203927597114 -363.52082084203477 138.28206404002546 0.0 0.0
-718.3682483107345 -48.949440561957196 -366.6822131949069 129.58658155934518 0.0 0.0
-703.1996476581894 -55.86723542570566 -360.01801102495926 125.34669302411311 0.0 0.0
-674.5510758582395 -55.188511127735325 -341.1098642533127 124.90113889479375 0.0 0.0
-636.6899174383436 -48.35899911164997 -311.6832609851919 126.96925955228906 0.0 0.0
-593.6681601223984 -38.00346121551473 -275.5052460647696 130.02930953125124 0.0 0.0
-545.4750836863458 -25.62427261912746 -234.8526304501463 134.250287286886 0.0 0.0
-492.5980493916942 -17.433894257400024 -194.3180832931826 140.04956722469137 0.0 0.0
-430.40315969636004 -5.933346104237714 -150.21276709512023 149.8524262778497 0.0 0.0
-353.8741867899279 1.3840355296581368 -110.36873598704301 161.1997146693394 0.0 0.0
-269.4209564199166 4.556869772626433 -78.63212734890607 170.59422571042168 0.0 0.0
-193.8187717142153 5.541060544316241 -56.401363075458434 164.5385503162198 0.0 0.0
-146.7966155753173 12.82310418156747 -40.097830824337635 159.7971101248786 0.0 0.0
-117.48263455056623 16.013625946160726 -30.434926160214637 156.6205381676523 0.0 0.0
-95.7541128185629 15.30634759093313 -24.136189906510467 159.39828628612358 0.0 0.0
-69.80807231338727 -6.821874303974746 -22.98977178363467 161.89430485596864 0.0 0.0
-37.98361205507843 -91.79646413446456 -38.934002655115975 133.71853768286132 0.0 0.0
-63.32988673034871 -253.42764186947144 -95.02725857994605 85.91189195141915 0.0 0.0
-51.02822730269765 -187.44841473616682 -71.54299261165932 -75.11425428144784 0.0 0.0
-47.48157829998733 -83.45885562944427 -39.28213017882947 -121.88734119349459 0.0 0.0
-86.66625817837817 -8.032396761948462 -28.410600969393347 -154.0895873532504 0.0 0.0
-127.42087376658704 13.494038856834178 -34.17541574324699 -153.51120786560693 0.0 0.0
-166.04597321412757 15.428330326450872 -45.17497187088094 -149.16267707195135 0.0 0.0
-213.5884122776199 13.39460971131645 -60.104248145240774 -147.75185049067653 0.0 0.0
-291.557005234552 8.013622090125626 -83.94147527405597 -152.9752483411821 0.0 0.0
-380.7375917928973 -2.8417586470454577 -120.78336307404464 -142.790862751001 0.0 0.0
-466.58692638083636 -14.895616468026196 -169.98312500046396 -134.5062733826725 0.0 0.0
-536.8762885815605 -22.426202583856437 -220.61846203151555 -130.55166603623385 0.0 0.0
-591.0271047670998 -35.106931724990574 -269.06713305414723 -124.18630190459113 0.0 0.0
-640.6375049042032 -48.49538166600991 -312.90997087334887 -119.84036190059923 0.0 0.0
-690.1753120226157 -64.24134952416847 -354.42437860055776 -115.95400046442927 0.0 0.0
-736.6825740809913 -79.43018049642825 -391.4839596389829 -112.45989447983767 0.0 0.0
-778.7121382192438 -90.29907549729435 -421.49114956347785 -110.14604343892786 0.0 0.0
-810.2273843533367 -93.65239960386336 -440.6078025949896 -110.58131418383121 0.0 0.0
-826.8733499239472 -85.45012037294059 -445.9904433175027 -114.90249547975039 0.0 0.0
-821.5096106035711 -63.74146693421565 -433.81512501484 -122.92355006199568 0.0 0.0
-794.6120021101743 -32.05823982589962 -406.07455726973245 -131.1289656402392 0.0 0.0
-737.7109172525974 11.397799123152911 -359.9609419279342 -135.7114033574507 0.0 0.0
-1728.0888405949688 -1122.956885766099 -1374.076273875094 6.416911446649465e-11 0.0 0.0
-737.7109172524736 11.397799123100654 -359.96094192792066 135.71140335763326 0.0 0.0
-794.6120021102231 -32.05823982619404 -406.07455726973876 131.12896564061606 0.0 0.0
-821.509610603641 -63.74146693450221 -433.81512501488805 122.92355006228088 0.0 0.0
-826.873349923436 -85.45012037246298 -445.99044331710996 114.90249547981799 0.0 0.0
-810.227384353228 -93.65239960387224 -440.6078025949057 110.5813141838794 0.0 0.0
-778.7121382184782 -90.29907549654038 -421.49114956287167 110.14604343890656 0.0 0.0
-736.68257408064 -79.4301804962243 -391.48395963874873 112.45989447984695 0.0 0.0
-690.1753120223693 -64.24134952405109 -354.42437860036665 115.95400046445921 0.0 0.0
-640.6375049039119 -48.495381665957396 -312.90997087307136 119.8403619005871 0.0 0.0
-591.027104767206 -35.106931725454416 -269.0671330541677 124.18630190462555 0.0 0.0
-536.8762885812927 -22.42620258387806 -220.6184620312361 130.551666036144 0.0 0.0
-466.586926380342 -14.89561646796772 -169.98312500013117 134.5062733826963 0.0 0.0
-380.73759179234946 -2.8417586469412863 -120.7833630737793 142.79086275104436 0.0 0.0
-291.55700523380403 8.013622090609068 -83.94147527370166 152.97524834107566 0.0 0.0
-213.58841227726074 13.394609711264042 -60.104248145162806 147.75185049044785 0.0 0.0
-166.04597321392737 15.428330326488172 -45.174971870807624 149.16267707177423 0.0 0.0
-127.42087376649421 13.494038856716971 -34.17541574325502 153.5112078654885 0.0 0.0
-86.66625817825884 -8.03239676191178 -28.410600969346252 154.0895873530554 0.0 0.0
-47.481578299908534 -83.458855629335 -39.28213017877306 121.8873411933797 0.0 0.0
-51.028227302648695 -187.4484147359853 -71.54299261159017 75.11425428136164 0.0 0.0
-41.832837571321704 -132.16461450545265 -52.199235623032294 -64.01111543629848 0.0 0.0
-55.3217110711305 -72.66207641535271 -38.39513624594496 -108.3069666302453 0.0 0.0
-102.67312434247583 -8.174432366177381 -33.25466136072714 -142.55400464529424 0.0 0.0
-157.72942366176372 11.4065417651143 -43.90352805541136 -143.4296230578196 0.0 0.0
-212.64834619383197 14.282348466732468 -59.48640784487873 -137.55542228807272 0.0 0.0
-281.8549913999143 14.312816203920269 -79.5852860152457 -134.307586528 0.0 0.0
-376.4359885865754 2.481013595676462 -114.04718656240435 -126.8260083111268 0.0 0.0
-468.10494327844157 -14.232372714554819 -165.32286050011584 -118.13335929498045 0.0 0.0
-548.0817230001948 -22.606330952396846 -221.80665559307943 -115.88036243484365 0.0 0.0
-603.1563603269955 -37.7191247008992 -276.93184383619126 -110.2761772301207 0.0 0.0
-659.1917486103744 -51.12426225274767 -325.1969878008788 -107.9253936078401 0.0 0.0
-710.9734228756428 -68.71219606097728 -369.7204233686109 -104.41595604042922 0.0 0.0
-763.4403830349986 -89.33793011668277 -412.48982455528505 -100.72986531007811 0.0 0.0
-814.615045248132 -109.35051899911839 -451.64761199758914 -97.51192203642167 0.0 0.0
-861.0485024214819 -125.1362996439229 -484.4191980457536 -95.18434137664123 0.0 0.0
-897.4136907361668 -130.8145536742548 -505.9943275538584 -95.58528004945698 0.0 0.0
-913.3403740846483 -122.05260359600244 -510.3228582364053 -98.81172171063511 0.0 0.0
-900.6620744852825 -88.96703162597693 -488.6238412289913 -105.44405913064655 0.0 0.0
-855.0481721171441 -35.19411294206378 -440.81511641682346 -113.63741714794995 0.0 0.0
-768.0214477326675 39.538701244426264 -364.4247630677306 -121.34133391046674 0.0 0.0
-2050.5184056415633 -1348.511023993927 -1655.6203240397072 6.222578008419077e-11 0.0 0.0
-768.0214477322818 39.53870124473377 -364.42476306745834 121.34133391063288 0.0 0.0
-855.0481721163416 -35.19411294136739 -440.8151164162256 113.63741714813744 0.0 0.0
-900.6620744847362 -88.96703162550644 -488.62384122853666 105.44405913082132 0.0 0.0
-913.3403740846192 -122.05260359605944 -510.3228582363722 98.81172171067318 0.0 0.0
-897.4136907362637 -130.81455367447012 -505.99432755390075 95.58528004951495 0.0 0.0
-861.0485024211159 -125.13629964366343 -484.4191980454099 95.18434137669297 0.0 0.0
-814.615045247855 -109.35051899897347 -451.6476119973382 97.51192203645886 0.0 0.0
-763.4403830345741 -89.33793011640377 -412.4898245549703 100.72986531010845 0.0 0.0
-710.9734228750381 -68.71219606047951 -369.72042336811234 104.41595604032406 0.0 0.0
-659.1917486102573 -51.124262252926755 -325.19698780076857 107.92539360787922 0.0 0.0
-603.156360326992 -37.719124701181464 -276.9318438360762 110.27617723008962 0.0 0.0
-548.0817229995162 -22.606330952018737 -221.80665559254027 115.88036243480826 0.0 0.0
-468.10494327787984 -14.232372714396647 -165.32286049974843 118.13335929501899 0.0 0.0
-376.4359885859299 2.4810135959318034 -114.04718656210778 126.82600831106436 0.0 0.0
-281.8549913996195 14.312816203743317 -79.58528601521549 134.30758652786216 0.0 0.0
-212.6483461935592 14.282348466690205 -59.48640784481446 137.55542228789216 0.0 0.0
-157.72942366160245 11.406541765165363 -43.903528055347714 143.4296230577079 0.0 0.0
-102.67312434237402 -8.174432366134168 -33.25466136068346 142.55400464518627 0.0 0.0
-55.32171107106838 -72.66207641530335 -38.39513624591151 108.30696663011973 0.0 0.0
-41.83283757125642 -132.16461450531065 -52.19923562297011 64.01111543622709 0.0 0.0
-35.467520079694474 -87.22182302302684 -36.806802930816396 -52.682146325444286 0.0 0.0
-61.85947799676005 -60.51557691505549 -36.71251647354466 -93.10567721469866 0.0 0.0
-117.89523607144878 -7.342429466626346 -37.571299661422515 -127.43308975720548 0.0 0.0
-186.8395374021427 9.193287319661723 -53.299015201013994 -129.3700969346869 0.0 0.0
-256.78940770796567 12.134419500222123 -73.46712433052527 -121.52416264791599 0.0 0.0
-348.68465936791887 12.099164667279378 -100.04502550066283 -114.7332502312612 0.0 0.0
-447.76882050975 -6.84945817498566 -146.66980646442994 -101.6387837357172 0.0 0.0
-538.836617040902 -19.92934522025871 -206.4664344733762 -97.82704984758873 0.0 0.0
-597.9671182658885 -34.441189161094584 -266.8940801691001 -94.26462131925634 0.0 0.0
-658.3761111777104 -47.38894347802509 -320.54287633641627 -93.54577506468398 0.0 0.0
-713.5996668548161 -66.36720074562754 -369.5025844418925 -91.19217251228245 0.0 0.0
-768.9330215721441 -88.8897454947172 -415.62604625606394 -88.21144742745233 0.0 0.0
-825.5768256806681 -114.04151383054233 -460.5853497247107 -85.13097369339015 0.0 0.0
-881.0121342432269 -137.88461610795196 -502.21106621861236 -82.37560394108567 0.0 0.0
-932.3344530832094 -158.26153468316159 -538.7452087928704 -80.29884952517469 0.0 0.0
-972.972907247749 -169.0517834675704 -564.6913288058399 -79.89149614897265 0.0 0.0
-989.883815025407 -157.04460483120232 -567.6424270555732 -82.10553258224826 0.0 0.0
-967.1305217258907 -112.8601870870261 -535.2763702471469 -87.09587958720921 0.0 0.0
-898.8899699797696 -35.73393253749131 -464.59329369572686 -95.1658584049719 0.0 0.0
-783.9729709511168 67.46118191214882 -359.9250764996532 -107.46328453953882 0.0 0.0
-2338.2545388184794 -1573.677569787708 -1917.6041448299009 4.5130121861802763e-11 0.0 0.0
-783.9729709511778 67.4611819119907 -359.92507649969764 107.46328453969879 0.0 0.0
-898.8899699794699 -35.733932537246616 -464.5932936955323 95.16585840512678 0.0 0.0
-967.1305217253282 -112.86018708652333 -535.2763702467232 87.09587958729679 0.0 0.0
-989.8838150257019 -157.0446048316091 -567.6424270557704 82.10553258238556 0.0 0.0
-972.9729072472296 -169.05178346714095 -564.6913288054468 79.89149614900418 0.0 0.0
-932.3344530830781 -158.26153468313905 -538.7452087927177 80.29884952523776 0.0 0.0
-881.0121342428253 -137.88461610766663 -502.21106621819445 82.37560394110535 0.0 0.0
-825.5768256805313 -114.04151383056049 -460.5853497246442 85.13097369343251 0.0 0.0
-768.9330215714101 -88.88974549414601 -415.62604625548266 88.21144742744067 0.0 0.0
-713.5996668546943 -66.36720074572511 -369.5025844417496 91.19217251228326 0.0 0.0
-658.376111177613 -47.38894347823221 -320.54287633625387 93.54577506467771 0.0 0.0
-597.967118265279 -34.44118916073868 -266.89408016858647 94.26462131926229 0.0 0.0
-538.8366170406167 -19.929345220371516 -206.46643447309873 97.82704984761342 0.0 0.0
-447.7688205091824 -6.849458174720499 -146.66980646406546 101.63878373565282 0.0 0.0
-348.68465936754745 12.099164666929354 -100.0450255006674 114.73325023119487 0.0 0.0
-256.7894077076608 12.134419500253113 -73.46712433042802 121.52416264783442 0.0 0.0
-186.8395374019621 9.193287319618399 -53.2990152009723 129.37009693457358 0.0 0.0
-117.89523607131879 -7.342429466592241 -37.57129966137331 127.43308975714004 0.0 0.0
-61.859477996685705 -60.51557691498882 -36.71251647350236 93.1056772146048 0.0 0.0
-35.46752007964984 -87.22182302294735 -36.80680293077916 52.68214632538705 0.0 0.0
-31.529093674236222 -52.49718828056164 -25.20788458643935 -41.20202885501808 0.0 0.0
-67.05430792773927 -47.881094573287776 -34.480620750308105 -76.43001918213825 0.0 0.0
-132.27757348640384 -5.853738644531653 -41.43939363928064 -108.83300436194565 0.0 0.0
-214.74171074914952 7.046744089742631 -62.31437314074755 -111.22668482418561 0.0 0.0
-301.4369547642456 9.472700720118382 -87.34870139405466 -102.66607356093945 0.0 0.0
-403.71155993953596 1.4909163331352362 -123.3920574382361 -87.57291194099464 0.0 0.0
-511.2108447043439 -12.5716538606344 -178.6908761259456 -78.97590773201259 0.0 0.0
-581.0508033595172 -28.366919430948215 -243.77149092949438 -76.76354509901567 0.0 0.0
-643.9114827925706 -39.887464002154445 -302.8339617548441 -76.70709312473136 0.0 0.0
-702.281994312759 -58.27185440365849 -356.7638342223225 -75.71434531706369 0.0 0.0
-760.3199941767524 -81.50505662021658 -406.59194882703815 -74.03036441093803 0.0 0.0
-819.8392356175743 -108.68419991134328 -455.09502533370966 -71.7197117625881 0.0 0.0
-880.7908002046628 -137.82759063074812 -502.76089318724627 -69.2588374805562 0.0 0.0
-939.7140499588564 -166.62464757100477 -547.7236722015807 -66.98754618098364 0.0 0.0
-994.799169901809 -189.73920770420767 -587.0763428301298 -65.2004254894385 0.0 0.0
-1040.1400146100502 -203.7938569018008 -616.7903023509712 -64.31265942996949 0.0 0.0
-1059.7826656400366 -194.90154268867735 -622.5275375680645 -64.73222207704836 0.0 0.0
-1028.6909000169233 -140.44971571326582 -580.8030169277947 -67.95718219836948 0.0 0.0
-936.3834400546361 -37.25724971096177 -485.0122874437383 -76.80541117564175 0.0 0.0
-786.72487016486 99.93419716038875 -345.67989290944854 -94.95802379020151 0.0 0.0
-2603.389836184507 -1793.619293987719 -2164.8750708398015 8.480682822664676e-11 0.0 0.0
-786.7248701647965 99.93419716039756 -345.6798929093842 94.95802379030181 0.0 0.0
-936.38344005462 -37.25724971101568 -485.01228744377175 76.80541117579499 0.0 0.0
-1028.6909000172152 -140.44971571360142 -580.8030169279548 67.95718219844044 0.0 0.0
-1059.7826656400287 -194.90154268878007 -622.5275375680283 64.7322220771355 0.0 0.0
-1040.1400146091528 -203.79385690094824 -616.7903023502524 64.31265943000179 0.0 0.0
-994.7991699016761 -189.73920770417266 -587.0763428299513 65.20042548944527 0.0 0.0
-939.7140499584889 -166.62464757076899 -547.723672201189 66.98754618100675 0.0 0.0
-880.7908002047934 -137.82759063105385 -502.7608931873546 69.25883748061064 0.0 0.0
-819.8392356169411 -108.68419991088587 -455.0950253331952 71.71971176264864 0.0 0.0
-760.3199941767996 -81.50505662046804 -406.5919488270106 74.03036441090026 0.0 0.0
-702.2819943121967 -58.27185440332725 -356.7638342218622 75.7143453170809 0.0 0.0
-643.9114827922695 -39.88746400209793 -302.8339617545251 76.70709312470441 0.0 0.0
-581.0508033592826 -28.36691943108508 -243.77149092921817 76.76354509903058 0.0 0.0
-511.2108447040471 -12.5716538607575 -178.69087612570385 78.97590773199722 0.0 0.0
-403.71155993893154 1.4909163332178692 -123.39205743801593 87.57291194095521 0.0 0.0
-301.4369547638389 9.472700720323216 -87.348701393876 102.66607356083576 0.0 0.0
-214.7417107490242 7.046744089566169 -62.31437314076237 111.22668482407644 0.0 0.0
-132.27757348626204 -5.853738644502782 -41.43939363922943 108.83300436184568 0.0 0.0
-67.05430792770255 -47.88109457325446 -34.4806207502871 76.43001918212619 0.0 0.0
-31.52909367424362 -52.49718828052058 -25.20788458642926 41.202028854977456 0.0 0.0
-29.401448508231155 -27.95059614208415 -17.20561339509459 -29.835320040661028 0.0 0.0
-70.5066575593152 -35.49967127954663 -31.80189865165854 -58.468204116251805 0.0 0.0
-145.55952911243307 -4.1583468085861215 -44.91536277630575 -86.69495123573647 0.0 0.0
-241.6155848240213 5.120990953485568 -70.95052700197509 -88.95817647135614 0.0 0.0
-346.166902432532 4.980734147058868 -101.77240360735028 -79.34843200048705 0.0 0.0
-462.25893424184017 -4.907630949066375 -146.89803025387116 -63.172690974574365 0.0 0.0
-552.3130561603556 -20.592567598160258 -210.45593500906583 -58.06276143823839 0.0 0.0
-617.9385694043735 -30.952274025936607 -273.9931933070095 -57.93013670493923 0.0 0.0
-680.1588331355276 -47.29713247888513 -333.62829520222823 -58.108800275909886 0.0 0.0
-740.2095282118838 -69.07134908459574 -387.425547409777 -57.65020083972759 0.0 0.0
-801.2705597432921 -96.65665792561478 -438.830686701044 -56.46879928168483 0.0 0.0
-865.2362294383198 -128.32401098156635 -490.2451813437829 -54.794430920801254 0.0 0.0
-930.1846614750568 -162.73622517209265 -541.6138946710157 -52.82426653776361 0.0 0.0
-993.330945696395 -193.22130055203638 -588.9748393178677 -51.25204143417819 0.0 0.0
-1050.1867260520528 -218.8761706892593 -630.2973684243218 -49.92132898129582 0.0 0.0
-1097.9806874140827 -236.06251703249993 -662.7270520829134 -48.603292139757826 0.0 0.0
-1124.4547436299765 -232.7896615040394 -674.4591314347167 -47.43764848356943 0.0 0.0
-1093.3137105339235 -177.03058367300807 -631.9403477430066 -48.46943960834821 0.0 0.0
-976.1421751378273 -47.23389586941296 -510.45228949962774 -58.110971013492524 0.0 0.0
-775.6409911999796 141.7785817281293 -319.30355080337915 -82.63777272586078 0.0 0.0
-2847.032699735092 -1999.1413244090104 -2393.8752875904925 5.4363624713005265e-11 0.0 0.0
-775.6409911994022 141.77858172867502 -319.3035508029129 82.63777272593408 0.0 0.0
-976.1421751379426 -47.23389586956751 -510.4522894997185 58.11097101359834 0.0 0.0
-1093.313710533897 -177.0305836730605 -631.9403477429078 48.46943960845097 0.0 0.0
-1124.4547436298276 -232.78966150395365 -674.4591314346364 47.43764848363378 0.0 0.0
-1097.9806874135497 -236.06251703204484 -662.7270520824407 48.60329213979738 0.0 0.0
-1050.186726051615 -218.8761706889176 -630.2973684239337 49.921328981338505 0.0 0.0
-993.3309456961176 -193.22130055190695 -588.9748393176178 51.2520414342457 0.0 0.0
-930.1846614753185 -162.7362251724931 -541.6138946711499 52.82426653782743 0.0 0.0
-865.2362294376544 -128.3240109810595 -490.2451813432791 54.79443092074062 0.0 0.0
-801.2705597429423 -96.65665792545535 -438.8306867007628 56.46879928165163 0.0 0.0
-740.2095282113021 -69.07134908422424 -387.4255474093292 57.6502008397091 0.0 0.0
-680.1588331352218 -47.29713247882369 -333.6282952019148 58.108800275912984 0.0 0.0
-617.9385694040741 -30.95227402590626 -273.9931933066665 57.93013670488539 0.0 0.0
-552.3130561600467 -20.592567598221873 -210.45593500877118 58.06276143820476 0.0 0.0
-462.2589342412876 -4.907630948897658 -146.8980302535814 63.17269097450751 0.0 0.0
-346.1669024320717 4.980734147225414 -101.77240360717137 79.34843200040991 0.0 0.0
-241.6155848237993 5.120990953455259 -70.95052700191698 88.95817647130346 0.0 0.0
-145.5595291122496 -4.1583468085053905 -44.915362776226495 86.69495123563136 0.0 0.0
-70.50665755927433 -35.499671279562 -31.801898651650905 58.46820411622998 0.0 0.0
-29.401448508221044 -27.95059614204875 -17.20561339508093 29.835320040698214 0.0 0.0
-28.028617612301336 -13.382335155375383 -12.423285830303016 -19.280016597838472 0.0 0.0
-71.38269718450609 -24.184709952115455 -28.67022214098646 -39.47674445906438 0.0 0.0
-157.27368737071467 -2.8890473610821275 -48.04882041953904 -60.63759523324783 0.0 0.0
-267.68202820301536 3.546099338253488 -79.24532086123239 -62.251167311472955 0.0 0.0
-389.0370165085139 -3.198870872828138 -118.03457732212993 -52.15082290201754 0.0 0.0
-509.0225133801521 -12.551681660608951 -171.9266169519865 -39.76329620741878 0.0 0.0
-580.523868173446 -25.23099711030745 -237.70320032449737 -37.95163701658766 0.0 0.0
-649.0283688214082 -35.708636201567714 -301.18027798719714 -39.02321148460003 0.0 0.0
-710.8678474010607 -55.09895775367137 -359.9226737959468 -39.41483093546564 0.0 0.0
-773.0018597781788 -80.01555691914604 -413.90256431272394 -39.19900183085527 0.0 0.0
-838.1902530717273 -111.58002365304804 -467.6162332611051 -38.49043347414331 0.0 0.0
-906.1402029987757 -148.10056979083132 -522.381373028915 -37.3430301563524 0.0 0.0
-975.9913178377448 -185.35162410348295 -576.9376758150763 -36.114733528226175 0.0 0.0
-1042.0203527231333 -220.55926852666013 -627.8299480613813 -35.025847550286194 0.0 0.0
-1100.9280746575018 -247.4021357613549 -670.6833252505763 -34.189260373370125 0.0 0.0
-1146.8092915901195 -262.1023897649918 -700.900574049842 -33.03561000958729 0.0 0.0
-1176.386783583952 -262.5383448310658 -715.820438431635 -31.06611652069129 0.0 0.0
-1170.5333017718176 -231.7034151871953 -697.9840797819359 -29.614941554377875 0.0 0.0
-1036.9820861778317 -82.89330934707388 -558.9838783657133 -37.57335538790739 0.0 0.0
-745.0828469348335 200.43015181207537 -274.45872087929257 -68.86554177980638 0.0 0.0
-3054.428616714041 -2172.1156841064726 -2588.6263941605853 -1.1660006293823244e-11 0.0 0.0
-745.0828469344606 200.43015181242117 -274.45872087894605 68.86554177986869 0.0 0.0
-1036.9820861780222 -82.89330934730233 -558.9838783658587 37.5733553879494 0.0 0.0
-1170.533301771226 -231.70341518665032 -697.9840797814194 29.61494155443917 0.0 0.0
-1176.3867835838153 -262.53834483099325 -715.8204384315385 31.066116520722023 0.0 0.0
-1146.8092915891814 -262.1023897641226 -700.9005740490535 33.03561000957093 0.0 0.0
-1100.9280746572606 -247.4021357612181 -670.6833252503462 34.189260373447844 0.0 0.0
-1042.0203527225867 -220.55926852622298 -627.8299480609026 35.02584755030138 0.0 0.0
-975.9913178382772 -185.3516241041984 -576.9376758154007 36.114733528293016 0.0 0.0
-906.1402029978958 -148.10056979009673 -522.3813730282599 37.34303015633012 0.0 0.0
-838.1902530710794 -111.58002365258328 -467.6162332606521 38.49043347413234 0.0 0.0
-773.001859777811 -80.01555691897681 -413.9025643123896 39.19900183082015 0.0 0.0
-710.8678474007788 -55.098957753623495 -359.92267379564953 39.41483093549732 0.0 0.0
-649.0283688211196 -35.70863620152815 -301.1802779868578 39.02321148451536 0.0 0.0
-580.5238681730248 -25.230997110210705 -237.70320032410223 37.951637016512855 0.0 0.0
-509.02251337969557 -12.5516816604724 -171.92661695167433 39.76329620735983 0.0 0.0
-389.0370165080587 -3.19887087283876 -118.03457732200454 52.150822901968226 0.0 0.0
-267.6820282027672 3.5460993382819366 -79.24532086114804 62.25116731143831 0.0 0.0
-157.27368737051648 -2.889047360970846 -48.0488204194462 60.63759523318416 0.0 0.0
-71.38269718444292 -24.184709952110765 -28.670222140966104 39.47674445899079 0.0 0.0
-28.028617612282225 -13.382335155372155 -12.423285830296313 19.280016597893937 0.0 0.0
-25.381189780056655 -7.970649750249419 -10.005551859091822 -11.111746364604588 0.0 0.0
-68.29578976780773 -15.254070448657057 -25.064958064939432 -19.75941576629127 0.0 0.0
-166.57099945324273 -2.721050272217058 -50.78761491763794 -29.693662683156624 0.0 0.0
-294.0109480181769 2.119750778857818 -87.5669006839945 -30.51435787276022 0.0 0.0
-435.48823876471056 -9.16804895257231 -135.17533013302426 -23.745393891868215 0.0 0.0
-542.0763337134479 -19.966786981952758 -196.80710355742173 -19.108091895877504 0.0 0.0
-608.2974440827087 -25.033401868246987 -260.34583775087555 -20.022892346065078 0.0 0.0
-674.9184873166139 -41.48832778020779 -324.9293281467699 -20.538272130133652 0.0 0.0
-737.4527789922881 -62.7075203394343 -382.363307728499 -20.56274112044808 0.0 0.0
-801.9456103538765 -91.2035591816294 -437.3710344768322 -20.39951122408268 0.0 0.0
-871.0508342557417 -126.77826462736422 -493.7222739589821 -19.948645274317627 0.0 0.0
-943.9196694807608 -166.57964896108632 -551.7706975809842 -19.466018203482353 0.0 0.0
-1016.8704110981829 -208.68542064310714 -609.875622574921 -18.8566755559635 0.0 0.0
-1087.380914789217 -246.64738881452416 -664.1896157602794 -18.323582157187275 0.0 0.0
-1147.5853077583124 -274.5505403640675 -708.1850289517308 -17.95372801011228 0.0 0.0
-1190.8663055739794 -286.69684543753635 -735.8408159638766 -17.2596458541263 0.0 0.0
-1213.739311166879 -281.1216289421321 -744.3930852685503 -15.749245969952991 0.0 0.0
-1225.6975100784898 -268.9226026190203 -744.1717350344892 -13.508463429893649 0.0 0.0
-1182.4872943136786 -208.42267523836 -693.8890916232416 -15.985141123449763 0.0 0.0
-729.7495986599774 243.11421078309496 -244.72524482618647 -46.49935039152835 0.0 0.0
-3105.914831020804 -2188.6632651554564 -2628.696378326854 -1.7546852859595674e-11 0.0 0.0
-729.7495986600532 243.1142107829786 -244.72524482620395 46.49935039159227 0.0 0.0
-1182.487294313876 -208.42267523858615 -693.8890916233969 15.98514112345839 0.0 0.0
-1225.6975100782292 -268.9226026188145 -744.1717350342276 13.508463429946653 0.0 0.0
-1213.7393111667773 -281.1216289420947 -744.393085268472 15.749245970021613 0.0 0.0
-1190.8663055734414 -286.69684543706154 -735.8408159633924 17.259645854093893 0.0 0.0
-1147.585307757863 -274.55054036371826 -708.1850289513621 17.953728010135922 0.0 0.0
-1087.380914788685 -246.64738881411373 -664.1896157597572 18.323582157267467 0.0 0.0
-1016.870411098616 -208.68542064369282 -609.8756225751895 18.85667555598034 0.0 0.0
-943.919669480163 -166.57964896065153 -551.7706975805113 19.466018203482996 0.0 0.0
-871.0508342555459 -126.77826462736188 -493.72227395881913 19.948645274313595 0.0 0.0
-801.9456103534209 -91.20355918138564 -437.3710344764268 20.399511224036786 0.0 0.0
-737.4527789920139 -62.70752033938697 -382.36330772820446 20.562741120490113 0.0 0.0
-674.9184873162264 -41.48832778008147 -324.92932814638743 20.538272130121424 0.0 0.0
-608.2974440823428 -25.033401868146996 -260.34583775050083 20.022892346016004 0.0 0.0
-542.0763337131176 -19.96678698197109 -196.80710355714737 19.108091895772354 0.0 0.0
-435.48823876416446 -9.168048952464233 -135.17533013280882 23.745393891837693 0.0 0.0
-294.01094801784814 2.1197507789686636 -87.56690068386366 30.514357872785546 0.0 0.0
-166.5709994530552 -2.7210502721496908 -50.78761491756146 29.693662683140772 0.0 0.0
-68.2957897677297 -15.254070448605002 -25.064958064900406 19.759415766222514 0.0 0.0
-25.381189780031995 -7.970649750258101 -10.005551859087028 11.11174636465459 0.0 0.0
-14.904907017817148 -3.751608969251647 -5.596954796120638 -7.1407686568732505 0.0 0.0
-57.71304901259435 -8.242387737991212 -19.78663102517566 -8.212360871532253 0.0 0.0
-171.83876840113982 -3.5701774169069687 -52.62268374541404 -10.187916480371179 0.0 0.0
-326.02170313455997 -6.625363628154368 -99.78095473847223 -10.270596117174234 0.0 0.0
-489.3130688119602 -32.730655609126764 -162.33267354499438 -4.944737120764918 0.0 0.0
-600.3956167144271 -60.06074284985548 -240.09434471895585 -1.541189290276641 0.0 0.0
-675.7834664577134 -77.76615874268816 -316.39004475103184 -1.3819186080859929 0.0 0.0
-758.1656319968713 -112.43228395981677 -397.18567963945344 -1.8549097046693213 0.0 0.0
-842.2696507140203 -156.42124941088667 -475.76191377264854 -2.335335630664261 0.0 0.0
-937.1953958310307 -215.01274326482854 -559.9459429928277 -3.0195357295833514 0.0 0.0
-1046.8074688922475 -290.3397692854422 -655.5912932083551 -3.8075762286170836 0.0 0.0
-1170.6029743044503 -382.29218616496655 -764.4877119123091 -4.657964171925757 0.0 0.0
-1305.191526929951 -484.4677780287101 -882.7506005483597 -5.210904095432497 0.0 0.0
-1446.0547471539116 -592.5834051241181 -1006.7761779613403 -5.769206428972851 0.0 0.0
-1582.144558801616 -696.1097270123728 -1126.0093711708791 -6.271554620207226 0.0 0.0
-1697.703000627248 -780.4286419223415 -1225.4876413912777 -6.487055801310213 0.0 0.0
-1773.7971981730943 -828.491626664958 -1287.3615474597827 -6.102786399877502 0.0 0.0
-1789.595168155429 -821.3276618439753 -1291.853832891672 -4.7026649526371855 0.0 0.0
-1775.683397918983 -790.2965606952774 -1270.290743815216 -4.687908018613486 0.0 0.0
-1659.664715912446 -668.7470091985202 -1149.0066647035135 -32.58003804605844 0.0 0.0
-4477.518885813622 -3531.6416853207875 -3969.5344019685695 2.83648660115432e-11 0.0 0.0
-1659.6647159126474 -668.7470091987291 -1149.006664703645 32.580038046046354 0.0 0.0
-1775.6833979191008 -790.2965606954383 -1270.2907438152806 4.687908018536 0.0 0.0
-1789.5951681551655 -821.327661843774 -1291.853832891386 4.702664952708581 0.0 0.0
-1773.7971981731694 -828.4916266650964 -1287.3615474597652 6.102786399934502 0.0 0.0
-1697.703000627257 -780.4286419224416 -1225.4876413911607 6.487055801298212 0.0 0.0
-1582.1445588003658 -696.1097270112023 -1126.0093711698516 6.2715546201855865 0.0 0.0
-1446.054747153526 -592.5834051238578 -1006.7761779608657 5.769206429016375 0.0 0.0
-1305.1915269303577 -484.4677780292789 -882.7506005484875 5.210904095399691 0.0 0.0
-1170.602974303848 -382.2921861645382 -764.4877119117849 4.657964171895362 0.0 0.0
-1046.807468892135 -290.33976928554205 -655.5912932081498 3.807576228628861 0.0 0.0
-937.1953958303043 -215.0127432643069 -559.9459429922217 3.0195357295511656 0.0 0.0
-842.2696507135063 -156.4212494106028 -475.76191377216594 2.335335630709924 0.0 0.0
-758.1656319962854 -112.43228395946525 -397.18567963892804 1.8549097046771053 0.0 0.0
-675.7834664573539 -77.76615874260608 -316.3900447506413 1.381918608073164 0.0 0.0
-600.3956167142078 -60.06074284998648 -240.09434471868752 1.5411892901832331 0.0 0.0
-489.3130688113486 -32.73065560880461 -162.3326735446537 4.944737120799374 0.0 0.0
-326.02170313420976 -6.625363627983486 -99.78095473831883 10.270596117222572 0.0 0.0
-171.83876840099538 -3.570177416918117 -52.62268374537403 10.187916480353529 0.0 0.0
-57.71304901245647 -8.242387737867624 -19.78663102509722 8.212360871456994 0.0 0.0
-14.904907017773978 -3.751608969259786 -5.5969547961101265 7.1407686569355455 0.0 0.0
SCALARS Strain float 6
LOOKUP_TABLE default
0.009476859071464543 -0.017033533434853934 0.0 -0.00041738427630806825 0.0 0.0
0.005921469012891451 -0.0009262665328282479 0.0 -0.0050898644218914406 0.0 0.0
0.0020610854416006318 -0.0006677850288628318 0.0 -0.0004883616640849413 0.0 0.0
0.001917144379520511 -0.000760099695838734 0.0 -5.390347144034835e-05 0.0 0.0
0.0024371229996483917 -0.0009569116749477697 0.0 2.9506669638905895e-05 0.0 0.0
0.003475947139511 -0.001671488044232799 0.0 8.029171062403288e-05 0.0 0.0
0.005118177724417399 -0.002969196106072906 0.0 9.40022392579633e-05 0.0 0.0
0.007349997772656382 -0.004815833315017449 0.0 9.89213992502295e-05 0.0 0.0
0.01022021877877639 -0.0072732355030744305 0.0 0.00010739520895751634 0.0 0.0
0.013783758528940294 -0.010360068234370457 0.0 0.00010926767284293059 0.0 0.0
0.01815434256114009 -0.014166844001222013 0.0 0.00014998726557737674 0.0 0.0
0.023545112385300403 -0.018906497126437972 0.0 0.00022759843540445064 0.0 0.0
0.030202769625109045 -0.024855010824242095 0.0 0.0002548244956038495 0.0 0.0
0.038345161051484965 -0.03225059187952389 0.0 0.00027899403943628016 0.0 0.0
0.04807207649404245 -0.04123506924780995 0.0 0.00023217798263244294 0.0 0.0
0.059200540191169285 -0.05166708472372031 0.0 8.508439814586418e-05 0.0 0.0
0.07114429700889002 -0.06299222891493177 0.0 -0.0001486805766904892 0.0 0.0
0.08289770849103588 -0.07423614387202787 0.0 -0.0003804336112221587 0.0 0.0
0.0931750580790489 -0.08413595819356813 0.0 -0.00045710618916109183 0.0 0.0
0.10057994787671545 -0.0913406420748845 0.0 -0.0004680875309719863 0.0 0.0
0.10338641716163832 -0.09416029972069137 0.0 3.1138286393783687e-16 0.0 0.0
0.10057994787670763 -0.09134064207487497 0.0 0.00046808753097648615 0.0 0.0
0.09317505807903205 -0.08413595819355243 0.0 0.00045710618916627605 0.0 0.0
0.08289770849101101 -0.07423614387200832 0.0 0.0003804336112257587 0.0 0.0
0.07114429700886145 -0.06299222891490827 0.0 0.00014868057669097405 0.0 0.0
0.05920054019114045 -0.05166708472369229 0.0 -8.508439814657607e-05 0.0 0.0
0.04807207649401311 -0.041235069247788275 0.0 -0.00023217798263237702 0.0 0.0
0.038345161051454066 -0.03225059187949638 0.0 -0.00027899403943811496 0.0 0.0
0.03020276962507741 -0.02485501082421735 0.0 -0.00025482449560456527 0.0 0.0
0.023545112385270746 -0.018906497126410623 0.0 -0.00022759843540455342 0.0 0.0
0.018154342561113736 -0.014166844001198463 0.0 -0.00014998726557956894 0.0 0.0
0.013783758528918447 -0.010360068234351816 0.0 -0.00010926767284193725 0.0 0.0
0.010220218778759107 -0.00727323550305916 0.0 -0.00010739520895824116 0.0 0.0
0.007349997772642395 -0.004815833315005783 0.0 -9.892139925080608e-05 0.0 0.0
0.005118177724407455 -0.002969196106063465 0.0 -9.400223925755131e-05 0.0 0.0
0.0034759471395052113 -0.0016714880442285553 0.0 -8.029171062424659e-05 0.0 0.0
0.0024371229996457745 -0.0009569116749468126 0.0 -2.950666963793146e-05 0.0 0.0
0.00191714437951952 -0.00076009969583922 0.0 5.390347144016901e-05 0.0 0.0
0.0020610854415992652 -0.0006677850288622497 0.0 0.0004883616640834467 0.0 0.0
0.0059214690128874484 -0.0009262665328271082 0.0 0.005089864421885505 0.0 0.0
0.009476859071458588 -0.017033533434834127 0.0 0.00041738427627709216 0.0 0.0
0.0062885893897516466 -0.01513892348923886 0.0 9.242755938574884e-06 0.0 0.0
0.00380087967263137 -0.0006519581108828604 0.0 -0.00391566053673227 0.0 0.0
0.0014529073706114617 -0.0005392779686361531 0.0 -0.0003342334305982726 0.0 0.0
0.0017281205978746566 -0.0007308123415777512 0.0 -0.00021218036493557977 0.0 0.0
0.002153089570306416 -0.0008892449117664939 0.0 -0.0001758702249917273 0.0 0.0
0.0030418396816224947 -0.0015073310562964634 0.0 -0.00018469694830828417 0.0 0.0
0.004514126861328064 -0.0027159670969733813 0.0 -0.0003258777346980239 0.0 0.0
0.00654460440064535 -0.004460367345255285 0.0 -0.0004767553637232973 0.0 0.0
0.009152444740271522 -0.006788406122060335 0.0 -0.000653561231126587 0.0 0.0
0.012370221786839023 -0.009709590343750516 0.0 -0.0008504566690613677 0.0 0.0
0.016288589390176484 -0.013304435101287789 0.0 -0.0010411228680857422 0.0 0.0
0.02109241374438933 -0.017765554896096537 0.0 -0.001225854741591355 0.0 0.0
0.027039010634374423 -0.02336553722836833 0.0 -0.0014823031042907721 0.0 0.0
0.03436060398873848 -0.03035987576323159 0.0 -0.0018372469981168525 0.0 0.0
0.04315956656745436 -0.03888454942745091 0.0 -0.002286132044824602 0.0 0.0
0.05327879666818494 -0.048810289724494256 0.0 -0.002815083749508155 0.0 0.0
0.06418170430967218 -0.05961367583043517 0.0 -0.003298960448502153 0.0 0.0
0.0749583071344779 -0.07037352863095586 0.0 -0.003485025147917075 0.0 0.0
0.08442177164486513 -0.07988397104085629 0.0 -0.0031202688766821113 0.0 0.0
0.09115335284012818 -0.08677161428020655 0.0 -0.002269464688075958 0.0 0.0
0.09364326946319017 -0.08949663352097162 0.0 3.028827189055505e-15 0.0 0.0
0.09115335284012116 -0.0867716142802007 0.0 0.0022694646880854446 0.0 0.0
0.08442177164485039 -0.07988397104084084 0.0 0.003120268876693482 0.0 0.0
0.07495830713445668 -0.07037352863093603 0.0 0.003485025147923496 0.0 0.0
0.06418170430964741 -0.05961367583041288 0.0 0.003298960448503209 0.0 0.0
0.0532787966681591 -0.048810289724467736 0.0 0.002815083749506272 0.0 0.0
0.04315956656742778 -0.038884549427428715 0.0 0.002286132044823636 0.0 0.0
0.03436060398871092 -0.030359875763206513 0.0 0.0018372469981159827 0.0 0.0
0.02703901063434644 -0.023365537228343804 0.0 0.0014823031042892696 0.0 0.0
0.021092413744362593 -0.017765554896070925 0.0 0.0012258547415901159 0.0 0.0
0.01628858939015265 -0.013304435101265688 0.0 0.0010411228680822227 0.0 0.0
0.01237022178681909 -0.009709590343732507 0.0 0.0008504566690605116 0.0 0.0
0.009152444740255571 -0.006788406122046349 0.0 0.0006535612311253248 0.0 0.0
0.006544604400632935 -0.004460367345244537 0.0 0.000476755363722681 0.0 0.0
0.004514126861319482 -0.0027159670969650173 0.0 0.0003258777346971945 0.0 0.0
0.0030418396816177724 -0.001507331056293362 0.0 0.00018469694830722654 0.0 0.0
0.0021530895703044317 -0.0008892449117658013 0.0 0.0001758702249918337 0.0 0.0
0.0017281205978740164 -0.000730812341578161 0.0 0.00021218036493546403 0.0 0.0
0.0014529073706114376 -0.0005392779686361555 0.0 0.00033423343059681566 0.0 0.0
0.0038008796726270513 -0.0006519581108812635 0.0 0.003915660536725043 0.0 0.0
0.006288589389742876 -0.01513892348921891 0.0 -9.242755961980206e-06 0.0 0.0
0.0044646572218737315 -0.011891432687698007 0.0 -0.0022525597931424652 0.0 0.0
0.0026136771004019706 -0.000319979302572917 0.0 -0.0037711286702820142 0.0 0.0
0.0010320739503360528 -0.0003189806078657888 0.0 -0.0003259802164363715 0.0 0.0
0.0014828941337426654 -0.0006415093872465413 0.0 -0.0004632378115760427 0.0 0.0
0.0018962268803876903 -0.0007765251811221586 0.0 -0.00046897482512622043 0.0 0.0
0.002623886357727415 -0.0012045566329313012 0.0 -0.0004386647696125125 0.0 0.0
0.00390402131491205 -0.0022101104695523 0.0 -0.0006868028537672806 0.0 0.0
0.0057289384636199665 -0.003754818875032824 0.0 -0.0009999411642234455 0.0 0.0
0.008069582841444782 -0.0058188141679049515 0.0 -0.0013635946731733435 0.0 0.0
0.010942965182990321 -0.008409607384901475 0.0 -0.0017592810904065882 0.0 0.0
0.014417983958092469 -0.011582438148424488 0.0 -0.002162496595682833 0.0 0.0
0.018653137795077435 -0.015497432231642443 0.0 -0.0025681531699137477 0.0 0.0
0.02388742629101731 -0.020406794970419997 0.0 -0.003036033927810073 0.0 0.0
0.030370513759448554 -0.02658549572004127 0.0 -0.003675104480896069 0.0 0.0
0.03821910927720239 -0.03417895545085091 0.0 -0.004506853017004156 0.0 0.0
0.04729757838111552 -0.04307725993966076 0.0 -0.005452931250109764 0.0 0.0
0.05714883606355373 -0.052828006819205 0.0 -0.006285491354478165 0.0 0.0
0.06696991754444687 -0.06262513156157751 0.0 -0.006585630266276278 0.0 0.0
0.07564680793834458 -0.07136237048178407 0.0 -0.005951379954719707 0.0 0.0
0.0818580329065827 -0.07769265237667543 0.0 -0.004274496386222618 0.0 0.0
0.08417428899784947 -0.08031238934622695 0.0 7.335495058602426e-15 0.0 0.0
0.08185803290657623 -0.07769265237667244 0.0 0.004274496386240124 0.0 0.0
0.07564680793833138 -0.07136237048176987 0.0 0.005951379954738163 0.0 0.0
0.06696991754442844 -0.06262513156156173 0.0 0.006585630266287643 0.0 0.0
0.05714883606353227 -0.052828006819186375 0.0 0.006285491354480659 0.0 0.0
0.04729757838109241 -0.043077259939638686 0.0 0.005452931250109478 0.0 0.0
0.0382191092771786 -0.03417895545083244 0.0 0.004506853017001979 0.0 0.0
0.03037051375942427 -0.026585495720019562 0.0 0.003675104480894271 0.0 0.0
0.02388742629099268 -0.020406794970397987 0.0 0.0030360339278075145 0.0 0.0
0.018653137795053593 -0.015497432231621932 0.0 0.0025681531699103585 0.0 0.0
0.014417983958071288 -0.011582438148406402 0.0 0.002162496595678612 0.0 0.0
0.010942965182972646 -0.008409607384884523 0.0 0.0017592810904027353 0.0 0.0
0.00806958284143039 -0.005818814167892492 0.0 0.001363594673170922 0.0 0.0
0.005728938463608855 -0.0037548188750241305 0.0 0.0009999411642220499 0.0 0.0
0.0039040213149044867 -0.0022101104695458544 0.0 0.0006868028537659202 0.0 0.0
0.0026238863577235185 -0.0012045566329290619 0.0 0.0004386647696114366 0.0 0.0
0.001896226880386227 -0.0007765251811218574 0.0 0.000468974825125903 0.0 0.0
0.001482894133742197 -0.0006415093872463328 0.0 0.00046323781157555364 0.0 0.0
0.0010320739503362636 -0.00031898060786628114 0.0 0.0003259802164349289 0.0 0.0
0.002613677100397983 -0.0003199793025707519 0.0 0.0037711286702723423 0.0 0.0
0.0044646572218651585 -0.011891432687679027 0.0 0.0022525597931269833 0.0 0.0
0.003285791315061371 -0.009483042827246163 0.0 -0.002658990341726896 0.0 0.0
0.0018748892949448934 -0.0002646744877535821 0.0 -0.0034998515178609846 0.0 0.0
0.0007388844846801741 -0.00017420918562234417 0.0 -0.0006134492056293132 0.0 0.0
0.0012284613292309595 -0.0005144997308064988 0.0 -0.0006900274387677657 0.0 0.0
0.0016499143792269879 -0.0006860846052099148 0.0 -0.0007673876175199767 0.0 0.0
0.0022390762146704663 -0.00097129887854703 0.0 -0.0007176632572171822 0.0 0.0
0.0033014059168326366 -0.0017263685058257546 0.0 -0.00093016965580867 0.0 0.0
0.004904783128692801 -0.0030583574019146602 0.0 -0.0013965686194233877 0.0 0.0
0.006977199485451738 -0.004855710994844607 0.0 -0.0019069174427653363 0.0 0.0
0.009508196154969818 -0.007115300104938452 0.0 -0.002461401777348724 0.0 0.0
0.012546849409472843 -0.0098728316784658 0.0 -0.003028511986513285 0.0 0.0
0.01622607009170332 -0.013256020954172727 0.0 -0.003603756269394671 0.0 0.0
0.02076302530365178 -0.017488980859140704 0.0 -0.004249872766409947 0.0 0.0
0.02639545253757289 -0.022840901666514733 0.0 -0.005083452938975613 0.0 0.0
0.03326419957004125 -0.029474927464601453 0.0 -0.006171194810086115 0.0 0.0
0.04128041623675347 -0.03731708483704818 0.0 -0.007428609741506265 0.0 0.0
0.0500610467100016 -0.045994478215706895 0.0 -0.008538561664118424 0.0 0.0
0.05891731659584329 -0.05482383104384093 0.0 -0.008973664471339723 0.0 0.0
0.06684879368080461 -0.0628059390430925 0.0 -0.008205259829861917 0.0 0.0
0.07264885085526677 -0.06870891322987407 0.0 -0.005807663103979752 0.0 0.0
0.07485859568390721 -0.07135086412038175 0.0 1.0446287931897835e-14 0.0 0.0
0.0726488508552608 -0.06870891322986886 0.0 0.00580766310400364 0.0 0.0
0.06684879368079288 -0.06280593904308136 0.0 0.00820525982988441 0.0 0.0
0.05891731659582709 -0.05482383104382848 0.0 0.008973664471354195 0.0 0.0
0.05006104670998292 -0.04599447821569164 0.0 0.008538561664122256 0.0 0.0
0.041280416236732946 -0.037317084837030445 0.0 0.00742860974150524 0.0 0.0
0.033264199570020116 -0.029474927464585354 0.0 0.006171194810085346 0.0 0.0
0.026395452537551833 -0.02284090166649591 0.0 0.0050834529389748445 0.0 0.0
0.020763025303630396 -0.017488980859122087 0.0 0.004249872766406629 0.0 0.0
0.016226070091682455 -0.013256020954155456 0.0 0.003603756269389073 0.0 0.0
0.012546849409454226 -0.009872831678449476 0.0 0.0030285119865078834 0.0 0.0
0.00950819615495427 -0.0071153001049237274 0.0 0.002461401777343537 0.0 0.0
0.006977199485439116 -0.0048557109948330285 0.0 0.0019069174427615832 0.0 0.0
0.004904783128683236 -0.003058357401906919 0.0 0.0013965686194200293 0.0 0.0
0.003301405916826462 -0.0017263685058211636 0.0 0.0009301696558065755 0.0 0.0
0.00223907621466758 -0.0009712988785442584 0.0 0.0007176632572165981 0.0 0.0
0.0016499143792258902 -0.0006860846052099244 0.0 0.0007673876175194337 0.0 0.0
0.0012284613292305414 -0.0005144997308060466 0.0 0.0006900274387669803 0.0 0.0
0.0007388844846803399 -0.00017420918562285447 0.0 0.0006134492056277557 0.0 0.0
0.0018748892949412713 -0.0002646744877516501 0.0 0.0034998515178515993 0.0 0.0
0.0032857913150537038 -0.009483042827229499 0.0 0.002658990341715566 0.0 0.0
0.002440783266853556 -0.007564216755436287 0.0 -0.0024464296539313053 0.0 0.0
0.0013696668220038496 -0.00028284135201690785 0.0 -0.0031996527550053632 0.0 0.0
0.000531523226713702 -9.467230947089867e-05 0.0 -0.0009761806671969066 0.0 0.0
0.0009856633061537255 -0.0003849721067425264 0.0 -0.0009395315584991421 0.0 0.0
0.0014025534970561013 -0.0005889679447881308 0.0 -0.0010452134659227712 0.0 0.0
0.00189283288107427 -0.0008024314842912106 0.0 -0.001025476922027911 0.0 0.0
0.0027290980693291038 -0.0013131672627442934 0.0 -0.0011350150441167902 0.0 0.0
0.004077145973686938 -0.002371025560196598 0.0 -0.0016207094716358984 0.0 0.0
0.005880846458601857 -0.0039084145430484185 0.0 -0.0022769875268560053 0.0 0.0
0.008070728381397678 -0.005836513147008566 0.0 -0.0029501543521298877 0.0 0.0
0.010681182052757948 -0.008184014335362798 0.0 -0.0036380756806807368 0.0 0.0
0.013816132984035084 -0.011046679366875742 0.0 -0.004331670108594471 0.0 0.0
0.017664244582314043 -0.014616696867564123 0.0 -0.005099928584030201 0.0 0.0
0.022454224487327964 -0.01914448361782802 0.0 -0.006065652905684776 0.0 0.0
0.02832911772807243 -0.02480258533852625 0.0 -0.0073072901624593135 0.0 0.0
0.035246988671116634 -0.03155917724263491 0.0 -0.008733449533255616 0.0 0.0
0.04292742880375068 -0.03912999682155865 0.0 -0.01002336702550985 0.0 0.0
0.050800757238041 -0.04696315840771714 0.0 -0.010622250409241536 0.0 0.0
0.05800714647463633 -0.05420591096378483 0.0 -0.009834993215014028 0.0 0.0
0.06346564562380268 -0.059766714596684825 0.0 -0.006984915927631254 0.0 0.0
0.0656125076839603 -0.06250862869549641 0.0 1.1644331332494318e-14 0.0 0.0
0.06346564562379692 -0.05976671459667701 0.0 0.006984915927656706 0.0 0.0
0.05800714647462561 -0.05420591096377647 0.0 0.009834993215038825 0.0 0.0
0.05080075723802705 -0.04696315840770337 0.0 0.010622250409256996 0.0 0.0
0.042927428803734465 -0.03912999682154416 0.0 0.010023367025514426 0.0 0.0
0.0352469886710989 -0.03155917724261893 0.0 0.008733449533252885 0.0 0.0
0.02832911772805428 -0.02480258533851097 0.0 0.00730729016245776 0.0 0.0
0.022454224487309687 -0.019144483617812295 0.0 0.0060656529056828164 0.0 0.0
0.01766424458229573 -0.014616696867548178 0.0 0.005099928584025748 0.0 0.0
0.013816132984017309 -0.01104667936685929 0.0 0.004331670108588476 0.0 0.0
0.010681182052742067 -0.008184014335347841 0.0 0.003638075680673418 0.0 0.0
0.008070728381384258 -0.0058365131469963125 0.0 0.002950154352123827 0.0 0.0
0.005880846458590783 -0.0039084145430375436 0.0 0.00227698752685193 0.0 0.0
0.004077145973678858 -0.0023710255601910855 0.0 0.0016207094716317596 0.0 0.0
0.0027290980693243454 -0.0013131672627410289 0.0 0.0011350150441147113 0.0 0.0
0.0018928328810721411 -0.0008024314842896415 0.0 0.0010254769220268206 0.0 0.0
0.0014025534970550483 -0.0005889679447880334 0.0 0.00104521346592141 0.0 0.0
0.0009856633061532951 -0.00038497210674254127 0.0 0.000939531558497758 0.0 0.0
0.0005315232267137597 -9.467230947137977e-05 0.0 0.0009761806671954672 0.0 0.0
0.0013696668220008442 -0.00028284135201539685 0.0 0.003199652754997374 0.0 0.0
0.002440783266847411 -0.007564216755422171 0.0 0.0024464296539232866 0.0 0.0
0.0018066540080740648 -0.005988726745454425 0.0 -0.002105558774664979 0.0 0.0
0.0010027263898928713 -0.0003135872551071835 0.0 -0.002901133712632824 0.0 0.0
0.0003767134995246782 -5.5428609710070774e-05 0.0 -0.0013193468145081073 0.0 0.0
0.0007602283821212105 -0.0002677897986336913 0.0 -0.0011998305591856232 0.0 0.0
0.001152135116838797 -0.0004791897708931996 0.0 -0.001298554150531918 0.0 0.0
0.0015702105713069972 -0.0006657571591458963 0.0 -0.0013271211598252495 0.0 0.0
0.0022107620953631326 -0.0009976050288373537 0.0 -0.001381663423609758 0.0 0.0
0.0032717844521354296 -0.0017419652963210374 0.0 -0.0017344658461327968 0.0 0.0
0.004777414129216862 -0.002979891499870305 0.0 -0.002434085394147883 0.0 0.0
0.006635860099410071 -0.004583691483066693 0.0 -0.0032152363693079013 0.0 0.0
0.008824387790595736 -0.0065251303313579 0.0 -0.003978607269501211 0.0 0.0
0.011427907537655872 -0.008879168121309068 0.0 -0.004748374328660874 0.0 0.0
0.01460339444045113 -0.011799603280042734 0.0 -0.005579748177428408 0.0 0.0
0.018551871867735478 -0.01551053012420497 0.0 -0.006599456075093324 0.0 0.0
0.02342969036714173 -0.02018603190531846 0.0 -0.007900722343434386 0.0 0.0
0.02923708636369405 -0.025838043164448994 0.0 -0.009391861254302284 0.0 0.0
0.0357696080251437 -0.03226236937703532 0.0 -0.010755606441616772 0.0 0.0
0.042613537658595706 -0.039048245026234336 0.0 -0.011473672678194628 0.0 0.0
0.04909070738275222 -0.0455379351558073 0.0 -0.010804515141433397 0.0 0.0
0.054247434548852565 -0.050801713903464 0.0 -0.007830453067300857 0.0 0.0
0.05636101604066905 -0.053710545296416966 0.0 1.1715888675878361e-14 0.0 0.0
0.05424743454884721 -0.050801713903457814 0.0 0.007830453067327417 0.0 0.0
0.04909070738274275 -0.04553793515579911 0.0 0.010804515141459184 0.0 0.0
0.042613537658583764 -0.03904824502622409 0.0 0.011473672678210365 0.0 0.0
0.03576960802512982 -0.032262369377022454 0.0 0.010755606441620316 0.0 0.0
0.029237086363678853 -0.025838043164435772 0.0 0.009391861254300114 0.0 0.0
0.023429690367126537 -0.02018603190530701 0.0 0.007900722343431915 0.0 0.0
0.01855187186772037 -0.015510530124190756 0.0 0.006599456075091142 0.0 0.0
0.014603394440436016 -0.011799603280029818 0.0 0.00557974817742416 0.0 0.0
0.011427907537641026 -0.00887916812129431 0.0 0.004748374328654848 0.0 0.0
0.00882438779058242 -0.00652513033134791 0.0 0.003978607269495003 0.0 0.0
0.006635860099398957 -0.004583691483056631 0.0 0.0032152363693006823 0.0 0.0
0.004777414129207658 -0.0029798914998614345 0.0 0.002434085394143334 0.0 0.0
0.0032717844521289183 -0.0017419652963182658 0.0 0.0017344658461295628 0.0 0.0
0.0022107620953596367 -0.0009976050288347782 0.0 0.0013816634236086254 0.0 0.0
0.0015702105713054685 -0.0006657571591452087 0.0 0.0013271211598238778 0.0 0.0
0.0011521351168379743 -0.00047918977089248546 0.0 0.0012985541505300255 0.0 0.0
0.0007602283821208793 -0.00026778979863352617 0.0 0.001199830559183389 0.0 0.0
0.0003767134995246426 -5.542860971018017e-05 0.0 0.0013193468145059882 0.0 0.0
0.0010027263898903659 -0.0003135872551061485 0.0 0.00290113371262637 0.0 0.0
0.0018066540080691263 -0.005988726745442861 0.0 0.002105558774659679 0.0 0.0
0.0013262032260255977 -0.00468171455642081 0.0 -0.0017879360762912393 0.0 0.0
0.0007273793472182993 -0.0003458739518416206 0.0 -0.002633211277495297 0.0 0.0
0.000251582276759992 -3.379588120108264e-05 0.0 -0.0016064050826087176 0.0 0.0
0.0005518232864578596 -0.0001658779809443808 0.0 -0.0014496217175212992 0.0 0.0
0.0008983353983419281 -0.0003611243088456418 0.0 -0.0015252311352242094 0.0 0.0
0.001253643514371194 -0.0005382468102836726 0.0 -0.0016014044215831814 0.0 0.0
0.0017390054903675253 -0.0007534814763673423 0.0 -0.0016369616182537517 0.0 0.0
0.00252499078229021 -0.0012294342358871052 0.0 -0.0018571511083815243 0.0 0.0
0.0036931477664472303 -0.0021095149667791626 0.0 -0.0024111915961063566 0.0 0.0
0.0052018021614695315 -0.003366752607720022 0.0 -0.0032142157570279675 0.0 0.0
0.00698150195183948 -0.004910062512442354 0.0 -0.004033334958180076 0.0 0.0
0.009064660517928114 -0.006764481824809651 0.0 -0.004837973454105971 0.0 0.0
0.011582791975570456 -0.009050815679385498 0.0 -0.00568237939590767 0.0 0.0
0.01470782777049074 -0.011959055829542256 0.0 -0.006688322314230496 0.0 0.0
0.01858615927302732 -0.015651118712750763 0.0 -0.00793557231884626 0.0 0.0
0.023261350121347522 -0.020182174945517876 0.0 -0.00938503569849887 0.0 0.0
0.02861861378663246 -0.02542451061130508 0.0 -0.010743463059716562 0.0 0.0
0.03437351773710939 -0.031102436031580957 0.0 -0.011530088014814855 0.0 0.0
0.04006346479615443 -0.03677757629581545 0.0 -0.011067184392838401 0.0 0.0
0.04492284990710516 -0.041742421407079164 0.0 -0.008319715584653681 0.0 0.0
0.047024281635267666 -0.04488359931337893 0.0 1.0090019098019098e-14 0.0 0.0
0.044922849907100486 -0.04174242140707586 0.0 0.008319715584678445 0.0 0.0
0.04006346479614632 -0.03677757629580825 0.0 0.011067184392863852 0.0 0.0
0.03437351773709937 -0.031102436031573075 0.0 0.011530088014829949 0.0 0.0
0.028618613786620995 -0.025424510611294773 0.0 0.010743463059718957 0.0 0.0
0.023261350121335102 -0.020182174945506885 0.0 0.00938503569849475 0.0 0.0
0.01858615927301499 -0.015651118712739952 0.0 0.007935572318843573 0.0 0.0
0.014707827770478864 -0.011959055829530803 0.0 0.0066883223142286535 0.0 0.0
0.01158279197555861 -0.009050815679376956 0.0 0.005682379395904027 0.0 0.0
0.009064660517916472 -0.006764481824796666 0.0 0.004837973454099445 0.0 0.0
0.006981501951828708 -0.004910062512433884 0.0 0.00403333495817268 0.0 0.0
0.005201802161460594 -0.00336675260771095 0.0 0.003214215757020786 0.0 0.0
0.0036931477664402437 -0.002109514966773359 0.0 0.0024111915961019773 0.0 0.0
0.0025249907822854824 -0.0012294342358847052 0.0 0.001857151108379404 0.0 0.0
0.0017390054903652513 -0.000753481476366404 0.0 0.0016369616182528228 0.0 0.0
0.0012536435143701429 -0.0005382468102830715 0.0 0.0016014044215817644 0.0 0.0
0.0008983353983412609 -0.00036112430884530604 0.0 0.0015252311352219592 0.0 0.0
0.0005518232864576714 -0.0001658779809444052 0.0 0.001449621717519171 0.0 0.0
0.0002515822767598621 -3.379588120101802e-05 0.0 0.0016064050826058794 0.0 0.0
0.0007273793472163649 -0.00034587395184096804 0.0 0.0026332112774896466 0.0 0.0
0.001326203226022109 -0.004681714556411739 0.0 0.0017879360762884842 0.0 0.0
0.0009586132566402384 -0.0036101619054749786 0.0 -0.0015606124564591741 0.0 0.0
0.0005149140818416266 -0.0003798706689163512 0.0 -0.002401163463832242 0.0 0.0
0.00014272581129422146 -1.4794826173021594e-05 0.0 -0.0018314744272575015 0.0 0.0
0.00035728242260068546 -7.714901190935095e-05 0.0 -0.0016704746001039847 0.0 0.0
0.0006438124003648569 -0.00024204280755882156 0.0 -0.0017222617018692586 0.0 0.0
0.0009382527502762238 -0.00040055902726637014 0.0 -0.0018250130429568823 0.0 0.0
0.0012964816904141702 -0.0005550322442898293 0.0 -0.0018892548954202817 0.0 0.0
0.0018410662798978143 -0.0008328550371450514 0.0 -0.002007389485751062 0.0 0.0
0.0026684083534723175 -0.0013663973908616264 0.0 -0.00233540978491343 0.0 0.0
0.003789119645006489 -0.002229751282485222 0.0 -0.002970335061744558 0.0 0.0
0.005149442818890178 -0.003358680822021727 0.0 -0.0037696715562219995 0.0 0.0
0.006728939935304842 -0.004724101011382372 0.0 -0.0045663306875545 0.0 0.0
0.008609169291278548 -0.006391549072223365 0.0 -0.00538654733243169 0.0 0.0
0.010927842801604946 -0.008514800708472381 0.0 -0.006314179422111291 0.0 0.0
0.013818571277970607 -0.01123464940308608 0.0 -0.00743249142618746 0.0 0.0
0.017350971072526127 -0.014627459849176454 0.0 -0.008708446492551019 0.0 0.0
0.0214890582493943 -0.018652164208233225 0.0 -0.009964667141694628 0.0 0.0
0.02609068912390867 -0.023159469647656836 0.0 -0.01076463518547297 0.0 0.0
0.030906945844452263 -0.027916112614686097 0.0 -0.010565021363730836 0.0 0.0
0.03541947423206699 -0.032516440170714256 0.0 -0.008398429472924716 0.0 0.0
0.037509259958364884 -0.03595247476147716 0.0 8.555222502648618e-15 0.0 0.0
0.035419474232063576 -0.03251644017071217 0.0 0.008398429472947189 0.0 0.0
0.03090694584444577 -0.027916112614680112 0.0 0.010565021363754623 0.0 0.0
0.02609068912390052 -0.023159469647648586 0.0 0.010764635185485854 0.0 0.0
0.021489058249385157 -0.018652164208228263 0.0 0.009964667141694809 0.0 0.0
0.017350971072516427 -0.014627459849167697 0.0 0.008708446492547465 0.0 0.0
0.013818571277961522 -0.011234649403076296 0.0 0.007432491426184802 0.0 0.0
0.010927842801596508 -0.008514800708465952 0.0 0.006314179422108912 0.0 0.0
0.008609169291270096 -0.0063915490722176935 0.0 0.005386547332428531 0.0 0.0
0.006728939935296107 -0.004724101011375033 0.0 0.004566330687548826 0.0 0.0
0.005149442818882048 -0.0033586808220152234 0.0 0.003769671556214784 0.0 0.0
0.0037891196450001666 -0.0022297512824788167 0.0 0.0029703350617389756 0.0 0.0
0.0026684083534674347 -0.0013663973908571295 0.0 0.002335409784910409 0.0 0.0
0.0018410662798945552 -0.0008328550371425236 0.0 0.0020073894857498336 0.0 0.0
0.001296481690412571 -0.0005550322442891239 0.0 0.0018892548954192409 0.0 0.0
0.0009382527502754122 -0.0004005590272653288 0.0 0.001825013042955079 0.0 0.0
0.0006438124003643578 -0.00024204280755909786 0.0 0.001722261701867131 0.0 0.0
0.00035728242260032274 -7.71490119094573e-05 0.0 0.0016704746001017564 0.0 0.0
0.00014272581129392667 -1.4794826172821862e-05 0.0 0.0018314744272549615 0.0 0.0
0.0005149140818404359 -0.0003798706689163051 0.0 0.002401163463828199 0.0 0.0
0.0009586132566381893 -0.003610161905468244 0.0 0.0015606124564573375 0.0 0.0
0.000692105467237383 -0.00278515572632564 0.0 -0.0014536022066917935 0.0 0.0
0.000351553717085303 -0.0004088231889975898 0.0 -0.002219660861871225 0.0 0.0
3.9940698305582155e-05 7.5817860447541666e-06 0.0 -0.0019959831848397826 0.0 0.0
0.00017461108212973137 1.2416175971160417e-06 0.0 -0.0018507644511300768 0.0 0.0
0.0003913696353166287 -0.0001250762132551812 0.0 -0.0018821093573394162 0.0 0.0
0.0006134093298164319 -0.0002526768641002273 0.0 -0.0019945654083576053 0.0 0.0
0.000865384742465153 -0.00037248764267424695 0.0 -0.002108355934414804 0.0 0.0
0.0012147855452939577 -0.0005273216893178714 0.0 -0.0021928720676627324 0.0 0.0
0.0017251874395411658 -0.0008002194124913419 0.0 -0.002344060087587353 0.0 0.0
0.0024392166453813687 -0.0012660909342816797 0.0 -0.002653580648895561 0.0 0.0
0.003349870285636892 -0.001940833933970308 0.0 -0.003231623606381173 0.0 0.0
0.004421557133978158 -0.002809350348211464 0.0 -0.003908835307805532 0.0 0.0
0.0056808694884470665 -0.0038672100737615006 0.0 -0.004656189001832571 0.0 0.0
0.007219472641168758 -0.0052268252550255944 0.0 -0.005477652492147923 0.0 0.0
0.009141053399248988 -0.006989797267384981 0.0 -0.006398834273603131 0.0 0.0
0.01152496004037768 -0.009238757743908414 0.0 -0.007435080972694877 0.0 0.0
0.014414934063879073 -0.01200381935733028 0.0 -0.008497567633881233 0.0 0.0
0.017790899623712535 -0.015281978196185063 0.0 -0.009271084410333098 0.0 0.0
0.0215975894764018 -0.01898866780937363 0.0 -0.009257878579086007 0.0 0.0
0.025655181660012308 -0.02305632523687942 0.0 -0.007908549899768231 0.0 0.0
0.027706790912190006 -0.026823705115102552 0.0 7.480127628411992e-15 0.0 0.0
0.025655181660010056 -0.023056325236877354 0.0 0.00790854989978753 0.0 0.0
0.021597589476397196 -0.018988667809370138 0.0 0.009257878579105762 0.0 0.0
0.017790899623706512 -0.015281978196180396 0.0 0.00927108441034336 0.0 0.0
0.014414934063872854 -0.01200381935732763 0.0 0.008497567633880895 0.0 0.0
0.011524960040371393 -0.009238757743902815 0.0 0.007435080972691077 0.0 0.0
0.009141053399242965 -0.006989797267378629 0.0 0.0063988342736008815 0.0 0.0
0.0072194726411634064 -0.00522682525502347 0.0 0.005477652492146337 0.0 0.0
0.005680869488441601 -0.003867210073757463 0.0 0.004656189001830228 0.0 0.0
0.004421557133972686 -0.0028093503482084776 0.0 0.003908835307800235 0.0 0.0
0.003349870285631724 -0.0019408339339669666 0.0 0.0032316236063756544 0.0 0.0
0.0024392166453774096 -0.0012660909342779682 0.0 0.0026535806488922732 0.0 0.0
0.0017251874395383606 -0.0008002194124898701 0.0 0.002344060087585873 0.0 0.0
0.0012147855452920055 -0.0005273216893160394 0.0 0.002192872067661612 0.0 0.0
0.000865384742464182 -0.0003724876426725356 0.0 0.002108355934413539 0.0 0.0
0.0006134093298159396 -0.0002526768640988963 0.0 0.0019945654083554486 0.0 0.0
0.00039136963531640726 -0.0001250762132557182 0.0 0.0018821093573371784 0.0 0.0
0.00017461108212963225 1.24161759696773e-06 0.0 0.001850764451127708 0.0 0.0
3.9940698305478736e-05 7.5817860453926354e-06 0.0 0.001995983184837337 0.0 0.0
0.00035155371708443193 -0.00040882318899792137 0.0 0.002219660861868708 0.0 0.0
0.0006921054672357564 -0.002785155726321033 0.0 0.0014536022066908008 0.0 0.0
0.0005083327024458054 -0.002180652550895121 0.0 -0.0014062642396267808 0.0 0.0
0.00023099008183976861 -0.0004233297762579192 0.0 -0.0020912076673481102 0.0 0.0
-5.60217229515837e-05 3.228209634792023e-05 0.0 -0.002102040545760938 0.0 0.0
1.6446626316908995e-06 7.217323082595595e-05 0.0 -0.0019839263343817983 0.0 0.0
0.00014284396155852193 -1.1132055644230717e-05 0.0 -0.0019978095798000067 0.0 0.0
0.00028447128039151633 -0.00010138232751562467 0.0 -0.0021062247248848443 0.0 0.0
0.00042770977420356245 -0.0001801644849325858 0.0 -0.002244041591829349 0.0 0.0
0.0006052670785465085 -0.00026220145258669815 0.0 -0.0023597791740052644 0.0 0.0
0.0008572989873679423 -0.000375859018935411 0.0 -0.0024346645575075232 0.0 0.0
0.0011946149941452222 -0.0005547959996115836 0.0 -0.0025269951011778523 0.0 0.0
0.00163166015791661 -0.0008262270649019711 0.0 -0.002772496364940072 0.0 0.0
0.0021671139665350417 -0.0012054318878271504 0.0 -0.0031898207536903245 0.0 0.0
0.0027984665660929393 -0.0016712616105471424 0.0 -0.003723704586620119 0.0 0.0
0.003576573113492312 -0.002287926100155951 0.0 -0.0043693071664823585 0.0 0.0
0.004553174319372626 -0.0031066863175123363 0.0 -0.005132157471719128 0.0 0.0
0.005793354542617086 -0.0041903169066508875 0.0 -0.006029189745103571 0.0 0.0
0.007401172793395872 -0.005648968174716224 0.0 -0.0070019329593673 0.0 0.0
0.009510253231487126 -0.007634248045709991 0.0 -0.007803794395113758 0.0 0.0
0.012184500685024455 -0.010208358440585234 0.0 -0.007901011395133108 0.0 0.0
0.015554376804151154 -0.013415320870492492 0.0 -0.006891014572277739 0.0 0.0
0.01744737576526728 -0.01742451399268127 0.0 5.21024196009634e-15 0.0 0.0
0.01555437680415021 -0.013415320870491763 0.0 0.0068910145722933525 0.0 0.0
0.012184500685021585 -0.010208358440585187 0.0 0.007901011395149548 0.0 0.0
0.009510253231483417 -0.007634248045705406 0.0 0.007803794395119884 0.0 0.0
0.007401172793392571 -0.005648968174715087 0.0 0.007001932959367128 0.0 0.0
0.005793354542614203 -0.004190316906646969 0.0 0.006029189745099686 0.0 0.0
0.004553174319369967 -0.0031066863175093873 0.0 0.005132157471718428 0.0 0.0
0.003576573113490421 -0.0022879261001561976 0.0 0.004369307166481269 0.0 0.0
0.0027984665660909618 -0.0016712616105445076 0.0 0.0037237045866182804 0.0 0.0
0.002167113966532677 -0.0012054318878240281 0.0 0.0031898207536870797 0.0 0.0
0.0016316601579147315 -0.0008262270649027269 0.0 0.002772496364936024 0.0 0.0
0.0011946149941438693 -0.000554795999609895 0.0 0.0025269951011751613 0.0 0.0
0.0008572989873668294 -0.0003758590189364797 0.0 0.0024346645575066047 0.0 0.0
0.0006052670785457277 -0.00026220145258541987 0.0 0.0023597791740037556 0.0 0.0
0.00042770977420325155 -0.00018016448493082286 0.0 0.0022440415918276624 0.0 0.0
0.0002844712803913636 -0.00010138232751533225 0.0 0.0021062247248826798 0.0 0.0
0.00014284396155857558 -1.1132055645074998e-05 0.0 0.0019978095797971392 0.0 0.0
1.6446626318474295e-06 7.217323082571088e-05 0.0 0.0019839263343793584 0.0 0.0
-5.60217229516165e-05 3.228209634853332e-05 0.0 0.002102040545758638 0.0 0.0
0.000230990081839408 -0.00042332977625785505 0.0 0.0020912076673463087 0.0 0.0
0.0005083327024451786 -0.0021806525508922796 0.0 0.0014062642396261498 0.0 0.0
0.000380802443560573 -0.0017241756534206497 0.0 -0.0013477018291301929 0.0 0.0
0.00014091201987217474 -0.00041573116016747837 0.0 -0.001982029917074968 0.0 0.0
-0.00014471554335985872 5.6358517160054816e-05 0.0 -0.002154982886768219 0.0 0.0
-0.0001623476065369347 0.00013793437712614345 0.0 -0.002066150925113572 0.0 0.0
-0.0001003640252387841 9.855339359669032e-05 0.0 -0.0020640534966471133 0.0 0.0
-4.533916288806927e-05 5.012409847024194e-05 0.0 -0.002156479204319641 0.0 0.0
-1.4760485743835143e-05 1.5686038626500648e-05 0.0 -0.0022950375097437062 0.0 0.0
-2.528934514285007e-06 2.6636105785083513e-06 0.0 -0.002421969284755686 0.0 0.0
7.146968191551456e-07 -9.262976757024953e-07 0.0 -0.0024832892984025905 0.0 0.0
1.0192558226740508e-06 -7.416416228162774e-07 0.0 -0.0025543305313092063 0.0 0.0
6.412139032087674e-07 -4.3941622774985124e-07 0.0 -0.0026312887093958627 0.0 0.0
-4.908930344837818e-07 4.832952268761103e-07 0.0 -0.0028851474829437052 0.0 0.0
-4.199227370774421e-06 3.346086969620502e-06 0.0 -0.0032568029510185964 0.0 0.0
-9.856087109508173e-06 8.350647944546771e-06 0.0 -0.0037784923363760364 0.0 0.0
-2.2416705544682286e-06 6.901007171592063e-06 0.0 -0.0044919646069107545 0.0 0.0
8.112551408478161e-05 -4.20105991545955e-05 0.0 -0.00540378617517613 0.0 0.0
0.00040482699948482363 -0.00028421377178646987 0.0 -0.006484839496263585 0.0 0.0
0.0012417958686595514 -0.0009453771062056669 0.0 -0.007617066064366729 0.0 0.0
0.0028214944875766513 -0.0023123910309180346 0.0 -0.008534868455744919 0.0 0.0
0.005235614230725706 -0.004251588835836664 0.0 -0.008524059029029998 0.0 0.0
0.00665621307557079 -0.008437055858538796 0.0 6.302684069092734e-15 0.0 0.0
0.0052356142307256786 -0.004251588835838354 0.0 0.008524059029042429 0.0 0.0
0.0028214944875755445 -0.0023123910309170246 0.0 0.008534868455755356 0.0 0.0
0.0012417958686588575 -0.0009453771062044461 0.0 0.007617066064369453 0.0 0.0
0.0004048269994851699 -0.0002842137717856115 0.0 0.006484839496260771 0.0 0.0
8.112551408552988e-05 -4.201059915470655e-05 0.0 0.005403786175172761 0.0 0.0
-2.2416705538877467e-06 6.90100717075224e-06 0.0 0.004491964606908571 0.0 0.0
-9.856087108641028e-06 8.350647945922475e-06 0.0 0.003778492336375017 0.0 0.0
-4.199227369522005e-06 3.346086968396248e-06 0.0 0.00325680295101583 0.0 0.0
-4.908930333433095e-07 4.832952283768358e-07 0.0 0.0028851474829405914 0.0 0.0
6.41213904153487e-07 -4.394162321479851e-07 0.0 0.002631288709392421 0.0 0.0
1.0192558234219606e-06 -7.416416230259079e-07 0.0 0.00255433053130799 0.0 0.0
7.146968197136453e-07 -9.262976766991414e-07 0.0 0.002483289298402795 0.0 0.0
-2.528934514029447e-06 2.6636105802118125e-06 0.0 0.0024219692847539925 0.0 0.0
-1.4760485743568924e-05 1.5686038627242628e-05 0.0 0.002295037509742536 0.0 0.0
-4.5339162887832644e-05 5.0124098470451814e-05 0.0 0.0021564792043173605 0.0 0.0
-0.00010036402523846546 9.855339359584804e-05 0.0 0.0020640534966447424 0.0 0.0
-0.00016234760653666022 0.00013793437712670607 0.0 0.0020661509251111375 0.0 0.0
-0.00014471554335978055 5.635851716038013e-05 0.0 0.002154982886766312 0.0 0.0
0.00014091201987205567 -0.00041573116016754505 0.0 0.001982029917073386 0.0 0.0
0.0003808024435601806 -0.001724175653418679 0.0 0.0013477018291287038 0.0 0.0
0.00028663129462247916 -0.0013512505546683343 0.0 -0.0012478226153961893 0.0 0.0
6.953747085217455e-05 -0.0003875981087867822 0.0 -0.0018687877528210627 0.0 0.0
-0.0002270018119401217 8.010926053897058e-05 0.0 -0.0021557748031120483 0.0 0.0
-0.0003179130463429173 0.00019927074065077499 0.0 -0.002095981833660162 0.0 0.0
-0.00033690516541154663 0.0002030341695078718 0.0 -0.002077018241369187 0.0 0.0
-0.0003712905755780038 0.00019919179011927712 0.0 -0.002143447846219905 0.0 0.0
-0.0004561916157448259 0.00021093393568546548 0.0 -0.0022593521196560403 0.0 0.0
-0.0006104330678040465 0.00026720370171530417 0.0 -0.0023630153646262385 0.0 0.0
-0.0008558064505689432 0.0003740861837173008 0.0 -0.0024349359203727195 0.0 0.0
-0.0011926210459414295 0.0005531845755228663 0.0 -0.0025259688498854237 0.0 0.0
-0.00163034642000806 0.0008253428534657449 0.0 -0.002771648962477817 0.0 0.0
-0.0021679580685206633 0.0012063498338381851 0.0 -0.0031889592091786548 0.0 0.0
-0.0028064686912824674 0.001677973327335124 0.0 -0.003719198284027684 0.0 0.0
-0.0035965821335152857 0.0023065378988248223 0.0 -0.004357699446029807 0.0 0.0
-0.004560010406898967 0.003125352066593724 0.0 -0.005137661444604254 0.0 0.0
-0.005641451098775136 0.004104170478338733 0.0 -0.006134363987542269 0.0 0.0
-0.006654962499949006 0.0050803862622928984 0.0 -0.0074045472055829994 0.0 0.0
-0.007246540809145984 0.005729599061527298 0.0 -0.008992165316351263 0.0 0.0
-0.006939278512821485 0.005551279917101273 0.0 -0.010746753365724077 0.0 0.0
-0.0048527902061491724 0.004000620705389947 0.0 -0.011448197948373515 0.0 0.0
-0.0032087733072129277 -0.0006860122095181404 0.0 6.4080685202583254e-15 0.0 0.0
-0.004852790206149697 0.00400062070539155 0.0 0.011448197948386512 0.0 0.0
-0.0069392785128208866 0.005551279917103334 0.0 0.01074675336573462 0.0 0.0
-0.007246540809143198 0.0057295990615248635 0.0 0.008992165316355561 0.0 0.0
-0.00665496249994456 0.005080386262289426 0.0 0.00740454720558089 0.0 0.0
-0.0056414510987705885 0.004104170478334513 0.0 0.006134363987538919 0.0 0.0
-0.004560010406895051 0.003125352066588848 0.0 0.005137661444601255 0.0 0.0
-0.003596582133511165 0.0023065378988230715 0.0 0.004357699446027998 0.0 0.0
-0.0028064686912776474 0.0016779733273306501 0.0 0.0037191982840238703 0.0 0.0
-0.0021679580685160563 0.001206349833835553 0.0 0.003188959209174185 0.0 0.0
-0.0016303464200039352 0.0008253428534616068 0.0 0.002771648962473429 0.0 0.0
-0.0011926210459381969 0.0005531845755225878 0.0 0.002525968849884044 0.0 0.0
-0.0008558064505670116 0.00037408618371475774 0.0 0.0024349359203720824 0.0 0.0
-0.0006104330678028242 0.00026720370171714585 0.0 0.002363015364624766 0.0 0.0
-0.0004561916157440223 0.0002109339356843225 0.0 0.0022593521196540506 0.0 0.0
-0.00037129057557740516 0.000199191790118856 0.0 0.002143447846217481 0.0 0.0
-0.0003369051654110729 0.0002030341695075657 0.0 0.002077018241367627 0.0 0.0
-0.0003179130463425912 0.00019927074065152317 0.0 0.0020959818336579155 0.0 0.0
-0.00022700181193985157 8.010926053928573e-05 0.0 0.002155774803110413 0.0 0.0
6.953747085214497e-05 -0.00038759810878698274 0.0 0.0018687877528197725 0.0 0.0
0.00028663129462222617 -0.001351250554666802 0.0 0.001247822615394561 0.0 0.0
0.00020603291702271165 -0.0010296024913829744 0.0 -0.001116854595369956 0.0 0.0
6.177817839288474e-06 -0.00034360597552878896 0.0 -0.001738336777035943 0.0 0.0
-0.00030434443259259305 0.00010510499579015957 0.0 -0.0021047697541981447 0.0 0.0
-0.0004655826577611975 0.00025641474749277677 0.0 -0.0020724121728998984 0.0 0.0
-0.0005655732018454265 0.00030176533231529817 0.0 -0.0020347318092719933 0.0 0.0
-0.0006906349840793682 0.0003424922996436179 0.0 -0.0020663156958322907 0.0 0.0
-0.0008905499199409284 0.00040119177144804554 0.0 -0.0021357238618372417 0.0 0.0
-0.0012188370753128043 0.0005318446473181123 0.0 -0.002200244546593629 0.0 0.0
-0.00172376113653403 0.0007980433620394807 0.0 -0.002343439554952075 0.0 0.0
-0.0024371878292201304 0.001264089283426631 0.0 -0.0026508814043782578 0.0 0.0
-0.0033488351983851257 0.0019401351445011107 0.0 -0.003230225248599302 0.0 0.0
-0.004422039346006116 0.002810135372494671 0.0 -0.003908447031050899 0.0 0.0
-0.005686566987765927 0.0038722132529578346 0.0 -0.004647156554658009 0.0 0.0
-0.007238048096768826 0.005244583741698186 0.0 -0.0054477350337655385 0.0 0.0
-0.009156315374883598 0.007014616472402891 0.0 -0.006379856132768941 0.0 0.0
-0.011408673751794007 0.00917050396357542 0.0 -0.0075969921616510835 0.0 0.0
-0.013767512829598386 0.011499513025463403 0.0 -0.009279455368596442 0.0 0.0
-0.01576791199107607 0.01352457163228345 0.0 -0.011506056366577797 0.0 0.0
-0.01654077314193257 0.014412191971382684 0.0 -0.01381883395974937 0.0 0.0
-0.01467915593901472 0.012626464931953853 0.0 -0.014320859661123106 0.0 0.0
-0.012881356176453654 0.0063785891918612565 0.0 6.979226224723689e-15 0.0 0.0
-0.014679155939014654 0.012626464931954785 0.0 0.01432085966114106 0.0 0.0
-0.0165407731419301 0.01441219197137884 0.0 0.013818833959766082 0.0 0.0
-0.01576791199107021 0.013524571632278694 0.0 0.01150605636658353 0.0 0.0
-0.013767512829590357 0.011499513025455151 0.0 0.009279455368594418 0.0 0.0
-0.011408673751786102 0.009170503963568387 0.0 0.007596992161647255 0.0 0.0
-0.009156315374876565 0.00701461647239799 0.0 0.006379856132763933 0.0 0.0
-0.0072380480967615055 0.00524458374169113 0.0 0.005447735033762793 0.0 0.0
-0.005686566987757994 0.0038722132529526295 0.0 0.004647156554653504 0.0 0.0
-0.0044220393459979985 0.002810135372486756 0.0 0.003908447031043884 0.0 0.0
-0.0033488351983776816 0.0019401351444931275 0.0 0.0032302252485924172 0.0 0.0
-0.0024371878292143707 0.0012640892834229352 0.0 0.0026508814043740008 0.0 0.0
-0.0017237611365302436 0.0007980433620356179 0.0 0.0023434395549507946 0.0 0.0
-0.001218837075310471 0.0005318446473180784 0.0 0.0022002445465927065 0.0 0.0
-0.0008905499199395094 0.0004011917714487945 0.0 0.002135723861835149 0.0 0.0
-0.000690634984078405 0.00034249229964223 0.0 0.002066315695830872 0.0 0.0
-0.0005655732018447445 0.00030176533231550395 0.0 0.002034731809270076 0.0 0.0
-0.0004655826577607945 0.00025641474749251407 0.0 0.002072412172898287 0.0 0.0
-0.0003043444325922891 0.00010510499579029568 0.0 0.0021047697541956836 0.0 0.0
6.17781783929005e-06 -0.0003436059755286081 0.0 0.0017383367770346428 0.0 0.0
0.0002060329170223827 -0.0010296024913819153 0.0 0.0011168545953684488 0.0 0.0
0.0001333459745082509 -0.0007533852438092986 0.0 -0.0009764853056588218 0.0 0.0
-5.3296412787526063e-05 -0.0002871487154289961 0.0 -0.0015845354355154297 0.0 0.0
-0.00037869331624514627 0.00013247480442570627 0.0 -0.002003295979228055 0.0 0.0
-0.0006060093791183375 0.0003098048778123378 0.0 -0.001995272111203202 0.0 0.0
-0.0007853590318888088 0.0003937738023716934 0.0 -0.001938081835385914 0.0 0.0
-0.0009988101202976108 0.00047821401887452263 0.0 -0.0019233179691264778 0.0 0.0
-0.0013169059783904916 0.0005819362615535268 0.0 -0.0019308508628135988 0.0 0.0
-0.0018446222504068456 0.0008358968233788701 0.0 -0.0020165816932661597 0.0 0.0
-0.002666487317671043 0.0013635559819723888 0.0 -0.0023327542363602133 0.0 0.0
-0.003787502680723364 0.0022276607743294983 0.0 -0.002966236005224709 0.0 0.0
-0.0051491260294498405 0.003358723690357365 0.0 -0.003768816676789373 0.0 0.0
-0.0067288232951024235 0.004724737580215298 0.0 -0.004566525176370435 0.0 0.0
-0.008610061502565231 0.006392379422270544 0.0 -0.005375508154016882 0.0 0.0
-0.01093771214323549 0.008522518714802684 0.0 -0.006265495617745674 0.0 0.0
-0.013835914421469569 0.011254909694909533 0.0 -0.007357408444138122 0.0 0.0
-0.017292175077015713 0.014603199903911332 0.0 -0.008835756265362718 0.0 0.0
-0.02104228508842209 0.018325657261193312 0.0 -0.01101280949180359 0.0 0.0
-0.024416021823989303 0.021777889418884054 0.0 -0.014028953098379478 0.0 0.0
-0.02612074868179871 0.023655259083387097 0.0 -0.017101005278267627 0.0 0.0
-0.024047026987706742 0.02187447886759198 0.0 -0.018124800528720154 0.0 0.0
-0.021746183579472687 0.013295939579000361 0.0 7.281935471281642e-15 0.0 0.0
-0.024047026987705302 0.02187447886759071 0.0 0.018124800528739205 0.0 0.0
-0.026120748681794658 0.02365525908338232 0.0 0.017101005278289044 0.0 0.0
-0.024416021823981126 0.02177788941887505 0.0 0.014028953098390418 0.0 0.0
-0.021042285088411213 0.018325657261185204 0.0 0.011012809491803678 0.0 0.0
-0.017292175077004892 0.014603199903900868 0.0 0.00883575626535884 0.0 0.0
-0.013835914421459216 0.011254909694903432 0.0 0.007357408444133368 0.0 0.0
-0.010937712143224872 0.00852251871479365 0.0 0.006265495617741533 0.0 0.0
-0.008610061502554087 0.006392379422260513 0.0 0.005375508154011539 0.0 0.0
-0.006728823295091158 0.004724737580205276 0.0 0.004566525176362774 0.0 0.0
-0.005149126029439408 0.003358723690345753 0.0 0.003768816676781304 0.0 0.0
-0.0037875026807149045 0.002227660774322091 0.0 0.0029662360052171823 0.0 0.0
-0.0026664873176650834 0.0013635559819682014 0.0 0.0023327542363575002 0.0 0.0
-0.0018446222504031272 0.0008358968233769869 0.0 0.00201658169326518 0.0 0.0
-0.001316905978388337 0.0005819362615545437 0.0 0.0019308508628127145 0.0 0.0
-0.0009988101202962091 0.0004782140188738901 0.0 0.0019233179691245357 0.0 0.0
-0.0007853590318879233 0.0003937738023714295 0.0 0.0019380818353834915 0.0 0.0
-0.0006060093791177043 0.00030980487781163984 0.0 0.001995272111201773 0.0 0.0
-0.00037869331624466754 0.00013247480442563387 0.0 0.0020032959792254806 0.0 0.0
-5.3296412787380564e-05 -0.00028714871542865266 0.0 0.0015845354355139354 0.0 0.0
0.0001333459745081197 -0.0007533852438085679 0.0 0.0009764853056577011 0.0 0.0
6.73815873361188e-05 -0.0005197749627357321 0.0 -0.0008321445006718802 0.0 0.0
-0.00011002273636370608 -0.00022273511110115036 0.0 -0.0014079905661931887 0.0 0.0
-0.00045123102362208765 0.0001630265874833269 0.0 -0.001853239339274661 0.0 0.0
-0.0007400818652813269 0.0003596290453772054 0.0 -0.0018650892890894792 0.0 0.0
-0.000994850221206045 0.0004791454100620885 0.0 -0.0017865717613255437 0.0 0.0
-0.0012949942672765646 0.0006007393448540848 0.0 -0.0017164720143254292 0.0 0.0
-0.0017533524775376315 0.000777348154431025 0.0 -0.0016861220263107496 0.0 0.0
-0.002525655877345866 0.0012303355243596407 0.0 -0.001866218205347556 0.0 0.0
-0.0036914896885536144 0.0021065002694622722 0.0 -0.0024062821555101456 0.0 0.0
-0.005201094854653692 0.0033654801969255207 0.0 -0.0032101015113896393 0.0 0.0
-0.00698201045901151 0.004910984461683504 0.0 -0.004032843365923152 0.0 0.0
-0.009063898480405648 0.0067650863957951874 0.0 -0.0048386534041620416 0.0 0.0
-0.01157713761872863 0.009046601343314697 0.0 -0.00567197680066153 0.0 0.0
-0.01470031637960623 0.011949090027116546 0.0 -0.006628751208944237 0.0 0.0
-0.018592693939089883 0.015651485938867567 0.0 -0.0078064879103315835 0.0 0.0
-0.023272361054771148 0.020203915910842585 0.0 -0.009430794585299019 0.0 0.0
-0.028425437934286854 0.025334006262452708 0.0 -0.011865084610438373 0.0 0.0
-0.03313585635932755 0.03017935046464707 0.0 -0.015327351308117982 0.0 0.0
-0.035628851863181515 0.03296673706022943 0.0 -0.019128400173238767 0.0 0.0
-0.03306149479938976 0.03087567978027781 0.0 -0.020976254671467083 0.0 0.0
-0.03008482448574302 0.019975524978392604 0.0 9.84455572616838e-15 0.0 0.0
-0.03306149479938709 0.030875679780277096 0.0 0.020976254671488902 0.0 0.0
-0.03562885186317534 0.03296673706022748 0.0 0.01912840017326108 0.0 0.0
-0.03313585635931735 0.030179350464639793 0.0 0.015327351308130684 0.0 0.0
-0.02842543793427378 0.025334006262439684 0.0 0.011865084610439117 0.0 0.0
-0.02327236105475761 0.020203915910828332 0.0 0.009430794585295952 0.0 0.0
-0.01859269393907658 0.015651485938856204 0.0 0.00780648791032767 0.0 0.0
-0.014700316379592585 0.011949090027104243 0.0 0.006628751208939838 0.0 0.0
-0.011577137618714373 0.009046601343302475 0.0 0.005671976800656691 0.0 0.0
-0.009063898480391276 0.006765086395784015 0.0 0.004838653404153175 0.0 0.0
-0.00698201045899835 0.004910984461670442 0.0 0.00403284336591508 0.0 0.0
-0.005201094854642828 0.003365480196914328 0.0 0.003210101511381834 0.0 0.0
-0.003691489688545344 0.0021065002694571934 0.0 0.0024062821555056934 0.0 0.0
-0.0025256558773402433 0.0012303355243561934 0.0 0.0018662182053455958 0.0 0.0
-0.0017533524775347293 0.0007773481544305172 0.0 0.0016861220263097582 0.0 0.0
-0.0012949942672749897 0.0006007393448528066 0.0 0.0017164720143238144 0.0 0.0
-0.00099485022120483 0.0004791454100614628 0.0 0.0017865717613234611 0.0 0.0
-0.0007400818652806925 0.0003596290453771229 0.0 0.001865089289088045 0.0 0.0
-0.00045123102362170536 0.0001630265874833218 0.0 0.001853239339273241 0.0 0.0
-0.00011002273636351962 -0.00022273511110104687 0.0 0.0014079905661915568 0.0 0.0
6.73815873361391e-05 -0.0005197749627352137 0.0 0.0008321445006709519 0.0 0.0
8.705338532292487e-06 -0.00032769763059936803 0.0 -0.0006848679022307759 0.0 0.0
-0.00016345524990090012 -0.0001547198928698204 0.0 -0.001210373803791083 0.0 0.0
-0.0005221055866651702 0.0001964876562661751 0.0 -0.0016566301668436713 0.0 0.0
-0.0008681642753765532 0.00040627374480956306 0.0 -0.0016821033788074315 0.0 0.0
-0.0011936116652690484 0.0005573674401925106 0.0 -0.0015822167073455547 0.0 0.0
-0.0015877988220875127 0.0007145377816849081 0.0 -0.0014564301450791567 0.0 0.0
-0.002218665754928939 0.0010160895846306073 0.0 -0.0014275939623407212 0.0 0.0
-0.003271552613683608 0.0017410878202145344 0.0 -0.001740201561991109 0.0 0.0
-0.0047763265460851675 0.0029777217708930014 0.0 -0.0024279867397384984 0.0 0.0
-0.006636410248130265 0.004583794386145963 0.0 -0.003211675541797571 0.0 0.0
-0.00882555770688712 0.006526618802802442 0.0 -0.003978169782386761 0.0 0.0
-0.011426533074397829 0.008879635447751978 0.0 -0.004749015076580609 0.0 0.0
-0.014590661423160432 0.011790254044688581 0.0 -0.0055697656414974255 0.0 0.0
-0.01852197628925315 0.015479760656113572 0.0 -0.006539749489941092 0.0 0.0
-0.023413028579010238 0.020154346185891747 0.0 -0.007751519079394902 0.0 0.0
-0.029301023941692435 0.025887591902650123 0.0 -0.009347017534362637 0.0 0.0
-0.035817659197362496 0.03238851750353813 0.0 -0.011697045743483675 0.0 0.0
-0.04182410582760309 0.03859357166948294 0.0 -0.015225936397202596 0.0 0.0
-0.045030186285065596 0.042231751892639655 0.0 -0.019593992849461596 0.0 0.0
-0.041907835375346966 0.03975496164426975 0.0 -0.022901881256361813 0.0 0.0
-0.03825081128460754 0.02659173877773534 0.0 1.0097825353660994e-14 0.0 0.0
-0.04190783537534314 0.03975496164426538 0.0 0.02290188125638445 0.0 0.0
-0.04503018628505742 0.042231751892632945 0.0 0.01959399284948451 0.0 0.0
-0.04182410582759044 0.038593571669473296 0.0 0.015225936397215478 0.0 0.0
-0.03581765919734706 0.03238851750352086 0.0 0.011697045743486368 0.0 0.0
-0.02930102394167626 0.025887591902636637 0.0 0.009347017534361084 0.0 0.0
-0.023413028578993862 0.02015434618587599 0.0 0.007751519079392073 0.0 0.0
-0.018521976289236224 0.015479760656098851 0.0 0.0065397494899367 0.0 0.0
-0.014590661423143178 0.01179025404467171 0.0 0.00556976564149262 0.0 0.0
-0.011426533074380529 0.008879635447738439 0.0 0.0047490150765734825 0.0 0.0
-0.008825557706871212 0.006526618802786864 0.0 0.003978169782378154 0.0 0.0
-0.0066364102481170275 0.004583794386132827 0.0 0.003211675541790575 0.0 0.0
-0.004776326546074636 0.0029777217708854254 0.0 0.002427986739733694 0.0 0.0
-0.0032715526136761564 0.0017410878202079824 0.0 0.0017402015619880059 0.0 0.0
-0.002218665754924589 0.0010160895846286525 0.0 0.0014275939623385105 0.0 0.0
-0.0015877988220854042 0.0007145377816828325 0.0 0.0014564301450787419 0.0 0.0
-0.0011936116652677968 0.0005573674401921255 0.0 0.001582216707344633 0.0 0.0
-0.0008681642753756347 0.0004062737448090026 0.0 0.0016821033788059284 0.0 0.0
-0.0005221055866646458 0.00019648765626607695 0.0 0.0016566301668428207 0.0 0.0
-0.0001634552499006918 -0.0001547198928696621 0.0 0.0012103738037898626 0.0 0.0
8.705338532340553e-06 -0.00032769763059909335 0.0 0.0006848679022300317 0.0 0.0
-4.108785907067962e-05 -0.00017738047401179483 0.0 -0.0005356263751152351 0.0 0.0
-0.0002117289666533026 -8.710307984936781e-05 0.0 -0.0009935902493677972 0.0 0.0
-0.0005904481690063006 0.00023130675746586837 0.0 -0.0014148290567052937 0.0 0.0
-0.0009909528778248525 0.0004509341982245437 0.0 -0.0014461922443982033 0.0 0.0
-0.0013845777127657146 0.0006259518018893508 0.0 -0.001327610117432944 0.0 0.0
-0.0018867859748672921 0.0008355605727780173 0.0 -0.0011563580044746484 0.0 0.0
-0.0027282162939938842 0.0013232695446120373 0.0 -0.0011738416720953654 0.0 0.0
-0.0040761938111579295 0.0023698153837180096 0.0 -0.001620598125539431 0.0 0.0
-0.005881881412359804 0.003908615595260665 0.0 -0.002271527326121876 0.0 0.0
-0.008072560876036356 0.005837925510158875 0.0 -0.0029474180701808683 0.0 0.0
-0.010682644103635165 0.008185810104387138 0.0 -0.003638142327195815 0.0 0.0
-0.013813508549804013 0.011046271628078756 0.0 -0.004331646909046515 0.0 0.0
-0.017644978474807924 0.014602219906762613 0.0 -0.005088910506537819 0.0 0.0
-0.022404474340163037 0.019096349600700155 0.0 -0.006014954413149082 0.0 0.0
-0.028280676585499126 0.024737447144626837 0.0 -0.007184106840155288 0.0 0.0
-0.0353161178037342 0.031594669456008556 0.0 -0.00863067619564935 0.0 0.0
-0.04312668170106833 0.03937225820927475 0.0 -0.010580738834187475 0.0 0.0
-0.05037604448007163 0.046876157214755666 0.0 -0.013693313333809753 0.0 0.0
-0.05432295851165919 0.05140565255724051 0.0 -0.01844605906768057 0.0 0.0
-0.05077706618473882 0.04871212505291097 0.0 -0.024054302537758865 0.0 0.0
-0.0465236539414401 0.03339988553941602 0.0 1.1030239221998528e-14 0.0 0.0
-0.05077706618473385 0.048712125052906265 0.0 0.024054302537780865 0.0 0.0
-0.054322958511649255 0.05140565255723044 0.0 0.018446059067703247 0.0 0.0
-0.05037604448005693 0.04687615721473932 0.0 0.013693313333822212 0.0 0.0
-0.0431266817010506 0.03937225820925695 0.0 0.01058073883419092 0.0 0.0
-0.03531611780371551 0.03159466945599477 0.0 0.008630676195649186 0.0 0.0
-0.028280676585480106 0.0247374471446085 0.0 0.007184106840152169 0.0 0.0
-0.02240447434014331 0.01909634960068242 0.0 0.006014954413145537 0.0 0.0
-0.0176449784747874 0.014602219906740984 0.0 0.005088910506533337 0.0 0.0
-0.013813508549783823 0.011046271628061774 0.0 0.004331646909041229 0.0 0.0
-0.01068264410361679 0.008185810104368235 0.0 0.003638142327187408 0.0 0.0
-0.00807256087602086 0.005837925510146088 0.0 0.0029474180701752773 0.0 0.0
-0.005881881412347281 0.003908615595249497 0.0 0.0022715273261166686 0.0 0.0
-0.0040761938111486375 0.0023698153837094643 0.0 0.0016205981255360958 0.0 0.0
-0.002728216293988235 0.0013232695446072171 0.0 0.0011738416720933089 0.0 0.0
-0.0018867859748645634 0.0008355605727771038 0.0 0.0011563580044744674 0.0 0.0
-0.0013845777127643607 0.0006259518018895771 0.0 0.0013276101174317097 0.0 0.0
-0.0009909528778239256 0.0004509341982234848 0.0 0.00144619224439676 0.0 0.0
-0.0005904481690057118 0.0002313067574657232 0.0 0.0014148290567039938 0.0 0.0
-0.0002117289666532005 -8.710307984928778e-05 0.0 0.0009935902493676408 0.0 0.0
-4.1087859070793345e-05 -0.00017738047401159363 0.0 0.0005356263751147069 0.0 0.0
-7.927292823538772e-05 -6.984238785543215e-05 0.0 -0.0003878591605285934 0.0 0.0
-0.00025158093289976834 -2.4035522081272517e-05 0.0 -0.0007600866535112735 0.0 0.0
-0.0006541870811848277 0.0002649206037901776 0.0 -0.0011270343660645741 0.0 0.0
-0.0011093857312537306 0.0004944954895087085 0.0 -0.0011565120584599207 0.0 0.0
-0.001572675204891567 0.0006867580611059199 0.0 -0.0010234977910965242 0.0 0.0
-0.002208350721400068 0.0009802215305105121 0.0 -0.0008259711388189594 0.0 0.0
-0.0032929808915918178 0.001726257774056654 0.0 -0.0009514586936712249 0.0 0.0
-0.004906374141129647 0.0030606060676550075 0.0 -0.0013941659616679937 0.0 0.0
-0.006981103987002021 0.0048589354653687375 0.0 -0.0019030735671251133 0.0 0.0
-0.00951115216918225 0.007117739319769738 0.0 -0.002459534969857393 0.0 0.0
-0.012548079758971485 0.00987456395023158 0.0 -0.0030289201727219444 0.0 0.0
-0.016221169299016326 0.01325355845548898 0.0 -0.0036027955464843545 0.0 0.0
-0.020738342324792883 0.017469272762156554 0.0 -0.00423765194510379 0.0 0.0
-0.02633439336864347 0.022783339197510875 0.0 -0.005046797172564868 0.0 0.0
-0.03318544228661483 0.02938672175628354 0.0 -0.006101409490006049 0.0 0.0
-0.041288015912369316 0.03729447539931035 0.0 -0.007338719935219265 0.0 0.0
-0.050235119852104396 0.0461717127789669 0.0 -0.008685504009604154 0.0 0.0
-0.05866115413688672 0.05485658485298685 0.0 -0.010778861799560939 0.0 0.0
-0.06352494237948196 0.060457285658468224 0.0 -0.015569656907186546 0.0 0.0
-0.05986664216595222 0.05796031024540178 0.0 -0.024226871079393697 0.0 0.0
-0.05517141669595894 0.04069131807248974 0.0 9.711849380256155e-15 0.0 0.0
-0.05986664216594658 0.05796031024539926 0.0 0.024226871079413723 0.0 0.0
-0.06352494237947015 0.060457285658455664 0.0 0.015569656907206176 0.0 0.0
-0.058661154136869724 0.05485658485296998 0.0 0.0107788617995732 0.0 0.0
-0.050235119852083995 0.046171712778947105 0.0 0.008685504009607985 0.0 0.0
-0.04128801591234794 0.037294475399291885 0.0 0.007338719935220114 0.0 0.0
-0.03318544228659288 0.029386721756263924 0.0 0.006101409490004277 0.0 0.0
-0.026334393368620698 0.0227833391974894 0.0 0.005046797172562815 0.0 0.0
-0.020738342324769416 0.017469272762131498 0.0 0.00423765194510004 0.0 0.0
-0.016221169298993185 0.013253558455469201 0.0 0.003602795546478529 0.0 0.0
-0.012548079758950361 0.009874563950212039 0.0 0.0030289201727150654 0.0 0.0
-0.009511152169164505 0.007117739319754792 0.0 0.0024595349698520778 0.0 0.0
-0.006981103986987716 0.004858935465355793 0.0 0.0019030735671211585 0.0 0.0
-0.00490637414111861 0.003060606067645317 0.0 0.0013941659616640767 0.0 0.0
-0.003292980891584701 0.0017262577740506217 0.0 0.0009514586936688529 0.0 0.0
-0.002208350721396579 0.000980221530509046 0.0 0.0008259711388179604 0.0 0.0
-0.0015726752048900049 0.0006867580611059691 0.0 0.0010234977910956997 0.0 0.0
-0.001109385731252647 0.0004944954895081246 0.0 0.001156512058459217 0.0 0.0
-0.0006541870811841502 0.0002649206037901872 0.0 0.001127034366063208 0.0 0.0
-0.0002515809328995524 -2.403552208142213e-05 0.0 0.0007600866535109897 0.0 0.0
-7.927292823541069e-05 -6.984238785529081e-05 0.0 0.0003878591605290768 0.0 0.0
-0.00010143465658298911 -6.233820612970392e-06 0.0 -0.00025064021577190013 0.0 0.0
-0.00027763108778287756 2.915582922766153e-05 0.0 -0.0005131976779678369 0.0 0.0
-0.0007099616351826416 0.00029353852487996987 0.0 -0.0007882887380322217 0.0 0.0
-0.0012249549300308298 0.0005381924305788412 0.0 -0.0008093247516872311 0.0 0.0
-0.0017670053264906799 0.0007464643970837355 0.0 -0.0006743925154744566 0.0 0.0
-0.002571075371627117 0.0011840737476416217 0.0 -0.0005057439014743719 0.0 0.0
-0.0038921877311797514 0.0022052715999632483 0.0 -0.0006947434432920753 0.0 0.0
-0.005735403226202742 0.0037635686601823967 0.0 -0.0009987000254332008 0.0 0.0
-0.008076487421916533 0.0058247084640151705 0.0 -0.0013614167552095811 0.0 0.0
-0.010946707537623675 0.008412867575603574 0.0 -0.0017581634580962583 0.0 0.0
-0.014418458964547791 0.011583685944576027 0.0 -0.0021631727986512472 0.0 0.0
-0.018645010838438975 0.015491766546801934 0.0 -0.002566558628728593 0.0 0.0
-0.023858562223785455 0.020382000988272836 0.0 -0.003024555903997144 0.0 0.0
-0.030307148445139015 0.026526329306516647 0.0 -0.003653428893022933 0.0 0.0
-0.03812104690064051 0.03408301982930168 0.0 -0.004487633484769859 0.0 0.0
-0.047193464510539435 0.04297383999972948 0.0 -0.005425205372714286 0.0 0.0
-0.057055642673432425 0.052746151539739175 0.0 -0.00622183346467084 0.0 0.0
-0.06652268905367978 0.06232224746019788 0.0 -0.00705530406401061 0.0 0.0
-0.07258263367994346 0.06922491513216221 0.0 -0.010560066677924378 0.0 0.0
-0.06938397356577174 0.06774575073376754 0.0 -0.022621373847379233 0.0 0.0
-0.06455070936284948 0.04892036797288722 0.0 6.557254739192331e-15 0.0 0.0
-0.0693839735657649 0.06774575073376296 0.0 0.022621373847395005 0.0 0.0
-0.07258263367992941 0.06922491513214714 0.0 0.010560066677939921 0.0 0.0
-0.06652268905366049 0.062322247460181904 0.0 0.00705530406402015 0.0 0.0
-0.05705564267340957 0.052746151539716915 0.0 0.006221833464673875 0.0 0.0
-0.04719346451051531 0.04297383999971059 0.0 0.005425205372714286 0.0 0.0
-0.038121046900615914 0.03408301982927829 0.0 0.004487633484770013 0.0 0.0
-0.03030714844511328 0.02652632930649383 0.0 0.0036534288930207114 0.0 0.0
-0.023858562223758976 0.020382000988243228 0.0 0.003024555903995244 0.0 0.0
-0.018645010838413138 0.015491766546780611 0.0 0.0025665586287252334 0.0 0.0
-0.014418458964524412 0.011583685944555786 0.0 0.002163172798646419 0.0 0.0
-0.010946707537603849 0.00841286757558549 0.0 0.0017581634580917872 0.0 0.0
-0.00807648742190049 0.0058247084640003855 0.0 0.001361416755207172 0.0 0.0
-0.005735403226190183 0.0037635686601711713 0.0 0.0009987000254295189 0.0 0.0
-0.003892187731171036 0.0022052715999563597 0.0 0.0006947434432895163 0.0 0.0
-0.002571075371622664 0.0011840737476389784 0.0 0.0005057439014733101 0.0 0.0
-0.0017670053264887968 0.0007464643970829922 0.0 0.0006743925154740253 0.0 0.0
-0.0012249549300297293 0.0005381924305784627 0.0 0.0008093247516867617 0.0 0.0
-0.0007099616351819569 0.00029353852488008973 0.0 0.0007882887380313941 0.0 0.0
-0.0002776310877825992 2.915582922755964e-05 0.0 0.0005131976779668801 0.0 0.0
-0.00010143465658290844 -6.233820612992978e-06 0.0 0.00025064021577262123 0.0 0.0
-9.994164648627143e-05 1.322686370747562e-05 0.0 -0.00014445270273985968 0.0 0.0
-0.000281000406068644 6.377076950583546e-05 0.0 -0.0002568724049617865 0.0 0.0
-0.0007525919994814315 0.00031243267019523575 0.0 -0.0003860176148810361 0.0 0.0
-0.0013418875556478348 0.0005829713598012075 0.0 -0.00039672722384483447 0.0 0.0
-0.0019869059829186863 0.0008272427472180715 0.0 -0.000294277839547974 0.0 0.0
-0.0029720986200103884 0.0014543981715047433 0.0 -0.00020200515329192185 0.0 0.0
-0.00450529865262582 0.0027179452852221573 0.0 -0.00032898665803347664 0.0 0.0
-0.0065569893777343465 0.004474317091247163 0.0 -0.00047774945166293695 0.0 0.0
-0.009161726724521563 0.006796679510401121 0.0 -0.0006522020327422948 0.0 0.0
-0.012374597218551381 0.009713556810526701 0.0 -0.0008503087665278831 0.0 0.0
-0.01628783591443864 0.01330473316875446 0.0 -0.0010419358366404996 0.0 0.0
-0.02108058185552957 0.017756041823483892 0.0 -0.0012247251773564792 0.0 0.0
-0.02700708517786122 0.023336222269228796 0.0 -0.0014747250634625751 0.0 0.0
-0.03430011547605902 0.030303679637330973 0.0 -0.001828235809762237 0.0 0.0
-0.04305109104530154 0.03879044929115333 0.0 -0.002295308308254529 0.0 0.0
-0.05305008570775515 0.048623277773804395 0.0 -0.002839714571096369 0.0 0.0
-0.06363823226118143 0.059159724210426284 0.0 -0.003256003868402621 0.0 0.0
-0.07371278168728193 0.06923519799181797 0.0 -0.003357336956233371 0.0 0.0
-0.08119274733966084 0.07702314921731024 0.0 -0.004465038148264691 0.0 0.0
-0.07960296421697116 0.07814024295156496 0.0 -0.015496571601109507 0.0 0.0
-0.07527923240074848 0.05943268345174221 0.0 4.234460004859386e-15 0.0 0.0
-0.07960296421696325 0.07814024295155668 0.0 0.0154965716011191 0.0 0.0
-0.08119274733964472 0.07702314921729284 0.0 0.004465038148273329 0.0 0.0
-0.07371278168725955 0.06923519799179706 0.0 0.003357336956238928 0.0 0.0
-0.06363823226115568 0.05915972421040101 0.0 0.00325600386840516 0.0 0.0
-0.05305008570772822 0.0486232777737804 0.0 0.002839714571095186 0.0 0.0
-0.04305109104527381 0.03879044929112796 0.0 0.0022953083082548984 0.0 0.0
-0.03430011547603025 0.030303679637305105 0.0 0.001828235809762548 0.0 0.0
-0.02700708517783173 0.023336222269196717 0.0 0.0014747250634614688 0.0 0.0
-0.021080581855500886 0.01775604182345823 0.0 0.0012247251773546664 0.0 0.0
-0.016287835914412824 0.013304733168729363 0.0 0.001041935836637929 0.0 0.0
-0.012374597218529442 0.009713556810506974 0.0 0.000850308766525167 0.0 0.0
-0.009161726724503555 0.00679667951038434 0.0 0.0006522020327412979 0.0 0.0
-0.006556989377720258 0.004474317091234865 0.0 0.00047774945166153106 0.0 0.0
-0.0045052986526159244 0.0027179452852139413 0.0 0.0003289866580319066 0.0 0.0
-0.0029720986200048303 0.001454398171500358 0.0 0.00020200515329045845 0.0 0.0
-0.001986905982916245 0.0008272427472173695 0.0 0.0002942778395478405 0.0 0.0
-0.0013418875556465602 0.0005829713598010741 0.0 0.00039672722384515317 0.0 0.0
-0.0007525919994807093 0.0003124326701951765 0.0 0.0003860176148808301 0.0 0.0
-0.00028100040606839045 6.377076950592013e-05 0.0 0.0002568724049608928 0.0 0.0
-9.994164648614225e-05 1.3226863707388018e-05 0.0 0.00014445270274050968 0.0 0.0
-6.050168944102732e-05 1.1994747874648448e-05 0.0 -9.282999253935228e-05 0.0 0.0
-0.00024652171691822144 7.503758136669894e-05 0.0 -0.00010676069132991938 0.0 0.0
-0.0007749045502622177 0.000318841291135296 0.0 -0.00013244291424482533 0.0 0.0
-0.0014704589768772612 0.0006056029338748878 0.0 -0.00013386743047486723 0.0 0.0
-0.0022462552356546407 0.0008775024397224791 0.0 -2.905420859543328e-05 0.0 0.0
-0.003402902597082089 0.0016018011885156102 0.0 9.581562520233924e-05 0.0 0.0
-0.005118085891069431 0.0029782065511665635 0.0 9.627766846430997e-05 0.0 0.0
-0.0073668755167414866 0.004831308325549202 0.0 9.684055962549465e-05 0.0 0.0
-0.010231612296674037 0.007282706668878925 0.0 0.0001078063907915583 0.0 0.0
-0.01378867600227234 0.010364367838094966 0.0 0.00010811335811238584 0.0 0.0
-0.018152021381706754 0.014166544318934653 0.0 0.00014801159847680802 0.0 0.0
-0.0235297564774661 0.018894990732702663 0.0 0.0002261179317327171 0.0 0.0
-0.030168442211677807 0.02482362240066373 0.0 0.0002571699439133006 0.0 0.0
-0.038287338220931284 0.03219650956045258 0.0 0.00027904728954179087 0.0 0.0
-0.04795143826978969 0.04114291095581986 0.0 0.00020218891447979035 0.0 0.0
-0.05884626752543534 0.051439028957553604 0.0 -4.149976970244454e-06 0.0 0.0
-0.07011745076861968 0.06233815002402397 0.0 -0.0002801059049321016 0.0 0.0
-0.08038024746117689 0.07257469413539462 0.0 -0.0004820095695603219 0.0 0.0
-0.0882161582675075 0.08054361686264853 0.0 -0.0006782739223326019 0.0 0.0
-0.090428066681938 0.08347322990230908 0.0 -0.01042761962810063 0.0 0.0
-0.08948098291831184 0.06552359297210585 0.0 2.6853519408120974e-15 0.0 0.0
-0.09042806668192932 0.08347322990229931 0.0 0.010427619628103802 0.0 0.0
-0.08821615826748859 0.08054361686262895 0.0 0.0006782739223346662 0.0 0.0
-0.08038024746115069 0.07257469413537011 0.0 0.0004820095695638703 0.0 0.0
-0.07011745076859066 0.062338150023994475 0.0 0.00028010590493378774 0.0 0.0
-0.058846267525405165 0.0514390289575235 0.0 4.149976969064842e-06 0.0 0.0
-0.04795143826975835 0.04114291095579549 0.0 -0.00020218891448021102 0.0 0.0
-0.03828733822089954 0.032196509560423046 0.0 -0.00027904728954137453 0.0 0.0
-0.030168442211645684 0.02482362240062943 0.0 -0.00025716994391440564 0.0 0.0
-0.02352975647743451 0.018894990732674147 0.0 -0.00022611793173448434 0.0 0.0
-0.01815202138167862 0.014166544318906973 0.0 -0.0001480115984770691 0.0 0.0
-0.013788676002248743 0.010364367838075084 0.0 -0.00010811335811346007 0.0 0.0
-0.010231612296654436 0.007282706668861889 0.0 -0.00010780639079117048 0.0 0.0
-0.007366875516726076 0.0048313083255367185 0.0 -9.68405596255377e-05 0.0 0.0
-0.0051180858910584 0.0029782065511571973 0.0 -9.62776684645491e-05 0.0 0.0
-0.003402902597075504 0.001601801188509739 0.0 -9.581562520324146e-05 0.0 0.0
-0.002246255235651636 0.0008775024397220232 0.0 2.905420859620881e-05 0.0 0.0
-0.0014704589768760544 0.00060560293387503 0.0 0.0001338674304755024 0.0 0.0
-0.0007749045502615387 0.0003188412911349635 0.0 0.00013244291424459586 0.0 0.0
-0.0002465217169178351 7.503758136699238e-05 0.0 0.00010676069132894095 0.0 0.0
-6.050168944081502e-05 1.199474787452722e-05 0.0 9.28299925401621e-05 0.0 0.0
SCALARS Statev float 8
LOOKUP_TABLE default
0.0 0.01234309018090398 0.00966822740954229 -0.011831852979523733 0.0021636255699814646 -0.0004088494332985784 0.0 0.0
0.0 0.0035629424327204263 0.002492333235856284 -0.0013296943601771442 -0.0011626388756791387 -0.004779313845936171 0.0 0.0
0.0 -4.282820010789017e-05 -1.0279537649964091e-05 5.773941885320813e-06 4.505595764643085e-06 -6.331154044367005e-05 0.0 0.0
0.0 6.994637308002714e-05 -1.2444152071471806e-05 9.387940984190558e-06 3.0562110872811626e-06 9.238913667351015e-07 0.0 0.0
0.0 0.0004208406811552196 0.00012627741733228754 -8.93675069043492e-05 -3.690991042793865e-05 4.738680092580266e-05 0.0 0.0
0.0 0.0008907375050656168 0.0009668999493065466 -0.0007358275530859528 -0.0002310723962205942 8.885234444061013e-05 0.0 0.0
0.0 0.002500811714302169 0.002325527849643478 -0.0018737179744973324 -0.0004518098751461444 0.00011154190216465037 0.0 0.0
0.0 0.0046822047628648 0.004325111117559039 -0.0036461669762165184 -0.0006789441413425237 0.00012294199726579718 0.0 0.0
0.0 0.007617868993616518 0.006958242491661333 -0.0060781799715368765 -0.0008800625201244577 0.00013775385419327843 0.0 0.0
0.0 0.011396284012435035 0.010260583470350245 -0.00918939834245557 -0.001071185127894675 0.00014842444084663353 0.0 0.0
0.0 0.01613063077704439 0.014338503438753878 -0.013065598741169266 -0.0012729046975846073 0.0001995830591823872 0.0 0.0
0.0 0.02173884006637523 0.019410737188245916 -0.017916339314774307 -0.0014943978734716084 0.00028864763677283916 0.0 0.0
0.0 0.028867003434623666 0.025726104077357287 -0.02399597209272695 -0.0017301319846303356 0.00032295494562844726 0.0 0.0
0.0 0.03771280349241882 0.03351174992606691 -0.03153506482071216 -0.0019766851053547472 0.0003531092352490754 0.0 0.0
0.0 0.048413137495966686 0.042883374760562844 -0.04066235146156025 -0.002221023299002558 0.0003115517610712415 0.0 0.0
0.0 0.060819350503559744 0.05367520007166584 -0.051225088805246136 -0.0024501112664197643 0.00016906975761819278 0.0 0.0
0.0 0.07423529141229375 0.06531663178302088 -0.06266269583521558 -0.0026539359478053373 -6.353586114097318e-05 0.0 0.0
0.0 0.08750460902075703 0.07681753705995087 -0.07399501146165308 -0.0028225255982976595 -0.00030161092428240854 0.0 0.0
0.0 0.09915082869655475 0.0869040641028071 -0.08395600311074405 -0.0029480609920630226 -0.00039344462613200167 0.0 0.0
0.0 0.10737288674949651 0.09419957281969085 -0.09118438167492997 -0.00301519114476105 -0.0004165880643700404 0.0 0.0
0.0 0.11048382890958927 0.09700018824579713 -0.09398799589531562 -0.0030121923504815447 7.840950111415168e-16 0.0 0.0
0.0 0.1073728867494866 0.09419957281968241 -0.09118438167492124 -0.0030151911447610304 0.0004165880643742575 0.0 0.0
0.0 0.09915082869653592 0.08690406410279058 -0.08395600311072825 -0.0029480609920622997 0.00039344462613666526 0.0 0.0
0.0 0.08750460902073146 0.07681753705992826 -0.07399501146163154 -0.002822525598296704 0.0003016109242858869 0.0 0.0
0.0 0.07423529141226355 0.06531663178299406 -0.0626626958351907 -0.0026539359478034027 6.35358611415374e-05 0.0 0.0
0.0 0.060819350503527395 0.053675200071637424 -0.051225088805218325 -0.0024501112664191047 -0.0001690697576191471 0.0 0.0
0.0 0.04841313749593736 0.04288337476053678 -0.040662351461535656 -0.0022210232990011063 -0.00031155176107137885 0.0 0.0
0.0 0.0377128034923854 0.03351174992603753 -0.031535064820683904 -0.001976685105353628 -0.0003531092352501812 0.0 0.0
0.0 0.028867003434591466 0.02572610407732881 -0.02399597209269989 -0.0017301319846289086 -0.0003229549456290415 0.0 0.0
0.0 0.021738840066342968 0.01941073718821742 -0.01791633931474681 -0.0014943978734706322 -0.00028864763677320855 0.0 0.0
0.0 0.016130630777016295 0.014338503438728875 -0.013065598741145596 -0.001272904697583287 -0.00019958305918361084 0.0 0.0
0.0 0.01139628401241215 0.010260583470330153 -0.009189398342436435 -0.0010711851278937287 -0.00014842444084701598 0.0 0.0
0.0 0.0076178689935987275 0.006958242491645101 -0.006078179971521795 -0.0008800625201233 -0.00013775385419368628 0.0 0.0
0.0 0.004682204762851449 0.0043251111175464044 -0.0036461669762049703 -0.0006789441413414324 -0.00012294199726603608 0.0 0.0
0.0 0.0025008117142928912 0.002325527849634026 -0.0018737179744892339 -0.0004518098751447905 -0.00011154190216473495 0.0 0.0
0.0 0.0008907375050616125 0.0009668999493019347 -0.0007358275530822793 -0.0002310723962196552 -8.885234444035514e-05 0.0 0.0
0.0 0.00042084068115280914 0.00012627741733108958 -8.936750690349486e-05 -3.690991042759426e-05 -4.73868009254746e-05 0.0 0.0
0.0 6.994637307940038e-05 -1.244415207124542e-05 9.387940984021866e-06 3.0562110872240277e-06 -9.238913667278918e-07 0.0 0.0
0.0 -4.282820010824992e-05 -1.027953765006551e-05 5.773941885419956e-06 4.505595764646057e-06 6.331154044315353e-05 0.0 0.0
0.0 0.0035629424327139605 0.0024923332358529815 -0.0013296943601752082 -0.0011626388756777698 0.004779313845929172 0.0 0.0
0.0 0.012343090180888354 0.009668227409531684 -0.011831852979508534 0.002163625569976843 0.00040884943327506413 0.0 0.0
0.0 0.009808709059429084 0.0071112139102472455 -0.009524154184174955 0.002412940273927703 -1.5065360941230116e-05 0.0 0.0
0.0 0.0018856603335352235 0.0013374028232630698 -0.0006543009020355689 -0.0006831019212275 -0.0033936523391663465 0.0 0.0
0.0 1.0407517459775594e-05 -8.943929206380953e-06 7.839896265923563e-06 1.104032940457416e-06 -2.3570725593288838e-06 0.0 0.0
0.0 1.0000766291337676e-05 1.4604382184351326e-06 -1.1724851574510046e-06 -2.879530609841787e-07 5.782397447092574e-07 0.0 0.0
0.0 0.0001500550548968343 5.17582578195985e-05 -3.6434073568012e-05 -1.5324184251586584e-05 1.909313177600992e-05 0.0 0.0
0.0 0.0008268362067518571 0.0006266898122374525 -0.0004802842308667264 -0.0001464055813707269 4.305885171687232e-05 0.0 0.0
0.0 0.0020306091146806778 0.0018945345358911219 -0.001541593310832796 -0.00035294122505832463 -6.888268713858553e-05 0.0 0.0
0.0 0.00405643546503346 0.003719059878308553 -0.0031694345562711113 -0.0005496253220374414 -0.0002093936915323586 0.0 0.0
0.0 0.006785500051458399 0.006133826396300157 -0.005422599238371419 -0.0007112271579287375 -0.0003859011745674915 0.0 0.0
0.0 0.010219481077857761 0.009153647549893718 -0.00830667570022349 -0.000846971849670223 -0.0005853097735065985 0.0 0.0
0.0 0.014488334358596077 0.01286373842494342 -0.011891525666604183 -0.0009722127583392363 -0.000781615684675758 0.0 0.0
0.0 0.01990655283097338 0.01744936756560604 -0.016355498437881668 -0.0010938691277243714 -0.0009720187200482472 0.0 0.0
0.0 0.026199539315977367 0.02318107453002678 -0.021969293228161237 -0.0012117813018655394 -0.0012362630536810987 0.0 0.0
0.0 0.034372678171844535 0.030287540122669047 -0.02896658374002677 -0.001320956382642286 -0.0015992720035780989 0.0 0.0
0.0 0.04426576057131798 0.038889471945881396 -0.037477635558703544 -0.0014118363871778586 -0.0020537307047111468 0.0 0.0
0.0 0.055746745143332 0.048841982552862186 -0.047366256366766 -0.001475726186096188 -0.002588119274788144 0.0 0.0
0.0 0.06823477048689504 0.05961717443596242 -0.0581085919656969 -0.0015085824702654493 -0.0030822303531097706 0.0 0.0
0.0 0.08067362478574593 0.07030621792075939 -0.06879176871251662 -0.0015144492082427908 -0.00328936401184015 0.0 0.0
0.0 0.09163136210156901 0.07972077561796671 -0.07822093444345886 -0.0014998411745078299 -0.002958369429078148 0.0 0.0
0.0 0.09952585471687721 0.08646231486236289 -0.08501191249572956 -0.0014504023666333634 -0.0021460470876220267 0.0 0.0
0.0 0.10265789172741728 0.0890215883839242 -0.0876456625064112 -0.0013759258775129322 3.2398129318211843e-15 0.0 0.0
0.0 0.09952585471687016 0.08646231486235638 -0.08501191249572342 -0.001450402366633005 0.002146047087631046 0.0 0.0
0.0 0.09163136210155173 0.07972077561795174 -0.07822093444344388 -0.001499841174507796 0.0029583694290883714 0.0 0.0
0.0 0.08067362478572239 0.0703062179207389 -0.06879176871249636 -0.0015144492082425052 0.0032893640118464773 0.0 0.0
0.0 0.06823477048686775 0.0596171744359387 -0.0581085919656739 -0.00150858247026476 0.0030822303531110474 0.0 0.0
0.0 0.05574674514330208 0.048841982552836095 -0.04736625636674022 -0.001475726186095864 0.002588119274786623 0.0 0.0
0.0 0.04426576057129007 0.038889471945856784 -0.037477635558679966 -0.0014118363871768627 0.00205373070471047 0.0 0.0
0.0 0.034372678171814476 0.03028754012264274 -0.028966583740001127 -0.0013209563826416053 0.0015992720035772762 0.0 0.0
0.0 0.026199539315947373 0.02318107453000063 -0.021969293228135782 -0.0012117813018648637 0.0012362630536792958 0.0 0.0
0.0 0.0199065528309441 0.0174493675655802 -0.016355498437856143 -0.0010938691277240379 0.0009720187200465608 0.0 0.0
0.0 0.014488334358570132 0.01286373842492062 -0.011891525666582197 -0.0009722127583384262 0.0007816156846732798 0.0 0.0
0.0 0.010219481077837215 0.009153647549875018 -0.00830667570020557 -0.0008469718496694428 0.0005853097735047456 0.0 0.0
0.0 0.006785500051442695 0.006133826396285373 -0.005422599238357515 -0.0007112271579278578 0.0003859011745661078 0.0 0.0
0.0 0.004056435465021571 0.003719059878297194 -0.0031694345562607302 -0.0005496253220364633 0.00020939369153121564 0.0 0.0
0.0 0.0020306091146724925 0.0018945345358830155 -0.0015415933108257952 -0.00035294122505722 6.888268713786119e-05 0.0 0.0
0.0 0.0008268362067476962 0.0006266898122339811 -0.0004802842308639745 -0.00014640558137000637 -4.305885171690671e-05 0.0 0.0
0.0 0.00015005505489552003 5.1758257819227435e-05 -3.643407356776677e-05 -1.5324184251460908e-05 -1.9093131775708995e-05 0.0 0.0
0.0 1.0000766290853441e-05 1.4604382186499809e-06 -1.1724851576125105e-06 -2.879530610373097e-07 -5.782397447412415e-07 0.0 0.0
0.0 1.040751745972858e-05 -8.9439292062576e-06 7.839896265816782e-06 1.1040329404406934e-06 2.3570725592814385e-06 0.0 0.0
0.0 0.001885660333529052 0.0013374028232596804 -0.000654300902033428 -0.0006831019212262502 0.0033936523391583334 0.0 0.0
0.0 0.009808709059413083 0.007111213910235218 -0.009524154184158888 0.0024129402739236586 1.5065360924515513e-05 0.0 0.0
0.0 0.006991543819460364 0.004949432213436257 -0.0068384606255088454 0.0018890284120725858 -0.0017437994788509006 0.0 0.0
0.0 0.0012869440144128307 0.0007899192197771056 -0.000337769287668285 -0.00045214993210881987 -0.002442686180585966 0.0 0.0
0.0 1.2634912319597936e-08 -1.3678156687548327e-09 1.0394932843731892e-09 3.2832238438154863e-10 4.875689838480855e-10 0.0 0.0
0.0 2.176552258932567e-06 -3.086062369421633e-09 -5.318208417179352e-09 8.404270786476789e-09 -2.4377172380065686e-07 0.0 0.0
0.0 3.648891874079775e-05 3.90197688273554e-06 -1.8913987225232976e-06 -2.010578160212435e-06 7.002110808504806e-06 0.0 0.0
0.0 0.0005256721078426732 0.00032498109725578666 -0.0002431109195291753 -8.187017772661131e-05 1.5340400302349406e-05 0.0 0.0
0.0 0.0014300685373875726 0.0013901157887639811 -0.0011090815392309113 -0.0002810342495330708 -0.0001978281161894227 0.0 0.0
0.0 0.003256688807223956 0.0029892259824110708 -0.00251023202816095 -0.0004789939542501206 -0.0004913246067467134 0.0 0.0
0.0 0.005648425172485859 0.005138439380615438 -0.004488210185600696 -0.0006502291950147402 -0.0008507055221464768 0.0 0.0
0.0 0.008739294844214048 0.007819128636424788 -0.00702935114622279 -0.0007897774902019942 -0.0012497602561118825 0.0 0.0
0.0 0.012529982524736256 0.011095590780357807 -0.010181936067147106 -0.0009136547132106927 -0.0016619293454481427 0.0 0.0
0.0 0.017091641665675703 0.015127215355256223 -0.014095876980599614 -0.0010313383746566069 -0.0020815339100914015 0.0 0.0
0.0 0.023048847040827943 0.020149075834809974 -0.019005146714936205 -0.0011439291198737755 -0.002564681399517854 0.0 0.0
0.0 0.03000898336559219 0.026430583142688504 -0.02518414865484974 -0.0012464344878387495 -0.0032187020284818063 0.0 0.0
0.0 0.038845636150686993 0.03408947766114036 -0.03275833171320512 -0.0013311459479352647 -0.004061871457921646 0.0 0.0
0.0 0.049140525854537716 0.04300660816245986 -0.04161596900865311 -0.0013906391538067136 -0.005019585466629198 0.0 0.0
0.0 0.06039022163237047 0.05273039033516458 -0.05130647156936417 -0.001423918765800403 -0.005872798513590568 0.0 0.0
0.0 0.07165841473709904 0.06246156814400728 -0.061029018664304706 -0.0014325494797025815 -0.006211489663082578 0.0 0.0
0.0 0.08168518292518132 0.07109350788630972 -0.06967941310384528 -0.0014140947824643774 -0.00563631963820084 0.0 0.0
0.0 0.08892898938495483 0.0773014970581408 -0.07592527535725083 -0.0013762217008899016 -0.004040857053551917 0.0 0.0
0.0 0.09187579899050018 0.07971103337523602 -0.07843071957162952 -0.0012803138036064786 7.226424320050384e-15 0.0 0.0
0.0 0.08892898938495009 0.07730149705813585 -0.07592527535724639 -0.0013762217008894532 0.004040857053568532 0.0 0.0
0.0 0.08168518292516576 0.07109350788629602 -0.0696794131038318 -0.00141409478246432 0.005636319638218168 0.0 0.0
0.0 0.07165841473707954 0.06246156814399008 -0.06102901866428792 -0.0014325494797021025 0.006211489663093643 0.0 0.0
0.0 0.06039022163234719 0.05273039033514452 -0.05130647156934452 -0.0014239187657999546 0.005872798513593121 0.0 0.0
0.0 0.04914052585451196 0.04300660816243723 -0.04161596900863104 -0.0013906391538062175 0.005019585466628165 0.0 0.0
0.0 0.03884563615066265 0.03408947766111894 -0.032758331713184596 -0.0013311459479343412 0.004061871457920608 0.0 0.0
0.0 0.030008983365565966 0.026430583142665446 -0.025184148654827487 -0.001246434487837949 0.0032187020284805416 0.0 0.0
0.0 0.023048847040801533 0.020149075834786676 -0.01900514671491377 -0.001143929119872894 0.0025646813995149815 0.0 0.0
0.0 0.01709164166565051 0.015127215355234265 -0.014095876980578204 -0.001031338374656054 0.0020815339100879546 0.0 0.0
0.0 0.012529982524714803 0.011095590780338258 -0.010181936067128314 -0.0009136547132099418 0.0016619293454443623 0.0 0.0
0.0 0.00873929484419554 0.007819128636407725 -0.007029351146206541 -0.0007897774902011826 0.001249760256108194 0.0 0.0
0.0 0.005648425172471643 0.005138439380602245 -0.004488210185588405 -0.0006502291950138403 0.000850705522143995 0.0 0.0
0.0 0.003256688807213528 0.0029892259824014483 -0.0025102320281523327 -0.0004789939542491132 0.0004913246067447163 0.0 0.0
0.0 0.0014300685373810375 0.0013901157887573864 -0.0011090815392253645 -0.000281034249532022 0.00019782811618816292 0.0 0.0
0.0 0.0005256721078393051 0.0003249810972532736 -0.00024311091952726953 -8.187017772600385e-05 -1.5340400302564207e-05 0.0 0.0
0.0 3.648891873994935e-05 3.9019768827357335e-06 -1.891398722534198e-06 -2.0105781602015187e-06 -7.002110808380103e-06 0.0 0.0
0.0 2.176552258655485e-06 -3.0860623212733287e-09 -5.31820845254336e-09 8.404270773840702e-09 2.4377172381075735e-07 0.0 0.0
0.0 1.2634912310065045e-08 -1.367815667713223e-09 1.0394932835817643e-09 3.283223841315191e-10 -4.875689834762404e-10 0.0 0.0
0.0 0.0012869440144077221 0.0007899192197740226 -0.00033776928766631126 -0.00045214993210771143 0.002442686180577447 0.0 0.0
0.0 0.006991543819444578 0.004949432213424773 -0.006838460625493376 0.0018890284120686074 0.001743799478839458 0.0 0.0
0.0 0.005085031117309149 0.0034870241029237303 -0.004922979529784913 0.0014359554268611814 -0.001950264436108549 0.0 0.0
0.0 0.0008192452349145623 0.0004715488934880786 -0.00018326396094695859 -0.0002882849325411201 -0.0016647424790095509 0.0 0.0
0.0 0.0 0.0 0.0 0.0 0.0 0.0 0.0
0.0 -1.0390837439607566e-06 1.1224192617575011e-07 -8.466471595657498e-08 -2.7577210219183563e-08 -7.31158042041032e-08 0.0 0.0
0.0 1.045632276648438e-05 -1.4437213601052652e-05 1.1159543487359036e-05 3.2776701136938575e-06 7.302262037699429e-06 0.0 0.0
0.0 0.00020459092460071667 0.00013134642089969586 -9.575609358742664e-05 -3.559032731226889e-05 -1.6405802681570069e-06 0.0 0.0
0.0 0.0010763179881474211 0.0008794109526872069 -0.0006856521357847211 -0.00019375881690248517 -0.0001880543692502128 0.0 0.0
0.0 0.0024820485473350715 0.0022724161206623813 -0.0018756756704056243 -0.00039674045025675763 -0.00064169955245163 0.0 0.0
0.0 0.004583349655682698 0.0041483659942484685 -0.0035717111607464747 -0.0005766548335019931 -0.00115070385812117 0.0 0.0
0.0 0.007276594970810188 0.006492177107970697 -0.0057692208349121405 -0.0007229562730585534 -0.0017119168995249512 0.0 0.0
0.0 0.010519440299424037 0.009343590901920698 -0.008496219545592112 -0.000847371356328586 -0.002294221256811258 0.0 0.0
0.0 0.014594930297002588 0.012826876955791789 -0.011865236082326406 -0.0009616408734653791 -0.0028901744264786923 0.0 0.0
0.0 0.019455552579211097 0.017166599779500274 -0.016096326722199135 -0.0010702730573011346 -0.0035605038481655972 0.0 0.0
0.0 0.025958245660614093 0.022600040030403182 -0.02143392938568235 -0.0011661106447208303 -0.0044136236402205166 0.0 0.0
0.0 0.033582010385002095 0.029289177079277393 -0.028044675893567756 -0.0012445011857096068 -0.005517782240057834 0.0 0.0
0.0 0.04248535582344733 0.03714899360646002 -0.03584692811583946 -0.0013020654906205579 -0.0067930945790654436 0.0 0.0
0.0 0.0525764952457279 0.045800514706649656 -0.04446419062763704 -0.001336324079012624 -0.007931297952087697 0.0 0.0
0.0 0.06273248364418053 0.05456507902469765 -0.053218719192001614 -0.0013463598326960507 -0.008417890366571899 0.0 0.0
0.0 0.07184479395292401 0.062446850816608626 -0.06111551386674201 -0.0013313369498665177 -0.007733339187631418 0.0 0.0
0.0 0.07851638302361662 0.06823581484440516 -0.06693733791047797 -0.0012984769339272305 -0.00546958489480121 0.0 0.0
0.0 0.08140239373829299 0.07058267802543654 -0.0694200715064726 -0.0011626065189639123 9.875780748735963e-15 0.0 0.0
0.0 0.07851638302361119 0.0682358148443997 -0.06693733791047245 -0.0012984769339272467 0.005469584894823484 0.0 0.0
0.0 0.07184479395291142 0.062446850816597024 -0.06111551386673088 -0.0013313369498660908 0.0077333391876524375 0.0 0.0
0.0 0.0627324836441645 0.05456507902468326 -0.05321871919198767 -0.0013463598326955836 0.008417890366585523 0.0 0.0
0.0 0.052576495245708156 0.04580051470663252 -0.04446419062762063 -0.0013363240790119294 0.007931297952090965 0.0 0.0
0.0 0.04248535582342553 0.03714899360644082 -0.03584692811582086 -0.0013020654906199525 0.0067930945790638 0.0 0.0
0.0 0.033582010384980925 0.029289177079258686 -0.02804467589354992 -0.0012445011857087805 0.00551778224005645 0.0 0.0
0.0 0.025958245660591624 0.022600040030383288 -0.021433929385663048 -0.0011661106447202244 0.004413623640218826 0.0 0.0
0.0 0.01945555257918817 0.01716659977948027 -0.01609632672217995 -0.0010702730573003123 0.003560503848162048 0.0 0.0
0.0 0.014594930296981551 0.012826876955772705 -0.011865236082308151 -0.0009616408734645596 0.0028901744264737063 0.0 0.0
0.0 0.010519440299404943 0.009343590901903433 -0.008496219545575567 -0.0008473713563278566 0.002294221256806091 0.0 0.0
0.0 0.00727659497079364 0.006492177107955759 -0.005769220834898011 -0.0007229562730577438 0.001711916899519981 0.0 0.0
0.0 0.004583349655669703 0.004148365994236649 -0.003571711160735578 -0.0005766548335010672 0.0011507038581175537 0.0 0.0
0.0 0.0024820485473267 0.002272416120653937 -0.0018756756703982062 -0.00039674045025573084 0.0006416995524488468 0.0 0.0
0.0 0.001076317988141273 0.0008794109526823113 -0.0006856521357807534 -0.00019375881690155742 0.00018805436924874624 0.0 0.0
0.0 0.00020459092459812158 0.0001313464208981888 -9.575609358630134e-05 -3.559032731188757e-05 1.6405802680323823e-06 0.0 0.0
0.0 1.0456322765695243e-05 -1.4437213600843541e-05 1.1159543487195916e-05 3.277670113647601e-06 -7.302262037569634e-06 0.0 0.0
0.0 -1.0390837437358132e-06 1.1224192615061098e-07 -8.466471593745809e-08 -2.7577210213149207e-08 7.311580418800225e-08 0.0 0.0
0.0 0.0 0.0 0.0 0.0 0.0 0.0 0.0
0.0 0.000819245234909891 0.0004715488934854511 -0.0001832639609452365 -0.00028828493254021533 0.0016647424790020705 0.0 0.0
0.0 0.005085031117296331 0.0034870241029137626 -0.004922979529771339 0.0014359554268575736 0.0019502644361000198 0.0 0.0
0.0 0.003508287545833339 0.0024094550595021554 -0.0034512553611605787 0.0010418003016584246 -0.0016953952710698935 0.0 0.0
0.0 0.0006676310490101185 0.0002465237770888809 -7.072962039148866e-05 -0.00017579415669739232 -0.0010089690927726784 0.0 0.0
0.0 0.0 0.0 0.0 0.0 0.0 0.0 0.0
0.0 1.5028312787509444e-07 -1.5385716863678778e-08 1.1776366407597212e-08 3.6093504560833587e-09 1.561152117108147e-08 0.0 0.0
0.0 -5.443911579748263e-06 1.8411818937844276e-06 -1.449726006243375e-06 -3.9145588754104615e-07 -2.257650730594172e-06 0.0 0.0
0.0 7.13188664250578e-05 3.1747204799266398e-06 -3.463200367143357e-07 -2.828400443212158e-06 2.6725073977011548e-05 0.0 0.0
0.0 0.0007205207415654345 0.00045779965456478725 -0.00034900836649500057 -0.00010879128806978661 -0.0001360289328397886 0.0 0.0
0.0 0.0017544399298731962 0.0015796397682984143 -0.0012746635666255927 -0.00030497620167282096 -0.0006218917050613173 0.0 0.0
0.0 0.0035487761771651606 0.0031759345128982656 -0.002687672969172024 -0.00048826154372624044 -0.0012786111829619943 0.0 0.0
0.0 0.005822609702656717 0.005182104358316165 -0.004539359671268616 -0.0006427446870475506 -0.001965609268197873 0.0 0.0
0.0 0.008621104130812102 0.007611648374539504 -0.0068414093067502135 -0.0007702390677892869 -0.002675483398091832 0.0 0.0
0.0 0.01205670898016693 0.010561856018359898 -0.009678514667071505 -0.0008833413512883926 -0.003398155096933937 0.0 0.0
0.0 0.01639774454435535 0.01421934940733638 -0.013231917284117442 -0.0009874321232189239 -0.00419629213921055 0.0 0.0
0.0 0.021525704849699512 0.018826158736266294 -0.017746482783240505 -0.0010796759530257774 -0.005187863895569479 0.0 0.0
0.0 0.028245464007087107 0.024525817229685446 -0.02337282964898225 -0.0011529875807031996 -0.006450350720316353 0.0 0.0
0.0 0.03618933353438061 0.03128954962034988 -0.030083113843650894 -0.0012064357766989836 -0.00789833802112052 0.0 0.0
0.0 0.04479591203279545 0.03884133187967411 -0.03759839928008624 -0.0012429325995878932 -0.009222225448842887 0.0 0.0
0.0 0.05378162061146591 0.04661762207981265 -0.04535996274450422 -0.0012576593353083943 -0.009882209851620888 0.0 0.0
0.0 0.06203064220169442 0.05376663813991432 -0.05251904706008178 -0.0012475910798325739 -0.00920331514737282 0.0 0.0
0.0 0.06828222555256976 0.05920904567489028 -0.05799413083631149 -0.001214914838578693 -0.0065378525784704055 0.0 0.0
0.0 0.07118836751950125 0.061548465710900786 -0.060519386165203144 -0.0010290795456976596 1.0802123084907578e-14 0.0 0.0
0.0 0.06828222555256334 0.05920904567488371 -0.057994130836304746 -0.0012149148385789442 0.006537852578494832 0.0 0.0
0.0 0.06203064220168446 0.05376663813990473 -0.052519047060072564 -0.0012475910798321567 0.009203315147395965 0.0 0.0
0.0 0.05378162061145069 0.046617622079798963 -0.04535996274449054 -0.0012576593353084402 0.009882209851635244 0.0 0.0
0.0 0.04479591203277769 0.038841331879658623 -0.03759839928007144 -0.0012429325995871802 0.009222225448846572 0.0 0.0
0.0 0.03618933353436137 0.03128954962033304 -0.030083113843634365 -0.0012064357766986388 0.007898338021118109 0.0 0.0
0.0 0.028245464007068156 0.02452581722966867 -0.02337282964896629 -0.0011529875807023673 0.006450350720314147 0.0 0.0
0.0 0.021525704849680354 0.018826158736249432 -0.017746482783223976 -0.0010796759530254528 0.005187863895567359 0.0 0.0
0.0 0.016397744544336294 0.014219349407319339 -0.013231917284100912 -0.000987432123218425 0.004196292139206537 0.0 0.0
0.0 0.012056708980148 0.010561856018343026 -0.009678514667055087 -0.0008833413512879399 0.0033981550969279465 0.0 0.0
0.0 0.008621104130794892 0.007611648374524209 -0.0068414093067357155 -0.0007702390677884943 0.0026754833980849636 0.0 0.0
0.0 0.0058226097026426 0.005182104358303589 -0.004539359671256887 -0.0006427446870467072 0.001965609268192141 0.0 0.0
0.0 0.0035487761771537084 0.003175934512887708 -0.0026876729691624316 -0.000488261543725275 0.0012786111829575218 0.0 0.0
0.0 0.001754439929866093 0.0015796397682918087 -0.0012746635666199338 -0.0003049762016718754 0.0006218917050582949 0.0 0.0
0.0 0.0007205207415605007 0.00045779965456132935 -0.0003490083664922947 -0.0001087912880690352 0.00013602893283838928 0.0 0.0
0.0 7.131886642366983e-05 3.1747204795694574e-06 -3.46320036461502e-07 -2.828400443107584e-06 -2.6725073976917405e-05 0.0 0.0
0.0 -5.44391157995254e-06 1.841181893814475e-06 -1.4497260062651562e-06 -3.914558875494046e-07 2.2576507306116647e-06 0.0 0.0
0.0 1.5028312785351273e-07 -1.538571686135809e-08 1.1776366405820481e-08 3.6093504555372983e-09 -1.561152116871207e-08 0.0 0.0
0.0 0.0 0.0 0.0 0.0 0.0 0.0 0.0
0.0 0.0006676310490055302 0.0002465237770869204 -7.072962039016901e-05 -0.00017579415669675047 0.0010089690927668014 0.0 0.0
0.0 0.0035082875458230483 0.002409455059494152 -0.003451255361149463 0.0010418003016553086 0.00169539527106377 0.0 0.0
0.0 0.0024078855258743118 0.0015768581487677375 -0.002281357101720271 0.0007044989529525342 -0.0013003721841903842 0.0 0.0
0.0 0.00028360293248215 0.00010850572914358926 -7.249062432076501e-06 -0.00010125666671151279 -0.0005493133834334088 0.0 0.0
0.0 0.0 0.0 0.0 0.0 0.0 0.0 0.0
0.0 0.0 0.0 0.0 0.0 0.0 0.0 0.0
0.0 -2.7158090230012415e-06 -3.4809363915037104e-08 3.656661540245547e-08 -1.7572514874440133e-09 -6.226078312048882e-08 0.0 0.0
0.0 -1.3355630891720202e-05 -1.4587590069618388e-05 1.1714737049268377e-05 2.872853020349927e-06 2.1620581195155523e-05 0.0 0.0
0.0 0.00023975131045914024 0.00019981039841091315 -0.00014962190934421975 -5.018848906669338e-05 -9.157724077819593e-05 0.0 0.0
0.0 0.0013402275828861376 0.0009166301502959755 -0.0007222870600929483 -0.00019434309020302832 -0.00046490865528050807 0.0 0.0
0.0 0.0024335650698116217 0.0022400607915040527 -0.0018542574037848747 -0.0003858033877191761 -0.0012071936430076285 0.0 0.0
0.0 0.004450444976347201 0.0038960914105371203 -0.0033522502267079096 -0.0005438411838292065 -0.0019985804718427183 0.0 0.0
0.0 0.006753494026949901 0.005910113874784941 -0.00523257960968978 -0.0006775342650951612 -0.0027928846043254294 0.0 0.0
0.0 0.009561068039599828 0.00833940301409945 -0.007547505530302479 -0.0007918974837969674 -0.003600600714527513 0.0 0.0
0.0 0.013052295609989018 0.011336280536824764 -0.010441656245850885 -0.0008946242909738811 -0.004469169236629246 0.0 0.0
0.0 0.017539902765934604 0.015107507867289855 -0.014124988194637577 -0.0009825196726522692 -0.005518292879211843 0.0 0.0
0.0 0.022990555886363877 0.019819623585452334 -0.018766720547757847 -0.0010529030376944905 -0.006844005504480458 0.0 0.0
0.0 0.029457712051405075 0.025478830921471275 -0.024373724494599205 -0.0011051064268720603 -0.008362756980533086 0.0 0.0
0.0 0.037199586011772534 0.03187821209473918 -0.03073709473196175 -0.001141117362777418 -0.009762211392740921 0.0 0.0
0.0 0.044917669306507896 0.038618741307212524 -0.03745676613911649 -0.001161975168096042 -0.010547532560076829 0.0 0.0
0.0 0.0521085876660014 0.04502838456693744 -0.043868176686384944 -0.0011602078805524859 -0.010007815407999667 0.0 0.0
0.0 0.05804225259809323 0.05016323589157194 -0.04903701052906623 -0.001126225362505687 -0.007263788288274294 0.0 0.0
0.0 0.06104604077453761 0.05253817869427597 -0.051658225522026875 -0.0008799531722491076 1.0778270637112897e-14 0.0 0.0
0.0 0.05804225259808834 0.05016323589156645 -0.049037010529060454 -0.0011262253625060085 0.0072637882882989335 0.0 0.0
0.0 0.05210858766599276 0.04502838456692871 -0.04386817668637638 -0.0011602078805523087 0.010007815408023504 0.0 0.0
0.0 0.04491766930649589 0.0386187413072015 -0.03745676613910568 -0.0011619751680958263 0.01054753256009111 0.0 0.0
0.0 0.03719958601175699 0.03187821209472566 -0.03073709473194896 -0.0011411173627767128 0.009762211392743761 0.0 0.0
0.0 0.029457712051388904 0.025478830921457165 -0.02437372449458541 -0.001105106426871756 0.008362756980530585 0.0 0.0
0.0 0.02299055588634877 0.019819623585438838 -0.018766720547745176 -0.0010529030376936525 0.006844005504477588 0.0 0.0
0.0 0.01753990276591856 0.015107507867275433 -0.014124988194623607 -0.0009825196726518245 0.0055182928792090235 0.0 0.0
0.0 0.013052295609972942 0.011336280536810793 -0.010441656245837459 -0.0008946242909733255 0.004469169236625036 0.0 0.0
0.0 0.009561068039583395 0.008339403014085082 -0.00754750553028856 -0.0007918974837965241 0.00360060071452127 0.0 0.0
0.0 0.006753494026936537 0.005910113874773328 -0.005232579609679123 -0.0006775342650942066 0.002792884604318543 0.0 0.0
0.0 0.004450444976335718 0.003896091410526762 -0.0033522502266983135 -0.0005438411838284472 0.001998580471836183 0.0 0.0
0.0 0.0024335650698026853 0.0022400607914954624 -0.001854257403777256 -0.00038580338771820736 0.0012071936430027642 0.0 0.0
0.0 0.001340227582880119 0.000916630150291522 -0.0007222870600893376 -0.000194343090202184 0.00046490865527828415 0.0 0.0
0.0 0.0002397513104560305 0.00019981039840885517 -0.00014962190934265362 -5.018848906620134e-05 9.157724077704619e-05 0.0 0.0
0.0 -1.3355630892093062e-05 -1.4587590069108468e-05 1.1714737048866546e-05 2.872853020241891e-06 -2.162058119450959e-05 0.0 0.0
0.0 -2.7158090228317383e-06 -3.4809363986320684e-08 3.656661545823081e-08 -1.7572514719075976e-09 6.226078302461336e-08 0.0 0.0
0.0 0.0 0.0 0.0 0.0 0.0 0.0 0.0
0.0 0.0 0.0 0.0 0.0 0.0 0.0 0.0
0.0 0.0002836029324786457 0.00010850572914225995 -7.249062431189028e-06 -0.00010125666671107069 0.0005493133834291466 0.0 0.0
0.0 0.0024078855258663117 0.0015768581487615209 -0.0022813571017114703 0.0007044989529499478 0.0013003721841857512 0.0 0.0
0.0 0.0014076516207579101 0.0009557429014651491 -0.0013867931287963695 0.00043105022733122 -0.0009169766396597068 0.0 0.0
0.0 0.00011328675941820005 1.1057984901611198e-05 4.395529113982825e-05 -5.501327604143951e-05 -0.0002068819143012177 0.0 0.0
0.0 0.0 0.0 0.0 0.0 0.0 0.0 0.0
0.0 0.0 0.0 0.0 0.0 0.0 0.0 0.0
0.0 -2.24616510734497e-06 1.5972522696188962e-07 -1.2573103519584418e-07 -3.3994191766034275e-08 -4.044500699970223e-07 0.0 0.0
0.0 -3.6825540726746926e-06 -6.776431175415679e-06 5.48459527542013e-06 1.2918358999956332e-06 1.2220095004892164e-05 0.0 0.0
0.0 6.0543841702567026e-05 1.6505372018676897e-05 -1.1792220599953318e-05 -4.7131514187236615e-06 5.436977323604441e-06 0.0 0.0
0.0 0.0005491808783442656 0.0004528458693923083 -0.0003496972572936329 -0.00010314861209867525 -0.0003255750167820154 0.0 0.0
0.0 0.0018928425820233681 0.001319704757352347 -0.0010666342877907512 -0.00025307046956159565 -0.0009032876827347459 0.0 0.0
0.0 0.0030010771160860488 0.0026581775417546917 -0.002234989889839223 -0.0004231876519154704 -0.0017797993214156657 0.0 0.0
0.0 0.004963909159643535 0.004249953504782203 -0.0036894444276693583 -0.0005605090771128435 -0.002630149397016342 0.0 0.0
0.0 0.007195090640676296 0.0061669914302940046 -0.005487600674566384 -0.0006793907557276217 -0.00347959530410404 0.0 0.0
0.0 0.009927974628705104 0.00851809324496559 -0.0077343176672000444 -0.0007837755777655442 -0.004368264240256415 0.0 0.0
0.0 0.013399973603983413 0.011478248293553747 -0.01060667019924454 -0.0008715780943092042 -0.00540845872775522 0.0 0.0
0.0 0.017729170021563954 0.015199467320356614 -0.014258675451641736 -0.0009407918687148681 -0.0066851641816683665 0.0 0.0
0.0 0.02329813758589401 0.01972622551741316 -0.018735696949325045 -0.0009905285680881096 -0.008160692040179126 0.0 0.0
0.0 0.029071494019508815 0.024956891520089577 -0.023927506545682473 -0.001029384974407102 -0.009561663806003064 0.0 0.0
0.0 0.03583220066118405 0.030596688901013434 -0.029539962875533277 -0.0010567260254801568 -0.01041911321822085 0.0 0.0
0.0 0.04243139471773969 0.0362021664382414 -0.03513780982674849 -0.0010643566114929086 -0.010096504832008486 0.0 0.0
0.0 0.04788098267540375 0.04103144200103842 -0.03999977425179574 -0.001031667749242688 -0.007615856916012251 0.0 0.0
0.0 0.05107951945720422 0.04348021337040162 -0.04276676178289004 -0.0007134515875115818 9.42345160237501e-15 0.0 0.0
0.0 0.04788098267540122 0.04103144200103456 -0.03999977425179205 -0.0010316677492424558 0.007615856916034934 0.0 0.0
0.0 0.04243139471773274 0.03620216643823394 -0.035137809826741175 -0.001064356611492802 0.010096504832031276 0.0 0.0
0.0 0.03583220066117479 0.030596688901004622 -0.029539962875524763 -0.0010567260254798255 0.010419113218233767 0.0 0.0
0.0 0.029071494019495915 0.02495689152007855 -0.023927506545672113 -0.0010293849744064327 0.009561663806004313 0.0 0.0
0.0 0.023298137585880497 0.019726225517401528 -0.0187356969493136 -0.0009905285680879218 0.00816069204017545 0.0 0.0
0.0 0.01772917002155141 0.01519946732034521 -0.014258675451630905 -0.0009407918687143015 0.006685164181664816 0.0 0.0
0.0 0.013399973603970605 0.011478248293542232 -0.01060667019923357 -0.0008715780943086599 0.0054084587277522566 0.0 0.0
0.0 0.009927974628693312 0.008518093244955395 -0.007734317667190508 -0.0007837755777648878 0.004368264240252566 0.0 0.0
0.0 0.007195090640662151 0.006166991430282104 -0.005487600674554968 -0.00067939075572714 0.0034795953040971015 0.0 0.0
0.0 0.0049639091596325085 0.0042499535047726385 -0.0036894444276608035 -0.000560509077111833 0.002630149397009233 0.0 0.0
0.0 0.0030010771160761 0.0026581775417460762 -0.0022349898898314305 -0.0004231876519146453 0.0017797993214092227 0.0 0.0
0.0 0.0018928425820151813 0.0013197047573463836 -0.0010666342877857584 -0.00025307046956062437 0.0009032876827306264 0.0 0.0
0.0 0.0005491808783403391 0.0004528458693893419 -0.0003496972572912979 -0.0001031486120980433 0.00032557501678015527 0.0 0.0
0.0 6.0543841700983325e-05 1.6505372018228738e-05 -1.1792220599616407e-05 -4.713151418612394e-06 -5.4369773237969926e-06 0.0 0.0
0.0 -3.682554073569961e-06 -6.776431175285335e-06 5.4845952753186986e-06 1.2918358999665586e-06 -1.222009500467059e-05 0.0 0.0
0.0 -2.246165107199524e-06 1.5972522694916917e-07 -1.257310351860552e-07 -3.3994191763110714e-08 4.0445006996736767e-07 0.0 0.0
0.0 0.0 0.0 0.0 0.0 0.0 0.0 0.0
0.0 0.0 0.0 0.0 0.0 0.0 0.0 0.0
0.0 0.00011328675941572247 1.1057984900832055e-05 4.395529114033982e-05 -5.501327604117211e-05 0.00020688191429847603 0.0 0.0
0.0 0.0014076516207523258 0.0009557429014608311 -0.00138679312879012 0.00043105022732928884 0.0009169766396563542 0.0 0.0
0.0 0.0010770544080379045 0.0004385077052068227 -0.0006353746194901412 0.00019686691428331846 -0.00047063569759739235 0.0 0.0
0.0 -6.495013596387916e-05 -2.4768932860919416e-05 4.8542049523131205e-05 -2.37731166622118e-05 -2.2172389795272557e-05 0.0 0.0
0.0 1.683476983325989e-07 -9.842474380911868e-10 1.1381256918532304e-09 -1.5387825376230337e-10 3.35101228491758e-08 0.0 0.0
0.0 0.0 0.0 0.0 0.0 0.0 0.0 0.0
0.0 -6.002912790152338e-07 2.361648622678751e-08 -1.719295850391252e-08 -6.423527722869078e-09 -1.2456266137436325e-07 0.0 0.0
0.0 -5.582141728189145e-06 -1.5245966372989852e-06 1.2008745772557754e-06 3.23722060043189e-07 4.817657954626444e-06 0.0 0.0
0.0 -1.197859730076027e-05 -1.765341613486314e-05 1.4115917910298133e-05 3.5374982245649086e-06 3.714439273910152e-05 0.0 0.0
0.0 0.00015134394954829721 0.00012356914396225365 -9.535224364965353e-05 -2.8216900312600102e-05 -0.00015501460974433809 0.0 0.0
0.0 0.0008028208551845238 0.0006125413618525008 -0.0004846362871317574 -0.00012790507472074323 -0.0005859518827906767 0.0 0.0
0.0 0.0020950385580799915 0.0014694046748921807 -0.001205219295317206 -0.000264185379574974 -0.0012724356261586169 0.0 0.0
0.0 0.003266003681651791 0.002650196357909164 -0.002244095297624278 -0.00040610106028488545 -0.002154647882239379 0.0 0.0
0.0 0.004870631524468748 0.004067646609662041 -0.003536715383859324 -0.00053093122580272 -0.0030073659670747854 0.0 0.0
0.0 0.006926072488241054 0.005786924806677101 -0.005146513714120375 -0.0006404110925567207 -0.0038737890598773417 0.0 0.0
0.0 0.009473139982058143 0.007953588256020301 -0.007221046824742372 -0.0007325414312779325 -0.004840067057672711 0.0 0.0
0.0 0.012803895590708884 0.010694551927723237 -0.009889753186720387 -0.00080479874100285 -0.0059910913338631746 0.0 0.0
0.0 0.016790894276720016 0.014088556993714854 -0.013230871052615601 -0.000857685941099253 -0.007296571209676867 0.0 0.0
0.0 0.021712014372043315 0.018094696117577042 -0.01719678560258015 -0.0008979105149968934 -0.008591709948211818 0.0 0.0
0.0 0.026902989452412533 0.0225766929039059 -0.021645036390176592 -0.0009316565137292913 -0.009470092564687262 0.0 0.0
0.0 0.03216459401974372 0.02729194999233107 -0.026336952125611508 -0.0009549978667195692 -0.009416402094731295 0.0 0.0
0.0 0.03737216044069126 0.03175569955394988 -0.030825917944887076 -0.0009297816090628084 -0.007531427738702125 0.0 0.0
0.0 0.040887516360493904 0.034305398381809106 -0.033780429164088736 -0.0005249692177203551 7.807990365371609e-15 0.0 0.0
0.0 0.03737216044069053 0.03175569955394735 -0.030825917944884616 -0.0009297816090627414 0.0075314277387219936 0.0 0.0
0.0 0.03216459401973869 0.027291949992325065 -0.026336952125605724 -0.0009549978667193257 0.009416402094751308 0.0 0.0
0.0 0.02690298945240394 0.022576692903897945 -0.021645036390168817 -0.0009316565137291611 0.009470092564697658 0.0 0.0
0.0 0.021712014372034582 0.018094696117569555 -0.017196785602573306 -0.0008979105149962413 0.008591709948212057 0.0 0.0
0.0 0.01679089427670921 0.014088556993705925 -0.01323087105260686 -0.0008576859410990838 0.007296571209672913 0.0 0.0
0.0 0.012803895590698356 0.010694551927714062 -0.009889753186711541 -0.0008047987410025137 0.005991091333859434 0.0 0.0
0.0 0.009473139982049563 0.00795358825601289 -0.00722104682473538 -0.0007325414312775079 0.0048400670576701265 0.0 0.0
0.0 0.00692607248823288 0.0057869248066700985 -0.005146513714113999 -0.0006404110925560981 0.0038737890598740604 0.0 0.0
0.0 0.004870631524459564 0.004067646609654227 -0.0035367153838519153 -0.0005309312258023102 0.0030073659670686965 0.0 0.0
0.0 0.00326600368164301 0.002650196357901972 -0.0022440952976178863 -0.0004061010602840846 0.0021546478822325865 0.0 0.0
0.0 0.0020950385580723128 0.0014694046748863422 -0.0012052192953120847 -0.00026418537957425913 0.0012724356261532243 0.0 0.0
0.0 0.0008028208551793465 0.0006125413618487249 -0.0004846362871287185 -0.00012790507472000602 0.0005859518827872893 0.0 0.0
0.0 0.0001513439495459121 0.0001235691439607054 -9.535224364845261e-05 -2.8216900312252968e-05 0.00015501460974277028 0.0 0.0
0.0 -1.1978597301050327e-05 -1.7653416134602127e-05 1.4115917910093029e-05 3.5374982245090244e-06 -3.714439273869425e-05 0.0 0.0
0.0 -5.582141728649868e-06 -1.524596637269712e-06 1.2008745772328597e-06 3.237220600368875e-07 -4.817657954498651e-06 0.0 0.0
0.0 -6.002912788349186e-07 2.3616486216782317e-08 -1.719295849616168e-08 -6.423527720625745e-09 1.2456266134057105e-07 0.0 0.0
0.0 0.0 0.0 0.0 0.0 0.0 0.0 0.0
0.0 1.6834769789144244e-07 -9.84247435487633e-10 1.1381256888423935e-09 -1.5387825335482658e-10 -3.351012276057265e-08 0.0 0.0
0.0 -6.49501359646743e-05 -2.4768932861037506e-05 4.854204952309949e-05 -2.3773116662062187e-05 2.2172389794381957e-05 0.0 0.0
0.0 0.0010770544080323824 0.00043850770520401203 -0.0006353746194860787 0.00019686691428206775 0.0004706356975946388 0.0 0.0
0.0 0.000346031781999611 0.00016119770771453633 -0.00023508181609684415 7.388410838230858e-05 -0.00021314218565131492 0.0 0.0
0.0 -4.90928239063719e-05 -2.3102731404601062e-05 3.284785466002386e-05 -9.745123255422867e-06 3.315401439504761e-05 0.0 0.0
0.0 2.535276324517265e-06 -4.831974744427683e-09 1.2168905422072356e-08 -7.336930677643471e-09 5.485514330232776e-07 0.0 0.0
0.0 0.0 0.0 0.0 0.0 0.0 0.0 0.0
0.0 -2.859128898207967e-07 9.242535231306326e-09 -7.084965890506323e-09 -2.157569340802201e-09 -5.122909250329696e-08 0.0 0.0
0.0 -7.304314867566208e-06 8.063282652250619e-07 -6.225634337435741e-07 -1.8376483148147992e-07 -3.1105099430526773e-06 0.0 0.0
0.0 -4.307100854749216e-06 -9.560883661518682e-06 7.6036799492680145e-06 1.957203712250653e-06 3.657710439227414e-05 0.0 0.0
0.0 4.823670650025071e-05 -1.8462544321233805e-05 1.4138178121151666e-05 4.324366200082141e-06 2.0968615095383332e-05 0.0 0.0
0.0 0.0002278903469810965 0.00011799645843300812 -9.490546173286943e-05 -2.3090996700138673e-05 -0.00024750488973378806 0.0 0.0
0.0 0.0008506053178220915 0.0005209910910240916 -0.00042423560093741926 -9.675549008667178e-05 -0.000705160694664361 0.0 0.0
0.0 0.0015913804662104133 0.0012041804906012374 -0.0009975829398206012 -0.0002065975507806361 -0.0014106851063779584 0.0 0.0
0.0 0.0027165178992549946 0.0020848527004829714 -0.0017673696118617297 -0.0003174830886212406 -0.0021624903952858427 0.0 0.0
0.0 0.004057792272040257 0.0031841007663739903 -0.00275469085075019 -0.0004294099156237992 -0.002960302083093836 0.0 0.0
0.0 0.005741321091637356 0.004579302871798897 -0.0040491269512253295 -0.0005301759205735624 -0.0038170100779605005 0.0 0.0
0.0 0.00794610297055431 0.006362852130286446 -0.005749058808039979 -0.0006137933222464706 -0.00477183027108707 0.0 0.0
0.0 0.01075604654387348 0.0086139182117774 -0.007937279550000873 -0.0006766386617765288 -0.005837270261357125 0.0 0.0
0.0 0.01415440009416822 0.011373444598495383 -0.010645548466351908 -0.0007278961321434661 -0.006935034123795555 0.0 0.0
0.0 0.017930811479595753 0.014629556447736083 -0.013861095495181773 -0.0007684609525543136 -0.007791149090217507 0.0 0.0
0.0 0.02218450061012445 0.018311029644757656 -0.01750362617578998 -0.000807403468967662 -0.007927640160740337 0.0 0.0
0.0 0.02695646115024747 0.022277516794984582 -0.02146631471083951 -0.0008112020841450398 -0.006840590864731357 0.0 0.0
0.0 0.03055664723469614 0.024945044507290917 -0.02463310620409905 -0.00031193830319188587 6.4145737332932384e-15 0.0 0.0
0.0 0.026956461150247826 0.022277516794982834 -0.021466314710837573 -0.0008112020841452596 0.0068405908647472796 0.0 0.0
0.0 0.022184500610121897 0.018311029644753795 -0.017503626175786498 -0.0008074034689672981 0.007927640160756304 0.0 0.0
0.0 0.01793081147958988 0.014629556447730853 -0.013861095495176797 -0.0007684609525540398 0.0077911490902252585 0.0 0.0
0.0 0.014154400094162252 0.011373444598490635 -0.010645548466347899 -0.0007278961321427381 0.006935034123794581 0.0 0.0
0.0 0.010756046543866268 0.008613918211771649 -0.007937279549995499 -0.0006766386617761428 0.005837270261352699 0.0 0.0
0.0 0.007946102970547306 0.006362852130280501 -0.005749058808034371 -0.0006137933222461288 0.004771830271084318 0.0 0.0
0.0 0.005741321091632827 0.004579302871795151 -0.004049126951221947 -0.0005301759205732043 0.0038170100779587003 0.0 0.0
0.0 0.004057792272034897 0.003184100766369275 -0.0027546908507459556 -0.00042940991562331817 0.002960302083090626 0.0 0.0
0.0 0.002716517899248996 0.002084852700478689 -0.0017673696118580152 -0.0003174830886206744 0.002162490395281679 0.0 0.0
0.0 0.0015913804662053596 0.0012041804905972286 -0.0009975829398172053 -0.0002065975507800235 0.0014106851063724955 0.0 0.0
0.0 0.0008506053178176427 0.0005209910910211823 -0.0004242356009350625 -9.675549008611941e-05 0.0007051606946613386 0.0 0.0
0.0 0.00022789034697872094 0.00011799645843180868 -9.490546173187116e-05 -2.3090996699937675e-05 0.0002475048897316949 0.0 0.0
0.0 4.8236706499370756e-05 -1.8462544321205114e-05 1.413817812114047e-05 4.324366200064705e-06 -2.0968615095652417e-05 0.0 0.0
0.0 -4.30710085565333e-06 -9.560883661341096e-06 7.603679949126971e-06 1.957203712214209e-06 -3.657710439166287e-05 0.0 0.0
0.0 -7.304314868201022e-06 8.063282652360367e-07 -6.225634337520254e-07 -1.8376483148404807e-07 3.1105099431476826e-06 0.0 0.0
0.0 -2.8591288959316563e-07 9.24253522329496e-09 -7.084965884329158e-09 -2.15756933896141e-09 5.122909245679573e-08 0.0 0.0
0.0 0.0 0.0 0.0 0.0 0.0 0.0 0.0
0.0 2.5352763242583978e-06 -4.831974744202714e-09 1.2168905420848461e-08 -7.336930676644521e-09 -5.485514329585872e-07 0.0 0.0
0.0 -4.909282390596358e-05 -2.3102731404103522e-05 3.2847854659412014e-05 -9.745123255308484e-06 -3.315401439394855e-05 0.0 0.0
0.0 0.0003460317819959654 0.00016119770771299614 -0.00023508181609467997 7.388410838168386e-05 0.00021314218564922946 0.0 0.0
0.0 7.834354714193916e-05 2.212466071622861e-06 -4.179948486921625e-06 1.967482415298887e-06 2.078946962487845e-06 0.0 0.0
0.0 -5.471701749807709e-06 -5.997882477952387e-07 9.192769933368479e-07 -3.1948874554160754e-07 7.134056565834526e-07 0.0 0.0
0.0 5.149974561989484e-07 8.315305539707942e-10 5.81062297663047e-10 -1.4125928516329942e-09 1.0360537900382677e-07 0.0 0.0
0.0 5.102853194010992e-07 6.51326980736861e-09 -5.92521034271967e-09 -5.880594646505873e-10 1.0424366580308873e-07 0.0 0.0
0.0 -8.593099250458052e-07 3.008918804294092e-08 -2.426669608445876e-08 -5.822491958475931e-09 -2.039176300560015e-07 0.0 0.0
0.0 2.5641008229970374e-06 -2.518760980933328e-08 1.27120707934381e-08 1.24755390158696e-08 4.767190958111e-07 0.0 0.0
0.0 -3.906043136617334e-06 -3.245793407394622e-06 2.5644183528864497e-06 6.813750545081902e-07 2.6346033257230054e-05 0.0 0.0
0.0 2.2426168715957717e-05 -4.783896255904793e-07 5.859624684471595e-07 -1.075728428567013e-07 -1.2845104644013757e-05 0.0 0.0
0.0 9.090133511754705e-05 8.158321358840325e-06 -7.033033795722311e-06 -1.1252875631179662e-06 -0.00011130305582142195 0.0 0.0
0.0 0.0001791775127589897 2.691061556684151e-05 -2.364390194503191e-05 -3.2667136218096896e-06 -0.00027559182252319864 0.0 0.0
0.0 0.0005670427965891416 0.0001645671341792461 -0.0001452356405360516 -1.9331493643194554e-05 -0.00059031869778234 0.0 0.0
0.0 0.0008819541600294494 0.0004300905902896262 -0.00038286148684868297 -4.722910344094303e-05 -0.001132883434265713 0.0 0.0
0.0 0.0015182860472990355 0.0008591163631904764 -0.0007612908029493176 -9.782556024115778e-05 -0.0017639239323160535 0.0 0.0
0.0 0.0024294462341588863 0.0014810519777490067 -0.001315789379930357 -0.00016526259781865073 -0.0024941628359663997 0.0 0.0
0.0 0.0036084468420626353 0.0023420243124925334 -0.0020994031631120956 -0.00024262114938043477 -0.0033115255849616838 0.0 0.0
0.0 0.005141773289273793 0.00347450085686331 -0.003152435359293821 -0.0003220654975694898 -0.004195852606694991 0.0 0.0
0.0 0.007151286491863852 0.004957092670332943 -0.0045476934393717805 -0.00040939923096116416 -0.005162740387579659 0.0 0.0
0.0 0.009801987100543152 0.006935604558453931 -0.006446933794043811 -0.000488670764410119 -0.006047298384106577 0.0 0.0
0.0 0.01286931902382617 0.009463187987032768 -0.008912432585135563 -0.0005507554018972134 -0.006323627297911542 0.0 0.0
0.0 0.01638654693558742 0.012651661567557143 -0.01203007619932221 -0.0006215853682349177 -0.005564644790690153 0.0 0.0
0.0 0.0208717363604412 0.015366128446267967 -0.015312527935312069 -5.360051095590892e-05 4.5575522522600664e-15 0.0 0.0
0.0 0.01638654693559008 0.012651661567557027 -0.012030076199321869 -0.0006215853682351547 0.005564644790702421 0.0 0.0
0.0 0.012869319023825997 0.009463187987031408 -0.008912432585134454 -0.000550755401896949 0.0063236272979229685 0.0 0.0
0.0 0.009801987100538197 0.006935604558450043 -0.006446933794040209 -0.000488670764409839 0.006047298384110211 0.0 0.0
0.0 0.007151286491859363 0.00495709267033056 -0.004547693439369593 -0.00040939923096096754 0.005162740387577421 0.0 0.0
0.0 0.00514177328926958 0.0034745008568604135 -0.0031524353592910555 -0.00032206549756935823 0.0041958526066910055 0.0 0.0
0.0 0.003608446842059844 0.0023420243124899903 -0.002099403163109705 -0.0002426211493802858 0.003311525584960057 0.0 0.0
0.0 0.002429446234156742 0.001481051977748001 -0.0013157893799295008 -0.00016526259781850044 0.0024941628359651438 0.0 0.0
0.0 0.001518286047296088 0.0008591163631887361 -0.0007612908029478722 -9.782556024086347e-05 0.0017639239323125363 0.0 0.0
0.0 0.0008819541600263012 0.0004300905902879689 -0.00038286148684720835 -4.72291034407607e-05 0.0011328834342620958 0.0 0.0
0.0 0.0005670427965860642 0.00016456713417806697 -0.00014523564053496693 -1.9331493643099784e-05 0.0005903186977785453 0.0 0.0
0.0 0.00017917751275794302 2.6910615566657602e-05 -2.3643901944873142e-05 -3.2667136217844306e-06 0.0002755918225222774 0.0 0.0
0.0 9.090133511685412e-05 8.158321358744213e-06 -7.0330337956446075e-06 -1.1252875630995454e-06 0.00011130305582064345 0.0 0.0
0.0 2.2426168715439634e-05 -4.783896256234555e-07 5.859624684762155e-07 -1.0757284285277696e-07 1.2845104643694815e-05 0.0 0.0
0.0 -3.906043137034943e-06 -3.245793407355272e-06 2.56441835285483e-06 6.813750545004434e-07 -2.634603325687881e-05 0.0 0.0
0.0 2.5641008225426575e-06 -2.5187609804060635e-08 1.2712070789955e-08 1.2475539014106878e-08 -4.7671909570504365e-07 0.0 0.0
0.0 -8.593099251298585e-07 3.0089188041248155e-08 -2.4266696082362417e-08 -5.822491958886435e-09 2.039176300699479e-07 0.0 0.0
0.0 5.10285319165181e-07 6.513269804796147e-09 -5.925210340276538e-09 -5.880594645190752e-10 -1.0424366575315331e-07 0.0 0.0
0.0 5.149974558099532e-07 8.315305537905433e-10 5.810622967492264e-10 -1.4125928505440177e-09 -1.036053789230171e-07 0.0 0.0
0.0 -5.4717017504995684e-06 -5.997882477707762e-07 9.192769932954149e-07 -3.194887455246323e-07 -7.134056565229271e-07 0.0 0.0
0.0 7.834354714069711e-05 2.2124660714787505e-06 -4.179948486696215e-06 1.9674824152173487e-06 -2.0789469626563442e-06 0.0 0.0
0.0 1.2099207334609017e-07 1.020352735332519e-06 -1.5134162904718217e-06 4.930635551392519e-07 -1.7627675091668268e-06 0.0 0.0
0.0 -1.3165705870451246e-06 -1.2277116921195296e-07 1.8282400601383625e-07 -6.005283680187022e-08 -3.184988030623936e-08 0.0 0.0
0.0 3.6187657992177032e-06 1.0195274959671077e-08 7.11349756412122e-09 -1.7308772523796264e-08 7.81723116672718e-07 0.0 0.0
0.0 1.2405663355666563e-06 2.296314495505155e-08 -1.9338392250235115e-08 -3.624752704813151e-09 2.542797602654144e-07 0.0 0.0
0.0 7.821947515459587e-08 1.9553413154148733e-08 -1.741372149231297e-08 -2.139691661835925e-09 -6.284691891100786e-09 0.0 0.0
0.0 1.3548064263496657e-06 2.027879397800174e-09 -1.7982440208853433e-09 -2.29635376911699e-10 1.8888268355036466e-07 0.0 0.0
0.0 -1.0708171047879526e-06 6.994557164779496e-08 -8.083612502003429e-08 1.089055337222853e-08 2.6042436991116045e-05 0.0 0.0
0.0 1.6080110150093137e-05 -1.4894502393241738e-07 1.5167632373297779e-07 -2.7312998005480165e-09 -2.6154064043601437e-05 0.0 0.0
0.0 0.00010086948693600978 -3.2717308050283495e-09 7.061063372659983e-09 -3.789332567619987e-09 -8.778675398677799e-05 0.0 0.0
0.0 0.00015951630854861408 1.0332711153057817e-07 -9.301152826027554e-08 -1.0315583270305598e-08 -0.0002568857171344501 0.0 0.0
0.0 0.00033427965826027587 1.497795885116908e-07 -1.4283148519038199e-07 -6.948103321307966e-09 -0.0004049020843761932 0.0 0.0
0.0 0.00042133104462609074 8.807519043020563e-08 -1.0281747289529876e-07 1.4742282465119686e-08 -0.0007351946300884509 0.0 0.0
0.0 0.0006039865945325079 1.1018270582775446e-06 -7.973325581712096e-07 -3.044945001063731e-07 -0.0011172869240185887 0.0 0.0
0.0 0.0008268620452926168 9.62273759557702e-07 -1.3902005627284517e-07 -8.232537032846604e-07 -0.001659819933019657 0.0 0.0
0.0 0.00117231667327683 -8.437622713807305e-06 8.375242042006379e-06 6.238067180041766e-08 -0.0024174524411939777 0.0 0.0
0.0 0.0016660524951717622 8.746247690629008e-06 -1.938686539873906e-05 1.064061770811022e-05 -0.0034487321588569193 0.0 0.0
0.0 0.002529917316395488 0.0001958390311232202 -0.00023892185188944179 4.308282076622157e-05 -0.004627174250650839 0.0 0.0
0.0 0.003733707554925805 0.000615511970148908 -0.0007081045524780377 9.259258232912886e-05 -0.005792823074550855 0.0 0.0
0.0 0.005452054020761816 0.0014018194677434008 -0.0015532901409254362 0.000151470673182036 -0.006763176947624856 0.0 0.0
0.0 0.008055373964615715 0.003284837746335321 -0.0031992450415637185 -8.559270477160363e-05 -0.006768263375637009 0.0 0.0
0.0 0.013933338943214375 0.006403901576533829 -0.006717238549129149 0.00031333697259532307 5.9310195643647035e-15 0.0 0.0
0.0 0.008055373964619516 0.0032848377463353374 -0.003199245041563808 -8.559270477152894e-05 0.0067682633756474065 0.0 0.0
0.0 0.0054520540207623185 0.0014018194677432138 -0.0015532901409253054 0.00015147067318208994 0.006763176947628544 0.0 0.0
0.0 0.0037337075549200944 0.0006155119701473672 -0.000708104552476128 9.259258232876217e-05 0.005792823074547158 0.0 0.0
0.0 0.002529917316393409 0.0001958390311233297 -0.00023892185188945604 4.308282076612586e-05 0.004627174250646888 0.0 0.0
0.0 0.0016660524951699319 8.746247690506032e-06 -1.9386865398582554e-05 1.0640617708077037e-05 0.003448732158853422 0.0 0.0
0.0 0.0011723166732751152 -8.43762271393852e-06 8.375242042167098e-06 6.238067177127973e-08 0.002417452441191786 0.0 0.0
0.0 0.0008268620452924008 9.622737600055453e-07 -1.3902005668022736e-07 -8.232537033251892e-07 0.0016598199330185683 0.0 0.0
0.0 0.0006039865945300665 1.1018270583396897e-06 -7.973325582722674e-07 -3.0449450006749345e-07 0.001117286924013846 0.0 0.0
0.0 0.00042133104462465406 8.807519060920817e-08 -1.0281747301434308e-07 1.4742282405141686e-08 0.0007351946300855308 0.0 0.0
0.0 0.00033427965825836144 1.4977958859888776e-07 -1.428314852970641e-07 -6.948103301794868e-09 0.00040490208437373744 0.0 0.0
0.0 0.0001595163085483475 1.0332711154701908e-07 -9.30115282625981e-08 -1.031558328439472e-08 0.0002568857171342162 0.0 0.0
0.0 0.00010086948693542694 -3.2717307945806217e-09 7.061063357695029e-09 -3.789332563119489e-09 8.778675398617169e-05 0.0 0.0
0.0 1.6080110149574478e-05 -1.4894502394364374e-07 1.51676323750206e-07 -2.731299806549298e-09 2.6154064043399528e-05 0.0 0.0
0.0 -1.0708171052368318e-06 6.994557164686219e-08 -8.08361250203741e-08 1.0890553373520183e-08 -2.6042436990815345e-05 0.0 0.0
0.0 1.3548064257701182e-06 2.027879393269517e-09 -1.7982440164533427e-09 -2.2963537682250245e-10 -1.8888268341974747e-07 0.0 0.0
0.0 7.821947466927294e-08 1.955341314824257e-08 -1.741372148698716e-08 -2.13969166125215e-09 6.284691988554587e-09 0.0 0.0
0.0 1.2405663350389034e-06 2.2963144945294832e-08 -1.9338392241929008e-08 -3.624752703366745e-09 -2.542797601527055e-07 0.0 0.0
0.0 3.618765798929172e-06 1.0195274960301875e-08 7.113497562151617e-09 -1.7308772522443827e-08 -7.817231166001966e-07 0.0 0.0
0.0 -1.31657058696197e-06 -1.227711692708798e-07 1.8282400609772507e-07 -6.005283682686263e-08 3.184988020971718e-08 0.0 0.0
0.0 1.209920724045834e-07 1.0203527357445762e-06 -1.5134162910857213e-06 4.930635553412495e-07 1.7627675099304734e-06 0.0 0.0
0.0 -1.1154274967154842e-06 6.94027292706571e-08 -1.0140536005932449e-07 3.200263078866925e-08 -1.5472886577778064e-07 0.0 0.0
0.0 1.563318351507121e-07 -8.962566343147133e-09 1.253236508218711e-08 -3.5697987390420057e-09 2.559376361966427e-08 0.0 0.0
0.0 -7.973792108451382e-07 -1.204917363749536e-08 8.854264138521895e-09 3.1949094989739415e-09 -1.7398262980274483e-07 0.0 0.0
0.0 1.490317100255079e-06 4.241911744592017e-08 -3.470315010590186e-08 -7.71596734001991e-09 3.1235457426870176e-07 0.0 0.0
0.0 -9.046999604837317e-07 -2.5830668004379132e-08 1.7516571732222505e-08 8.314096272158702e-09 -2.619781416867651e-07 0.0 0.0
0.0 -1.7522948960078294e-06 -4.261706577210134e-07 3.363242933395681e-07 8.984636438147808e-08 -2.0391359583677053e-06 0.0 0.0
0.0 8.832128507480674e-06 5.019231368236238e-06 -3.990437006465741e-06 -1.0287943617705708e-06 3.5608629398319143e-05 0.0 0.0
0.0 2.640022186386919e-05 9.235476240786093e-08 -2.1330673848467656e-07 1.2095197607683463e-07 -1.3431538178183034e-05 0.0 0.0
0.0 9.108118405241883e-05 -8.24688759959277e-06 7.126750700808876e-06 1.1201368987837353e-06 -0.00011172792736436585 0.0 0.0
0.0 0.0001781448659006454 -2.667107503994695e-05 2.342272079735463e-05 3.2483542425922267e-06 -0.0002750529104351508 0.0 0.0
0.0 0.0005627183629372566 -0.00016414238365213433 0.0001448317697185555 1.9310613933579115e-05 -0.0005904202343474758 0.0 0.0
0.0 0.0008931538924671058 -0.0004300310434776159 0.0003828013049338533 4.7229738543762724e-05 -0.0011299857166141604 0.0 0.0
0.0 0.0015266012401404937 -0.0008642423459205902 0.0007655023153205862 9.874003060000345e-05 -0.0017646203968762792 0.0 0.0
0.0 0.002451042482373154 -0.0014966224385752707 0.0013300515661271548 0.00016657087244811514 -0.002490095428526367 0.0 0.0
0.0 0.003606834529981525 -0.0023472367957590575 0.0021086754580096926 0.00023856133774936443 -0.0033141260064108087 0.0 0.0
0.0 0.004992358846715311 -0.0033335319149389946 0.0030440755172820707 0.0002894563976569232 -0.004277312237704278 0.0 0.0
0.0 0.006401640868863338 -0.004276270521610193 0.003972428561383855 0.00030384196022633644 -0.0054674208401955665 0.0 0.0
0.0 0.007675866784667165 -0.0048180593736501685 0.004558804520778295 0.00025925485287186937 -0.006919067833528537 0.0 0.0
0.0 0.007947940531892362 -0.004487617582904731 0.00433577029869299 0.000151847284211746 -0.00863540310088336 0.0 0.0
0.0 0.006873922423232938 -0.003290671135750307 0.0032115346866966404 7.913644905366464e-05 -0.010082436416260138 0.0 0.0
0.0 0.013131438242235949 -0.0018650729459845816 0.0006879290497058302 0.0011771438962787512 7.866537282685826e-15 0.0 0.0
0.0 0.006873922423238399 -0.003290671135751602 0.0032115346866982888 7.913644905331243e-05 0.010082436416268171 0.0 0.0
0.0 0.007947940531893696 -0.004487617582905267 0.004335770298693601 0.00015184728421166967 0.008635403100889557 0.0 0.0
0.0 0.007675866784664517 -0.0048180593736483 0.004558804520776928 0.0002592548528713704 0.006919067833529727 0.0 0.0
0.0 0.006401640868857201 -0.004276270521605936 0.003972428561379493 0.00030384196022644714 0.005467420840191126 0.0 0.0
0.0 0.0049923588467104645 -0.0033335319149352936 0.0030440755172786876 0.000289456397656605 0.00427731223770076 0.0 0.0
0.0 0.003606834529977293 -0.0023472367957548977 0.0021086754580060267 0.00023856133774887198 0.003314126006407344 0.0 0.0
0.0 0.002451042482369059 -0.0014966224385722978 0.0013300515661243636 0.0001665708724479346 0.0024900954285236687 0.0 0.0
0.0 0.0015266012401349434 -0.0008642423459168018 0.000765502315317345 9.874003059945642e-05 0.0017646203968712713 0.0 0.0
0.0 0.0008931538924625716 -0.0004300310434752326 0.0003828013049316527 4.7229738543579894e-05 0.0011299857166098086 0.0 0.0
0.0 0.0005627183629326511 -0.00016414238365032975 0.0001448317697169912 1.931061393333855e-05 0.0005904202343429234 0.0 0.0
0.0 0.00017814486589994835 -2.667107503980372e-05 2.3422720797200688e-05 3.2483542426029434e-06 0.0002750529104347188 0.0 0.0
0.0 9.108118405161097e-05 -8.24688759956673e-06 7.126750700781614e-06 1.120136898785083e-06 0.00011172792736363412 0.0 0.0
0.0 2.6400221863324778e-05 9.23547624175095e-08 -2.1330673848278995e-07 1.2095197606528427e-07 1.3431538177877324e-05 0.0 0.0
0.0 8.83212850696102e-06 5.019231368184393e-06 -3.99043700642654e-06 -1.028794361757845e-06 -3.560862939791218e-05 0.0 0.0
0.0 -1.7522948966104256e-06 -4.261706577349169e-07 3.3632429335104523e-07 8.984636438387393e-08 2.0391359584950318e-06 0.0 0.0
0.0 -9.046999610048385e-07 -2.5830668016928637e-08 1.7516571743071845e-08 8.314096273852852e-09 2.619781417877792e-07 0.0 0.0
0.0 1.4903170996868914e-06 4.241911743258753e-08 -3.470315009501489e-08 -7.715967337572316e-09 -3.123545741501756e-07 0.0 0.0
0.0 -7.973792112328151e-07 -1.2049173637036891e-08 8.854264135792826e-09 3.194909501241335e-09 1.7398262987621965e-07 0.0 0.0
0.0 1.5633183536249753e-07 -8.96256633991177e-09 1.2532365079843436e-08 -3.5697987399297236e-09 -2.5593763663451428e-08 0.0 0.0
0.0 -1.1154274964526031e-06 6.940272925345171e-08 -1.0140536003419192e-07 3.2002630780733594e-08 1.5472886573936063e-07 0.0 0.0
0.0 0.0 0.0 0.0 0.0 0.0 0.0 0.0
0.0 2.1048115274896888e-08 1.779303116025321e-10 -7.692157692559785e-11 -1.0100873467691951e-10 4.212842558405787e-09 0.0 0.0
0.0 -6.96977332642471e-07 -2.1540156773917086e-08 1.7601164642050715e-08 3.938992131864946e-09 -1.437910681489006e-07 0.0 0.0
0.0 -9.073015980962664e-07 -5.68571413310864e-08 4.755545022616241e-08 9.301691104915119e-09 -2.3445117856962518e-07 0.0 0.0
0.0 7.050047062478842e-06 2.0802058703874076e-07 -1.7913848149806956e-07 -2.8882105540622382e-08 1.335186909563942e-06 0.0 0.0
0.0 1.2399297240423443e-05 2.436003833993059e-06 -1.96489086506343e-06 -4.711129689296162e-07 1.104673579248682e-05 0.0 0.0
0.0 -9.498528164177413e-06 2.2534848351043835e-06 -1.8437334574987454e-06 -4.0975137760558927e-07 3.277292276513976e-06 0.0 0.0
0.0 5.5132066254161506e-05 1.715482042467554e-05 -1.301932719827227e-05 -4.135493226403408e-06 1.74803876422377e-05 0.0 0.0
0.0 0.000227106613252421 -0.00011786725326834517 9.475880022317816e-05 2.3108453045167157e-05 -0.00024784326425162506 0.0 0.0
0.0 0.0008471638647350536 -0.000519391200535418 0.00042283212376010486 9.655907677531284e-05 -0.0007027998627658038 0.0 0.0
0.0 0.0015896058273707227 -0.001203472917751934 0.0009969304167588662 0.00020654250099306682 -0.0014095808746786636 0.0 0.0
0.0 0.0027175952467441804 -0.0020853792821776537 0.0017677651643843728 0.0003176141177932808 -0.0021631932963214412 0.0 0.0
0.0 0.00406359705520144 -0.0031884892480730873 0.0027584704497554766 0.0004300187983176099 -0.0029567755307518847 0.0 0.0
0.0 0.005756425483503774 -0.004594661899721786 0.004063818969620349 0.0005308429301014372 -0.0037971346595864473 0.0 0.0
0.0 0.00795710141356922 -0.006378007558663015 0.005767067617874712 0.0006109399407883019 -0.0047561413271358785 0.0 0.0
0.0 0.010644298311904428 -0.00851650338317843 0.007855013652679214 0.0006614897304992132 -0.005967485152337781 0.0 0.0
0.0 0.013535759231119666 -0.010799119068679858 0.010116684536013863 0.0006824345326659872 -0.007594829808325926 0.0 0.0
0.0 0.015950500412116368 -0.01277568775509903 0.012095307688719347 0.000680380066379684 -0.009708389534060136 0.0 0.0
0.0 0.017438539054630324 -0.013590587673130669 0.012943217267394386 0.0006473704057362831 -0.01189915682281106 0.0 0.0
0.0 0.016220274741899444 -0.011797494328478278 0.011184797460509734 0.0006126968679685432 -0.012419594860341363 0.0 0.0
0.0 0.016458207952595953 -0.009246313966071238 0.007336740521351966 0.001909573444719267 6.8274379205757185e-15 0.0 0.0
0.0 0.016220274741904378 -0.011797494328479388 0.011184797460510806 0.0006126968679685881 0.012419594860354738 0.0 0.0
0.0 0.017438539054629408 -0.013590587673128237 0.012943217267391942 0.0006473704057362887 0.011899156822822325 0.0 0.0
0.0 0.01595050041211038 -0.012775687755094028 0.012095307688714441 0.0006803800663795884 0.009708389534063198 0.0 0.0
0.0 0.013535759231110004 -0.010799119068671977 0.010116684536006478 0.0006824345326654979 0.007594829808322929 0.0 0.0
0.0 0.01064429831189576 -0.008516503383171153 0.007855013652672192 0.0006614897304989541 0.005967485152333783 0.0 0.0
0.0 0.007957101413561905 -0.00637800755865694 0.005767067617869338 0.0006109399407876015 0.004756141327131615 0.0 0.0
0.0 0.005756425483496545 -0.004594661899715049 0.004063818969614075 0.0005308429301009696 0.0037971346595830333 0.0 0.0
0.0 0.004063597055193273 -0.0031884892480664295 0.0027584704497494515 0.0004300187983169789 0.002956775530747237 0.0 0.0
0.0 0.002717595246734451 -0.0020853792821701788 0.0017677651643776546 0.00031761411779252196 0.0021631932963143657 0.0 0.0
0.0 0.001589605827362102 -0.0012034729177450843 0.0009969304167528124 0.0002065425009922718 0.001409580874671429 0.0 0.0
0.0 0.0008471638647292567 -0.0005193912005316083 0.00042283212375690354 9.65590767747048e-05 0.0007027998627619546 0.0 0.0
0.0 0.0002271066132494868 -0.00011786725326668155 9.475880022187083e-05 2.3108453044810623e-05 0.00024784326424938234 0.0 0.0
0.0 5.513206625322705e-05 1.7154820424692543e-05 -1.301932719828773e-05 -4.135493226404867e-06 -1.7480387642775862e-05 0.0 0.0
0.0 -9.498528165026911e-06 2.253484834853607e-06 -1.8437334572972992e-06 -4.09751377556305e-07 -3.277292275708775e-06 0.0 0.0
0.0 1.2399297240003049e-05 2.4360038340262794e-06 -1.96489086508981e-06 -4.711129689365481e-07 -1.104673579254974e-05 0.0 0.0
0.0 7.050047061968048e-06 2.0802058700598645e-07 -1.7913848147090828e-07 -2.888210553508011e-08 -1.3351869094040137e-06 0.0 0.0
0.0 -9.073015986570772e-07 -5.6857141346010775e-08 4.755545023829637e-08 9.301691107725905e-09 2.3445117868003778e-07 0.0 0.0
0.0 -6.969773323641747e-07 -2.1540156766816746e-08 1.7601164636488607e-08 3.938992130327122e-09 1.4379106809095408e-07 0.0 0.0
0.0 2.104811525417068e-08 1.779303114248141e-10 -7.692157684864826e-11 -1.0100873457621018e-10 -4.2128425542012475e-09 0.0 0.0
0.0 0.0 0.0 0.0 0.0 0.0 0.0 0.0
0.0 0.0 0.0 0.0 0.0 0.0 0.0 0.0
0.0 0.0 0.0 0.0 0.0 0.0 0.0 0.0
0.0 -6.673786689358188e-07 -2.6521950268112564e-08 2.1499513791296284e-08 5.022436476819881e-09 -1.3134363579990852e-07 0.0 0.0
0.0 1.8682322036662964e-06 7.292438497842065e-08 -5.975073658410082e-08 -1.3173648394326133e-08 3.735910496881116e-07 0.0 0.0
0.0 1.2897866837922765e-06 2.5087186518422137e-07 -1.9926688807380807e-07 -5.1604977110456604e-08 1.032966549454189e-06 0.0 0.0
0.0 -1.2743635485940828e-05 -9.325165603978392e-07 7.019796836492606e-07 2.3053687674863807e-07 -2.543912747682466e-06 0.0 0.0
0.0 1.6483602185506214e-05 2.6987268006372484e-05 -2.1379569660013185e-05 -5.607698346359497e-06 5.782736562176936e-05 0.0 0.0
0.0 0.0001633566844395464 -0.0001263719740239938 9.782418431368477e-05 2.8547789710309125e-05 -0.0001603004775031465 0.0 0.0
0.0 0.0008004803821658956 -0.0006108707979695962 0.0004831789872405696 0.0001276918107290263 -0.0005841726823854703 0.0 0.0
0.0 0.0020927625052099465 -0.0014676882347386191 0.001203549661329166 0.00026413857340945276 -0.001269064346753669 0.0 0.0
0.0 0.0032611228117554094 -0.0026502516027830485 0.0022441169922504467 0.00040613461053260093 -0.0021543947520296885 0.0 0.0
0.0 0.004871547763483991 -0.004067743799390447 0.0035368932748790186 0.0005308505245114247 -0.003008600471662646 0.0 0.0
0.0 0.006926672036248129 -0.005787183534639242 0.005146686633956627 0.0006404969006826122 -0.0038681061479793007 0.0 0.0
0.0 0.009477028286806617 -0.007960670483033649 0.007227419816704862 0.0007332506663287854 -0.004803516989507784 0.0 0.0
0.0 0.012807152792747467 -0.010710039067964507 0.009906100140721925 0.0008039389272425821 -0.005925509879432057 0.0 0.0
0.0 0.0167258947529283 -0.014042428458547309 0.01319520912150816 0.0008472193370391476 -0.007398199180972911 0.0 0.0
0.0 0.021324590778446874 -0.017705079184338023 0.01684361217319584 0.0008614670111421821 -0.009519077050566836 0.0 0.0
0.0 0.025450930586894203 -0.021054808658895034 0.020213609650127518 0.0008411990087675196 -0.012430946947573535 0.0 0.0
0.0 0.027891488731299697 -0.022804887866891284 0.022014520443446726 0.0007903674234445519 -0.01539632872494452 0.0 0.0
0.0 0.026087324091638393 -0.020881317115650916 0.020170982083205412 0.0007103350324455034 -0.016360552285073295 0.0 0.0
0.0 0.023671580345567537 -0.01685128911595964 0.014257476336125766 0.002593812779833871 6.44883452194378e-15 0.0 0.0
0.0 0.026087324091641224 -0.020881317115650156 0.02017098208320461 0.0007103350324455437 0.016360552285089973 0.0 0.0
0.0 0.027891488731298295 -0.022804887866887433 0.022014520443443347 0.0007903674234440682 0.015396328724961031 0.0 0.0
0.0 0.025450930586885787 -0.021054808658887005 0.020213609650119767 0.0008411990087672254 0.012430946947580769 0.0 0.0
0.0 0.021324590778435567 -0.017705079184328395 0.0168436121731867 0.0008614670111417016 0.009519077050566038 0.0 0.0
0.0 0.01672589475291618 -0.014042428458536916 0.013195209121498033 0.000847219337038879 0.007398199180968407 0.0 0.0
0.0 0.012807152792737392 -0.010710039067955942 0.009906100140714108 0.0008039389272418308 0.005925509879427583 0.0 0.0
0.0 0.009477028286795511 -0.00796067048302413 0.0072274198166956865 0.000733250666328447 0.004803516989503523 0.0 0.0
0.0 0.006926672036235661 -0.005787183534628867 0.0051466866339466635 0.0006404969006822027 0.003868106147973569 0.0 0.0
0.0 0.004871547763471373 -0.004067743799380143 0.0035368932748695873 0.0005308505245105534 0.0030086004716551418 0.0 0.0
0.0 0.0032611228117427615 -0.0026502516027728127 0.0022441169922409647 0.00040613461053184757 0.0021543947520211723 0.0 0.0
0.0 0.0020927625052003284 -0.001467688234731113 0.001203549661322688 0.0002641385734084247 0.00126906434674731 0.0 0.0
0.0 0.0008004803821602186 -0.0006108707979655219 0.0004831789872373301 0.0001276918107281915 0.0005841726823824485 0.0 0.0
0.0 0.00016335668443714278 -0.00012637197402246095 9.782418431250037e-05 2.8547789709960527e-05 0.00016030047750160368 0.0 0.0
0.0 1.648360218495824e-05 2.6987268006044272e-05 -2.137956965975998e-05 -5.607698346284158e-06 -5.782736562126823e-05 0.0 0.0
0.0 -1.2743635486816284e-05 -9.325165607537658e-07 7.019796839347014e-07 2.3053687681907932e-07 2.54391274871406e-06 0.0 0.0
0.0 1.2897866832664232e-06 2.50871865234707e-07 -1.9926688811397106e-07 -5.160497712072453e-08 -1.0329665495732662e-06 0.0 0.0
0.0 1.8682322031391885e-06 7.292438495947189e-08 -5.975073656882235e-08 -1.3173648390657147e-08 -3.73591049577993e-07 0.0 0.0
0.0 -6.673786687448563e-07 -2.6521950260483167e-08 2.1499513785132376e-08 5.022436475351499e-09 1.3134363576041204e-07 0.0 0.0
0.0 0.0 0.0 0.0 0.0 0.0 0.0 0.0
0.0 0.0 0.0 0.0 0.0 0.0 0.0 0.0
0.0 0.0 0.0 0.0 0.0 0.0 0.0 0.0
0.0 0.0 0.0 0.0 0.0 0.0 0.0 0.0
0.0 -1.9885686319327028e-07 -9.042500065212355e-09 7.070759409378278e-09 1.9717406558339976e-09 -3.727888583608044e-08 0.0 0.0
0.0 -2.4744223030299965e-06 -1.8022640795415001e-07 1.4690897587138403e-07 3.331743208276705e-08 -5.041893378248485e-07 0.0 0.0
0.0 9.26770715737616e-06 5.854206958954465e-07 -4.6846332963995034e-07 -1.1695736625549176e-07 1.6487284194018103e-06 0.0 0.0
0.0 1.739196811339994e-05 1.6371985006019007e-05 -1.2985152288256516e-05 -3.3868327177625714e-06 2.9526610538570833e-05 0.0 0.0
0.0 7.24954881072371e-05 -3.852179405484623e-05 2.9218323729173077e-05 9.303470325673397e-06 -3.7383918266100736e-05 0.0 0.0
0.0 0.0005577287355964552 -0.0004544640107756639 0.00035135568226457863 0.00010310832851108477 -0.00033048453451281083 0.0 0.0
0.0 0.0018898321725852648 -0.0013177005533708546 0.0010646993563343452 0.00025300119703650965 -0.0008998374438571777 0.0 0.0
0.0 0.00299853997265183 -0.0026572895058243505 0.0022339435141852364 0.00042334599163911413 -0.0017765112073980704 0.0 0.0
0.0 0.004965180300230656 -0.004250533591040078 0.0036900226683303635 0.0005605109227097112 -0.0026298132490212302 0.0 0.0
0.0 0.0071952436424995644 -0.006166680295171817 0.005487606606733692 0.0006790736884381243 -0.00348124597563646 0.0 0.0
0.0 0.009922748437937416 -0.008512677335561589 0.007729395682512685 0.0007832816530489039 -0.004362488551630514 0.0 0.0
0.0 0.013386122185001851 -0.01146873834986063 0.010596448636243557 0.0008722897136170705 -0.005361096222470756 0.0 0.0
0.0 0.017714597265913828 -0.015201784673516988 0.014258965886386329 0.0009428187871306608 -0.006569091472435246 0.0 0.0
0.0 0.02328816027737541 -0.01974050592293249 0.018752876651778824 0.00098762927115366 -0.008188185944656078 0.0 0.0
0.0 0.02894441256794229 -0.024807299256612226 0.023808774431951146 0.0009985248246610502 -0.01058053222820012 0.0 0.0
0.0 0.03485836292061959 -0.029498932296183597 0.02854025674920555 0.0009586755469780679 -0.013956578539419581 0.0 0.0
0.0 0.03845119756670773 -0.03206762484663413 0.031198912692138796 0.0008687121544953057 -0.01765111375031542 0.0 0.0
0.0 0.036162733345880035 -0.02970871665346137 0.02897931695785509 0.0007293996956062918 -0.019398817330631018 0.0 0.0
0.0 0.03142896556820833 -0.024338429479585654 0.021158872003840336 0.0031795574757453003 9.034873543756206e-15 0.0 0.0
0.0 0.036162733345882034 -0.029708716653459772 0.028979316957853822 0.0007293996956059698 0.019398817330650676 0.0 0.0
0.0 0.03845119756670606 -0.03206762484663002 0.03119891269213546 0.0008687121544945644 0.01765111375033529 0.0 0.0
0.0 0.03485836292061067 -0.029498932296174733 0.028540256749197416 0.0009586755469773196 0.013956578539430005 0.0 0.0
0.0 0.028944412567927506 -0.024807299256599327 0.02380877443193849 0.0009985248246608435 0.010580532228200365 0.0 0.0
0.0 0.02328816027735959 -0.019740505922918844 0.01875287665176544 0.000987629271153403 0.008188185944652255 0.0 0.0
0.0 0.017714597265899877 -0.01520178467350461 0.014258965886374734 0.0009428187871298811 0.006569091472430661 0.0 0.0
0.0 0.013386122184987238 -0.011468738349847777 0.010596448636231322 0.0008722897136164486 0.005361096222465872 0.0 0.0
0.0 0.009922748437922277 -0.008512677335548563 0.007729395682500176 0.0007832816530483853 0.0043624885516252805 0.0 0.0
0.0 0.0071952436424848705 -0.006166680295158972 0.005487606606721689 0.0006790736884372855 0.003481245975628962 0.0 0.0
0.0 0.004965180300216348 -0.004250533591027604 0.003690022668318536 0.0005605109227090672 0.002629813249012649 0.0 0.0
0.0 0.0029985399726398156 -0.0026572895058137565 0.002233943514175634 0.00042334599163812117 0.0017765112073906682 0.0 0.0
0.0 0.0018898321725767384 -0.0013177005533646022 0.0010646993563292026 0.00025300119703539943 0.0008998374438531857 0.0 0.0
0.0 0.000557728735591432 -0.00045446401077206186 0.0003513556822617341 0.00010310832851032756 0.00033048453451034877 0.0 0.0
0.0 7.249548810551071e-05 -3.8521794054343524e-05 2.921832372880167e-05 9.303470325541824e-06 3.738391826592127e-05 0.0 0.0
0.0 1.7391968112456327e-05 1.6371985005899223e-05 -1.2985152288162541e-05 -3.3868327177367276e-06 -2.9526610538394043e-05 0.0 0.0
0.0 9.267707156056763e-06 5.854206957798128e-07 -4.6846332954865056e-07 -1.1695736623114212e-07 -1.6487284191368363e-06 0.0 0.0
0.0 -2.474422303145439e-06 -1.8022640795372814e-07 1.4690897587081943e-07 3.331743208291588e-08 5.041893378418852e-07 0.0 0.0
0.0 -1.988568631114358e-07 -9.042500061442109e-09 7.070759406402369e-09 1.9717406550387577e-09 3.72788858200418e-08 0.0 0.0
0.0 0.0 0.0 0.0 0.0 0.0 0.0 0.0
0.0 0.0 0.0 0.0 0.0 0.0 0.0 0.0
0.0 0.0 0.0 0.0 0.0 0.0 0.0 0.0
0.0 0.0 0.0 0.0 0.0 0.0 0.0 0.0
0.0 0.0 0.0 0.0 0.0 0.0 0.0 0.0
0.0 -1.6494797236909553e-06 -1.25180187868091e-07 9.94793065195467e-08 2.570088134854425e-08 -2.9211865650176426e-07 0.0 0.0
0.0 -6.760796608206902e-06 -1.663683974674564e-06 1.3105446336635635e-06 3.531393410109991e-07 -2.4025929226468698e-06 0.0 0.0
0.0 3.670965723825455e-05 2.3705683502006368e-05 -1.9052568954361116e-05 -4.653114547645031e-06 3.51021079272393e-05 0.0 0.0
0.0 0.0002740522458093947 -0.00021010054933931155 0.00015867893504426558 5.142161429504594e-05 -0.00010628977377639746 0.0 0.0
0.0 0.001345033368434667 -0.0009169631980195503 0.0007227799690444107 0.00019418322897514018 -0.0004684499139724559 0.0 0.0
0.0 0.0024321221602712903 -0.002238493858751017 0.001852635919045992 0.0003858579397050259 -0.0012025466625881658 0.0 0.0
0.0 0.004449789499912849 -0.003896427421963375 0.003352360622264898 0.0005440667996984781 -0.0019955804659566793 0.0 0.0
0.0 0.006754582007182378 -0.005911364050394316 0.005233801429585517 0.0006775626208087971 -0.0027926715397270895 0.0 0.0
0.0 0.00956056292183274 -0.00833864165416328 0.0075472455734832515 0.0007913960806800282 -0.003602266260023729 0.0 0.0
0.0 0.013040097287499195 -0.011324717590089971 0.010431218350733224 0.0008934992393567384 -0.004463062983483354 0.0 0.0
0.0 0.01750311337981608 -0.015077059141526863 0.01409434893596057 0.000982710205566293 -0.00546886663870698 0.0 0.0
0.0 0.02294893941802878 -0.019796866428808242 0.01873903436649343 0.0010578320623147956 -0.006707634035567633 0.0 0.0
0.0 0.029496172332671496 -0.025536774073863813 0.024426354465907588 0.0011104196079562202 -0.008308428084425992 0.0 0.0
0.0 0.037302804280083965 -0.03195527067006562 0.030837451164572666 0.001117819505492953 -0.010629673819914446 0.0 0.0
0.0 0.04438392259207003 -0.037960658054974894 0.03690426226695852 0.001056395788016359 -0.014093689962568878 0.0 0.0
0.0 0.04845848790202901 -0.041286227274516585 0.04036519665981387 0.0009210306147027437 -0.01835683669019696 0.0 0.0
0.0 0.04592403799309502 -0.03842666636247264 0.037701808663532836 0.0007248576989398131 -0.021504858557347812 0.0 0.0
0.0 0.03986687379453302 -0.03179646116244155 0.028076338601201314 0.0037201225612402238 9.514958265732787e-15 0.0 0.0
0.0 0.04592403799309416 -0.03842666636246881 0.03770180866352911 0.0007248576989397075 0.02150485855736836 0.0 0.0
0.0 0.04845848790202309 -0.04128622727450924 0.04036519665980667 0.0009210306147025861 0.018356836690217863 0.0 0.0
0.0 0.04438392259205818 -0.03796065805496368 0.03690426226694783 0.0010563957880158391 0.014093689962580619 0.0 0.0
0.0 0.03730280428006545 -0.03195527067004961 0.0308374511645567 0.0011178195054928864 0.010629673819915354 0.0 0.0
0.0 0.0294961723326547 -0.025536774073848998 0.024426354465893335 0.0011104196079556785 0.008308428084424028 0.0 0.0
0.0 0.022948939418010406 -0.01979686642879225 0.018739034366477995 0.0010578320623142632 0.00670763403556398 0.0 0.0
0.0 0.01750311337979854 -0.01507705914151089 0.014094348935945649 0.0009827102055652342 0.005468866638702331 0.0 0.0
0.0 0.01304009728748009 -0.011324717590073329 0.010431218350716752 0.0008934992393565833 0.004463062983477999 0.0 0.0
0.0 0.00956056292181528 -0.008338641654147917 0.007547245573468832 0.0007913960806790795 0.0036022662600167545 0.0 0.0
0.0 0.006754582007164671 -0.00591136405037895 0.005233801429570824 0.0006775626208081191 0.0027926715397184713 0.0 0.0
0.0 0.004449789499898335 -0.003896427421950692 0.003352360622253188 0.000544066799697502 0.0019955804659497643 0.0 0.0
0.0 0.0024321221602626388 -0.0022384938587422278 0.0018526359190383203 0.0003858579397039062 0.0012025466625832837 0.0 0.0
0.0 0.0013450333684263342 -0.000916963198013278 0.0007227799690392667 0.00019418322897401147 0.0004684499139690318 0.0 0.0
0.0 0.00027405224580582974 -0.0002101005493368558 0.00015867893504238324 5.142161429447295e-05 0.0001062897737750239 0.0 0.0
0.0 3.6709657237258503e-05 2.370568350172632e-05 -1.905256895413647e-05 -4.653114547590057e-06 -3.510210792679119e-05 0.0 0.0
0.0 -6.760796609149696e-06 -1.6636839747552198e-06 1.3105446337266403e-06 3.5313934102855204e-07 2.4025929227857353e-06 0.0 0.0
0.0 -1.6494797235304166e-06 -1.2518018785490416e-07 9.94793065089779e-08 2.570088134592939e-08 2.921186564721411e-07 0.0 0.0
0.0 0.0 0.0 0.0 0.0 0.0 0.0 0.0
0.0 0.0 0.0 0.0 0.0 0.0 0.0 0.0
0.0 0.0 0.0 0.0 0.0 0.0 0.0 0.0
0.0 0.0 0.0 0.0 0.0 0.0 0.0 0.0
0.0 0.0 0.0 0.0 0.0 0.0 0.0 0.0
0.0 0.0 0.0 0.0 0.0 0.0 0.0 0.0
0.0 -1.6427912562006257e-06 -1.4576765561260727e-07 1.1635194098500306e-07 2.9415714627583024e-08 -2.453416837903687e-07 0.0 0.0
0.0 1.1594954475710919e-05 5.793060044608791e-06 -4.590185948691297e-06 -1.2028740959174454e-06 7.048838859268843e-06 0.0 0.0
0.0 3.8925004871792013e-05 -5.107988682726286e-05 3.745056504568299e-05 1.362932178157951e-05 -1.7910149241717694e-05 0.0 0.0
0.0 0.0007478499265664161 -0.0004590558654520356 0.00035127523266977506 0.00010778063278226078 -0.0001471548715792014 0.0 0.0
0.0 0.0017547354286146244 -0.0015791474099010072 0.0012744165394392329 0.00030473087046177397 -0.0006226720392522273 0.0 0.0
0.0 0.003549728341019481 -0.003176406137032447 0.002687934748450315 0.0004884713885821332 -0.0012743351155003685 0.0 0.0
0.0 0.005824029693767576 -0.005183704437411534 0.0045407160393745455 0.0006429883980369872 -0.001963131581059041 0.0 0.0
0.0 0.008622761875595984 -0.007613189640922285 0.006842967472982536 0.0007702221679397382 -0.002675747589853621 0.0 0.0
0.0 0.01205500915366339 -0.010559981209583723 0.009677291236208545 0.0008826899733751728 -0.0033992906561328686 0.0 0.0
0.0 0.0163785572022415 -0.014201907199511603 0.013216030319828488 0.000985876879683115 -0.004188545619290587 0.0 0.0
0.0 0.021468769940229376 -0.018777426570027636 0.017698316255314532 0.0010791103147131124 -0.005144116312796294 0.0 0.0
0.0 0.028174270206285476 -0.02447190406179158 0.023313329914049965 0.001158574147741624 -0.006336501308792586 0.0 0.0
0.0 0.03622953980614999 -0.0313462939695631 0.03012824326507602 0.0012180507044870796 -0.007794611623059748 0.0 0.0
0.0 0.04502789701525115 -0.039053911993253254 0.03782330061790599 0.0012306113753472513 -0.009739219947185851 0.0 0.0
0.0 0.05355200882655091 -0.0463144690789486 0.04516416491790493 0.0011503041610436916 -0.012809869965230944 0.0 0.0
0.0 0.058679689765430955 -0.05042444561711806 0.04945984521454776 0.0009646004025702945 -0.017447588722397222 0.0 0.0
0.0 0.05567578404888606 -0.047212060377538105 0.046513846922497555 0.0006982134550405358 -0.02281984822848624 0.0 0.0
0.0 0.048259155374194264 -0.03944444630775884 0.035215584648818146 0.00422886165894067 9.925220367801302e-15 0.0 0.0
0.0 0.055675784048883716 -0.04721206037753335 0.04651384692249299 0.000698213455040324 0.022819848228506936 0.0 0.0
0.0 0.05867968976542173 -0.05042444561710835 0.04945984521453792 0.0009646004025704059 0.017447588722417903 0.0 0.0
0.0 0.053552008826533666 -0.04631446907893318 0.045164164917889583 0.0011503041610435494 0.012809869965242486 0.0 0.0
0.0 0.04502789701523113 -0.03905391199323567 0.03782330061788876 0.0012306113753469275 0.009739219947188158 0.0 0.0
0.0 0.03622953980613151 -0.031346293969546545 0.030128243265060403 0.0012180507044861116 0.007794611623059161 0.0 0.0
0.0 0.02817427020626414 -0.02447190406177292 0.023313329914031924 0.0011585741477409834 0.006336501308789381 0.0 0.0
0.0 0.02146876994020817 -0.018777426570008804 0.01769831625529675 0.0010791103147120575 0.00514411631279245 0.0 0.0
0.0 0.016378557202218223 -0.014201907199491038 0.013216030319808031 0.0009858768796830023 0.004188545619285398 0.0 0.0
0.0 0.012055009153642722 -0.010559981209565238 0.009677291236191002 0.0008826899733742359 0.0033992906561267967 0.0 0.0
0.0 0.008622761875575296 -0.0076131896409040115 0.006842967472964861 0.0007702221679391517 0.002675747589845705 0.0 0.0
0.0 0.005824029693752353 -0.00518370443739766 0.004540716039361634 0.0006429883980360254 0.001963131581053226 0.0 0.0
0.0 0.0035497283410071525 -0.0031764061370208696 0.0026879347484397944 0.0004884713885810748 0.0012743351154955109 0.0 0.0
0.0 0.0017547354286054522 -0.0015791474098926788 0.001274416539432139 0.0003047308704605393 0.0006226720392486979 0.0 0.0
0.0 0.0007478499265602424 -0.0004590558654476916 0.0003512752326663781 0.00010778063278131253 0.000147154871577345 0.0 0.0
0.0 3.892500487061425e-05 -5.107988682710254e-05 3.745056504559323e-05 1.3629321781508988e-05 1.791014924204928e-05 0.0 0.0
0.0 1.1594954474563821e-05 5.7930600445047215e-06 -4.590185948611141e-06 -1.2028740958934558e-06 -7.048838859155094e-06 0.0 0.0
0.0 -1.642791256056295e-06 -1.457676555988268e-07 1.1635194097405649e-07 2.9415714624769247e-08 2.4534168376624963e-07 0.0 0.0
0.0 0.0 0.0 0.0 0.0 0.0 0.0 0.0
0.0 0.0 0.0 0.0 0.0 0.0 0.0 0.0
0.0 0.0 0.0 0.0 0.0 0.0 0.0 0.0
0.0 0.0 0.0 0.0 0.0 0.0 0.0 0.0
0.0 0.0 0.0 0.0 0.0 0.0 0.0 0.0
0.0 0.0 0.0 0.0 0.0 0.0 0.0 0.0
0.0 -5.301947323951955e-07 -5.211120635768816e-08 4.136700228583785e-08 1.074420407185488e-08 -5.5764332291065365e-08 0.0 0.0
0.0 1.4111094451375043e-05 1.2971803080656493e-05 -1.0054568689198033e-05 -2.917234391458247e-06 8.031824909807473e-06 0.0 0.0
0.0 0.00021739658448685618 -0.00012476454199527288 9.1024238512277e-05 3.3740303482996036e-05 -4.726156149492669e-06 0.0 0.0
0.0 0.0010791297666442354 -0.0008779883647008788 0.0006850671252933234 0.0001929212394075555 -0.00019664279497412566 0.0 0.0
0.0 0.0024857314506690808 -0.002274099495107198 0.0018774697937176147 0.0003966297013895824 -0.0006410741845037836 0.0 0.0
0.0 0.004587573774786752 -0.004151697962846054 0.003574740435256529 0.0005769575275895223 -0.0011476591635382846 0.0 0.0
0.0 0.0072796523602132734 -0.006494849872864391 0.005771643451760225 0.0007232064211041656 -0.001710082358940934 0.0 0.0
0.0 0.010521182482410744 -0.00934495797719501 0.008497695370193152 0.0008472626070018597 -0.002294825782060041 0.0 0.0
0.0 0.014590778378122463 -0.012822841940312748 0.011861956394223657 0.0009608855460890854 -0.0028904679445139383 0.0 0.0
0.0 0.019429944819020717 -0.01714394419718226 0.016075256053797907 0.0010686881433843542 -0.0035509364801128624 0.0 0.0
0.0 0.0258899727704928 -0.022541032849966353 0.021375987022749662 0.0011650458272166912 -0.004380520633920552 0.0 0.0
0.0 0.03348572146999606 -0.02920826896502494 0.02796037646801528 0.0012478924970096403 -0.005452432213249203 0.0 0.0
0.0 0.04247175396762018 -0.03714629682897202 0.03583372637522736 0.001312570453744693 -0.006706877137402417 0.0 0.0
0.0 0.05275228558147421 -0.04597371932336264 0.044637290273890046 0.0013364290494725605 -0.008068814579317754 0.0 0.0
0.0 0.06256972548902329 -0.05440804198134112 0.05315385668393648 0.0012541852974046349 -0.010148759084652412 0.0 0.0
0.0 0.06870953799817826 -0.05948076078184637 0.05846356344085911 0.0010171973409872775 -0.014814214284011137 0.0 0.0
0.0 0.06581173787439358 -0.05625472466356519 0.05560900052375609 0.0006457241398091205 -0.023152580033957506 0.0 0.0
0.0 0.05760162630544981 -0.047525778115282726 0.042825662713546424 0.004700115401736305 9.00234747858164e-15 0.0 0.0
0.0 0.06581173787439142 -0.05625472466356093 0.055609000523752415 0.0006457241398084735 0.023152580033976574 0.0 0.0
0.0 0.0687095379981655 -0.059480760781834355 0.058463563440847 0.001017197340987327 0.014814214284029398 0.0 0.0
0.0 0.06256972548900436 -0.054408041981324186 0.05315385668392009 0.0012541852974041034 0.010148759084663332 0.0 0.0
0.0 0.052752285581451334 -0.045973719323342745 0.04463729027387019 0.0013364290494725106 0.008068814579320745 0.0 0.0
0.0 0.04247175396759744 -0.03714629682895192 0.03583372637520813 0.001312570453743812 0.006706877137402745 0.0 0.0
0.0 0.03348572146997221 -0.029208268965004076 0.027960376467995183 0.00124789249700887 0.005452432213246875 0.0 0.0
0.0 0.02588997277046793 -0.0225410328499444 0.021375987022728336 0.0011650458272160521 0.0043805206339176195 0.0 0.0
0.0 0.019429944818993003 -0.01714394419715829 0.016075256053774266 0.001068688143384033 0.0035509364801082828 0.0 0.0
0.0 0.014590778378098941 -0.01282284194029142 0.0118619563942031 0.0009608855460883247 0.0028904679445089006 0.0 0.0
0.0 0.010521182482388314 -0.009344957977174983 0.008497695370173756 0.0008472626070012178 0.002294825782053594 0.0 0.0
0.0 0.007279652360195348 -0.006494849872848324 0.005771643451744969 0.0007232064211033567 0.0017100823589358593 0.0 0.0
0.0 0.004587573774772443 -0.004151697962832712 0.003574740435244207 0.0005769575275885052 0.00114765916353429 0.0 0.0
0.0 0.0024857314506587526 -0.0022740994950970995 0.0018774697937087366 0.00039662970138836255 0.0006410741845005665 0.0 0.0
0.0 0.0010791297666370803 -0.0008779883646949565 0.0006850671252885043 0.00019292123940645297 0.000196642794972191 0.0 0.0
0.0 0.00021739658448419527 -0.00012476454199385979 9.102423851123068e-05 3.37403034826294e-05 4.726156149362501e-06 0.0 0.0
0.0 1.4111094450503341e-05 1.297180308043477e-05 -1.005456868902233e-05 -2.9172343914125895e-06 -8.031824909628927e-06 0.0 0.0
0.0 -5.301947322418017e-07 -5.211120634290696e-08 4.136700227412343e-08 1.0744204068790724e-08 5.5764332271987006e-08 0.0 0.0
0.0 0.0 0.0 0.0 0.0 0.0 0.0 0.0
0.0 0.0 0.0 0.0 0.0 0.0 0.0 0.0
0.0 0.0 0.0 0.0 0.0 0.0 0.0 0.0
0.0 0.0 0.0 0.0 0.0 0.0 0.0 0.0
0.0 0.0 0.0 0.0 0.0 0.0 0.0 0.0
0.0 0.0 0.0 0.0 0.0 0.0 0.0 0.0
0.0 -9.358286179290562e-07 -9.36213002212803e-08 7.091029120208625e-08 2.2711009019184512e-08 -5.957663808258335e-08 0.0 0.0
0.0 4.041330440750179e-06 -3.670416240546947e-06 1.8513607019105158e-06 1.8190555386364143e-06 3.5681822517712596e-06 0.0 0.0
0.0 0.0004949086958332886 -0.00030268025264524933 0.00022540846044645833 7.727179219879104e-05 1.1178949222072365e-05 0.0 0.0
0.0 0.0014230079976838964 -0.001383969686464728 0.0011040859827678713 0.00027988370369685624 -0.00020137216207643586 0.0 0.0
0.0 0.003273042028189727 -0.0029955947533788474 0.0025167988709773274 0.00047879588240152204 -0.0004913982761334003 0.0 0.0
0.0 0.00565477187272279 -0.005144680632235657 0.004494017470988018 0.0006506631612476357 -0.000849023953048528 0.0 0.0
0.0 0.008743719927957711 -0.007822575420580583 0.007032588724062947 0.0007899866965176327 -0.0012485764342951397 0.0 0.0
0.0 0.01253123322406735 -0.011096302084560385 0.010182876333342018 0.0009134257512183628 -0.001662797163487384 0.0 0.0
0.0 0.01708387274131576 -0.015120032737674715 0.014089487031714552 0.0010305457059601637 -0.002081099236696012 0.0 0.0
0.0 0.023018071069768567 -0.020122039584474567 0.01897936561831102 0.0011426739661635397 -0.002555064368130205 0.0 0.0
0.0 0.029939067782222852 -0.026369630506405416 0.025124350197973176 0.0012452803084322171 -0.003198092874869213 0.0 0.0
0.0 0.038736677885470014 -0.03399353471887089 0.032662613408246347 0.0013309213106245978 -0.0040431730999160465 0.0 0.0
0.0 0.04902377780605011 -0.04290392249831108 0.04151278715009448 0.0013911353482165434 -0.004995742442589651 0.0 0.0
0.0 0.06027710604881467 -0.05264124693040673 0.05122053243087112 0.0014207144995356485 -0.005817973949901853 0.0 0.0
0.0 0.07115530901184346 -0.06206455378727438 0.06067798846380325 0.0013865653234711606 -0.006670309823803698 0.0 0.0
0.0 0.07860124565001461 -0.0683605390306235 0.06724543273208225 0.001115106298541208 -0.010071613057881582 0.0 0.0
0.0 0.07644709912616843 -0.0657696021846984 0.06521428762298598 0.0005553145617123259 -0.021726121804241744 0.0 0.0
0.0 0.06791550957379508 -0.056419679396679856 0.05131636387710765 0.005103315519572159 6.706440958126336e-15 0.0 0.0
0.0 0.0764470991261635 -0.06576960218469238 0.06521428762298072 0.0005553145617116708 0.021726121804256704 0.0 0.0
0.0 0.07860124564999861 -0.06836053903060905 0.06724543273206782 0.001115106298541307 0.01007161305789658 0.0 0.0
0.0 0.07115530901182318 -0.06206455378725647 0.06067798846378617 0.0013865653234702814 0.006670309823812439 0.0 0.0
0.0 0.06027710604878891 -0.052641246930384286 0.05122053243084885 0.00142071449953548 0.005817973949904489 0.0 0.0
0.0 0.04902377780602548 -0.04290392249828915 0.04151278715007387 0.0013911353482153107 0.004995742442589865 0.0 0.0
0.0 0.038736677885442515 -0.033993534718846974 0.03266261340822296 0.001330921310624013 0.0040431730999151904 0.0 0.0
0.0 0.029939067782195104 -0.026369630506381025 0.025124350197949712 0.0012452803084312988 0.0031980928748667936 0.0 0.0
0.0 0.023018071069737047 -0.02012203958444699 0.0189793656182837 0.0011426739661632907 0.0025550643681274336 0.0 0.0
0.0 0.01708387274128894 -0.01512003273765119 0.014089487031691859 0.0010305457059593122 0.0020810992366929416 0.0 0.0
0.0 0.012531233224043689 -0.011096302084538866 0.010182876333321104 0.0009134257512177667 0.0016627971634826993 0.0 0.0
0.0 0.008743719927937398 -0.007822575420561844 0.007032588724045075 0.0007899866965167664 0.0012485764342911256 0.0 0.0
0.0 0.005654771872706709 -0.005144680632220503 0.004494017470973859 0.0006506631612466446 0.000849023953045707 0.0 0.0
0.0 0.00327304202817759 -0.0029955947533671645 0.002516798870966847 0.00047879588240031754 0.0004913982761308192 0.0 0.0
0.0 0.0014230079976764068 -0.0013839696864573806 0.0011040859827617221 0.000279883703695658 0.00020137216207484926 0.0 0.0
0.0 0.0004949086958294887 -0.00030268025264240564 0.00022540846044428548 7.727179219811962e-05 -1.1178949222368012e-05 0.0 0.0
0.0 4.04133043974272e-06 -3.670416240768085e-06 1.8513607020912662e-06 1.8190555386767172e-06 -3.5681822515618294e-06 0.0 0.0
0.0 -9.358286176765532e-07 -9.36213001927943e-08 7.09102911802755e-08 2.2711009012500863e-08 5.957663806372381e-08 0.0 0.0
0.0 0.0 0.0 0.0 0.0 0.0 0.0 0.0
0.0 0.0 0.0 0.0 0.0 0.0 0.0 0.0
0.0 0.0 0.0 0.0 0.0 0.0 0.0 0.0
0.0 0.0 0.0 0.0 0.0 0.0 0.0 0.0
0.0 0.0 0.0 0.0 0.0 0.0 0.0 0.0
0.0 0.0 0.0 0.0 0.0 0.0 0.0 0.0
0.0 -5.195815591976774e-07 -3.5404146550895476e-09 5.832853661253124e-09 -2.292439006161737e-09 -4.0571498951570775e-08 0.0 0.0
0.0 9.77028309783235e-05 -2.5979857723528124e-05 1.7087638634330712e-05 8.892219089197246e-06 1.4412281046312687e-05 0.0 0.0
0.0 0.0007329310997967134 -0.0005868777872522103 0.0004459069505082027 0.0001409708367440078 4.640004135448563e-05 0.0 0.0
0.0 0.002019384549775456 -0.0018918802916409604 0.0015401473718130154 0.0003517329198279446 -6.868905753463055e-05 0.0 0.0
0.0 0.004059183815084426 -0.003732023425041745 0.003181987006953127 0.0005500364180886172 -0.0002107519139711994 0.0 0.0
0.0 0.006801074166569687 -0.006142069071662024 0.005430492982017109 0.000711576089644912 -0.00038488639817646996 0.0 0.0
0.0 0.010224891241646857 -0.00915773105726969 0.008310599639188784 0.0008471314180809024 -0.0005851151206148085 0.0 0.0
0.0 0.014488433231198245 -0.01286333255103945 0.011891464829569194 0.000971867721470252 -0.0007826034480743703 0.0 0.0
0.0 0.019894603858386203 -0.017438509027938875 0.016345404517696706 0.0010931045102421512 -0.0009716669407112083 0.0 0.0
0.0 0.026164431093704178 -0.023150574687197348 0.02193953032193468 0.00121104436526267 -0.0012295882812350502 0.0 0.0
0.0 0.03430629137740611 -0.03022946640897514 0.028909560785579342 0.0013199056233957854 -0.0015900292417188031 0.0 0.0
0.0 0.04415211546201993 -0.038787267860483685 0.037379546487908595 0.001407721372575084 -0.002061909844123069 0.0 0.0
0.0 0.05550987418891606 -0.04862956067198735 0.04716670131868529 0.001462859353302111 -0.0026153391749927264 0.0 0.0
0.0 0.0676442030491752 -0.05910780777666306 0.0576281337604838 0.0014796740161792353 -0.0030512636707932315 0.0 0.0
0.0 0.0792280859003067 -0.06910393564336974 0.06762500713724362 0.0014789285061261805 -0.0031817269316447546 0.0 0.0
0.0 0.0879345269298708 -0.07663377851838482 0.07525069801459663 0.0013830805037881506 -0.004257231313659843 0.0 0.0
0.0 0.08778734252200827 -0.07595663277473591 0.07546295963242024 0.0004936731423156088 -0.01489208004601964 0.0 0.0
0.0 0.08014021857111388 -0.06697569771086792 0.061774082963498005 0.005201614747369879 4.4565046097844174e-15 0.0 0.0
0.0 0.0877873425219998 -0.0759566327747278 0.07546295963241244 0.000493673142315408 0.014892080046028398 0.0 0.0
0.0 0.08793452692985175 -0.0766337785183683 0.07525069801457986 0.00138308050378829 0.004257231313668368 0.0 0.0
0.0 0.07922808590028176 -0.06910393564334795 0.06762500713722243 0.001478928506125572 0.003181726931649622 0.0 0.0
0.0 0.06764420304914594 -0.05910780777663764 0.05762813376045864 0.0014796740161790519 0.003051263670794878 0.0 0.0
0.0 0.055509874188886824 -0.048629560671961676 0.047166701318660464 0.0014628593533012083 0.0026153391749919657 0.0 0.0
0.0 0.04415211546198962 -0.038787267860457116 0.037379546487882706 0.0014077213725744398 0.0020619098441231314 0.0 0.0
0.0 0.03430629137737487 -0.030229466408947643 0.02890956078555302 0.001319905623394589 0.0015900292417180702 0.0 0.0
0.0 0.026164431093669185 -0.023150574687166976 0.021939530321904478 0.0012110443652624846 0.0012295882812337249 0.0 0.0
0.0 0.019894603858355668 -0.017438509027911817 0.016345404517670477 0.0010931045102413352 0.0009716669407093875 0.0 0.0
0.0 0.014488433231169561 -0.012863332551014368 0.011891464829544627 0.0009718677214697346 0.0007826034480718524 0.0 0.0
0.0 0.010224891241624167 -0.009157731057249057 0.008310599639169133 0.0008471314180799252 0.0005851151206126888 0.0 0.0
0.0 0.006801074166551407 -0.006142069071644869 0.005430492982000947 0.0007115760896439203 0.0003848863981749265 0.0 0.0
0.0 0.004059183815071012 -0.003732023425028828 0.003181987006941351 0.0005500364180874756 0.00021075191396995255 0.0 0.0
0.0 0.0020193845497666163 -0.0018918802916321816 0.0015401473718054109 0.00035173291982676976 6.868905753369846e-05 0.0 0.0
0.0 0.0007329310997916012 -0.0005868777872479199 0.0004459069505048159 0.0001409708367431039 -4.6400041354582224e-05 0.0 0.0
0.0 9.770283097710198e-05 -2.5979857723332087e-05 1.7087638634230928e-05 8.892219089101216e-06 -1.4412281046049567e-05 0.0 0.0
0.0 -5.195815598287728e-07 -3.540414662473372e-09 5.83285366314267e-09 -2.2924390006130625e-09 4.057149894124191e-08 0.0 0.0
0.0 0.0 0.0 0.0 0.0 0.0 0.0 0.0
0.0 0.0 0.0 0.0 0.0 0.0 0.0 0.0
0.0 0.0 0.0 0.0 0.0 0.0 0.0 0.0
0.0 0.0 0.0 0.0 0.0 0.0 0.0 0.0
0.0 0.0 0.0 0.0 0.0 0.0 0.0 0.0
0.0 0.0 0.0 0.0 0.0 0.0 0.0 0.0
0.0 1.6321464553081782e-06 4.006124559893654e-08 2.5765206111458338e-08 -6.58264517102701e-08 -3.496809516022476e-07 0.0 0.0
0.0 0.0002452772628759192 -9.228488532602226e-05 6.368710423268137e-05 2.8597781093341703e-05 3.52273739745106e-05 0.0 0.0
0.0 0.0010418807715227448 -0.0008511571448631699 0.000641369960614813 0.0002097871842483553 0.00011585108597593567 0.0 0.0
0.0 0.0024867087151579856 -0.002330402864021444 0.0018787770780668866 0.000451625785954557 0.0001142426103694279 0.0 0.0
0.0 0.004705690340657087 -0.004340474302156035 0.0036604427778937987 0.0006800315242622351 0.0001209543857861959 0.0 0.0
0.0 0.0076310944430365 -0.006968538787879237 0.006087765569203356 0.0008807732186758828 0.00013816575399019373 0.0 0.0
0.0 0.011402328627463218 -0.010265137052503672 0.00919371954618332 0.0010714175063203494 0.00014736732259696924 0.0 0.0
0.0 0.016129469809500432 -0.014336880630986211 0.01306464502221096 0.0012722356087752408 0.00019751008944883064 0.0 0.0
0.0 0.021723450890939765 -0.01939691145305976 0.01790381563420236 0.001493095818857421 0.00028667146596775186 0.0 0.0
0.0 0.028829481326561726 -0.02569331214489366 0.023964048099589817 0.001729264045303807 0.0003249116971539229 0.0 0.0
0.0 0.037649256884347566 -0.033456103859789914 0.03148018019840029 0.001975923661389657 0.00035404697311843805 0.0 0.0
0.0 0.04829003801251834 -0.042773894123056495 0.04056122869592299 0.002212665427133412 0.00028371912454248395 0.0 0.0
0.0 0.06047729619256105 -0.05336662694726953 0.05095638620413752 0.0024102407431320053 8.018174844678753e-05 0.0 0.0
0.0 0.07324445164496154 -0.06442224453894131 0.06188887003889944 0.002533374500041836 -0.00020076968173369462 0.0 0.0
0.0 0.08504290103166802 -0.07460204386250323 0.07205915894304385 0.0025428849194592544 -0.00042087492517603985 0.0 0.0
0.0 0.09402899197967067 -0.08242862223467833 0.07992613845352363 0.0025024837811546906 -0.0006173311180906272 0.0 0.0
0.0 0.09639681064458797 -0.08485637361322883 0.08260395787737776 0.002252415735851119 -0.010004079133501872 0.0 0.0
0.0 0.092496687004363 -0.07834515262017777 0.07051122146703649 0.007833931153141235 2.3175905639050143e-15 0.0 0.0
0.0 0.09639681064457745 -0.08485637361321965 0.0826039578773685 0.0022524157358511615 0.010004079133505199 0.0 0.0
0.0 0.09402899197964844 -0.08242862223465916 0.07992613845350459 0.002502483781154595 0.0006173311180936976 0.0 0.0
0.0 0.08504290103163888 -0.0746020438624776 0.07205915894301917 0.002542884919458521 0.0004208749251786593 0.0 0.0
0.0 0.0732444516449281 -0.06442224453891213 0.061888870038870544 0.0025333745000414285 0.00020076968173463917 0.0 0.0
0.0 0.06047729619252651 -0.053366626947239273 0.05095638620410808 0.0024102407431312554 -8.018174844781102e-05 0.0 0.0
0.0 0.048290038012486436 -0.042773894123028094 0.04056122869589618 0.0022126654271319057 -0.0002837191245426236 0.0 0.0
0.0 0.03764925688431247 -0.033456103859758994 0.03148018019837075 0.0019759236613882537 -0.0003540469731185868 0.0 0.0
0.0 0.02882948132652399 -0.025693312144860547 0.02396404809955756 0.001729264045302982 -0.00032491169715460075 0.0 0.0
0.0 0.02172345089090556 -0.019396911453029755 0.01790381563417339 0.0014930958188563463 -0.0002866714659691236 0.0 0.0
0.0 0.016129469809469117 -0.014336880630958485 0.013064645022184258 0.0012722356087742337 -0.00019751008944924437 0.0 0.0
0.0 0.011402328627438537 -0.010265137052482016 0.009193719546162828 0.0010714175063191924 -0.0001473673225976253 0.0 0.0
0.0 0.007631094443016485 -0.006968538787861059 0.006087765569186393 0.0008807732186746668 -0.0001381657539903994 0.0 0.0
0.0 0.004705690340642566 -0.0043404743021422405 0.0036604427778812246 0.0006800315242610152 -0.0001209543857863401 0.0 0.0
0.0 0.002486708715147946 -0.0023304028640115017 0.0018787770780582353 0.00045162578595326665 -0.00011424261036950024 0.0 0.0
0.0 0.0010418807715170167 -0.000851157144857476 0.0006413699606103287 0.00020978718424714664 -0.00011585108597562347 0.0 0.0
0.0 0.0002452772628739663 -9.228488532508023e-05 6.368710423204272e-05 2.859778109303855e-05 -3.522737397418299e-05 0.0 0.0
0.0 1.6321464551510299e-06 4.006124554086036e-08 2.5765206154719064e-08 -6.582645169559414e-08 3.496809516089585e-07 0.0 0.0
0.0 0.0 0.0 0.0 0.0 0.0 0.0 0.0
0.0 0.0 0.0 0.0 0.0 0.0 0.0 0.0
0.0 0.0 0.0 0.0 0.0 0.0 0.0 0.0
SCALARS Wm float 4
LOOKUP_TABLE default
8.702970268954463 1.886512825585477 3.22782042203012 3.5886370213388603
3.618378601714769 1.861896758314182 0.7382110643574359 1.018270779043152
0.4455152410547944 0.45637070725810763 -0.004705175410356669 -0.006150290792956725
0.4085427998520257 0.4125495827347262 -0.0006421224813019093 -0.0033646604013984676
0.667976792607051 0.606082143739429 0.022656564613400244 0.039238084254221595
1.2083652591262803 0.7694987313079881 0.13507251722157237 0.3037940105967193
2.199834391346381 1.014384340792374 0.44504831890476587 0.7404017316492415
3.65701217975568 1.2772605560557104 0.9790838548900871 1.4006677688098805
5.663021810407514 1.5808005888086152 1.8001482293021547 2.2820729922967438
8.325919864275448 1.9534414484408762 2.974878879389892 3.397599536444682
11.79734200762005 2.4354366582606923 4.582331042227887 4.779574307131478
16.2316500683677 3.0613019889242636 6.669565051193043 6.500783028250398
22.001736641046932 3.8406898438890753 9.511086620454963 8.649960176702896
29.37352712207082 4.783580024388651 13.281042400405987 11.3089046972762
38.48633554672881 5.82690115560222 18.14884123578567 14.510593155340908
49.177751838779514 6.837676408831586 24.144286058036595 18.195789371911367
60.789840307258174 7.631111582698781 30.964129394998334 22.194599329561047
72.21859880374643 8.045444194548972 38.021302751272124 26.15185185792535
82.13846619514537 8.070656630599421 44.440544464258224 29.627265100287715
89.01598617065379 7.768030528944995 49.08963799135502 32.15831765035378
91.37040892342762 7.329296148470154 50.875787744733486 33.16532503022401
89.01598617064889 7.768030528948253 49.08963799134939 32.15831765035127
82.13846619512987 8.070656630600032 44.440544464247665 29.627265100282116
72.21859880371997 8.045444194544231 38.0213027512582 26.151851857917503
60.789840307226655 7.63111158269202 30.964129394982596 22.194599329552016
49.177751838754055 6.8376764088318485 24.144286058020526 18.19578937190168
38.48633554669892 5.826901155594927 18.148841235771926 14.510593155332062
29.3735271220426 4.783580024385116 13.281042400391279 11.308904697266199
22.001736641016862 3.840689843881969 9.511086620441684 8.649960176693217
16.231650068342642 3.0613019889213664 6.669565051180634 6.500783028240646
11.797342007599184 2.4354366582583356 4.582331042217862 4.779574307122987
8.325919864258301 1.9534414484379734 2.9748788793824463 3.397599536437882
5.66302181039506 1.5808005888068708 1.800148229296893 2.2820729922912957
3.657012179746528 1.277260556054272 0.979083854886581 1.400667768805675
2.199834391340425 1.0143843407915898 0.4450483189026512 0.7404017316461844
1.2083652591230618 0.7694987313069783 0.13507251722106345 0.3037940105950202
0.6679767926056438 0.606082143738587 0.02265656461320299 0.039238084253853896
0.40854279985157216 0.4125495827341873 -0.0006421224812811978 -0.003364660401334003
0.4455152410542352 0.4563707072575438 -0.004705175410340535 -0.006150290792968238
3.6183786017115214 1.861896758314514 0.7382110643558357 1.0182707790411716
8.702970268934873 1.8865128255757517 3.227820422024927 3.5886370213341974
9.913269683732658 4.6056798435249 2.4255287053899015 2.8820611348178566
1.2079598285915707 0.2947553666023694 0.3458767489446706 0.5673277130445304
0.2123209028043579 0.21602227858299922 -0.0006053032438733744 -0.0030960725347679704
0.33060160862226534 0.3299849281853836 0.00014497469020762207 0.0004717057466740883
0.5198563886952603 0.4973899084405987 0.00619502435551336 0.016271455899148243
0.9809506967119792 0.6914530520262532 0.09359941579010388 0.19589822889562253
1.816895941313363 0.8693709477714598 0.3422242144673702 0.6053007790745334
3.1028721145501392 1.0765546830180748 0.8160876468465996 1.2102297846854653
4.871756916505105 1.2933108277305447 1.555199540865798 2.0232465479087622
7.180154488444052 1.534636852218882 2.595386253938881 3.050131382286287
10.151314253521797 1.818121889334585 4.0145125770805015 4.31867978710671
14.010988757709358 2.1641158394261018 5.958033737193321 5.888839181089931
18.86839180038845 2.58206131130481 8.428828341992658 7.857502147090981
25.202603322316634 3.069517279695324 11.829631007466828 10.303455035154474
33.0914933688544 3.5948224316458965 16.22200974624839 13.274661190960114
42.42490406889078 4.07156192543837 21.637216684073646 16.716125459378762
52.683844970192936 4.384903870859999 27.867063148222808 20.431877951110124
62.935308604440905 4.45197741680481 34.355404284099706 24.12792690353636
71.93088641403267 4.2601391921513505 40.27686862450361 27.39387859737773
78.25747165926316 3.8651729317344166 44.65520924955089 29.737089477977836
80.56242930193574 3.4852558262886277 46.41651965256349 30.66065382308364
78.25747165925391 3.86517293173126 44.65520924954693 29.737089477975697
71.93088641401992 4.26013919215324 40.276868624494114 27.39387859737257
62.935308604422055 4.451977416805542 34.35540428408715 24.127926903529364
52.68384497016917 4.38490387085841 27.86706314820887 20.431877951101885
42.424904068868116 4.071561925439218 21.637216684059116 16.71612545936979
33.091493368831316 3.594822431644001 16.222009746235578 13.274661190951747
25.20260332229219 3.069517279692869 11.829631007453868 10.30345503514545
18.868391800364893 2.582061311302344 8.42882834198059 7.857502147081957
14.010988757687699 2.1641158394244044 5.958033737182275 5.888839181081016
10.151314253503475 1.8181218893330937 4.014512577071496 4.318679787098888
7.180154488429489 1.5346368522172493 2.5953862539323014 3.050131382279938
4.871756916493982 1.2933108277289822 1.5551995408612382 2.02324654790376
3.102872114542225 1.076554683016958 0.8160876468435879 1.2102297846816779
1.8168959413083372 0.8693709477707863 0.34222421446567014 0.6053007790718803
0.9809506967092809 0.6914530520252666 0.09359941578946036 0.19589822889455402
0.5198563886943007 0.49738990843981556 0.006195024355445652 0.01627145589903954
0.33060160862200627 0.32998492818505165 0.00014497469021728694 0.00047170574673741897
0.212320902804375 0.21602227858295836 -0.000605303243859378 -0.0030960725347239934
1.207959828588367 0.2947553666023786 0.3458767489432355 0.5673277130427521
9.913269683713235 4.605679843515357 2.425528705384872 2.8820611348130036
7.256625283811628 3.590864252403607 1.591385309690053 2.07437572171797
0.7009437569687968 0.09951537018235239 0.21507830649222467 0.38635008029421974
0.13223473687227352 0.1322351733299319 -1.80369121587346e-08 -4.1842074621861334e-07
0.2507084057989234 0.25068897717170036 1.6100009081418768e-05 3.3286181416441866e-06
0.4105519502562228 0.40947105827673574 -0.00012121450889053962 0.0012021064883777689
0.7683197704267117 0.6206938959595011 0.04675072754220326 0.10087514692500758
1.463567517852765 0.7943084654496002 0.22650856576046674 0.44275048664269817
2.588173094543296 0.9983677589891184 0.618259628490051 0.9715457070641272
4.134991190230969 1.203536268156144 1.2369649088192458 1.6944900132555805
6.1644240528218335 1.4253269720719093 2.132883417102786 2.606213663647138
8.749516995001374 1.678844263779462 3.344339868911294 3.726332862310616
12.027510349543377 1.9790159678270625 4.938911549125922 5.1095828325903945
16.34145071086679 2.3477320549458653 7.1606478261790585 6.833070829741869
21.76328686016586 2.778890344564705 9.984885260558729 8.999511255042423
28.6677021530541 3.241130111945286 13.782038187294777 11.644533853814028
36.88988752058356 3.672824913116079 18.48399860283391 14.733064004633572
46.000357142242606 3.9847058391123786 23.90201971163933 18.113631591490904
55.17668509728167 4.089089855543184 29.607507055677864 21.480088186060634
63.2806305551677 3.93872337212943 34.88198605443507 24.459921128603195
69.02284696281266 3.62332683771582 38.80241807587415 26.597102049222713
71.0820632370157 3.1926415212818653 40.41160269253167 27.47781902320216
69.02284696280711 3.6233268377143695 38.80241807587155 26.597102049221185
63.28063055515581 3.9387233721305464 34.88198605442675 24.459921128598516
55.17668509726255 4.089089855539992 29.607507055667867 21.480088186054697
46.00035714222175 3.9847058391100565 23.902019711627744 18.11363159148395
36.88988752056217 3.6728249131145505 18.483998602821785 14.73306400462582
28.667702153031115 3.241130111940389 13.782038187283966 11.644533853806754
21.763286860145207 2.7788903445628526 9.984885260547813 8.999511255034543
16.3414507108465 2.3477320549438976 7.1606478261687405 6.8330708297338685
12.027510349523983 1.9790159678243362 4.938911549116817 5.109582832582828
8.749516994985024 1.6788442637771157 3.344339868904027 3.726332862303884
6.164424052809374 1.4253269720709665 2.132883417097084 2.6062136636413236
4.1349911902213 1.2035362681548534 1.2369649088153394 1.6944900132511096
2.588173094536291 0.998367758987771 0.6182596284875963 0.9715457070609248
1.4635675178484007 0.7943084654486715 0.22650856575927314 0.4427504866404558
0.7683197704245647 0.6206938959585531 0.04675072754179098 0.10087514692422078
0.4105519502555535 0.4094710582760715 -0.00012121450889261363 0.001202106488374612
0.2507084057987598 0.25068897717152105 1.610000908309142e-05 3.3286181557123912e-06
0.1322347368722111 0.13223517332986917 -1.8036912141597065e-08 -4.184207459031903e-07
0.7009437569663722 0.09951537018272119 0.21507830649107978 0.38635008029257123
7.2566252837940945 3.5908642523955456 1.5913853096854491 2.0743757217131016
5.3653224845305685 2.785652698085859 1.067026010001296 1.5126437764434153
0.4411371828188366 0.0675965841458264 0.12090030953477544 0.2526402891382341
0.09335637645086078 0.09335637645086078 0.0 0.0
0.18763004757445773 0.18759190550455682 2.762707400739038e-06 3.5379362500165364e-05
0.32739735785645485 0.3333174384201171 -0.001220794241584481 -0.004699286322077714
0.582504682395863 0.5276571870659686 0.014073450367778094 0.04077404496211619
1.1507578872424078 0.7322492854423073 0.1376885074321887 0.28082009436791144
2.09222025854988 0.9143407619895254 0.4380815722576918 0.7397979243026624
3.431329517935892 1.109321626149303 0.9497154645252167 1.3722924272613721
5.1780300625159565 1.312904196503131 1.6948551216950039 2.170270744317821
7.373480121659784 1.5362268955416032 2.6905106154383525 3.14674261067983
10.190265986345453 1.8005252697267453 4.046400115094617 4.34334060152409
13.764432147554878 2.1159794321186807 5.811347924297613 5.837104791138588
18.51005734049286 2.4897415001929217 8.31130163985888 7.70901420044106
24.401937313153727 2.89753272019266 11.477951733322726 10.02645285963834
31.463807718082634 3.287673553089156 15.418457995560464 12.757676169433019
39.46755905792535 3.595571755103034 20.1107295611281 15.761257741694218
47.61107906217959 3.7358438020552134 25.069971637172316 18.80526362295207
54.8817758502566 3.6492430751782616 29.689109623841514 21.54342315123682
60.11246591933116 3.393289069477965 33.16915736205369 23.550019487799517
61.996318610413006 2.8831020704066512 34.7149350123636 24.398281527642737
60.1124659193277 3.3932890694789895 33.16915736205084 23.55001948779789
54.88177585024529 3.6492430751772678 29.68910962383501 21.543423151233025
47.611079062166 3.7358438020544087 25.0699716371643 18.805263622947283
39.46755905790781 3.595571755100901 20.110729561118657 15.761257741688267
31.463807718064484 3.287673553087464 15.41845799555055 12.757676169426475
24.401937313135647 2.8975327201900063 11.477951733313665 10.026452859631968
18.510057340474976 2.489741500190896 8.311301639849843 7.709014200434234
13.76443214753776 2.1159794321169816 5.811347924289075 5.837104791131702
10.190265986329532 1.800525269724787 4.046400115087228 4.343340601517516
7.3734801216463195 1.536226895540271 2.690510615432187 3.1467426106738596
5.178030062504979 1.3129041965021326 1.6948551216901364 2.1702707443127087
3.4313295179275096 1.109321626148299 0.9497154645218574 1.3722924272573522
2.0922202585441596 0.914340761988474 0.43808157225590677 0.7397979242997783
1.1507578872387363 0.7322492854412255 0.13768850743116326 0.2808200943663468
0.5825046823943958 0.5276571870652005 0.014073450367549745 0.04077404496164537
0.327397357855999 0.33331743841957356 -0.0012207942415655287 -0.004699286322008952
0.1876300475742849 0.18759190550439248 2.762707400018399e-06 3.5379362492379505e-05
0.09335637645076013 0.09335637645076013 0.0 0.0
0.4411371828166439 0.06759658414598242 0.12090030953381617 0.2526402891368452
5.365322484516748 2.785652698079793 1.0670260099978048 1.512643776439151
3.8971510547021952 2.138252686218531 0.6816346061125605 1.0772637623711043
0.3289307384780057 0.10875296910099069 0.0778604052459207 0.1423173641310945
0.0843892689184472 0.0843892689184472 0.0 0.0
0.14639775003646333 0.14640329265820862 -4.2444358086294644e-07 -5.118178164441581e-06
0.26283999220866255 0.26203279152110787 0.00015520489560001964 0.0006519957919546766
0.4450326917255557 0.44698958684252643 -0.0013870388875198364 -0.0005698562294508873
0.8689544710525726 0.6484256987419189 0.07389897641251629 0.14662979589813768
1.6230961039979568 0.8256843662354978 0.27998011031562586 0.5174316274468329
2.751964691366783 1.0081837806540705 0.6858261736047577 1.0579547371079545
4.220418725568335 1.1943439066276156 1.2820862314816148 1.7439885874591052
6.06876497597658 1.3938406087030142 2.096294122472382 2.5786302448011846
8.402024635738927 1.6210982522371178 3.1865276672769927 3.5943987162248177
11.421874148193822 1.892718098360746 4.6728601132628995 4.8562959365701746
15.24790189549545 2.2098454348833827 6.587752217813046 6.450304242799017
20.229994340388984 2.557688511909126 9.244884785927411 8.427421042552453
26.286686678867934 2.910586014358384 12.594234594120278 10.781866070389267
33.091941763228846 3.21616313960369 16.45845241699921 13.41732620662595
40.19719580213609 3.393109914718659 20.685864842672398 16.11822104474503
46.68780732517794 3.375675365662782 24.72111163875059 18.591020320764567
51.504742711871714 3.170931932547522 27.86944077651817 20.46437000280601
53.26359990412938 2.5691534034534467 29.358418512406104 21.336027988269848
51.50474271186934 3.170931932550377 27.869440776514896 20.464370002804067
46.687807325168606 3.3756753656613814 24.721111638745604 18.5910203207616
40.197195802124874 3.39310991471936 20.685864842665055 16.11822104474045
33.0919417632151 3.2161631396034087 16.458452416991037 13.417326206620643
26.286686678853194 2.9105860143578117 12.594234594111882 10.781866070383504
20.229994340373032 2.5576885119066546 9.244884785919636 8.427421042546746
15.24790189548059 2.209845434881696 6.58775221780569 6.450304242793204
11.421874148179505 1.8927180983592795 4.672860113255992 4.856295936564239
8.402024635725637 1.6210982522360609 3.186527667270663 3.5943987162189135
6.068764975964839 1.3938406087019297 2.096294122467097 2.578630244795815
4.2204187255593215 1.1943439066268091 1.2820862314777282 1.7439885874547858
2.7519646913596816 1.0081837806533702 0.6858261736020235 1.0579547371042874
1.623096103992919 0.8256843662341081 0.27998011031419573 0.5174316274446148
0.8689544710497721 0.6484256987409186 0.07389897641184646 0.14662979589700734
0.4450326917245159 0.4469895868416244 -0.00138703888755302 -0.0005698562295553987
0.26283999220822085 0.26203279152065767 0.00015520489559962646 0.0006519957919635857
0.1463977500362395 0.14640329265798396 -4.244435807835282e-07 -5.118178163679836e-06
0.08438926891832366 0.08438926891832366 0.0 0.0
0.3289307384762143 0.10875296910102653 0.07786040524515467 0.1423173641300332
3.897151054691346 2.138252686213736 0.6816346061099717 1.0772637623676387
2.7742627384394782 1.6358095207548058 0.41657726484021557 0.7218759528444566
0.23853317043377742 0.14333304992447665 0.024778707006326398 0.07042141350297444
0.09436886536857976 0.09436886536857976 0.0 0.0
0.12533373486569338 0.12533373486569338 0.0 0.0
0.2149823547137235 0.2149990276574426 -6.475482586783e-06 -1.0197461132249916e-05
0.34589706498515377 0.35420741797843913 -0.0023715042568344005 -0.005938848736450941
0.6199839475449928 0.5356422059496228 0.019518835349707293 0.0648229062456626
1.217965710854306 0.7402732622297018 0.1729056789248581 0.30478676969974616
2.086735207014943 0.8929995438951215 0.4395189341292509 0.7542167289905707
3.3090202076670496 1.0701668745428325 0.910875666814579 1.327977666309637
4.812801692487768 1.2462679242939254 1.5432910016484946 2.0232427665453487
6.690188420186777 1.440877516217869 2.3857366045445296 2.863574299424377
9.089788550353653 1.6692769050423375 3.519639451725295 3.900872193586023
12.23386013806851 1.9350573757314102 5.087345791589278 5.21145697074782
16.226736288793102 2.234878592523361 7.137011454497214 6.854846241772528
21.127214158376717 2.540256158689515 9.754583642146121 8.832374357541081
26.92931841065576 2.8320258922428603 13.033242726270243 11.064049792142653
32.97610951602031 3.0526908124245486 16.504339728467937 13.419078975127825
38.64054722128285 3.1095922951239934 19.88922576903051 15.641729157128347
43.10707695603131 2.9564546959666718 22.754873942401836 17.39574831766282
44.787046681231764 2.2554938923772374 24.236489906464225 18.295062882390297
43.10707695602641 2.956454695965659 22.75487394239941 17.395748317661308
38.640547221276385 3.1095922951242505 19.889225769026364 15.641729157125777
32.976109516008435 3.052690812421772 16.504339728462394 13.419078975124272
26.92931841064322 2.832025892241784 13.033242726263428 11.064049792138006
21.12721415836378 2.5402561586881793 9.754583642139409 8.832374357536203
16.226736288780497 2.2348785925212167 7.137011454491308 6.854846241767976
12.233860138056968 1.9350573757307237 5.0873457915833855 5.211456970742855
9.089788550342075 1.6692769050410845 3.5196394517198564 3.9008721935811344
6.690188420176314 1.4408775162176457 2.38573660453937 2.8635742994192968
4.812801692477827 1.2462679242919477 1.543291001644652 2.023242766541227
3.309020207659509 1.0701668745418955 0.9108756668116295 1.3279776663059828
2.086735207009251 0.8929995438944425 0.43951893412720383 0.7542167289876051
1.2179657108503896 0.7402732622283001 0.1729056789238333 0.304786769698256
0.6199839475431166 0.535642205948766 0.019518835349384096 0.0648229062449666
0.3458970649844713 0.3542074179775125 -0.002371504256783276 -0.005938848736257778
0.21498235471331023 0.21499902765706003 -6.475482590407735e-06 -1.0197461159375038e-05
0.12533373486543198 0.12533373486543198 0.0 0.0
0.09436886536835082 0.09436886536835082 0.0 0.0
0.2385331704323549 0.14333304992431184 0.02477870700583762 0.07042141350220557
2.7742627384314917 1.6358095207513568 0.41657726483839563 0.7218759528417387
1.9003804607744912 1.2321177388391633 0.22096184704191593 0.44730087489341225
0.1954493094961814 0.17887035905034784 0.001257090094332613 0.015321860351501
0.11347151910995966 0.11347151910995966 0.0 0.0
0.12035989214859358 0.12035989214859358 0.0 0.0
0.1816560653476735 0.18156992249796336 7.828390201779132e-06 7.831445950834427e-05
0.27636074462569676 0.2800832527686313 -0.000706439540134466 -0.0030160686028000093
0.4481056252731686 0.4458473860538481 -0.0018126637293902296 0.004070902948710723
0.821988659174417 0.605730976223599 0.060106385202305566 0.15615129774851216
1.5266712500731534 0.7933623995328003 0.27634902434030534 0.45695982620004727
2.4196513097480983 0.9301597941032536 0.5660851981731776 0.923406317471667
3.6190627301270313 1.0915438194755285 1.0448461870872054 1.4826727235642976
5.07685082443138 1.2574935114195995 1.668441430351862 2.1509158826599206
6.914157054443919 1.4467587313312262 2.4972349532405316 2.9701633698721617
9.304431667673072 1.6655573657757965 3.6346219319483617 4.004252369948913
12.387536904161413 1.911402592697357 5.164273180411772 5.311861131052282
16.329069469706624 2.183531527569831 7.2413691491398 6.904168792996989
20.791172744326207 2.4514742754356575 9.593379800003335 8.74631866888722
25.848433601674834 2.6939578619720854 12.448218593884746 10.706257145817997
30.85259633962637 2.8368852686694477 15.366247051508937 12.649464019447972
34.93873999076412 2.75213499388159 17.879131356567505 14.307473640315024
36.59617653287939 1.9487676250455757 19.38569406586157 15.261714841972246
34.938739990762 2.7521349938813344 17.879131356566322 14.307473640314331
30.85259633962019 2.836885268668556 15.366247051505756 12.649464019445878
25.848433601668532 2.6939578619725886 12.4482185938807 10.706257145815245
20.79117274431628 2.4514742754348906 9.59337979999801 8.746318668883381
16.32906946969706 2.1835315275696376 7.241369149134506 6.904168792992919
12.387536904152622 1.9114025926970721 5.164273180407165 5.311861131048385
9.304431667663902 1.6655573657749594 3.634621931943979 4.004252369944967
6.914157054434397 1.4467587313290386 2.497234953236792 2.9701633698685663
5.076850824423165 1.2574935114198005 1.668441430347732 2.1509158826556347
3.6190627301198743 1.0915438194747566 1.0448461870842904 1.4826727235608261
2.4196513097422887 0.9301597941028391 0.5660851981708259 0.9234063174686244
1.5266712500687174 0.7933623995320184 0.27634902433874065 0.4569598261979581
0.8219886591718725 0.6057309762226214 0.06010638520174199 0.15615129774750922
0.44810562527201336 0.4458473860529141 -0.0018126637294626833 0.004070902948561925
0.27636074462521704 0.280083252768081 -0.0007064395401177165 -0.003016068602746167
0.1816560653472533 0.18156992249754975 7.828390200932262e-06 7.831445950258222e-05
0.12035989214830554 0.12035989214830554 0.0 0.0
0.11347151910961704 0.11347151910961704 0.0 0.0
0.19544930949512648 0.17887035905001514 0.0012570900940767266 0.015321860351034599
1.9003804607688592 1.2321177388366102 0.22096184704079574 0.44730087489145304
1.2960828770584034 0.971646224139962 0.11317018694389201 0.21126646597454957
0.1650243607676087 0.18397683630528103 -0.009895788788110716 -0.009056686749561558
0.13497443825297697 0.13498024866819414 -2.3757776738740996e-07 -5.5728374497752275e-06
0.12643837576789094 0.12643837576789094 0.0 0.0
0.16226934445749405 0.16224693234631332 1.8172994548958084e-06 2.0594811725824774e-05
0.22811214882045622 0.2293424638500524 -0.0002489851050995453 -0.0009813299244966333
0.329183889657062 0.34106761530989804 -0.0034465710230547554 -0.008437154629781321
0.5401462553830071 0.4813160070432241 0.010034791612442365 0.04879545672734071
0.9591590938258449 0.6362038242741924 0.09755430532488801 0.22540096422676428
1.6509311596566494 0.7945220811880751 0.32332523239766864 0.5330838460709053
2.488902861682302 0.9226439492589427 0.6094434921959614 0.9568154202273977
3.545387388416504 1.0602754800822132 1.0234485661898063 1.4616633421444847
4.8740745752560874 1.2170758689681513 1.588344516360906 2.0686541899270297
6.579724124006178 1.392009376461121 2.353543554725981 2.8341711928190776
8.8280341676039 1.5942777687870535 3.4265226489513316 3.807233749865515
11.65203362690478 1.8211699747453425 4.814978726965807 5.01588492519363
15.13839294174914 2.06942877578058 6.635616986561834 6.433347179406733
19.012461596069382 2.3208941760933866 8.67419745122409 8.0173699687519
23.060619973686592 2.5315647634820357 10.87788624443931 9.651168965765251
26.84477949631934 2.5453230146785852 13.119871504560718 11.179584977080033
28.547005699422 1.6475996162195894 14.689622554763151 12.209783528439278
26.844779496318207 2.5453230146779706 13.119871504560392 11.179584977079834
23.060619973683856 2.5315647634829808 10.877886244437141 9.651168965763743
19.012461596062995 2.3208941760930624 8.674197451220612 8.017369968749316
15.138392941739085 2.069428775776556 6.635616986558441 6.433347179404087
11.65203362689634 1.8211699747439944 4.814978726961925 5.015884925190423
8.828034167597131 1.5942777687870384 3.426522648947774 3.8072337498623208
6.579724123999565 1.3920093764597592 2.3535435547233052 2.8341711928165005
4.874074575250181 1.2170758689671022 1.58834451635855 2.0686541899245294
3.545387388409756 1.0602754800808765 1.0234485661873332 1.4616633421415477
2.48890286167631 0.9226439492577879 0.609443492193875 0.9568154202246468
1.650931159652287 0.7945220811874284 0.32332523239607375 0.5330838460687848
0.9591590938231297 0.6362038242736798 0.09755430532406441 0.22540096422538536
0.5401462553814865 0.4813160070425079 0.01003479161221643 0.04879545672676187
0.32918388965641915 0.34106761530911367 -0.0034465710230193887 -0.008437154629675278
0.22811214882004788 0.22934246384961748 -0.00024898510509561593 -0.000981329924474034
0.16226934445712846 0.16224693234595436 1.8172994544034804e-06 2.0594811719682714e-05
0.12643837576757466 0.12643837576757466 0.0 0.0
0.13497443825261257 0.13498024866781436 -2.3757776660358785e-07 -5.5728374351892456e-06
0.16502436076704194 0.18397683630483905 -0.009895788788124712 -0.009056686749672404
1.296082877054382 0.9716462241380504 0.11317018694307805 0.2112664659732537
0.839269938707461 0.7270519510277567 0.03020876340464787 0.08200922427505668
0.1586632897395976 0.17515547548092206 -0.004576838141659911 -0.011915347599664625
0.15456089630944334 0.15465631007481936 -7.942672845307354e-06 -8.747109253071001e-05
0.13900181300635514 0.13900181300635514 0.0 0.0
0.1549778810673552 0.1549688527300098 2.5498622371285784e-07 8.773351121642145e-06
0.1957421972305711 0.19507757095138742 0.00011059638460780084 0.0005540298945758986
0.2566103673617528 0.2658316913147417 -0.0022809554083742067 -0.006940368544614716
0.3596378920389222 0.36842358704277384 -0.0026338311210332014 -0.006151863882818364
0.5569594198500756 0.4807374149566512 0.016689474084959712 0.059532530808464594
0.9216479609733698 0.6052717942345734 0.10016655862609077 0.21620960811270568
1.443348519187121 0.7162868852980784 0.24959250354234966 0.47746913034669314
2.1266692690094757 0.8350409439889451 0.48561026818825354 0.8060180568322775
2.9799188302970934 0.96027902395936 0.8098284799814954 1.2098113263562382
4.069422662400776 1.0961795731323465 1.2544522753195755 1.718790813948854
5.506180807814702 1.2539369031774548 1.883681115406502 2.368562789230746
7.376246141489606 1.4393424202984164 2.748728089926864 3.1881756312643255
9.729224320432591 1.66467326230339 3.8745183309464637 4.190032727182738
12.48537283873008 1.8966308292020182 5.232133407789606 5.356608601738454
15.633736192852773 2.155450505311726 6.831948942453749 6.646336745087289
19.0375000075773 2.32399165262397 8.699711468384102 8.01379688656922
20.774100608985556 1.3712607279888347 10.205155490674152 9.197684390322559
19.037500007579197 2.323991652625653 8.699711468384226 8.013796886569322
15.633736192848957 2.1554505053097364 6.831948942452726 6.6463367450864945
12.485372838724638 1.8966308292004288 5.232133407787453 5.356608601736758
9.72922432042877 1.6646732623034406 3.874518330944409 4.19003272718092
7.376246141484849 1.439342420298131 2.7487280899245383 3.188175631262178
5.506180807810257 1.2539369031771463 1.883681115404435 2.3685627892286747
4.069422662396801 1.0961795731309505 1.254452275318329 1.7187908139475236
2.9799188302931827 0.960279023958672 0.80982847998009 1.2098113263544215
2.1266692690058435 0.8350409439883272 0.48561026818692526 0.8060180568305915
1.4433485191837354 0.7162868852974511 0.24959250354127385 0.47746913034501026
0.9216479609712039 0.6052717942341532 0.10016655862543371 0.21620960811161705
0.5569594198485421 0.4807374149559365 0.01668947408469725 0.05953253080790824
0.3596378920381034 0.36842358704199796 -0.002633831121043515 -0.006151863882850842
0.2566103673613257 0.2658316913141628 -0.00228095540833812 -0.006940368544499052
0.19574219723014735 0.19507757095094913 0.00011059638460734533 0.0005540298945909012
0.15497788106699734 0.1549688527296604 2.549862230170516e-07 8.7733511139407e-06
0.13900181300600092 0.13900181300600092 0.0 0.0
0.154560896309073 0.15465631007443764 -7.9426728438462e-06 -8.747109252077777e-05
0.15866328973932387 0.17515547548029026 -0.004576838141583156 -0.011915347599383239
0.8392699387051016 0.7270519510265572 0.030208763404270183 0.08200922427427434
0.5594694342929544 0.5574508725684145 0.0008116063618899902 0.00120695536264967
0.15865192074953194 0.15913471265360785 -0.00012805626929924418 -0.00035473563477659355
0.16972492819918006 0.16974245565712037 -9.038683591991786e-07 -1.6623589581121507e-05
0.1542518758097493 0.1542700215528654 -1.1251006770666433e-06 -1.7020642439032754e-05
0.15715007517009238 0.15711392801362753 4.197779080709848e-06 3.194937738412248e-05
0.17990963591575082 0.17999401294034473 -3.604873582223196e-06 -8.077215101174288e-05
0.2147095845380837 0.2206659662205867 -0.0013304590626444335 -0.004625922619858608
0.26045515828590593 0.25829582699215375 -5.3261688283933514e-05 0.0022125929820360265
0.32415937146961293 0.3001542376199689 0.005264517021716581 0.018740616827927402
0.42896788967488875 0.3683948266348716 0.015154602791109993 0.04541846024890708
0.6357611638525044 0.4570409361508888 0.059450257390185945 0.11926997031142966
0.9181740049572363 0.5402969090872124 0.12290087229862254 0.2549762235714013
1.3188027145187224 0.6301396474860538 0.24074255690149124 0.44792051013117723
1.862463690048111 0.7219845264297681 0.42693424516260015 0.7135449184557436
2.5886738077754727 0.8196474209400566 0.6995307130740334 1.0694956737613814
3.5747089620632995 0.9520072052869074 1.0897599904948576 1.5329417662815343
4.910850440120945 1.1352943559890933 1.6462319165678434 2.129324167564007
6.695964742443649 1.3621568197006655 2.443097633504677 2.890710289238307
8.815534928631566 1.5855995583854967 3.433764490950313 3.796170879295756
11.484720678893463 1.9397564565271472 4.66380095080719 4.8811632715591236
13.695215300013492 1.1369475422388353 6.328619994550465 6.2296477632241904
11.484720678893666 1.93975645652564 4.6638009508081275 4.881163271559896
8.815534928630537 1.585599558384552 3.4337644909502516 3.7961708792957367
6.695964742442964 1.362156819703018 2.4430976335031205 2.890710289236826
4.910850440116242 1.1352943559869535 1.6462319165665316 2.1293241675627566
3.574708962061148 0.9520072052872364 1.0897599904937059 1.5329417662802052
2.5886738077738447 0.8196474209400275 0.6995307130733723 1.0694956737604446
1.8624636900467046 0.7219845264292978 0.42693424516215994 0.7135449184552474
1.318802714517444 0.6301396474863621 0.24074255690085966 0.44792051013022177
0.9181740049555775 0.5402969090870151 0.12290087229807609 0.2549762235704859
0.635761163850464 0.4570409361501609 0.059450257389677304 0.11926997031062594
0.42896788967403193 0.3683948266342325 0.015154602791059943 0.04541846024873941
0.32415937146919604 0.30015423761974974 0.005264517021653908 0.01874061682779233
0.26045515828550875 0.2582958269918365 -5.326168830470683e-05 0.002212592981977009
0.2147095845377215 0.2206659662201468 -0.0013304590626259081 -0.004625922619799452
0.17990963591538459 0.17999401293995992 -3.604873580265281e-06 -8.077215099507151e-05
0.15715007516964966 0.15711392801318252 4.197779080708162e-06 3.194937738642501e-05
0.15425187580938124 0.15427002155248865 -1.125100676383091e-06 -1.702064243101171e-05
0.16972492819879975 0.16974245565672616 -9.038683582517383e-07 -1.6623589568169255e-05
0.15865192074934048 0.15913471265339907 -0.00012805626929732666 -0.00035473563476134804
0.5594694342916219 0.5574508725671831 0.0008116063618672738 0.0012069553625715002
0.37823366667378233 0.37761980164079967 7.607804066576123e-05 0.0005377869923169256
0.15611076260299545 0.1561443960916703 -6.20502907664268e-06 -2.7428459598192294e-05
0.1794893864884576 0.17962527724540525 -1.1143274495061744e-05 -0.00012474748245261706
0.16921708058289153 0.16926168545415055 -3.0090264717618683e-06 -4.159584478721377e-05
0.16622002481845097 0.16621956852292444 1.2746668436716983e-06 -8.183713171120655e-07
0.179236558809565 0.17926881758882643 2.194431352722773e-06 -3.445321061420714e-05
0.20275832151489492 0.20840612898579813 -0.0012041789503452558 -0.004443628520557987
0.22948969435540245 0.22455031296700564 0.0003970905275376982 0.004542290860859064
0.25171459118432155 0.23076332084345458 0.005549601586665894 0.01540166875420112
0.2772510520237716 0.21703671721278647 0.01575244131177763 0.04446189349920739
0.3132617133016354 0.2087859252331578 0.03414992555843538 0.07032586251004226
0.3692416784050364 0.18687759179606755 0.056403644891839536 0.1259604417171291
0.45619366658165716 0.1839580991768925 0.09151269740739358 0.18072286999737114
0.5894404606834657 0.197987479426064 0.14148850987333556 0.24996447138406613
0.802606320697226 0.24199806715943034 0.21865193581666562 0.34195631772112983
1.1082296458241412 0.2822641122955202 0.32708493743549905 0.49888059609312224
1.5566945383433612 0.28238867677052415 0.5212806317069887 0.7530252298658481
2.2180885848569734 0.2819744274652017 0.8219645358837415 1.114149621508029
3.2982321724106223 0.4191122874503133 1.273456701920722 1.605663183039588
5.36361355716855 1.0510638838481734 1.9271835743389008 2.385366098981475
8.775854794424347 0.9182976598933235 3.7198660540979254 4.1376910804330995
5.363613557171313 1.0510638838485757 1.9271835743401526 2.385366098982586
3.2982321724117902 0.4191122874513247 1.2734567019207932 1.6056631830396737
2.2180885848516385 0.2819744274624851 0.8219645358824956 1.1141496215066582
1.556694538344514 0.28238867677269563 0.521280631706433 0.7530252298653841
1.108229645822442 0.2822641122950459 0.327084937435007 0.4988805960923892
0.802606320696193 0.24199806715881655 0.21865193581643466 0.34195631772094226
0.5894404606840904 0.1979874794268779 0.14148850987328326 0.24996447138392885
0.45619366657990423 0.18395809917636863 0.0915126974068877 0.180722869996648
0.36924167840421623 0.1868775917960186 0.05640364489159507 0.12596044171660287
0.31326171330097197 0.20878592523317388 0.034149925558174574 0.07032586250962335
0.2772510520237139 0.2170367172127844 0.015752441311761258 0.04446189349916822
0.2517145911842447 0.23076332084353318 0.005549601586617244 0.015401668754094325
0.22948969435505825 0.22455031296671918 0.00039709052751752837 0.004542290860821634
0.2027583215146248 0.20840612898546318 -0.0012041789503297053 -0.004443628520508685
0.17923655880918307 0.1792688175884219 2.194431354928429e-06 -3.445321059380875e-05
0.16622002481807102 0.1662195685225275 1.2746668447383521e-06 -8.183713012188865e-07
0.16921708058249985 0.16926168545373899 -3.009026470089872e-06 -4.1595844769073125e-05
0.17948938648813653 0.17962527724507155 -1.1143274493439908e-05 -0.00012474748244152296
0.15611076260279905 0.15614439609150654 -6.205029079821768e-06 -2.7428459627655325e-05
0.37823366667293207 0.37761980163970227 7.607804068683172e-05 0.0005377869925429684
0.25347204973815085 0.25343099179009326 3.1449235594818967e-06 3.791302449810016e-05
0.14734894710519483 0.14735529312427928 -7.4288778474509e-07 -5.603131299709842e-06
0.18290639066865097 0.18287577900030674 2.893602342382726e-06 2.7718066001837145e-05
0.1818292764352924 0.18188509286147903 -4.477284794431172e-06 -5.13391413922115e-05
0.17992672698812393 0.17987919266083793 7.5083836910334716e-06 4.002594359496312e-05
0.19259607230007547 0.1921561885418523 8.3291074839949e-05 0.00035659268338322867
0.22065790658851817 0.22860264951794293 -0.001699711897661041 -0.006245031031763775
0.26195275617261987 0.25949413929346965 9.285242888444879e-05 0.002365764450265726
0.3240313644604805 0.2998721674278113 0.0053353929816017135 0.018823804051067455
0.42825287571164417 0.36786606045846193 0.015077865857688489 0.04530894939549371
0.6347382135439258 0.4565844935147827 0.05881113218508126 0.11934258784406193
0.9204488998961945 0.5415711719948565 0.12474111098255117 0.2541366169187868
1.3233494967569226 0.6317200080301651 0.24192409203459092 0.4497053966921669
1.8724861400767623 0.7242016989108117 0.4304858800200512 0.7177985611458999
2.5855076680773816 0.817327615002789 0.6995852923819078 1.0685947606926847
3.4605761609103505 0.9240495330090803 1.0524577045052896 1.4840689233959798
4.391401375657436 1.0350244080905542 1.4445324007697011 1.9118445667971815
5.182633865913989 1.1169209406577743 1.828241652571244 2.237471272684972
5.48382161241755 1.1527125572226233 1.9868515349800977 2.3442575202148275
4.472408997652896 0.5758484005619607 1.8278080180890863 2.068752579001849
8.863506353124926 1.6710447019179158 3.3282017998870317 3.8642598513199777
4.4724089976576815 0.57584840056333 1.8278080180908618 2.068752579003486
5.483821612418058 1.1527125572222403 1.986851534980512 2.3442575202153053
5.182633865914266 1.1169209406597709 1.8282416525703713 2.237471272684125
4.391401375649914 1.0350244080868563 1.4445324007678289 1.9118445667952302
3.460576160907512 0.9240495330090306 1.052457704504003 1.4840689233944797
2.5855076680746265 0.8173276150027573 0.6995852923807722 1.0685947606910968
1.8724861400731725 0.7242016989092881 0.4304858800191146 0.7177985611447695
1.323349496754152 0.6317200080301184 0.24192409203350618 0.4497053966905275
0.9204488998931326 0.5415711719937062 0.12474111098179455 0.2541366169176315
0.6347382135415512 0.4565844935140858 0.058811132184440985 0.11934258784302455
0.42825287571065096 0.36786606045755116 0.015077865857688435 0.04530894939541122
0.3240313644598354 0.29987216742734224 0.005335392981537986 0.018823804050955163
0.2619527561721317 0.259494139293056 9.285242886383381e-05 0.002365764450211889
0.22065790658802956 0.22860264951736095 -0.0016997118976372352 -0.006245031031694202
0.19259607229962128 0.19215618854137692 8.329107484121359e-05 0.00035659268340313495
0.17992672698785167 0.17987919266054794 7.508383692143861e-06 4.00259436115903e-05
0.18182927643490612 0.18188509286107177 -4.477284792821856e-06 -5.1339141372841755e-05
0.18290639066835696 0.1828757790000002 2.8936023426262372e-06 2.7718066014138557e-05
0.14734894710504526 0.1473552931241368 -7.428877850261805e-07 -5.603131306556757e-06
0.25347204973756515 0.2534309917895178 3.1449235585162974e-06 3.791302448882746e-05
0.16308299080862845 0.16308299080862845 0.0 0.0
0.13280769282521726 0.13280842294744866 -3.4333122731160884e-08 -6.957891086760974e-07
0.1796101268089712 0.17958418849632973 2.016410127340017e-06 2.39219025141398e-05
0.190783798536475 0.19073826489805798 6.741537791692081e-06 3.8792100625377955e-05
0.1966673113501199 0.1969051357708289 -2.067044220201002e-05 -0.00021715397850699989
0.21906281730748153 0.2214508050038827 -0.0003968999692134729 -0.0019910877271876832
0.2662061537711513 0.2679894180013399 -0.0009450937276076412 -0.0008381705025809431
0.3623456557092007 0.36999193634124294 -0.0022357551783377012 -0.005410525453704595
0.5563924849821824 0.48016883666766735 0.016682996424785837 0.059540651889729374
0.9202664225440822 0.6050546364902262 0.09966431752540972 0.2155474685284463
1.4425507857113684 0.7161257004017807 0.24927401787208675 0.47715106743750113
2.127231085337597 0.835066510372485 0.48584154715370664 0.8063230278114053
2.9833936174357194 0.9608541433143618 0.8112332113036748 1.2113062628176823
4.078563071168608 1.0974787140182978 1.2584428962373657 1.7226414609129441
5.507505886842022 1.250774919462971 1.886608097331636 2.3701228700474144
7.27789023216256 1.4123566420956881 2.7128605550069183 3.1526730350599523
9.244928202688929 1.5688535649160555 3.666667252991515 4.009407384781358
11.056389444215476 1.720654790040348 4.537243848163239 4.798490806011888
12.092818325100477 1.7722692213567521 5.083776374257468 5.23677272948626
11.248034658717895 1.7978090272391594 4.6852746652173405 4.764950966261392
13.381978975431764 3.7468339969620974 4.6877603019681 4.9473846765015645
11.248034658717959 1.7978090272359712 4.68527466521915 4.764950966262839
12.092818325096804 1.7722692213537048 5.083776374257093 5.236772729486005
11.056389444208591 1.7206547900374063 4.537243848161051 4.798490806010135
9.244928202685188 1.5688535649184632 3.666667252988238 4.009407384778488
7.277890232156145 1.4123566420946734 2.712860555004137 3.152673035057334
5.507505886837751 1.2507749194630953 1.8866080973294588 2.370122870045195
4.0785630711643925 1.097478714018429 1.2584428962353431 1.7226414609106209
2.983393617430057 0.9608541433132516 0.8112332113015964 1.2113062628152083
2.1272310853318475 0.8350665103718088 0.48584154715149386 0.8063230278085453
1.4425507857062798 0.7161257004011367 0.2492740178703167 0.4771510674348263
0.9202664225406635 0.6050546364891355 0.09966431752451552 0.21554746852701234
0.5563924849805242 0.48016883666697957 0.01668299642449534 0.05954065188904916
0.36234565570822397 0.3699919363403685 -0.0022357551783633175 -0.005410525453781205
0.2662061537705865 0.2679894180005862 -0.0009450937275725994 -0.0008381705024271027
0.21906281730707738 0.221450805003495 -0.0003968999692134528 -0.0019910877272041605
0.1966673113497393 0.19690513577041704 -2.0670442198066247e-05 -0.00021715397847964576
0.1907837985361633 0.19073826489772677 6.74153779291067e-06 3.879210064361902e-05
0.17961012680855207 0.17958418849592098 2.0164101265430307e-06 2.3921902504595976e-05
0.1328076928250192 0.13280842294724987 -3.433312268844444e-08 -6.957891079894279e-07
0.16308299080826874 0.16308299080826874 0.0 0.0
0.10029083301668747 0.10029083301668747 0.0 0.0
0.11382982220079663 0.11382982220079663 0.0 0.0
0.1701202297800749 0.17009596720858322 1.7498561801295798e-06 2.2512715311568723e-05
0.1956970207512561 0.19576655153545353 -5.218320297586886e-06 -6.431246389986003e-05
0.21570676316912868 0.21592396326315685 -2.9379521695297592e-05 -0.00018782057233292712
0.25618753661405874 0.2557508597458248 -1.6912215932680655e-05 0.0004535890841666166
0.34312598407732675 0.3603497906376032 -0.004280451591124555 -0.012943354969151895
0.5435464960575794 0.4823710792866768 0.011013353558591467 0.050162063212311425
0.9580618749213792 0.6361064569088197 0.09716107158667303 0.2247943464258858
1.6497583335648633 0.7945413044869699 0.32308459629484904 0.5321324327830449
2.487826063812193 0.9223998287493345 0.6079520028785024 0.9574742321843566
3.5455448703182366 1.0600387947465357 1.023670633833848 1.4618354417378538
4.874539057076526 1.217139005351883 1.5885604447117354 2.0688396070129076
6.58330913294724 1.3932845368525448 2.3547968833242123 2.835227712770483
8.827970869719222 1.5926699199231882 3.427526165032256 3.8077747847637786
11.58398791948382 1.7975132688246007 4.7912361254023335 4.995238525256886
14.795337498243796 1.9918326584232338 6.487418498067908 6.316086341752655
17.79679172127052 2.1146285578457817 8.096727318842396 7.5854358445823395
19.537206191741625 2.0929576632243556 9.108125271314764 8.336123257202509
18.147950374202907 1.9058503213544842 8.424764146037422 7.817335906810997
20.35152734569528 5.876411367230977 7.406142960361458 7.068973018102852
18.14795037420643 1.9058503213559588 8.424764146038616 7.81733590681186
19.537206191744875 2.092957663228575 9.108125271314206 8.336123257202097
17.79679172126581 2.1146285578469555 8.096727318839031 7.585435844579825
14.795337498233543 1.9918326584206465 6.487418498063588 6.316086341749308
11.583987919474854 1.7975132688236808 4.79123612539796 4.995238525253211
8.827970869710217 1.5926699199205887 3.4275261650288633 3.807774784760767
6.583309132939204 1.3932845368512998 2.3547968833207387 2.8352277127671637
4.8745390570681515 1.2171390053508786 1.588560444708121 2.0688396070091524
3.545544870310612 1.0600387947459964 1.0236706338305288 1.4618354417340857
2.487826063805358 0.9223998287492718 0.6079520028755 0.9574742321805858
1.6497583335593236 0.7945413044860956 0.32308459629286806 0.5321324327803596
0.9580618749181932 0.636106456907933 0.09716107158580445 0.22479434642445606
0.5435464960558454 0.4823710792857467 0.011013353558358887 0.05016206321173963
0.34312598407647477 0.360349790636564 -0.0042804515910705625 -0.012943354969018767
0.2561875366134546 0.25575085974498213 -1.6912215901226625e-05 0.00045358908437375983
0.21570676316859733 0.21592396326265834 -2.937952170081229e-05 -0.00018782057236026736
0.1956970207509457 0.19576655153512298 -5.218320295818337e-06 -6.431246388149186e-05
0.17012022977964025 0.1700959672081558 1.749856179479478e-06 2.2512715304933934e-05
0.11382982220056327 0.11382982220056327 0.0 0.0
0.1002908330164778 0.1002908330164778 0.0 0.0
0.05852556106081677 0.05852556106081677 0.0 0.0
0.09281961728421823 0.09281961728421823 0.0 0.0
0.15568326903017868 0.1556762256619834 4.3574774429583853e-07 6.607620450981613e-06
0.19701970662281823 0.1969145062809105 1.21103505880072e-05 9.30899913196835e-05
0.23655846480133638 0.23691001500106973 -2.8445360511722962e-05 -0.00032310483922164254
0.3049645165787869 0.3138688945492638 -0.0017474026278878922 -0.0071569753425888664
0.4603687033224607 0.44482151744481147 0.0012904887250207815 0.014256697152628284
0.8245246624226763 0.6063028108252866 0.061094375578326074 0.1571274760190639
1.525410907675733 0.7935214927672614 0.2757336259245968 0.4561557889838749
2.418739013023898 0.9303019759843109 0.5654594227890815 0.9229776142505057
3.6193574565816595 1.091453928532885 1.045250485709124 1.4826530423396511
5.07636890292395 1.2569224757769675 1.6684948053569466 2.1509516217900364
6.909860345241434 1.4457148177339676 2.495624349022245 2.968521178485218
9.295702342062537 1.665816923196975 3.6299754515199805 3.999909967345584
12.37978216088357 1.913395935154746 5.158970953988571 5.307415271740255
16.31836127452408 2.179074762115408 7.237564655812727 6.90172185659594
20.641392477849106 2.3930377443318065 9.540138050771526 8.70821668274578
24.899042281064517 2.457136241835149 12.026614600847232 10.41529143838213
27.321794316958474 2.276101093073298 13.596493416567148 11.449199807318022
25.400920417354303 1.9766879158038975 12.625141142092096 10.799091359458316
27.922464014524568 7.931645992064352 10.568939078534774 9.421878943925435
25.40092041735433 1.976687915802427 12.625141142093007 10.799091359458892
27.321794316954588 2.2761010930706638 13.596493416566384 11.449199807317537
24.899042281058236 2.457136241835385 12.02661460084336 10.415291438379494
20.641392477837638 2.39303774433094 9.5401380507654 8.7082166827413
16.318361274512633 2.179074762114907 7.237564655806535 6.901721856591194
12.379782160872683 1.9133959351533023 5.158970953983447 5.3074152717359295
9.29570234205237 1.6658169231962052 3.629975451515005 3.9999099673411633
6.90986034523139 1.4457148177332702 2.495624349017478 2.9685211784806413
5.076368902913278 1.2569224757752047 1.6684948053526312 2.1509516217854427
3.6193574565727253 1.0914539285322788 1.0452504857053142 1.4826530423351314
2.418739013016629 0.9303019759836413 0.5654594227862257 0.9229776142467624
1.5254109076706288 0.7935214927659003 0.2757336259229864 0.4561557889817424
0.8245246624195801 0.6063028108241514 0.06109437557761202 0.15712747601781715
0.4603687033211206 0.4448215174437088 0.0012904887249427918 0.014256697152468936
0.3049645165780743 0.31386889454848577 -0.001747402627866559 -0.007156975342545006
0.23655846480076106 0.23691001500043352 -2.8445360505058046e-05 -0.00032310483916735583
0.19701970662250856 0.19691450628059856 1.211035058774905e-05 9.308999132227693e-05
0.15568326902993454 0.1556762256617423 4.3574774405297814e-07 6.607620448196673e-06
0.09281961728400806 0.09281961728400806 0.0 0.0
0.05852556106069112 0.05852556106069112 0.0 0.0
0.03216412608014275 0.03216412608014275 0.0 0.0
0.07198333116981057 0.07198333116981057 0.0 0.0
0.13806973941164585 0.13806973941164585 0.0 0.0
0.1958998838328364 0.19583579710429264 6.040838194838018e-06 5.804589034893029e-05
0.2594778122010374 0.2587247829338507 0.00013823881335919968 0.0006147904538274393
0.3693066006769917 0.3819641456054218 -0.003219765072784468 -0.009437779855645555
0.6305623940125096 0.5390610222282213 0.022313113685144596 0.06918825809914374
1.2192127123902745 0.7406823761973536 0.17330634999558575 0.30522398619733504
2.0860810697793903 0.8933916283679176 0.43919696670831987 0.7534924747031521
3.3089779192997466 1.070334151939368 0.9107233362220581 1.3279204311383213
4.813413480286789 1.246191025423324 1.543612199323879 2.023610255539585
6.688987873671659 1.4399555539944138 2.385590824000012 2.863441495677233
9.079179220246804 1.6665002964771198 3.5155342537395087 3.897144670030179
12.20674207870745 1.9324183482175576 5.0740107831243 5.200312947365591
16.20611171422679 2.2425044079747813 7.121084648946237 6.842522657305768
21.177365657483108 2.5625709767511804 9.770400717927108 8.844393962804823
26.976204387054025 2.802385303187614 13.078131885704106 11.095687198162302
32.29370582913499 2.7786017164882324 16.25722552631014 13.257878586336618
35.102209048106864 2.381129646850422 18.16641198534948 14.554667415906962
32.787899082274045 2.048167130935062 17.007873458510733 13.731858492828255
36.18904744433871 10.095508027393734 14.220615590415242 11.872923826529743
32.787899082272446 2.048167130934079 17.00787345851034 13.731858492828012
35.102209048099844 2.381129646847912 18.166411985346713 14.55466741590521
32.29370582912216 2.778601716484456 16.257225526304662 13.257878586333064
26.976204387040532 2.802385303187778 13.078131885695967 11.095687198156789
21.177365657471498 2.562570976751579 9.77040071792016 8.844393962799767
16.206111714213257 2.2425044079739807 7.121084648939058 6.842522657300216
12.206742078694408 1.9324183482163597 5.074010783117862 5.2003129473601835
9.079179220232563 1.6665002964752365 3.515534253733023 3.8971446700242995
6.688987873658856 1.4399555539924511 2.385590823994541 2.8634414956718652
4.813413480275557 1.246191025422652 1.543612199318782 2.0236102555341224
3.308977919291236 1.0703341519389602 0.9107233362183531 1.327920431133922
2.086081069772768 0.8933916283663077 0.4391969667063258 0.7534924747001351
1.2192127123857717 0.7406823761964167 0.17330634999412803 0.3052239861952272
0.6305623940101154 0.5390610222270475 0.022313113684757642 0.06918825809830989
0.36930660067617416 0.38196414560445413 -0.0032197650727464598 -0.009437779855533472
0.2594778122005844 0.25872478293336365 0.00013823881336108676 0.0006147904538596526
0.1958998838324497 0.1958357971039126 6.040838194107054e-06 5.8045890342973e-05
0.13806973941147735 0.13806973941147735 0.0 0.0
0.07198333116966395 0.07198333116966395 0.0 0.0
0.032164126080077717 0.032164126080077717 0.0 0.0
0.016607236131007237 0.016607236131007237 0.0 0.0
0.05306930291350203 0.05306930291350203 0.0 0.0
0.11934360042487722 0.11934360042487722 0.0 0.0
0.19415327312013345 0.19409044344825013 5.622717784786087e-06 5.720695409850619e-05
0.28701997248761774 0.28961581520304003 -0.0004353843993940361 -0.0021604583160282345
0.45471948493449194 0.43627799645943266 0.002334166313162303 0.0161073221618968
0.8740396154883319 0.6505917894894682 0.07568800944718351 0.14775981655168025
1.6235719867650082 0.8260581456663877 0.27985477256798924 0.5176590685306317
2.7525645180232394 1.0086114478297297 0.6861170796442873 1.0578359905492225
4.221377050481719 1.1945224087628266 1.2824788321867362 1.7443758095321562
6.069676010019007 1.3937360911025083 2.09680588052992 2.57913403838658
8.399620227408581 1.6197827425249844 3.185968506301517 3.5938689785820803
11.404643231176959 1.8881656400256748 4.665991452971797 4.850486138179484
15.202818830843835 2.2036312961456668 6.566010768160975 6.4331767665371915
20.189264466356615 2.5671564371496522 9.21588132321491 8.40622670599205
26.363813170867324 2.9566227821375737 12.612293177753173 10.794897210976583
33.27529764041445 3.222371342735899 16.565137663854397 13.487788633824156
39.70509867265325 3.0830021397072294 20.57322701647321 16.048869516472827
43.10840258199101 2.4616728352208015 23.061895270145815 17.584834476624405
40.41308551971816 2.095573275464736 21.62318716883509 16.694325075418345
44.932402085904016 12.378526432962765 18.072627875609893 14.481247777331339
40.413085519717285 2.0955732754656466 21.62318716883398 16.69432507541765
43.1084025819843 2.461672835221444 23.061895270141243 17.5848344766216
39.705098672639956 3.08300213970732 20.573227016464912 16.04886951646774
33.275297640401114 3.2223713427378042 16.56513766384518 13.48778863381813
26.36381317084969 2.9566227821335933 12.612293177745075 10.794897210971026
20.189264466341037 2.5671564371492757 9.215881323206151 8.406226705985615
15.20281883082793 2.2036312961442905 6.56601076815286 6.43317676653078
11.404643231161883 1.8881656400261764 4.665991452963401 4.850486138172303
8.39962022739305 1.6197827425227707 3.185968506294617 3.593868978575663
6.069676010005808 1.3937360911020653 2.096805880523574 2.579134038380168
4.22137705047134 1.194522408761416 1.2824788321825156 1.7443758095274082
2.7525645180150904 1.0086114478285584 0.6861170796413361 1.057835990545196
1.6235719867595213 0.8260581456655494 0.27985477256608704 0.5176590685278847
0.8740396154851188 0.6505917894885094 0.07568800944634124 0.14775981655026765
0.4547194849332763 0.4362779964582898 0.002334166313127473 0.01610732216185924
0.2870199724870647 0.2896158152024453 -0.00043538439938705937 -0.0021604583159934476
0.19415327311975508 0.1940904434478779 5.6227177840943e-06 5.7206954093084954e-05
0.11934360042465457 0.11934360042465457 0.0 0.0
0.05306930291346274 0.05306930291346274 0.0 0.0
0.016607236130977983 0.016607236130977983 0.0 0.0
0.00818067555310149 0.00818067555310149 0.0 0.0
0.03732865844486208 0.03732865844486208 0.0 0.0
0.10162598555820405 0.10162598555820405 0.0 0.0
0.19438066572056154 0.19436168226476427 1.300615864217136e-06 1.768283993303967e-05
0.3225389018808117 0.3279046429208964 -0.001105301377349844 -0.0042604396627348344
0.5782417520153849 0.5256355588766455 0.013768420916871643 0.038837772221867906
1.1498756475184957 0.7311493906013404 0.13776460625406128 0.28096165066309425
2.0941771796354898 0.9147432332067406 0.43897894525988984 0.7404550011688588
3.433774997577691 1.109689287614775 0.9507725869184207 1.3733131230444962
5.17990812179622 1.3131078995845389 1.6957252463231272 2.171074975888555
7.374263462197864 1.5359835953359173 2.6910617604763027 3.147218106385643
10.18571822359571 1.798713266564669 4.044948737385209 4.342056219645833
13.741546600471416 2.110359235707756 5.801788169078851 5.829399195684806
18.453838959421606 2.481311941034252 8.28393430658702 7.688592711800338
24.336313278676318 2.901558331232877 11.436968371523957 9.99778657591948
31.498997447958075 3.3325194210413325 15.412833489739024 12.753644537177712
39.64126173183523 3.631040478290895 20.195900399631558 15.814320853912765
47.16211005032989 3.419327273960097 24.987145138621404 18.75563763774839
51.23078202268265 2.5572713255543484 28.067589502302546 20.605921194825754
48.43982073506671 2.0835491941646977 26.6302296477642 19.726041893137808
54.554887478923504 14.749200455496958 22.544682579998785 17.26100444342775
48.43982073506113 2.0835491941608155 26.630229647763112 19.72604189313721
51.23078202267222 2.5572713255542205 28.067589502296023 20.605921194821963
47.162110050316926 3.419327273962261 24.98714513861193 18.755637637742723
39.64126173181581 3.6310404782893153 20.19590039962057 15.814320853905922
31.498997447939015 3.332519421039403 15.412833489728698 12.753644537170906
24.336313278657933 2.9015583312318545 11.436968371513759 9.997786575912322
18.45383895940213 2.481311941032332 8.283934306577006 7.688592711792803
13.74154660045254 2.1103592357075467 5.801788169068523 5.829399195676476
10.185718223578396 1.7987132665629981 4.044948737376939 4.342056219638456
7.374263462182812 1.5359835953350276 2.6910617604690876 3.1472181063786975
5.179908121783599 1.3131078995826762 1.69572524631787 2.1710749758830534
3.4337749975684306 1.1096892876137747 0.9507725869146688 1.3733131230399866
2.0941771796287956 0.9147432332057244 0.43897894525775444 0.7404550011653172
1.1498756475143195 0.7311493906002794 0.1377646062528553 0.2809616506611852
0.5782417520135681 0.5256355588754806 0.013768420916661455 0.03883777222142603
0.32253890188018325 0.3279046429201715 -0.001105301377328951 -0.0042604396626593
0.19438066572021648 0.19436168226442493 1.3006158637357774e-06 1.768283992781072e-05
0.10162598555797964 0.10162598555797964 0.0 0.0
0.0373286584448353 0.0373286584448353 0.0 0.0
0.008180675553109314 0.008180675553109314 0.0 0.0
0.004019710495945721 0.004019710495945721 0.0 0.0
0.02541119086393459 0.02541119086393459 0.0 0.0
0.08715244715401814 0.08715244715401814 0.0 0.0
0.20002713781466472 0.19999612969188554 1.5386726525572254e-06 2.9469450126598963e-05
0.37269371688886044 0.3721400325328694 -0.00040578553735150897 0.0009594698933424873
0.7475965560443035 0.6106091938360216 0.04318978981298656 0.09379757239529515
1.459983717251606 0.7933400622270289 0.22475184788053199 0.441891807144045
2.594174143342672 0.9985983679795567 0.6220647911919366 0.9735109841711781
4.139204168779138 1.2038736535226073 1.2387825989190484 1.696547916337481
6.167047763956321 1.4255273425854387 2.134182929635864 2.6073374917350196
8.749651802327406 1.6783189486544157 3.344728300182255 3.7266045534907364
12.019940737189422 1.9766610738698343 4.936086418680117 5.107193244639474
16.31445630970331 2.3420514433261115 7.148624520266352 6.823780346110848
21.70474498421005 2.7704227285438114 9.955798281717417 8.978523973948821
28.581518755995994 3.235792561674368 13.733855502890934 11.61187069143069
36.80552833850846 3.6776757814393384 18.429842911823755 14.698009645245346
45.90794909866874 3.981342268302263 23.850640695414757 18.075966134951724
54.52429188389303 3.8474598702200615 29.339299287648174 21.337532726024808
59.4968981284167 2.7287212034862267 33.238403563991334 23.52977336093913
56.942205348795184 1.9429812115247698 32.12101171728497 22.87821241998544
65.11665774421672 17.073435449557298 27.67887507311755 20.36434722154188
56.94220534878692 1.9429812115206735 32.12101171728239 22.87821241998385
59.49689812840519 2.728721203488133 33.23840356398283 23.529773360934243
54.52429188387435 3.847459870217788 29.339299287637743 21.337532726018797
45.90794909864981 3.9813422683038464 23.85064069540199 18.07596613494396
36.80552833848631 3.677675781436231 18.429842911812162 14.698009645237923
28.58151875597399 3.2357925616727683 13.733855502878733 11.611870691422489
21.704744984188547 2.7704227285421905 9.955798281705874 8.978523973940487
16.31445630968293 2.3420514433275708 7.148624520254054 6.823780346101298
12.019940737168918 1.9766610738670898 4.936086418670431 5.107193244631402
8.749651802309382 1.67831894865183 3.3447283001742436 3.7266045534833063
6.1670477639421755 1.4255273425839516 2.134182929629588 2.6073374917286363
4.13920416876834 1.2038736535213799 1.238782598914618 1.6965479163323436
2.5941741433348375 0.99859836797855 0.6220647911890227 0.9735109841672647
1.459983717246529 0.7933400622257976 0.2247518478792745 0.4418918071414569
0.7475965560418754 0.6106091938349445 0.043189789812530854 0.09379757239440017
0.37269371688804415 0.3721400325319699 -0.0004057855373353998 0.0009594698934096194
0.2000271378143265 0.19999612969155695 1.5386726516919999e-06 2.9469450117884424e-05
0.0871524471538412 0.0871524471538412 0.0 0.0
0.02541119086386589 0.02541119086386589 0.0 0.0
0.0040197104959607535 0.0040197104959607535 0.0 0.0
0.0019085690977158278 0.0019085690977158278 0.0 0.0
0.017193995831085565 0.017193995831085565 0.0 0.0
0.07879103311353086 0.07879103311353086 0.0 0.0
0.21653067259229278 0.21652914713438837 8.139855222184159e-07 7.114723822304123e-07
0.45313505394440895 0.44219511293855074 0.0028233238866931572 0.008116617119164787
0.9464295281255094 0.6790985347406444 0.0840973815521614 0.1832336118327037
1.8125074456158605 0.8676358374073144 0.3402465869056887 0.6046250213028576
3.108019576488319 1.0760792763512534 0.8171988772365266 1.2147414229005382
4.879069022476339 1.2938109218797396 1.5591898473351629 2.026068253261438
7.183327093332839 1.5347741627733926 2.597043450183485 3.0515094803759597
10.150299394832896 1.817210119510909 4.014506025765727 4.31858324955626
13.999914225282623 2.1612613881039056 5.953495388120988 5.885157449057727
18.838776475109682 2.5771280387655455 8.414688368233117 7.846960068111022
25.147096230703085 3.0624946136998945 11.801070303197857 10.283531313805339
32.98906010217934 3.57852859283101 16.17029777228843 13.2402337370599
42.18492650715026 4.016582445493618 21.5226018216575 16.645742239999144
52.056071607581984 4.2303404773563456 27.56458813117847 20.26114299904716
61.4690769371775 4.176612174635421 33.5896716755342 23.702793087007873
67.87325500164162 3.329964526353519 38.25247726758454 26.290813207703547
65.9497853374788 1.5648564229780657 38.172872910044816 26.21205600445591
76.50851132553993 18.44922531634536 34.077774500727585 23.981511508466976
65.94978533747046 1.5648564229769089 38.17287291004017 26.212056004453373
67.87325500162675 3.3299645263547286 38.252477267574164 26.29081320769786
61.46907693715495 4.176612174633548 33.58967167552097 23.70279308700043
52.05607160755644 4.230340477354521 27.564588131163582 20.26114299903835
42.18492650712237 4.0165824454887 21.522601821643278 16.64574223999039
32.98906010215536 3.578528592830064 16.170297772274516 13.240233737050792
25.147096230677644 3.06249461369727 11.801070303184389 10.283531313795978
18.83877647508575 2.577128038766175 8.414688368219041 7.846960068100534
13.999914225259372 2.1612613881014746 5.953495388109471 5.88515744904842
10.150299394812874 1.817210119509474 4.014506025755772 4.318583249547631
7.183327093317054 1.5347741627718765 2.5970434501762196 3.0515094803689595
4.879069022463989 1.293810921878508 1.5591898473298493 2.02606825325563
3.1080195764794145 1.0760792763500406 0.8171988772331491 1.2147414228962248
1.8125074456099388 0.8676358374061037 0.34024658690387904 0.6046250212999557
0.9464295281223813 0.6790985347396077 0.08409738155139033 0.18323361183138337
0.45313505394328535 0.44219511293753005 0.0028233238866457733 0.008116617119109524
0.21653067259190917 0.21652914713400576 8.13985520723501e-07 7.11472382654708e-07
0.07879103311337718 0.07879103311337718 0.0 0.0
0.017193995831038197 0.017193995831038197 0.0 0.0
0.0019085690977176544 0.0019085690977176544 0.0 0.0
0.0004746246877152748 0.0004746246877152748 0.0 0.0
0.012159046498862121 0.012159046498862121 0.0 0.0
0.08047774074925254 0.08047774074925254 0.0 0.0
0.25367393232218394 0.25366905905137505 1.393772302544141e-05 -9.064452216531725e-06
0.57512220376456 0.5333378179250853 0.013225873543243869 0.02855851229623091
1.1920692315122507 0.7936530430853941 0.132972655053864 0.26544353337299254
2.1966335914813255 1.0117149756902402 0.442378482252736 0.7425401335383504
3.6689791789561204 1.27824992903343 0.9848422354635553 1.4058870144591347
5.670983888407293 1.5814742124287626 1.8039484877733065 2.2855611882052247
8.329354363201164 1.9534369162456273 2.976771696150877 3.399145750804659
11.794314883966429 2.433378010610342 4.581852032512001 4.779084840844086
16.216230271053004 3.0564689114752 6.663624407660224 6.496136951917579
21.96978100944688 3.835488905198369 9.495594867585954 8.638697236662555
29.319043570360936 4.776144625618633 13.253070372919627 11.289828571822673
38.342088059139876 5.776396909291652 18.090245521075108 14.475445628773114
48.678734148185264 6.607985758301457 23.974616318759757 18.096132071124057
59.31556297134486 6.964322561530446 30.44890868565201 21.90233172416243
68.75371298252313 6.6427050981006195 36.690114742739176 25.420893141683333
75.82555210797494 6.128334708549888 41.59275590488522 28.104461494539827
73.40218582854166 1.6147890881279467 42.89862052131435 28.888776219099338
110.40826718143812 42.124784082086165 40.73145226336199 27.55203083598999
73.40218582853566 1.6147890881310767 42.89862052130849 28.88877621909609
75.82555210795907 6.128334708552947 41.59275590487295 28.10446149453318
68.7537129824972 6.64270509809948 36.690114742723416 25.420893141674327
59.315562971317576 6.964322561530588 30.4489086856346 21.902331724152404
48.67873414815931 6.607985758302982 23.97461631874265 18.096132071113665
38.342088059108036 5.776396909284427 18.09024552106014 14.475445628763447
29.31904357033239 4.7761446256161015 13.253070372904139 11.28982857181216
21.96978100942189 3.8354889052002985 9.495594867570393 8.638697236651192
16.216230271027214 3.0564689114727877 6.663624407647084 6.49613695190734
11.794314883944786 2.433378010609321 4.581852032500825 4.77908484083464
8.32935436318317 1.9534369162429863 2.976771696142852 3.3991457507973335
5.670983888393078 1.5814742124265897 1.8039484877673795 2.2855611881991096
3.6689791789458535 1.2782499290315648 0.9848422354597419 1.4058870144545457
2.1966335914745994 1.0117149756889576 0.44237848225053866 0.7425401335351025
1.1920692315086137 0.7936530430845298 0.13297265505297384 0.26544353337111004
0.5751222037630177 0.5333378179239622 0.013225873543109622 0.028558512295945932
0.2536739323217595 0.25366905905093107 1.3937723027995005e-05 -9.064452199547806e-06
0.08047774074912202 0.08047774074912202 0.0 0.0
0.012159046498823633 0.012159046498823633 0.0 0.0
0.00047462468771325406 0.00047462468771325406 0.0 0.0
CELL_DATA 800
SCALARS Stress float 6
LOOKUP_TABLE default
134.6295192084225 -497.6977690137412 -185.51962681120906 -103.36091537766882 0.0 0.0
392.51000751049503 5.556152614778863 123.23317690933641 64.0119874324723 0.0 0.0
369.14491208665567 0.4006136657813404 110.66747172082637 -7.293626557345121 0.0 0.0
431.6115189082718 -3.7500818007084797 128.33403024476593 -11.689809009865535 0.0 0.0
500.915199197691 -9.852319155330957 161.4951650909076 -10.716835306899336 0.0 0.0
566.5612873928935 1.3065004555633628 221.19661021352462 -8.979889574119765 0.0 0.0
629.161840556208 10.992306269398505 280.5053551363396 -8.962055907109493 0.0 0.0
691.1735796982205 29.19175535284494 337.75168984205663 -9.721852269047142 0.0 0.0
753.5067818653956 53.16706343928869 390.94775044159053 -10.577273747684144 0.0 0.0
816.5369705700953 81.20616692020874 441.57143139371533 -11.113161436691472 0.0 0.0
880.0880672620774 111.29910441718428 490.7008942818811 -11.321271423363486 0.0 0.0
944.2872750964341 143.68774629131906 539.9877079107549 -11.259839484053192 0.0 0.0
1009.770347536334 176.7240085137846 589.6553807817829 -11.141570961333201 0.0 0.0
1077.0488857402024 211.18102840960066 640.6869113556774 -11.025867228525538 0.0 0.0
1146.8316012659338 248.7094629766629 694.4098662846943 -10.848341079122152 0.0 0.0
1218.5878791830553 289.8522374973046 750.910479923888 -10.418443886141038 0.0 0.0
1289.7525813274074 333.57055780245867 808.4053171439809 -9.548477718484559 0.0 0.0
1355.9572795998602 376.97826705291544 863.2250966912524 -8.0942758541373 0.0 0.0
1412.3539124025683 416.5687495927761 911.155973105293 -6.465895891866521 0.0 0.0
1464.3642641487947 459.5841789290832 958.2377642360449 -6.454060669632767 0.0 0.0
1464.3642641490417 459.5841789293342 958.2377642362418 6.454060669590534 0.0 0.0
1412.3539124027207 416.56874959295317 911.1559731053891 6.465895891909054 0.0 0.0
1355.957279599543 376.9782670526381 863.2250966909413 8.094275854197248 0.0 0.0
1289.7525813266923 333.5705578017946 808.4053171433521 9.54847771846703 0.0 0.0
1218.5878791828602 289.85223749717625 750.9104799236532 10.418443886093266 0.0 0.0
1146.8316012653759 248.70946297618173 694.4098662842614 10.84834107917312 0.0 0.0
1077.0488857392654 211.18102840875406 640.6869113549513 11.025867228489151 0.0 0.0
1009.7703475354737 176.72400851303956 589.6553807811222 11.141570961319475 0.0 0.0
944.2872750958703 143.68774629090495 539.9877079103026 11.259839484083109 0.0 0.0
880.0880672618401 111.29910441711762 490.7008942816312 11.32127142331466 0.0 0.0
816.5369705695776 81.20616691987155 441.57143139330276 11.11316143669731 0.0 0.0
753.5067818650894 53.16706343917941 390.94775044131825 10.577273747747679 0.0 0.0
691.1735796980704 29.19175535291295 337.75168984186536 9.72185226904194 0.0 0.0
629.16184055598 10.99230626941748 280.5053551360786 8.962055907104382 0.0 0.0
566.5612873926895 1.3065004556158897 221.1966102132979 8.979889574117601 0.0 0.0
500.9151991974861 -9.85231915526616 161.49516509077196 10.716835306908768 0.0 0.0
431.61151890795173 -3.750081800726134 128.33403024467682 11.689809009866096 0.0 0.0
369.1449120865256 0.400613665728204 110.66747172077453 7.2936265573315815 0.0 0.0
392.5100075104108 5.556152614818135 123.23317690929221 -64.01198743242372 0.0 0.0
134.62951920895281 -497.6977690131999 -185.51962681067852 103.36091537733324 0.0 0.0
43.64977331271916 -525.6917872643485 -235.13714128233576 -142.3200764646818 0.0 0.0
233.95782209708534 13.628011959530397 74.2757502169847 15.941469122540047 0.0 0.0
325.42046040613604 17.233726561748 102.79576596403729 -10.070848338730947 0.0 0.0
387.4577198338769 -1.8152577856791552 115.56519292156472 -31.213636550221022 0.0 0.0
469.8758143831096 -11.502213709896367 143.11313149207862 -30.894059406236526 0.0 0.0
540.1776070257449 -0.7972679161699876 199.32985510507194 -27.107511176667725 0.0 0.0
607.6908744532236 8.598992363105914 260.68612218903434 -27.37988087496375 0.0 0.0
670.6037315754783 25.446374173371257 319.71594240174613 -28.419578444115448 0.0 0.0
731.5769331229848 47.48014054676557 373.39884135871 -29.560863187571655 0.0 0.0
792.0486672285413 73.09920118660204 423.0327393060741 -30.093977491073634 0.0 0.0
852.3675925261605 100.6052930328566 470.1888004558938 -29.92009900346996 0.0 0.0
912.9720246789761 128.74319794233472 516.0700697576121 -29.286861939331367 0.0 0.0
973.9215041198322 158.13618923393938 561.9005825425096 -28.533750357637768 0.0 0.0
1036.7451952415884 188.81212760634662 608.9401419828865 -27.921321016509278 0.0 0.0
1101.890750979533 222.00930622180493 658.2620036984063 -27.274682228712873 0.0 0.0
1168.6392836664872 258.4124496554525 709.938279537095 -26.115965821680415 0.0 0.0
1234.8520048138007 297.2344576407111 762.5303095418859 -24.038281748051425 0.0 0.0
1297.2172855344497 336.6179300202559 813.426998448234 -20.868005131524693 0.0 0.0
1354.2156286278505 376.6394794643583 861.8055565840973 -17.05596927881961 0.0 0.0
1393.3324294365084 406.1996925847504 895.9690415440162 -11.567973417821062 0.0 0.0
1393.3324294363692 406.19969258461674 895.9690415438833 11.567973417842913 0.0 0.0
1354.2156286277352 376.63947946426606 861.8055565839742 17.055969278904062 0.0 0.0
1297.2172855343636 336.61793002021614 813.4269984481501 20.86800513159525 0.0 0.0
1234.852004813681 297.2344576406447 762.5303095417802 24.03828174806482 0.0 0.0
1168.6392836662449 258.4124496552748 709.938279536871 26.115965821673598 0.0 0.0
1101.890750979272 222.00930622162412 658.2620036980991 27.274682228691304 0.0 0.0
1036.7451952410947 188.81212760594127 608.9401419824449 27.9213210164613 0.0 0.0
973.9215041192903 158.1361892335122 561.9005825420679 28.533750357625294 0.0 0.0
912.9720246784136 128.7431979419212 516.0700697572056 29.286861939370596 0.0 0.0
852.3675925257983 100.60529303266621 470.1888004556257 29.92009900344456 0.0 0.0
792.0486672281162 73.09920118634746 423.03273930571527 30.093977491017597 0.0 0.0
731.5769331225512 47.480140546529974 373.39884135835086 29.560863187624093 0.0 0.0
670.6037315751552 25.446374173272552 319.71594240143173 28.419578444166422 0.0 0.0
607.6908744528617 8.598992363001784 260.686122188683 27.379880874981712 0.0 0.0
540.1776070253128 -0.7972679163430136 199.32985510473432 27.107511176643264 0.0 0.0
469.8758143828273 -11.50221370988681 143.1131314919421 30.8940594061822 0.0 0.0
387.4577198336014 -1.8152577857627539 115.56519292146567 31.21363655015592 0.0 0.0
325.4204604060019 17.23372656154553 102.79576596393669 10.070848338730734 0.0 0.0
233.95782209726676 13.628011959760656 74.27575021710821 -15.941469122666014 0.0 0.0
43.64977331307776 -525.6917872639401 -235.13714128192447 142.32007646445257 0.0 0.0
3.054720715540128 -522.7221565101418 -242.935616966789 -156.1016296712122 0.0 0.0
136.89023280229367 4.876119164679125 42.52990559009183 -35.79055980736421 0.0 0.0
265.01107750809444 24.709792064058576 86.91626087164589 -28.7492165593505 0.0 0.0
342.6081327835112 2.5005773679515766 103.5193670581226 -49.085227378637654 0.0 0.0
427.73598172112384 -8.137079420026346 127.24929729747865 -52.82062669267823 0.0 0.0
511.7655489341902 -6.503300450803442 174.162473143357 -47.99179297941201 0.0 0.0
581.5642585164755 7.2898058447487095 238.02451125025718 -46.079790356637616 0.0 0.0
645.28779738568 21.55923588945127 297.8833884848894 -47.10845953490132 0.0 0.0
705.8757815214838 41.77520881905197 352.77428115472844 -48.22642073409997 0.0 0.0
764.1156553084577 64.8478661450575 401.91529513020436 -48.560427134847416 0.0 0.0
821.2371182174261 89.17747761504782 447.1096950683038 -47.99924955267385 0.0 0.0
877.6939639698269 114.11896507387814 490.0467237209548 -46.77248478512713 0.0 0.0
935.0109200692445 139.2575207361378 532.313651923342 -45.54741957953095 0.0 0.0
993.4281424837452 166.21123089351278 575.4938850941918 -44.47970270071061 0.0 0.0
1053.6443741828507 194.98274697212568 620.2391598911404 -43.40452649824014 0.0 0.0
1115.2476734372963 226.31310276163495 666.8646278926204 -41.65214873296931 0.0 0.0
1176.5036753643383 260.03071159807786 714.4424276571888 -38.63380290242533 0.0 0.0
1236.0156921337532 296.2242620868177 762.313442694972 -34.02635149794594 0.0 0.0
1288.7763115647651 331.3756237150025 806.1999393940598 -27.322203096299308 0.0 0.0
1323.4737086813402 355.5725185140942 835.5425334883362 -16.318183322694072 0.0 0.0
1323.4737086811353 355.5725185138948 835.5425334882183 16.318183322775152 0.0 0.0
1288.7763115644311 331.37562371470204 806.1999393937994 27.322203096433356 0.0 0.0
1236.0156921334726 296.2242620865808 762.3134426947053 34.02635149802278 0.0 0.0
1176.5036753633276 260.0307115971102 714.4424276563989 38.63380290243983 0.0 0.0
1115.2476734365268 226.3131027609261 666.8646278920078 41.652148733018144 0.0 0.0
1053.6443741818157 194.98274697116358 620.2391598904095 43.404526498240045 0.0 0.0
993.4281424828433 166.21123089269366 575.4938850934914 44.479702700718136 0.0 0.0
935.0109200687351 139.25752073575114 532.313651922864 45.547419579578815 0.0 0.0
877.6939639689595 114.11896507315046 490.0467237202345 46.77248478513836 0.0 0.0
821.2371182164663 89.17747761422943 447.1096950675657 47.99924955265122 0.0 0.0
764.1156553079365 64.84786614470151 401.91529512978593 48.5604271347982 0.0 0.0
705.875781521311 41.77520881908095 352.77428115452614 48.22642073407567 0.0 0.0
645.2877973852721 21.55923588926623 297.88338848451696 47.108459534908434 0.0 0.0
581.5642585160207 7.289805844546084 238.02451124986328 46.079790356629175 0.0 0.0
511.7655489338515 -6.503300450830427 174.1624731431103 47.991792979420616 0.0 0.0
427.7359817208435 -8.137079419973466 127.24929729739385 52.82062669265643 0.0 0.0
342.6081327833767 2.500577368062695 103.51936705811825 49.08522737856061 0.0 0.0
265.0110775080906 24.709792064111817 86.9162608716607 28.749216559286452 0.0 0.0
136.89023280252573 4.876119164976828 42.52990559025076 35.7905598071806 0.0 0.0
3.054720715789827 -522.7221565097705 -242.9356169664212 156.10162967105828 0.0 0.0
-10.2991009378446 -503.2821403867149 -228.41858370143063 -158.96314689939362 0.0 0.0
80.24921527333312 -8.274305896210368 21.592472813136823 -79.62375543497615 0.0 0.0
206.57198424149632 26.032637382671147 69.78138648725023 -54.457499192451536 0.0 0.0
293.96367712672674 6.380626952822863 90.09790311215112 -67.96730537883293 0.0 0.0
377.1339139997879 -4.607504191802966 111.87576425448425 -75.37482325860385 0.0 0.0
468.9909654104862 -8.978983730560998 149.22332303879503 -71.2409710790728 0.0 0.0
547.5097149743881 3.780870806317269 209.93977515895938 -65.80363798588611 0.0 0.0
614.9060670651651 18.325132532359007 272.3576371876451 -66.07824848897006 0.0 0.0
675.2615879751914 35.84830336586941 328.0199658226205 -66.60988766655335 0.0 0.0
731.6633068211884 56.22884709763592 377.1453964089877 -66.5739686889445 0.0 0.0
785.8956827110912 77.54812320576633 421.0557431475186 -65.57860062585638 0.0 0.0
839.1153732074691 99.07450294954025 461.7048893967258 -63.836075768381946 0.0 0.0
892.011587637102 120.55876512190233 500.5117070265793 -62.13744141667966 0.0 0.0
946.6187504198997 143.46964177435245 540.0800293949836 -60.75969818221102 0.0 0.0
1002.2148902477733 167.6317740647536 580.3777308765566 -59.29437428840437 0.0 0.0
1057.988874725415 193.821602568209 621.5855280470465 -57.03721078807749 0.0 0.0
1114.5520329372612 222.55171015985854 664.3410203533178 -53.394398804575296 0.0 0.0
1169.9691643600809 253.90116776961472 707.7690067310195 -47.427393597954485 0.0 0.0
1219.1597295886866 284.2370817604213 747.5182855457863 -37.68962886725135 0.0 0.0
1252.0937612023918 305.07944800328 774.3463673901427 -21.379120991658056 0.0 0.0
1252.0937612025018 305.07944800341045 774.3463673902013 21.379120991728545 0.0 0.0
1219.1597295884849 284.237081760259 747.5182855456159 37.68962886739365 0.0 0.0
1169.9691643595202 253.90116776909875 707.7690067305956 47.427393598044304 0.0 0.0
1114.5520329369122 222.55171015957524 664.3410203530368 53.394398804664 0.0 0.0
1057.98887472489 193.82160256775404 621.5855280466 57.037210788116454 0.0 0.0
1002.2148902471395 167.63177406418822 580.3777308760488 59.294374288401684 0.0 0.0
946.6187504195133 143.46964177408967 540.0800293946884 60.75969818230855 0.0 0.0
892.0115876365949 120.55876512150596 500.51170702619766 62.13744141668231 0.0 0.0
839.1153732070603 99.07450294925661 461.7048893963988 63.83607576835074 0.0 0.0
785.8956827108634 77.5481232056897 421.0557431472932 65.57860062579384 0.0 0.0
731.6633068209891 56.22884709761605 377.1453964087676 66.57396868892033 0.0 0.0
675.261587974694 35.848303365562224 328.01996582220204 66.60988766653162 0.0 0.0
614.9060670649695 18.325132532409352 272.3576371874137 66.07824848893506 0.0 0.0
547.5097149740649 3.78087080627866 209.93977515866564 65.8036379858487 0.0 0.0
468.99096541031895 -8.978983730313884 149.22332303871693 71.24097107899966 0.0 0.0
377.1339139995172 -4.607504191696603 111.87576425443889 75.37482325850928 0.0 0.0
293.96367712651926 6.380626952761523 90.09790311207126 67.9673053787718 0.0 0.0
206.5719842414682 26.03263738262858 69.78138648722901 54.457499192364 0.0 0.0
80.24921527347337 -8.27430589603436 21.592472813231698 79.62375543478399 0.0 0.0
-10.299100937667376 -503.282140386406 -228.41858370110543 158.9631468992348 0.0 0.0
-10.86645391050314 -474.35161459333256 -202.80819598611606 -157.5834900881449 0.0 0.0
45.7916623614986 -20.67821060927675 7.534035525666554 -113.37549292275278 0.0 0.0
155.04240082834082 23.52860100691511 53.57130055057678 -81.24085874517918 0.0 0.0
242.87656182656926 9.619907610984708 75.74894083126617 -87.73951785726041 0.0 0.0
322.479365037049 -1.0405179143561598 96.37986613830287 -96.54112516277935 0.0 0.0
415.2372865873105 -8.64520059325869 125.92890796926422 -96.28976071745518 0.0 0.0
505.25172674824086 -1.1816270750016864 178.22953114393073 -88.63680069016795 0.0 0.0
577.9708684662678 14.811879307592006 241.71172469221472 -85.07038661269381 0.0 0.0
638.5687872434066 29.92426213187869 298.26315349518313 -84.93860391479143 0.0 0.0
693.905888045348 47.34775414180101 347.8516698247289 -84.24824263340211 0.0 0.0
745.7976189128298 65.59360150881966 391.1564286614579 -82.7608390144604 0.0 0.0
795.5778289618072 83.6937073269604 429.87333038568164 -80.49184582722748 0.0 0.0
845.0871080939107 101.73999350378611 466.22730083805993 -78.44815685552481 0.0 0.0
894.8539964310412 120.69250113556606 501.91058773105203 -76.70121259765911 0.0 0.0
945.6461669309564 140.34727228755534 537.8035866117413 -74.93332820430186 0.0 0.0
997.1185669580693 161.3414240661171 574.3942312789418 -72.40248976078895 0.0 0.0
1047.9167568419202 184.46829958177045 611.5114770703798 -68.26733307487409 0.0 0.0
1098.4162642315393 210.0482466449244 649.626918189791 -61.11313353193392 0.0 0.0
1144.5599628867978 235.4160596788206 685.4276530413745 -48.54413819496463 0.0 0.0
1177.3473160944807 253.68108749435277 710.9371468509277 -27.133841441706224 0.0 0.0
1177.3473160944745 253.6810874943712 710.9371468509213 27.133841441829155 0.0 0.0
1144.5599628867446 235.41605967882387 685.4276530413737 48.54413819514731 0.0 0.0
1098.416264231472 210.04824664492935 649.6269181897637 61.11313353206463 0.0 0.0
1047.9167568418802 184.4682995817941 611.5114770702949 68.26733307493602 0.0 0.0
997.1185669579507 161.34142406606833 574.3942312788243 72.40248976080078 0.0 0.0
945.6461669305023 140.34727228717776 537.8035866113821 74.93332820431996 0.0 0.0
894.8539964303878 120.69250113499845 501.910587730561 76.70121259766529 0.0 0.0
845.0871080935818 101.73999350357073 466.2273008378304 78.44815685552703 0.0 0.0
795.5778289612728 83.6937073265286 429.8733303852538 80.49184582717531 0.0 0.0
745.7976189124374 65.59360150860333 391.156428661141 82.76083901447532 0.0 0.0
693.9058880451656 47.34775414179992 347.85166982450585 84.24824263335458 0.0 0.0
638.5687872432035 29.92426213193029 298.2631534949605 84.93860391482045 0.0 0.0
577.9708684658681 14.811879307463013 241.71172469186547 85.07038661267998 0.0 0.0
505.2517267476967 -1.1816270752596232 178.22953114354277 88.63680069017468 0.0 0.0
415.2372865869112 -8.645200593337556 125.928907969083 96.28976071734562 0.0 0.0
322.4793650368166 -1.0405179142438765 96.3798661382737 96.54112516265496 0.0 0.0
242.87656182636667 9.6199076108857 75.7489408311757 87.73951785707041 0.0 0.0
155.04240082829736 23.528601006817166 53.571300550534346 81.24085874505748 0.0 0.0
45.79166236155625 -20.678210609142244 7.5340355257241995 113.3754929226076 0.0 0.0
-10.866453910382042 -474.3516145929827 -202.8081959857992 157.58349008804436 0.0 0.0
-6.085875827845918 -439.2931194640587 -172.6781132421225 -154.51469586065915 0.0 0.0
22.647347908034487 -31.093172861429164 -2.5337474860184033 -138.0228775738666 0.0 0.0
110.3272311397332 19.164228442287445 38.84743787460619 -105.80485423344886 0.0 0.0
191.5618663732507 12.396656226944017 61.187556780058415 -107.04508121915111 0.0 0.0
264.9353296943812 0.7944164763551902 79.67636567387646 -116.44536411238208 0.0 0.0
346.34054606460415 -6.2702165115289565 103.47806139673392 -120.05526632336256 0.0 0.0
443.3224644608004 -3.712847339734532 145.368985789721 -114.49484657780101 0.0 0.0
527.6659484736385 9.065821053725443 203.63479372782763 -106.47360014680707 0.0 0.0
594.0946399214465 23.81714362162894 262.162330042324 -103.42620257611665 0.0 0.0
649.1722085308579 38.35399446725228 312.4611406969311 -101.75455540515136 0.0 0.0
698.8927812703424 53.14877792270373 355.48779536555094 -99.61089537168907 0.0 0.0
746.0819406310034 68.04746055511059 393.4180901260854 -96.89830207151348 0.0 0.0
791.9878040848921 82.85682163822423 427.8689304480143 -94.4408578979883 0.0 0.0
837.8743709417872 97.86411822721237 460.58674668560434 -92.4798034371457 0.0 0.0
884.0393904628321 112.99782453247524 492.3937560685394 -90.4843397450631 0.0 0.0
929.7132156401758 129.27402326574304 523.9424961967749 -87.61240472852333 0.0 0.0
975.5331523476698 146.2831757957834 555.6190289149337 -83.25616398059015 0.0 0.0
1020.5248963776148 164.80915516485481 587.5204823540141 -75.20713690762977 0.0 0.0
1063.2290059599984 184.62510839904766 618.8946445623255 -60.20403879800046 0.0 0.0
1097.1890417122893 200.54557549999228 643.875582550289 -33.99461426580305 0.0 0.0
1097.1890417122468 200.54557549997378 643.8755825502978 33.99461426594901 0.0 0.0
1063.229005959743 184.6251083988471 618.8946445621816 60.20403879814366 0.0 0.0
1020.5248963771687 164.8091551644746 587.5204823536773 75.20713690777782 0.0 0.0
975.533152347038 146.2831757952275 555.6190289144415 83.25616398068988 0.0 0.0
929.7132156398606 129.27402326549253 523.9424961964706 87.61240472854446 0.0 0.0
884.0393904620661 112.99782453178591 492.3937560679475 90.4843397450947 0.0 0.0
837.8743709413754 97.86411822690825 460.5867466852729 92.47980343720471 0.0 0.0
791.9878040847294 82.8568216382386 427.86893044783886 94.44085789810939 0.0 0.0
746.0819406309956 68.04746055526606 393.4180901260106 96.89830207153072 0.0 0.0
698.8927812697614 53.14877792230595 355.48779536509005 99.61089537173841 0.0 0.0
649.1722085301843 38.353994466699184 312.46114069638514 101.75455540505789 0.0 0.0
594.0946399212191 23.81714362162632 262.16233004208215 103.42620257610034 0.0 0.0
527.6659484731517 9.06582105351741 203.63479372744666 106.47360014679123 0.0 0.0
443.3224644602602 -3.712847339925947 145.3689857894153 114.49484657781207 0.0 0.0
346.340546064345 -6.270216511364401 103.4780613966967 120.05526632323064 0.0 0.0
264.9353296942404 0.7944164764972976 79.67636567387865 116.44536411226943 0.0 0.0
191.5618663732016 12.396656227142568 61.18755678010324 107.04508121897817 0.0 0.0
110.32723113977751 19.164228442355228 38.847437874639816 105.80485423324605 0.0 0.0
22.647347908030483 -31.09317286132108 -2.5337474859871776 138.02287757365096 0.0 0.0
-6.085875827769037 -439.29311946374594 -172.67811324185163 154.51469586055242 0.0 0.0
-0.5218431878119247 -399.1031705724545 -141.69370264554914 -150.37893889102511 0.0 0.0
4.503677299293564 -40.714592828322935 -10.863274658708812 -155.3160427039594 0.0 0.0
70.99081922246516 14.659142120515599 25.694988402894225 -126.63194347127644 0.0 0.0
141.27674432822698 14.423783570301897 46.710158369558656 -124.82094967351489 0.0 0.0
205.06609138176682 2.757336227088266 62.3361473822541 -134.00513453909366 0.0 0.0
275.532650741735 -3.934106585148382 81.6128503309696 -141.6780065437642 0.0 0.0
364.2140371013141 -3.6150876637281804 112.96804601801551 -140.27557526250374 0.0 0.0
456.9452024031883 3.8961608520465436 160.73016596949608 -131.51003488643693 0.0 0.0
533.7429455220996 16.28344390834851 216.41202371282571 -123.58923449276872 0.0 0.0
593.6693824972988 29.22152729697823 268.3599061288122 -119.44055112202825 0.0 0.0
642.2922854641151 40.333454584921206 311.3442736495162 -116.39867298396082 0.0 0.0
687.572839927462 52.11845760238299 349.4251765854137 -113.15311463813066 0.0 0.0
730.4965072881673 63.56064191990079 383.0546640671779 -110.34619937359506 0.0 0.0
772.4662459955014 75.17246173115437 413.87276652372276 -108.10685706268131 0.0 0.0
813.5140906350169 85.82965840246435 441.9445650969363 -105.94084571140341 0.0 0.0
854.9521939714447 97.29206752968295 469.49595010932194 -102.97565292240262 0.0 0.0
894.9211037076018 108.51279695733072 495.5916196102255 -98.2248366651342 0.0 0.0
933.3102566240387 119.12567693239707 520.4002984342679 -89.62911944093118 0.0 0.0
972.4070239266698 131.2175557584331 546.2222901177482 -73.07485380123734 0.0 0.0
1009.1034365256 144.59463913295554 571.3911817423535 -42.60332033739502 0.0 0.0
1009.1034365256953 144.5946391330773 571.3911817423996 42.60332033752917 0.0 0.0
972.4070239265188 131.2175557583789 546.222290117647 73.07485380152852 0.0 0.0
933.3102566237794 119.12567693225574 520.4002984341059 89.62911944114356 0.0 0.0
894.9211037074531 108.51279695729171 495.5916196101034 98.22483666529081 0.0 0.0
854.9521939712688 97.29206752956276 469.49595010917176 102.97565292237127 0.0 0.0
813.5140906351696 85.82965840271184 441.9445650970274 105.94084571143468 0.0 0.0
772.4662459953047 75.17246173109247 413.87276652357355 108.10685706275936 0.0 0.0
730.4965072875392 63.560641919350175 383.0546640667123 110.34619937358772 0.0 0.0
687.5728399272834 52.118457602357914 349.42517658519625 113.15311463816082 0.0 0.0
642.2922854642942 40.333454585365374 311.3442736495588 116.39867298399312 0.0 0.0
593.6693824973256 29.22152729724321 268.35990612872115 119.44055112197555 0.0 0.0
533.7429455221136 16.283443908710986 216.4120237127649 123.58923449278191 0.0 0.0
456.9452024027296 3.896160851982504 160.7301659691971 131.51003488645483 0.0 0.0
364.2140371008751 -3.6150876637537737 112.96804601784163 140.27557526247995 0.0 0.0
275.5326507413468 -3.9341065854265835 81.61285033077209 141.67800654360576 0.0 0.0
205.0660913815325 2.7573362269210815 62.3361473821352 134.0051345389239 0.0 0.0
141.2767443280367 14.423783570110544 46.710158369444166 124.82094967331633 0.0 0.0
70.99081922241473 14.659142120451284 25.694988402859803 126.63194347108856 0.0 0.0
4.503677299229244 -40.714592828298656 -10.86327465872082 155.31604270374802 0.0 0.0
-0.5218431877400391 -399.10317057206896 -141.69370264530218 150.37893889093814 0.0 0.0
0.8019437557787583 -355.5508205477684 -115.06489236199681 -145.58023815995193 0.0 0.0
-12.082100469895394 -49.273100677794844 -18.40654385168554 -165.87512211136942 0.0 0.0
35.7797690977539 10.892244504150156 14.001604080571214 -143.5413412779367 0.0 0.0
92.47526442350335 15.603600517035378 32.42365948216162 -140.0501020134794 0.0 0.0
144.15832057675135 5.612466744672887 44.92451704394711 -148.4714693669241 0.0 0.0
198.03912620544384 -2.237427769228885 58.81464689928741 -159.19337466778762 0.0 0.0
266.9602330508109 -2.4176093290929397 81.00017133474785 -163.39432295232817 0.0 0.0
358.73059980678505 1.933369800752895 116.03929962477046 -158.5172679397155 0.0 0.0
446.19131105681174 8.123776661991922 160.84710647022104 -148.10960890698698 0.0 0.0
515.0022091888618 19.15543179276851 210.3295952675374 -138.598108011362 0.0 0.0
568.885872377346 27.16206511205026 253.7659653125941 -134.08904680565362 0.0 0.0
612.7235380595193 35.46954656892265 291.739327508758 -129.60805112997858 0.0 0.0
653.6338810304196 44.16592742396712 326.03958315483806 -126.35838091400859 0.0 0.0
692.4601550360087 52.196288992860964 356.47393814447315 -123.8386951113413 0.0 0.0
729.8920519845199 59.25832881749547 383.3173808382775 -121.53265987085675 0.0 0.0
765.6683683213074 65.30393149360818 406.79091135244363 -118.46962881404654 0.0 0.0
801.5523255479574 71.22182151395788 428.9001278849255 -113.47998450919943 0.0 0.0
834.0759485764268 74.20669825479148 447.4710711596193 -104.15184080051331 0.0 0.0
865.5985560357454 75.12521815764214 464.24486288165656 -87.08309568583309 0.0 0.0
905.251546539628 83.89258404353114 488.7072619666598 -53.803916784669035 0.0 0.0
905.25154654005 83.89258404399581 488.70726196697876 53.80391678486833 0.0 0.0
865.598556035475 75.12521815745382 464.24486288151854 87.08309568607334 0.0 0.0
834.0759485760509 74.20669825452032 447.4710711593341 104.15184080071451 0.0 0.0
801.5523255472917 71.22182151340361 428.9001278844431 113.47998450930235 0.0 0.0
765.6683683206884 65.30393149296349 406.7909113519484 118.46962881402337 0.0 0.0
729.892051984184 59.25832881728503 383.3173808380336 121.53265987092725 0.0 0.0
692.4601550357107 52.19628899269232 356.47393814425703 123.8386951114216 0.0 0.0
653.6338810300466 44.16592742371421 326.03958315456606 126.35838091406222 0.0 0.0
612.7235380590164 35.469546568500995 291.7393275083954 129.6080511299471 0.0 0.0
568.885872376556 27.162065111297142 253.7659653119861 134.0890468055729 0.0 0.0
515.0022091883229 19.155431792390218 210.32959526711542 138.5981080112988 0.0 0.0
446.1913110565494 8.123776662098578 160.84710647006813 148.10960890705127 0.0 0.0
358.73059980649055 1.9333698011176388 116.03929962473131 158.51726793976053 0.0 0.0
266.9602330506589 -2.4176093287220537 81.00017133480307 163.39432295229807 0.0 0.0
198.03912620538745 -2.2374277689372883 58.81464689935753 159.1933746676298 0.0 0.0
144.1583205767581 5.612466744924177 44.92451704402559 148.47146936677927 0.0 0.0
92.47526442348361 15.603600517124514 32.42365948218244 140.050102013315 0.0 0.0
35.7797690977499 10.89224450421554 14.001604080589628 143.54134127771678 0.0 0.0
-12.082100469971671 -49.27310067785465 -18.406543851726408 165.8751221112035 0.0 0.0
0.8019437557220961 -355.5508205474748 -115.06489236185995 145.58023815979192 0.0 0.0
-6.899678235546162 -310.285763419545 -97.2010234623352 -138.12608086653364 0.0 0.0
-27.905555142058397 -56.05086692470852 -25.185958874497274 -172.56091631906114 0.0 0.0
3.7793289061424007 8.000864232025148 3.5340579414502633 -156.23175755456634 0.0 0.0
45.350682587728414 16.248267837568047 18.479685127588937 -152.06165149858833 0.0 0.0
82.7019144730561 8.55238276175791 27.37321819560269 -159.3077787872854 0.0 0.0
118.77907582864239 0.7639049891383459 35.83040713631199 -171.74710454445355 0.0 0.0
162.28190240849966 -1.6183569284168935 48.79748156474989 -180.77364693537024 0.0 0.0
222.14495583081182 0.9386279489301774 69.48633250223821 -180.98567182237161 0.0 0.0
303.20625123992704 4.550163020251338 98.92359170649263 -175.17595836724072 0.0 0.0
385.3087725552557 8.043551465129042 134.78459701938593 -163.63873993539428 0.0 0.0
451.1161750485348 14.486997429506879 173.82596625475793 -154.08034578567737 0.0 0.0
499.8506219579851 18.367369471751317 208.81828771878037 -147.97627980544655 0.0 0.0
541.5908095591192 24.214392887001946 242.77625641146466 -143.5666254477153 0.0 0.0
579.2816904004458 29.231023988889376 274.28772608950845 -140.21942587397015 0.0 0.0
613.4342401538354 32.67181082245067 301.832795799948 -137.35649686233154 0.0 0.0
644.751384807841 34.010909611631334 324.6246776797917 -134.1974556129534 0.0 0.0
676.0700291658537 33.202771581040224 343.7649989366967 -129.2312548386254 0.0 0.0
709.3309949697244 31.39003199150841 361.96220229144177 -118.84570296074826 0.0 0.0
733.8176201775381 18.452863177913756 369.81714756066873 -101.62890289711433 0.0 0.0
772.8152225886452 14.130308696703068 387.7422871767978 -68.6756779906818 0.0 0.0
772.8152225885677 14.13030869668762 387.74228717676345 68.6756779909622 0.0 0.0
733.8176201772275 18.452863177807927 369.8171475605035 101.62890289754976 0.0 0.0
709.3309949692995 31.390031991282797 361.9622022911613 118.84570296104175 0.0 0.0
676.0700291654152 33.20277158065687 343.76499893635844 129.2312548387426 0.0 0.0
644.7513848078686 34.010909611789444 324.624677679758 134.19745561297353 0.0 0.0
613.4342401538934 32.671810822630704 301.83279579995946 137.35649686237204 0.0 0.0
579.2816903999587 29.23102398846091 274.28772608917484 140.2194258739948 0.0 0.0
541.5908095589645 24.21439288692015 242.77625641132678 143.56662544778612 0.0 0.0
499.85062195785036 18.367369471793115 208.8182877186372 147.97627980545553 0.0 0.0
451.1161750481859 14.486997429317785 173.82596625449798 154.0803457856499 0.0 0.0
385.3087725551644 8.04355146545214 134.78459701936916 163.63873993530902 0.0 0.0
303.20625123959894 4.550163020228414 98.9235917063579 175.1759583672685 0.0 0.0
222.14495583044774 0.9386279488306366 69.48633250208431 180.98567182229436 0.0 0.0
162.28190240839217 -1.6183569282682688 48.79748156475732 180.77364693527113 0.0 0.0
118.77907582866817 0.7639049894213441 35.830407136405675 171.74710454427245 0.0 0.0
82.70191447296224 8.552382761659082 27.373218195545565 159.30777878704174 0.0 0.0
45.350682587703325 16.248267837459693 18.479685127548905 152.06165149838765 0.0 0.0
3.779328906155209 8.000864232055036 3.5340579414630735 156.23175755438913 0.0 0.0
-27.90555514205474 -56.050866924642584 -25.18595887447667 172.56091631892355 0.0 0.0
-6.899678235636195 -310.2857634192278 -97.20102346225401 138.12608086641728 0.0 0.0
-15.831072107656535 -265.1212917631535 -84.25900566590778 -128.28322269093843 0.0 0.0
-41.5376022423157 -59.65797598916363 -30.35625938611456 -175.45568915727648 0.0 0.0
-25.779782137434047 5.529392143332695 -6.074964373323583 -164.88953725679949 0.0 0.0
-0.06906967480476256 16.574722787635203 4.951466227980128 -160.33071753990365 0.0 0.0
21.353876434318263 11.29902114620185 9.793994703720976 -166.1020987061954 0.0 0.0
37.95443142011445 4.380804429494971 12.692734533281818 -178.46791543991853 0.0 0.0
54.08489214980791 0.5483881773733166 16.56986187148018 -189.42608452568896 0.0 0.0
74.92494974868094 -0.03426624287555935 23.05741038449337 -195.22037128980577 0.0 0.0
104.0218395275973 1.4824864497819519 33.18996839711248 -191.5242354272954 0.0 0.0
138.41391506639647 1.923870619728234 45.0448961497039 -185.39980035006255 0.0 0.0
181.67386254511473 4.665004085698319 61.28729082622813 -175.02454066969042 0.0 0.0
226.61891492698015 4.782282798188355 77.97808839156436 -168.7889044370723 0.0 0.0
269.0650034898555 6.873284556102938 97.92577992347164 -163.48292592413765 0.0 0.0
309.986396228266 8.650045102712355 120.5989176995659 -159.00604882016887 0.0 0.0
351.9347734440311 8.824419648973851 146.0385234256064 -154.96995257174254 0.0 0.0
394.7003185688723 4.027964804049262 171.4013483160872 -150.73683218591816 0.0 0.0
434.4400773371286 -4.5023720478330915 193.31056542022824 -145.08501008880359 0.0 0.0
481.2763867877583 -14.674328489959365 218.11826636940268 -135.71612009310067 0.0 0.0
534.2297733729162 -27.38254281560789 244.56135293351133 -115.57755228802675 0.0 0.0
559.1260945692632 -76.7901984498418 237.49773340555257 -85.50349273008345 0.0 0.0
559.1260945692205 -76.79019844983202 237.49773340551042 85.50349273035005 0.0 0.0
534.2297733724603 -27.382542816047163 244.56135293321836 115.57755228839282 0.0 0.0
481.2763867879032 -14.674328489706497 218.11826636951844 135.71612009337287 0.0 0.0
434.44007733700937 -4.5023720478485245 193.31056542019644 145.0850100889332 0.0 0.0
394.70031856883537 4.027964803887116 171.40134831600855 150.73683218589014 0.0 0.0
351.9347734440918 8.824419649190887 146.03852342566185 154.96995257180743 0.0 0.0
309.9863962281609 8.650045102703402 120.59891769952051 159.00604882025135 0.0 0.0
269.0650034899904 6.873284556319618 97.92577992355027 163.48292592426336 0.0 0.0
226.61891492717567 4.782282798757574 77.97808839177807 168.7889044371066 0.0 0.0
181.6738625448682 4.66500408523966 61.28729082600352 175.0245406696843 0.0 0.0
138.41391506608508 1.9238706191177304 45.04489614941844 185.39980034993366 0.0 0.0
104.02183952750377 1.4824864496294037 33.18996839703242 191.5242354273346 0.0 0.0
74.9249497485825 -0.03426624295031644 23.057410384437595 195.22037128974597 0.0 0.0
54.08489214994352 0.5483881777668467 16.569861871637983 189.42608452559375 0.0 0.0
37.954431420233206 4.38080442971761 12.692734533384517 178.4679154397103 0.0 0.0
21.35387643427633 11.299021146147542 9.79399470369231 166.1020987059725 0.0 0.0
-0.06906967473551706 16.57472278760329 4.951466227991368 160.33071753972865 0.0 0.0
-25.7797821374242 5.529392143360291 -6.074964373312459 164.88953725660437 0.0 0.0
-41.5376022422805 -59.6579759891022 -30.356259386086297 175.45568915710248 0.0 0.0
-15.831072107668113 -265.121291762843 -84.25900566582979 128.2832226907892 0.0 0.0
-21.47899269142068 -221.29502018255909 -72.82580333603619 -116.898903927307 0.0 0.0
-52.68084902641216 -59.705941639574235 -33.71411804930033 -174.44318567952305 0.0 0.0
-53.17729287209335 3.3391295802503262 -14.950921173948082 -169.4241929745666 0.0 0.0
-43.84420847356727 16.586728451117825 -8.176666373016598 -164.60119969630324 0.0 0.0
-39.30804735380224 13.703319404834613 -7.677133051271812 -168.50650185720247 0.0 0.0
-43.078553100551055 7.917476111181384 -10.536920577059878 -179.48426264972375 0.0 0.0
-54.85351919721326 3.103638290134605 -15.70474747139709 -189.6136245083755 0.0 0.0
-74.5620129342924 0.5801526153837839 -22.78319548059389 -195.26723788892406 0.0 0.0
-103.63577768131029 -1.6327955445602633 -33.11310721871196 -191.50652064737451 0.0 0.0
-138.12197034988822 -2.0047281807228714 -44.97686588560997 -185.38962570168772 0.0 0.0
-181.4921387099152 -4.516250119811396 -61.16739261543414 -175.0102830479117 0.0 0.0
-226.832669354161 -4.1546061288258755 -77.81870007480957 -168.65999372472186 0.0 0.0
-270.6728472174168 -6.008689146101823 -98.19307357474509 -163.16412543036486 0.0 0.0
-313.5791239627372 -8.84688923531938 -122.18520596926393 -158.70241055716116 0.0 0.0
-354.34198439287474 -13.547515486669568 -149.12103925335867 -155.6422311258553 0.0 0.0
-386.216433752873 -21.99477015950228 -175.29535061882729 -154.84142354077375 0.0 0.0
-389.1130334575214 -30.849292498931803 -189.884500169031 -156.00518695463487 0.0 0.0
-339.71336216205066 -44.07739117828548 -184.3584436386564 -159.67832569265826 0.0 0.0
-181.40051483593115 -38.70715325889911 -114.64047134572156 -158.24805548214314 0.0 0.0
36.832406753740656 -160.28481452678741 -52.94641664124125 -113.76669594237397 0.0 0.0
36.83240675380537 -160.2848145265878 -52.94641664117212 113.76669594275256 0.0 0.0
-181.4005148359655 -38.70715325881238 -114.64047134573218 158.24805548262702 0.0 0.0
-339.71336216215207 -44.07739117835179 -184.3584436386755 159.67832569296516 0.0 0.0
-389.11303345704954 -30.849292498571174 -189.88450016873992 156.005186954745 0.0 0.0
-386.2164337523658 -21.994770158811903 -175.2953506184154 154.8414235406803 0.0 0.0
-354.34198439282 -13.547515487010266 -149.12103925339198 155.64223112587706 0.0 0.0
-313.57912396234826 -8.846889234978356 -122.18520596900872 158.70241055722028 0.0 0.0
-270.67284721686883 -6.008689145782114 -98.1930735744262 163.1641254304252 0.0 0.0
-226.83266935389838 -4.154606129289828 -77.81870007485107 168.65999372474573 0.0 0.0
-181.49213870948918 -4.516250119899755 -61.16739261530694 175.01028304787545 0.0 0.0
-138.12197034947908 -2.0047281807333697 -44.97686588547426 185.38962570163955 0.0 0.0
-103.63577768093649 -1.63279554444415 -33.11310721855655 191.50652064742715 0.0 0.0
-74.56201293402522 0.5801526156370951 -22.783195480434397 195.26723788886926 0.0 0.0
-54.85351919696002 3.103638290418338 -15.704747471233233 189.61362450828048 0.0 0.0
-43.07855310045705 7.917476111146392 -10.53692057704257 179.48426264953653 0.0 0.0
-39.308047353716105 13.703319404844848 -7.677133051243269 168.50650185699854 0.0 0.0
-43.84420847343071 16.586728451210995 -8.176666372947942 164.6011996961565 0.0 0.0
-53.177292871999676 3.339129580391793 -14.950921173877923 169.4241929743861 0.0 0.0
-52.68084902637558 -59.705941639588765 -33.71411804929461 174.44318567938294 0.0 0.0
-21.478992691418387 -221.29502018238 -72.82580333598335 116.89890392720156 0.0 0.0
-22.97968250279401 -179.9434160052828 -60.87692955242303 -104.9412675285308 0.0 0.0
-61.92254845502555 -56.989577657008596 -35.67348704571831 -169.5418585226429 0.0 0.0
-78.60377724363646 1.5948741607078012 -23.101714023472482 -169.7333887845475 0.0 0.0
-85.99680715503754 16.221724170075085 -20.926791865041054 -164.7502970309364 0.0 0.0
-98.80348673625441 15.572893060406527 -24.95986813942667 -166.31178797737323 0.0 0.0
-123.05437626469615 10.849448307076083 -33.726558006373054 -174.24203431887457 0.0 0.0
-162.82651931604155 5.117016255182287 -47.921522014413654 -181.66326038059066 0.0 0.0
-221.83773644229586 -0.4662397337293154 -69.24762587149176 -181.0791743164016 0.0 0.0
-302.8166674841908 -4.690311412877506 -98.8440309013082 -175.13939632972986 0.0 0.0
-385.12265762584735 -8.115032642147781 -134.73229359853082 -163.59259965948823 0.0 0.0
-450.99479203673127 -14.353274014223572 -173.73595832426713 -154.02361905418348 0.0 0.0
-499.73458756663575 -17.82304862436291 -208.59184623376305 -147.73511820848884 0.0 0.0
-541.7665774824991 -23.31931215134393 -242.5186476293729 -142.92666977546418 0.0 0.0
-580.7087098874283 -29.47948568863096 -275.0550677195623 -139.5778176356841 0.0 0.0
-617.7453238783564 -37.807761976633564 -306.16456699164706 -138.1848588346906 0.0 0.0
-651.5280198756772 -49.41454993697806 -335.0082585245417 -139.90971963965552 0.0 0.0
-680.947320111118 -66.59350354529437 -362.18935012923737 -146.28002050266824 0.0 0.0
-701.4584568706161 -89.16064396057338 -385.82142140849265 -157.61540444801588 0.0 0.0
-733.7598050330449 -142.85605683725936 -426.5743189109827 -167.55198005466613 0.0 0.0
-699.7540193689898 -197.16578900185868 -430.04954810614856 -169.16367401591302 0.0 0.0
-699.7540193684681 -197.16578900130594 -430.0495481058282 169.16367401619067 0.0 0.0
-733.7598050321515 -142.85605683645238 -426.57431891040665 167.5519800549394 0.0 0.0
-701.4584568698685 -89.16064395990563 -385.8214214079723 157.61540444818309 0.0 0.0
-680.947320111365 -66.5935035457288 -362.18935012936566 146.28002050283988 0.0 0.0
-651.5280198758144 -49.41454993736663 -335.00825852462776 139.9097196397524 0.0 0.0
-617.7453238783964 -37.807761976858664 -306.16456699162893 138.18485883473562 0.0 0.0
-580.7087098876849 -29.479485689166758 -275.0550677196826 139.5778176357993 0.0 0.0
-541.7665774823245 -23.319312151469994 -242.51864762923742 142.9266697756008 0.0 0.0
-499.73458756618817 -17.823048624095062 -208.5918462333999 147.7351182084449 0.0 0.0
-450.99479203625754 -14.353274014077272 -173.73595832393295 154.02361905416063 0.0 0.0
-385.1226576250277 -8.115032641770785 -134.73229359806544 163.59259965944057 0.0 0.0
-302.8166674837348 -4.6903114131802806 -98.8440309012255 175.13939632979194 0.0 0.0
-221.83773644183532 -0.46623973357664994 -69.24762587128966 181.0791743163962 0.0 0.0
-162.82651931572553 5.117016255269281 -47.921522014285856 181.66326038042547 0.0 0.0
-123.054376264604 10.849448306843067 -33.72655800641612 174.2420343186574 0.0 0.0
-98.80348673610898 15.5728930603551 -24.959868139399234 166.3117879772292 0.0 0.0
-85.99680715489272 16.221724170194918 -20.92679186496223 164.75029703080656 0.0 0.0
-78.60377724351778 1.5948741608109889 -23.101714023406398 169.73338878437954 0.0 0.0
-61.92254845494929 -56.98957765694863 -35.67348704567759 169.541858522506 0.0 0.0
-22.979682502789004 -179.94341600513235 -60.876929552376396 104.94126752841977 0.0 0.0
-23.461645944084257 -141.76406913387905 -49.567714523388986 -92.83647072397048 0.0 0.0
-69.90369217918246 -51.92500446234415 -36.54860899245797 -160.80231183386906 0.0 0.0
-102.34220952569854 0.33295632915839324 -30.599825818343575 -165.81367343765604 0.0 0.0
-126.47412188627666 15.487076071514148 -33.28534216022377 -160.65480589143678 0.0 0.0
-156.7843915023749 16.537330238525566 -42.07465870797502 -159.4724197559214 0.0 0.0
-201.35060073344272 12.770321429446502 -56.69053343687716 -163.36475158203922 0.0 0.0
-267.25790102544835 5.5377609435410315 -80.18500821769781 -164.40941956084498 0.0 0.0
-358.3954702436062 -1.5892467503884546 -115.83002793989559 -158.70846149065272 0.0 0.0
-446.1024193030579 -8.26268422721544 -160.81523293164025 -148.01470010669715 0.0 0.0
-515.0125300230743 -19.216277861399746 -210.3410178443241 -138.51947491948565 0.0 0.0
-568.858892983881 -27.09258637856522 -253.7486373201009 -134.03840178820084 0.0 0.0
-612.5892487095413 -35.06326017809778 -291.53432422397594 -129.3654480191285 0.0 0.0
-653.4638145489286 -43.30203579929889 -325.552571487554 -125.63647649085465 0.0 0.0
-693.2563924488303 -52.08773585922676 -356.6862800623251 -122.87558108216474 0.0 0.0
-733.3923074282459 -63.00905375632005 -386.7247783304589 -121.8280289354273 0.0 0.0
-772.9090556249312 -77.72083416995666 -416.4936166868447 -123.85332947653161 0.0 0.0
-811.1332435512566 -98.03144135628844 -447.11660687834785 -130.52628053011435 0.0 0.0
-854.8549311176071 -134.1845109646759 -487.2777470436029 -140.09036307101417 0.0 0.0
-901.6490971592572 -188.49643436984718 -536.9830620669959 -149.38088948668002 0.0 0.0
-955.5934475953028 -287.5207273364558 -606.8067165813696 -156.51611616341353 0.0 0.0
-955.5934475955664 -287.52072733691335 -606.8067165816692 156.51611616367384 0.0 0.0
-901.6490971600526 -188.49643437097723 -536.9830620676294 149.38088948715404 0.0 0.0
-854.8549311178747 -134.18451096523208 -487.2777470438391 140.09036307133525 0.0 0.0
-811.1332435509455 -98.03144135617273 -447.1166068781516 130.52628053027374 0.0 0.0
-772.9090556242921 -77.72083416935159 -416.49361668638426 123.85332947649313 0.0 0.0
-733.3923074278855 -63.00905375602486 -386.7247783302266 121.82802893540389 0.0 0.0
-693.2563924482428 -52.087735858630985 -356.6862800619089 122.87558108208162 0.0 0.0
-653.4638145484829 -43.30203579900355 -325.55257148724075 125.63647649090328 0.0 0.0
-612.5892487093247 -35.06326017805236 -291.53432422374925 129.36544801910784 0.0 0.0
-568.8588929839852 -27.09258637904968 -253.74863732009823 134.0384017882477 0.0 0.0
-515.0125300229242 -19.21627786161858 -210.3410178441721 138.5194749194089 0.0 0.0
-446.10241930283183 -8.26268422753782 -160.81523293152657 148.01470010677554 0.0 0.0
-358.39547024304335 -1.5892467504679164 -115.83002793969554 158.7084614907534 0.0 0.0
-267.25790102480755 5.537760944087162 -80.18500821733045 164.40941956074445 0.0 0.0
-201.35060073296322 12.770321429783401 -56.69053343663536 163.3647515818896 0.0 0.0
-156.7843915021686 16.537330238474407 -42.07465870793236 159.47241975573095 0.0 0.0
-126.47412188617076 15.487076071419718 -33.28534216022134 160.6548058912795 0.0 0.0
-102.34220952564658 0.33295632904837813 -30.599825818361815 165.8136734374796 0.0 0.0
-69.90369217907516 -51.925004462285976 -36.54860899240833 160.80231183368755 0.0 0.0
-23.46164594407819 -141.76406913374032 -49.56771452334555 92.83647072388294 0.0 0.0
-23.893326782885723 -107.21970142785142 -39.33390846322114 -80.57756783332786 0.0 0.0
-77.30625122543921 -45.15923743707614 -36.739646598754604 -148.59430309162207 0.0 0.0
-124.6224029522945 -0.36946686111544924 -37.494769011586264 -157.6973144393936 0.0 0.0
-165.37661988886947 14.180027083422589 -45.34776080814276 -152.3513153140696 0.0 0.0
-212.807410975806 16.89325208788094 -58.73487225089824 -148.181368212376 0.0 0.0
-276.2210181420836 12.565025859558444 -79.65813900439781 -146.49338549721318 0.0 0.0
-363.94515453012775 6.575257068890169 -112.00550466123761 -142.10906809722482 0.0 0.0
-456.7603516472934 -3.775836112371577 -160.59429847897894 -131.57898026849585 0.0 0.0
-533.8040576445425 -16.409719135339287 -216.43860497369775 -123.45934607008225 0.0 0.0
-593.7202063455818 -29.29846836875261 -268.42219350718085 -119.3591444278442 0.0 0.0
-642.2849950573805 -40.28596662024913 -311.34421820809905 -116.36828047151131 0.0 0.0
-687.496509910763 -51.890368138726814 -349.31406404992686 -112.94680292529836 0.0 0.0
-730.2493152911705 -62.85940070035666 -382.59132299444894 -109.61745136902525 0.0 0.0
-772.5724236015551 -74.578099745651 -413.531715490451 -106.91889333751907 0.0 0.0
-815.4081595428383 -87.68308675416542 -443.7200411696645 -105.79400693140428 0.0 0.0
-860.2585079024852 -105.59343148573933 -476.29622548381303 -107.66759917574474 0.0 0.0
-909.100472044594 -133.10288187942325 -514.8022307094536 -113.20036341504698 0.0 0.0
-966.2422847270105 -177.9415289869565 -565.7705287574568 -121.57359013199267 0.0 0.0
-1032.1944451522522 -246.3647014744114 -632.1586859113835 -129.6207779327973 0.0 0.0
-1104.927353756022 -355.86552049366355 -718.7139662264308 -138.47259506113616 0.0 0.0
-1104.927353755742 -355.8655204935041 -718.7139662262891 138.47259506131292 0.0 0.0
-1032.1944451515185 -246.36470147377366 -632.158685910855 129.62077793299414 0.0 0.0
-966.2422847267579 -177.94152898686545 -565.7705287572445 121.57359013225502 0.0 0.0
-909.1004720442875 -133.1028818792446 -514.8022307091732 113.20036341516253 0.0 0.0
-860.2585079022853 -105.59343148563393 -476.2962254835755 107.66759917579228 0.0 0.0
-815.4081595425455 -87.68308675400635 -443.72004116938456 105.79400693150222 0.0 0.0
-772.5724236012029 -74.5780997454084 -413.53171549016747 106.9188933375276 0.0 0.0
-730.2493152912273 -62.8594007005968 -382.59132299444275 109.61745136909167 0.0 0.0
-687.4965099103238 -51.89036813841311 -349.3140640495652 112.946802925219 0.0 0.0
-642.2849950569487 -40.285966619990035 -311.3442182077355 116.36828047144785 0.0 0.0
-593.7202063453572 -29.298468368829035 -268.4221935069368 119.35914442781451 0.0 0.0
-533.8040576441779 -16.40971913528007 -216.4386049733655 123.45934607004176 0.0 0.0
-456.76035164658856 -3.775836112058883 -160.5942984785288 131.57898026855182 0.0 0.0
-363.9451545295157 6.5752570690050565 -112.0055046609792 142.109068097212 0.0 0.0
-276.2210181416323 12.565025859741507 -79.65813900420994 146.49338549707443 0.0 0.0
-212.8074109754764 16.89325208792594 -58.73487225079054 148.18136821216808 0.0 0.0
-165.3766198887617 14.18002708324363 -45.34776080816526 152.35131531390832 0.0 0.0
-124.62240295218362 -0.3694668611083265 -37.494769011551625 157.69731443922214 0.0 0.0
-77.30625122530178 -45.15923743696539 -36.739646598680146 148.59430309143846 0.0 0.0
-23.893326782846223 -107.2197014277308 -39.3339084631731 80.57756783324672 0.0 0.0
-24.517423775408524 -76.71679031402913 -30.37026422683129 -68.01937154577314 0.0 0.0
-84.44591130377259 -37.285870376078506 -36.51953450395532 -133.31643742754804 0.0 0.0
-145.71321636419236 -0.6051145480016178 -43.89549927365818 -145.51885905411888 0.0 0.0
-202.730531215775 12.554860955925355 -57.0331554944196 -139.869116692916 0.0 0.0
-266.83250229478267 15.518302207435514 -75.28955401313787 -132.52643270077937 0.0 0.0
-346.3025874896395 13.215845848099514 -101.65895320081053 -125.82000568817962 0.0 0.0
-442.10863589688256 5.749252864770201 -144.45814387563144 -115.7184030557474 0.0 0.0
-527.5883210919255 -9.032680051876298 -203.53915667212146 -106.48445583072069 0.0 0.0
-594.2783868796093 -23.984881006328468 -262.2821966329542 -103.26070489500029 0.0 0.0
-649.2509976187611 -38.402904259087265 -312.53614021039834 -101.70433020327472 0.0 0.0
-698.9059884683131 -53.12807283661068 -355.5044176352882 -99.58341854572208 0.0 0.0
-746.1106286519305 -68.0017029700915 -393.43043431395154 -96.72821619694777 0.0 0.0
-791.8134167911824 -82.45515205031523 -427.5972109582593 -93.78650283317542 0.0 0.0
-837.2361579981098 -96.82140461264217 -459.7213074089666 -91.2761519906683 0.0 0.0
-883.6156115923488 -112.41076493772867 -491.8777586287491 -90.01756805904212 0.0 0.0
-933.2663749016538 -134.05810213651642 -528.1104880868054 -91.01773049675131 0.0 0.0
-992.056981333224 -168.4424960831902 -574.6824349343976 -95.24683362592155 0.0 0.0
-1062.6833385967684 -223.8733269133069 -637.499554169196 -102.30094637841937 0.0 0.0
-1142.801692043484 -304.93301532538953 -717.6040618645713 -110.57270554983039 0.0 0.0
-1215.9181435934768 -414.6770973993942 -805.956498088067 -125.16176890615282 0.0 0.0
-1215.9181435930175 -414.6770973989793 -805.9564980877692 125.16176890627654 0.0 0.0
-1142.8016920430894 -304.93301532509474 -717.6040618643134 110.57270555003711 0.0 0.0
-1062.68333859578 -223.87332691237822 -637.4995541684384 102.30094637854494 0.0 0.0
-992.0569813327431 -168.4424960827709 -574.6824349339845 95.24683362597102 0.0 0.0
-933.2663749016685 -134.05810213663003 -528.1104880868045 91.0177304967965 0.0 0.0
-883.615611592426 -112.41076493792335 -491.87775862880756 90.0175680591075 0.0 0.0
-837.2361579978108 -96.82140461245884 -459.7213074087277 91.27615199071239 0.0 0.0
-791.8134167902411 -82.45515204950894 -427.59721095755424 93.78650283323836 0.0 0.0
-746.1106286514065 -68.00170296972713 -393.43043431352817 96.72821619694471 0.0 0.0
-698.9059884680602 -53.1280728365601 -355.5044176350492 99.58341854570551 0.0 0.0
-649.2509976186434 -38.40290425924248 -312.53614021023265 101.70433020327368 0.0 0.0
-594.2783868792204 -23.984881006225415 -262.2821966326096 103.2607048949975 0.0 0.0
-527.5883210914893 -9.032680051848661 -203.53915667177364 106.48445583079256 0.0 0.0
-442.10863589621886 5.749252865058219 -144.45814387523356 115.71840305571314 0.0 0.0
-346.30258748922734 13.215845848025214 -101.65895320070085 125.82000568806113 0.0 0.0
-266.8325022945269 15.518302207233692 -75.28955401312588 132.52643270069058 0.0 0.0
-202.73053121552942 12.554860955974533 -57.033155494332675 139.86911669280158 0.0 0.0
-145.71321636403914 -0.6051145479359707 -43.895499273592534 145.51885905403563 0.0 0.0
-84.44591130367837 -37.28587037604728 -36.51953450391769 133.31643742746476 0.0 0.0
-24.517423775387712 -76.71679031398055 -30.370264226810477 68.0193715456856 0.0 0.0
-25.26285129198854 -50.643442620167335 -22.771888173646758 -55.01911207885064 0.0 0.0
-91.25784054997953 -28.83600934226096 -36.028154967672144 -115.30135949988214 0.0 0.0
-165.80014979338668 -0.4255806017759891 -49.86771911854879 -129.44435361425104 0.0 0.0
-238.65535433097216 10.213378507572434 -68.52227261343066 -123.23290143350852 0.0 0.0
-317.3450294890323 13.740289859985232 -91.17086089475714 -112.8689429295854 0.0 0.0
-410.87033367588253 13.509835269757918 -123.9371011904253 -102.09709261882843 0.0 0.0
-503.9461763695622 2.632617441737633 -177.37337483974318 -89.67482400218277 0.0 0.0
-578.1320055658142 -14.926716188826141 -241.760619713096 -84.83170528241155 0.0 0.0
-638.7888835015791 -30.098836515821 -298.4365386487142 -84.80836563552752 0.0 0.0
-693.9514381992948 -47.36297552086572 -347.89926148834513 -84.2226320825559 0.0 0.0
-745.8298739584329 -65.59469772225772 -391.18450054076516 -82.73017940518602 0.0 0.0
-795.6971147084146 -83.78928841359955 -429.9879977851356 -80.3427338346918 0.0 0.0
-845.0342288659464 -101.66208386736909 -466.1881139320418 -77.94151061672649 0.0 0.0
-893.6532679974529 -119.41679974769305 -500.7117335049576 -75.71954611421977 0.0 0.0
-943.1948611938576 -137.72684788872084 -535.3048605198383 -74.227831166176 0.0 0.0
-998.3612768999678 -162.6391205635955 -575.6735562296498 -74.18110454147286 0.0 0.0
-1064.6883138779035 -203.52859207726436 -629.1119883112151 -76.61645961136978 0.0 0.0
-1147.275564065677 -269.5015222515676 -703.0057671175505 -82.74762062785689 0.0 0.0
-1237.5829755400391 -360.07368280524315 -793.2384222772224 -93.04523185306996 0.0 0.0
-1312.1046036292241 -471.3667642042482 -884.1519311842685 -115.32180882979293 0.0 0.0
-1312.104603629069 -471.3667642041531 -884.1519311842144 115.32180882990879 0.0 0.0
-1237.5829755402897 -360.073682805581 -793.2384222774178 93.04523185324197 0.0 0.0
-1147.275564065736 -269.50152225170245 -703.0057671176216 82.74762062797161 0.0 0.0
-1064.688313877914 -203.52859207734483 -629.111988311191 76.61645961143911 0.0 0.0
-998.3612768996743 -162.63912056341448 -575.6735562293525 74.18110454159167 0.0 0.0
-943.1948611932764 -137.72684788821863 -535.304860519327 74.22783116619654 0.0 0.0
-893.6532679972349 -119.41679974757776 -500.7117335047005 75.71954611421236 0.0 0.0
-845.0342288658428 -101.66208386740925 -466.1881139319068 77.9415106167603 0.0 0.0
-795.6971147081521 -83.78928841351232 -429.98799778490604 80.34273383472889 0.0 0.0
-745.8298739580786 -65.59469772210167 -391.184500540435 82.73017940516432 0.0 0.0
-693.9514381989783 -47.36297552074562 -347.8992614880212 84.22263208249436 0.0 0.0
-638.7888835010698 -30.098836515557064 -298.4365386482765 84.80836563552396 0.0 0.0
-578.1320055655746 -14.926716188927884 -241.76061971282417 84.83170528242375 0.0 0.0
-503.9461763693017 2.6326174415472208 -177.3733748395219 89.67482400220842 0.0 0.0
-410.87033367553556 13.509835269594944 -123.9371011903107 102.09709261877224 0.0 0.0
-317.34502948866884 13.740289859968165 -91.17086089465946 112.86894292951304 0.0 0.0
-238.65535433074385 10.213378507516236 -68.52227261338064 123.23290143339135 0.0 0.0
-165.80014979327274 -0.4255806018979471 -49.86771911855119 129.44435361412295 0.0 0.0
-91.25784054988506 -28.83600934221132 -36.02815496762891 115.30135949979672 0.0 0.0
-25.262851291963315 -50.64344262010848 -22.771888173621534 55.01911207880154 0.0 0.0
-25.81608097874409 -29.37578194885424 -16.557558878279497 -41.52387098371948 0.0 0.0
-97.29009031331705 -20.27713078233864 -35.2701663286967 -94.82764818839429 0.0 0.0
-184.92073246319399 0.05969824797271439 -55.45831026456638 -109.45378987880846 0.0 0.0
-273.73127295379334 6.964468361809035 -80.02055621555343 -102.74868104521194 0.0 0.0
-366.23598145227817 12.623968884203688 -106.38273811927634 -90.40074417636512 0.0 0.0
-464.703454519896 12.85241812220959 -146.7705133770677 -76.39830209534763 0.0 0.0
-546.8759207544358 -3.1573256111895134 -209.44276488986617 -66.06280466429291 0.0 0.0
-615.2670647267983 -18.55165954776164 -272.5982241450119 -65.7703146530734 0.0 0.0
-675.4319797752628 -35.954023837293136 -328.1640845384586 -66.52784231334218 0.0 0.0
-731.6998096375198 -56.23562320558118 -377.180269841033 -66.56754999050972 0.0 0.0
-785.9451202616356 -77.57341084660023 -421.0971818356302 -65.53818507553096 0.0 0.0
-839.2657370522543 -99.24141213459389 -461.86676759792647 -63.69909751942935 0.0 0.0
-891.9861747630648 -120.65186348241511 -500.5790450300537 -61.80848713123516 0.0 0.0
-945.315649022278 -142.34127730821186 -538.9358051955005 -60.138744556488135 0.0 0.0
-998.9209376512771 -164.30364288726227 -577.1296624136141 -58.54068604905271 0.0 0.0
-1056.3658164488097 -191.73540798409496 -619.7596071241132 -57.17873319155081 0.0 0.0
-1128.5271589218437 -236.82840988380633 -678.1804328224937 -57.67978903921347 0.0 0.0
-1220.8895267351272 -311.080735578765 -760.9438526612206 -63.18164813940212 0.0 0.0
-1322.583827518488 -412.2819711538203 -862.2713051542293 -76.57781245905771 0.0 0.0
-1403.3078406820746 -530.0371535596399 -960.410376440465 -107.1083990728356 0.0 0.0
-1403.3078406820293 -530.0371535596704 -960.4103764404479 107.1083990729809 0.0 0.0
-1322.5838275181336 -412.2819711535227 -862.2713051539552 76.5778124592165 0.0 0.0
-1220.8895267350272 -311.0807355787213 -760.9438526610631 63.1816481394941 0.0 0.0
-1128.5271589217848 -236.82840988382117 -678.1804328223973 57.679789039290824 0.0 0.0
-1056.36581644826 -191.73540798362646 -619.7596071236576 57.1787331916276 0.0 0.0
-998.9209376509436 -164.30364288701503 -577.1296624132939 58.54068604907354 0.0 0.0
-945.3156490218367 -142.3412773078771 -538.9358051951073 60.138744556513416 0.0 0.0
-891.9861747626627 -120.65186348217165 -500.5790450297141 61.8084871313382 0.0 0.0
-839.2657370520392 -99.24141213453979 -461.86676759772604 63.699097519434034 0.0 0.0
-785.9451202614605 -77.57341084663673 -421.0971818354428 65.53818507555486 0.0 0.0
-731.6998096371966 -56.235623205472734 -377.18026984075425 66.56754999051371 0.0 0.0
-675.4319797748317 -35.95402383711197 -328.1640845380796 66.52784231337877 0.0 0.0
-615.2670647265272 -18.551659547780844 -272.5982241447072 65.77031465307849 0.0 0.0
-546.8759207539794 -3.157325611078037 -209.44276488948162 66.06280466431075 0.0 0.0
-464.70345451946145 12.852418122215798 -146.7705133768334 76.39830209535845 0.0 0.0
-366.23598145183433 12.623968884290544 -106.38273811912173 90.4007441762723 0.0 0.0
-273.73127295345256 6.964468361996571 -80.02055621539652 102.7486810451114 0.0 0.0
-184.92073246303093 0.05969824790839651 -55.45831026453675 109.45378987869958 0.0 0.0
-97.29009031321937 -20.27713078230288 -35.27016632865667 94.82764818835373 0.0 0.0
-25.816080978766106 -29.375781948862915 -16.557558878288706 41.523870983728024 0.0 0.0
-25.544420261473263 -13.268369118209325 -11.643836813904775 -27.682286872584474 0.0 0.0
-101.60448253620575 -12.021624239118065 -34.087832032597134 -72.06340557897894 0.0 0.0
-203.1302424136768 0.5373769804118949 -60.77785962997946 -85.38092244749474 0.0 0.0
-308.322219224936 3.2930504964013236 -91.498214145719 -78.50501056151047 0.0 0.0
-413.0356221259544 13.096817533725009 -121.10185444287515 -65.4459665455157 0.0 0.0
-507.93521101999517 8.779842051376463 -171.73961808965487 -51.430187656863026 0.0 0.0
-581.8080258693544 -7.518853423522547 -238.1919036580831 -45.88310757210432 0.0 0.0
-645.6509039210194 -21.72947603808459 -298.1778498573584 -46.84076384460974 0.0 0.0
-705.9805664365851 -41.80866055070146 -352.86575168477157 -48.1888290042827 0.0 0.0
-764.161292106518 -64.8634957328216 -401.95179109597007 -48.561760655700034 0.0 0.0
-821.3037604181002 -89.23513460754785 -447.1715656127941 -47.95378852790694 0.0 0.0
-877.7943168607871 -114.27542275221134 -490.1823514741469 -46.6562616609525 0.0 0.0
-934.8933570208449 -139.32759620057126 -532.3270410640191 -45.37236327057385 0.0 0.0
-992.3834272830709 -165.45763720122193 -574.6694309927407 -44.20056238325132 0.0 0.0
-1050.991975137738 -192.49130617186918 -617.7342237261271 -42.8277190508002 0.0 0.0
-1112.4592957987702 -223.25005356493332 -663.9724736615125 -40.68475533158722 0.0 0.0
-1182.3367527692105 -265.6294285634254 -719.9942966957179 -38.91021589885947 0.0 0.0
-1281.3285996939173 -345.16640557419805 -808.5312321583929 -43.209959877907266 0.0 0.0
-1399.8899145986913 -461.38046388865223 -925.6574329059997 -59.98566293248893 0.0 0.0
-1498.1133220227932 -595.1910593519838 -1041.4252630500487 -99.08187980510303 0.0 0.0
-1498.1133220228644 -595.1910593520786 -1041.4252630500391 99.08187980515947 0.0 0.0
-1399.8899145980217 -461.3804638880101 -925.6574329054904 59.98566293256047 0.0 0.0
-1281.3285996937425 -345.1664055740669 -808.5312321582273 43.209959877976274 0.0 0.0
-1182.3367527690662 -265.6294285633448 -719.9942966955936 38.91021589891296 0.0 0.0
-1112.4592957986602 -223.2500535648962 -663.9724736613887 40.68475533161198 0.0 0.0
-1050.9919751372743 -192.49130617148936 -617.7342237257076 42.82771905084814 0.0 0.0
-992.3834272824616 -165.4576372007173 -574.6694309922709 44.20056238327654 0.0 0.0
-934.8933570211643 -139.32759620105048 -532.327041064192 45.37236327067204 0.0 0.0
-877.7943168606123 -114.2754227522072 -490.1823514739307 46.65626166096267 0.0 0.0
-821.3037604171932 -89.23513460678979 -447.1715656121477 47.95378852784037 0.0 0.0
-764.1612921058388 -64.86349573232806 -401.9517910954721 48.56176065565879 0.0 0.0
-705.9805664361865 -41.80866055051987 -352.8657516844296 48.1888290042842 0.0 0.0
-645.6509039206637 -21.729476037971676 -298.1778498570029 46.84076384453267 0.0 0.0
-581.8080258689517 -7.518853423393503 -238.19190365768878 45.88310757200925 0.0 0.0
-507.93521101962165 8.779842051398234 -171.73961808937673 51.43018765682247 0.0 0.0
-413.03562212559405 13.096817533647192 -121.10185444277789 65.44596654547058 0.0 0.0
-308.3222192246566 3.293050496391413 -91.49821414563985 78.50501056143455 0.0 0.0
-203.1302424134705 0.5373769804271067 -60.77785962991301 85.38092244741148 0.0 0.0
-101.60448253607966 -12.021624239064021 -34.0878320325431 72.06340557891701 0.0 0.0
-25.544420261462456 -13.268369118200116 -11.64383681389877 27.68228687256526 0.0 0.0
-23.24510211400928 -2.6036220944289132 -7.7546172625314576 -14.006485125931047 0.0 0.0
-102.6081302256975 -4.576230876928403 -32.15530833078776 -47.0051724599006 0.0 0.0
-220.48947284446973 0.7093286691415166 -65.93404325259846 -56.657723073970914 0.0 0.0
-343.58130033470405 -0.13004616354282028 -103.07404005728182 -50.921603708708396 0.0 0.0
-454.3152351147313 15.286880708226343 -135.81665133052135 -39.756162033221955 0.0 0.0
-538.1868049148419 1.294939936554016 -197.68577935858775 -28.4300475636043 0.0 0.0
-608.5228448604081 -9.312252303211956 -261.4081879035874 -27.062866568389467 0.0 0.0
-670.7566931226382 -25.512494933974075 -319.9368075716819 -28.274601014111553 0.0 0.0
-731.6428544767625 -47.463975106555765 -373.4501620700779 -29.53808454045143 0.0 0.0
-792.1124872798725 -73.13443042864496 -423.0819846220571 -30.09661137355986 0.0 0.0
-852.4404429461745 -100.69074737875474 -470.2666632444242 -29.882416374638918 0.0 0.0
-912.9654171124226 -128.82756767703336 -516.1230124011213 -29.20870403892197 0.0 0.0
-973.6573562150234 -158.07633877938093 -561.7772826231882 -28.466225548185005 0.0 0.0
-1036.075871706616 -188.43695665099318 -608.4808564488487 -27.84483073402694 0.0 0.0
-1100.8219813123667 -221.25748296777365 -657.4079345746843 -26.9168751632602 0.0 0.0
-1167.3766971501727 -257.48497560231027 -708.8412366837356 -24.929835434540333 0.0 0.0
-1235.244305941218 -298.30911838069585 -763.2248255604436 -21.67625831668836 0.0 0.0
-1314.2086035891864 -356.638746834342 -831.2638538540073 -22.46544532637331 0.0 0.0
-1469.6616834385388 -506.0807144868483 -982.7566593471356 -41.00674226673397 0.0 0.0
-1607.3513996559946 -675.7255110282448 -1137.1510471670993 -89.63669334048956 0.0 0.0
-1607.3513996557149 -675.7255110279538 -1137.1510471668757 89.63669334047842 0.0 0.0
-1469.6616834385186 -506.08071448687156 -982.7566593470783 41.0067422668213 0.0 0.0
-1314.2086035887878 -356.6387468339828 -831.263853853618 22.465445326397948 0.0 0.0
-1235.244305940523 -298.3091183800562 -763.2248255598392 21.676258316749283 0.0 0.0
-1167.3766971489802 -257.4849756011834 -708.8412366827791 24.929835434558555 0.0 0.0
-1100.8219813118342 -221.25748296731624 -657.4079345741894 26.91687516325517 0.0 0.0
-1036.0758717063218 -188.43695665081054 -608.4808564485343 27.844830734085807 0.0 0.0
-973.6573562144167 -158.07633877890333 -561.7772826226904 28.466225548197947 0.0 0.0
-912.9654171120138 -128.82756767678438 -516.1230124008009 29.2087040389595 0.0 0.0
-852.4404429454859 -100.6907473782377 -470.2666632438731 29.88241637459408 0.0 0.0
-792.1124872796257 -73.13443042860305 -423.0819846217987 30.096611373510903 0.0 0.0
-731.6428544765065 -47.463975106521204 -373.4501620697984 29.53808454046544 0.0 0.0
-670.7566931224285 -25.51249493402353 -319.9368075714194 28.274601014110946 0.0 0.0
-608.522844859951 -9.312252303026442 -261.40818790315416 27.062866568363383 0.0 0.0
-538.1868049143657 1.294939936740077 -197.68577935819948 28.43004756354722 0.0 0.0
-454.3152351143848 15.286880708181853 -135.81665133037646 39.7561620331834 0.0 0.0
-343.581300334386 -0.13004616355517973 -103.07404005719376 50.921603708645094 0.0 0.0
-220.48947284422195 0.709328669223316 -65.93404325249958 56.657723073909 0.0 0.0
-102.6081302255786 -4.576230876880496 -32.155308330737725 47.00517245984936 0.0 0.0
-23.24510211400441 -2.603622094461139 -7.754617262539665 14.006485125950263 0.0 0.0
-16.577045457069186 2.4595441712876873 -4.23525038573445 -1.6792640489260435 0.0 0.0
-97.7032644772822 1.4105649495196335 -28.887809858328772 -19.2224491930058 0.0 0.0
-237.4887048279859 -0.19359602405363674 -71.30469025561186 -22.20265739927285 0.0 0.0
-381.04303047208305 -0.016297870048272323 -114.23954716087715 -20.54365519459707 0.0 0.0
-490.9506573477224 13.85485792498597 -153.58368390204134 -14.104452914830382 0.0 0.0
-567.1941516352626 -3.3555570351971618 -221.4435745709334 -8.709459122806841 0.0 0.0
-629.7336527279951 -11.431676757789482 -281.15300502097523 -8.884656292585067 0.0 0.0
-691.4610218252352 -29.24559983570309 -338.0250232840539 -9.662118493380506 0.0 0.0
-753.5578558804141 -53.127008520957475 -390.9806259009277 -10.559709821963342 0.0 0.0
-816.6038342968799 -81.24835203554633 -441.6222677762461 -11.112520655049533 0.0 0.0
-880.1559199977489 -111.40086712831763 -490.7856046711737 -11.306311466667506 0.0 0.0
-944.164829033997 -143.68167786189554 -539.9432215539131 -11.235660786778121 0.0 0.0
-1009.3737483705675 -176.5200067445015 -589.3939375843013 -11.132663470211263 0.0 0.0
-1076.7838936704686 -211.16911382046848 -640.5980289579173 -10.994231168896246 0.0 0.0
-1147.415607513002 -249.71642326974714 -695.2414829019315 -10.568900190251586 0.0 0.0
-1220.319794930565 -292.5917991471511 -753.111785094397 -9.48867047835268 0.0 0.0
-1291.1350205058407 -337.3140722794891 -810.8632576941976 -7.145050039089792 0.0 0.0
-1354.601300223555 -380.62476344536014 -864.187370715636 -4.097320663510049 0.0 0.0
-1434.2922573584465 -449.766912055058 -937.1907590358782 -15.369870606597669 0.0 0.0
-1796.4416898888562 -833.5720403294054 -1310.8343809443315 -71.66860996699133 0.0 0.0
-1796.441689888789 -833.5720403293503 -1310.8343809442915 71.66860996700915 0.0 0.0
-1434.2922573588337 -449.7669120554762 -937.190759036168 15.369870606588961 0.0 0.0
-1354.6013002235 -380.62476344534616 -864.1873707155589 4.097320663520641 0.0 0.0
-1291.1350205058925 -337.3140722796043 -810.8632576942085 7.145050039164769 0.0 0.0
-1220.319794930908 -292.5917991475725 -753.1117850946038 9.488670478359701 0.0 0.0
-1147.4156075127053 -249.7164232695346 -695.2414829016609 10.568900190253807 0.0 0.0
-1076.7838936700552 -211.16911382015854 -640.598028957537 10.994231168899976 0.0 0.0
-1009.3737483706934 -176.52000674477256 -589.3939375842803 11.132663470256926 0.0 0.0
-944.1648290340466 -143.68167786211217 -539.9432215538511 11.235660786770822 0.0 0.0
-880.155919997517 -111.40086712827666 -490.7856046709474 11.306311466653664 0.0 0.0
-816.603834296566 -81.24835203543712 -441.6222677759679 11.112520655051277 0.0 0.0
-753.5578558798377 -53.12700852058833 -390.98062590046885 10.559709821983295 0.0 0.0
-691.4610218249069 -29.245599835610996 -338.0250232837391 9.662118493398676 0.0 0.0
-629.7336527276142 -11.431676757673001 -281.15300502061734 8.884656292585493 0.0 0.0
-567.1941516350573 -3.3555570353019064 -221.4435745706907 8.709459122726269 0.0 0.0
-490.9506573474095 13.854857924965282 -153.58368390185555 14.104452914800046 0.0 0.0
-381.0430304716662 -0.01629786996785576 -114.23954716073685 20.54365519459056 0.0 0.0
-237.48870482774842 -0.19359602397623554 -71.30469025551739 22.20265739927285 0.0 0.0
-97.70326447717247 1.4105649495453196 -28.887809858288136 19.222449192963104 0.0 0.0
-16.577045456999667 2.4595441713502706 -4.235250385694818 1.6792640489217736 0.0 0.0
SCALARS Strain float 6
LOOKUP_TABLE default
0.007882724230608092 -0.008979899983841147 0.0 -0.004780515276980701 0.0 0.0
0.0018396244549147272 -0.0007970257808455061 0.0 0.0009172263497579936 0.0 0.0
0.001674368357297366 -0.000713942362350839 0.0 -9.425511203187131e-05 0.0 0.0
0.0019708966200977993 -0.0008585056853931405 0.0 -0.00015199921550848594 0.0 0.0
0.002619315949857005 -0.0013141998595904703 0.0 -0.00018064302564810286 0.0 0.0
0.0038984708712764896 -0.002320342075152526 0.0 -0.00023287318429532355 0.0 0.0
0.005733833714468974 -0.003892514710545081 0.0 -0.0003293750395394479 0.0 0.0
0.008160768458832754 -0.006044534409046509 0.0 -0.0004589475787694641 0.0 0.0
0.011211895060215155 -0.008816651868722603 0.0 -0.000620653542025465 0.0 0.0
0.014942085255564152 -0.012263456117796112 0.0 -0.0008042008151514929 0.0 0.0
0.019500846695752413 -0.016536670563830125 0.0 -0.0009913053400566613 0.0 0.0
0.02513667943393731 -0.021880753975340284 0.0 -0.001210123446947764 0.0 0.0
0.03210510082554613 -0.028552801351882318 0.0 -0.0014718760003399334 0.0 0.0
0.0406006642146773 -0.03674283056366634 0.0 -0.0017771989174212022 0.0 0.0
0.05063097884681948 -0.046451076985764894 0.0 -0.0021377624845167476 0.0 0.0
0.061848358012534715 -0.057329656819326225 0.0 -0.0024963923014892364 0.0 0.0
0.07347764330602742 -0.06861418639347971 0.0 -0.002700819326458409 0.0 0.0
0.08437837231948626 -0.07918605103279819 0.0 -0.0025315306041489016 0.0 0.0
0.09321845740442772 -0.08773830013422645 0.0 -0.0019477678116996133 0.0 0.0
0.09851484331241582 -0.09275047089778798 0.0 -0.0015076605885797623 0.0 0.0
0.0985148433124126 -0.09275047089778332 0.0 0.0015076605885815386 0.0 0.0
0.09321845740441616 -0.08773830013421402 0.0 0.001947767811709189 0.0 0.0
0.08437837231946625 -0.07918605103277998 0.0 0.0025315306041555075 0.0 0.0
0.07347764330600143 -0.06861418639345773 0.0 0.002700819326461934 0.0 0.0
0.06184835801250739 -0.05732965681930002 0.0 0.002496392301484518 0.0 0.0
0.050630978846792116 -0.04645107698574047 0.0 0.0021377624845176357 0.0 0.0
0.04060066421464874 -0.0367428305636428 0.0 0.0017771989174203973 0.0 0.0
0.03210510082551628 -0.028552801351857005 0.0 0.0014718760003397113 0.0 0.0
0.02513667943390757 -0.021880753975313416 0.0 0.0012101234469462652 0.0 0.0
0.01950084669572577 -0.01653667056380459 0.0 0.000991305340055093 0.0 0.0
0.014942085255540638 -0.012263456117775129 0.0 0.0008042008151486757 0.0 0.0
0.011211895060196903 -0.008816651868705727 0.0 0.0006206535420257009 0.0 0.0
0.008160768458817774 -0.006044534409032076 0.0 0.00045894757876818737 0.0 0.0
0.005733833714457598 -0.0038925147105346447 0.0 0.000329375039538754 0.0 0.0
0.003898470871269405 -0.002320342075146198 0.0 0.00023287318429462966 0.0 0.0
0.0026193159498536234 -0.0013141998595876392 0.0 0.00018064302564793633 0.0 0.0
0.0019708966200966127 -0.0008585056853928075 0.0 0.00015199921550848594 0.0 0.0
0.0016743683572969514 -0.0007139423623508945 0.0 9.425511203170478e-05 0.0 0.0
0.0018396244549137852 -0.0007970257808447428 0.0 -0.0009172263497566335 0.0 0.0
0.00788272423060074 -0.008979899983830595 0.0 0.004780515276958525 0.0 0.0
0.005376623305812688 -0.0068109816162806175 0.0 -0.005630478291241137 0.0 0.0
0.001037933467220654 -0.00039421029867345303 0.0 0.0002072390985930206 0.0 0.0
0.00144704785372686 -0.0005561479478630171 0.0 -0.00013091738913906248 0.0 0.0
0.0017639668778904605 -0.0007615515679509355 0.0 -0.0004051967718718408 0.0 0.0
0.002285349572803644 -0.0010823761084730599 0.0 -0.00044007101790385916 0.0 0.0
0.0033803764665462626 -0.0019029560781169685 0.0 -0.0005753221146138077 0.0 0.0
0.005037771709693852 -0.003283819731683124 0.0 -0.0008299837550664324 0.0 0.0
0.007235771154571469 -0.005204239058270277 0.0 -0.0011465561864840157 0.0 0.0
0.009986256427144836 -0.0076813445970879135 0.0 -0.0015168999522491011 0.0 0.0
0.013326930542684492 -0.010750569327242054 0.0 -0.0019237418063272893 0.0 0.0
0.017379642805584454 -0.014533319433554626 0.0 -0.0023468241350307756 0.0 0.0
0.022365908733882313 -0.01925033814912447 0.0 -0.0027966671098921952 0.0 0.0
0.02856052819150941 -0.025172611639716846 0.0 -0.003358310124421615 0.0 0.0
0.03617058955667762 -0.03250159462701596 0.0 -0.004068349490016429 0.0 0.0
0.04520808628797912 -0.04124376216617964 0.0 -0.0048909691699732805 0.0 0.0
0.05536828876132134 -0.05109430873560328 0.0 -0.005706909495509976 0.0 0.0
0.06596225161190455 -0.06137301806791173 0.0 -0.0061815553817266555 0.0 0.0
0.07596597306702016 -0.07107144863901427 0.0 -0.00589586699565342 0.0 0.0
0.08410260651618953 -0.07891728518683694 0.0 -0.0047431134999148805 0.0 0.0
0.08890877923052132 -0.0835177769033908 0.0 -0.002737249864981528 0.0 0.0
0.0889087792305183 -0.08351777690338857 0.0 0.0027372498649926302 0.0 0.0
0.08410260651617911 -0.07891728518682717 0.0 0.004743113499934393 0.0 0.0
0.07596597306700265 -0.07107144863899717 0.0 0.00589586699566752 0.0 0.0
0.06596225161188243 -0.061373018067890195 0.0 0.0061815553817338165 0.0 0.0
0.055368288761297194 -0.05109430873558041 0.0 0.0057069094955067845 0.0 0.0
0.04520808628795432 -0.04124376216615633 0.0 0.004890969169972614 0.0 0.0
0.036170589556652075 -0.03250159462699309 0.0 0.004068349490014944 0.0 0.0
0.028560528191483053 -0.02517261163969331 0.0 0.003358310124420283 0.0 0.0
0.02236590873385602 -0.019250338149100932 0.0 0.0027966671098890172 0.0 0.0
0.01737964280556016 -0.014533319433531977 0.0 0.002346824135027903 0.0 0.0
0.013326930542663762 -0.010750569327223403 0.0 0.0019237418063219325 0.0 0.0
0.009986256427128012 -0.0076813445970731475 0.0 0.0015168999522477966 0.0 0.0
0.007235771154558007 -0.0052042390582582865 0.0 0.0011465561864824891 0.0 0.0
0.00503777170968378 -0.0032838197316746864 0.0 0.0008299837550651556 0.0 0.0
0.003380376466540158 -0.0019029560781127497 0.0 0.0005753221146123366 0.0 0.0
0.002285349572801104 -0.001082376108471339 0.0 0.0004400710179027767 0.0 0.0
0.0017639668778895445 -0.0007615515679509355 0.0 0.0004051967718710636 0.0 0.0
0.0014470478537266518 -0.0005561479478636833 0.0 0.00013091738913906248 0.0 0.0
0.0010379334672210305 -0.00039421029867275914 0.0 -0.00020723909859465817 0.0 0.0
0.00537662330580399 -0.006810981616269564 0.0 0.005630478291222707 0.0 0.0
0.0038752242684675538 -0.005400430373990336 0.0 -0.00520404006181463 0.0 0.0
0.000613342126879312 -0.0002447496117651826 0.0 -0.0004652772774957348 0.0 0.0
0.0011576163081369155 -0.00040434204724931755 0.0 -0.00037373981527155653 0.0 0.0
0.0015537391548367113 -0.0006564830004175404 0.0 -0.0006379663131469704 0.0 0.0
0.0019924021047779683 -0.0008987057055808156 0.0 -0.0007038937186299443 0.0 0.0
0.0028705604676199127 -0.0015117110243664245 0.0 -0.0008509526881903817 0.0 0.0
0.004334866764124763 -0.0026811096129017997 0.0 -0.0012104423775116946 0.0 0.0
0.006298854828188 -0.0043693939846679575 0.0 -0.0016907941223841538 0.0 0.0
0.008747927498708518 -0.00654707695571799 0.0 -0.0022309231978456384 0.0 0.0
0.011703233839251617 -0.009241476206084176 0.0 -0.0028133241352426425 0.0 0.0
0.015261599528313696 -0.012546550946512136 0.0 -0.003424063760011517 0.0 0.0
0.01961760835846706 -0.016653889052937743 0.0 -0.004073665915012653 0.0 0.0
0.025032843236202012 -0.021819679050744556 0.0 -0.004843910008285435 0.0 0.0
0.03173312306081941 -0.028262856543876502 0.0 -0.0058475230895215224 0.0 0.0
0.03975018578642424 -0.036012453224332 0.0 -0.00705416362661393 0.0 0.0
0.04882780883144474 -0.04481095802326163 0.0 -0.008226989979005755 0.0 0.0
0.05838207394211058 -0.05408012031287135 0.0 -0.008932914760664573 0.0 0.0
0.06750516019817959 -0.06291605340434847 0.0 -0.00863910035334009 0.0 0.0
0.07499044142096961 -0.0701377376716219 0.0 -0.006976809805350426 0.0 0.0
0.07951644234087986 -0.07448726481951229 0.0 -0.0036987584101627613 0.0 0.0
0.07951644234087678 -0.07448726481951029 0.0 0.0036987584101814686 0.0 0.0
0.07499044142096024 -0.07013773767161435 0.0 0.006976809805376738 0.0 0.0
0.06750516019816404 -0.06291605340433448 0.0 0.008639100353358353 0.0 0.0
0.058382073942091495 -0.054080120312857805 0.0 0.008932914760673816 0.0 0.0
0.04882780883142368 -0.04481095802324475 0.0 0.008226989979004284 0.0 0.0
0.03975018578640167 -0.0360124532243149 0.0 0.0070541636266134855 0.0 0.0
0.03173312306079702 -0.02826285654385896 0.0 0.005847523089520523 0.0 0.0
0.02503284323617906 -0.02181967905072435 0.0 0.0048439100082844355 0.0 0.0
0.019617608358444005 -0.016653889052919313 0.0 0.00407366591500824 0.0 0.0
0.015261599528292008 -0.012546550946495483 0.0 0.0034240637600068125 0.0 0.0
0.011703233839233482 -0.009241476206068633 0.0 0.002813324135236217 0.0 0.0
0.008747927498693395 -0.006547076955703557 0.0 0.0022309231978416277 0.0 0.0
0.006298854828176076 -0.0043693939846579655 0.0 0.0016907941223810452 0.0 0.0
0.004334866764115999 -0.0026811096128951384 0.0 0.0012104423775094741 0.0 0.0
0.0028705604676149132 -0.0015117110243626497 0.0 0.0008509526881889939 0.0 0.0
0.001992402104776178 -0.0008987057055796499 0.0 0.0007038937186293892 0.0 0.0
0.0015537391548359342 -0.0006564830004168187 0.0 0.0006379663131459989 0.0 0.0
0.001157616308136794 -0.00040434204724906775 0.0 0.00037373981527072386 0.0 0.0
0.0006133421268797873 -0.00024474961176428056 0.0 0.0004652772774933478 0.0 0.0
0.003875224268459432 -0.005400430373980237 0.0 0.005204040061799309 0.0 0.0
0.002863287290957462 -0.004347286941009443 0.0 -0.0044261571756973594 0.0 0.0
0.00038126882599127596 -0.00019413406161075675 0.0 -0.00103510882065469 0.0 0.0
0.0008891388854025996 -0.00028436686917976406 0.0 -0.00070794748950187 0.0 0.0
0.0013249857499820807 -0.000544101335598679 0.0 -0.0008834584439444404 0.0 0.0
0.0017274821263010033 -0.0007586777781760645 0.0 -0.0009819867232015445 0.0 0.0
0.0024044269694437313 -0.0011859563600062906 0.0 -0.0010922422934050435 0.0 0.0
0.0036260770167180142 -0.002103616294838684 0.0 -0.00147473159762479 0.0 0.0
0.0053558520856617255 -0.0035446744120913865 0.0 -0.0020853517970223223 0.0 0.0
0.007502193858391865 -0.005423934144064502 0.0 -0.002756918435201844 0.0 0.0
0.010076730677975643 -0.007746655577320016 0.0 -0.00347459997066471 0.0 0.0
0.013151300784255152 -0.010582301686126394 0.0 -0.0042198852533592845 0.0 0.0
0.016890902291483254 -0.014091112760375779 0.0 -0.005013407682851995 0.0 0.0
0.02153636759448256 -0.01851020347491139 0.0 -0.005960910937614999 0.0 0.0
0.027313309430418292 -0.024052972587239818 0.0 -0.007149717580006848 0.0 0.0
0.034280007867695396 -0.03077955907731722 0.0 -0.008579079549919127 0.0 0.0
0.04224739704017472 -0.03850060502949337 0.0 -0.010025776588963253 0.0 0.0
0.050741078473577575 -0.046738188946676695 0.0 -0.010953005443785552 0.0 0.0
0.058976995360306726 -0.05471371668258529 0.0 -0.010703213466035921 0.0 0.0
0.06587894479513423 -0.06137711460134443 0.0 -0.008695671259442261 0.0 0.0
0.07023555168393525 -0.06557251253074359 0.0 -0.004498456760778646 0.0 0.0
0.07023555168393225 -0.06557251253074003 0.0 0.004498456760800851 0.0 0.0
0.06587894479512539 -0.06137711460133666 0.0 0.008695671259472015 0.0 0.0
0.05897699536029308 -0.05471371668257463 0.0 0.010703213466056738 0.0 0.0
0.05074107847356109 -0.04673818894666204 0.0 0.010953005443796626 0.0 0.0
0.042247397040156315 -0.03850060502947783 0.0 0.01002577658896131 0.0 0.0
0.034280007867675544 -0.03077955907730079 0.0 0.008579079549917434 0.0 0.0
0.02731330943039885 -0.024052972587222277 0.0 0.007149717580006709 0.0 0.0
0.021536367594462674 -0.01851020347489407 0.0 0.005960910937612807 0.0 0.0
0.01689090229146345 -0.014091112760358016 0.0 0.005013407682846083 0.0 0.0
0.01315130078423632 -0.01058230168610863 0.0 0.004219885253352373 0.0 0.0
0.01007673067796 -0.00774665557730525 0.0 0.0034745999706572994 0.0 0.0
0.007502193858378539 -0.0054239341440536215 0.0 0.002756918435197403 0.0 0.0
0.005355852085651314 -0.0035446744120817275 0.0 0.0020853517970175484 0.0 0.0
0.0036260770167107076 -0.0021036162948326886 0.0 0.0014747315976214592 0.0 0.0
0.002404426969440071 -0.0011859563600026268 0.0 0.0010922422934025455 0.0 0.0
0.0017274821262996398 -0.0007586777781751208 0.0 0.0009819867232003787 0.0 0.0
0.0013249857499812723 -0.000544101335598568 0.0 0.0008834584439436632 0.0 0.0
0.0008891388854025545 -0.00028436686917990284 0.0 0.000707947489500732 0.0 0.0
0.00038126882599157086 -0.0001941340616102294 0.0 0.001035108820652192 0.0 0.0
0.002863287290950589 -0.004347286941000948 0.0 0.004426157175684925 0.0 0.0
0.0021237186374638145 -0.0034997711664437187 0.0 -0.003644756336140337 0.0 0.0
0.0002486745744329083 -0.00018337959987713148 0.0 -0.0014738814079957863 0.0 0.0
0.0006595621518054665 -0.00019527754703380085 0.0 -0.0010561311636873294 0.0 0.0
0.00108632953646947 -0.00042983871593182954 0.0 -0.0011406137321443854 0.0 0.0
0.0014683590774254365 -0.000632721650903445 0.0 -0.0012537389289511425 0.0 0.0
0.001994684374955827 -0.0009296423870291948 0.0 -0.0013438284635764464 0.0 0.0
0.0029451757897364025 -0.0015805765281020623 0.0 -0.001647210903395896 0.0 0.0
0.004403754636085978 -0.0027347656911538287 0.0 -0.0022886112403263104 0.0 0.0
0.006254505951732742 -0.0043209935459918025 0.0 -0.003086172493923234 0.0 0.0
0.008452082529074999 -0.006273871905051243 0.0 -0.003898306709146454 0.0 0.0
0.011053487314278666 -0.00864839201611245 0.0 -0.004736890574419367 0.0 0.0
0.01419055320741227 -0.011572263474063371 0.0 -0.005620404476051 0.0 0.0
0.01807708581535291 -0.015250977010481392 0.0 -0.006655627725307839 0.0 0.0
0.022929010539710533 -0.01989409636911521 0.0 -0.007971511387698665 0.0 0.0
0.028829797555503613 -0.025582203503843104 0.0 -0.009532877979311072 0.0 0.0
0.035654277479307064 -0.0321885690347008 0.0 -0.01108903090420274 0.0 0.0
0.0430427593495873 -0.03935496628259916 0.0 -0.012178656750258254 0.0 0.0
0.05037153554704939 -0.04645535268891687 0.0 -0.012063903401556442 0.0 0.0
0.05672631831033916 -0.05259551095912518 0.0 -0.009935041507034281 0.0 0.0
0.06098676186231608 -0.05670283076143656 0.0 -0.005173127998793214 0.0 0.0
0.06098676186231326 -0.056702830761433676 0.0 0.005173127998817195 0.0 0.0
0.056726318310330856 -0.052595510959116965 0.0 0.009935041507065423 0.0 0.0
0.05037153554703745 -0.046455352688905105 0.0 0.012063903401578813 0.0 0.0
0.04304275934957333 -0.03935496628258539 0.0 0.012178656750268746 0.0 0.0
0.03565427747929094 -0.032188569034685255 0.0 0.011089030904200547 0.0 0.0
0.0288297975554868 -0.02558220350382867 0.0 0.009532877979308851 0.0 0.0
0.02292901053969401 -0.01989409636910211 0.0 0.00797151138769664 0.0 0.0
0.01807708581533604 -0.015250977010466071 0.0 0.006655627725305313 0.0 0.0
0.01419055320739572 -0.011572263474049604 0.0 0.005620404476044727 0.0 0.0
0.011053487314262603 -0.008648392016098239 0.0 0.004736890574412511 0.0 0.0
0.008452082529061863 -0.006273871905038919 0.0 0.003898306709137489 0.0 0.0
0.006254505951721334 -0.004320993545981144 0.0 0.00308617249391846 0.0 0.0
0.004403754636077117 -0.0027347656911467233 0.0 0.002288611240321592 0.0 0.0
0.002945175789730692 -0.0015805765280987316 0.0 0.001647210903393509 0.0 0.0
0.001994684374953287 -0.0009296423870279735 0.0 0.0013438284635740871 0.0 0.0
0.0014683590774243055 -0.0006327216509026123 0.0 0.001253738928949727 0.0 0.0
0.0010863295364687414 -0.00042983871593188505 0.0 0.0011406137321419152 0.0 0.0
0.0006595621518054595 -0.00019527754703416167 0.0 0.0010561311636857473 0.0 0.0
0.0002486745744329083 -0.00018337959987663188 0.0 0.0014738814079938989 0.0 0.0
0.0021237186374582495 -0.0034997711664365777 0.0 0.003644756336131205 0.0 0.0
0.0015664286170498226 -0.002802542834117877 0.0 -0.0029773006831128324 0.0 0.0
0.00016367712006134377 -0.00018563626494016994 0.0 -0.0017942974084602659 0.0 0.0
0.00046461865622332565 -0.00012794086131007187 0.0 -0.0013754631050348354 0.0 0.0
0.00084743301235575 -0.0003171408535952436 0.0 -0.0013915860558489646 0.0 0.0
0.0012030375028249732 -0.0005122252791357473 0.0 -0.0015120284597728295 0.0 0.0
0.0016208165828532212 -0.0007337198009536028 0.0 -0.0016142171034319863 0.0 0.0
0.002328951002877437 -0.0011589937970558628 0.0 -0.0018344101668180401 0.0 0.0
0.0034678242315481916 -0.001987091105037808 0.0 -0.0023649305809390064 0.0 0.0
0.005002737664115908 -0.003242589436945109 0.0 -0.0031772964129864745 0.0 0.0
0.006834924596763693 -0.004834949909373609 0.0 -0.004070598968295119 0.0 0.0
0.008970965145671521 -0.006755906436554326 0.0 -0.004956698875358545 0.0 0.0
0.011521602909912464 -0.009106507927288066 0.0 -0.005881898412580883 0.0 0.0
0.014664583506109129 -0.012059156393766868 0.0 -0.0069537538752645345 0.0 0.0
0.018595116132117097 -0.015802465660407883 0.0 -0.008277547182502731 0.0 0.0
0.023420733508051947 -0.020441871565924252 0.0 -0.009859456076354522 0.0 0.0
0.029077702976989604 -0.025911843506784216 0.0 -0.011472023479305121 0.0 0.0
0.03531051883478654 -0.031955648120669755 0.0 -0.012624730524131433 0.0 0.0
0.04167653656091857 -0.038130827493125574 0.0 -0.012647132163687291 0.0 0.0
0.047477635617988095 -0.043744138100145324 0.0 -0.010655006402540246 0.0 0.0
0.05169264883796963 -0.04780942843844449 0.0 -0.005729850322813368 0.0 0.0
0.05169264883796708 -0.04780942843844205 0.0 0.0057298503228362385 0.0 0.0
0.04747763561798064 -0.04374413810013911 0.0 0.01065500640257011 0.0 0.0
0.041676536560908445 -0.0381308274931178 0.0 0.012647132163709163 0.0 0.0
0.03531051883477475 -0.03195564812066132 0.0 0.012624730524141536 0.0 0.0
0.029077702976976108 -0.025911843506772447 0.0 0.011472023479302318 0.0 0.0
0.02342073350803786 -0.02044187156591426 0.0 0.009859456076351802 0.0 0.0
0.01859511613210367 -0.01580246566039656 0.0 0.008277547182501399 0.0 0.0
0.014664583506095605 -0.01205915639375399 0.0 0.006953753875263036 0.0 0.0
0.011521602909899065 -0.00910650792727452 0.0 0.00588189841257486 0.0 0.0
0.008970965145658427 -0.006755906436544112 0.0 0.004956698875352439 0.0 0.0
0.006834924596752709 -0.004834949909366171 0.0 0.004070598968286349 0.0 0.0
0.00500273766410686 -0.0032425894369370045 0.0 0.0031772964129809234 0.0 0.0
0.0034678242315410446 -0.001987091105032812 0.0 0.00236493058093451 0.0 0.0
0.002328951002873364 -0.0011589937970538644 0.0 0.0018344101668163193 0.0 0.0
0.0016208165828515142 -0.0007337198009521595 0.0 0.0016142171034299324 0.0 0.0
0.001203037502824092 -0.0005122252791348592 0.0 0.0015120284597714417 0.0 0.0
0.0008474330123551393 -0.0003171408535942444 0.0 0.0013915860558467164 0.0 0.0
0.00046461865622339504 -0.00012794086130984983 0.0 0.0013754631050321986 0.0 0.0
0.0001636771200611148 -0.00018563626493967034 0.0 0.0017942974084574626 0.0 0.0
0.0015664286170456315 -0.002802542834112365 0.0 0.002977300683105838 0.0 0.0
0.0011424082413329095 -0.0022250456741445407 0.0 -0.00244769830551117 0.0 0.0
9.988518772701543e-05 -0.00019403356810249184 0.0 -0.002019108555151472 0.0 0.0
0.00029442290032721113 -7.173300083546108e-05 0.0 -0.0016462152651265938 0.0 0.0
0.0006146828087313441 -0.00020986143619516895 0.0 -0.0016226723457556935 0.0 0.0
0.0009274649899754378 -0.0003871458399932193 0.0 -0.0017414769109843076 0.0 0.0
0.001264431274671983 -0.0005580084856968703 0.0 -0.0018484884244415745 0.0 0.0
0.0017710559061097364 -0.0008239219151985333 0.0 -0.00201692979101864 0.0 0.0
0.0025950011560782957 -0.001351858097628833 0.0 -0.0023970055281713754 0.0 0.0
0.003766554963841255 -0.0022336781375547066 0.0 -0.0030655527885519174 0.0 0.0
0.005224366842634776 -0.003441865210788597 0.0 -0.003944871723896626 0.0 0.0
0.0069065779280949036 -0.004918637900697798 0.0 -0.004865442159643102 0.0 0.0
0.008887022525138087 -0.00670878957690757 0.0 -0.005788514584000537 0.0 0.0
0.01130493874171093 -0.008950715115160435 0.0 -0.00682792749822364 0.0 0.0
0.014330731830384746 -0.011807708881883983 0.0 -0.008091439975289133 0.0 0.0
0.01807399872061318 -0.015391422092344342 0.0 -0.009579324810300549 0.0 0.0
0.022538322473260486 -0.019694842050039574 0.0 -0.01110828329740518 0.0 0.0
0.027569349562766278 -0.024571298522215956 0.0 -0.012284132975761503 0.0 0.0
0.03289485729825176 -0.02974918483427036 0.0 -0.012477073093164648 0.0 0.0
0.03807555334235492 -0.034775859602749204 0.0 -0.010824479004191645 0.0 0.0
0.04226677079681722 -0.038816592282015394 0.0 -0.006158570256387996 0.0 0.0
0.0422667707968153 -0.03881659228201295 0.0 0.006158570256408258 0.0 0.0
0.03807555334234876 -0.03477585960274365 0.0 0.010824479004221343 0.0 0.0
0.03289485729824332 -0.02974918483426303 0.0 0.012477073093185853 0.0 0.0
0.027569349562756543 -0.024571298522206853 0.0 0.012284132975770079 0.0 0.0
0.022538322473249592 -0.019694842050029582 0.0 0.011108283297401045 0.0 0.0
0.018073998720601947 -0.01539142209233213 0.0 0.009579324810295942 0.0 0.0
0.014330731830374602 -0.011807708881874657 0.0 0.008091439975287273 0.0 0.0
0.011304938741700757 -0.008950715115153551 0.0 0.006827927498221198 0.0 0.0
0.008887022525127922 -0.006708789576898244 0.0 0.005788514583995208 0.0 0.0
0.0069065779280846895 -0.004918637900686251 0.0 0.004865442159635414 0.0 0.0
0.005224366842626074 -0.0034418652107794934 0.0 0.003944871723887494 0.0 0.0
0.00376655496383467 -0.00223367813754749 0.0 0.003065552788546838 0.0 0.0
0.0025950011560729874 -0.0013518580976251693 0.0 0.002397005528167878 0.0 0.0
0.0017710559061070164 -0.00082392191519709 0.0 0.002016929791017086 0.0 0.0
0.0012644312746708103 -0.0005580084856974254 0.0 0.0018484884244396316 0.0 0.0
0.00092746498997473 -0.00038714583999355234 0.0 0.0017414769109821981 0.0 0.0
0.0006146828087308515 -0.00020986143619566855 0.0 0.0016226723457531123 0.0 0.0
0.00029442290032710705 -7.173300083565537e-05 0.0 0.0016462152651241513 0.0 0.0
9.988518772667543e-05 -0.00019403356810225592 0.0 0.0020191085551487242 0.0 0.0
0.0011424082413301478 -0.0022250456741403704 0.0 0.002447698305506646 0.0 0.0
0.0008253593619388169 -0.00176498690024679 0.0 -0.002065064133814132 0.0 0.0
4.1108436988131214e-05 -0.00020063192698688281 0.0 -0.002156358629427091 0.0 0.0
0.00014155807261168746 -2.021083724673689e-05 0.0 -0.0018660374366131771 0.0 0.0
0.00039033543211872135 -0.00010933038327332056 0.0 -0.0018206513261752322 0.0 0.0
0.0006448466035627529 -0.0002554559948320101 0.0 -0.0019295405657022702 0.0 0.0
0.0009068154765298903 -0.0003975827858588854 0.0 -0.0020733519539480327 0.0 0.0
0.001255050956349417 -0.0005639653662364852 0.0 -0.002226923306465206 0.0 0.0
0.0018008008688423435 -0.0008473943303777265 0.0 -0.002440353862679101 0.0 0.0
0.002592794924171131 -0.001362470535793081 0.0 -0.002865280011361021 0.0 0.0
0.0036355413662167296 -0.0021465668937183935 0.0 -0.003559874791332851 0.0 0.0
0.004863771738310346 -0.0031641439327063647 0.0 -0.004409621490750942 0.0 0.0
0.006286725330972652 -0.004406860506698251 0.0 -0.005294849757792319 0.0 0.0
0.008003313448752956 -0.005955634665534504 0.0 -0.006266922040025796 0.0 0.0
0.010144001994020747 -0.00794174122967406 0.0 -0.0073931245478837115 0.0 0.0
0.012815622683198864 -0.01047068715991828 0.0 -0.008688969355424042 0.0 0.0
0.016060308429704954 -0.013584782007370233 0.0 -0.010038429254078107 0.0 0.0
0.019843683883568435 -0.01724033533367475 0.0 -0.011113203795634352 0.0 0.0
0.02403790486405276 -0.021326397428071076 0.0 -0.011436321842920982 0.0 0.0
0.028466630456801284 -0.02565669318265118 0.0 -0.010355998566591085 0.0 0.0
0.03260802543527801 -0.029652322650178364 0.0 -0.006442684165536616 0.0 0.0
0.03260802543527687 -0.02965232265017481 0.0 0.006442684165553936 0.0 0.0
0.028466630456796746 -0.02565669318264785 0.0 0.010355998566615898 0.0 0.0
0.024037904864046222 -0.021326397428066413 0.0 0.01143632184293858 0.0 0.0
0.01984368388356081 -0.01724033533367053 0.0 0.01111320379564007 0.0 0.0
0.016060308429697218 -0.013584782007366014 0.0 0.010038429254074721 0.0 0.0
0.012815622683190628 -0.010470687159911618 0.0 0.008688969355421072 0.0 0.0
0.01014400199401383 -0.007941741229668509 0.0 0.007393124547882601 0.0 0.0
0.008003313448746052 -0.005955634665529397 0.0 0.006266922040024381 0.0 0.0
0.006286725330965637 -0.0044068605066938105 0.0 0.005294849757787379 0.0 0.0
0.0048637717383031576 -0.003164143932703478 0.0 0.004409621490744475 0.0 0.0
0.0036355413662106095 -0.002146566893714952 0.0 0.0035598747913262174 0.0 0.0
0.0025927949241669607 -0.0013624705357895284 0.0 0.002865280011358523 0.0 0.0
0.0018008008688388533 -0.0008473943303741738 0.0 0.0024403538626771304 0.0 0.0
0.0012550509563477447 -0.0005639653662342647 0.0 0.002226923306464096 0.0 0.0
0.0009068154765290576 -0.0003975827858574421 0.0 0.002073351953945979 0.0 0.0
0.0006448466035623157 -0.00025545599483089987 0.0 0.0019295405657004938 0.0 0.0
0.00039033543211845767 -0.00010933038327287647 0.0 0.001820651326173095 0.0 0.0
0.00014155807261154174 -2.021083724643158e-05 0.0 0.0018660374366103183 0.0 0.0
4.110843698790223e-05 -0.00020063192698700771 0.0 0.0021563586294249815 0.0 0.0
0.0008253593619369642 -0.0017649869002441896 0.0 0.002065064133810801 0.0 0.0
0.0006002190848415911 -0.001428992015076444 0.0 -0.0018328490539349929 0.0 0.0
-1.76752859165491e-05 -0.00020060947596597933 0.0 -0.0022429385220762155 0.0 0.0
1.5942612704988868e-06 2.903424088873674e-05 0.0 -0.0020310128482093626 0.0 0.0
0.0001746614834909066 -1.4504212385135773e-05 0.0 -0.0019768014694816483 0.0 0.0
0.0003595521133842594 -0.00012229708252342597 0.0 -0.0020703430488466235 0.0 0.0
0.0005383284968237118 -0.0002275817209155262 0.0 -0.0022285854848851927 0.0 0.0
0.0007547660198450323 -0.0003358439657553669 0.0 -0.0024172247356694654 0.0 0.0
0.0010652866039954495 -0.00048014677143148887 0.0 -0.0025931221395907034 0.0 0.0
0.0015171998229136646 -0.0007038398109803223 0.0 -0.0027649618908949514 0.0 0.0
0.0021166318166129516 -0.0010603579745334102 0.0 -0.003090569146785044 0.0 0.0
0.0028648986269405596 -0.0015860403494749598 0.0 -0.003663309577709717 0.0 0.0
0.0037237724735726258 -0.0022696999152755915 0.0 -0.00438411513704301 0.0 0.0
0.00475556358096739 -0.0031384006632522166 0.0 -0.005248038761295926 0.0 0.0
0.006040482173693698 -0.00427488129273601 0.0 -0.00621319794588876 0.0 0.0
0.007653745544927912 -0.005757867851375442 0.0 -0.0072719846740894045 0.0 0.0
0.009664569038066853 -0.007657795093868325 0.0 -0.008372847719416598 0.0 0.0
0.012151537819208108 -0.010045462219840928 0.0 -0.009334444907202866 0.0 0.0
0.015149615035991562 -0.012944248577486217 0.0 -0.00968812321618956 0.0 0.0
0.0186324751254347 -0.016388299863602462 0.0 -0.009112971586747731 0.0 0.0
0.02257708333872878 -0.020227707701804487 0.0 -0.00647063693359734 0.0 0.0
0.022577083338728515 -0.020227707701804487 0.0 0.006470636933612439 0.0 0.0
0.01863247512543177 -0.016388299863600686 0.0 0.009112971586770768 0.0 0.0
0.015149615035987038 -0.012944248577483553 0.0 0.009688123216205602 0.0 0.0
0.012151537819202904 -0.010045462219838042 0.0 0.009334444907206474 0.0 0.0
0.009664569038062495 -0.007657795093863662 0.0 0.008372847719412269 0.0 0.0
0.007653745544923082 -0.005757867851370113 0.0 0.00727198467408513 0.0 0.0
0.006040482173689868 -0.004274881292734678 0.0 0.006213197945887483 0.0 0.0
0.004755563580963976 -0.003138400663249552 0.0 0.0052480387612952595 0.0 0.0
0.003723772473568601 -0.0022696999152720387 0.0 0.0043841151370390685 0.0 0.0
0.0028648986269367432 -0.0015860403494727393 0.0 0.0036633095777048874 0.0 0.0
0.002116631816609718 -0.0010603579745297464 0.0 0.003090569146779021 0.0 0.0
0.001517199822911583 -0.0007038398109792121 0.0 0.002764961890893397 0.0 0.0
0.0010652866039936593 -0.00048014677143093376 0.0 0.0025931221395883997 0.0 0.0
0.0007547660198441303 -0.0003358439657543677 0.0 0.002417224735667578 0.0 0.0
0.0005383284968232954 -0.00022758172091430495 0.0 0.0022285854848829723 0.0 0.0
0.00035955211338403736 -0.00012229708252370353 0.0 0.0020703430488435703 0.0 0.0
0.00017466148349100374 -1.4504212385579862e-05 0.0 0.0019768014694790392 0.0 0.0
1.5942612704988868e-06 2.9034240888847762e-05 0.0 0.002031012848207059 0.0 0.0
-1.7675285916660122e-05 -0.0002006094759656879 0.0 0.0022429385220745224 0.0 0.0
0.000600219084840467 -0.0014289920150747032 0.0 0.0018328490539335496 0.0 0.0
0.0004445675730031934 -0.0011749903120766292 0.0 -0.0016668902473673808 0.0 0.0
-7.266547129125556e-05 -0.0001904382039439323 0.0 -0.00228046514790467 0.0 0.0
-0.00012807179502018207 7.542108628533217e-05 0.0 -0.0021433952551734026 0.0 0.0
-3.263114888503449e-05 7.554538756665563e-05 0.0 -0.0020840863803647802 0.0 0.0
7.511108520479037e-05 9.782699363691805e-06 0.0 -0.002158093458236282 0.0 0.0
0.00016402103229866405 -5.396509153288154e-05 0.0 -0.0023169584410799304 0.0 0.0
0.00024892825616107395 -0.00010652197176375111 0.0 -0.002525592561167328 0.0 0.0
0.0003538098878711482 -0.0001579137000905506 0.0 -0.0027025053000162558 0.0 0.0
0.0005042037963159385 -0.00022681520756695495 0.0 -0.002845448258404548 0.0 0.0
0.0006914304536519561 -0.00032066508998029875 0.0 -0.002990155383793852 0.0 0.0
0.0009408709181678437 -0.00044561860325376124 0.0 -0.0032410745193007795 0.0 0.0
0.0012257521553327017 -0.0006069935830992357 0.0 -0.0036361830720868515 0.0 0.0
0.001568515183389449 -0.0008207870474505885 0.0 -0.004218866872501392 0.0 0.0
0.001998201842993333 -0.001119731124932244 0.0 -0.005008668680733075 0.0 0.0
0.0025527308058248266 -0.0015391353727876034 0.0 -0.006003820642081437 0.0 0.0
0.0033217492508770263 -0.002181489987499008 0.0 -0.007120932980228645 0.0 0.0
0.004484250542003618 -0.0032377540005845695 0.0 -0.00814452541245847 0.0 0.0
0.0062677985581430645 -0.004898357908808659 0.0 -0.008596655234824724 0.0 0.0
0.008738196614458071 -0.007235379447476431 0.0 -0.007979386238421649 0.0 0.0
0.012051794420418788 -0.010612127161368834 0.0 -0.006409440128599064 0.0 0.0
0.012051794420419301 -0.0106121271613695 0.0 0.006409440128609611 0.0 0.0
0.008738196614456586 -0.007235379447477319 0.0 0.007979386238438968 0.0 0.0
0.006267798558140539 -0.004898357908805107 0.0 0.008596655234835326 0.0 0.0
0.00448425054200173 -0.003237754000583015 0.0 0.008144525412458858 0.0 0.0
0.003321749250876027 -0.002181489987498564 0.0 0.007120932980225203 0.0 0.0
0.0025527308058237164 -0.001539135372785827 0.0 0.006003820642078994 0.0 0.0
0.0019982018429923476 -0.0011197311249315778 0.0 0.005008668680732298 0.0 0.0
0.0015685151833894212 -0.0008207870474497003 0.0 0.00421886687250167 0.0 0.0
0.0012257521553319939 -0.0006069935830965711 0.0 0.003636183072083632 0.0 0.0
0.0009408709181673164 -0.0004456186032550935 0.0 0.003241074519297671 0.0 0.0
0.0006914304536515398 -0.00032066508998229715 0.0 0.0029901553837897443 0.0 0.0
0.0005042037963157303 -0.00022681520756739904 0.0 0.002845448258404021 0.0 0.0
0.00035380988787080125 -0.00015791370009066164 0.0 0.002702505300014757 0.0 0.0
0.00024892825616089354 -0.0001065219717621968 0.0 0.002525592561165635 0.0 0.0
0.00016402103229877507 -5.396509153210438e-05 0.0 0.002316958441077349 0.0 0.0
7.51110852047071e-05 9.782699363525271e-06 0.0 0.0021580934582335065 0.0 0.0
-3.263114888465979e-05 7.554538756637807e-05 0.0 0.0020840863803626153 0.0 0.0
-0.00012807179502019594 7.54210862854432e-05 0.0 0.00214339525517096 0.0 0.0
-7.266547129121392e-05 -0.00019043820394372413 0.0 0.002280465147902533 0.0 0.0
0.0004445675730026799 -0.001174990312075362 0.0 0.0016668902473656877 0.0 0.0
0.00033371686909151876 -0.0009649165015115507 0.0 -0.0015195310221892133 0.0 0.0
-0.00012326737836716728 -0.00016893443906340622 0.0 -0.0022673805749175713 0.0 0.0
-0.0002484499769327686 0.00011887180800118635 0.0 -0.0022023089292151354 0.0 0.0
-0.0002318106759470473 0.0001609423831561152 0.0 -0.00213953194783012 0.0 0.0
-0.0002054585147032717 0.0001388947927027928 0.0 -0.002189133717102776 0.0 0.0
-0.00021117122376279607 0.00011977522862993695 0.0 -0.002329064768767708 0.0 0.0
-0.00025978087772592084 0.0001248716209689693 0.0 -0.002528188461120129 0.0 0.0
-0.0003531811245924277 0.00015965101299342255 0.0 -0.002703175550936715 0.0 0.0
-0.0005019106291573316 0.00022514726826816656 0.0 -0.0028449222956049847 0.0 0.0
-0.0006896911609614448 0.00031948403212900267 0.0 -0.0029897782824252206 0.0 0.0
-0.0009400140451434058 0.00044566248225308414 0.0 -0.0032404170560074164 0.0 0.0
-0.0012284349164117248 0.0006108229652961317 0.0 -0.0036344898523898994 0.0 0.0
-0.0015822330022415287 0.0008324837823650011 0.0 -0.004215052892287963 0.0 0.0
-0.002024205218383285 0.0011349827800486434 0.0 -0.005007655634171937 0.0 0.0
-0.0025380468590701366 0.00150402578080433 0.0 -0.006024084072577041 0.0 0.0
-0.003022278725620206 0.0018552656165577996 0.0 -0.007230909639610261 0.0 0.0
-0.003227856774843968 0.0020081631225929986 0.0 -0.008613016934377382 0.0 0.0
-0.0027768881656424493 0.0016405897716844642 0.0 -0.010121126664228375 0.0 0.0
-0.0013408958596023701 0.0006713995807212658 0.0 -0.011237970849678036 0.0 0.0
0.0017237198841789508 -0.002076517533007527 0.0 -0.009308159498099267 0.0 0.0
0.0017237198841789508 -0.002076517533006861 0.0 0.009308159498111035 0.0 0.0
-0.001340895859602953 0.000671399580721932 0.0 0.011237970849691858 0.0 0.0
-0.00277688816564238 0.00164058977168402 0.0 0.010121126664235203 0.0 0.0
-0.0032278567748419418 0.0020081631225932206 0.0 0.008613016934376216 0.0 0.0
-0.0030222787256174305 0.0018552656165582437 0.0 0.007230909639604655 0.0 0.0
-0.0025380468590676664 0.0015040257808012214 0.0 0.006024084072573599 0.0 0.0
-0.002024205218381314 0.0011349827800486434 0.0 0.0050076556341700496 0.0 0.0
-0.0015822330022384895 0.000832483782364335 0.0 0.004215052892286741 0.0 0.0
-0.0012284349164086578 0.000610822965292579 0.0 0.003634489852386069 0.0 0.0
-0.0009400140451406996 0.0004456624822513078 0.0 0.0032404170560038636 0.0 0.0
-0.0006896911609590439 0.0003194840321276704 0.0 0.002989778282421307 0.0 0.0
-0.0005019106291557079 0.0002251472682678335 0.0 0.002844922295604818 0.0 0.0
-0.00035318112459162276 0.00015965101299397766 0.0 0.0027031755509352995 0.0 0.0
-0.00025978087772529634 0.00012487162096974647 0.0 0.0025281884611184913 0.0 0.0
-0.00021117122376231034 0.00011977522862960388 0.0 0.002329064768765432 0.0 0.0
-0.00020545851470291088 0.0001388947927026818 0.0 0.002189133717100278 0.0 0.0
-0.00023181067594661708 0.00016094238315628173 0.0 0.002139531947828316 0.0 0.0
-0.0002484499769326298 0.0001188718080016582 0.0 0.002202308929212915 0.0 0.0
-0.000123267378366973 -0.000168934439063545 0.0 0.002267380574915878 0.0 0.0
0.0003337168690911996 -0.0009649165015107632 0.0 0.001519531022187881 0.0 0.0
0.0002463321058225887 -0.0007739321619435885 0.0 -0.0013642364778709004 0.0 0.0
-0.0001706168171311112 -0.00013855440918439377 0.0 -0.0022040127157094136 0.0 0.0
-0.0003607294274016043 0.00016050819318880194 0.0 -0.0022063029505993426 0.0 0.0
-0.000422766276702527 0.00024136252700251992 0.0 -0.00214079216847729 0.0 0.0
-0.0004797120905544461 0.0002633311669238969 0.0 -0.0021608029748559354 0.0 0.0
-0.000582213469102949 0.00029035049717496264 0.0 -0.0022704098785283344 0.0 0.0
-0.0007645280665828091 0.0003532660164322632 0.0 -0.0024301103625453124 0.0 0.0
-0.0010647420765340504 0.0004816388724390164 0.0 -0.0025944437702453416 0.0 0.0
-0.0015148255105689595 0.0007021234909722063 0.0 -0.002763870691769005 0.0 0.0
-0.0021149833645926347 0.0010590433968595825 0.0 -0.0030891676331139817 0.0 0.0
-0.0028641982538005484 0.001586030205050104 0.0 -0.0036625988089513672 0.0 0.0
-0.003725799160726212 0.0022735001958766876 0.0 -0.0043804738850495295 0.0 0.0
-0.004767236518322157 0.003152027443795724 0.0 -0.005233116985735364 0.0 0.0
-0.006067393711961924 0.00429690718537068 0.0 -0.006197116995942664 0.0 0.0
-0.0076489320698206464 0.005725496764127369 0.0 -0.007327689299913398 0.0 0.0
-0.009401192780748496 0.0073292911240741 0.0 -0.008713749684531036 0.0 0.0
-0.011021282548798902 0.008801822201227605 0.0 -0.010388651046341513 0.0 0.0
-0.011993170251423185 0.00964028920694382 0.0 -0.012235781778605237 0.0 0.0
-0.011486881403330873 0.008880501041768296 0.0 -0.013058597495728463 0.0 0.0
-0.00804506474183303 0.005391126028879034 0.0 -0.010864624753911478 0.0 0.0
-0.008045064741833571 0.005391126028882365 0.0 0.010864624753924856 0.0 0.0
-0.011486881403330762 0.008880501041772737 0.0 0.013058597495747726 0.0 0.0
-0.011993170251420202 0.009640289206944708 0.0 0.012235781778616228 0.0 0.0
-0.011021282548793199 0.008801822201220277 0.0 0.010388651046342623 0.0 0.0
-0.009401192780741724 0.007329291124066106 0.0 0.008713749684526706 0.0 0.0
-0.007648932069814922 0.005725496764121152 0.0 0.007327689299909901 0.0 0.0
-0.006067393711956644 0.004296907185363574 0.0 0.006197116995939778 0.0 0.0
-0.004767236518316016 0.003152027443789951 0.0 0.005233116985733782 0.0 0.0
-0.003725799160719613 0.0022735001958722467 0.0 0.004380473885043645 0.0 0.0
-0.0028641982537944213 0.0015860302050458852 0.0 0.0036625988089450667 0.0 0.0
-0.0021149833645872015 0.001059043396857473 0.0 0.003089167633108514 0.0 0.0
-0.001514825510565379 0.0007021234909690977 0.0 0.002763870691767839 0.0 0.0
-0.0010647420765318646 0.00048163887243846126 0.0 0.002594443770243954 0.0 0.0
-0.0007645280665814144 0.0003532660164319301 0.0 0.0024301103625425646 0.0 0.0
-0.0005822134691020955 0.0002903504971737414 0.0 0.002270409878525642 0.0 0.0
-0.0004797120905537036 0.0002633311669233973 0.0 0.002160802974854187 0.0 0.0
-0.0004227662767021176 0.00024136252700279748 0.0 0.002140792168475708 0.0 0.0
-0.00036072942740127817 0.00016050819318905174 0.0 0.002206302950597261 0.0 0.0
-0.00017061681713088223 -0.00013855440918426887 0.0 0.002204012715707665 0.0 0.0
0.00024633210582231807 -0.0007739321619429137 0.0 0.0013642364778694571 0.0 0.0
0.00016968944576548073 -0.0005992763049681854 0.0 -0.0012068741194116162 0.0 0.0
-0.00021680804071370907 -9.994657055426015e-05 0.0 -0.0020904300538402976 0.0 0.0
-0.0004662297081240441 0.00020101155009427663 0.0 -0.00215509564563382 0.0 0.0
-0.000605362328755521 0.00031681755280554835 0.0 -0.0020871030949866642 0.0 0.0
-0.0007455699049787184 0.00038092646503506966 0.0 -0.002072740980176291 0.0 0.0
-0.0009438751993982725 0.0004533335739165256 0.0 -0.002133177668595526 0.0 0.0
-0.0012635806989331339 0.0005797704023339234 0.0 -0.002242880818609766 0.0 0.0
-0.0017998786267865025 0.0008482491369187217 0.0 -0.002442852436938203 0.0 0.0
-0.0025903698274185732 0.0013600091544947457 0.0 -0.0028614035374839586 0.0 0.0
-0.003634320682524908 0.0021451810310673114 0.0 -0.003557192766806272 0.0 0.0
-0.0048636405453100495 0.0031642403119449547 0.0 -0.0044093435616635035 0.0 0.0
-0.0062872220957984615 0.0044088484295752295 0.0 -0.005290009911088134 0.0 0.0
-0.008009406394532681 0.005964769550861115 0.0 -0.006238664732969079 0.0 0.0
-0.010166353845471626 0.00796229302873086 0.0 -0.0073360415155375724 0.0 0.0
-0.01282587595088154 0.010459623671851492 0.0 -0.008703326443796067 0.0 0.0
-0.015874972877928176 0.013340725864964709 0.0 -0.010511221124546666 0.0 0.0
-0.018934825040092265 0.016222262456520475 0.0 -0.012910997816820535 0.0 0.0
-0.021249108774973102 0.01829647439672133 0.0 -0.01554944271994757 0.0 0.0
-0.021412413048758197 0.018158155861565994 0.0 -0.016954518924722828 0.0 0.0
-0.017313769877963264 0.013613928094937 0.0 -0.014042104621376894 0.0 0.0
-0.017313769877963084 0.01361392809493478 0.0 0.014042104621392104 0.0 0.0
-0.02141241304875688 0.018158155861559555 0.0 0.016954518924746587 0.0 0.0
-0.021249108774967898 0.018296474396714002 0.0 0.015549442719963003 0.0 0.0
-0.018934825040083467 0.016222262456512926 0.0 0.012910997816823422 0.0 0.0
-0.015874972877918107 0.013340725864958047 0.0 0.010511221124542058 0.0 0.0
-0.012825875950872888 0.010459623671844609 0.0 0.008703326443791348 0.0 0.0
-0.010166353845462876 0.007962293028725309 0.0 0.007336041515532049 0.0 0.0
-0.008009406394523466 0.00596476955085401 0.0 0.006238664732966498 0.0 0.0
-0.006287222095788601 0.004408848429566348 0.0 0.005290009911081306 0.0 0.0
-0.004863640545300564 0.0031642403119342966 0.0 0.004409343561655704 0.0 0.0
-0.003634320682516526 0.0021451810310590957 0.0 0.0035571927667970016 0.0 0.0
-0.0025903698274127654 0.0013600091544889725 0.0 0.002861403537480045 0.0 0.0
-0.001799878626782582 0.0008482491369161682 0.0 0.0024428524369374816 0.0 0.0
-0.0012635806989310244 0.0005797704023349226 0.0 0.002242880818607712 0.0 0.0
-0.0009438751993968222 0.00045333357391719176 0.0 0.002133177668593833 0.0 0.0
-0.0007455699049777678 0.00038092646503451455 0.0 0.0020727409801741536 0.0 0.0
-0.0006053623287548826 0.00031681755280493773 0.0 0.002087103094984749 0.0 0.0
-0.00046622970812361386 0.00020101155009369376 0.0 0.002155095645631655 0.0 0.0
-0.00021680804071333437 -9.994657055420464e-05 0.0 0.0020904300538379383 0.0 0.0
0.00016968944576523787 -0.0005992763049675661 0.0 0.0012068741194104782 0.0 0.0
0.00010036378092218023 -0.0004412576542700969 0.0 -0.001047508381833262 0.0 0.0
-0.00026368293007345 -5.472734044909e-05 0.0 -0.001931725940191087 0.0 0.0
-0.0005662414097938051 0.0002412681321438126 0.0 -0.002049720188500137 0.0 0.0
-0.0007798498346058558 0.0003867611273786764 0.0 -0.0019796509842846532 0.0 0.0
-0.0010003594184889997 0.000491061356211353 0.0 -0.0019239924835840472 0.0 0.0
-0.0012934449690851502 0.0006068167065113039 0.0 -0.0019316447085026278 0.0 0.0
-0.001776813486842957 0.0008380626825980064 0.0 -0.002044150041520698 0.0 0.0
-0.0025934646409097317 0.0013512036684324435 0.0 -0.0023966908180375612 0.0 0.0
-0.003764512365314887 0.0022312076018077276 0.0 -0.0030602352691243284 0.0 0.0
-0.0052240851700621205 0.003441203433619089 0.0 -0.003942394257237164 0.0 0.0
-0.006907051318399193 0.004919220958627735 0.0 -0.004866181702625094 0.0 0.0
-0.008885670457108905 0.00670826857291007 0.0 -0.005784606008828741 0.0 0.0
-0.011301528664184976 0.008950128586213024 0.0 -0.006791962873545887 0.0 0.0
-0.01433649985865676 0.011815135380981445 0.0 -0.007990537493836603 0.0 0.0
-0.018092108501902696 0.015398485926969352 0.0 -0.009512569499009194 0.0 0.0
-0.022472427629884106 0.019588131300140033 0.0 -0.011613661002824682 0.0 0.0
-0.02699529539282479 0.02388128422355784 0.0 -0.014514516343162531 0.0 0.0
-0.03055658279049206 0.027136674105549208 0.0 -0.017833575679286062 0.0 0.0
-0.031193017754488142 0.02737158208941204 0.0 -0.01986569992020243 0.0 0.0
-0.02591550403260831 0.021556490351656077 0.0 -0.01723911243701992 0.0 0.0
-0.025915504032607367 0.0215564903516563 0.0 0.01723911243703874 0.0 0.0
-0.031193017754484992 0.027371582089412705 0.0 0.019865699920227853 0.0 0.0
-0.03055658279048496 0.027136674105543213 0.0 0.017833575679305796 0.0 0.0
-0.026995295392813486 0.02388128422354807 0.0 0.014514516343167694 0.0 0.0
-0.022472427629871478 0.019588131300128486 0.0 0.011613661002821574 0.0 0.0
-0.018092108501891017 0.015398485926959138 0.0 0.009512569499006585 0.0 0.0
-0.01433649985864479 0.011815135380971231 0.0 0.007990537493831162 0.0 0.0
-0.01130152866417268 0.008950128586200146 0.0 0.006791962873542001 0.0 0.0
-0.008885670457095797 0.00670826857289919 0.0 0.005784606008820664 0.0 0.0
-0.006907051318386648 0.004919220958617299 0.0 0.004866181702615852 0.0 0.0
-0.005224085170051122 0.003441203433608875 0.0 0.003942394257227977 0.0 0.0
-0.003764512365306602 0.0022312076018009552 0.0 0.0030602352691180834 0.0 0.0
-0.002593464640903799 0.001351203668429446 0.0 0.0023966908180348967 0.0 0.0
-0.001776813486839543 0.0008380626825965631 0.0 0.002044150041519144 0.0 0.0
-0.0012934449690835056 0.0006068167065113039 0.0 0.0019316447085009347 0.0 0.0
-0.001000359418487702 0.00049106135621102 0.0 0.0019239924835816602 0.0 0.0
-0.0007798498346050439 0.0003867611273776772 0.0 0.001979650984282655 0.0 0.0
-0.0005662414097933333 0.00024126813214364606 0.0 0.002049720188498 0.0 0.0
-0.0002636829300730406 -5.472734044885408e-05 0.0 0.0019317259401887 0.0 0.0
0.00010036378092212472 -0.00044125765426962504 0.0 0.0010475083818322073 0.0 0.0
3.8043462934247985e-05 -0.00030125241956678595 0.0 -0.0008842518300950508 0.0 0.0
-0.0003115214491988122 -4.981183168800696e-06 0.0 -0.0017331136865581243 0.0 0.0
-0.000661815161088472 0.00028138750071676766 0.0 -0.0018917451677035457 0.0 0.0
-0.0009464309795694237 0.0004520133280608851 0.0 -0.0018169871825182982 0.0 0.0
-0.0012420309069056668 0.0005888233987046965 0.0 -0.0017178903082738228 0.0 0.0
-0.0016407621824584273 0.0007712707927737261 0.0 -0.0016982704458241848 0.0 0.0
-0.002331256050008154 0.0011696209961926662 0.0 -0.0018571482517301119 0.0 0.0
-0.003465952441021339 0.0019856321253894915 0.0 -0.002363347122047804 0.0 0.0
-0.005001863793617473 0.0032407728645796885 0.0 -0.003170525724140616 0.0 0.0
-0.006835641309166501 0.004835261224990006 0.0 -0.004067946506113529 0.0 0.0
-0.008971926856732149 0.0067568498988517245 0.0 -0.004957235807418636 0.0 0.0
-0.011518504698071336 0.009103419166199389 0.0 -0.005879044495026131 0.0 0.0
-0.014649294343817718 0.0120455627842182 0.0 -0.006916948678746149 0.0 0.0
-0.01857299832504164 0.015785440585002197 0.0 -0.008151769185154478 0.0 0.0
-0.023432724193058446 0.020456915922740793 0.0 -0.009715513164471612 0.0 0.0
-0.029140660803405147 0.025949790873155187 0.0 -0.011866097210041116 0.0 0.0
-0.03510243632824424 0.03163207250354261 0.0 -0.014874412756575084 0.0 0.0
-0.03985752585868636 0.03600941341932784 0.0 -0.018581621226099854 0.0 0.0
-0.04080151228956071 0.036470834751093806 0.0 -0.021406281397904958 0.0 0.0
-0.03416781788517603 0.029294714407014144 0.0 -0.020309459352301884 0.0 0.0
-0.03416781788517456 0.029294714407015032 0.0 0.020309459352322534 0.0 0.0
-0.0408015122895557 0.0364708347510907 0.0 0.02140628139793141 0.0 0.0
-0.03985752585867704 0.036009413419323844 0.0 0.018581621226119782 0.0 0.0
-0.03510243632823074 0.03163207250353173 0.0 0.014874412756580552 0.0 0.0
-0.029140660803390082 0.025949790873139866 0.0 0.011866097210039145 0.0 0.0
-0.023432724193043784 0.02045691592272547 0.0 0.00971551316446942 0.0 0.0
-0.01857299832502665 0.015785440584988653 0.0 0.008151769185149593 0.0 0.0
-0.014649294343802147 0.012045562784207542 0.0 0.0069169486787435674 0.0 0.0
-0.01151850469805539 0.009103419166186066 0.0 0.005879044495019969 0.0 0.0
-0.008971926856716411 0.0067568498988370695 0.0 0.004957235807409394 0.0 0.0
-0.006835641309153144 0.004835261224976906 0.0 0.004067946506104675 0.0 0.0
-0.0050018637936066965 0.0032407728645705847 0.0 0.0031705257241343987 0.0 0.0
-0.003465952441013276 0.0019856321253830522 0.0 0.002363347122044307 0.0 0.0
-0.0023312560500031235 0.0011696209961903348 0.0 0.0018571482517270033 0.0 0.0
-0.0016407621824562 0.0007712707927723939 0.0 0.0016982704458222975 0.0 0.0
-0.0012420309069042026 0.0005888233987033642 0.0 0.0017178903082728514 0.0 0.0
-0.0009464309795684384 0.0004520133280606631 0.0 0.0018169871825169104 0.0 0.0
-0.0006618151610879031 0.00028138750071676766 0.0 0.0018917451677024633 0.0 0.0
-0.00031152144919844443 -4.981183168842329e-06 0.0 0.0017331136865570418 0.0 0.0
3.8043462934247985e-05 -0.00030125241956660553 0.0 0.0008842518300939128 0.0 0.0
-1.6191260269221575e-05 -0.00018116510390238372 0.0 -0.0007152484570250583 0.0 0.0
-0.00035899295628499805 4.67489465651727e-05 0.0 -0.0014989176734984677 0.0 0.0
-0.0007535607993864463 0.00032137390035902325 0.0 -0.0016827765969852637 0.0 0.0
-0.001105556353814971 0.0005116278569413102 0.0 -0.0016015164795029069 0.0 0.0
-0.0014726330242198354 0.0006830818231722269 0.0 -0.0014697188574656073 0.0 0.0
-0.0020019517727349473 0.0009593565735418474 0.0 -0.0014387340215279154 0.0 0.0
-0.0029449302761878487 0.0015875564086527127 0.0 -0.0016686992659702415 0.0 0.0
-0.00440281614865369 0.0027331774657182173 0.0 -0.002281967052060352 0.0 0.0
-0.006255391809791247 0.004320743292459017 0.0 -0.0030796580229825177 0.0 0.0
-0.008453579314375348 0.006275151963958336 0.0 -0.0038962317923227074 0.0 0.0
-0.011054622496146943 0.008649404351704026 0.0 -0.004737129632044645 0.0 0.0
-0.01418541912805489 0.011566470326240585 0.0 -0.00561690135731191 0.0 0.0
-0.018050220769913444 0.015224451916582726 0.0 -0.006623256526272159 0.0 0.0
-0.02287622985950276 0.019848666257002545 0.0 -0.00785515986814489 0.0 0.0
-0.028817475305006654 0.02558502216580183 0.0 -0.009343492266990994 0.0 0.0
-0.035799666440420014 0.03232631853303358 0.0 -0.011247880242010067 0.0 0.0
-0.043144674458010776 0.039350016669478016 0.0 -0.013997368609800553 0.0 0.0
-0.04905547584966388 0.04481591014279429 0.0 -0.017801052301796794 0.0 0.0
-0.05029766894706089 0.045515878785815866 0.0 -0.021720206310322232 0.0 0.0
-0.04238723261302489 0.03705198601498938 0.0 -0.023386553352998107 0.0 0.0
-0.04238723261302273 0.037051986014987826 0.0 0.02338655335301948 0.0 0.0
-0.050297668947054244 0.04551587878580765 0.0 0.021720206310349044 0.0 0.0
-0.04905547584965243 0.0448159101427823 0.0 0.017801052301816944 0.0 0.0
-0.04314467445799493 0.03935001666946203 0.0 0.013997368609806937 0.0 0.0
-0.035799666440402715 0.03232631853301782 0.0 0.011247880242010566 0.0 0.0
-0.028817475304989043 0.025585022165787397 0.0 0.009343492266990161 0.0 0.0
-0.02287622985948492 0.019848666256985892 0.0 0.007855159868140033 0.0 0.0
-0.01805022076989462 0.015224451916564297 0.0 0.006623256526268162 0.0 0.0
-0.014185419128035968 0.011566470326222822 0.0 0.005616901357306386 0.0 0.0
-0.011054622496128381 0.008649404351687151 0.0 0.004737129632035819 0.0 0.0
-0.008453579314359617 0.0062751519639441256 0.0 0.003896231792313659 0.0 0.0
-0.006255391809778278 0.00432074329244847 0.0 0.0030796580229769666 0.0 0.0
-0.004402816148643657 0.0027331774657090024 0.0 0.002281967052055772 0.0 0.0
-0.0029449302761811597 0.0015875564086466065 0.0 0.0016686992659669941 0.0 0.0
-0.002001951772731686 0.0009593565735391829 0.0 0.0014387340215257782 0.0 0.0
-0.0014726330242182811 0.0006830818231715607 0.0 0.0014697188574648579 0.0 0.0
-0.0011055563538138607 0.0005116278569406441 0.0 0.0016015164795014636 0.0 0.0
-0.0007535607993856899 0.0003213739003582461 0.0 0.0016827765969835984 0.0 0.0
-0.000358992956284665 4.674894656521433e-05 0.0 0.0014989176734973575 0.0 0.0
-1.6191260269221575e-05 -0.00018116510390216514 0.0 0.00071524845702442 0.0 0.0
-6.018039365301986e-05 -8.331844995873583e-05 0.0 -0.0005398103227883533 0.0 0.0
-0.00040312950590003227 9.74547310513274e-05 0.0 -0.001232759426449126 0.0 0.0
-0.0008415057442910795 0.0003608670553315041 0.0 -0.00142289926842451 0.0 0.0
-0.0012588328647875069 0.0005652581431724313 0.0 -0.0013353686141374665 0.0 0.0
-0.0016984200528697702 0.0007784305514950685 0.0 -0.0011834489788115077 0.0 0.0
-0.0023967166433975923 0.0011994735438480841 0.0 -0.0011732494676487681 0.0 0.0
-0.003624480542188141 0.002105528519677158 0.0 -0.0014843617294051092 0.0 0.0
-0.005358087410099438 0.0035452535132602936 0.0 -0.00207672245237589 0.0 0.0
-0.007504897989262405 0.005425797812960376 0.0 -0.0027514568309290888 0.0 0.0
-0.010078815055956217 0.007748583650587948 0.0 -0.0034731495913959687 0.0 0.0
-0.013151908806650417 0.010582677380762684 0.0 -0.004219300233103296 0.0 0.0
-0.016882769042169912 0.01408202120860036 0.0 -0.0050079413648483895 0.0 0.0
-0.021500551757430875 0.0184741175908798 0.0 -0.005935938373343608 0.0 0.0
-0.027238315951375602 0.023985130488323625 0.0 -0.007070783663001845 0.0 0.0
-0.034227802920738334 0.030747094434834032 0.0 -0.008403555648490268 0.0 0.0
-0.04237633079536514 0.03864060913225109 0.0 -0.009905068999412403 0.0 0.0
-0.050985470757807544 0.04689839875455126 0.0 -0.01192064239346946 0.0 0.0
-0.05805172785915079 0.053465899629200564 0.0 -0.01540061101859952 0.0 0.0
-0.05979617303199038 0.0546018988243373 0.0 -0.020762367303744644 0.0 0.0
-0.05084753531870065 0.045060024577336266 0.0 -0.02646477303599898 0.0 0.0
-0.050847535318698345 0.045060024577334046 0.0 0.02646477303602085 0.0 0.0
-0.05979617303198207 0.05460189882433086 0.0 0.020762367303770346 0.0 0.0
-0.05805172785913735 0.053465899629187685 0.0 0.015400611018618254 0.0 0.0
-0.050985470757789295 0.04689839875453328 0.0 0.0119206423934759 0.0 0.0
-0.04237633079534533 0.038640609132234216 0.0 0.009905068999413902 0.0 0.0
-0.03422780292071812 0.030747094434815603 0.0 0.008403555648489491 0.0 0.0
-0.027238315951354855 0.023985130488305195 0.0 0.00707078366299882 0.0 0.0
-0.021500551757409142 0.01847411759086004 0.0 0.0059359383733413595 0.0 0.0
-0.016882769042147652 0.014082021208579043 0.0 0.005007941364843213 0.0 0.0
-0.01315190880662934 0.010582677380742256 0.0 0.004219300233096024 0.0 0.0
-0.010078815055937811 0.0077485836505709615 0.0 0.0034731495913887106 0.0 0.0
-0.007504897989247545 0.005425797812947497 0.0 0.0027514568309248283 0.0 0.0
-0.005358087410087444 0.0035452535132494134 0.0 0.002076722452371657 0.0 0.0
-0.003624480542179797 0.0021055285196707185 0.0 0.0014843617294021672 0.0 0.0
-0.002396716643393134 0.0011994735438449755 0.0 0.001173249467647186 0.0 0.0
-0.0016984200528680111 0.0007784305514946799 0.0 0.0011834489788103975 0.0 0.0
-0.0012588328647863585 0.0005652581431726533 0.0 0.0013353686141362175 0.0 0.0
-0.0008415057442902121 0.00036086705533089347 0.0 0.0014228992684230946 0.0 0.0
-0.00040312950589965757 9.745473105129965e-05 0.0 0.0012327594264485986 0.0 0.0
-6.0180393653103126e-05 -8.331844995873236e-05 0.0 0.0005398103227884643 0.0 0.0
-9.035379240919517e-05 -1.055945997797958e-05 0.0 -0.0003598697293435982 0.0 0.0
-0.000438858228273456 0.000143430350657614 0.0 -0.0009368242725267262 0.0 0.0
-0.0009252904880940327 0.0003985490379675438 0.0 -0.0011099519918174316 0.0 0.0
-0.0014090501731905125 0.0006159954074420049 0.0 -0.0010202947974538024 0.0 0.0
-0.0019306303581916873 0.000888549040121478 0.0 -0.0008680054555693095 0.0 0.0
-0.0028487957348354853 0.001507005760718938 0.0 -0.0009093023656487065 0.0 0.0
-0.004336372887936105 0.002681335322034184 0.0 -0.0012111055828513961 0.0 0.0
-0.006305404479396287 0.004374288019763362 0.0 -0.0016828660501991277 0.0 0.0
-0.008752186929522274 0.006550876972178155 0.0 -0.0022271252556686494 0.0 0.0
-0.011705672777283682 0.00924371961941306 0.0 -0.0028121691233033708 0.0 0.0
-0.015260865946235574 0.01254544502495869 0.0 -0.0034225514972733295 0.0 0.0
-0.019605314191219678 0.01664081000904538 0.0 -0.004066735839507896 0.0 0.0
-0.024991590357358637 0.02177849436878776 0.0 -0.004827569011860877 0.0 0.0
-0.03164995145642384 0.02818493046546977 0.0 -0.005811429462725337 0.0 0.0
-0.0396565377308315 0.03593410272076003 0.0 -0.006941464328791391 0.0 0.0
-0.04882494269207724 0.0448255790460268 0.0 -0.007934808703696616 0.0 0.0
-0.058465819833459554 0.05412989887740283 0.0 -0.008846812105331447 0.0 0.0
-0.06671802335710693 0.06184797088225391 0.0 -0.011403524587508707 0.0 0.0
-0.06938955270231852 0.06381569707953183 0.0 -0.01821252965784531 0.0 0.0
-0.05986106302940537 0.053591603740555716 0.0 -0.02931896125448641 0.0 0.0
-0.059861063029403014 0.05359160374055305 0.0 0.029318961254503173 0.0 0.0
-0.06938955270230845 0.06381569707952539 0.0 0.018212529657867155 0.0 0.0
-0.06671802335709112 0.061847970882239034 0.0 0.011403524587525055 0.0 0.0
-0.05846581983343908 0.054129898877383065 0.0 0.00884681210533736 0.0 0.0
-0.04882494269205447 0.04482557904600459 0.0 0.007934808703697976 0.0 0.0
-0.039656537730808766 0.035934102720739824 0.0 0.0069414643287920574 0.0 0.0
-0.031649951456400024 0.02818493046544912 0.0 0.005811429462723061 0.0 0.0
-0.024991590357333934 0.021778494368761114 0.0 0.004827569011858976 0.0 0.0
-0.019605314191194455 0.016640810009020957 0.0 0.004066735839504357 0.0 0.0
-0.015260865946211857 0.012545445024939594 0.0 0.00342255149726671 0.0 0.0
-0.011705672777262907 0.00924371961939563 0.0 0.0028121691232968343 0.0 0.0
-0.00875218692950544 0.0065508769721631666 0.0 0.0022271252556649856 0.0 0.0
-0.00630540447938276 0.004374288019751482 0.0 0.001682866050194673 0.0 0.0
-0.004336372887926036 0.0026813353220259684 0.0 0.0012111055828472606 0.0 0.0
-0.0028487957348296983 0.001507005760714497 0.0 0.0009093023656462917 0.0 0.0
-0.0019306303581895397 0.0008885490401200902 0.0 0.0008680054555684491 0.0 0.0
-0.00140905017318926 0.0006159954074414498 0.0 0.0010202947974528587 0.0 0.0
-0.0009252904880931237 0.00039854903796721075 0.0 0.0011099519918163492 0.0 0.0
-0.0004388582282729876 0.000143430350657614 0.0 0.0009368242725259213 0.0 0.0
-9.035379240916394e-05 -1.0559459977958763e-05 0.0 0.0003598697293433484 0.0 0.0
-0.00010068815153460586 3.348146859266654e-05 0.0 -0.00018208430663710362 0.0 0.0
-0.00045794334231691325 0.00017926400345008586 0.0 -0.0006110672419787078 0.0 0.0
-0.0010046102923471634 0.00043318191749130985 0.0 -0.0007365503999616219 0.0 0.0
-0.0015622321933314864 0.0006686614202204288 0.0 -0.000661442397755424 0.0 0.0
-0.0021916791160778992 0.0010419891046038465 0.0 -0.0005541008491734001 0.0 0.0
-0.003351494875559635 0.0018823395868858839 0.0 -0.000602695026436395 0.0 0.0
-0.0050459915082458895 0.003287504938111474 0.0 -0.0008258397690972807 0.0 0.0
-0.007246401095691191 0.005213989104434602 0.0 -0.0011421178163754375 0.0 0.0
-0.009991813050746923 0.007686699067440128 0.0 -0.0015140456656678736 0.0 0.0
-0.013329491705428131 0.010752833900766978 0.0 -0.0019227619689009545 0.0 0.0
-0.017376803173558344 0.014530007466419637 0.0 -0.002344819761814221 0.0 0.0
-0.02234878952041021 0.01923295752602905 0.0 -0.0027903835549098477 0.0 0.0
-0.02851685788123645 0.025129835926001265 0.0 -0.0033509054784015 0.0 0.0
-0.03609040603996154 0.03242441867034862 0.0 -0.004062523195827394 0.0 0.0
-0.045081731905980485 0.041122757108270847 0.0 -0.004836783772524 0.0 0.0
-0.055161818312314065 0.05089441249344162 0.0 -0.005414445701216741 0.0 0.0
-0.0655320566222998 0.0609385001225351 0.0 -0.005423770073422041 0.0 0.0
-0.07470341411866191 0.06969919171010686 0.0 -0.005963070484958921 0.0 0.0
-0.07907196690094236 0.07315496878639727 0.0 -0.013077223009908157 0.0 0.0
-0.06991497088180053 0.06307451496609784 0.0 -0.03132684620269066 0.0 0.0
-0.06991497088179739 0.06307451496609628 0.0 0.03132684620270271 0.0 0.0
-0.07907196690093068 0.07315496878638572 0.0 0.013077223009925004 0.0 0.0
-0.07470341411864342 0.06969919171009065 0.0 0.00596307048497105 0.0 0.0
-0.06553205662227662 0.06093850012251578 0.0 0.005423770073425899 0.0 0.0
-0.05516181831228863 0.05089441249342275 0.0 0.005414445701217935 0.0 0.0
-0.045081731905954874 0.0411227571082482 0.0 0.004836783772523945 0.0 0.0
-0.036090406039934866 0.03242441867032353 0.0 0.004062523195827172 0.0 0.0
-0.028516857881208644 0.025129835925976618 0.0 0.003350905478399266 0.0 0.0
-0.022348789520382054 0.019232957526002847 0.0 0.0027903835549089318 0.0 0.0
-0.017376803173531966 0.014530007466396766 0.0 0.0023448197618093775 0.0 0.0
-0.013329491705405271 0.010752833900745218 0.0 0.001922761968896014 0.0 0.0
-0.009991813050728018 0.0076866990674223645 0.0 0.0015140456656656115 0.0 0.0
-0.007246401095676024 0.00521398910442028 0.0 0.0011421178163729118 0.0 0.0
-0.0050459915082344126 0.003287504938102148 0.0 0.0008258397690948938 0.0 0.0
-0.0033514948755525385 0.0018823395868808879 0.0 0.0006026950264342301 0.0 0.0
-0.002191679116074952 0.0010419891046017926 0.0 0.0005541008491724286 0.0 0.0
-0.0015622321933300883 0.0006686614202198182 0.0 0.0006614423977546469 0.0 0.0
-0.0010046102923461954 0.00043318191749119883 0.0 0.000736550399960817 0.0 0.0
-0.0004579433423164657 0.00017926400345007198 0.0 0.0006110672419780416 0.0 0.0
-0.00010068815153452086 3.3481468592510416e-05 0.0 0.00018208430663735342 0.0 0.0
-8.02216679636758e-05 4.3516164620643893e-05 0.0 -2.1830432636038566e-05 0.0 0.0
-0.0004473004550231974 0.00019693943625101462 0.0 -0.00024989183950907545 0.0 0.0
-0.0010801960947204314 0.00046222211250512846 0.0 -0.00028863454619054707 0.0 0.0
-0.0017321504378046693 0.0007415526867986522 0.0 -0.0002666485519822459 0.0 0.0
-0.00250101078076867 0.0012396518141191137 0.0 -0.00022138037941588085 0.0 0.0
-0.0038739904363238042 0.0022900038698410174 0.0 -0.00022999954907515496 0.0 0.0
-0.005749394107371464 0.003904757438357942 0.0 -0.000328643386647981 0.0 0.0
-0.008174470787104371 0.006057007497214384 0.0 -0.00045662373054722316 0.0 0.0
-0.011218868234091212 0.008823537253486613 0.0 -0.0006185079377873659 0.0 0.0
-0.014944404986732496 0.012265456078515147 0.0 -0.0008034058876689176 0.0 0.0
-0.01949545230941288 0.01653076752581839 0.0 -0.0009896646759668948 0.0 0.0
-0.025114886023582833 0.021859306566683223 0.0 -0.0012074249406938686 0.0 0.0
-0.03206064136595625 0.028510065980557497 0.0 -0.001472463952558123 0.0 0.0
-0.0405268123310341 0.03666971025813637 0.0 -0.001781276454365488 0.0 0.0
-0.05047571698405716 0.0462909699566878 0.0 -0.002100234643162502 0.0 0.0
-0.061420636249133326 0.05688858949078912 0.0 -0.0022602345652202316 0.0 0.0
-0.0723350467806678 0.0674564220797087 0.0 -0.001971317779989268 0.0 0.0
-0.08175798236779104 0.07655915549902192 0.0 -0.0009919913916728307 0.0 0.0
-0.0876509232393773 0.08200842338247849 0.0 -0.003427047361950042 0.0 0.0
-0.0823801076595319 0.0744984114372067 0.0 -0.029057281118319456 0.0 0.0
-0.0823801076595285 0.0744984114372036 0.0 0.029057281118325007 0.0 0.0
-0.08765092323936412 0.08200842338246317 0.0 0.003427047361956592 0.0 0.0
-0.08175798236776922 0.07655915549900039 0.0 0.0009919913916789092 0.0 0.0
-0.07233504678064104 0.06745642207968161 0.0 0.0019713177799901838 0.0 0.0
-0.06142063624910531 0.056888589490759145 0.0 0.002260234565220301 0.0 0.0
-0.05047571698402806 0.046290969956660266 0.0 0.0021002346431617247 0.0 0.0
-0.0405268123310041 0.03666971025810861 0.0 0.0017812764543662374 0.0 0.0
-0.0320606413659257 0.02851006598052619 0.0 0.0014724639525572902 0.0 0.0
-0.02511488602355173 0.021859306566651693 0.0 0.0012074249406937854 0.0 0.0
-0.01949545230938368 0.01653076752579019 0.0 0.0009896646759639943 0.0 0.0
-0.014944404986707772 0.012265456078491832 0.0 0.00080340588766728 0.0 0.0
-0.011218868234070417 0.008823537253468627 0.0 0.0006185079377869496 0.0 0.0
-0.008174470787087577 0.006057007497199063 0.0 0.0004566237305465154 0.0 0.0
-0.0057493941073587605 0.0039047574383469508 0.0 0.0003286433866472316 0.0 0.0
-0.0038739904363155686 0.002290003869833468 0.0 0.00022999954907340636 0.0 0.0
-0.002501010780764771 0.0012396518141161716 0.0 0.0002213803794151037 0.0 0.0
-0.0017321504378031167 0.0007415526867983746 0.0 0.00026664855198221815 0.0 0.0
-0.0010801960947195016 0.00046222211250501744 0.0 0.00028863454619054707 0.0 0.0
-0.0004473004550227481 0.00019693943625091748 0.0 0.00024989183950852034 0.0 0.0
-8.022166796348151e-05 4.351616462079308e-05 0.0 2.1830432635983055e-05 0.0 0.0
SCALARS Statev float 8
LOOKUP_TABLE default
0.0 0.008197424575118913 0.006184750540828555 -0.006567746300176621 0.0003829957593480669 -0.003436823377071007 0.0 0.0
0.0 0.0001703760165109023 7.025841164842451e-05 -5.119176728965323e-05 -1.9066644358771245e-05 8.507051313585378e-05 0.0 0.0
0.0 3.342380937738801e-05 -4.754075056001044e-06 3.773145031477424e-06 9.809300245235895e-07 5.62033213615258e-07 0.0 0.0
0.0 6.868981214613049e-05 -2.850517774737791e-07 1.6304733995844833e-07 1.2200443751523263e-07 -3.1698380233994485e-08 0.0 0.0
0.0 0.0005571660921189923 0.0003422042227719152 -0.0002713227173809177 -7.088150539099804e-05 -4.1324166658411504e-05 0.0 0.0
0.0 0.0015093663457003638 0.0013994191003156538 -0.001145237731020716 -0.0002541813692949378 -0.0001161346198317666 0.0 0.0
0.0 0.003302263506271372 0.0030252710037965416 -0.002582975448353252 -0.00044229555544328836 -0.0002128683127470245 0.0 0.0
0.0 0.005807392803651857 0.005255315728134003 -0.004647105281500318 -0.0006082104466336851 -0.0003325634992718513 0.0 0.0
0.0 0.009067093205148227 0.008110533371709496 -0.007365805387458567 -0.0007447279842509261 -0.00048314898330557106 0.0 0.0
0.0 0.013145167251282988 0.011643566800184562 -0.01078232434945144 -0.0008612424507331204 -0.0006597297164745038 0.0 0.0
0.0 0.018233187937806372 0.016003406357490625 -0.015036982643600108 -0.0009664237138905133 -0.000844128811552936 0.0 0.0
0.0 0.02433139401673722 0.021440756239758246 -0.020372780232286097 -0.001067976007472145 -0.0010637455336550724 0.0 0.0
0.0 0.03203504512470554 0.028205818171807805 -0.027037282801974063 -0.001168535369833737 -0.0013270355778426017 0.0 0.0
0.0 0.04156591699504812 0.036493221695624196 -0.035222132010070524 -0.0012710896855536824 -0.0016338626434503703 0.0 0.0
0.0 0.05287007052466998 0.04631149983438185 -0.04493276209932226 -0.0013787377350595767 -0.0019967340504881597 0.0 0.0
0.0 0.06558615496452747 0.057316562692751226 -0.055824670468152336 -0.001491892224598901 -0.0023609525309694025 0.0 0.0
0.0 0.07879719084338652 0.06874184421181004 -0.06713480233478493 -0.001607041877025105 -0.00257668911611811 0.0 0.0
0.0 0.09118257299455948 0.07945889096710322 -0.0777421688036261 -0.0017167221634770992 -0.0024263050180451167 0.0 0.0
0.0 0.10121819513214225 0.08814827492646199 -0.08633587905392855 -0.0018123958725334488 -0.0018637111651053485 0.0 0.0
0.0 0.10703224834447264 0.09331975490641954 -0.09141448874985614 -0.001905266156563408 -0.0014237577998745363 0.0 0.0
0.0 0.10703224834446809 0.09331975490641575 -0.09141448874985206 -0.0019052661565636458 0.0014237577998768617 0.0 0.0
0.0 0.10121819513212843 0.08814827492645007 -0.08633587905391663 -0.0018123958725334358 0.0018637111651143713 0.0 0.0
0.0 0.09118257299453744 0.0794588909670839 -0.07774216880360744 -0.0017167221634764363 0.0024263050180509432 0.0 0.0
0.0 0.07879719084335898 0.06874184421178568 -0.06713480233476163 -0.0016070418770240307 0.0025766891161218626 0.0 0.0
0.0 0.0655861549644968 0.05731656269272434 -0.055824670468126135 -0.001491892224598211 0.0023609525309653055 0.0 0.0
0.0 0.05287007052464032 0.046311499834355896 -0.04493276209929692 -0.0013787377350589713 0.001996734050488385 0.0 0.0
0.0 0.0415659169950183 0.036493221695597974 -0.035222132010045246 -0.0012710896855527274 0.0016338626434500383 0.0 0.0
0.0 0.03203504512467402 0.028205818171780153 -0.02703728280194731 -0.0011685353698328413 0.0013270355778425582 0.0 0.0
0.0 0.024331394016705088 0.02144075623973003 -0.020372780232258685 -0.0010679760074713506 0.0010637455336531846 0.0 0.0
0.0 0.018233187937777194 0.016003406357464695 -0.015036982643574972 -0.0009664237138897198 0.0008441288115520024 0.0 0.0
0.0 0.01314516725125788 0.011643566800162512 -0.010782324349430166 -0.0008612424507323401 0.0006597297164716107 0.0 0.0
0.0 0.009067093205129214 0.008110533371692201 -0.007365805387442013 -0.0007447279842501884 0.00048314898330498103 0.0 0.0
0.0 0.0058073928036365035 0.00525531572811959 -0.004647105281486738 -0.000608210446632852 0.0003325634992706421 0.0 0.0
0.0 0.003302263506260404 0.003025271003785941 -0.0025829754483436443 -0.0004422955554422968 0.00021286831274639707 0.0 0.0
0.0 0.0015093663456941786 0.001399419100309328 -0.0011452377310152962 -0.0002541813692940316 0.00011613461983110084 0.0 0.0
0.0 0.0005571660921156851 0.0003422042227694511 -0.0002713227173789212 -7.088150539052996e-05 4.132416665812233e-05 0.0 0.0
0.0 6.868981214534741e-05 -2.850517772203406e-07 1.6304733976607126e-07 1.2200443745426166e-07 3.1698380226690156e-08 0.0 0.0
0.0 3.342380937687491e-05 -4.754075055922566e-06 3.7731450314146314e-06 9.80930024507978e-07 -5.620332136057866e-07 0.0 0.0
0.0 0.0001703760165096224 7.025841164789657e-05 -5.119176728927909e-05 -1.9066644358617695e-05 -8.507051313512507e-05 0.0 0.0
0.0 0.008197424575106449 0.006184750540820159 -0.006567746300167184 0.000382995759347022 0.003436823377053193 0.0 0.0
0.0 0.005683929195200694 0.0040171310464290665 -0.004469753731913301 0.000452622685484235 -0.003780317297200273 0.0 0.0
0.0 0.0 0.0 0.0 0.0 0.0 0.0 0.0
0.0 9.430826945183483e-08 -1.020951514236367e-08 7.758883502814768e-09 2.450631639548195e-09 3.6392644398315674e-09 0.0 0.0
0.0 2.9472215114515073e-05 -2.6968185750961555e-06 2.059090110622791e-06 6.377284644731308e-07 5.805032810325699e-07 0.0 0.0
0.0 0.00031239575812664174 0.0001333868775613693 -0.0001053816211107959 -2.8005256450573383e-05 -3.844824562278427e-05 0.0 0.0
0.0 0.0010521430981491342 0.000977287312200891 -0.0007897085453398935 -0.00018757876686099754 -0.00022292446931712723 0.0 0.0
0.0 0.002624964791684615 0.0024032450092559446 -0.002024249198535267 -0.0003789958107206776 -0.00047404530369190363 0.0 0.0
0.0 0.0048633456319199415 0.004400495971556753 -0.0038459914181712966 -0.0005545045533854566 -0.0007771016667105148 0.0 0.0
0.0 0.007766747190815587 0.006959690234388125 -0.006261281638099199 -0.0006984085962889247 -0.0011326087308106694 0.0 0.0
0.0 0.011379511876523194 0.0101108851172808 -0.009293443223373141 -0.0008174418939076559 -0.001532520098943332 0.0 0.0
0.0 0.01584077163931647 0.013973995983186778 -0.013052511309245828 -0.0009214846739409437 -0.001957862847985666 0.0 0.0
0.0 0.021445839407308986 0.018768268512037355 -0.017750490997181262 -0.0010177775148560947 -0.0024159379046808874 0.0 0.0
0.0 0.028217525284297523 0.02477097582857492 -0.02365955945589303 -0.0011114163726818906 -0.0029873713697723243 0.0 0.0
0.0 0.036685403469550744 0.03218349198485352 -0.030977127259210983 -0.0012063647256425304 -0.0037053723168018085 0.0 0.0
0.0 0.046863297495346734 0.041019039497961776 -0.03971357956527176 -0.001305459932690025 -0.004536398301000014 0.0 0.0
0.0 0.05833288207025266 0.05097761843677772 -0.04956850463907517 -0.0014091137977025655 -0.00536740193982813 0.0 0.0
0.0 0.07032025198368005 0.06137763873860944 -0.059863116884581756 -0.0015145218540276622 -0.005869057719001987 0.0 0.0
0.0 0.0816616537821995 0.07120495403205064 -0.06958857186314152 -0.0016163821689091115 -0.0056245829289435995 0.0 0.0
0.0 0.0908632124105064 0.07918919592712295 -0.0774764508063408 -0.0017127451207821737 -0.004521385899290225 0.0 0.0
0.0 0.0962722024189398 0.08389537018453193 -0.08211482315984375 -0.0017805470246881933 -0.002586866210549854 0.0 0.0
0.0 0.09627220241893689 0.08389537018452921 -0.08211482315984128 -0.0017805470246879374 0.0025868662105606724 0.0 0.0
0.0 0.09086321241049507 0.0791891959271128 -0.07747645080633093 -0.0017127451207818692 0.00452138589930864 0.0 0.0
0.0 0.08166165378217996 0.07120495403203338 -0.06958857186312448 -0.001616382168908882 0.005624582928956782 0.0 0.0
0.0 0.07032025198365523 0.06137763873858766 -0.059863116884560225 -0.001514521854027412 0.005869057719008974 0.0 0.0
0.0 0.05833288207022559 0.05097761843675419 -0.0495685046390521 -0.001409113797702076 0.005367401939825028 0.0 0.0
0.0 0.046863297495319194 0.041019039497937546 -0.03971357956524839 -0.0013054599326891513 0.004536398300999628 0.0 0.0
0.0 0.03668540346952304 0.03218349198482918 -0.030977127259187488 -0.0012063647256416704 0.003705372316800947 0.0 0.0
0.0 0.02821752528426911 0.024770975828549972 -0.023659559455868832 -0.0011114163726811362 0.0029873713697711538 0.0 0.0
0.0 0.021445839407280884 0.018768268512012642 -0.01775049099715711 -0.0010177775148555257 0.0024159379046771994 0.0 0.0
0.0 0.015840771639290124 0.013973995983163607 -0.013052511309223172 -0.0009214846739404316 0.0019578628479831237 0.0 0.0
0.0 0.011379511876501429 0.010110885117261275 -0.009293443223354392 -0.0008174418939068812 0.0015325200989387037 0.0 0.0
0.0 0.007766747190798867 0.006959690234372578 -0.006261281638084444 -0.0006984085962881324 0.0011326087308086833 0.0 0.0
0.0 0.004863345631906584 0.004400495971544287 -0.003845991418159769 -0.0005545045533845173 0.0007771016667083257 0.0 0.0
0.0 0.002624964791675496 0.002403245009246999 -0.0020242491985273782 -0.0003789958107196197 0.00047404530369039345 0.0 0.0
0.0 0.0010521430981440313 0.0009772873121961809 -0.000789708545335964 -0.00018757876686021691 0.0002229244693159742 0.0 0.0
0.0 0.00031239575812422765 0.00013338687756005084 -0.00010538162110975102 -2.80052564502999e-05 3.844824562240809e-05 0.0 0.0
0.0 2.947221511401483e-05 -2.6968185749081104e-06 2.059090110478771e-06 6.377284644294793e-07 -5.805032809633507e-07 0.0 0.0
0.0 9.430826938068039e-08 -1.0209515134588993e-08 7.758883496907494e-09 2.4506316376819497e-09 -3.6392644370560787e-09 0.0 0.0
0.0 0.0 0.0 0.0 0.0 0.0 0.0 0.0
0.0 0.005683929195186649 0.004017131046419805 -0.004469753731903133 0.00045262268548332886 0.0037803172971848232 0.0 0.0
0.0 0.004085525449058084 0.002711464004674457 -0.0031466409358165007 0.0004351769311420427 -0.0031747188760888716 0.0 0.0
0.0 0.0 0.0 0.0 0.0 0.0 0.0 0.0
0.0 0.0 0.0 0.0 0.0 0.0 0.0 0.0
0.0 2.4307082921929654e-06 -2.7159244173351415e-07 2.053625051523891e-07 6.622993658110159e-08 1.4164277531911574e-07 0.0 0.0
0.0 0.00011634227024883104 3.239052298852733e-05 -2.554238995278023e-05 -6.84813303574701e-06 -1.7225571625127344e-05 0.0 0.0
0.0 0.0007857465518129593 0.0005632214819877919 -0.00045030248899608654 -0.00011291899299170497 -0.0002270593794580255 0.0 0.0
0.0 0.001974013125722698 0.0017950169471848945 -0.0014881754874754443 -0.00030684145970944973 -0.0006114051028754054 0.0 0.0
0.0 0.0039368626744329845 0.003551579777821111 -0.0030624333853093598 -0.0004891463925117501 -0.0010783841484304367 0.0 0.0
0.0 0.006504711994811366 0.00581037282606177 -0.005167977905798932 -0.0006423949202628387 -0.0016039797283023387 0.0 0.0
0.0 0.00967777831382993 0.00858280030462222 -0.00781666911115147 -0.0007661311934707493 -0.002182038582489626 0.0 0.0
0.0 0.013592923683347398 0.011959844696251592 -0.01108991811465878 -0.0008699265815928082 -0.002800073515826757 0.0 0.0
0.0 0.018384155546465587 0.016135387071810173 -0.015172872846770961 -0.0009625142250392167 -0.0034656236128060005 0.0 0.0
0.0 0.024513485272395316 0.02136514539484501 -0.020314979796436365 -0.001050165598408637 -0.004251793553751533 0.0 0.0
0.0 0.0319086552081398 0.02787854002238224 -0.02674052965697716 -0.0011380103654050724 -0.005269286954412285 0.0 0.0
0.0 0.04088251383125146 0.03570479677580488 -0.03447654165808164 -0.0012282551177232371 -0.006489904782136808 0.0 0.0
0.0 0.051134822942819264 0.04459133706023964 -0.04326935508507492 -0.0013219819751647056 -0.007685512045477154 0.0 0.0
0.0 0.0619190448177513 0.05396126527417179 -0.05254385471632945 -0.0014174105578423205 -0.008430675322933045 0.0 0.0
0.0 0.072179624943022 0.06291288829468351 -0.061399681012539474 -0.0015132072821440034 -0.008196757783866793 0.0 0.0
0.0 0.08056638767863587 0.07025292320780938 -0.06865215141375867 -0.0016007717940506481 -0.006621621165098535 0.0 0.0
0.0 0.08560237192460263 0.0746857463754768 -0.07302660304882824 -0.0016591433266485297 -0.003486622026967739 0.0 0.0
0.0 0.08560237192460005 0.07468574637547427 -0.07302660304882573 -0.001659143326648547 0.0034866220269853913 0.0 0.0
0.0 0.08056638767862692 0.07025292320780084 -0.06865215141375053 -0.0016007717940502981 0.006621621165123105 0.0 0.0
0.0 0.07217962494300574 0.0629128882946686 -0.06139968101252512 -0.0015132072821434468 0.008196757783884057 0.0 0.0
0.0 0.061919044817732964 0.053961265274155124 -0.05254385471631376 -0.0014174105578413383 0.008430675322942099 0.0 0.0
0.0 0.05113482294279747 0.04459133706022044 -0.04326935508505658 -0.0013219819751638597 0.0076855120454750485 0.0 0.0
0.0 0.04088251383122885 0.035704796775784954 -0.03447654165806238 -0.0012282551177225788 0.0064899047821363656 0.0 0.0
0.0 0.03190865520811705 0.02787854002236208 -0.026740529656957925 -0.001138010365404151 0.005269286954411187 0.0 0.0
0.0 0.024513485272370978 0.021365145394823308 -0.020314979796415708 -0.0010501655984075907 0.004251793553749911 0.0 0.0
0.0 0.018384155546442047 0.016135387071789284 -0.015172872846751274 -0.0009625142250380081 0.0034656236128014417 0.0 0.0
0.0 0.013592923683326258 0.01195984469623237 -0.011089918114640582 -0.0008699265815917853 0.002800073515822347 0.0 0.0
0.0 0.009677778313811572 0.00858280030460553 -0.007816669111135557 -0.0007661311934699729 0.0021820385824838405 0.0 0.0
0.0 0.006504711994795437 0.00581037282604725 -0.005167977905785206 -0.0006423949202620428 0.0016039797282986442 0.0 0.0
0.0 0.003936862674421577 0.0035515797778103895 -0.0030624333852996132 -0.0004891463925107773 0.0010783841484272357 0.0 0.0
0.0 0.0019740131257150197 0.00179501694717751 -0.001488175487469043 -0.00030684145970846636 0.0006114051028732948 0.0 0.0
0.0 0.0007857465518082146 0.0005632214819840756 -0.000450302488993055 -0.00011291899299102004 0.00022705937945652588 0.0 0.0
0.0 0.00011634227024755303 3.239052298809088e-05 -2.554238995242658e-05 -6.848133035664187e-06 1.7225571624855454e-05 0.0 0.0
0.0 2.430708291709614e-06 -2.715924416780426e-07 2.0536250511018518e-07 6.622993656783338e-08 -1.4164277528895462e-07 0.0 0.0
0.0 0.0 0.0 0.0 0.0 0.0 0.0 0.0
0.0 0.0 0.0 0.0 0.0 0.0 0.0 0.0
0.0 0.004085525449046015 0.002711464004666195 -0.003146640935807331 0.0004351769311411355 0.0031747188760755515 0.0 0.0
0.0 0.0028861990055460162 0.0018172317095144668 -0.002188952766034781 0.000371721056520314 -0.002359636266005242 0.0 0.0
0.0 0.0 0.0 0.0 0.0 0.0 0.0 0.0
0.0 0.0 0.0 0.0 0.0 0.0 0.0 0.0
0.0 1.1217285375004458e-06 -1.148405540922369e-07 8.789999552340031e-08 2.6940558568849977e-08 1.165259803878264e-07 0.0 0.0
0.0 3.866924522128194e-05 2.7149463960852918e-06 -2.125739835641385e-06 -5.892065604438046e-07 -2.1140208396942793e-06 0.0 0.0
0.0 0.0004439515603330798 0.00026983865135365114 -0.00021374000867956382 -5.609864267408733e-05 -0.00016610966937709705 0.0 0.0
0.0 0.0014050479148577093 0.001209109410793989 -0.0009863464136702492 -0.00022276299712373912 -0.0006192843038082703 0.0 0.0
0.0 0.0030434525627796973 0.002717345904915906 -0.002305404518373966 -0.0004119413865419396 -0.0012263345666657115 0.0 0.0
0.0 0.005268336029531346 0.004671688322298643 -0.0040982533301971305 -0.0005734349921015117 -0.0018909898955366503 0.0 0.0
0.0 0.008005186579785177 0.007068475509129637 -0.006364586757962932 -0.0007038887511667026 -0.0026091383777084314 0.0 0.0
0.0 0.011362357121942558 0.009969728170229623 -0.009159615163367312 -0.0008101130068623066 -0.0033673634452231517 0.0 0.0
0.0 0.01550983930698978 0.013536494513965307 -0.012635254881217188 -0.000901239632748115 -0.004183538697863029 0.0 0.0
0.0 0.020697718784920292 0.018007915364519775 -0.01702421235852538 -0.00098370300599439 -0.005153124199198164 0.0 0.0
0.0 0.027222014787150146 0.023605540185072795 -0.022540272626389257 -0.0010652675586835404 -0.006359841503638105 0.0 0.0
0.0 0.03511522949363531 0.030390947673868494 -0.029243829015954494 -0.001147118657913993 -0.007808252684169871 0.0 0.0
0.0 0.04394090820818427 0.038180563362470527 -0.036950351438175724 -0.001230211924294797 -0.009284292848718246 0.0 0.0
0.0 0.05352206327427535 0.04649865740466103 -0.04518260791754012 -0.0013160494871209106 -0.010258878259326074 0.0 0.0
0.0 0.06275263686560487 0.05456965480025727 -0.05316661526479671 -0.001403039535460554 -0.010086657349262514 0.0 0.0
0.0 0.0704108828431156 0.06133077919815011 -0.05984828298744482 -0.0014824962107052705 -0.008205706084167994 0.0 0.0
0.0 0.0751767073208773 0.06559422160101343 -0.06405824957787118 -0.0015359720231422067 -0.004220528187887092 0.0 0.0
0.0 0.07517670732087395 0.06559422160101015 -0.06405824957786804 -0.0015359720231421388 0.00422052818790838 0.0 0.0
0.0 0.07041088284310722 0.06133077919814178 -0.0598482829874368 -0.0014824962107049646 0.008205706084195897 0.0 0.0
0.0 0.06275263686559199 0.05456965480024502 -0.05316661526478495 -0.0014030395354600492 0.010086657349282163 0.0 0.0
0.0 0.05352206327425825 0.04649865740464545 -0.045182607917524986 -0.001316049487120453 0.010258878259335993 0.0 0.0
0.0 0.0439409082081648 0.038180563362453394 -0.03695035143815937 -0.0012302119242940345 0.009284292848715795 0.0 0.0
0.0 0.035115229493614536 0.0303909476738502 -0.02924382901593695 -0.001147118657913252 0.007808252684168212 0.0 0.0
0.0 0.027222014787129354 0.02360554018505445 -0.02254027262637142 -0.0010652675586830375 0.006359841503636698 0.0 0.0
0.0 0.020697718784899476 0.018007915364501255 -0.01702421235850741 -0.0009837030059938376 0.005153124199195936 0.0 0.0
0.0 0.015509839306968833 0.013536494513946631 -0.012635254881199109 -0.0009012396327475191 0.004183538697857523 0.0 0.0
0.0 0.0113623571219224 0.009969728170211477 -0.009159615163349843 -0.0008101130068616365 0.0033673634452170533 0.0 0.0
0.0 0.008005186579768333 0.00706847550911463 -0.006364586757948696 -0.0007038887511659306 0.002609138377701335 0.0 0.0
0.0 0.005268336029518337 0.004671688322286716 -0.004098253330186089 -0.0005734349921006262 0.001890989895532492 0.0 0.0
0.0 0.0030434525627691454 0.0027173459049062007 -0.0023054045183651998 -0.00041194138654100036 0.0012263345666613924 0.0 0.0
0.0 0.0014050479148506904 0.0012091094107877997 -0.0009863464136649863 -0.000222762997122813 0.0006192843038054261 0.0 0.0
0.0 0.00044395156032896047 0.00026983865135108077 -0.00021374000867750373 -5.60986426735771e-05 0.0001661096693755499 0.0 0.0
0.0 3.866924522035072e-05 2.714946396167502e-06 -2.125739835703839e-06 -5.892065604637606e-07 2.1140208397580973e-06 0.0 0.0
0.0 1.1217285373393579e-06 -1.1484055407491507e-07 8.789999551013864e-08 2.6940558564774134e-08 -1.1652598037014098e-07 0.0 0.0
0.0 0.0 0.0 0.0 0.0 0.0 0.0 0.0
0.0 0.0 0.0 0.0 0.0 0.0 0.0 0.0
0.0 0.0028861990055354 0.0018172317095076589 -0.002188952766027077 0.0003717210565194171 0.0023596362659948724 0.0 0.0
0.0 0.0019412108572542546 0.0011623111911471574 -0.0014485250683219846 0.0002862138771748269 -0.0015961709649944527 0.0 0.0
0.0 0.0 0.0 0.0 0.0 0.0 0.0 0.0
0.0 0.0 0.0 0.0 0.0 0.0 0.0 0.0
0.0 0.0 0.0 0.0 0.0 0.0 0.0 0.0
0.0 1.3709186071921909e-05 -1.0287254238883237e-06 7.697854313634885e-07 2.589399925247928e-07 1.295698164989322e-06 0.0 0.0
0.0 0.00019575035971970887 9.44235030832826e-05 -7.466709222803936e-05 -1.9756410855243455e-05 -9.206157424952898e-05 0.0 0.0
0.0 0.0009758082300823452 0.0006844890120985921 -0.0005494465058887967 -0.0001350425062097952 -0.0004949324944237125 0.0 0.0
0.0 0.0022332547292273 0.0018986856997543489 -0.001579301197954065 -0.00031938450180028386 -0.001182696214361291 0.0 0.0
0.0 0.004067606819557237 0.003553943138956301 -0.003065366945543312 -0.0004885761934129876 -0.0019819706430309453 0.0 0.0
0.0 0.006382677677192496 0.005575352224798053 -0.004947974338955132 -0.0006273778858429211 -0.0028030795549122264 0.0 0.0
0.0 0.009207060221806606 0.008009624264969935 -0.007270928952295117 -0.0007386953126748157 -0.003660999667231382 0.0 0.0
0.0 0.012662845954982096 0.010983014619172195 -0.01015255527167694 -0.0008304593474952574 -0.0045740104802970425 0.0 0.0
0.0 0.017059055279256 0.014703601216396125 -0.013792705364602366 -0.0009108958517937549 -0.005635801686186015 0.0 0.0
0.0 0.02244694205565752 0.019388645190855255 -0.018402411998549903 -0.0009862331923053498 -0.006974395623929097 0.0 0.0
0.0 0.029144412647048108 0.025118793009197775 -0.024058765234966834 -0.0010600277742309385 -0.008558744712655147 0.0 0.0
0.0 0.03698109602760087 0.031772288127534305 -0.030638006957675865 -0.0011342811698584296 -0.010147798537312484 0.0 0.0
0.0 0.04516816719932502 0.038997145230355926 -0.03778816542963956 -0.0012089798007163628 -0.011291181420284891 0.0 0.0
0.0 0.05328679622911715 0.04616896697314376 -0.0448835291485095 -0.0012854378246342593 -0.0112694326656413 0.0 0.0
0.0 0.06027202647638405 0.052384784064985465 -0.05102760983362702 -0.0013571742313584455 -0.00930396771049974 0.0 0.0
0.0 0.06485709128267539 0.0565469526333616 -0.05513880950449021 -0.001408143128871388 -0.004820388060051034 0.0 0.0
0.0 0.06485709128267278 0.05654695263335883 -0.055138809504487435 -0.0014081431288713376 0.004820388060073416 0.0 0.0
0.0 0.06027202647637625 0.05238478406497743 -0.051027609833618905 -0.001357174231358516 0.009303967710528507 0.0 0.0
0.0 0.05328679622910526 0.046168966973132136 -0.0448835291484979 -0.0012854378246342165 0.011269432665661973 0.0 0.0
0.0 0.04516816719931008 0.03899714523034206 -0.0377881654296261 -0.001208979800715963 0.011291181420294578 0.0 0.0
0.0 0.03698109602758283 0.031772288127518526 -0.030638006957660432 -0.0011342811698580935 0.010147798537310137 0.0 0.0
0.0 0.02914441264703041 0.025118793009182128 -0.02405876523495173 -0.0010600277742303901 0.008558744712652692 0.0 0.0
0.0 0.022446942055640802 0.01938864519084041 -0.018402411998535678 -0.0009862331923047255 0.00697439562392699 0.0 0.0
0.0 0.017059055279238258 0.014703601216380233 -0.013792705364586808 -0.0009108958517934229 0.005635801686183462 0.0 0.0
0.0 0.012662845954965148 0.010983014619157029 -0.010152555271662457 -0.0008304593474945671 0.004574010480291448 0.0 0.0
0.0 0.009207060221789782 0.008009624264955032 -0.007270928952280888 -0.0007386953126741437 0.003660999667224332 0.0 0.0
0.0 0.0063826776771779 0.0055753522247854945 -0.0049479743389434115 -0.0006273778858420813 0.0028030795549038793 0.0 0.0
0.0 0.0040676068195454156 0.0035539431389456522 -0.00306536694553355 -0.0004885761934121019 0.001981970643025794 0.0 0.0
0.0 0.002233254729218496 0.0018986856997467696 -0.001579301197947438 -0.0003193845017993309 0.001182696214356752 0.0 0.0
0.0 0.0009758082300771233 0.0006844890120946324 -0.0005494465058855743 -0.0001350425062090582 0.000494932494421238 0.0 0.0
0.0 0.00019575035971760072 9.442350308234911e-05 -7.46670922272945e-05 -1.975641085505465e-05 9.206157424859416e-05 0.0 0.0
0.0 1.3709186071506175e-05 -1.0287254237329753e-06 7.697854312424545e-07 2.589399924906008e-07 -1.2956981647877456e-06 0.0 0.0
0.0 0.0 0.0 0.0 0.0 0.0 0.0 0.0
0.0 0.0 0.0 0.0 0.0 0.0 0.0 0.0
0.0 0.0 0.0 0.0 0.0 0.0 0.0 0.0
0.0 0.0019412108572457558 0.001162311191141987 -0.0014485250683159362 0.00028621387717394893 0.0015961709649866286 0.0 0.0
0.0 0.001179842314957704 0.0006789011471297806 -0.0008742232204025361 0.00019532207327275554 -0.0009686096369242634 0.0 0.0
0.0 0.0 0.0 0.0 0.0 0.0 0.0 0.0
0.0 0.0 0.0 0.0 0.0 0.0 0.0 0.0
0.0 0.0 0.0 0.0 0.0 0.0 0.0 0.0
0.0 1.0042081989473157e-05 -9.329724215854319e-07 7.201815348631364e-07 2.1279088672229382e-07 1.7612736881375419e-06 0.0 0.0
0.0 6.742645318713313e-05 3.492561985800797e-05 -2.764080720395102e-05 -7.284812654056939e-06 -5.349864122827289e-05 0.0 0.0
0.0 0.0004987596981156989 0.00032482288824841444 -0.00025739238498140814 -6.743050326700615e-05 -0.000345977161306627 0.0 0.0
0.0 0.001493371492437091 0.0011485454113523282 -0.0009354690970042363 -0.0002130763143480922 -0.0009807737790305145 0.0 0.0
0.0 0.0029542676670160292 0.002461233675004605 -0.002077289700107598 -0.000383943974897007 -0.001832755779496958 0.0 0.0
0.0 0.004819963866658056 0.004115286256855679 -0.0035842698578681877 -0.0005310163989874904 -0.0027477897480281516 0.0 0.0
0.0 0.007100524168183989 0.006089456099252191 -0.005440079461214005 -0.0006493766380381858 -0.0036617572355265877 0.0 0.0
0.0 0.009908474368509636 0.00848339153277924 -0.007737495183927985 -0.000745896348851256 -0.004622220485651207 0.0 0.0
0.0 0.013423829072779265 0.011470733113814026 -0.010643655400158629 -0.000827077713655397 -0.005726022722590686 0.0 0.0
0.0 0.017874306476335772 0.015243420574777384 -0.014344094575102858 -0.0008993259996745224 -0.0070753097378198375 0.0 0.0
0.0 0.02341351913999699 0.019908623926639307 -0.01894221096878957 -0.0009664129578497364 -0.008683159659668701 0.0 0.0
0.0 0.02969666586709733 0.025408961677982504 -0.024377730055357507 -0.0010312316226249966 -0.010333062217834317 0.0 0.0
0.0 0.03682185922522438 0.03148570638011426 -0.030390335727754767 -0.0010953706523594892 -0.011542400392383762 0.0 0.0
0.0 0.04393672402160228 0.03770240653530879 -0.0365428052008524 -0.0011596013344563666 -0.011669439383888104 0.0 0.0
0.0 0.05008008891463663 0.04336677021763016 -0.042144078166357075 -0.0012226920512730583 -0.00987235389816624 0.0 0.0
0.0 0.054534567811952026 0.04747333536648361 -0.04620055937955058 -0.0012727759869330234 -0.005287920337357928 0.0 0.0
0.0 0.054534567811949874 0.047473335366481254 -0.0462005593795481 -0.0012727759869331583 0.0052879203373789015 0.0 0.0
0.0 0.05008008891463088 0.043366770217623474 -0.04214407816635045 -0.001222692051273023 0.009872353898194242 0.0 0.0
0.0 0.04393672402159401 0.037702406535299826 -0.03654280520084391 -0.0011596013344559225 0.011669439383908051 0.0 0.0
0.0 0.036821859225213874 0.03148570638010406 -0.030390335727745237 -0.0010953706523588096 0.011542400392392568 0.0 0.0
0.0 0.029696665867082726 0.02540896167796975 -0.024377730055345416 -0.0010312316226243237 0.01033306221783124 0.0 0.0
0.0 0.02341351913998335 0.01990862392662713 -0.01894221096877817 -0.0009664129578489596 0.008683159659665571 0.0 0.0
0.0 0.017874306476322162 0.015243420574765064 -0.014344094575091127 -0.0008993259996739392 0.007075309737817738 0.0 0.0
0.0 0.013423829072764773 0.011470733113801073 -0.010643655400146331 -0.0008270777136547428 0.005726022722587614 0.0 0.0
0.0 0.009908474368494315 0.008483391532766001 -0.007737495183915342 -0.0007458963488506609 0.00462222048564496 0.0 0.0
0.0 0.0071005241681708076 0.006089456099240714 -0.005440079461203365 -0.0006493766380373493 0.0036617572355198396 0.0 0.0
0.0 0.004819963866647384 0.004115286256846413 -0.0035842698578598124 -0.0005310163989866005 0.002747789748020596 0.0 0.0
0.0 0.0029542676670066843 0.0024612336749963272 -0.002077289700100185 -0.0003839439748961427 0.001832755779491619 0.0 0.0
0.0 0.001493371492430204 0.0011485454113467318 -0.0009354690969995017 -0.00021307631434722962 0.000980773779026224 0.0 0.0
0.0 0.0004987596981124347 0.00032482288824629656 -0.00025739238497972134 -6.743050326657503e-05 0.0003459771613047625 0.0 0.0
0.0 6.742645318588192e-05 3.492561985778761e-05 -2.7640807203774976e-05 -7.284812654012676e-06 5.349864122793419e-05 0.0 0.0
0.0 1.0042081989081814e-05 -9.329724215460563e-07 7.201815348328094e-07 2.127908867132563e-07 -1.7612736880608109e-06 0.0 0.0
0.0 0.0 0.0 0.0 0.0 0.0 0.0 0.0
0.0 0.0 0.0 0.0 0.0 0.0 0.0 0.0
0.0 0.0 0.0 0.0 0.0 0.0 0.0 0.0
0.0 0.0011798423149512504 0.0006789011471260805 -0.0008742232203980663 0.0001953220732719857 0.0009686096369186565 0.0 0.0
0.0 0.0006351154397055314 0.00033382214744496385 -0.00044285314003231007 0.00010903099258734621 -0.0004927720999278435 0.0 0.0
0.0 0.0 0.0 0.0 0.0 0.0 0.0 0.0
0.0 0.0 0.0 0.0 0.0 0.0 0.0 0.0
0.0 0.0 0.0 0.0 0.0 0.0 0.0 0.0
0.0 3.1613189767086014e-06 -2.2524151938286448e-07 1.7083701737073144e-07 5.440450201212877e-08 5.898380239102724e-07 0.0 0.0
0.0 3.787228308878062e-05 3.2861365820396493e-06 -2.619701162071626e-06 -6.664354199680492e-07 -6.674339372639622e-06 0.0 0.0
0.0 0.00021260404341376203 0.00011401515813459686 -9.007335220089809e-05 -2.3941805933698735e-05 -0.00019334731260609166 0.0 0.0
0.0 0.0008215014153606574 0.0005572146342946678 -0.00044482584933003917 -0.0001123887849646282 -0.0006873750746476955 0.0 0.0
0.0 0.0019045641847433696 0.0014468834376625181 -0.0011898629032440612 -0.0002570205344184563 -0.001458892740145924 0.0 0.0
0.0 0.0033281720017894526 0.0027023920802869677 -0.002294928914334322 -0.0004074631659526457 -0.002392144559310258 0.0 0.0
0.0 0.0050814299234776756 0.004222633093125984 -0.003689850334951957 -0.0005327827581740268 -0.003352259410851611 0.0 0.0
0.0 0.007233735695414047 0.006051473776782472 -0.005413884840150172 -0.0006375889366323007 -0.004317524093704838 0.0 0.0
0.0 0.009947840065825692 0.00832237916425071 -0.00759819156772692 -0.0007241875965237876 -0.005393426906366905 0.0 0.0
0.0 0.013347178206873474 0.011201968442789555 -0.010404062671760918 -0.0007979057710286302 -0.0066860508334742755 0.0 0.0
0.0 0.017631312590092412 0.014798089602687197 -0.013937382400758733 -0.0008607072019284599 -0.008202093816052304 0.0 0.0
0.0 0.02273129902240888 0.019113743529861768 -0.01819463017156684 -0.0009191133582949182 -0.009769599809413946 0.0 0.0
0.0 0.028364261360081265 0.024000900669079603 -0.023028093422025872 -0.000972807247053729 -0.011007210099114756 0.0 0.0
0.0 0.03426187443124299 0.029187594978181568 -0.028164247386344887 -0.0010233475918366862 -0.011311894540432542 0.0 0.0
0.0 0.039931739787910585 0.03422967799153584 -0.03315400341047474 -0.0010756745810610873 -0.00987450590477556 0.0 0.0
0.0 0.0443421749336047 0.03829523234550218 -0.03716882355027824 -0.001126408795223934 -0.005604727092001861 0.0 0.0
0.0 0.044342174933602936 0.038295232345500044 -0.0371688235502762 -0.0011264087952238388 0.005604727092020379 0.0 0.0
0.0 0.039931739787906304 0.034229677991530205 -0.0331540034104693 -0.001075674581060889 0.009874505904801472 0.0 0.0
0.0 0.03426187443123649 0.029187594978173963 -0.028164247386337486 -0.0010233475918364767 0.011311894540450987 0.0 0.0
0.0 0.02836426136007189 0.024000900669070367 -0.023028093422016976 -0.0009728072470533998 0.011007210099121298 0.0 0.0
0.0 0.022731299022396814 0.01911374352985135 -0.018194630171556737 -0.0009191133582946118 0.00976959980941022 0.0 0.0
0.0 0.017631312590078923 0.014798089602675707 -0.013937382400747393 -0.0008607072019283145 0.00820209381604729 0.0 0.0
0.0 0.01334717820686274 0.011201968442780076 -0.010404062671751802 -0.000797905771028272 0.006686050833471402 0.0 0.0
0.0 0.009947840065816208 0.008322379164242154 -0.007598191567718926 -0.0007241875965232276 0.005393426906364558 0.0 0.0
0.0 0.007233735695403011 0.006051473776772835 -0.005413884840141315 -0.0006375889366315193 0.004317524093699118 0.0 0.0
0.0 0.005081429923465202 0.004222633093115605 -0.0036898503349422985 -0.0005327827581733048 0.003352259410843503 0.0 0.0
0.0 0.003328172001778822 0.0027023920802783925 -0.0022949289143266395 -0.00040746316595175256 0.0023921445593018125 0.0 0.0
0.0 0.0019045641847354152 0.0014468834376563156 -0.0011898629032387274 -0.00025702053441758766 0.0014588927401406732 0.0 0.0
0.0 0.0008215014153556033 0.0005572146342911088 -0.0004448258493271919 -0.00011238878496391739 0.0006873750746439653 0.0 0.0
0.0 0.00021260404341193797 0.0001140151581337725 -9.007335220024609e-05 -2.3941805933526248e-05 0.00019334731260484638 0.0 0.0
0.0 3.787228308814567e-05 3.2861365820944693e-06 -2.6197011621142413e-06 -6.664354199801693e-07 6.67433937275659e-06 0.0 0.0
0.0 3.161318976189613e-06 -2.2524151934812776e-07 1.7083701734378719e-07 5.4404502004334224e-08 -5.898380238126453e-07 0.0 0.0
0.0 0.0 0.0 0.0 0.0 0.0 0.0 0.0
0.0 0.0 0.0 0.0 0.0 0.0 0.0 0.0
0.0 0.0 0.0 0.0 0.0 0.0 0.0 0.0
0.0 0.0006351154397011287 0.0003338221474427915 -0.00044285314002958883 0.00010903099258679737 0.0004927720999244498 0.0 0.0
0.0 0.0002757241207443124 0.0001154260737952753 -0.00015862722041727473 4.3201146621999666e-05 -0.0001725210377347568 0.0 0.0
0.0 9.021725963171627e-08 -5.274566123778698e-10 6.099197200343717e-10 -8.24631076566411e-11 1.7958020711408732e-08 0.0 0.0
0.0 0.0 0.0 0.0 0.0 0.0 0.0 0.0
0.0 0.0 0.0 0.0 0.0 0.0 0.0 0.0
0.0 2.941446764786285e-06 -1.3952363807393717e-07 1.0592787567314353e-07 3.3595762400780106e-08 5.885360677433528e-07 0.0 0.0
0.0 2.224282265327006e-05 1.4856741977587386e-06 -1.1149873556441125e-06 -3.706868421146258e-07 -3.838083266793728e-06 0.0 0.0
0.0 0.00010392833629605287 3.8123634103844635e-05 -2.9936713012682367e-05 -8.186921091162292e-06 -0.00010279710808493973 0.0 0.0
0.0 0.00035081599023679565 0.0001841068739467032 -0.00014490633023415774 -3.92005437125455e-05 -0.00037962937946279943 0.0 0.0
0.0 0.0009933493327221677 0.0006152946935853915 -0.0004925317928124916 -0.00012276290077289974 -0.0009398550955701902 0.0 0.0
0.0 0.0018885147460245295 0.001404757860862879 -0.0011543463459976373 -0.0002504115148652416 -0.0017580993871851448 0.0 0.0
0.0 0.00320693670022419 0.0024407344220605826 -0.0020659765017317063 -0.00037475792032887613 -0.0026664638822774455 0.0 0.0
0.0 0.004687305628761146 0.0037139209517915756 -0.003227513941190449 -0.00048640701060112713 -0.003609945093102598 0.0 0.0
0.0 0.006568150601992045 0.005290452309469066 -0.004706954106376453 -0.0005834982030926104 -0.004624263088143685 0.0 0.0
0.0 0.008994218281472682 0.007294706559546705 -0.006629321534867642 -0.0006653850246790615 -0.005783221511436274 0.0 0.0
0.0 0.012107567784666297 0.009830025987759925 -0.009097164654771561 -0.0007328613329883647 -0.007109044777102905 0.0 0.0
0.0 0.015826314607478516 0.012940108852367495 -0.012152612745327649 -0.000787496107039845 -0.008498324079495502 0.0 0.0
0.0 0.020160250692011703 0.016586105179926973 -0.015750765761095215 -0.000835339418831755 -0.00963796399701476 0.0 0.0
0.0 0.024724717287949415 0.02065004177529224 -0.019775110389740964 -0.0008749313855512692 -0.010082347912514309 0.0 0.0
0.0 0.029399488870441165 0.024947692798181504 -0.024037554145063287 -0.0009101386531182015 -0.009223918322675254 0.0 0.0
0.0 0.03362310051210066 0.02894066747159515 -0.027980847357636587 -0.0009598201139585604 -0.005743233247335919 0.0 0.0
0.0 0.033623100512099 0.02894066747159308 -0.02798084735763425 -0.0009598201139588252 0.005743233247350647 0.0 0.0
0.0 0.029399488870439257 0.024947692798177826 -0.02403755414505963 -0.0009101386531181997 0.009223918322696945 0.0 0.0
0.0 0.024724717287945366 0.020650041775286745 -0.019775110389735936 -0.0008749313855508134 0.01008234791252929 0.0 0.0
0.0 0.020160250692006033 0.016586105179921123 -0.015750765761089948 -0.0008353394188311729 0.00963796399701914 0.0 0.0
0.0 0.015826314607471054 0.012940108852361142 -0.012152612745321877 -0.0007874961070392643 0.008498324079492418 0.0 0.0
0.0 0.012107567784657654 0.009830025987752684 -0.009097164654764716 -0.0007328613329879645 0.007109044777099019 0.0 0.0
0.0 0.00899421828146575 0.0072947065595407 -0.006629321534862019 -0.0006653850246786808 0.005783221511434121 0.0 0.0
0.0 0.006568150601985508 0.005290452309463239 -0.004706954106371049 -0.0005834982030921893 0.004624263088141572 0.0 0.0
0.0 0.004687305628754249 0.003713920951785899 -0.003227513941185198 -0.00048640701060070104 0.0036099450930980664 0.0 0.0
0.0 0.0032069367002175667 0.002440734422055302 -0.002065976501727151 -0.0003747579203281508 0.0026664638822720276 0.0 0.0
0.0 0.0018885147460180663 0.0014047578608582534 -0.0011543463459937455 -0.00025041151486450766 0.0017580993871793332 0.0 0.0
0.0 0.0009933493327179633 0.0006152946935824637 -0.0004925317928100952 -0.0001227629007723687 0.0009398550955668564 0.0 0.0
0.0 0.00035081599023413474 0.00018410687394517362 -0.00014490633023292918 -3.920054371224432e-05 0.0003796293794602434 0.0 0.0
0.0 0.0001039283362947418 3.8123634103571565e-05 -2.993671301246156e-05 -8.186921091110052e-06 0.00010279710808422118 0.0 0.0
0.0 2.224282265275902e-05 1.485674197750641e-06 -1.1149873556382377e-06 -3.706868421123796e-07 3.838083266791464e-06 0.0 0.0
0.0 2.9414467642801842e-06 -1.3952363805020315e-07 1.0592787565476392e-07 3.359576239544616e-08 -5.885360676368125e-07 0.0 0.0
0.0 0.0 0.0 0.0 0.0 0.0 0.0 0.0
0.0 0.0 0.0 0.0 0.0 0.0 0.0 0.0
0.0 9.021725939530122e-08 -5.274566109826295e-10 6.099197184208691e-10 -8.246310743827494e-11 -1.7958020663926448e-08 0.0 0.0
0.0 0.0002757241207416732 0.00011542607379435168 -0.00015862722041602218 4.3201146621670746e-05 0.0001725210377335061 0.0 0.0
0.0 6.587065856919242e-05 2.3487295696501695e-05 -3.371425052554103e-05 1.0226954829039382e-05 -3.7210002670055425e-05 0.0 0.0
0.0 1.6538167115190833e-06 -2.748905065804631e-09 7.58763272979475e-09 -4.838727663989611e-09 3.533900715791832e-07 0.0 0.0
0.0 0.0 0.0 0.0 0.0 0.0 0.0 0.0
0.0 0.0 0.0 0.0 0.0 0.0 0.0 0.0
0.0 3.0628381032312882e-06 -6.90575449801798e-08 5.370267077264668e-08 1.5354874207528902e-08 6.580753880870616e-07 0.0 0.0
0.0 1.669848219022137e-05 -6.754141313248215e-07 5.129785862136518e-07 1.624355451111653e-07 4.126874192703304e-06 0.0 0.0
0.0 7.125574692725579e-05 1.4125194757033527e-05 -1.1133105153408133e-05 -2.992089603625356e-06 -6.716732550965214e-05 0.0 0.0
0.0 0.0001667365234320413 6.01992655181428e-05 -4.73929786765647e-05 -1.2806286841578109e-05 -0.00024030840589987237 0.0 0.0
0.0 0.00039605905845660326 0.00015637919880414508 -0.00012339586166194952 -3.2983337142195555e-05 -0.00048767443212082204 0.0 0.0
0.0 0.0007874429971059162 0.0004043301765634458 -0.00032043567749709314 -8.389449906635264e-05 -0.0009632655276249183 0.0 0.0
0.0 0.0014239758624144433 0.0008917871972242827 -0.0007210621246675553 -0.0001707250725567272 -0.001660265082495911 0.0 0.0
0.0 0.002353398080267342 0.0015652978495684974 -0.0012985333981191999 -0.0002667644514492972 -0.002460423499572205 0.0 0.0
0.0 0.003498192508312881 0.0024480955071194935 -0.0020829220287313507 -0.0003651734783881417 -0.0033816726304756266 0.0 0.0
0.0 0.0049791131174395905 0.0035993518468090653 -0.0031406822879455256 -0.0004586695588635396 -0.004390345409527148 0.0 0.0
0.0 0.006867833556222394 0.005088331254092333 -0.004548326351557021 -0.0005400049025353109 -0.005486350214879095 0.0 0.0
0.0 0.009220287549584122 0.006978765494964782 -0.006373785548195033 -0.0006049799467697503 -0.0066282807964482045 0.0 0.0
0.0 0.012119623984494215 0.009336639329155445 -0.008681723535592304 -0.0006549157935631428 -0.007654438594300736 0.0 0.0
0.0 0.015439293474231671 0.012192988412567364 -0.011494258941552008 -0.0006987294710153597 -0.008143129077699832 0.0 0.0
0.0 0.01915747203435892 0.015545792040654885 -0.014825112027884724 -0.0007206800127701662 -0.007791795849085245 0.0 0.0
0.0 0.023048460427244594 0.019315816119595805 -0.018557522980639837 -0.0007582931389559667 -0.005577853119718477 0.0 0.0
0.0 0.023048460427245645 0.019315816119595854 -0.01855752298063993 -0.0007582931389559344 0.005577853119729931 0.0 0.0
0.0 0.019157472034359274 0.015545792040653098 -0.01482511202788313 -0.0007206800127699641 0.007791795849102621 0.0 0.0
0.0 0.015439293474230368 0.012192988412564207 -0.011494258941549275 -0.0006987294710149333 0.00814312907771206 0.0 0.0
0.0 0.0121196239844902 0.00933663932915135 -0.008681723535588666 -0.0006549157935626843 0.00765443859430282 0.0 0.0
0.0 0.009220287549578226 0.006978765494960472 -0.006373785548191169 -0.0006049799467693033 0.006628280796443613 0.0 0.0
0.0 0.006867833556215927 0.005088331254087501 -0.004548326351552487 -0.0005400049025350114 0.005486350214874293 0.0 0.0
0.0 0.004979113117436594 0.003599351846806528 -0.0031406822879432826 -0.00045866955886324483 0.004390345409525551 0.0 0.0
0.0 0.003498192508309573 0.0024480955071165236 -0.002082922028728716 -0.0003651734783878071 0.00338167263047404 0.0 0.0
0.0 0.0023533980802624655 0.0015652978495649945 -0.0012985333981162727 -0.00026676445144872097 0.002460423499568146 0.0 0.0
0.0 0.001423975862410113 0.0008917871972215371 -0.0007210621246653023 -0.00017072507255623447 0.0016602650824914383 0.0 0.0
0.0 0.0007874429971015064 0.0004043301765611279 -0.00032043567749520684 -8.389449906592103e-05 0.0009632655276200035 0.0 0.0
0.0 0.0003960590584550199 0.0001563791988034675 -0.0001233958616614189 -3.2983337142048504e-05 0.0004876744321189063 0.0 0.0
0.0 0.00016673652343089678 6.0199265517792985e-05 -4.739297867628893e-05 -1.2806286841504038e-05 0.00024030840589857268 0.0 0.0
0.0 7.1255746926548e-05 1.4125194756902992e-05 -1.1133105153302154e-05 -2.992089603600809e-06 6.716732550905304e-05 0.0 0.0
0.0 1.6698482189740015e-05 -6.75414131304937e-07 5.129785861990805e-07 1.624355451058679e-07 -4.126874192569552e-06 0.0 0.0
0.0 3.062838102718457e-06 -6.905754496692381e-08 5.3702670762761436e-08 1.535487420416051e-08 -6.580753879724068e-07 0.0 0.0
0.0 0.0 0.0 0.0 0.0 0.0 0.0 0.0
0.0 0.0 0.0 0.0 0.0 0.0 0.0 0.0
0.0 1.65381671108306e-06 -2.7489050652915605e-09 7.587632727915323e-09 -4.8387276626236715e-09 -3.5339007148384286e-07 0.0 0.0
0.0 6.587065856802964e-05 2.3487295696425262e-05 -3.371425052539945e-05 1.0226954828974184e-05 3.721000267012469e-05 0.0 0.0
0.0 8.108121260514177e-06 -3.4751260211582374e-07 4.810300787919511e-07 -1.3351747667612065e-07 7.916476148190378e-07 0.0 0.0
0.0 2.1979396482406107e-06 1.1868574056845524e-09 1.0883559240507842e-08 -1.207041664619258e-08 4.588111399241068e-07 0.0 0.0
0.0 8.28283976103979e-07 8.757322001854407e-09 -7.994197467743662e-09 -7.631245341108108e-10 1.6872916499049268e-07 0.0 0.0
0.0 1.0341171999299922e-06 3.4830124123105497e-09 -4.631541757330647e-09 1.1485293450206947e-09 2.129476539670559e-07 0.0 0.0
0.0 5.455561020512527e-06 -1.877319191668789e-08 9.400339741409076e-09 9.372852175272426e-09 1.2338249442580408e-06 0.0 0.0
0.0 1.2649162497038722e-05 -1.4081635774303978e-07 1.0163524973800948e-07 3.918110800504046e-08 3.1244596390103373e-06 0.0 0.0
0.0 5.2959091415099874e-05 4.1811704853146374e-06 -3.281781618685566e-06 -8.99388866629072e-07 -6.305346233337122e-05 0.0 0.0
0.0 0.0001467246008088118 1.371985534017018e-05 -1.0768828676411364e-05 -2.9510266637587844e-06 -0.00016464047324878057 0.0 0.0
0.0 0.0002452047622965965 3.6103280948293645e-05 -2.8409927928800054e-05 -7.693353019493592e-06 -0.00035563319784970797 0.0 0.0
0.0 0.00042840699368058654 6.981402847412184e-05 -5.509622625478938e-05 -1.4717802219332446e-05 -0.0005799579792430392 0.0 0.0
0.0 0.0005823039793571118 0.0001314300478101597 -0.00010450189362523857 -2.6928154184921114e-05 -0.0009657554905948037 0.0 0.0
0.0 0.0008767286166447132 0.00021679813748242988 -0.00017400949211236072 -4.2788645370069056e-05 -0.0014419273144049122 0.0 0.0
0.0 0.001313000782251152 0.00038038876265953335 -0.0003046672951111127 -7.572146754842055e-05 -0.0020935888354876027 0.0 0.0
0.0 0.0019427663467370803 0.0006421433060554201 -0.0005171033795540579 -0.00012503992650136203 -0.0029415900460708793 0.0 0.0
0.0 0.0027607322658913854 0.0010253513532165414 -0.0008362975257280164 -0.0001890538274885245 -0.003989211258648782 0.0 0.0
0.0 0.0038484134453988885 0.0016113916277128695 -0.0013524773111918149 -0.00025891431652105373 -0.005161354161811709 0.0 0.0
0.0 0.005300497453777468 0.0025952624453765673 -0.0022736161762093687 -0.0003216462691671983 -0.006258420281304023 0.0 0.0
0.0 0.007184982656206193 0.004166582531023438 -0.003775894286623121 -0.000390688244400315 -0.006832345673614415 0.0 0.0
0.0 0.009542444155199717 0.0063928159627703466 -0.005930280043938751 -0.0004625359188315943 -0.0064768780586773 0.0 0.0
0.0 0.012667955196494501 0.009497225250006038 -0.009033240427157403 -0.00046398482284863083 -0.00529789472310798 0.0 0.0
0.0 0.012667955196496094 0.009497225250006716 -0.009033240427158244 -0.00046398482284846923 0.005297894723115061 0.0 0.0
0.0 0.009542444155201828 0.006392815962770042 -0.005930280043938565 -0.00046253591883147236 0.006476878058689861 0.0 0.0
0.0 0.00718498265620471 0.004166582531020741 -0.003775894286620442 -0.0003906882444002974 0.006832345673621479 0.0 0.0
0.0 0.005300497453775265 0.002595262445375205 -0.002273616176207964 -0.00032164626916724104 0.0062584202813027266 0.0 0.0
0.0 0.0038484134453965115 0.0016113916277116934 -0.0013524773111907335 -0.0002589143165209591 0.0051613541618086315 0.0 0.0
0.0 0.002760732265889022 0.0010253513532155365 -0.0008362975257271511 -0.00018905382748838552 0.003989211258645498 0.0 0.0
0.0 0.0019427663467355529 0.0006421433060548789 -0.0005171033795535727 -0.00012503992650130622 0.0029415900460690305 0.0 0.0
0.0 0.0013130007822502374 0.00038038876265927417 -0.0003046672951109875 -7.572146754828652e-05 0.002093588835486246 0.0 0.0
0.0 0.0008767286166424792 0.00021679813748191898 -0.00017400949211192844 -4.2788645369990505e-05 0.001441927314401246 0.0 0.0
0.0 0.0005823039793555298 0.00013143004780984008 -0.00010450189362498421 -2.692815418485588e-05 0.0009657554905917749 0.0 0.0
0.0 0.00042840699367886845 6.981402847391858e-05 -5.509622625463054e-05 -1.4717802219287986e-05 0.0005799579792406068 0.0 0.0
0.0 0.000245204762295831 3.610328094820421e-05 -2.8409927928741792e-05 -7.693353019462387e-06 0.0003556331978486711 0.0 0.0
0.0 0.00014672460080822732 1.3719855340119608e-05 -1.0768828676379909e-05 -2.951026663739694e-06 0.00016464047324805944 0.0 0.0
0.0 5.295909141448888e-05 4.181170485283159e-06 -3.2817816186587787e-06 -8.99388866624371e-07 6.305346233291613e-05 0.0 0.0
0.0 1.264916249658675e-05 -1.4081635773777134e-07 1.0163524973414598e-07 3.918110800362112e-08 -3.1244596388847664e-06 0.0 0.0
0.0 5.4555610200182124e-06 -1.87731919147807e-08 9.400339740515117e-09 9.372852174262189e-09 -1.2338249441362645e-06 0.0 0.0
0.0 1.0341171994111593e-06 3.4830124097744975e-09 -4.63154175459075e-09 1.1485293448161685e-09 -2.1294765385734702e-07 0.0 0.0
0.0 8.282839756553083e-07 8.757321996808003e-09 -7.99419746324245e-09 -7.631245335657651e-10 -1.687291648967851e-07 0.0 0.0
0.0 2.1979396476663126e-06 1.1868574058352821e-09 1.0883559236708018e-08 -1.2070416642541689e-08 -4.588111397997392e-07 0.0 0.0
0.0 8.108121260065055e-06 -3.475126019886334e-07 4.810300786062034e-07 -1.335174766176192e-07 -7.916476145717102e-07 0.0 0.0
0.0 1.1154274967154838e-06 -6.940272927065707e-08 1.0140536005932445e-07 -3.2002630788669234e-08 1.5472886577778056e-07 0.0 0.0
0.0 1.7796170291698353e-06 6.777231581667589e-09 2.818520896233413e-09 -9.595752477896557e-09 3.8083891622846305e-07 0.0 0.0
0.0 1.006612653282911e-06 1.8800037151531995e-08 -1.6160969127413305e-08 -2.6390680241173787e-09 2.0557945423080885e-07 0.0 0.0
0.0 1.3830639415008088e-06 2.5459537940910303e-08 -2.257136934973081e-08 -2.8881685911793595e-09 2.8364822182210734e-07 0.0 0.0
0.0 6.329568723119171e-06 1.2100159608371412e-07 -9.95749289913299e-08 -2.1426667092374816e-08 1.450807040856032e-06 0.0 0.0
0.0 1.6603222805893222e-05 2.923750411414829e-07 -2.3536244238636934e-07 -5.701259875511966e-08 4.230645678701024e-06 0.0 0.0
0.0 5.445913457976746e-05 -4.414945511748248e-06 3.516029515380762e-06 8.989159963674737e-07 -6.321134251124764e-05 0.0 0.0
0.0 0.0001468571588516726 -1.3675624218780781e-05 1.07324372941742e-05 2.943186924606541e-06 -0.00016470145838070222 0.0 0.0
0.0 0.00024483190403668106 -3.585059489568859e-05 2.8187918640934555e-05 7.662676254754017e-06 -0.000355337527189116 0.0 0.0
0.0 0.00042807650636571227 -6.955370031150292e-05 5.485941867936979e-05 1.4694281632133213e-05 -0.0005797131483032806 0.0 0.0
0.0 0.0005831862422792009 -0.00013107881569669793 0.00010425443586411712 2.6824379832580776e-05 -0.0009652833763845639 0.0 0.0
0.0 0.0008770660240451771 -0.00021723152894637283 0.00017461894179680518 4.261258714956755e-05 -0.0014419099339685155 0.0 0.0
0.0 0.0013162180218118601 -0.0003851714102357147 0.00030922834690726733 7.594306332844744e-05 -0.0020939192616932193 0.0 0.0
0.0 0.0019526799335962781 -0.0006528577413764738 0.0005255707313272387 0.0001272870100492349 -0.0029445242969288418 0.0 0.0
0.0 0.002754744807447855 -0.0010103397692158055 0.0008165688227683278 0.00019377094644747696 -0.004000735067940921 0.0 0.0
0.0 0.003719293654540984 -0.0013871317380233354 0.0011229717907977608 0.00026415994722557367 -0.0052179711335802025 0.0 0.0
0.0 0.004679934857306533 -0.0016133922965583052 0.0012939132846478292 0.00031947901191047533 -0.006584949503967129 0.0 0.0
0.0 0.005481080390462799 -0.001420975107057609 0.001074869018874831 0.000346106088182778 -0.008045308430223818 0.0 0.0
0.0 0.005785171071390082 -0.0006639147223296452 0.0004208738677432823 0.00024304085458636243 -0.009180746128410175 0.0 0.0
0.0 0.005347502534915238 0.0012197110036582044 -0.0012992644752048406 7.955347154663616e-05 -0.007829192450848406 0.0 0.0
0.0 0.005347502534918289 0.001219711003658284 -0.0012992644752049718 7.955347154668701e-05 0.007829192450855251 0.0 0.0
0.0 0.00578517107139373 -0.0006639147223299418 0.0004208738677434473 0.00024304085458649402 0.009180746128417707 0.0 0.0
0.0 0.005481080390462821 -0.0014209751070571605 0.0010748690188745378 0.00034610608818262174 0.008045308430226656 0.0 0.0
0.0 0.004679934857304643 -0.0016133922965576603 0.0012939132846473923 0.00031947901191026857 0.006584949503964531 0.0 0.0
0.0 0.0037192936545373933 -0.0013871317380214424 0.0011229717907961317 0.00026415994722531053 0.00521797113357581 0.0 0.0
0.0 0.0027547448074444042 -0.0010103397692141696 0.0008165688227669548 0.0001937709464472147 0.004000735067937197 0.0 0.0
0.0 0.0019526799335942572 -0.0006528577413755534 0.0005255707313264997 0.00012728701004905376 0.002944524296926186 0.0 0.0
0.0 0.0013162180218098756 -0.0003851714102344577 0.000309228346906303 7.59430633281546e-05 0.002093919261691214 0.0 0.0
0.0 0.0008770660240422874 -0.00021723152894537716 0.000174618941795904 4.2612587149473096e-05 0.0014419099339643745 0.0 0.0
0.0 0.0005831862422773447 -0.00013107881569606372 0.00010425443586361242 2.6824379832451322e-05 0.000965283376381483 0.0 0.0
0.0 0.00042807650636345876 -6.95537003109599e-05 5.485941867890724e-05 1.469428163205265e-05 0.0005797131482999927 0.0 0.0
0.0 0.0002448319040359977 -3.585059489552648e-05 2.8187918640814696e-05 7.66267625471177e-06 0.0003553375271882653 0.0 0.0
0.0 0.00014685715885095113 -1.3675624218692581e-05 1.0732437294102764e-05 2.9431869245898094e-06 0.00016470145837999938 0.0 0.0
0.0 5.445913457918422e-05 -4.414945511718536e-06 3.5160295153648894e-06 8.989159963536385e-07 6.321134251084477e-05 0.0 0.0
0.0 1.6603222805341956e-05 2.923750411306663e-07 -2.3536244237751912e-07 -5.701259875313553e-08 -4.2306456785429164e-06 0.0 0.0
0.0 6.329568722502479e-06 1.210015960720766e-07 -9.957492898152986e-08 -2.142666709055061e-08 -1.4508070407032778e-06 0.0 0.0
0.0 1.38306394101384e-06 2.5459537931086613e-08 -2.257136934122153e-08 -2.8881685898646692e-09 -2.8364822171881803e-07 0.0 0.0
0.0 1.0066126526757192e-06 1.8800037139368483e-08 -1.616096911716342e-08 -2.639068022204588e-09 -2.0557945410441137e-07 0.0 0.0
0.0 1.7796170285604457e-06 6.777231579867834e-09 2.8185208935578717e-09 -9.595752473420792e-09 -3.808389160997736e-07 0.0 0.0
0.0 1.1154274964526031e-06 -6.940272925345171e-08 1.0140536003419192e-07 -3.2002630780733594e-08 -1.5472886573936063e-07 0.0 0.0
0.0 0.0 0.0 0.0 0.0 0.0 0.0 0.0
0.0 1.5710527121896345e-07 1.3280899262144232e-09 -5.741504665692977e-10 -7.539394596450155e-10 3.144508494451769e-08 0.0 0.0
0.0 1.1358547083526696e-06 2.9199022431040485e-08 -2.4414515400477513e-08 -4.784507030563987e-09 2.311035997749412e-07 0.0 0.0
0.0 4.433390297608247e-06 1.6015753021184142e-07 -1.3149237797340506e-07 -2.8665152238422848e-08 9.6169292488308e-07 0.0 0.0
0.0 5.593573495776328e-06 2.248805082958022e-07 -1.7833069165734527e-07 -4.654981663844911e-08 1.2502688499167775e-06 0.0 0.0
0.0 2.075309957605414e-05 -1.257252328413634e-06 9.318542329784075e-07 3.253980954351895e-07 -5.263432382965021e-06 0.0 0.0
0.0 7.591430090562082e-05 -1.4602228641448363e-05 1.1558873160668953e-05 3.0433554807793874e-06 -6.848797759763381e-05 0.0 0.0
0.0 0.00016727216353438235 -6.012419273040262e-05 4.734202763698151e-05 1.2782165093421068e-05 -0.0002404145041321206 0.0 0.0
0.0 0.0003941638550740304 -0.00015604368661928408 0.0001230840004583454 3.29596861609386e-05 -0.00048705853948251683 0.0 0.0
0.0 0.0007855661249764206 -0.00040364106582441584 0.00031983613323375426 8.380493259066145e-05 -0.0009624638375406349 0.0 0.0
0.0 0.0014231246857847554 -0.0008913581421246281 0.0007207004495797243 0.00017065769254490356 -0.0016602917612469823 0.0 0.0
0.0 0.0023543932582629026 -0.0015667485651802218 0.0013001257882979038 0.00026662277688231737 -0.002459917348339174 0.0 0.0
0.0 0.0035057613638759242 -0.002457160570580737 0.002092196166884636 0.00036496440369610016 -0.00337507027865433 0.0 0.0
0.0 0.005000686701877565 -0.0036206519926370723 0.0031606589474033487 0.0004599930452337229 -0.004382605366678771 0.0 0.0
0.0 0.006873219555108032 -0.0050761639438812855 0.0045286707377055315 0.0005474932061757505 -0.00553128613506242 0.0 0.0
0.0 0.009027146731937687 -0.0067201868940623905 0.006096559456158662 0.0006236274379037256 -0.006894923329215514 0.0 0.0
0.0 0.011191979492487028 -0.00825972022875511 0.007570084713593544 0.0006896355151615684 -0.008487010779806826 0.0 0.0
0.0 0.012787326159500829 -0.009198351065123704 0.008455172609328022 0.000743178455795679 -0.01018678152078103 0.0 0.0
0.0 0.01259383775472096 -0.008672227941788012 0.007854280140038552 0.0008179478017494575 -0.010880421755017805 0.0 0.0
0.0 0.009193750327107321 -0.005487117650650092 0.00468224962267562 0.0008048680279744702 -0.008665496991704609 0.0 0.0
0.0 0.00919375032711229 -0.005487117650651931 0.004682249622677451 0.0008048680279744801 0.008665496991714379 0.0 0.0
0.0 0.012593837754727541 -0.008672227941790293 0.007854280140041161 0.0008179478017491277 0.010880421755033513 0.0 0.0
0.0 0.01278732615950176 -0.009198351065122675 0.008455172609327474 0.0007431784557952006 0.010186781520789848 0.0 0.0
0.0 0.011191979492480086 -0.008259720228749014 0.0075700847135878255 0.0006896355151611877 0.008487010779805704 0.0 0.0
0.0 0.009027146731929286 -0.006720186894055643 0.006096559456152276 0.0006236274379033676 0.006894923329209925 0.0 0.0
0.0 0.00687321955510122 -0.005076163943875671 0.004528670737700408 0.000547493206175262 0.005531286135058338 0.0 0.0
0.0 0.005000686701870513 -0.0036206519926314934 0.003160658947398357 0.0004599930452331357 0.0043826053666743865 0.0 0.0
0.0 0.003505761363869848 -0.0024571605705754544 0.0020921961668799584 0.0003649644036954954 0.0033750702786509716 0.0 0.0
0.0 0.0023543932582556094 -0.0015667485651749144 0.00130012578829334 0.00026662277688157475 0.0024599173483338616 0.0 0.0
0.0 0.0014231246857779297 -0.0008913581421201486 0.0007207004495759859 0.00017065769254416248 0.0016602917612409786 0.0 0.0
0.0 0.000785566124971677 -0.0004036410658218171 0.0003198361332316873 8.380493259012959e-05 0.0009624638375357865 0.0 0.0
0.0 0.0003941638550721329 -0.00015604368661831347 0.00012308400045755858 3.295968616075489e-05 0.0004870585394805439 0.0 0.0
0.0 0.00016727216353321832 -6.012419272998756e-05 4.7342027636657104e-05 1.2782165093330454e-05 0.0002404145041308031 0.0 0.0
0.0 7.591430090479143e-05 -1.4602228641311708e-05 1.1558873160566694e-05 3.0433554807449674e-06 6.848797759703376e-05 0.0 0.0
0.0 2.075309957552132e-05 -1.2572523284351825e-06 9.318542329959247e-07 3.253980954392595e-07 5.263432383095869e-06 0.0 0.0
0.0 5.59357349524175e-06 2.2488050827509277e-07 -1.7833069164048388e-07 -4.6549816634625795e-08 -1.250268849792875e-06 0.0 0.0
0.0 4.433390297146278e-06 1.6015753019507324e-07 -1.3149237795953612e-07 -2.8665152235533242e-08 -9.61692924777465e-07 0.0 0.0
0.0 1.1358547078605477e-06 2.919902241766033e-08 -2.441451538947173e-08 -4.7845070281886985e-09 -2.3110359967327132e-07 0.0 0.0
0.0 1.5710527106426096e-07 1.3280899248879184e-09 -5.741504659949382e-10 -7.53939458893311e-10 -3.144508491313459e-08 0.0 0.0
0.0 0.0 0.0 0.0 0.0 0.0 0.0 0.0
0.0 0.0 0.0 0.0 0.0 0.0 0.0 0.0
0.0 0.0 0.0 0.0 0.0 0.0 0.0 0.0
0.0 2.3595770756542535e-06 8.103527067074457e-08 -6.628456757845172e-08 -1.4750703092293867e-08 4.821090557083344e-07 0.0 0.0
0.0 6.5906872819304125e-06 3.108815427979235e-07 -2.5702362177301864e-07 -5.385792102489637e-08 1.4093816020137892e-06 0.0 0.0
0.0 8.453077863438655e-06 4.605982898181774e-08 -4.8761473082978144e-08 2.7016441011700973e-09 4.00476650687476e-07 0.0 0.0
0.0 2.9948098958775184e-05 -3.00251374220479e-06 2.420265513813294e-06 5.822482283914734e-07 -9.43589802901636e-06 0.0 0.0
0.0 0.0001124354995753108 -3.926206471712716e-05 3.091723375149904e-05 8.344830965628118e-06 -0.00010555836431878108 0.0 0.0
0.0 0.0003516852397539844 -0.0001840301876038974 0.00014485712339541143 3.9173064208486e-05 -0.0003796424375597177 0.0 0.0
0.0 0.0009893997258349984 -0.0006134746066415674 0.0004909460972787758 0.00012252850936279148 -0.0009372124360968958 0.0 0.0
0.0 0.0018858918558783255 -0.0014035939759681226 0.0011532320985732129 0.0002503618773949097 -0.0017564395928529586 0.0 0.0
0.0 0.0032065671031773447 -0.0024406079159386435 0.002065791948381808 0.00037481596755683546 -0.002666844338416893 0.0 0.0
0.0 0.004687558821462609 -0.0037141722288538655 0.003227979371065443 0.00048619285778842133 -0.003608259086839463 0.0 0.0
0.0 0.006568954149340247 -0.005295369232718317 0.004712755150802887 0.0005826140819154289 -0.004605390538587969 0.0 0.0
0.0 0.009003864718774277 -0.0073132329071098024 0.006647817699260261 0.0006654152078495402 -0.005738658961469431 0.0 0.0
0.0 0.012113780262184988 -0.00983351516187048 0.009094493311995036 0.000739021849875446 -0.007119562067635512 0.0 0.0
0.0 0.01570370569515883 -0.012751749276088721 0.01194522602734683 0.0008065232487418921 -0.008901127841351754 0.0 0.0
0.0 0.01949040049809821 -0.015696880894687938 0.01482504488765751 0.0008718360070304222 -0.01121415616992905 0.0 0.0
0.0 0.022337643698888264 -0.017907027506397485 0.016954197934302896 0.0009528295720945903 -0.013728268000024387 0.0 0.0
0.0 0.022823785756377266 -0.017992386807617174 0.016942689794575853 0.0010496970130413233 -0.015012567361395987 0.0 0.0
0.0 0.01778358208687348 -0.013877293805863486 0.012707931485354271 0.0011693623205092105 -0.012007395111252518 0.0 0.0
0.0 0.01778358208687547 -0.013877293805863125 0.012707931485353494 0.0011693623205096268 0.012007395111264346 0.0 0.0
0.0 0.022823785756377866 -0.017992386807614526 0.016942689794572918 0.001049697013041603 0.015012567361413584 0.0 0.0
0.0 0.022337643698884548 -0.017907027506392132 0.01695419793429759 0.0009528295720945358 0.013728268000035643 0.0 0.0
0.0 0.01949040049808985 -0.015696880894680226 0.014825044887650145 0.0008718360070300808 0.011214156169929865 0.0 0.0
0.0 0.015703705695148857 -0.01275174927608025 0.01194522602733879 0.000806523248741456 0.008901127841347648 0.0 0.0
0.0 0.012113780262175846 -0.009833515161862837 0.009094493311987566 0.0007390218498752679 0.007119562067631098 0.0 0.0
0.0 0.009003864718765553 -0.0073132329071024715 0.006647817699253237 0.0006654152078492341 0.005738658961464988 0.0 0.0
0.0 0.006568954149331337 -0.005295369232710418 0.004712755150795442 0.0005826140819149743 0.004605390538584756 0.0 0.0
0.0 0.004687558821451502 -0.00371417222884468 0.0032279793710569987 0.0004861928577876809 0.003608259086832904 0.0 0.0
0.0 0.003206567103165769 -0.0024406079159293597 0.0020657919483734197 0.00037481596755593893 0.002666844338408484 0.0 0.0
0.0 0.0018858918558681648 -0.0014035939759605904 0.0011532320985665442 0.00025036187739404614 0.001756439592844686 0.0 0.0
0.0 0.0009893997258290487 -0.0006134746066372026 0.0004909460972751241 0.00012252850936207845 0.0009372124360919633 0.0 0.0
0.0 0.00035168523975155993 -0.00018403018760261043 0.00014485712339439954 3.917306420821089e-05 0.0003796424375576876 0.0 0.0
0.0 0.00011243549957366429 -3.9262064716851776e-05 3.091723375127993e-05 8.344830965571832e-06 0.00010555836431803414 0.0 0.0
0.0 2.9948098958009727e-05 -3.0025137422841488e-06 2.420265513876963e-06 5.822482284071391e-07 9.43589802926821e-06 0.0 0.0
0.0 8.453077863116957e-06 4.605982888835364e-08 -4.876147300890739e-08 2.7016441205105792e-09 -4.00476650348947e-07 0.0 0.0
0.0 6.590687281374371e-06 3.1088154276881837e-07 -2.570236217490074e-07 -5.385792101982278e-08 -1.4093816018841068e-06 0.0 0.0
0.0 2.3595770750547986e-06 8.103527064889636e-08 -6.628456756069521e-08 -1.4750703088195763e-08 -4.821090555798598e-07 0.0 0.0
0.0 0.0 0.0 0.0 0.0 0.0 0.0 0.0
0.0 0.0 0.0 0.0 0.0 0.0 0.0 0.0
0.0 0.0 0.0 0.0 0.0 0.0 0.0 0.0
0.0 0.0 0.0 0.0 0.0 0.0 0.0 0.0
0.0 1.762862297087584e-06 7.425115861487428e-08 -6.029149643128876e-08 -1.3959662183589334e-08 3.448992119798501e-07 0.0 0.0
0.0 4.567888438468323e-06 2.816642514112822e-07 -2.2557908395482e-07 -5.6085167456466286e-08 9.161147982519621e-07 0.0 0.0
0.0 1.1875537078383712e-05 9.152061455042949e-07 -7.183290681079248e-07 -1.968770773963387e-07 2.3653031768406236e-06 0.0 0.0
0.0 4.8669995677702645e-05 -1.297954809199097e-05 1.0172841493789597e-05 2.8067065982013687e-06 -2.7230697038856202e-05 0.0 0.0
0.0 0.00022753583128343614 -0.00011523308558083928 9.126040846650761e-05 2.3972677114331784e-05 -0.00019673215625677556 0.0 0.0
0.0 0.0008214775780672268 -0.0005562180845602906 0.00044405087380489306 0.00011216721075539744 -0.0006861640745471151 0.0 0.0
0.0 0.0019005295419761148 -0.0014447645632557297 0.0011878922035570639 0.00025687235969866593 -0.0014552637702132593 0.0 0.0
0.0 0.0033244412937713957 -0.0027020651311481115 0.002294482175683708 0.0004075829554644027 -0.0023907253796751895 0.0 0.0
0.0 0.005082133118666411 -0.004223071620354813 0.0036902069718307614 0.0005328646485240507 -0.003353394056495447 0.0 0.0
0.0 0.007232075737645327 -0.0060499945558380695 0.005412504552662669 0.0006374900031753995 -0.004316297570799862 0.0 0.0
0.0 0.009938877677944847 -0.008318458173271332 0.007595164632286378 0.0007232935409849541 -0.005366936005748558 0.0 0.0
0.0 0.013335966651325328 -0.011205802463503136 0.010408869671071692 0.0007969327924314462 -0.006600591880448856 0.0 0.0
0.0 0.01763464219668801 -0.014812172396074248 0.013948209059671427 0.0008639633364028172 -0.008137247408900938 0.0 0.0
0.0 0.022724970255344104 -0.019043969575826006 0.018111266357489282 0.0009327032183367285 -0.010213982213540002 0.0 0.0
0.0 0.028023388686330343 -0.023421650701485136 0.022410944578823887 0.0010107061226612424 -0.01304291161876692 0.0 0.0
0.0 0.03233152974903246 -0.026840939453473628 0.025728362530257287 0.0011125769232163331 -0.01625311900757016 0.0 0.0
0.0 0.03321453013647999 -0.027349830609805573 0.02610687590018864 0.0012429547096169222 -0.018180629807076066 0.0 0.0
0.0 0.02682857071257835 -0.02200273649390834 0.02060035597415072 0.0014023805197576256 -0.01543896870122515 0.0 0.0
0.0 0.02682857071258152 -0.022002736493908347 0.020600355974150775 0.0014023805197575763 0.015438968701241671 0.0 0.0
0.0 0.03321453013648289 -0.02734983060980434 0.026106875900188013 0.0012429547096163365 0.01818062980709893 0.0 0.0
0.0 0.03233152974902828 -0.026840939453467334 0.025728362530251535 0.0011125769232157878 0.016253119007586483 0.0 0.0
0.0 0.02802338868631945 -0.023421650701474676 0.022410944578814103 0.0010107061226605682 0.01304291161877058 0.0 0.0
0.0 0.022724970255330323 -0.019043969575813863 0.018111266357477864 0.0009327032183359991 0.010213982213536275 0.0 0.0
0.0 0.017634642196675647 -0.014812172396063375 0.013948209059661274 0.0008639633364020949 0.008137247408897055 0.0 0.0
0.0 0.01333596665131249 -0.011205802463492138 0.010408869671061218 0.0007969327924309206 0.006600591880443304 0.0 0.0
0.0 0.009938877677930698 -0.008318458173259102 0.007595164632274625 0.0007232935409844778 0.005366936005743809 0.0 0.0
0.0 0.007232075737631519 -0.006049994555826145 0.005412504552651422 0.000637490003174721 0.004316297570792817 0.0 0.0
0.0 0.005082133118652884 -0.004223071620343493 0.003690206971820223 0.0005328646485232697 0.00335339405648703 0.0 0.0
0.0 0.0033244412937590466 -0.002702065131137985 0.0022944821756745786 0.000407582955463405 0.0023907253796663884 0.0 0.0
0.0 0.0019005295419671096 -0.0014447645632486808 0.0011878922035510405 0.0002568723596976407 0.0014552637702075406 0.0 0.0
0.0 0.0008214775780623848 -0.0005562180845567376 0.0004440508738020644 0.00011216721075467306 0.0006861640745437229 0.0 0.0
0.0 0.00022753583128125985 -0.00011523308557992539 9.126040846579552e-05 2.397267711412992e-05 0.0001967321562553879 0.0 0.0
0.0 4.866999567654574e-05 -1.2979548092046403e-05 1.0172841493832938e-05 2.806706598213515e-06 2.7230697038967136e-05 0.0 0.0
0.0 1.1875537077809629e-05 9.152061453830063e-07 -7.18329068010057e-07 -1.9687707737298973e-07 -2.365303176524781e-06 0.0 0.0
0.0 4.567888437996252e-06 2.8166425138205025e-07 -2.255790839313278e-07 -5.6085167450732297e-08 -9.161147981532237e-07 0.0 0.0
0.0 1.7628622966370727e-06 7.425115859493936e-08 -6.029149641515662e-08 -1.3959662179784548e-08 -3.4489921188806817e-07 0.0 0.0
0.0 0.0 0.0 0.0 0.0 0.0 0.0 0.0
0.0 0.0 0.0 0.0 0.0 0.0 0.0 0.0
0.0 0.0 0.0 0.0 0.0 0.0 0.0 0.0
0.0 0.0 0.0 0.0 0.0 0.0 0.0 0.0
0.0 0.0 0.0 0.0 0.0 0.0 0.0 0.0
0.0 6.9346823109825144e-06 5.042347017098303e-07 -4.065067840334973e-07 -9.772791767633461e-08 1.3113344896096305e-06 0.0 0.0
0.0 2.5212619995950892e-05 2.4747268596932223e-06 -1.951196794361913e-06 -5.235300653313059e-07 4.953316836308696e-06 0.0 0.0
0.0 9.527754678848373e-05 -4.1913906039296184e-05 3.324925249755349e-05 8.664653541742725e-06 -6.261037187784977e-05 0.0 0.0
0.0 0.0005142065381676431 -0.0003287762070400328 0.00026102456221004425 6.775164482998864e-05 -0.0003528090120053957 0.0 0.0
0.0 0.00149256199926979 -0.001146868590647708 0.0009341043090028027 0.0002127642816449049 -0.0009790491962484353 0.0 0.0
0.0 0.0029513806382065457 -0.00245987247567835 0.002075856394342486 0.00038401608133586436 -0.0018281365605056121 0.0 0.0
0.0 0.004819956589415207 -0.004115794887776925 0.0035845950395417036 0.0005311998482352195 -0.002745790213470957 0.0 0.0
0.0 0.007101544425399339 -0.006090345650098431 0.005440874653879376 0.0006494709962190556 -0.0036626513663242494 0.0 0.0
0.0 0.009904741353361408 -0.008480099760737747 0.007734116086601023 0.0007459836741367247 -0.0046215776844658095 0.0 0.0
0.0 0.013402608325290728 -0.011455305804374668 0.010628722602845614 0.0008265832015290505 -0.005697724141914869 0.0 0.0
0.0 0.01783478870842146 -0.015221631603083503 0.014324111409954795 0.0008975201931287053 -0.00696517920927579 0.0 0.0
0.0 0.023408768458407912 -0.01992107892044642 0.01895572969209779 0.0009653492283486294 -0.008545284779704065 0.0 0.0
0.0 0.029805441218086898 -0.025467581814231862 0.024428016089355083 0.0010395657248767718 -0.010682866713583348 0.0 0.0
0.0 0.03681120076554861 -0.0312568388181045 0.030124175859557126 0.0011326629585473678 -0.013636203919438103 0.0 0.0
0.0 0.04244829415789756 -0.03583616848732628 0.034578505714745425 0.0012576627725808674 -0.0172517089231804 0.0 0.0
0.0 0.04361759481095398 -0.03662130944512823 0.03520489119685867 0.0014164182482695464 -0.019968836225757163 0.0 0.0
0.0 0.035879932380164584 -0.029919177560439842 0.0283352879314888 0.0015838896289510293 -0.018682356356521896 0.0 0.0
0.0 0.035879932380167734 -0.029919177560439596 0.028335287931488748 0.0015838896289508517 0.01868235635654094 0.0 0.0
0.0 0.04361759481095329 -0.036621309445124366 0.03520489119685507 0.001416418248269291 0.019968836225780925 0.0 0.0
0.0 0.04244829415789255 -0.03583616848731937 0.03457850571473941 0.0012576627725799554 0.0172517089231987 0.0 0.0
0.0 0.03681120076553561 -0.03125683881809216 0.03012417585954549 0.0011326629585466518 0.013636203919442928 0.0 0.0
0.0 0.029805441218069745 -0.02546758181421689 0.024428016089340306 0.0010395657248765749 0.010682866713580791 0.0 0.0
0.0 0.02340876845839113 -0.01992107892043175 0.018955729692083235 0.0009653492283485137 0.008545284779701021 0.0 0.0
0.0 0.017834788708405328 -0.015221631603069377 0.014324111409941139 0.000897520193128234 0.006965179209270332 0.0 0.0
0.0 0.013402608325276196 -0.011455305804361535 0.010628722602833394 0.0008265832015281463 0.005697724141911468 0.0 0.0
0.0 0.009904741353345042 -0.008480099760723241 0.007734116086587301 0.0007459836741359408 0.0046215776844596886 0.0 0.0
0.0 0.007101544425381986 -0.006090345650083524 0.005440874653865207 0.0006494709962183156 0.0036626513663152224 0.0 0.0
0.0 0.004819956589400644 -0.004115794887764139 0.0035845950395298042 0.0005311998482343347 0.0027457902134621166 0.0 0.0
0.0 0.0029513806381954717 -0.0024598724756688473 0.002075856394333967 0.00038401608133487963 0.001828136560499431 0.0 0.0
0.0 0.0014925619992619708 -0.0011468685906412624 0.0009341043089974012 0.0002127642816438613 0.0009790491962440035 0.0 0.0
0.0 0.0005142065381633902 -0.0003287762070372921 0.0002610245622078651 6.775164482942698e-05 0.0003528090120027324 0.0 0.0
0.0 9.527754678700392e-05 -4.191390603907657e-05 3.324925249737557e-05 8.664653541701063e-06 6.26103718775027e-05 0.0 0.0
0.0 2.5212619994963567e-05 2.474726859593644e-06 -1.951196794283381e-06 -5.235300653103639e-07 -4.9533168361263605e-06 0.0 0.0
0.0 6.934682310505462e-06 5.042347016716486e-07 -4.0650678400268413e-07 -9.772791766897146e-08 -1.3113344895102354e-06 0.0 0.0
0.0 0.0 0.0 0.0 0.0 0.0 0.0 0.0
0.0 0.0 0.0 0.0 0.0 0.0 0.0 0.0
0.0 0.0 0.0 0.0 0.0 0.0 0.0 0.0
0.0 0.0 0.0 0.0 0.0 0.0 0.0 0.0
0.0 0.0 0.0 0.0 0.0 0.0 0.0 0.0
0.0 0.0 0.0 0.0 0.0 0.0 0.0 0.0
0.0 3.2006597007079794e-06 2.5707668110242285e-07 -2.054760131561159e-07 -5.160066794626825e-08 5.112391327039601e-07 0.0 0.0
0.0 2.8543592028310667e-05 -2.0537333268317096e-06 1.6065382966165415e-06 4.4719503021518534e-07 -2.4225993809969266e-06 0.0 0.0
0.0 0.00021833222389580834 -0.0001132410032365356 8.959624489359613e-05 2.364475834293971e-05 -0.00011147181748314593 0.0 0.0
0.0 0.0009862175679520775 -0.0006873105304370459 0.0005524139946300665 0.00013489653580697902 -0.0005029265539418655 0.0 0.0
0.0 0.0022318642307949796 -0.0018971871246775023 0.0015779721087439828 0.00031921501593351956 -0.0011791548833890019 0.0 0.0
0.0 0.004067078699753012 -0.003554250455030154 0.0030653993418126827 0.0004888511132174711 -0.00197714926972066 0.0 0.0
0.0 0.006383879919217031 -0.005576715478892691 0.004949190792031205 0.0006275246868614849 -0.002801337575249481 0.0 0.0
0.0 0.009208211583046352 -0.008010641923749312 0.007271856278566518 0.0007387856451827901 -0.0036616372997772275 0.0 0.0
0.0 0.012656386397664223 -0.010977599483810921 0.010146889099568257 0.0008307103842426571 -0.004572445817460917 0.0 0.0
0.0 0.01702570628302668 -0.014676824922282828 0.01376592882172259 0.0009108961005602359 -0.005610016888254714 0.0 0.0
0.0 0.022378949247803807 -0.01933815631939447 0.018354202753487394 0.0009839535659070693 -0.006870805768660032 0.0 0.0
0.0 0.029118413120911936 -0.025111048561650206 0.024055906822674892 0.0010551417389753237 -0.008378530461830704 0.0 0.0
0.0 0.03715284209467817 -0.03191532907111004 0.030778461886157134 0.0011368671849529043 -0.010283525882970919 0.0 0.0
0.0 0.04540119105310496 -0.03907019375920398 0.03782695917658066 0.0012432345826233241 -0.013001354634852745 0.0 0.0
0.0 0.05215996675029219 -0.04477785896338918 0.043387995757277295 0.0013898632061118857 -0.016725333233634652 0.0 0.0
0.0 0.05375114876787671 -0.04583972222698439 0.04427001510311619 0.0015697071238681888 -0.02051061829623232 0.0 0.0
0.0 0.04512376260719412 -0.03785998763796154 0.03611443503379038 0.0017455526041711348 -0.0218873698382108 0.0 0.0
0.0 0.04512376260719539 -0.03785998763795993 0.03611443503378867 0.0017455526041712393 0.021887369838230662 0.0 0.0
0.0 0.053751148767871654 -0.04583972222697729 0.044270015103108996 0.001569707123868284 0.0205106182962569 0.0 0.0
0.0 0.052159966750281006 -0.04477785896337774 0.043387995757265777 0.0013898632061119514 0.016725333233653314 0.0 0.0
0.0 0.0454011910530875 -0.03907019375918817 0.037826959176565096 0.0012432345826230672 0.013001354634858228 0.0 0.0
0.0 0.03715284209465954 -0.0319153290710935 0.030778461886141348 0.0011368671849521297 0.010283525882969876 0.0 0.0
0.0 0.029118413120893902 -0.02511104856163398 0.02405590682265958 0.0010551417389743924 0.008378530461829606 0.0 0.0
0.0 0.022378949247784247 -0.01933815631937716 0.01835420275347088 0.000983953565906284 0.006870805768655271 0.0 0.0
0.0 0.017025706283006065 -0.014676824922264377 0.01376592882170472 0.0009108961005596561 0.005610016888250278 0.0 0.0
0.0 0.012656386397643889 -0.010977599483792835 0.010146889099550797 0.0008307103842420339 0.004572445817454911 0.0 0.0
0.0 0.00920821158302644 -0.008010641923731793 0.007271856278549889 0.0007387856451819048 0.003661637299768683 0.0 0.0
0.0 0.0063838799192002214 -0.005576715478877876 0.004949190792017355 0.0006275246868605199 0.0028013375752412323 0.0 0.0
0.0 0.0040670786997403785 -0.00355425045501868 0.003065399341802236 0.0004888511132164424 0.001977149269715155 0.0 0.0
0.0 0.002231864230784788 -0.0018971871246684121 0.001577972108736044 0.0003192150159323674 0.0011791548833842635 0.0 0.0
0.0 0.0009862175679451256 -0.0006873105304316127 0.0005524139946256351 0.00013489653580597765 0.0005029265539382846 0.0 0.0
0.0 0.00021833222389297622 -0.00011324100323508155 8.959624489243887e-05 2.3644758342642533e-05 0.00011147181748173917 0.0 0.0
0.0 2.8543592027370766e-05 -2.0537333269738714e-06 1.6065382967274958e-06 4.471950302463949e-07 2.4225993811882307e-06 0.0 0.0
0.0 3.200659700236418e-06 2.5707668106207243e-07 -2.0547601312382118e-07 -5.1600667938269986e-08 -5.112391326237518e-07 0.0 0.0
0.0 0.0 0.0 0.0 0.0 0.0 0.0 0.0
0.0 0.0 0.0 0.0 0.0 0.0 0.0 0.0
0.0 0.0 0.0 0.0 0.0 0.0 0.0 0.0
0.0 0.0 0.0 0.0 0.0 0.0 0.0 0.0
0.0 0.0 0.0 0.0 0.0 0.0 0.0 0.0
0.0 0.0 0.0 0.0 0.0 0.0 0.0 0.0
0.0 2.6184053184797525e-06 2.3936820084323267e-07 -1.9194239063393857e-07 -4.7425810209277095e-08 3.642394502886807e-07 0.0 0.0
0.0 4.826553893739788e-05 -7.878299460988347e-06 6.3826277167183244e-06 1.4956717442701683e-06 -8.239304518761007e-06 0.0 0.0
0.0 0.000461527227992845 -0.00027407651368039894 0.00021800050139159067 5.607601228880873e-05 -0.00018007154040924903 0.0 0.0
0.0 0.0014075087475027605 -0.001209001074167545 0.0009868371192666523 0.00022216395490089284 -0.0006255452687693014 0.0 0.0
0.0 0.0030453854280225704 -0.002718476912004607 0.0023062138776913867 0.0004122630343132198 -0.0012217083618859354 0.0 0.0
0.0 0.005270763138234033 -0.0046739152529497174 0.0041001738356762595 0.0005737414172734591 -0.0018865948808556405 0.0 0.0
0.0 0.008007379119413025 -0.007070439847338538 0.0063664416473980245 0.000703998199940514 -0.002607771441519342 0.0 0.0
0.0 0.01136287647514771 -0.009970189094365586 0.009159980981849787 0.0008102081125157973 -0.0033673038271213934 0.0 0.0
0.0 0.015499707275523317 -0.01352810262650742 0.012626529512298057 0.0009015731142093602 -0.004179853097095808 0.0 0.0
0.0 0.020655224826022806 -0.017972467246384256 0.016988529078602203 0.0009839381677820488 -0.005132428040637551 0.0 0.0
0.0 0.027134815093893778 -0.02353365333001978 0.022470459693538017 0.0010631936364817684 -0.006288979983767499 0.0 0.0
0.0 0.035051658471212103 -0.030345348190433264 0.029204536749173008 0.0011408114412602617 -0.007642526729852583 0.0 0.0
0.0 0.044081141597605324 -0.0383117442357834 0.03708509803681218 0.001226646198971209 -0.009161745467922242 0.0 0.0
0.0 0.0538182004179438 -0.04671534822725777 0.04537247941635379 0.0013428688109039938 -0.011170805135959685 0.0 0.0
0.0 0.06184915319669658 -0.05355531710783513 0.05204855323799987 0.0015067638698352652 -0.014579249592787292 0.0 0.0
0.0 0.06401607113571481 -0.05509508380886001 0.05338602598109733 0.0017090578277626839 -0.019766855741776893 0.0 0.0
0.0 0.0545536411651902 -0.04606666741029043 0.04416463301945066 0.0019020343908397537 -0.02507236384805212 0.0 0.0
0.0 0.054553641165191034 -0.04606666741028838 0.04416463301944868 0.00190203439083969 0.025072363848072095 0.0 0.0
0.0 0.06401607113570898 -0.05509508380885263 0.053386025981090345 0.0017090578277622918 0.01976685574180053 0.0 0.0
0.0 0.06184915319668299 -0.05355531710782189 0.052048553237987155 0.0015067638698346938 0.014579249592804832 0.0 0.0
0.0 0.053818200417923595 -0.046715348227239696 0.04537247941633611 0.001342868810903578 0.01117080513596512 0.0 0.0
0.0 0.044081141597584556 -0.03831174423576496 0.037085098036794474 0.0012266461989704587 0.009161745467922743 0.0 0.0
0.0 0.035051658471190156 -0.030345348190413866 0.02920453674915432 0.0011408114412595322 0.007642526729851535 0.0 0.0
0.0 0.027134815093871417 -0.023533653330000147 0.022470459693519167 0.0010631936364809654 0.006288979983764145 0.0 0.0
0.0 0.02065522482599952 -0.017972467246363658 0.01698852907858233 0.000983938167781319 0.005132428040633963 0.0 0.0
0.0 0.015499707275499083 -0.013528102626485856 0.012626529512277093 0.0009015731142087619 0.004179853097090571 0.0 0.0
0.0 0.011362876475124847 -0.009970189094345158 0.009159980981830084 0.0008102081125150686 0.0033673038271138105 0.0 0.0
0.0 0.00800737911939365 -0.007070439847321168 0.006366441647381399 0.0007039981999397674 0.0026077714415120323 0.0 0.0
0.0 0.005270763138219405 -0.004673915252936174 0.0041001738356636905 0.0005737414172724824 0.0018865948808509043 0.0 0.0
0.0 0.0030453854280107174 -0.00271847691199354 0.0023062138776814662 0.0004122630343120741 0.0012217083618816368 0.0 0.0
0.0 0.001407508747495094 -0.0012090010741607393 0.0009868371192609173 0.00022216395489982191 0.0006255452687661274 0.0 0.0
0.0 0.0004615272279885339 -0.00027407651367775273 0.00021800050138945425 5.607601228829847e-05 0.0001800715404075261 0.0 0.0
0.0 4.82655389363052e-05 -7.87829946108623e-06 6.38262771679313e-06 1.4956717442930128e-06 8.239304518857638e-06 0.0 0.0
0.0 2.618405318069889e-06 2.393682008043899e-07 -1.9194239060307888e-07 -4.7425810201298124e-08 -3.6423945023065724e-07 0.0 0.0
0.0 0.0 0.0 0.0 0.0 0.0 0.0 0.0
0.0 0.0 0.0 0.0 0.0 0.0 0.0 0.0
0.0 0.0 0.0 0.0 0.0 0.0 0.0 0.0
0.0 0.0 0.0 0.0 0.0 0.0 0.0 0.0
0.0 0.0 0.0 0.0 0.0 0.0 0.0 0.0
0.0 0.0 0.0 0.0 0.0 0.0 0.0 0.0
0.0 2.5053288124497985e-06 2.531774601912513e-07 -2.004950959842307e-07 -5.268236420702641e-08 2.7033984583380355e-07 0.0 0.0
0.0 0.00010512754484082098 -2.7459802925640552e-05 2.185873759960869e-05 5.601065326031788e-06 -1.720789047760546e-05 0.0 0.0
0.0 0.0007768861385778049 -0.000553559343792927 0.00044359430679758073 0.0001099650369953463 -0.00024070992610948722 0.0 0.0
0.0 0.0019748658301178127 -0.0017958988942117409 0.0014889296948606405 0.0003069691993511002 -0.00061462518441404 0.0 0.0
0.0 0.003944164633282457 -0.0035570109486343536 0.0030671922692862177 0.0004898186793481358 -0.0010739361202192013 0.0 0.0
0.0 0.006509426029257752 -0.005814295715692557 0.005171650797749627 0.0006426449179429281 -0.0016006704786129741 0.0 0.0
0.0 0.00968065173246456 -0.00858508924699428 0.007818867473273436 0.0007662217737208411 -0.0021808662347792703 0.0 0.0
0.0 0.013591917837967796 -0.011958957194475586 0.011088907708950088 0.0008700494855254988 -0.002799152246410539 0.0 0.0
0.0 0.018369418151538974 -0.01612302926825528 0.015160222120304039 0.000962807147951237 -0.003460204437915513 0.0 0.0
0.0 0.02446605723185146 -0.021324605528151297 0.020274301752663322 0.0010503037754879714 -0.004237728289343417 0.0 0.0
0.0 0.03181567375988499 -0.027798224922299428 0.026661639364062163 0.0011365855582372644 -0.00523682215174307 0.0 0.0
0.0 0.040777534005857444 -0.035616916149989804 0.03439346995332358 0.0012234461966662245 -0.006384703981130989 0.0 0.0
0.0 0.051118871810224106 -0.04459348000392306 0.04327718165966104 0.0013162983442620072 -0.007405906884385982 0.0 0.0
0.0 0.06197594668394562 -0.054032571657502214 0.05260454944602256 0.001428022211479636 -0.008340979298646274 0.0 0.0
0.0 0.07124716135714741 -0.06204192681523622 0.060439013162346435 0.0016029136528897916 -0.010841795109095912 0.0 0.0
0.0 0.07441694302497556 -0.06447065997451704 0.06263427837771805 0.0018363815967989837 -0.017432716039722955 0.0 0.0
0.0 0.06472613402263923 -0.05482542090289445 0.05275825115970637 0.0020671697431880777 -0.02803089681702007 0.0 0.0
0.0 0.06472613402263876 -0.054825420902891865 0.05275825115970409 0.0020671697431877815 0.0280308968170361 0.0 0.0
0.0 0.07441694302496774 -0.06447065997450858 0.06263427837771017 0.001836381596798405 0.01743271603974387 0.0 0.0
0.0 0.0712471613571306 -0.06204192681522085 0.06043901316233141 0.001602913652889423 0.010841795109111364 0.0 0.0
0.0 0.06197594668392285 -0.054032571657482154 0.0526045494460028 0.0014280222114793518 0.00834097929865149 0.0 0.0
0.0 0.051118871810198474 -0.0445934800039006 0.043277181659639 0.0013162983442616093 0.007405906884387021 0.0 0.0
0.0 0.04077753400583298 -0.03561691614996819 0.0343934699533028 0.0012234461966653932 0.006384703981131032 0.0 0.0
0.0 0.031815673759859664 -0.027798224922277195 0.026661639364040608 0.0011365855582365861 0.005236822151740466 0.0 0.0
0.0 0.024466057231822554 -0.021324605528125973 0.020274301752638335 0.001050303775487638 0.00423772828934024 0.0 0.0
0.0 0.01836941815151092 -0.0161230292682306 0.01516022212028018 0.0009628071479504246 0.003460204437911842 0.0 0.0
0.0 0.013591917837944199 -0.011958957194454297 0.011088907708929532 0.000870049485524764 0.0027991522464047847 0.0 0.0
0.0 0.009680651732443715 -0.008585089246975413 0.007818867473255303 0.0007662217737201106 0.00218086623477327 0.0 0.0
0.0 0.006509426029240786 -0.0058142957156769315 0.005171650797734842 0.0006426449179420886 0.0016006704786092909 0.0 0.0
0.0 0.00394416463326927 -0.003557010948621902 0.00306719226927484 0.0004898186793470617 0.0010739361202157483 0.0 0.0
0.0 0.001974865830108508 -0.0017958988942029007 0.0014889296948529752 0.000306969199349926 0.0006146251844111403 0.0 0.0
0.0 0.0007768861385722783 -0.0005535593437885574 0.00044359430679400834 0.00010996503699454856 0.00024070992610759968 0.0 0.0
0.0 0.0001051275448392727 -2.7459802925265537e-05 2.1858737599296426e-05 5.601065325969236e-06 1.72078904773315e-05 0.0 0.0
0.0 2.505328812068445e-06 2.5317746015048106e-07 -2.004950959519918e-07 -5.2682364198484455e-08 -2.703398457904753e-07 0.0 0.0
0.0 0.0 0.0 0.0 0.0 0.0 0.0 0.0
0.0 0.0 0.0 0.0 0.0 0.0 0.0 0.0
0.0 0.0 0.0 0.0 0.0 0.0 0.0 0.0
0.0 0.0 0.0 0.0 0.0 0.0 0.0 0.0
0.0 0.0 0.0 0.0 0.0 0.0 0.0 0.0
0.0 0.0 0.0 0.0 0.0 0.0 0.0 0.0
0.0 7.217443276911551e-06 8.68179010796905e-07 -6.71359549835835e-07 -1.9681946096104174e-07 5.384504577851146e-07 0.0 0.0
0.0 0.00024514940657244873 -0.0001008975964376852 8.035687139483589e-05 2.0540725042849506e-05 -3.7270742741514655e-05 0.0 0.0
0.0 0.0010311077277485455 -0.0009551471101184763 0.0007720560107929695 0.00018309109932550716 -0.00023310440810953915 0.0 0.0
0.0 0.002630581623420194 -0.0024094579442540476 0.002029169650481541 0.00038028829377250703 -0.00047402250370821766 0.0 0.0
0.0 0.0048673067227376545 -0.004410791583836483 0.0038555113280629924 0.000555280255773491 -0.0007745480031919873 0.0 0.0
0.0 0.007773639465811146 -0.00696496998412806 0.006266379418152646 0.0006985905659754125 -0.0011300505666420049 0.0 0.0
0.0 0.011382657538568774 -0.010113253891604822 0.00929571434505731 0.0008175395465475099 -0.0015315060210446764 0.0 0.0
0.0 0.01583740271289292 -0.01397103707476224 0.013049400544027511 0.0009216365307347272 -0.001956348348943915 0.0 0.0
0.0 0.02142610468952584 -0.018751388304965328 0.0177334627201439 0.0010179255848214229 -0.002410670402403862 0.0 0.0
0.0 0.028168299544415937 -0.02472835153226519 0.023617065661640853 0.0011112858706243348 -0.002980844546275095 0.0 0.0
0.0 0.03659629133070958 -0.032105403401078224 0.030899768361370386 0.00120563503970783 -0.003700540396285044 0.0 0.0
0.0 0.04671971282858054 -0.04089562012573234 0.03959169964927914 0.0013039204764532116 -0.004486864395401618 0.0 0.0
0.0 0.05808295349512274 -0.050774424144992274 0.04936751047070231 0.0014069136742899538 -0.005090357840567717 0.0 0.0
0.0 0.0697687080118015 -0.06094813600850541 0.059432342017186085 0.0015157939913193474 -0.005141978715305091 0.0 0.0
0.0 0.08008840136449295 -0.0699142250017485 0.06826417675811378 0.0016500482436347438 -0.005671019695716068 0.0 0.0
0.0 0.08502637476409552 -0.07395691454450064 0.072006744844653 0.0019501696998475981 -0.012544135360440615 0.0 0.0
0.0 0.07599755832765479 -0.06459752872081358 0.062336388851004426 0.0022611398698091376 -0.030161569189264298 0.0 0.0
0.0 0.07599755832765367 -0.06459752872081106 0.062336388851002164 0.002261139869808877 0.03016156918927649 0.0 0.0
0.0 0.08502637476408303 -0.07395691454448902 0.07200674484464169 0.0019501696998473056 0.012544135360456326 0.0 0.0
0.0 0.08008840136447334 -0.06991422500173089 0.06826417675809696 0.001650048243633934 0.0056710196957278775 0.0 0.0
0.0 0.06976870801177723 -0.060948136008483846 0.05943234201716552 0.0015157939913183279 0.005141978715308158 0.0 0.0
0.0 0.05808295349509737 -0.05077442414496967 0.049367510470681025 0.00140691367428865 0.005090357840568674 0.0 0.0
0.0 0.046719712828552876 -0.04089562012570796 0.03959169964925574 0.0013039204764522215 0.004486864395401628 0.0 0.0
0.0 0.03659629133068003 -0.03210540340105227 0.030899768361345295 0.0012056350397069732 0.0037005403962840568 0.0 0.0
0.0 0.028168299544386093 -0.02472835153223895 0.023617065661615477 0.0011112858706234722 0.0029808445462726927 0.0 0.0
0.0 0.021426104689495393 -0.01875138830493836 0.017733462720117547 0.0010179255848208073 0.0024106704024024583 0.0 0.0
0.0 0.015837402712865288 -0.013971037074737703 0.013049400544003917 0.0009216365307337804 0.0019563483489396546 0.0 0.0
0.0 0.01138265753854413 -0.010113253891582746 0.009295714345036097 0.0008175395465466506 0.0015315060210403723 0.0 0.0
0.0 0.007773639465791678 -0.006964969984109965 0.006266379418135513 0.0006985905659744507 0.0011300505666395609 0.0 0.0
0.0 0.00486730672272225 -0.004410791583822046 0.003855511328049626 0.0005552802557724193 0.0007745480031894694 0.0 0.0
0.0 0.0026305816234098154 -0.0024094579442439285 0.0020291696504726228 0.00038028829377130486 0.0004740225037061698 0.0 0.0
0.0 0.0010311077277427342 -0.0009551471101128992 0.0007720560107883399 0.00018309109932455924 0.00023310440810811624 0.0 0.0
0.0 0.00024514940656984827 -0.00010089759643631949 8.035687139374144e-05 2.0540725042577883e-05 3.727074274104439e-05 0.0 0.0
0.0 7.217443276285659e-06 8.681790107182434e-07 -6.713595497753641e-07 -1.9681946094292053e-07 -5.384504577394223e-07 0.0 0.0
0.0 0.0 0.0 0.0 0.0 0.0 0.0 0.0
0.0 0.0 0.0 0.0 0.0 0.0 0.0 0.0
0.0 0.0 0.0 0.0 0.0 0.0 0.0 0.0
0.0 0.0 0.0 0.0 0.0 0.0 0.0 0.0
0.0 0.0 0.0 0.0 0.0 0.0 0.0 0.0
0.0 0.0 0.0 0.0 0.0 0.0 0.0 0.0
0.0 1.3339333246334462e-05 1.6809470093579672e-06 -1.2896903005467063e-06 -3.9125670881111435e-07 4.1896554751596244e-07 0.0 0.0
0.0 0.0005003943780160438 -0.0002558507329956403 0.0002035760126195382 5.2274720376102026e-05 -3.80224915230859e-05 0.0 0.0
0.0 0.0014832589278485834 -0.0013752183755566868 0.0011238250657077094 0.00025139330984897757 -0.00011677658047866602 0.0 0.0
0.0 0.0033092814623288404 -0.003039602866399635 0.0025955858355234335 0.0004440170308761992 -0.00021314285484437512 0.0 0.0
0.0 0.005823638304015409 -0.00526807161265783 0.004659006428728966 0.0006090651839288624 -0.0003310161901332766 0.0 0.0
0.0 0.009075992133519329 -0.008117240406321969 0.0073723645734193885 0.0007448758329025814 -0.0004812317101018425 0.0 0.0
0.0 0.013148175531785895 -0.011645691744965785 0.010784358685583188 0.0008613330593825912 -0.0006589431191532738 0.0 0.0
0.0 0.018226972837540774 -0.015997952417123373 0.015031359574456594 0.0009665928426667692 -0.0008426826269002173 0.0 0.0
0.0 0.024306687533506267 -0.02141949922753656 0.020351552880110837 0.0010679463474257268 -0.001061361350465753 0.0 0.0
0.0 0.031985481174065904 -0.028162643540596617 0.026994514485347704 0.0011681290552489035 -0.0013277393274453765 0.0 0.0
0.0 0.041482619708336055 -0.03642054357684933 0.03514948294329613 0.0012710606335531813 -0.0016383514491698369 0.0 0.0
0.0 0.05268658821323301 -0.046156075805749666 0.044775566437414135 0.0013805093683355335 -0.001962838940689231 0.0 0.0
0.0 0.06506654835791953 -0.056887592650842825 0.05539140111648743 0.001496191534355411 -0.0021368818490016465 0.0 0.0
0.0 0.07742337690100347 -0.06760163767309912 0.06598999502380609 0.0016116426492929939 -0.0018784321294811005 0.0 0.0
0.0 0.08805281609232117 -0.07685219406791476 0.07513409630983994 0.0017180977580748078 -0.0009387262230472 0.0 0.0
0.0 0.0947074633571729 -0.08255989845922147 0.08070003341816229 0.0018598650410591344 -0.0032272390440642724 0.0 0.0
0.0 0.08940413445632692 -0.07661450884199822 0.07400535753260395 0.002609151309394265 -0.02812558918874857 0.0 0.0
0.0 0.08940413445632381 -0.07661450884199501 0.07400535753260072 0.00260915130939425 0.028125589188753887 0.0 0.0
0.0 0.0947074633571566 -0.0825598984592074 0.08070003341814805 0.0018598650410593751 0.003227239044070936 0.0 0.0
0.0 0.08805281609229626 -0.07685219406789309 0.07513409630981853 0.0017180977580745255 0.0009387262230531408 0.0 0.0
0.0 0.07742337690097256 -0.0676016376730723 0.06598999502377947 0.0016116426492927976 0.0018784321294810417 0.0 0.0
0.0 0.0650665483578864 -0.056887592650814035 0.05539140111645874 0.0014961915343552985 0.002136881849001625 0.0 0.0
0.0 0.05268658821320055 -0.04615607580572133 0.04477556643738639 0.001380509368334945 0.0019628389406884253 0.0 0.0
0.0 0.041482619708303005 -0.03642054357682037 0.035149482943268015 0.0012710606335523654 0.0016383514491705377 0.0 0.0
0.0 0.031985481174030654 -0.02816264354056581 0.02699451448531759 0.0011681290552482025 0.00132773932744395 0.0 0.0
0.0 0.024306687533470737 -0.02141949922750544 0.020351552880080406 0.0010679463474250175 0.0010613613504657647 0.0 0.0
0.0 0.018226972837508505 -0.01599795241709493 0.015031359574428877 0.0009665928426660468 0.0008426826268974968 0.0 0.0
0.0 0.013148175531758831 -0.01164569174494205 0.010784358685560217 0.0008613330593818351 0.0006589431191516134 0.0 0.0
0.0 0.009075992133498273 -0.008117240406302816 0.007372364573401109 0.0007448758329017053 0.0004812317101011667 0.0 0.0
0.0 0.005823638303998664 -0.005268071612642067 0.004659006428714149 0.0006090651839279189 0.00033101619013233257 0.0 0.0
0.0 0.0033092814623167967 -0.003039602866388125 0.002595585835512969 0.0004440170308751564 0.0002131428548436202 0.0 0.0
0.0 0.0014832589278412395 -0.0013752183755492715 0.0011238250657013556 0.00025139330984791505 0.00011677658047796484 0.0 0.0
0.0 0.0005003943780121024 -0.00025585073299305895 0.00020357601261744774 5.227472037561157e-05 3.802249152270307e-05 0.0 0.0
0.0 1.3339333245787856e-05 1.6809470091574999e-06 -1.2896903003906699e-06 -3.912567087668408e-07 -4.189655474591522e-07 0.0 0.0
0.0 0.0 0.0 0.0 0.0 0.0 0.0 0.0
0.0 0.0 0.0 0.0 0.0 0.0 0.0 0.0
0.0 0.0 0.0 0.0 0.0 0.0 0.0 0.0