# vtk DataFile Version 3.0
Some data
ASCII
DATASET UNSTRUCTURED_GRID
POINTS 861 float
0.0 0.0 0.0
0.4 0.0 0.0
0.8 0.0 0.0
1.2000000000000002 0.0 0.0
1.6 0.0 0.0
2.0 0.0 0.0
2.4000000000000004 0.0 0.0
2.8000000000000003 0.0 0.0
3.2 0.0 0.0
3.6 0.0 0.0
4.0 0.0 0.0
4.4 0.0 0.0
4.800000000000001 0.0 0.0
5.2 0.0 0.0
5.6000000000000005 0.0 0.0
6.0 0.0 0.0
6.4 0.0 0.0
6.800000000000001 0.0 0.0
7.2 0.0 0.0
7.6000000000000005 0.0 0.0
8.0 0.0 0.0
8.4 0.0 0.0
8.8 0.0 0.0
9.200000000000001 0.0 0.0
9.600000000000001 0.0 0.0
10.0 0.0 0.0
10.4 0.0 0.0
10.8 0.0 0.0
11.200000000000001 0.0 0.0
11.600000000000001 0.0 0.0
12.0 0.0 0.0
12.4 0.0 0.0
12.8 0.0 0.0
13.200000000000001 0.0 0.0
13.600000000000001 0.0 0.0
14.0 0.0 0.0
14.4 0.0 0.0
14.8 0.0 0.0
15.200000000000001 0.0 0.0
15.600000000000001 0.0 0.0
16.0 0.0 0.0
0.0 0.1 0.0
0.4 0.1 0.0
0.8 0.1 0.0
1.2000000000000002 0.1 0.0
1.6 0.1 0.0
2.0 0.1 0.0
2.4000000000000004 0.1 0.0
2.8000000000000003 0.1 0.0
3.2 0.1 0.0
3.6 0.1 0.0
4.0 0.1 0.0
4.4 0.1 0.0
4.800000000000001 0.1 0.0
5.2 0.1 0.0
5.6000000000000005 0.1 0.0
6.0 0.1 0.0
6.4 0.1 0.0
6.800000000000001 0.1 0.0
7.2 0.1 0.0
7.6000000000000005 0.1 0.0
8.0 0.1 0.0
8.4 0.1 0.0
8.8 0.1 0.0
9.200000000000001 0.1 0.0
9.600000000000001 0.1 0.0
10.0 0.1 0.0
10.4 0.1 0.0
10.8 0.1 0.0
11.200000000000001 0.1 0.0
11.600000000000001 0.1 0.0
12.0 0.1 0.0
12.4 0.1 0.0
12.8 0.1 0.0
13.200000000000001 0.1 0.0
13.600000000000001 0.1 0.0
14.0 0.1 0.0
14.4 0.1 0.0
14.8 0.1 0.0
15.200000000000001 0.1 0.0
15.600000000000001 0.1 0.0
16.0 0.1 0.0
0.0 0.2 0.0
0.4 0.2 0.0
0.8 0.2 0.0
1.2000000000000002 0.2 0.0
1.6 0.2 0.0
2.0 0.2 0.0
2.4000000000000004 0.2 0.0
2.8000000000000003 0.2 0.0
3.2 0.2 0.0
3.6 0.2 0.0
4.0 0.2 0.0
4.4 0.2 0.0
4.800000000000001 0.2 0.0
5.2 0.2 0.0
5.6000000000000005 0.2 0.0
6.0 0.2 0.0
6.4 0.2 0.0
6.800000000000001 0.2 0.0
7.2 0.2 0.0
7.6000000000000005 0.2 0.0
8.0 0.2 0.0
8.4 0.2 0.0
8.8 0.2 0.0
9.200000000000001 0.2 0.0
9.600000000000001 0.2 0.0
10.0 0.2 0.0
10.4 0.2 0.0
10.8 0.2 0.0
11.200000000000001 0.2 0.0
11.600000000000001 0.2 0.0
12.0 0.2 0.0
12.4 0.2 0.0
12.8 0.2 0.0
13.200000000000001 0.2 0.0
13.600000000000001 0.2 0.0
14.0 0.2 0.0
14.4 0.2 0.0
14.8 0.2 0.0
15.200000000000001 0.2 0.0
15.600000000000001 0.2 0.0
16.0 0.2 0.0
0.0 0.30000000000000004 0.0
0.4 0.30000000000000004 0.0
0.8 0.30000000000000004 0.0
1.2000000000000002 0.30000000000000004 0.0
1.6 0.30000000000000004 0.0
2.0 0.30000000000000004 0.0
2.4000000000000004 0.30000000000000004 0.0
2.8000000000000003 0.30000000000000004 0.0
3.2 0.30000000000000004 0.0
3.6 0.30000000000000004 0.0
4.0 0.30000000000000004 0.0
4.4 0.30000000000000004 0.0
4.800000000000001 0.30000000000000004 0.0
5.2 0.30000000000000004 0.0
5.6000000000000005 0.30000000000000004 0.0
6.0 0.30000000000000004 0.0
6.4 0.30000000000000004 0.0
6.800000000000001 0.30000000000000004 0.0
7.2 0.30000000000000004 0.0
7.6000000000000005 0.30000000000000004 0.0
8.0 0.30000000000000004 0.0
8.4 0.30000000000000004 0.0
8.8 0.30000000000000004 0.0
9.200000000000001 0.30000000000000004 0.0
9.600000000000001 0.30000000000000004 0.0
10.0 0.30000000000000004 0.0
10.4 0.30000000000000004 0.0
10.8 0.30000000000000004 0.0
11.200000000000001 0.30000000000000004 0.0
11.600000000000001 0.30000000000000004 0.0
12.0 0.30000000000000004 0.0
12.4 0.30000000000000004 0.0
12.8 0.30000000000000004 0.0
13.200000000000001 0.30000000000000004 0.0
13.600000000000001 0.30000000000000004 0.0
14.0 0.30000000000000004 0.0
14.4 0.30000000000000004 0.0
14.8 0.30000000000000004 0.0
15.200000000000001 0.30000000000000004 0.0
15.600000000000001 0.30000000000000004 0.0
16.0 0.30000000000000004 0.0
0.0 0.4 0.0
0.4 0.4 0.0
0.8 0.4 0.0
1.2000000000000002 0.4 0.0
1.6 0.4 0.0
2.0 0.4 0.0
2.4000000000000004 0.4 0.0
2.8000000000000003 0.4 0.0
3.2 0.4 0.0
3.6 0.4 0.0
4.0 0.4 0.0
4.4 0.4 0.0
4.800000000000001 0.4 0.0
5.2 0.4 0.0
5.6000000000000005 0.4 0.0
6.0 0.4 0.0
6.4 0.4 0.0
6.800000000000001 0.4 0.0
7.2 0.4 0.0
7.6000000000000005 0.4 0.0
8.0 0.4 0.0
8.4 0.4 0.0
8.8 0.4 0.0
9.200000000000001 0.4 0.0
9.600000000000001 0.4 0.0
10.0 0.4 0.0
10.4 0.4 0.0
10.8 0.4 0.0
11.200000000000001 0.4 0.0
11.600000000000001 0.4 0.0
12.0 0.4 0.0
12.4 0.4 0.0
12.8 0.4 0.0
13.200000000000001 0.4 0.0
13.600000000000001 0.4 0.0
14.0 0.4 0.0
14.4 0.4 0.0
14.8 0.4 0.0
15.200000000000001 0.4 0.0
15.600000000000001 0.4 0.0
16.0 0.4 0.0
0.0 0.5 0.0
0.4 0.5 0.0
0.8 0.5 0.0
1.2000000000000002 0.5 0.0
1.6 0.5 0.0
2.0 0.5 0.0
2.4000000000000004 0.5 0.0
2.8000000000000003 0.5 0.0
3.2 0.5 0.0
3.6 0.5 0.0
4.0 0.5 0.0
4.4 0.5 0.0
4.800000000000001 0.5 0.0
5.2 0.5 0.0
5.6000000000000005 0.5 0.0
6.0 0.5 0.0
6.4 0.5 0.0
6.800000000000001 0.5 0.0
7.2 0.5 0.0
7.6000000000000005 0.5 0.0
8.0 0.5 0.0
8.4 0.5 0.0
8.8 0.5 0.0
9.200000000000001 0.5 0.0
9.600000000000001 0.5 0.0
10.0 0.5 0.0
10.4 0.5 0.0
10.8 0.5 0.0
11.200000000000001 0.5 0.0
11.600000000000001 0.5 0.0
12.0 0.5 0.0
12.4 0.5 0.0
12.8 0.5 0.0
13.200000000000001 0.5 0.0
13.600000000000001 0.5 0.0
14.0 0.5 0.0
14.4 0.5 0.0
14.8 0.5 0.0
15.200000000000001 0.5 0.0
15.600000000000001 0.5 0.0
16.0 0.5 0.0
0.0 0.6000000000000001 0.0
0.4 0.6000000000000001 0.0
0.8 0.6000000000000001 0.0
1.2000000000000002 0.6000000000000001 0.0
1.6 0.6000000000000001 0.0
2.0 0.6000000000000001 0.0
2.4000000000000004 0.6000000000000001 0.0
2.8000000000000003 0.6000000000000001 0.0
3.2 0.6000000000000001 0.0
3.6 0.6000000000000001 0.0
4.0 0.6000000000000001 0.0
4.4 0.6000000000000001 0.0
4.800000000000001 0.6000000000000001 0.0
5.2 0.6000000000000001 0.0
5.6000000000000005 0.6000000000000001 0.0
6.0 0.6000000000000001 0.0
6.4 0.6000000000000001 0.0
6.800000000000001 0.6000000000000001 0.0
7.2 0.6000000000000001 0.0
7.6000000000000005 0.6000000000000001 0.0
8.0 0.6000000000000001 0.0
8.4 0.6000000000000001 0.0
8.8 0.6000000000000001 0.0
9.200000000000001 0.6000000000000001 0.0
9.600000000000001 0.6000000000000001 0.0
10.0 0.6000000000000001 0.0
10.4 0.6000000000000001 0.0
10.8 0.6000000000000001 0.0
11.200000000000001 0.6000000000000001 0.0
11.600000000000001 0.6000000000000001 0.0
12.0 0.6000000000000001 0.0
12.4 0.6000000000000001 0.0
12.8 0.6000000000000001 0.0
13.200000000000001 0.6000000000000001 0.0
13.600000000000001 0.6000000000000001 0.0
14.0 0.6000000000000001 0.0
14.4 0.6000000000000001 0.0
14.8 0.6000000000000001 0.0
15.200000000000001 0.6000000000000001 0.0
15.600000000000001 0.6000000000000001 0.0
16.0 0.6000000000000001 0.0
0.0 0.7000000000000001 0.0
0.4 0.7000000000000001 0.0
0.8 0.7000000000000001 0.0
1.2000000000000002 0.7000000000000001 0.0
1.6 0.7000000000000001 0.0
2.0 0.7000000000000001 0.0
2.4000000000000004 0.7000000000000001 0.0
2.8000000000000003 0.7000000000000001 0.0
3.2 0.7000000000000001 0.0
3.6 0.7000000000000001 0.0
4.0 0.7000000000000001 0.0
4.4 0.7000000000000001 0.0
4.800000000000001 0.7000000000000001 0.0
5.2 0.7000000000000001 0.0
5.6000000000000005 0.7000000000000001 0.0
6.0 0.7000000000000001 0.0
6.4 0.7000000000000001 0.0
6.800000000000001 0.7000000000000001 0.0
7.2 0.7000000000000001 0.0
7.6000000000000005 0.7000000000000001 0.0
8.0 0.7000000000000001 0.0
8.4 0.7000000000000001 0.0
8.8 0.7000000000000001 0.0
9.200000000000001 0.7000000000000001 0.0
9.600000000000001 0.7000000000000001 0.0
10.0 0.7000000000000001 0.0
10.4 0.7000000000000001 0.0
10.8 0.7000000000000001 0.0
11.200000000000001 0.7000000000000001 0.0
11.600000000000001 0.7000000000000001 0.0
12.0 0.7000000000000001 0.0
12.4 0.7000000000000001 0.0
12.8 0.7000000000000001 0.0
13.200000000000001 0.7000000000000001 0.0
13.600000000000001 0.7000000000000001 0.0
14.0 0.7000000000000001 0.0
14.4 0.7000000000000001 0.0
14.8 0.7000000000000001 0.0
15.200000000000001 0.7000000000000001 0.0
15.600000000000001 0.7000000000000001 0.0
16.0 0.7000000000000001 0.0
0.0 0.8 0.0
0.4 0.8 0.0
0.8 0.8 0.0
1.2000000000000002 0.8 0.0
1.6 0.8 0.0
2.0 0.8 0.0
2.4000000000000004 0.8 0.0
2.8000000000000003 0.8 0.0
3.2 0.8 0.0
3.6 0.8 0.0
4.0 0.8 0.0
4.4 0.8 0.0
4.800000000000001 0.8 0.0
5.2 0.8 0.0
5.6000000000000005 0.8 0.0
6.0 0.8 0.0
6.4 0.8 0.0
6.800000000000001 0.8 0.0
7.2 0.8 0.0
7.6000000000000005 0.8 0.0
8.0 0.8 0.0
8.4 0.8 0.0
8.8 0.8 0.0
9.200000000000001 0.8 0.0
9.600000000000001 0.8 0.0
10.0 0.8 0.0
10.4 0.8 0.0
10.8 0.8 0.0
11.200000000000001 0.8 0.0
11.600000000000001 0.8 0.0
12.0 0.8 0.0
12.4 0.8 0.0
12.8 0.8 0.0
13.200000000000001 0.8 0.0
13.600000000000001 0.8 0.0
14.0 0.8 0.0
14.4 0.8 0.0
14.8 0.8 0.0
15.200000000000001 0.8 0.0
15.600000000000001 0.8 0.0
16.0 0.8 0.0
0.0 0.9 0.0
0.4 0.9 0.0
0.8 0.9 0.0
1.2000000000000002 0.9 0.0
1.6 0.9 0.0
2.0 0.9 0.0
2.4000000000000004 0.9 0.0
2.8000000000000003 0.9 0.0
3.2 0.9 0.0
3.6 0.9 0.0
4.0 0.9 0.0
4.4 0.9 0.0
4.800000000000001 0.9 0.0
5.2 0.9 0.0
5.6000000000000005 0.9 0.0
6.0 0.9 0.0
6.4 0.9 0.0
6.800000000000001 0.9 0.0
7.2 0.9 0.0
7.6000000000000005 0.9 0.0
8.0 0.9 0.0
8.4 0.9 0.0
8.8 0.9 0.0
9.200000000000001 0.9 0.0
9.600000000000001 0.9 0.0
10.0 0.9 0.0
10.4 0.9 0.0
10.8 0.9 0.0
11.200000000000001 0.9 0.0
11.600000000000001 0.9 0.0
12.0 0.9 0.0
12.4 0.9 0.0
12.8 0.9 0.0
13.200000000000001 0.9 0.0
13.600000000000001 0.9 0.0
14.0 0.9 0.0
14.4 0.9 0.0
14.8 0.9 0.0
15.200000000000001 0.9 0.0
15.600000000000001 0.9 0.0
16.0 0.9 0.0
0.0 1.0 0.0
0.4 1.0 0.0
0.8 1.0 0.0
1.2000000000000002 1.0 0.0
1.6 1.0 0.0
2.0 1.0 0.0
2.4000000000000004 1.0 0.0
2.8000000000000003 1.0 0.0
3.2 1.0 0.0
3.6 1.0 0.0
4.0 1.0 0.0
4.4 1.0 0.0
4.800000000000001 1.0 0.0
5.2 1.0 0.0
5.6000000000000005 1.0 0.0
6.0 1.0 0.0
6.4 1.0 0.0
6.800000000000001 1.0 0.0
7.2 1.0 0.0
7.6000000000000005 1.0 0.0
8.0 1.0 0.0
8.4 1.0 0.0
8.8 1.0 0.0
9.200000000000001 1.0 0.0
9.600000000000001 1.0 0.0
10.0 1.0 0.0
10.4 1.0 0.0
10.8 1.0 0.0
11.200000000000001 1.0 0.0
11.600000000000001 1.0 0.0
12.0 1.0 0.0
12.4 1.0 0.0
12.8 1.0 0.0
13.200000000000001 1.0 0.0
13.600000000000001 1.0 0.0
14.0 1.0 0.0
14.4 1.0 0.0
14.8 1.0 0.0
15.200000000000001 1.0 0.0
15.600000000000001 1.0 0.0
16.0 1.0 0.0
0.0 1.1 0.0
0.4 1.1 0.0
0.8 1.1 0.0
1.2000000000000002 1.1 0.0
1.6 1.1 0.0
2.0 1.1 0.0
2.4000000000000004 1.1 0.0
2.8000000000000003 1.1 0.0
3.2 1.1 0.0
3.6 1.1 0.0
4.0 1.1 0.0
4.4 1.1 0.0
4.800000000000001 1.1 0.0
5.2 1.1 0.0
5.6000000000000005 1.1 0.0
6.0 1.1 0.0
6.4 1.1 0.0
6.800000000000001 1.1 0.0
7.2 1.1 0.0
7.6000000000000005 1.1 0.0
8.0 1.1 0.0
8.4 1.1 0.0
8.8 1.1 0.0
9.200000000000001 1.1 0.0
9.600000000000001 1.1 0.0
10.0 1.1 0.0
10.4 1.1 0.0
10.8 1.1 0.0
11.200000000000001 1.1 0.0
11.600000000000001 1.1 0.0
12.0 1.1 0.0
12.4 1.1 0.0
12.8 1.1 0.0
13.200000000000001 1.1 0.0
13.600000000000001 1.1 0.0
14.0 1.1 0.0
14.4 1.1 0.0
14.8 1.1 0.0
15.200000000000001 1.1 0.0
15.600000000000001 1.1 0.0
16.0 1.1 0.0
0.0 1.2000000000000002 0.0
0.4 1.2000000000000002 0.0
0.8 1.2000000000000002 0.0
1.2000000000000002 1.2000000000000002 0.0
1.6 1.2000000000000002 0.0
2.0 1.2000000000000002 0.0
2.4000000000000004 1.2000000000000002 0.0
2.8000000000000003 1.2000000000000002 0.0
3.2 1.2000000000000002 0.0
3.6 1.2000000000000002 0.0
4.0 1.2000000000000002 0.0
4.4 1.2000000000000002 0.0
4.800000000000001 1.2000000000000002 0.0
5.2 1.2000000000000002 0.0
5.6000000000000005 1.2000000000000002 0.0
6.0 1.2000000000000002 0.0
6.4 1.2000000000000002 0.0
6.800000000000001 1.2000000000000002 0.0
7.2 1.2000000000000002 0.0
7.6000000000000005 1.2000000000000002 0.0
8.0 1.2000000000000002 0.0
8.4 1.2000000000000002 0.0
8.8 1.2000000000000002 0.0
9.200000000000001 1.2000000000000002 0.0
9.600000000000001 1.2000000000000002 0.0
10.0 1.2000000000000002 0.0
10.4 1.2000000000000002 0.0
10.8 1.2000000000000002 0.0
11.200000000000001 1.2000000000000002 0.0
11.600000000000001 1.2000000000000002 0.0
12.0 1.2000000000000002 0.0
12.4 1.2000000000000002 0.0
12.8 1.2000000000000002 0.0
13.200000000000001 1.2000000000000002 0.0
13.600000000000001 1.2000000000000002 0.0
14.0 1.2000000000000002 0.0
14.4 1.2000000000000002 0.0
14.8 1.2000000000000002 0.0
15.200000000000001 1.2000000000000002 0.0
15.600000000000001 1.2000000000000002 0.0
16.0 1.2000000000000002 0.0
0.0 1.3 0.0
0.4 1.3 0.0
0.8 1.3 0.0
1.2000000000000002 1.3 0.0
1.6 1.3 0.0
2.0 1.3 0.0
2.4000000000000004 1.3 0.0
2.8000000000000003 1.3 0.0
3.2 1.3 0.0
3.6 1.3 0.0
4.0 1.3 0.0
4.4 1.3 0.0
4.800000000000001 1.3 0.0
5.2 1.3 0.0
5.6000000000000005 1.3 0.0
6.0 1.3 0.0
6.4 1.3 0.0
6.800000000000001 1.3 0.0
7.2 1.3 0.0
7.6000000000000005 1.3 0.0
8.0 1.3 0.0
8.4 1.3 0.0
8.8 1.3 0.0
9.200000000000001 1.3 0.0
9.600000000000001 1.3 0.0
10.0 1.3 0.0
10.4 1.3 0.0
10.8 1.3 0.0
11.200000000000001 1.3 0.0
11.600000000000001 1.3 0.0
12.0 1.3 0.0
12.4 1.3 0.0
12.8 1.3 0.0
13.200000000000001 1.3 0.0
13.600000000000001 1.3 0.0
14.0 1.3 0.0
14.4 1.3 0.0
14.8 1.3 0.0
15.200000000000001 1.3 0.0
15.600000000000001 1.3 0.0
16.0 1.3 0.0
0.0 1.4000000000000001 0.0
0.4 1.4000000000000001 0.0
0.8 1.4000000000000001 0.0
1.2000000000000002 1.4000000000000001 0.0
1.6 1.4000000000000001 0.0
2.0 1.4000000000000001 0.0
2.4000000000000004 1.4000000000000001 0.0
2.8000000000000003 1.4000000000000001 0.0
3.2 1.4000000000000001 0.0
3.6 1.4000000000000001 0.0
4.0 1.4000000000000001 0.0
4.4 1.4000000000000001 0.0
4.800000000000001 1.4000000000000001 0.0
5.2 1.4000000000000001 0.0
5.6000000000000005 1.4000000000000001 0.0
6.0 1.4000000000000001 0.0
6.4 1.4000000000000001 0.0
6.800000000000001 1.4000000000000001 0.0
7.2 1.4000000000000001 0.0
7.6000000000000005 1.4000000000000001 0.0
8.0 1.4000000000000001 0.0
8.4 1.4000000000000001 0.0
8.8 1.4000000000000001 0.0
9.200000000000001 1.4000000000000001 0.0
9.600000000000001 1.4000000000000001 0.0
10.0 1.4000000000000001 0.0
10.4 1.4000000000000001 0.0
10.8 1.4000000000000001 0.0
11.200000000000001 1.4000000000000001 0.0
11.600000000000001 1.4000000000000001 0.0
12.0 1.4000000000000001 0.0
12.4 1.4000000000000001 0.0
12.8 1.4000000000000001 0.0
13.200000000000001 1.4000000000000001 0.0
13.600000000000001 1.4000000000000001 0.0
14.0 1.4000000000000001 0.0
14.4 1.4000000000000001 0.0
14.8 1.4000000000000001 0.0
15.200000000000001 1.4000000000000001 0.0
15.600000000000001 1.4000000000000001 0.0
16.0 1.4000000000000001 0.0
0.0 1.5 0.0
0.4 1.5 0.0
0.8 1.5 0.0
1.2000000000000002 1.5 0.0
1.6 1.5 0.0
2.0 1.5 0.0
2.4000000000000004 1.5 0.0
2.8000000000000003 1.5 0.0
3.2 1.5 0.0
3.6 1.5 0.0
4.0 1.5 0.0
4.4 1.5 0.0
4.800000000000001 1.5 0.0
5.2 1.5 0.0
5.6000000000000005 1.5 0.0
6.0 1.5 0.0
6.4 1.5 0.0
6.800000000000001 1.5 0.0
7.2 1.5 0.0
7.6000000000000005 1.5 0.0
8.0 1.5 0.0
8.4 1.5 0.0
8.8 1.5 0.0
9.200000000000001 1.5 0.0
9.600000000000001 1.5 0.0
10.0 1.5 0.0
10.4 1.5 0.0
10.8 1.5 0.0
11.200000000000001 1.5 0.0
11.600000000000001 1.5 0.0
12.0 1.5 0.0
12.4 1.5 0.0
12.8 1.5 0.0
13.200000000000001 1.5 0.0
13.600000000000001 1.5 0.0
14.0 1.5 0.0
14.4 1.5 0.0
14.8 1.5 0.0
15.200000000000001 1.5 0.0
15.600000000000001 1.5 0.0
16.0 1.5 0.0
0.0 1.6 0.0
0.4 1.6 0.0
0.8 1.6 0.0
1.2000000000000002 1.6 0.0
1.6 1.6 0.0
2.0 1.6 0.0
2.4000000000000004 1.6 0.0
2.8000000000000003 1.6 0.0
3.2 1.6 0.0
3.6 1.6 0.0
4.0 1.6 0.0
4.4 1.6 0.0
4.800000000000001 1.6 0.0
5.2 1.6 0.0
5.6000000000000005 1.6 0.0
6.0 1.6 0.0
6.4 1.6 0.0
6.800000000000001 1.6 0.0
7.2 1.6 0.0
7.6000000000000005 1.6 0.0
8.0 1.6 0.0
8.4 1.6 0.0
8.8 1.6 0.0
9.200000000000001 1.6 0.0
9.600000000000001 1.6 0.0
10.0 1.6 0.0
10.4 1.6 0.0
10.8 1.6 0.0
11.200000000000001 1.6 0.0
11.600000000000001 1.6 0.0
12.0 1.6 0.0
12.4 1.6 0.0
12.8 1.6 0.0
13.200000000000001 1.6 0.0
13.600000000000001 1.6 0.0
14.0 1.6 0.0
14.4 1.6 0.0
14.8 1.6 0.0
15.200000000000001 1.6 0.0
15.600000000000001 1.6 0.0
16.0 1.6 0.0
0.0 1.7000000000000002 0.0
0.4 1.7000000000000002 0.0
0.8 1.7000000000000002 0.0
1.2000000000000002 1.7000000000000002 0.0
1.6 1.7000000000000002 0.0
2.0 1.7000000000000002 0.0
2.4000000000000004 1.7000000000000002 0.0
2.8000000000000003 1.7000000000000002 0.0
3.2 1.7000000000000002 0.0
3.6 1.7000000000000002 0.0
4.0 1.7000000000000002 0.0
4.4 1.7000000000000002 0.0
4.800000000000001 1.7000000000000002 0.0
5.2 1.7000000000000002 0.0
5.6000000000000005 1.7000000000000002 0.0
6.0 1.7000000000000002 0.0
6.4 1.7000000000000002 0.0
6.800000000000001 1.7000000000000002 0.0
7.2 1.7000000000000002 0.0
7.6000000000000005 1.7000000000000002 0.0
8.0 1.7000000000000002 0.0
8.4 1.7000000000000002 0.0
8.8 1.7000000000000002 0.0
9.200000000000001 1.7000000000000002 0.0
9.600000000000001 1.7000000000000002 0.0
10.0 1.7000000000000002 0.0
10.4 1.7000000000000002 0.0
10.8 1.7000000000000002 0.0
11.200000000000001 1.7000000000000002 0.0
11.600000000000001 1.7000000000000002 0.0
12.0 1.7000000000000002 0.0
12.4 1.7000000000000002 0.0
12.8 1.7000000000000002 0.0
13.200000000000001 1.7000000000000002 0.0
13.600000000000001 1.7000000000000002 0.0
14.0 1.7000000000000002 0.0
14.4 1.7000000000000002 0.0
14.8 1.7000000000000002 0.0
15.200000000000001 1.7000000000000002 0.0
15.600000000000001 1.7000000000000002 0.0
16.0 1.7000000000000002 0.0
0.0 1.8 0.0
0.4 1.8 0.0
0.8 1.8 0.0
1.2000000000000002 1.8 0.0
1.6 1.8 0.0
2.0 1.8 0.0
2.4000000000000004 1.8 0.0
2.8000000000000003 1.8 0.0
3.2 1.8 0.0
3.6 1.8 0.0
4.0 1.8 0.0
4.4 1.8 0.0
4.800000000000001 1.8 0.0
5.2 1.8 0.0
5.6000000000000005 1.8 0.0
6.0 1.8 0.0
6.4 1.8 0.0
6.800000000000001 1.8 0.0
7.2 1.8 0.0
7.6000000000000005 1.8 0.0
8.0 1.8 0.0
8.4 1.8 0.0
8.8 1.8 0.0
9.200000000000001 1.8 0.0
9.600000000000001 1.8 0.0
10.0 1.8 0.0
10.4 1.8 0.0
10.8 1.8 0.0
11.200000000000001 1.8 0.0
11.600000000000001 1.8 0.0
12.0 1.8 0.0
12.4 1.8 0.0
12.8 1.8 0.0
13.200000000000001 1.8 0.0
13.600000000000001 1.8 0.0
14.0 1.8 0.0
14.4 1.8 0.0
14.8 1.8 0.0
15.200000000000001 1.8 0.0
15.600000000000001 1.8 0.0
16.0 1.8 0.0
0.0 1.9000000000000001 0.0
0.4 1.9000000000000001 0.0
0.8 1.9000000000000001 0.0
1.2000000000000002 1.9000000000000001 0.0
1.6 1.9000000000000001 0.0
2.0 1.9000000000000001 0.0
2.4000000000000004 1.9000000000000001 0.0
2.8000000000000003 1.9000000000000001 0.0
3.2 1.9000000000000001 0.0
3.6 1.9000000000000001 0.0
4.0 1.9000000000000001 0.0
4.4 1.9000000000000001 0.0
4.800000000000001 1.9000000000000001 0.0
5.2 1.9000000000000001 0.0
5.6000000000000005 1.9000000000000001 0.0
6.0 1.9000000000000001 0.0
6.4 1.9000000000000001 0.0
6.800000000000001 1.9000000000000001 0.0
7.2 1.9000000000000001 0.0
7.6000000000000005 1.9000000000000001 0.0
8.0 1.9000000000000001 0.0
8.4 1.9000000000000001 0.0
8.8 1.9000000000000001 0.0
9.200000000000001 1.9000000000000001 0.0
9.600000000000001 1.9000000000000001 0.0
10.0 1.9000000000000001 0.0
10.4 1.9000000000000001 0.0
10.8 1.9000000000000001 0.0
11.200000000000001 1.9000000000000001 0.0
11.600000000000001 1.9000000000000001 0.0
12.0 1.9000000000000001 0.0
12.4 1.9000000000000001 0.0
12.8 1.9000000000000001 0.0
13.200000000000001 1.9000000000000001 0.0
13.600000000000001 1.9000000000000001 0.0
14.0 1.9000000000000001 0.0
14.4 1.9000000000000001 0.0
14.8 1.9000000000000001 0.0
15.200000000000001 1.9000000000000001 0.0
15.600000000000001 1.9000000000000001 0.0
16.0 1.9000000000000001 0.0
0.0 2.0 0.0
0.4 2.0 0.0
0.8 2.0 0.0
1.2000000000000002 2.0 0.0
1.6 2.0 0.0
2.0 2.0 0.0
2.4000000000000004 2.0 0.0
2.8000000000000003 2.0 0.0
3.2 2.0 0.0
3.6 2.0 0.0
4.0 2.0 0.0
4.4 2.0 0.0
4.800000000000001 2.0 0.0
5.2 2.0 0.0
5.6000000000000005 2.0 0.0
6.0 2.0 0.0
6.4 2.0 0.0
6.800000000000001 2.0 0.0
7.2 2.0 0.0
7.6000000000000005 2.0 0.0
8.0 2.0 0.0
8.4 2.0 0.0
8.8 2.0 0.0
9.200000000000001 2.0 0.0
9.600000000000001 2.0 0.0
10.0 2.0 0.0
10.4 2.0 0.0
10.8 2.0 0.0
11.200000000000001 2.0 0.0
11.600000000000001 2.0 0.0
12.0 2.0 0.0
12.4 2.0 0.0
12.8 2.0 0.0
13.200000000000001 2.0 0.0
13.600000000000001 2.0 0.0
14.0 2.0 0.0
14.4 2.0 0.0
14.8 2.0 0.0
15.200000000000001 2.0 0.0
15.600000000000001 2.0 0.0
16.0 2.0 0.0
CELLS 800 4000
4 0 1 42 41
4 1 2 43 42
4 2 3 44 43
4 3 4 45 44
4 4 5 46 45
4 5 6 47 46
4 6 7 48 47
4 7 8 49 48
4 8 9 50 49
4 9 10 51 50
4 10 11 52 51
4 11 12 53 52
4 12 13 54 53
4 13 14 55 54
4 14 15 56 55
4 15 16 57 56
4 16 17 58 57
4 17 18 59 58
4 18 19 60 59
4 19 20 61 60
4 20 21 62 61
4 21 22 63 62
4 22 23 64 63
4 23 24 65 64
4 24 25 66 65
4 25 26 67 66
4 26 27 68 67
4 27 28 69 68
4 28 29 70 69
4 29 30 71 70
4 30 31 72 71
4 31 32 73 72
4 32 33 74 73
4 33 34 75 74
4 34 35 76 75
4 35 36 77 76
4 36 37 78 77
4 37 38 79 78
4 38 39 80 79
4 39 40 81 80
4 41 42 83 82
4 42 43 84 83
4 43 44 85 84
4 44 45 86 85
4 45 46 87 86
4 46 47 88 87
4 47 48 89 88
4 48 49 90 89
4 49 50 91 90
4 50 51 92 91
4 51 52 93 92
4 52 53 94 93
4 53 54 95 94
4 54 55 96 95
4 55 56 97 96
4 56 57 98 97
4 57 58 99 98
4 58 59 100 99
4 59 60 101 100
4 60 61 102 101
4 61 62 103 102
4 62 63 104 103
4 63 64 105 104
4 64 65 106 105
4 65 66 107 106
4 66 67 108 107
4 67 68 109 108
4 68 69 110 109
4 69 70 111 110
4 70 71 112 111
4 71 72 113 112
4 72 73 114 113
4 73 74 115 114
4 74 75 116 115
4 75 76 117 116
4 76 77 118 117
4 77 78 119 118
4 78 79 120 119
4 79 80 121 120
4 80 81 122 121
4 82 83 124 123
4 83 84 125 124
4 84 85 126 125
4 85 86 127 126
4 86 87 128 127
4 87 88 129 128
4 88 89 130 129
4 89 90 131 130
4 90 91 132 131
4 91 92 133 132
4 92 93 134 133
4 93 94 135 134
4 94 95 136 135
4 95 96 137 136
4 96 97 138 137
4 97 98 139 138
4 98 99 140 139
4 99 100 141 140
4 100 101 142 141
4 101 102 143 142
4 102 103 144 143
4 103 104 145 144
4 104 105 146 145
4 105 106 147 146
4 106 107 148 147
4 107 108 149 148
4 108 109 150 149
4 109 110 151 150
4 110 111 152 151
4 111 112 153 152
4 112 113 154 153
4 113 114 155 154
4 114 115 156 155
4 115 116 157 156
4 116 117 158 157
4 117 118 159 158
4 118 119 160 159
4 119 120 161 160
4 120 121 162 161
4 121 122 163 162
4 123 124 165 164
4 124 125 166 165
4 125 126 167 166
4 126 127 168 167
4 127 128 169 168
4 128 129 170 169
4 129 130 171 170
4 130 131 172 171
4 131 132 173 172
4 132 133 174 173
4 133 134 175 174
4 134 135 176 175
4 135 136 177 176
4 136 137 178 177
4 137 138 179 178
4 138 139 180 179
4 139 140 181 180
4 140 141 182 181
4 141 142 183 182
4 142 143 184 183
4 143 144 185 184
4 144 145 186 185
4 145 146 187 186
4 146 147 188 187
4 147 148 189 188
4 148 149 190 189
4 149 150 191 190
4 150 151 192 191
4 151 152 193 192
4 152 153 194 193
4 153 154 195 194
4 154 155 196 195
4 155 156 197 196
4 156 157 198 197
4 157 158 199 198
4 158 159 200 199
4 159 160 201 200
4 160 161 202 201
4 161 162 203 202
4 162 163 204 203
4 164 165 206 205
4 165 166 207 206
4 166 167 208 207
4 167 168 209 208
4 168 169 210 209
4 169 170 211 210
4 170 171 212 211
4 171 172 213 212
4 172 173 214 213
4 173 174 215 214
4 174 175 216 215
4 175 176 217 216
4 176 177 218 217
4 177 178 219 218
4 178 179 220 219
4 179 180 221 220
4 180 181 222 221
4 181 182 223 222
4 182 183 224 223
4 183 184 225 224
4 184 185 226 225
4 185 186 227 226
4 186 187 228 227
4 187 188 229 228
4 188 189 230 229
4 189 190 231 230
4 190 191 232 231
4 191 192 233 232
4 192 193 234 233
4 193 194 235 234
4 194 195 236 235
4 195 196 237 236
4 196 197 238 237
4 197 198 239 238
4 198 199 240 239
4 199 200 241 240
4 200 201 242 241
4 201 202 243 242
4 202 203 244 243
4 203 204 245 244
4 205 206 247 246
4 206 207 248 247
4 207 208 249 248
4 208 209 250 249
4 209 210 251 250
4 210 211 252 251
4 211 212 253 252
4 212 213 254 253
4 213 214 255 254
4 214 215 256 255
4 215 216 257 256
4 216 217 258 257
4 217 218 259 258
4 218 219 260 259
4 219 220 261 260
4 220 221 262 261
4 221 222 263 262
4 222 223 264 263
4 223 224 265 264
4 224 225 266 265
4 225 226 267 266
4 226 227 268 267
4 227 228 269 268
4 228 229 270 269
4 229 230 271 270
4 230 231 272 271
4 231 232 273 272
4 232 233 274 273
4 233 234 275 274
4 234 235 276 275
4 235 236 277 276
4 236 237 278 277
4 237 238 279 278
4 238 239 280 279
4 239 240 281 280
4 240 241 282 281
4 241 242 283 282
4 242 243 284 283
4 243 244 285 284
4 244 245 286 285
4 246 247 288 287
4 247 248 289 288
4 248 249 290 289
4 249 250 291 290
4 250 251 292 291
4 251 252 293 292
4 252 253 294 293
4 253 254 295 294
4 254 255 296 295
4 255 256 297 296
4 256 257 298 297
4 257 258 299 298
4 258 259 300 299
4 259 260 301 300
4 260 261 302 301
4 261 262 303 302
4 262 263 304 303
4 263 264 305 304
4 264 265 306 305
4 265 266 307 306
4 266 267 308 307
4 267 268 309 308
4 268 269 310 309
4 269 270 311 310
4 270 271 312 311
4 271 272 313 312
4 272 273 314 313
4 273 274 315 314
4 274 275 316 315
4 275 276 317 316
4 276 277 318 317
4 277 278 319 318
4 278 279 320 319
4 279 280 321 320
4 280 281 322 321
4 281 282 323 322
4 282 283 324 323
4 283 284 325 324
4 284 285 326 325
4 285 286 327 326
4 287 288 329 328
4 288 289 330 329
4 289 290 331 330
4 290 291 332 331
4 291 292 333 332
4 292 293 334 333
4 293 294 335 334
4 294 295 336 335
4 295 296 337 336
4 296 297 338 337
4 297 298 339 338
4 298 299 340 339
4 299 300 341 340
4 300 301 342 341
4 301 302 343 342
4 302 303 344 343
4 303 304 345 344
4 304 305 346 345
4 305 306 347 346
4 306 307 348 347
4 307 308 349 348
4 308 309 350 349
4 309 310 351 350
4 310 311 352 351
4 311 312 353 352
4 312 313 354 353
4 313 314 355 354
4 314 315 356 355
4 315 316 357 356
4 316 317 358 357
4 317 318 359 358
4 318 319 360 359
4 319 320 361 360
4 320 321 362 361
4 321 322 363 362
4 322 323 364 363
4 323 324 365 364
4 324 325 366 365
4 325 326 367 366
4 326 327 368 367
4 328 329 370 369
4 329 330 371 370
4 330 331 372 371
4 331 332 373 372
4 332 333 374 373
4 333 334 375 374
4 334 335 376 375
4 335 336 377 376
4 336 337 378 377
4 337 338 379 378
4 338 339 380 379
4 339 340 381 380
4 340 341 382 381
4 341 342 383 382
4 342 343 384 383
4 343 344 385 384
4 344 345 386 385
4 345 346 387 386
4 346 347 388 387
4 347 348 389 388
4 348 349 390 389
4 349 350 391 390
4 350 351 392 391
4 351 352 393 392
4 352 353 394 393
4 353 354 395 394
4 354 355 396 395
4 355 356 397 396
4 356 357 398 397
4 357 358 399 398
4 358 359 400 399
4 359 360 401 400
4 360 361 402 401
4 361 362 403 402
4 362 363 404 403
4 363 364 405 404
4 364 365 406 405
4 365 366 407 406
4 366 367 408 407
4 367 368 409 408
4 369 370 411 410
4 370 371 412 411
4 371 372 413 412
4 372 373 414 413
4 373 374 415 414
4 374 375 416 415
4 375 376 417 416
4 376 377 418 417
4 377 378 419 418
4 378 379 420 419
4 379 380 421 420
4 380 381 422 421
4 381 382 423 422
4 382 383 424 423
4 383 384 425 424
4 384 385 426 425
4 385 386 427 426
4 386 387 428 427
4 387 388 429 428
4 388 389 430 429
4 389 390 431 430
4 390 391 432 431
4 391 392 433 432
4 392 393 434 433
4 393 394 435 434
4 394 395 436 435
4 395 396 437 436
4 396 397 438 437
4 397 398 439 438
4 398 399 440 439
4 399 400 441 440
4 400 401 442 441
4 401 402 443 442
4 402 403 444 443
4 403 404 445 444
4 404 405 446 445
4 405 406 447 446
4 406 407 448 447
4 407 408 449 448
4 408 409 450 449
4 410 411 452 451
4 411 412 453 452
4 412 413 454 453
4 413 414 455 454
4 414 415 456 455
4 415 416 457 456
4 416 417 458 457
4 417 418 459 458
4 418 419 460 459
4 419 420 461 460
4 420 421 462 461
4 421 422 463 462
4 422 423 464 463
4 423 424 465 464
4 424 425 466 465
4 425 426 467 466
4 426 427 468 467
4 427 428 469 468
4 428 429 470 469
4 429 430 471 470
4 430 431 472 471
4 431 432 473 472
4 432 433 474 473
4 433 434 475 474
4 434 435 476 475
4 435 436 477 476
4 436 437 478 477
4 437 438 479 478
4 438 439 480 479
4 439 440 481 480
4 440 441 482 481
4 441 442 483 482
4 442 443 484 483
4 443 444 485 484
4 444 445 486 485
4 445 446 487 486
4 446 447 488 487
4 447 448 489 488
4 448 449 490 489
4 449 450 491 490
4 451 452 493 492
4 452 453 494 493
4 453 454 495 494
4 454 455 496 495
4 455 456 497 496
4 456 457 498 497
4 457 458 499 498
4 458 459 500 499
4 459 460 501 500
4 460 461 502 501
4 461 462 503 502
4 462 463 504 503
4 463 464 505 504
4 464 465 506 505
4 465 466 507 506
4 466 467 508 507
4 467 468 509 508
4 468 469 510 509
4 469 470 511 510
4 470 471 512 511
4 471 472 513 512
4 472 473 514 513
4 473 474 515 514
4 474 475 516 515
4 475 476 517 516
4 476 477 518 517
4 477 478 519 518
4 478 479 520 519
4 479 480 521 520
4 480 481 522 521
4 481 482 523 522
4 482 483 524 523
4 483 484 525 524
4 484 485 526 525
4 485 486 527 526
4 486 487 528 527
4 487 488 529 528
4 488 489 530 529
4 489 490 531 530
4 490 491 532 531
4 492 493 534 533
4 493 494 535 534
4 494 495 536 535
4 495 496 537 536
4 496 497 538 537
4 497 498 539 538
4 498 499 540 539
4 499 500 541 540
4 500 501 542 541
4 501 502 543 542
4 502 503 544 543
4 503 504 545 544
4 504 505 546 545
4 505 506 547 546
4 506 507 548 547
4 507 508 549 548
4 508 509 550 549
4 509 510 551 550
4 510 511 552 551
4 511 512 553 552
4 512 513 554 553
4 513 514 555 554
4 514 515 556 555
4 515 516 557 556
4 516 517 558 557
4 517 518 559 558
4 518 519 560 559
4 519 520 561 560
4 520 521 562 561
4 521 522 563 562
4 522 523 564 563
4 523 524 565 564
4 524 525 566 565
4 525 526 567 566
4 526 527 568 567
4 527 528 569 568
4 528 529 570 569
4 529 530 571 570
4 530 531 572 571
4 531 532 573 572
4 533 534 575 574
4 534 535 576 575
4 535 536 577 576
4 536 537 578 577
4 537 538 579 578
4 538 539 580 579
4 539 540 581 580
4 540 541 582 581
4 541 542 583 582
4 542 543 584 583
4 543 544 585 584
4 544 545 586 585
4 545 546 587 586
4 546 547 588 587
4 547 548 589 588
4 548 549 590 589
4 549 550 591 590
4 550 551 592 591
4 551 552 593 592
4 552 553 594 593
4 553 554 595 594
4 554 555 596 595
4 555 556 597 596
4 556 557 598 597
4 557 558 599 598
4 558 559 600 599
4 559 560 601 600
4 560 561 602 601
4 561 562 603 602
4 562 563 604 603
4 563 564 605 604
4 564 565 606 605
4 565 566 607 606
4 566 567 608 607
4 567 568 609 608
4 568 569 610 609
4 569 570 611 610
4 570 571 612 611
4 571 572 613 612
4 572 573 614 613
4 574 575 616 615
4 575 576 617 616
4 576 577 618 617
4 577 578 619 618
4 578 579 620 619
4 579 580 621 620
4 580 581 622 621
4 581 582 623 622
4 582 583 624 623
4 583 584 625 624
4 584 585 626 625
4 585 586 627 626
4 586 587 628 627
4 587 588 629 628
4 588 589 630 629
4 589 590 631 630
4 590 591 632 631
4 591 592 633 632
4 592 593 634 633
4 593 594 635 634
4 594 595 636 635
4 595 596 637 636
4 596 597 638 637
4 597 598 639 638
4 598 599 640 639
4 599 600 641 640
4 600 601 642 641
4 601 602 643 642
4 602 603 644 643
4 603 604 645 644
4 604 605 646 645
4 605 606 647 646
4 606 607 648 647
4 607 608 649 648
4 608 609 650 649
4 609 610 651 650
4 610 611 652 651
4 611 612 653 652
4 612 613 654 653
4 613 614 655 654
4 615 616 657 656
4 616 617 658 657
4 617 618 659 658
4 618 619 660 659
4 619 620 661 660
4 620 621 662 661
4 621 622 663 662
4 622 623 664 663
4 623 624 665 664
4 624 625 666 665
4 625 626 667 666
4 626 627 668 667
4 627 628 669 668
4 628 629 670 669
4 629 630 671 670
4 630 631 672 671
4 631 632 673 672
4 632 633 674 673
4 633 634 675 674
4 634 635 676 675
4 635 636 677 676
4 636 637 678 677
4 637 638 679 678
4 638 639 680 679
4 639 640 681 680
4 640 641 682 681
4 641 642 683 682
4 642 643 684 683
4 643 644 685 684
4 644 645 686 685
4 645 646 687 686
4 646 647 688 687
4 647 648 689 688
4 648 649 690 689
4 649 650 691 690
4 650 651 692 691
4 651 652 693 692
4 652 653 694 693
4 653 654 695 694
4 654 655 696 695
4 656 657 698 697
4 657 658 699 698
4 658 659 700 699
4 659 660 701 700
4 660 661 702 701
4 661 662 703 702
4 662 663 704 703
4 663 664 705 704
4 664 665 706 705
4 665 666 707 706
4 666 667 708 707
4 667 668 709 708
4 668 669 710 709
4 669 670 711 710
4 670 671 712 711
4 671 672 713 712
4 672 673 714 713
4 673 674 715 714
4 674 675 716 715
4 675 676 717 716
4 676 677 718 717
4 677 678 719 718
4 678 679 720 719
4 679 680 721 720
4 680 681 722 721
4 681 682 723 722
4 682 683 724 723
4 683 684 725 724
4 684 685 726 725
4 685 686 727 726
4 686 687 728 727
4 687 688 729 728
4 688 689 730 729
4 689 690 731 730
4 690 691 732 731
4 691 692 733 732
4 692 693 734 733
4 693 694 735 734
4 694 695 736 735
4 695 696 737 736
4 697 698 739 738
4 698 699 740 739
4 699 700 741 740
4 700 701 742 741
4 701 702 743 742
4 702 703 744 743
4 703 704 745 744
4 704 705 746 745
4 705 706 747 746
4 706 707 748 747
4 707 708 749 748
4 708 709 750 749
4 709 710 751 750
4 710 711 752 751
4 711 712 753 752
4 712 713 754 753
4 713 714 755 754
4 714 715 756 755
4 715 716 757 756
4 716 717 758 757
4 717 718 759 758
4 718 719 760 759
4 719 720 761 760
4 720 721 762 761
4 721 722 763 762
4 722 723 764 763
4 723 724 765 764
4 724 725 766 765
4 725 726 767 766
4 726 727 768 767
4 727 728 769 768
4 728 729 770 769
4 729 730 771 770
4 730 731 772 771
4 731 732 773 772
4 732 733 774 773
4 733 734 775 774
4 734 735 776 775
4 735 736 777 776
4 736 737 778 777
4 738 739 780 779
4 739 740 781 780
4 740 741 782 781
4 741 742 783 782
4 742 743 784 783
4 743 744 785 784
4 744 745 786 785
4 745 746 787 786
4 746 747 788 787
4 747 748 789 788
4 748 749 790 789
4 749 750 791 790
4 750 751 792 791
4 751 752 793 792
4 752 753 794 793
4 753 754 795 794
4 754 755 796 795
4 755 756 797 796
4 756 757 798 797
4 757 758 799 798
4 758 759 800 799
4 759 760 801 800
4 760 761 802 801
4 761 762 803 802
4 762 763 804 803
4 763 764 805 804
4 764 765 806 805
4 765 766 807 806
4 766 767 808 807
4 767 768 809 808
4 768 769 810 809
4 769 770 811 810
4 770 771 812 811
4 771 772 813 812
4 772 773 814 813
4 773 774 815 814
4 774 775 816 815
4 775 776 817 816
4 776 777 818 817
4 777 778 819 818
4 779 780 821 820
4 780 781 822 821
4 781 782 823 822
4 782 783 824 823
4 783 784 825 824
4 784 785 826 825
4 785 786 827 826
4 786 787 828 827
4 787 788 829 828
4 788 789 830 829
4 789 790 831 830
4 790 791 832 831
4 791 792 833 832
4 792 793 834 833
4 793 794 835 834
4 794 795 836 835
4 795 796 837 836
4 796 797 838 837
4 797 798 839 838
4 798 799 840 839
4 799 800 841 840
4 800 801 842 841
4 801 802 843 842
4 802 803 844 843
4 803 804 845 844
4 804 805 846 845
4 805 806 847 846
4 806 807 848 847
4 807 808 849 848
4 808 809 850 849
4 809 810 851 850
4 810 811 852 851
4 811 812 853 852
4 812 813 854 853
4 813 814 855 854
4 814 815 856 855
4 815 816 857 856
4 816 817 858 857
4 817 818 859 858
4 818 819 860 859
CELL_TYPES 800
9
9
9
9
9
9
9
9
9
9
9
9
9
9
9
9
9
9
9
9
9
9
9
9
9
9
9
9
9
9
9
9
9
9
9
9
9
9
9
9
9
9
9
9
9
9
9
9
9
9
9
9
9
9
9
9
9
9
9
9
9
9
9
9
9
9
9
9
9
9
9
9
9
9
9
9
9
9
9
9
9
9
9
9
9
9
9
9
9
9
9
9
9
9
9
9
9
9
9
9
9
9
9
9
9
9
9
9
9
9
9
9
9
9
9
9
9
9
9
9
9
9
9
9
9
9
9
9
9
9
9
9
9
9
9
9
9
9
9
9
9
9
9
9
9
9
9
9
9
9
9
9
9
9
9
9
9
9
9
9
9
9
9
9
9
9
9
9
9
9
9
9
9
9
9
9
9
9
9
9
9
9
9
9
9
9
9
9
9
9
9
9
9
9
9
9
9
9
9
9
9
9
9
9
9
9
9
9
9
9
9
9
9
9
9
9
9
9
9
9
9
9
9
9
9
9
9
9
9
9
9
9
9
9
9
9
9
9
9
9
9
9
9
9
9
9
9
9
9
9
9
9
9
9
9
9
9
9
9
9
9
9
9
9
9
9
9
9
9
9
9
9
9
9
9
9
9
9
9
9
9
9
9
9
9
9
9
9
9
9
9
9
9
9
9
9
9
9
9
9
9
9
9
9
9
9
9
9
9
9
9
9
9
9
9
9
9
9
9
9
9
9
9
9
9
9
9
9
9
9
9
9
9
9
9
9
9
9
9
9
9
9
9
9
9
9
9
9
9
9
9
9
9
9
9
9
9
9
9
9
9
9
9
9
9
9
9
9
9
9
9
9
9
9
9
9
9
9
9
9
9
9
9
9
9
9
9
9
9
9
9
9
9
9
9
9
9
9
9
9
9
9
9
9
9
9
9
9
9
9
9
9
9
9
9
9
9
9
9
9
9
9
9
9
9
9
9
9
9
9
9
9
9
9
9
9
9
9
9
9
9
9
9
9
9
9
9
9
9
9
9
9
9
9
9
9
9
9
9
9
9
9
9
9
9
9
9
9
9
9
9
9
9
9
9
9
9
9
9
9
9
9
9
9
9
9
9
9
9
9
9
9
9
9
9
9
9
9
9
9
9
9
9
9
9
9
9
9
9
9
9
9
9
9
9
9
9
9
9
9
9
9
9
9
9
9
9
9
9
9
9
9
9
9
9
9
9
9
9
9
9
9
9
9
9
9
9
9
9
9
9
9
9
9
9
9
9
9
9
9
9
9
9
9
9
9
9
9
9
9
9
9
9
9
9
9
9
9
9
9
9
9
9
9
9
9
9
9
9
9
9
9
9
9
9
9
9
9
9
9
9
9
9
9
9
9
9
9
9
9
9
9
9
9
9
9
9
9
9
9
9
9
9
9
9
9
9
9
9
9
9
9
9
9
9
9
9
9
9
9
9
9
9
9
9
9
9
9
9
9
9
9
9
9
9
9
9
9
9
9
9
9
9
9
9
9
9
9
9
9
9
9
9
9
9
9
9
9
9
9
9
9
9
9
9
9
9
9
9
9
9
9
9
9
9
9
9
9
9
9
9
9
9
9
9
9
9
9
9
9
9
9
9
9
9
9
9
9
9
9
9
9
9
9
9
9
9
9
9
9
9
9
9
9
9
9
9
9
9
9
9
9
9
9
9
9
9
9
9
9
9
9
9
9
9
9
9
9
9
9
9
9
9
9
9
9
9
9
9
9
9
9
9
9
9
9
9
9
9
9
9
9
9
9
9
9
9
9
9
9
9
9
9
9
9
9
9
9
9
9
POINT_DATA 861
SCALARS Disp float 2
LOOKUP_TABLE default
0.0 0.0
0.006109496112284361 -0.28182629353283845
0.007515916889279658 -0.5540150864535821
0.0083177335929286 -0.8250710347248178
0.009376864980302197 -1.0957342668221293
0.01115072206641592 -1.3655452393306662
0.0143427605252112 -1.6338872828967477
0.019823809290149954 -1.8999818289111081
0.02862198500936608 -2.162851377430991
0.041857241827049835 -2.4212138218586428
0.06064125320734607 -2.673333878564948
0.08600807746022929 -2.916943888678093
0.11888219962944165 -3.149286570499905
0.16006854140738594 -3.367245265469764
0.21024544421642444 -3.5674347121642502
0.2698947250948694 -3.7462771492852736
0.339179741705986 -3.9001033163734657
0.41780321253451425 -4.025312418284424
0.5048901102458204 -4.118620594467565
0.5989452097590923 -4.177312684854338
0.6976042219483836 -4.19956414052383
0.7962632341376689 -4.177312684854205
0.8903183336509217 -4.118620594467298
0.9774052313621934 -4.025312418284036
1.0560287021906776 -3.9001033163729786
1.1253137188017468 -3.746277149284717
1.1849629996801432 -3.56743471216364
1.235139902489133 -3.3672452654691187
1.2763262442670293 -3.1492865704992434
1.309200366436196 -2.916943888677437
1.3345671906890382 -2.6733338785643146
1.3533512020693004 -2.421213821858049
1.3665864588869587 -2.1628513774304428
1.3753846346061556 -1.8999818289106134
1.3808656833710813 -1.633887282896312
1.3840577218298684 -1.3655452393302974
1.3858315789159785 -1.0957342668218277
1.386890710303351 -0.825071034724587
1.3876925270069995 -0.5540150864534211
1.3890989477839935 -0.28182629353274996
1.3952084438962742 0.0
0.07029586757561586 -0.0025224674589429666
0.07459988477764476 -0.2821211028904648
0.0753268758607236 -0.5540783728799915
0.07603502377491257 -0.8251633401854764
0.07695890189097533 -1.0958928981119198
0.07846038148614823 -1.3659079455810546
0.08120068075223644 -1.6346498784603882
0.0860017863943788 -1.901378892094432
0.09382836261501601 -2.1651452419312514
0.10570213589368573 -2.4246716445225944
0.12261477103617568 -2.6782085335899217
0.1454740453466805 -2.9234647441940735
0.1750971937638744 -3.157658134205027
0.2122151635806898 -3.3776459263924092
0.25744655877746364 -3.580008387114714
0.3112408603254818 -3.761110190135935
0.3737708919242755 -3.9171917348632173
0.4448065606068391 -4.044529325369476
0.523597615953196 -4.139689981628344
0.6087105795040361 -4.199781106400359
0.6976042219483674 -4.222613476258036
0.7864978643926928 -4.1997811064002235
0.8716108279435152 -4.139689981628069
0.9504018832898415 -4.044529325369078
1.0214375519723669 -3.9171917348627194
1.0839675835711184 -3.761110190135367
1.137761885119093 -3.580008387114093
1.1829932803158225 -3.377645926391752
1.220111250132595 -3.1576581342043544
1.2497343985497478 -2.9234647441934074
1.2725936728602156 -2.67820853358928
1.289506308002675 -2.424671644521993
1.301380081281321 -2.1651452419306976
1.309206657501941 -1.9013788920939334
1.3140077631440716 -1.6346498784599501
1.3167480624101529 -1.3659079455806844
1.3182495420053226 -1.0958928981116178
1.3191734201213847 -0.8251633401852457
1.3198815680355735 -0.5540783728798304
1.3206085591186523 -0.2821211028903759
1.3249125763206755 -0.0025224674589404057
0.13957124307436855 -0.0045333499035481815
0.14274322115518 -0.28226866075262147
0.14315749384675133 -0.5541099666602067
0.14373417430210353 -0.825244319648446
0.14453368580080853 -1.0960181270632732
0.14579028577068373 -1.3661949254021923
0.14809069065660543 -1.6352826094223247
0.15221488218052584 -1.9025795688544296
0.15905240913199808 -2.1671570234735498
0.16952975704316675 -2.427735286293631
0.18452450321082595 -2.6825468817138254
0.20482848201176157 -2.9292781358954585
0.23115358262104563 -3.1651277145828636
0.2641453374870594 -3.3869335346680014
0.30436714932649644 -3.591246156928038
0.35223878482418197 -3.7743816072149383
0.40795435136184693 -3.932503782000322
0.4713667992241141 -4.061780349952798
0.5418350036585153 -4.158633357422117
0.6179887926108881 -4.219952691433718
0.6976042219483515 -4.243305072856714
0.7772196512858097 -4.21995269143358
0.8533734402381659 -4.158633357421836
0.9238416446725405 -4.061780349952392
0.9872540925347744 -3.9325037819998148
1.0429696590724016 -3.77438160721436
1.0908412945700485 -3.5912461569274066
1.1310631064094459 -3.386933534667334
1.1640548612754218 -3.1651277145821815
1.1903799618846695 -2.929278135894783
1.2106839406855723 -2.6825468817131757
1.2256786868532041 -2.427735286293023
1.2361560347643514 -2.167157023472991
1.242993561715808 -1.902579568853928
1.2471177532397182 -1.6352826094218846
1.249418158125634 -1.3661949254018215
1.2506747580955069 -1.096018127062971
1.2514742695942114 -0.8252443196482152
1.2520509500495636 -0.5541099666600457
1.2524652227411348 -0.28226866075253226
1.2556372008219407 -0.004533349903542886
0.20830610237828634 -0.006153220364947436
0.2107138206718392 -0.2823693769294219
0.21096566311289444 -0.5541271402554641
0.21141629116196964 -0.8253091344094957
0.2120964777409267 -1.096118698122366
0.21313729986719152 -1.3664148872544908
0.21502337809841837 -1.6357899252122288
0.218479189993019 -1.9035847613988368
0.22432169341398242 -2.168882745793096
0.2333824571091522 -2.4303975057015887
0.24643005298364343 -2.6863399814629174
0.26414476192407255 -2.9343752641037315
0.28713731971901824 -3.1716860564651874
0.31596679242768094 -3.3950963392694375
0.35113123069302177 -3.601134569862639
0.3930278329449225 -3.7860778409617346
0.44187619194378325 -3.9460278849037698
0.49761018608810564 -4.077056929596149
0.5597076480038778 -4.175441949129578
0.6269983403260426 -4.237880155087253
0.6976042219483364 -4.26175763816351
0.7682101035706248 -4.237880155087112
0.8355007958927748 -4.175441949129293
0.8975982578085233 -4.077056929595736
0.9533322519528167 -3.946027884903254
1.0021806109516447 -3.786077840961148
1.0440772132035114 -3.6011345698619985
1.0792416514688175 -3.395096339268761
1.1080711241774468 -3.1716860564644973
1.131063681972361 -2.934375264103048
1.1487783909127613 -2.6863399814622615
1.1618259867872287 -2.430397505700975
1.1708867504823794 -2.168882745792533
1.1767292539033294 -1.9035847613983319
1.180185065797921 -1.6357899252117871
1.1820711440291432 -1.3664148872541193
1.1831119661554064 -1.0961186981220639
1.1837921527343631 -0.8253091344092649
1.1842427807834384 -0.5541271402553031
1.1844946232244935 -0.28236937692933217
1.1869023415180413 -0.0061532203649395665
0.2767335122415602 -0.007464981722984443
0.2785674231960559 -0.28244725391405057
0.27873139801269176 -0.5541369572474991
0.27907635780208545 -0.8253592006931385
0.27964334341309965 -1.0961994695631228
0.2804938793855918 -1.3665803796327747
0.28200606958654056 -1.6361804323600722
0.2848096855564118 -1.904397536427779
0.2896640490457137 -2.1703223036681174
0.29730248498730893 -2.4326551004811607
0.3083892194851209 -2.6895832878064576
0.3234974219120509 -2.93875067174156
0.34313618440535143 -3.1773273759609
0.36777980358951573 -3.402127990588875
0.39786487280403476 -3.609665242020266
0.43375292040819025 -3.7961885393343757
0.4756840758088275 -3.9577515917972192
0.5236758052263425 -4.090344792405193
0.577366041364082 -4.190117752995186
0.6358482515902122 -4.253603355539432
0.6976042219483213 -4.27803546677461
0.7593601923064255 -4.253603355539288
0.8178424025325426 -4.190117752994896
0.871532638670261 -4.090344792404774
0.9195243680877514 -3.9577515917966966
0.96145552348836 -3.7961885393337815
0.9973435710924861 -3.6096652420196174
1.0274286403069754 -3.402127990588191
1.0520722594911112 -3.1773273759602025
1.0717110219843846 -2.9387506717408702
1.0868192244112902 -2.689583287805796
1.0979059589090818 -2.4326551004805426
1.1055443948506607 -2.1703223036675503
1.1103987583399508 -1.9043975364272718
1.1132023743098147 -1.6361804323596292
1.11471456451076 -1.3665803796324028
1.1155651004832507 -1.09619946956282
1.116132086094265 -0.8253592006929077
1.1164770458836588 -0.5541369572473381
1.1166410207002946 -0.28244725391396064
1.118474931654786 -0.00746498172297426
0.34495829728718674 -0.008521043636527583
0.34633964653685234 -0.28251046917769684
0.3464527969245982 -0.5541441208767934
0.34671104720033513 -0.8253963455127741
0.3471692508394378 -1.0962642970554104
0.3478539251453398 -1.3667030219798244
0.34903203301640917 -1.6364681641853125
0.3512277415569755 -1.9050244404247676
0.3551073341006051 -2.171478849778526
0.36133198786005083 -2.4345090679871997
0.37045953341980226 -2.692276180724555
0.38295877034912595 -2.942403186587568
0.39924026431952875 -3.1820498833677373
0.41969234243921477 -3.4080261483537924
0.4446869465591446 -3.6168355594130674
0.4745549304411406 -3.804707947857767
0.5095370688241557 -3.9676629304926645
0.5497254760509931 -4.101629877074845
0.5949533216289047 -4.202658280869089
0.6446260730687913 -4.2671427316440855
0.6976042219483062 -4.292176745897415
0.750582370827817 -4.26714273164394
0.8002551222676912 -4.202658280868795
0.8454829678455853 -4.10162987707442
0.8856713750724018 -3.9676629304921356
0.9206535134553928 -3.8047079478571657
0.950521497337364 -3.6168355594124124
0.975516101457269 -3.408026148353102
0.9959681795769315 -3.182049883367033
1.0122496735473119 -2.942403186586873
1.0247489104766152 -2.6922761807238884
1.0338764560363496 -2.434509067986577
1.0401011097957817 -2.1714788497779556
1.0439807023394017 -1.9050244404242584
1.0461764108799623 -1.6364681641848684
1.0473545187510291 -1.3667030219794523
1.0480391930569304 -1.0962642970551075
1.048497396696033 -0.8253963455125433
1.0487556469717698 -0.5541441208766325
1.0488687973595154 -0.2825104691776066
1.0502501466091776 -0.008521043636515502
0.413035006101986 -0.009361453736141745
0.41405476117176265 -0.2825622813027748
0.4141353092735199 -0.5541509929522358
0.41432014337375 -0.8254220864757704
0.41467210771392116 -1.0963155270289993
0.4152092931198989 -1.366792950850144
0.4160924802402727 -1.6366701450329646
0.4177326853250599 -1.9054806617366404
0.4206828380424126 -2.1723594998318005
0.42551383575620405 -2.4359643158587736
0.4326992173798693 -2.694422451271236
0.44260315787201804 -2.9453358896259236
0.455539327107757 -3.185856441266625
0.4718112935032779 -3.4127933376302093
0.49172623101163665 -3.62264691344184
0.5155747289286282 -3.8116354066009146
0.54359445640321 -3.9757548850622135
0.5759360849448953 -4.1108979578575315
0.6126239992501834 -4.213051168728839
0.6534184379229501 -4.278499351409391
0.6976042219482907 -4.304198252991618
0.7417900059736278 -4.278499351409244
0.782584444646384 -4.2130511687285415
0.8192723589516582 -4.1108979578571025
0.851613987493326 -3.97575488506168
0.8796337149678882 -3.8116354066003075
0.9034822128848594 -3.6226469134411796
0.9233971503931985 -3.412793337629514
0.9396691167887011 -3.185856441265916
0.9526052860244221 -2.945335889625224
0.9625092265165547 -2.6944224512705652
0.969694608140206 -2.435964315858148
0.974525605853987 -2.172359499831228
0.9774757585713324 -1.9054806617361295
0.9791159636561152 -1.6366701450325196
0.979999150776487 -1.3667929508497716
0.9805363361824645 -1.0963155270286964
0.9808883005226355 -0.8254220864755396
0.9810731346228656 -0.5541509929520748
0.9811536827246228 -0.28256228130268435
0.9821734377943968 -0.009361453736128053
0.48099980726801617 -0.010018529758944735
0.48173084368195584 -0.28260514821801963
0.4817867955514134 -0.5541580673159631
0.481905667917906 -0.8254376862996755
0.48215288132710976 -1.0963535948590175
0.4825513164870791 -1.3668582015188966
0.4831816349305744 -1.636803323586
0.48432132499287783 -1.9057869783365171
0.48640624019361123 -2.1729803389098152
0.4898940955002337 -2.43703072942971
0.49516865742011085 -2.69603025203695
0.502504991675913 -2.947556523757167
0.5121256558972828 -3.188755021299109
0.5242475930054135 -3.416437237264067
0.5391079542381434 -3.6271060813728275
0.5569578001137454 -3.8169754110211622
0.578025115021963 -3.982026562230193
0.6024918281903261 -4.118136838454221
0.6305466387560513 -4.221273504232671
0.66232290778778 -4.287653100861361
0.6976042219482749 -4.314095194027377
0.7328855361087673 -4.2876531008612115
0.7646618051404879 -4.221273504232371
0.7927166157062022 -4.118136838453788
0.8171833288745513 -3.9820265622296556
0.8382506437827537 -3.8169754110205507
0.8561004896583402 -3.627106081372163
0.8709608508910557 -3.4164372372633673
0.883082787999173 -3.1887550212983964
0.8927034522205296 -2.947556523756464
0.9000397864763198 -2.6960302520362767
0.9053143483961864 -2.4370307294290816
0.9088022037028015 -2.172980338909241
0.9108871189035297 -1.905786978336005
0.9120268089658302 -1.6368033235855546
0.9126571274093243 -1.3668582015185242
0.9130555625692934 -1.0963535948587146
0.9133027759784971 -0.8254376862994447
0.9134216483449896 -0.554158067315802
0.9134776002144472 -0.28260514821792915
0.9142086366283848 -0.010018529758929764
0.5488751252578581 -0.010522461345132655
0.5493845349444657 -0.2826412965698669
0.5494145170691626 -0.5541645091272532
0.5494709988216705 -0.825444142647044
0.5496157159318442 -1.0963778888517928
0.5498748732694213 -1.3669034036999406
0.5502836884655942 -1.6368856295037726
0.5509886713998098 -1.905968811007695
0.5522844108790992 -2.173366641618934
0.5545056235864396 -2.437727750594059
0.5579291976663279 -2.697114022739977
0.5627454899246439 -2.9490785884949733
0.56909452845622 -3.190759477609998
0.5771134976676021 -3.4189718918477157
0.5869653659410635 -3.6302255498766636
0.5988500610933356 -3.8207383383194653
0.6129900680083498 -3.986485824927709
0.6295959693028221 -4.123340505191205
0.6489277217654009 -4.227293589871272
0.6714626451736881 -4.294559650036672
0.6976042219482584 -4.321838461495877
0.7237457987228271 -4.294559650036522
0.7462807221311091 -4.22729358987097
0.76561247459368 -4.123340505190769
0.7822183758881424 -3.986485824927169
0.7963583828031459 -3.820738338318851
0.808243077955408 -3.630225549875995
0.8180949462288599 -3.4189718918470136
0.8261139154402338 -3.1907594776092827
0.8324629539718016 -2.949078588494267
0.8372792462301097 -2.6971140227393016
0.8407028203099912 -2.437727750593429
0.8429240330173269 -2.173366641618359
0.8442197724966134 -1.9059688110071822
0.8449247554308271 -1.6368856295033274
0.8453335706269995 -1.3669034036995678
0.8455927279645764 -1.0963778888514901
0.8457374450747501 -0.825444142646813
0.845793926827258 -0.5541645091270923
0.8458239089519548 -0.2826412965697764
0.8463333186385612 -0.010522461345116687
0.6166772227728727 -0.010903280551937273
0.6170262491265229 -0.2826734976671825
0.6170252793718275 -0.5541684829627045
0.6170202579012329 -0.8254422016034051
0.6170652601866932 -1.0963880665117425
0.6171813275747287 -1.3669291498210838
0.6173820886773559 -1.6369312184465457
0.6177173828225987 -1.9060572503314799
0.6183160821089628 -2.1735553821024043
0.6193699527503058 -2.438088615417625
0.6210306469917339 -2.6977010737593994
0.6234004846297964 -2.9499257340621488
0.6265394781556063 -3.191892387405173
0.6305147829804474 -3.4204205172516176
0.635418641742247 -3.6320275025628077
0.6413872824788295 -3.822942126569489
0.6486232948150649 -3.9891482418968582
0.6573920472111209 -4.126520814881329
0.6680015287250347 -4.231084871038649
0.6810262507089255 -4.299145713135769
0.6976042219482416 -4.32736444761438
0.7141821931875568 -4.299145713135618
0.7272069151714454 -4.231084871038345
0.7378163966853541 -4.126520814880891
0.7465851490814042 -3.989148241896316
0.7538211614176341 -3.822942126568873
0.7597898021542124 -3.632027502562138
0.7646936609160083 -3.4204205172509137
0.768668965740846 -3.1918923874044562
0.7718079592666522 -2.949925734061441
0.7741777969047112 -2.697701073758722
0.7758384911461363 -2.438088615416994
0.7768923617874774 -2.1735553821018287
0.7774910610738404 -1.9060572503309667
0.7778263552190825 -1.6369312184461002
0.7780271163217096 -1.3669291498207108
0.7781431837097451 -1.0963880665114398
0.7781881859952052 -0.8254422016031743
0.7781831645246107 -0.5541684829625434
0.7781821947699151 -0.28267349766709204
0.7785312211235645 -0.010903280551920587
0.6844238256907176 -0.011187161468711772
0.6846595341187958 -0.2827049412344165
0.6846241620424067 -0.554167982357059
0.6845580716427534 -0.8254323219629509
0.6845058752722526 -1.096384193666356
0.6844789784635069 -1.3669346170971453
0.68446845413604 -1.6369454973941535
0.6844645621479217 -1.9060832240916534
0.684462995422144 -2.173604087274979
0.6844628361623937 -2.4381793455649587
0.6844629272760591 -2.6978518945320666
0.6844611452235525 -2.9501520801954704
0.6844511593183614 -3.1922054160008946
0.6844308933062379 -3.4208329328195406
0.6844192509863178 -3.6325595907396253
0.6844913761511074 -3.823628945957374
0.684825008385071 -3.990048550891953
0.6857486018799877 -4.127717913822807
0.6877121370322679 -4.232677221270249
0.6912179197653061 -4.301338984833992
0.697604221948224 -4.330564160814903
0.7039905241311428 -4.30133898483384
0.7074963068641803 -4.2326772212699435
0.7094598420164586 -4.1277179138223685
0.7103834355113746 -3.990048550891411
0.7107170677453392 -3.8236289459567576
0.7107891929101299 -3.632559590738955
0.7107775505902111 -3.4208329328188367
0.7107572845780894 -3.192205416000178
0.7107472986728999 -2.950152080194762
0.7107455166203944 -2.6978518945313894
0.7107456077340607 -2.4381793455643277
0.7107454484743111 -2.1736040872744034
0.7107438817485336 -1.9060832240911403
0.7107399897604156 -1.6369454973937079
0.7107294654329487 -1.3669346170967727
0.7107025686242031 -1.0963841936660534
0.7106503722537023 -0.8254323219627201
0.710584281854049 -0.5541679823568978
0.7105489097776598 -0.28270494123432605
0.7107846182057377 -0.011187161468694603
0.7521262338946729 -0.011399897805358206
0.75228330708435 -0.2827366032685812
0.7522156802826304 -0.5541621635021429
0.7520896610263779 -0.8254146730308158
0.7519429310326514 -1.0963666496860005
0.7517752836617682 -1.366919537689612
0.751553963632239 -1.6369286830571081
0.7512105599256202 -1.9060564269387283
0.7506093395096614 -2.17355515434773
0.7495556338010804 -2.4380886170087024
0.7478953410221167 -2.697700880130732
0.7455203732653019 -2.949923029217353
0.7423606933312894 -3.1918850164968426
0.7383463374200544 -3.4204109576093167
0.7334242320873048 -3.6320348986625905
0.7276064474265631 -3.823021299365684
0.7210299234272902 -3.9894116418265675
0.7140187009085233 -4.1271499504083105
0.7070702365667342 -4.232280544819369
0.7009015125341538 -4.3012545869556185
0.6976042219482063 -4.3315290433252835
0.6943069313622581 -4.301254586955466
0.6881382073296783 -4.232280544819065
0.6811897429878928 -4.127149950407871
0.674178520469132 -3.989411641826026
0.6676019964698664 -3.8230212993650685
0.6617842118091309 -3.6320348986619213
0.6568621064763875 -3.4204109576086137
0.6528477505651595 -3.191885016496127
0.6496880706311539 -2.9499230292166456
0.6473131028743452 -2.6977008801300557
0.6456528100953861 -2.438088617008072
0.6445991043868082 -2.1735551543471545
0.6439978839708512 -1.9060564269382152
0.6436544802642336 -1.6369286830566625
0.6434331602347048 -1.3669195376892394
0.6432655128638218 -1.0963666496856979
0.6431187828700955 -0.8254146730305849
0.6429927636138429 -0.5541621635019817
0.6429251368121234 -0.28273660326849087
0.6430822100018003 -0.011399897805340753
0.8197955820141533 -0.011561730223476526
0.8198999786156684 -0.282766898619638
0.819803634218941 -0.5541513681083999
0.8196204843340771 -0.8253893944095865
0.8193825984064713 -1.0963360406789875
0.8190779194086621 -1.3668843624805365
0.8186488309469804 -1.6368803144492008
0.8179365543303168 -1.9059669540252797
0.8166400071326717 -2.1733662928902957
0.8144201167878244 -2.437727906449987
0.8109962209859686 -2.697113214593992
0.8061739851983654 -2.949072796603986
0.7998068483756765 -3.1907446920953544
0.7917562286576489 -3.418953546109372
0.7818960687726729 -3.6302426046969254
0.7701659026770228 -3.8209006703531636
0.7566561564869788 -3.987011998143849
0.7416722784510547 -4.12457346252199
0.7258015419053779 -4.229687980419701
0.710270450859476 -4.299010367652738
0.6976042219481893 -4.330436376690501
0.6849379930369024 -4.299010367652585
0.669406901991003 -4.2296879804193965
0.6535361654453329 -4.124573462521553
0.6385522874094202 -3.9870119981433105
0.625042541219389 -3.8209006703525508
0.6133123751237504 -3.630242604696258
0.603452215238786 -3.4189535461086713
0.5954015955207703 -3.1907446920946407
0.589034458698093 -2.9490727966032804
0.5842122229105003 -2.6971132145933168
0.580788327108653 -2.437727906449357
0.578568436763812 -2.173366292889721
0.5772718895661707 -1.905966954024767
0.5765596129495091 -1.6368803144487554
0.5761305244878283 -1.3668843624801637
0.5758258454900195 -1.0963360406786848
0.5755879595624139 -0.8253893944093557
0.57540480967755 -0.5541513681082386
0.5753084652808226 -0.2827668986195477
0.5754128618823378 -0.011561730223458879
0.8874495559001664 -0.01168247147098365
0.8875143673435665 -0.2827941678038309
0.8873927689512531 -0.5541361434286387
0.8871559940015622 -0.8253568449039189
0.8868308285486886 -1.0962931917522403
0.886394361653547 -1.3668299707777212
0.885745362728845 -1.6367946196523484
0.8846010605800205 -1.9057844330252673
0.8825182757263796 -2.1729803513263652
0.8790318018523883 -2.4370309643277532
0.8737556609170614 -2.6960285369938632
0.8664137537143416 -2.9475480610436486
0.8567823680545426 -3.1887349350753635
0.8446463771694083 -3.4164136567324057
0.8297962192503118 -3.627134877749551
0.8120867456680823 -3.817213873969072
0.7915378862422398 -3.982785256430996
0.7684584660525954 -4.119919057012756
0.74366537209662 -4.224853827718022
0.7188608826843986 -4.294494390479584
0.6976042219481722 -4.327350243247689
0.6763475612119478 -4.294494390479432
0.6515430717997307 -4.224853827717719
0.6267499778437652 -4.119919057012321
0.6036705576541365 -3.9827852564304607
0.5831216982283116 -3.8172138739684627
0.5654122246460987 -3.627134877748887
0.550562066727019 -3.4164136567317085
0.5384260758419015 -3.1887349350746534
0.5287946901821189 -2.947548061042947
0.5214527829794141 -2.6960285369931913
0.5161766420440997 -2.4370309643271266
0.5126901681701175 -2.172980351325792
0.5106073833164825 -1.9057844330247555
0.5094630811676613 -1.636794619651903
0.5088140822429608 -1.3668299707773486
0.5083776153478197 -1.0962931917519374
0.5080524498949464 -0.8253568449036881
0.5078156749452556 -0.5541361434284774
0.5076940765529424 -0.2827941678037405
0.5077588879963424 -0.01168247147096588
0.9551011802552424 -0.011768629057394378
0.9551327037909249 -0.2828169228001325
0.954987710493367 -0.5541168566919077
0.9547008986313161 -0.8253175791144439
0.9542927663579542 -1.0962391407193197
0.9537271134654427 -1.3667556727803565
0.952828717527291 -1.6366581464242422
0.9511892052979591 -1.9054785059260417
0.9482424467046053 -2.1723601144725633
0.9434119149866593 -2.435964332971976
0.9362236429058248 -2.694419628695387
0.926315890288655 -2.9453258312776716
0.9133806933027653 -3.1858350515755434
0.8971218761275649 -3.412771057768023
0.8772444696752809 -3.6226896658133767
0.8535070260613365 -3.8119323199335753
0.8258504847798855 -3.9766951088295235
0.7946286743309056 -4.113163611075801
0.7609321302147056 -4.217775553335682
0.7271118828414145 -4.287792821426692
0.697604221948156 -4.322370346310046
0.6680965610549 -4.287792821426541
0.6342763136816164 -4.217775553335381
0.6005797695654292 -4.11316361107537
0.5693579591164684 -3.976695108828993
0.5417014178350394 -3.811932319932971
0.5179639742211166 -3.6226896658127177
0.4980865677688548 -3.4127710577673307
0.48182775059367633 -3.1858350515748377
0.4688925536078075 -2.9453258312769743
0.45898480099065686 -2.6944196286947193
0.45179652890983857 -2.435964332971352
0.44696599719190455 -2.1723601144719917
0.444019238598559 -1.905478505925531
0.44237972636923173 -1.6366581464237975
0.4414813304310824 -1.3667556727799839
0.44091567753857175 -1.096239140719017
0.44050754526521 -0.8253175791142129
0.4402207334031593 -0.5541168566917464
0.4400757401056017 -0.2828169228000421
0.44010726364128405 -0.011768629057376495
1.0227585843350904 -0.011826089677748737
1.0227613347169133 -0.28283394141171936
1.0225937283923876 -0.5540936785793247
1.022260248091929 -0.8252722411684345
1.0217743774236543 -1.0961751087061853
1.0210733993842769 -1.3666578070848658
1.019887775079045 -1.6364542329387504
1.0176951883722714 -1.9050234490986517
1.0138188510470445 -2.1714799282106627
1.0075932563746424 -2.4345085179244603
0.9984621083794447 -2.6922722555053893
0.9859622394967414 -2.9423931419350478
0.9696959758792879 -3.182032474430183
0.9492888906973738 -3.4080138920994183
0.9243654116304648 -3.6168953009179146
0.8945860452292759 -3.805042563639953
0.859824860934932 -3.9687302303468157
0.820490362335749 -4.104304510602864
0.7779905720285976 -4.208481218663149
0.7353079183767358 -4.278957208146455
0.6976042219481401 -4.315515552187464
0.6599005255195471 -4.278957208146306
0.6172178718676954 -4.20848121866285
0.5747180815605607 -4.1043045106024385
0.5353835829614002 -3.968730230346291
0.5006223986670825 -3.805042563639355
0.47084303226591984 -3.6168953009172613
0.44591955319903803 -3.4080138920987317
0.4255124680171508 -3.1820324744294837
0.4092462043997229 -2.9423931419343554
0.39674633551704286 -2.6922722555047263
0.387615187521865 -2.4345085179238404
0.38138959284947765 -2.1714799282100943
0.3775132555242615 -1.9050234490981428
0.37532066881749426 -1.6364542329383065
0.37413504451226554 -1.3666578070844935
0.373434066472889 -1.0961751087058826
0.37294819580461486 -0.8252722411682035
0.3726147155041563 -0.5540936785791635
0.37244710917963086 -0.28283394141162904
0.37244985956145377 -0.011826089677730783
1.0904273200678762 -0.011860483212515347
1.0904057762189567 -0.28284448639311316
1.090216350761709 -0.5540666086073587
1.0898389411613458 -0.8252215932545239
1.0892780036746514 -1.0961011720008877
1.088426881469238 -1.3665294387156728
1.0869152728662503 -1.636166155955219
1.0841156107124537 -1.9043977162193821
1.079262706923106 -2.170323501196454
1.071621935817374 -2.4326537025710357
1.0605317994646282 -2.689578562901583
1.045427791849749 -2.9387426489878052
1.025818740141071 -3.177319434969648
1.0012491251597164 -3.4021349012506525
0.9712731374225012 -3.609747879042812
0.9354856190441221 -3.7965479249233307
0.8936955285636793 -3.958900832040467
0.8463569553234053 -4.0933605113510945
0.7951650784079433 -4.1969950446027235
0.7436409530832917 -4.267991375985804
0.6976042219481241 -4.306753008580119
0.6515674908129607 -4.267991375985657
0.6000433654883212 -4.19699504460243
0.5488514885728794 -4.0933605113506735
0.5015129153326314 -3.958900832039949
0.45972282485221916 -3.796547924922739
0.42393530647387145 -3.6097478790421653
0.3939593187366878 -3.402134901249973
0.369389703755365 -3.177319434968956
0.3497806520467174 -2.9387426489871196
0.33467664443186546 -2.689578562900926
0.3235865080791424 -2.4326537025704202
0.31594573697342826 -2.1703235011958886
0.31109283318409364 -1.9043977162188757
0.30829317103030496 -1.6361661559547762
0.3067815624273217 -1.3665294387153006
0.30593044022190957 -1.096101172000585
0.3053695027352158 -0.8252215932542931
0.3049920931348527 -0.5540666086071975
0.3048026676776051 -0.28284448639302284
0.30478112382868566 -0.011860483212497355
1.158110975195296 -0.011877386542245953
1.15807058670569 -0.282848347180234
1.157861215632355 -0.5540356537987291
1.157442114061875 -0.8251662982952158
1.1568055127286934 -1.0960164538607498
1.155782177530007 -1.3663618442661367
1.1539025771661235 -1.6357763846464344
1.1504488522687522 -1.90358553047903
1.1446052524410717 -2.1688835975602117
1.135540941089855 -2.4303951308774825
1.1224913520342872 -2.6863351243316105
1.1047869809383488 -2.9343714954045637
1.0818368443481543 -3.171692213174426
1.0531025903509512 -3.3951301902030453
1.018085072377817 -3.6012502602433125
0.9763488244538239 -3.7864661953179373
0.9276814815289056 -3.9472398912649953
0.8725336262474066 -4.080366100322186
0.8127573906865968 -4.183326236571163
0.7522867562321508 -4.25485722203544
0.6976042219481082 -4.296007821347824
0.6429216876640708 -4.254857222035295
0.582451053209639 -4.183326236570873
0.5226748176488527 -4.080366100321772
0.46752696236738395 -3.9472398912644846
0.4188596194425005 -3.7864661953173537
0.3771233715185439 -3.6012502602426744
0.3421058535454457 -3.3951301902023747
0.3133715995482787 -3.1716922131737415
0.2904214629581195 -2.934371495403886
0.27271709186221244 -2.6863351243309603
0.2596675028066707 -2.4303951308768728
0.25060319145547455 -2.1688835975596508
0.24475959162780933 -1.9035855304785263
0.2413058667304478 -1.635776384645993
0.23942626636656952 -1.3663618442657655
0.23840293116788525 -1.0960164538604475
0.23776632983470436 -0.8251662982949851
0.23734722826422444 -0.5540356537985678
0.2371378571908896 -0.28284834718014373
0.2370974687012834 -0.01187738654222793
1.2258111127809732 -0.011882433129702785
1.2257592818126632 -0.282845919201228
1.2255343880790897 -0.5540009715088888
1.2250752065108585 -0.8251069193487769
1.2243564658626904 -1.0959179509564976
1.223132691266351 -1.3661437147067292
1.2208412066246763 -1.6352697737066018
1.2167158932879558 -1.9025800760623133
1.2098742808757352 -2.1671570255323296
1.1993926976704752 -2.427732004799803
1.184398430113618 -2.6825428824714312
1.1641114925435752 -2.929280833222694
1.1378389203996504 -3.165151320144857
1.1049559684676247 -3.3869998762016844
1.0649139381367483 -3.5914078767743414
1.0172999661108788 -3.774824489707773
0.96195683387318 -3.9338043820507917
0.8993047150639571 -4.065374415386915
0.8310858923849085 -4.167472825062075
0.7614699276274759 -4.23947552135642
0.6976042219480924 -4.283153900228182
0.633738516268714 -4.239475521356278
0.5641225515112981 -4.167472825061791
0.4959037288322768 -4.065374415386509
0.4332516100230888 -3.93380438205029
0.37790847778542935 -3.7748244897071985
0.33029450575960084 -3.591407876773713
0.29025247542876514 -3.386999876201023
0.25736952349678033 -3.165151320144183
0.23109695135289512 -2.9292808332220246
0.21081001378288766 -2.682542882470789
0.19581574622605957 -2.4277320047991995
0.1853341630208231 -2.1671570255317736
0.17849255060861946 -1.9025800760618126
0.17436723727191072 -1.635269773706162
0.1720757526302424 -1.3661437147063584
0.17085197803390573 -1.0959179509561956
0.17013323738573838 -0.8251069193485461
0.16967405581750733 -0.5540009715087275
0.169449162083934 -0.2828459192011377
0.16939733111562402 -0.011882433129684749
1.2935266466608328 -0.011881327040185706
1.2934742492412703 -0.28283840270208244
1.293242951846291 -0.5539631651465515
1.2927437865656792 -0.8250431257720273
1.2919278279367123 -1.095800902202776
1.2904694049686305 -1.3658611092686257
1.287737730229531 -1.634637113570489
1.2829310717965965 -1.9013781445380726
1.2750978532072283 -2.1651439712830185
1.263219762851248 -2.424667709946332
1.2463106085642925 -2.678206547930478
1.223474801893831 -2.923475902929656
1.1939120641649028 -3.157701492862668
1.1569124831605344 -3.3777486261505723
1.1118907703805472 -3.5802297825559717
1.0584658430122464 -3.7616488612741708
0.9966073527905075 -3.918659582581721
0.9268347391270945 -4.048481820041451
0.8506161598007264 -4.149449758391122
0.77155234620955 -4.2217100521642195
0.6976042219480763 -4.267985485994956
0.623656097686608 -4.22171005216408
0.544592284095451 -4.149449758390844
0.4683737047691135 -4.048481820041053
0.39860109110574077 -3.918659582581229
0.3367426008840456 -3.761648861273607
0.28331767351579107 -3.580229782555354
0.23829596073584888 -3.377748626149921
0.20129637973152636 -3.157701492862004
0.17173364200264182 -2.9234759029289967
0.1488978353322193 -2.6782065479298445
0.13198868104529596 -2.424667709945735
0.12011059068934193 -2.1651439712824674
0.11227737209999283 -1.901378144537576
0.10747071366707146 -1.6346371135700517
0.10473903892797971 -1.365861109268256
0.10328061595990114 -1.0958009022024742
0.10246465733093515 -0.8250431257717966
0.10196549205032392 -0.5539631651463902
0.10173419465534468 -0.2828384027019922
0.10168179723578219 -0.011881327040167672
1.3612525094558356 -0.011879658042736522
1.3612166115483841 -0.28282835611206514
1.360996337568068 -0.5539235331253012
1.3604526689509373 -0.8249726710187468
1.3595136421242322 -1.0956566579873495
1.3577891283056345 -1.3655040621653682
1.3546010652840883 -1.633873307493484
1.3491103858130953 -1.8999790315319658
1.3403038948951718 -2.162848563661744
1.327064650953887 -2.421209584541753
1.308287055590891 -2.673335029826812
1.2829491823881352 -2.9169652072366405
1.2501422975902998 -3.1493515228463687
1.2090847374961549 -3.367387971250562
1.1591515875051583 -3.567730093482395
1.0999892932089024 -3.7469585300660295
1.031699545948178 -3.9018508609672944
0.9550465751238325 -4.0298046952420545
0.8715936734246388 -4.129422839283946
0.7838426771166092 -4.201394874406947
0.6976042219480595 -4.249999999999993
0.6113657667795159 -4.201394874406811
0.5236147704715077 -4.129422839283675
0.4401618687723494 -4.0298046952416655
0.3635088979480494 -3.9018508609668134
0.2952191506873738 -3.7469585300654775
0.23605685639116905 -3.567730093481789
0.18612370640022233 -3.367387971249924
0.14506614630612782 -3.1493515228457163
0.11225926150834074 -2.9169652072359926
0.08692138830562758 -2.6733350298261875
0.06814379294266686 -2.421209584541163
0.05490454900141057 -2.1628485636611985
0.04609805808350791 -1.899979031531473
0.040607378612529416 -1.6338733074930487
0.037419315590992284 -1.3655040621649999
0.03569480177239849 -1.0956566579870481
0.0347557749456947 -0.8249726710185161
0.03421210632856448 -0.5539235331251398
0.033991832348248735 -0.2828283561119749
0.033955934440797225 -0.011879658042718495
SCALARS Stress float 6
LOOKUP_TABLE default
-1281.6715074614447 -2085.8960079175854 -1607.8996389803988 -28.779085020913055 0.0 0.0
1377.40093040595 811.3808241853071 1034.6195130768779 -20.063859260880495 0.0 0.0
629.4120171509988 172.75505808799684 261.5492181168332 -42.086337727756685 0.0 0.0
501.4720975582285 33.023430640379495 167.06972539700124 -0.8536007778541592 0.0 0.0
629.4964387791129 85.4045410611036 262.56036713738143 3.081112205816901 0.0 0.0
755.3028488848447 140.17752115202433 394.6730935889534 1.7734859391433533 0.0 0.0
889.1497320272472 198.65378365150485 519.8981809522554 0.3990224945544525 0.0 0.0
1027.3380833722308 274.67305372038373 637.1882488862473 -1.0892685819404706 0.0 0.0
1175.6985467578202 366.4042609054317 759.470026597728 -2.8347360087961526 0.0 0.0
1342.0056858953649 480.79652332889805 900.1270947535796 -4.737976889564343 0.0 0.0
1531.880191396922 623.1348219780416 1065.9821324938343 -6.528081226183835 0.0 0.0
1745.2263314402885 793.6052294283153 1257.4823730372052 -7.888026277250705 0.0 0.0
1976.3525707507436 985.2107898492347 1468.4080807629166 -8.717233716594464 0.0 0.0
2217.590351086961 1190.0868339366007 1691.0460686144602 -9.345621553171013 0.0 0.0
2459.1723356377393 1398.2869370153358 1915.5307797032294 -9.740442843134469 0.0 0.0
2689.7232967799823 1598.4741713816366 2130.5342095078954 -9.807477707028546 0.0 0.0
2897.298184587136 1779.0755892317152 2324.338427200469 -9.379400435495226 0.0 0.0
3070.1502906253704 1928.8366176574598 2485.458003854807 -8.423725760739362 0.0 0.0
3207.0159049486497 2047.0291051717127 2612.76745134533 -7.36624667105125 0.0 0.0
3292.953952307325 2119.5301114315434 2691.728020260253 -9.788332733307154 0.0 0.0
3284.2670261756393 2110.015574421154 2682.8039649837538 -5.5365489970427006e-11 0.0 0.0
3292.9539523069207 2119.5301114311615 2691.7280202597854 9.788332733284543 0.0 0.0
3207.0159049493045 2047.029105172459 2612.7674513456177 7.366246671121814 0.0 0.0
3070.1502906253118 1928.8366176574937 2485.4580038545364 8.423725760784073 0.0 0.0
2897.2981845856048 1779.0755892303107 2324.338427199033 9.37940043548902 0.0 0.0
2689.723296779663 1598.4741713814656 2130.53420950747 9.807477707043722 0.0 0.0
2459.1723356364428 1398.2869370141784 1915.530779702118 9.740442843172723 0.0 0.0
2217.5903510863877 1190.0868339362319 1691.046068613842 9.345621553150144 0.0 0.0
1976.3525707494193 985.2107898481249 1468.4080807616758 8.717233716623523 0.0 0.0
1745.226331438366 793.6052294266267 1257.482373035628 7.888026277268363 0.0 0.0
1531.8801913950235 623.1348219763596 1065.9821324923548 6.528081226199591 0.0 0.0
1342.0056858956862 480.7965233295254 900.1270947535274 4.737976889451483 0.0 0.0
1175.698546757613 366.4042609055143 759.4700265973341 2.8347360085694877 0.0 0.0
1027.3380833714955 274.67305371992165 637.1882488856479 1.0892685821269321 0.0 0.0
889.1497320268458 198.6537836514339 519.8981809517954 -0.39902249467955997 0.0 0.0
755.3028488844509 140.17752115195677 394.6730935884633 -1.7734859390697562 0.0 0.0
629.496438778255 85.40454106044363 262.56036713672404 -3.081112205774149 0.0 0.0
501.4720975577152 33.023430639975615 167.06972539670164 0.8536007777913994 0.0 0.0
629.4120171505245 172.75505808772155 261.5492181165572 42.086337727797854 0.0 0.0
1377.4009304055576 811.3808241849259 1034.6195130763867 20.06385926095014 0.0 0.0
-1281.671507458722 -2085.896007914839 -1607.8996389776578 28.779085020599137 0.0 0.0
-1632.0691950110534 -2407.8709824207644 -1913.413078902522 -31.127341564817474 0.0 0.0
940.2177912920164 447.6573889936418 650.5869484492268 -27.850566725324498 0.0 0.0
440.310411770098 67.89266934204636 151.55827561894029 -36.734686008305935 0.0 0.0
441.4855719689466 7.728572664581717 137.58981520252757 -15.589619905219378 0.0 0.0
557.2580339969926 38.48370500826062 210.4562276579133 -16.85642521029369 0.0 0.0
661.3821245272989 55.57095611629947 309.9435288289942 -22.7316185485386 0.0 0.0
751.0104765020233 75.66305815382398 398.3882190458732 -24.20054086048156 0.0 0.0
836.7411829095845 97.5831610830031 463.6269619417814 -24.532528716608457 0.0 0.0
914.8210361811563 118.45074795701186 515.3315465313686 -25.220156218130995 0.0 0.0
986.8806158676427 138.8878147643609 562.075745121802 -26.088760559337167 0.0 0.0
1055.9580111124353 161.11632994122562 607.8611948752338 -26.58080700807368 0.0 0.0
1124.40531084565 186.62192447643298 654.8689260742135 -26.59665566748629 0.0 0.0
1191.7979730055376 215.51189764175388 703.0288182128168 -26.205227899342116 0.0 0.0
1255.5247823282803 243.33877856576208 748.816577006065 -25.615633544143844 0.0 0.0
1310.2324213563074 265.13589642399137 787.0802382436842 -24.836229420513998 0.0 0.0
1351.5747199409218 276.52767469809197 813.46099795749 -23.63215276418955 0.0 0.0
1376.8888405418047 275.09725506359695 825.4125131016875 -21.76076055604514 0.0 0.0
1386.579657825798 261.7230323581524 823.5706569568041 -19.29958220055779 0.0 0.0
1374.5996664704232 231.11764642672716 802.3871114697931 -17.0702762609706 0.0 0.0
1296.1572282008374 139.75669143746137 718.1983788955102 -17.9329356432931 0.0 0.0
1165.9829584440292 9.599941719840473 589.1393230343119 1.0649614523572382e-10 0.0 0.0
1296.157228200558 139.7566914371994 718.1983788952535 17.932935643504074 0.0 0.0
1374.5996664719682 231.11764642834297 802.3871114708759 17.070276261031545 0.0 0.0
1386.579657826271 261.7230323587254 823.5706569571678 19.29958220059622 0.0 0.0
1376.8888405422426 275.09725506413633 825.412513102021 21.7607605560599 0.0 0.0
1351.574719940781 276.52767469805616 813.4609979574167 23.632152763867264 0.0 0.0
1310.2324213560648 265.1358964239453 787.0802382435531 24.836229420537286 0.0 0.0
1255.524782328721 243.33877856639307 748.8165770063221 25.6156335442244 0.0 0.0
1191.797973004719 215.51189764112019 703.0288182122666 26.205227899264226 0.0 0.0
1124.4053108454243 186.62192447645486 654.8689260741098 26.596655667475133 0.0 0.0
1055.958011111456 161.11632994049017 607.8611948746435 26.58080700815365 0.0 0.0
986.8806158683316 138.88781476532802 562.0757451221851 26.08876055934047 0.0 0.0
914.8210361812344 118.45074795737033 515.3315465313291 25.22015621800979 0.0 0.0
836.7411829089888 97.58316108269585 463.6269619413998 24.532528716744043 0.0 0.0
751.0104765017245 75.6630581538348 398.3882190455679 24.2005408604094 0.0 0.0
661.3821245266429 55.57095611589338 309.94352882841133 22.73161854852229 0.0 0.0
557.258033996196 38.483705007612166 210.45622765735115 16.856425210198914 0.0 0.0
441.48557196891653 7.728572664943228 137.5898152026194 15.589619905115718 0.0 0.0
440.31041176995177 67.89266934185753 151.5582756188365 36.734686008254755 0.0 0.0
940.2177912914403 447.6573889930983 650.5869484485598 27.850566725261388 0.0 0.0
-1632.0691950091061 -2407.8709824187727 -1913.4130789004575 31.127341564412376 0.0 0.0
-1372.305081268043 -2113.1580155739557 -1626.4465671548546 -69.49329058494074 0.0 0.0
757.8169350707687 355.7514677626796 507.1532325131028 -95.9708689142791 0.0 0.0
305.10529915540906 77.49572054174736 114.82625844867374 -40.50273567475996 0.0 0.0
378.94511108439673 2.1837549967426213 114.50554515566448 -37.3718662624601 0.0 0.0
512.0733365978041 28.542425056131002 179.95388009327644 -39.33861924002821 0.0 0.0
627.6246437537251 49.8105802342441 278.3386272948765 -42.83531408364072 0.0 0.0
720.805948917008 70.19912518150723 374.25080245096547 -44.79083537324651 0.0 0.0
806.2185047884545 88.27230348338105 441.90997783687305 -45.66526983341714 0.0 0.0
881.1241841632008 105.40967270625441 491.5032776693332 -47.08989028286678 0.0 0.0
949.1933819242785 121.81903293613622 534.3934369207586 -48.336859700677465 0.0 0.0
1014.8864846125307 141.15405920078663 577.0428790693343 -48.66545551868623 0.0 0.0
1080.3596845015281 164.85142053047412 621.6637522088696 -48.16042498453426 0.0 0.0
1145.1435888716574 190.94274383208509 667.1426889578796 -47.249664079137375 0.0 0.0
1205.580481285093 216.63221396556645 710.23430308708 -46.043607324868155 0.0 0.0
1258.613142894921 237.26347326917312 747.071099724713 -44.50565347425854 0.0 0.0
1300.044397352606 249.11685668970583 773.7129535541084 -42.340194575417534 0.0 0.0
1327.2602635381004 249.73049191652098 787.6431431206522 -39.217560130392684 0.0 0.0
1336.0404212728458 235.40334436919065 784.9533530945449 -35.391857119084875 0.0 0.0
1312.721599389987 193.48901401910678 752.6165002402793 -31.913436128849348 0.0 0.0
1268.6871252978867 136.8266782158619 702.6259104000314 -29.86919479643602 0.0 0.0
1118.1409075755535 -12.978853795588762 553.719854360294 7.30508986634959e-11 0.0 0.0
1268.6871252983228 136.82667821633405 702.6259104004887 29.869194796523978 0.0 0.0
1312.7215993892821 193.489014018428 752.616500239797 31.913436128839354 0.0 0.0
1336.0404212726476 235.40334436907577 784.953353094414 35.39185711905666 0.0 0.0
1327.2602635386827 249.7304919172286 787.643143121092 39.21756013055147 0.0 0.0
1300.0443973511412 249.11685668831058 773.7129535529767 42.34019457514055 0.0 0.0
1258.6131428947717 237.26347326919205 747.0710997245716 44.50565347421194 0.0 0.0
1205.5804812845552 216.63221396517613 710.2343030866673 46.04360732479862 0.0 0.0
1145.1435888701308 190.94274383075373 667.1426889569136 47.24966407911887 0.0 0.0
1080.3596845021102 164.85142053129277 621.6637522092957 48.16042498454277 0.0 0.0
1014.8864846114415 141.15405919986563 577.0428790686677 48.66545551855231 0.0 0.0
949.193381924528 121.81903293667206 534.3934369208769 48.33685970065101 0.0 0.0
881.1241841634904 105.40967270681611 491.50327766945696 47.08989028279227 0.0 0.0
806.2185047881129 88.27230348336786 441.90997783661777 45.66526983343707 0.0 0.0
720.8059489167133 70.19912518148845 374.2508024506332 44.79083537313403 0.0 0.0
627.6246437527595 49.8105802335088 278.33862729411106 42.83531408357071 0.0 0.0
512.0733365971716 28.54242505567701 179.95388009286398 39.338619240027896 0.0 0.0
378.9451110845437 2.183754997249954 114.50554515585948 37.371866262463335 0.0 0.0
305.1052991554054 77.49572054171004 114.8262584486611 40.502735674712895 0.0 0.0
757.8169350701845 355.75146776252797 507.153232512542 95.97086891417807 0.0 0.0
-1372.3050812660194 -2113.1580155718243 -1626.4465671527134 69.49329058470364 0.0 0.0
-1125.4042338001796 -1835.5481581144431 -1358.4792897349232 -83.23302869764785 0.0 0.0
580.0384744129466 260.24799231689303 375.4560888273283 -145.76003616821967 0.0 0.0
220.83684535593483 64.98437625974374 85.74636648470357 -61.93661695307259 0.0 0.0
315.038602940629 7.855141255078312 96.66278659310962 -60.179657786413415 0.0 0.0
456.3873829290094 16.753541004602962 149.1332672055564 -64.36163942108338 0.0 0.0
581.6105792532102 42.56190712470892 241.50466059911707 -64.18733750935624 0.0 0.0
687.0573311897447 62.8376455461058 344.229007537093 -66.6961281686486 0.0 0.0
770.820843515909 79.13789307969108 416.5694022587427 -66.99291071962412 0.0 0.0
843.3139938732905 92.62786972290274 465.39959756984223 -68.56875958936234 0.0 0.0
907.7732155955839 105.37708642029737 505.0389601981074 -69.80467490836813 0.0 0.0
969.7169496961436 121.48035714641128 544.2279709015702 -69.8041786605353 0.0 0.0
1032.2658378314675 142.42441509984258 586.011841424332 -68.89295606571727 0.0 0.0
1093.9128113404215 166.66908175954512 629.0337265643108 -67.46415633660725 0.0 0.0
1151.5753644251804 189.2718711946821 669.2073209493016 -65.74516249901322 0.0 0.0
1202.5594172723402 208.54540079032898 704.3327746441546 -63.51695272051313 0.0 0.0
1244.6950140197316 221.63406379081354 731.9414053219868 -60.51975242196217 0.0 0.0
1273.430048261215 223.65698994091545 747.3591840441998 -56.57278750026573 0.0 0.0
1281.400507122144 208.32111305185515 743.8322863980127 -51.86479795027341 0.0 0.0
1265.105955267399 173.15756215496194 718.3439486169751 -46.65023858746652 0.0 0.0
1239.048113508157 133.81175320614676 685.8385842891079 -40.20496325058248 0.0 0.0
1028.6702113016377 -75.3378418236313 478.0348636455168 6.797051810281118e-11 0.0 0.0
1239.0481135087289 133.81175320672514 685.8385842897203 40.204963250637604 0.0 0.0
1265.1059552665638 173.15756215424264 718.3439486161833 46.65023858753939 0.0 0.0
1281.400507123447 208.3211130532941 743.8322863989677 51.864797950416815 0.0 0.0
1273.4300482610838 223.6569899408889 747.3591840441113 56.57278750036813 0.0 0.0
1244.6950140189163 221.63406379007367 731.9414053213914 60.51975242182102 0.0 0.0
1202.5594172718954 208.5454007900878 704.3327746438812 63.5169527205239 0.0 0.0
1151.575364423986 189.27187119364476 669.2073209484611 65.74516249907418 0.0 0.0
1093.912811339502 166.66908175885317 629.0337265637033 67.4641563366225 0.0 0.0
1032.2658378312206 142.4244150997666 586.0118414242779 68.89295606566287 0.0 0.0
969.7169496948017 121.48035714523701 544.2279709007133 69.80417866035867 0.0 0.0
907.7732155947242 105.37708641966753 505.038960197565 69.80467490836251 0.0 0.0
843.3139938730816 92.62786972295481 465.3995975696889 68.56875958929892 0.0 0.0
770.8208435156362 79.1378930796892 416.5694022585172 66.99291071960332 0.0 0.0
687.0573311893505 62.837645545978376 344.22900753665147 66.69612816849252 0.0 0.0
581.6105792526345 42.561907124375146 241.5046605986118 64.18733750923164 0.0 0.0
456.3873829289533 16.75354100513508 149.1332672056239 64.36163942098395 0.0 0.0
315.03860294060064 7.85514125517332 96.66278659313153 60.1796577864657 0.0 0.0
220.83684535593738 64.98437625982754 85.74636648472948 61.93661695310025 0.0 0.0
580.0384744123476 260.247992316712 375.45608882680057 145.76003616819554 0.0 0.0
-1125.4042337981998 -1835.548158112375 -1358.4792897328803 83.23302869749914 0.0 0.0
-910.0993261629866 -1594.377721978471 -1122.6924376892455 -81.74770242934916 0.0 0.0
448.813428419054 175.18204584494305 271.95251200572477 -178.52403879718636 0.0 0.0
161.4795570315533 50.54550100335585 63.60751741047273 -92.63572425697971 0.0 0.0
256.6310387162906 14.098201625209663 81.20887671742396 -84.98614949335536 0.0 0.0
390.8236155595848 9.566329490994598 121.563712029696 -90.68113633583347 0.0 0.0
526.2508621857166 29.8567667149275 200.25941616622694 -89.42719949373145 0.0 0.0
641.9454157504615 54.157867405887856 305.6781408971502 -88.84663318035429 0.0 0.0
729.6089418439539 70.61546603974938 386.8151892722873 -88.73099574643166 0.0 0.0
800.7528260341005 80.44989238712597 436.5369623170748 -89.58705892755229 0.0 0.0
861.7040763570598 89.30490627474674 473.3168279714462 -90.45400474070497 0.0 0.0
920.2381712546284 101.9337886945685 509.1654639204077 -90.02558867932942 0.0 0.0
979.3370355248787 119.93788680349564 547.771943225233 -88.69640891948012 0.0 0.0
1037.9422308855717 141.1802243755689 587.7988367784207 -86.92118717042688 0.0 0.0
1092.7220896647227 162.34123761323013 625.8442110125967 -84.67029030094477 0.0 0.0
1141.8473316107052 179.75586251640024 659.1209414740796 -81.80285686386543 0.0 0.0
1183.4716787628258 192.15114181870757 686.111817332672 -78.21676074177466 0.0 0.0
1214.124613210937 196.43344527151137 703.6309806259003 -73.79752386001921 0.0 0.0
1227.4151346712458 186.1460865525712 705.2985540722691 -68.42162311613082 0.0 0.0
1219.8795964058788 158.9279364732515 688.1420957605709 -61.23857334001262 0.0 0.0
1202.389689941884 126.6385950642893 663.3931880638673 -50.78512856393946 0.0 0.0
918.740048432177 -155.14176425401263 383.59532869058614 8.36664071357518e-12 0.0 0.0
1202.3896899404417 126.63859506289062 663.3931880629406 50.785128564139356 0.0 0.0
1219.879596406493 158.9279364738863 688.1420957609712 61.23857334002611 0.0 0.0
1227.4151346719498 186.14608655339606 705.2985540727984 68.42162311624816 0.0 0.0
1214.124613211261 196.43344527197138 703.6309806260726 73.7975238600844 0.0 0.0
1183.4716787628931 192.15114181893153 686.111817332914 78.21676074182069 0.0 0.0
1141.8473316103048 179.7558625161467 659.1209414738553 81.80285686389499 0.0 0.0
1092.7220896640972 162.34123761278596 625.8442110121061 84.67029030099312 0.0 0.0
1037.9422308864744 141.18022437670894 587.7988367790255 86.9211871705 0.0 0.0
979.3370355234795 119.93788680223354 547.7719432243858 88.69640891931229 0.0 0.0
920.2381712537992 101.93378869392234 509.16546391980603 90.0255886792678 0.0 0.0
861.7040763562056 89.30490627421804 473.31682797093885 90.45400474076804 0.0 0.0
800.7528260334576 80.44989238678579 436.5369623166685 89.5870589276457 0.0 0.0
729.6089418432987 70.61546603928267 386.8151892717706 88.73099574627028 0.0 0.0
641.9454157498781 54.15786740561158 305.67814089659566 88.84663318025923 0.0 0.0
526.2508621851703 29.85676671469383 200.25941616579752 89.42719949366715 0.0 0.0
390.82361555942606 9.566329491449604 121.56371202977283 90.6811363357395 0.0 0.0
256.6310387164345 14.098201625409317 81.2088767175228 84.98614949336029 0.0 0.0
161.4795570314802 50.54550100310071 63.607517410374264 92.63572425692472 0.0 0.0
448.81342841841024 175.1820458446034 271.95251200517066 178.52403879698537 0.0 0.0
-910.09932616138 -1594.3777219767926 -1122.6924376874802 81.74770242909345 0.0 0.0
-720.4771159661367 -1381.330176066355 -912.6861787787185 -77.24947222257153 0.0 0.0
345.6564249710218 108.8869901026901 191.95038649783876 -197.93565317731932 0.0 0.0
116.89308593948813 34.673185472379714 45.46988142356036 -122.13762420812569 0.0 0.0
204.81734865713952 18.693534156563487 67.05835738107378 -110.08568775403518 0.0 0.0
320.4367370827454 6.285918549967941 97.43239530452504 -116.91780514687042 0.0 0.0
456.0643124242231 17.699476394737697 159.04702836519556 -116.00313785456397 0.0 0.0
580.7605098772946 44.688816608772605 258.9042485551379 -112.2465226677225 0.0 0.0
680.8851272745007 59.717708083989294 348.64707011085767 -111.45065442528809 0.0 0.0
750.6057326658904 68.64671642291746 402.91108112537125 -110.1385215356882 0.0 0.0
810.1769129188256 73.41441653900974 438.49480100999176 -110.2807586174994 0.0 0.0
865.2267061581508 82.480080552938 471.123607013869 -109.29948896531826 0.0 0.0
920.8859968631739 97.48036439372349 506.5457401643574 -107.52016900203378 0.0 0.0
976.1035797178748 116.1111242034233 543.6045880713715 -105.39275879075838 0.0 0.0
1027.885314941738 134.25087722534 578.6726042581334 -102.82960092050197 0.0 0.0
1074.7493476159655 150.11586290851952 610.0737367442855 -99.44156970349687 0.0 0.0
1115.4906507002402 162.19081418845448 636.4767843972188 -95.24349161087028 0.0 0.0
1148.739864293981 168.402142664044 656.215836713633 -90.62274945879484 0.0 0.0
1170.2371807182092 166.06917631406824 665.9380150908423 -84.91258886999175 0.0 0.0
1172.8429231323166 148.0256170946435 658.4652617652815 -76.20960973327936 0.0 0.0
1160.5391644613137 118.5560842688357 637.7277759981417 -62.38295402438162 0.0 0.0
790.5790851336377 -248.38451612005255 273.5259878556236 9.225509245425201e-11 0.0 0.0
1160.5391644600156 118.55608426756018 637.7277759973638 62.38295402458505 0.0 0.0
1172.8429231316552 148.0256170941029 658.4652617649749 76.20960973331927 0.0 0.0
1170.2371807174666 166.06917631349583 665.9380150903569 84.91258887027479 0.0 0.0
1148.7398642936878 168.40214266380138 656.2158367134244 90.62274945890722 0.0 0.0
1115.49065069982 162.19081418812186 636.4767843970567 95.24349161077558 0.0 0.0
1074.749347615889 150.11586290862923 610.0737367441589 99.44156970351283 0.0 0.0
1027.8853149407769 134.2508772245066 578.6726042574657 102.82960092051218 0.0 0.0
976.1035797184373 116.11112420421827 543.6045880717191 105.39275879090135 0.0 0.0
920.8859968619313 97.48036439256943 506.5457401635085 107.52016900182207 0.0 0.0
865.2267061582537 82.4800805534045 471.12360701396375 109.2994889654856 0.0 0.0
810.1769129175964 73.41441653789423 438.49480100917856 110.28075861737193 0.0 0.0
750.6057326659612 68.64671642322773 402.91108112540087 110.13852153558236 0.0 0.0
680.8851272738389 59.71770808358978 348.6470701103536 111.45065442524515 0.0 0.0
580.760509877432 44.68881660931147 258.9042485550257 112.24652266765622 0.0 0.0
456.0643124237272 17.699476394557795 159.04702836486356 116.00313785444774 0.0 0.0
320.4367370822135 6.285918549446413 97.43239530423186 116.91780514679489 0.0 0.0
204.81734865721788 18.69353415669462 67.05835738113676 110.08568775402333 0.0 0.0
116.8930859393142 34.67318547216527 45.46988142344383 122.13762420799439 0.0 0.0
345.65642497051823 108.8869901025289 191.9503864974445 197.93565317712756 0.0 0.0
-720.4771159647988 -1381.3301760648653 -912.6861787771844 77.24947222238845 0.0 0.0
-556.1031235708588 -1187.3536050791593 -725.5647401720361 -72.97796318567754 0.0 0.0
263.9254593009387 56.675849494734564 130.39057260600288 -210.1952839669385 0.0 0.0
81.265185403624 19.502237683938024 30.23035523060268 -146.522756607335 0.0 0.0
156.80189736542474 21.772695257040603 53.57246537477462 -133.2770827637355 0.0 0.0
249.49877423067554 6.606379874235039 76.36892822102462 -139.95673659037058 0.0 0.0
374.7528170475825 5.513468518609915 119.51769572270682 -145.49861212777338 0.0 0.0
504.7121171496193 30.163619838089087 204.3458895189874 -138.8012398126316 0.0 0.0
614.0907813159115 49.61307460417662 298.92499104470943 -133.97521744519452 0.0 0.0
693.5819995535674 54.29215071906281 361.62204096856533 -131.87189158284772 0.0 0.0
750.0020923291618 57.66051468881537 398.42087261833484 -129.1640621553272 0.0 0.0
803.2914827917783 63.212441163775715 429.1441174393764 -127.52284264692862 0.0 0.0
855.4271401604537 74.97180541286059 461.3267103599718 -125.3033979024196 0.0 0.0
906.7845212647552 90.49254303626626 494.96287680665966 -122.85007230809038 0.0 0.0
955.3688586674665 106.38265698577635 527.3411485847766 -120.05412323684556 0.0 0.0
999.46354607827 120.05417725631062 556.3245181085447 -116.39316664906138 0.0 0.0
1038.444936539281 129.82347341161778 580.714551296186 -111.82868914097169 0.0 0.0
1074.0303529439364 139.46011212639604 603.2777012761719 -106.67867241728905 0.0 0.0
1106.1491983261099 146.82394654781206 623.0876860422483 -101.09343000862387 0.0 0.0
1121.459683611258 139.56254031391282 627.389978404688 -91.9897623986285 0.0 0.0
1114.1811830349845 112.20862931020619 610.326330785007 -75.8323393982755 0.0 0.0
642.5492811700309 -354.0240966702794 147.58452226439982 1.077538058780192e-11 0.0 0.0
1114.1811830347626 112.20862931009385 610.3263307849935 75.83233939843007 0.0 0.0
1121.4596836123894 139.5625403152796 627.3899784054541 91.98976239895322 0.0 0.0
1106.149198325924 146.8239465478326 623.0876860421134 101.09343000894367 0.0 0.0
1074.0303529428222 139.46011212531198 603.2777012754235 106.67867241732941 0.0 0.0
1038.4449365379028 129.82347341023595 580.7145512952975 111.82868914076117 0.0 0.0
999.4635460779721 120.05417725612122 556.3245181082431 116.3931666490585 0.0 0.0
955.3688586674331 106.38265698595596 527.3411485847007 120.05412323683805 0.0 0.0
906.7845212642708 90.49254303591853 494.9628768062578 122.85007230806278 0.0 0.0
855.4271401599659 74.97180541257798 461.3267103596883 125.30339790235205 0.0 0.0
803.2914827916462 63.212441163939445 429.1441174393472 127.52284264705075 0.0 0.0
750.0020923276882 57.66051468738532 398.4208726173717 129.16406215508715 0.0 0.0
693.5819995534915 54.29215071930039 361.6220409684819 131.87189158283542 0.0 0.0
614.0907813151948 49.61307460381006 298.9249910441803 133.97521744521657 0.0 0.0
504.7121171496026 30.16361983861227 204.3458895188789 138.80123981267525 0.0 0.0
374.752817047082 5.513468518385059 119.51769572243377 145.4986121276068 0.0 0.0
249.4987742304299 6.6063798739754995 76.36892822087373 139.9567365902183 0.0 0.0
156.80189736535553 21.772695257088074 53.572465374768385 133.27708276359274 0.0 0.0
81.26518540364661 19.50223768409893 30.23035523065771 146.52275660714938 0.0 0.0
263.92545930048294 56.67584949450602 130.39057260566653 210.19528396688122 0.0 0.0
-556.1031235696094 -1187.3536050777125 -725.5647401706565 72.97796318563411 0.0 0.0
-411.14627236321326 -1017.9166910379406 -559.6605416515627 -76.41986186191966 0.0 0.0
194.76015772840643 17.169547513833034 82.39980415068838 -214.45716206777166 0.0 0.0
51.027257299633106 7.030345955447521 17.417106670069394 -164.87261106047129 0.0 0.0
110.47214444216917 23.1138346052697 40.077202578818834 -153.06876328986198 0.0 0.0
182.1782622189096 8.48107143466999 56.96646509587211 -159.72327830263882 0.0 0.0
282.4218957220163 -0.6257312337747525 85.0427131853865 -172.48526975545533 0.0 0.0
407.3740995182603 13.82073095048402 146.3493086352924 -167.73023573136672 0.0 0.0
526.6055998344033 34.295092775345985 234.10441915241447 -157.93189781095435 0.0 0.0
616.888905355346 41.51057706599655 306.72761684113493 -152.32240587693224 0.0 0.0
679.3035973251735 39.60671163992493 349.0136193844987 -148.38126363559144 0.0 0.0
730.0180032895954 43.229653973424966 379.6337806842504 -144.5552641271999 0.0 0.0
779.1736595789641 52.536964321213766 409.6662517084321 -141.7790371501803 0.0 0.0
826.723103649434 64.85509532165783 439.9567735340056 -139.01037368827744 0.0 0.0
871.110966206607 77.68384206259407 468.75611100117 -136.11253583192465 0.0 0.0
912.535179679963 89.32054380943235 495.43263215876533 -132.56149008106252 0.0 0.0
949.4332611406802 98.07557784247629 518.3873545283951 -127.7932103349742 0.0 0.0
984.8851525470142 106.31883711263946 540.2138944640151 -122.11223834435498 0.0 0.0
1026.7937463067478 123.27622852383644 569.514024791713 -116.50124760619558 0.0 0.0
1061.3469675742742 134.38416948893985 592.640755261218 -108.49830486647957 0.0 0.0
1063.8997132912527 112.71289505713187 583.6303185911065 -92.17537838978033 0.0 0.0
469.0579842309022 -471.3875717072751 3.451027444594402 5.873701525160868e-11 0.0 0.0
1063.8997132906343 112.71289505668557 583.630318590791 92.17537838995696 0.0 0.0
1061.3469675749823 134.3841694899241 592.6407552618784 108.49830486700861 0.0 0.0
1026.7937463062358 123.27622852345544 569.5140247913511 116.50124760651545 0.0 0.0
984.8851525466855 106.31883711250813 540.213894463712 122.11223834451316 0.0 0.0
949.4332611394038 98.07557784115195 518.3873545274887 127.79321033485348 0.0 0.0
912.5351796802472 89.32054381001507 495.4326321590046 132.56149008115966 0.0 0.0
871.1109662072042 77.68384206341153 468.7561110015727 136.1125358320543 0.0 0.0
826.7231036488334 64.85509532105638 439.95677353361043 139.01037368815688 0.0 0.0
779.1736595791659 52.536964321683215 409.6662517085553 141.77903715017484 0.0 0.0
730.0180032887296 43.22965397265377 379.63378068359935 144.55526412706064 0.0 0.0
679.3035973248718 39.60671163991263 349.0136193843483 148.3812636356403 0.0 0.0
616.8889053551327 41.51057706601139 306.72761684088846 152.32240587681855 0.0 0.0
526.6055998340355 34.2950927753049 234.1044191520687 157.9318978108988 0.0 0.0
407.3740995176364 13.82073095004019 146.34930863483805 167.7302357313208 0.0 0.0
282.42189572178114 -0.6257312334713854 85.04271318540468 172.48526975527312 0.0 0.0
182.17826221869024 8.481071434382965 56.966465095729504 159.72327830252294 0.0 0.0
110.47214444220717 23.11383460556547 40.07720257892399 153.06876328959083 0.0 0.0
51.027257299654636 7.030345955625661 17.417106670127637 164.8726110603007 0.0 0.0
194.76015772789515 17.16954751347867 82.39980415033503 214.45716206768108 0.0 0.0
-411.1462723624196 -1017.9166910368263 -559.6605416505079 76.41986186192683 0.0 0.0
-297.312101035552 -855.7310139612127 -422.0717592249607 -81.22129334869044 0.0 0.0
135.51342119516224 -14.86263644008303 45.59547440292209 -212.39535919457666 0.0 0.0
23.088609289416215 -1.5504642672667408 6.462661376952097 -177.8136164618417 0.0 0.0
65.12898129654589 22.923917162338604 26.408131393171185 -168.85014150873258 0.0 0.0
116.45523360447162 11.5099433767629 38.27722105089654 -175.06124605967352 0.0 0.0
185.2625778261061 -0.37839617582938545 55.22789647543587 -192.47570606538588 0.0 0.0
286.38423690379204 -0.4925963711479775 90.495039595954 -199.35372858339647 0.0 0.0
407.7538653516967 12.49218956612047 154.5254661165386 -186.63189256393755 0.0 0.0
510.9963212427632 22.39820586146731 227.0926080660076 -172.62434740221644 0.0 0.0
582.7156513227933 21.532349583345116 279.0287713250601 -165.17830631940325 0.0 0.0
635.7156303999711 22.845779338004476 314.30074551657856 -159.75860225669592 0.0 0.0
682.6475301286322 29.08318281860946 343.5752682823038 -156.43625623020796 0.0 0.0
726.2316797536639 38.902439284941046 371.45545515007024 -153.41218120381114 0.0 0.0
765.8750795808077 48.60910965402333 396.58926991455075 -150.54563888859573 0.0 0.0
803.3815618174763 58.060242692121406 420.3573616239953 -147.45552789680474 0.0 0.0
839.2860993630853 66.51451014043235 442.8493117326505 -143.25911726640538 0.0 0.0
873.9771538370027 73.8021755172181 464.2141349114571 -137.27594975725404 0.0 0.0
916.9792517821044 90.25255772794887 493.8607208787054 -130.66313955387062 0.0 0.0
975.6900796275849 123.01067031739095 539.554654401112 -124.9661794323585 0.0 0.0
1007.5271967080142 125.72048562618883 558.0342459317278 -113.18441318269747 0.0 0.0
260.76257910614646 -595.9926353145734 -160.93294308819148 6.0396132539608516e-12 0.0 0.0
1007.5271967071913 125.72048562540925 558.0342459314028 113.18441318270611 0.0 0.0
975.6900796285986 123.01067031899552 539.5546544018159 124.9661794328539 0.0 0.0
916.9792517816816 90.25255772749844 493.8607208784615 130.66313955414444 0.0 0.0
873.9771538362972 73.80217551660152 464.21413491094074 137.2759497573718 0.0 0.0
839.2860993630834 66.51451014056849 442.8493117327201 143.2591172663495 0.0 0.0
803.3815618175635 58.060242692362756 420.3573616241774 147.45552789695074 0.0 0.0
765.8750795812281 48.60910965459304 396.5892699147767 150.54563888864993 0.0 0.0
726.2316797534653 38.90243928497751 371.45545514993637 153.41218120383627 0.0 0.0
682.6475301287828 29.083182818926332 343.5752682823962 156.43625623028242 0.0 0.0
635.7156303997739 22.84577933788526 314.30074551636733 159.75860225648393 0.0 0.0
582.715651322869 21.532349583910168 279.0287713251174 165.1783063195403 0.0 0.0
510.99632124209296 22.398205860761106 227.0926080654615 172.62434740205802 0.0 0.0
407.7538653512523 12.492189565960118 154.52546611622714 186.631892563959 0.0 0.0
286.3842369030928 -0.4925963717317856 90.49503959551738 199.3537285832122 0.0 0.0
185.26257782612922 -0.37839617513487545 55.22789647566757 192.47570606515484 0.0 0.0
116.45523360405075 11.509943375958978 38.27722105053669 175.0612460594757 0.0 0.0
65.12898129656001 22.92391716239117 26.408131393189535 168.85014150852413 0.0 0.0
23.088609289620532 -1.5504642668510602 6.4626613771372865 177.81361646161398 0.0 0.0
135.5134211948709 -14.862636440344396 45.59547440269925 212.39535919439857 0.0 0.0
-297.31210103481703 -855.7310139601757 -422.0717592240892 81.22129334870192 0.0 0.0
-205.0008050687178 -711.3869524602325 -309.0796093561235 -94.13158236307854 0.0 0.0
82.28871406630667 -40.398655757782365 16.533654664390493 -204.30741986275424 0.0 0.0
-4.0285964780882475 -5.520592362352822 -2.8784014803788294 -185.30200319853824 0.0 0.0
20.29519604228107 21.660452252519978 12.584071229125527 -179.74465735384067 0.0 0.0
50.749872775539636 14.591905301890288 19.56473144930289 -185.9351346609972 0.0 0.0
89.25222375023931 3.127116802158059 27.604973100023695 -205.2703057632958 0.0 0.0
144.8792265730356 -2.5734444822989206 43.05902187614532 -221.00338831631416 0.0 0.0
233.17111517980615 -6.55495413279943 71.09702381166342 -220.179065250398 0.0 0.0
341.7883016815724 -13.162156453391862 110.6159194776701 -201.43454771526726 0.0 0.0
427.7226680991606 -13.707607020891967 153.6005634032741 -178.82664421117946 0.0 0.0
485.8620503359521 -4.56122654936398 193.10212067023002 -169.35250589729367 0.0 0.0
530.0158225342929 3.954929047850136 225.31947459736784 -166.8059965688639 0.0 0.0
567.2184906794918 11.925032051540086 252.44696918356843 -165.87882069233532 0.0 0.0
600.8416817891792 19.806084328267445 276.2270459704661 -165.04491137324786 0.0 0.0
633.227012078087 27.87387016520242 299.1091468407775 -163.83773376096406 0.0 0.0
667.1461063844214 36.20242936357312 323.0405399908563 -161.57554854601406 0.0 0.0
703.8933580053064 43.838155804876905 348.43153326191805 -156.55994578415311 0.0 0.0
743.2369058495483 50.216447044999825 374.4212618287915 -148.66828966442114 0.0 0.0
808.8890272962954 80.71019296110289 422.6994684288031 -142.29498002199492 0.0 0.0
907.828033578409 140.6400481553842 504.87818947458703 -141.4445119227416 0.0 0.0
-15.626238421120888 -720.016586740423 -356.1414232575388 -4.441602641236386e-11 0.0 0.0
907.8280335770975 140.64004815448888 504.878189473883 141.44451192294304 0.0 0.0
808.8890272987568 80.71019296399854 422.69946843046796 142.29498002270356 0.0 0.0
743.2369058494928 50.21644704487224 374.42126182870095 148.66828966450993 0.0 0.0
703.893358003302 43.83815580262034 348.43153326057245 156.55994578405628 0.0 0.0
667.1461063848133 36.20242936398024 323.0405399911921 161.5755485458491 0.0 0.0
633.2270120782166 27.873870165723886 299.1091468409396 163.83773376099737 0.0 0.0
600.841681789151 19.80608432822131 276.22704597044554 165.04491137340682 0.0 0.0
567.2184906794615 11.925032051619787 252.44696918359466 165.87882069241104 0.0 0.0
530.0158225338932 3.9549290473774406 225.31947459709048 166.80599656882706 0.0 0.0
485.86205033617216 -4.5612265488548935 193.10212067040618 169.352505897383 0.0 0.0
427.7226680995067 -13.707607020130993 153.6005634035235 178.82664421121598 0.0 0.0
341.788301680784 -13.162156454133825 110.61591947717426 201.43454771526774 0.0 0.0
233.17111517936425 -6.554954132961008 71.09702381147655 220.17906525045177 0.0 0.0
144.8792265727844 -2.5734444824029086 43.05902187604035 221.00338831615255 0.0 0.0
89.25222375004792 3.1271168018941777 27.604973099898093 205.2703057630911 0.0 0.0
50.74987277534976 14.59190530153958 19.564731449143512 185.93513466076485 0.0 0.0
20.295196042089717 21.660452252146598 12.584071228956173 179.74465735367778 0.0 0.0
-4.028596477904584 -5.520592361813845 -2.8784014801643902 185.30200319838016 0.0 0.0
82.28871406593355 -40.398655758133145 16.53365466414628 204.30741986251456 0.0 0.0
-205.0008050681907 -711.3869524593437 -309.0796093554807 94.13158236305647 0.0 0.0
-142.8262882770676 -578.2276828175482 -225.8536273600893 -107.35310719173685 0.0 0.0
33.18273601888548 -59.17396589438604 -6.562553815377011 -189.59102458623093 0.0 0.0
-30.525732067166096 -6.104421192503183 -10.985242862982172 -189.2258720272977 0.0 0.0
-23.87687743895481 19.956326614829177 -1.1872490485262421 -186.07818359551987 0.0 0.0
-14.191198585951314 17.35301201952372 0.9470138922542932 -191.61263779381784 0.0 0.0
-6.840203540987703 7.327367507816607 0.15495458006172447 -210.02866644681922 0.0 0.0
-3.0797912495355284 1.0253434543352418 -0.6172758513874363 -227.51245351258382 0.0 0.0
-1.1332325093119167 0.09585284874205158 -0.31583464510750403 -230.349280436968 0.0 0.0
-0.393455687444316 0.007228083366483062 -0.12312666534390004 -223.11710262018212 0.0 0.0
-0.029743242419726812 -0.007951001665933433 -0.008874754784152117 -219.04514875093906 0.0 0.0
-0.4570229955923537 0.00959162637150257 -0.1253337389309337 -212.4685337821149 0.0 0.0
-1.0112868667317656 0.1718470673406216 0.2465782289655749 -199.32995686423425 0.0 0.0
-1.8937528495061997 0.9228288428497393 0.49074651092333 -190.19904536171495 0.0 0.0
0.0900702761142611 2.7958579243302353 1.0704700246640328 -183.3024658746734 0.0 0.0
9.742571793765507 7.047401053172436 2.5215557378081286 -178.37973946509064 0.0 0.0
34.241182086475845 14.840141462390605 6.585060184793889 -174.1184893787326 0.0 0.0
83.40148902263576 28.109449568129904 15.75531768664024 -168.6891908738248 0.0 0.0
171.5803649812069 38.28951932580401 21.74670273615503 -159.47785300662963 0.0 0.0
393.17094894874447 -2.9432224446153015 38.91150001906357 -154.6445320355695 0.0 0.0
624.5396385177726 34.672934815810905 251.15594951807526 -202.1915425203665 0.0 0.0
-701.6013254091366 -969.9533651459257 -757.0568580529215 -1.41895384331292e-11 0.0 0.0
624.53963851808 34.67293481665368 251.15594951829337 202.191542520332 0.0 0.0
393.17094894899685 -2.943222444878927 38.91150001890935 154.64453203630416 0.0 0.0
171.58036498178976 38.28951932721361 21.74670273690853 159.47785300702787 0.0 0.0
83.40148902166183 28.109449567058064 15.755317685920346 168.68919087409066 0.0 0.0
34.241182086521746 14.840141461909766 6.585060184669487 174.11848937887453 0.0 0.0
9.742571794759783 7.047401054501478 2.521555738605855 178.37973946522132 0.0 0.0
0.09007027576912208 2.7958579235857783 1.0704700242635852 183.30246587468974 0.0 0.0
-1.8937528499304364 0.9228288421475526 0.4907465104369848 190.19904536195693 0.0 0.0
-1.011286866779443 0.17184706673208439 0.24657822871233748 199.3299568643748 0.0 0.0
-0.4570229952281508 0.009591626410312415 -0.12533373882953214 212.46853378203747 0.0 0.0
-0.029743242069457665 -0.007951001890114995 -0.008874754755687775 219.04514875072934 0.0 0.0
-0.39345568679686593 0.007228084234516707 -0.12312666487978241 223.11710262014114 0.0 0.0
-1.1332325093769064 0.09585284826025431 -0.31583464527197513 230.34928043711517 0.0 0.0
-3.0797912495992854 1.025343454110489 -0.617275851475652 227.51245351234934 0.0 0.0
-6.840203541265629 7.32736750725789 0.15495457981058935 210.0286664464876 0.0 0.0
-14.191198586071152 17.35301201925305 0.9470138921367075 191.61263779354118 0.0 0.0
-23.876877439027353 19.95632661467708 -1.18724904859514 186.07818359541645 0.0 0.0
-30.52573206707013 -6.1044211921839615 -10.985242862859076 189.22587202716085 0.0 0.0
33.18273601860069 -59.173965894673145 -6.562553815566854 189.5910245858713 0.0 0.0
-142.82628827663893 -578.2276828167252 -225.8536273596492 107.35310719175035 0.0 0.0
-110.63137631064791 -458.4510125057506 -170.99801099899162 -113.91555635822138 0.0 0.0
-5.584342360085332 -70.59570196574703 -22.80942625439699 -173.30961351232853 0.0 0.0
-55.607664695312394 -5.531239713531142 -18.354260176206456 -188.3286583970544 0.0 0.0
-66.96575051996624 18.402273276629362 -14.585920581894307 -187.5653693160816 0.0 0.0
-77.91867039467652 19.383224231730225 -17.567938296506938 -191.6649131820264 0.0 0.0
-101.69133182916357 11.315563114134708 -27.092315021197493 -206.8393748462288 0.0 0.0
-150.46790718276597 4.671277850944488 -44.19834337902503 -222.0930444130571 0.0 0.0
-234.6291860244351 6.598298179402307 -71.68402283128579 -220.57781798241467 0.0 0.0
-342.02863897278945 12.997205600328959 -110.8114327569468 -201.4656796341368 0.0 0.0
-427.72564580657433 13.680513423080257 -153.6061349040284 -178.79015890217738 0.0 0.0
-486.370982360657 4.4316836308858 -193.39869094489757 -169.36872419123225 0.0 0.0
-530.8207180018089 -3.8812453726276743 -226.24386468109 -166.63981758841857 0.0 0.0
-568.2793724078127 -10.503066196663099 -253.18020082444016 -165.20409316873594 0.0 0.0
-598.97430986989 -14.578467108226434 -273.26872509069835 -164.25912173859243 0.0 0.0
-620.2870103963076 -14.912284384233246 -284.7668444023085 -164.41881046008234 0.0 0.0
-630.1433776209647 -10.20326311185373 -285.407261250088 -166.40701955621768 0.0 0.0
-627.0848612102805 -0.6217244761098186 -273.25311782991605 -170.8914530675195 0.0 0.0
-619.4816724781788 6.744760702761198 -250.93912402964912 -180.25291298546898 0.0 0.0
-596.3663448411615 58.63506065982554 -187.4093234292787 -194.08585166522465 0.0 0.0
-321.48011616767735 180.2328248938419 46.53110782732085 -161.3492461377841 0.0 0.0
-1272.6690965047915 -1240.5435873430697 -1288.9402375818322 -9.042366855283035e-11 0.0 0.0
-321.4801161671932 180.23282489528907 46.53110782788352 161.34924613849057 0.0 0.0
-596.3663448412124 58.635060659322164 -187.40932342928434 194.08585166523602 0.0 0.0
-619.481672477411 6.744760704038001 -250.9391240290783 180.25291298562 0.0 0.0
-627.0848612096846 -0.621724475609696 -273.25311782964695 170.89145306745934 0.0 0.0
-630.1433776209607 -10.203263112461215 -285.40726125020717 166.40701955641862 0.0 0.0
-620.2870103958612 -14.912284383690952 -284.766844401874 164.41881046001913 0.0 0.0
-598.9743098698176 -14.578467108426551 -273.268725090664 164.25912173867837 0.0 0.0
-568.2793724072545 -10.503066196412867 -253.1802008240297 165.20409316870752 0.0 0.0
-530.8207180016356 -3.881245372709394 -226.2438646808825 166.63981758856175 0.0 0.0
-486.3709823596368 4.4316836320440895 -193.39869094405017 169.36872419095994 0.0 0.0
-427.72564580620116 13.680513423006321 -153.60613490379427 178.79015890212256 0.0 0.0
-342.02863897169243 12.99720560100784 -110.81143275636992 201.46567963432324 0.0 0.0
-234.6291860242693 6.598298178542279 -71.68402283144202 220.57781798248303 0.0 0.0
-150.4679071823128 4.671277851249789 -44.198343378790696 222.09304441280506 0.0 0.0
-101.69133182848577 11.315563115017643 -27.09231502073938 206.83937484583808 0.0 0.0
-77.91867039463479 19.38322423122515 -17.567938296649437 191.66491318190714 0.0 0.0
-66.96575051995414 18.402273276291194 -14.58592058199541 187.5653693159062 0.0 0.0
-55.60766469517533 -5.531239713356653 -18.354260176115286 188.32865839696296 0.0 0.0
-5.58434236016271 -70.59570196590343 -22.80942625446457 173.3096135121853 0.0 0.0
-110.63137631053416 -458.4510125051 -170.99801099879753 113.91555635808439 0.0 0.0
-92.73818042037021 -350.30167674248344 -132.89855500671604 -107.42958945293381 0.0 0.0
-30.506413156857647 -76.32627982653952 -32.04601714855887 -160.171322118528 0.0 0.0
-79.12505802728754 -5.220064883995632 -25.28861932269553 -184.28536937267472 0.0 0.0
-108.23203806295989 17.04154298348916 -27.386570471489694 -184.06056652869816 0.0 0.0
-140.46911940049046 20.832892067380698 -35.82201665064869 -187.1621298021621 0.0 0.0
-194.87011307211344 14.406499578638629 -54.22376896172579 -197.24338008986567 0.0 0.0
-288.33062611417625 1.6063056045641657 -91.47034155743019 -199.05796354887514 0.0 0.0
-407.96399165419473 -12.703862757956706 -154.86224587777338 -187.24638604017102 0.0 0.0
-510.98214793307494 -22.59669846456803 -227.1870642478879 -172.74771662521016 0.0 0.0
-582.6438588574333 -21.56161783895429 -279.02916262009364 -165.17706182328664 0.0 0.0
-635.7789484725416 -22.82712790537964 -314.3683248624505 -159.67627320170584 0.0 0.0
-683.1322054505526 -28.950964292884407 -343.85427742688546 -155.91294900321722 0.0 0.0
-726.6752983331492 -37.861344452114565 -371.35764146420183 -152.22573364328815 0.0 0.0
-763.2946648056525 -44.248879364881745 -393.44151542930615 -149.36826852925796 0.0 0.0
-790.4577641957301 -45.4855505156041 -407.95814058192855 -148.38514110881542 0.0 0.0
-804.9964948012159 -39.227803753784826 -412.1573884730816 -149.70578873414942 0.0 0.0
-807.7162358521547 -27.54186335429918 -407.2935530960158 -153.56830984017574 0.0 0.0
-799.0634316145422 -12.816460186988081 -395.0207328113539 -159.8613938964182 0.0 0.0
-748.6961026591397 35.110179999495756 -345.7635687065042 -167.1515186520903 0.0 0.0
-627.3847792039314 139.57335362657204 -235.02235757997508 -174.88838458710592 0.0 0.0
-2071.837868782457 -1539.9453782411667 -1774.0026980971136 -1.141842176366481e-11 0.0 0.0
-627.384779204188 139.57335362593983 -235.0223575801018 174.88838458768586 0.0 0.0
-748.6961026588119 35.11017999975813 -345.7635687064055 167.15151865231306 0.0 0.0
-799.0634316149818 -12.816460187647706 -395.02073281160256 159.8613938967345 0.0 0.0
-807.7162358518847 -27.541863354113403 -407.2935530958383 153.56830984016509 0.0 0.0
-804.9964948015026 -39.22780375426939 -412.15738847327685 149.705788734251 0.0 0.0
-790.4577641950794 -45.48555051508287 -407.9581405814499 148.38514110870395 0.0 0.0
-763.2946648056924 -44.24887936516427 -393.4415154293294 149.36826852942892 0.0 0.0
-726.6752983327259 -37.86134445180981 -371.3576414639995 152.22573364323492 0.0 0.0
-683.1322054512788 -28.950964294076726 -343.8542774273652 155.9129490034104 0.0 0.0
-635.778948471529 -22.827127904296503 -314.3683248618366 159.6762732014707 0.0 0.0
-582.6438588579224 -21.56161783997989 -279.02916262047 165.17706182340677 0.0 0.0
-510.98214793267704 -22.596698464729982 -227.18706424758477 172.74771662529201 0.0 0.0
-407.96399165399697 -12.703862758482854 -154.86224587766782 187.24638604032356 0.0 0.0
-288.33062611325096 1.6063056052877795 -91.4703415568848 199.0579635487677 0.0 0.0
-194.87011307149686 14.406499579163642 -54.22376896139751 197.24338008962556 0.0 0.0
-140.4691194003075 20.832892067572054 -35.822016650540625 187.16212980193313 0.0 0.0
-108.23203806303694 17.041542983256083 -27.386570471587 184.06056652854986 0.0 0.0
-79.12505802734371 -5.2200648840977575 -25.28861932274851 184.28536937253452 0.0 0.0
-30.506413156818624 -76.32627982640597 -32.04601714850545 160.17132211852265 0.0 0.0
-92.73818042022012 -350.3016767420843 -132.8985550065503 107.4295894527785 0.0 0.0
-75.741624971802 -259.8220523701678 -100.66910320259093 -96.2499712824496 0.0 0.0
-47.971012622820666 -75.53135268571528 -37.04992899864573 -146.42158119160877 0.0 0.0
-100.77340115280593 -5.169032365540492 -31.762364003748715 -175.82309075098706 0.0 0.0
-147.86102223648862 15.776419192572812 -39.5899107027487 -176.63036098554596 0.0 0.0
-200.58725141734976 20.722877103376888 -53.90594402595911 -175.93698757274646 0.0 0.0
-284.49513091955606 11.69518639838022 -83.8919424313457 -176.16147153012886 0.0 0.0
-407.4254887683873 -11.811726827279406 -146.15589296221077 -170.42440091883302 0.0 0.0
-526.713806816951 -34.79296834266176 -234.30235328548687 -158.57074182901073 0.0 0.0
-616.8269075721968 -41.70945384019329 -306.80429902669846 -152.39513856122775 0.0 0.0
-679.18892807679 -39.54435626239063 -348.96727645693346 -148.41413473585376 0.0 0.0
-729.8454934134498 -43.00151804359402 -379.4683283116083 -144.46105281888075 0.0 0.0
-779.2134680449171 -52.14219092933405 -409.5390643127247 -141.17854935362854 0.0 0.0
-826.8770089737425 -63.95561372697965 -439.6764183541831 -137.56533669917224 0.0 0.0
-869.2341872717932 -74.4785363831557 -466.4094256170017 -134.48495937060264 0.0 0.0
-902.4029982675834 -79.34369647571069 -485.6757847145884 -133.28508312008722 0.0 0.0
-921.7429928055185 -75.35323084171958 -493.48585742654166 -135.00094157802621 0.0 0.0
-925.7943798774887 -61.17771079848694 -488.47938318811373 -139.61575753113266 0.0 0.0
-904.9232682968081 -28.882570217401508 -461.8868870228053 -145.30065749500952 0.0 0.0
-846.8397359490784 32.23537929606029 -402.8175384212851 -149.59459614954315 0.0 0.0
-682.7386235665398 185.4775550996714 -247.09220919516227 -150.40582480868437 0.0 0.0
-2514.556907153238 -1771.6774027647486 -2119.515659225708 1.2035528129672457e-10 0.0 0.0
-682.738623567956 185.47755509790997 -247.09220919607716 150.40582480912434 0.0 0.0
-846.839735948807 32.23537929616589 -402.81753842113255 149.59459614978618 0.0 0.0
-904.9232682971661 -28.88257021795772 -461.8868870228999 145.3006574952335 0.0 0.0
-925.7943798773041 -61.17771079838958 -488.4793831880682 139.61575753111094 0.0 0.0
-921.7429928057454 -75.35323084224527 -493.4858574267213 135.0009415781943 0.0 0.0
-902.4029982668137 -79.34369647504288 -485.6757847140475 133.28508312006346 0.0 0.0
-869.2341872722346 -74.47853638375676 -466.40942561723483 134.48495937068574 0.0 0.0
-826.877008974187 -63.955613727638216 -439.6764183545196 137.5653366990868 0.0 0.0
-779.2134680455372 -52.14219093029991 -409.5390643130853 141.17854935370673 0.0 0.0
-729.8454934128944 -43.00151804317844 -379.46832831129404 144.46105281873093 0.0 0.0
-679.1889280772199 -39.54435626337368 -348.96727645723035 148.41413473593707 0.0 0.0
-616.8269075715931 -41.70945383988028 -306.80429902617965 152.39513856119973 0.0 0.0
-526.713806816957 -34.79296834327215 -234.3023532853759 158.57074182906337 0.0 0.0
-407.4254887675994 -11.811726826944112 -146.15589296173093 170.4244009188984 0.0 0.0
-284.4951309189829 11.695186398635077 -83.8919424310707 176.16147152994523 0.0 0.0
-200.58725141707419 20.72287710326772 -53.90594402592611 175.93698757248004 0.0 0.0
-147.86102223600534 15.77641919329725 -39.58991070239179 176.63036098541934 0.0 0.0
-100.77340115260444 -5.169032365337186 -31.762364003625482 175.8230907507863 0.0 0.0
-47.97101262271749 -75.53135268563085 -37.04992899859057 146.42158119160175 0.0 0.0
-75.74162497173891 -259.822052369882 -100.66910320248626 96.24997128223627 0.0 0.0
-61.63889334740281 -184.23887381379842 -73.76333014836038 -82.73786017106077 0.0 0.0
-61.13281884601364 -69.90752325862975 -39.31227878874836 -130.80183055152614 0.0 0.0
-120.87353152426388 -5.072756103729552 -37.76981384259767 -163.2666744354048 0.0 0.0
-185.18971246794618 13.761535066162157 -51.4025685200727 -164.03885111140363 0.0 0.0
-260.04737110223607 18.932801336926264 -72.29354376816553 -160.34488925118598 0.0 0.0
-371.70753622570487 4.38685464679779 -117.30060544731123 -151.9398519160406 0.0 0.0
-502.49323637091527 -29.156058365005503 -203.57652594605332 -139.82272354068468 0.0 0.0
-614.3315997979946 -50.39895385726824 -299.2288939838827 -134.3083545469824 0.0 0.0
-693.5682518583444 -54.44079811195534 -361.73960533536757 -131.9343909868513 0.0 0.0
-749.8305596574817 -57.50512677287438 -398.30067957484965 -129.19990541610576 0.0 0.0
-802.8732801433633 -62.71420461540359 -428.72423031063244 -127.42588073566063 0.0 0.0
-854.8289484991177 -74.09140385236488 -460.6253780576864 -124.69466852448161 0.0 0.0
-906.3935386437261 -89.43645531876604 -494.27724376667175 -121.3662141394358 0.0 0.0
-954.6636739525693 -104.78660448234083 -526.277906275139 -118.23237314187162 0.0 0.0
-994.2121902498358 -114.84074017752255 -551.286281874043 -116.76542806241982 0.0 0.0
-1018.0182070454835 -112.65842122466535 -562.2881085553903 -118.45081424106098 0.0 0.0
-1017.3213657598546 -92.19995132164954 -551.8833039873435 -122.69518493956248 0.0 0.0
-983.2745150054253 -43.580470295447185 -510.7505932065344 -127.6001871661229 0.0 0.0
-895.7200042645065 50.135382383990546 -420.88742186904096 -129.7014162968241 0.0 0.0
-714.4707638391222 223.0135772126922 -245.5296471432967 -127.7917397669435 0.0 0.0
-2865.192022848874 -2012.0659727211175 -2420.5904704410923 2.4358826067327755e-10 0.0 0.0
-714.4707638389118 223.01357721273502 -245.52964714307933 127.79173976711238 0.0 0.0
-895.7200042642771 50.135382384078724 -420.8874218689343 129.70141629712933 0.0 0.0
-983.2745150063765 -43.58047029665188 -510.75059320728917 127.60018716643135 0.0 0.0
-1017.3213657600744 -92.19995132202132 -551.8833039876029 122.69518493973878 0.0 0.0
-1018.018207045415 -112.65842122473157 -562.288108555412 118.4508142409985 0.0 0.0
-994.2121902488699 -114.84074017668146 -551.2862818733428 116.76542806235275 0.0 0.0
-954.6636739520072 -104.78660448197402 -526.2779062747761 118.23237314186618 0.0 0.0
-906.393538644414 -89.43645531977288 -494.27724376719823 121.3662141396501 0.0 0.0
-854.8289484984671 -74.09140385187493 -460.6253780571744 124.69466852437463 0.0 0.0
-802.8732801425906 -62.71420461492313 -428.7242303101541 127.4258807357427 0.0 0.0
-749.83055965716 -57.50512677283328 -398.30067957469964 129.19990541606268 0.0 0.0
-693.5682518582333 -54.4407981121864 -361.7396053352379 131.93439098686412 0.0 0.0
-614.331599797754 -50.39895385754738 -299.22889398360445 134.30835454705166 0.0 0.0
-502.49323637076 -29.15605836542918 -203.5765259458668 139.82272354074303 0.0 0.0
-371.7075362250317 4.386854647139491 -117.30060544692542 151.93985191595283 0.0 0.0
-260.04737110193787 18.9328013366895 -72.29354376816681 160.3448892510637 0.0 0.0
-185.1897124676733 13.761535066475638 -51.40256851991218 164.0388511112235 0.0 0.0
-120.87353152408356 -5.072756103499715 -37.769813842473475 163.26667443517158 0.0 0.0
-61.13281884602164 -69.90752325872711 -39.31227878877996 130.80183055138147 0.0 0.0
-61.638893347389 -184.23887381359924 -73.76333014829646 82.73786017092579 0.0 0.0
-51.14156326584265 -122.85644482925167 -52.19940242852829 -68.37925167370163 0.0 0.0
-71.38243820620416 -60.8821361331231 -39.679372301798175 -113.00953744693625 0.0 0.0
-139.65868131179272 -4.620252001305332 -43.27999592990664 -146.53459090197364 0.0 0.0
-220.81084586335655 11.395437549086674 -62.71429734429971 -147.49315450335976 0.0 0.0
-317.8609966125599 13.235615381046493 -92.23326497134755 -137.9953159040271 0.0 0.0
-449.9909726775098 -8.384232229053552 -155.16609876481223 -123.67543342496388 0.0 0.0
-579.6203385971542 -43.901706295757904 -257.88366505223496 -113.39827675428647 0.0 0.0
-681.3820183576413 -60.5499907209644 -349.1712442727682 -111.60125523483686 0.0 0.0
-750.555140094843 -68.66345602388543 -402.9557121248614 -110.19816086317317 0.0 0.0
-809.9363867495081 -73.1620973563321 -438.28968079269254 -110.31268400153019 0.0 0.0
-864.5448326423502 -81.72823646644655 -470.44799507087583 -109.17388535485993 0.0 0.0
-919.6047962424997 -96.04828826911675 -505.22400342060746 -106.93695638336058 0.0 0.0
-974.9011987356935 -114.6313335962875 -542.2689525338465 -104.08823711876228 0.0 0.0
-1028.201469127585 -134.20026518256344 -578.8096277781344 -101.18546053597028 0.0 0.0
-1074.6513667649367 -150.0445439408216 -610.1155804425136 -99.39347975252748 0.0 0.0
-1102.0556447617812 -150.5029354203733 -624.298078913771 -100.22036337928813 0.0 0.0
-1095.8392931787732 -121.3841103803698 -606.8864322557808 -103.89173018587411 0.0 0.0
-1041.8815971732463 -51.500465581578254 -545.2991919367856 -107.95208769783778 0.0 0.0
-928.0987946474276 69.07323175334811 -428.7300790924695 -109.4610484504065 0.0 0.0
-740.4542134156017 248.60577394269006 -246.00675859305693 -109.49069778160069 0.0 0.0
-3162.836358620924 -2237.532869999713 -2685.9069823089385 1.8599521922624263e-10 0.0 0.0
-740.4542134157766 248.6057739423819 -246.0067585929508 109.49069778203881 0.0 0.0
-928.098794647942 69.07323175274603 -428.7300790929179 109.46104845046742 0.0 0.0
-1041.8815971728436 -51.500465581402494 -545.2991919365379 107.95208769814586 0.0 0.0
-1095.8392931792093 -121.38411038093602 -606.8864322561496 103.8917301860216 0.0 0.0
-1102.0556447609542 -150.5029354196392 -624.2980789132785 100.2203633791609 0.0 0.0
-1074.6513667645502 -150.0445439406525 -610.1155804422766 99.39347975266385 0.0 0.0
-1028.2014691268519 -134.20026518197884 -578.809627777575 101.18546053601618 0.0 0.0
-974.901198736653 -114.63133359752908 -542.268952534565 104.08823711885266 0.0 0.0
-919.6047962415812 -96.04828826838266 -505.2240034199662 106.93695638329181 0.0 0.0
-864.5448326417428 -81.7282364661114 -470.4479950705023 109.17388535487402 0.0 0.0
-809.9363867495251 -73.16209735654655 -438.28968079272715 110.31268400133887 0.0 0.0
-750.555140094968 -68.66345602434512 -402.95571212487715 110.19816086311864 0.0 0.0
-681.3820183573724 -60.54999072105951 -349.17124427248973 111.60125523484425 0.0 0.0
-579.6203385970535 -43.90170629618696 -257.8836650519776 113.39827675432048 0.0 0.0
-449.99097267702695 -8.384232229049866 -155.16609876451622 123.675433424975 0.0 0.0
-317.8609966119507 13.23561538139558 -92.23326497106807 137.9953159038667 0.0 0.0
-220.81084586317303 11.395437549025589 -62.71429734426491 147.49315450325585 0.0 0.0
-139.6586813115529 -4.620252001159197 -43.27999592978959 146.5345909019354 0.0 0.0
-71.38243820614986 -60.88213613322174 -39.67937230181148 113.00953744681728 0.0 0.0
-51.141563265844226 -122.85644482914252 -52.199402428496015 68.37925167352029 0.0 0.0
-44.09501244432635 -75.26804324231212 -35.80891670599154 -53.69643465133008 0.0 0.0
-79.31030602628698 -49.820646005406076 -38.73928560950791 -93.18436920559748 0.0 0.0
-157.28404970559876 -3.646298001647469 -48.2796118106474 -125.68579176370801 0.0 0.0
-255.102572603559 7.630948493023146 -74.13812225377066 -126.05465609722076 0.0 0.0
-377.54365110761324 5.746873817046968 -114.10341668841856 -112.64955613099863 0.0 0.0
-515.0326899812874 -25.39306030069408 -196.3739581459276 -93.50538483502844 0.0 0.0
-641.3333398893919 -53.752024806930244 -304.83812750365075 -89.46281536926114 0.0 0.0
-729.8906913471673 -71.0322916996805 -387.13418236393085 -88.75248500585732 0.0 0.0
-800.7265431402114 -80.43083290624192 -436.5628072494468 -89.63617390040778 0.0 0.0
-861.3799777781925 -88.95158501500934 -473.0179813106895 -90.4778556372494 0.0 0.0
-919.3095553544824 -100.95207640260628 -508.2504135623492 -89.86814363427574 0.0 0.0
-977.5095384711647 -118.07732676343056 -545.9588857791393 -88.1705823854742 0.0 0.0
-1035.9500830061174 -139.23818469069874 -585.8252741791341 -85.94860662914535 0.0 0.0
-1092.9486959670278 -162.69389051093572 -626.1043716949787 -83.48862403488415 0.0 0.0
-1144.695008211728 -182.77303694504158 -662.1215905845964 -81.39142832756424 0.0 0.0
-1177.4372308945315 -186.86154603759218 -680.7859547905474 -81.01596533044932 0.0 0.0
-1167.4210074540258 -152.9582982331739 -659.1878152108875 -83.3492679965891 0.0 0.0
-1094.6616276234365 -62.763861946645164 -578.0801560676775 -87.09698646390387 0.0 0.0
-956.4501313251317 82.9321131150671 -436.52815189384785 -90.25786759509718 0.0 0.0
-757.1441317373396 273.52392739989494 -241.94980551224415 -94.17978577179744 0.0 0.0
-3418.659570896733 -2440.089189549256 -2917.8380594115506 -6.789235840187757e-12 0.0 0.0
-757.1441317382205 273.5239273987175 -241.94980551274557 94.17978577218577 0.0 0.0
-956.4501313262921 82.93211311384363 -436.5281518947606 90.25786759541043 0.0 0.0
-1094.6616276240281 -62.76386194724742 -578.080156068037 87.09698646387181 0.0 0.0
-1167.4210074537868 -152.95829823302608 -659.1878152107953 83.34926799647435 0.0 0.0
-1177.437230893635 -186.86154603682496 -680.7859547898188 81.01596533040083 0.0 0.0
-1144.6950082114834 -182.77303694501006 -662.1215905844128 81.39142832773462 0.0 0.0
-1092.9486959675917 -162.69389051175153 -626.1043716952349 83.48862403506335 0.0 0.0
-1035.9500830061133 -139.23818469090799 -585.8252741792039 85.94860662909433 0.0 0.0
-977.509538470958 -118.07732676356244 -545.9588857790276 88.17058238567277 0.0 0.0
-919.3095553540784 -100.95207640243464 -508.2504135621102 89.86814363426772 0.0 0.0
-861.3799777782983 -88.95158501531537 -473.01798131075793 90.47785563706883 0.0 0.0
-800.7265431403558 -80.43083290675128 -436.5628072495515 89.63617390048489 0.0 0.0
-729.8906913471644 -71.03229170003381 -387.1341823638176 88.75248500577925 0.0 0.0
-641.3333398888394 -53.75202480685326 -304.8381275031402 89.46281536938449 0.0 0.0
-515.0326899807844 -25.393060300630044 -196.373958145535 93.50538483505355 0.0 0.0
-377.54365110727565 5.746873816856109 -114.1034166883438 112.64955613090095 0.0 0.0
-255.1025726034273 7.63094849270429 -74.13812225383704 126.05465609719866 0.0 0.0
-157.2840497053378 -3.646298001214441 -48.27961181043913 125.68579176364462 0.0 0.0
-79.31030602623922 -49.82064600545974 -38.739285609509686 93.18436920543719 0.0 0.0
-44.0950124441267 -75.26804324215496 -35.8089167058845 53.69643465118145 0.0 0.0
-39.847974073731976 -41.198491292509885 -24.31393960987256 -39.110617652799334 0.0 0.0
-84.88031913292188 -37.95179404032431 -36.84963395197386 -71.56200785164523 0.0 0.0
-173.63684105665226 -2.288109506348764 -52.77770564660456 -100.55704783792078 0.0 0.0
-289.78229330620184 2.6453577070224084 -85.99261482127247 -100.01719010618672 0.0 0.0
-434.3364051822553 -5.83560951528554 -139.23570674501855 -82.72508068441897 0.0 0.0
-574.872454340669 -38.06602156607305 -237.08622834088055 -68.07262113510106 0.0 0.0
-686.274666678518 -62.52628569959654 -343.5717143628484 -66.84170110461486 0.0 0.0
-770.9013900988381 -79.19233908872549 -416.63383129834426 -66.94921635006733 0.0 0.0
-843.2893710113076 -92.56789203382534 -465.3980634543018 -68.60690791031274 0.0 0.0
-907.3633596690587 -104.93204809049952 -504.6479183982781 -69.81580856744216 0.0 0.0
-968.5812369750635 -120.32570476757937 -543.1170775690482 -69.62893987178735 0.0 0.0
-1030.1626071114401 -140.39537815826247 -583.9699057851321 -68.46413778883596 0.0 0.0
-1091.3917173538919 -164.4189535163779 -626.6463842756002 -66.8570114606409 0.0 0.0
-1150.4298103526276 -188.58849516422515 -668.2765535230776 -65.09384595851982 0.0 0.0
-1204.201379775434 -210.65248463444973 -706.244150117891 -63.02152581636967 0.0 0.0
-1242.8473044090588 -220.24748848668403 -730.5614487806954 -61.258456646265394 0.0 0.0
-1238.7199595467987 -190.59525645192485 -714.0586888247847 -61.67223125623494 0.0 0.0
-1154.2610247101245 -87.40576876596057 -620.6500725179976 -65.41432631187321 0.0 0.0
-987.0471312970059 87.95484780625969 -449.65262442073777 -71.48872333613471 0.0 0.0
-760.2790602497564 306.33465771035566 -227.14948555692317 -80.3769358152297 0.0 0.0
-3632.8562564507497 -2610.3442823910577 -3112.1964363643583 2.5766055955500633e-11 0.0 0.0
-760.2790602502357 306.3346577098059 -227.14948555730933 80.37693581526841 0.0 0.0
-987.0471312980833 87.95484780511043 -449.6526244215212 71.48872333626824 0.0 0.0
-1154.2610247123293 -87.40576876832904 -620.6500725195128 65.4143263120159 0.0 0.0
-1238.71995954666 -190.5952564518829 -714.0586888246957 61.67223125633263 0.0 0.0
-1242.8473044079335 -220.24748848570533 -730.5614487798865 61.25845664624631 0.0 0.0
-1204.2013797752854 -210.65248463447426 -706.2441501177835 63.02152581645374 0.0 0.0
-1150.4298103530762 -188.58849516491125 -668.2765535232822 65.09384595861518 0.0 0.0
-1091.3917173542213 -164.41895351688402 -626.6463842758956 66.85701146059898 0.0 0.0
-1030.162607110913 -140.39537815800256 -583.9699057848147 68.46413778880995 0.0 0.0
-968.5812369755092 -120.32570476824483 -543.1170775693154 69.62893987171698 0.0 0.0
-907.3633596697755 -104.93204809150538 -504.6479183987348 69.81580856732249 0.0 0.0
-843.2893710116173 -92.56789203454804 -465.3980634544914 68.60690791054182 0.0 0.0
-770.9013900981463 -79.19233908833847 -416.63383129781295 66.94921634994894 0.0 0.0
-686.2746666777866 -62.52628569921993 -343.57171436222444 66.84170110469793 0.0 0.0
-574.872454340106 -38.066021565906695 -237.08622834036586 68.07262113502921 0.0 0.0
-434.33640518184154 -5.835609515420828 -139.23570674484287 82.72508068438994 0.0 0.0
-289.7822933059473 2.645357706770247 -85.99261482129639 100.01719010615733 0.0 0.0
-173.6368410564671 -2.288109506049692 -52.777705646459026 100.55704783773406 0.0 0.0
-84.88031913297071 -37.951794040372 -36.849633952002804 71.562007851578 0.0 0.0
-39.847974073831985 -41.19849129253248 -24.31393960990934 39.1106176526408 0.0 0.0
-37.15959286619261 -20.25575731601 -17.224605054660778 -25.412142394707402 0.0 0.0
-87.39130650809544 -26.525419106172137 -34.17501768428028 -48.45079200608391 0.0 0.0
-188.39727338954094 -1.0838290596561286 -56.84433073475911 -70.58223959674693 0.0 0.0
-326.46065726701266 -3.1488710517149263 -98.66054895932366 -68.82891166700597 0.0 0.0
-486.69096814548607 -20.47879911928582 -168.02311561751822 -51.859529634692 0.0 0.0
-622.4525930496218 -47.65817413834547 -275.0887627930562 -44.90880914510622 0.0 0.0
-719.7089548247599 -69.30852021739472 -373.30357159118614 -44.73949468621978 0.0 0.0
-806.1196749986984 -88.02155843426682 -441.7225072628918 -45.599675779815776 0.0 0.0
-881.1057204686265 -105.33275118298441 -491.4930962902101 -47.1228760339078 0.0 0.0
-948.6818182858042 -121.27577686220708 -533.8968032978876 -48.332780492347965 0.0 0.0
-1013.6070594508284 -139.9021452109275 -575.8029968199409 -48.5046232262509 0.0 0.0
-1078.2181571649335 -162.8724589913803 -619.6217678036749 -47.86208909796785 0.0 0.0
-1142.3397019427348 -188.5215779311404 -664.5404882019094 -46.94326624843923 0.0 0.0
-1202.5151879181585 -214.1900924264074 -707.4985027868497 -45.793218428574065 0.0 0.0
-1255.1604093732747 -234.58348085288753 -744.0633643859617 -44.157970403936524 0.0 0.0
-1293.5652485637154 -243.4811287100754 -767.8086780405965 -41.84354896843251 0.0 0.0
-1303.6263521318767 -227.53271353767167 -765.1011304715762 -40.11729631863565 0.0 0.0
-1242.6527965900177 -146.44921013828608 -694.5357216065671 -42.488267254191676 0.0 0.0
-1038.078756855945 67.97234212840411 -485.4402829718896 -51.68732366763419 0.0 0.0
-735.4532156827805 363.57139149690096 -186.2375207703048 -66.91410061365674 0.0 0.0
-3791.80602110754 -2730.8213419467766 -3253.666354002298 1.0111911308285926e-10 0.0 0.0
-735.4532156847304 363.57139149494867 -186.23752077160748 66.91410061358249 0.0 0.0
-1038.0787568550577 67.97234212922612 -485.4402829712943 51.68732366753465 0.0 0.0
-1242.6527965904775 -146.44921013884903 -694.535721606847 42.48826725423005 0.0 0.0
-1303.6263521318538 -227.5327135378039 -765.1011304715815 40.11729631880041 0.0 0.0
-1293.5652485632259 -243.48112870969376 -767.8086780403801 41.84354896841291 0.0 0.0
-1255.1604093738201 -234.58348085361555 -744.0633643863548 44.15797040399917 0.0 0.0
-1202.5151879175673 -214.19009242599466 -707.4985027863337 45.79321842847179 0.0 0.0
-1142.339701942362 -188.52157793105226 -664.5404882017492 46.94326624860258 0.0 0.0
-1078.2181571650476 -162.87245899169508 -619.6217678037384 47.86208909795912 0.0 0.0
-1013.6070594508677 -139.90214521120166 -575.8029968199479 48.50462322603429 0.0 0.0
-948.6818182858771 -121.27577686258334 -533.8968032979524 48.33278049223054 0.0 0.0
-881.1057204682828 -105.33275118299262 -491.49309628994973 47.12287603408897 0.0 0.0
-806.1196749982761 -88.02155843413892 -441.7225072625728 45.599675779834136 0.0 0.0
-719.7089548241152 -69.30852021704032 -373.3035715906084 44.73949468607415 0.0 0.0
-622.452593049223 -47.658174138336605 -275.08876279262375 44.908809145190205 0.0 0.0
-486.6909681449971 -20.47879911930037 -168.02311561724463 51.85952963466448 0.0 0.0
-326.460657266751 -3.1488710517010956 -98.66054895925808 68.82891166692517 0.0 0.0
-188.39727338944056 -1.0838290597401783 -56.84433073475424 70.58223959660543 0.0 0.0
-87.39130650790624 -26.52541910605733 -34.17501768418907 48.45079200616073 0.0 0.0
-37.15959286620414 -20.255757316016453 -17.224605054666174 25.412142394551775 0.0 0.0
-33.666482224954976 -11.378946265360131 -13.513628547094532 -14.285060032933295 0.0 0.0
-85.341664992228 -17.27490130127095 -30.784969888049687 -24.280688796286697 0.0 0.0
-201.1527945232125 -1.1112156882052826 -60.679203063425305 -34.31972250294152 0.0 0.0
-364.8728092486712 -8.885986460068164 -112.57282270269731 -32.148385955349745 0.0 0.0
-536.8857059921415 -32.78036004191024 -198.59000925060107 -23.510006175573686 0.0 0.0
-657.2136919833342 -54.619484881394904 -307.8465367206706 -23.441032594032208 0.0 0.0
-749.3530790384243 -74.08905026191621 -396.8505704269304 -24.12200996007464 0.0 0.0
-836.5626571562959 -97.33431636780078 -463.41483954622095 -24.506234053449667 0.0 0.0
-914.8077236449717 -118.31982015592506 -515.2858705769528 -25.242149612066893 0.0 0.0
-986.2600013438632 -138.24666913485436 -561.4705862304654 -26.073251592409115 0.0 0.0
-1054.593171169056 -159.82498444974422 -606.5508312180292 -26.473817068874837 0.0 0.0
-1122.3323445445274 -184.77093125657723 -652.9220086829525 -26.439678090753805 0.0 0.0
-1188.782000856783 -212.9229931469215 -700.2509680854196 -26.094990525505256 0.0 0.0
-1250.4586792453554 -238.9478229226091 -744.1397352489356 -25.55392006245991 0.0 0.0
-1300.4492775461745 -256.34739617530556 -777.8951890904187 -24.60635619356465 0.0 0.0
-1332.6658246398476 -259.11229384106537 -795.458770933672 -22.807458104743464 0.0 0.0
-1345.0188495870702 -245.6712470564172 -794.9471228337339 -20.29155046177604 0.0 0.0
-1333.590248616421 -213.38110091973394 -773.2239069252589 -19.746651139878036 0.0 0.0
-1208.5147475463514 -75.59261129538217 -642.4237693041025 -28.03275521600272 0.0 0.0
-708.2487781634896 421.4614190648684 -144.05642512309808 -50.686464860995585 0.0 0.0
-3734.06556423738 -2636.773346236837 -3179.565845892387 3.732658626631746e-11 0.0 0.0
-708.2487781641933 421.46141906406024 -144.05642512353103 50.686464861101115 0.0 0.0
-1208.5147475450203 -75.59261129408796 -642.4237693032023 28.032755216133385 0.0 0.0
-1333.5902486167743 -213.3811009201894 -773.2239069255826 19.74665113992541 0.0 0.0
-1345.0188495867146 -245.67124705617266 -794.9471228335885 20.291550461741622 0.0 0.0
-1332.665824639691 -259.11229384105815 -795.4587709336089 22.807458104705837 0.0 0.0
-1300.4492775468466 -256.3473961761563 -777.8951890908518 24.60635619371631 0.0 0.0
-1250.4586792458267 -238.94782292327466 -744.1397352492827 25.553920062379174 0.0 0.0
-1188.7820008558897 -212.92299314624833 -700.250968084908 26.094990525566537 0.0 0.0
-1122.33234454578 -184.77093125807298 -652.9220086837811 26.439678090720882 0.0 0.0
-1054.593171168617 -159.82498444956266 -606.5508312177097 26.473817068684706 0.0 0.0
-986.2600013427942 -138.24666913406358 -561.4705862297587 26.073251592411317 0.0 0.0
-914.8077236441875 -118.31982015542175 -515.2858705764529 25.242149612046944 0.0 0.0
-836.5626571563123 -97.3343163681424 -463.41483954618184 24.506234053494396 0.0 0.0
-749.3530790373413 -74.08905026110307 -396.85057042612357 24.12200995982063 0.0 0.0
-657.21369198331 -54.61948488179633 -307.84653672045164 23.44103259410741 0.0 0.0
-536.8857059918357 -32.78036004209688 -198.59000925037375 23.510006175582816 0.0 0.0
-364.8728092481938 -8.885986459932958 -112.57282270252193 32.14838595536785 0.0 0.0
-201.15279452316065 -1.1112156883562703 -60.67920306345508 34.31972250294132 0.0 0.0
-85.34166499219033 -17.27490130118576 -30.784969888012828 24.28068879631202 0.0 0.0
-33.66648222499422 -11.378946265383842 -13.513628547113413 14.285060032988492 0.0 0.0
-22.236286804963832 -5.861710940177966 -8.429399323542539 -8.701324868429584 0.0 0.0
-74.61947374810822 -9.899356843081943 -25.355649177357037 -10.093906312775635 0.0 0.0
-211.36681115958478 -3.48243280368818 -64.45477318898187 -11.272031967491671 0.0 0.0
-411.3021914082806 -28.323824249609046 -134.78487033695905 -7.260365809872135 0.0 0.0
-610.0326587750693 -82.32621613831327 -251.13295126782282 0.6211224826627166 0.0 0.0
-756.6617987892965 -136.14080742385738 -392.3224025893791 1.4456121779692275 0.0 0.0
-888.2581704553813 -197.8623300394104 -519.0631723181655 0.4558308044939885 0.0 0.0
-1027.7732861854784 -274.8945472866448 -637.4986290657768 -1.0984125987162265 0.0 0.0
-1175.7245249129924 -366.3351058857779 -759.4865498325123 -2.861222258733285 0.0 0.0
-1340.985265000514 -479.76591838367415 -899.1463588964358 -4.746982494821836 0.0 0.0
-1529.6806217271067 -621.0353083480682 -1063.8614051883487 -6.493930897021098 0.0 0.0
-1741.9893980735635 -790.61702137351 -1254.3888658437227 -7.844899561806951 0.0 0.0
-1971.2716284989074 -980.5651386883876 -1463.5912088031273 -8.740746874708718 0.0 0.0
-2206.2601061854225 -1179.448809731219 -1680.2103872460955 -9.43345332884826 0.0 0.0
-2429.5629329109056 -1369.80756366944 -1886.8368150659862 -9.712797456713389 0.0 0.0
-2617.5738639968044 -1528.2845386422823 -2060.011529766768 -9.276572631924786 0.0 0.0
-2743.5465322234622 -1628.7983817356553 -2173.2458170774626 -7.793645187301085 0.0 0.0
-2798.97425963638 -1663.6161639709019 -2217.9559066187403 -6.539823915097674 0.0 0.0
-2869.072260980688 -1719.3435256069854 -2279.424932050403 -13.72592076856877 0.0 0.0
-2970.4090451048232 -1819.3362518874671 -2377.7730895073314 -40.61730732050326 0.0 0.0
-6527.406838609408 -5402.170884198034 -5941.061263060108 9.85806991593563e-11 0.0 0.0
-2970.4090451035772 -1819.3362518862295 -2377.773089506278 40.61730732053695 0.0 0.0
-2869.0722609793897 -1719.3435256057492 -2279.4249320492727 13.725920768426995 0.0 0.0
-2798.9742596357883 -1663.6161639704294 -2217.9559066181573 6.539823915232816 0.0 0.0
-2743.546532222502 -1628.7983817347915 -2173.2458170766113 7.793645187063966 0.0 0.0
-2617.5738639942474 -1528.2845386398524 -2060.011529764656 9.276572631769824 0.0 0.0
-2429.562932910817 -1369.807563669541 -1886.836815065664 9.712797456726634 0.0 0.0
-2206.2601061860755 -1179.4488097321132 -1680.2103872462849 9.433453328916649 0.0 0.0
-1971.271628498095 -980.565138687781 -1463.5912088023117 8.74074687467229 0.0 0.0
-1741.9893980736922 -790.6170213739032 -1254.3888658436128 7.844899561588502 0.0 0.0
-1529.6806217260805 -621.0353083473328 -1063.8614051873878 6.493930896840286 0.0 0.0
-1340.9852649983552 -479.7659183817744 -899.1463588948144 4.746982494970112 0.0 0.0
-1175.7245249118323 -366.3351058848848 -759.4865498315776 2.8612222586627425 0.0 0.0
-1027.7732861848062 -274.8945472863197 -637.4986290652126 1.0984125986514464 0.0 0.0
-888.2581704534352 -197.86233003767282 -519.0631723167578 -0.455830804715891 0.0 0.0
-756.6617987889856 -136.14080742393597 -392.32240258893853 -1.4456121780658293 0.0 0.0
-610.0326587748527 -82.32621613862834 -251.13295126756734 -0.6211224825740871 0.0 0.0
-411.3021914075916 -28.3238242491253 -134.78487033658683 7.260365810040437 0.0 0.0
-211.36681115925026 -3.482432803653765 -64.4547731888712 11.272031967515307 0.0 0.0
-74.61947374786418 -9.899356842930773 -25.35564917723848 10.093906312740936 0.0 0.0
-22.236286804846202 -5.861710940145336 -8.42939932349746 8.701324868557073 0.0 0.0
SCALARS Strain float 6
LOOKUP_TABLE default
0.015273740280710928 -0.025224674589429806 0.0 -0.001607058075937461 0.0 0.0
0.009394896111599585 -0.0029480935762633102 0.0 -0.007614971413373603 0.0 0.0
0.002760296850805295 -0.0006328642640936373 0.0 -0.0009463367755344935 0.0 0.0
0.0023261851137781637 -0.0009230546065869464 0.0 2.3926359156095524e-05 0.0 0.0
0.003541235591859148 -0.0015863128979039512 0.0 0.00022761334942108776 0.0 0.0
0.006207369431136256 -0.003627062503884615 0.0 0.0004053241040504011 0.0 0.0
0.010841359029667555 -0.007625955636405526 0.0 0.0005334652947002117 0.0 0.0
0.01784903060519362 -0.01397063183323589 0.0 0.0005746528744839856 0.0 0.0
0.02754179067112486 -0.022938645002602884 0.0 0.0005237848720810109 0.0 0.0
0.04002408524747502 -0.03457822663951937 0.0 0.00034581424891260006 0.0 0.0
0.05518854454147433 -0.04874655024973669 0.0 7.259476398316638e-05 0.0 0.0
0.0728011830276195 -0.06520855515980782 0.0 -0.00028118605418453273 0.0 0.0
0.09257557993394588 -0.08371563705122008 0.0 -0.0007267796452607428 0.0 0.0
0.11420405573372863 -0.10400660922645241 0.0 -0.0012189553473930478 0.0 0.0
0.1372827296093546 -0.12573674950464178 0.0 -0.0017787091589954573 0.0 0.0
0.16116787186195214 -0.14833040850661305 0.0 -0.002374402955395113 0.0 0.0
0.1848856092995559 -0.1708841848975174 0.0 -0.002882584066043266 0.0 0.0
0.2071379606747929 -0.1921690708505176 0.0 -0.003113116894374353 0.0 0.0
0.22642749653072258 -0.21069387160779074 0.0 -0.0029252761386362285 0.0 0.0
0.24089263962820429 -0.2246842154602064 0.0 -0.003525735120894217 0.0 0.0
0.24664753047322113 -0.23049335734205983 0.0 3.020153571675621e-15 0.0 0.0
0.24089263962817264 -0.22468421546017714 0.0 0.0035257351209037665 0.0 0.0
0.2264274965306558 -0.21069387160772068 0.0 0.0029252761386454763 0.0 0.0
0.20713796067469492 -0.19216907085042012 0.0 0.0031131168943809365 0.0 0.0
0.1848856092994418 -0.1708841848974121 0.0 0.002882584066041775 0.0 0.0
0.16116787186183212 -0.14833040850649495 0.0 0.00237440295538989 0.0 0.0
0.13728272960923268 -0.12573674950452704 0.0 0.0017787091589960757 0.0 0.0
0.11420405573360778 -0.10400660922633503 0.0 0.001218955347392566 0.0 0.0
0.09257557993382864 -0.08371563705111006 0.0 0.0007267796452571753 0.0 0.0
0.07280118302751104 -0.06520855515970965 0.0 0.0002811860541800798 0.0 0.0
0.05518854454138061 -0.04874655024965313 0.0 -7.259476398859465e-05 0.0 0.0
0.040024085247400684 -0.034578226639443294 0.0 -0.0003458142489168219 0.0 0.0
0.0275417906710691 -0.02293864500254815 0.0 -0.0005237848720839398 0.0 0.0
0.01784903060515308 -0.013970631833198934 0.0 -0.000574652874482054 0.0 0.0
0.010841359029640816 -0.007625955636380653 0.0 -0.00053346529470127 0.0 0.0
0.006207369431121395 -0.003627062503871655 0.0 -0.00040532410404850076 0.0 0.0
0.003541235591853201 -0.0015863128979023533 0.0 -0.00022761334941955193 0.0 0.0
0.0023261851137763084 -0.000923054606587523 0.0 -2.3926359156721e-05 0.0 0.0
0.0027602968508031616 -0.0006328642640935536 0.0 0.0009463367755334626 0.0 0.0
0.00939489611159325 -0.0029480935762595 0.0 0.007614971413364955 0.0 0.0
0.015273740280701598 -0.025224674589404066 0.0 0.0016070580758899325 0.0 0.0
0.01076004300507224 -0.02266674951774093 0.0 -0.0011403732069618251 0.0 0.0
0.006288760356384664 -0.0022118360989148854 0.0 -0.0062762565618325805 0.0 0.0
0.001793923746584757 -0.0004744010331225872 0.0 -0.000594911831405929 0.0 0.0
0.002040032537814672 -0.0008664246181425601 0.0 -0.00018595299403572753 0.0 0.0
0.0030316971390445856 -0.0014193012057182517 0.0 -0.00014665264194135613 0.0 0.0
0.0053022235765763795 -0.003248430357631197 0.0 -0.00024840691424608314 0.0 0.0
0.009426756135288226 -0.006976632627884786 0.0 -0.0005990324847497346 0.0 0.0
0.015784602328474475 -0.012988699716605736 0.0 -0.0011638398866994943 0.0 0.0
0.02462543687413365 -0.021528230212794573 0.0 -0.0019638199220429254 0.0 0.0
0.035983010526449616 -0.03260732217494201 0.0 -0.0029665384927530444 0.0 0.0
0.049714886816243455 -0.04606501574438572 0.0 -0.0040751245719491454 0.0 0.0
0.06560302840962337 -0.061671236086830714 0.0 -0.005209978011220743 0.0 0.0
0.08342639779251164 -0.07920572041479138 0.0 -0.006369562789900164 0.0 0.0
0.10293670626698666 -0.0984413459911864 0.0 -0.0075538357387415515 0.0 0.0
0.12378212093099022 -0.1190572238189421 0.0 -0.00872180412904793 0.0 0.0
0.14540541643351482 -0.14052228964832195 0.0 -0.00975888603906737 0.0 0.0
0.16695712535169635 -0.16200232813428203 0.0 -0.010400870762621823 0.0 0.0
0.18728340503615043 -0.182339658341869 0.0 -0.010304875008408538 0.0 0.0
0.20488002362149618 -0.2000638147727622 0.0 -0.009340259225129184 0.0 0.0
0.21750825749396455 -0.213200032896897 0.0 -0.008436454028135707 0.0 0.0
0.22223410611082112 -0.21870466166442487 0.0 1.0408340855860843e-14 0.0 0.0
0.21750825749393454 -0.21320003289686837 0.0 0.008436454028162805 0.0 0.0
0.2048800236214359 -0.20006381477269333 0.0 0.009340259225151904 0.0 0.0
0.1872834050360647 -0.18233965834178043 0.0 0.010304875008423225 0.0 0.0
0.16695712535159643 -0.16200232813417975 0.0 0.01040087076262326 0.0 0.0
0.14540541643340762 -0.14052228964821473 0.0 0.00975888603905515 0.0 0.0
0.12378212093087987 -0.11905722381883282 0.0 0.008721804129046235 0.0 0.0
0.1029367062668776 -0.09844134599107462 0.0 0.0075538357387398515 0.0 0.0
0.08342639779240645 -0.07920572041469019 0.0 0.006369562789891099 0.0 0.0
0.06560302840952574 -0.061671236086733805 0.0 0.005209978011212842 0.0 0.0
0.04971488681615912 -0.04606501574430595 0.0 0.004075124571940194 0.0 0.0
0.03598301052638175 -0.032607322174870015 0.0 0.0029665384927451324 0.0 0.0
0.02462543687408243 -0.02152823021274256 0.0 0.001963819922037098 0.0 0.0
0.01578460232843797 -0.012988699716571826 0.0 0.0011638398866972515 0.0 0.0
0.009426756135264641 -0.006976632627862377 0.0 0.0005990324847465931 0.0 0.0
0.005302223576563841 -0.0032484303576219434 0.0 0.000248406914245234 0.0 0.0
0.0030316971390400888 -0.0014193012057177703 0.0 0.00014665264194070444 0.0 0.0
0.002040032537813775 -0.0008664246181408161 0.0 0.0001859529940344623 0.0 0.0
0.0017939237465845847 -0.0004744010331232931 0.0 0.0005949118314048447 0.0 0.0
0.006288760356377475 -0.0022118360989112763 0.0 0.006276256561819983 0.0 0.0
0.010760043005057823 -0.02266674951771451 0.0 0.0011403732069238304 0.0 0.0
0.007929945202028624 -0.018153764530022334 0.0 -0.004287103109330905 0.0 0.0
0.004482813465478495 -0.0012413701947853947 0.0 -0.006401091474851373 0.0 0.0
0.0012386914336544202 -0.00024383687736275942 0.0 -0.0005256373589265208 0.0 0.0
0.0017202399425714772 -0.0007289711200978691 0.0 -0.00047886356854751554 0.0 0.0
0.002570139335725232 -0.001129000052230808 0.0 -0.0005003779424258957 0.0 0.0
0.004446256069746135 -0.002534708367180441 0.0 -0.0006960110435976554 0.0 0.0
0.008030745512302657 -0.005700233759203695 0.0 -0.0013673175843865728 0.0 0.0
0.013702148094240802 -0.011029346522023378 0.0 -0.002455999570830957 0.0 0.0
0.02164359357830112 -0.018687519309223518 0.0 -0.003977992804169722 0.0 0.0
0.031840117598534834 -0.0286293058949725 0.0 -0.005835716723012579 0.0 0.0
0.0441234062107435 -0.04065723936497817 0.0 -0.007852152264946052 0.0 0.0
0.05828634926277458 -0.05455259954829284 0.0 -0.009872458199337032 0.0 0.0
0.07414606934412224 -0.07013961130079892 0.0 -0.011868618689959306 0.0 0.0
0.0915169583818136 -0.0872520643851382 0.0 -0.013889908696513896 0.0 0.0
0.11011680917140342 -0.10563091373962591 0.0 -0.015886731105881752 0.0 0.0
0.1294840025441881 -0.12483825412899505 0.0 -0.017637168243151556 0.0 0.0
0.1489100179999149 -0.1441807502027645 0.0 -0.018721928324784816 0.0 0.0
0.16735081537083532 -0.16263802113336243 0.0 -0.018643841870910338 0.0 0.0
0.18327749173346747 -0.17875983750616842 0.0 -0.01716526659774094 0.0 0.0
0.19471152286229548 -0.19049524343446747 0.0 -0.014400840183214568 0.0 0.0
0.19903857334365227 -0.19572080952737178 0.0 1.7203252711261996e-14 0.0 0.0
0.19471152286226778 -0.1904952434344373 0.0 0.01440084018325714 0.0 0.0
0.18327749173341357 -0.17875983750611862 0.0 0.017165266597782454 0.0 0.0
0.1673508153707607 -0.16263802113328837 0.0 0.018643841870934576 0.0 0.0
0.1489100179998262 -0.1441807502026723 0.0 0.018721928324790776 0.0 0.0
0.1294840025440925 -0.12483825412890764 0.0 0.017637168243139045 0.0 0.0
0.11011680917130538 -0.10563091373952829 0.0 0.015886731105875948 0.0 0.0
0.0915169583817169 -0.08725206438504413 0.0 0.013889908696506956 0.0 0.0
0.07414606934402974 -0.07013961130071417 0.0 0.011868618689947989 0.0 0.0
0.058286349262688414 -0.05455259954820295 0.0 0.009872458199323008 0.0 0.0
0.04412340621066858 -0.040657239364908636 0.0 0.007852152264928957 0.0 0.0
0.031840117598474015 -0.028629305894909814 0.0 0.005835716722999101 0.0 0.0
0.021643593578254856 -0.01868751930917534 0.0 0.003977992804159829 0.0 0.0
0.013702148094208333 -0.011029346521992117 0.0 0.0024559995708240993 0.0 0.0
0.00803074551228254 -0.00570023375918487 0.0 0.001367317584380915 0.0 0.0
0.0044462560697361 -0.0025347083671753406 0.0 0.0006960110435957983 0.0 0.0
0.00257013933572189 -0.0011290000522304645 0.0 0.0005003779424261216 0.0 0.0
0.001720239942571098 -0.000728971120095792 0.0 0.00047886356854757366 0.0 0.0
0.0012386914336544432 -0.00024383687736288968 0.0 0.0005256373589259315 0.0 0.0
0.004482813465471462 -0.0012413701947809473 0.0 0.006401091474836383 0.0 0.0
0.007929945202014807 -0.018153764529995942 0.0 0.0042871031093065105 0.0 0.0
0.006019295733882134 -0.014658159097181253 0.0 -0.0047290455752280105 0.0 0.0
0.003324450918260096 -0.0008929658071457525 0.0 -0.005846389658766771 0.0 0.0
0.0008780881126630035 -0.00013495293646223881 0.0 -0.0008051760203899436 0.0 0.0
0.0014135182850402376 -0.0005744052234626038 0.0 -0.0007785298337179629 0.0 0.0
0.002151260881527316 -0.0009067124992489777 0.0 -0.0008339029947878463 0.0 0.0
0.0036586254468646317 -0.0019272711529105587 0.0 -0.001071065787788032 0.0 0.0
0.006677362657284358 -0.004489114688738471 0.0 -0.0018854480307568524 0.0 0.0
0.011622894144455059 -0.009089837866746369 0.0 -0.0033920088466548285 0.0 0.0
0.01862908389516653 -0.01582640097283446 0.0 -0.005457730809862501 0.0 0.0
0.027635449462076325 -0.024599070937648324 0.0 -0.007957904866566185 0.0 0.0
0.03845288101865044 -0.03518203046316215 0.0 -0.01064861663120351 0.0 0.0
0.05088408341921843 -0.047362679230507146 0.0 -0.013337894251390372 0.0 0.0
0.06477753812951045 -0.060998306890181875 0.0 -0.015988335035603228 0.0 0.0
0.07999238871750453 -0.07597227960436617 0.0 -0.018638311234532853 0.0 0.0
0.09632630064655213 -0.09209542546113837 0.0 -0.021238259727679648 0.0 0.0
0.11343120156345188 -0.10903466059718682 0.0 -0.023545965881373563 0.0 0.0
0.13072794142897867 -0.12623904898448596 0.0 -0.025075238558115574 0.0 0.0
0.14728932007511808 -0.14282221226197395 0.0 -0.0252225502711171 0.0 0.0
0.16173519279742113 -0.15742197786534257 0.0 -0.023373843336046928 0.0 0.0
0.1723707174305735 -0.16825332052856712 0.0 -0.018597316395795108 0.0 0.0
0.17651470405572797 -0.17365196958948068 0.0 2.5311350237977592e-14 0.0 0.0
0.1723707174305479 -0.16825332052853775 0.0 0.018597316395850293 0.0 0.0
0.16173519279737317 -0.1574219778652991 0.0 0.023373843336102706 0.0 0.0
0.14728932007505235 -0.14282221226190078 0.0 0.025222550271149967 0.0 0.0
0.13072794142890187 -0.12623904898440966 0.0 0.025075238558121618 0.0 0.0
0.11343120156336872 -0.10903466059710791 0.0 0.02354596588136108 0.0 0.0
0.0963263006464659 -0.09209542546105422 0.0 0.021238259727671738 0.0 0.0
0.07999238871741912 -0.07597227960428699 0.0 0.01863831123452522 0.0 0.0
0.0647775381294296 -0.06099830689010537 0.0 0.01598833503558966 0.0 0.0
0.050884083419143376 -0.047362679230432914 0.0 0.013337894251369671 0.0 0.0
0.03845288101858476 -0.03518203046310322 0.0 0.010648616631182063 0.0 0.0
0.02763544946202264 -0.02459907093759872 0.0 0.007957904866548732 0.0 0.0
0.018629083895126002 -0.015826400972794547 0.0 0.005457730809849474 0.0 0.0
0.01162289414442708 -0.009089837866719385 0.0 0.003392008846645117 0.0 0.0
0.006677362657267538 -0.0044891146887235745 0.0 0.001885448030749669 0.0 0.0
0.0036586254468570223 -0.0019272711529057791 0.0 0.001071065787784814 0.0 0.0
0.002151260881524817 -0.000906712499245392 0.0 0.0008339029947864386 0.0 0.0
0.001413518285039963 -0.0005744052234621517 0.0 0.0007785298337186757 0.0 0.0
0.0008780881126628516 -0.00013495293646186257 0.0 0.0008051760203903033 0.0 0.0
0.003324450918253674 -0.0008929658071419566 0.0 0.005846389658754715 0.0 0.0
0.006019295733869919 -0.014658159097156832 0.0 0.004729045575210557 0.0 0.0
0.004584777386239219 -0.011839116357900619 0.0 -0.0041947059331632645 0.0 0.0
0.0024973572139145015 -0.0007054612413750579 0.0 -0.005210840080577503 0.0 0.0
0.0006361682575370235 -8.490310664625977e-05 0.0 -0.0012042644153407362 0.0 0.0
0.0011399317505099568 -0.000436055516392108 0.0 -0.0011043602027023102 0.0 0.0
0.0017719019793829504 -0.0007279946652223994 0.0 -0.0011626081819897196 0.0 0.0
0.00295340771680108 -0.001440673626667338 0.0 -0.0013930771054446484 0.0 0.0
0.005394757713525012 -0.0033911948654180065 0.0 -0.0022281714038010292 0.0 0.0
0.009572474323966478 -0.007198395129654504 0.0 -0.003934581315273769 0.0 0.0
0.015615999288621441 -0.012980519927144852 0.0 -0.006393751633613097 0.0 0.0
0.023406463049258957 -0.020557811428052446 0.0 -0.009328576418431593 0.0 0.0
0.032743671155927426 -0.029680996308188205 0.0 -0.012472061894705339 0.0 0.0
0.04343370615028823 -0.040139612419181 0.0 -0.015610068067786777 0.0 0.0
0.055352977096831124 -0.051819134512751976 0.0 -0.018706925556591526 0.0 0.0
0.06841086049835425 -0.06464904542177319 0.0 -0.02179458251653853 0.0 0.0
0.08246639602334328 -0.07850494775214087 0.0 -0.024797106601261835 0.0 0.0
0.097274003755991 -0.09315053448016263 0.0 -0.027472449740100727 0.0 0.0
0.11240360602269028 -0.10817522794447357 0.0 -0.029390931936659107 0.0 0.0
0.1271024569440681 -0.12286473739347586 0.0 -0.029881251683020305 0.0 0.0
0.14021555795483703 -0.13608165869755745 0.0 -0.027844835792664495 0.0 0.0
0.1502977257302992 -0.14631288278415897 0.0 -0.021758478510538345 0.0 0.0
0.15438992589526673 -0.15209553866952916 0.0 2.796894660317406e-14 0.0 0.0
0.15029772573027647 -0.14631288278414373 0.0 0.021758478510604563 0.0 0.0
0.14021555795479454 -0.1360816586975117 0.0 0.027844835792723656 0.0 0.0
0.12710245694401123 -0.12286473739341508 0.0 0.02988125168305869 0.0 0.0
0.11240360602262396 -0.10817522794440523 0.0 0.02939093193666678 0.0 0.0
0.09727400375591844 -0.093150534480089 0.0 0.027472449740089916 0.0 0.0
0.08246639602326913 -0.07850494775206854 0.0 0.024797106601250476 0.0 0.0
0.06841086049828135 -0.0646490454217033 0.0 0.021794582516528445 0.0 0.0
0.05535297709676129 -0.051819134512676814 0.0 0.018706925556575365 0.0 0.0
0.0434337061502237 -0.04013961241912349 0.0 0.015610068067763161 0.0 0.0
0.03274367115587172 -0.029680996308136663 0.0 0.012472061894680447 0.0 0.0
0.023406463049213025 -0.020557811428010296 0.0 0.00932857641841274 0.0 0.0
0.015615999288586074 -0.012980519927112246 0.0 0.0063937516335997955 0.0 0.0
0.009572474323942625 -0.007198395129633918 0.0 0.003934581315261058 0.0 0.0
0.0053947577135111495 -0.003391194865406977 0.0 0.0022281714037943783 0.0 0.0
0.0029534077167948486 -0.0014406736266635257 0.0 0.0013930771054419299 0.0 0.0
0.0017719019793812029 -0.0007279946652199051 0.0 0.0011626081819888824 0.0 0.0
0.00113993175051014 -0.00043605551639140666 0.0 0.0011043602027022627 0.0 0.0
0.0006361682575371888 -8.490310664727822e-05 0.0 0.0012042644153400213 0.0 0.0
0.0024973572139086967 -0.0007054612413723263 0.0 0.0052108400805643456 0.0 0.0
0.004584777386228249 -0.011839116357879566 0.0 0.004194705933148964 0.0 0.0
0.003453373124163975 -0.009482360065786396 0.0 -0.003466094550794583 0.0 0.0
0.0018681245467643292 -0.0005751369436212281 0.0 -0.004592156671798692 0.0 0.0
0.00046425082935353066 -7.017852368267417e-05 0.0 -0.0015877891147056341 0.0 0.0
0.0008955673935494921 -0.00031442891315993813 0.0 -0.0014312923649483409 0.0 0.0
0.001428597431255883 -0.000580287329381406 0.0 -0.0014895240797062332 0.0 0.0
0.002328477721214309 -0.001062856086845996 0.0 -0.0016777652408418314 0.0 0.0
0.004217270514544582 -0.002448563364462171 0.0 -0.00246971978751852 0.0 0.0
0.007594126355244844 -0.005415626544306141 0.0 -0.004148358148276478 0.0 0.0
0.01263030787884415 -0.010185980818415801 0.0 -0.006761839469546517 0.0 0.0
0.0191902491489964 -0.016546076888060743 0.0 -0.009939909838061143 0.0 0.0
0.02703347811134385 -0.02419581732389393 0.0 -0.013317658776719575 0.0 0.0
0.03597591362465809 -0.032926089421815526 0.0 -0.016688448504142396 0.0 0.0
0.04591696511261104 -0.04264532652862573 0.0 -0.020012988695751927 0.0 0.0
0.05680835279951993 -0.05332673520666948 0.0 -0.02332464548785234 0.0 0.0
0.06857823500240742 -0.06490835710786994 0.0 -0.02654545834195955 0.0 0.0
0.08106265283126399 -0.07723433633269212 0.0 -0.029425171247307338 0.0 0.0
0.09396318201231535 -0.09001646632497197 0.0 -0.03160050854943425 0.0 0.0
0.10677031600593596 -0.1027658272616898 0.0 -0.032442789377766505 0.0 0.0
0.11862574627224778 -0.11466707866826334 0.0 -0.030601278781043434 0.0 0.0
0.1283136253992522 -0.12447997934979557 0.0 -0.024047149621717296 0.0 0.0
0.13244537219878236 -0.1308139310850438 0.0 2.947381921858394e-14 0.0 0.0
0.12831362539923125 -0.12447997934978139 0.0 0.024047149621786126 0.0 0.0
0.11862574627221031 -0.11466707866822895 0.0 0.03060127878110653 0.0 0.0
0.10677031600588795 -0.10276582726164514 0.0 0.03244278937781073 0.0 0.0
0.0939631820122593 -0.0900164663249174 0.0 0.03160050854944161 0.0 0.0
0.08106265283120277 -0.07723433633263288 0.0 0.029425171247294185 0.0 0.0
0.06857823500234515 -0.06490835710780778 0.0 0.026545458341945306 0.0 0.0
0.0568083527994595 -0.053326735206614025 0.0 0.02332464548784089 0.0 0.0
0.0459169651125538 -0.04264532652856505 0.0 0.020012988695736356 0.0 0.0
0.03597591362460498 -0.032926089421768924 0.0 0.016688448504118204 0.0 0.0
0.02703347811129709 -0.02419581732384585 0.0 0.013317658776694337 0.0 0.0
0.019190249148958113 -0.016546076888028755 0.0 0.009939909838037922 0.0 0.0
0.012630307878815186 -0.010185980818386018 0.0 0.0067618394695282 0.0 0.0
0.007594126355225604 -0.005415626544290041 0.0 0.0041483581482657335 0.0 0.0
0.004217270514534534 -0.002448563364450996 0.0 0.002469719787511484 0.0 0.0
0.002328477721210217 -0.0010628560868439193 0.0 0.001677765240838938 0.0 0.0
0.00142859743125495 -0.0005802873293831667 0.0 0.0014895240797058566 0.0 0.0
0.000895567393549595 -0.00031442891315949665 0.0 0.001431292364948185 0.0 0.0
0.0004642508293531575 -7.017852368331074e-05 0.0 0.001587789114703927 0.0 0.0
0.0018681245467595787 -0.0005751369436185942 0.0 0.004592156671787624 0.0 0.0
0.0034533731241552447 -0.009482360065768946 0.0 0.003466094550784834 0.0 0.0
0.0025493876744416212 -0.007487430612085736 0.0 -0.002794519012435777 0.0 0.0
0.0013753789644173821 -0.00047339520161402934 0.0 -0.004030938294600058 0.0 0.0
0.0003317277524842258 -6.973219584789621e-05 0.0 -0.0019047633321683595 0.0 0.0
0.000670998050501652 -0.00020670393450717176 0.0 -0.001732564008099819 0.0 0.0
0.0011114371826861326 -0.0004464890180342617 0.0 -0.0017954280296075703 0.0 0.0
0.0017754656579393336 -0.0007758976953615351 0.0 -0.0019563157962602996 0.0 0.0
0.003154240256451269 -0.0016757970034378762 0.0 -0.0026116290372946325 0.0 0.0
0.005737947252674932 -0.0038126895587453358 0.0 -0.004143776319033623 0.0 0.0
0.009726438038930139 -0.007507445656447747 0.0 -0.006610037187636533 0.0 0.0
0.015020474171820841 -0.012608307212548221 0.0 -0.009768151098379866 0.0 0.0
0.021361652644767432 -0.01877035656197758 0.0 -0.013168847207394621 0.0 0.0
0.028550137159859636 -0.025766685847993083 0.0 -0.016561380860301112 0.0 0.0
0.03651016953907486 -0.03352568965685945 0.0 -0.019894852116587716 0.0 0.0
0.04523362987984958 -0.042055444551373576 0.0 -0.02321183738802636 0.0 0.0
0.05470429428168805 -0.051352609798801734 0.0 -0.026447547818388883 0.0 0.0
0.06483528173946677 -0.061337315816972646 0.0 -0.029370616162444112 0.0 0.0
0.0754516950203339 -0.07181815868764091 0.0 -0.03163795808173534 0.0 0.0
0.08628692855871677 -0.08253480689688433 0.0 -0.03278859388661638 0.0 0.0
0.09685294122256838 -0.0930761168179088 0.0 -0.031535156304092635 0.0 0.0
0.10622527837263443 -0.10255184608637406 0.0 -0.025449681733531307 0.0 0.0
0.1104644600633473 -0.10959224064981914 0.0 2.840956636607217e-14 0.0 0.0
0.10622527837261647 -0.10255184608635678 0.0 0.025449681733598774 0.0 0.0
0.09685294122253812 -0.09307611681787195 0.0 0.031535156304159796 0.0 0.0
0.0862869285586776 -0.08253480689684589 0.0 0.03278859388666016 0.0 0.0
0.07545169502028767 -0.07181815868760057 0.0 0.03163795808174101 0.0 0.0
0.06483528173941691 -0.06133731581693007 0.0 0.02937061616242955 0.0 0.0
0.05470429428163769 -0.051352609798753 0.0 0.026447547818373086 0.0 0.0
0.0452336298798022 -0.04205544455132599 0.0 0.023211837388013645 0.0 0.0
0.036510169539029656 -0.03352568965681679 0.0 0.01989485211657087 0.0 0.0
0.028550137159817003 -0.025766685847952563 0.0 0.016561380860278887 0.0 0.0
0.02136165264472979 -0.018770356561939924 0.0 0.013168847207368833 0.0 0.0
0.015020474171790189 -0.012608307212525302 0.0 0.009768151098355791 0.0 0.0
0.009726438038908004 -0.007507445656425454 0.0 0.006610037187621274 0.0 0.0
0.005737947252660243 -0.0038126895587338658 0.0 0.004143776319024651 0.0 0.0
0.003154240256443197 -0.0016757970034290103 0.0 0.0026116290372885866 0.0 0.0
0.0017754656579366656 -0.0007758976953608638 0.0 0.001956315796257672 0.0 0.0
0.0011114371826855599 -0.00044648901803500106 0.0 0.0017954280296057354 0.0 0.0
0.0006709980505012464 -0.00020670393450682235 0.0 0.0017325640080980086 0.0 0.0
0.00033172775248401637 -6.973219584720976e-05 0.0 0.0019047633321660016 0.0 0.0
0.0013753789644141156 -0.0004733952016128038 0.0 0.004030938294593424 0.0 0.0
0.002549387674435349 -0.0074874306120713075 0.0 0.002794519012429701 0.0 0.0
0.001827591034849137 -0.005805038044954571 0.0 -0.0022659503683269302 0.0 0.0
0.0009837353542465458 -0.0003950763354606901 0.0 -0.0035255530827569916 0.0 0.0
0.0002185302949377555 -6.75808750874554e-05 0.0 -0.0021446336238563654 0.0 0.0
0.0004576072196204534 -0.00011028085636793791 0.0 -0.001990132189215144 0.0 0.0
0.0008070607114663311 -0.00031180911396742764 0.0 -0.002057602934410387 0.0 0.0
0.0012859420043307122 -0.0005522642489834561 0.0 -0.002234260161115987 0.0 0.0
0.0022125106322483756 -0.0010774223540403018 0.0 -0.002704929895417641 0.0 0.0
0.00403075657879601 -0.002440746355271681 0.0 -0.0039413387810196465 0.0 0.0
0.006965963134194879 -0.005035708935669926 0.0 -0.00604682468305889 0.0 0.0
0.010953021533124677 -0.008817173676425469 0.0 -0.00885345225774012 0.0 0.0
0.015763620219599185 -0.013457857343704633 0.0 -0.012007341477027906 0.0 0.0
0.02119624809646487 -0.01871349434524766 0.0 -0.015194301314568854 0.0 0.0
0.02717825166187555 -0.02451518171686535 0.0 -0.01832488514131006 0.0 0.0
0.03372787292607581 -0.030892771087535013 0.0 -0.021427804270527075 0.0 0.0
0.04088775888541503 -0.03789318217411872 0.0 -0.024477042549235755 0.0 0.0
0.04864645097977452 -0.04551465859275137 0.0 -0.027273940248169915 0.0 0.0
0.05691753509572574 -0.05365469932747841 0.0 -0.0294737262656248 0.0 0.0
0.06565190466761031 -0.062212736668365645 0.0 -0.030759255713462844 0.0 0.0
0.07478884949681726 -0.0712121057121683 0.0 -0.030376715432835925 0.0 0.0
0.08382197899027946 -0.08030149313640045 0.0 -0.02580607598969177 0.0 0.0
0.08820328540123418 -0.0882010425212978 0.0 2.4162963296880946e-14 0.0 0.0
0.0838219789902661 -0.0803014931363898 0.0 0.02580607598975483 0.0 0.0
0.07478884949679357 -0.07121210571214001 0.0 0.03037671543290471 0.0 0.0
0.06565190466757914 -0.062212736668337015 0.0 0.030759255713502416 0.0 0.0
0.05691753509568923 -0.0536546993274434 0.0 0.02947372626562946 0.0 0.0
0.048646450979736015 -0.04551465859271999 0.0 0.027273940248153272 0.0 0.0
0.04088775888537738 -0.03789318217407881 0.0 0.024477042549221478 0.0 0.0
0.03372787292604097 -0.030892771087496614 0.0 0.02142780427051688 0.0 0.0
0.027178251661842418 -0.02451518171683539 0.0 0.018324885141293056 0.0 0.0
0.021196248096433605 -0.01871349434521479 0.0 0.015194301314547874 0.0 0.0
0.015763620219571166 -0.013457857343681183 0.0 0.01200734147700295 0.0 0.0
0.01095302153310224 -0.008817173676403967 0.0 0.008853452257720827 0.0 0.0
0.00696596313417903 -0.005035708935654968 0.0 0.006046824683044617 0.0 0.0
0.004030756578785982 -0.0024407463552631632 0.0 0.003941338781010578 0.0 0.0
0.0022125106322434286 -0.001077422354038398 0.0 0.002704929895412686 0.0 0.0
0.0012859420043291685 -0.0005522642489817392 0.0 0.0022342601611143285 0.0 0.0
0.0008070607114660461 -0.0003118091139684408 0.0 0.002057602934409526 0.0 0.0
0.0004576072196201124 -0.0001102808563667192 0.0 0.0019901321892126836 0.0 0.0
0.00021853029493750908 -6.758087508669314e-05 0.0 0.002144633623854408 0.0 0.0
0.0009837353542437787 -0.00039507633546036094 0.0 0.0035255530827511157 0.0 0.0
0.0018275910348437003 -0.005805038044943207 0.0 0.0022659503683229733 0.0 0.0
0.0012735242165191692 -0.004423753964962621 0.0 -0.0019100105375527603 0.0 0.0
0.0006742397641305032 -0.0003417472458145003 0.0 -0.003075532504815142 0.0 0.0
0.00010807984650590837 -5.2078233707705246e-05 0.0 -0.0023111384944010196 0.0 0.0
0.0002514985783521711 -2.257651864805969e-05 0.0 -0.00219377473904005 0.0 0.0
0.0005048430596886071 -0.00017235826362434483 0.0 -0.002262182018203441 0.0 0.0
0.0008349656671876135 -0.0003547415109361881 0.0 -0.00248462037672652 0.0 0.0
0.0013922476629855633 -0.0006394743027283673 0.0 -0.002829490400785243 0.0 0.0
0.0025009030168811983 -0.0013513599748124856 0.0 -0.003620975995347956 0.0 0.0
0.0043961902332873256 -0.0028752159629468472 0.0 -0.005149464906197406 0.0 0.0
0.007055983484035758 -0.005289429939573363 0.0 -0.0073049401509423665 0.0 0.0
0.010299832922755197 -0.008354108612246088 0.0 -0.009878599518027881 0.0 0.0
0.01395666348736501 -0.011846051524905915 0.0 -0.01257935381810915 0.0 0.0
0.017960009678697715 -0.015686830530320363 0.0 -0.015297517899311032 0.0 0.0
0.022338546856054423 -0.01991639993775568 0.0 -0.01799664045816281 0.0 0.0
0.027170704282166832 -0.024607105949899632 0.0 -0.020654620569169103 0.0 0.0
0.032530877584107804 -0.029833577741635454 0.0 -0.023177931988386406 0.0 0.0
0.03843238526185814 -0.035608398333326775 0.0 -0.025261809624164914 0.0 0.0
0.04492206719631379 -0.041919882135536324 0.0 -0.02650861107547973 0.0 0.0
0.052333344838582437 -0.04905683402989023 0.0 -0.02674948121191671 0.0 0.0
0.06084562522857198 -0.0574630613720401 0.0 -0.024664374925027547 0.0 0.0
0.06535394193642365 -0.06634626793501698 0.0 2.206394789094901e-14 0.0 0.0
0.06084562522856321 -0.05746306137203519 0.0 0.024664374925080668 0.0 0.0
0.052333344838566095 -0.049056834029867234 0.0 0.0267494812119801 0.0 0.0
0.04492206719629155 -0.04191988213551626 0.0 0.02650861107551273 0.0 0.0
0.03843238526183239 -0.03560839833330474 0.0 0.02526180962416302 0.0 0.0
0.03253087758408215 -0.029833577741609378 0.0 0.02317793198836937 0.0 0.0
0.027170704282142664 -0.024607105949874464 0.0 0.02065462056915806 0.0 0.0
0.02233854685603229 -0.01991639993773111 0.0 0.0179966404581553 0.0 0.0
0.017960009678677002 -0.015686830530300237 0.0 0.015297517899299149 0.0 0.0
0.013956663487344883 -0.011846051524884658 0.0 0.012579353818090937 0.0 0.0
0.010299832922737014 -0.008354108612228954 0.0 0.009878599518005309 0.0 0.0
0.007055983484021358 -0.00528942993955757 0.0 0.007304940150928453 0.0 0.0
0.0043961902332777135 -0.00287521596294108 0.0 0.005149464906186603 0.0 0.0
0.0025009030168752755 -0.0013513599748083969 0.0 0.003620975995341543 0.0 0.0
0.0013922476629825743 -0.0006394743027288173 0.0 0.002829490400780707 0.0 0.0
0.0008349656671866494 -0.00035474151093332543 0.0 0.002484620376724606 0.0 0.0
0.000504843059688395 -0.0001723582636273022 0.0 0.002262182018202185 0.0 0.0
0.00025149857835209187 -2.257651864781043e-05 0.0 0.0021937747390372467 0.0 0.0
0.00010807984650606039 -5.207823370624687e-05 0.0 0.0023111384943991344 0.0 0.0
0.0006742397641291885 -0.0003417472458147366 0.0 0.003075532504810364 0.0 0.0
0.0012735242165160332 -0.004423753964954199 0.0 0.0019100105375498804 0.0 0.0
0.0008725658841254771 -0.0033235006178956245 0.0 -0.0016820406238150457 0.0 0.0
0.00043507074869354306 -0.0003182233227477135 0.0 -0.002706507141809323 0.0 0.0
-7.48903161234704e-06 -1.7366149029292748e-05 0.0 -0.002412655054056874 0.0 0.0
4.997601858218805e-05 5.91034204656651e-05 0.0 -0.0023391153308825463 0.0 0.0
0.00020133709186971642 -3.152407281625075e-05 0.0 -0.0024078885700564395 0.0 0.0
0.00039603561332838963 -0.00015606698602354749 0.0 -0.0026584139480745157 0.0 0.0
0.0006700690598375189 -0.00029933945190375473 0.0 -0.0029862972857663396 0.0 0.0
0.0011674917895086198 -0.0005720654197912798 0.0 -0.0034007508292630616 0.0 0.0
0.002065712409633792 -0.00118722828022209 0.0 -0.004146283642457656 0.0 0.0
0.003393206103463899 -0.002257974854500813 0.0 -0.005396051691473091 0.0 0.0
0.005038164849363282 -0.0036893589604496423 0.0 -0.007127750256999253 0.0 0.0
0.0068860389548403905 -0.005367458502481375 0.0 -0.009160865562673298 0.0 0.0
0.008892872938313694 -0.007229691954484487 0.0 -0.01133532467612926 0.0 0.0
0.011098954483300947 -0.00930520485912512 0.0 -0.013581915753865479 0.0 0.0
0.013590624372977653 -0.011670204314809524 0.0 -0.015882586421067883 0.0 0.0
0.01650581634102225 -0.014453038189544555 0.0 -0.018194348878704237 0.0 0.0
0.020005955915364124 -0.017813629821219923 0.0 -0.020298658506193494 0.0 0.0
0.024222792387462208 -0.021887043158015523 0.0 -0.021657623541410053 0.0 0.0
0.029542754372255856 -0.026918156994883452 0.0 -0.021859046483714013 0.0 0.0
0.03700336652900872 -0.03389667398659193 0.0 -0.021573097761574345 0.0 0.0
0.04144492809828916 -0.043628496595127284 0.0 1.6381861145386978e-14 0.0 0.0
0.03700336652900483 -0.03389667398659396 0.0 0.02157309776162234 0.0 0.0
0.029542754372246748 -0.02691815699486029 0.0 0.02185904648376343 0.0 0.0
0.02422279238744841 -0.021887043158002273 0.0 0.021657623541427803 0.0 0.0
0.020005955915349875 -0.01781362982121691 0.0 0.020298658506182864 0.0 0.0
0.01650581634101023 -0.014453038189530257 0.0 0.018194348878687455 0.0 0.0
0.013590624372967673 -0.011670204314797919 0.0 0.015882586421058702 0.0 0.0
0.011098954483291975 -0.009305204859116343 0.0 0.013581915753859676 0.0 0.0
0.008892872938304932 -0.007229691954475585 0.0 0.011335324676119618 0.0 0.0
0.006886038954831583 -0.00536745850247486 0.0 0.00916086556265985 0.0 0.0
0.005038164849355195 -0.003689358960439748 0.0 0.0071277502569841115 0.0 0.0
0.003393206103457865 -0.0022579748544920663 0.0 0.0053960516914645495 0.0 0.0
0.00206571240963013 -0.0011872282802224804 0.0 0.00414628364245409 0.0 0.0
0.0011674917895063623 -0.0005720654197906029 0.0 0.0034007508292610775 0.0 0.0
0.0006700690598365985 -0.0002993394519037547 0.0 0.0029862972857639713 0.0 0.0
0.00039603561332826777 -0.00015606698602458734 0.0 0.002658413948073321 0.0 0.0
0.00020133709186956748 -3.152407281750174e-05 0.0 0.0024078885700543765 0.0 0.0
4.9976018582023883e-05 5.910342046436113e-05 0.0 0.0023391153308812544 0.0 0.0
-7.4890316125542125e-06 -1.7366149027211432e-05 0.0 0.002412655054055461 0.0 0.0
0.00043507074869237716 -0.0003182233227484837 0.0 0.0027065071418046795 0.0 0.0
0.0008725658841234861 -0.0033235006178895174 0.0 0.0016820406238125022 0.0 0.0
0.0005892710701952602 -0.0024830862671046715 0.0 -0.0015493938052603207 0.0 0.0
0.00025042043961131025 -0.00031552800699306545 0.0 -0.002440736321299367 0.0 0.0
-0.00012682809505295596 3.159730280765302e-05 0.0 -0.0024572213566530325 0.0 0.0
-0.00014785846269264053 0.00013764286294733677 0.0 -0.0024232485108964244 0.0 0.0
-9.886647405799053e-05 0.0001070841287096439 0.0 -0.00248951468795196 0.0 0.0
-4.677642026568074e-05 4.806065735946204e-05 0.0 -0.0027318492245492422 0.0 0.0
-1.8020394481503676e-05 1.267694718832819e-05 0.0 -0.0030763839687199066 0.0 0.0
-6.823392369963518e-06 4.116963758608739e-06 0.0 -0.0033573518359238854 0.0 0.0
-2.157481910030354e-06 1.13877337118693e-06 0.0 -0.0036538648381391464 0.0 0.0
-8.518260628700806e-08 -7.955391452638561e-09 0.0 -0.004381353817485955 0.0 0.0
-2.113673551695089e-06 9.681433353915243e-07 0.0 -0.005642448136226271 0.0 0.0
-1.4709947122262682e-05 1.3524223981410785e-05 0.0 -0.0073424586585071625 0.0 0.0
-3.781489664329168e-05 3.685454165182757e-05 0.0 -0.009244989901671776 0.0 0.0
-3.988541505433197e-05 4.779821150454851e-05 0.0 -0.011284946225378 0.0 0.0
7.560355608703649e-05 -3.698049891754523e-05 0.0 -0.013467064697003499 0.0 0.0
0.0005071967484414255 -0.0003958639809741091 0.0 -0.015765375451741333 0.0 0.0
0.0015715321611001933 -0.0013169996485453777 0.0 -0.01807806677066402 0.0 0.0
0.0036089108089961425 -0.003145677634909814 0.0 -0.020152569485857207 0.0 0.0
0.006836647356648089 -0.005978368903601701 0.0 -0.021682799555484362 0.0 0.0
0.012365106144945117 -0.010544369099241797 0.0 -0.0229823653046759 0.0 0.0
0.015965755457295817 -0.02082297855451179 0.0 1.3300992252052168e-14 0.0 0.0
0.012365106144945204 -0.010544369099239132 0.0 0.02298236530470537 0.0 0.0
0.006836647356644635 -0.0059783689035985904 0.0 0.021682799555503778 0.0 0.0
0.0036089108089929433 -0.0031456776349011156 0.0 0.02015256948585878 0.0 0.0
0.001571532161100653 -0.0013169996485513703 0.0 0.018078066770654194 0.0 0.0
0.0005071967484440682 -0.00039586398097786826 0.0 0.015765375451731633 0.0 0.0
7.560355608995494e-05 -3.6980498914219225e-05 0.0 0.013467064696993814 0.0 0.0
-3.988541505050452e-05 4.7798211497741784e-05 0.0 0.011284946225368065 0.0 0.0
-3.7814896638984686e-05 3.6854541644294097e-05 0.0 0.009244989901661785 0.0 0.0
-1.470994711885048e-05 1.3524223976179022e-05 0.0 0.007342458658494373 0.0 0.0
-2.1136735491530142e-06 9.681433338588148e-07 0.0 0.005642448136213642 0.0 0.0
-8.518260429874391e-08 -7.955393131850886e-09 0.0 0.004381353817480789 0.0 0.0
-2.1574819088448604e-06 1.138773373960387e-06 0.0 0.0036538648381377378 0.0 0.0
-6.823392369344127e-06 4.116963756566786e-06 0.0 0.003357351835922501 0.0 0.0
-1.802039448135003e-05 1.2676947187421163e-05 0.0 0.0030763839687160876 0.0 0.0
-4.6776420265847047e-05 4.806065735745273e-05 0.0 0.002731849224545016 0.0 0.0
-9.886647405804813e-05 0.0001070841287086853 0.0 0.002489514687949348 0.0 0.0
-0.00014785846269273195 0.00013764286294684115 0.0 0.00242324851089593 0.0 0.0
-0.00012682809505314683 3.1597302808920526e-05 0.0 0.0024572213566518516 0.0 0.0
0.0002504204396109273 -0.000315528006994206 0.0 0.002440736321296058 0.0 0.0
0.0005892710701947463 -0.0024830862671007736 0.0 0.0015493938052593217 0.0 0.0
0.0003926829741929163 -0.0018728437738236969 0.0 -0.0014829820408789672 0.0 0.0
0.00011180798494696804 -0.0003097869261074268 0.0 -0.002250609636617833 0.0 0.0
-0.00024205757246522345 8.307124329512336e-05 0.0 -0.0024502263201215666 0.0 0.0
-0.0003409365624739414 0.000214637766823479 0.0 -0.0024435442732041583 0.0 0.0
-0.00039297170576247677 0.00024076493684357025 0.0 -0.0024974651524014894 0.0 0.0
-0.0004862092505155608 0.00025127308304310797 0.0 -0.002707836988109112 0.0 0.0
-0.000705904670184606 0.00032591472476291273 0.0 -0.003019227506693367 0.0 0.0
-0.0011807801532219987 0.000581350331869361 0.0 -0.0034231282013031258 0.0 0.0
-0.0020686576556749104 0.0011889719234160964 0.0 -0.004155179034828221 0.0 0.0
-0.0033924981094306736 0.0022571955748556284 0.0 -0.005395754101598919 0.0 0.0
-0.005044075669723116 0.0036933996903737764 0.0 -0.007126546711266757 0.0 0.0
-0.006918309613534202 0.005396417957423148 0.0 -0.00916597058357387 0.0 0.0
-0.008967544806559315 0.007303619527701474 0.0 -0.011331465203379595 0.0 0.0
-0.01117057655498073 0.009396933550843107 0.0 -0.013560675950129624 0.0 0.0
-0.0134248624918641 0.0115849302134984 0.0 -0.015878838263685444 0.0 0.0
-0.015492885825018263 0.01364137802105244 0.0 -0.01834829632539368 0.0 0.0
-0.01698468314754977 0.01518276374051716 0.0 -0.02100507329374317 0.0 0.0
-0.017449608575694987 0.01572225650408486 0.0 -0.023967745885667746 0.0 0.0
-0.01639648546796175 0.014946204252740531 0.0 -0.02718377131858545 0.0 0.0
-0.011832518273159773 0.011643085906266736 0.0 -0.028797967661542925 0.0 0.0
-0.008243226464869552 0.0006389206220101563 0.0 1.7314275013724512e-14 0.0 0.0
-0.011832518273159839 0.011643085906271796 0.0 0.02879796766157127 0.0 0.0
-0.01639648546795654 0.014946204252734178 0.0 0.027183771318605637 0.0 0.0
-0.017449608575682903 0.015722256504078005 0.0 0.023967745885668773 0.0 0.0
-0.016984683147532934 0.015182763740503074 0.0 0.021005073293731257 0.0 0.0
-0.015492885825001235 0.013641378021033983 0.0 0.01834829632538021 0.0 0.0
-0.013424862491848651 0.01158493021348579 0.0 0.01587883826367082 0.0 0.0
-0.011170576554964371 0.009396933550826552 0.0 0.013560675950117975 0.0 0.0
-0.008967544806542011 0.007303619527686619 0.0 0.011331465203365596 0.0 0.0
-0.006918309613517897 0.005396417957407437 0.0 0.00916597058355683 0.0 0.0
-0.005044075669709739 0.003693399690366454 0.0 0.007126546711247489 0.0 0.0
-0.0033924981094210823 0.002257195574847104 0.0 0.005395754101588297 0.0 0.0
-0.002068657655668516 0.001188971923414407 0.0 0.004155179034825246 0.0 0.0
-0.0011807801532183644 0.0005813503318640261 0.0 0.0034231282012986515 0.0 0.0
-0.0007059046701829563 0.0003259147247632487 0.0 0.0030192275066885043 0.0 0.0
-0.0004862092505144562 0.0002512730830460411 0.0 0.00270783698810584 0.0 0.0
-0.00039297170576140807 0.0002407649368412899 0.0 0.0024974651524008427 0.0 0.0
-0.0003409365624733158 0.00021463776682199915 0.0 0.0024435442732026976 0.0 0.0
-0.00024205757246495028 8.307124329565564e-05 0.0 0.002450226320120913 0.0 0.0
0.00011180798494684089 -0.0003097869261079023 0.0 0.002250609636615818 0.0 0.0
0.00039268297419258326 -0.0018728437738214465 0.0 0.0014829820408779851 0.0 0.0
0.0002609915037880095 -0.001412868328127149 0.0 -0.0013963109629361557 0.0 0.0
1.0065255984689113e-05 -0.00028782267624860125 0.0 -0.002081746060071102 0.0 0.0
-0.0003493678519891989 0.00013010036752124135 0.0 -0.002392676394321969 0.0 0.0
-0.0005262947655869797 0.00028914063448505885 0.0 -0.0023991758373127555 0.0 0.0
-0.0006782061567685349 0.00036728966880101796 0.0 -0.0024292225085017958 0.0 0.0
-0.0009172093243636713 0.00044783455945326977 0.0 -0.0025849522538716543 0.0 0.0
-0.001426706347931712 0.0006703170237976272 0.0 -0.0028962439478979313 0.0 0.0
-0.002511029767885741 0.0013599695673058904 0.0 -0.0036549697793680736 0.0 0.0
-0.0043955469281152845 0.002874015106824221 0.0 -0.005156509447291855 0.0 0.0
-0.007054732683378865 0.005288263404745898 0.0 -0.007302811873080083 0.0 0.0
-0.010307664486823832 0.008361715684343083 0.0 -0.009879513217775322 0.0 0.0
-0.013986715762865115 0.011874840868524476 0.0 -0.012572444631503924 0.0 0.0
-0.018022195675895573 0.015750407107396638 0.0 -0.015242563265467367 0.0 0.0
-0.022388474503754523 0.01998650438455481 0.0 -0.017872192005194326 0.0 0.0
-0.026987907475782724 0.024500104565196194 0.0 -0.020573969489706044 0.0 0.0
-0.03154989035711755 0.029037126983061393 0.0 -0.02356025060105936 0.0 0.0
-0.035617030282459966 0.03313192697785503 0.0 -0.027051176136284855 0.0 0.0
-0.03856826822700098 0.03615446697777523 0.0 -0.031146152124453715 0.0 0.0
-0.03925228448947333 0.03713358550674099 0.0 -0.03507045376400495 0.0 0.0
-0.03524664994648588 0.03380098238017118 0.0 -0.03613864458727531 0.0 0.0
-0.03166557227821693 0.020894000387975422 0.0 2.069525106840331e-14 0.0 0.0
-0.035246649946482835 0.03380098238016613 0.0 0.036138644587329675 0.0 0.0
-0.03925228448946208 0.03713358550673115 0.0 0.03507045376405169 0.0 0.0
-0.038568268226978626 0.036154466977750155 0.0 0.031146152124470305 0.0 0.0
-0.035617030282429886 0.0331319269778262 0.0 0.027051176136276507 0.0 0.0
-0.03154989035708727 0.02903712698302914 0.0 0.023560250601042016 0.0 0.0
-0.026987907475753768 0.024500104565170547 0.0 0.020573969489686927 0.0 0.0
-0.02238847450372509 0.019986504384524695 0.0 0.01787219200518062 0.0 0.0
-0.0180221956758663 0.01575040710736923 0.0 0.015242563265449552 0.0 0.0
-0.01398671576283746 0.011874840868492022 0.0 0.012572444631481428 0.0 0.0
-0.010307664486799926 0.008361715684324603 0.0 0.009879513217749781 0.0 0.0
-0.0070547326833605255 0.005288263404723785 0.0 0.007302811873062413 0.0 0.0
-0.004395546928102922 0.0028740151068129397 0.0 0.005156509447283061 0.0 0.0
-0.0025110297678785833 0.0013599695672982864 0.0 0.003654969779361951 0.0 0.0
-0.0014267063479279955 0.0006703170237982993 0.0 0.0028962439478944953 0.0 0.0
-0.0009172093243621259 0.0004478345594546645 0.0 0.0025849522538693333 0.0 0.0
-0.0006782061567682068 0.0003672896688016544 0.0 0.0024292225084995337 0.0 0.0
-0.0005262947655869959 0.00028914063448425996 0.0 0.0023991758373116626 0.0 0.0
-0.0003493678519893005 0.00013010036752092043 0.0 0.002392676394321087 0.0 0.0
1.006525598462588e-05 -0.00028782267624808604 0.0 0.002081746060070718 0.0 0.0
0.0002609915037879011 -0.0014128683281256112 0.0 0.0013963109629341053 0.0 0.0
0.00016202860850012793 -0.0010344941695892495 0.0 -0.0012512496266718445 0.0 0.0
-7.098368614178306e-05 -0.0002501209024725804 0.0 -0.0019034640707859215 0.0 0.0
-0.00044796667750545685 0.00017255708246126638 0.0 -0.0022829650029805517 0.0 0.0
-0.0007024255032057204 0.00035907647571239136 0.0 -0.0022942389183060914 0.0 0.0
-0.0009520404350189195 0.00048449979833905523 0.0 -0.002290567584838814 0.0 0.0
-0.001356832274804371 0.0006434485008993281 0.0 -0.0023808145912306102 0.0 0.0
-0.002241626341908269 0.001110840124792514 0.0 -0.0027936449078773693 0.0 0.0
-0.0040338587530817475 0.0024422404961915467 0.0 -0.003968909754309504 0.0 0.0
-0.006961573409540216 0.005030892088662033 0.0 -0.006045966268438561 0.0 0.0
-0.010953268511647758 0.008817867390055537 0.0 -0.008851241090198003 0.0 0.0
-0.01577256017255831 0.013467929493021003 0.0 -0.012009261295586894 0.0 0.0
-0.0212166160781487 0.018734826631574737 0.0 -0.015173472150426998 0.0 0.0
-0.0272092206811667 0.024548202599056906 0.0 -0.018212769975503522 0.0 0.0
-0.033732686005288406 0.030912441706744467 0.0 -0.02117169099315495 0.0 0.0
-0.04069953937665768 0.03776469441774193 0.0 -0.024258267032793473 0.0 0.0
-0.04782291626009019 0.04484175209794256 0.0 -0.027857356430235545 0.0 0.0
-0.05453534951935876 0.05158444657163052 0.0 -0.03240983734006981 0.0 0.0
-0.05984064268202487 0.057049257230950806 0.0 -0.037803734709526846 0.0 0.0
-0.061996979210246037 0.059562135420097376 0.0 -0.04256622528689599 0.0 0.0
-0.05757643768555992 0.05608773113023584 0.0 -0.043913359502390795 0.0 0.0
-0.05314165184056366 0.040330151902276276 0.0 2.428092449324737e-14 0.0 0.0
-0.05757643768555189 0.056087731130219656 0.0 0.04391335950244906 0.0 0.0
-0.06199697921022829 0.05956213542008065 0.0 0.042566225286954314 0.0 0.0
-0.05984064268199277 0.057049257230916695 0.0 0.037803734709553304 0.0 0.0
-0.05453534951931699 0.0515844465715895 0.0 0.03240983734006348 0.0 0.0
-0.04782291626004722 0.044841752097897807 0.0 0.027857356430219457 0.0 0.0
-0.040699539376615725 0.03776469441770392 0.0 0.024258267032773135 0.0 0.0
-0.03373268600524652 0.030912441706700072 0.0 0.021171690993136365 0.0 0.0
-0.027209220681125128 0.024548202599012435 0.0 0.01821276997548178 0.0 0.0
-0.021216616078109235 0.018734826631531393 0.0 0.0151734721504003 0.0 0.0
-0.015772560172523938 0.013467929492989195 0.0 0.012009261295557842 0.0 0.0
-0.010953268511620663 0.008817867390025009 0.0 0.008851241090176536 0.0 0.0
-0.006961573409521462 0.005030892088646154 0.0 0.0060459662684248594 0.0 0.0
-0.004033858753070317 0.0024422404961791057 0.0 0.003968909754300195 0.0 0.0
-0.0022416263419021715 0.001110840124789622 0.0 0.0027936449078739684 0.0 0.0
-0.0013568322748018348 0.0006434485008989978 0.0 0.002380814591227522 0.0 0.0
-0.0009520404350178459 0.00048449979833838064 0.0 0.002290567584836466 0.0 0.0
-0.0007024255032050826 0.0003590764757148829 0.0 0.002294238918305321 0.0 0.0
-0.0004479666775048948 0.0001725570824617605 0.0 0.0022829650029776234 0.0 0.0
-7.098368614148245e-05 -0.0002501209024723955 0.0 0.001903464070785931 0.0 0.0
0.00016202860849985775 -0.0010344941695880725 0.0 0.001251249626669071 0.0 0.0
7.880883920622416e-05 -0.0007180910338253476 0.0 -0.00107559218222379 0.0 0.0
-0.00014183720234422185 -0.00019886803944256176 0.0 -0.001700447676406653 0.0 0.0
-0.0005397564495107821 0.00021232424656959987 0.0 -0.0021210231872167856 0.0 0.0
-0.0008686801692658174 0.00042301867742210354 0.0 -0.0021315845824306026 0.0 0.0
-0.0012172314573417797 0.0005904152302748287 0.0 -0.00207987270756087 0.0 0.0
-0.00183006103832892 0.0008608184642764833 0.0 -0.0021285684775027044 0.0 0.0
-0.003172385209354389 0.00170193356799044 0.0 -0.0026914796811059096 0.0 0.0
-0.005732838528357117 0.0038049196330788267 0.0 -0.0041568210991454 0.0 0.0
-0.009721612889124695 0.0075021155785133554 0.0 -0.006604407204092787 0.0 0.0
-0.01502350474847573 0.012612232016465327 0.0 -0.00976712016725964 0.0 0.0
-0.021370030872505476 0.018781407442366675 0.0 -0.013169635570200013 0.0 0.0
-0.028553687003824393 0.025774595543006033 0.0 -0.016526849688195525 0.0 0.0
-0.03649251770136262 0.033512303225904316 0.0 -0.019738493989211788 0.0 0.0
-0.04517027953435557 0.04199882316493545 0.0 -0.02285570015746427 0.0 0.0
-0.054518562582785535 0.05119788415818274 0.0 -0.02610561580617467 0.0 0.0
-0.06424248111924424 0.060856551645593185 0.0 -0.030010305964214355 0.0 0.0
-0.07359793966303875 0.07027513042090101 0.0 -0.03510424046431765 0.0 0.0
-0.08114794320647478 0.07807273204945996 0.0 -0.04119107421692812 0.0 0.0
-0.08439598936186372 0.08186304527436467 0.0 -0.046660513278724294 0.0 0.0
-0.07915988533318719 0.07768591166564776 0.0 -0.04850831275626961 0.0 0.0
-0.07376915223314322 0.05917345530112092 0.0 2.7606389396694908e-14 0.0 0.0
-0.07915988533317438 0.07768591166563582 0.0 0.048508312756328525 0.0 0.0
-0.08439598936183859 0.08186304527434027 0.0 0.046660513278786786 0.0 0.0
-0.08114794320643515 0.07807273204941435 0.0 0.041191074216960576 0.0 0.0
-0.0735979396629871 0.07027513042084776 0.0 0.03510424046431689 0.0 0.0
-0.06424248111918959 0.060856551645538395 0.0 0.0300103059641963 0.0 0.0
-0.05451856258273078 0.051197884158133006 0.0 0.026105615806153667 0.0 0.0
-0.045170279534300466 0.04199882316488296 0.0 0.022855700157444685 0.0 0.0
-0.03649251770130923 0.03351230322584647 0.0 0.01973849398919243 0.0 0.0
-0.028553687003774447 0.025774595542959414 0.0 0.01652684968816877 0.0 0.0
-0.021370030872461216 0.01878140744232588 0.0 0.013169635570172127 0.0 0.0
-0.015023504748440403 0.012612232016431028 0.0 0.009767120167234874 0.0 0.0
-0.009721612889099418 0.0075021155784881065 0.0 0.006604407204075952 0.0 0.0
-0.005732838528340977 0.003804919633063164 0.0 0.0041568210991354765 0.0 0.0
-0.003172385209345822 0.0017019335679817097 0.0 0.002691479681100155 0.0 0.0
-0.0018300610383249621 0.0008608184642753272 0.0 0.0021285684774998807 0.0 0.0
-0.001217231457340446 0.0005904152302736154 0.0 0.0020798727075603345 0.0 0.0
-0.0008686801692655162 0.00042301867742329654 0.0 0.0021315845824294104 0.0 0.0
-0.0005397564495103755 0.000212324246570262 0.0 0.002121023187213606 0.0 0.0
-0.00014183720234406811 -0.0001988680394429894 0.0 0.0017004476764047713 0.0 0.0
7.880883920589851e-05 -0.0007180910338244681 0.0 0.0010755921822220352 0.0 0.0
6.875954557456705e-06 -0.0004592707756047021 0.0 -0.0008889302717581212 0.0 0.0
-0.0002060699283786389 -0.00013781796490361202 0.0 -0.0014691239868101715 0.0 0.0
-0.0006263582812307815 0.00025124042274477204 0.0 -0.0019046733541834815 0.0 0.0
-0.001024188710916746 0.00047992929959960644 0.0 -0.001911575008427598 0.0 0.0
-0.0014835608845652113 0.0006898435921594889 0.0 -0.001805770812053075 0.0 0.0
-0.002358252930761613 0.0011311703234188615 0.0 -0.0018500652717295205 0.0 0.0
-0.004222763765006659 0.002459952345116365 0.0 -0.0025242758224356347 0.0 0.0
-0.0075861550400004255 0.005403948533297679 0.0 -0.00415009201741754 0.0 0.0
-0.012627414997036278 0.010183066380549093 0.0 -0.006755034939757581 0.0 0.0
-0.019195928334499783 0.01655315200470273 0.0 -0.009940304964835429 0.0 0.0
-0.027038771097376145 0.024205328969016785 0.0 -0.01331499721921633 0.0 0.0
-0.03595766562519617 0.032915911449331745 0.0 -0.01664076585052162 0.0 0.0
-0.04584168599920963 0.04257808302947785 0.0 -0.01983570351393339 0.0 0.0
-0.05666320531102878 0.053180782586852327 0.0 -0.022942287948907115 0.0 0.0
-0.06837855683512248 0.06470893385282592 0.0 -0.026142500689567725 0.0 0.0
-0.08067568836941606 0.07692197505122414 0.0 -0.029900696872199664 0.0 0.0
-0.09261960361690838 0.08897138394527855 0.0 -0.03485221478466954 0.0 0.0
-0.10229286113291793 0.09901549862353454 0.0 -0.041047330432915724 0.0 0.0
-0.10647805494876648 0.10390254366479337 0.0 -0.047151130963298774 0.0 0.0
-0.10048293760057211 0.09900722720444026 0.0 -0.051147565696007063 0.0 0.0
-0.09425924107148616 0.078086688649627 0.0 2.7394753132625738e-14 0.0 0.0
-0.1004829376005559 0.0990072272044233 0.0 0.051147565696070894 0.0 0.0
-0.10647805494873322 0.103902543664757 0.0 0.04715113096335755 0.0 0.0
-0.10229286113286923 0.09901549862348764 0.0 0.041047330432950724 0.0 0.0
-0.09261960361684798 0.08897138394521532 0.0 0.0348522147846709 0.0 0.0
-0.08067568836935055 0.07692197505116277 0.0 0.029900696872184843 0.0 0.0
-0.06837855683505548 0.06470893385276047 0.0 0.02614250068955292 0.0 0.0
-0.056663205310961376 0.053180782586788544 0.0 0.02294228794888803 0.0 0.0
-0.04584168599914398 0.04257808302940642 0.0 0.019835703513913377 0.0 0.0
-0.035957665625135 0.03291591144927511 0.0 0.01664076585049599 0.0 0.0
-0.027038771097322452 0.02420532896896572 0.0 0.013314997219187927 0.0 0.0
-0.019195928334456457 0.016553152004658858 0.0 0.009940304964808055 0.0 0.0
-0.012627414997004429 0.010183066380516043 0.0 0.0067550349397392795 0.0 0.0
-0.0075861550399793 0.0054039485332774565 0.0 0.0041500920174059805 0.0 0.0
-0.004222763764994994 0.0024599523451045557 0.0 0.0025242758224293584 0.0 0.0
-0.002358252930756598 0.001131170323415412 0.0 0.0018500652717275703 0.0 0.0
-0.0014835608845633747 0.0006898435921601282 0.0 0.001805770812051574 0.0 0.0
-0.0010241887109158397 0.0004799292995990148 0.0 0.0019115750084264956 0.0 0.0
-0.0006263582812299463 0.0002512404227449428 0.0 0.0019046733541828844 0.0 0.0
-0.00020606992837819948 -0.00013781796490416675 0.0 0.0014691239868086247 0.0 0.0
6.8759545572366476e-06 -0.00045927077560420246 0.0 0.000888930271755764 0.0 0.0
-5.385962229917629e-05 -0.0002564843224860839 0.0 -0.000698053650467291 0.0 0.0
-0.00026371163270906393 -7.20288425733381e-05 0.0 -0.001211396799672767 0.0 0.0
-0.0007085438220136712 0.00029012390297788386 0.0 -0.0016339473769280439 0.0 0.0
-0.0011729338588220926 0.0005297143660934795 0.0 -0.001633874392182364 0.0 0.0
-0.0017650746151347094 0.0007932742271767397 0.0 -0.0014791303012430127 0.0 0.0
-0.002953413510501327 0.0014798140936455088 0.0 -0.0015373392142633729 0.0 0.0
-0.00538908844598046 0.003389241461580513 0.0 -0.0022613364442440544 0.0 0.0
-0.00956570742893035 0.007189593098108793 0.0 -0.003928362069142005 0.0 0.0
-0.0156170936188493 0.012981653252257494 0.0 -0.006387975969430012 0.0 0.0
-0.023413634323097062 0.020566935234889294 0.0 -0.009330403555351105 0.0 0.0
-0.032742679959530896 0.029685655868892026 0.0 -0.012464964746751326 0.0 0.0
-0.043391324154446166 0.04010823265241869 0.0 -0.015552382877043882 0.0 0.0
-0.055223333362540566 0.0517013062787886 0.0 -0.01853597298422745 0.0 0.0
-0.0681820033982122 0.06441850948186632 0.0 -0.021467056823568316 0.0 0.0
-0.08220438264449309 0.07822520337301046 0.0 -0.024417975854089297 0.0 0.0
-0.09697201107352758 0.09288184161008213 0.0 -0.027627295124329463 0.0 0.0
-0.11141082965089594 0.10745169540909971 0.0 -0.031732630064838 0.0 0.0
-0.12316306269466987 0.11969205140339437 0.0 -0.03740144614453244 0.0 0.0
-0.12839500280014196 0.12577491045993397 0.0 -0.04445448750339013 0.0 0.0
-0.12195107057477417 0.12049993055507474 0.0 -0.05230326569467001 0.0 0.0
-0.11509182783791391 0.09753865419819889 0.0 2.3194987597285888e-14 0.0 0.0
-0.12195107057475355 0.12049993055504896 0.0 0.0523032656947322 0.0 0.0
-0.12839500280010183 0.1257749104598873 0.0 0.04445448750344846 0.0 0.0
-0.12316306269461232 0.11969205140333372 0.0 0.037401446144559376 0.0 0.0
-0.1114108296508252 0.10745169540902995 0.0 0.03173263006483683 0.0 0.0
-0.09697201107344992 0.0928818416100093 0.0 0.027627295124319745 0.0 0.0
-0.08220438264441408 0.0782252033729323 0.0 0.024417975854078053 0.0 0.0
-0.06818200339813317 0.06441850948178394 0.0 0.021467056823551815 0.0 0.0
-0.05522333336246318 0.05170130627871074 0.0 0.018535972984207304 0.0 0.0
-0.043391324154374473 0.040108232652347364 0.0 0.015552382877022427 0.0 0.0
-0.03274267995946878 0.02968565586883154 0.0 0.012464964746724332 0.0 0.0
-0.023413634323046526 0.02056693523483776 0.0 0.00933040355532617 0.0 0.0
-0.015617093618810932 0.012981653252217623 0.0 0.006387975969415045 0.0 0.0
-0.009565707428904092 0.007189593098082054 0.0 0.003928362069128974 0.0 0.0
-0.0053890884459649535 0.0033892414615672856 0.0 0.002261336444239348 0.0 0.0
-0.0029534135104942448 0.001479814093640345 0.0 0.001537339214261382 0.0 0.0
-0.0017650746151323606 0.0007932742271748333 0.0 0.0014791303012416936 0.0 0.0
-0.0011729338588210736 0.0005297143660919534 0.0 0.0016338743921823632 0.0 0.0
-0.0007085438220133265 0.0002901239029793438 0.0 0.0016339473769272157 0.0 0.0
-0.00026371163270874187 -7.20288425736754e-05 0.0 0.0012113967996706836 0.0 0.0
-5.3859622298574345e-05 -0.0002564843224857581 0.0 0.0006980536504653589 0.0 0.0
-0.00010097122401508626 -0.00010974958593714262 0.0 -0.0005084380294863912 0.0 0.0
-0.00031219945367616227 -7.164040574277898e-06 0.0 -0.0009303061020713879 0.0 0.0
-0.000785590804768681 0.0003281854923494697 0.0 -0.0013072523068257424 0.0 0.0
-0.0013196286295771211 0.0005733695287362172 0.0 -0.0012946733299628568 0.0 0.0
-0.0020749206648351063 0.0009161052219499866 0.0 -0.001102121523457653 0.0 0.0
-0.0036286694532124825 0.0019286200447172367 0.0 -0.0011708644965407503 0.0 0.0
-0.006666656576568734 0.004481911243086805 0.0 -0.0018999389739871668 0.0 0.0
-0.011621655906315153 0.009088200785343333 0.0 -0.0033826032647121347 0.0 0.0
-0.018634888973621908 0.015832378320623033 0.0 -0.0054541307349184835 0.0 0.0
-0.027642375508480775 0.024608488856165085 0.0 -0.00796059919874444 0.0 0.0
-0.03844245018938278 0.03517840215075937 0.0 -0.010637302413903881 0.0 0.0
-0.05081813460766619 0.04730907882555657 0.0 -0.013277857584387872 0.0 0.0
-0.06460548823424708 0.06084057412395538 0.0 -0.015847467205204212 0.0 0.0
-0.07968971496292156 0.07567512524484163 0.0 -0.01841334229656815 0.0 0.0
-0.09594220737140918 0.09170001134235362 0.0 -0.0209660028223816 0.0 0.0
-0.11300448856113937 0.10861717607778658 0.0 -0.02341530344332007 0.0 0.0
-0.1297689977580214 0.12548224994837437 0.0 -0.026068354707807617 0.0 0.0
-0.14365511355288568 0.13993047982089754 0.0 -0.030369132929949708 0.0 0.0
-0.15030858751906953 0.14761109770324654 0.0 -0.03850983225674228 0.0 0.0
-0.14394146092311091 0.14257927314691848 0.0 -0.0517071082499052 0.0 0.0
-0.13670633571010027 0.11799554175968774 0.0 2.117750419472486e-14 0.0 0.0
-0.14394146092308657 0.1425792731468911 0.0 0.05170710824995457 0.0 0.0
-0.15030858751902273 0.1476110977031936 0.0 0.038509832256789764 0.0 0.0
-0.1436551135528189 0.1399304798208185 0.0 0.030369132929973425 0.0 0.0
-0.12976899775794037 0.12548224994829385 0.0 0.026068354707811645 0.0 0.0
-0.11300448856105018 0.10861717607770316 0.0 0.02341530344331463 0.0 0.0
-0.09594220737131835 0.09170001134226315 0.0 0.020966002822371356 0.0 0.0
-0.0796897149628315 0.07567512524474893 0.0 0.01841334229655395 0.0 0.0
-0.06460548823415786 0.060840574123864 0.0 0.015847467205188127 0.0 0.0
-0.05081813460758296 0.047309078825475505 0.0 0.013277857584366809 0.0 0.0
-0.03844245018931106 0.0351784021506849 0.0 0.010637302413879321 0.0 0.0
-0.027642375508422367 0.024608488856102347 0.0 0.007960599198723039 0.0 0.0
-0.018634888973576753 0.015832378320575425 0.0 0.005454130734907111 0.0 0.0
-0.011621655906283414 0.009088200785314825 0.0 0.0033826032647005615 0.0 0.0
-0.006666656576549802 0.004481911243071337 0.0 0.0018999389739823075 0.0 0.0
-0.003628669453203246 0.0019286200447104895 0.0 0.0011708644965377464 0.0 0.0
-0.0020749206648314382 0.000916105221947227 0.0 0.0011021215234568696 0.0 0.0
-0.0013196286295759467 0.000573369528735 0.0 0.0012946733299629431 0.0 0.0
-0.0007855908047684155 0.00032818549235046356 0.0 0.0013072523068233014 0.0 0.0
-0.0003121994536762913 -7.1640405743997914e-06 0.0 0.000930306102070514 0.0 0.0
-0.00010097122401549721 -0.00010974958593705045 0.0 0.0005084380294843303 0.0 0.0
-0.0001295774207749569 -1.970248969876994e-05 0.0 -0.00033035785113119627 0.0 0.0
-0.00034590587735479865 4.9722390757702857e-05 0.0 -0.0006298602960790909 0.0 0.0
-0.000855094127256082 0.0003624432608881695 0.0 -0.0009175691147577103 0.0 0.0
-0.0014724027704988033 0.0006158626159427005 0.0 -0.0008878617904894368 0.0 0.0
-0.0024281440556344173 0.0010777582898698352 0.0 -0.0006844181573452778 0.0 0.0
-0.004394074047517418 0.002503674987555371 0.0 -0.0007536412445116812 0.0 0.0
-0.00802099747299354 0.005696355379726855 0.0 -0.0013696863774448832 0.0 0.0
-0.01370865718617641 0.011036929704784712 0.0 -0.0024479671429382182 0.0 0.0
-0.021653994521851096 0.018698131385967445 0.0 -0.003976907091077944 0.0 0.0
-0.03184481345264685 0.02863710465575508 0.0 -0.0058382123669122755 0.0 0.0
-0.04410150640862531 0.04064288200566188 0.0 -0.00783975287858735 0.0 0.0
-0.05819938714245983 0.05447796237453979 0.0 -0.009821442314370538 0.0 0.0
-0.07394440509493846 0.06995360155878697 0.0 -0.011772704639995897 0.0 0.0
-0.09115622782862791 0.08690782026236504 0.0 -0.013771231738940605 0.0 0.0
-0.10957000294593261 0.1051023884367083 0.0 -0.015752276868960444 0.0 0.0
-0.12869638032946037 0.12408667021883157 0.0 -0.01741053880345041 0.0 0.0
-0.14749406380865193 0.14290154341636985 0.0 -0.018558050790918375 0.0 0.0
-0.1635886768603392 0.15942140140366948 0.0 -0.020579989365663708 0.0 0.0
-0.17229348429560143 0.16938239090020227 0.0 -0.028332536891234526 0.0 0.0
-0.16685208804602025 0.16573584935610786 0.0 -0.04827339407063906 0.0 0.0
-0.1596642641984526 0.1401116767643393 0.0 1.6915288614249846e-14 0.0 0.0
-0.1668520880459927 0.16573584935606986 0.0 0.04827339407067474 0.0 0.0
-0.17229348429554645 0.16938239090015253 0.0 0.02833253689127175 0.0 0.0
-0.16358867686026166 0.1594214014035892 0.0 0.020579989365681027 0.0 0.0
-0.14749406380855923 0.14290154341627703 0.0 0.018558050790921973 0.0 0.0
-0.12869638032935998 0.12408667021873335 0.0 0.01741053880344635 0.0 0.0
-0.10957000294583018 0.10510238843660268 0.0 0.015752276868954834 0.0 0.0
-0.0911562278285258 0.08690782026226607 0.0 0.013771231738929267 0.0 0.0
-0.07394440509483767 0.06995360155868721 0.0 0.011772704639987709 0.0 0.0
-0.058199387142365916 0.05447796237444488 0.0 0.009821442314355002 0.0 0.0
-0.04410150640854452 0.040642882005580444 0.0 0.007839752878566858 0.0 0.0
-0.03184481345258065 0.02863710465568782 0.0 0.005838212366895775 0.0 0.0
-0.02165399452180013 0.0186981313859177 0.0 0.003976907091070067 0.0 0.0
-0.01370865718614046 0.011036929704750478 0.0 0.0024479671429308244 0.0 0.0
-0.008020997472971324 0.005696355379707805 0.0 0.0013696863774381159 0.0 0.0
-0.0043940740475062546 0.002503674987545885 0.0 0.00075364124451114 0.0 0.0
-0.0024281440556300203 0.0010777582898669354 0.0 0.0006844181573449201 0.0 0.0
-0.0014724027704979869 0.0006158626159425665 0.0 0.0008878617904885683 0.0 0.0
-0.0008550941272554614 0.00036244326088759126 0.0 0.0009175691147558708 0.0 0.0
-0.00034590587735416163 4.972239075785629e-05 0.0 0.0006298602960800897 0.0 0.0
-0.00012957742077499676 -1.970248969877679e-05 0.0 0.0003303578511291731 0.0 0.0
-0.00013099354890609295 1.3875434831273605e-05 0.0 -0.00018570578042813283 0.0 0.0
-0.0003546185181771591 8.781544581406179e-05 0.0 -0.0003156489543517271 0.0 0.0
-0.0009130783444886168 0.0003871919179389303 0.0 -0.0004461563925382398 0.0 0.0
-0.0016439048869731584 0.0006712416501502853 0.0 -0.0004098591198845143 0.0 0.0
-0.0028429769963108425 0.0013064648457415372 0.0 -0.00023659806303669324 0.0 0.0
-0.0052376221339767454 0.0031982627068059435 0.0 -0.000263079013221934 0.0 0.0
-0.009422916465042532 0.006982331065587995 0.0 -0.0005970007897500261 0.0 0.0
-0.01579984627787804 0.013005222651737387 0.0 -0.0011611095149631685 0.0 0.0
-0.024639136181685367 0.021542309352929678 0.0 -0.0019638866631401532 0.0 0.0
-0.035984055803669576 0.03261210129025118 0.0 -0.0029684543922644862 0.0 0.0
-0.04968120119677093 0.04603926322309729 0.0 -0.004067113842789467 0.0 0.0
-0.06549818049923672 0.061578129930268635 0.0 -0.00518023194243702 0.0 0.0
-0.08320289841662051 0.07899898649244218 0.0 -0.006324018072898171 0.0 0.0
-0.10252661723044461 0.09805952475561078 0.0 -0.007516516973978746 0.0 0.0
-0.12305830018536007 0.11838891645973632 0.0 -0.008687047062446782 0.0 0.0
-0.14410427198754944 0.13932979820872002 0.0 -0.009590614542068658 0.0 0.0
-0.1645388798564395 0.1597676054174852 0.0 -0.009827638084111228 0.0 0.0
-0.18248899123722617 0.1778486007243033 0.0 -0.009778419462374321 0.0 0.0
-0.1941029911469304 0.1902499288906385 0.0 -0.013996384954807825 0.0 0.0
-0.19126492231581294 0.19040323474736928 0.0 -0.036305912059125534 0.0 0.0
-0.18487031065367798 0.16576950114094474 0.0 9.30158727818764e-15 0.0 0.0
-0.19126492231578152 0.1904032347473341 0.0 0.03630591205914965 0.0 0.0
-0.19410299114686821 0.19024992889058354 0.0 0.013996384954832918 0.0 0.0
-0.18248899123713783 0.17784860072421277 0.0 0.009778419462383059 0.0 0.0
-0.1645388798563349 0.15976760541738197 0.0 0.009827638084110014 0.0 0.0
-0.14410427198743725 0.13932979820860839 0.0 0.009590614542065674 0.0 0.0
-0.12305830018524579 0.11838891645961819 0.0 0.008687047062446706 0.0 0.0
-0.10252661723033099 0.09805952475549412 0.0 0.007516516973973028 0.0 0.0
-0.08320289841650898 0.07899898649233492 0.0 0.006324018072893159 0.0 0.0
-0.0654981804991339 0.06157812993015867 0.0 0.005180231942427712 0.0 0.0
-0.049681201196682415 0.046039263223010704 0.0 0.0040671138427769435 0.0 0.0
-0.035984055803596704 0.0326121012901835 0.0 0.0029684543922561296 0.0 0.0
-0.02463913618162885 0.02154230935287672 0.0 0.0019638866631344416 0.0 0.0
-0.015799846277838047 0.013005222651696766 0.0 0.0011611095149596982 0.0 0.0
-0.009422916465016406 0.006982331065567263 0.0 0.0005970007897440326 0.0 0.0
-0.005237622133962916 0.0031982627067918003 0.0 0.0002630790132222353 0.0 0.0
-0.002842976996305677 0.0013064648457370635 0.0 0.00023659806303718303 0.0 0.0
-0.0016439048869715113 0.0006712416501502137 0.0 0.0004098591198848976 0.0 0.0
-0.0009130783444880862 0.00038719191793814227 0.0 0.0004461563925382371 0.0 0.0
-0.0003546185181771539 8.781544581437595e-05 0.0 0.0003156489543520561 0.0 0.0
-0.0001309935489062252 1.3875434831242221e-05 0.0 0.00018570578042885046 0.0 0.0
-8.97447686292384e-05 1.6689974491869722e-05 0.0 -0.00011311722328958461 0.0 0.0
-0.00032021485970988264 0.00010046590017278816 0.0 -0.00013122078206608326 0.0 0.0
-0.0009549282468089189 0.00039632021250440895 0.0 -0.00014653641557739168 0.0 0.0
-0.0018533693047949101 0.0007045475328052125 0.0 -7.758222497595573e-05 0.0 0.0
-0.003329425806628504 0.001442442154266092 0.0 0.00019390294192611613 0.0 0.0
-0.0061407210501799436 0.0035704710325748738 0.0 0.0004264214873743908 0.0 0.0
-0.010848428115673995 0.007638060770048093 0.0 0.0005396388373271604 0.0 0.0
-0.017871462986145618 0.013991130061069817 0.0 0.0005740699546652346 0.0 0.0
-0.027557168574010176 0.02295407621274758 0.0 0.000522225617201633 0.0 0.0
-0.040021049130351 0.03458125404578969 0.0 0.00034079832005673005 0.0 0.0
-0.05514433570718999 0.04871518103666293 0.0 6.994189737678357e-05 0.0 0.0
-0.072680947500739 0.06510695693015742 0.0 -0.00027681133140541533 0.0 0.0
-0.09233055611497554 0.08349970016299463 0.0 -0.0007261207634306046 0.0 0.0
-0.11373838760642677 0.10360654900010138 0.0 -0.0012506699388262783 0.0 0.0
-0.1363693053590655 0.12499689073577272 0.0 -0.001855027273221177 0.0 0.0
-0.15931505194622553 0.14690331208141402 0.0 -0.0024164573895645476 0.0 0.0
-0.1811783976063369 0.1680872161442635 0.0 -0.002635774893326264 0.0 0.0
-0.20013234065442365 0.18677124799397132 0.0 -0.0023466129284326516 0.0 0.0
-0.21400487250902894 0.2002691910717528 0.0 -0.004712587716991044 0.0 0.0
-0.21748681434572423 0.2031517775727251 0.0 -0.027818141824467152 0.0 0.0
-0.2155961379213668 0.17985485994963119 0.0 3.8441472227646045e-15 0.0 0.0
-0.21748681434568942 0.2031517775726971 0.0 0.027818141824473685 0.0 0.0
-0.21400487250895803 0.20026919107168897 0.0 0.004712587716996303 0.0 0.0
-0.20013234065432284 0.18677124799387435 0.0 0.0023466129284363917 0.0 0.0
-0.18117839760621945 0.16808721614415137 0.0 0.0026357748933192454 0.0 0.0
-0.15931505194610046 0.1469033120813026 0.0 0.00241645738956027 0.0 0.0
-0.13636930535893915 0.124996890735647 0.0 0.0018550272732200043 0.0 0.0
-0.11373838760630162 0.10360654899997257 0.0 0.0012506699388248575 0.0 0.0
-0.09233055611485208 0.08349970016287564 0.0 0.0007261207634272453 0.0 0.0
-0.07268094750062533 0.06510695693004279 0.0 0.0002768113313986187 0.0 0.0
-0.05514433570709243 0.0487151810365708 0.0 -6.99418973820927e-05 0.0 0.0
-0.04002104913027123 0.03458125404572127 0.0 -0.00034079832005739184 0.0 0.0
-0.02755716857394866 0.02295407621269207 0.0 -0.0005222256172037996 0.0 0.0
-0.017871462986101413 0.013991130061028732 0.0 -0.0005740699546658797 0.0 0.0
-0.010848428115644541 0.00763806077002881 0.0 -0.0005396388373296755 0.0 0.0
-0.006140721050163675 0.0035704710325599534 0.0 -0.00042642148737455517 0.0 0.0
-0.0033294258066219815 0.0014424421542598856 0.0 -0.00019390294192377848 0.0 0.0
-0.001853369304792533 0.0007045475328059253 0.0 7.75822249783403e-05 0.0 0.0
-0.0009549282468074641 0.00039632021250391336 0.0 0.00014653641557769902 0.0 0.0
-0.0003202148597090671 0.00010046590017300011 0.0 0.00013122078206563218 0.0 0.0
-8.974476862876681e-05 1.6689974491788806e-05 0.0 0.00011311722329124196 0.0 0.0
SCALARS Statev float 8
LOOKUP_TABLE default
0.0 0.020069175307028904 0.016141404347671175 -0.019129551269504642 0.002988146921833451 -0.0012329299706655902 0.0 0.0
0.0 0.007103849856359468 0.005276891965463112 -0.003386967031965605 -0.0018899249334975042 -0.007354141242982155 0.0 0.0
0.0 0.00020912788744407068 0.00026469317935754627 -0.00016019770163187364 -0.00010449547772567283 -0.0003992143850736568 0.0 0.0
0.0 0.00020496523816999405 0.0001189643600430937 -8.535902535599944e-05 -3.360533468709454e-05 3.502316926819962e-05 0.0 0.0
0.0 0.001243153943002957 0.0009157007602613098 -0.000675250394334727 -0.00024045036592658254 0.00018755889074546824 0.0 0.0
0.0 0.0033204535626723567 0.0032331311088235008 -0.00260298619593404 -0.0006301449128894645 0.00038226878684153757 0.0 0.0
0.0 0.008189015004998038 0.007473438316436958 -0.006505652685193796 -0.0009677856312431493 0.0005282780022710036 0.0 0.0
0.0 0.015665899406897353 0.014080132142242414 -0.012847207603450097 -0.0012329245387923153 0.0005888133660492118 0.0 0.0
0.0 0.026242307532615465 0.0233521093685905 -0.021867913447096737 -0.0014841959214937617 0.0005606364401953611 0.0 0.0
0.0 0.04006022201921795 0.035385442245121905 -0.03361901008519044 -0.0017664321599315032 0.00040740794847693586 0.0 0.0
0.0 0.056976089267436435 0.05006281901619753 -0.047965430873790765 -0.002097388142406728 0.00015745981992355677 0.0 0.0
0.0 0.07638992922573223 0.06715168277411633 -0.06467251825023315 -0.0024791645238831208 -0.000178641712580273 0.0 0.0
0.0 0.09834043604344617 0.08637424538611041 -0.08347455002319577 -0.0028996953629146158 -0.0006134556069450145 0.0 0.0
0.0 0.12243129032879177 0.10743780333212044 -0.10409408876658327 -0.00334371456553696 -0.0010974622672018253 0.0 0.0
0.0 0.14822564441931832 0.12995759450624375 -0.12616612951670697 -0.003791464989536534 -0.00165208340203471 0.0 0.0
0.0 0.1750541331222213 0.15331276794938645 -0.14909239310408942 -0.0042203748452970535 -0.0022469057452037438 0.0 0.0
0.0 0.20178832357514107 0.1765542394012685 -0.17194710792599457 -0.004607131475274069 -0.002760651860381824 0.0 0.0
0.0 0.2269468046721041 0.19840865115393447 -0.19347984149708466 -0.0049288096568497865 -0.0030036084594847402 0.0 0.0
0.0 0.24878724163818644 0.21738211184075476 -0.21219934209920835 -0.005182769741546108 -0.002829514931912562 0.0 0.0
0.0 0.2649658748182214 0.23164475706420543 -0.2263048430585128 -0.005339914005692968 -0.0033984867953612266 0.0 0.0
0.0 0.2719527014103477 0.2374154246514504 -0.23209282872742648 -0.0053225959240235775 3.74353326115795e-15 0.0 0.0
0.0 0.2649658748181859 0.23164475706417442 -0.22630484305848286 -0.005339914005691804 0.0033984867953710616 0.0 0.0
0.0 0.2487872416381085 0.21738211184068648 -0.21219934209914057 -0.005182769741545444 0.002829514931920893 0.0 0.0
0.0 0.22694680467199152 0.19840865115383644 -0.19347984149698783 -0.004928809656848478 0.003003608459490749 0.0 0.0
0.0 0.2017883235750138 0.17655423940115778 -0.17194710792588666 -0.004607131475271294 0.002760651860380419 0.0 0.0
0.0 0.175054133122085 0.15331276794926724 -0.14909239310397154 -0.004220374845295658 0.0022469057451983227 0.0 0.0
0.0 0.14822564441918196 0.1299575945061249 -0.1261661295165901 -0.0037914649895346595 0.0016520834020348277 0.0 0.0
0.0 0.12243129032865471 0.107437803332001 -0.10409408876646586 -0.003343714565535281 0.0010974622672016137 0.0 0.0
0.0 0.09834043604331533 0.08637424538599622 -0.08347455002308404 -0.002899695362912065 0.0006134556069410692 0.0 0.0
0.0 0.07638992922561368 0.06715168277401262 -0.06467251825013182 -0.002479164523880651 0.00017864171257559337 0.0 0.0
0.0 0.05697608926733459 0.05006281901610859 -0.04796543087370386 -0.0020973881424047013 -0.00015745981992918963 0.0 0.0
0.0 0.04006022201913209 0.03538544224504683 -0.03361901008511709 -0.00176643215992982 -0.0004074079484796911 0.0 0.0
0.0 0.02624230753255295 0.023352109368535316 -0.021867913447043308 -0.0014841959214919806 -0.0005606364401953436 0.0 0.0
0.0 0.01566589940685427 0.014080132142203956 -0.012847207603412828 -0.0012329245387911127 -0.0005888133660497039 0.0 0.0
0.0 0.008189015004970341 0.007473438316411432 -0.006505652685169864 -0.0009677856312415576 -0.0005282780022704358 0.0 0.0
0.0 0.003320453562658285 0.0032331311088097687 -0.0026029861959220688 -0.0006301449128877057 -0.0003822687868405939 0.0 0.0
0.0 0.0012431539429980146 0.0009157007602576772 -0.0006752503943321026 -0.00024045036592557266 -0.00018755889074448788 0.0 0.0
0.0 0.00020496523816878974 0.0001189643600427486 -8.535902535577581e-05 -3.3605334686972026e-05 -3.5023169268009236e-05 0.0 0.0
0.0 0.00020912788744329624 0.0002646931793569568 -0.00016019770163153903 -0.00010449547772541685 0.00039921438507209097 0.0 0.0
0.0 0.0071038498563483765 0.005276891965457432 -0.0033869670319612143 -0.001889924933496209 0.0073541412429726045 0.0 0.0
0.0 0.020069175307006807 0.01614140434765646 -0.019129551269484436 0.0029881469218279483 0.0012329299706221445 0.0 0.0
0.0 0.016488288077138997 0.01243846288814258 -0.01594561801650747 0.0035071551283648856 -0.0007357177666191978 0.0 0.0
0.0 0.0044955297153407734 0.003235037906088885 -0.0020639159342712298 -0.0011711219718176474 -0.005914199194403362 0.0 0.0
0.0 -9.28843333881524e-05 -7.845189482425302e-05 7.393865125073826e-05 4.513243573514798e-06 -0.00011736091329795174 0.0 0.0
0.0 5.9318032896952506e-05 5.058225977060312e-05 -3.645440070825763e-05 -1.4127859062345479e-05 1.6712064732124448e-05 0.0 0.0
0.0 0.0007372082022062035 0.0006188168680588823 -0.0004601483382771956 -0.00015866852978168656 7.248088579246182e-05 0.0 0.0
0.0 0.0028820509084750306 0.0025435846813578263 -0.002069296658178255 -0.00047428802317957356 4.7104126884918684e-05 0.0 0.0
0.0 0.007017409405805058 0.006382780668577656 -0.005630849875332061 -0.0007519307932455957 -0.0002844254535634744 0.0 0.0
0.0 0.013960077195879892 0.012442711598463727 -0.0115260633047437 -0.0009166482937200262 -0.0008449170133835837 0.0 0.0
0.0 0.02383016097869279 0.021002005134960446 -0.01997525507851084 -0.0010267500564495918 -0.0016359578912072234 0.0 0.0
0.0 0.036641358730589074 0.032100052786940655 -0.03097832670727965 -0.0011217260796610048 -0.002627384605481662 0.0 0.0
0.0 0.052254655178177484 0.045588563047905976 -0.04437486858511034 -0.0012136944627956772 -0.003729574080844189 0.0 0.0
0.0 0.07050888580598225 0.061243238131221095 -0.0599354343538331 -0.0013078037773879426 -0.0048642214875434225 0.0 0.0
0.0 0.09055895930424065 0.0788452190012658 -0.07744103971617262 -0.001404179285093148 -0.006028894827208716 0.0 0.0
0.0 0.11286195559663502 0.09814731538870299 -0.09665152784501366 -0.0014957875436892613 -0.007220832502667681 0.0 0.0
0.0 0.1367263913008871 0.11880928302621024 -0.11723693431166206 -0.0015723487145479723 -0.00839893314658125 0.0 0.0
0.0 0.16155224261039489 0.14028252584279363 -0.13865737444496481 -0.0016251513978289293 -0.009451668053132908 0.0 0.0
0.0 0.18638938630704396 0.16172344580123527 -0.16007436237913478 -0.0016490834221003356 -0.01011798087539323 0.0 0.0
0.0 0.209893676603099 0.18197844728099388 -0.1803330480314859 -0.001645399249508096 -0.01005398043980129 0.0 0.0
0.0 0.23029109121108327 0.19955728242598889 -0.19795392283798552 -0.0016033595880032391 -0.00911834563373657 0.0 0.0
0.0 0.24518824381534107 0.2123144039584598 -0.21087728294343974 -0.0014371210150201058 -0.008203325864772891 0.0 0.0
0.0 0.2517176886208105 0.2173023002157322 -0.21611997795080654 -0.0011823222649257558 9.028368330721293e-15 0.0 0.0
0.0 0.245188243815308 0.21231440395843038 -0.2108772829434106 -0.0014371210150196296 0.008203325864797252 0.0 0.0
0.0 0.23029109121100902 0.19955728242592488 -0.19795392283792082 -0.0016033595880039116 0.009118345633758497 0.0 0.0
0.0 0.20989367660299826 0.18197844728090723 -0.18033304803139888 -0.0016453992495083429 0.010053980439815475 0.0 0.0
0.0 0.18638938630692684 0.1617234458011345 -0.16007436237903408 -0.0016490834221005374 0.01011798087539448 0.0 0.0
0.0 0.16155224261027107 0.14028252584268697 -0.1386573744448577 -0.0016251513978288278 0.009451668053124872 0.0 0.0
0.0 0.13672639130076117 0.11880928302610079 -0.11723693431155313 -0.0015723487145477494 0.00839893314657925 0.0 0.0
0.0 0.11286195559650795 0.0981473153885931 -0.09665152784490404 -0.0014957875436889395 0.007220832502664932 0.0 0.0
0.0 0.09055895930412165 0.07884521900116294 -0.07744103971607033 -0.0014041792850925756 0.006028894827200662 0.0 0.0
0.0 0.0705088858058711 0.061243238131124485 -0.05993543435373677 -0.0013078037773877308 0.004864221487535665 0.0 0.0
0.0 0.05225465517808317 0.04558856304782453 -0.04437486858502925 -0.0012136944627952977 0.0037295740808341964 0.0 0.0
0.0 0.036641358730509825 0.032100052786871364 -0.03097832670721088 -0.0011217260796604373 0.002627384605473706 0.0 0.0
0.0 0.023830160978635002 0.021002005134909303 -0.01997525507846056 -0.0010267500564487377 0.0016359578912029712 0.0 0.0
0.0 0.013960077195840923 0.012442711598429175 -0.011526063304709726 -0.0009166482937194725 0.0008449170133795788 0.0 0.0
0.0 0.007017409405780147 0.006382780668555121 -0.0056308498753106125 -0.000751930793244501 0.00028442545356127094 0.0 0.0
0.0 0.0028820509084627765 0.0025435846813470836 -0.0020692966581688297 -0.0004742880231782527 -4.710412688555573e-05 0.0 0.0
0.0 0.0007372082022028861 0.000618816868056554 -0.00046014833827551016 -0.00015866852978104373 -7.248088579188144e-05 0.0 0.0
0.0 5.93180328962592e-05 5.058225977053581e-05 -3.645440070822839e-05 -1.41278590623073e-05 -1.6712064732042065e-05 0.0 0.0
0.0 -9.288433338875042e-05 -7.845189482413303e-05 7.393865125060165e-05 4.513243573531156e-06 0.00011736091329753274 0.0 0.0
0.0 0.004495529715329517 0.0032350379060827592 -0.002063915934266767 -0.0011711219718159905 0.005914199194391585 0.0 0.0
0.0 0.01648828807711529 0.01243846288812451 -0.01594561801648499 0.003507155128360472 0.0007357177665864691 0.0 0.0
0.0 0.012432852871900907 0.009182063734275622 -0.0120861019247869 0.0029040381905112763 -0.0033836903317266747 0.0 0.0
0.0 0.003105478178586586 0.0019880858405383244 -0.0011226722822229851 -0.0008654135583153418 -0.005153470178965745 0.0 0.0
0.0 7.843429444598197e-07 1.647906363006214e-06 -1.418143665371978e-06 -2.2976269763423157e-07 8.982048453586207e-07 0.0 0.0
0.0 2.1533006773512226e-06 5.48337378103428e-07 2.860892785096711e-07 -8.344266566132267e-07 6.97069286446586e-06 0.0 0.0
0.0 0.00036176028020579225 0.000322517110460322 -0.00023367135247484214 -8.884575798547973e-05 1.1024107694471191e-05 0.0 0.0
0.0 0.0020940815464431423 0.0018003566622711894 -0.00142481636177876 -0.00037554030049242863 -0.00013915196051032572 0.0 0.0
0.0 0.005524915075948435 0.005093390659166327 -0.0044086442580592725 -0.0006847464011070551 -0.0007850367245343679 0.0 0.0
0.0 0.011742448508764571 0.010466328992278909 -0.009598515315502293 -0.0008678136767766118 -0.001862351062996534 0.0 0.0
0.0 0.02058281700479867 0.0181333420830485 -0.017155626480005993 -0.0009777156030424837 -0.0033658242304924536 0.0 0.0
0.0 0.03215058305672289 0.028078469393698787 -0.02701302083138563 -0.0010654485623131725 -0.005207337546903772 0.0 0.0
0.0 0.04616018259139737 0.04012626919508603 -0.038975115615459306 -0.0011511535796266952 -0.007219501343203131 0.0 0.0
0.0 0.062246249449266024 0.054064323599375956 -0.052823821495879615 -0.0012405021034963453 -0.009246372674538081 0.0 0.0
0.0 0.08054336327986025 0.06970747954894892 -0.06837589560321503 -0.0013315839457337855 -0.011254373056930521 0.0 0.0
0.0 0.10014515717020393 0.08687935575096713 -0.08546150327840778 -0.0014178524725594094 -0.013291341801290615 0.0 0.0
0.0 0.12146669133233659 0.10530024531641963 -0.10380870474204235 -0.0014915405743774228 -0.015308157610716381 0.0 0.0
0.0 0.14370104156300487 0.12451802527279077 -0.12297320238608354 -0.0015448228867070745 -0.017086745713671126 0.0 0.0
0.0 0.16604749835085927 0.1438297771347802 -0.14225704755235896 -0.0015727295824213292 -0.0182121000430897 0.0 0.0
0.0 0.1872963750703889 0.16220114831066673 -0.16063354719365733 -0.0015676011170096692 -0.018183747728362235 0.0 0.0
0.0 0.20575934887524702 0.17813304200790664 -0.17662927542681858 -0.0015037665810877575 -0.01675039192806589 0.0 0.0
0.0 0.21913476952089983 0.1896272661187299 -0.1882224072719999 -0.0014048588467295343 -0.014012540650860902 0.0 0.0
0.0 0.2252840913347615 0.19425898030662156 -0.1931481241154901 -0.0011108561911315244 1.62456853525228e-14 0.0 0.0
0.0 0.21913476952086852 0.18962726611870143 -0.18822240727197073 -0.0014048588467304582 0.014012540650902332 0.0 0.0
0.0 0.2057593488751876 0.17813304200785443 -0.17662927542676718 -0.0015037665810874183 0.01675039192810754 0.0 0.0
0.0 0.18729637507030358 0.1622011483105927 -0.16063354719358314 -0.0015676011170094872 0.018183747728386844 0.0 0.0
0.0 0.16604749835075436 0.1438297771346903 -0.14225704755226878 -0.0015727295824215922 0.01821210004309361 0.0 0.0
0.0 0.1437010415628993 0.12451802527269873 -0.12297320238599298 -0.0015448228867057075 0.01708674571366222 0.0 0.0
0.0 0.12146669133222412 0.10530024531632218 -0.10380870474194524 -0.0014915405743769128 0.015308157610711194 0.0 0.0
0.0 0.10014515717009403 0.0868793557508719 -0.08546150327831319 -0.00141785247255874 0.013291341801284566 0.0 0.0
0.0 0.08054336327975808 0.0697074795488606 -0.06837589560312735 -0.0013315839457332427 0.011254373056919443 0.0 0.0
0.0 0.062246249449164584 0.054064323599288755 -0.05282382149579231 -0.0012405021034963741 0.009246372674523952 0.0 0.0
0.0 0.04616018259131457 0.040126269195014164 -0.03897511561538781 -0.001151153579626378 0.007219501343187778 0.0 0.0
0.0 0.03215058305665319 0.0280784693936377 -0.027013020831325067 -0.0010654485623125846 0.005207337546890639 0.0 0.0
0.0 0.020582817004745377 0.018133342083001814 -0.017155626479959996 -0.0009777156030418247 0.003365824230483528 0.0 0.0
0.0 0.011742448508728937 0.010466328992247744 -0.009598515315471855 -0.0008678136767758681 0.0018623510629894179 0.0 0.0
0.0 0.0055249150759273296 0.005093390659147156 -0.004408644258041294 -0.0006847464011058631 0.0007850367245301729 0.0 0.0
0.0 0.0020940815464343945 0.0018003566622637312 -0.001424816361772578 -0.00037554030049115306 0.00013915196050937918 0.0 0.0
0.0 0.0003617602802034456 0.00032251711045884306 -0.0002336713524737962 -8.884575798504687e-05 -1.1024107694241178e-05 0.0 0.0
0.0 2.153300677094743e-06 5.483373780440244e-07 2.860892785630863e-07 -8.34426656607097e-07 -6.970692864449476e-06 0.0 0.0
0.0 7.84342944599321e-07 1.647906362972369e-06 -1.418143665340078e-06 -2.297626976322924e-07 -8.982048453361858e-07 0.0 0.0
0.0 0.0031054781785776545 0.001988085840533144 -0.001122672282219497 -0.0008654135583136414 0.005153470178952065 0.0 0.0
0.0 0.012432852871877198 0.009182063734258098 -0.01208610192476492 0.0029040381905068033 0.0033836903317053637 0.0 0.0
0.0 0.009518980520716423 0.00685527573110898 -0.009206243591911691 0.002350967860802682 -0.003647016202158588 0.0 0.0
0.0 0.002288517917449175 0.0013778146679116943 -0.0007609639238698054 -0.0006168507440418818 -0.003951509188579915 0.0 0.0
0.0 0.0 0.0 0.0 0.0 0.0 0.0 0.0
0.0 -5.112925589077166e-06 -4.897837890625392e-06 3.871154562612515e-06 1.0266833280128736e-06 3.805717505411621e-06 0.0 0.0
0.0 0.00014145656603536675 0.00011815417919750767 -8.219922907014378e-05 -3.59549501273633e-05 2.798317686237962e-06 0.0 0.0
0.0 0.0013119063289471248 0.0011766724021843203 -0.0009054078287556121 -0.0002712645734287067 -0.00023663040016640104 0.0 0.0
0.0 0.004357131922590386 0.0038526759809604343 -0.003256373408378743 -0.0005963025725816898 -0.00101839836456442 0.0 0.0
0.0 0.009579025404197757 0.008512350869883167 -0.0077044419634828476 -0.0008079089064003135 -0.002521101007299714 0.0 0.0
0.0 0.01740845465356245 0.015249555126739199 -0.014326469934284271 -0.0009230851924549211 -0.00456633693520079 0.0 0.0
0.0 0.02765281716486914 0.024012207454026012 -0.023006738106059268 -0.001005469347966716 -0.0070504440927574 0.0 0.0
0.0 0.0399714586203533 0.0346028587622417 -0.033518514867997645 -0.0010843438942440187 -0.009741162308616548 0.0 0.0
0.0 0.054252610013252246 0.04681540861484735 -0.04564738478712265 -0.0011680238277246957 -0.012442285822536047 0.0 0.0
0.0 0.07001446714845974 0.06050152828529412 -0.05924723249212249 -0.0012542957931716034 -0.015111301003227337 0.0 0.0
0.0 0.08768059448436522 0.07552223068359461 -0.07418746493227786 -0.0013347657513167156 -0.017783624122045674 0.0 0.0
0.0 0.10631561318875707 0.09168282082334217 -0.09027781417721527 -0.0014050066461267683 -0.02041253934231298 0.0 0.0
0.0 0.12577122467731414 0.10863808969702243 -0.10717787628712833 -0.001460213409894118 -0.022759209099888055 0.0 0.0
0.0 0.1457274137137097 0.12581731544865027 -0.12432615008573239 -0.0014911653629178043 -0.024339792320612116 0.0 0.0
0.0 0.16479790110761575 0.14231054763868212 -0.14082596863695293 -0.0014845790017290644 -0.024548307897763553 0.0 0.0
0.0 0.1814586729646111 0.15674691528724208 -0.15531259082029084 -0.0014343244669513344 -0.022767390234409872 0.0 0.0
0.0 0.19371747131351297 0.16740495236927558 -0.166035049247902 -0.0013699031213740842 -0.018074651873537528 0.0 0.0
0.0 0.19988035176167632 0.1719753985319526 -0.17101522276794182 -0.0009601757640105745 2.4430110712181374e-14 0.0 0.0
0.0 0.1937174713134837 0.1674049523692489 -0.16603504924787377 -0.001369903121375422 0.018074651873592012 0.0 0.0
0.0 0.1814586729645605 0.15674691528719598 -0.15531259082024615 -0.0014343244669497075 0.022767390234464696 0.0 0.0
0.0 0.164797901107537 0.14231054763861353 -0.14082596863688362 -0.0014845790017297292 0.02454830789779455 0.0 0.0
0.0 0.14572741371362097 0.12581731544857394 -0.12432615008565634 -0.0014911653629175975 0.02433979232061683 0.0 0.0
0.0 0.12577122467722057 0.10863808969694133 -0.10717787628704785 -0.0014602134098934713 0.022759209099877407 0.0 0.0
0.0 0.10631561318865959 0.0916828208232574 -0.09027781417713102 -0.0014050066461264313 0.02041253934230492 0.0 0.0
0.0 0.08768059448427079 0.07552223068351235 -0.07418746493219654 -0.0013347657513158595 0.017783624122037253 0.0 0.0
0.0 0.07001446714836874 0.06050152828521591 -0.059247232492044825 -0.0012542957931709826 0.015111301003213564 0.0 0.0
0.0 0.05425261001316634 0.04681540861477333 -0.0456473847870485 -0.0011680238277249088 0.012442285822516053 0.0 0.0
0.0 0.039971458620281404 0.034602858762179674 -0.03351851486793613 -0.0010843438942435097 0.0097411623085974 0.0 0.0
0.0 0.027652817164810013 0.024012207453974872 -0.023006738106008628 -0.0010054693479662371 0.007050444092740018 0.0 0.0
0.0 0.017408454653516623 0.015249555126699559 -0.01432646993424517 -0.0009230851924543903 0.00456633693518859 0.0 0.0
0.0 0.009579025404167482 0.008512350869856208 -0.007704441963456599 -0.0008079089063995985 0.0025211010072902734 0.0 0.0
0.0 0.0043571319225717865 0.00385267598094473 -0.0032563734083644645 -0.000596302572580264 0.0010183983645592665 0.0 0.0
0.0 0.0013119063289396401 0.0011766724021783305 -0.0009054078287507859 -0.00027126457342754423 0.00023663040016480227 0.0 0.0
0.0 0.00014145656603324925 0.00011815417919618944 -8.219922906920209e-05 -3.5954950126987146e-05 -2.7983176863528294e-06 0.0 0.0
0.0 -5.112925589396649e-06 -4.8978378905828924e-06 3.871154562579764e-06 1.0266833280031498e-06 -3.8057175053784998e-06 0.0 0.0
0.0 0.0 0.0 0.0 0.0 0.0 0.0 0.0
0.0 0.0022885179174414252 0.0013778146679072052 -0.0007609639238667946 -0.0006168507440404136 0.003951509188568174 0.0 0.0
0.0 0.009518980520695854 0.006855275731093034 -0.009206243591891573 0.0023509678607985395 0.0036470162021430674 0.0 0.0
0.0 0.007067262103121067 0.005059668777552578 -0.00691641539378661 0.0018567466162340406 -0.003131985801581726 0.0 0.0
0.0 0.0018321412120841064 0.0009239919085952332 -0.0005002225599626053 -0.00042376934863262814 -0.002890027576214078 0.0 0.0
0.0 0.0 0.0 0.0 0.0 0.0 0.0 0.0
0.0 -8.123565996784264e-07 -2.6282555754619973e-07 2.133486324156539e-07 4.947692513054713e-08 4.59740711309652e-07 0.0 0.0
0.0 2.009265733001846e-06 1.4478963866062386e-05 -7.245321293451308e-06 -7.233642572611004e-06 1.6246590376115697e-05 0.0 0.0
0.0 0.0007801605003253211 0.0006673276801942278 -0.0005001920427140602 -0.00016713563748016832 -0.00023052351202613964 0.0 0.0
0.0 0.00323020232925851 0.0027247846472272614 -0.0022405488674760283 -0.000484235779751227 -0.0010731651724564231 0.0 0.0
0.0 0.00750857452818723 0.006610575597714762 -0.00587683626317889 -0.000733739334535882 -0.002781078370570158 0.0 0.0
0.0 0.0142796276350474 0.012387715440507242 -0.011526834706553716 -0.0008608807339535348 -0.0052291198675549185 0.0 0.0
0.0 0.023153004792283285 0.019941875268842946 -0.019001804602933416 -0.0009400706659095213 -0.008152674356802428 0.0 0.0
0.0 0.03386651768556011 0.029059129178576743 -0.028046559798898495 -0.0010125693796782431 -0.011301729241874055 0.0 0.0
0.0 0.046168588459708414 0.039538585717706916 -0.03844863838507331 -0.0010899473326336042 -0.01445701475183353 0.0 0.0
0.0 0.05996525713372301 0.05125673453413425 -0.05008642403313385 -0.0011703105010003921 -0.017576950123375974 0.0 0.0
0.0 0.07476394081044645 0.06412952822296938 -0.06288290215882336 -0.001246626064146055 -0.020693868742626253 0.0 0.0
0.0 0.09103269769357854 0.07801547457127549 -0.0767022746550957 -0.0013131999161797403 -0.02373366946203159 0.0 0.0
0.0 0.10815050939657714 0.09267403980090394 -0.09130691494511294 -0.0013671248557910597 -0.026455631850457646 0.0 0.0
0.0 0.12538534465768658 0.10768307959548169 -0.10628076178007587 -0.0014023178154058285 -0.028431564126478855 0.0 0.0
0.0 0.14225225991705417 0.12230254823164913 -0.12089639729312347 -0.0014061509385256208 -0.028991770582510606 0.0 0.0
0.0 0.15729881659696365 0.13538676502115837 -0.13401426584167403 -0.0013724991794841592 -0.02704873433924434 0.0 0.0
0.0 0.16880019570965885 0.14547082495528202 -0.14414740144247182 -0.0013234235128100767 -0.021098271839207126 0.0 0.0
0.0 0.17520835711121868 0.15013890599976076 -0.149366326782575 -0.0007725792171856838 2.7856189577235568e-14 0.0 0.0
0.0 0.16880019570964042 0.14547082495526298 -0.1441474014424531 -0.0013234235128097042 0.021098271839270752 0.0 0.0
0.0 0.15729881659691608 0.1353867650211143 -0.13401426584162993 -0.0013724991794842882 0.027048734339303313 0.0 0.0
0.0 0.14225225991698826 0.12230254823159081 -0.12089639729306494 -0.001406150938525973 0.028991770582547448 0.0 0.0
0.0 0.1253853446576087 0.1076830795954147 -0.10628076178000909 -0.0014023178154055163 0.028431564126485686 0.0 0.0
0.0 0.1081505093964933 0.09267403980083176 -0.09130691494503992 -0.0013671248557918336 0.026455631850446245 0.0 0.0
0.0 0.09103269769349417 0.07801547457120264 -0.07670227465502304 -0.0013131999161795993 0.023733669462019838 0.0 0.0
0.0 0.07476394081036439 0.06412952822289819 -0.06288290215875293 -0.0012466260641452059 0.020693868742615536 0.0 0.0
0.0 0.05996525713363958 0.051256734534062535 -0.05008642403306211 -0.0011703105010003533 0.017576950123358862 0.0 0.0
0.0 0.04616858845963759 0.039538585717646235 -0.038448638385012855 -0.0010899473326333594 0.0144570147518121 0.0 0.0
0.0 0.03386651768549741 0.029059129178523317 -0.02804655979884587 -0.0010125693796774488 0.011301729241849965 0.0 0.0
0.0 0.023153004792232704 0.019941875268799737 -0.019001804602890665 -0.0009400706659090593 0.008152674356782758 0.0 0.0
0.0 0.014279627635008717 0.012387715440473967 -0.011526834706520984 -0.000860880733952978 0.005229119867540403 0.0 0.0
0.0 0.00750857452816172 0.006610575597692708 -0.005876836263157729 -0.0007337393345349811 0.002781078370559546 0.0 0.0
0.0 0.003230202329243516 0.0027247846472150694 -0.0022405488674653255 -0.000484235779749744 0.0010731651724510084 0.0 0.0
0.0 0.0007801605003193592 0.0006673276801897346 -0.0005001920427105432 -0.00016713563747919148 0.00023052351202425638 0.0 0.0
0.0 2.0092657322785978e-06 1.4478963865905772e-05 -7.245321293355132e-06 -7.2336425725507505e-06 -1.6246590375730992e-05 0.0 0.0
0.0 -8.123565995414571e-07 -2.628255576343981e-07 2.1334863248276167e-07 4.947692515162991e-08 -4.5974071142087473e-07 0.0 0.0
0.0 0.0 0.0 0.0 0.0 0.0 0.0 0.0
0.0 0.0018321412120762787 0.0009239919085913059 -0.0005002225599599718 -0.00042376934863133284 0.002890027576203535 0.0 0.0
0.0 0.007067262103103453 0.005059668777538741 -0.006916415393768894 0.0018567466162301425 0.0031319858015707493 0.0 0.0
0.0 0.005207532859639436 0.0036147341717270498 -0.005025454127571903 0.0014107199558448546 -0.0024618514119011522 0.0 0.0
0.0 0.0011617543308139434 0.000591098486810014 -0.0003131616769313884 -0.000277936809878626 -0.0020189931804935387 0.0 0.0
0.0 0.0 0.0 0.0 0.0 0.0 0.0 0.0
0.0 -3.257631690615305e-07 1.084875702500595e-07 -8.302488543566934e-08 -2.5462684814390137e-08 -1.7842414588352758e-07 0.0 0.0
0.0 -2.5037814793160277e-05 -1.800878337610493e-05 1.5086776449659971e-05 2.922006926444953e-06 3.0407387203082e-05 0.0 0.0
0.0 0.0003425655308859058 0.00031327591623309255 -0.00022868645763555597 -8.458945859753665e-05 -0.0001697244487325001 0.0 0.0
0.0 0.002005058225419995 0.0017688575629039728 -0.0014125103098573855 -0.0003563472530465886 -0.0010105149928381272 0.0 0.0
0.0 0.005833173986624956 0.004802247886164609 -0.004169916788648049 -0.0006323310975165537 -0.0026994996407477333 0.0 0.0
0.0 0.011095718677911525 0.009584615911837131 -0.008798939179843496 -0.0007856767319936449 -0.0053300386895825695 0.0 0.0
0.0 0.018740200275562276 0.015907228410725775 -0.015040141399862561 -0.0008670870108632061 -0.00850625997603365 0.0 0.0
0.0 0.02777405388832551 0.023537750111903306 -0.022603692256900596 -0.0009340578550027128 -0.01189676542017044 0.0 0.0
0.0 0.03808812081320047 0.032277522797179346 -0.031272343638242855 -0.0010051791589364416 -0.01529068630711596 0.0 0.0
0.0 0.049566146628504525 0.04202602078243387 -0.04094631989795898 -0.0010797008844749105 -0.01864288283147207 0.0 0.0
0.0 0.06223230781680462 0.052738311447036446 -0.05158815271399637 -0.0011501587330400506 -0.021987860675885817 0.0 0.0
0.0 0.07576899345716692 0.0643447726638068 -0.06313170179587214 -0.0012130708679347004 -0.0252527179358141 0.0 0.0
0.0 0.09002198683726435 0.07668320097564128 -0.07541733925098817 -0.001265861724653053 -0.028187005856366024 0.0 0.0
0.0 0.10514606215874427 0.08945640965991196 -0.08815104348678075 -0.0013053661731311287 -0.030422412806469915 0.0 0.0
0.0 0.11973404491805786 0.10216714088945228 -0.10084191034954657 -0.0013252305399057954 -0.03133892572245661 0.0 0.0
0.0 0.13307156753635133 0.1139712679748761 -0.11266024447639017 -0.001311023498485968 -0.02961055385451079 0.0 0.0
0.0 0.14406613711508864 0.12364535536734608 -0.1223753593604506 -0.0012699960068954853 -0.023236171219400335 0.0 0.0
0.0 0.15093867675860578 0.12853018898071752 -0.1279758508949596 -0.0005543380857577397 2.827859474363592e-14 0.0 0.0
0.0 0.1440661371150738 0.12364535536732855 -0.12237535936043312 -0.0012699960068954567 0.023236171219466525 0.0 0.0
0.0 0.1330715675363146 0.11397126797484064 -0.11266024447635453 -0.0013110234984862357 0.029610553854573368 0.0 0.0
0.0 0.11973404491800757 0.10216714088940641 -0.1008419103495009 -0.001325230539905342 0.031338925722497156 0.0 0.0
0.0 0.10514606215867982 0.08945640965985671 -0.08815104348672573 -0.0013053661731308897 0.03042241280647582 0.0 0.0
0.0 0.09002198683719466 0.07668320097558144 -0.0754173392509282 -0.0012658617246533712 0.028187005856354093 0.0 0.0
0.0 0.07576899345709519 0.0643447726637449 -0.06313170179581083 -0.0012130708679340186 0.025252717935799637 0.0 0.0
0.0 0.062232307816738344 0.052738311446978575 -0.05158815271393919 -0.001150158733039402 0.02198786067587423 0.0 0.0
0.0 0.04956614662843586 0.04202602078237553 -0.04094631989790091 -0.001079700884474613 0.01864288283145464 0.0 0.0
0.0 0.03808812081314177 0.032277522797129435 -0.03127234363819361 -0.001005179158935793 0.015290686307094518 0.0 0.0
0.0 0.02777405388826949 0.023537750111856874 -0.02260369225685455 -0.0009340578550023305 0.01189676542014302 0.0 0.0
0.0 0.018740200275520875 0.015907228410690737 -0.015040141399828066 -0.000867087010862656 0.008506259976012088 0.0 0.0
0.0 0.011095718677877807 0.009584615911808321 -0.008798939179815113 -0.0007856767319932208 0.005330038689565631 0.0 0.0
0.0 0.005833173986603418 0.004802247886147325 -0.004169916788631701 -0.0006323310975156242 0.0026994996407375465 0.0 0.0
0.0 0.0020050582254075387 0.0017688575628938801 -0.001412510309848867 -0.00035634725304501346 0.001010514992831953 0.0 0.0
0.0 0.0003425655308824773 0.0003132759162307124 -0.0002286864576338217 -8.458945859689024e-05 0.00016972444873111734 0.0 0.0
0.0 -2.5037814793540022e-05 -1.8008783375599806e-05 1.5086776449269423e-05 2.922006926330359e-06 -3.0407387202476688e-05 0.0 0.0
0.0 -3.2576316889576093e-07 1.084875702529689e-07 -8.302488543783097e-08 -2.5462684815134745e-08 1.7842414588159653e-07 0.0 0.0
0.0 0.0 0.0 0.0 0.0 0.0 0.0 0.0
0.0 0.0011617543308075256 0.0005910984868069478 -0.0003131616769292948 -0.00027793680987765214 0.0020189931804849653 0.0 0.0
0.0 0.005207532859625648 0.003614734171716165 -0.005025454127557595 0.0014107199558414266 0.0024618514118937844 0.0 0.0
0.0 0.0035317584834953044 0.0024605257744191224 -0.003473164382304281 0.0010126386078851536 -0.0018458054910219688 0.0 0.0
0.0 0.0007450427778101204 0.00033635130106379497 -0.00016530040122729 -0.00017105089983650442 -0.0012983996030298572 0.0 0.0
0.0 1.5734592941222573e-07 7.148379167026532e-10 -7.331624633568543e-11 -6.415216703671971e-10 3.250372699491736e-08 0.0 0.0
0.0 1.5712585741700463e-07 6.304622250958064e-09 -5.866682075806125e-09 -4.379401751547683e-10 3.806782874179354e-08 0.0 0.0
0.0 -1.7704666994878236e-05 -1.1593726324355777e-05 9.28063627211326e-06 2.313090052242571e-06 2.400954606724703e-05 0.0 0.0
0.0 0.00010203657631017096 8.924831906339636e-05 -6.205926879915085e-05 -2.718905026424564e-05 -6.483383859924489e-05 0.0 0.0
0.0 0.0011941999188263338 0.0009824439347387863 -0.0007630280926254117 -0.00021941584211337446 -0.0008072129197304223 0.0 0.0
0.0 0.00379237700249978 0.003190300444568704 -0.002691231273225288 -0.0004990691713434149 -0.002402098492246095 0.0 0.0
0.0 0.008579992154485714 0.006882399328693743 -0.006196100349259863 -0.0006862989794338816 -0.004895702597059512 0.0 0.0
0.0 0.014265155739175145 0.01195458579113576 -0.011173975338571052 -0.000780610452564709 -0.008089018290360614 0.0 0.0
0.0 0.021753524775664022 0.01808373006871327 -0.017237765367449726 -0.0008459647012635512 -0.01151105025298455 0.0 0.0
0.0 0.030111877111544567 0.02507744923271661 -0.024166414099276747 -0.000911035133439888 -0.014932436687569661 0.0 0.0
0.0 0.039344432158993865 0.03285443006251548 -0.03187553127493367 -0.0009788987875817654 -0.018297801176582536 0.0 0.0
0.0 0.049479010272044606 0.041407371294868066 -0.0403632928254241 -0.0010440784694440192 -0.021651133785947366 0.0 0.0
0.0 0.06043037591944154 0.050721544594343984 -0.049619198588803065 -0.0011023460055408529 -0.024934436651951077 0.0 0.0
0.0 0.07240590758634656 0.06070886409383205 -0.05955769395227752 -0.001151170141554583 -0.027916843203611468 0.0 0.0
0.0 0.08428191973903451 0.07119564997571806 -0.06999949716694273 -0.001196152808775362 -0.030251135340310584 0.0 0.0
0.0 0.09688370976821095 0.0819110500159713 -0.08067507130307083 -0.0012359787129003596 -0.031474379296504276 0.0 0.0
0.0 0.10903385644909122 0.09239607158259001 -0.09115065502645443 -0.001245416556135684 -0.030339289392910463 0.0 0.0
0.0 0.11947085268901253 0.10173817489760233 -0.1005261279621951 -0.001212046935407249 -0.024463861321353718 0.0 0.0
0.0 0.12707305284869633 0.10694205429588838 -0.10663691946131611 -0.00030513483457237105 2.8271655849732014e-14 0.0 0.0
0.0 0.11947085268899872 0.1017381748975853 -0.10052612796217765 -0.001212046935407681 0.024463861321419186 0.0 0.0
0.0 0.10903385644905861 0.0923960715825573 -0.09115065502642156 -0.001245416556135767 0.030339289392973402 0.0 0.0
0.0 0.0968837097681699 0.08191105001593288 -0.080675071303033 -0.001235978712899932 0.03147437929654389 0.0 0.0
0.0 0.08428191973898386 0.07119564997567465 -0.06999949716689974 -0.0011961528087749147 0.030251135340315722 0.0 0.0
0.0 0.07240590758629237 0.0607088640937857 -0.05955769395223145 -0.0011511701415542796 0.027916843203599655 0.0 0.0
0.0 0.06043037591938448 0.05072154459429438 -0.049619198588754285 -0.0011023460055400753 0.02493443665193532 0.0 0.0
0.0 0.049479010271990226 0.041407371294821034 -0.04036329282537758 -0.00104407846944342 0.02165113378593475 0.0 0.0
0.0 0.039344432158941914 0.03285443006247156 -0.03187553127489058 -0.0009788987875810065 0.018297801176566056 0.0 0.0
0.0 0.0301118771114952 0.02507744923267557 -0.02416641409923597 -0.0009110351334396252 0.014932436687548314 0.0 0.0
0.0 0.021753524775618385 0.018083730068676498 -0.01723776536741313 -0.0008459647012633577 0.01151105025295717 0.0 0.0
0.0 0.014265155739142459 0.011954585791108885 -0.01117397533854464 -0.0007806104525642487 0.008089018290339658 0.0 0.0
0.0 0.008579992154458146 0.006882399328672218 -0.006196100349238997 -0.0006862989794332217 0.004895702597044413 0.0 0.0
0.0 0.0037923770024841843 0.003190300444556253 -0.002691231273213854 -0.0004990691713423943 0.0024020984922368364 0.0 0.0
0.0 0.001194199918816241 0.0009824439347314218 -0.0007630280926193496 -0.00021941584211207225 0.0008072129197238075 0.0 0.0
0.0 0.00010203657630834531 8.92483190624844e-05 -6.205926879851589e-05 -2.718905026396861e-05 6.483383859878347e-05 0.0 0.0
0.0 -1.7704666995464033e-05 -1.1593726324316083e-05 9.280636272076677e-06 2.313090052239409e-06 -2.4009546067101977e-05 0.0 0.0
0.0 1.5712585721141057e-07 6.304622253475461e-09 -5.866682076920911e-09 -4.379401765531699e-10 -3.806782869747957e-08 0.0 0.0
0.0 1.5734592914948445e-07 7.148379181953433e-10 -7.331624793983198e-11 -6.415216702555217e-10 -3.250372694055046e-08 0.0 0.0
0.0 0.0007450427778056088 0.0003363513010619592 -0.00016530040122610958 -0.00017105089983584905 0.0012983996030239676 0.0 0.0
0.0 0.003531758483484683 0.002460525774410843 -0.003473164382293145 0.0010126386078823 0.0018458054910164576 0.0 0.0
0.0 0.0026622705894529058 0.001516956547630949 -0.0021716648107870315 0.000654708263156083 -0.0012724921641219748 0.0 0.0
0.0 0.0003288201058714395 0.0001592885931012961 -6.518413021121332e-05 -9.410446289008278e-05 -0.0007376099758759603 0.0 0.0
0.0 9.53788345873661e-07 6.518737786529114e-08 -6.605891013925054e-08 8.715322739597754e-10 -1.2896800702390448e-06 0.0 0.0
0.0 -7.310800511809226e-07 3.305318574040102e-08 -2.60088628044406e-08 -7.044322935960561e-09 -2.382664469376649e-07 0.0 0.0
0.0 -8.937361782915403e-06 -5.6592948324035545e-06 4.50261983139487e-06 1.1566750010086833e-06 1.879968352391799e-05 0.0 0.0
0.0 -2.490771301410126e-06 4.579986480486041e-07 2.0613205465217493e-06 -2.5193191945703853e-06 8.048345704931995e-06 0.0 0.0
0.0 0.0005540238033253224 0.0004158951940357387 -0.0003159408965623928 -9.995429747334553e-05 -0.0005244368309098737 0.0 0.0
0.0 0.0022472783220949468 0.001800327847515634 -0.001471156790668185 -0.00032917105684744863 -0.0018882241094772389 0.0 0.0
0.0 0.005522027662973295 0.004403875898278844 -0.003857837037705186 -0.0005460388605736612 -0.004066633406658771 0.0 0.0
0.0 0.010407767581151233 0.00813943404303544 -0.007472731409560587 -0.0006667026334748462 -0.006924495830477433 0.0 0.0
0.0 0.015836994865031612 0.012747825355137722 -0.012009527937610991 -0.0007382974175267217 -0.010128123043374307 0.0 0.0
0.0 0.022163278002626796 0.01799368462261452 -0.017192919299922633 -0.0008007653226918941 -0.013351173831616511 0.0 0.0
0.0 0.02921663688053271 0.023801853946911877 -0.02293943737769847 -0.0008624165692133911 -0.016517750283362456 0.0 0.0
0.0 0.036891318063137134 0.03019197802463842 -0.029271389682036318 -0.0009205883426020477 -0.019658341304712047 0.0 0.0
0.0 0.04536348303675571 0.03720221275096751 -0.03622783317540779 -0.0009743795755597346 -0.02275374317818194 0.0 0.0
0.0 0.05438375982784643 0.044823979072627425 -0.04380330555846014 -0.0010206735141672406 -0.025612628513815253 0.0 0.0
0.0 0.06413881417024357 0.05296290843035566 -0.05189864494252506 -0.0010642634878305964 -0.027886267167148183 0.0 0.0
0.0 0.07406100447639953 0.06155712131604987 -0.06043465615433713 -0.0011224651617126875 -0.029244739494582287 0.0 0.0
0.0 0.08423222813676703 0.07057265204607112 -0.06940304497535976 -0.001169607070711271 -0.028966237469571686 0.0 0.0
0.0 0.0944419446497884 0.07954699524429554 -0.07839376256386257 -0.001153232680432955 -0.02460779607062462 0.0 0.0
0.0 0.10314134841495388 0.08515609066368567 -0.08513534114524816 -2.0749518437532163e-05 2.3392746073547244e-14 0.0 0.0
0.0 0.09444194464978281 0.07954699524428414 -0.07839376256385114 -0.0011532326804329748 0.02460779607068538 0.0 0.0
0.0 0.08423222813674483 0.07057265204604635 -0.06940304497533434 -0.0011696070707120337 0.028966237469633595 0.0 0.0
0.0 0.07406100447636838 0.061557121316020195 -0.06043465615430791 -0.001122465161712219 0.02924473949461772 0.0 0.0
0.0 0.06413881417020166 0.052962908430320144 -0.05189864494249034 -0.0010642634878297692 0.027886267167150786 0.0 0.0
0.0 0.054383759827804 0.044823979072591946 -0.043803305558425425 -0.0010206735141666098 0.02561262851380018 0.0 0.0
0.0 0.04536348303671105 0.037202212750929685 -0.03622783317537 -0.0009743795755596301 0.0227537431781664 0.0 0.0
0.0 0.03689131806309489 0.030191978024602432 -0.029271389682000503 -0.0009205883426019399 0.019658341304700178 0.0 0.0
0.0 0.02921663688049404 0.023801853946880256 -0.022939437377667012 -0.0008624165692132171 0.016517750283347017 0.0 0.0
0.0 0.02216327800258842 0.017993684622583134 -0.017192919299891623 -0.000800765322691503 0.013351173831595602 0.0 0.0
0.0 0.01583699486499864 0.012747825355111899 -0.012009527937585956 -0.0007382974175259228 0.010128123043351162 0.0 0.0
0.0 0.010407767581123776 0.008139434043014274 -0.0074727314095397014 -0.0006667026334745649 0.006924495830457502 0.0 0.0
0.0 0.005522027662953847 0.004403875898263714 -0.0038578370376909916 -0.0005460388605727266 0.004066633406645977 0.0 0.0
0.0 0.002247278322083506 0.0018003278475068637 -0.001471156790660531 -0.00032917105684633294 0.0018882241094688953 0.0 0.0
0.0 0.0005540238033205528 0.00041589519403256384 -0.00031594089655988765 -9.995429747267575e-05 0.0005244368309055149 0.0 0.0
0.0 -2.490771302002532e-06 4.5799864816255395e-07 2.061320546396369e-06 -2.519319194558857e-06 -8.048345704221256e-06 0.0 0.0
0.0 -8.937361784272795e-06 -5.65929483223644e-06 4.5026198312741265e-06 1.156675000962293e-06 -1.87996835232719e-05 0.0 0.0
0.0 -7.310800512345934e-07 3.305318581088059e-08 -2.6008862849861187e-08 -7.044322961019894e-09 2.3826644800254645e-07 0.0 0.0
0.0 9.537883456166472e-07 6.518737786577493e-08 -6.605891014801068e-08 8.715322822361618e-10 1.2896800704993213e-06 0.0 0.0
0.0 0.0003288201058682015 0.00015928859310002336 -6.518413021040906e-05 -9.410446288961442e-05 0.0007376099758712615 0.0 0.0
0.0 0.002662270589443051 0.0015169565476247982 -0.0021716648107784676 0.0006547082631536702 0.0012724921641179244 0.0 0.0
0.0 0.0013980892566946785 0.0008433805619176699 -0.0012241746855473272 0.0003807941236296571 -0.0008541337240197847 0.0 0.0
0.0 0.00012095738847142568 4.277191509895036e-05 4.2292797830414e-06 -4.7001194881991606e-05 -0.0003143928352856448 0.0 0.0
0.0 2.028288332060955e-06 5.095723355329046e-09 9.936281809536352e-10 -6.089351536281781e-09 4.385196029226678e-07 0.0 0.0
0.0 1.2064977324921203e-06 -1.4825529729366084e-07 1.0956457482288783e-07 3.869072247077291e-08 1.2771005734727764e-06 0.0 0.0
0.0 -7.078853946949957e-06 -2.7523616922619213e-06 2.1907014748928774e-06 5.616602173690476e-07 1.3614180572315327e-05 0.0 0.0
0.0 -2.0473385137722094e-05 -9.072971493507392e-06 7.886181395271734e-06 1.1867900982357004e-06 1.756380212349639e-05 0.0 0.0
0.0 0.0001945443211054356 9.53301433038121e-05 -7.169240612300845e-05 -2.3637737180804004e-05 -0.00023789192920108918 0.0 0.0
0.0 0.00112278117849554 0.0007126601736467028 -0.0005704019254407348 -0.00014225824820596742 -0.0011947613920167681 0.0 0.0
0.0 0.0030643887879669837 0.0022154448479647215 -0.0018800735982910284 -0.0003353712496736924 -0.0029053483899685916 0.0 0.0
0.0 0.006219468584572104 0.004593246908784398 -0.0041044750535183085 -0.000488771855266093 -0.005157622168790124 0.0 0.0
0.0 0.009966376499287194 0.007626974558037217 -0.007043312945061287 -0.00058366161297593 -0.007801737688690835 0.0 0.0
0.0 0.014406791226511671 0.01110241351337322 -0.010452133241382559 -0.0006502802719906566 -0.010545682487116445 0.0 0.0
0.0 0.019235559594515186 0.014944388121581914 -0.014234812024389466 -0.0007095760971924438 -0.013303159543661482 0.0 0.0
0.0 0.024502330353083072 0.019176969027503248 -0.01841574896178276 -0.0007612200657205075 -0.016039547152611064 0.0 0.0
0.0 0.030346776697302368 0.023871422879553624 -0.02306179877819803 -0.0008096241013555803 -0.018737698706510646 0.0 0.0
0.0 0.03682160382077373 0.029098492820101993 -0.028242947175694012 -0.0008555456444079763 -0.021315563463923146 0.0 0.0
0.0 0.043833655870271104 0.034869523958316134 -0.03397012227779018 -0.0008994016805259549 -0.02347722227732061 0.0 0.0
0.0 0.05117430527567487 0.04121334085531325 -0.04025488496518485 -0.0009584558901284479 -0.024809990261279412 0.0 0.0
0.0 0.05948313905517189 0.04844874242752225 -0.04739902028043414 -0.001049722147088097 -0.02512492087929605 0.0 0.0
0.0 0.06925122639112184 0.05683362134236877 -0.05574332163621144 -0.0010902997061573354 -0.023192977553652475 0.0 0.0
0.0 0.07924022315674131 0.06291474067328878 -0.06321656030441719 0.0003018196311283175 2.1983283249316088e-14 0.0 0.0
0.0 0.06925122639112302 0.056833621342362486 -0.05574332163620435 -0.0010902997061581136 0.023192977553705488 0.0 0.0
0.0 0.059483139055158375 0.048448742427504306 -0.04739902028041659 -0.0010497221470876902 0.025124920879352995 0.0 0.0
0.0 0.05117430527565184 0.041213340855292074 -0.040254884965163544 -0.0009584558901285379 0.02480999026130885 0.0 0.0
0.0 0.043833655870240656 0.034869523958292216 -0.03397012227776688 -0.0008994016805253561 0.023477222277317182 0.0 0.0
0.0 0.03682160382074209 0.02909849282007667 -0.028242947175668512 -0.000855545644408124 0.02131556346390682 0.0 0.0
0.0 0.030346776697272752 0.023871422879529657 -0.02306179877817367 -0.0008096241013559978 0.0187376987064977 0.0 0.0
0.0 0.024502330353055705 0.019176969027480204 -0.018415748961760067 -0.0007612200657201521 0.016039547152602845 0.0 0.0
0.0 0.019235559594490075 0.01494438812156205 -0.014234812024370025 -0.0007095760971920181 0.013303159543649279 0.0 0.0
0.0 0.014406791226484267 0.011102413513352949 -0.010452133241362523 -0.0006502802719904175 0.010545682487097266 0.0 0.0
0.0 0.009966376499263503 0.007626974558019525 -0.007043312945044169 -0.0005836616129753483 0.007801737688671016 0.0 0.0
0.0 0.006219468584553009 0.004593246908770553 -0.00410447505350514 -0.0004887718552654184 0.00515762216877443 0.0 0.0
0.0 0.003064388787955668 0.0022154448479565826 -0.001880073598283554 -0.00033537124967302634 0.0029053483899598486 0.0 0.0
0.0 0.0011227811784886156 0.0007126601736422953 -0.000570401925436978 -0.000142258248205317 0.0011947613920100758 0.0 0.0
0.0 0.00019454432110210834 9.533014330278885e-05 -7.169240612224307e-05 -2.363773718054565e-05 0.00023789192919894812 0.0 0.0
0.0 -2.0473385138225055e-05 -9.072971493197744e-06 7.886181395044129e-06 1.1867900981535775e-06 -1.7563802122407562e-05 0.0 0.0
0.0 -7.078853946953232e-06 -2.7523616921150525e-06 2.1907014747840333e-06 5.616602173310259e-07 -1.3614180570999632e-05 0.0 0.0
0.0 1.2064977320040567e-06 -1.4825529733708655e-07 1.0956457485799672e-07 3.869072247909068e-08 -1.2771005735658566e-06 0.0 0.0
0.0 2.028288332262141e-06 5.095723387093677e-09 9.936281451437569e-10 -6.089351532237039e-09 -4.385196018469262e-07 0.0 0.0
0.0 0.00012095738846883651 4.2771915098366204e-05 4.229279783340714e-06 -4.7001194881706604e-05 0.0003143928352831822 0.0 0.0
0.0 0.0013980892566878046 0.0008433805619137216 -0.0012241746855416798 0.00038079412362795683 0.0008541337240167558 0.0 0.0
0.0 0.0006808835352640419 0.0003668700667445323 -0.0005376864772317246 0.0001708164104871929 -0.0004583300530950241 0.0 0.0
0.0 -7.094702359554043e-06 -1.2170323278078093e-05 3.200350913724403e-05 -1.9833185859166004e-05 -5.051068359351811e-05 0.0 0.0
0.0 3.3340653566823868e-06 5.546001399673594e-08 -1.2368415522928122e-07 6.822414123254575e-08 -3.729012475877355e-06 0.0 0.0
0.0 1.658795686714218e-06 -1.3317640674905857e-07 1.2006011017512878e-07 1.3116296573927825e-08 -2.434785282616905e-06 0.0 0.0
0.0 -4.249810317501422e-06 -1.177316881191956e-06 9.883070115615937e-07 1.8900986963037007e-07 9.268180536523702e-06 0.0 0.0
0.0 -4.037185344722171e-06 -4.127370569534317e-06 3.583225241056692e-06 5.441453284775907e-07 1.0100026848329547e-05 0.0 0.0
0.0 7.829167370962955e-05 6.40129306311048e-06 -4.564856818488777e-06 -1.83643624462163e-06 -0.00011325323765425509 0.0 0.0
0.0 0.00035482933359711464 9.844931812788541e-05 -8.288844064007843e-05 -1.556087748780709e-05 -0.0005384229810078865 0.0 0.0
0.0 0.0011124052065195034 0.0005029515457623466 -0.0004428111662162667 -6.014037954607959e-05 -0.0015276345221591813 0.0 0.0
0.0 0.002596314810910766 0.001464432197541669 -0.0013174519721427008 -0.00014698022539896756 -0.003071305316727759 0.0 0.0
0.0 0.0048026473815031626 0.0028916659388648213 -0.0026481065711935494 -0.00024355936767126815 -0.004926167680334435 0.0 0.0
0.0 0.007114028837609252 0.004579871447636754 -0.004254230202023134 -0.00032564124561362535 -0.0069923876072780665 0.0 0.0
0.0 0.00982501633026149 0.006453338486768896 -0.006059818924947599 -0.00039351956182129445 -0.0091789000071289 0.0 0.0
0.0 0.012848235303594784 0.008538795769803152 -0.008088632189126992 -0.00045016358067616054 -0.011436331906013252 0.0 0.0
0.0 0.016204583588989185 0.010914963838096186 -0.01041106942725724 -0.0005038944108389533 -0.013752695882175345 0.0 0.0
0.0 0.020040886297292313 0.013708950263131792 -0.013148770366799506 -0.0005601798963322907 -0.016093866747606055 0.0 0.0
0.0 0.024519116004048682 0.017074893658937784 -0.01645433326334347 -0.0006205603955943148 -0.01826337921099951 0.0 0.0
0.0 0.02966634327908583 0.021143564421525148 -0.020461638141723013 -0.0006819262798021356 -0.019724935775772577 0.0 0.0
0.0 0.03558832559720046 0.02625342372785923 -0.025474325216101316 -0.0007790985117579168 -0.020009211743428082 0.0 0.0
0.0 0.04360744837848422 0.033432503717561644 -0.03248081489278936 -0.0009516888247722449 -0.0197343191065787 0.0 0.0
0.0 0.056479252249650315 0.039908822275397826 -0.040586065153943154 0.0006772428785453783 1.6965595595053173e-14 0.0 0.0
0.0 0.04360744837849515 0.0334325037175619 -0.03248081489278994 -0.0009516888247720354 0.019734319106624085 0.0 0.0
0.0 0.0355883255971883 0.02625342372784467 -0.02547432521608645 -0.0007790985117582069 0.020009211743468282 0.0 0.0
0.0 0.029666343279068367 0.02114356442151131 -0.020461638141709343 -0.0006819262798019574 0.019724935775789175 0.0 0.0
0.0 0.02451911600403041 0.017074893658928152 -0.016454333263334203 -0.000620560395593979 0.01826337921099013 0.0 0.0
0.0 0.020040886297273446 0.013708950263118925 -0.01314877036678615 -0.0005601798963327714 0.016093866747591414 0.0 0.0
0.0 0.016204583588975936 0.010914963838086588 -0.010411069427247805 -0.0005038944108387868 0.013752695882165737 0.0 0.0
0.0 0.01284823530358107 0.008538795769794221 -0.008088632189118055 -0.0004501635806761692 0.011436331906005386 0.0 0.0
0.0 0.009825016330247372 0.006453338486760442 -0.0060598189249391 -0.00039351956182135105 0.009178900007118273 0.0 0.0
0.0 0.007114028837595726 0.0045798714476288195 -0.004254230202015271 -0.0003256412456135469 0.006992387607265098 0.0 0.0
0.0 0.004802647381488525 0.0028916659388566615 -0.0026481065711856057 -0.00024355936767105483 0.004926167680318131 0.0 0.0
0.0 0.0025963148109006957 0.0014644321975354206 -0.0013174519721368665 -0.0001469802253985539 0.003071305316718741 0.0 0.0
0.0 0.0011124052065165499 0.0005029515457607708 -0.00044281116621487404 -6.01403795458962e-05 0.0015276345221556078 0.0 0.0
0.0 0.00035482933359496234 9.844931812731463e-05 -8.288844063953667e-05 -1.5560877487777935e-05 0.0005384229810052036 0.0 0.0
0.0 7.829167370850524e-05 6.401293063132618e-06 -4.564856818503096e-06 -1.8364362446295325e-06 0.00011325323765398735 0.0 0.0
0.0 -4.0371853449911525e-06 -4.127370569283541e-06 3.5832252408608315e-06 5.4414532842271e-07 -1.0100026846863686e-05 0.0 0.0
0.0 -4.24981031798543e-06 -1.1773168811566302e-06 9.88307011540216e-07 1.8900986961641075e-07 -9.2681805355663e-06 0.0 0.0
0.0 1.6587956867314097e-06 -1.3317640677056373e-07 1.2006011019696063e-07 1.3116296573603758e-08 2.434785283443265e-06 0.0 0.0
0.0 3.334065356517723e-06 5.5460014001358276e-08 -1.2368415524566824e-07 6.82241412443064e-08 3.7290124765189184e-06 0.0 0.0
0.0 -7.094702361072579e-06 -1.2170323278270996e-05 3.2003509137301924e-05 -1.983318585903084e-05 5.051068359198998e-05 0.0 0.0
0.0 0.0006808835352593666 0.00036687006674220317 -0.0005376864772283064 0.00017081641048610253 0.00045833005309276853 0.0 0.0
0.0 0.00016958654412471943 9.728054631414214e-05 -0.0001449677264726651 4.768718015852284e-05 -0.0001538034117677415 0.0 0.0
0.0 -2.454261526695568e-05 -1.4098020047761563e-05 2.027209578412734e-05 -6.174075736365751e-06 2.394699832163534e-05 0.0 0.0
0.0 3.5553837220688785e-06 1.6606919964652697e-07 -1.4705362505348023e-07 -1.9015574593050657e-08 2.7149797018374892e-06 0.0 0.0
0.0 3.447022646566431e-06 -3.2045914841203815e-07 2.650401419692835e-07 5.541900644275722e-08 -4.2321241546665834e-06 0.0 0.0
0.0 -3.085878816351484e-07 -4.604422605669443e-07 4.527915714798003e-07 7.650689087141254e-09 1.449603367671674e-06 0.0 0.0
0.0 5.37206990379864e-06 -1.3519194289247087e-06 1.395946378989973e-06 -4.4026950065265164e-08 -1.476560740592866e-06 0.0 0.0
0.0 8.215157104552537e-05 -2.0093368294043147e-06 2.0046292652675633e-06 4.707564136745368e-09 -0.0001187220730563166 0.0 0.0
0.0 0.00021001253860503317 -1.4872025179520473e-06 1.4640987832693891e-06 2.3103734682709648e-08 -0.0003628111902432998 0.0 0.0
0.0 0.0004687488618060472 -3.6405134577513726e-07 3.2775942517230953e-07 3.629192060277945e-08 -0.0007533425040767781 0.0 0.0
0.0 0.0007861489025333786 3.829497113631787e-08 -2.6127378928933887e-08 -1.2167592207719408e-08 -0.0015337668837237478 0.0 0.0
0.0 0.0015198104635378944 -2.171742572207964e-09 4.665010174911854e-08 -4.4478359176673406e-08 -0.0028803571970587778 0.0 0.0
0.0 0.002530377543623896 -9.025874844144843e-06 1.1517925688059143e-05 -2.4920508439145304e-06 -0.004751169219272117 0.0 0.0
0.0 0.0038684036719299113 -2.6225769365101847e-05 3.0135887929705004e-05 -3.910118564601206e-06 -0.006772402311969483 0.0 0.0
0.0 0.005388913270412643 -3.453627451141213e-05 3.555973233406514e-05 -1.0234578226531405e-06 -0.008902014169007242 0.0 0.0
0.0 0.007066792174769312 4.124413230467943e-05 -5.382131288604716e-05 1.2577180581366184e-05 -0.011148128083957324 0.0 0.0
0.0 0.008859084938740002 0.0003681286404798225 -0.0004088253248791568 4.0696684399330263e-05 -0.013501835089817808 0.0 0.0
0.0 0.010805073684065032 0.0012203218668691697 -0.0013088116863221137 8.848981945294685e-05 -0.0158851072893043 0.0 0.0
0.0 0.012829911941354835 0.002841063317183048 -0.0030471346299627902 0.0002060713127797415 -0.018079357396771023 0.0 0.0
0.0 0.015593584406879043 0.004924745028266039 -0.005315529117926912 0.00039078408966087576 -0.019672420639021967 0.0 0.0
0.0 0.022493206718572207 0.009671151278857083 -0.009404190391267083 -0.00026696088759000123 -0.02035387525191114 0.0 0.0
0.0 0.04014684425749064 0.01688324674954323 -0.018161199003975247 0.0012779522544320147 1.3494413919623582e-14 0.0 0.0
0.0 0.022493206718582154 0.009671151278857225 -0.009404190391267844 -0.0002669608875893668 0.020353875251941052 0.0 0.0
0.0 0.015593584406868756 0.004924745028260698 -0.005315529117922338 0.00039078408966162966 0.019672420639031823 0.0 0.0
0.0 0.01282991194134165 0.002841063317180177 -0.0030471346299591347 0.0002060713127789618 0.01807935739676742 0.0 0.0
0.0 0.010805073684056653 0.0012203218668718117 -0.001308811686325287 8.848981945347805e-05 0.015885107289291014 0.0 0.0
0.0 0.008859084938732335 0.0003681286404813278 -0.00040882532488062954 4.069668439929961e-05 0.013501835089806263 0.0 0.0
0.0 0.007066792174758675 4.124413230581687e-05 -5.3821312886676975e-05 1.2577180580862355e-05 0.011148128083945935 0.0 0.0
0.0 0.005388913270405103 -3.453627450757536e-05 3.555973232986082e-05 -1.0234578222856772e-06 0.008902014168997099 0.0 0.0
0.0 0.0038684036719201136 -2.6225769360456257e-05 3.0135887924316086e-05 -3.91011856385907e-06 0.0067724023119563465 0.0 0.0
0.0 0.0025303775436129605 -9.025874841786595e-06 1.1517925685418406e-05 -2.492050843632814e-06 0.0047511692192575 0.0 0.0
0.0 0.0015198104635298253 -2.1717416415559243e-09 4.665010072107804e-08 -4.447835907909521e-08 0.002880357197047154 0.0 0.0
0.0 0.0007861489025309697 3.829497108004778e-08 -2.6127378918925346e-08 -1.2167592160936084e-08 0.0015337668837213081 0.0 0.0
0.0 0.0004687488618054102 -3.6405134582837836e-07 3.277594252728286e-07 3.629192055534306e-08 0.0007533425040759042 0.0 0.0
0.0 0.00021001253860315902 -1.4872025179771987e-06 1.4640987832922692e-06 2.3103734684903252e-08 0.00036281119024000316 0.0 0.0
0.0 8.215157104410566e-05 -2.0093368294013793e-06 2.004629265256342e-06 4.707564145078584e-09 0.00011872207305554575 0.0 0.0
0.0 5.3720699027692136e-06 -1.3519194289161746e-06 1.3959463789807245e-06 -4.4026950064560644e-08 1.4765607406775822e-06 0.0 0.0
0.0 -3.0858788239462225e-07 -4.60442260607755e-07 4.5279157151844494e-07 7.650689089314135e-09 -1.4496033666874123e-06 0.0 0.0
0.0 3.447022646622341e-06 -3.204591484722701e-07 2.6504014202197355e-07 5.541900645029639e-08 4.232124155516827e-06 0.0 0.0
0.0 3.555383721246885e-06 1.6606919963919828e-07 -1.470536250534509e-07 -1.9015574585738675e-08 -2.7149797012392794e-06 0.0 0.0
0.0 -2.4542615266826643e-05 -1.4098020047436279e-05 2.0272095783710656e-05 -6.174075736274412e-06 -2.394699832026863e-05 0.0 0.0
0.0 0.0001695865441224241 9.728054631337959e-05 -0.00014496772647157902 4.768718015819965e-05 0.00015380341176656707 0.0 0.0
0.0 5.732330834695104e-06 1.6663204890426654e-06 -3.0327922594030017e-06 1.366471770360301e-06 -2.079808222089267e-06 0.0 0.0
0.0 -1.2535045570516178e-06 -3.779955828213308e-07 6.009307995849064e-07 -2.2293521676357558e-07 2.4153390424378647e-06 0.0 0.0
0.0 1.069929766727447e-06 1.5250117673221128e-07 -2.1544544449918463e-07 6.294426776697302e-08 -1.9537609598592507e-06 0.0 0.0
0.0 5.599161109499955e-06 -3.832808320076754e-07 2.9889378754144895e-07 8.438704446622699e-08 -5.1944720950982745e-06 0.0 0.0
0.0 3.4395034306149025e-06 -6.554248862591756e-07 6.18902648143933e-07 3.652223811524292e-08 -5.821281035145746e-06 0.0 0.0
0.0 8.105342709468552e-06 -1.4177192303369921e-06 1.5197971968928833e-06 -1.0207796655584595e-07 -1.8925115108137543e-05 0.0 0.0
0.0 0.00010989952533978074 -1.2855732562896779e-05 1.0558959665503701e-05 2.296772897392993e-06 -0.0001320179293236254 0.0 0.0
0.0 0.0003718310756485709 -0.00010526281007764817 8.888902768876814e-05 1.637378238887988e-05 -0.0005556165675317349 0.0 0.0
0.0 0.001117454779959673 -0.0005052358015458899 0.0004447257878198468 6.0510013726043145e-05 -0.0015361251995844414 0.0 0.0
0.0 0.0025948382990969086 -0.0014637583126192238 0.0013167953366743231 0.00014696297594490084 -0.0030714820358706155 0.0 0.0
0.0 0.004818444064248366 -0.002895671268890848 0.002651586762261016 0.00024408450662983104 -0.0049247532967807385 0.0 0.0
0.0 0.007158043517036068 -0.004609393688605735 0.004280227310261939 0.0003291663783437953 -0.00699965295492443 0.0 0.0
0.0 0.009899615430811264 -0.0065216728450519035 0.006123945498836412 0.0003977273462154871 -0.00918381199218603 0.0 0.0
0.0 0.01291096373434593 -0.008607475793929668 0.008161461333943357 0.0004460144599863168 -0.01142530736752792 0.0 0.0
0.0 0.016004208939384323 -0.010772946133062377 0.010301910853221642 0.00047103527984073155 -0.013741393727704372 0.0 0.0
0.0 0.019001339555113683 -0.012785584723456348 0.012319068378305131 0.0004665163451512127 -0.01618500507116285 0.0 0.0
0.0 0.021479408601813785 -0.014260071104957405 0.01383536539433741 0.00042470571061999513 -0.01878348440386542 0.0 0.0
0.0 0.023214551428767813 -0.014718491758294415 0.014382901505809308 0.00033559025248511916 -0.02162445801685664 0.0 0.0
0.0 0.023271755116120806 -0.013607815137910123 0.013477365447035742 0.00013044969087438974 -0.02466065524693753 0.0 0.0
0.0 0.018968312724586725 -0.009884971793239645 0.010329498269286995 -0.00044452647604735723 -0.026700427461751733 0.0 0.0
0.0 0.03880780409967877 -0.005674106719732943 0.0029992245575955674 0.0026748821621373708 1.8492152253912764e-14 0.0 0.0
0.0 0.01896831272459297 -0.009884971793239114 0.010329498269286384 -0.0004445264760472741 0.026700427461770888 0.0 0.0
0.0 0.023271755116119036 -0.013607815137905422 0.013477365447031832 0.00013044969087358668 0.024660655246957562 0.0 0.0
0.0 0.023214551428751354 -0.014718491758283408 0.014382901505798079 0.00033559025248533166 0.021624458016855707 0.0 0.0
0.0 0.02147940860179244 -0.014260071104942398 0.013835365394322122 0.0004247057106202928 0.01878348440385429 0.0 0.0
0.0 0.019001339555091826 -0.012785584723440432 0.012319068378289538 0.00046651634515090313 0.016185005071146764 0.0 0.0
0.0 0.01600420893936582 -0.010772946133047695 0.010301910853207641 0.00047103527984004216 0.01374139372769057 0.0 0.0
0.0 0.012910963734325698 -0.00860747579391392 0.008161461333927963 0.0004460144599859543 0.011425307367515158 0.0 0.0
0.0 0.009899615430790352 -0.006521672845036402 0.0061239454988217595 0.0003977273462146472 0.009183811992172393 0.0 0.0
0.0 0.007158043517013681 -0.004609393688590108 0.004280227310247205 0.000329166378342895 0.006999652954905526 0.0 0.0
0.0 0.004818444064230594 -0.002895671268879564 0.0026515867622507044 0.00024408450662886168 0.004924753296765009 0.0 0.0
0.0 0.0025948382990848883 -0.0014637583126112567 0.0013167953366670785 0.0001469629759441791 0.003071482035860703 0.0 0.0
0.0 0.0011174547799545432 -0.0005052358015430972 0.000444725787817274 6.051001372582281e-05 0.0015361251995790444 0.0 0.0
0.0 0.0003718310756444489 -0.00010526281007636698 8.88890276877476e-05 1.6373782388619593e-05 0.0005556165675263723 0.0 0.0
0.0 0.00010989952533754316 -1.2855732562703574e-05 1.0558959665344529e-05 2.2967728973590264e-06 0.00013201792932203968 0.0 0.0
0.0 8.105342709242046e-06 -1.417719230609794e-06 1.5197971971151022e-06 -1.0207796650530212e-07 1.8925115109945477e-05 0.0 0.0
0.0 3.439503430169663e-06 -6.554248863705381e-07 6.189026482377773e-07 3.6522238132749363e-08 5.82128103604939e-06 0.0 0.0
0.0 5.599161108929889e-06 -3.8328083210162005e-07 2.9889378761893843e-07 8.43870444826798e-08 5.194472095917321e-06 0.0 0.0
0.0 1.0699297662764134e-06 1.525011767185709e-07 -2.1544544449704751e-07 6.294426777847227e-08 1.953760960395814e-06 0.0 0.0
0.0 -1.253504557205093e-06 -3.779955828975946e-07 6.009307996739574e-07 -2.2293521677636644e-07 -2.415339042590996e-06 0.0 0.0
0.0 5.732330833213527e-06 1.666320489407854e-06 -3.0327922599444366e-06 1.3664717705366056e-06 2.0798082228880716e-06 0.0 0.0
0.0 2.034611343575935e-06 -1.1794173393863115e-07 1.8495244463876623e-07 -6.701071070005743e-08 2.736999519842078e-07 0.0 0.0
0.0 6.251209831036586e-07 3.887630632975241e-08 -1.992257402837884e-08 -1.8953732301388586e-08 4.811274697615244e-07 0.0 0.0
0.0 -1.1327749775704512e-06 4.944118372021352e-07 -4.198240837550585e-07 -7.458775344708621e-08 3.0334075228024265e-06 0.0 0.0
0.0 3.103264635790726e-06 -6.521165041811501e-07 5.050067659387394e-07 1.4710973824240016e-07 -6.388472439679462e-06 0.0 0.0
0.0 6.4860744054631075e-06 1.6557533590153732e-06 -1.3114956125942068e-06 -3.442577464211012e-07 3.885178926311955e-06 0.0 0.0
0.0 3.3369916232373864e-05 -2.5846630777346797e-06 2.161238509317769e-06 4.234245684168698e-07 -2.0788312703401196e-05 0.0 0.0
0.0 0.00021860849604547484 -0.00011984927129012952 9.258404426739688e-05 2.7265227022732835e-05 -0.00030849042176255405 0.0 0.0
0.0 0.001145003541570753 -0.0007225589725683619 0.0005792495247977217 0.00014330944777063984 -0.0012207667608458504 0.0 0.0
0.0 0.0030654750692499858 -0.0022153118325185924 0.0018797447808756164 0.0003355670516429752 -0.002910789131164122 0.0 0.0
0.0 0.006217239267484906 -0.0045923995597802695 0.00410356196172438 0.0004888375980558871 -0.005155510069377357 0.0 0.0
0.0 0.009975021643156202 -0.007634562923612867 0.007050630413867492 0.0005839325097453703 -0.007803721666153146 0.0 0.0
0.0 0.01443890311489353 -0.011130262598192001 0.010479115965672739 0.0006511466325192719 -0.010545576294462103 0.0 0.0
0.0 0.019293128939962413 -0.0150026476631043 0.01429266441996118 0.0007099832431431139 -0.013263628728104621 0.0 0.0
0.0 0.02453123165159719 -0.019228536771917538 0.018472644511026787 0.0007558922608907298 -0.015930404514313976 0.0 0.0
0.0 0.03012855364082724 -0.023715784191450373 0.02292990846060773 0.0007858757308426419 -0.01864496265529144 0.0 0.0
0.0 0.035811009744928866 -0.028201985671451782 0.02740753517691887 0.0007944504945329066 -0.02161407534751541 0.0 0.0
0.0 0.041042098715727594 -0.03223070222787467 0.031447121611204255 0.0007835806166703978 -0.02505478810836257 0.0 0.0
0.0 0.04499295086928688 -0.03518470685842577 0.034427423032071316 0.0007572838263544754 -0.02906795400380028 0.0 0.0
0.0 0.04691792814904859 -0.035974784059238124 0.03531634509969505 0.0006584389595430552 -0.03289748402152777 0.0 0.0
0.0 0.04377784247459019 -0.032252899556396306 0.031809504906862456 0.0004433946495338365 -0.03386509558764293 0.0 0.0
0.0 0.047606620474954675 -0.02627730504881207 0.022824966428861913 0.0034523386199501365 2.0845304649075302e-14 0.0 0.0
0.0 0.043777842474599316 -0.032252899556393134 0.03180950490685999 0.0004433946495331362 0.033865095587689756 0.0 0.0
0.0 0.046917928149045024 -0.03597478405922798 0.03531634509968452 0.0006584389595434473 0.03289748402157162 0.0 0.0
0.0 0.044992950869260924 -0.03518470685840259 0.034427423032048515 0.0007572838263540679 0.029067954003812756 0.0 0.0
0.0 0.041042098715691554 -0.032230702227845374 0.031447121611175174 0.0007835806166701948 0.02505478810835436 0.0 0.0
0.0 0.03581100974489106 -0.028201985671421084 0.02740753517688832 0.0007944504945327265 0.02161407534749675 0.0 0.0
0.0 0.03012855364079368 -0.023715784191423166 0.022929908460581166 0.000785875730842006 0.018644962655273774 0.0 0.0
0.0 0.024531231651562846 -0.019228536771888367 0.018472644510997983 0.000755892260890362 0.015930404514298037 0.0 0.0
0.0 0.01929312893992751 -0.01500264766307638 0.014292664419933186 0.000709983243143194 0.01326362872808749 0.0 0.0
0.0 0.014438903114856058 -0.01113026259816323 0.010479115965644438 0.0006511466325187926 0.010545576294437092 0.0 0.0
0.0 0.009975021643127743 -0.007634562923591483 0.0070506304138460395 0.0005839325097454452 0.0078037216661306615 0.0 0.0
0.0 0.006217239267459684 -0.004592399559761591 0.004103561961706095 0.0004888375980554967 0.005155510069358124 0.0 0.0
0.0 0.0030654750692359926 -0.0022153118325080076 0.0018797447808661966 0.00033556705164181316 0.002910789131154264 0.0 0.0
0.0 0.0011450035415623732 -0.0007225589725628239 0.0005792495247932034 0.0001433094477696192 0.0012207667608377458 0.0 0.0
0.0 0.00021860849604240677 -0.00011984927128913615 9.258404426665683e-05 2.7265227022479473e-05 0.0003084904217605155 0.0 0.0
0.0 3.3369916231703e-05 -2.5846630779926504e-06 2.161238509504744e-06 4.234245684878105e-07 2.078831270420074e-05 0.0 0.0
0.0 6.4860744045162144e-06 1.6557533588780067e-06 -1.3114956124780135e-06 -3.4425774639998586e-07 -3.885178925597291e-06 0.0 0.0
0.0 3.10326463552351e-06 -6.52116504307377e-07 5.050067660436264e-07 1.4710973826375505e-07 6.388472440514172e-06 0.0 0.0
0.0 -1.1327749779098673e-06 4.944118371487182e-07 -4.1982408372907355e-07 -7.458775341963973e-08 -3.0334075218602095e-06 0.0 0.0
0.0 6.251209826830287e-07 3.887630635195513e-08 -1.9922574042307657e-08 -1.8953732309644798e-08 -4.811274700757248e-07 0.0 0.0
0.0 2.034611343773175e-06 -1.1794173394994551e-07 1.849524446547311e-07 -6.701071070482646e-08 -2.7369995201493404e-07 0.0 0.0
0.0 0.0 0.0 0.0 0.0 0.0 0.0 0.0
0.0 1.3276389364345765e-07 -5.455542211733353e-10 4.44852379643495e-09 -3.902969575265833e-09 1.6484704992303813e-08 0.0 0.0
0.0 -1.7271167444756533e-07 5.032337046392352e-07 -4.0140344586317193e-07 -1.0183025877605592e-07 2.735176782280115e-06 0.0 0.0
0.0 1.519718880240771e-06 1.1593707114587745e-06 -9.820196593286172e-07 -1.7735105213015843e-07 1.955774506005922e-06 0.0 0.0
0.0 5.489451740648878e-06 1.12122168395623e-06 -8.543803427925224e-07 -2.668413411637519e-07 -3.386746393109871e-06 0.0 0.0
0.0 5.4626483861143306e-05 -4.265175425603885e-05 3.2391958881074255e-05 1.025979537496472e-05 -9.071546133893614e-05 0.0 0.0
0.0 0.0006409689435073857 -0.0004414503277505676 0.0003395266863330137 0.00010192364141755348 -0.0005781276959325403 0.0 0.0
0.0 0.0022645555174562733 -0.0018039327014392156 0.001474681097751199 0.00032925160368801545 -0.001907490110532365 0.0 0.0
0.0 0.0055180609527644186 -0.004400209500979568 0.0038539925479646564 0.0005462169530149071 -0.0040648294671426 0.0 0.0
0.0 0.0104084823166303 -0.008140091320342793 0.007473354864566904 0.0006667364557758966 -0.0069218573386319055 0.0 0.0
0.0 0.01584371339063729 -0.012757037475023861 0.012018966350651387 0.0007380711243724754 -0.01013126760894144 0.0 0.0
0.0 0.022185034407542107 -0.018013070620787205 0.01721240878768494 0.000800661833102247 -0.013338151008829825 0.0 0.0
0.0 0.02923521888691819 -0.023830283684419733 0.022968150526699913 0.0008621331577198329 -0.016424420598414285 0.0 0.0
0.0 0.036855489895668586 -0.030197847011929676 0.029281368969327044 0.0009164780426025856 -0.019423386521337113 0.0 0.0
0.0 0.04511189661451984 -0.0370350536071052 0.036079294725647235 0.0009557588814580005 -0.022525560952232345 0.0 0.0
0.0 0.0535323118456357 -0.04406745992846499 0.043095674976803076 0.0009717849516618507 -0.02610234418972121 0.0 0.0
0.0 0.06189710253371654 -0.05073086326095121 0.049768924481024546 0.0009619387799266064 -0.030594832492165085 0.0 0.0
0.0 0.06868406076171693 -0.05605218052640114 0.05514345484905839 0.0009087256773427116 -0.035914826162091726 0.0 0.0
0.0 0.07209966332426979 -0.058318653769188475 0.05752647261206152 0.000792181157126898 -0.04062149553695194 0.0 0.0
0.0 0.0681009011286444 -0.054255166548870436 0.05376559710559493 0.0004895694432755087 -0.04195808377987789 0.0 0.0
0.0 0.065902473066054 -0.046405656897783164 0.042237430066531606 0.004168226831251562 2.271099974748836e-14 0.0 0.0
0.0 0.06810090112864343 -0.05425516654885934 0.05376559710558407 0.0004895694432753178 0.04195808377993044 0.0 0.0
0.0 0.07209966332426017 -0.0583186537691717 0.05752647261204494 0.0007921811571267011 0.0406214955370071 0.0 0.0
0.0 0.06868406076168215 -0.05605218052636821 0.05514345484902636 0.0009087256773418138 0.03591482616211527 0.0 0.0
0.0 0.061897102533667744 -0.05073086326091015 0.0497689244809834 0.0009619387799268007 0.03059483249215904 0.0 0.0
0.0 0.05353231184558459 -0.04406745992842194 0.043095674976760326 0.0009717849516616209 0.026102344189702937 0.0 0.0
0.0 0.045111896614471805 -0.0370350536070653 0.036079294725607836 0.0009557588814574526 0.02252556095221231 0.0 0.0
0.0 0.036855489895617925 -0.03019784701188684 0.029281368969284648 0.0009164780426021866 0.01942338652131745 0.0 0.0
0.0 0.029235218886867007 -0.02383028368437743 0.022968150526657558 0.00086213315771986 0.016424420598393646 0.0 0.0
0.0 0.02218503440749174 -0.018013070620746634 0.017212408787644958 0.0008006618331016707 0.013338151008802113 0.0 0.0
0.0 0.01584371339059592 -0.01275703747499117 0.012018966350618806 0.0007380711243723611 0.01013126760891434 0.0 0.0
0.0 0.010408482316595831 -0.008140091320315467 0.0074733548645402 0.000666736455775262 0.006921857338609354 0.0 0.0
0.0 0.005518060952742696 -0.004400209500962585 0.003853992547948896 0.0005462169530136884 0.004064829467129263 0.0 0.0
0.0 0.002264555517442422 -0.0018039327014285028 0.0014746810977419682 0.0003292516036865359 0.0019074901105223725 0.0 0.0
0.0 0.000640968943501905 -0.00044145032774718705 0.00033952668633034714 0.00010192364141683941 0.0005781276959282902 0.0 0.0
0.0 5.4626483859249964e-05 -4.2651754255573935e-05 3.239195888074204e-05 1.0259795374831863e-05 9.071546133823346e-05 0.0 0.0
0.0 5.489451740536631e-06 1.1212216835373822e-06 -8.543803424583387e-07 -2.668413410790361e-07 3.3867463942254696e-06 0.0 0.0
0.0 1.519718879597276e-06 1.1593707113022705e-06 -9.820196591991077e-07 -1.773510521031608e-07 -1.9557745051302924e-06 0.0 0.0
0.0 -1.727116750400272e-07 5.032337046834275e-07 -4.014034458984095e-07 -1.0183025878502494e-07 -2.7351767825985e-06 0.0 0.0
0.0 1.3276389339011145e-07 -5.455542271304953e-10 4.448523796748568e-09 -3.9029695696151825e-09 -1.6484704891766514e-08 0.0 0.0
0.0 0.0 0.0 0.0 0.0 0.0 0.0 0.0
0.0 0.0 0.0 0.0 0.0 0.0 0.0 0.0
0.0 -1.2025212151614905e-07 -2.8111852206668733e-09 1.9303984439410896e-09 8.807867767261456e-10 -2.3879236813071873e-08 0.0 0.0
0.0 -2.957316136563999e-07 3.473531910463703e-07 -2.76990962044646e-07 -7.036222900172681e-08 1.443580443476494e-06 0.0 0.0
0.0 -2.763780253752617e-06 8.06842893048163e-07 -6.774193907355225e-07 -1.2942350231262967e-07 9.204820176442904e-07 0.0 0.0
0.0 5.964996564956139e-06 2.9642845225419064e-06 -2.760148715404961e-06 -2.041358071369439e-07 4.610852704547875e-06 0.0 0.0
0.0 0.0002148026121920903 -0.00014089398340116585 0.0001053719785329703 3.552200486819545e-05 -0.00015335040259417638 0.0 0.0
0.0 0.0012181373247547808 -0.0010090179039664 0.0007886092163400143 0.0002204086876263857 -0.0008737842750770083 0.0 0.0
0.0 0.00379600137888353 -0.003185622301128871 0.0026865736616923518 0.0004990486394365193 -0.002410812490034628 0.0 0.0
0.0 0.008574113634979948 -0.006878042235003958 0.006191357783282565 0.0006866844517213889 -0.00488926012126372 0.0 0.0
0.0 0.014267991750787136 -0.01195806065970991 0.0111775607914812 0.000780499868228714 -0.008087521396850266 0.0 0.0
0.0 0.02176572622620727 -0.01809282212417771 0.017247582199762697 0.0008452399244150118 -0.011513099120636422 0.0 0.0
0.0 0.03011522988593277 -0.025081617434193876 0.024171871072432648 0.0009097463617612086 -0.014905818997377269 0.0 0.0
0.0 0.03930835198621141 -0.03283612055677215 0.03185847932888255 0.0009776412278896204 -0.018160733205399123 0.0 0.0
0.0 0.0493601648059124 -0.04134355793072895 0.040301343817005605 0.0010422141137233299 -0.021318679306619945 0.0 0.0
0.0 0.06016138660681877 -0.05054669216461371 0.04945384015088454 0.0010928520137291784 -0.02458766524136321 0.0 0.0
0.0 0.07178496218403184 -0.06016480987868692 0.059049384278315194 0.0011154256003717282 -0.028470445379080563 0.0 0.0
0.0 0.08261020201026469 -0.06947745771720296 0.06838232317288845 0.0010951345443144622 -0.03350920306010334 0.0 0.0
0.0 0.09220645102115885 -0.07706306722670063 0.07604959673861923 0.0010134704880813633 -0.03953227178376852 0.0 0.0
0.0 0.09709423223736294 -0.0804735173997688 0.07963745722324436 0.0008360601765244312 -0.04497439486686559 0.0 0.0
0.0 0.09209321323808056 -0.07562130561888748 0.07513084316311067 0.0004904624557768386 -0.04684702013929933 0.0 0.0
0.0 0.08602946025408437 -0.06609217678364218 0.061305111424791545 0.004787065358850475 2.4433580159133328e-14 0.0 0.0
0.0 0.09209321323807769 -0.07562130561887528 0.07513084316309916 0.0004904624557761316 0.04684702013935607 0.0 0.0
0.0 0.09709423223734331 -0.08047351739974451 0.07963745722322006 0.0008360601765243738 0.0449743948669241 0.0 0.0
0.0 0.09220645102111376 -0.07706306722665919 0.0760495967385771 0.0010134704880819048 0.03953227178379696 0.0 0.0
0.0 0.08261020201020444 -0.06947745771715116 0.06838232317283637 0.001095134544314871 0.03350920306010028 0.0 0.0
0.0 0.07178496218396795 -0.06016480987863272 0.059049384278260814 0.0011154256003718405 0.02847044537906333 0.0 0.0
0.0 0.060161386606757586 -0.05054669216456145 0.049453840150833095 0.0010928520137283876 0.024587665241343076 0.0 0.0
0.0 0.04936016480585005 -0.04134355793067555 0.040301343816952655 0.0010422141137229088 0.021318679306600433 0.0 0.0
0.0 0.03930835198614655 -0.03283612055671761 0.031858479328827904 0.0009776412278897108 0.018160733205376978 0.0 0.0
0.0 0.030115229885875457 -0.025081617434145696 0.024171871072385342 0.0009097463617603597 0.014905818997351902 0.0 0.0
0.0 0.02176572622615658 -0.01809282212413588 0.017247582199721376 0.0008452399244145 0.011513099120607469 0.0 0.0
0.0 0.014267991750746082 -0.011958060659675904 0.011177560791447402 0.0007804998682285085 0.008087521396826058 0.0 0.0
0.0 0.008574113634948673 -0.006878042234979386 0.006191357783258828 0.0006866844517205602 0.004889260121246718 0.0 0.0
0.0 0.003796001378864737 -0.0031856223011139336 0.002686573661678863 0.0004990486394350699 0.002410812490023806 0.0 0.0
0.0 0.0012181373247446162 -0.001009017903958966 0.0007886092163339154 0.00022040868762505058 0.000873784275070496 0.0 0.0
0.0 0.00021480261218893924 -0.00014089398339948327 0.00010537197853169433 3.5522004867789016e-05 0.00015335040259249476 0.0 0.0
0.0 5.964996564487455e-06 2.96428452202747e-06 -2.7601487149890354e-06 -2.04135807038419e-07 -4.610852703493734e-06 0.0 0.0
0.0 -2.7637802536605882e-06 8.068428926953891e-07 -6.774193904598196e-07 -1.2942350223555248e-07 -9.20482016494739e-07 0.0 0.0
0.0 -2.9573161389019636e-07 3.473531910823276e-07 -2.7699096207486097e-07 -7.036222900746664e-08 -1.4435804436244788e-06 0.0 0.0
0.0 -1.2025212151506954e-07 -2.8111852205958148e-09 1.930398443898689e-09 8.807867766964716e-10 2.387923681280424e-08 0.0 0.0
0.0 0.0 0.0 0.0 0.0 0.0 0.0 0.0
0.0 0.0 0.0 0.0 0.0 0.0 0.0 0.0
0.0 0.0 0.0 0.0 0.0 0.0 0.0 0.0
0.0 -3.7349683069659915e-07 8.475343136413514e-08 -6.633311125029249e-08 -1.8420320113843953e-08 2.7632754217636054e-07 0.0 0.0
0.0 -3.6423470087434384e-06 2.8872287072175923e-06 -2.335602957311293e-06 -5.516257499062748e-07 5.8360001160783545e-06 0.0 0.0
0.0 5.4466226054089215e-06 -1.275237588786267e-05 8.52412287839499e-06 4.2282530094676595e-06 -1.1831705300723062e-05 0.0 0.0
0.0 0.00046479205228170414 -0.00035362356386486275 0.0002653558774006462 8.826768646421635e-05 -0.00024228463720498946 0.0 0.0
0.0 0.002045276886737814 -0.0017773401290428774 0.0014232048711210706 0.0003541352579218067 -0.00105009822462991 0.0 0.0
0.0 0.005828380912597222 -0.004793826800702817 0.004160868592956887 0.0006329582077459322 -0.0026992756993646605 0.0 0.0
0.0 0.011092774428219848 -0.009582068048785185 0.008796117382338965 0.0007859506664462145 -0.0053224588485363275 0.0 0.0
0.0 0.018746867850404983 -0.015913424067975777 0.015046623390171088 0.000866800677804703 -0.008506240072815531 0.0 0.0
0.0 0.02778227432288435 -0.023544311281470384 0.02261148090977918 0.0009328303716911847 -0.011895736709603151 0.0 0.0
0.0 0.038067809177954166 -0.03226155008151825 0.03125890969118267 0.001002640390335613 -0.01525058541753793 0.0 0.0
0.0 0.049468181614302095 -0.04195253043472637 0.04087548447055498 0.0010770459641712615 -0.018482556431389473 0.0 0.0
0.0 0.06202467863382499 -0.052591712804831915 0.05144126726740656 0.0011504455374254509 -0.02162687696193949 0.0 0.0
0.0 0.07547759179701309 -0.0641455401878728 0.06293200615171886 0.001213534036153931 -0.024850385452784868 0.0 0.0
0.0 0.08959912829039855 -0.07632761166710836 0.07508495914281267 0.0012426525242956237 -0.02859783214826891 0.0 0.0
0.0 0.10394954659768879 -0.08823281296496875 0.08702421590902858 0.0012085970559401896 -0.03350162229225317 0.0 0.0
0.0 0.11563509152600847 -0.09797865263332922 0.09689222976777738 0.0010864228655516918 -0.03964395329284384 0.0 0.0
0.0 0.12121745561256049 -0.10237704624653803 0.10152193419541679 0.0008551120511212282 -0.0457281373334435 0.0 0.0
0.0 0.11569882602507935 -0.09677676801046967 0.0962845068767138 0.0004922611337559175 -0.04972418662484625 0.0 0.0
0.0 0.10761647997102326 -0.0858302190568445 0.08050123798823075 0.0053289810686137406 2.4981752777542e-14 0.0 0.0
0.0 0.11569882602507009 -0.09677676801045287 0.09628450687669832 0.0004922611337546623 0.049724186624904396 0.0 0.0
0.0 0.12121745561252749 -0.10237704624650376 0.10152193419538194 0.0008551120511217957 0.04572813733350147 0.0 0.0
0.0 0.11563509152595702 -0.09797865263328191 0.09689222976773057 0.0010864228655513212 0.03964395329287483 0.0 0.0
0.0 0.1039495465976179 -0.08823281296490759 0.08702421590896697 0.0012085970559405322 0.03350162229225262 0.0 0.0
0.0 0.08959912829032501 -0.07632761166704516 0.07508495914274965 0.0012426525242955025 0.02859783214825575 0.0 0.0
0.0 0.07547759179693653 -0.06414554018780713 0.0629320061516535 0.00121353403615358 0.024850385452768294 0.0 0.0
0.0 0.062024678633749386 -0.05259171280476645 0.051441267267341814 0.0011504455374246297 0.02162687696191982 0.0 0.0
0.0 0.04946818161422297 -0.041952530434658845 0.04087548447048725 0.001077045964171553 0.018482556431368292 0.0 0.0
0.0 0.038067809177885006 -0.0322615500814596 0.03125890969112469 0.0010026403903348852 0.0152505854175132 0.0 0.0
0.0 0.02778227432282264 -0.023544311281418647 0.022611480909727914 0.00093283037169073 0.01189573670957456 0.0 0.0
0.0 0.0187468678503535 -0.015913424067932745 0.015046623390128213 0.0008668006778045287 0.008506240072790652 0.0 0.0
0.0 0.011092774428183402 -0.009582068048753422 0.008796117382308004 0.0007859506664454169 0.0053224588485187374 0.0 0.0
0.0 0.005828380912572204 -0.00479382680068276 0.004160868592937959 0.000632958207744801 0.0026992756993530057 0.0 0.0
0.0 0.002045276886724452 -0.0017773401290319712 0.0014232048711119436 0.0003541352579200273 0.0010500982246231918 0.0 0.0
0.0 0.00046479205227689647 -0.000353623563861813 0.00026535587739834674 8.826768646346592e-05 0.00024228463720289565 0.0 0.0
0.0 5.446622604839193e-06 -1.275237588813001e-05 8.524122878622149e-06 4.22825300950782e-06 1.1831705301306883e-05 0.0 0.0
0.0 -3.642347009371752e-06 2.887228707166836e-06 -2.335602957270216e-06 -5.516257498966137e-07 -5.836000115830403e-06 0.0 0.0
0.0 -3.7349683052302754e-07 8.475343139518557e-08 -6.633311127497358e-08 -1.8420320120210593e-08 -2.7632754227569463e-07 0.0 0.0
0.0 0.0 0.0 0.0 0.0 0.0 0.0 0.0
0.0 0.0 0.0 0.0 0.0 0.0 0.0 0.0
0.0 0.0 0.0 0.0 0.0 0.0 0.0 0.0
0.0 0.0 0.0 0.0 0.0 0.0 0.0 0.0
0.0 -1.9259891853480113e-07 -1.2438204119640457e-08 9.900711751953166e-09 2.537492367688598e-09 -3.208399983975565e-08 0.0 0.0
0.0 -5.145873695280879e-06 2.818243554581018e-06 -2.301418657630694e-06 -5.168248969503523e-07 4.836137081505338e-06 0.0 0.0
0.0 5.929540530997722e-05 -3.989117390370044e-05 2.7069256397457046e-05 1.2821917506243478e-05 -1.4686071540030449e-05 0.0 0.0
0.0 0.000754761415864046 -0.0007109005882648231 0.0005396694229581567 0.00017123116530666589 -0.00032176921140800294 0.0 0.0
0.0 0.0032561663073372303 -0.0027203069749993708 0.0022387443845256 0.00048156259047377035 -0.001098319844443659 0.0 0.0
0.0 0.007500909740338059 -0.006603503683289926 0.0058692172460405485 0.0007342864372493832 -0.0027745797640658593 0.0 0.0
0.0 0.014281076101708009 -0.012388951363381771 0.011527873391204216 0.0008610779721775543 -0.005222705708724709 0.0 0.0
0.0 0.023162386831141236 -0.019949688783694648 0.019010096221331017 0.0009395925623636445 -0.00815419143206686 0.0 0.0
0.0 0.03386817001701349 -0.02905993591770592 0.028049076297529806 0.0010108596201761138 -0.01129667887950574 0.0 0.0
0.0 0.04612217528834612 -0.039499830780904195 0.03841341664986039 0.0010864141310438042 -0.014406165306032717 0.0 0.0
0.0 0.059810927222177374 -0.05113117813581473 0.04996483416646422 0.0011663439693504465 -0.01741864109804856 0.0 0.0
0.0 0.07447467622461702 -0.06390045731168592 0.06265339933292799 0.0012470579787579499 -0.020381704711114817 0.0 0.0
0.0 0.090681115996813 -0.07774824954472889 0.0764288436595412 0.0013194058851878278 -0.02335988728583097 0.0 0.0
0.0 0.1077852651119425 -0.09238629617029717 0.09102881456174247 0.0013574816085545516 -0.02657408757503362 0.0 0.0
0.0 0.12445400359213453 -0.10679194378379187 0.1054765736662682 0.001315370117523639 -0.030649089580882343 0.0 0.0
0.0 0.13850634532325912 -0.11865102058357414 0.11749675803759094 0.0011542625459832648 -0.03626918532050169 0.0 0.0
0.0 0.14548097686780095 -0.12414314620168447 0.12327078246953015 0.0008723637321541435 -0.04328113522465386 0.0 0.0
0.0 0.13948750615373218 -0.11811798873325599 0.1176336700122009 0.00048431872105505287 -0.05107892847963664 0.0 0.0
0.0 0.1298191552716407 -0.10603542085687145 0.10023435370048277 0.00580106715638877 2.3295601558892542e-14 0.0 0.0
0.0 0.1394875061537145 -0.11811798873323347 0.1176336700121789 0.000484318721054475 0.051078928479693794 0.0 0.0
0.0 0.14548097686775646 -0.12414314620164175 0.1232707824694865 0.0008723637321551303 0.043281135224708125 0.0 0.0
0.0 0.13850634532319245 -0.11865102058351511 0.11749675803753185 0.0011542625459832717 0.036269185320529036 0.0 0.0
0.0 0.12445400359205389 -0.106791943783722 0.1054765736661982 0.001315370117523758 0.030649089580882645 0.0 0.0
0.0 0.10778526511185602 -0.0923862961702217 0.09102881456166827 0.0013574816085534043 0.026574087575024528 0.0 0.0
0.0 0.09068111599672236 -0.0777482495446508 0.0764288436594635 0.0013194058851873254 0.023359887285817504 0.0 0.0
0.0 0.07447467622452397 -0.06390045731160567 0.06265339933284844 0.0012470579787571606 0.02038170471109599 0.0 0.0
0.0 0.059810927222088285 -0.05113117813573778 0.04996483416638729 0.0011663439693504866 0.017418641098029077 0.0 0.0
0.0 0.04612217528826349 -0.039499830780833585 0.03841341664979021 0.0010864141310433578 0.014406165306008682 0.0 0.0
0.0 0.03386817001694229 -0.02905993591764518 0.028049076297469437 0.0010108596201757814 0.011296678879478854 0.0 0.0
0.0 0.023162386831082238 -0.019949688783644143 0.01901009622128075 0.0009395925623633697 0.008154191432044275 0.0 0.0
0.0 0.014281076101663846 -0.012388951363343607 0.011527873391166515 0.0008610779721770968 0.005222705708708741 0.0 0.0
0.0 0.007500909740307943 -0.006603503683264046 0.005869217246015751 0.0007342864372482906 0.0027745797640538424 0.0 0.0
0.0 0.003256166307320277 -0.002720306974985746 0.002238744384513582 0.00048156259047216226 0.0010983198444373494 0.0 0.0
0.0 0.0007547614158572224 -0.0007109005882595703 0.0005396694229540159 0.00017123116530555358 0.0003217692114056861 0.0 0.0
0.0 5.929540530833901e-05 -3.989117390321347e-05 2.7069256397123813e-05 1.2821917506089699e-05 1.4686071539981612e-05 0.0 0.0
0.0 -5.1458736952772865e-06 2.818243554363895e-06 -2.30141865746455e-06 -5.168248968993441e-07 -4.836137081219409e-06 0.0 0.0
0.0 -1.9259891850927365e-07 -1.243820411784055e-08 9.900711750511593e-09 2.5374923673294314e-09 3.208399983580417e-08 0.0 0.0
0.0 0.0 0.0 0.0 0.0 0.0 0.0 0.0
0.0 0.0 0.0 0.0 0.0 0.0 0.0 0.0
0.0 0.0 0.0 0.0 0.0 0.0 0.0 0.0
0.0 0.0 0.0 0.0 0.0 0.0 0.0 0.0
0.0 -7.18462332870173e-08 -5.322214849680892e-09 4.219826328331633e-09 1.102388521349622e-09 -1.0684932772376604e-08 0.0 0.0
0.0 -6.063939382139576e-06 4.261951282512932e-06 -3.519621990106199e-06 -7.423292924067268e-07 5.550141417570783e-06 0.0 0.0
0.0 0.00015146164624072888 -0.00012084561331428495 8.492510163550367e-05 3.5920511678781426e-05 -2.669547456020635e-05 0.0 0.0
0.0 0.0013297980776987414 -0.0011670355563695672 0.0009010121285252775 0.00026602342784428956 -0.00028592042178443626 0.0 0.0
0.0 0.004355413094123429 -0.00384443024326981 0.003249773100022737 0.0005946571432470706 -0.0010309968596271728 0.0 0.0
0.0 0.00957849892173113 -0.008510888211401568 0.007702859648691189 0.0008080285627103759 -0.002512263452161258 0.0 0.0
0.0 0.017415360097306983 -0.01525539105179756 0.014332186629093743 0.0009232044227038101 -0.004562240932084417 0.0 0.0
0.0 0.027662593852486754 -0.02401992865986865 0.023015132179516572 0.0010047964803520531 -0.007052993687367691 0.0 0.0
0.0 0.0399629731652248 -0.0345947081780124 0.03351248320278111 0.0010822249752312765 -0.009732126195570645 0.0 0.0
0.0 0.054180611615808644 -0.04675386949802409 0.045589856947003043 0.0011640125510211069 -0.012387823793133005 0.0 0.0
0.0 0.06981734907505174 -0.060335127654165585 0.059085611739093005 0.0012495159150725968 -0.014978326056215881 0.0 0.0
0.0 0.08732404003082311 -0.07522286348418936 0.07389000817484918 0.00133285530934011 -0.017567122299107396 0.0 0.0
0.0 0.10584927445097045 -0.09129654542466052 0.08988760547068589 0.0014089399539746292 -0.02014672298676879 0.0 0.0
0.0 0.1252546423487985 -0.10821646544499518 0.10675830039043535 0.0014581650545598642 -0.02261894350691862 0.0 0.0
0.0 0.14470616234647443 -0.12493237887820245 0.12350605825807665 0.0014263206201258392 -0.02526661570147656 0.0 0.0
0.0 0.16110959262818614 -0.13894589219126102 0.13770514201888517 0.0012407501723758598 -0.029518746687895354 0.0 0.0
0.0 0.16968155663528003 -0.14591589852750622 0.1450162738306386 0.000899624696867569 -0.03758047885337255 0.0 0.0
0.0 0.1640415490483112 -0.14002128786363194 0.1395664570396567 0.0004548308239755173 -0.0506622080843072 0.0 0.0
0.0 0.15367866600107905 -0.12712586550597962 0.1209296841324204 0.006196181373559078 2.084096784038536e-14 0.0 0.0
0.0 0.16404154904828758 -0.14002128786360662 0.13956645703963078 0.000454830823975902 0.05066220808435607 0.0 0.0
0.0 0.1696815566352259 -0.14591589852745693 0.14501627383058868 0.0008996246968681473 0.037580478853418274 0.0 0.0
0.0 0.16110959262810326 -0.13894589219118905 0.1377051420188124 0.0012407501723765777 0.029518746687917215 0.0 0.0
0.0 0.14470616234638156 -0.12493237887812197 0.12350605825799624 0.0014263206201256635 0.025266615701479325 0.0 0.0
0.0 0.12525464234869932 -0.10821646544490886 0.10675830039034992 0.001458165054558976 0.022618943506913427 0.0 0.0
0.0 0.10584927445086569 -0.09129654542457029 0.08988760547059593 0.0014089399539742777 0.020146722986757456 0.0 0.0
0.0 0.0873240400307182 -0.0752228634840984 0.07389000817475894 0.0013328553093394301 0.01756712229909195 0.0 0.0
0.0 0.06981734907494748 -0.06033512765407594 0.059085611739003244 0.0012495159150728206 0.014978326056200348 0.0 0.0
0.0 0.0541806116157144 -0.046753869497942635 0.045589856946921914 0.0011640125510207 0.01238782379311228 0.0 0.0
0.0 0.03996297316514054 -0.034594708177939845 0.03351248320270889 0.0010822249752309456 0.009732126195547 0.0 0.0
0.0 0.0276625938524173 -0.024019928659808853 0.023015132179457106 0.001004796480351753 0.007052993687347844 0.0 0.0
0.0 0.01741536009725491 -0.015255391051752226 0.014332186629049 0.0009232044227032092 0.004562240932070066 0.0 0.0
0.0 0.009578498921697742 -0.008510888211371907 0.007702859648662579 0.0008080285627093369 0.002512263452151225 0.0 0.0
0.0 0.004355413094103704 -0.0038444302432530343 0.0032497731000074217 0.0005946571432456125 0.0010309968596212344 0.0 0.0
0.0 0.001329798077689519 -0.0011670355563621244 0.000901012128519315 0.0002660234278428101 0.0002859204217823668 0.0 0.0
0.0 0.00015146164623808096 -0.00012084561331262563 8.492510163430491e-05 3.592051167832068e-05 2.669547455980021e-05 0.0 0.0
0.0 -6.063939382410136e-06 4.261951282000182e-06 -3.519621989716642e-06 -7.423292922835305e-07 -5.550141417102247e-06 0.0 0.0
0.0 -7.184623319621463e-08 -5.322214842869262e-09 4.219826322927047e-09 1.1023885199412321e-09 1.0684932758656047e-08 0.0 0.0
0.0 0.0 0.0 0.0 0.0 0.0 0.0 0.0
0.0 0.0 0.0 0.0 0.0 0.0 0.0 0.0
0.0 0.0 0.0 0.0 0.0 0.0 0.0 0.0
0.0 0.0 0.0 0.0 0.0 0.0 0.0 0.0
0.0 0.0 0.0 0.0 0.0 0.0 0.0 0.0
0.0 -7.863963190549333e-06 7.1863858197026696e-06 -6.074838138229499e-06 -1.1115476814731917e-06 6.914061181640864e-06 0.0 0.0
0.0 0.0002822949755585411 -0.00027744208701219083 0.0001980811598217579 7.936092719043279e-05 -1.0244272094281912e-05 0.0 0.0
0.0 0.002053779091563717 -0.0017659314876664121 0.0013956538244830807 0.0003702776631833304 -0.0001698267256253003 0.0 0.0
0.0 0.005518677843531258 -0.005086370836582612 0.004403379191189908 0.0006829916453926993 -0.0007880729465240259 0.0 0.0
0.0 0.011758515565582096 -0.010472674909728655 0.009605274223563663 0.0008674006861650117 -0.0018551713578006134 0.0 0.0
0.0 0.02059393016248961 -0.01814370469071775 0.017165896916744108 0.0009778077739736346 -0.0033643097026371423 0.0 0.0
0.0 0.03215844311784062 -0.028084163231457973 0.027019615607690575 0.0010645476237674209 -0.005209886220511751 0.0 0.0
0.0 0.046139249266032 -0.04010702882441747 0.03895827764731035 0.0011487511771070698 -0.007209192776646087 0.0 0.0
0.0 0.062151482840903154 -0.05398203769682775 0.05274556478204378 0.0012364729147839035 -0.009199235156096953 0.0 0.0
0.0 0.08031716098008333 -0.06951229968442435 0.0681858891632257 0.0013264105211987333 -0.011162442178766187 0.0 0.0
0.0 0.09973662174812876 -0.086526184781857 0.08511375018843959 0.001412434593417401 -0.013175919899369141 0.0 0.0
0.0 0.12084478622755482 -0.10476217116692448 0.10327647018033387 0.0014857009865905657 -0.015178223253709265 0.0 0.0
0.0 0.14279950988973847 -0.12374548879676785 0.12221201497247548 0.0015334738242922964 -0.01686657266686079 0.0 0.0
0.0 0.16444043181399837 -0.14246488281400638 0.14093611576015305 0.001528767053853559 -0.01803652593877611 0.0 0.0
0.0 0.18316835156591163 -0.15863689027500644 0.15724786467706606 0.0013890255979403792 -0.020027641891359225 0.0 0.0
0.0 0.19403063939381032 -0.16772929242258688 0.16675725062981853 0.0009720417927681369 -0.0276606016835553 0.0 0.0
0.0 0.18969131152520047 -0.16290882116151653 0.16253545629394375 0.00037336486757270297 -0.04740351076266154 0.0 0.0
0.0 0.1793607469955515 -0.14968196563683853 0.14319757491140847 0.006484390725430012 1.560383766641138e-14 0.0 0.0
0.0 0.18969131152516588 -0.162908821161484 0.1625354562939106 0.0003733648675733637 0.04740351076269816 0.0 0.0
0.0 0.19403063939375223 -0.1677292924225343 0.16675725062976685 0.0009720417927677257 0.027660601683593806 0.0 0.0
0.0 0.1831683515658203 -0.15863689027492775 0.15724786467698745 0.0013890255979402458 0.020027641891376034 0.0 0.0
0.0 0.16444043181389179 -0.1424648828139141 0.1409361157600609 0.001528767053853422 0.018036525938777567 0.0 0.0
0.0 0.14279950988962387 -0.12374548879666891 0.12221201497237641 0.0015334738242925232 0.016866572666856976 0.0 0.0
0.0 0.12084478622743515 -0.10476217116682104 0.10327647018023049 0.0014857009865906204 0.015178223253702845 0.0 0.0
0.0 0.09973662174801284 -0.08652618478175647 0.08511375018834019 0.0014124345934163243 0.013175919899359132 0.0 0.0
0.0 0.08031716097996848 -0.06951229968432505 0.0681858891631263 0.001326410521198625 0.01116244217875587 0.0 0.0
0.0 0.062151482840794164 -0.05398203769673381 0.05274556478195018 0.0012364729147835785 0.009199235156081533 0.0 0.0
0.0 0.04613924926593946 -0.04010702882433691 0.038958277647230234 0.0011487511771066355 0.0072091927766284114 0.0 0.0
0.0 0.0321584431177652 -0.02808416323139207 0.02701961560762499 0.001064547623767072 0.0052098862204967775 0.0 0.0
0.0 0.020593930162433285 -0.01814370469066813 0.01716589691669532 0.0009778077739728357 0.003364309702626911 0.0 0.0
0.0 0.011758515565543136 -0.010472674909694146 0.009605274223529902 0.0008674006861642417 0.0018551713577929806 0.0 0.0
0.0 0.005518677843508698 -0.005086370836562219 0.004403379191170922 0.0006829916453913086 0.0007880729465191515 0.0 0.0
0.0 0.00205377909155223 -0.0017659314876565801 0.001395653824474798 0.0003702776631817794 0.00016982672562366742 0.0 0.0
0.0 0.00028229497555507985 -0.00027744208700985237 0.00019808115982007492 7.936092718977723e-05 1.0244272094281922e-05 0.0 0.0
0.0 -7.863963190500187e-06 7.186385819329393e-06 -6.074838137941627e-06 -1.1115476813878093e-06 -6.9140611814588396e-06 0.0 0.0
0.0 0.0 0.0 0.0 0.0 0.0 0.0 0.0
0.0 0.0 0.0 0.0 0.0 0.0 0.0 0.0
0.0 0.0 0.0 0.0 0.0 0.0 0.0 0.0
0.0 0.0 0.0 0.0 0.0 0.0 0.0 0.0
0.0 0.0 0.0 0.0 0.0 0.0 0.0 0.0
0.0 0.0 0.0 0.0 0.0 0.0 0.0 0.0
0.0 -3.303465590474322e-07 -1.7290544739507509e-06 -4.968654764267928e-07 2.2259199503775534e-06 8.069897535032312e-06 0.0 0.0
0.0 0.0005899129653435921 -0.000505604020288901 0.00036715307308697414 0.00013845094720192725 6.90320172457647e-05 0.0 0.0
0.0 0.0027792224565889668 -0.0024952527064631734 0.002023769788156911 0.00047148291830625895 4.165441050048468e-05 0.0 0.0
0.0 0.0070104248493766015 -0.006382560500883681 0.005633470842699544 0.0007490896581841416 -0.00028341466026905596 0.0 0.0
0.0 0.013966112506949057 -0.01245815672596759 0.011541927988522613 0.0009162287374449602 -0.0008425284722683225 0.0 0.0
0.0 0.02385190908809609 -0.021015506099559825 0.01998876806237642 0.001026738037183419 -0.0016357387181832835 0.0 0.0
0.0 0.03664542022597778 -0.032102331679998236 0.030981738754563958 0.001120592925434251 -0.0026295021215631664 0.0 0.0
0.0 0.05222073059137665 -0.04555779906442733 0.044346672141765395 0.0012111269226619467 -0.003722954220894095 0.0 0.0
0.0 0.07039469787780894 -0.06114305818642337 0.05983910305671029 0.0013039551297131062 -0.004836516127257219 0.0 0.0
0.0 0.09031080151311914 -0.07862874935418512 0.07723005200476349 0.0013986973494215418 -0.005984783196066601 0.0 0.0
0.0 0.112406782301806 -0.09774895517147514 0.0962623662484824 0.0014865889229927318 -0.007184316013166768 0.0 0.0
0.0 0.1359269208282782 -0.11810741767552779 0.11655313674065794 0.0015542809348698733 -0.008367164431930443 0.0 0.0
0.0 0.1601106051756944 -0.1390227994615123 0.13743317278456516 0.0015896266769469909 -0.00929411758670699 0.0 0.0
0.0 0.18366277086063204 -0.15937471316333943 0.15778601269413609 0.001588700469203439 -0.009563847928108143 0.0 0.0
0.0 0.20439578120158675 -0.17730094750591152 0.17575528499558946 0.0015456625103220621 -0.009521712997555906 0.0 0.0
0.0 0.21812802831104575 -0.18913744198009783 0.1878514841718397 0.001285957808257912 -0.01363195913699979 0.0 0.0
0.0 0.21693730385185167 -0.1873075709340828 0.1870174698471151 0.0002901010869675593 -0.03564698801593259 0.0 0.0
0.0 0.20818488657877854 -0.1749244916206849 0.16858292075693432 0.006341570863750614 8.815864704914134e-15 0.0 0.0
0.0 0.2169373038518157 -0.18730757093404976 0.18701746984708223 0.0002901010869674563 0.03564698801595533 0.0 0.0
0.0 0.21812802831097858 -0.18913744198003904 0.1878514841717816 0.0012859578082573494 0.013631959137023182 0.0 0.0
0.0 0.20439578120148372 -0.17730094750582262 0.1757552849955002 0.0015456625103224678 0.009521712997564026 0.0 0.0
0.0 0.18366277086051203 -0.159374713163236 0.1577860126940323 0.0015887004692036121 0.009563847928107373 0.0 0.0
0.0 0.16011060517556588 -0.13902279946140078 0.13743317278445366 0.0015896266769469217 0.0092941175867045 0.0 0.0
0.0 0.1359269208281444 -0.11810741767541205 0.11655313674054246 0.0015542809348697538 0.008367164431928394 0.0 0.0
0.0 0.1124067823016735 -0.0977489551713607 0.09626236624836784 0.0014865889229927602 0.0071843160131620995 0.0 0.0
0.0 0.09031080151299338 -0.07862874935407631 0.07723005200465495 0.001398697349421332 0.005984783196060793 0.0 0.0
0.0 0.07039469787768673 -0.06114305818631782 0.0598391030566047 0.0013039551297131253 0.004836516127248341 0.0 0.0
0.0 0.052220730591276264 -0.04555779906434026 0.044346672141679026 0.0012111269226612808 0.0037229542208840416 0.0 0.0
0.0 0.036645420225898166 -0.032102331679928466 0.03098173875449499 0.0011205929254335073 0.0026295021215547816 0.0 0.0
0.0 0.023851909088034744 -0.02101550609950573 0.019988768062322863 0.0010267380371828515 0.0016357387181778309 0.0 0.0
0.0 0.013966112506904497 -0.012458156725927974 0.011541927988483736 0.0009162287374442274 0.0008425284722642712 0.0 0.0
0.0 0.007010424849351169 -0.00638256050086054 0.005633470842677579 0.0007490896581829518 0.0002834146602663641 0.0 0.0
0.0 0.0027792224565736847 -0.002495252706449739 0.0020237697881451393 0.00047148291830459947 -4.165441050116086e-05 0.0 0.0
0.0 0.0005899129653386927 -0.0005056040202852041 0.00036715307308423376 0.00013845094720096987 -6.903201724539356e-05 0.0 0.0
0.0 -3.3034655924776905e-07 -1.7290544742244137e-06 -4.968654761949082e-07 2.225919950419421e-06 -8.069897534884398e-06 0.0 0.0
0.0 0.0 0.0 0.0 0.0 0.0 0.0 0.0
0.0 0.0 0.0 0.0 0.0 0.0 0.0 0.0
0.0 0.0 0.0 0.0 0.0 0.0 0.0 0.0
0.0 0.0 0.0 0.0 0.0 0.0 0.0 0.0
0.0 0.0 0.0 0.0 0.0 0.0 0.0 0.0
0.0 0.0 0.0 0.0 0.0 0.0 0.0 0.0
0.0 4.2830619316582726e-05 -4.152138963335939e-05 2.7036061435398506e-05 1.448532819796093e-05 1.6802530552382114e-05 0.0 0.0
0.0 0.0009569552555611507 -0.0007794512638623612 0.0005623248198933201 0.00021712644396904078 0.00018582834965150073 0.0 0.0
0.0 0.0035043034939438106 -0.0031501068712533158 0.0025276987676261476 0.0006224081036271651 0.0004076285290607909 0.0 0.0
0.0 0.008180446960563179 -0.00748252551693345 0.006516390406084826 0.0009661351108486396 0.0005337130368687385 0.0 0.0
0.0 0.015696277420088642 -0.014101186319746859 0.012867694924626156 0.0012334913951207002 0.0005883493184485455 0.0 0.0
0.0 0.026261370573838393 -0.023367278433022647 0.02188293513005821 0.0014843433029644057 0.0005594215065651651 0.0 0.0
0.0 0.04006091554771246 -0.0353844912212686 0.03361988620186264 0.0017646050194058977 0.00040250909248941424 0.0 0.0
0.0 0.056932929287827935 -0.050023277668859084 0.047930044538030084 0.0020932331308289834 0.00015436299903805965 0.0 0.0
0.0 0.07626222844880563 -0.06703850934119703 0.06456547464114905 0.0024730347000480038 -0.00017482763710192743 0.0 0.0
0.0 0.09807528407158479 -0.08614043249371828 0.08325023160048352 0.002890200893234693 -0.0006124910540593912 0.0 0.0
0.0 0.12193368128738258 -0.10699657587096564 0.1036740873086102 0.0033224885623555182 -0.0011280350455512515 0.0 0.0
0.0 0.14727194329089324 -0.1291064572626141 0.12537132893215458 0.0037351283304594136 -0.0017287609062839032 0.0 0.0
0.0 0.17315278152674082 -0.15160962672885506 0.14752835668398007 0.00408127004487521 -0.002295861945349524 0.0 0.0
0.0 0.19800152052237263 -0.17316373124343926 0.16885601952899035 0.00430771171444864 -0.0025344575058913483 0.0 0.0
0.0 0.21968550300460762 -0.19195982746212623 0.18756393356444317 0.00439589389768278 -0.002261595217536383 0.0 0.0
0.0 0.23523159105923686 -0.20565766389061158 0.20114316291024115 0.004514500980370506 -0.004534150746999652 0.0 0.0
0.0 0.23839416162510949 -0.2089304331322923 0.2042261856302442 0.00470424750204822 -0.02729011682930061 0.0 0.0
0.0 0.23440581656261297 -0.19997395194920695 0.1881630122181171 0.011810939731089383 2.55351295663786e-15 0.0 0.0
0.0 0.23839416162507343 -0.2089304331322603 0.20422618563021344 0.004704247502046684 0.027290116829306706 0.0 0.0
0.0 0.23523159105915925 -0.20565766389054366 0.2011431629101747 0.004514500980368657 0.004534150747006752 0.0 0.0
0.0 0.219685503004493 -0.19195982746202675 0.18756393356434556 0.004395893897681462 0.0022615952175383675 0.0 0.0
0.0 0.1980015205222405 -0.17316373124332402 0.16885601952887663 0.004307711714447113 0.002534457505887412 0.0 0.0
0.0 0.17315278152660446 -0.151609626728736 0.14752835668386355 0.004081270044872134 0.002295861945347262 0.0 0.0
0.0 0.1472719432907485 -0.12910645726248787 0.12537132893203 0.0037351283304577834 0.0017287609062825553 0.0 0.0
0.0 0.1219336812872368 -0.1069965758708388 0.1036740873084846 0.00332248856235414 0.001128035045548939 0.0 0.0
0.0 0.09807528407144532 -0.08614043249359675 0.08325023160036396 0.0028902008932327463 0.0006124910540565055 0.0 0.0
0.0 0.07626222844867439 -0.06703850934108313 0.06456547464103633 0.0024730347000466724 0.00017482763709796706 0.0 0.0
0.0 0.05693292928771948 -0.050023277668764105 0.04793004453793726 0.00209323313082682 -0.00015436299904101735 0.0 0.0
0.0 0.04006091554762748 -0.03538449122119433 0.03361988620179039 0.0017646050194038783 -0.00040250909249200245 0.0 0.0
0.0 0.02626137057377204 -0.02336727843296419 0.021882935130001377 0.001484343302962812 -0.000559421506566416 0.0 0.0
0.0 0.015696277420041416 -0.014101186319704678 0.012867694924585303 0.001233491395119374 -0.000588349318448349 0.0 0.0
0.0 0.008180446960536523 -0.0074825255169090115 0.006516390406061884 0.0009661351108471274 -0.0005337130368683687 0.0 0.0
0.0 0.0035043034939274205 -0.0031501068712380584 0.0025276987676127478 0.0006224081036253104 -0.00040762852905969926 0.0 0.0
0.0 0.0009569552555545841 -0.0007794512638570106 0.0005623248198893974 0.0002171264439676153 -0.0001858283496503153 0.0 0.0
0.0 4.2830619316159765e-05 -4.152138963314302e-05 2.7036061435284198e-05 1.4485328197858787e-05 -1.6802530552185396e-05 0.0 0.0
0.0 0.0 0.0 0.0 0.0 0.0 0.0 0.0
0.0 0.0 0.0 0.0 0.0 0.0 0.0 0.0
0.0 0.0 0.0 0.0 0.0 0.0 0.0 0.0
SCALARS Wm float 4
LOOKUP_TABLE default
13.949449507773531 2.070639476583463 5.972347753202181 5.906462277987879
7.241238481690031 3.426099398043838 1.7346005613791062 2.0805385222670862
0.830504829515781 0.743084828595613 0.017982878640292216 0.06943712227987572
0.5984281529439572 0.5468565371220248 0.014430611379380589 0.03714100444255178
1.3082839396060177 0.857748012055224 0.1646038858143607 0.28593204173643205
2.9791840625829433 1.2921466167213942 0.6543291662404582 1.0327082796210902
6.324865759403473 1.9050857227331681 1.972919077276981 2.4468609593933244
11.84674490563843 2.7123621435684067 4.438608784237683 4.695773977832338
20.101968994237723 3.7771459095384072 8.455420136740841 7.869402947958468
31.460066317171467 5.122875539997895 14.340410773690227 11.996780003483352
46.03877370722538 6.74677667464043 22.258785742799787 17.033211289785175
63.6480744690748 8.627480216151756 32.12448486817059 22.89610938475249
84.2689602155532 10.725483092963664 44.05148750325175 29.491989619337776
107.64284417064492 12.994140756505399 57.92425301381907 36.72445040032053
133.26714928014331 15.25440376401029 73.55840067427768 44.454344841855246
160.2500133189246 17.219519737153444 90.56426985550135 52.46622372626979
187.19033963618344 18.57333077105788 108.15650031769988 60.460508547425746
212.34776565406617 19.108375786200416 125.25487974159867 67.98451012626695
233.95206115445592 18.945246813920843 140.48862590969452 74.51818843084084
249.12211729462447 17.69258698357266 151.99331813411996 79.43621217693175
253.88981995284803 15.263544274168401 157.0202933359181 81.60598234276156
249.12211729458824 17.692586983571527 151.9933181340946 79.43621217692196
233.95206115439703 18.94524681394114 140.48862590963898 74.51818843081676
212.34776565396996 19.108375786215674 125.25487974152094 67.98451012623326
187.1903396360454 18.573330771042784 108.15650031761483 60.46050854738776
160.25001331880236 17.219519737160507 90.56426985541307 52.46622372622879
133.26714928001127 15.254403764004035 73.55840067419318 44.454344841814
107.64284417051458 12.994140756497426 57.924253013738024 36.72445040027913
84.26896021543284 10.725483092955848 44.051487503178535 29.49198961929846
63.648074468959805 8.627480216134522 32.124484868108226 22.896109384717086
46.03877370712995 6.746776674625265 22.258785742749986 17.033211289754686
31.460066317099667 5.122875539990207 14.340410773651842 11.996780003457635
20.10196899419236 3.777145909537092 8.455420136715667 7.869402947939606
11.846744905604195 2.712362143562549 4.438608784222437 4.695773977819209
6.324865759384312 1.905085722730969 1.9729190772686052 2.446860959384738
2.979184062572495 1.292146616718866 0.6543291662372617 1.032708279616365
1.3082839396021826 0.8577480120533008 0.16460388581357496 0.28593204173530684
0.5984281529429171 0.5468565371211638 0.014430611379311066 0.03714100444244234
0.8305048295146965 0.7430848285947443 0.017982878640211863 0.06943712227973911
7.241238481684168 3.4260993980446335 1.734600561375812 2.080538522263719
13.949449507743866 2.070639476568779 5.972347753193854 5.906462277981251
16.810025308887038 7.248255277971925 4.675837958402424 4.885932072512692
3.030139909371176 0.6667695664338184 1.0128835114470296 1.3504868314903256
0.29437677992135447 0.3476118855352112 -0.018908371163340633 -0.03432673445051607
0.4589226019378144 0.4395266204446711 0.004059420851948934 0.015336560641194246
0.979478560480565 0.6958261503226171 0.09123493871413951 0.19241747144380897
2.3722992135650838 1.0433500256700665 0.5164870544884741 0.8124621334065425
5.188548628414251 1.4628883115290554 1.6243212790174542 2.1013390378677403
10.019615001752832 1.9998518583794977 3.8384434221893384 4.181319721183994
17.278246203002695 2.651324759343202 7.490278723080398 7.136642720579096
27.20353570306379 3.4034748585303918 12.823367477986753 10.97669336654664
39.86493947460605 4.233901394519293 19.98246283507521 15.648575245011529
55.26077808049206 5.146381307570806 29.044858258164055 21.06953851475719
73.04586412494302 6.140629649739059 39.73990684943577 27.165327625768214
93.34445179368264 7.171258035010931 52.322956064180815 33.85023769449092
115.66772288840805 8.163149935287652 66.49172313437639 41.01284981874407
139.3324248050233 8.970455194965224 81.904195456597 48.45777415346103
163.24646557768776 9.425174405905695 97.94302893421651 55.878262237565494
185.924880511501 9.415320321503271 113.61561817938806 62.89394201060964
205.38898151145085 8.825385990614825 127.5717988752933 68.99179664554268
219.15098444293037 7.751691625300572 137.96348925552437 73.43580356210549
224.47230488679304 6.524544431148195 142.56917245172497 75.37858800391993
219.1509844428974 7.751691625300598 137.96348925550114 73.43580356209567
205.3889815113918 8.825385990629709 127.57179887524185 68.99179664552028
185.9248805114059 9.415320321506535 113.61561817931978 62.89394201057968
163.24646557757808 9.42517440590803 97.94302893413963 55.878262237530336
139.33242480490222 8.970455194959355 81.90419545651845 48.45777415342441
115.66772288829357 8.163149935287647 66.49172313429972 41.0128498187062
93.34445179356692 7.171258035006943 52.32295606410714 33.85023769445283
73.04586412483683 6.140629649733895 39.73990684937047 27.165327625732452
55.260778080397074 5.146381307566779 29.044858258106714 21.0695385147236
39.864939474526054 4.233901394512756 19.982462835030105 15.648575244983174
27.203535703000753 3.40347485852592 12.823367477952038 10.976693366522781
17.278246202960858 2.651324759341781 7.490278723057631 7.136642720561441
10.019615001723642 1.9998518583756202 3.8384434221759403 4.181319721172083
5.188548628397584 1.462888311527223 1.62432127901028 2.101339037860079
2.3722992135563006 1.0433500256675512 0.5164870544857028 0.8124621334030484
0.9794785604778643 0.6958261503211 0.0912349387136659 0.1924174714430987
0.45892260193742845 0.43952662044434754 0.004059420851906763 0.015336560641174349
0.29437677992140315 0.34761188553511796 -0.018908371163275595 -0.0343267344504391
3.030139909362945 0.6667695664320796 1.0128835114438273 1.3504868314870393
16.810025308860002 7.24825527796051 4.67583795839394 4.8859320725055335
12.806244651995783 5.808922837747995 3.290555814813029 3.7067659994347544
1.9021889474830571 0.2926920613256941 0.6784175843698053 0.9310793017875597
0.18195385134059444 0.18125962572318405 0.00013754551879939148 0.0005566800986110121
0.33688862775866296 0.3376126152305583 -0.0005661311948465091 -0.00015785627704882564
0.734690417206765 0.5981326550471104 0.037789862534056806 0.09876789962559776
1.8463889335217727 0.9329588562742465 0.342032442348 0.5713976348995272
4.213485283444823 1.3320479805962906 1.2102345076258585 1.6712027952226736
8.427942645451566 1.822008094826677 3.088663851457933 3.5172706991669553
14.805765618043008 2.39597173519107 6.2349890878328775 6.174804795019065
23.55614431798347 3.0410806673783224 10.885465417464777 9.629598233140365
34.67161111508714 3.750550613856021 17.105668756144254 13.815391745086869
48.05374172925447 4.532128675575764 24.86564861356232 18.65596444011637
63.7799044931703 5.399269909955499 34.29920950764086 24.081425075573954
81.4273459950554 6.329011337350962 45.05797192799099 30.04036272971342
101.0259400158375 7.246679826909729 57.348410436217804 36.43084975270995
121.90478155853694 8.051950869521903 70.75161252435284 43.101218164662164
143.15292471880576 8.595719262652372 84.74639130364879 49.810814152504655
163.38560008190635 8.697075747694974 98.51704854150348 56.171475792707895
180.71102717805937 8.219241542327369 110.80961568913497 61.68216994659705
192.9641322571984 7.407762354638579 119.89753747807517 65.65883242448464
197.4557987173462 5.841876528125894 124.11362075273195 67.50030143648837
192.96413225717808 7.407762354649629 119.8975374780536 65.65883242447477
180.7110271779745 8.21924154230065 110.80961568909498 61.68216994657892
163.3856000818281 8.6970757476982 98.51704854144737 56.17147579268245
143.15292471870683 8.595719262651969 84.7463913035818 49.81081415247305
121.9047815584276 8.05195086950942 70.75161252428776 43.101218164630446
101.0259400157361 7.2466798269082355 57.34841043615141 36.43084975267646
81.4273459949487 6.329011337339055 45.05797192792918 30.040362729680414
63.779904493077254 5.39926990994769 34.2992095075864 24.081425075543187
48.053741729170895 4.532128675573178 24.86564861351172 18.655964440086017
34.671611115016404 3.750550613848873 17.105668756105807 13.81539174506172
23.55614431792754 3.0410806673731487 10.885465417435194 9.629598233119196
14.805765618006033 2.3959717351905168 6.234989087812667 6.174804795002849
8.427942645427615 1.8220080948251927 3.0886638514462343 3.5172706991561897
4.213485283430992 1.3320479805947532 1.2102345076201773 1.6712027952160602
1.8463889335152903 0.9329588562719472 0.34203244234621727 0.5713976348971254
0.734690417204938 0.5981326550460124 0.037789862533778494 0.09876789962514695
0.3368886277584349 0.33761261523036235 -0.0005661311948589495 -0.0001578562770684359
0.18195385134067066 0.18125962572327467 0.00013754551879694658 0.0005566800985990805
1.9021889474773974 0.29269206132525794 0.6784175843673238 0.9310793017848139
12.806244651968838 5.808922837736258 3.290555814805059 3.7067659994275255
9.732436740422417 4.533711891083623 2.355898341116563 2.8428265082222373
1.2895657808782175 0.13276979771302688 0.4633738568663266 0.6934221262988619
0.12685973782253337 0.12685973782253337 0.0 0.0
0.24965494191412196 0.2516972998043199 -0.0003474433279303061 -0.0016949145622676505
0.5462349353364172 0.5012803441369876 0.010117275644290658 0.034837315555138824
1.3750940831436391 0.8082365150493638 0.19388870054794136 0.3729688675463341
3.3421517366301448 1.201618964430637 0.8754699173924501 1.2650628548070564
6.900927449473168 1.6414950380133 2.3905445547280877 2.868887856731782
12.414870067451119 2.1435828597578674 5.051466840677918 5.219820367015334
19.98798124704826 2.6933455566244944 9.011500994205683 8.28313469621808
29.561769015392724 3.2917203506769086 14.287702209557407 11.98234645515841
41.13032613797265 3.96163462923374 20.928047970964734 16.240643537774186
54.51933797236855 4.711399096788764 28.80316044788279 21.004778427696976
69.89510340197836 5.531741795128297 38.13764349700177 26.2257181098483
86.77063924012018 6.388551270497594 48.5355549553648 31.846533014257755
104.8364421740147 7.193275102850458 59.89973079358613 37.74343627757813
123.51040581871015 7.809552023474124 71.99432098764441 43.70653280759165
141.41792678156042 8.043523291301133 83.94951519245156 49.4248882978077
156.86700339360837 7.76263619262232 94.67678151118145 54.42758568980452
167.95332178856225 7.109411924399197 102.73356804001665 58.11034182414644
172.0335181456368 5.241359401490639 106.85049550094323 59.941663243202875
167.95332178853587 7.109411924400509 102.73356803999735 58.11034182413797
156.8670033935849 7.762636192646966 94.67678151114843 54.427585689789495
141.4179267815066 8.043523291321145 83.9495151924013 49.424888297784165
123.51040581862459 7.809552023470198 71.99432098758959 43.70653280756475
104.83644217393267 7.193275102852088 59.89973079353038 37.74343627755021
86.77063924002957 6.388551270492308 48.53555495530912 31.84653301422809
69.89510340189413 5.531741795124036 38.13764349695028 26.225718109819823
54.51933797229357 4.711399096787765 28.803160447836007 21.004778427669756
41.130326137899424 3.9616346292281195 20.928047970923195 16.240643537748106
29.56176901533223 3.2917203506703783 14.287702209525238 11.982346455136618
19.98798124699926 2.6933455566175284 9.01150099418155 8.283134696200175
12.414870067415718 2.143582859752989 5.0514668406612735 5.219820367001459
6.900927449452466 1.6414950380114524 2.390544554718682 2.86888785672233
3.3421517366181983 1.2016189644286972 0.8754699173877442 1.2650628548017584
1.375094083138944 0.8082365150479532 0.19388870054659504 0.37296886754439623
0.5462349353351836 0.501280344136357 0.01011727564408533 0.034837315554740914
0.24965494191406332 0.25169729980424194 -0.0003474433279247645 -0.0016949145622539028
0.12685973782258683 0.12685973782258683 0.0 0.0
1.2895657808737 0.13276979771284797 0.46337385686430144 0.6934221262965512
9.732436740398912 4.533711891073216 2.3558983411100787 2.84282650821562
7.293197830780473 3.5134666411196114 1.6347765639366374 2.1449546257242282
0.944912632275968 0.1189935655521329 0.33424868665315943 0.49167038007067504
0.11539483669935613 0.11539483669935613 0.0 0.0
0.19951528941241575 0.199638466704861 -8.729946333532354e-06 -0.00011444734611176902
0.40588961974934423 0.40547708202883764 -0.0021666443463421443 0.0025791820668489293
1.0009479427069945 0.6932665028195418 0.09563145025491875 0.21204998963253335
2.544667452216314 1.0512754614443327 0.5938586676078141 0.899533323164168
5.461855071557242 1.4611056749529756 1.7570805398173057 2.2436688567869614
10.108683821268448 1.895007945347812 3.9364700667426846 4.277205809177953
16.515751507480054 2.359441384770216 7.213206796372637 6.943103326337206
24.622687872245812 2.862241671388067 11.608194349781778 10.15225185107596
34.35543287726843 3.4267535279937222 17.100718184697694 13.827961164577024
45.70835226092531 4.075040839833607 23.706762605499257 17.926548815592447
58.479611589669105 4.801963043406722 31.255874285199692 22.421774261062673
72.81404890649942 5.577828215674426 39.972630232207194 27.263590458617816
88.313005334929 6.369613661275105 49.57317339461983 32.37021827903406
104.30909813095417 7.062196406948756 59.65274624256336 37.59415548144207
119.96997219523243 7.460842829951947 69.84971716418143 42.65941220109901
133.75973460630058 7.386507373497198 79.2017558768455 47.17147135595793
143.99626580414463 6.873134755465661 86.50337455807816 50.61975649060075
147.85207696776186 4.682993937193043 90.62706427299636 52.54201875757244
143.99626580410566 6.873134755443831 86.50337455806657 50.619756490595215
133.75973460624712 7.386507373488629 79.20175587681531 47.17147135594325
119.96997219515313 7.460842829933377 69.84971716414097 42.659412201078794
104.30909813089715 7.062196406961195 59.652746242516955 37.594155481419016
88.31300533485006 6.36961366126963 49.57317339457164 32.37021827900875
72.81404890642641 5.577828215673096 39.97263023216084 27.263590458592503
58.4796115895965 4.8019630434015665 31.255874285156775 22.42177426103815
45.70835226086681 4.0750408398416695 23.706762605457897 17.926548815567244
34.35543287720679 3.426753527986414 17.10071818466482 13.827961164555543
24.622687872195648 2.862241671383859 11.608194349754864 10.152251851056919
16.51575150744299 2.359441384768117 7.213206796352937 6.943103326321938
10.108683821239483 1.8950079453439415 3.936470066729411 4.277205809166131
5.46185507153898 1.4611056749499238 1.757080539809834 2.243668856779223
2.544667452207077 1.0512754614426885 0.593858667604371 0.899533323160018
1.0009479427031767 0.6932665028181038 0.09563145025400668 0.21204998963106597
0.40588961974845006 0.4054770820279868 -0.0021666443463709286 0.0025791820668341716
0.19951528941243613 0.19963846670491753 -8.729946336156626e-06 -0.00011444734614521875
0.11539483669933609 0.11539483669933609 0.0 0.0
0.9449126322716597 0.11899356555167376 0.334248686651347 0.49167038006863983
7.293197830762442 3.5134666411124225 1.6347765639314455 2.1449546257185723
5.367562009226603 2.6989103759166113 1.106882410774259 1.561769222535732
0.6714042471540977 0.14484908902954705 0.1926883941564376 0.3338667639681134
0.13061103714524286 0.13061103714524286 0.0 0.0
0.17736364999050172 0.17731385559148405 4.673979746217264e-06 4.5120419271470164e-05
0.3165219884413852 0.3273354609369206 -0.003012343998219344 -0.007801128497315949
0.707033616823732 0.5735104846967252 0.032535918308726444 0.1009872138182807
1.8132969374064065 0.8876678723506185 0.3312143403881196 0.5944147246676673
4.176093400525033 1.2707325292478324 1.252692996908516 1.6526678743686847
7.8843491269549695 1.6504908133352532 2.881000416687997 3.352857896931722
13.183608867977817 2.040598908656311 5.5281108774084675 5.614899081913031
19.840402850241695 2.457883984491429 9.053111878494274 8.32940698725599
27.795060905927887 2.931756456618066 13.441616483424516 11.421687965885315
37.02628942496982 3.4852244858185797 18.686038648437144 14.855026290714108
47.575800871202254 4.12349452258486 24.833128704510994 18.619177644106408
59.28769873123884 4.8361376663211395 31.763184232773416 22.68837683214428
72.01246915971426 5.583481136493974 39.42733179226251 27.001656230957813
85.62575901621594 6.325038147539473 47.8527288108996 31.447992057776872
99.07478245036663 6.9118981510313 56.298893367250386 35.86399093208496
111.26716712873124 7.071195696478815 64.26534972134635 39.93062171090604
120.86985933238812 6.6988403856032255 70.96811030577709 43.2029086410078
124.6613709580447 4.172111718712795 75.22641208660882 45.26284715272313
120.86985933239244 6.698840385621373 70.96811030576782 43.20290864100321
111.26716712869413 7.071195696475077 64.26534972132414 39.930621710894975
99.07478245032833 6.911898151037425 56.29889336722067 35.86399093207018
85.62575901614387 6.325038147523327 47.85272881086283 31.447992057757677
72.01246915964632 5.583481136485361 39.427331792224365 27.00165623093661
59.28769873117881 4.8361376663200994 31.763184232735792 22.688376832122913
47.57580087114208 4.12349452257794 24.833128704477815 18.619177644086307
37.02628942491184 3.4852244858136854 18.686038648404715 14.855026290693438
27.795060905880206 2.9317564566140892 13.44161648339858 11.421687965867541
19.84040285020141 2.4578839844909104 9.053111878471453 8.329406987239057
13.183608867942485 2.0405989086488776 5.528110877393184 5.614899081900424
7.884349126932017 1.6504908133336864 2.881000416677016 3.352857896921318
4.176093400510292 1.270732529245057 1.2526929969027008 1.6526678743625338
1.8132969374000238 0.8876678723502979 0.3312143403855575 0.594414724664168
0.7070336168214892 0.5735104846956551 0.03253591830833047 0.1009872138175039
0.3165219884409392 0.3273354609362387 -0.0030123439981735423 -0.007801128497125947
0.1773636499904809 0.17731385559146237 4.673979746180581e-06 4.512041927233042e-05
0.13061103714501537 0.13061103714501537 0.0 0.0
0.6714042471508624 0.1448490890293021 0.19268839415509162 0.33386676396646886
5.367562009212748 2.698910375910957 1.1068824107705073 1.5617692225312856
3.816919021766742 2.042307062770794 0.6900795374413796 1.0845324215545689
0.49951514283071213 0.18838658002689246 0.10630838595434268 0.2048201768494772
0.15726145779829825 0.15726695596550108 -2.8514702602354354e-07 -5.213020176798422e-06
0.17398140207819532 0.1739867286040763 -1.9737344837264589e-07 -5.12915243257676e-06
0.26466886180246485 0.2717729691641627 -0.0015309402479292897 -0.005573167113768562
0.502697376717423 0.47048952886644324 0.0031091331701061462 0.02909871468087389
1.2432680853613627 0.7334870666801506 0.16568328780544272 0.3440977308757694
2.9255411806298053 1.05831096139008 0.7381218160143408 1.1291084032253855
5.91201092565466 1.4088518472152247 2.0400595384646456 2.4630995399747913
9.971705676601523 1.7328818196847307 3.93620042923481 4.302623427681982
15.257733562570905 2.078326503751386 6.659855330141032 6.519551728678486
21.509859726233252 2.472414512538826 10.011497056487633 9.025948157206797
28.72880576201523 2.9411583658864715 13.99254874343823 11.79509865269053
36.96809313370991 3.4994560212596126 18.640674833128834 14.827962279321458
46.206089381501315 4.140079546027621 23.943787677232834 18.122222158240856
56.47626869689525 4.845889453413406 29.993880069251233 21.636499174230583
67.21785677936354 5.599944606993037 36.30846647494978 25.309445697420742
78.57495480216797 6.344055017432085 43.20919078224639 29.021709002489487
89.49072513954948 6.7829133534506765 50.077610842838226 32.63020094326057
98.53108710501773 6.59717024069027 56.14948792283219 35.78442894149529
102.43656028564932 3.72344783157734 60.65334448239496 38.05976797167695
98.53108710499572 6.597170240680599 56.14948792282396 35.784428941491164
89.490725139534 6.782913353463586 50.07761084281952 32.630200943250955
78.57495480212961 6.344055017428977 43.20919078222342 29.021709002477188
67.21785677932317 5.599944606995327 36.308466474922476 25.309445697405373
56.47626869684298 4.8458894534054195 29.99388006922309 21.63649917421448
46.20608938144932 4.140079546021276 23.943787677204455 18.12222215822358
36.96809313367051 3.4994560212621932 18.640674833103212 14.827962279305114
28.72880576197453 2.941158365884603 13.992548743415089 11.79509865267486
21.509859726196986 2.472414512537971 10.011497056467089 9.025948157191925
15.257733562534588 2.0783265037464105 6.659855330123538 6.51955172866464
9.971705676577184 1.732881819681517 3.9362004292235477 4.302623427672115
5.91201092563668 1.4088518472133869 2.0400595384564033 2.4630995399668905
2.925541180619461 1.0583109613880495 0.7381218160105283 1.1291084032208842
1.2432680853558777 0.7334870666791619 0.1656832878036417 0.34409773087307394
0.5026973767159351 0.4704895288653429 0.0031091331699970573 0.029098714680595668
0.2646688618021309 0.27177296916378907 -0.0015309402479157903 -0.005573167113742525
0.17398140207786922 0.17398672860374279 -1.9737344783652903e-07 -5.129152425718009e-06
0.15726145779797443 0.15726695596516785 -2.851470254176852e-07 -5.213020168041371e-06
0.4995151428289354 0.18838658002696507 0.10630838595353997 0.2048201768484298
3.816919021755914 2.0423070627660493 0.6900795374387656 1.0845324215511003
2.681929668493569 1.5549333128634288 0.44016541933927883 0.6868309362908624
0.3646934778827716 0.2174905471296727 0.03840776672151821 0.10879516403158067
0.1849665258194151 0.18471561606231723 2.6100760087392302e-05 0.00022480899701039198
0.18210282045071072 0.18205899743404072 3.160166243977126e-06 4.066285042601341e-05
0.23789719634662032 0.24250205594199387 -0.0008918519282255574 -0.003713007667147883
0.3778192530558568 0.38377287821694867 -0.0049954099994695056 -0.0009582151616226363
0.8022469280144138 0.5827993606792206 0.057810630794752745 0.16163693654044045
1.9025427110141488 0.84641434340426 0.37855338196853255 0.6775749856413567
3.964559240514942 1.142215554991581 1.1811844152212654 1.6411592703020959
7.067682859687993 1.4307311303452908 2.610056507433077 3.026895221909628
10.906587030082296 1.7145224782217146 4.463959720265935 4.728104831594648
15.510400026704112 2.0414352141429224 6.8195137752080175 6.649451037353169
20.827992666137185 2.4346519162723967 9.637521072177794 8.755819677687006
26.882236198124573 2.9137811919749854 12.908832367338125 11.05962263881146
33.78388994064429 3.4929338765479696 16.715847147842357 13.57510891625397
41.4208982375463 4.149494136661734 20.97766030114997 16.2937437997346
49.812118370244065 4.86969779077753 25.781034365458815 19.16138621400771
58.736833816936766 5.71483656664764 30.857223906301765 22.164773343987388
68.01764248173158 6.469552717512208 36.276632478098584 25.2714572861208
76.72854820735155 6.574075001475561 41.8539596730708 28.30051353280518
80.97737617379441 3.354046001902738 46.737404078944216 30.885926092947482
76.72854820735132 6.574075001479941 41.85395967306771 28.30051353280364
68.0176424816939 6.46955271749347 36.27663247808643 25.271457286114003
58.73683381691124 5.714836566647947 30.857223906285427 22.1647733439779
49.8121183702063 4.869697790773504 25.781034365437705 19.161386213995094
41.42089823750964 4.149494136658288 20.977660301129475 16.293743799721845
33.7838899406146 3.4929338765523155 16.71584714782174 13.575108916240564
26.882236198090332 2.9137811919719896 12.908832367319606 11.059622638798734
20.827992666103512 2.4346519162663456 9.637521072161782 8.755819677675369
15.510400026676756 2.041435214142065 6.819513775193201 6.64945103734149
10.906587030058095 1.714522478219171 4.4639597202542785 4.728104831584642
7.067682859669739 1.4307311303437804 2.61005650742439 3.0268952219015723
3.9645592405029593 1.1422155549904787 1.1811844152160416 1.6411592702964386
1.9025427110072803 0.8464143434031175 0.378553381966101 0.6775749856380614
0.8022469280111494 0.5827993606779371 0.05781063079407401 0.1616369365391383
0.37781925305516084 0.38377287821611616 -0.004995409999451924 -0.0009582151615037007
0.23789719634635964 0.24250205594158786 -0.0008918519282004991 -0.0037130076670276323
0.1821028204503103 0.18205899743344386 3.1601662558410338e-06 4.066285061058724e-05
0.1849665258190806 0.18471561606193512 2.6100760090909986e-05 0.0002248089970545899
0.3646934778813325 0.21749054712953433 0.038407766721026464 0.10879516403077175
2.681929668486013 1.554933312860529 0.4401654193372197 0.6868309362882644
1.7563280337940108 1.1514271659345618 0.20727473629624182 0.3976261315632066
0.2808762903943645 0.23390462124692132 0.007948685397164467 0.03902298375027875
0.20795316250887616 0.20803132661671028 -8.740289262397365e-06 -6.94238185716928e-05
0.19657658954028812 0.19682563974168626 -2.694856205855321e-05 -0.00022210163933953774
0.2265190013664844 0.22971510913874366 -0.0006953215409024802 -0.002500786231356779
0.3131035414218534 0.32096133512965896 -0.0038703127867569993 -0.003987480921048575
0.5191807649413566 0.4579806287958274 0.0090723027698341 0.05212783337569496
1.1039602634046557 0.6413591664823293 0.14575653150124024 0.31684456542108613
2.3312057903336902 0.8651874948447228 0.5556533905060284 0.9103649049829384
4.292840323954354 1.1002303620985006 1.3657474274587025 1.8268625343971505
6.828285189411447 1.338111309666748 2.50021451647156 2.98995936327314
9.892978105764563 1.6110620115464667 3.968824902914225 4.313091191303872
13.41270084275037 1.9401976033755384 5.709368910122909 5.763134329251919
17.425911591426214 2.343272868575198 7.735549636311477 7.347089086539539
22.048524586730192 2.8489203474420237 10.11084169879651 9.088762540491652
27.348960545541825 3.4654091166685657 12.875710063106526 11.007841365766737
33.25380057988678 4.150355641754384 16.00963689755653 13.093808040575869
39.709185139432854 4.928985356888408 19.45054476634781 15.329655016196634
47.2875276211217 5.974057849375249 23.477543917089495 17.835925854656953
55.7178194269857 6.642027689352464 28.37357376190316 20.702217975730058
60.53434232553477 3.124340388679791 33.60725141962196 23.802750517233044
55.71781942697541 6.642027689341273 28.373573761903707 20.702217975730438
47.28752762113295 5.97405784939725 23.477543917082837 17.835925854652846
39.70918513940972 4.928985356883102 19.4505447663368 15.329655016189808
33.253800579857014 4.150355641747784 16.009636897542528 13.093808040566703
27.348960545519745 3.4654091166697865 12.875710063092674 11.007841365757297
22.048524586699454 2.84892034743252 10.110841698784116 9.088762540482804
17.42591159140887 2.3432728685768587 7.735549636300661 7.347089086531358
13.412700842734395 1.9401976033767079 5.7093689101135086 5.763134329244183
9.892978105745728 1.6110620115452272 3.968824902904747 4.313091191295756
6.828285189396634 1.3381113096667372 2.500214516464033 2.989959363265864
4.292840323943392 1.1002303620982743 1.3657474274534493 1.8268625343916696
2.33120579032556 0.8651874948424328 0.5556533905034179 0.9103649049797095
1.103960263400642 0.6413591664814372 0.14575653150003248 0.31684456541917266
0.5191807649395145 0.45798062879477447 0.00907230276955725 0.05212783337518272
0.3131035414212581 0.32096133512882324 -0.003870312786726779 -0.003987480920838196
0.22651900136625014 0.22971510913824778 -0.0006953215408723251 -0.0025007862311254283
0.1965765895397735 0.19682563974118783 -2.694856205559233e-05 -0.00022210163935869798
0.20795316250854495 0.20803132661617313 -8.740289241926957e-06 -6.942381838626512e-05
0.2808762903934531 0.23390462124664077 0.007948685396920688 0.03902298374989144
1.7563280337885843 1.1514271659321176 0.20727473629501222 0.397626131561455
1.121887213365426 0.859517881079806 0.08046654437009478 0.18190278791552567
0.22571194256529267 0.23096983024782314 -0.004419576057745528 -0.0008383116247848318
0.22409307498344147 0.22334498448041396 9.918170049012056e-05 0.0006489088025374351
0.21347867799976597 0.2130046625052621 5.198813665761876e-05 0.000422027357846112
0.22761772073904846 0.22983883230240634 -0.0005910009897410627 -0.0016301105736167899
0.28567084125326964 0.2897192065129169 -0.0020956799129447936 -0.0019526853467023984
0.3851404608129979 0.3637641644927284 0.0019256231945078313 0.0194506731257615
0.5766994902810967 0.4457424772969439 0.031171044633790987 0.09978596835036173
1.0440090003926494 0.5675033390443478 0.1506552953735128 0.3258503659747885
1.9358486134296289 0.7147670877367565 0.4524326257648912 0.7686488999279816
3.262091282853161 0.8858446487162167 0.9854801159376245 1.3907665181993198
4.850932148760284 1.0853872253162835 1.6404684113872947 2.125076512056708
6.743189921259796 1.335077447627408 2.467794738029103 2.940317735603283
8.951502497559463 1.6543398316112363 3.4567225531216645 3.840440112826565
11.541292381721153 2.0678866765922588 4.625449087239676 4.8479566178892135
14.647247361636643 2.6104738680776913 6.034101996903796 6.002671496655155
18.373120055332354 3.2752496832964177 7.758201176086101 7.339669195949837
22.635225830314862 3.948418189939587 9.836794825339569 8.850012815035704
27.788112939631024 4.8456712430139675 12.330572649438782 10.61186904717826
35.39706243173523 6.447889103181405 15.901750733823594 13.047422594730241
42.1081203366897 3.2217046332126724 21.974518126042774 16.911897577434253
35.397062431739776 6.447889103177791 15.90175073382852 13.047422594733444
27.788112939619698 4.8456712430116164 12.33057264943342 10.611869047174665
22.63522583030635 3.9484181899435855 9.836794825332307 8.850012815030459
18.373120055303087 3.2752496832799203 7.758201176078695 7.3396691959444675
14.647247361617998 2.6104738680719404 6.034101996896641 6.002671496649416
11.541292381717826 2.0678866765977206 4.625449087234969 4.847956617885134
8.951502497544952 1.654339831605282 3.4567225531170647 3.8404401128226047
6.7431899212469775 1.3350774476234164 2.4677947380245406 2.9403177355990184
4.850932148749363 1.0853872253134096 1.6404684113833001 2.125076512052654
3.262091282844569 0.8858446487159607 0.9854801159336656 1.3907665181949447
1.9358486134248596 0.7147670877367845 0.45243262576283166 0.7686488999252439
1.0440090003909077 0.5675033390439581 0.15065529537301836 0.32585036597393097
0.576699490280034 0.44574247729668337 0.031171044633504598 0.0997859683498461
0.3851404608123014 0.3637641644921093 0.0019256231944770998 0.01945067312571494
0.28567084125285974 0.2897192065122294 -0.0020956799129311547 -0.001952685346438552
0.22761772073868963 0.22983883230185817 -0.0005910009897147413 -0.0016301105734538158
0.21347867799951759 0.21300466250485728 5.198813667183373e-05 0.00042202735798832036
0.22409307498314496 0.22334498447999718 9.918170050057864e-05 0.0006489088026472142
0.22571194256454008 0.23096983024736323 -0.004419576057812686 -0.0008383116250103237
1.1218872133620381 0.859517881078163 0.08046654436943813 0.18190278791443648
0.6951266466668092 0.6286986205387073 0.014560299236192197 0.05186772689190992
0.19804562268381848 0.20805825207950646 -0.0023987154211799946 -0.007613913974507963
0.23344683508103628 0.23396731782952732 -5.9743683258662e-05 -0.00046073906523248434
0.22997615330447022 0.22912825053337646 0.00010610891912637124 0.0007417938519675235
0.23911106604592888 0.23971770828324018 -0.00036738420866036075 -0.00023925802865099583
0.2824367908291102 0.2835100603823757 -0.001350291181940327 0.00027702162867489856
0.3540834989819718 0.329128876334667 0.004381687971693715 0.020572934675611276
0.4103391081199788 0.3267473972294535 0.021256768039601064 0.06233494285092421
0.4682952888696136 0.28224060981469284 0.06086111331336101 0.12519356574155976
0.6312235983924138 0.2709981152635639 0.12850676190168037 0.23171872122717
1.0107507855286744 0.30597602663322465 0.2797711409365883 0.4250036179588609
1.578349434665054 0.30948069667184835 0.512095220426693 0.7567735175665125
2.330119350912522 0.32238420367842646 0.8495603776056216 1.158174769628474
3.249160755666048 0.3705807401338251 1.2677986427650572 1.6107813727671683
4.3571098240508785 0.4766603599830597 1.7678958480406899 2.112553616027126
5.654263802028852 0.6626151749761696 2.334858499371672 2.656790127681013
7.188888438139727 0.9533863772637646 2.9999334015093693 3.2355686593665935
8.92512021031402 1.3191741909597623 3.762941953919218 3.8430040654350366
11.310182730616326 1.8771351495070046 4.785563795825753 4.647483785283573
17.68800270591392 4.046470363828638 6.924457728753721 6.717074613331562
29.584382282778865 3.550302319111332 14.032446712149186 12.001633251518339
17.68800270593447 4.046470363842559 6.924457728757603 6.717074613334304
11.31018273059431 1.87713514949106 4.7855637958224815 4.647483785280767
8.925120210308101 1.3191741909619878 3.7629419539146793 3.8430040654314337
7.188888438145684 0.9533863772752696 2.99993340150617 3.23556865936424
5.654263802021273 0.6626151749736211 2.3348584993691355 2.6567901276785197
4.357109824041979 0.47666035998013484 1.7678958480376394 2.1125536160242024
3.2491607556624045 0.3705807401345258 1.2677986427629098 1.6107813727649698
2.3301193509064566 0.3223842036778074 0.8495603776029945 1.1581747696256564
1.5783494346604918 0.3094806966724356 0.5120952204242399 0.7567735175638172
1.0107507855240576 0.30597602663201046 0.279771140935036 0.4250036179570104
0.6312235983906609 0.270998115262014 0.12850676190158933 0.23171872122705803
0.46829528887005023 0.2822406098153428 0.06086111331326051 0.1251935657414467
0.41033910811938745 0.32674739722973567 0.021256768039295194 0.06233494285035672
0.3540834989810502 0.3291288763340039 0.00438168797157137 0.020572934675474983
0.282436790828291 0.283510060381544 -0.0013502911819368367 0.0002770216286838295
0.23911106604540955 0.2397177082825304 -0.00036738420863827506 -0.00023925802848259747
0.22997615330438398 0.22912825053312402 0.00010610891914502942 0.0007417938521148552
0.23344683508079705 0.23396731782916871 -5.974368323910976e-05 -0.0004607390651325304
0.19804562268348044 0.20805825207883066 -0.002398715421125742 -0.0076139139742245916
0.6951266466648569 0.6286986205373799 0.01456029923597268 0.05186772689150464
0.4418361585102327 0.4409346494671912 -5.10559518133219e-05 0.0009525649948549367
0.18409226433038728 0.18465510923837378 -4.5870032655560696e-05 -0.0005169748753309033
0.23633700461563717 0.23600127788830957 7.969186643758303e-06 0.0003277575406839223
0.2438573982572188 0.24282155023455138 0.00012436945791427216 0.0009114785647531621
0.2569948764228405 0.25611628214803966 -0.00015173636994768002 0.0010303306447485936
0.30429413546756734 0.3019911176202955 -0.000974868252630222 0.0032778860999020886
0.3988132953191502 0.37121648639299465 0.0044158198436187665 0.02318098908253727
0.5849401201910476 0.44801750055969264 0.03352452561379303 0.10339809401756171
1.0466567919658563 0.567445061596243 0.151743104323915 0.3274686260456985
1.9352150217525423 0.7144270211572246 0.45222457210472655 0.7685634284905901
3.2681694784311572 0.8879735250680547 0.987814813939256 1.392381139423847
4.8772222224872745 1.0897074452903337 1.652782303278166 2.1347324739187767
6.793344358777226 1.3412271532244668 2.4904006551897844 2.961716550362974
8.985311922088295 1.6511618154174605 3.4775574476160656 3.8565926590547663
11.368135461897404 2.0201101021009062 4.56045159998185 4.787573759814648
13.799354931064427 2.4478921382065746 5.66470276581221 5.6867600270456435
15.973708147081183 2.9127670805141035 6.625768006055055 6.435173060512021
17.703360694064948 3.4640892260807528 7.340195253498388 6.899076214485812
18.299590038627183 3.850518969903953 7.507499933679273 6.941571135043951
14.945842990908615 2.8085617006370462 6.44102638250979 5.696254907761772
29.969772493021118 5.382178223497677 13.020025916778971 11.567568352744468
14.94584299090609 2.808561700628874 6.441026382513044 5.696254907764172
18.299590038636627 3.850518969914739 7.507499933678485 6.941571135043405
17.70336069403828 3.464089226065894 7.340195253491553 6.899076214480829
15.973708147056504 2.9127670805043575 6.625768006046636 6.435173060505521
13.79935493104745 2.4478921382043226 5.664702765804072 5.686760027039046
11.368135461880739 2.020110102096849 4.5604515999751065 4.787573759808789
8.985311922075017 1.6511618154170458 3.477557447609211 3.8565926590487623
6.7933443587658155 1.341227153226032 2.4904006551831346 2.961716550356649
4.877222222472096 1.0897074452884596 1.6527823032715676 2.134732473912071
3.2681694784214343 0.8879735250678824 0.9878148139346941 1.3923811394188572
1.9352150217465063 0.7144270211569013 0.4522245721022443 0.7685634284873605
1.0466567919617489 0.5674450615944513 0.15174310432299226 0.32746862604430527
0.5849401201890005 0.44801750055923883 0.033524525613241735 0.10339809401651982
0.39881329531786114 0.37121648639212146 0.004415819843488033 0.02318098908225131
0.30429413546691464 0.30199111761928077 -0.0009748682525899427 0.0032778861002238186
0.2569948764225877 0.2561162821476101 -0.0001517363699288487 0.0010303306449064677
0.24385739825684097 0.24282155023401908 0.00012436945792612008 0.0009114785648958616
0.2363370046154781 0.23600127788805542 7.96918664694321e-06 0.0003277575407755425
0.18409226433016945 0.18465510923820136 -4.587003266173446e-05 -0.0005169748753701023
0.44183615850928376 0.44093464946600996 -5.1055951792868775e-05 0.0009525649950665544
0.2848098762594653 0.2848834927866138 -5.074825948644306e-06 -6.854170119983136e-05
0.16996217374076414 0.17004745352977102 -6.39429957388719e-06 -7.888548943301926e-05
0.23284741085542632 0.2334989943886013 -0.00010486777986494397 -0.0005467157533100193
0.2535572463735207 0.25234142707367424 0.00010152256716195622 0.0011142967326843957
0.27936723106053485 0.280656183101783 -0.0004998118303120898 -0.0007891402109357611
0.3504784932183483 0.3475527781838479 -0.000794882936108772 0.0037205979706088493
0.5404800418864822 0.45960214748757555 0.014162680316686629 0.06671521408222003
1.1142979232315364 0.642209094443153 0.14978471847301414 0.3223041103153691
2.3317536899432976 0.8648162245978692 0.5560135925827447 0.9109238727626829
4.292002561522883 1.1002704547253963 1.3651681609141038 1.8265639458833824
6.835150487260973 1.339451133047712 2.502932135031247 2.992767219182013
9.916951917570449 1.614380670805093 3.9798647734686705 4.322706473296683
13.453445572477001 1.9425368653182518 5.730750236959483 5.78015847019927
17.43228757583203 2.329851440683328 7.747357559638282 7.3550785755104116
21.824323821847386 2.7809617776817332 10.021806042126354 9.021556002039304
26.428447163695942 3.2847828151810106 12.440979211920578 10.702685136594344
30.87142638946115 3.8487868160102856 14.761331076492153 12.26130849695872
34.6107333938018 4.492931684415125 16.60657652311913 13.51122518626753
36.42732448212572 4.81138477497489 17.535350667982737 14.080589039168103
33.92834545953484 4.706631882420746 16.189496174153536 13.032217402960557
41.87510404736054 9.872954524745747 17.710252719499728 14.291896803115044
33.928345459531116 4.706631882409961 16.18949617415791 13.032217402963258
36.427324482113725 4.811384774965631 17.535350667981 14.080589039167073
34.61073339377825 4.492931684411504 16.60657652310697 13.511225186259786
30.87142638943495 3.8487868160110845 14.7613310764759 12.261308496947946
26.428447163664732 3.2847828151776617 12.440979211904104 10.70268513658297
21.824323821820236 2.7809617776786753 10.021806042112336 9.021556002029227
17.43228757580485 2.3298514406802666 7.747357559624626 7.355078575499961
13.453445572446057 1.942536865310911 5.730750236946383 5.780158470188768
9.916951917544594 1.6143806708034134 3.9798647734556827 4.322706473285496
6.835150487237171 1.339451133041593 2.5029321350221854 2.992767219173393
4.292002561506153 1.100270454722963 1.3651681609070734 1.8265639458761167
2.331753689935219 0.8648162245969948 0.5560135925795355 0.9109238727586891
1.1142979232269599 0.642209094442413 0.14978471847153252 0.3223041103130143
0.5404800418845537 0.4596021474864001 0.014162680316422621 0.06671521408173128
0.35047849321744956 0.347552778182766 -0.0007948829360816081 0.003720597970765036
0.27936723106014166 0.28065618310123613 -0.0004998118302855315 -0.0007891402108089493
0.25355724637330124 0.2523414270732945 0.0001015225671741295 0.0011142967328327726
0.23284741085527805 0.23349899438827484 -0.00010486777984851587 -0.0005467157531481889
0.16996217374073078 0.1700474535297976 -6.39429957859623e-06 -7.888548948832941e-05
0.2848098762587665 0.2848834927859221 -5.074825949206164e-06 -6.854170120644613e-05
0.17689168396002006 0.17689168396002006 0.0 0.0
0.15100294919406232 0.15100563584357984 2.515304975312392e-08 -2.711802567205488e-06
0.22261543441899495 0.22319558708896484 -8.22157705861714e-05 -0.000497936899383712
0.25946966662058035 0.2600836851995639 -0.00016144809378803267 -0.0004525704851955358
0.30553568021901817 0.30565904391003684 -0.0004844282879292264 0.00036106459691056744
0.42321867822299386 0.4015615742490962 0.0007039901341561032 0.020953113839741917
0.8326876124806806 0.5896889636211148 0.06861559965213405 0.1743830492074312
1.9090283703576598 0.8466108232867577 0.38189667628271434 0.6805208707881892
3.962379913534179 1.142251631714316 1.1800635042168808 1.6400647776029795
7.068607690573782 1.4312490652954633 2.610517596764336 3.0268410285139846
10.913729312475237 1.7154629358988889 4.466022904027593 4.732243472548758
15.526568660299379 2.0427204841043487 6.827973002184512 6.655875174010528
20.83947988550572 2.432602695035629 9.645477433978645 8.761399756491437
26.83473640987469 2.8923518829794217 12.89362040953542 11.048764117359852
33.516049595452415 3.4162205674926023 16.600632283065664 13.499196744894142
40.594075972944616 3.987684854576912 20.56922842875059 16.03716268961711
47.750418802900896 4.5981597698603895 24.66441999889248 18.487839034148017
53.73882379042451 5.083221342444766 28.100228255143662 20.555374192836073
56.728050089989864 5.225428980013427 29.904045851435463 21.598575258540986
53.01900158622053 4.663647875422184 27.933946814802873 20.421406895995478
59.34017814957716 12.92412083700274 26.67783227640151 19.73822503617292
53.01900158621969 4.663647875422055 27.93394681480243 20.42140689599518
56.72805008998467 5.2254289800161935 29.904045851430446 21.598575258538062
53.73882379039826 5.083221342446818 28.100228255125774 20.555374192825663
47.75041880285386 4.598159769852407 24.664419998868087 18.487839034133366
40.5940759729036 3.9876848545758845 20.569228428725967 16.037162689601743
33.51604959541131 3.416220567488085 16.60063228304352 13.499196744879695
26.83473640983766 2.8923518829798085 12.89362040951319 11.048764117344664
20.83947988546943 2.4326026950358783 9.645477433957467 8.761399756476093
15.526568660267127 2.0427204841065683 6.827973002165113 6.655875173995429
10.913729312447044 1.715462935897693 4.46602290401298 4.732243472536378
7.068607690554797 1.4312490652974894 2.610517596753453 3.0268410285038536
3.9623799135204916 1.1422516317126956 1.1800635042110619 1.6400647775967319
1.9090283703497695 0.8466108232858334 0.38189667627975177 0.6805208707841839
0.8326876124772716 0.5896889636197943 0.06861559965138046 0.17438304920609626
0.42321867822166814 0.4015615742480719 0.0007039901340471426 0.020953113839549228
0.30553568021828276 0.30565904390904136 -0.0004844282879016827 0.0003610645971431454
0.2594696666203776 0.2600836851991801 -0.00016144809376293198 -0.0004525704850395358
0.22261543441843504 0.2231955870884706 -8.221577059383483e-05 -0.0004979368994417196
0.15100294919403398 0.15100563584353302 2.515305130996779e-08 -2.711802550345358e-06
0.17689168395949056 0.17689168395949056 0.0 0.0
0.10380718199744353 0.10380718199744353 0.0 0.0
0.12732549645523955 0.12732127038151214 2.3276924337965782e-07 3.99330448403657e-06
0.20652649507637036 0.20683917893683468 -3.9993148108111246e-05 -0.0002726907123562622
0.26185343169414016 0.2623103628054008 -0.00018304270642871526 -0.00027388840483203196
0.33597690407657776 0.3384884642256089 -0.0013394233322533556 -0.0011721368167777555
0.5527732472823024 0.48641097102648584 0.014320765930031362 0.05204151032578528
1.2610536296284711 0.7301844216709426 0.17291996474554955 0.35794924321197846
2.926094475185648 1.0588979719740854 0.7385889337874652 1.1286075694240967
5.9092538000119506 1.4095707899604455 2.038247960671266 2.4614350493802384
9.974575139412096 1.7336328541416524 3.937135622645277 4.303806662625168
15.265616071823008 2.0781687416579744 6.664636179599077 6.522811150565957
21.50911452599346 2.469116644840393 10.013054049269591 9.026943831883479
28.691536970249714 2.930487913292393 13.976848798883802 11.78420025807355
36.849954488078005 3.472715478600863 18.58511734234618 14.792121667130939
45.93595185902417 4.083656224923089 23.810844398260055 18.041451235841034
55.85571483285776 4.732173446107157 29.672779993286664 21.450761393463946
65.51357007657741 5.293939916316269 35.41167786135581 24.807952298905363
73.81669015315377 5.572070830819592 40.62490251457499 27.619716807759175
77.65989286438473 5.268251780344546 43.34953130359207 29.04210978044812
72.9558417214996 4.739637544045625 40.63797192820349 27.57823224925052
79.01258586632203 15.957431113625534 37.25314974868092 25.80200500401557
72.95584172151047 4.739637544058886 40.63797192820202 27.578232249249567
77.6598928643586 5.268251780335319 43.34953130358103 29.04210978044224
73.81669015310999 5.572070830814217 40.624902514550065 27.6197168077457
65.51357007652756 5.293939916316804 35.411677861323504 24.807952298887255
55.85571483280138 4.732173446103081 29.672779993253563 21.45076139344475
45.93595185897307 4.0836562249208175 23.810844398229733 18.04145123582252
36.84995448803021 3.472715478601266 18.585117342316764 14.792121667112173
28.69153697020083 2.9304879132918913 13.976848798854881 11.784200258054048
21.509114525951432 2.4691166448396458 10.013054049245723 9.026943831866081
15.265616071783304 2.0781687416531556 6.664636179579612 6.522811150550528
9.974575139380944 1.7336328541372004 3.9371356226310357 4.303806662612709
5.909253799991369 1.4095707899581793 2.0382479606619106 2.4614350493712815
2.926094475174328 1.05889797197272 0.7385889337828897 1.128607569418718
1.2610536296229944 0.7301844216699686 0.17291996474373916 0.35794924320928695
0.5527732472801988 0.4864109710252631 0.014320765929759297 0.05204151032517635
0.3359769040761306 0.3384884642248653 -0.0013394233321996694 -0.0011721368165350248
0.26185343169386965 0.26231036280488224 -0.000183042706408784 -0.00027388840460385597
0.20652649507578044 0.2068391789362764 -3.999314811158454e-05 -0.00027269071238440317
0.12732549645502167 0.12732127038129426 2.3276924336996675e-07 3.9933044839934034e-06
0.10380718199716987 0.10380718199716987 0.0 0.0
0.057271826928968594 0.057271826928968594 0.0 0.0
0.10140271449855931 0.10140271449855931 0.0 0.0
0.18585839404909468 0.18592128710763947 -7.62298673846053e-06 -5.527007180630349e-05
0.26180913833186514 0.26349306139711115 -0.0003191671243175498 -0.0013647559409285925
0.3763952875538511 0.3733791478729749 -0.001384906576668254 0.00440104625754436
0.747564786368182 0.5832136193163578 0.04536483006223212 0.1189863369895921
1.8256845842378526 0.887178114494753 0.33795125575910756 0.6005552139839927
4.173211236062158 1.2721804920591735 1.2508053065997844 1.6502254374031997
7.883388950071662 1.651679877647856 2.8800258548822244 3.3516832175415847
13.188870464234263 2.0412351124650026 5.530596589722972 5.617038762046282
19.844240470595263 2.4558020062440984 9.056524243092465 8.331914221258707
27.76976202947559 2.9213350239185663 13.432813784677752 11.415613220879278
36.92770281985407 3.461973183623792 18.640160836330374 14.825568799899886
47.38243588804419 4.095745775163447 24.729908360212693 18.556781752668062
59.02954299472961 4.817595150089506 31.61083021782678 22.601117626813327
71.58790919734845 5.517021253946715 39.19560825957931 26.87527968382244
84.25417373976292 5.991982153265742 47.17248324474854 31.08970834174862
94.46282377158417 5.9287483213354895 53.90084779430711 34.63322765594155
98.81384989235306 5.224788481696354 57.20670426916153 36.38235714149517
93.64865765083334 4.971532747681069 54.012834777352005 34.66429012580026
100.48193112589094 19.00330436686984 49.28085284547522 32.197773913545895
93.64865765079969 4.971532747655673 54.012834777346605 34.66429012579739
98.81384989232242 5.224788481694996 57.20670426914205 36.38235714148538
94.46282377155582 5.928748321352651 53.9008477942771 34.633227655926085
84.2541737396996 5.991982153264173 47.172483244708204 31.089708341727242
71.58790919728479 5.5170212539451695 39.19560825953914 26.875279683800482
59.02954299465825 4.817595150081433 31.61083021778657 22.601117626790234
47.382435887975646 4.095745775155562 24.72990836017488 18.556781752645218
36.92770281979608 3.4619731836270464 18.64016083629304 14.825568799876008
27.76976202941817 2.9213350239125644 13.432813784647175 11.415613220858422
19.844240470548442 2.455802006241105 9.056524243067276 8.331914221240062
13.188870464198459 2.0412351124637107 5.530596589703972 5.617038762030778
7.883388950047296 1.6516798776467245 2.8800258548703446 3.3516832175302262
4.173211236046159 1.2721804920570583 1.2508053065930147 1.6502254373960843
1.8256845842305722 0.8871781144940007 0.3379512557563515 0.6005552139802214
0.7475647863654986 0.5832136193152772 0.04536483006166098 0.11898633698856051
0.3763952875529802 0.37337914787196685 -0.0013849065766587767 0.004401046257672229
0.26180913833147323 0.26349306139667045 -0.00031916712431104223 -0.0013647559408861527
0.18585839404890228 0.18592128710746825 -7.622986740313699e-06 -5.5270071825590015e-05
0.10140271449836935 0.10140271449836935 0.0 0.0
0.05727182692877617 0.05727182692877617 0.0 0.0
0.02961210444351974 0.02961210444351974 0.0 0.0
0.07630143478992484 0.07630143478992484 0.0 0.0
0.16306446098032068 0.16305764421665275 3.960330448053176e-07 6.420730623111643e-06
0.26189660125257164 0.26344661106751566 -0.0003148271390466008 -0.0012351826758972989
0.4415781211280614 0.42785930627857777 0.0015687473568497521 0.0121500674926336
1.0092225946439664 0.6800907184225686 0.09827351974653836 0.2308583564748595
2.548902302814561 1.0515879219133624 0.5970605592378625 0.9002538216633353
5.458929263856504 1.4628077184374473 1.7546133471180694 2.241508198300988
10.110609969388353 1.8963506474096703 3.937023376798598 4.277235945180082
16.52231872359069 2.359562176549991 7.216877382530818 6.945879164509886
24.618910736323755 2.8571983567563075 11.608958353171525 10.152754026395908
34.30159863684825 3.408245134285699 17.079336057704857 13.814017444857681
45.55009648705927 4.039252231322805 23.63064795148894 17.880196304247537
58.21073940055798 4.770705735517779 31.10508569335483 22.334947971685395
72.52370832380633 5.585377241813652 39.78005133441863 27.15827974757401
87.97469270562178 6.348819812561787 49.36425903476941 32.26161385829056
103.10403020637706 6.689524035574431 59.09888716265536 37.31561900814726
115.32125655149454 6.229314617223341 67.55677369671072 41.535168237560505
120.67614486083839 5.209955013868869 71.84097020451128 43.62521964245831
115.30928893714773 5.2661895632986795 68.20526464580172 41.837834728047326
123.29774295020312 22.028797903574716 62.31974117903701 38.9492038675914
115.30928893714291 5.266189563309691 68.205264645791 41.83783472804218
120.67614486079489 5.20995501386641 71.84097020448375 43.62521964244475
115.32125655140916 6.2293146171989555 67.55677369666985 41.53516823754033
103.1040302063124 6.689524035581765 59.09888716260744 37.315619008123186
87.97469270553813 6.348819812553916 49.36425903471972 32.261613858264525
72.52370832372779 5.5853772418119805 39.78005133436893 27.158279747546853
58.210739400479895 4.770705735516196 31.105085693306197 22.334947971657513
45.55009648699075 4.039252231325345 23.630647951444804 17.88019630422059
34.30159863677963 3.4082451342803717 17.079336057666552 13.814017444832691
24.618910736266677 2.8571983567514527 11.60895835314092 10.152754026374298
16.522318723547663 2.359562176547856 7.216877382507771 6.9458791644920375
10.110609969357354 1.8963506474074627 3.937023376783395 4.277235945166494
5.458929263837046 1.4628077184358808 1.7546133471092036 2.2415081982919602
2.5489023028041005 1.0515879219113995 0.5970605592340087 0.9002538216586902
1.0092225946396844 0.6800907184210981 0.09827351974545769 0.2308583564731283
0.44157812112697437 0.4278593062776996 0.0015687473567796864 0.012150067492494893
0.2618966012522865 0.2634466110671385 -0.0003148271390389173 -0.0012351826758131002
0.16306446098015104 0.16305764421648405 3.960330447626668e-07 6.4207306222634735e-06
0.07630143478973454 0.07630143478973454 0.0 0.0
0.029612104443359943 0.029612104443359943 0.0 0.0
0.014501616601500532 0.014501616601500532 0.0 0.0
0.05453900392304799 0.05453900392304799 0.0 0.0
0.14106772314436503 0.1410652208196933 1.22441077168008e-07 2.379883594554421e-06
0.2664021825870303 0.2685084915079051 -0.0004358285464953787 -0.0016704803743796321
0.5393836907910161 0.49164945903738 0.010806329656225598 0.03692790209741046
1.3714247087184914 0.8038004108741255 0.1950660742351948 0.3725582236091711
3.3403513703972854 1.2019690090280175 0.8745371101295971 1.2638452512396703
6.901590331040242 1.642857034239949 2.39045118381017 2.868282112990121
12.420393604110934 2.144808021368011 5.053940119330887 5.22164546341204
19.993673983405735 2.692241012607877 9.015478254735266 8.28595471606259
29.546642477922198 3.2829512698106775 14.283937542537085 11.979753665574457
41.048612298513795 3.9362352472404094 20.89337181586342 16.219005235409966
54.314350104894714 4.666791060433233 28.701939259310258 20.945619785151244
69.5511050580029 5.488303640708504 37.943989190558405 26.118812226735955
86.35913467404067 6.382305963860176 48.269976877886094 31.706851832294397
104.35602940636842 7.174521204981275 59.59299786979406 37.58851033159311
122.16597724283989 7.400890110627867 71.36460450403209 43.400482628179965
136.5014813063873 6.578797388494397 81.60508881715995 48.317595100732945
143.19221678417563 5.243364380324342 87.051327519374 50.89752488447728
138.25192951016896 5.559067327225349 83.49788607493412 49.19497610800951
148.02529947513486 24.991793616719644 76.94944722084779 46.08405863756734
138.25192951013736 5.559067327215919 83.49788607491897 49.19497610800253
143.19221678413123 5.24336438033104 87.0513275193393 50.897524884460886
136.50148130633517 6.578797388519473 81.60508881710729 48.3175951007084
122.16597724274732 7.400890110620342 71.36460450397486 43.40048262815205
104.35602940628534 7.174521204986754 59.59299786973509 37.588510331563405
86.35913467393647 6.382305963847077 48.269976877826345 31.706851832263027
69.55110505791879 5.488303640713072 37.94398919050133 26.118812226704403
54.31435010480522 4.666791060428662 28.70193925925667 20.945619785119863
41.04861229843405 3.936235247234753 20.893371815817872 16.21900523538142
29.546642477854466 3.282951269806174 14.283937542499388 11.979753665548921
19.993673983356697 2.6922410126081315 9.015478254706924 8.28595471604163
12.420393604075311 2.144808021367129 5.053940119311987 5.221645463396195
6.901590331016215 1.642857034236615 2.390451183799944 2.8682821129796565
3.3403513703838654 1.2019690090252366 0.8745371101246404 1.263845251233989
1.3714247087129494 0.8038004108726493 0.19506607423353933 0.37255822360676055
0.5393836907892595 0.49164945903637736 0.01080632965598314 0.036927902096899015
0.266402182586686 0.2685084915073659 -0.0004358285464798507 -0.0016704803741998233
0.1410677231440485 0.14106522081938 1.2244107697319608e-07 2.3798835915387224e-06
0.05453900392296031 0.05453900392296031 0.0 0.0
0.014501616601439527 0.014501616601439527 0.0 0.0
0.006997959340596596 0.006997959340596596 0.0 0.0
0.03771588287055994 0.03771588287055994 0.0 0.0
0.12312940794465106 0.12312940794465106 0.0 0.0
0.28254256585005433 0.285943682948689 -0.000804819599604131 -0.0025962974990304862
0.6804584653250694 0.5664504408808252 0.02942576028343787 0.08458226416080633
1.8243563191906533 0.9285190888021233 0.3343788450307679 0.5614583853577619
4.211097836112207 1.332400830187305 1.208105898206564 1.6705911077183364
8.436140274185 1.8231050548780237 3.093885070308696 3.519150148998283
14.814078831308963 2.396485449160224 6.239300746817202 6.1782926353315375
23.55860362104665 3.0381048050324426 10.888746262677312 9.631752553336902
34.642816691385086 3.7378606131222436 17.09594784319342 13.809008235069408
47.947944354273 4.50213964560985 24.81832914418912 18.62747556447405
63.54207629825843 5.349808074928267 34.178761504521376 24.013506718808742
81.0132069704743 6.26702281224288 44.828394613466735 29.917789544764698
100.40154263919928 7.175307843145543 56.98193218166001 36.24430261439371
120.9489817097709 7.920105089209058 70.19814789065862 42.83072872990321
141.1773140762104 8.125830692283147 83.72652025994805 49.32496312397919
157.8634361247206 7.121803715944434 95.80018899129831 54.941443417477856
166.41502544850425 5.290006643710136 102.96643119224552 58.1585876125486
162.77000048611012 5.794601948042007 100.12393233075348 56.85146620731457
174.9077326589511 27.784046157183106 93.32583833063109 53.79784817113696
162.77000048607363 5.794601948038141 100.12393233073085 56.8514662073046
166.4150254484556 5.29000664371848 102.96643119220656 58.15858761253064
157.86343612464447 7.121803715955045 95.80018899123885 54.94144341745053
141.17731407611436 8.125830692286957 83.72652025988008 49.32496312394739
120.94898170965295 7.9201050891959826 70.19814789058815 42.83072872986883
100.40154263909517 7.175307843148025 56.981932181589364 36.24430261435777
81.01320697037062 6.267022812239222 44.82839461340163 29.91778954472982
63.542076298166094 5.34980807493142 34.17876150446028 24.013506718774398
47.94794435417869 4.502139645602869 24.81832914413463 18.627475564441195
34.64281669131109 3.73786061311929 17.09594784315046 13.809008235041354
23.55860362099116 3.0381048050318293 10.888746262645332 9.631752553313996
14.814078831265569 2.3964854491553678 6.239300746795886 6.178292635314321
8.436140274156386 1.823105054874168 3.09388507029588 3.5191501489863355
4.211097836096 1.3324008301841779 1.208105898200605 1.670591107711221
1.8243563191835828 0.9285190888005976 0.3343788450284228 0.5614583853545623
0.6804584653227196 0.5664504408795965 0.029425760283037387 0.08458226416008585
0.28254256584965576 0.28594368294814454 -0.0008048195995797383 -0.0025962974989092017
0.12312940794443959 0.12312940794443959 0.0 0.0
0.03771588287052126 0.03771588287052126 0.0 0.0
0.0069979593405331934 0.0069979593405331934 0.0 0.0
0.0033226344783295475 0.0033226344783295475 0.0 0.0
0.02619828466842763 0.02619828466842763 0.0 0.0
0.11374860452894534 0.11374860452894534 0.0 0.0
0.32201649730672594 0.3227265053395589 -0.000811375084420736 0.00010136705158751789
0.8905148578554509 0.6638494376437615 0.07089753775604887 0.15576788245564058
2.335923001934371 1.039570438342664 0.4992320875748173 0.7971204760168898
5.187546729144345 1.4629877249872367 1.6226236855541432 2.101935318602964
10.02754298994383 1.999892418139944 3.8408330968944995 4.186817474909385
17.2904904607711 2.6508753736043467 7.498298464528445 7.141316622638308
27.201051760436826 3.398310290542503 12.82507460657809 10.977666863316237
39.82200650688254 4.217548755832675 19.96618607760813 15.638271673441707
55.13479860203682 5.113657745805144 28.98595575251006 21.03518510372161
72.78242651679459 6.087768670636723 39.6037871601775 27.090870685980402
92.858460202386 7.0854981595534365 52.0592839887318 33.713678054100704
114.77404368789746 7.994982743505897 66.00638610876699 40.77267483562458
137.6202655197683 8.602493575944184 80.99181085015913 48.02596109366494
159.8918463631855 8.671164957800302 96.15396849621344 55.06671290917176
179.04847387429447 7.88639280662019 109.90898001814915 61.253101049525064
190.07383387323364 5.524413539385748 119.20056037731308 65.34885995653485
189.11957855020574 5.767143929004092 118.39539866678409 64.9570359544175
204.4428864265911 29.57714258991312 112.47090575000776 62.39483808667023
189.1195785501866 5.767143929020689 118.39539866675945 64.95703595440645
190.0738338731541 5.524413539372616 119.20056037726718 65.34885995651432
179.04847387420216 7.88639280662869 109.9089800180797 61.25310104949381
159.89184636306425 8.671164957793337 96.1539684961349 55.0667129091359
137.62026551965252 8.602493575948738 80.99181085007771 48.02596109362611
114.77404368777032 7.994982743500302 66.00638610868572 40.772674835584304
92.85846020226961 7.085498159553395 52.059283988655096 33.71367805406113
72.78242651667561 6.087768670624582 39.60378716010846 27.09087068594253
55.134798601938584 5.113657745806551 28.985955752447133 21.03518510368489
39.82200650679852 4.217548755826855 19.96618607756015 15.63827167341153
27.201051760371705 3.398310290536364 12.825074606543232 10.977666863292106
17.290490460721625 2.650875373597755 7.498298464504275 7.141316622619588
10.027542989912407 1.99989241813748 3.8408330968792037 4.186817474895726
5.187546729126161 1.4629877249842225 1.6226236855468499 2.1019353185950886
2.3359230019250066 1.0395704383411246 0.4992320875713643 0.7971204760125177
0.8905148578525527 0.6638494376426842 0.07089753775537719 0.15576788245449122
0.3220164973060786 0.32272650533880826 -0.0008113750844077036 0.00010136705167813507
0.113748604528809 0.113748604528809 0.0 0.0
0.026198284668430362 0.026198284668430362 0.0 0.0
0.00332263447833443 0.00332263447833443 0.0 0.0
0.001068055331696715 0.001068055331696715 0.0 0.0
0.019318459427692333 0.019318459427692333 0.0 0.0
0.12027576816135496 0.12027576816135496 0.0 0.0
0.4052497337310068 0.3902522335435774 0.0026470341622838716 0.012350466025145664
1.1894967427521326 0.8202201706910429 0.12721502382011762 0.24206154824097237
2.981361654986853 1.3089732749832947 0.6682186797709194 1.0041697002326366
6.326758482231931 1.9053220929593984 1.9707765104701906 2.4506598788023415
11.864474185536363 2.7124926432588703 4.4489205690402445 4.703060973237251
20.112480706096257 3.774864153668413 8.462974128716496 7.874642423711357
31.44897537305256 5.111645084027722 14.34060939848528 11.99672089053954
45.97628514120649 6.718577688013116 22.237585332549706 17.0201221206437
63.49195927917207 8.576919065168653 32.05727038716401 22.857769826839395
83.95037600219521 10.635011926330925 43.902926360637956 29.412437715226353
106.98991485888844 12.784860482320445 57.62989882302742 36.57515555354059
131.85054480241376 14.714515871300124 72.96601205985137 44.1700168712622
157.1824506352337 15.947637452141297 89.33603584585894 51.898777337233525
180.9799297704658 16.02465184221738 105.62582590116827 59.32945202708014
201.06271472423165 14.982202844998701 120.26683821057887 65.81367366865412
214.86195781224313 13.409185765509486 130.98753277109864 70.4652392756351
210.5968828277738 5.9253673045657145 133.1835387620491 71.48797676115898
288.4703883984917 87.95173475615388 130.3939580590055 70.12469558333235
210.59688282772464 5.925367304551797 133.183538762024 71.48797676114879
214.86195781216207 13.409185765505129 130.98753277104456 70.46523927561233
201.062714724127 14.982202845007587 120.26683821050065 65.81367366861893
180.97992977033527 16.02465184221522 105.62582590108013 59.329452027040006
157.18245063508084 15.947637452116219 89.33603584577104 51.898777337193465
131.8505448022662 14.714515871286075 72.96601205976154 44.170016871218635
106.98991485877538 12.78486048233729 57.629898822941186 36.57515555349691
83.95037600207205 10.635011926327518 43.902926360559924 29.41243771518466
63.491959279062996 8.57691906516775 32.0572703870951 22.857769826800126
45.97628514111267 6.718577688004871 22.23758533249671 17.02012212061109
31.448975372973067 5.111645084011581 14.340609398447338 11.996720890514151
20.112480706040817 3.7748641536597543 8.462974128689746 7.874642423691331
11.86447418550017 2.7124926432537824 4.448920569023535 4.703060973222853
6.326758482208655 1.905322092952309 1.9707765104622217 2.4506598787941254
2.981361654975379 1.3089732749807694 0.6682186797670566 1.0041697002275538
1.1894967427483425 0.8202201706899739 0.12721502381906657 0.24206154823930215
0.40524973373000595 0.3902522335426542 0.002647034162267293 0.012350466025083912
0.12027576816102083 0.12027576816102083 0.0 0.0
0.019318459427599625 0.019318459427599625 0.0 0.0
0.0010680553316947063 0.0010680553316947063 0.0 0.0
CELL_DATA 800
SCALARS Stress float 6
LOOKUP_TABLE default
170.2996895429382 -523.1512195791386 -181.89468994132767 -110.53969587322574 0.0 0.0
403.89323881282036 -81.46245344665796 115.71216709077086 54.681579077051275 0.0 0.0
418.5779314905226 8.170622747370397 127.9996142408628 -2.7035039217034447 0.0 0.0
477.5757698816262 -16.053071453533963 150.51636509695572 -15.575619543538014 0.0 0.0
555.5592312408684 -22.66057667286475 210.8429207887437 -11.684704963639318 0.0 0.0
630.8197740072883 -18.94245615674206 282.57922512943554 -10.397402380902392 0.0 0.0
703.613857649682 -13.235167872540138 336.82094723773025 -11.267606455521426 0.0 0.0
777.4965191980332 0.7100746716156721 384.9441595793169 -13.18901494593512 0.0 0.0
854.5806934104712 23.38447501126545 435.9607312687475 -15.039700890221887 0.0 0.0
934.2791216058879 53.5106808615287 491.4200519594737 -16.225690921585937 0.0 0.0
1014.5647352049725 88.51474998655877 549.455764539943 -16.693324876738583 0.0 0.0
1094.0051506667435 127.0211383384783 608.7197747419997 -16.661709135525587 0.0 0.0
1172.7569240582275 168.05820953661512 668.8180437114804 -16.475702972566097 0.0 0.0
1251.6643801991963 212.19885903957814 730.4833316210012 -16.151553837022323 0.0 0.0
1331.23081494702 259.9656897403782 794.2530090382744 -15.54350966576109 0.0 0.0
1410.6491561533921 310.6976724114784 859.409951596109 -14.454243912627891 0.0 0.0
1487.4767775121281 362.4176042812529 923.7538756309559 -12.775134416349836 0.0 0.0
1559.3609167593988 413.39474719841024 985.2293825037659 -10.858198836919392 0.0 0.0
1626.4709535711675 464.66710196419245 1044.37959253559 -10.492707516904137 0.0 0.0
1727.8172979297406 557.3207735898574 1140.877873929097 -17.27918539550796 0.0 0.0
1727.8172979289432 557.3207735890718 1140.8778739284508 17.279185395609172 0.0 0.0
1626.4709535714321 464.66710196449884 1044.3795925356112 10.492707516886124 0.0 0.0
1559.360916760137 413.394747199239 985.2293825042685 10.858198837008132 0.0 0.0
1487.4767775120201 362.4176042812583 923.7538756308176 12.775134416373056 0.0 0.0
1410.649156153942 310.69767241215965 859.4099515964513 14.4542439125977 0.0 0.0
1331.2308149469022 259.9656897404044 794.2530090382253 15.54350966574758 0.0 0.0
1251.6643801985304 212.19885903908943 730.4833316206 16.151553837039653 0.0 0.0
1172.7569240583741 168.05820953696423 668.8180437115814 16.475702972617 0.0 0.0
1094.0051506657646 127.02113833771466 608.7197747412378 16.661709135473036 0.0 0.0
1014.5647352040327 88.51474998586275 549.4557645392371 16.693324876810166 0.0 0.0
934.2791216053413 53.510680861252325 491.4200519590911 16.225690921418963 0.0 0.0
854.5806934113976 23.384475012484643 435.96073126930133 15.039700890222651 0.0 0.0
777.4965191976992 0.7100746715337891 384.94415957906944 13.18901494590902 0.0 0.0
703.613857649744 -13.235167872157874 336.82094723774605 11.267606455518639 0.0 0.0
630.8197740069203 -18.942456156820015 282.5792251291324 10.397402380972116 0.0 0.0
555.5592312407376 -22.660576672712832 210.84292078859042 11.684704963642918 0.0 0.0
477.5757698812921 -16.05307145368234 150.51636509677888 15.5756195434878 0.0 0.0
418.57793149022393 8.17062274712281 127.99961424071176 2.7035039216595527 0.0 0.0
403.893238812948 -81.46245344644457 115.71216709083444 -54.68157907697508 0.0 0.0
170.29968954343147 -523.1512195786074 -181.8946899408142 110.53969587300622 0.0 0.0
69.53627088465748 -549.7736835279444 -243.36630248613213 -160.65269738998697 0.0 0.0
278.4460575462064 -74.51936241681297 61.48405809738669 8.605729101198918 0.0 0.0
367.4144664766968 33.796298483744195 120.37385804047912 -9.633137168835674 0.0 0.0
442.5617119520328 -14.490101119312202 133.52586258969228 -35.99202773165474 0.0 0.0
528.0348374760888 -22.73029656110684 187.9732560124163 -33.565770457268975 0.0 0.0
607.5616737261385 -19.60975140185007 263.21121499662866 -30.782584747357916 0.0 0.0
683.9749903376235 -13.304127264611317 324.12056088131067 -32.058801660018666 0.0 0.0
758.8121045746598 0.5269456482148343 374.5796766045852 -34.965060143477594 0.0 0.0
834.4337090968239 21.78458199172576 424.67416922284747 -37.72196819297925 0.0 0.0
910.7997969648134 49.098430045161294 477.24035448323696 -39.11245864466282 0.0 0.0
986.4085570998698 80.20778386678346 531.0672904616172 -39.1842995615229 0.0 0.0
1060.8138723043312 113.95103414982131 585.4605370409442 -38.58315123722722 0.0 0.0
1134.2912962552064 150.57628306552164 640.7387138765046 -37.736763628562386 0.0 0.0
1207.6482562657118 189.90877475080717 697.2521443244319 -36.684958199467616 0.0 0.0
1281.0718847224862 232.02360829531813 755.1479297287228 -35.16753667531541 0.0 0.0
1354.0858415748569 276.67581420322546 814.0766392382327 -32.79550204493591 0.0 0.0
1425.7554377298243 323.3361090743797 873.3019926496391 -29.515214998603362 0.0 0.0
1495.7475960070879 372.44079354316204 932.8480306840432 -26.293570278175824 0.0 0.0
1571.3236064933355 432.4825750026885 1000.5120651810075 -24.899379014266184 0.0 0.0
1627.7368619243573 480.0761591678964 1052.4027624347955 -25.398843817598287 0.0 0.0
1627.7368619247438 480.0761591683138 1052.4027624351158 25.398843817805087 0.0 0.0
1571.3236064945932 432.48257500401144 1000.5120651819154 24.899379014374475 0.0 0.0
1495.7475960080078 372.4407935441622 932.8480306846434 26.293570278210904 0.0 0.0
1425.7554377289475 323.336109073612 873.3019926488447 29.515214998720168 0.0 0.0
1354.0858415746643 276.6758142031587 814.0766392380134 32.79550204477033 0.0 0.0
1281.0718847223875 232.02360829531978 755.1479297285421 35.16753667502564 0.0 0.0
1207.6482562653655 189.90877475063326 697.2521443241222 36.68495819944647 0.0 0.0
1134.291296255119 150.57628306562924 640.7387138763261 37.736763628564276 0.0 0.0
1060.8138723034674 113.95103414917634 585.4605370403626 38.583151237256814 0.0 0.0
986.4085570998193 80.2077838669953 531.0672904616083 39.184299561662414 0.0 0.0
910.7997969644902 49.09843004508568 477.24035448299355 39.112458644561386 0.0 0.0
834.4337090971594 21.784581992346773 424.6741692230591 37.72196819298935 0.0 0.0
758.8121045743144 0.5269456481430552 374.57967660437635 34.965060143468676 0.0 0.0
683.974990337202 -13.304127264732386 324.1205608810069 32.058801660026575 0.0 0.0
607.5616737253217 -19.609751402421686 263.21121499605005 30.782584747290993 0.0 0.0
528.0348374753848 -22.730296561603623 187.97325601193077 33.56577045716981 0.0 0.0
442.5617119519578 -14.490101119095705 133.52586258971363 35.99202773159996 0.0 0.0
367.4144664767858 33.79629848401505 120.37385804059113 9.6331371687493 0.0 0.0
278.4460575462201 -74.51936241663711 61.48405809744696 -8.605729101394637 0.0 0.0
69.53627088485783 -549.7736835278192 -243.36630248590956 160.65269738967442 0.0 0.0
14.913096673690376 -559.513981107785 -269.55547708744575 -176.15977816411495 0.0 0.0
156.1600319082904 -62.62347210282042 28.060967941640975 -46.53789446334134 0.0 0.0
298.42784881280244 37.80055464822791 100.8685210383091 -34.15409983020385 0.0 0.0
397.5546444473522 -5.297634164152166 119.08973789882943 -56.44630830013887 0.0 0.0
491.8009054574933 -21.50410684763368 164.25973299942927 -57.538386702821626 0.0 0.0
580.6740447434299 -21.470758788143577 239.15455675636673 -52.779720349914825 0.0 0.0
660.2832391448306 -12.528684875117122 308.47674652765795 -53.215700289038594 0.0 0.0
735.6953100999937 0.4351366374779957 361.601376151474 -56.591285970844794 0.0 0.0
810.0837411444614 20.19819100957227 411.18350304620844 -59.83532617487983 0.0 0.0
883.0411568923821 44.39542101352991 460.72930581289916 -61.1832995558753 0.0 0.0
954.1907712555794 71.50533631595492 510.41383736855863 -60.84937611915901 0.0 0.0
1023.5632598120433 101.05973287462385 560.2382834651703 -59.70670309064011 0.0 0.0
1091.9795691671588 132.8320684033819 610.589387204478 -58.32951792511101 0.0 0.0
1159.5851595788263 167.0665148579754 661.7108009582803 -56.58996893831398 0.0 0.0
1226.679336248954 203.31454888223212 713.5380048683086 -54.22093738791778 0.0 0.0
1293.4579624808157 241.85213690300105 766.3017353340829 -50.85402037798101 0.0 0.0
1360.3909669724578 283.69733373348976 820.73158641568 -46.535749410236825 0.0 0.0
1429.5111490252607 331.7975365714315 879.3044062336284 -42.16132449641989 0.0 0.0
1494.8299129268007 381.2181210417897 936.6143601304552 -37.79211055666437 0.0 0.0
1541.588123848296 418.232188932795 978.4266362426317 -32.21934982426288 0.0 0.0
1541.5881238483296 418.23218893286605 978.4266362426498 32.219349824423105 0.0 0.0
1494.8299129254694 381.2181210404926 936.6143601295489 37.79211055667056 0.0 0.0
1429.511149023475 331.79753656970644 879.3044062323283 42.16132449639136 0.0 0.0
1360.3909669718828 283.6973337330012 820.7315864152648 46.535749410260564 0.0 0.0
1293.4579624800037 241.8521369023096 766.3017353333807 50.85402037795626 0.0 0.0
1226.6793362477677 203.31454888115172 713.5380048673093 54.22093738778915 0.0 0.0
1159.5851595773986 167.06651485673916 661.7108009573334 56.58996893844687 0.0 0.0
1091.9795691655909 132.83206840196175 610.5893872034264 58.32951792502808 0.0 0.0
1023.5632598112026 101.05973287399323 560.2382834645392 59.706703090575324 0.0 0.0
954.1907712547126 71.50533631527725 510.41383736793915 60.84937611901026 0.0 0.0
883.0411568915647 44.395421012879694 460.7293058123402 61.183299555604954 0.0 0.0
810.0837411450881 20.19819101047662 411.1835030465521 59.83532617480414 0.0 0.0
735.69531010056 0.43513663836449723 361.6013761517902 56.591285970878715 0.0 0.0
660.2832391446608 -12.528684874964739 308.4767465274968 53.21570028901007 0.0 0.0
580.6740447429702 -21.470758788330798 239.15455675598326 52.77972034984754 0.0 0.0
491.80090545699727 -21.504106847887684 164.25973299910044 57.53838670275913 0.0 0.0
397.5546444471104 -5.297634164102123 119.0897378987818 56.446308300228694 0.0 0.0
298.4278488129949 37.80055464848118 100.86852103844281 34.154099830250814 0.0 0.0
156.1600319084879 -62.623472102089174 28.0609679419196 46.53789446330291 0.0 0.0
14.913096674023024 -559.5139811071948 -269.55547708704717 176.1597781640961 0.0 0.0
-6.083758739643855 -549.0596270272601 -267.9341908670983 -178.1763267004659 0.0 0.0
89.34582134004808 -58.075941034209805 9.380964091751482 -93.28047725331706 0.0 0.0
233.1978635167406 34.136144059009666 80.20020227272508 -67.40686923251991 0.0 0.0
343.6349064431857 4.2234203777659625 104.52998091212132 -78.7392340551997 0.0 0.0
445.85673750647936 -19.551383764853504 140.13391037978818 -84.03153404235269 0.0 0.0
544.2633773888793 -21.539607252634177 211.19518465577093 -76.57152907148163 0.0 0.0
629.9706505449722 -12.917553924102393 286.8838767098121 -75.04618211673144 0.0 0.0
707.9554336415649 0.9221256286446504 345.8319997384097 -78.1489026510734 0.0 0.0
780.786189563449 18.429503352464117 394.90244358153467 -81.34886138637344 0.0 0.0
850.562380993072 39.47761888243669 441.6636750339459 -82.45056632918808 0.0 0.0
917.4444184391373 62.69299757148755 487.39723516685905 -81.69641222298888 0.0 0.0
982.0910571503077 87.9166507241175 532.7496384269716 -80.10073683614088 0.0 0.0
1045.1240114969596 115.01996467395765 578.1114189698227 -78.17736759975833 0.0 0.0
1107.246747789537 143.98999192606652 623.8967425358462 -75.83562814248776 0.0 0.0
1168.1321983597043 174.20886063929376 669.6387753652691 -72.7601032553489 0.0 0.0
1228.4390228621808 206.62498476026684 716.1193268383674 -68.68409397911742 0.0 0.0
1290.559447757316 243.46289979496572 765.6306223618058 -63.69564281169979 0.0 0.0
1354.1887544903702 285.5093095720504 818.4465327525879 -57.92247137862296 0.0 0.0
1413.4940806468112 327.83592673243203 869.2232908372758 -50.33263411177877 0.0 0.0
1456.9009071358482 359.8258645277991 906.8580578899038 -39.39663584267082 0.0 0.0
1456.9009071356024 359.825864527565 906.8580578898457 39.39663584271602 0.0 0.0
1413.494080648148 327.8359267338288 869.2232908380179 50.332634111852656 0.0 0.0
1354.1887544918804 285.50930957368644 818.4465327534315 57.922471378810556 0.0 0.0
1290.5594477583759 243.46289979619968 765.630622362523 63.69564281194373 0.0 0.0
1228.4390228611433 206.62498475934416 716.1193268376751 68.68409397909755 0.0 0.0
1168.1321983594632 174.20886063916254 669.638775365024 72.76010325523534 0.0 0.0
1107.2467477892342 143.98999192595466 623.8967425355933 75.83562814258775 0.0 0.0
1045.1240114968941 115.01996467409077 578.1114189697341 78.17736759976623 0.0 0.0
982.0910571492601 87.91665072326265 532.7496384263895 80.10073683613811 0.0 0.0
917.4444184379574 62.692997570480486 487.39723516613253 81.69641222288419 0.0 0.0
850.5623809917068 39.477618881253704 441.6636750330669 82.4505663291019 0.0 0.0
780.7861895615722 18.429503350847483 394.9024435803626 81.34886138641187 0.0 0.0
707.9554336409773 0.9221256283295105 345.8319997380187 78.1489026510304 0.0 0.0
629.9706505445408 -12.917553924266123 286.8838767094418 75.04618211661557 0.0 0.0
544.2633773884478 -21.53960725274861 211.19518465540807 76.57152907139435 0.0 0.0
445.85673750649426 -19.551383764403095 140.13391037982942 84.03153404219805 0.0 0.0
343.6349064433804 4.223420378562493 104.52998091242077 78.73923405508279 0.0 0.0
233.19786351694717 34.13614405917141 80.20020227283557 67.40686923255835 0.0 0.0
89.34582133997816 -58.07594103408117 9.380964091769098 93.2804772532402 0.0 0.0
-6.083758739551058 -549.0596270270856 -267.9341908668839 178.17632670030696 0.0 0.0
-11.173567162295626 -526.6222355387423 -250.85951267170338 -175.41276731499076 0.0 0.0
52.66008247047093 -54.770836018752014 -0.6332260644843215 -129.69865593591956 0.0 0.0
177.44082061329243 27.355462757518993 61.43888501124343 -100.97258086493139 0.0 0.0
286.1022293159126 10.657057986193047 89.05321421284111 -102.42282221215565 0.0 0.0
388.7955119222456 -15.134289133038617 117.1706028641621 -111.29221719627668 0.0 0.0
497.00286426418495 -21.15597808054077 179.6539781029806 -103.47229722896813 0.0 0.0
592.4327235457281 -13.574975324440732 259.1305152297907 -98.34488198672872 0.0 0.0
673.8950666948749 0.9377244639654521 325.26446093075697 -99.6899152628171 0.0 0.0
745.9643015294623 16.737371821234163 375.4453486824731 -102.28419449079252 0.0 0.0
812.7153216210708 34.38474477562674 419.673909240016 -102.96835183489597 0.0 0.0
875.6307123361427 53.78225144258403 461.7172236161871 -101.73738258736168 0.0 0.0
935.4066159350419 74.65156322154525 502.54647854503673 -99.70426294660302 0.0 0.0
993.2215534518491 96.96404795602346 542.9622841127737 -97.37486477237988 0.0 0.0
1049.552424738717 120.75839804918948 583.2971169455762 -94.42216908654648 0.0 0.0
1104.538015556063 145.35313481248275 623.3137379937152 -90.7225098905091 0.0 0.0
1158.8396686253288 171.4393364859369 663.6615625809967 -86.24580522310784 0.0 0.0
1214.0106583600184 201.29051042409384 706.2258211950683 -80.76932754352526 0.0 0.0
1271.3006153555611 236.172172911608 752.2969251273153 -73.75490267050948 0.0 0.0
1326.4773385387628 272.5699165764113 798.04383975568 -63.28461790090078 0.0 0.0
1370.1750172048448 302.32335401205677 834.6880836522969 -47.549342223032895 0.0 0.0
1370.1750172034976 302.3233540107696 834.688083651185 47.549342223379504 0.0 0.0
1326.477338536177 272.56991657387874 798.0438397538048 63.28461790095636 0.0 0.0
1271.3006153544698 236.17217291056625 752.2969251267455 73.75490267052763 0.0 0.0
1214.0106583598633 201.29051042406007 706.2258211949306 80.76932754363932 0.0 0.0
1158.8396686253157 171.43933648605736 663.6615625809927 86.24580522313558 0.0 0.0
1104.5380155566734 145.3531348132924 623.3137379942443 90.72250989066299 0.0 0.0
1049.5524247383312 120.75839804898021 583.2971169452985 94.42216908661015 0.0 0.0
993.2215534525953 96.96404795697023 542.9622841132359 97.3748647724519 0.0 0.0
935.4066159344906 74.65156322122124 502.54647854464923 99.70426294662005 0.0 0.0
875.6307123350774 53.7822514417324 461.7172236154189 101.73738258738905 0.0 0.0
812.715321620612 34.38474477542053 419.67390923962466 102.96835183489452 0.0 0.0
745.9643015292006 16.73737182123861 375.4453486823001 102.28419449077478 0.0 0.0
673.8950666946499 0.9377244639937459 325.26446093057206 99.68991526271498 0.0 0.0
592.4327235455978 -13.574975324335071 259.1305152295935 98.34488198655566 0.0 0.0
497.00286426364255 -21.155978080817533 179.65397810257107 103.47229722886945 0.0 0.0
388.795511921738 -15.134289133155042 117.17060286396033 111.29221719637063 0.0 0.0
286.1022293158083 10.657057986148496 89.05321421280267 102.42282221221711 0.0 0.0
177.44082061336448 27.355462757452273 61.43888501124503 100.97258086485026 0.0 0.0
52.66008247043144 -54.77083601848833 -0.6332260644170677 129.69865593561212 0.0 0.0
-11.173567162108725 -526.6222355385502 -250.85951267145907 175.41276731473266 0.0 0.0
-9.073939226462855 -496.10773018689827 -224.68369266549462 -171.4333987922448 0.0 0.0
31.33072212877433 -51.06068009897253 -5.91898739105946 -156.9091743490181 0.0 0.0
130.2997197358749 20.00423325095461 45.09118589604884 -130.46962213164164 0.0 0.0
228.25977757273068 13.22608553650171 72.44178247418616 -126.32147705699253 0.0 0.0
322.85963591295723 -8.267357252341077 96.17293149375034 -136.63552795975824 0.0 0.0
433.50836290752574 -20.20458134393256 145.2312931592029 -133.56894650848903 0.0 0.0
541.3911621689463 -13.239727170945129 223.789182035943 -124.05520608932429 0.0 0.0
629.9663527408118 -0.2550788893638867 296.70110139403306 -121.90776310194892 0.0 0.0
704.031264611504 14.714630290454679 351.29146375044985 -122.90307796696911 0.0 0.0
768.3933334049188 29.27965152362838 394.1104590693618 -122.74183414078509 0.0 0.0
827.2882753813567 44.71401569684748 432.5496347515358 -120.99173037614747 0.0 0.0
882.428582132077 61.35203209524337 469.1065465040831 -118.53942202638339 0.0 0.0
934.7729573339626 78.8953639659612 504.4915624428103 -115.81171216916667 0.0 0.0
985.4270503364019 97.32825018989098 539.3499541808658 -112.48808506734716 0.0 0.0
1035.0203078409547 116.67247891130498 574.0764078162961 -108.25194040954852 0.0 0.0
1082.7502951945762 136.70846873546944 608.1741153268806 -103.25807018090806 0.0 0.0
1130.185998441626 158.2342093642624 642.7637669315197 -97.57753390534839 0.0 0.0
1179.9404239787214 184.3131742884638 680.6747226400447 -89.89544438327475 0.0 0.0
1231.5841559434919 214.91211824879207 721.7284835770371 -77.23386106016335 0.0 0.0
1278.3758308349868 244.15188827375655 759.6131976542049 -57.3543669345357 0.0 0.0
1278.3758308343247 244.1518882731026 759.6131976539339 57.35436693455999 0.0 0.0
1231.5841559432097 214.9121182485535 721.7284835771026 77.23386106017698 0.0 0.0
1179.9404239794937 184.31317428942202 680.6747226404925 89.89544438361412 0.0 0.0
1130.1859984405492 158.23420936338476 642.7637669307649 97.57753390565387 0.0 0.0
1082.7502951930683 136.708468733987 608.1741153257994 103.25807018074437 0.0 0.0
1035.020307840021 116.67247891044343 574.0764078154644 108.25194040944244 0.0 0.0
985.4270503357038 97.32825018933062 539.349954180378 112.48808506733727 0.0 0.0
934.7729573329403 78.89536396509772 504.49156244202993 115.81171216920177 0.0 0.0
882.4285821311543 61.35203209445109 469.1065465033778 118.53942202626803 0.0 0.0
827.2882753806235 44.71401569628608 432.5496347510787 120.99173037611023 0.0 0.0
768.3933334041236 29.279651523100767 394.11045906891934 122.74183414077044 0.0 0.0
704.0312646107144 14.714630289769659 351.2914637498676 122.90307796676478 0.0 0.0
629.9663527404614 -0.25507888941253043 296.7011013937744 121.90776310197151 0.0 0.0
541.3911621690556 -13.239727170303112 223.78918203592698 124.05520608941396 0.0 0.0
433.50836290743644 -20.20458134363893 145.23129315912354 133.56894650832774 0.0 0.0
322.8596359126159 -8.26735725256859 96.17293149357675 136.63552795954803 0.0 0.0
228.25977757248086 13.226085536083254 72.44178247398709 126.3214770568203 0.0 0.0
130.29971973585035 20.004233250968486 45.091185896045644 130.46962213145378 0.0 0.0
31.330722128769533 -51.060680098706186 -5.918987390980998 156.9091743489583 0.0 0.0
-9.073939226362583 -496.10773018652304 -224.6836926652019 171.4333987922193 0.0 0.0
-3.6110221044186943 -459.14710897515727 -192.85453671731096 -167.7583206419389 0.0 0.0
17.126809556667983 -47.54290003089175 -9.124624946725508 -176.10226512150822 0.0 0.0
89.12931467033101 13.27967808965429 30.722079860821456 -154.1085144612524 0.0 0.0
170.69462754638081 14.166974091150784 55.45535691357228 -148.4958681690234 0.0 0.0
252.14459712343893 -1.6569708947460184 75.97898056057613 -158.55804675427845 0.0 0.0
354.9561251906434 -16.369802527123028 111.28160028453743 -164.49346921011664 0.0 0.0
471.86791579616147 -13.316755531849322 180.14542438738408 -153.67404840566874 0.0 0.0
572.228161197375 -1.2133739388878997 258.0134668175449 -145.7436882624232 0.0 0.0
650.7104704666617 11.729027033640389 318.71201788115445 -143.64727170273375 0.0 0.0
714.9036475998136 23.995842485925806 363.02938300183376 -141.98410423015784 0.0 0.0
770.0678412216546 35.48919309649146 398.52744075738224 -139.48119735056997 0.0 0.0
820.703291221207 48.1187827332188 431.1634274187424 -136.59276566516058 0.0 0.0
867.5545680439942 60.86351687437845 461.5724390086832 -133.5346055959643 0.0 0.0
912.0966876123101 73.98290565679096 490.8132077970158 -129.98109083688811 0.0 0.0
955.7958648990548 87.85897326125922 519.8791541243667 -125.41063048001702 0.0 0.0
998.6162884831979 102.62998306600656 548.9512471324056 -119.85333563080897 0.0 0.0
1037.7056693634577 115.79986719155845 575.3136205524977 -113.80678382887501 0.0 0.0
1077.503239243269 130.87903087462456 602.7805229599427 -106.2397117542276 0.0 0.0
1124.9499266263238 153.731408755011 637.7985904245219 -92.77124453469374 0.0 0.0
1177.6592000410496 183.66841874248743 678.882528043001 -69.81442148418085 0.0 0.0
1177.6592000405644 183.66841874204823 678.8825280425286 69.81442148431297 0.0 0.0
1124.949926625968 153.73140875485439 637.798590424131 92.77124453512906 0.0 0.0
1077.503239244504 130.87903087622453 602.7805229607914 106.23971175484229 0.0 0.0
1037.7056693626264 115.79986719094609 575.3136205519418 113.80678382910463 0.0 0.0
998.6162884828974 102.62998306583984 548.9512471321946 119.85333563081667 0.0 0.0
955.7958648976727 87.85897325982495 519.8791541234405 125.41063047979637 0.0 0.0
912.0966876120921 73.98290565672056 490.8132077968209 129.98109083689258 0.0 0.0
867.5545680445011 60.863516875134934 461.5724390089839 133.53460559602726 0.0 0.0
820.7032912213124 48.118782733442515 431.1634274187668 136.5927656650503 0.0 0.0
770.0678412209951 35.48919309606865 398.52744075695784 139.48119735059075 0.0 0.0
714.903647599156 23.995842485471854 363.0293830014056 141.9841042301048 0.0 0.0
650.7104704663708 11.729027033562517 318.71201788095703 143.64727170267275 0.0 0.0
572.2281611967684 -1.2133739391768472 258.0134668170948 145.74368826241158 0.0 0.0
471.86791579563146 -13.316755531983127 180.14542438702034 153.67404840569904 0.0 0.0
354.95612519021813 -16.369802527176944 111.28160028432261 164.49346921001091 0.0 0.0
252.1445971235412 -1.6569708942437202 75.97898056076264 158.55804675424952 0.0 0.0
170.69462754632949 14.166974091254705 55.45535691358906 148.49586816888927 0.0 0.0
89.12931467032068 13.27967808974956 30.722079860847572 154.10851446107506 0.0 0.0
17.12680955674102 -47.54290003068711 -9.124624946642362 176.10226512141145 0.0 0.0
-3.6110221044222257 -459.1471089749568 -192.85453671710164 167.75832064182651 0.0 0.0
1.8022030405161331 -417.1336436137675 -159.58959167276578 -165.2687307374458 0.0 0.0
4.341417543361961 -44.93131687564599 -12.176762165124124 -187.45897726978095 0.0 0.0
51.57309178648953 7.927878354987755 17.849957586990005 -171.83997274114344 0.0 0.0
114.13703018295159 15.151360071161285 38.792333997852054 -166.93935596284575 0.0 0.0
179.42470874808365 2.705604950512992 55.12456271984733 -177.59442183909198 0.0 0.0
260.44937618593906 -9.108691079744506 79.34759264480368 -190.2972598860282 0.0 0.0
374.28896977285467 -11.786321168882116 130.0715018436911 -187.2746072438832 0.0 0.0
490.41693438345703 -2.506938597810464 204.66072848608243 -173.62232734483482 0.0 0.0
579.3546249936699 8.30061213381117 272.20258792960055 -165.53675929951876 0.0 0.0
645.3225901003838 18.066126371295177 320.9666149419874 -161.0169325883991 0.0 0.0
698.5929877016073 26.04168274823411 356.16829879169705 -157.46277839532212 0.0 0.0
744.5092629059093 34.7848388561307 385.4674970916899 -153.9427643922254 0.0 0.0
785.794490067851 43.145316318832435 411.34940696420097 -150.4738649260677 0.0 0.0
823.951338022769 50.929117965969425 434.9552666685649 -146.8508587832826 0.0 0.0
861.198884471112 58.93947125204886 457.96028134924677 -142.34744108870206 0.0 0.0
898.9359487669411 68.35594890779414 481.8092522979522 -136.249710237931 0.0 0.0
933.5735219281539 76.1034504343042 503.383480659653 -129.32465461052996 0.0 0.0
961.0225591098949 77.93718350549011 518.2612111129899 -122.22087429806757 0.0 0.0
998.6570168570771 87.5974260492417 541.653797322583 -110.1224353793177 0.0 0.0
1059.513999879723 118.3076104751353 586.9436145337858 -86.41004099850093 0.0 0.0
1059.5139998801324 118.30761047556189 586.9436145341921 86.41004099848017 0.0 0.0
998.6570168561732 87.59742604840437 541.6537973222032 110.1224353794908 0.0 0.0
961.0225591094006 77.937183505203 518.2612111127943 122.22087429841278 0.0 0.0
933.5735219281539 76.10345043447978 503.3834806595668 129.32465461074742 0.0 0.0
898.9359487655689 68.35594890658552 481.8092522968984 136.24971023802541 0.0 0.0
861.1988844720843 58.939471253231545 457.96028134977485 142.34744108883845 0.0 0.0
823.9513380232137 50.92911796667937 434.95526666894546 146.8508587833989 0.0 0.0
785.7944900667961 43.14531631785201 411.3494069636005 150.47386492602718 0.0 0.0
744.5092629058489 34.78483885622765 385.4674970915939 153.94276439222205 0.0 0.0
698.5929877015778 26.041682748424208 356.16829879157495 157.46277839529023 0.0 0.0
645.3225900998013 18.06612637086343 320.9666149415428 161.01693258834212 0.0 0.0
579.3546249934747 8.300612133885693 272.20258792940393 165.53675929944268 0.0 0.0
490.4169343833961 -2.50693859755426 204.6607284859566 173.62232734480276 0.0 0.0
374.2889697722412 -11.786321169250087 130.07150184328478 187.27460724375715 0.0 0.0
260.44937618560374 -9.108691079792807 79.34759264466008 190.2972598857449 0.0 0.0
179.42470874794893 2.705604950411173 55.12456271977854 177.59442183893793 0.0 0.0
114.13703018278548 15.15136007089535 38.79233399772899 166.9393559625739 0.0 0.0
51.57309178654728 7.927878355290135 17.84995758710171 171.83997274082975 0.0 0.0
4.341417543433673 -44.931316875556526 -12.176762165077129 187.45897726958933 0.0 0.0
1.8022030405078766 -417.13364361343423 -159.58959167254736 165.26873073742524 0.0 0.0
3.7540884622162096 -370.8102906282461 -128.9720329733598 -162.4601200136782 0.0 0.0
-11.108899833321399 -44.50900638474035 -16.68669444826961 -193.0333835724331 0.0 0.0
16.14328789142871 4.686690169701526 6.25071860388587 -183.87770520096205 0.0 0.0
59.047343404283644 16.309896354187316 22.62584173615544 -180.84382672559445 0.0 0.0
104.46859520223458 6.605023907148256 33.63238166644933 -192.2561261589808 0.0 0.0
157.38740218248626 -2.7954494400590635 48.05557421639677 -209.00087017591056 0.0 0.0
242.2225716815252 -5.567014889300253 78.44695147518688 -217.36881115933278 0.0 0.0
360.3818034821893 -2.5901395467086044 133.28304646104655 -207.82821955827228 0.0 0.0
468.1623206373663 4.966210402380646 199.78529429789546 -191.78898949136754 0.0 0.0
542.4829618094749 11.13268863154807 254.26244291113443 -181.14785011286682 0.0 0.0
595.5329873839707 16.83556643858546 293.47116492002675 -175.13656531066388 0.0 0.0
637.0392754579791 21.216209012742013 321.62614551892193 -170.77174773693213 0.0 0.0
672.5731774364631 25.550731054606402 344.45936645606577 -166.74592673307083 0.0 0.0
704.0181773256688 28.577129134345114 363.28886546219803 -162.9336296335747 0.0 0.0
733.6477836745979 30.449389151230804 379.8854172892096 -158.66808809079168 0.0 0.0
764.6351141872865 32.87941952654592 396.9844503828237 -152.9179415842985 0.0 0.0
798.7538077470176 37.140270871204535 416.44782978077365 -144.7108793075993 0.0 0.0
823.6088392764901 33.13995023143528 427.54530204803814 -136.4306050808311 0.0 0.0
838.8168030270946 16.073523112459497 426.527377787299 -128.26672270459312 0.0 0.0
906.1049831432923 41.77556992087645 471.7139116141541 -109.76803085849238 0.0 0.0
906.1049831418629 41.77556991937553 471.7139116132063 109.7680308584331 0.0 0.0
838.8168030282748 16.073523113898545 426.5273777880427 128.26672270508712 0.0 0.0
823.6088392773563 33.139950232924434 427.5453020486623 136.4306050814813 0.0 0.0
798.7538077459292 37.14027087007946 416.4478297801179 144.71087930752049 0.0 0.0
764.6351141872838 32.87941952653054 396.98445038294733 152.91794158411238 0.0 0.0
733.6477836747381 30.449389151417904 379.8854172893947 158.66808809076713 0.0 0.0
704.018177326169 28.577129134998643 363.2888654625348 162.933629633743 0.0 0.0
672.5731774367522 25.55073105507404 344.45936645622663 166.745926733141 0.0 0.0
637.0392754581592 21.21620901318154 321.6261455190531 170.7717477370067 0.0 0.0
595.5329873841963 16.835566439001525 293.4711649201635 175.136565310613 0.0 0.0
542.4829618095711 11.132688631959198 254.26244291116686 181.1478501128812 0.0 0.0
468.16232063680445 4.9662104021020355 199.78529429754235 191.78898949138573 0.0 0.0
360.38180348137263 -2.590139547437907 133.28304646048318 207.82821955822038 0.0 0.0
242.2225716808991 -5.567014889731537 78.44695147482871 217.36881115921676 0.0 0.0
157.38740218252116 -2.7954494395511844 48.05557421656174 209.0008701758044 0.0 0.0
104.4685952020467 6.605023906876138 33.63238166631256 192.2561261588042 0.0 0.0
59.04734340398088 16.30989635357985 22.62584173588605 180.84382672547932 0.0 0.0
16.143287891380382 4.686690169706198 6.250718603874018 183.8777052007755 0.0 0.0
-11.108899833242246 -44.5090063845396 -16.686694448188696 193.03338357225783 0.0 0.0
3.7540884622113353 -370.81029062801053 -128.97203297319467 162.46012001351878 0.0 0.0
0.8738793668414964 -320.9261853844561 -102.79966542321765 -157.0478138458531 0.0 0.0
-30.081314986023358 -46.89333495006173 -23.09639846299843 -194.96278182832694 0.0 0.0
-17.91307064745756 3.6880621096591293 -4.269295117879397 -191.0257431227032 0.0 0.0
5.53443623589537 17.44515712266549 6.905318092514326 -189.7666231371012 0.0 0.0
28.836598095087687 10.887818088783913 12.021119184786391 -200.9087063822958 0.0 0.0
50.6781458494407 2.4051873323365656 16.44909212038835 -219.66160321503753 0.0 0.0
81.40560994397529 -0.8038949139611864 25.892863719907524 -234.77384078853746 0.0 0.0
138.94574341542415 0.9966364201423978 46.56813866045806 -237.2043192806236 0.0 0.0
224.34094346347194 4.902956590223795 80.73741367012958 -223.75351452501894 0.0 0.0
306.1068495550786 7.063722465988015 120.9429749084487 -207.14027998201772 0.0 0.0
368.8703602730063 8.470891551601582 159.77622417600915 -194.78883425756365 0.0 0.0
409.18472521277477 8.758018257739764 189.2501968081936 -187.1104134678762 0.0 0.0
437.61184966961974 8.971866384156044 211.70513278342543 -181.68165660978187 0.0 0.0
460.881921349769 6.9734031354477395 228.52058983666427 -177.23160632866842 0.0 0.0
483.682126079264 2.7748136448848015 241.75283687652973 -173.04790715627746 0.0 0.0
511.4676233527864 -2.8025387663654726 254.54181433754343 -168.3821751307686 0.0 0.0
548.9296981452884 -6.307640153407874 271.5742824315448 -161.2268403539653 0.0 0.0
595.550588063042 -5.953095306296433 294.9149909185349 -150.02396778072548 0.0 0.0
614.3524832881732 -36.8229249208394 289.98106515964685 -140.80993818201372 0.0 0.0
650.9220851031624 -69.36267693123136 288.6492338650844 -139.93999042108547 0.0 0.0
650.9220851031525 -69.36267693120521 288.6492338650685 139.93999042132174 0.0 0.0
614.3524832888531 -36.82292491990643 289.98106516010677 140.80993818253256 0.0 0.0
595.5505880628008 -5.953095306345119 294.91499091847993 150.02396778096772 0.0 0.0
548.9296981438499 -6.307640154722918 271.57428243062134 161.22684035408417 0.0 0.0
511.46762335237884 -2.802538766937289 254.54181433710764 168.38217513074994 0.0 0.0
483.6821260797491 2.7748136453810446 241.752836876757 173.04790715637705 0.0 0.0
460.8819213496373 6.973403135672015 228.52058983666896 177.2316063288262 0.0 0.0
437.61184966907587 8.97186638347759 211.70513278301087 181.6816566099079 0.0 0.0
409.18472521264493 8.75801825766088 189.2501968080553 187.1104134679413 0.0 0.0
368.870360272612 8.470891550980213 159.7762241756098 194.78883425748154 0.0 0.0
306.10684955536715 7.06372246680516 120.94297490867542 207.14027998195053 0.0 0.0
224.34094346338148 4.902956590328653 80.7374136701013 223.7535145250871 0.0 0.0
138.94574341519157 0.9966364200829165 46.568138660361576 237.20431928072026 0.0 0.0
81.40560994382855 -0.8038949140493745 25.89286371983712 234.77384078835732 0.0 0.0
50.678145849098904 2.405187331652061 16.449092120082376 219.6616032148292 0.0 0.0
28.83659809478816 10.887818088069388 12.021119184482052 200.90870638198544 0.0 0.0
5.534436235874544 17.44515712265412 6.905318092504889 189.76662313689803 0.0 0.0
-17.91307064747045 3.6880621095978494 -4.269295117902376 191.02574312254808 0.0 0.0
-30.081314985987557 -46.89333494984994 -23.096398462926835 194.9627818281298 0.0 0.0
0.8738793668312645 -320.9261853842227 -102.79966542310524 157.04781384563034 0.0 0.0
-10.444247315091287 -270.0022292983579 -85.06093931735538 -147.35425467825908 0.0 0.0
-49.55954272647328 -49.65009914326777 -29.772605069519336 -194.7586612434513 0.0 0.0
-50.987580860362236 3.7758670320805128 -14.187353484682667 -193.88178320225015 0.0 0.0
-46.371237652726606 18.44406883350573 -8.419527595780778 -193.46939214946536 0.0 0.0
-45.8762514897183 15.189108596260185 -9.344499652318287 -203.068765480467 0.0 0.0
-57.08112245891765 7.39803634585998 -15.485275562733193 -220.632982363371 0.0 0.0
-84.35145341281212 2.628848122187172 -26.308478992935804 -234.92994944721357 0.0 0.0
-140.00785716810614 -0.586948746188602 -46.82195723632704 -237.38611114645227 0.0 0.0
-224.23558365093152 -4.644386569763082 -80.63192622447183 -223.87934770634388 0.0 0.0
-305.853038619922 -6.687973353617011 -120.72763486140818 -207.11743200257303 0.0 0.0
-369.1045939774183 -6.971828703506489 -159.22875951573536 -194.61693667118777 0.0 0.0
-411.00008666061683 -7.101592733953254 -189.31326468407832 -186.62760486677053 0.0 0.0
-442.21307307675943 -9.594489515381014 -213.8943538166589 -181.2972290900714 0.0 0.0
-466.7291006233158 -15.149735215107484 -235.045228934075 -177.99546442960172 0.0 0.0
-483.02738059689136 -24.071211140516795 -253.09192142096316 -176.56259518039604 0.0 0.0
-487.89424201229474 -35.39791546607756 -267.1260531515973 -176.49840879831703 0.0 0.0
-472.42837056495955 -46.461945311311666 -273.69662432159095 -176.5636306877379 0.0 0.0
-407.4161215591937 -39.878429972827604 -256.68652846858646 -176.29872019276027 0.0 0.0
-225.41769381957994 -39.257184292648816 -196.9776109698294 -179.31630203462578 0.0 0.0
-23.753187221778546 -175.7815553681022 -71.0445893223449 -172.1955144936859 0.0 0.0
-23.753187221329938 -175.78155536738296 -71.04458932205813 172.19551449400961 0.0 0.0
-225.4176938196593 -39.257184292521 -196.97761096996044 179.3163020350069 0.0 0.0
-407.4161215593855 -39.87842997323048 -256.68652846875517 176.2987201931645 0.0 0.0
-472.42837056367205 -46.46194530933627 -273.6966243205087 176.56363068777426 0.0 0.0
-487.89424201154276 -35.39791546526527 -267.12605315102496 176.498408798359 0.0 0.0
-483.027380597009 -24.07121114136362 -253.09192142117493 176.56259518055077 0.0 0.0
-466.7291006230704 -15.149735214958866 -235.04522893385987 177.99546442962318 0.0 0.0
-442.2130730770372 -9.594489516178228 -213.89435381688847 181.29722909020597 0.0 0.0
-411.00008666041026 -7.101592734329316 -189.31326468402023 186.62760486691224 0.0 0.0
-369.10459397676294 -6.971828703312127 -159.22875951532222 194.6169366711157 0.0 0.0
-305.85303861959676 -6.6879733541999045 -120.72763486134454 207.11743200253204 0.0 0.0
-224.2355836499662 -4.644386569243569 -80.63192622398603 223.8793477064369 0.0 0.0
-140.00785716759935 -0.58694874614085 -46.82195723613219 237.38611114647586 0.0 0.0
-84.351453412757 2.628848121679378 -26.308478993052148 234.92994944700476 0.0 0.0
-57.08112245890152 7.398036345786553 -15.485275562745294 220.632982362995 0.0 0.0
-45.87625148969393 15.189108595979528 -9.344499652395065 203.0687654802619 0.0 0.0
-46.37123765264816 18.444068833481587 -8.419527595765679 193.46939214934974 0.0 0.0
-50.98758086029754 3.775867032092508 -14.187353484662214 193.88178320209084 0.0 0.0
-49.55954272655778 -49.65009914341298 -29.772605069594952 194.75866124329588 0.0 0.0
-10.444247315126608 -270.00222929812537 -85.06093931730632 147.35425467808832 0.0 0.0
-22.8370322632179 -220.93865868670622 -73.125112492661 -134.41715084825762 0.0 0.0
-66.41074847541476 -49.9115011665683 -34.90964267192189 -191.2848799243007 0.0 0.0
-83.00896803691766 3.7812803351223074 -23.81798806501817 -192.89632998974452 0.0 0.0
-96.64329631556792 19.290114603355143 -23.312698514039976 -192.07319136969642 0.0 0.0
-118.8463650955759 18.63495011757391 -30.53202523381203 -198.51657263316224 0.0 0.0
-162.64405113915163 12.10855278029086 -47.1102661916001 -211.32330037227865 0.0 0.0
-243.76301690134187 7.260585798159672 -78.69396755842514 -218.32078556636145 0.0 0.0
-359.9970751077452 2.9379227301459956 -133.2096789177407 -208.3618961687514 0.0 0.0
-467.738943412798 -4.762728623916203 -199.56582098203495 -191.97710370492084 0.0 0.0
-542.0929650596429 -10.670714893407336 -253.9139444201743 -181.11001074899744 0.0 0.0
-595.0615609509714 -15.680675485810596 -292.76460355602705 -174.82174008090067 0.0 0.0
-637.1551800848416 -19.74126968994088 -320.97148602447965 -169.94065692345245 0.0 0.0
-674.7252904585453 -25.99014419827853 -345.5545800514245 -165.7654102136583 0.0 0.0
-709.8988366201484 -35.45571208632862 -369.2975483471746 -163.4084685486058 0.0 0.0
-743.0397174019167 -48.67447168291284 -393.44758819549264 -163.34641006802937 0.0 0.0
-772.0400686279831 -64.4535547133705 -416.74350688603397 -165.50482421198737 0.0 0.0
-791.8775354953935 -79.50402262858589 -435.22736596359266 -170.33549652082775 0.0 0.0
-800.1277794653071 -92.48945609060013 -446.7526041405352 -177.92986942678024 0.0 0.0
-833.0460438409743 -146.06820522884755 -491.31091861004967 -187.28344434776972 0.0 0.0
-848.9508653273423 -238.6880288263383 -547.3459474593988 -206.30909858886002 0.0 0.0
-848.9508653279865 -238.68802882770245 -547.3459474600638 206.30909858948434 0.0 0.0
-833.0460438396029 -146.06820522741873 -491.3109186091871 187.28344434790915 0.0 0.0
-800.1277794650473 -92.4894560904367 -446.75260414038473 177.92986942696564 0.0 0.0
-791.8775354959324 -79.50402262919872 -435.227365963983 170.33549652082604 0.0 0.0
-772.040068627726 -64.45355471322583 -416.743506885871 165.50482421196693 0.0 0.0
-743.0397174016564 -48.67447168287845 -393.4475881953223 163.34641006804043 0.0 0.0
-709.8988366201813 -35.455712086519426 -369.2975483471847 163.40846854866675 0.0 0.0
-674.7252904571425 -25.990144197024932 -345.5545800505098 165.7654102136629 0.0 0.0
-637.1551800843413 -19.741269689714144 -320.9714860241263 169.94065692352552 0.0 0.0
-595.0615609497562 -15.680675484741599 -292.7646035552021 174.8217400807138 0.0 0.0
-542.0929650584842 -10.670714891996752 -253.9139444192336 181.11001074864254 0.0 0.0
-467.7389434119325 -4.762728623340134 -199.56582098143724 191.97710370496412 0.0 0.0
-359.99707510722044 2.9379227298544297 -133.2096789175301 208.36189616892406 0.0 0.0
-243.76301690087644 7.260585798061143 -78.69396755825085 218.32078556626848 0.0 0.0
-162.64405113838 12.10855278127776 -47.11026619106878 211.3233003720589 0.0 0.0
-118.84636509512461 18.63495011814814 -30.53202523350525 198.51657263302513 0.0 0.0
-96.64329631579483 19.29011460258073 -23.312698514343154 192.07319136961593 0.0 0.0
-83.00896803700114 3.7812803348987667 -23.817988065113617 192.8963299896585 0.0 0.0
-66.41074847540852 -49.911501166580685 -34.90964267192962 191.28487992412468 0.0 0.0
-22.837032263174144 -220.93865868647674 -73.12511249258127 134.41715084808664 0.0 0.0
-28.445618557380314 -174.83980542569867 -60.985627194923694 -119.5590647465157 0.0 0.0
-80.29738243751193 -47.647201621292496 -38.38092017083463 -183.89930803101575 0.0 0.0
-113.55546372946239 3.5781354049948004 -33.04022970020966 -187.889567727881 0.0 0.0
-145.17835956255794 19.61524620692792 -37.847918407325494 -185.53348209762814 0.0 0.0
-189.49014339894813 20.861501037872838 -51.48596682667396 -187.84217473684012 0.0 0.0
-262.52295305768973 17.252310912245 -78.31772517543685 -193.67080875713117 0.0 0.0
-373.3438935187259 13.27063954798857 -129.7489822973241 -188.73617361128785 0.0 0.0
-489.55413051385216 2.8759593964327337 -204.24795107906397 -174.24011753818954 0.0 0.0
-579.0741443750962 -8.16959891729887 -272.0246780702402 -165.61523347632922 0.0 0.0
-645.0389053345441 -17.730155847512208 -320.70459365140556 -160.99573545146927 0.0 0.0
-698.2301047824553 -25.20771064814585 -355.61865235579035 -157.13948120310752 0.0 0.0
-744.4517398452656 -33.56609422235286 -384.8272666659502 -152.92182650349883 0.0 0.0
-787.2808197873494 -43.232004793912495 -412.0028100020283 -148.96397733562355 0.0 0.0
-828.9317287793142 -56.17058016217149 -439.80550775295495 -146.54425491492626 0.0 0.0
-870.3329405397634 -73.54225666321634 -469.591272807277 -146.66086950995143 0.0 0.0
-909.1509879568622 -93.96836695802011 -499.6639126510506 -149.7154922147322 0.0 0.0
-943.2155587603078 -115.56907383240605 -527.9087031651724 -155.2929279046838 0.0 0.0
-981.2204084464522 -148.5182638891494 -563.759863909901 -161.42874606081583 0.0 0.0
-1025.203104191706 -198.35537295643087 -610.8546220944462 -166.72777959198865 0.0 0.0
-1128.7202575543151 -336.6046892847561 -731.2045429409591 -171.88396326744805 0.0 0.0
-1128.7202575541567 -336.60468928452235 -731.2045429409 171.8839632676141 0.0 0.0
-1025.2031041929363 -198.35537295813498 -610.8546220952974 166.72777959243723 0.0 0.0
-981.2204084469051 -148.5182638898267 -563.7598639100844 161.42874606110735 0.0 0.0
-943.2155587603961 -115.56907383277243 -527.9087031651121 155.2929279048366 0.0 0.0
-909.1509879565667 -93.96836695782656 -499.66391265079676 149.71549221474487 0.0 0.0
-870.3329405394891 -73.54225666313084 -469.59127280710857 146.66086951001 0.0 0.0
-828.9317287793001 -56.17058016236696 -439.80550775294444 146.54425491503082 0.0 0.0
-787.2808197877035 -43.232004794419495 -412.002810002229 148.96397733552084 0.0 0.0
-744.4517398460652 -33.56609422340505 -384.82726666647307 152.92182650352416 0.0 0.0
-698.2301047828737 -25.207710648955036 -355.61865235612606 157.13948120315376 0.0 0.0
-645.0389053356722 -17.730155849099724 -320.70459365214833 160.9957354515675 0.0 0.0
-579.0741443758171 -8.169598918747251 -272.0246780707487 165.61523347653755 0.0 0.0
-489.5541305135732 2.875959396177119 -204.24795107882392 174.24011753826386 0.0 0.0
-373.34389351809375 13.270639548136664 -129.74898229695248 188.73617361128652 0.0 0.0
-262.52295305717826 17.252310912248582 -78.31772517524418 193.67080875695822 0.0 0.0
-189.49014339871732 20.861501037982748 -51.48596682657054 187.84217473659203 0.0 0.0
-145.17835956202805 19.61524620779856 -37.84791840690808 185.5334820974348 0.0 0.0
-113.55546372941564 3.578135404962787 -33.040229700210546 187.88956772772286 0.0 0.0
-80.2973824373565 -47.64720162115757 -38.38092017075027 183.8993080309693 0.0 0.0
-28.445618557327606 -174.83980542550452 -60.98562719484963 119.55906474642602 0.0 0.0
-30.41375668126087 -132.71862397587057 -48.93971419713943 -103.86027556222523 0.0 0.0
-91.72058759282912 -43.1186294282674 -40.45123807505327 -172.00563139724804 0.0 0.0
-142.2821859854788 3.1854725187166304 -41.7637283569037 -178.72225337168635 0.0 0.0
-191.7864876976388 18.89994384760789 -52.13247905819287 -174.1339448933055 0.0 0.0
-256.4751048088035 22.757651172861344 -71.73483793394871 -171.8512124989519 0.0 0.0
-352.7256022333008 22.586949718038184 -110.05507309134526 -168.54647817928296 0.0 0.0
-469.8471387245154 14.98032242700798 -179.0163517205936 -155.38297727359034 0.0 0.0
-571.7393492213613 1.3732462576647322 -257.6886688390862 -146.0336393876143 0.0 0.0
-650.6038742603421 -11.697716563333046 -318.6563801887245 -143.6755132235397 0.0 0.0
-714.7448723540849 -23.79265955167746 -362.8714675630895 -141.97296107829553 0.0 0.0
-769.9373884227446 -35.01457761382676 -398.2402602620379 -139.15891107797395 0.0 0.0
-820.7424464017537 -47.310698540666834 -430.7778441197632 -135.49306428290677 0.0 0.0
-868.3150471101014 -60.51746145803011 -461.71636863356196 -131.70186366262288 0.0 0.0
-914.9094235233392 -76.80992526735628 -493.4811319292589 -129.12408137608085 0.0 0.0
-961.9623134994017 -97.73702411711116 -527.7089808141639 -129.2623237553172 0.0 0.0
-1009.8263168755311 -124.18336380115798 -565.1116689577646 -132.54094434706013 0.0 0.0
-1059.4834775143104 -157.80998387636834 -606.9918416810692 -137.75857655553978 0.0 0.0
-1113.4402793627078 -202.0490288544114 -656.2336886543778 -142.27625979553494 0.0 0.0
-1186.6032517082867 -275.07727331156303 -729.1713778442349 -142.6710871750529 0.0 0.0
-1284.9633319523903 -398.83628397865317 -840.2364261571046 -142.02262710157538 0.0 0.0
-1284.963331953375 -398.8362839799579 -840.2364261579338 142.02262710195262 0.0 0.0
-1186.6032517083981 -275.07727331191506 -729.1713778443877 142.67108717545943 0.0 0.0
-1113.4402793629988 -202.0490288549895 -656.2336886545637 142.27625979588922 0.0 0.0
-1059.4834775137438 -157.80998387593797 -606.991841680712 137.75857655562206 0.0 0.0
-1009.8263168756475 -124.18336380144166 -565.111668957803 132.54094434710518 0.0 0.0
-961.9623134997767 -97.73702411770462 -527.7089808144024 129.26232375536665 0.0 0.0
-914.909423523464 -76.80992526769246 -493.4811319293781 129.12408137618658 0.0 0.0
-868.3150471099303 -60.51746145807819 -461.71636863342496 131.70186366269644 0.0 0.0
-820.7424464014595 -47.31069854063733 -430.7778441195414 135.49306428295802 0.0 0.0
-769.9373884220721 -35.01457761344469 -398.2402602615946 139.15891107802665 0.0 0.0
-714.7448723527867 -23.792659550503824 -362.8714675621962 141.97296107810223 0.0 0.0
-650.6038742597306 -11.6977165629934 -318.6563801882977 143.67551322350232 0.0 0.0
-571.7393492208768 1.3732462578161542 -257.68866883865985 146.03363938758093 0.0 0.0
-469.847138724292 14.98032242657322 -179.0163517204656 155.3829772737409 0.0 0.0
-352.72560223273825 22.586949718152134 -110.05507309106422 168.54647817918962 0.0 0.0
-256.4751048084667 22.757651172808963 -71.73483793386538 171.85121249883437 0.0 0.0
-191.78648769743427 18.899943847655692 -52.132479058126044 174.133944893224 0.0 0.0
-142.2821859851757 3.1854725192297657 -41.76372835666524 178.72225337147964 0.0 0.0
-91.72058759257567 -43.118629428061666 -40.45123807491569 172.00563139701535 0.0 0.0
-30.413756681266207 -132.71862397572644 -48.93971419709779 103.86027556202882 0.0 0.0
-31.43429619024225 -95.31715104997454 -38.02543417206503 -87.69283205404778 0.0 0.0
-101.64823762655635 -36.79484799804169 -41.53292568737941 -155.87266916762863 0.0 0.0
-169.15767526250937 2.714109904404025 -49.94888972937202 -165.0589232087831 0.0 0.0
-236.73584318341187 17.445897566887876 -66.03699504683112 -158.42506041093628 0.0 0.0
-320.2605600999839 25.02409945705362 -91.66360022534785 -151.25234924408824 0.0 0.0
-429.74657953561194 25.100773731691614 -143.41889385420356 -138.23512157337652 0.0 0.0
-539.7295656173783 14.601215856742002 -222.50770309982545 -124.95742996334164 0.0 0.0
-629.87149556225 0.1774905448577755 -296.6332208690591 -121.96976524910858 0.0 0.0
-704.0248004672902 -14.737336746767753 -351.3135832127173 -122.93058850954056 0.0 0.0
-768.3885120095861 -29.203921331251294 -394.07452039528664 -122.72324539051156 0.0 0.0
-827.4289355752082 -44.61353750587293 -432.56463278616286 -120.66833236418795 0.0 0.0
-882.6429463293919 -61.04216608162406 -469.0615447173282 -117.48947342913148 0.0 0.0
-934.6668743398252 -78.11707854608713 -504.0479853972397 -113.98890213180069 0.0 0.0
-985.3148822120476 -97.23261175419353 -539.179545362414 -111.3574688923679 0.0 0.0
-1037.9187878766425 -121.85637405297513 -577.9281248183373 -111.1564761495428 0.0 0.0
-1095.1565793102363 -155.72989909053177 -623.6050656481195 -113.96722292188608 0.0 0.0
-1158.9043292289034 -200.73923914051628 -678.1021976206654 -118.56248254015281 0.0 0.0
-1232.1067689537485 -261.7731703580899 -745.2412116070825 -121.53975809632426 0.0 0.0
-1316.0417904755236 -344.7318592583949 -828.6696090633086 -120.8089699002428 0.0 0.0
-1401.5434830578383 -453.573139747273 -925.9631963081401 -121.12766017588015 0.0 0.0
-1401.5434830577287 -453.57313974737235 -925.9631963081134 121.12766017624898 0.0 0.0
-1316.0417904745418 -344.7318592574834 -828.6696090626585 120.80896990034387 0.0 0.0
-1232.1067689541474 -261.7731703586159 -745.2412116073847 121.53975809653582 0.0 0.0
-1158.9043292296917 -200.7392391416044 -678.1021976212745 118.56248254051489 0.0 0.0
-1095.1565793095328 -155.7298990899753 -623.6050656477173 113.96722292185794 0.0 0.0
-1037.918787876576 -121.85637405305748 -577.9281248183297 111.1564761495772 0.0 0.0
-985.3148822108152 -97.23261175311517 -539.179545361613 111.35746889234372 0.0 0.0
-934.6668743400339 -78.11707854645901 -504.04798539739033 113.9889021317768 0.0 0.0
-882.6429463288811 -61.04216608134706 -469.0615447169084 117.48947342910864 0.0 0.0
-827.4289355742039 -44.61353750499274 -432.564632785409 120.66833236403872 0.0 0.0
-768.3885120095074 -29.20392133146759 -394.0745203952138 122.7232453904764 0.0 0.0
-704.0248004676234 -14.737336747491227 -351.31358321292066 122.93058850959852 0.0 0.0
-629.8714955622594 0.17749054444041334 -296.6332208690289 121.9697652491721 0.0 0.0
-539.729565617605 14.601215855938893 -222.50770309986424 124.95742996343449 0.0 0.0
-429.74657953537746 25.100773731323212 -143.41889385408328 138.23512157340105 0.0 0.0
-320.2605600995978 25.02409945710492 -91.66360022519538 151.25234924392572 0.0 0.0
-236.73584318312686 17.445897567038585 -66.03699504670477 158.4250604106974 0.0 0.0
-169.15767526240907 2.7141099043764907 -49.94888972935456 165.05892320862407 0.0 0.0
-101.64823762645494 -36.794847998217826 -41.53292568740183 155.87266916751335 0.0 0.0
-31.43429619029609 -95.31715104997207 -38.025434172080445 87.69283205388552 0.0 0.0
-32.25079151931879 -63.20475258563957 -28.636663231487496 -71.07172838966856 0.0 0.0
-110.62127815134474 -29.24978890863754 -41.96132011799468 -135.92345157614335 0.0 0.0
-194.4132136228959 2.0950132934075167 -57.693272993026035 -146.96258970801074 0.0 0.0
-278.9675493127858 15.561280264209406 -79.38727978693623 -138.40189397871166 0.0 0.0
-379.2236403471539 27.057543840804502 -112.13387026151213 -126.07758727769304 0.0 0.0
-492.39302268532083 24.934021796993875 -177.19818493777052 -107.43322282286243 0.0 0.0
-591.6050721850119 14.261860031420596 -258.28766870085815 -98.55975386922395 0.0 0.0
-673.9575408732478 -1.0766357962450996 -325.3417862428096 -99.65615064486391 0.0 0.0
-746.0408128663805 -16.80702298313092 -375.52485640038594 -102.3137412299628 0.0 0.0
-812.8431945597282 -34.43507414946646 -419.75455567923035 -102.92471266763785 0.0 0.0
-875.9858892107745 -53.98948044788631 -461.98356370951404 -101.41515554859154 0.0 0.0
-935.7209952491839 -74.7571618241696 -502.7629023156471 -98.82776364841101 0.0 0.0
-992.3763473689382 -95.92793888367817 -542.0575425376101 -95.89035528781518 0.0 0.0
-1047.0021578784151 -118.33458470745626 -580.7982003192058 -93.2104881653025 0.0 0.0
-1104.2992022470971 -146.33664238509897 -623.5156632842682 -92.27813291128098 0.0 0.0
-1170.5211259369498 -186.97129570502005 -676.9617551705016 -94.17065241766356 0.0 0.0
-1248.161836377016 -244.45972677638233 -744.5544412108125 -97.85511025863379 0.0 0.0
-1336.161318531918 -319.560297902564 -826.1371172124059 -100.73328959966786 0.0 0.0
-1425.6076784921756 -408.3177486618463 -915.2958804738219 -101.82575674404018 0.0 0.0
-1503.646443388201 -508.5729004765708 -1004.6084634983441 -105.64895329936704 0.0 0.0
-1503.6464433889616 -508.5729004774214 -1004.6084634987859 105.64895329962278 0.0 0.0
-1425.607678494046 -408.3177486640453 -915.2958804750606 101.82575674465436 0.0 0.0
-1336.161318530666 -319.5602979013873 -826.1371172114933 100.73328959971968 0.0 0.0
-1248.1618363758644 -244.4597267752857 -744.5544412099116 97.85511025856192 0.0 0.0
-1170.5211259361877 -186.97129570434385 -676.9617551698955 94.17065241757243 0.0 0.0
-1104.299202246554 -146.33664238470982 -623.5156632837826 92.27813291134709 0.0 0.0
-1047.0021578786102 -118.33458470790538 -580.7982003193214 93.21048816551227 0.0 0.0
-992.3763473691544 -95.92793888416469 -542.0575425377123 95.89035528795036 0.0 0.0
-935.7209952487646 -74.75716182404148 -502.762902315391 98.8277636485603 0.0 0.0
-875.9858892102784 -53.98948044772651 -461.98356370922517 101.41515554872586 0.0 0.0
-812.8431945591993 -34.43507414913535 -419.7545556788767 102.92471266743974 0.0 0.0
-746.0408128658528 -16.807022982752848 -375.5248564000054 102.31374122971651 0.0 0.0
-673.9575408731705 -1.076635796505819 -325.341786242727 99.65615064482266 0.0 0.0
-591.6050721847445 14.261860031321437 -258.28766870058223 98.55975386922336 0.0 0.0
-492.39302268476183 24.93402179710349 -177.1981849373771 107.43322282290691 0.0 0.0
-379.2236403467356 27.05754384078796 -112.13387026135865 126.07758727766875 0.0 0.0
-278.96754931237194 15.56128026438597 -79.38727978677034 138.40189397873442 0.0 0.0
-194.4132136228087 2.0950132932942633 -57.693272993034675 146.96258970796745 0.0 0.0
-110.62127815118355 -29.24978890853186 -41.96132011791461 135.9234515761305 0.0 0.0
-32.250791519274486 -63.204752585635816 -28.63666323147309 71.07172838949776 0.0 0.0
-32.8219121104333 -36.88424458740359 -20.911847009351064 -53.95205403603447 0.0 0.0
-118.57920461411737 -21.04600911073885 -41.88756411745686 -112.56994261781966 0.0 0.0
-218.3000909677889 1.2263814164599456 -65.12135238130956 -124.37593601572081 0.0 0.0
-320.3047178558379 14.207029797413451 -92.33132574889756 -114.75034811812021 0.0 0.0
-433.926841001907 27.513492587636755 -134.34105496348195 -97.28254427987727 0.0 0.0
-541.2888230556737 24.067734495137316 -208.8701199321992 -78.92350638689277 0.0 0.0
-629.8261790696098 13.005526709031216 -286.6536317765405 -74.85736823670068 0.0 0.0
-708.0831138931469 -1.0484790792071976 -345.9597261841059 -78.09403676484308 0.0 0.0
-780.9294316181233 -18.53475887615332 -395.02402061037833 -81.36829210706307 0.0 0.0
-850.8011629011326 -39.6477637580154 -441.8537947217958 -82.38054316465178 0.0 0.0
-917.8835596146616 -63.07822089447001 -487.79453071660856 -81.39446298621499 0.0 0.0
-982.3303607894254 -88.20289265274624 -533.0209871931638 -79.46798221805241 0.0 0.0
-1043.9554358721448 -114.04942891429712 -577.0811397379753 -77.19490169032355 0.0 0.0
-1103.740226212321 -140.80710657233223 -620.5691184166376 -74.76882425103645 0.0 0.0
-1165.1788047506282 -171.9096888176296 -666.8944331839724 -72.93575453445212 0.0 0.0
-1236.884063931397 -217.0764710358211 -725.2593912195714 -73.21040323044588 0.0 0.0
-1326.5005042873822 -285.0954158259045 -804.0423950436985 -76.16889763378447 0.0 0.0
-1427.0356188958617 -372.11307290135693 -897.8739546972682 -80.24353210075459 0.0 0.0
-1524.7035897540218 -469.24865316775123 -995.3676642006337 -84.75376900539285 0.0 0.0
-1601.1988404188232 -567.2125230469195 -1082.77656689373 -93.24473435124676 0.0 0.0
-1601.1988404187082 -567.2125230467791 -1082.7765668937589 93.24473435113512 0.0 0.0
-1524.7035897552928 -469.2486531691619 -995.3676642015996 84.75376900575188 0.0 0.0
-1427.0356188977403 -372.1130729033659 -897.8739546985887 80.24353210092713 0.0 0.0
-1326.500504287991 -285.0954158266469 -804.042395044123 76.16889763389436 0.0 0.0
-1236.884063931106 -217.07647103564636 -725.2593912192448 73.21040323041144 0.0 0.0
-1165.1788047491304 -171.90968881629598 -666.8944331827707 72.9357545345647 0.0 0.0
-1103.740226212997 -140.80710657322427 -620.5691184169486 74.7688242511442 0.0 0.0
-1043.955435871762 -114.04942891413351 -577.0811397377051 77.19490169033364 0.0 0.0
-982.3303607885562 -88.20289265205213 -533.0209871925506 79.46798221792211 0.0 0.0
-917.8835596147044 -63.078220894832235 -487.7945307165797 81.39446298633436 0.0 0.0
-850.8011629017041 -39.6477637588739 -441.8537947220512 82.38054316462731 0.0 0.0
-780.9294316184984 -18.534758876847526 -395.024020610628 81.36829210710921 0.0 0.0
-708.0831138930023 -1.0484790794119263 -345.9597261840032 78.09403676483484 0.0 0.0
-629.8261790695019 13.0055267086925 -286.6536317764187 74.85736823689825 0.0 0.0
-541.288823055551 24.06773449475986 -208.87011993204771 78.92350638695405 0.0 0.0
-433.92684100184624 27.513492587143155 -134.34105496349997 97.28254427981412 0.0 0.0
-320.3047178556881 14.207029796864797 -92.33132574902604 114.75034811798731 0.0 0.0
-218.30009096767498 1.2263814164801694 -65.1213523812702 124.37593601567457 0.0 0.0
-118.57920461395298 -21.046009110497593 -41.88756411733517 112.56994261769583 0.0 0.0
-32.82191211042569 -36.884244587385844 -20.911847009343457 53.95205403586367 0.0 0.0
-32.54613013570217 -16.82593319094141 -14.811618997993076 -36.45345566455349 0.0 0.0
-124.73703952909663 -12.678216010996412 -41.22457666202791 -86.04699147343102 0.0 0.0
-241.3099584435995 -0.054557707479931494 -72.40935484532382 -97.26276475975945 0.0 0.0
-361.5925609565729 14.290501980628491 -105.08205263952239 -87.30545858862175 0.0 0.0
-481.2358192154708 26.462459437613067 -158.08910296408962 -67.10542655733025 0.0 0.0
-579.3523167387925 22.145057648759426 -237.8696212831632 -53.71328145313561 0.0 0.0
-660.4619427122162 12.364567506773398 -308.63812972916526 -52.9504103820407 0.0 0.0
-735.8801050871517 -0.5569785472297895 -361.7544548066569 -56.52563240832666 0.0 0.0
-810.2721802923315 -20.33174313484423 -411.3349104667943 -59.84198515590472 0.0 0.0
-883.3417388204009 -44.653878235215274 -460.9949210624103 -61.10006900852262 0.0 0.0
-954.5744290796811 -71.92650052158922 -510.8068815146298 -60.60251141750657 0.0 0.0
-1023.6018908048113 -101.312053629031 -560.3909857946594 -59.318202075269696 0.0 0.0
-1090.871771028073 -132.14829606677895 -609.7160613485296 -57.8077560634585 0.0 0.0
-1156.6775967203625 -164.70528357720116 -659.0911338786033 -55.85526830678366 0.0 0.0
-1223.1058814189103 -200.35002676448227 -710.2088626429633 -53.477961392562655 0.0 0.0
-1296.8971794971537 -246.50518227108552 -770.1075539491713 -51.933626841110865 0.0 0.0
-1389.3829701792724 -316.4309369115731 -851.1845259268143 -53.667711554497075 0.0 0.0
-1505.6302905458524 -418.27672249742227 -960.2632759714357 -59.408639862118264 0.0 0.0
-1616.9241409879473 -528.3453510010752 -1071.0745451635107 -68.38132675878629 0.0 0.0
-1702.5727310045154 -634.0749411753554 -1166.947808306933 -82.4959835771591 0.0 0.0
-1702.5727310046182 -634.0749411754971 -1166.9478083070148 82.49598357720633 0.0 0.0
-1616.924140989186 -528.3453510023863 -1071.0745451642972 68.3813267588456 0.0 0.0
-1505.6302905469815 -418.27672249862917 -960.2632759721462 59.408639862156605 0.0 0.0
-1389.3829701789168 -316.43093691134965 -851.1845259263791 53.667711554660826 0.0 0.0
-1296.8971794966717 -246.5051822707476 -770.1075539488297 51.93362684119944 0.0 0.0
-1223.1058814177188 -200.35002676342057 -710.2088626421771 53.477961392466824 0.0 0.0
-1156.6775967202818 -164.70528357728813 -659.091133878482 55.855268306748385 0.0 0.0
-1090.8717710287933 -132.1482960677368 -609.7160613489874 57.80775606357049 0.0 0.0
-1023.601890804513 -101.31205362898486 -560.3909857944882 59.31820207530083 0.0 0.0
-954.5744290797162 -71.92650052185147 -510.8068815146396 60.60251141734604 0.0 0.0
-883.3417388214049 -44.653878236465786 -460.994921063051 61.10006900834201 0.0 0.0
-810.272180292259 -20.331743135088246 -411.3349104667048 59.84198515600792 0.0 0.0
-735.8801050868274 -0.5569785472535429 -361.75445480642253 56.525632408420606 0.0 0.0
-660.4619427113614 12.364567507363176 -308.63812972857585 52.95041038192714 0.0 0.0
-579.3523167383722 22.145057648848802 -237.86962128277418 53.713281453086886 0.0 0.0
-481.23581921488346 26.462459437840714 -158.08910296370794 67.10542655726569 0.0 0.0
-361.5925609561612 14.290501980548981 -105.08205263943486 87.30545858857248 0.0 0.0
-241.30995844351648 -0.054557707346756246 -72.40935484525896 97.26276475966125 0.0 0.0
-124.73703952895251 -12.678216011044452 -41.22457666199908 86.04699147330719 0.0 0.0
-32.54613013572699 -16.825933190935274 -14.811618997998679 36.45345566451079 0.0 0.0
-30.102290920966595 -3.4256096665813813 -10.058370176264393 -19.091971111107053 0.0 0.0
-127.3780558690963 -4.785253083606083 -39.64899268581071 -56.31634316319087 0.0 0.0
-263.90522465649013 -1.4539544275258578 -79.60775372520479 -65.12819012269513 0.0 0.0
-403.9684341531583 15.546624500873136 -118.65941237890634 -56.192780353908404 0.0 0.0
-519.9511130166866 24.95820554944131 -182.24509073305177 -38.61444434102239 0.0 0.0
-607.4944037273985 19.165597443798468 -262.9818711592173 -30.991425916402164 0.0 0.0
-684.4039079306773 12.958633450744031 -324.5579306704316 -31.838455010877635 0.0 0.0
-758.9662188871993 -0.632849924205118 -374.7058733026009 -34.89657957316067 0.0 0.0
-834.6452244992636 -21.935458123180013 -424.8425361965461 -37.71989254954667 0.0 0.0
-911.1144650112415 -49.40808183906816 -477.5426194712446 -39.03898313107513 0.0 0.0
-986.6430733370225 -80.555100321748 -531.3548916792032 -39.02429060638762 0.0 0.0
-1060.6464445013266 -114.0829874893771 -585.4453004742835 -38.3944354700175 0.0 0.0
-1133.4622627361018 -150.25984513543222 -640.1676441228412 -37.51153755732967 0.0 0.0
-1206.1874688783441 -189.15507703059046 -696.1362246762296 -36.246232209089456 0.0 0.0
-1279.54698126907 -231.41521074659389 -754.0432994095811 -34.198225225055225 0.0 0.0
-1355.1085943279709 -279.1439769253301 -815.6917092120732 -31.53438563095893 0.0 0.0
-1440.7628929305179 -341.5976350622353 -889.6102310686238 -30.883718046954645 0.0 0.0
-1552.804031079576 -437.8230742605775 -993.5941070050878 -36.849217258271935 0.0 0.0
-1710.8897942228234 -592.5033901219092 -1150.1286256505782 -51.02871829001268 0.0 0.0
-1817.0411766694774 -716.4704851139793 -1265.4234876857815 -72.39399425725337 0.0 0.0
-1817.0411766701932 -716.4704851147335 -1265.4234876861733 72.39399425727439 0.0 0.0
-1710.889794223251 -592.5033901224076 -1150.1286256508347 51.02871829011489 0.0 0.0
-1552.804031078595 -437.82307425967224 -993.594107004277 36.8492172582728 0.0 0.0
-1440.76289292906 -341.59763506086927 -889.6102310676238 30.8837180469532 0.0 0.0
-1355.1085943279581 -279.1439769254661 -815.691709212058 31.53438563101092 0.0 0.0
-1279.5469812698802 -231.41521074756852 -754.0432994100839 34.19822522513674 0.0 0.0
-1206.1874688780126 -189.1550770304535 -696.1362246759008 36.24623220910467 0.0 0.0
-1133.4622627342749 -150.2598451337821 -640.1676441215662 37.51153755728077 0.0 0.0
-1060.646444500996 -114.0829874893179 -585.4453004739715 38.39443547016262 0.0 0.0
-986.6430733366526 -80.55510032161675 -531.354891678902 39.024290606231986 0.0 0.0
-911.1144650106793 -49.40808183875646 -477.5426194708786 39.03898313095551 0.0 0.0
-834.6452244983572 -21.935458122546223 -424.84253619596905 37.71989254949449 0.0 0.0
-758.9662188872126 -0.6328499245443737 -374.7058733025709 34.89657957323672 0.0 0.0
-684.4039079309086 12.958633450151687 -324.5579306705226 31.838455010834714 0.0 0.0
-607.4944037272396 19.165597443614956 -262.9818711589988 30.9914259163861 0.0 0.0
-519.9511130165084 24.95820554920781 -182.24509073289593 38.6144443410344 0.0 0.0
-403.96843415287344 15.546624500607795 -118.65941237889626 56.1927803538799 0.0 0.0
-263.9052246565156 -1.4539544278539829 -79.60775372531089 65.12819012267379 0.0 0.0
-127.37805586895914 -4.785253083620495 -39.648992685773884 56.3163431631567 0.0 0.0
-30.102290920943716 -3.4256096665048528 -10.05837017623457 19.091971111089972 0.0 0.0
-22.955780745241675 3.036080193210044 -5.9759101656094895 -3.1608964189026976 0.0 0.0
-123.3103986469022 1.744566808190248 -36.46974955161358 -22.78339828263395 0.0 0.0
-287.4421148955086 -2.215000305872671 -86.89713456041437 -26.925585651666346 0.0 0.0
-443.90399761603067 17.667619227905732 -133.88210963907534 -22.496152738169034 0.0 0.0
-552.104404460995 22.620253355915573 -206.62304385936721 -13.067428448691242 0.0 0.0
-631.7947582823595 17.61211567199355 -283.520507137459 -10.376192671665752 0.0 0.0
-704.0896672039642 12.842140904627797 -337.29095587584817 -11.142156133070106 0.0 0.0
-777.6827016367281 -0.7686945395361136 -385.065477427146 -13.140455428829386 0.0 0.0
-854.8052708121375 -23.552475966412487 -436.1436243767703 -15.02596069463953 0.0 0.0
-934.5660858035103 -53.827573351640666 -491.7161014514111 -16.188903074254284 0.0 0.0
-1014.644126024629 -88.75517388721082 -549.6161291445367 -16.637488819986743 0.0 0.0
-1093.708228245945 -127.05647861672037 -608.5850990761769 -16.607388283995867 0.0 0.0
-1172.3351514492324 -168.1697665459472 -668.6459778018798 -16.36809659646261 0.0 0.0
-1251.7982385870532 -213.14190579958358 -730.9891535079108 -15.80602650011841 0.0 0.0
-1332.766050940536 -262.805124208268 -796.3916609032908 -14.651425699064678 0.0 0.0
-1414.2854048139343 -316.6178398530401 -864.1131254542732 -12.638034790278645 0.0 0.0
-1494.6640922247389 -373.81891086229405 -932.891267203337 -10.305020986026467 0.0 0.0
-1580.9176835933117 -443.13545918514035 -1010.5127317654662 -12.272146404397425 0.0 0.0
-1707.6628796060872 -562.856513469943 -1133.4946328063916 -28.268958662237996 0.0 0.0
-2021.7305006726037 -889.1209369896872 -1454.101325514915 -60.13010011067588 0.0 0.0
-2021.730500671889 -889.120936989003 -1454.101325514317 60.13010011074627 0.0 0.0
-1707.6628796060145 -562.8565134699384 -1133.4946328062963 28.268958662352855 0.0 0.0
-1580.917683593208 -443.135459185115 -1010.5127317653648 12.272146404402395 0.0 0.0
-1494.6640922239756 -373.8189108616576 -932.8912672028116 10.305020986076176 0.0 0.0
-1414.2854048128547 -316.61783985207677 -864.1131254534605 12.638034790109407 0.0 0.0
-1332.7660509396285 -262.80512420751205 -796.3916609026502 14.651425698994089 0.0 0.0
-1251.798238589338 -213.1419058020672 -730.9891535095098 15.806026500116406 0.0 0.0
-1172.3351514498283 -168.16976654677035 -668.6459778022768 16.36809659655028 0.0 0.0
-1093.70822824613 -127.05647861715305 -608.585099076294 16.607388283891613 0.0 0.0
-1014.6441260246361 -88.75517388746819 -549.6161291445056 16.637488819790452 0.0 0.0
-934.5660858024565 -53.827573350836616 -491.71610145064864 16.188903074274712 0.0 0.0
-854.8052708112021 -23.552475965769986 -436.1436243761544 15.02596069467171 0.0 0.0
-777.6827016361128 -0.768694539214863 -385.06547742675656 13.14045542870275 0.0 0.0
-704.0896672031533 12.842140905141477 -337.290955875344 11.142156133050761 0.0 0.0
-631.7947582815598 17.61211567249704 -283.5205071368803 10.376192671445704 0.0 0.0
-552.1044044611132 22.620253355397573 -206.62304385935187 13.067428448673311 0.0 0.0
-443.9039976158164 17.667619227649798 -133.88210963904214 22.496152738314066 0.0 0.0
-287.44211489518773 -2.215000305783935 -86.89713456029146 26.925585651777368 0.0 0.0
-123.31039864672753 1.7445668082651036 -36.469749551538726 22.783398282599787 0.0 0.0
-22.955780745214188 3.0360801932172503 -5.975910165599082 3.1608964189710185 0.0 0.0
SCALARS Strain float 6
LOOKUP_TABLE default
0.013016891642891569 -0.014086384082846626 0.0 -0.007849880000569076 0.0 0.0
0.0026667648250926733 -0.0017904789201788063 0.0 0.0013241595461837008 0.0 0.0
0.001887455772297382 -0.00077795943533987 0.0 -3.4898703760832817e-05 0.0 0.0
0.002478761879295452 -0.0012546837522453558 0.0 -0.00024435206640816 0.0 0.0
0.004094170851608278 -0.002606687700894783 0.0 -0.0003240433200624726 0.0 0.0
0.0074154221561043565 -0.005626509070144392 0.0 -0.0005170723229803165 0.0 0.0
0.012852693008851411 -0.010798293734821662 0.0 -0.0008499629042346135 0.0 0.0
0.02078093992481666 -0.018454638417918723 0.0 -0.0013730993964845006 0.0 0.0
0.031386287620441836 -0.028758435821060857 0.0 -0.002104700412313698 0.0 0.0
0.04462080815348277 -0.041662388444628995 0.0 -0.002979122739713236 0.0 0.0
0.06028262320423498 -0.056977552704772005 0.0 -0.0038853473202168365 0.0 0.0
0.07812158823300784 -0.07446209610551335 0.0 -0.00476527968653756 0.0 0.0
0.09788038949344961 -0.09386112313883688 0.0 -0.005625027407868244 0.0 0.0
0.11926037250726562 -0.11487167936554599 0.0 -0.006451200599273954 0.0 0.0
0.1418044780330791 -0.13703357900562763 0.0 -0.00719405121954847 0.0 0.0
0.16476881026238774 -0.15960729670206586 0.0 -0.007698212524833714 0.0 0.0
0.18707392438886436 -0.18152662787401574 0.0 -0.007710874068449225 0.0 0.0
0.20734744132207888 -0.2014314712291556 0.0 -0.00703177165400759 0.0 0.0
0.22396007883013969 -0.21768904353399776 0.0 -0.006114641686889466 0.0 0.0
0.23444081829202906 -0.22758878640113167 0.0 -0.007527933184322877 0.0 0.0
0.2344408182920131 -0.22758878640112012 0.0 0.0075279331843356445 0.0 0.0
0.2239600788300939 -0.2176890435339507 0.0 0.006114641686913669 0.0 0.0
0.2073474413219977 -0.20143147122907035 0.0 0.0070317716540237996 0.0 0.0
0.1870739243887618 -0.1815266278739136 0.0 0.007710874068457052 0.0 0.0
0.1647688102622763 -0.15960729670195128 0.0 0.007698212524823389 0.0 0.0
0.14180447803296325 -0.13703357900551216 0.0 0.0071940512195457496 0.0 0.0
0.11926037250714921 -0.11487167936543274 0.0 0.006451200599274731 0.0 0.0
0.09788038949333616 -0.0938611231387223 0.0 0.005625027407867744 0.0 0.0
0.07812158823289894 -0.07446209610540944 0.0 0.004765279686527846 0.0 0.0
0.06028262320413791 -0.056977552704679635 0.0 0.0038853473202113964 0.0 0.0
0.04462080815340175 -0.04166238844455039 0.0 0.002979122739699358 0.0 0.0
0.03138628762038059 -0.028758435820994244 0.0 0.0021047004123104784 0.0 0.0
0.020780939924770925 -0.018454638417874314 0.0 0.0013730993964802263 0.0 0.0
0.012852693008820137 -0.010798293734789466 0.0 0.0008499629042325596 0.0 0.0
0.007415422156085316 -0.0056265090701268505 0.0 0.0005170723229794838 0.0 0.0
0.004094170851600021 -0.0026066877008867895 0.0 0.0003240433200615289 0.0 0.0
0.0024787618792933563 -0.0012546837522445786 0.0 0.0002443520664072718 0.0 0.0
0.0018874557722967644 -0.0007779594353406472 0.0 3.4898703760277705e-05 0.0 0.0
0.0026667648250910947 -0.0017904789201764193 0.0 -0.0013241595461805922 0.0 0.0
0.01301689164287978 -0.014086384082831764 0.0 0.007849880000534437 0.0 0.0
0.009344994103550434 -0.010792201533809276 0.0 -0.009573873469304162 0.0 0.0
0.001426579718312726 -0.0008957582118591656 0.0 0.00012155194642499145 0.0 0.0
0.0016060354619264472 -0.0005628662159246067 0.0 -0.0001253078010613473 0.0 0.0
0.0021542370184596885 -0.0010310420716148627 0.0 -0.0005095344914672895 0.0 0.0
0.0034475994563101103 -0.002061043862455314 0.0 -0.0007163662882238575 0.0 0.0
0.0063008801900123965 -0.004598553915370562 0.0 -0.0011874501798091464 0.0 0.0
0.01115662145757848 -0.00916703860966983 0.0 -0.0020169378801052074 0.0 0.0
0.018330128965136784 -0.016062291511481863 0.0 -0.003244044054279527 0.0 0.0
0.02793890148729799 -0.025377116566675184 0.0 -0.004872493431964275 0.0 0.0
0.03988422663768647 -0.037009949474700043 0.0 -0.006748838988746564 0.0 0.0
0.053954066389300476 -0.05075869912644393 0.0 -0.008663486783573648 0.0 0.0
0.06993531128309745 -0.06641486039610722 0.0 -0.010499583261686818 0.0 0.0
0.08763715585353642 -0.08378594326714195 0.0 -0.012309201522946123 0.0 0.0
0.10681650879526385 -0.10262689044458195 0.0 -0.014090031450915586 0.0 0.0
0.12708242130712977 -0.12254593446163664 0.0 -0.015703991396487704 0.0 0.0
0.14780699767057318 -0.14291732108054056 0.0 -0.016847729709473847 0.0 0.0
0.16806014568103808 -0.16281535860213037 0.0 -0.017049207799185784 0.0 0.0
0.18657407472594767 -0.18097200188547902 0.0 -0.016028948047260516 0.0 0.0
0.20158344062901593 -0.19557480413566175 0.0 -0.014185069418664598 0.0 0.0
0.21063633972724405 -0.20431590816018996 0.0 -0.011339873566659553 0.0 0.0
0.2106363397272293 -0.2043159081601731 0.0 0.011339873566687642 0.0 0.0
0.2015834406289731 -0.195574804135612 0.0 0.014185069418711005 0.0 0.0
0.18657407472587637 -0.18097200188540263 0.0 0.01602894804729127 0.0 0.0
0.16806014568094899 -0.162815358602046 0.0 0.017049207799202604 0.0 0.0
0.14780699767047373 -0.14291732108044197 0.0 0.01684772970946169 0.0 0.0
0.12708242130702657 -0.12254593446153406 0.0 0.01570399139647649 0.0 0.0
0.10681650879515875 -0.10262689044447848 0.0 0.014090031450912033 0.0 0.0
0.08763715585343573 -0.08378594326704158 0.0 0.012309201522939794 0.0 0.0
0.06993531128300046 -0.06641486039601441 0.0 0.010499583261674106 0.0 0.0
0.05395406638921374 -0.05075869912635689 0.0 0.008663486783563545 0.0 0.0
0.03988422663761415 -0.03700994947462899 0.0 0.006748838988728245 0.0 0.0
0.027938901487241707 -0.025377116566616564 0.0 0.004872493431956504 0.0 0.0
0.01833012896509556 -0.016062291511441895 0.0 0.0032440440542714777 0.0 0.0
0.011156621457550808 -0.009167038609643852 0.0 0.0020169378801003224 0.0 0.0
0.006300880189996472 -0.004598553915358572 0.0 0.0011874501798049275 0.0 0.0
0.0034475994563034074 -0.0020610438624519833 0.0 0.0007163662882213595 0.0 0.0
0.0021542370184584603 -0.0010310420716133084 0.0 0.0005095344914665123 0.0 0.0
0.0016060354619263917 -0.0005628662159236075 0.0 0.0001253078010602371 0.0 0.0
0.001426579718312504 -0.000895758211858444 0.0 -0.00012155194642760048 0.0 0.0
0.00934499410353623 -0.010792201533793979 0.0 0.009573873469272909 0.0 0.0
0.0069746204679553905 -0.008602933190998474 0.0 -0.008912040164050283 0.0 0.0
0.0008326439157832211 -0.0005894488602889991 0.0 -0.0006049926280234375 0.0 0.0
0.001284135630534207 -0.00040994178153552774 0.0 -0.00044400329779265 0.0 0.0
0.0018496225970775285 -0.0008269291007134694 0.0 -0.0007546699097007448 0.0 0.0
0.0028717776201750353 -0.0016026645569564568 0.0 -0.001042204155675186 0.0 0.0
0.005233103896435727 -0.00363638821101242 0.0 -0.0016798947807339926 0.0 0.0
0.00947500427315131 -0.007562541671556566 0.0 -0.0028797682518610923 0.0 0.0
0.015850037965544586 -0.013654574319766688 0.0 -0.0046763382943378895 0.0 0.0
0.02442263950792308 -0.021939708637522592 0.0 -0.007006356670868408 0.0 0.0
0.03505292755268808 -0.03227659578525044 0.0 -0.009651339782890178 0.0 0.0
0.04752335967670587 -0.04445113978682569 0.0 -0.01234902260241616 0.0 0.0
0.06164707300528713 -0.058277350452983434 0.0 -0.0149503787596581 0.0 0.0
0.07727653446834559 -0.07360573241879553 0.0 -0.017494168418764944 0.0 0.0
0.09423281263097256 -0.09025608768018234 0.0 -0.020010884530813622 0.0 0.0
0.11221029718698297 -0.10792323340698395 0.0 -0.022332754296166768 0.0 0.0
0.130704906920657 -0.12610168325122117 0.0 -0.024035829895889926 0.0 0.0
0.14893305250823663 -0.1440034127339933 0.0 -0.02455587857642938 0.0 0.0
0.16570708293771683 -0.16042585675405618 0.0 -0.02346737770666385 0.0 0.0
0.17930560159317183 -0.17368027680497367 0.0 -0.020285964659011002 0.0 0.0
0.18777663869969707 -0.1819001448016495 0.0 -0.013989592048368693 0.0 0.0
0.18777663869968306 -0.1819001448016353 0.0 0.013989592048414767 0.0 0.0
0.1793056015931326 -0.1736802768049417 0.0 0.020285964659073952 0.0 0.0
0.16570708293765407 -0.1604258567540029 0.0 0.02346737770670826 0.0 0.0
0.14893305250815894 -0.1440034127339187 0.0 0.024555878576449253 0.0 0.0
0.13070490692056913 -0.1261016832511377 0.0 0.02403582989587827 0.0 0.0
0.11221029718689202 -0.10792323340689958 0.0 0.022332754296157997 0.0 0.0
0.09423281263087913 -0.09025608768009619 0.0 0.02001088453081057 0.0 0.0
0.07727653446825672 -0.07360573241871471 0.0 0.01749416841875573 0.0 0.0
0.0616470730052025 -0.058277350452903054 0.0 0.014950378759639449 0.0 0.0
0.047523359676629184 -0.0444511397867533 0.0 0.012349022602396342 0.0 0.0
0.03505292755262407 -0.03227659578519049 0.0 0.009651339782865032 0.0 0.0
0.024422639507872657 -0.021939708637468414 0.0 0.007006356670853808 0.0 0.0
0.015850037965508157 -0.01365457431972672 0.0 0.004676338294326232 0.0 0.0
0.009475004273127197 -0.0075625416715328075 0.0 0.002879768251853543 0.0 0.0
0.005233103896422786 -0.00363638821100154 0.0 0.001679894780728497 0.0 0.0
0.0028717776201702128 -0.0016026645569537923 0.0 0.0010422041556728545 0.0 0.0
0.0018496225970764946 -0.0008269291007129143 0.0 0.000754669909701966 0.0 0.0
0.0012841356305345886 -0.0004099417815347506 0.0 0.00044400329779326064 0.0 0.0
0.0008326439157826937 -0.000589448860286057 0.0 0.0006049926280229379 0.0 0.0
0.006974620467942283 -0.008602933190982726 0.0 0.008912040164028134 0.0 0.0
0.005302036560060661 -0.006948191713328666 0.0 -0.007592974006972952 0.0 0.0
0.0005197715721139279 -0.00043846988331874837 0.0 -0.0012126462042931219 0.0 0.0
0.000994484798086101 -0.00029941637838915014 0.0 -0.000876289300022759 0.0 0.0
0.0015589652374640994 -0.0006541886219979531 0.0 -0.0010276291671242332 0.0 0.0
0.002364197623446182 -0.0012313190952033537 0.0 -0.0013291480493542451 0.0 0.0
0.004247835540219555 -0.0027799976306355223 0.0 -0.002022508323681116 0.0 0.0
0.00782428483058982 -0.006016410883928458 0.0 -0.0034489900603184576 0.0 0.0
0.01337108363783171 -0.011261664519814474 0.0 -0.005664183567626657 0.0 0.0
0.020873999545956257 -0.018485763272961364 0.0 -0.008497528352479411 0.0 0.0
0.030167912965379004 -0.02750450561556006 0.0 -0.01169235696011156 0.0 0.0
0.041028639209198844 -0.03809356990684387 0.0 -0.014944200772616267 0.0 0.0
0.05328915036030782 -0.05008363566770502 0.0 -0.018101747354437814 0.0 0.0
0.0668413648660338 -0.06336485407575232 0.0 -0.021204242549441366 0.0 0.0
0.08156188434982496 -0.07781161738532205 0.0 -0.02423608616650169 0.0 0.0
0.09723081232007044 -0.09320685265134188 0.0 -0.02703956264510371 0.0 0.0
0.11347439299937245 -0.10917202633045076 0.0 -0.029226513864538783 0.0 0.0
0.12965715445229647 -0.12505784851246826 0.0 -0.030160291609035217 0.0 0.0
0.14473462256688968 -0.13981833337325966 0.0 -0.029077412662071755 0.0 0.0
0.1572161281853685 -0.1519950215889354 0.0 -0.024863237505533098 0.0 0.0
0.16545231497550417 -0.1600051453163971 0.0 -0.016137436568522845 0.0 0.0
0.1654523149754906 -0.16000514531638466 0.0 0.016137436568578578 0.0 0.0
0.15721612818533376 -0.15199502158889366 0.0 0.024863237505605817 0.0 0.0
0.14473462256683378 -0.1398183333731957 0.0 0.029077412662124935 0.0 0.0
0.12965715445222967 -0.12505784851239543 0.0 0.030160291609061307 0.0 0.0
0.11347439299929604 -0.1091720263303797 0.0 0.029226513864528236 0.0 0.0
0.09723081231999103 -0.09320685265126372 0.0 0.027039562645091553 0.0 0.0
0.08156188434974415 -0.07781161738524256 0.0 0.02423608616649353 0.0 0.0
0.06684136486595649 -0.06336485407567505 0.0 0.02120424254942943 0.0 0.0
0.05328915036023446 -0.05008363566763663 0.0 0.018101747354416498 0.0 0.0
0.041028639209132634 -0.038093569906783475 0.0 0.014944200772592175 0.0 0.0
0.03016791296532373 -0.027504505615511654 0.0 0.011692356960085304 0.0 0.0
0.020873999545911848 -0.01848576327292628 0.0 0.008497528352465311 0.0 0.0
0.013371083637800263 -0.011261664519785608 0.0 0.0056641835676128904 0.0 0.0
0.007824284830569461 -0.006016410883910028 0.0 0.0034489900603083545 0.0 0.0
0.004247835540209299 -0.0027799976306270846 0.0 0.002022508323674954 0.0 0.0
0.002364197623442754 -0.0012313190951989128 0.0 0.0013291480493503594 0.0 0.0
0.001558965237463461 -0.0006541886219947335 0.0 0.0010276291671227344 0.0 0.0
0.0009944847980867255 -0.00029941637838881707 0.0 0.0008762893000232586 0.0 0.0
0.0005197715721133589 -0.0004384698833180267 0.0 0.0012126462042921227 0.0 0.0
0.005302036560049017 -0.00694819171331606 0.0 0.007592974006953468 0.0 0.0
0.004019075255201593 -0.005596385885947075 0.0 -0.0062295802331790995 0.0 0.0
0.0003464065054772092 -0.00035189446470274 0.0 -0.0016860825271669544 0.0 0.0
0.0007540125814133186 -0.0002215422446492088 0.0 -0.0013126435512441081 0.0 0.0
0.0012814865626460809 -0.0005098615596161871 0.0 -0.0013322913928369706 0.0 0.0
0.0019190128479927154 -0.000937349196685977 0.0 -0.001594777812151671 0.0 0.0
0.0033628725900226725 -0.002051870861449423 0.0 -0.0022764477178982 0.0 0.0
0.006249155638046899 -0.004573179111144743 0.0 -0.003746628231791227 0.0 0.0
0.010917445041164417 -0.008917250536985222 0.0 -0.006167265465345462 0.0 0.0
0.017328862126301206 -0.015052568082234874 0.0 -0.009339829138979516 0.0 0.0
0.02526785007195416 -0.022734302120680727 0.0 -0.01287004104119982 0.0 0.0
0.0345092991953171 -0.0317270388205273 0.0 -0.016459675388862005 0.0 0.0
0.04490032057962921 -0.04187511126422594 0.0 -0.01995210949312476 0.0 0.0
0.05636962162981295 -0.053103325858771644 0.0 -0.02338800569815519 0.0 0.0
0.06884959166806122 -0.06534237578859425 0.0 -0.02676026508928886 0.0 0.0
0.0821950393576895 -0.07844862958096499 0.0 -0.02987418825821042 0.0 0.0
0.09614161722956543 -0.09215373609418087 0.0 -0.03237252863078344 0.0 0.0
0.11022517080544014 -0.10598211682548175 0.0 -0.033686864787797144 0.0 0.0
0.12364760214456388 -0.11912806271777487 0.0 -0.03281695003293039 0.0 0.0
0.13519370208252096 -0.1303995198927792 0.0 -0.02813705793204402 0.0 0.0
0.1434176490470305 -0.13840327613729198 0.0 -0.0179435494678164 0.0 0.0
0.1434176490470186 -0.13840327613728753 0.0 0.017943549467880016 0.0 0.0
0.13519370208248915 -0.13039951989276144 0.0 0.028137057932121068 0.0 0.0
0.12364760214451578 -0.11912806271773224 0.0 0.03281695003298635 0.0 0.0
0.11022517080538352 -0.1059821168254258 0.0 0.03368686478782579 0.0 0.0
0.09614161722949982 -0.09215373609411515 0.0 0.032372528630773 0.0 0.0
0.08219503935762143 -0.07844862958089305 0.0 0.029874188258199652 0.0 0.0
0.06884959166799287 -0.06534237578852764 0.0 0.026760265089278312 0.0 0.0
0.05636962162974801 -0.053103325858702366 0.0 0.023388005698143477 0.0 0.0
0.044900320579567166 -0.04187511126416643 0.0 0.019952109493102 0.0 0.0
0.03450929919526158 -0.031727038820477116 0.0 0.016459675388837525 0.0 0.0
0.025267850071907183 -0.022734302120635874 0.0 0.012870041041170843 0.0 0.0
0.017328862126263944 -0.015052568082198459 0.0 0.009339829138960365 0.0 0.0
0.010917445041137452 -0.00891725053695902 0.0 0.006167265465328309 0.0 0.0
0.00624915563803069 -0.004573179111128978 0.0 0.003746628231779292 0.0 0.0
0.003362872590014887 -0.002051870861444094 0.0 0.0022764477178918163 0.0 0.0
0.0019190128479901758 -0.0009373491966850889 0.0 0.001594777812152226 0.0 0.0
0.0012814865626458172 -0.0005098615596162981 0.0 0.0013322913928379698 0.0 0.0
0.0007540125814137766 -0.00022154224464965289 0.0 0.0013126435512430534 0.0 0.0
0.0003464065054765153 -0.00035189446470146324 0.0 0.0016860825271629576 0.0 0.0
0.004019075255191851 -0.005596385885936089 0.0 0.006229580233160947 0.0 0.0
0.003001380399302825 -0.004461111123460537 0.0 -0.005028699136205517 0.0 0.0
0.00024212311187891966 -0.000293421002601435 0.0 -0.002039819266537235 0.0 0.0
0.0005538554699588694 -0.00016306519219311255 0.0 -0.0016961050877113415 0.0 0.0
0.0010127099740923212 -0.00038485468292548397 0.0 -0.0016419748803407908 0.0 0.0
0.0015273246398497115 -0.0007057942195409783 0.0 -0.001854061686736852 0.0 0.0
0.0025766187393038986 -0.001459548589858306 0.0 -0.00247384449327287 0.0 0.0
0.00479489203169195 -0.003291010797624061 0.0 -0.003881536219174919 0.0 0.0
0.008537181576227834 -0.00668435682573687 0.0 -0.00626432076168959 0.0 0.0
0.013819564341546409 -0.01167948962424159 0.0 -0.009507033604755466 0.0 0.0
0.020391158979270824 -0.018007592091275004 0.0 -0.013173900906171598 0.0 0.0
0.028003971776840456 -0.025394867925180975 0.0 -0.01688019785733086 0.0 0.0
0.03652207900767723 -0.03369630468621443 0.0 -0.020491808970486747 0.0 0.0
0.045905055644008666 -0.04286873587652318 0.0 -0.02405138242559285 0.0 0.0
0.05613692703536083 -0.052892716525946515 0.0 -0.02753755600585761 0.0 0.0
0.06714560224873461 -0.06369406385959753 0.0 -0.030780687304820642 0.0 0.0
0.0787523323219961 -0.07509706656348225 0.0 -0.033457146037537466 0.0 0.0
0.09066254471065319 -0.08680017676117835 0.0 -0.03504754185708969 0.0 0.0
0.1023946998539996 -0.09830484321218513 0.0 -0.03457058575603478 0.0 0.0
0.11308398764081654 -0.10874753812527782 0.0 -0.030100579442248532 0.0 0.0
0.12145491613106996 -0.11689063429754398 0.0 -0.01945432052372964 0.0 0.0
0.12145491613105963 -0.11689063429753688 0.0 0.01945432052379026 0.0 0.0
0.113083987640788 -0.10874753812525029 0.0 0.030100579442325803 0.0 0.0
0.10239469985396041 -0.09830484321214161 0.0 0.03457058575609606 0.0 0.0
0.09066254471060514 -0.08680017676113572 0.0 0.035047541857118336 0.0 0.0
0.07875233232194179 -0.07509706656343607 0.0 0.03345714603752603 0.0 0.0
0.06714560224867788 -0.06369406385954601 0.0 0.030780687304805432 0.0 0.0
0.05613692703530493 -0.05289271652589411 0.0 0.0275375560058444 0.0 0.0
0.045905055643956666 -0.04286873587647655 0.0 0.024051382425582135 0.0 0.0
0.03652207900762666 -0.03369630468616869 0.0 0.0204918089704631 0.0 0.0
0.0280039717767952 -0.02539486792513923 0.0 0.016880197857305435 0.0 0.0
0.02039115897923177 -0.018007592091239477 0.0 0.013173900906141234 0.0 0.0
0.013819564341516544 -0.011679489624215833 0.0 0.00950703360473415 0.0 0.0
0.008537181576206532 -0.006684356825716886 0.0 0.006264320761674713 0.0 0.0
0.004794892031679432 -0.003291010797610072 0.0 0.0038815362191664815 0.0 0.0
0.0025766187392983753 -0.0014595485898525329 0.0 0.0024738444932650427 0.0 0.0
0.0015273246398484486 -0.0007057942195412004 0.0 0.0018540616867337434 0.0 0.0
0.0010127099740920298 -0.00038485468292692726 0.0 0.0016419748803386258 0.0 0.0
0.0005538554699587306 -0.00016306519219300153 0.0 0.001696105087708899 0.0 0.0
0.00024212311187837843 -0.00029342100260021375 0.0 0.002039819266536458 0.0 0.0
0.0030013803992953725 -0.004461111123451548 0.0 0.005028699136195136 0.0 0.0
0.0021884893546453565 -0.0034997146902391307 0.0 -0.00402988915101804 0.0 0.0
0.00017062496401853977 -0.00024970639486043833 0.0 -0.002289194493821922 0.0 0.0
0.00037963308340338564 -0.00011337093816177202 0.0 -0.0020033365238103507 0.0 0.0
0.0007489721867186827 -0.0002683382696164749 0.0 -0.0019301956039904367 0.0 0.0
0.0011695257074338106 -0.0005165924938552724 0.0 -0.0021135531994357915 0.0 0.0
0.0018918819548362775 -0.0009921461089401618 0.0 -0.002622005024994767 0.0 0.0
0.0034748689338633676 -0.002197475764559975 0.0 -0.003853742527142767 0.0 0.0
0.00629383489760757 -0.004635778389455503 0.0 -0.006030039240489837 0.0 0.0
0.010398566275517468 -0.00843626324475455 0.0 -0.00905069870744346 0.0 0.0
0.015574929429428064 -0.01337107168325291 0.0 -0.012573573603271937 0.0 0.0
0.021550343434938557 -0.0191421744847875 0.0 -0.016193268372947767 0.0 0.0
0.02819604182138591 -0.02559607081863957 0.0 -0.019707998511201086 0.0 0.0
0.03549237937956448 -0.03271239833171036 0.0 -0.023160748952371524 0.0 0.0
0.04346912342636092 -0.04051533782422867 0.0 -0.026562911257279054 0.0 0.0
0.05212292974074212 -0.048995861756172765 0.0 -0.029748306451142903 0.0 0.0
0.061358802978499105 -0.058058407941135926 0.0 -0.0323946380685618 0.0 0.0
0.07101042713756042 -0.06755278882334537 0.0 -0.034134676953263554 0.0 0.0
0.08092840608876656 -0.0773060805026109 0.0 -0.03422043205570202 0.0 0.0
0.09071338463061912 -0.08688042477900737 0.0 -0.030649177283062712 0.0 0.0
0.0993338727322948 -0.0952534524386417 0.0 -0.02065389411123486 0.0 0.0
0.0993338727322867 -0.09525345243863637 0.0 0.020653894111293813 0.0 0.0
0.09071338463059586 -0.08688042477898605 0.0 0.030649177283145534 0.0 0.0
0.08092840608873583 -0.0773060805025727 0.0 0.03422043205576619 0.0 0.0
0.07101042713752084 -0.06755278882330984 0.0 0.03413467695329009 0.0 0.0
0.061358802978456056 -0.05805840794109418 0.0 0.032394638068550696 0.0 0.0
0.052122929740696905 -0.04899586175613502 0.0 0.029748306451124695 0.0 0.0
0.0434691234263182 -0.040515337824186926 0.0 0.026562911257266508 0.0 0.0
0.035492379379524985 -0.032712398331667725 0.0 0.023160748952358756 0.0 0.0
0.02819604182134708 -0.025596070818600047 0.0 0.019707998511176106 0.0 0.0
0.021550343434903585 -0.019142174484755525 0.0 0.01619326837292312 0.0 0.0
0.01557492942939745 -0.013371071683225377 0.0 0.012573573603242183 0.0 0.0
0.010398566275495014 -0.008436263244733233 0.0 0.009050698707425031 0.0 0.0
0.006293834897591999 -0.004635778389442624 0.0 0.00603003924047707 0.0 0.0
0.0034748689338542083 -0.0021974757645528697 0.0 0.0038537425271348846 0.0 0.0
0.0018918819548324473 -0.0009921461089377193 0.0 0.0026220050249894378 0.0 0.0
0.0011695257074333942 -0.000516592493853274 0.0 0.0021135531994356804 0.0 0.0
0.0007489721867182664 -0.0002683382696159198 0.0 0.0019301956039887713 0.0 0.0
0.0003796330834031636 -0.00011337093816132793 0.0 0.00200333652380813 0.0 0.0
0.00017062496401848426 -0.0002497063948596612 0.0 0.002289194493820812 0.0 0.0
0.0021884893546394724 -0.0034997146902324347 0.0 0.00402988915100877 0.0 0.0
0.0015505576256841236 -0.0027003996901761584 0.0 -0.0032367708430022235 0.0 0.0
0.00010741749269291279 -0.0002129508156877291 0.0 -0.002438100667866483 0.0 0.0
0.00021919264875078226 -6.449079329384766e-05 0.0 -0.00223380352181074 0.0 0.0
0.0004899131492218933 -0.0001537517007179634 0.0 -0.002171240912618111 0.0 0.0
0.000821990621933083 -0.000347480869096195 0.0 -0.0023556949496501 0.0 0.0
0.001298917049585263 -0.0006375404940832663 0.0 -0.002781133251859025 0.0 0.0
0.002305841245648671 -0.0013206929447533433 0.0 -0.0037365456082908977 0.0 0.0
0.0042258183500284985 -0.0028406769014850397 0.0 -0.0055114035185724886 0.0 0.0
0.007136335017453671 -0.0054166193673395036 0.0 -0.00806588051030488 0.0 0.0
0.010872669999706708 -0.008903959336879375 0.0 -0.01112190177933281 0.0 0.0
0.015190783142647712 -0.013029177204164633 0.0 -0.014358354369275794 0.0 0.0
0.019962128441182225 -0.017632605243474764 0.0 -0.01755237928286779 0.0 0.0
0.025176132899390996 -0.022695554472689228 0.0 -0.020694401647713745 0.0 0.0
0.030890286882739204 -0.028270615437424595 0.0 -0.023786545846592566 0.0 0.0
0.03716817628484265 -0.03441197901069781 0.0 -0.02672928420136922 0.0 0.0
0.04400915227903965 -0.04111094997909426 0.0 -0.029212227441707594 0.0 0.0
0.051340768078544236 -0.0483146471725 0.0 -0.03086072511499105 0.0 0.0
0.05923320378537986 -0.056118761877923085 0.0 -0.031436067463917694 0.0 0.0
0.06788899055001987 -0.06463317406956204 0.0 -0.029452969016323216 0.0 0.0
0.07677861366883165 -0.07324908321905443 0.0 -0.021452443852068348 0.0 0.0
0.07677861366882618 -0.07324908321904644 0.0 0.021452443852116976 0.0 0.0
0.06788899055000316 -0.0646331740695496 0.0 0.029452969016395603 0.0 0.0
0.05923320378535657 -0.05611876187790177 0.0 0.03143606746397554 0.0 0.0
0.051340768078514176 -0.048314647172469805 0.0 0.030860725115010812 0.0 0.0
0.04400915227900751 -0.04111094997906939 0.0 0.029212227441695826 0.0 0.0
0.03716817628481067 -0.03441197901066051 0.0 0.02672928420135312 0.0 0.0
0.030890286882709395 -0.028270615437391733 0.0 0.023786545846581353 0.0 0.0
0.025176132899363962 -0.022695554472667467 0.0 0.020694401647705085 0.0 0.0
0.01996212844115547 -0.01763260524344812 0.0 0.017552379282848474 0.0 0.0
0.015190783142622927 -0.013029177204139764 0.0 0.014358354369252924 0.0 0.0
0.010872669999685142 -0.008903959336860723 0.0 0.011121901779307941 0.0 0.0
0.007136335017438378 -0.005416619367324849 0.0 0.008065880510288448 0.0 0.0
0.004225818350018423 -0.0028406769014748257 0.0 0.005511403518559943 0.0 0.0
0.002305841245642787 -0.0013206929447502347 0.0 0.0037365456082819604 0.0 0.0
0.0012989170495830982 -0.0006375404940821561 0.0 0.002781133251853085 0.0 0.0
0.0008219906219326945 -0.00034748086909641707 0.0 0.0023556949496482127 0.0 0.0
0.0004899131492217823 -0.0001537517007189626 0.0 0.0021712409126154464 0.0 0.0
0.0002191926487505047 -6.449079329262641e-05 0.0 0.0022338035218073538 0.0 0.0
0.00010741749269310708 -0.00021295081568750707 0.0 0.002438100667864984 0.0 0.0
0.0015505576256799047 -0.002700399690170852 0.0 0.0032367708429965614 0.0 0.0
0.001073045050322352 -0.0020651015206011314 0.0 -0.0026422569396152285 0.0 0.0
3.6265462501766654e-05 -0.0001808746638344294 0.0 -0.002510364892525152 0.0 0.0
6.432535239186965e-05 -1.0163959061837424e-05 0.0 -0.0023915832894771394 0.0 0.0
0.00023714924454246167 -4.118308155320882e-05 0.0 -0.002355497219301228 0.0 0.0
0.00046903090701580497 -0.0001796189054641406 0.0 -0.0025532548960797152 0.0 0.0
0.0007619703735001482 -0.0003566753195825001 0.0 -0.0029560954512710125 0.0 0.0
0.0013003463493229117 -0.0006701413327880879 0.0 -0.003625958563317322 0.0 0.0
0.002368048457066896 -0.001385899036273841 0.0 -0.004818039714442501 0.0 0.0
0.004093854185854201 -0.0027480265351789157 0.0 -0.006637925894282359 0.0 0.0
0.006355335401645484 -0.00473957921494117 0.0 -0.008919520663255076 0.0 0.0
0.00898266237047296 -0.0071709829329877905 0.0 -0.01145431241938899 0.0 0.0
0.011860040071732386 -0.009900276811753095 0.0 -0.014059706049867837 0.0 0.0
0.01499284254527905 -0.012907675995384782 0.0 -0.01669450504404657 0.0 0.0
0.018444658794076363 -0.016252890450231927 0.0 -0.019302998605029376 0.0 0.0
0.022316669861068145 -0.02002870468083806 0.0 -0.021831779628467718 0.0 0.0
0.026720024064061987 -0.02433102609586868 0.0 -0.024089761458471193 0.0 0.0
0.031718317113160366 -0.029213633296362396 0.0 -0.025637542984888184 0.0 0.0
0.03742654247061575 -0.03485795428750382 0.0 -0.0262970017070705 0.0 0.0
0.04444955674022252 -0.041886721332368815 0.0 -0.02597156535379297 0.0 0.0
0.05339943501735811 -0.05056024608800147 0.0 -0.02155390474616714 0.0 0.0
0.05339943501735478 -0.05056024608800591 0.0 0.021553904746210217 0.0 0.0
0.04444955674021328 -0.04188672133235283 0.0 0.02597156535386247 0.0 0.0
0.03742654247059951 -0.03485795428748162 0.0 0.026297001707121237 0.0 0.0
0.03171831711314044 -0.029213633296348185 0.0 0.025637542984897954 0.0 0.0
0.02672002406404178 -0.02433102609584825 0.0 0.02408976145845121 0.0 0.0
0.02231666986105052 -0.02002870468081941 0.0 0.021831779628452175 0.0 0.0
0.018444658794059793 -0.016252890450212387 0.0 0.019302998605022825 0.0 0.0
0.014992842545264451 -0.01290767599536835 0.0 0.01669450504404102 0.0 0.0
0.011860040071717454 -0.009900276811736664 0.0 0.014059706049852294 0.0 0.0
0.008982662370458971 -0.007170982932972247 0.0 0.011454312419368673 0.0 0.0
0.006355335401633244 -0.004739579214927847 0.0 0.008919520663234759 0.0 0.0
0.004093854185846041 -0.0027480265351731425 0.0 0.006637925894272367 0.0 0.0
0.002368048457061789 -0.0013858990362729529 0.0 0.004818039714435951 0.0 0.0
0.0013003463493198586 -0.0006701413327878658 0.0 0.003625958563312104 0.0 0.0
0.0007619703734993433 -0.00035667531958027965 0.0 0.0029560954512694027 0.0 0.0
0.00046903090701549965 -0.0001796189054650288 0.0 0.0025532548960775503 0.0 0.0
0.0002371492445423229 -4.118308155542927e-05 0.0 0.0023554972193006174 0.0 0.0
6.43253523916476e-05 -1.0163959061726402e-05 0.0 0.002391583289475474 0.0 0.0
3.6265462501766654e-05 -0.00018087466383370776 0.0 0.0025103648925238753 0.0 0.0
0.0010730450503197708 -0.002065101520597759 0.0 0.002642256939609844 0.0 0.0
0.0007309184771604194 -0.0015766224200420842 0.0 -0.0022105565505986524 0.0 0.0
-4.542728885556513e-05 -0.00015471480794260195 0.0 -0.0025366947084447533 0.0 0.0
-8.888983780983017e-05 5.1901230498474504e-05 0.0 -0.002489090747740841 0.0 0.0
-8.992606300689543e-06 6.876242920283993e-05 0.0 -0.0024800266292780426 0.0 0.0
0.00011146322411231813 -7.972153375002122e-06 0.0 -0.002673053553474747 0.0 0.0
0.0002377959689503495 -9.873111834601822e-05 0.0 -0.0030961044157754025 0.0 0.0
0.0004142526964057702 -0.00020126353890592696 0.0 -0.0036619743080072986 0.0 0.0
0.0007464157007330274 -0.00037339466374097796 0.0 -0.004303280500291273 0.0 0.0
0.00131713922699081 -0.0006971765995431589 0.0 -0.00518663088015503 0.0 0.0
0.002075981693866802 -0.001207754600007771 0.0 -0.006480440654038189 0.0 0.0
0.0029600694819447437 -0.0018858345299435086 0.0 -0.008191353067284135 0.0 0.0
0.003911259525773397 -0.0026968736452159803 0.0 -0.01016327765300351 0.0 0.0
0.0049437985158970466 -0.003627220818222643 0.0 -0.012305600888634416 0.0 0.0
0.006115270552349644 -0.004722518723705882 0.0 -0.01458345618978718 0.0 0.0
0.007550957376715128 -0.006094537823513768 0.0 -0.01695645944879376 0.0 0.0
0.009462055712748524 -0.007935641914900593 0.0 -0.019253114116014713 0.0 0.0
0.012115432363715761 -0.010487039682868904 0.0 -0.02101107869978991 0.0 0.0
0.015716270832742546 -0.013947245865391977 0.0 -0.0215683896254526 0.0 0.0
0.02066313089616137 -0.018928109649107405 0.0 -0.021391870258009482 0.0 0.0
0.028705341777792492 -0.026964924493718456 0.0 -0.020846542792587797 0.0 0.0
0.028705341777792492 -0.026964924493718456 0.0 0.020846542792623324 0.0 0.0
0.02066313089615751 -0.01892810964909941 0.0 0.02139187025806566 0.0 0.0
0.01571627083273386 -0.013947245865383984 0.0 0.021568389625481688 0.0 0.0
0.012115432363707518 -0.010487039682868016 0.0 0.021011078699789354 0.0 0.0
0.009462055712743028 -0.007935641914897928 0.0 0.019253114115998504 0.0 0.0
0.007550957376711326 -0.006094537823507551 0.0 0.016956459448783323 0.0 0.0
0.006115270552346286 -0.004722518723702329 0.0 0.01458345618977952 0.0 0.0
0.004943798515895104 -0.003627220818223975 0.0 0.012305600888628088 0.0 0.0
0.003911259525770927 -0.002696873645214204 0.0 0.010163277652992742 0.0 0.0
0.0029600694819419127 -0.0018858345299435086 0.0 0.008191353067270812 0.0 0.0
0.0020759816938641373 -0.001207754600002442 0.0 0.006480440654024644 0.0 0.0
0.00131713922698945 -0.0006971765995418266 0.0 0.005186630880150478 0.0 0.0
0.0007464157007318062 -0.00037339466374053387 0.0 0.00430328050028983 0.0 0.0
0.0004142526964051596 -0.00020126353890592696 0.0 0.0036619743080032463 0.0 0.0
0.00023779596895012745 -9.873111834846071e-05 0.0 0.0030961044157719053 0.0 0.0
0.00011146322411234588 -7.972153377666658e-06 0.0 0.002673053553470417 0.0 0.0
-8.99260630077281e-06 6.876242920283993e-05 0.0 0.002480026629275933 0.0 0.0
-8.888983780980242e-05 5.190123049825246e-05 0.0 0.002489090747739675 0.0 0.0
-4.542728885581493e-05 -0.00015471480794171377 0.0 0.0025366947084429214 0.0 0.0
0.0007309184771591148 -0.0015766224200401083 0.0 0.0022105565505944336 0.0 0.0
0.0004909770221940835 -0.0012219918540556929 0.0 -0.0019372006886124171 0.0 0.0
-0.0001287485976358138 -0.00012921589624270702 0.0 -0.0025342956663664262 0.0 0.0
-0.00024013706988237904 0.00011733893525645023 0.0 -0.0025305232989656368 0.0 0.0
-0.00024865795528417056 0.00017596456245416725 0.0 -0.0025365847281211273 0.0 0.0
-0.0002431802245362602 0.0001631169394447074 0.0 -0.0027123344997012078 0.0 0.0
-0.0002898054462449895 0.00015946872289340774 0.0 -0.0031159586083295276 0.0 0.0
-0.0004341196184211582 0.00021805744985403663 0.0 -0.0036743018544130313 0.0 0.0
-0.0007534839271708393 0.00037865040086959567 0.0 -0.004312778914329796 0.0 0.0
-0.00131733121041408 0.0006983074175237469 0.0 -0.005190192557669393 0.0 0.0
-0.0020752520816228193 0.0012087147879529248 0.0 -0.006479958187701418 0.0 0.0
-0.002970937261651929 0.0019003268972586085 0.0 -0.008194709498496211 0.0 0.0
-0.003962082299004466 0.0027472524108471674 0.0 -0.010175343582755958 0.0 0.0
-0.005043277404198188 0.003711873571380586 0.0 -0.012316931780177676 0.0 0.0
-0.006167184565837036 0.004733336436292035 0.0 -0.014586122642681443 0.0 0.0
-0.007182074369940061 0.00566169334362332 0.0 -0.016969433018840352 0.0 0.0
-0.007803614706636708 0.006222778285376762 0.0 -0.019412502655953512 0.0 0.0
-0.007609536279812895 0.006024362399417171 0.0 -0.021884519036971417 0.0 0.0
-0.0062311614868860166 0.004823199326884797 0.0 -0.02447138450811781 0.0 0.0
-0.003328676624427651 0.002405371646263532 0.0 -0.02683629560841949 0.0 0.0
0.0038612644962130183 -0.004402423160037472 0.0 -0.025956576594071024 0.0 0.0
0.003861264496213268 -0.004402423160034807 0.0 0.025956576594089453 0.0 0.0
-0.0033286766244278176 0.002405371646263532 0.0 0.026836295608437366 0.0 0.0
-0.00623116148688399 0.0048231993268812445 0.0 0.024471384508122473 0.0 0.0
-0.007609536279805984 0.006024362399418948 0.0 0.021884519036960648 0.0 0.0
-0.007803614706626216 0.006222778285370545 0.0 0.01941250265593808 0.0 0.0
-0.007182074369930874 0.005661693343611773 0.0 0.016969433018828806 0.0 0.0
-0.006167184565827821 0.004733336436284041 0.0 0.014586122642670007 0.0 0.0
-0.00504327740418703 0.0037118735713668194 0.0 0.012316931780167018 0.0 0.0
-0.00396208229899403 0.0027472524108365093 0.0 0.010175343582742191 0.0 0.0
-0.002970937261642742 0.0019003268972519471 0.0 0.008194709498479447 0.0 0.0
-0.0020752520816161024 0.0012087147879458193 0.0 0.006479958187687984 0.0 0.0
-0.0013173312104092505 0.0006983074175228587 0.0 0.005190192557665063 0.0 0.0
-0.0007534839271680083 0.0003786504008682634 0.0 0.004312778914326798 0.0 0.0
-0.00043411961841963165 0.0002180574498513721 0.0 0.0036743018544067585 0.0 0.0
-0.0002898054462446842 0.00015946872289296365 0.0 0.0031159586083229773 0.0 0.0
-0.00024318022453559407 0.00016311693944337513 0.0 0.0027123344996984877 0.0 0.0
-0.00024865795528380974 0.0001759645624539452 0.0 0.002536584728120128 0.0 0.0
-0.00024013706988218475 0.00011733893525645023 0.0 0.002530523298964471 0.0 0.0
-0.00012874859763592483 -0.00012921589624320662 0.0 0.0025342956663654825 0.0 0.0
0.0004909770221936394 -0.0012219918540547561 0.0 0.0019372006886106963 0.0 0.0
0.00032683723899043504 -0.0009606388458756054 0.0 -0.0017472440702362424 0.0 0.0
-0.00020496399805877696 -9.749978656903302e-05 0.0 -0.002489409814759147 0.0 0.0
-0.00038646142639556236 0.00018037007486193524 0.0 -0.0025192835672749325 0.0 0.0
-0.00048076990166529 0.00027943814121278443 0.0 -0.002520825248136238 0.0 0.0
-0.0005904079608656521 0.00032892108044202395 0.0 -0.002664996652881224 0.0 0.0
-0.0008130106140135374 0.00041771908491261556 0.0 -0.003018856362023148 0.0 0.0
-0.001319600404102922 0.000689207606779707 0.0 -0.0036636707249345646 0.0 0.0
-0.002372209517004925 0.0013916718544142448 0.0 -0.0048392727039874295 0.0 0.0
-0.004091995066785287 0.002747860080747788 0.0 -0.006643092227056058 0.0 0.0
-0.006355235726024311 0.00474188047727786 0.0 -0.008920149329563976 0.0 0.0
-0.008996504430522606 0.0071894907505369865 0.0 -0.011454704386191228 0.0 0.0
-0.011908520945876744 0.009952785074278214 0.0 -0.01404351857631958 0.0 0.0
-0.01508121953657815 0.012988679507161649 0.0 -0.016638262498206435 0.0 0.0
-0.018477831522157012 0.01624852732804971 0.0 -0.01923260993622178 0.0 0.0
-0.021934938445489854 0.0195646148909292 0.0 -0.021899123270026077 0.0 0.0
-0.025107837736646016 0.02260136347619124 0.0 -0.02469864626371998 0.0 0.0
-0.0274938756933637 0.02488065784518856 0.0 -0.027725663188754468 0.0 0.0
-0.02852400110933223 0.02584526142993937 0.0 -0.03088197598008635 0.0 0.0
-0.027124768848102804 0.02418391851274304 0.0 -0.0323693183917767 0.0 0.0
-0.019954399371542808 0.016684429688316627 0.0 -0.030280890132758587 0.0 0.0
-0.019954399371543696 0.016684429688312186 0.0 0.030280890132804772 0.0 0.0
-0.02712476884809903 0.024183918512746594 0.0 0.03236931839183044 0.0 0.0
-0.028524001109319574 0.025845261429927824 0.0 0.030881975980119436 0.0 0.0
-0.027493875693341913 0.02488065784516369 0.0 0.027725663188750804 0.0 0.0
-0.025107837736620897 0.022601363476167258 0.0 0.024698646263700996 0.0 0.0
-0.021934938445467594 0.019564614890907883 0.0 0.02189912327000909 0.0 0.0
-0.018477831522134835 0.016248527328027063 0.0 0.019232609936206124 0.0 0.0
-0.015081219536554585 0.012988679507145218 0.0 0.01663826249819489 0.0 0.0
-0.011908520945853707 0.009952785074257342 0.0 0.014043518576301262 0.0 0.0
-0.008996504430501734 0.0071894907505223316 0.0 0.011454704386166137 0.0 0.0
-0.006355235726007963 0.004741880477268534 0.0 0.008920149329539107 0.0 0.0
-0.004091995066773657 0.0027478600807402387 0.0 0.0066430922270448445 0.0 0.0
-0.0023722095169978197 0.0013916718544080275 0.0 0.004839272703981767 0.0 0.0
-0.001319600404099175 0.0006892076067770425 0.0 0.0036636707249282363 0.0 0.0
-0.0008130106140118443 0.00041771908491550214 0.0 0.003018856362019484 0.0 0.0
-0.0005904079608647639 0.0003289210804438003 0.0 0.0026649966528797253 0.0 0.0
-0.0004807699016649014 0.00027943814120978683 0.0 0.002520825248135794 0.0 0.0
-0.0003864614263955901 0.00018037007486115808 0.0 0.0025192835672744884 0.0 0.0
-0.0002049639980587492 -9.749978656908853e-05 0.0 0.0024894098147576482 0.0 0.0
0.000326837238990213 -0.0009606388458746774 0.0 0.0017472440702340775 0.0 0.0
0.00021151005614403195 -0.0007400521585000375 0.0 -0.001554267841704704 0.0 0.0
-0.000272428486301185 -6.0222522158093206e-05 0.0 -0.002390439090911578 0.0 0.0
-0.000524906043193496 0.00023887092714414138 0.0 -0.0024501877215971635 0.0 0.0
-0.0007038142255992308 0.00037699216207331965 0.0 -0.002435042348641059 0.0 0.0
-0.000926432366188279 0.0004862031478127804 0.0 -0.002533014098276276 0.0 0.0
-0.0013476092329797185 0.0007004324983379551 0.0 -0.002885880920365569 0.0 0.0
-0.00232072345686013 0.0013410789843240067 0.0 -0.003790376028405651 0.0 0.0
-0.0042241650641073325 0.0028423128197143654 0.0 -0.005530197240584234 0.0 0.0
-0.0071329552735481805 0.005414418430822909 0.0 -0.008065514909989857 0.0 0.0
-0.010875045921478449 0.008908098611811521 0.0 -0.01112297603436041 0.0 0.0
-0.015205178737903724 0.013047065802330948 0.0 -0.014352840339379114 0.0 0.0
-0.019998153103110067 0.017672462901642927 0.0 -0.017497020929643003 0.0 0.0
-0.02523326325395217 0.022748231984785594 0.0 -0.020531128635698392 0.0 0.0
-0.030887897255090724 0.028238081621701827 0.0 -0.023561354558882974 0.0 0.0
-0.03679954959734963 0.03397261665732909 0.0 -0.02681636000120735 0.0 0.0
-0.04257325701985809 0.03956769048472619 0.0 -0.030590524084159743 0.0 0.0
-0.04757912278196064 0.04440573611044485 0.0 -0.03502949441586656 0.0 0.0
-0.050829788127065095 0.04744279105457405 0.0 -0.03931152178980657 0.0 0.0
-0.05041947557265414 0.04675064937416895 0.0 -0.04143237741242556 0.0 0.0
-0.042403612059391665 0.03801055307983159 0.0 -0.03740016813280711 0.0 0.0
-0.04240361205938897 0.03801055307982981 0.0 0.037400168132857514 0.0 0.0
-0.0504194755726457 0.046750649374152964 0.0 0.041432377412491506 0.0 0.0
-0.05082978812704464 0.04744279105455096 0.0 0.039311521789851867 0.0 0.0
-0.04757912278192675 0.04440573611041021 0.0 0.035029494415872 0.0 0.0
-0.04257325701982015 0.03956769048468978 0.0 0.030590524084142756 0.0 0.0
-0.03679954959731435 0.033972616657294896 0.0 0.026816360001189588 0.0 0.0
-0.030887897255055086 0.028238081621665856 0.0 0.02356135455886399 0.0 0.0
-0.02523326325391656 0.022748231984747846 0.0 0.020531128635680296 0.0 0.0
-0.019998153103074845 0.01767246290160296 0.0 0.017497020929618134 0.0 0.0
-0.015205178737871777 0.013047065802295865 0.0 0.014352840339349693 0.0 0.0
-0.010875045921452053 0.008908098611778215 0.0 0.011122976034332432 0.0 0.0
-0.007132955273529112 0.005414418430798484 0.0 0.008065514909973426 0.0 0.0
-0.004224165064095259 0.002842312819702819 0.0 0.0055301972405731314 0.0 0.0
-0.0023207234568536073 0.001341078984319788 0.0 0.0037903760283981014 0.0 0.0
-0.0013476092329765266 0.0007004324983361787 0.0 0.002885880920360906 0.0 0.0
-0.0009264323661873908 0.0004862031478127804 0.0 0.002533014098272779 0.0 0.0
-0.0007038142255985924 0.00037699216207631725 0.0 0.002435042348638894 0.0 0.0
-0.0005249060431933572 0.00023887092714403035 0.0 0.0024501877215959422 0.0 0.0
-0.00027242848630076866 -6.022252215776014e-05 0.0 0.0023904390909114115 0.0 0.0
0.00021151005614389318 -0.0007400521584992568 0.0 0.0015542678417035383 0.0 0.0
0.00012041872385321062 -0.0005445629135617525 0.0 -0.001350183582308928 0.0 0.0
-0.00033323961233916455 -1.7341297853135096e-05 0.0 -0.0022359969483677355 0.0 0.0
-0.0006544835146770622 0.00029276263102973044 0.0 -0.0023275490129308074 0.0 0.0
-0.0009166221577944222 0.00046658411197797456 0.0 -0.0022881733713978614 0.0 0.0
-0.0012526497345662357 0.0006417451514264538 0.0 -0.002343190752339963 0.0 0.0
-0.0019342435785670853 0.0010538561273538694 0.0 -0.002753370096430785 0.0 0.0
-0.0034797679726955577 0.0022120016366593553 0.0 -0.0039052185114727966 0.0 0.0
-0.00628692930874325 0.004630819765137684 0.0 -0.006035330078702272 0.0 0.0
-0.010396256989921665 0.008434341047896865 0.0 -0.009047118813516386 0.0 0.0
-0.015580516270201822 0.013377698271264116 0.0 -0.012575609871728677 0.0 0.0
-0.02156207477486194 0.019155690322264718 0.0 -0.016181565474701287 0.0 0.0
-0.028208228307111116 0.025610566328986728 0.0 -0.019617808799302527 0.0 0.0
-0.03549351007541815 0.03271241232101474 0.0 -0.02289928878000591 0.0 0.0
-0.04340945546422584 0.040439054502785954 0.0 -0.026181039412494833 0.0 0.0
-0.05180864649521738 0.04863382985835596 0.0 -0.029809408833531448 0.0 0.0
-0.060256750884117 0.056858508184848056 0.0 -0.034253319542837724 0.0 0.0
-0.06787653829828044 0.0642279676921369 0.0 -0.039588844455264116 0.0 0.0
-0.07311204759021914 0.06916860159647609 0.0 -0.04474855922445309 0.0 0.0
-0.07328092098189062 0.06889921717616243 0.0 -0.046983497190207446 0.0 0.0
-0.06345540203685646 0.058407329952680165 0.0 -0.04303672127932534 0.0 0.0
-0.0634554020368503 0.05840732995266773 0.0 0.04303672127938185 0.0 0.0
-0.07328092098187586 0.06889921717614644 0.0 0.0469834971902805 0.0 0.0
-0.07311204759019102 0.06916860159644589 0.0 0.0447485592245076 0.0 0.0
-0.06787653829823687 0.06422796769209604 0.0 0.03958884445527544 0.0 0.0
-0.060256750884067206 0.05685850818479743 0.0 0.034253319542822624 0.0 0.0
-0.051808646495169586 0.04863382985830578 0.0 0.029809408833512685 0.0 0.0
-0.04340945546417682 0.04043905450273577 0.0 0.02618103941247396 0.0 0.0
-0.03549351007537008 0.03271241232096722 0.0 0.022899288779988924 0.0 0.0
-0.02820822830706428 0.025610566328940987 0.0 0.01961780879927827 0.0 0.0
-0.021562074774819417 0.019155690322225194 0.0 0.016181565474671977 0.0 0.0
-0.015580516270165781 0.013377698271234806 0.0 0.012575609871697258 0.0 0.0
-0.010396256989895367 0.008434341047873328 0.0 0.009047118813496735 0.0 0.0
-0.006286929308725583 0.0046308197651221406 0.0 0.006035330078687728 0.0 0.0
-0.0034797679726857322 0.0022120016366493633 0.0 0.003905218511464914 0.0 0.0
-0.0019342435785622836 0.0010538561273509828 0.0 0.0027533700964250674 0.0 0.0
-0.001252649734564612 0.0006417451514255657 0.0 0.002343190752338409 0.0 0.0
-0.0009166221577937839 0.00046658411197797456 0.0 0.0022881733713974173 0.0 0.0
-0.0006544835146768402 0.0002927626310316178 0.0 0.0023275490129288645 0.0 0.0
-0.00033323961233841515 -1.7341297852691007e-05 0.0 0.002235996948364738 0.0 0.0
0.00012041872385290531 -0.0005445629135610863 0.0 0.0013501835823063746 0.0 0.0
4.28423968818481e-05 -0.0003723961597064118 0.0 -0.0011400068167026212 0.0 0.0
-0.0003907495276046502 3.079750498069522e-05 0.0 -0.0020263446991791723 0.0 0.0
-0.000775365203136924 0.00034258029296196923 0.0 -0.0021472694663894343 0.0 0.0
-0.0011175036770457725 0.0005468497957190621 0.0 -0.002075733796718493 0.0 0.0
-0.0015832886648612376 0.0008094885431246812 0.0 -0.002109553126974195 0.0 0.0
-0.002605025304229236 0.001508895904912988 0.0 -0.002596907019271455 0.0 0.0
-0.004790123670131818 0.0032948515644108944 0.0 -0.003911766446794307 0.0 0.0
-0.00852886989822571 0.0066762154464528045 0.0 -0.006260672489407426 0.0 0.0
-0.013820157987935233 0.011680006547081678 0.0 -0.009502281614400032 0.0 0.0
-0.020399275095040248 0.018015941187567996 0.0 -0.01317475732240947 0.0 0.0
-0.028009526874841317 0.025400312663106828 0.0 -0.016859787856395636 0.0 0.0
-0.03650182575417921 0.03367633243992252 0.0 -0.020377532068212578 0.0 0.0
-0.045832377946393055 0.042798714069826715 0.0 -0.023735294095485693 0.0 0.0
-0.056001106898991265 0.052757652820333956 0.0 -0.027060238454848617 0.0 0.0
-0.06689601251891666 0.06342060594542076 0.0 -0.030737590437180273 0.0 0.0
-0.07802215696974357 0.07427317388164578 0.0 -0.03529609288858382 0.0 0.0
-0.08819538631020354 0.08411989477822335 0.0 -0.04087315732845609 0.0 0.0
-0.0952454180291892 0.09076717572735138 0.0 -0.04638516380652846 0.0 0.0
-0.09562862628144109 0.0906497397638466 0.0 -0.049344185221827264 0.0 0.0
-0.08401419665231824 0.07845203701409176 0.0 -0.047939658478927005 0.0 0.0
-0.08401419665231113 0.07845203701408465 0.0 0.04793965847898607 0.0 0.0
-0.09562862628141913 0.09064973976382973 0.0 0.04934418522189932 0.0 0.0
-0.0952454180291527 0.0907671757273123 0.0 0.04638516380658053 0.0 0.0
-0.0881953863101517 0.0841198947781665 0.0 0.04087315732847241 0.0 0.0
-0.0780221569696834 0.07427317388158894 0.0 0.03529609288857127 0.0 0.0
-0.06689601251885673 0.06342060594536081 0.0 0.03073759043716351 0.0 0.0
-0.05600110689892952 0.052757652820278444 0.0 0.027060238454826968 0.0 0.0
-0.045832377946332326 0.04279871406976454 0.0 0.023735294095465986 0.0 0.0
-0.03650182575412085 0.03367633243986656 0.0 0.020377532068187543 0.0 0.0
-0.02800952687478854 0.02540031266305931 0.0 0.01685978785636355 0.0 0.0
-0.020399275094995076 0.0180159411875227 0.0 0.013174757322377273 0.0 0.0
-0.013820157987901774 0.011680006547045707 0.0 0.009502281614379327 0.0 0.0
-0.008528869898202077 0.00667621544642838 0.0 0.0062606724893917165 0.0 0.0
-0.00479012367011819 0.0032948515643951293 0.0 0.0039117664467844815 0.0 0.0
-0.0026050253042226024 0.0015088959049063266 0.0 0.002596907019265904 0.0 0.0
-0.0015832886648589478 0.000809488543123571 0.0 0.00210955312697092 0.0 0.0
-0.0011175036770448704 0.0005468497957192842 0.0 0.002075733796715662 0.0 0.0
-0.0007753652031365216 0.0003425802929617472 0.0 0.002147269466387769 0.0 0.0
-0.0003907495276038453 3.079750497969602e-05 0.0 0.0020263446991776735 0.0 0.0
4.28423968815983e-05 -0.0003723961597062956 0.0 0.0011400068167005117 0.0 0.0
-2.3491833870903367e-05 -0.0002246925808019884 0.0 -0.0009239324690656914 0.0 0.0
-0.0004462897272167754 8.262495286082139e-05 0.0 -0.0017670048704898633 0.0 0.0
-0.0008886123760276088 0.0003885894293825798 0.0 -0.0019103568516535274 0.0 0.0
-0.0013085101937111987 0.0006229230960401733 0.0 -0.0018164612530735536 0.0 0.0
-0.0019401253059886936 0.0010115253724529705 0.0 -0.0018531646870414975 0.0 0.0
-0.0033715411352744362 0.0020822267636222414 0.0 -0.0023865295059566916 0.0 0.0
-0.006240311075712934 0.004569049314004037 0.0 -0.0037613698931431294 0.0 0.0
-0.010911551393217978 0.008910799467393371 0.0 -0.006156439030134964 0.0 0.0
-0.017332957222667644 0.015056211838167854 0.0 -0.009335812266509702 0.0 0.0
-0.0252766054349291 0.02274253978615226 0.0 -0.012868894749772153 0.0 0.0
-0.034504845621977864 0.03172092775524149 0.0 -0.016429998453895256 0.0 0.0
-0.04484414415766441 0.04181766203888637 0.0 -0.019828565022268485 0.0 0.0
-0.056220875204085696 0.05296015154650524 0.0 -0.023081111317171166 0.0 0.0
-0.06862433350515523 0.06513206361934509 0.0 -0.026278181991425176 0.0 0.0
-0.08195860597446034 0.07821030295862741 0.0 -0.02964763771878476 0.0 0.0
-0.09568909346848331 0.09162018511485837 0.0 -0.03369951006203187 0.0 0.0
-0.10834133979932092 0.10386698779059245 0.0 -0.03885614637632673 0.0 0.0
-0.11711458402826674 0.11215086656097295 0.0 -0.04455855480488147 0.0 0.0
-0.11775847372064158 0.11226003110538585 0.0 -0.04930269565347323 0.0 0.0
-0.10467553445470457 0.09864187883997833 0.0 -0.05248479726145794 0.0 0.0
-0.10467553445469541 0.098641878839965 0.0 0.05248479726151456 0.0 0.0
-0.11775847372061399 0.11226003110534766 0.0 0.04930269565355139 0.0 0.0
-0.11711458402822097 0.11215086656093387 0.0 0.044558554804932315 0.0 0.0
-0.10834133979926044 0.10386698779053827 0.0 0.038856146376339384 0.0 0.0
-0.09568909346841262 0.09162018511479175 0.0 0.03369951006202221 0.0 0.0
-0.08195860597438782 0.07821030295855769 0.0 0.029647637718775266 0.0 0.0
-0.06862433350508175 0.06513206361927004 0.0 0.026278181991409244 0.0 0.0
-0.056220875204012755 0.052960151546430634 0.0 0.023081111317153846 0.0 0.0
-0.044844144157594384 0.04181766203881798 0.0 0.01982856502224839 0.0 0.0
-0.03450484562191511 0.03172092775518065 0.0 0.016429998453866612 0.0 0.0
-0.025276605434876073 0.022742539786101634 0.0 0.012868894749740012 0.0 0.0
-0.017332957222626885 0.015056211838129663 0.0 0.00933581226648661 0.0 0.0
-0.010911551393188432 0.008910799467363617 0.0 0.006156439030118477 0.0 0.0
-0.006240311075694949 0.004569049313986939 0.0 0.0037613698931324713 0.0 0.0
-0.0033715411352649854 0.002082226763614914 0.0 0.002386529505951085 0.0 0.0
-0.001940125305985807 0.0010115253724511941 0.0 0.0018531646870400542 0.0 0.0
-0.001308510193709908 0.0006229230960403953 0.0 0.0018164612530743307 0.0 0.0
-0.000888612376027012 0.00038858942938191365 0.0 0.0019103568516530278 0.0 0.0
-0.00044628972721624804 8.262495286098792e-05 0.0 0.0017670048704896968 0.0 0.0
-2.3491833870709078e-05 -0.00022469258080205778 0.0 0.0009239324690634709 0.0 0.0
-7.741542315703454e-05 -0.00010382058425734142 0.0 -0.0007013767024684481 0.0 0.0
-0.0004984956632282933 0.00013547010754366706 0.0 -0.0014634092540316557 0.0 0.0
-0.0009956389635542018 0.0004312488396889247 0.0 -0.0016168475736908494 0.0 0.0
-0.0014969235248448731 0.0007000654972302289 0.0 -0.0015087581170196152 0.0 0.0
-0.002343071755124937 0.0012615629483694324 0.0 -0.0015530458261621138 0.0 0.0
-0.004239011208588772 0.002786828791603302 0.0 -0.002101070221594281 0.0 0.0
-0.007816733813960197 0.006009785245685961 0.0 -0.0034481533400905207 0.0 0.0
-0.013370629521285371 0.011260446882972452 0.0 -0.005650879701497136 0.0 0.0
-0.020881353071185937 0.018492376648976627 0.0 -0.008494414412583362 0.0 0.0
-0.030174656760391938 0.02751005131763007 0.0 -0.011688278020146381 0.0 0.0
-0.04101047338852187 0.03807296076607036 0.0 -0.01490686315767531 0.0 0.0
-0.05319898537359069 0.049991876892319986 0.0 -0.017985413211216272 0.0 0.0
-0.06662983622319718 0.06315966421414831 0.0 -0.02095895714544027 0.0 0.0
-0.0812418821379367 0.07751164923553411 0.0 -0.023839309057783753 0.0 0.0
-0.09690470787796551 0.09289674202446108 0.0 -0.026644274368843424 0.0 0.0
-0.11307179175670135 0.10871335190432774 0.0 -0.02966246195560307 0.0 0.0
-0.12810803565221596 0.12327675902190194 0.0 -0.03366924101363411 0.0 0.0
-0.13871014059533962 0.13331609530235067 0.0 -0.03939842086248324 0.0 0.0
-0.13999344972387187 0.134014809909627 0.0 -0.046968568921633924 0.0 0.0
-0.12589908177401318 0.1193967059132941 0.0 -0.056661274139159 0.0 0.0
-0.125899081774001 0.11939670591328255 0.0 0.056661274139208406 0.0 0.0
-0.1399934497238391 0.13401480990958703 0.0 0.046968568921702536 0.0 0.0
-0.13871014059528536 0.13331609530228583 0.0 0.03939842086252798 0.0 0.0
-0.12810803565214576 0.12327675902182822 0.0 0.033669241013644546 0.0 0.0
-0.11307179175661985 0.1087133519042478 0.0 0.029662461955596908 0.0 0.0
-0.09690470787788022 0.0928967420243838 0.0 0.026644274368836263 0.0 0.0
-0.08124188213785216 0.07751164923544573 0.0 0.023839309057767488 0.0 0.0
-0.06662983622311248 0.06315966421406527 0.0 0.02095895714542312 0.0 0.0
-0.053198985373508575 0.04999187689224227 0.0 0.01798541321119468 0.0 0.0
-0.041010473388448904 0.038072960765996644 0.0 0.014906863157648276 0.0 0.0
-0.030174656760330945 0.027510051317565676 0.0 0.011688278020119292 0.0 0.0
-0.020881353071137948 0.018492376648926 0.0 0.008494414412566043 0.0 0.0
-0.01337062952124976 0.011260446882936925 0.0 0.005650879701482148 0.0 0.0
-0.00781673381393777 0.006009785245663313 0.0 0.0034481533400830267 0.0 0.0
-0.00423901120857699 0.0027868287915913115 0.0 0.0021010702215891186 0.0 0.0
-0.00234307175512051 0.0012615629483641033 0.0 0.0015530458261586721 0.0 0.0
-0.0014969235248432633 0.0007000654972275644 0.0 0.0015087581170180608 0.0 0.0
-0.0009956389635537438 0.00043124883968881367 0.0 0.0016168475736902943 0.0 0.0
-0.0004984956632280158 0.00013547010754444422 0.0 0.0014634092540300458 0.0 0.0
-7.741542315703454e-05 -0.0001038205842572755 0.0 0.0007013767024662276 0.0 0.0
-0.00011527432239510915 -1.3093042254164189e-05 0.0 -0.0004738949236391954 0.0 0.0
-0.0005428310086359467 0.00018555134423170472 0.0 -0.0011186108891546032 0.0 0.0
-0.0010978539233887918 0.00047030618139598523 0.0 -0.001264415941876873 0.0 0.0
-0.0016941774766870976 0.0007894092534561636 0.0 -0.0011562560516654163 0.0 0.0
-0.0028088872437823653 0.00158316231829847 0.0 -0.0012066083428179941 0.0 0.0
-0.0052138562569475355 0.003623702496201142 0.0 -0.0017300332507291794 0.0 0.0
-0.009473797792614758 0.007560326782745541 0.0 -0.002870957846602906 0.0 0.0
-0.01585651529987664 0.013660132222994559 0.0 -0.004663423419660417 0.0 0.0
-0.024432368195596188 0.02194849052780823 0.0 -0.007004215654510815 0.0 0.0
-0.03505482076553146 0.0322768396892954 0.0 -0.00964441560744167 0.0 0.0
-0.04748913583247666 0.044414520210244834 0.0 -0.01230995385748368 0.0 0.0
-0.06152838591764931 0.0581577760571923 0.0 -0.014856067581418109 0.0 0.0
-0.07702150741153618 0.07335603515464939 0.0 -0.017330895515960343 0.0 0.0
-0.0938244353800134 0.08986348735166105 0.0 -0.019748868888131765 0.0 0.0
-0.11168777493732845 0.10742044539567575 0.0 -0.021890647930140394 0.0 0.0
-0.13001309395327132 0.12538607412183644 0.0 -0.023559515355949245 0.0 0.0
-0.14724996761340195 0.1421359707473666 0.0 -0.025638097187517417 0.0 0.0
-0.1599938227998229 0.15422548222179344 0.0 -0.030825229830859002 0.0 0.0
-0.16260824901484808 0.15617556094054308 0.0 -0.04185873673009488 0.0 0.0
-0.14818529995428317 0.14117810899330951 0.0 -0.060120365753636995 0.0 0.0
-0.14818529995426966 0.1411781089932953 0.0 0.06012036575367785 0.0 0.0
-0.1626082490148095 0.15617556094049778 0.0 0.041858736730148505 0.0 0.0
-0.15999382279975977 0.15422548222172416 0.0 0.030825229830897083 0.0 0.0
-0.14724996761332082 0.14213597074728757 0.0 0.025638097187527575 0.0 0.0
-0.1300130939531788 0.1253860741217463 0.0 0.02355951535594697 0.0 0.0
-0.1116877749372313 0.10742044539558471 0.0 0.02189064793013451 0.0 0.0
-0.09382443537991726 0.08986348735156513 0.0 0.019748868888118554 0.0 0.0
-0.07702150741144004 0.07335603515454903 0.0 0.01733089551594852 0.0 0.0
-0.06152838591755549 0.058157776057099486 0.0 0.014856067581403176 0.0 0.0
-0.04748913583239333 0.0444145202101609 0.0 0.012309953857457978 0.0 0.0
-0.035054820765462194 0.03227683968922035 0.0 0.009644415607416135 0.0 0.0
-0.024432368195540816 0.021948490527752718 0.0 0.007004215654496493 0.0 0.0
-0.01585651529983604 0.013660132222955035 0.0 0.004663423419649149 0.0 0.0
-0.009473797792587814 0.0075603267827226706 0.0 0.0028709578465932473 0.0 0.0
-0.005213856256933304 0.0036237024961887077 0.0 0.0017300332507234062 0.0 0.0
-0.0028088872437761966 0.0015831623182946952 0.0 0.001206608342815163 0.0 0.0
-0.0016941774766852588 0.0007894092534551644 0.0 0.0011562560516649167 0.0 0.0
-0.0010978539233886739 0.0004703061813964293 0.0 0.0012644159418755962 0.0 0.0
-0.0005428310086351973 0.00018555134423120512 0.0 0.0011186108891529933 0.0 0.0
-0.00011527432239523405 -1.3093042254087861e-05 0.0 0.0004738949236386403 0.0 0.0
-0.00013028548484056435 4.311294331293958e-05 0.0 -0.0002481956244443917 0.0 0.0
-0.0005702389106913563 0.00022661430741433009 0.0 -0.0007321124611214813 0.0 0.0
-0.0011979335610533548 0.0005079996954349131 0.0 -0.0008466664715950367 0.0 0.0
-0.0019183740964187068 0.0009042116523563237 0.0 -0.0007612994038731502 0.0 0.0
-0.0033527469555265643 0.0019982709591259695 0.0 -0.0008170846385946451 0.0 0.0
-0.006278949225967612 0.0045763278710819755 0.0 -0.0012113925914993273 0.0 0.0
-0.011164964712068404 0.009172958301767675 0.0 -0.0020056560866447137 0.0 0.0
-0.018343538751985966 0.016074928867757965 0.0 -0.003234716068033605 0.0 0.0
-0.0279495919515505 0.025386745513912512 0.0 -0.004870209852152807 0.0 0.0
-0.039879277304765925 0.03700314697212281 0.0 -0.006740926412481807 0.0 0.0
-0.05390343030063033 0.05070632416995435 0.0 -0.008631693183398625 0.0 0.0
-0.0697941373410661 0.06627378787613614 0.0 -0.01043783049142799 0.0 0.0
-0.0873531661704926 0.08350538666650387 0.0 -0.012221319390105956 0.0 0.0
-0.10632967888857958 0.10214672134740921 0.0 -0.013944711539028432 0.0 0.0
-0.12629862424271288 0.12176861325986232 0.0 -0.01533106883870694 0.0 0.0
-0.1465020280742968 0.14160213951336598 0.0 -0.0159062879697357 0.0 0.0
-0.16553091559079441 0.1601869740726718 0.0 -0.01583762359249341 0.0 0.0
-0.1805467525067709 0.17457831008208036 0.0 -0.018531477636262395 0.0 0.0
-0.1858497229357608 0.17894267931577001 0.0 -0.032265307594843806 0.0 0.0
-0.17226728742607228 0.16466941712713368 0.0 -0.062030172967833974 0.0 0.0
-0.1722672874260582 0.1646694171271159 0.0 0.06203017296786406 0.0 0.0
-0.18584972293571597 0.17894267931572294 0.0 0.03226530759488788 0.0 0.0
-0.18054675250669874 0.17457831008201374 0.0 0.01853147763629104 0.0 0.0
-0.1655309155907007 0.16018697407258564 0.0 0.015837623592496353 0.0 0.0
-0.1465020280741935 0.1416021395132625 0.0 0.015906287969733368 0.0 0.0
-0.1262986242426037 0.12176861325974864 0.0 0.015331068838705497 0.0 0.0
-0.10632967888847226 0.10214672134730352 0.0 0.013944711539023158 0.0 0.0
-0.08735316617038451 0.08350538666640528 0.0 0.012221319390097629 0.0 0.0
-0.06979413734096214 0.06627378787603355 0.0 0.010437830491421163 0.0 0.0
-0.05390343030053768 0.050706324169863315 0.0 0.008631693183379419 0.0 0.0
-0.03987927730468927 0.03700314697204865 0.0 0.006740926412464321 0.0 0.0
-0.027949591951488086 0.025386745513854336 0.0 0.004870209852142704 0.0 0.0
-0.01834353875194089 0.016074928867712224 0.0 0.003234716068026444 0.0 0.0
-0.011164964712037595 0.009172958301735035 0.0 0.002005656086637553 0.0 0.0
-0.006278949225950126 0.004576327871064878 0.0 0.0012113925914953305 0.0 0.0
-0.0033527469555190356 0.001998270959118642 0.0 0.0008170846385928687 0.0 0.0
-0.0019183740964166494 0.0009042116523543253 0.0 0.0007612994038725951 0.0 0.0
-0.001197933561052831 0.0005079996954334698 0.0 0.0008466664715947592 0.0 0.0
-0.0005702389106907041 0.00022661430741399702 0.0 0.0007321124611210372 0.0 0.0
-0.00013028548484060945 4.3112943313243154e-05 0.0 0.00024819562444416965 0.0 0.0
-0.00011036915876760922 5.857793733232697e-05 0.0 -4.1091653445735066e-05 0.0 0.0
-0.000564464219119376 0.0002483930563387249 0.0 -0.0002961841776742413 0.0 0.0
-0.0013035423721781125 0.000550433872654521 0.0 -0.0003500326134716625 0.0 0.0
-0.0021937318195899835 0.0010734948435355829 0.0 -0.0003287213852951054 0.0 0.0
-0.003978670983349419 0.002506456593420525 0.0 -0.00035682643221329746 0.0 0.0
-0.007399672200807228 0.005604265901311578 0.0 -0.0005162700796654263 0.0 0.0
-0.012871672379909327 0.010814595415558959 0.0 -0.000845198402299463 0.0 0.0
-0.020799636884114403 0.018472603136907573 0.0 -0.0013674200711919493 0.0 0.0
-0.031396667871581185 0.028767665129270537 0.0 -0.00210130047623891 0.0 0.0
-0.04460843706243939 0.04164821754122627 0.0 -0.0029736784403179284 0.0 0.0
-0.06021709984152146 0.0569110689834087 0.0 -0.003870277906744324 0.0 0.0
-0.07796202815845432 0.07430332854657662 0.0 -0.004741812329918216 0.0 0.0
-0.09757142637314187 0.09355312458154774 0.0 -0.005592038310033076 0.0 0.0
-0.11869357846372969 0.11430171986794058 0.0 -0.00636374099538084 0.0 0.0
-0.1407340270806961 0.13595010140859198 0.0 -0.006888057520956226 0.0 0.0
-0.16268529685307903 0.15749526411283643 0.0 -0.0068005984893863 0.0 0.0
-0.1830319806096976 0.17742923206911687 0.0 -0.005699943896068094 0.0 0.0
-0.19958935128195232 0.19352021953286425 0.0 -0.004785854886200314 0.0 0.0
-0.20851851237400712 0.20171048432224215 0.0 -0.01395118846526433 0.0 0.0
-0.2002332242875301 0.19150331876117566 0.0 -0.0571490447445151 0.0 0.0
-0.20023322428751475 0.1915033187611641 0.0 0.0571490447445272 0.0 0.0
-0.20851851237395624 0.20171048432219152 0.0 0.013951188465286424 0.0 0.0
-0.19958935128187 0.19352021953278253 0.0 0.00478585488621458 0.0 0.0
-0.18303198060959067 0.17742923206901384 0.0 0.005699943896066484 0.0 0.0
-0.16268529685296368 0.15749526411272674 0.0 0.006800598489380583 0.0 0.0
-0.14073402708057398 0.1359501014084743 0.0 0.006888057520955643 0.0 0.0
-0.11869357846361102 0.11430171986780913 0.0 0.006363740995377426 0.0 0.0
-0.09757142637302163 0.09355312458142384 0.0 0.005592038310030412 0.0 0.0
-0.07796202815833947 0.07430332854646027 0.0 0.004741812329912998 0.0 0.0
-0.06021709984141979 0.056911068983306556 0.0 0.0038702779067326665 0.0 0.0
-0.04460843706235509 0.041648217541147226 0.0 0.0029736784403102123 0.0 0.0
-0.03139666787151285 0.028767665129206588 0.0 0.0021013004762353016 0.0 0.0
-0.02079963688406468 0.0184726031368605 0.0 0.0013674200711865092 0.0 0.0
-0.012871672379874804 0.010814595415528094 0.0 0.0008451984022966874 0.0 0.0
-0.007399672200786146 0.005604265901294259 0.0 0.0005162700796611519 0.0 0.0
-0.003978670983340446 0.002506456593410311 0.0 0.00035682643221224275 0.0 0.0
-0.0021937318195872253 0.0010734948435328073 0.0 0.0003287213852966042 0.0 0.0
-0.0013035423721768254 0.000550433872654299 0.0 0.00035003261347310577 0.0 0.0
-0.0005644642191187273 0.0002483930563387249 0.0 0.00029618417767379723 0.0 0.0
-0.0001103691587674982 5.857793733230615e-05 0.0 4.1091653446623244e-05 0.0 0.0
SCALARS Statev float 8
LOOKUP_TABLE default
0.0 0.014308398606900296 0.011107824330896179 -0.011488020485548516 0.0003801961546523375 -0.006412863954217142 0.0 0.0
0.0 0.0009640805296176299 0.0006986732014947405 -0.0006037585440901296 -9.491465740461072e-05 0.0006132990181820342 0.0 0.0
0.0 3.7177445024199444e-05 -1.17852967288163e-06 1.0537695203561146e-06 1.2476015252548607e-07 2.4684722131196615e-07 0.0 0.0
0.0 0.00038034183463040014 0.0002925779703524534 -0.00023228019250981318 -6.029777784264027e-05 -4.186901234216581e-05 0.0 0.0
0.0 0.001927813210018417 0.0015986482115777547 -0.0013437815894860414 -0.00025486662209171334 -0.00017214215553516148 0.0 0.0
0.0 0.005170208204657091 0.004656778439526955 -0.004161698290655596 -0.0004950801488713586 -0.0003819060920285854 0.0 0.0
0.0 0.011077071208943773 0.009820002389650785 -0.009171465688127843 -0.0006485367015229385 -0.000703484020312835 0.0 0.0
0.0 0.01988692420381779 0.017471938680202893 -0.016714527773110777 -0.0007574109070921112 -0.001201642202187344 0.0 0.0
0.0 0.03181268284271907 0.027802401962809496 -0.026939546059098356 -0.0008628559037111327 -0.0019091843007408133 0.0 0.0
0.0 0.046805348848434944 0.040766808644684835 -0.039791393088588596 -0.0009754155560962438 -0.002768188757732619 0.0 0.0
0.0 0.06465984945174784 0.05616675529999986 -0.05507409570508742 -0.0010926595949124177 -0.0036683340968192354 0.0 0.0
0.0 0.08480460457719574 0.07375517384929484 -0.07254311440909264 -0.001212059440202166 -0.004548677467775727 0.0 0.0
0.0 0.1072477503134964 0.09327191925303062 -0.0919390517348654 -0.0013328675181651388 -0.005410843269224884 0.0 0.0
0.0 0.13163892729316137 0.11441607389226051 -0.11295945209301358 -0.0014566217992468447 -0.006241230399392663 0.0 0.0
0.0 0.15738516686330117 0.136729652006512 -0.13514518171835158 -0.0015844702881602757 -0.006991985593893576 0.0 0.0
0.0 0.1836636094345387 0.15947072591763217 -0.157755696402499 -0.0017150295151332393 -0.007510307353969552 0.0 0.0
0.0 0.20920034810453175 0.18156579772117204 -0.17972186991570738 -0.0018439278054647081 -0.007544797321036676 0.0 0.0
0.0 0.23239913810440177 0.20164857293283514 -0.1996815595162529 -0.001967013416582116 -0.006890615069127639 0.0 0.0
0.0 0.25138930178456215 0.2180912941040335 -0.2160061032246586 -0.0020851908793749117 -0.005978236489169712 0.0 0.0
0.0 0.2630856078630963 0.22834902977365878 -0.2260723475112927 -0.0022766822623660884 -0.0073033037741812735 0.0 0.0
0.0 0.2630856078630807 0.22834902977364466 -0.2260723475112794 -0.0022766822623652315 0.007303303774192725 0.0 0.0
0.0 0.2513893017845089 0.2180912941039869 -0.2160061032246126 -0.0020851908793741596 0.005978236489194149 0.0 0.0
0.0 0.2323991381043058 0.2016485729327523 -0.19968155951616992 -0.0019670134165822783 0.006890615069142694 0.0 0.0
0.0 0.20920034810441404 0.18156579772106982 -0.17972186991560563 -0.0018439278054641708 0.007544797321044202 0.0 0.0
0.0 0.18366360943440843 0.1594707259175195 -0.15775569640238649 -0.001715029515133104 0.007510307353959619 0.0 0.0
0.0 0.15738516686316809 0.1367296520063967 -0.1351451817182365 -0.0015844702881601675 0.006991985593891031 0.0 0.0
0.0 0.13163892729302926 0.1144160738921461 -0.11295945209289951 -0.0014566217992465704 0.006241230399393216 0.0 0.0
0.0 0.10724775031336532 0.09327191925291711 -0.0919390517347522 -0.0013328675181648996 0.005410843269223723 0.0 0.0
0.0 0.08480460457707345 0.07375517384918855 -0.0725431144089875 -0.00121205944020097 0.004548677467766696 0.0 0.0
0.0 0.06465984945163947 0.0561667552999054 -0.05507409570499404 -0.0010926595949113424 0.0036683340968128642 0.0 0.0
0.0 0.046805348848343385 0.04076680864460555 -0.03979139308851 -0.0009754155560955653 0.0027681887577209116 0.0 0.0
0.0 0.03181268284264678 0.027802401962746283 -0.02693954605903562 -0.0008628559037106833 0.0019091843007375841 0.0 0.0
0.0 0.019886924203767427 0.017471938680158332 -0.01671452777306683 -0.000757410907091498 0.001201642202183409 0.0 0.0
0.0 0.011077071208908964 0.0098200023896198 -0.009171465688097442 -0.0006485367015223512 0.0007034840203108174 0.0 0.0
0.0 0.0051702082046375915 0.004656778439509184 -0.004161698290638671 -0.0004950801488705119 0.0003819060920268463 0.0 0.0
0.0 0.00192781321000929 0.0015986482115701488 -0.0013437815894792333 -0.0002548666220909149 0.00017214215553417096 0.0 0.0
0.0 0.0003803418346283618 0.0002925779703515406 -0.00023228019250906052 -6.029777784247992e-05 4.1869012341930404e-05 0.0 0.0
0.0 3.717744502389601e-05 -1.1785296726033054e-06 1.0537695201422117e-06 1.247601524611381e-07 -2.4684722129648005e-07 0.0 0.0
0.0 0.0009640805296145174 0.0006986732014929393 -0.0006037585440885227 -9.491465740441714e-05 -0.0006132990181799161 0.0 0.0
0.0 0.014308398606881122 0.01110782433088349 -0.011488020485534801 0.0003801961546513073 0.006412863954185355 0.0 0.0
0.0 0.010733771004283127 0.007807602770106033 -0.008304078163571765 0.0004964753934657303 -0.007485388403234331 0.0 0.0
0.0 1.9067671231985517e-05 1.4796474102554372e-05 -1.3266226309711047e-05 -1.5302477928433269e-06 9.677468109405524e-06 0.0 0.0
0.0 8.045782768970365e-07 2.1836432929809888e-07 -1.6522156756386588e-07 -5.314276173423543e-08 -7.701786648357918e-08 0.0 0.0
0.0 0.00016156483900330986 0.00011998210090509449 -9.44602042057141e-05 -2.552189669938058e-05 -4.163813095577783e-05 0.0 0.0
0.0 0.0013179757227011362 0.0010552897081066305 -0.0008733802394170224 -0.00018190946868960867 -0.0002800112722793608 0.0 0.0
0.0 0.004025078899241218 0.0036284740167738722 -0.0031943458252771616 -0.00043412819149671084 -0.0007872765780934934 0.0 0.0
0.0 0.009262222887049172 0.008202971156315414 -0.007588374646518373 -0.0006145965097970353 -0.0016001734585249646 0.0 0.0
0.0 0.017220292201297054 0.015098728375642686 -0.01436483856795407 -0.0007338898076886143 -0.0027894982724143177 0.0 0.0
0.0 0.028017070229763862 0.02443642106863573 -0.023597377659154307 -0.0008390434094814132 -0.0043821078454555455 0.0 0.0
0.0 0.04154072494654757 0.036119735829655 -0.03517338139775378 -0.0009463544319012228 -0.006240377026365947 0.0 0.0
0.0 0.0575475812470193 0.04993893621529373 -0.04888352427443561 -0.0010554119408581063 -0.008154090889273852 0.0 0.0
0.0 0.075832866882936 0.06568035927836194 -0.06451520395283841 -0.001165155325523493 -0.009998002295602864 0.0 0.0
0.0 0.09588086701593129 0.08315267186767342 -0.081876279667272 -0.0012763922004014315 -0.011818623595774812 0.0 0.0
0.0 0.11770577304634314 0.10210900889254815 -0.10071908371745077 -0.0013899251750973812 -0.013613126994322506 0.0 0.0
0.0 0.1408508691689015 0.1221578191905534 -0.12065172278143642 -0.0015060964091169078 -0.015246813419708604 0.0 0.0
0.0 0.16451442652665832 0.14267269714286107 -0.14104845643033706 -0.0016242407125240403 -0.01642138818288968 0.0 0.0
0.0 0.18763481960943243 0.16272632564497497 -0.16098345300193306 -0.0017428726430418903 -0.016665510004203937 0.0 0.0
0.0 0.20876541537771415 0.18105326998225302 -0.1791913124131581 -0.0018619575690948427 -0.01568713163364423 0.0 0.0
0.0 0.22583936399668847 0.1958763145568248 -0.1938794635031637 -0.001996851053661001 -0.013861377491479136 0.0 0.0
0.0 0.23608240123146754 0.2047963738000263 -0.2026960795194907 -0.0021002942805355977 -0.011009688597030776 0.0 0.0
0.0 0.23608240123144972 0.20479637380001076 -0.20269607951947485 -0.0021002942805359924 0.011009688597056175 0.0 0.0
0.0 0.2258393639966361 0.195876314556779 -0.1938794635031173 -0.0019968510536616706 0.013861377491524137 0.0 0.0
0.0 0.20876541537762983 0.18105326998217955 -0.17919131241308447 -0.001861957569094963 0.01568713163367453 0.0 0.0
0.0 0.1876348196093329 0.16272632564488793 -0.16098345300184735 -0.001742872643040386 0.01666551000421924 0.0 0.0
0.0 0.16451442652654402 0.14267269714276215 -0.14104845643023878 -0.001624240712523333 0.016421388182879675 0.0 0.0
0.0 0.1408508691687827 0.12215781919045042 -0.12065172278133426 -0.0015060964091161508 0.015246813419701157 0.0 0.0
0.0 0.11770577304622323 0.10210900889244405 -0.1007190837173474 -0.0013899251750966132 0.013613126994319229 0.0 0.0
0.0 0.09588086701581579 0.08315267186757307 -0.08187627966717256 -0.0012763922004005081 0.01181862359576846 0.0 0.0
0.0 0.075832866882827 0.06568035927826743 -0.06451520395274454 -0.0011651553255228474 0.009998002295589767 0.0 0.0
0.0 0.05754758124691973 0.04993893621520755 -0.04888352427434972 -0.0010554119408578192 0.008154090889261934 0.0 0.0
0.0 0.04154072494646553 0.03611973582958382 -0.035173381397683195 -0.0009463544319006045 0.006240377026348947 0.0 0.0
0.0 0.028017070229699195 0.02443642106857902 -0.02359737765909797 -0.0008390434094810364 0.004382107845447642 0.0 0.0
0.0 0.017220292201251493 0.015098728375602766 -0.014364838567914574 -0.0007338898076881959 0.0027894982724063853 0.0 0.0
0.0 0.009262222887019781 0.008202971156289209 -0.007588374646492877 -0.00061459650979633 0.0016001734585199769 0.0 0.0
0.0 0.004025078899225774 0.003628474016760306 -0.003194345825264406 -0.00043412819149590034 0.0007872765780901445 0.0 0.0
0.0 0.0013179757226949827 0.0010552897081019736 -0.0008733802394129918 -0.00018190946868898203 0.00028001127227815194 0.0 0.0
0.0 0.00016156483900208263 0.00011998210090459786 -9.44602042053227e-05 -2.552189669927506e-05 4.163813095571278e-05 0.0 0.0
0.0 8.045782767528072e-07 2.183643293717385e-07 -1.6522156761741546e-07 -5.314276175432549e-08 7.70178664961691e-08 0.0 0.0
0.0 1.9067671231684488e-05 1.4796474102618186e-05 -1.3266226309757812e-05 -1.5302477928603772e-06 -9.677468109470136e-06 0.0 0.0
0.0 0.010733771004260699 0.007807602770091349 -0.00830407816355646 0.0004964753934651058 0.007485388403207142 0.0 0.0
0.0 0.008203971578581992 0.005656450797294093 -0.006187326856080182 0.0005308760587860871 -0.006621963047916788 0.0 0.0
0.0 0.0 0.0 0.0 0.0 0.0 0.0 0.0
0.0 0.0 0.0 0.0 0.0 0.0 0.0 0.0
0.0 3.951304896544243e-05 3.25375304427834e-05 -2.5474356373436217e-05 -7.063174069347202e-06 -2.0867901798939372e-05 0.0 0.0
0.0 0.0007739705232423056 0.0006269065321152621 -0.0005110530650329047 -0.00011585346708235702 -0.00029420512853850484 0.0 0.0
0.0 0.0031393208964989074 0.0026562593696709117 -0.0022992915148220073 -0.0003569678548489042 -0.0009937584161850998 0.0 0.0
0.0 0.00751207430454006 0.006617510169905968 -0.006046758268672249 -0.0005707519012337199 -0.0021879641481035907 0.0 0.0
0.0 0.014578159544715608 0.012714616184228046 -0.012010804973576875 -0.0007038112106511629 -0.003940651576716908 0.0 0.0
0.0 0.024239638958779272 0.021019293343284444 -0.02020879872628445 -0.000810494616999992 -0.006228497430594971 0.0 0.0
0.0 0.0363019344937215 0.03139540885846581 -0.030482917196260166 -0.0009124916622056281 -0.008855956888663799 0.0 0.0
0.0 0.05053274606481157 0.04362528458095474 -0.04261175955546925 -0.0010135250254854921 -0.011557980712867092 0.0 0.0
0.0 0.06662217968077705 0.0575212037307366 -0.05640694680244073 -0.0011142569282958513 -0.01417419161947978 0.0 0.0
0.0 0.0845668166810904 0.07293176880592159 -0.07171603932625499 -0.0012157294796665795 -0.0167358846857385 0.0 0.0
0.0 0.10382344493146245 0.08967805280680283 -0.08835947631366656 -0.0013185764931361993 -0.019275214934615544 0.0 0.0
0.0 0.1243106070531308 0.10745217933636401 -0.10602948013971923 -0.0014226991966447633 -0.021627882110123835 0.0 0.0
0.0 0.1454275464768404 0.12574984791660854 -0.12422130438901383 -0.0015285435275946887 -0.023374727630976172 0.0 0.0
0.0 0.16618499164685036 0.14378774105359807 -0.14215021557257856 -0.001637525481019479 -0.023950913834096303 0.0 0.0
0.0 0.18520533558355504 0.16037618010679813 -0.158621621104025 -0.001754559002773104 -0.022919280488210392 0.0 0.0
0.0 0.2005460031102608 0.17380820075029618 -0.1719392010005967 -0.0018689997496993908 -0.019794667221774365 0.0 0.0
0.0 0.20999203083005902 0.18216368631821872 -0.18021128360617708 -0.0019524027120415227 -0.013570740500653277 0.0 0.0
0.0 0.2099920308300437 0.18216368631820468 -0.18021128360616318 -0.0019524027120414562 0.013570740500697266 0.0 0.0
0.0 0.20054600311022197 0.17380820075026032 -0.17193920100056162 -0.0018689997496988027 0.019794667221837238 0.0 0.0
0.0 0.18520533558349014 0.16037618010673976 -0.1586216211039677 -0.0017545590027718712 0.022919280488255173 0.0 0.0
0.0 0.1661849916467637 0.14378774105352193 -0.14215021557250299 -0.0016375254810189989 0.023950913834115864 0.0 0.0
0.0 0.1454275464767415 0.12574984791652266 -0.12422130438892917 -0.0015285435275934347 0.023374727630964837 0.0 0.0
0.0 0.12431060705302982 0.10745217933627588 -0.10602948013963273 -0.0014226991966431678 0.021627882110116736 0.0 0.0
0.0 0.10382344493135959 0.08967805280671325 -0.0883594763135778 -0.0013185764931354614 0.019275214934610763 0.0 0.0
0.0 0.08456681668099286 0.07293176880583685 -0.07171603932617099 -0.0012157294796658036 0.016735884685730364 0.0 0.0
0.0 0.0666221796806818 0.057521203730654294 -0.0564069468023594 -0.0011142569282949022 0.014174191619461969 0.0 0.0
0.0 0.05053274606472602 0.04362528458088044 -0.042611759555395715 -0.0010135250254847115 0.01155798071284921 0.0 0.0
0.0 0.03630193449365013 0.03139540885840407 -0.030482917196199028 -0.0009124916622050345 0.008855956888642168 0.0 0.0
0.0 0.024239638958719844 0.02101929334323276 -0.020208798726233337 -0.0008104946169994134 0.006228497430581355 0.0 0.0
0.0 0.014578159544672637 0.01271461618419059 -0.012010804973540018 -0.0007038112106505643 0.003940651576704809 0.0 0.0
0.0 0.0075120743045136345 0.00661751016988269 -0.006046758268649748 -0.0005707519012329398 0.0021879641480964116 0.0 0.0
0.0 0.0031393208964850747 0.002656259369659414 -0.002299291514811456 -0.0003569678548479574 0.000993758416180479 0.0 0.0
0.0 0.0007739705232379187 0.0006269065321120453 -0.0005110530650302074 -0.00011585346708183778 0.0002942051285369858 0.0 0.0
0.0 3.951304896503867e-05 3.2537530442962006e-05 -2.5474356373565403e-05 -7.063174069396621e-06 2.0867901798992864e-05 0.0 0.0
0.0 0.0 0.0 0.0 0.0 0.0 0.0 0.0
0.0 0.0 0.0 0.0 0.0 0.0 0.0 0.0
0.0 0.00820397157856257 0.005656450797280804 -0.006187326856066288 0.000530876058785478 0.006621963047894885 0.0 0.0
0.0 0.006201932954631511 0.004106964626917342 -0.004613920502602478 0.0005069558756851354 -0.005276681759866896 0.0 0.0
0.0 0.0 0.0 0.0 0.0 0.0 0.0 0.0
0.0 0.0 0.0 0.0 0.0 0.0 0.0 0.0
0.0 7.1882580644110115e-06 3.9208071830015095e-06 -3.0583928538223784e-06 -8.62414329179115e-07 -4.019124406637092e-06 0.0 0.0
0.0 0.000399550057663356 0.0003157877258361873 -0.00025457620454968487 -6.121152128650223e-05 -0.00023673810680366016 0.0 0.0
0.0 0.002202266961902327 0.0018110020193798635 -0.0015391117513053761 -0.000271890268074487 -0.0010270784457518548 0.0 0.0
0.0 0.005894686636689013 0.005085381062043524 -0.00457654132342577 -0.0005088397386177562 -0.002473389692800949 0.0 0.0
0.0 0.011992269451970222 0.010351437657674468 -0.009685593997887735 -0.0006658436597867343 -0.004648247833162702 0.0 0.0
0.0 0.020483081077496367 0.01759006651854001 -0.01681437784000621 -0.0007756886785338037 -0.007439993154456557 0.0 0.0
0.0 0.03106607881830958 0.02663681300128822 -0.025763554625931714 -0.0008732583753564668 -0.010620499597832116 0.0 0.0
0.0 0.04349306371714835 0.03726655246611068 -0.03629977241429232 -0.0009667800518183583 -0.013882147413717412 0.0 0.0
0.0 0.05754557989039378 0.04930969450828291 -0.04825095787795969 -0.00105873663032322 -0.017060437775567983 0.0 0.0
0.0 0.07307385404654038 0.06265544188401467 -0.061505100753421936 -0.0011503411305927385 -0.020187936770644507 0.0 0.0
0.0 0.08997287352557849 0.07717748071257013 -0.07593485210946431 -0.0012426286031058254 -0.02325022300064935 0.0 0.0
0.0 0.10794121286801531 0.09265592278227876 -0.09132124049395088 -0.0013346822883278484 -0.026093681302784173 0.0 0.0
0.0 0.12631201639485606 0.10871631435245949 -0.10728831372970127 -0.0014280006227581658 -0.028333620642810257 0.0 0.0
0.0 0.14471417537795714 0.12471799749674506 -0.1231908779062644 -0.0015271195904806066 -0.02933224825248312 0.0 0.0
0.0 0.16173400473082372 0.1396196125579248 -0.13798692699025547 -0.0016326855676693087 -0.028324420534149658 0.0 0.0
0.0 0.17565513450917214 0.15194424660848901 -0.15021012516537144 -0.0017341214431175148 -0.024208913262079974 0.0 0.0
0.0 0.1846483773456029 0.16006783632345148 -0.15825863619149746 -0.0018092001319540483 -0.01562528030256812 0.0 0.0
0.0 0.18464837734558928 0.16006783632343868 -0.1582586361914843 -0.0018092001319544775 0.015625280302623272 0.0 0.0
0.0 0.17565513450913167 0.1519442466084508 -0.15021012516533355 -0.0017341214431171245 0.024208913262151733 0.0 0.0
0.0 0.16173400473075816 0.13961961255786506 -0.13798692699019616 -0.001632685567668809 0.0283244205342004 0.0 0.0
0.0 0.1447141753778789 0.12471799749667586 -0.12319087790619508 -0.001527119590480752 0.029332248252506035 0.0 0.0
0.0 0.12631201639477097 0.10871631435238586 -0.10728831372962819 -0.001428000622757645 0.02833362064279997 0.0 0.0
0.0 0.10794121286792437 0.0926559227822 -0.0913212404938728 -0.0013346822883271825 0.026093681302773494 0.0 0.0
0.0 0.08997287352548662 0.07717748071249031 -0.07593485210938508 -0.0012426286031051834 0.02325022300063989 0.0 0.0
0.0 0.07307385404645182 0.06265544188393776 -0.06150510075334556 -0.0011503411305921938 0.02018793677063247 0.0 0.0
0.0 0.0575455798903121 0.04930969450821264 -0.04825095787788947 -0.0010587366303231641 0.0170604377755467 0.0 0.0
0.0 0.04349306371707521 0.037266552466047764 -0.03629977241422974 -0.000966780051818006 0.01388214741369468 0.0 0.0
0.0 0.031066078818249063 0.026636813001236673 -0.02576355462588076 -0.0008732583753558938 0.01062049959780698 0.0 0.0
0.0 0.020483081077451046 0.017590066518500803 -0.016814377839967615 -0.0007756886785331841 0.007439993154441956 0.0 0.0
0.0 0.011992269451935936 0.010351437657644898 -0.009685593997858762 -0.0006658436597861338 0.004648247833149495 0.0 0.0
0.0 0.005894686636666776 0.005085381062024521 -0.004576541323407724 -0.0005088397386167969 0.002473389692792352 0.0 0.0
0.0 0.0022022669618909077 0.00181100201937105 -0.001539111751297558 -0.000271890268073492 0.0010270784457468275 0.0 0.0
0.0 0.0003995500576591594 0.0003157877258334222 -0.00025457620454741184 -6.121152128601036e-05 0.0002367381068017847 0.0 0.0
0.0 7.188258063848704e-06 3.920807183033884e-06 -3.058392853844308e-06 -8.624143291895657e-07 4.019124406658121e-06 0.0 0.0
0.0 0.0 0.0 0.0 0.0 0.0 0.0 0.0
0.0 0.0 0.0 0.0 0.0 0.0 0.0 0.0
0.0 0.0062019329546141935 0.004106964626905818 -0.004613920502590284 0.0005069558756844648 0.005276681759849477 0.0 0.0
0.0 0.004550910123330566 0.002908720468697403 -0.0033563243280043623 0.00044760385930696036 -0.003949214258084219 0.0 0.0
0.0 0.0 0.0 0.0 0.0 0.0 0.0 0.0
0.0 0.0 0.0 0.0 0.0 0.0 0.0 0.0
0.0 1.07687149215735e-06 5.408243650687728e-07 -4.136842540217028e-07 -1.2714011104706972e-07 -7.947040789472155e-07 0.0 0.0
0.0 0.00017678581627706203 0.00012808975897817245 -0.00010272857884117236 -2.5361180137000077e-05 -0.00014797898860007414 0.0 0.0
0.0 0.0014056903236588573 0.0011156052687354078 -0.0009311057074959709 -0.00018449956123943703 -0.0009313078539216142 0.0 0.0
0.0 0.0044781861348796555 0.003655325330176284 -0.0032279593763592613 -0.0004273659538170226 -0.0024681447659637536 0.0 0.0
0.0 0.009534293154227162 0.008037272985782124 -0.007423199867866602 -0.0006140731179155244 -0.004871296566928839 0.0 0.0
0.0 0.016772008828505745 0.014187314699409457 -0.013454140466023142 -0.000733174233386321 -0.008010134610599214 0.0 0.0
0.0 0.025868407683426818 0.021885361444872273 -0.02105764199826723 -0.0008277194466050338 -0.011531452467346172 0.0 0.0
0.0 0.036497372782755416 0.030904394846224547 -0.029989928173811724 -0.0009144666724128458 -0.015137089415226304 0.0 0.0
0.0 0.04844500349892113 0.04108908456260388 -0.04009143943861355 -0.0009976451239903034 -0.018655954074818917 0.0 0.0
0.0 0.061698016931338265 0.052363403360656896 -0.05128387034220483 -0.0010795330184520592 -0.022122132456114253 0.0 0.0
0.0 0.07597054552568525 0.06465791281685977 -0.06349689346631376 -0.0011610193505460216 -0.025532776891163754 0.0 0.0
0.0 0.0913085385218215 0.07782534958911849 -0.07658361762470274 -0.0012417319644157576 -0.028694795629633802 0.0 0.0
0.0 0.10736947026273441 0.09160007023503919 -0.09027718092980107 -0.0013228893052380855 -0.03125133316288303 0.0 0.0
0.0 0.1232252258114005 0.1055163920110688 -0.1041082146582696 -0.0014081773527991732 -0.032636863529731316 0.0 0.0
0.0 0.13823688645057647 0.11877380271484446 -0.1172735272716086 -0.0015002754432358234 -0.03185813629821377 0.0 0.0
0.0 0.15095177010547173 0.13016723602432528 -0.12857558770821959 -0.0015916483161056393 -0.02731435789933231 0.0 0.0
0.0 0.15973472667366218 0.1382722911175028 -0.13660759825606653 -0.0016646928614361324 -0.017325408018916973 0.0 0.0
0.0 0.15973472667365524 0.13827229111749403 -0.13660759825605936 -0.0016646928614345244 0.01732540801897608 0.0 0.0
0.0 0.15095177010544808 0.1301672360242998 -0.12857558770819585 -0.0015916483161039403 0.027314357899408635 0.0 0.0
0.0 0.13823688645052867 0.1187738027147994 -0.11727352727156326 -0.001500275443236174 0.03185813629826949 0.0 0.0
0.0 0.12322522581133873 0.10551639201101269 -0.1041082146582139 -0.0014081773527987694 0.032636863529758475 0.0 0.0
0.0 0.10736947026265888 0.09160007023497381 -0.09027718092973597 -0.0013228893052379042 0.031251333162872236 0.0 0.0
0.0 0.09130853852174117 0.07782534958904937 -0.07658361762463314 -0.0012417319644162732 0.02869479562962103 0.0 0.0
0.0 0.07597054552560785 0.06465791281679263 -0.0634968934662471 -0.001161019350545526 0.02553277689115238 0.0 0.0
0.0 0.0616980169312617 0.052363403360590345 -0.05128387034213847 -0.0010795330184518311 0.022122132456101604 0.0 0.0
0.0 0.048445003498850725 0.041089084562543524 -0.040091439438553825 -0.0009976451239896785 0.01865595407479594 0.0 0.0
0.0 0.03649737278269381 0.030904394846171915 -0.029989928173760033 -0.0009144666724118801 0.015137089415201466 0.0 0.0
0.0 0.025868407683372233 0.02188536144482669 -0.02105764199822262 -0.0008277194466040747 0.011531452467317214 0.0 0.0
0.0 0.01677200882846303 0.01418731469937325 -0.013454140465987401 -0.0007331742333858422 0.008010134610580293 0.0 0.0
0.0 0.009534293154195773 0.008037272985756051 -0.007423199867841157 -0.0006140731179148951 0.004871296566913014 0.0 0.0
0.0 0.00447818613486028 0.0036553253301605886 -0.0032279593763445153 -0.0004273659538160738 0.0024681447659540686 0.0 0.0
0.0 0.0014056903236505502 0.0011156052687293042 -0.0009311057074906858 -0.00018449956123861786 0.0009313078539165135 0.0 0.0
0.0 0.00017678581627559643 0.00012808975897769353 -0.00010272857884076624 -2.5361180136927242e-05 0.00014797898859940768 0.0 0.0
0.0 1.0768714920019435e-06 5.408243652023326e-07 -4.1368425412413195e-07 -1.2714011107819834e-07 7.94704079147427e-07 0.0 0.0
0.0 0.0 0.0 0.0 0.0 0.0 0.0 0.0
0.0 0.0 0.0 0.0 0.0 0.0 0.0 0.0
0.0 0.004550910123315143 0.00290872046868738 -0.003356324327993689 0.00044760385930630713 0.003949214258069423 0.0 0.0
0.0 0.0031681856360689484 0.00196556296115655 -0.0023312089203639816 0.00036564595920743137 -0.0028000649519063347 0.0 0.0
0.0 0.0 0.0 0.0 0.0 0.0 0.0 0.0
0.0 0.0 0.0 0.0 0.0 0.0 0.0 0.0
0.0 1.2459832782016668e-06 -8.711175530045244e-08 6.722946238267231e-08 1.9882292917777628e-08 2.0432140011233723e-07 0.0 0.0
0.0 7.782173902549455e-05 4.4884821647039204e-05 -3.590858216921166e-05 -8.976239477827546e-06 -7.779982325999493e-05 0.0 0.0
0.0 0.0007913480798362784 0.0005966169924891752 -0.0004904161990385503 -0.00010620079345062459 -0.0007374481886625124 0.0 0.0
0.0 0.0030502844154193407 0.002403760403144715 -0.0020770416454620015 -0.0003267187576827134 -0.0022688185400137036 0.0 0.0
0.0 0.00719984671265207 0.005832018846280779 -0.005293080250087783 -0.0005389385961929935 -0.004679519841364254 0.0 0.0
0.0 0.013182074512078232 0.010848417159550247 -0.010170078683150932 -0.0006783384763993115 -0.007909293591184868 0.0 0.0
0.0 0.02073074963066393 0.017184277478135713 -0.016410234660181724 -0.0007740428179539881 -0.011578257062341394 0.0 0.0
0.0 0.02952971216361413 0.024583425875606246 -0.023728681138465872 -0.000854744737140373 -0.015307305362440942 0.0 0.0
0.0 0.039397834171949815 0.03290562396491584 -0.0319757621537364 -0.000929861811179435 -0.018950796484143762 0.0 0.0
0.0 0.05026653730868245 0.042106271246952015 -0.041104315916687825 -0.001001955330264166 -0.022545830167393685 0.0 0.0
0.0 0.06211073332717574 0.05216480909023496 -0.051092192270120074 -0.00107261682011489 -0.0260752108999821 0.0 0.0
0.0 0.07485717529047387 0.06300662403962125 -0.06186378118066818 -0.0011428428589530914 -0.02937341207949651 0.0 0.0
0.0 0.08802193859189936 0.07445590472211674 -0.07324422229137742 -0.001211682430739335 -0.03211479112518566 0.0 0.0
0.0 0.10165569113802472 0.08621311168288874 -0.08493192315993994 -0.0012811885229487671 -0.033779033916320166 0.0 0.0
0.0 0.11481215655261846 0.09779247957949876 -0.09643548636369931 -0.0013569932157994466 -0.03340194497905221 0.0 0.0
0.0 0.12625959477180515 0.10833102776383782 -0.10689212975724098 -0.00143889800659676 -0.029096539248466412 0.0 0.0
0.0 0.13499841270860807 0.11656868460578697 -0.11505441019617899 -0.0015142744096079094 -0.018708713753580675 0.0 0.0
0.0 0.13499841270860086 0.11656868460577856 -0.11505441019617 -0.0015142744096085276 0.018708713753640978 0.0 0.0
0.0 0.126259594771779 0.10833102776381044 -0.10689212975721259 -0.0014388980065978682 0.029096539248543503 0.0 0.0
0.0 0.11481215655257729 0.09779247957945782 -0.09643548636365874 -0.0013569932157990892 0.033401944979109074 0.0 0.0
0.0 0.10165569113797636 0.08621311168284362 -0.08493192315989566 -0.0012811885229479245 0.03377903391634483 0.0 0.0
0.0 0.08802193859184107 0.07445590472206613 -0.0732442222913277 -0.0012116824307384147 0.03211479112517635 0.0 0.0
0.0 0.07485717529041114 0.06300662403956664 -0.061863781180615 -0.0011428428589516262 0.02937341207948268 0.0 0.0
0.0 0.06211073332711361 0.052164809090180966 -0.051092192270066644 -0.0010726168201143386 0.026075210899969017 0.0 0.0
0.0 0.050266537308625965 0.04210627124690265 -0.041104315916639586 -0.0010019553302630926 0.022545830167382513 0.0 0.0
0.0 0.03939783417189303 0.03290562396486764 -0.03197576215368914 -0.000929861811178481 0.018950796484121617 0.0 0.0
0.0 0.029529712163562448 0.024583425875563128 -0.023728681138423108 -0.000854744737140029 0.015307305362416 0.0 0.0
0.0 0.020730749630618744 0.017184277478099183 -0.016410234660145417 -0.0007740428179537605 0.011578257062311217 0.0 0.0
0.0 0.013182074512044829 0.010848417159522427 -0.010170078683123808 -0.000678338476398612 0.007909293591166208 0.0 0.0
0.0 0.007199846712627203 0.005832018846260768 -0.00529308025006847 -0.0005389385961922989 0.004679519841349083 0.0 0.0
0.0 0.003050284415403977 0.00240376040313259 -0.0020770416454510827 -0.0003267187576815064 0.0022688185400041 0.0 0.0
0.0 0.0007913480798291646 0.0005966169924844201 -0.0004904161990344983 -0.00010620079344992159 0.0007374481886567821 0.0 0.0
0.0 7.78217390243207e-05 4.488482164688151e-05 -3.590858216906854e-05 -8.976239477812982e-06 7.779982325961885e-05 0.0 0.0
0.0 1.245983277765114e-06 -8.711175526903953e-08 6.722946235833695e-08 1.9882292910690027e-08 -2.0432140003799813e-07 0.0 0.0
0.0 0.0 0.0 0.0 0.0 0.0 0.0 0.0
0.0 0.0 0.0 0.0 0.0 0.0 0.0 0.0
0.0 0.0031681856360578275 0.0019655629611495984 -0.0023312089203562794 0.000365645959206681 0.0028000649518962854 0.0 0.0
0.0 0.0020714869864857754 0.0012285419966287477 -0.0014986774835959388 0.000270135486967191 -0.0018490309826728348 0.0 0.0
0.0 6.808126749334917e-07 -1.0371231226033877e-08 1.1382208934150606e-08 -1.010977708115995e-09 1.3495275768488005e-07 0.0 0.0
0.0 3.7869285625906513e-07 -1.0853022555903305e-08 7.76318668522007e-09 3.0898358706842675e-09 7.416418593090768e-08 0.0 0.0
0.0 1.343535810957597e-06 -6.745450613659108e-08 5.1836617700734505e-08 1.5617888435866596e-08 2.5068220686766373e-07 0.0 0.0
0.0 4.176522005404851e-05 2.0285736315361215e-05 -1.6122272855519828e-05 -4.1634634598414024e-06 -5.229859163017144e-05 0.0 0.0
0.0 0.0004290922036078565 0.00025946902551918184 -0.00021094050809177531 -4.852851742740667e-05 -0.0004835899252632503 0.0 0.0
0.0 0.0018882914221525228 0.001365772358165862 -0.0011528719766254103 -0.00021290038154045214 -0.0018559798978690734 0.0 0.0
0.0 0.004984428163067716 0.00381789423093868 -0.0033843490777386836 -0.00043354515319999395 -0.004135371293078335 0.0 0.0
0.0 0.009702754539262788 0.007640675490556352 -0.007040774647401027 -0.0005999008431553192 -0.0071832841753079225 0.0 0.0
0.0 0.015684178069339316 0.012580949029660636 -0.011874151349780069 -0.0007067976798805602 -0.010727780248279884 0.0 0.0
0.0 0.022642086533421667 0.018351029179611095 -0.0175667275273014 -0.0007843016523096923 -0.014380012807390357 0.0 0.0
0.0 0.030405031383339397 0.024811448680507813 -0.02395886465434574 -0.0008525840261620738 -0.017932292557554 0.0 0.0
0.0 0.03895279773763056 0.031938260473169104 -0.031023025405503234 -0.0009152350676658571 -0.021424799079623986 0.0 0.0
0.0 0.048235227628526944 0.03975583415848007 -0.038780887509398634 -0.0009749466490814277 -0.024873157076399508 0.0 0.0
0.0 0.05829345675984414 0.048255557607325285 -0.04722164409394393 -0.0010339135133813622 -0.028117968254902682 0.0 0.0
0.0 0.0689339876979428 0.05734309338138073 -0.05625020655304255 -0.001092886828338222 -0.030836544705361284 0.0 0.0
0.0 0.07987426523013161 0.06685856902235922 -0.06571225922442923 -0.0011463097979299655 -0.032655188763488184 0.0 0.0
0.0 0.0909463212322211 0.07664137922330207 -0.0754400500136792 -0.0012013292096228736 -0.03283931580289706 0.0 0.0
0.0 0.10156038104511855 0.0862759299962568 -0.08500495904720616 -0.0012709709490506074 -0.029443151104111696 0.0 0.0
0.0 0.11043992071175132 0.09473940315226778 -0.09338698194022806 -0.0013524212120396995 -0.019746306631940512 0.0 0.0
0.0 0.11043992071174694 0.09473940315226075 -0.09338698194022196 -0.0013524212120387237 0.019746306631997744 0.0 0.0
0.0 0.1015603810451011 0.0862759299962345 -0.08500495904718518 -0.0012709709490494213 0.029443151104188856 0.0 0.0
0.0 0.09094632123218988 0.07664137922326884 -0.07544005001364588 -0.001201329209622865 0.032839315802953246 0.0 0.0
0.0 0.07987426523009304 0.06685856902232204 -0.06571225922439272 -0.0011463097979293505 0.03265518876351173 0.0 0.0
0.0 0.06893398769789386 0.05734309338133862 -0.05625020655300074 -0.0010928868283378666 0.030836544705350077 0.0 0.0
0.0 0.05829345675979506 0.048255557607283436 -0.04722164409390247 -0.0010339135133809563 0.02811796825488734 0.0 0.0
0.0 0.048235227628478164 0.03975583415843806 -0.038780887509357154 -0.0009749466490808858 0.024873157076386904 0.0 0.0
0.0 0.038952797737583485 0.03193826047312866 -0.031023025405463173 -0.0009152350676654655 0.021424799079610403 0.0 0.0
0.0 0.030405031383292334 0.024811448680468834 -0.02395886465430714 -0.0008525840261617017 0.01793229255753045 0.0 0.0
0.0 0.022642086533381005 0.01835102917957815 -0.01756672752726894 -0.0007843016523091937 0.01438001280736544 0.0 0.0
0.0 0.015684178069302307 0.012580949029631985 -0.011874151349751894 -0.0007067976798800866 0.01072778024825082 0.0 0.0
0.0 0.009702754539235518 0.0076406754905349395 -0.007040774647380054 -0.0005999008431548853 0.007183284175290286 0.0 0.0
0.0 0.004984428163049951 0.003817894230925033 -0.003384349077725945 -0.0004335451531990867 0.004135371293065719 0.0 0.0
0.0 0.0018882914221424636 0.0013657723581586066 -0.0011528719766189764 -0.00021290038153962915 0.001855979897860797 0.0 0.0
0.0 0.000429092203603676 0.000259469025517075 -0.00021094050809002346 -4.852851742705136e-05 0.0004835899252592957 0.0 0.0
0.0 4.1765220053049395e-05 2.0285736315466894e-05 -1.6122272855599815e-05 -4.163463459867093e-06 5.2298591630436665e-05 0.0 0.0
0.0 1.343535810551308e-06 -6.74545061154224e-08 5.1836617684484416e-08 1.561788843093987e-08 -2.5068220678900275e-07 0.0 0.0
0.0 3.786928558295237e-07 -1.0853022544114866e-08 7.763186676628835e-09 3.0898358674860974e-09 -7.416418584570931e-08 0.0 0.0
0.0 6.808126741997652e-07 -1.0371231215047161e-08 1.1382208922371451e-08 -1.0109777073237724e-09 -1.34952757536912e-07 0.0 0.0
0.0 0.002071486986476714 0.0012285419966234958 -0.0014986774835899367 0.00027013548696643995 0.001849030982665025 0.0 0.0
0.0 0.0012154645720860151 0.0006764617575517431 -0.0008514125550556954 0.00017495079750395187 -0.0010882773434154284 0.0 0.0
0.0 1.4865025712247077e-06 4.8286414947823654e-08 -4.724824214242051e-08 -1.038172805404461e-09 -1.1339633593306525e-06 0.0 0.0
0.0 6.378737714753462e-07 -6.056268698752962e-09 4.3889914328540615e-09 1.6672772658994267e-09 1.1612382412497256e-07 0.0 0.0
0.0 1.5876861516475367e-06 1.4353941065542486e-07 -1.1445480256442046e-07 -2.908460809100227e-08 -1.0292851011157942e-06 0.0 0.0
0.0 3.351082481055017e-05 1.1612329698205318e-05 -9.184986646863569e-06 -2.427343051341762e-06 -4.696746574190438e-05 0.0 0.0
0.0 0.00022947632972709732 0.0001020285210031563 -8.230158543842968e-05 -1.9726935564726612e-05 -0.000307268873340658 0.0 0.0
0.0 0.0010382475311457254 0.0006118241677966111 -0.0005052206314841141 -0.0001066035363124967 -0.001301975714120416 0.0 0.0
0.0 0.0030363879483693524 0.0020769643629436206 -0.0017855257141916783 -0.00029143864875194245 -0.003254313263089636 0.0 0.0
0.0 0.006411755882207085 0.004660316692580439 -0.004180786608623654 -0.000479530083956781 -0.0059139026394111355 0.0 0.0
0.0 0.010723640410447202 0.008154606161174712 -0.007544856161172293 -0.0006097500000024188 -0.009028681655683622 0.0 0.0
0.0 0.01591654269204929 0.012271133176449574 -0.011577243688165848 -0.0006938894882837234 -0.012311338250136607 0.0 0.0
0.0 0.02153915366755295 0.01686996063057441 -0.016111564297759017 -0.0007583963328153894 -0.015551123345768861 0.0 0.0
0.0 0.02771851327396707 0.02192890253397629 -0.021115565208735313 -0.0008133373252409799 -0.018738241403674867 0.0 0.0
0.0 0.03450028843524755 0.027499356769577158 -0.02663690112021744 -0.0008624556493597166 -0.02187748468240989 0.0 0.0
0.0 0.04194676889591757 0.03363753149138903 -0.032727937618227516 -0.0009095938731614929 -0.024878767467216095 0.0 0.0
0.0 0.04988157666460224 0.040339720337013565 -0.03938161192203589 -0.0009581084149776579 -0.027440981208614493 0.0 0.0
0.0 0.05829555476629723 0.0475421308655444 -0.04653972892078981 -0.0010024019447545786 -0.02917950460505416 0.0 0.0
0.0 0.06706713374170407 0.0553223885817581 -0.05428952214011621 -0.0010328664416418716 -0.029847196098042816 0.0 0.0
0.0 0.07629963858381611 0.06383958230079223 -0.06276069497853876 -0.0010788873222534372 -0.028021377356392086 0.0 0.0
0.0 0.08526049503802866 0.07253892050694641 -0.07137093484980986 -0.0011679856571366412 -0.020329113319087835 0.0 0.0
0.0 0.08526049503802482 0.07253892050694015 -0.07137093484980277 -0.001167985657137419 0.020329113319136734 0.0 0.0
0.0 0.076299638583808 0.06383958230077821 -0.06276069497852406 -0.00107888732225415 0.02802137735646222 0.0 0.0
0.0 0.06706713374168721 0.05532238858173656 -0.05428952214009449 -0.001032866441642066 0.02984719609809617 0.0 0.0
0.0 0.058295554766266494 0.04754213086551448 -0.04653972892076062 -0.0010024019447538834 0.0291795046050711 0.0 0.0
0.0 0.04988157666456834 0.04033972033698489 -0.03938161192200861 -0.0009581084149762608 0.027440981208601497 0.0 0.0
0.0 0.04194676889587622 0.03363753149135476 -0.03272793761819388 -0.0009095938731609008 0.02487876746719822 0.0 0.0
0.0 0.03450028843521107 0.027499356769546762 -0.026636901120186893 -0.000862455649359888 0.02187748468239717 0.0 0.0
0.0 0.027718513273938795 0.02192890253395216 -0.02111556520871113 -0.0008133373252410305 0.01873824140366673 0.0 0.0
0.0 0.021539153667520107 0.016869960630547957 -0.016111564297733093 -0.000758396332814855 0.015551123345749585 0.0 0.0
0.0 0.015916542692017994 0.012271133176425038 -0.011577243688142155 -0.0006938894882828722 0.01231133825011415 0.0 0.0
0.0 0.010723640410419875 0.008154606161154744 -0.007544856161153024 -0.0006097500000017167 0.009028681655659494 0.0 0.0
0.0 0.006411755882187678 0.004660316692565939 -0.004180786608609959 -0.00047953008395597925 0.005913902639395693 0.0 0.0
0.0 0.003036387948356051 0.0020769643629340463 -0.0017855257141830253 -0.0002914386487510206 0.0032543132630775077 0.0 0.0
0.0 0.0010382475311388278 0.0006118241677926326 -0.0005052206314806954 -0.00010660353631193721 0.0013019757141131175 0.0 0.0
0.0 0.0002294763297245693 0.00010202852100238046 -8.230158543779637e-05 -1.9726935564584076e-05 0.0003072688733384015 0.0 0.0
0.0 3.351082480983211e-05 1.1612329698234373e-05 -9.184986646881792e-06 -2.42734305135257e-06 4.6967465742019644e-05 0.0 0.0
0.0 1.587686151575042e-06 1.435394107913899e-07 -1.144548026676881e-07 -2.9084608123704767e-08 1.0292851019855706e-06 0.0 0.0
0.0 6.378737712171131e-07 -6.056268643975402e-09 4.388991396389513e-09 1.6672772475868457e-09 -1.1612382343302312e-07 0.0 0.0
0.0 1.4865025706851437e-06 4.828641498823638e-08 -4.724824218960166e-08 -1.0381727986347752e-09 1.13396336032281e-06 0.0 0.0
0.0 0.001215464572079383 0.0006764617575483932 -0.0008514125550517403 0.0001749507975033475 0.001088277343410033 0.0 0.0
0.0 0.0005571873161291437 0.0003046011226088624 -0.0003988769842266164 9.427586161775429e-05 -0.000530275379437412 0.0 0.0
0.0 2.8623689052775097e-06 1.641041885871207e-08 -2.302333311413087e-08 6.6129142554190084e-09 -9.309060835216666e-07 0.0 0.0
0.0 1.5868687879044262e-06 1.5026095107182086e-08 -6.400167373180907e-09 -8.62592773400152e-09 -1.1731218646327107e-06 0.0 0.0
0.0 4.196973696784664e-06 3.161346565575713e-07 -2.2278561348678747e-07 -9.334904307078068e-08 -4.527471868499811e-06 0.0 0.0
0.0 3.60830694805524e-05 7.044039365028436e-06 -5.492559696856061e-06 -1.5514796681723774e-06 -5.392525601296476e-05 0.0 0.0
0.0 0.00016496350301540248 4.292354975222332e-05 -3.4533607783880214e-05 -8.389941968343105e-06 -0.00023908413898417503 0.0 0.0
0.0 0.0005414386435729008 0.00019855339579411568 -0.00016130197360651846 -3.7251422187597056e-05 -0.0008001640182459961 0.0 0.0
0.0 0.0015091967104845813 0.0007621788000274562 -0.0006324510636254443 -0.00012972773640201182 -0.002116272860184962 0.0 0.0
0.0 0.003433255845445563 0.0020601698397177837 -0.0017709361647879262 -0.000289233674929857 -0.004144669030894581 0.0 0.0
0.0 0.006122239054136679 0.004041013289912134 -0.003600124551017996 -0.00044088873889413784 -0.0065645986117878075 0.0 0.0
0.0 0.009320529827090442 0.006470457530591025 -0.005921654536724722 -0.0005488029938662997 -0.009177537070350359 0.0 0.0
0.0 0.012951966977712205 0.009189107226239987 -0.008568359725351454 -0.000620747500888528 -0.011839673329287719 0.0 0.0
0.0 0.01687379042441479 0.012184991804362744 -0.011509880834819021 -0.0006751109695437246 -0.01452680799651665 0.0 0.0
0.0 0.02118454279268284 0.015512366899342832 -0.014794815531721852 -0.0007175513676209697 -0.017184861419792904 0.0 0.0
0.0 0.025953357001279324 0.019263933152355812 -0.018510651825148505 -0.000753281327207305 -0.019769094483287425 0.0 0.0
0.0 0.03122663341328498 0.02354164429798961 -0.022752993846646242 -0.0007886504513433695 -0.022101828217875312 0.0 0.0
0.0 0.03701581082414497 0.028404930225403243 -0.027576532194426732 -0.0008283980309765353 -0.023756301553889393 0.0 0.0
0.0 0.043424033291700886 0.033999526152652504 -0.033146922826674204 -0.0008526033259783026 -0.024523403841019698 0.0 0.0
0.0 0.05110159591746116 0.04091937407643669 -0.040069072676709526 -0.0008503013997271642 -0.024304097958633256 0.0 0.0
0.0 0.06001354523273241 0.04963914432394419 -0.04870239559546969 -0.0009367487284745174 -0.02012692034500674 0.0 0.0
0.0 0.06001354523273762 0.04963914432394434 -0.04870239559547019 -0.0009367487284741737 0.020126920345050585 0.0 0.0
0.0 0.051101595917456645 0.04091937407642482 -0.04006907267669785 -0.0008503013997269545 0.024304097958696334 0.0 0.0
0.0 0.043424033291688716 0.03399952615263511 -0.03314692282665722 -0.0008526033259778903 0.024523403841061983 0.0 0.0
0.0 0.03701581082412772 0.028404930225386087 -0.027576532194409514 -0.0008283980309765769 0.02375630155390019 0.0 0.0
0.0 0.031226633413257855 0.02354164429796958 -0.022752993846625557 -0.0007886504513440154 0.022101828217857746 0.0 0.0
0.0 0.02595335700125546 0.01926393315233805 -0.0185106518251303 -0.0007532813272077397 0.0197690944832722 0.0 0.0
0.0 0.02118454279266099 0.01551236689932525 -0.014794815531704324 -0.0007175513676209226 0.01718486141978417 0.0 0.0
0.0 0.016873790424396583 0.012184991804347641 -0.011509880834804254 -0.0006751109695433943 0.014526807996510186 0.0 0.0
0.0 0.012951966977691295 0.00918910722622501 -0.008568359725336752 -0.0006207475008882548 0.011839673329271206 0.0 0.0
0.0 0.009320529827069404 0.006470457530576737 -0.005921654536710715 -0.0005488029938660208 0.009177537070330704 0.0 0.0
0.0 0.006122239054117487 0.0040410132899000775 -0.003600124551006536 -0.0004408887388935389 0.006564598611767303 0.0 0.0
0.0 0.003433255845435815 0.0020601698397114854 -0.0017709361647821327 -0.0002892336749293523 0.004144669030884353 0.0 0.0
0.0 0.0015091967104793242 0.0007621788000244932 -0.0006324510636229796 -0.00012972773640151366 0.0021162728601790857 0.0 0.0
0.0 0.0005414386435697231 0.0001985533957930088 -0.00016130197360561644 -3.7251422187392305e-05 0.0008001640182422858 0.0 0.0
0.0 0.0001649635030140998 4.292354975225315e-05 -3.4533607783899404e-05 -8.38994196835373e-06 0.00023908413898394504 0.0 0.0
0.0 3.6083069479882446e-05 7.044039365049185e-06 -5.492559696870604e-06 -1.551479668178582e-06 5.392525601309573e-05 0.0 0.0
0.0 4.196973696747546e-06 3.1613465661730275e-07 -2.2278561352813758e-07 -9.33490430891625e-08 4.527471869386227e-06 0.0 0.0
0.0 1.5868687878406797e-06 1.5026095116026516e-08 -6.4001673757976406e-09 -8.625927740228406e-09 1.1731218653925903e-06 0.0 0.0
0.0 2.8623689050670707e-06 1.6410418885463094e-08 -2.3023333156193154e-08 6.612914270729721e-09 9.309060845231625e-07 0.0 0.0
0.0 0.0005571873161247177 0.0003046011226069064 -0.00039887698422418137 9.427586161727465e-05 0.0005302753794340998 0.0 0.0
0.0 0.00017441886986164845 9.096030411470134e-05 -0.0001248801722043677 3.391986808966635e-05 -0.00016893497060256217 0.0 0.0
0.0 3.880518160087622e-06 -5.314045038573198e-09 -1.4703365825954006e-08 2.001741086452845e-08 -2.178544676503192e-06 0.0 0.0
0.0 5.157164267858671e-06 -1.9633408487276242e-07 1.8737130217342169e-07 8.962782699341434e-09 -5.756087145699e-06 0.0 0.0
0.0 8.703683140890908e-06 -1.390746573966749e-07 1.962750821270279e-07 -5.7200424730352245e-08 -1.3060528495727358e-05 0.0 0.0
0.0 4.241836823782045e-05 1.6436395472351302e-06 -1.1246678991105763e-06 -5.189716481245601e-07 -6.124037050490175e-05 0.0 0.0
0.0 0.00015496074886734408 1.2686658882233363e-05 -1.0066198052957482e-05 -2.6204608292758624e-06 -0.00024050357397991488 0.0 0.0
0.0 0.00037493873319009084 4.485809989481326e-05 -3.6296353840296845e-05 -8.561746054516452e-06 -0.0006099143777563113 0.0 0.0
0.0 0.0007725687182153665 0.0001230341462768073 -0.00010010702272786666 -2.292712354894047e-05 -0.0012196243496431667 0.0 0.0
0.0 0.0014131544320694588 0.0003238950650639804 -0.00026407384679387566 -5.982121827010444e-05 -0.002277835191329784 0.0 0.0
0.0 0.002493557892611608 0.000737457492153064 -0.0006024984756424202 -0.00013495901651064372 -0.0037876170142719587 0.0 0.0
0.0 0.0038086470915429976 0.0013680883541711277 -0.0011352191110279933 -0.00023286924314313385 -0.005659098221935808 0.0 0.0
0.0 0.005485688712162941 0.0021623482223084235 -0.0018430113534732265 -0.00031933686883519626 -0.00773084227792112 0.0 0.0
0.0 0.00738070398580114 0.00308675476630032 -0.0026981046764638556 -0.00038865008983646345 -0.00994373935270725 0.0 0.0
0.0 0.009528860101480144 0.004164101935058967 -0.0037232819726034706 -0.0004408199624554966 -0.01227944530751449 0.0 0.0
0.0 0.011944675771487572 0.005499338222100931 -0.005020259447304502 -0.00047907877479642593 -0.01470683665576215 0.0 0.0
0.0 0.014762412482395454 0.007282326509341359 -0.00677261506453327 -0.0005097114448080859 -0.017064145839314725 0.0 0.0
0.0 0.01801210056145461 0.009768683836406526 -0.009224745511236615 -0.0005439383251699039 -0.01891512977518836 0.0 0.0
0.0 0.02177401745363202 0.013171960735845693 -0.012581782020388128 -0.0005901787154575565 -0.01961807804430317 0.0 0.0
0.0 0.02691430894339874 0.017971105690078714 -0.017387494701831478 -0.0005836109882472334 -0.019561341061643304 0.0 0.0
0.0 0.03491322835514131 0.02577966118767746 -0.02520875413060993 -0.0005709070570675256 -0.019027322917113686 0.0 0.0
0.0 0.03491322835514573 0.02577966118767752 -0.0252087541306101 -0.0005709070570674208 0.019027322917146143 0.0 0.0
0.0 0.02691430894340155 0.017971105690073545 -0.01738749470182644 -0.0005836109882471142 0.019561341061692737 0.0 0.0
0.0 0.02177401745362822 0.013171960735838059 -0.012581782020380338 -0.0005901787154577162 0.019618078044329107 0.0 0.0
0.0 0.01801210056144773 0.009768683836402116 -0.009224745511232695 -0.0005439383251694157 0.018915129775186258 0.0 0.0
0.0 0.014762412482382994 0.0072823265093363895 -0.006772615064529012 -0.0005097114448073755 0.017064145839298755 0.0 0.0
0.0 0.01194467577147643 0.005499338222095787 -0.005020259447299697 -0.0004790787747960895 0.01470683665575042 0.0 0.0
0.0 0.00952886010147259 0.004164101935056611 -0.0037232819726012297 -0.0004408199624553811 0.012279445307504779 0.0 0.0
0.0 0.007380703985795654 0.0030867547662994563 -0.002698104676463233 -0.00038865008983622433 0.009943739352699285 0.0 0.0
0.0 0.00548568871215463 0.0021623482223062773 -0.0018430113534714584 -0.0003193368688348179 0.007730842277909504 0.0 0.0
0.0 0.0038086470915344485 0.0013680883541687377 -0.001135219111026077 -0.00023286924314266079 0.005659098221923552 0.0 0.0
0.0 0.0024935578926025105 0.0007374574921505224 -0.000602498475640404 -0.00013495901651011872 0.0037876170142592874 0.0 0.0
0.0 0.001413154432066155 0.0003238950650631874 -0.0002640738467932458 -5.982121826994137e-05 0.002277835191324346 0.0 0.0
0.0 0.0007725687182137183 0.000123034146276515 -0.00010010702272761875 -2.2927123548896166e-05 0.0012196243496404666 0.0 0.0
0.0 0.0003749387331881545 4.485809989469843e-05 -3.6296353840181574e-05 -8.561746054516849e-06 0.0006099143777546011 0.0 0.0
0.0 0.0001549607488658541 1.2686658882234527e-05 -1.0066198052949088e-05 -2.620460829285438e-06 0.00024050357397912607 0.0 0.0
0.0 4.2418368236465937e-05 1.6436395472322133e-06 -1.1246678991082766e-06 -5.189716481239409e-07 6.124037050460645e-05 0.0 0.0
0.0 8.703683140615824e-06 -1.3907465740702844e-07 1.9627508213848214e-07 -5.720042473145376e-08 1.3060528496258784e-05 0.0 0.0
0.0 5.15716426722702e-06 -1.9633408490696448e-07 1.8737130220397885e-07 8.962782702984882e-09 5.7560871465499925e-06 0.0 0.0
0.0 3.880518159751712e-06 -5.314045042310661e-09 -1.4703365835623122e-08 2.0017410877936317e-08 2.1785446772337258e-06 0.0 0.0
0.0 0.00017441886985942507 9.096030411396664e-05 -0.00012488017220340582 3.3919868089439116e-05 0.0001689349706012391 0.0 0.0
0.0 2.2815857925346647e-05 1.0603505845969968e-05 -1.5238487512573071e-05 4.6349816666030916e-06 -2.1595377795048886e-05 0.0 0.0
0.0 3.5445052135668546e-06 -8.494032262802773e-08 3.637777964289804e-08 4.856254298513459e-08 -2.4330702015593986e-06 0.0 0.0
0.0 7.746051167461252e-06 -8.16395259471069e-07 6.971985784803159e-07 1.1919668099075362e-07 -1.0060117336384829e-05 0.0 0.0
0.0 1.4615810560165765e-05 -1.7649551639501e-06 1.5580704138775184e-06 2.0688475007258393e-07 -2.148263017807742e-05 0.0 0.0
0.0 5.0532699036818464e-05 -5.032053671755869e-06 4.340269750351601e-06 6.917839214042757e-07 -7.244054845513682e-05 0.0 0.0
0.0 0.00016433152740057353 -1.653069277571109e-05 1.3628944131631598e-05 2.9017486440794847e-06 -0.0002477298376057045 0.0 0.0
0.0 0.00038112537678466706 -4.788179766322054e-05 3.8923310634478894e-05 8.958487028741615e-06 -0.0006202125115992549 0.0 0.0
0.0 0.0007763162994909943 -0.00012455800030408207 0.00010134042299388893 2.321757731019311e-05 -0.0012267594694259163 0.0 0.0
0.0 0.0014129546358106829 -0.00032406776135077473 0.00026422808555945734 5.983967579131729e-05 -0.0022797610374869224 0.0 0.0
0.0 0.002492847966791803 -0.000737110300845747 0.0006022836444990146 0.00013482665634673244 -0.003787431571667968 0.0 0.0
0.0 0.0038255991188843818 -0.0013747151740937003 0.0011426860105364105 0.0002320291635572897 -0.00566468932177077 0.0 0.0
0.0 0.005519063797090606 -0.002201704151828429 0.001882290347499891 0.00031941380432853655 -0.0077491847194879416 0.0 0.0
0.0 0.007445010796717635 -0.00316744530381245 0.002775684878617364 0.00039176042519508384 -0.009960067802006747 0.0 0.0
0.0 0.009553973490437823 -0.00420883150894423 0.0037564236180314863 0.0004524078909127399 -0.01227218160509662 0.0 0.0
0.0 0.011672257998373054 -0.005182682165797824 0.0046778704462991216 0.0005048117194987038 -0.014674119281495203 0.0 0.0
0.0 0.013630259542863236 -0.005817929449501746 0.0052672374199613115 0.0005506920295404282 -0.017118023341575393 0.0 0.0
0.0 0.01508107052029362 -0.005727632281437451 0.005137484633643904 0.0005901476477935478 -0.019589191838030824 0.0 0.0
0.0 0.015911472453452175 -0.004638928316752169 0.004026437501707265 0.0006124908150449009 -0.022179501145611926 0.0 0.0
0.0 0.016125873186347024 -0.0025559403482234688 0.0019680646105426623 0.0005878757376808041 -0.024505183681969356 0.0 0.0
0.0 0.01604024144334364 0.00360979121528624 -0.003665712048013146 5.59208327269035e-05 -0.023718034905653107 0.0 0.0
0.0 0.016040241443348174 0.003609791215285755 -0.0036657120480129745 5.5920832727221156e-05 0.02371803490566733 0.0 0.0
0.0 0.016125873186348626 -0.0025559403482232432 0.0019680646105417077 0.0005878757376815318 0.024505183681982276 0.0 0.0
0.0 0.015911472453446644 -0.004638928316750042 0.004026437501705186 0.000612490815044852 0.022179501145611333 0.0 0.0
0.0 0.015081070520282378 -0.005727632281432391 0.005137484633639358 0.0005901476477930313 0.019589191838019583 0.0 0.0
0.0 0.013630259542847894 -0.005817929449492937 0.0052672374199530195 0.0005506920295399127 0.017118023341559412 0.0 0.0
0.0 0.01167225799835862 -0.0051826821657896364 0.004677870446291315 0.0005048117194983157 0.014674119281481646 0.0 0.0
0.0 0.00955397349042363 -0.004208831508935697 0.0037564236180234406 0.0004524078909122556 0.012272181605084906 0.0 0.0
0.0 0.007445010796700845 -0.0031674453038014437 0.002775684878606822 0.0003917604251946194 0.00996006780199434 0.0 0.0
0.0 0.005519063797074446 -0.002201704151819503 0.0018822903474915104 0.0003194138043279918 0.007749184719472332 0.0 0.0
0.0 0.0038255991188707863 -0.001374715174086879 0.00114268601053038 0.00023202916355649864 0.005664689321754943 0.0 0.0
0.0 0.002492847966780389 -0.0007371103008414353 0.000602283644495407 0.00013482665634602782 0.003787431571655068 0.0 0.0
0.0 0.0014129546358066778 -0.0003240677613492636 0.00026422808555814827 5.983967579111548e-05 0.0022797610374813834 0.0 0.0
0.0 0.0007763162994886127 -0.00012455800030342103 0.00010134042299337037 2.321757731005069e-05 0.001226759469422612 0.0 0.0
0.0 0.00038112537678173933 -4.7881797662905845e-05 3.892331063426151e-05 8.958487028644342e-06 0.0006202125115956966 0.0 0.0
0.0 0.00016433152739848747 -1.6530692775614665e-05 1.3628944131560667e-05 2.901748644054013e-06 0.0002477298376040425 0.0 0.0
0.0 5.053269903543789e-05 -5.032053671747756e-06 4.340269750344011e-06 6.917839214037379e-07 7.244054845508306e-05 0.0 0.0
0.0 1.4615810559840766e-05 -1.7649551639950203e-06 1.5580704139164864e-06 2.0688475007853357e-07 2.148263017858135e-05 0.0 0.0
0.0 7.746051166965586e-06 -8.163952595516039e-07 6.971985785480602e-07 1.1919668100354451e-07 1.0060117337290156e-05 0.0 0.0
0.0 3.5445052133086388e-06 -8.494032264785203e-08 3.637777962920514e-08 4.856254301865179e-08 2.433070202636423e-06 0.0 0.0
0.0 2.2815857924753904e-05 1.0603505846124889e-05 -1.5238487512778575e-05 4.6349816666536865e-06 2.1595377795548195e-05 0.0 0.0
0.0 1.2794705618513804e-06 -7.325646252627723e-08 1.1123042410747284e-07 -3.797396158117645e-08 1.788907911065407e-07 0.0 0.0
0.0 2.448063081616195e-06 -1.419714394383743e-07 7.713254280351761e-08 6.48388966348552e-08 -2.7063757432382147e-06 0.0 0.0
0.0 9.03887942972919e-06 -1.4716478058177865e-06 1.2232390334199596e-06 2.4840877239782367e-07 -1.1631277408253823e-05 0.0 0.0
0.0 1.9810155324404324e-05 -3.5872959534776207e-06 3.053575951596882e-06 5.337200018807504e-07 -2.3873760330184558e-05 0.0 0.0
0.0 5.8324628828518586e-05 -1.4021748062129707e-05 1.1678744360072507e-05 2.3430037020571975e-06 -8.428120865011486e-05 0.0 0.0
0.0 0.0001857607494433757 -5.2292928434743054e-05 4.2544845015033686e-05 9.748083419709371e-06 -0.00027165345718352553 0.0 0.0
0.0 0.0005647866251545145 -0.0002079353922366107 0.0001692192010992582 3.871619113735248e-05 -0.0008255005125718659 0.0 0.0
0.0 0.0015201768313890347 -0.0007676317757475911 0.000637172109725286 0.00013045966602230472 -0.002130568053793661 0.0 0.0
0.0 0.0034325636620000472 -0.002059793174130223 0.00177071657727512 0.0002890765968551034 -0.004147389878892086 0.0 0.0
0.0 0.00612255711694861 -0.004041647889696468 0.003601223687525171 0.0004404242021712961 -0.006565719189827009 0.0 0.0
0.0 0.009334810220281304 -0.006483864544330505 0.0059361548812055425 0.0005477096631249622 -0.00918202176513952 0.0 0.0
0.0 0.012993219772775889 -0.009233814179024167 0.008614301423563937 0.0006195127554602247 -0.011834290036314699 0.0 0.0
0.0 0.01693856702501097 -0.012264910170659978 0.011588210422388088 0.000676699748271887 -0.014483312165428877 0.0 0.0
0.0 0.021183377790562584 -0.015535467229706525 0.01480701131103037 0.0007284559186761577 -0.0171082998450899 0.0 0.0
0.0 0.025569440039487787 -0.018882922948297878 0.01810325629094765 0.0007796666573502189 -0.019775619939141696 0.0 0.0
0.0 0.029748873536108222 -0.02196943298590521 0.021140455886487067 0.0008289770994181395 -0.022547083548964147 0.0 0.0
0.0 0.0332773077527928 -0.024306585098775 0.02343752060614301 0.0008690644926319945 -0.025511301733983707 0.0 0.0
0.0 0.03550592405822518 -0.0253322253023524 0.02443738813498361 0.0008948371673688153 -0.02856888767753821 0.0 0.0
0.0 0.03472821157872882 -0.02391560731465628 0.022927724095210742 0.000987883219445516 -0.0299346336152557 0.0 0.0
0.0 0.02806759261861961 -0.0168886960093347 0.015783424613268208 0.0011052713960664736 -0.027598871851103404 0.0 0.0
0.0 0.0280675926186306 -0.016888696009335413 0.015783424613268624 0.0011052713960667852 0.027598871851141474 0.0 0.0
0.0 0.03472821157874108 -0.02391560731465592 0.022927724095210503 0.0009878832194454034 0.02993463361530762 0.0 0.0
0.0 0.035505924058219396 -0.02533222530234057 0.02443738813497186 0.0008948371673686983 0.028568887677568884 0.0 0.0
0.0 0.033277307752766265 -0.024306585098752023 0.02343752060611981 0.0008690644926322189 0.025511301733980064 0.0 0.0
0.0 0.029748873536077455 -0.021969432985880912 0.021140455886462992 0.0008289770994179274 0.022547083548945426 0.0 0.0
0.0 0.02556944003946049 -0.018882922948276613 0.01810325629092681 0.0007796666573498094 0.019775619939124564 0.0 0.0
0.0 0.02118337779053446 -0.015535467229684484 0.014807011311008611 0.0007284559186758724 0.017108299845073456 0.0 0.0
0.0 0.01693856702498714 -0.012264910170640174 0.011588210422368864 0.0006766997482712978 0.014483312165417272 0.0 0.0
0.0 0.012993219772747925 -0.00923381417900276 0.008614301423543212 0.0006195127554595484 0.01183429003629543 0.0 0.0
0.0 0.009334810220256074 -0.006483864544312868 0.005936154881188602 0.000547709663124264 0.009182021765116857 0.0 0.0
0.0 0.00612255711692776 -0.004041647889682387 0.0036012236875119412 0.00044042420217044664 0.006565719189806754 0.0 0.0
0.0 0.003432563661987372 -0.0020597931741211605 0.0017707165772668848 0.0002890765968542773 0.004147389878880311 0.0 0.0
0.0 0.0015201768313820394 -0.000767631775743231 0.0006371721097216297 0.0001304596660216016 0.0021305680537857547 0.0 0.0
0.0 0.0005647866251501652 -0.0002079353922350772 0.00016921920109804595 3.8716191137031305e-05 0.0008255005125667463 0.0 0.0
0.0 0.00018576074944167534 -5.229292843463075e-05 4.25448450149402e-05 9.748083419690564e-06 0.0002716534571827182 0.0 0.0
0.0 5.8324628827703985e-05 -1.4021748062176326e-05 1.1678744360114781e-05 2.3430037020615356e-06 8.428120865039827e-05 0.0 0.0
0.0 1.981015532380908e-05 -3.587295953570831e-06 3.053575951676209e-06 5.337200018946247e-07 2.387376033078658e-05 0.0 0.0
0.0 9.038879429067379e-06 -1.4716478059066938e-06 1.2232390334921435e-06 2.4840877241454934e-07 1.1631277408927848e-05 0.0 0.0
0.0 2.44806308134552e-06 -1.4197143947204995e-07 7.713254280771996e-08 6.483889666433036e-08 2.706375744027379e-06 0.0 0.0
0.0 1.2794705614589102e-06 -7.325646250320453e-08 1.1123042407310628e-07 -3.797396156990146e-08 -1.7889079104850708e-07 0.0 0.0
0.0 0.0 0.0 0.0 0.0 0.0 0.0 0.0
0.0 1.5823810161622746e-06 1.6243198183979747e-08 -3.967964150516506e-09 -1.2275234033465889e-08 2.5191349162672295e-07 0.0 0.0
0.0 8.127684582046758e-06 -1.3218659890062149e-06 1.0867099746592941e-06 2.3515601434691596e-07 -7.6233411347104055e-06 0.0 0.0
0.0 2.261710031682475e-05 -5.2714360870373145e-06 4.376514083854894e-06 8.949220031824299e-07 -2.3107081371893047e-05 0.0 0.0
0.0 6.920805343700979e-05 -2.49183478767401e-05 2.043147728498315e-05 4.486870591756962e-06 -9.106582669735445e-05 0.0 0.0
0.0 0.0002764308610934399 -0.00012659258908605733 0.00010290992642704014 2.3682662659017117e-05 -0.00036816040652286336 0.0 0.0
0.0 0.001072070597125591 -0.0006287215033905034 0.0005200864728599889 0.00010863503053051444 -0.0013368057714589088 0.0 0.0
0.0 0.003042201937054325 -0.0020784523990620184 0.0017872299003428276 0.0002912224987191908 -0.0032650757125877697 0.0 0.0
0.0 0.006407634395435352 -0.004657875967154008 0.004178618191741399 0.00047925777541260855 -0.005912516874797578 0.0 0.0
0.0 0.010726335579808597 -0.008157503519054105 0.007548134142570158 0.0006093693764839434 -0.00903003147349131 0.0 0.0
0.0 0.015930804557241177 -0.012285267758497352 0.01159233121986431 0.0006929365386330503 -0.012310027083738715 0.0 0.0
0.0 0.0215636961736221 -0.016903484445216194 0.016146374862987867 0.0007571095822283237 -0.01550903718509752 0.0 0.0
0.0 0.02773608310356407 -0.021979711377209336 0.02116546656407109 0.000814244813138249 -0.018594596930335286 0.0 0.0
0.0 0.03443356171406935 -0.02748720274306684 0.02661582866771428 0.0008713740753525465 -0.021656279244988932 0.0 0.0
0.0 0.04154985812221068 -0.03326258518885655 0.03233044162062461 0.0009321435682319158 -0.02490976869757798 0.0 0.0
0.0 0.04860657078815479 -0.03891795049948739 0.03792430996860442 0.0009936405308829297 -0.028644222685368224 0.0 0.0
0.0 0.05504437034080579 -0.04382826165365547 0.042776895086718655 0.0010513665669367915 -0.033010686353105674 0.0 0.0
0.0 0.05935706269161932 -0.0469921032765314 0.045867911965485265 0.001124191311046103 -0.03721294809101596 0.0 0.0
0.0 0.05947475555442418 -0.04650727504427192 0.04528833964952188 0.001218935394750026 -0.039264916277729704 0.0 0.0
0.0 0.04997819154291461 -0.03836172461995867 0.036903689325512454 0.001458035294446189 -0.035165676610330286 0.0 0.0
0.0 0.049978191542922615 -0.03836172461995632 0.036903689325509845 0.0014580352944464818 0.03516567661037853 0.0 0.0
0.0 0.05947475555442466 -0.04650727504426117 0.04528833964951129 0.00121893539474988 0.03926491627778982 0.0 0.0
0.0 0.05935706269160433 -0.04699210327650998 0.04586791196546461 0.0011241913110453246 0.03721294809105747 0.0 0.0
0.0 0.05504437034076931 -0.043828261653621595 0.042776895086685814 0.001051366566935808 0.03301068635310912 0.0 0.0
0.0 0.048606570788110696 -0.03891795049945025 0.03792430996856787 0.0009936405308823943 0.02864422268535107 0.0 0.0
0.0 0.04154985812216932 -0.03326258518882226 0.03233044162059066 0.0009321435682316131 0.02490976869755946 0.0 0.0
0.0 0.034433561714026534 -0.02748720274303155 0.026615828667679323 0.0008713740753522217 0.021656279244968588 0.0 0.0
0.0 0.02773608310352104 -0.021979711377173018 0.021165466564035045 0.0008142448131379606 0.018594596930318525 0.0 0.0
0.0 0.021563696173576688 -0.016903484445179334 0.016146374862951177 0.0007571095822281602 0.01550903718507232 0.0 0.0
0.0 0.01593080455719952 -0.012285267758465031 0.011592331219832141 0.0006929365386328874 0.012310027083708694 0.0 0.0
0.0 0.010726335579770839 -0.008157503519025564 0.007548134142541983 0.0006093693764835839 0.009030031473462055 0.0 0.0
0.0 0.006407634395409774 -0.004657875967134271 0.004178618191722372 0.000479257775411897 0.005912516874778437 0.0 0.0
0.0 0.0030422019370399574 -0.002078452399051363 0.0017872299003333378 0.0002912224987180257 0.0032650757125757017 0.0 0.0
0.0 0.0010720705971181829 -0.0006287215033863625 0.0005200864728565354 0.00010863503052982698 0.0013368057714513767 0.0 0.0
0.0 0.00027643086109049793 -0.00012659258908512874 0.00010290992642630222 2.3682662658826464e-05 0.00036816040652044917 0.0 0.0
0.0 6.920805343568848e-05 -2.4918347876685812e-05 2.043147728493491e-05 4.486870591750866e-06 9.106582669708253e-05 0.0 0.0
0.0 2.2617100315999208e-05 -5.271436087116554e-06 4.376514083920308e-06 8.949220031962333e-07 2.310708137224158e-05 0.0 0.0
0.0 8.127684581633232e-06 -1.3218659891506302e-06 1.0867099747771636e-06 2.3515601437347283e-07 7.623341135545073e-06 0.0 0.0
0.0 1.5823810157963233e-06 1.624319815214315e-08 -3.9679641324172865e-09 -1.2275234019729575e-08 -2.519134911896328e-07 0.0 0.0
0.0 0.0 0.0 0.0 0.0 0.0 0.0 0.0
0.0 0.0 0.0 0.0 0.0 0.0 0.0 0.0
0.0 3.8538157917848767e-07 8.524370000021943e-09 -5.889213621647465e-09 -2.6351563783748637e-09 7.625979648851619e-08 0.0 0.0
0.0 4.95239707971726e-06 -9.39968506948857e-07 7.663969225735605e-07 1.7357158437529162e-07 -4.15971909888506e-06 0.0 0.0
0.0 2.196175067298854e-05 -7.538522122105735e-06 6.205942606187672e-06 1.3325795159180534e-06 -2.4432087784889552e-05 0.0 0.0
0.0 9.256416268681975e-05 -4.373999066384916e-05 3.564198144801881e-05 8.098009215830374e-06 -0.00010912498985358832 0.0 0.0
0.0 0.00048713623671502583 -0.00030181775246054197 0.00024675036577670944 5.506738668383248e-05 -0.0005622658801001066 0.0 0.0
0.0 0.0019203103361622217 -0.001376586323013359 0.001163804788856652 0.00021278153415670692 -0.0018852398069161222 0.0 0.0
0.0 0.004980900504543101 -0.003812705696508576 0.003379811506758689 0.0004328941897498864 -0.004136892766663286 0.0 0.0
0.0 0.009698999868572096 -0.00763876876374804 0.00703893924903993 0.00059982951470811 -0.00717933714161037 0.0 0.0
0.0 0.015688145396189974 -0.012586788099103548 0.011880237059146741 0.0007065510399568041 -0.010729961377710834 0.0 0.0
0.0 0.02265259164810787 -0.018362270089562014 0.01757849673730668 0.0007837733522553327 -0.014372499630687624 0.0 0.0
0.0 0.03039996285439257 -0.024821648889092992 0.023969839385907788 0.0008518095031851854 -0.017856398963624738 0.0 0.0
0.0 0.03890178942655393 -0.03193528558500503 0.03101995250468939 0.0009153330803156125 -0.021187164552391814 0.0 0.0
0.0 0.048093188217022104 -0.039690344932404066 0.03871051829594384 0.0009798266364602515 -0.024502426354605783 0.0 0.0
0.0 0.05794525479452571 -0.04793700393511728 0.04688800803747117 0.00104899589764605 -0.028128998624712322 0.0 0.0
0.0 0.06800319520740002 -0.05624156184887773 0.0551170180251039 0.0011245438237737896 -0.03253028726632594 0.0 0.0
0.0 0.07721141381599028 -0.06372632364904506 0.06251730463272567 0.0012090190163193282 -0.0377979829600421 0.0 0.0
0.0 0.08375650507161095 -0.06883227026966879 0.06752433578872252 0.0013079344809462106 -0.04289896784711113 0.0 0.0
0.0 0.08416769517770428 -0.06885427770008289 0.06740094159839147 0.0014533361016913996 -0.045128773056931755 0.0 0.0
0.0 0.07254608327951242 -0.05888919444229815 0.057213711735409185 0.0016754827068889584 -0.04119042712700487 0.0 0.0
0.0 0.07254608327951277 -0.05888919444229025 0.05721371173540055 0.0016754827068896703 0.041190427127056464 0.0 0.0
0.0 0.08416769517769943 -0.06885427770006831 0.06740094159837684 0.0014533361016914694 0.04512877305699953 0.0 0.0
0.0 0.08375650507158755 -0.06883227026964035 0.06752433578869449 0.0013079344809458367 0.042898967847161046 0.0 0.0
0.0 0.07721141381594508 -0.06372632364900313 0.06251730463268405 0.0012090190163190383 0.03779798296005235 0.0 0.0
0.0 0.068003195207342 -0.05624156184882784 0.05511701802505446 0.001124543823773381 0.03253028726631026 0.0 0.0
0.0 0.0579452547944686 -0.04793700393506886 0.04688800803742303 0.0010489958976457909 0.028128998624692918 0.0 0.0
0.0 0.04809318821696386 -0.039690344932355105 0.038710518295894975 0.000979826636460156 0.024502426354583537 0.0 0.0
0.0 0.03890178942649849 -0.03193528558495768 0.03101995250464258 0.0009153330803151126 0.02118716455237387 0.0 0.0
0.0 0.030399962854338138 -0.02482164888904725 0.02396983938586267 0.0008518095031845619 0.017856398963599817 0.0 0.0
0.0 0.022652591648058246 -0.018362270089521616 0.017578496737266917 0.000783773352254698 0.01437249963065763 0.0 0.0
0.0 0.015688145396148916 -0.012586788099070897 0.011880237059114852 0.0007065510399560453 0.010729961377681929 0.0 0.0
0.0 0.009698999868541376 -0.007638768763723651 0.007038939249016253 0.0005998295147074029 0.007179337141591205 0.0 0.0
0.0 0.004980900504522615 -0.0038127056964924653 0.0033798115067437554 0.00043289418974870836 0.004136892766649176 0.0 0.0
0.0 0.0019203103361505312 -0.001376586323005111 0.0011638047888493609 0.0002127815341557499 0.0018852398069062822 0.0 0.0
0.0 0.0004871362367099522 -0.0003018177524579605 0.0002467503657745185 5.5067386683442014e-05 0.0005622658800956021 0.0 0.0
0.0 9.256416268578401e-05 -4.373999066386322e-05 3.5641981448022794e-05 8.098009215840372e-06 0.00010912498985356186 0.0 0.0
0.0 2.1961750672386504e-05 -7.538522122318108e-06 6.2059426063556835e-06 1.3325795159624197e-06 2.4432087785505088e-05 0.0 0.0
0.0 4.952397079304653e-06 -9.399685071149846e-07 7.663969227076531e-07 1.7357158440732987e-07 4.159719099629137e-06 0.0 0.0
0.0 3.8538157904294466e-07 8.52436999717895e-09 -5.889213619678072e-09 -2.6351563774992616e-09 -7.62597964614563e-08 0.0 0.0
0.0 0.0 0.0 0.0 0.0 0.0 0.0 0.0
0.0 0.0 0.0 0.0 0.0 0.0 0.0 0.0
0.0 0.0 0.0 0.0 0.0 0.0 0.0 0.0
0.0 2.1480816576604617e-06 -4.289965618291299e-07 3.4989595212702695e-07 7.910060970210644e-08 -1.5034646752536736e-06 0.0 0.0
0.0 2.0791884707189034e-05 -6.71110734862797e-06 5.461050539258286e-06 1.2500568093696958e-06 -1.620801137632109e-05 0.0 0.0
0.0 0.0001494335135206383 -8.194511551375935e-05 6.648180535141551e-05 1.5463310162343824e-05 -0.00014327258680104792 0.0 0.0
0.0 0.0008636832576951834 -0.0006337695867349442 0.0005236438261698067 0.00011012576056513743 -0.0007998504388175602 0.0 0.0
0.0 0.0030645438582075396 -0.0024033355729095518 0.0020784895820513787 0.000324845990858173 -0.0022873198572708657 0.0 0.0
0.0 0.0071919322285752965 -0.005824196015900763 0.005285570919081552 0.0005386250968192074 -0.004675065541169015 0.0 0.0
0.0 0.013181505407567419 -0.010849110365538008 0.010170685655295506 0.0006784247102424995 -0.007904183963776006 0.0 0.0
0.0 0.020739660029132446 -0.017192250197582123 0.016418266245616944 0.0007739839519651774 -0.011579355132332818 0.0 0.0
0.0 0.029531609013498616 -0.02458814945240333 0.023733389998094136 0.0008547594543091927 -0.015291099535661193 0.0 0.0
0.0 0.03935570765669866 -0.03288376658873068 0.03195398653376056 0.0009297800549701175 -0.01885016891363387 0.0 0.0
0.0 0.050136767671014146 -0.042032291170608915 0.04103122717295155 0.0010010639976573302 -0.022253438367772285 0.0 0.0
0.0 0.06189075854120388 -0.052029150723605935 0.05095707423774323 0.0010720764858627092 -0.025612591359247833 0.0 0.0
0.0 0.07456740865106223 -0.06275609532784042 0.06160611744664317 0.0011499778811972605 -0.029292556247236215 0.0 0.0
0.0 0.08741625783375696 -0.07371537652030037 0.07247368090966091 0.0012416956106394458 -0.0338145189905993 0.0 0.0
0.0 0.09954612806521243 -0.0837191268192008 0.08236808118365158 0.0013510456355491978 -0.0393318450554341 0.0 0.0
0.0 0.10804185532435163 -0.09059540575736823 0.08911001960830059 0.0014853861490676556 -0.04480514695127624 0.0 0.0
0.0 0.10861534422278249 -0.09080851953154602 0.08915633196083032 0.001652187570715665 -0.047773668613124105 0.0 0.0
0.0 0.09529965692143261 -0.07907578374111217 0.07722864269377916 0.0018471410473330338 -0.04636499889664056 0.0 0.0
0.0 0.09529965692143418 -0.07907578374110572 0.07722864269377275 0.0018471410473329159 0.046364998896694834 0.0 0.0
0.0 0.10861534422277085 -0.09080851953152663 0.08915633196081134 0.0016521875707152553 0.04777366861319485 0.0 0.0
0.0 0.10804185532431593 -0.09059540575733097 0.08911001960826309 0.0014853861490677785 0.044805146951325564 0.0 0.0
0.0 0.09954612806515366 -0.08371912681914756 0.08236808118359808 0.001351045635549429 0.039331845055445715 0.0 0.0
0.0 0.08741625783368982 -0.07371537652024227 0.07247368090960293 0.0012416956106393242 0.03381451899058712 0.0 0.0
0.0 0.07456740865099284 -0.06275609532778093 0.06160611744658373 0.001149977881197198 0.029292556247219003 0.0 0.0
0.0 0.06189075854113561 -0.05202915072354754 0.050957074237685376 0.0010720764858621703 0.0256125913592265 0.0 0.0
0.0 0.050136767670943064 -0.04203229117054793 0.041031227172890705 0.0010010639976572124 0.02225343836775289 0.0 0.0
0.0 0.03935570765663207 -0.03288376658867383 0.03195398653370461 0.0009297800549691997 0.018850168913609133 0.0 0.0
0.0 0.029531609013438653 -0.024588149452353124 0.023733389998044856 0.0008547594543082502 0.015291099535631047 0.0 0.0
0.0 0.020739660029078597 -0.017192250197537562 0.016418266245572955 0.0007739839519646072 0.01157935513230108 0.0 0.0
0.0 0.01318150540752671 -0.010849110365504275 0.010170685655262347 0.0006784247102419316 0.007904183963754545 0.0 0.0
0.0 0.007191932228546798 -0.005824196015877662 0.005285570919059245 0.000538625096818416 0.0046750655411524795 0.0 0.0
0.0 0.003064543858190249 -0.0024033355728960534 0.0020784895820392313 0.0003248459908568221 0.0022873198572598333 0.0 0.0
0.0 0.0008636832576875152 -0.0006337695867298551 0.0005236438261655196 0.00011012576056433512 0.0007998504388116905 0.0 0.0
0.0 0.00014943351351852098 -8.194511551309429e-05 6.64818053508566e-05 1.54633101622376e-05 0.0001432725867998857 0.0 0.0
0.0 2.0791884706520118e-05 -6.711107348735452e-06 5.461050539343873e-06 1.2500568093915863e-06 1.6208011376595973e-05 0.0 0.0
0.0 2.14808165755013e-06 -4.289965619432731e-07 3.4989595221929186e-07 7.910060972397906e-08 1.503464675656041e-06 0.0 0.0
0.0 0.0 0.0 0.0 0.0 0.0 0.0 0.0
0.0 0.0 0.0 0.0 0.0 0.0 0.0 0.0
0.0 0.0 0.0 0.0 0.0 0.0 0.0 0.0
0.0 0.0 0.0 0.0 0.0 0.0 0.0 0.0
0.0 9.159772724021529e-07 5.630253744311479e-08 -4.536700834069255e-08 -1.0935529102421052e-08 1.5681455061216043e-07 0.0 0.0
0.0 1.8129104429974937e-05 -9.41144643135981e-06 7.584451069543185e-06 1.8269953618166645e-06 -1.7236631350301885e-05 0.0 0.0
0.0 0.0002470076413668206 -0.00017162159388398558 0.000139201387335949 3.242020654803662e-05 -0.000214156052431488 0.0 0.0
0.0 0.0014416339462465506 -0.0011379722665589968 0.0009531698432026349 0.0001848024233563623 -0.0009898976092594799 0.0 0.0
0.0 0.00447915149402857 -0.0036483244277920306 0.0032229009025181287 0.0004254235252739039 -0.002480093092843218 0.0 0.0
0.0 0.009527080568725073 -0.00803139132191032 0.007417233655700511 0.0006141576662098088 -0.004860909071751732 0.0 0.0
0.0 0.016775772726909038 -0.014191250977411016 0.01345789844918336 0.0007333525282276627 -0.008005733630520186 0.0 0.0
0.0 0.025877473359104456 -0.021893673906873502 0.02106581853154115 0.0008278553753323599 -0.011530873485092862 0.0 0.0
0.0 0.03648678353888234 -0.030898875742160093 0.029983920978100487 0.0009149547640595792 -0.015111601431763565 0.0 0.0
0.0 0.04836421406005213 -0.041031819277628216 0.04003372200165997 0.0009980972759682052 -0.01854380409483914 0.0 0.0
0.0 0.06149480943972456 -0.052215971689372934 0.05113814040606381 0.0010778312833091257 -0.02183453669842957 0.0 0.0
0.0 0.07566807305036548 -0.06443802189330315 0.06328203600558595 0.0011559858877172224 -0.025066445645276245 0.0 0.0
0.0 0.09101806305202154 -0.0775918884217289 0.07635026387225585 0.0012416245494730467 -0.028448021990938106 0.0 0.0
0.0 0.10695860158994863 -0.09113238741511184 0.0897838172717223 0.0013485701433895534 -0.03247529158060224 0.0 0.0
0.0 0.12150119786598663 -0.10358405186941663 0.10210021200809262 0.0014838398613239655 -0.03758402994296449 0.0 0.0
0.0 0.13173458480261513 -0.1121523235582796 0.11050522039686927 0.0016471031614103068 -0.04324902204008579 0.0 0.0
0.0 0.13277428877592695 -0.1126158557718842 0.11079026451024608 0.0018255912616380768 -0.047978960815800706 0.0 0.0
0.0 0.11855405620001658 -0.09942707428372594 0.09742236098203136 0.0020047133016945625 -0.051111360868566165 0.0 0.0
0.0 0.11855405620001162 -0.0994270742837149 0.09742236098202049 0.002004713301694356 0.05111136086861946 0.0 0.0
0.0 0.13277428877589895 -0.1126158557718524 0.11079026451021423 0.0018255912616381665 0.047978960815870886 0.0 0.0
0.0 0.13173458480257244 -0.11215232355823695 0.11050522039682756 0.0016471031614093867 0.04324902204013596 0.0 0.0
0.0 0.12150119786592288 -0.10358405186935893 0.10210021200803604 0.0014838398613228332 0.03758402994297808 0.0 0.0
0.0 0.10695860158986971 -0.09113238741504304 0.08978381727165434 0.0013485701433886806 0.03247529158059377 0.0 0.0
0.0 0.09101806305193996 -0.07759188842165779 0.07635026387218574 0.001241624549472018 0.028448021990927753 0.0 0.0
0.0 0.07566807305028013 -0.06443802189322953 0.06328203600551267 0.0011559858877168336 0.025066445645257583 0.0 0.0
0.0 0.0614948094396401 -0.0522159716892998 0.051138140405991156 0.0010778312833085826 0.02183453669841049 0.0 0.0
0.0 0.04836421405997269 -0.04103181927755971 0.040033722001591956 0.000998097275967746 0.01854380409481711 0.0 0.0
0.0 0.03648678353881032 -0.030898875742099145 0.029983920978040028 0.0009149547640591184 0.015111601431733176 0.0 0.0
0.0 0.02587747335904328 -0.021893673906822095 0.0210658185314902 0.0008278553753318817 0.011530873485063296 0.0 0.0
0.0 0.016775772726862877 -0.014191250977371759 0.01345789844914464 0.0007333525282271187 0.008005733630500295 0.0 0.0
0.0 0.009527080568690798 -0.008031391321881428 0.0074172336556723 0.0006141576662091204 0.004860909071735782 0.0 0.0
0.0 0.004479151494007731 -0.003648324427775117 0.003222900902502342 0.0004254235252727768 0.002480093092832567 0.0 0.0
0.0 0.0014416339462365695 -0.001137972266551587 0.0009531698431961881 0.0001848024233553983 0.000989897609253295 0.0 0.0
0.0 0.00024700764136443475 -0.0001716215938829851 0.000139201387335113 3.242020654787198e-05 0.0002141560524303602 0.0 0.0
0.0 1.8129104429760787e-05 -9.411446431625064e-06 7.584451069752148e-06 1.8269953618728978e-06 1.723663135078318e-05 0.0 0.0
0.0 9.159772720464821e-07 5.630253742091469e-08 -4.5367008322703315e-08 -1.0935529098212496e-08 -1.5681455054918204e-07 0.0 0.0
0.0 0.0 0.0 0.0 0.0 0.0 0.0 0.0
0.0 0.0 0.0 0.0 0.0 0.0 0.0 0.0
0.0 0.0 0.0 0.0 0.0 0.0 0.0 0.0
0.0 0.0 0.0 0.0 0.0 0.0 0.0 0.0
0.0 2.633745482838499e-07 1.9034837468267232e-08 -1.5232417022672714e-08 -3.80242044559584e-09 3.959451352121644e-08 0.0 0.0
0.0 1.9651791441324548e-05 -1.2586379492909729e-05 1.007628283605854e-05 2.51009665685121e-06 -1.7003591484052448e-05 0.0 0.0
0.0 0.00043246332208069253 -0.0003336788936791695 0.00027159364148316524 6.208525219600441e-05 -0.00028837275052370927 0.0 0.0
0.0 0.002219918742213311 -0.0018097706714659963 0.0015412517046458059 0.00026851896682019165 -0.001075064638564675 0.0 0.0
0.0 0.005888737051500327 -0.005078075076213412 0.00457003789587158 0.000508037180341835 -0.0024750075530134115 0.0 0.0
0.0 0.011991454308410553 -0.010350726259714605 0.00968462501825261 0.0006661012414619982 -0.004635657223554175 0.0 0.0
0.0 0.020491127570364618 -0.017597044082325118 0.01682112026501464 0.000775923817310477 -0.007436626615191542 0.0 0.0
0.0 0.031072411537851542 -0.026642903283605992 0.02576930769998575 0.0008735955836202572 -0.010617330959005907 0.0 0.0
0.0 0.04346669504154502 -0.03724736471786518 0.036279834735045806 0.0009675299828193455 -0.013848735138854516 0.0 0.0
0.0 0.05743032002941248 -0.04921916938941243 0.04815986433360983 0.0010593050558025613 -0.016952329442381592 0.0 0.0
0.0 0.0728136510946536 -0.062446754896814866 0.06129835649530462 0.001148398401510214 -0.019955423423466064 0.0 0.0
0.0 0.08958328089149553 -0.07686524534435855 0.07562922075145233 0.0012360245929062086 -0.02286731434252028 0.0 0.0
0.0 0.10754126243585822 -0.09233702003721478 0.09100818061164732 0.001328839425567476 -0.025696109559895545 0.0 0.0
0.0 0.12585457399042166 -0.10830087523042745 0.1068555190767804 0.0014453561536470303 -0.028710726713607276 0.0 0.0
0.0 0.14308967057879723 -0.12310923984708344 0.12150642175203485 0.001602818095048563 -0.03267904534439491 0.0 0.0
0.0 0.1553621530084261 -0.13347994304225824 0.13168929630646775 0.0017906467357905133 -0.03835525494517343 0.0 0.0
0.0 0.15724868761287986 -0.13456685625115433 0.13258094629453376 0.0019859099566205095 -0.045866769924563816 0.0 0.0
0.0 0.14243477215951184 -0.12036807120683005 0.11820680541755987 0.0021612657892700355 -0.0554490925925928 0.0 0.0
0.0 0.14243477215950484 -0.12036807120681828 0.11820680541754776 0.0021612657892705646 0.05544909259264365 0.0 0.0
0.0 0.1572486876128449 -0.13456685625111878 0.13258094629449751 0.0019859099566213166 0.045866769924627765 0.0 0.0
0.0 0.1553621530083617 -0.1334799430421996 0.13168929630640816 0.0017906467357912841 0.03835525494521593 0.0 0.0
0.0 0.1430896705787158 -0.12310923984701197 0.12150642175196327 0.0016028180950486588 0.03267904534440392 0.0 0.0
0.0 0.125854573990329 -0.10830087523034665 0.10685551907670052 0.0014453561536460953 0.02871072671360156 0.0 0.0
0.0 0.10754126243576485 -0.09233702003713318 0.09100818061156743 0.0013288394255657142 0.025696109559886923 0.0 0.0
0.0 0.08958328089139578 -0.07686524534427244 0.07562922075136694 0.0012360245929054112 0.022867314342502616 0.0 0.0
0.0 0.07281365109455713 -0.06244675489673143 0.06129835649522174 0.0011483984015096826 0.01995542342344878 0.0 0.0
0.0 0.0574303200293205 -0.0492191693893327 0.04815986433353087 0.0010593050558018403 0.01695232944236169 0.0 0.0
0.0 0.043466695041460474 -0.0372473647177925 0.036279834734973884 0.0009675299828185936 0.013848735138825927 0.0 0.0
0.0 0.031072411537779163 -0.026642903283543812 0.025769307699924412 0.0008735955836193893 0.010617330958979137 0.0 0.0
0.0 0.02049112757030854 -0.017597044082276667 0.01682112026496655 0.0007759238173101211 0.007436626615173624 0.0 0.0
0.0 0.01199145430837033 -0.010350726259679872 0.009684625018218478 0.0006661012414613946 0.004635657223539294 0.0 0.0
0.0 0.005888737051475034 -0.00507807507619185 0.004570037895850969 0.0005080371803408795 0.0024750075530033493 0.0 0.0
0.0 0.002219918742199484 -0.0018097706714551667 0.0015412517046361142 0.00026851896681905193 0.001075064638558716 0.0 0.0
0.0 0.00043246332207556165 -0.0003336788936758137 0.0002715936414803683 6.208525219544516e-05 0.0002883727505210885 0.0 0.0
0.0 1.9651791440751618e-05 -1.2586379493064458e-05 1.0076282836169212e-05 2.510096656895252e-06 1.7003591484225835e-05 0.0 0.0
0.0 2.633745479801639e-07 1.90348374459991e-08 -1.5232417004860948e-08 -3.802420441135515e-09 -3.959451347502403e-08 0.0 0.0
0.0 0.0 0.0 0.0 0.0 0.0 0.0 0.0
0.0 0.0 0.0 0.0 0.0 0.0 0.0 0.0
0.0 0.0 0.0 0.0 0.0 0.0 0.0 0.0
0.0 0.0 0.0 0.0 0.0 0.0 0.0 0.0
0.0 0.0 0.0 0.0 0.0 0.0 0.0 0.0
0.0 3.0276167582946875e-05 -2.240199789257362e-05 1.794482315887827e-05 4.457174733695339e-06 -2.1285090013333657e-05 0.0 0.0
0.0 0.0007464739942446379 -0.0006001481129947262 0.0004918626378410641 0.00010828547515366176 -0.00033423779757270095 0.0 0.0
0.0 0.0031262554935514823 -0.0026406815187051784 0.0022871443009244113 0.00035353721778076647 -0.0010317605918384164 0.0 0.0
0.0 0.007509531119650669 -0.0066158984223872635 0.0060448538365496015 0.0005710445858376622 -0.002182602511636377 0.0 0.0
0.0 0.014585850031892729 -0.01272058192447171 0.012016465275889994 0.0007041166485817125 -0.003928590198352171 0.0 0.0
0.0 0.024250502014078412 -0.021028507274536985 0.02021773860734376 0.0008107686671932084 -0.006226269847484053 0.0 0.0
0.0 0.03630263406733699 -0.03139658527037589 0.03048360409064726 0.0009129811797286272 -0.008850114710330875 0.0 0.0
0.0 0.05048910087825627 -0.04359036376013258 0.042576080746961315 0.001014283013171244 -0.011522121209056093 0.0 0.0
0.0 0.06647930874675398 -0.05740293102276079 0.05628834701043825 0.0011145840123225335 -0.014084930954439603 0.0 0.0
0.0 0.08426768234957506 -0.0726799450925188 0.07146589488641839 0.0012140502061003698 -0.016579394687135384 0.0 0.0
0.0 0.10334740845654991 -0.08927674202259529 0.08796336067364861 0.0013133813489466712 -0.019022750400143576 0.0 0.0
0.0 0.12368932435871 -0.10693808386434508 0.10552222341340535 0.0014158604509397277 -0.02119543443203708 0.0 0.0
0.0 0.14457773155854012 -0.12505352716011592 0.12351809293302238 0.001535434227093498 -0.022884378207014805 0.0 0.0
0.0 0.1641951375542048 -0.14205447595676318 0.14035727418776536 0.0016972017689978035 -0.024940416937308956 0.0 0.0
0.0 0.17877166974331735 -0.15453348134479694 0.15261802548450462 0.0019154558602922668 -0.030052917512651465 0.0 0.0
0.0 0.18222436200410574 -0.15692275815415524 0.15478528966632127 0.0021374684878340193 -0.040969779482230656 0.0 0.0
0.0 0.16767291914497495 -0.14237397042348401 0.14004420289021913 0.0023297675332648584 -0.059047917967133934 0.0 0.0
0.0 0.16767291914496402 -0.14237397042347033 0.14004420289020536 0.0023297675332649014 0.059047917967174166 0.0 0.0
0.0 0.18222436200406172 -0.1569227581541136 0.1547852896662795 0.002137468487834128 0.040969779482283517 0.0 0.0
0.0 0.1787716697432435 -0.15453348134473102 0.15261802548443862 0.0019154558602923158 0.03005291751268905 0.0 0.0
0.0 0.1641951375541132 -0.14205447595668283 0.14035727418768637 0.0016972017689964969 0.024940416937316988 0.0 0.0
0.0 0.14457773155843504 -0.12505352716002482 0.12351809293293178 0.0015354342270930202 0.022884378207011377 0.0 0.0
0.0 0.12368932435860189 -0.10693808386425109 0.10552222341331197 0.0014158604509391759 0.021195434432032444 0.0 0.0
0.0 0.10334740845643922 -0.08927674202249951 0.08796336067355343 0.0013133813489460554 0.019022750400130826 0.0 0.0
0.0 0.08426768234946232 -0.07267994509242115 0.07146589488632105 0.0012140502061001423 0.016579394687122103 0.0 0.0
0.0 0.06647930874664675 -0.05740293102266813 0.05628834701034591 0.0011145840123221945 0.014084930954424266 0.0 0.0
0.0 0.05048910087816022 -0.04359036376004949 0.04257608074687863 0.001014283013170847 0.01152212120903248 0.0 0.0
0.0 0.03630263406725424 -0.03139658527030445 0.030483604090575996 0.000912981179728449 0.008850114710307689 0.0 0.0
0.0 0.024250502014015553 -0.02102850727448221 0.02021773860728971 0.0008107686671925031 0.00622626984746839 0.0 0.0
0.0 0.014585850031847843 -0.012720581924432418 0.012016465275851427 0.0007041166485809915 0.003928590198339681 0.0 0.0
0.0 0.007509531119622833 -0.006615898422362826 0.006044853836525949 0.0005710445858368821 0.0021826025116281943 0.0 0.0
0.0 0.0031262554935361096 -0.00264068151869233 0.002287144300912744 0.0003535372177795857 0.0010317605918332767 0.0 0.0
0.0 0.0007464739942388979 -0.0006001481129905802 0.0004918626378376046 0.00010828547515297566 0.000334237797570709 0.0 0.0
0.0 3.0276167582341365e-05 -2.2401997892781442e-05 1.7944823159025416e-05 4.4571747337560455e-06 2.1285090013474505e-05 0.0 0.0
0.0 0.0 0.0 0.0 0.0 0.0 0.0 0.0
0.0 0.0 0.0 0.0 0.0 0.0 0.0 0.0
0.0 0.0 0.0 0.0 0.0 0.0 0.0 0.0
0.0 0.0 0.0 0.0 0.0 0.0 0.0 0.0
0.0 0.0 0.0 0.0 0.0 0.0 0.0 0.0
0.0 0.0 0.0 0.0 0.0 0.0 0.0 0.0
0.0 6.764405056452467e-05 -5.320110746996532e-05 4.2536760053861266e-05 1.0664347416104079e-05 -3.0793259272340896e-05 0.0 0.0
0.0 0.001217314461803592 -0.0009889217182185465 0.0008201856257541555 0.00016873609246439086 -0.00031509686216135403 0.0 0.0
0.0 0.004004604302988274 -0.0036072016179037472 0.0031747854715330594 0.0004324161463706865 -0.0008085040545860992 0.0 0.0
0.0 0.009269171869374943 -0.00821034411824455 0.007594722376612292 0.000615621741632258 -0.0015917561715033046 0.0 0.0
0.0 0.017227491922776873 -0.015111715742390178 0.01437758497909429 0.0007341307632958981 -0.0027810605335825164 0.0 0.0
0.0 0.02802942078494324 -0.024446532820533773 0.023607191163484698 0.0008393416570490654 -0.0043798512490087005 0.0 0.0
0.0 0.04153380160418987 -0.036114131031675184 0.035167201754594424 0.000946929277080759 -0.006233419631777831 0.0 0.0
0.0 0.057486963692085315 -0.049888079921946646 0.048832102724038755 0.0010559771979078607 -0.008124377405515587 0.0 0.0
0.0 0.07566843099086923 -0.06554019755050496 0.0643750651961196 0.0011651323543853621 -0.009938702830317763 0.0 0.0
0.0 0.09555369612054053 -0.0828714960906995 0.08159624103189261 0.0012752550588069054 -0.011733669401860668 0.0 0.0
0.0 0.11714394166874217 -0.10162667849674809 0.10023901119223029 0.0013876673045177474 -0.01347351052031027 0.0 0.0
0.0 0.13993184245626994 -0.12137907710160178 0.1198753038925773 0.0015037732090244101 -0.014886491910781221 0.0 0.0
0.0 0.1629509082166666 -0.14136873863186306 0.13974165894268256 0.0016270796891804155 -0.015496340956533234 0.0 0.0
0.0 0.18458220233283174 -0.1601739129253381 0.15839940256198426 0.0017745103633539897 -0.015436135257883002 0.0 0.0
0.0 0.20165611682459453 -0.17492985812327153 0.17294782824625624 0.0019820298770152093 -0.01805243781190486 0.0 0.0
0.0 0.20801949185149066 -0.17990922198830542 0.17761366863656947 0.002295553351735792 -0.03160193425707364 0.0 0.0
0.0 0.1948877412864992 -0.16615492250192454 0.16362807255617068 0.0025268499457537234 -0.06108905104248968 0.0 0.0
0.0 0.19488774128648395 -0.1661549225019086 0.16362807255615502 0.002526849945753478 0.06108905104251949 0.0 0.0
0.0 0.20801949185144017 -0.17990922198825957 0.17761366863652384 0.002295553351735687 0.03160193425711639 0.0 0.0
0.0 0.20165611682451545 -0.17492985812320166 0.1729478282461878 0.0019820298770139846 0.01805243781193349 0.0 0.0
0.0 0.18458220233272835 -0.16017391292524816 0.15839940256189497 0.0017745103633532255 0.015436135257885961 0.0 0.0
0.0 0.16295090821654762 -0.14136873863175997 0.1397416589425798 0.0016270796891801535 0.015496340956530227 0.0 0.0
0.0 0.13993184245614193 -0.12137907710149079 0.11987530389246653 0.0015037732090242464 0.01488649191077872 0.0 0.0
0.0 0.11714394166861972 -0.10162667849664173 0.10023901119212492 0.0013876673045168056 0.013473510520304797 0.0 0.0
0.0 0.09555369612042171 -0.08287149609059616 0.08159624103179043 0.0012752550588057457 0.01173366940185298 0.0 0.0
0.0 0.07566843099075116 -0.06554019755040208 0.0643750651960177 0.0011651323543843872 0.009938702830309048 0.0 0.0
0.0 0.057486963691979816 -0.04988807992185519 0.04883210272394807 0.0010559771979071065 0.008124377405498403 0.0 0.0
0.0 0.04153380160410366 -0.03611413103160033 0.035167201754520094 0.0009469292770802395 0.006233419631761899 0.0 0.0
0.0 0.02802942078487527 -0.024446532820474074 0.023607191163425578 0.0008393416570484907 0.004379851248999276 0.0 0.0
0.0 0.017227491922726094 -0.015111715742345502 0.01437758497905027 0.0007341307632952191 0.0027810605335743667 0.0 0.0
0.0 0.0092691718693401 -0.008210344118213607 0.00759472237658213 0.0006156217416314776 0.0015917561714967015 0.0 0.0
0.0 0.00400460430296952 -0.0036072016178870024 0.0031747854715174456 0.0004324161463695569 0.0008085040545823113 0.0 0.0
0.0 0.0012173144617952335 -0.0009889217182120257 0.0008201856257484966 0.00016873609246352884 0.0003150968621594215 0.0 0.0
0.0 6.764405056325725e-05 -5.3201107469714674e-05 4.253676005363178e-05 1.0664347416082852e-05 3.079325927215636e-05 0.0 0.0
0.0 0.0 0.0 0.0 0.0 0.0 0.0 0.0
0.0 0.0 0.0 0.0 0.0 0.0 0.0 0.0
0.0 0.0 0.0 0.0 0.0 0.0 0.0 0.0
0.0 0.0 0.0 0.0 0.0 0.0 0.0 0.0
0.0 0.0 0.0 0.0 0.0 0.0 0.0 0.0
0.0 0.0 0.0 0.0 0.0 0.0 0.0 0.0
0.0 0.00017430495570089764 -0.00014853356712658466 0.00011847758651339529 3.00559806131895e-05 -3.627139969890802e-05 0.0 0.0
0.0 0.0018498388944355392 -0.0014941531467996217 0.0012552641541604041 0.00023888899263921711 -0.0001869498623803113 0.0 0.0
0.0 0.0051508124313897775 -0.004639560996593629 0.004143232424821883 0.0004963285717717464 -0.0003813795749337715 0.0 0.0
0.0 0.011088701937262215 -0.009837897266346336 0.009188313776416102 0.0006495834899302364 -0.0007003503725695516 0.0 0.0
0.0 0.019909590888792253 -0.017489974633880787 0.016732324341009443 0.0007576502928713341 -0.0011965941506171672 0.0 0.0
0.0 0.03182489736680807 -0.027812185668035273 0.026949004166319235 0.0008631815017160268 -0.0019059629872085957 0.0 0.0
0.0 0.04679037989504457 -0.04075392214562641 0.039777932127102095 0.0009759900185243294 -0.0027632227003526228 0.0 0.0
0.0 0.06458379424055614 -0.056101436165945935 0.055008454470091 0.0010929816958549238 -0.003653990552084496 0.0 0.0
0.0 0.08462122750969964 -0.07359694938376393 0.07238517094867704 0.0012117784350868868 -0.004525916282226269 0.0 0.0
0.0 0.1068925270219681 -0.09296497423241744 0.09163250172040081 0.0013324725120166295 -0.005379253054279062 0.0 0.0
0.0 0.1309822511848822 -0.11385078385975567 0.11239324830879605 0.0014575355509595994 -0.0061582626508792995 0.0 0.0
0.0 0.156131101145761 -0.13565899200366077 0.13407039046186758 0.0015886015417932483 -0.006697588986868385 0.0 0.0
0.0 0.1811998735858537 -0.15738496627697032 0.15566075551669933 0.0017242107602709052 -0.006636304037112678 0.0 0.0
0.0 0.20441431879122676 -0.17751872541567237 0.17565699358428621 0.0018617318313861354 -0.00556597862324975 0.0 0.0
0.0 0.223232540185264 -0.19386523515041168 0.1918487512057518 0.0020164839446596547 -0.004626316982943147 0.0 0.0
0.0 0.23345851425797287 -0.2025247246953912 0.20026303062097317 0.002261694074417913 -0.013583692002655237 0.0 0.0
0.0 0.22581320424706303 -0.19363940517792397 0.19073517570684279 0.0029042294710811397 -0.056367353443076314 0.0 0.0
0.0 0.2258132042470486 -0.19363940517791028 0.19073517570682982 0.002904229471080248 0.0563673534430875 0.0 0.0
0.0 0.2334585142579149 -0.20252472469534052 0.20026303062092277 0.0022616940744175536 0.013583692002675837 0.0 0.0
0.0 0.22323254018516958 -0.19386523515032972 0.19184875120567027 0.0020164839446593394 0.004626316982957349 0.0 0.0
0.0 0.20441431879110583 -0.1775187254155675 0.17565699358418196 0.0018617318313856087 0.005565978623247494 0.0 0.0
0.0 0.18119987358572404 -0.15738496627685772 0.15566075551658765 0.0017242107602699057 0.00663630403710916 0.0 0.0
0.0 0.15613110114562304 -0.1356589920035411 0.13407039046174843 0.0015886015417925401 0.0066975889868687195 0.0 0.0
0.0 0.13098225118473836 -0.11385078385963168 0.11239324830867119 0.0014575355509604416 0.0061582626508759125 0.0 0.0
0.0 0.1068925270218278 -0.09296497423229605 0.09163250172027954 0.0013324725120164868 0.005379253054275258 0.0 0.0
0.0 0.08462122750956684 -0.07359694938364898 0.0723851709485624 0.0012117784350865457 0.0045259162822224065 0.0 0.0
0.0 0.06458379424043936 -0.05610143616584457 0.05500845446999019 0.0010929816958543716 0.003653990552075391 0.0 0.0
0.0 0.04679037989495092 -0.04075392214554503 0.03977793212702175 0.0009759900185233039 0.002763222700344641 0.0 0.0
0.0 0.031824897366733246 -0.027812185667969728 0.026949004166254405 0.000863181501715314 0.0019059629872045696 0.0 0.0
0.0 0.019909590888738272 -0.017489974633833068 0.01673232434096227 0.0007576502928707913 0.0011965941506133734 0.0 0.0
0.0 0.011088701937226176 -0.009837897266314342 0.00918831377638464 0.0006495834899297026 0.0007003503725670276 0.0 0.0
0.0 0.005150812431369272 -0.004639560996574922 0.004143232424804113 0.0004963285717708077 0.00038137957493235774 0.0 0.0
0.0 0.0018498388944246207 -0.0014941531467908109 0.0012552641541526259 0.0002388889926381861 0.0001869498623794897 0.0 0.0
0.0 0.00017430495569866394 -0.00014853356712523155 0.00011847758651227052 3.0055980612960932e-05 3.627139969852137e-05 0.0 0.0
0.0 0.0 0.0 0.0 0.0 0.0 0.0 0.0
0.0 0.0 0.0 0.0 0.0 0.0 0.0 0.0
0.0 0.0 0.0 0.0 0.0 0.0 0.0 0.0