# vtk DataFile Version 3.0
Some data
ASCII
DATASET UNSTRUCTURED_GRID
POINTS 861 float
0.0 0.0 0.0
0.4 0.0 0.0
0.8 0.0 0.0
1.2000000000000002 0.0 0.0
1.6 0.0 0.0
2.0 0.0 0.0
2.4000000000000004 0.0 0.0
2.8000000000000003 0.0 0.0
3.2 0.0 0.0
3.6 0.0 0.0
4.0 0.0 0.0
4.4 0.0 0.0
4.800000000000001 0.0 0.0
5.2 0.0 0.0
5.6000000000000005 0.0 0.0
6.0 0.0 0.0
6.4 0.0 0.0
6.800000000000001 0.0 0.0
7.2 0.0 0.0
7.6000000000000005 0.0 0.0
8.0 0.0 0.0
8.4 0.0 0.0
8.8 0.0 0.0
9.200000000000001 0.0 0.0
9.600000000000001 0.0 0.0
10.0 0.0 0.0
10.4 0.0 0.0
10.8 0.0 0.0
11.200000000000001 0.0 0.0
11.600000000000001 0.0 0.0
12.0 0.0 0.0
12.4 0.0 0.0
12.8 0.0 0.0
13.200000000000001 0.0 0.0
13.600000000000001 0.0 0.0
14.0 0.0 0.0
14.4 0.0 0.0
14.8 0.0 0.0
15.200000000000001 0.0 0.0
15.600000000000001 0.0 0.0
16.0 0.0 0.0
0.0 0.1 0.0
0.4 0.1 0.0
0.8 0.1 0.0
1.2000000000000002 0.1 0.0
1.6 0.1 0.0
2.0 0.1 0.0
2.4000000000000004 0.1 0.0
2.8000000000000003 0.1 0.0
3.2 0.1 0.0
3.6 0.1 0.0
4.0 0.1 0.0
4.4 0.1 0.0
4.800000000000001 0.1 0.0
5.2 0.1 0.0
5.6000000000000005 0.1 0.0
6.0 0.1 0.0
6.4 0.1 0.0
6.800000000000001 0.1 0.0
7.2 0.1 0.0
7.6000000000000005 0.1 0.0
8.0 0.1 0.0
8.4 0.1 0.0
8.8 0.1 0.0
9.200000000000001 0.1 0.0
9.600000000000001 0.1 0.0
10.0 0.1 0.0
10.4 0.1 0.0
10.8 0.1 0.0
11.200000000000001 0.1 0.0
11.600000000000001 0.1 0.0
12.0 0.1 0.0
12.4 0.1 0.0
12.8 0.1 0.0
13.200000000000001 0.1 0.0
13.600000000000001 0.1 0.0
14.0 0.1 0.0
14.4 0.1 0.0
14.8 0.1 0.0
15.200000000000001 0.1 0.0
15.600000000000001 0.1 0.0
16.0 0.1 0.0
0.0 0.2 0.0
0.4 0.2 0.0
0.8 0.2 0.0
1.2000000000000002 0.2 0.0
1.6 0.2 0.0
2.0 0.2 0.0
2.4000000000000004 0.2 0.0
2.8000000000000003 0.2 0.0
3.2 0.2 0.0
3.6 0.2 0.0
4.0 0.2 0.0
4.4 0.2 0.0
4.800000000000001 0.2 0.0
5.2 0.2 0.0
5.6000000000000005 0.2 0.0
6.0 0.2 0.0
6.4 0.2 0.0
6.800000000000001 0.2 0.0
7.2 0.2 0.0
7.6000000000000005 0.2 0.0
8.0 0.2 0.0
8.4 0.2 0.0
8.8 0.2 0.0
9.200000000000001 0.2 0.0
9.600000000000001 0.2 0.0
10.0 0.2 0.0
10.4 0.2 0.0
10.8 0.2 0.0
11.200000000000001 0.2 0.0
11.600000000000001 0.2 0.0
12.0 0.2 0.0
12.4 0.2 0.0
12.8 0.2 0.0
13.200000000000001 0.2 0.0
13.600000000000001 0.2 0.0
14.0 0.2 0.0
14.4 0.2 0.0
14.8 0.2 0.0
15.200000000000001 0.2 0.0
15.600000000000001 0.2 0.0
16.0 0.2 0.0
0.0 0.30000000000000004 0.0
0.4 0.30000000000000004 0.0
0.8 0.30000000000000004 0.0
1.2000000000000002 0.30000000000000004 0.0
1.6 0.30000000000000004 0.0
2.0 0.30000000000000004 0.0
2.4000000000000004 0.30000000000000004 0.0
2.8000000000000003 0.30000000000000004 0.0
3.2 0.30000000000000004 0.0
3.6 0.30000000000000004 0.0
4.0 0.30000000000000004 0.0
4.4 0.30000000000000004 0.0
4.800000000000001 0.30000000000000004 0.0
5.2 0.30000000000000004 0.0
5.6000000000000005 0.30000000000000004 0.0
6.0 0.30000000000000004 0.0
6.4 0.30000000000000004 0.0
6.800000000000001 0.30000000000000004 0.0
7.2 0.30000000000000004 0.0
7.6000000000000005 0.30000000000000004 0.0
8.0 0.30000000000000004 0.0
8.4 0.30000000000000004 0.0
8.8 0.30000000000000004 0.0
9.200000000000001 0.30000000000000004 0.0
9.600000000000001 0.30000000000000004 0.0
10.0 0.30000000000000004 0.0
10.4 0.30000000000000004 0.0
10.8 0.30000000000000004 0.0
11.200000000000001 0.30000000000000004 0.0
11.600000000000001 0.30000000000000004 0.0
12.0 0.30000000000000004 0.0
12.4 0.30000000000000004 0.0
12.8 0.30000000000000004 0.0
13.200000000000001 0.30000000000000004 0.0
13.600000000000001 0.30000000000000004 0.0
14.0 0.30000000000000004 0.0
14.4 0.30000000000000004 0.0
14.8 0.30000000000000004 0.0
15.200000000000001 0.30000000000000004 0.0
15.600000000000001 0.30000000000000004 0.0
16.0 0.30000000000000004 0.0
0.0 0.4 0.0
0.4 0.4 0.0
0.8 0.4 0.0
1.2000000000000002 0.4 0.0
1.6 0.4 0.0
2.0 0.4 0.0
2.4000000000000004 0.4 0.0
2.8000000000000003 0.4 0.0
3.2 0.4 0.0
3.6 0.4 0.0
4.0 0.4 0.0
4.4 0.4 0.0
4.800000000000001 0.4 0.0
5.2 0.4 0.0
5.6000000000000005 0.4 0.0
6.0 0.4 0.0
6.4 0.4 0.0
6.800000000000001 0.4 0.0
7.2 0.4 0.0
7.6000000000000005 0.4 0.0
8.0 0.4 0.0
8.4 0.4 0.0
8.8 0.4 0.0
9.200000000000001 0.4 0.0
9.600000000000001 0.4 0.0
10.0 0.4 0.0
10.4 0.4 0.0
10.8 0.4 0.0
11.200000000000001 0.4 0.0
11.600000000000001 0.4 0.0
12.0 0.4 0.0
12.4 0.4 0.0
12.8 0.4 0.0
13.200000000000001 0.4 0.0
13.600000000000001 0.4 0.0
14.0 0.4 0.0
14.4 0.4 0.0
14.8 0.4 0.0
15.200000000000001 0.4 0.0
15.600000000000001 0.4 0.0
16.0 0.4 0.0
0.0 0.5 0.0
0.4 0.5 0.0
0.8 0.5 0.0
1.2000000000000002 0.5 0.0
1.6 0.5 0.0
2.0 0.5 0.0
2.4000000000000004 0.5 0.0
2.8000000000000003 0.5 0.0
3.2 0.5 0.0
3.6 0.5 0.0
4.0 0.5 0.0
4.4 0.5 0.0
4.800000000000001 0.5 0.0
5.2 0.5 0.0
5.6000000000000005 0.5 0.0
6.0 0.5 0.0
6.4 0.5 0.0
6.800000000000001 0.5 0.0
7.2 0.5 0.0
7.6000000000000005 0.5 0.0
8.0 0.5 0.0
8.4 0.5 0.0
8.8 0.5 0.0
9.200000000000001 0.5 0.0
9.600000000000001 0.5 0.0
10.0 0.5 0.0
10.4 0.5 0.0
10.8 0.5 0.0
11.200000000000001 0.5 0.0
11.600000000000001 0.5 0.0
12.0 0.5 0.0
12.4 0.5 0.0
12.8 0.5 0.0
13.200000000000001 0.5 0.0
13.600000000000001 0.5 0.0
14.0 0.5 0.0
14.4 0.5 0.0
14.8 0.5 0.0
15.200000000000001 0.5 0.0
15.600000000000001 0.5 0.0
16.0 0.5 0.0
0.0 0.6000000000000001 0.0
0.4 0.6000000000000001 0.0
0.8 0.6000000000000001 0.0
1.2000000000000002 0.6000000000000001 0.0
1.6 0.6000000000000001 0.0
2.0 0.6000000000000001 0.0
2.4000000000000004 0.6000000000000001 0.0
2.8000000000000003 0.6000000000000001 0.0
3.2 0.6000000000000001 0.0
3.6 0.6000000000000001 0.0
4.0 0.6000000000000001 0.0
4.4 0.6000000000000001 0.0
4.800000000000001 0.6000000000000001 0.0
5.2 0.6000000000000001 0.0
5.6000000000000005 0.6000000000000001 0.0
6.0 0.6000000000000001 0.0
6.4 0.6000000000000001 0.0
6.800000000000001 0.6000000000000001 0.0
7.2 0.6000000000000001 0.0
7.6000000000000005 0.6000000000000001 0.0
8.0 0.6000000000000001 0.0
8.4 0.6000000000000001 0.0
8.8 0.6000000000000001 0.0
9.200000000000001 0.6000000000000001 0.0
9.600000000000001 0.6000000000000001 0.0
10.0 0.6000000000000001 0.0
10.4 0.6000000000000001 0.0
10.8 0.6000000000000001 0.0
11.200000000000001 0.6000000000000001 0.0
11.600000000000001 0.6000000000000001 0.0
12.0 0.6000000000000001 0.0
12.4 0.6000000000000001 0.0
12.8 0.6000000000000001 0.0
13.200000000000001 0.6000000000000001 0.0
13.600000000000001 0.6000000000000001 0.0
14.0 0.6000000000000001 0.0
14.4 0.6000000000000001 0.0
14.8 0.6000000000000001 0.0
15.200000000000001 0.6000000000000001 0.0
15.600000000000001 0.6000000000000001 0.0
16.0 0.6000000000000001 0.0
0.0 0.7000000000000001 0.0
0.4 0.7000000000000001 0.0
0.8 0.7000000000000001 0.0
1.2000000000000002 0.7000000000000001 0.0
1.6 0.7000000000000001 0.0
2.0 0.7000000000000001 0.0
2.4000000000000004 0.7000000000000001 0.0
2.8000000000000003 0.7000000000000001 0.0
3.2 0.7000000000000001 0.0
3.6 0.7000000000000001 0.0
4.0 0.7000000000000001 0.0
4.4 0.7000000000000001 0.0
4.800000000000001 0.7000000000000001 0.0
5.2 0.7000000000000001 0.0
5.6000000000000005 0.7000000000000001 0.0
6.0 0.7000000000000001 0.0
6.4 0.7000000000000001 0.0
6.800000000000001 0.7000000000000001 0.0
7.2 0.7000000000000001 0.0
7.6000000000000005 0.7000000000000001 0.0
8.0 0.7000000000000001 0.0
8.4 0.7000000000000001 0.0
8.8 0.7000000000000001 0.0
9.200000000000001 0.7000000000000001 0.0
9.600000000000001 0.7000000000000001 0.0
10.0 0.7000000000000001 0.0
10.4 0.7000000000000001 0.0
10.8 0.7000000000000001 0.0
11.200000000000001 0.7000000000000001 0.0
11.600000000000001 0.7000000000000001 0.0
12.0 0.7000000000000001 0.0
12.4 0.7000000000000001 0.0
12.8 0.7000000000000001 0.0
13.200000000000001 0.7000000000000001 0.0
13.600000000000001 0.7000000000000001 0.0
14.0 0.7000000000000001 0.0
14.4 0.7000000000000001 0.0
14.8 0.7000000000000001 0.0
15.200000000000001 0.7000000000000001 0.0
15.600000000000001 0.7000000000000001 0.0
16.0 0.7000000000000001 0.0
0.0 0.8 0.0
0.4 0.8 0.0
0.8 0.8 0.0
1.2000000000000002 0.8 0.0
1.6 0.8 0.0
2.0 0.8 0.0
2.4000000000000004 0.8 0.0
2.8000000000000003 0.8 0.0
3.2 0.8 0.0
3.6 0.8 0.0
4.0 0.8 0.0
4.4 0.8 0.0
4.800000000000001 0.8 0.0
5.2 0.8 0.0
5.6000000000000005 0.8 0.0
6.0 0.8 0.0
6.4 0.8 0.0
6.800000000000001 0.8 0.0
7.2 0.8 0.0
7.6000000000000005 0.8 0.0
8.0 0.8 0.0
8.4 0.8 0.0
8.8 0.8 0.0
9.200000000000001 0.8 0.0
9.600000000000001 0.8 0.0
10.0 0.8 0.0
10.4 0.8 0.0
10.8 0.8 0.0
11.200000000000001 0.8 0.0
11.600000000000001 0.8 0.0
12.0 0.8 0.0
12.4 0.8 0.0
12.8 0.8 0.0
13.200000000000001 0.8 0.0
13.600000000000001 0.8 0.0
14.0 0.8 0.0
14.4 0.8 0.0
14.8 0.8 0.0
15.200000000000001 0.8 0.0
15.600000000000001 0.8 0.0
16.0 0.8 0.0
0.0 0.9 0.0
0.4 0.9 0.0
0.8 0.9 0.0
1.2000000000000002 0.9 0.0
1.6 0.9 0.0
2.0 0.9 0.0
2.4000000000000004 0.9 0.0
2.8000000000000003 0.9 0.0
3.2 0.9 0.0
3.6 0.9 0.0
4.0 0.9 0.0
4.4 0.9 0.0
4.800000000000001 0.9 0.0
5.2 0.9 0.0
5.6000000000000005 0.9 0.0
6.0 0.9 0.0
6.4 0.9 0.0
6.800000000000001 0.9 0.0
7.2 0.9 0.0
7.6000000000000005 0.9 0.0
8.0 0.9 0.0
8.4 0.9 0.0
8.8 0.9 0.0
9.200000000000001 0.9 0.0
9.600000000000001 0.9 0.0
10.0 0.9 0.0
10.4 0.9 0.0
10.8 0.9 0.0
11.200000000000001 0.9 0.0
11.600000000000001 0.9 0.0
12.0 0.9 0.0
12.4 0.9 0.0
12.8 0.9 0.0
13.200000000000001 0.9 0.0
13.600000000000001 0.9 0.0
14.0 0.9 0.0
14.4 0.9 0.0
14.8 0.9 0.0
15.200000000000001 0.9 0.0
15.600000000000001 0.9 0.0
16.0 0.9 0.0
0.0 1.0 0.0
0.4 1.0 0.0
0.8 1.0 0.0
1.2000000000000002 1.0 0.0
1.6 1.0 0.0
2.0 1.0 0.0
2.4000000000000004 1.0 0.0
2.8000000000000003 1.0 0.0
3.2 1.0 0.0
3.6 1.0 0.0
4.0 1.0 0.0
4.4 1.0 0.0
4.800000000000001 1.0 0.0
5.2 1.0 0.0
5.6000000000000005 1.0 0.0
6.0 1.0 0.0
6.4 1.0 0.0
6.800000000000001 1.0 0.0
7.2 1.0 0.0
7.6000000000000005 1.0 0.0
8.0 1.0 0.0
8.4 1.0 0.0
8.8 1.0 0.0
9.200000000000001 1.0 0.0
9.600000000000001 1.0 0.0
10.0 1.0 0.0
10.4 1.0 0.0
10.8 1.0 0.0
11.200000000000001 1.0 0.0
11.600000000000001 1.0 0.0
12.0 1.0 0.0
12.4 1.0 0.0
12.8 1.0 0.0
13.200000000000001 1.0 0.0
13.600000000000001 1.0 0.0
14.0 1.0 0.0
14.4 1.0 0.0
14.8 1.0 0.0
15.200000000000001 1.0 0.0
15.600000000000001 1.0 0.0
16.0 1.0 0.0
0.0 1.1 0.0
0.4 1.1 0.0
0.8 1.1 0.0
1.2000000000000002 1.1 0.0
1.6 1.1 0.0
2.0 1.1 0.0
2.4000000000000004 1.1 0.0
2.8000000000000003 1.1 0.0
3.2 1.1 0.0
3.6 1.1 0.0
4.0 1.1 0.0
4.4 1.1 0.0
4.800000000000001 1.1 0.0
5.2 1.1 0.0
5.6000000000000005 1.1 0.0
6.0 1.1 0.0
6.4 1.1 0.0
6.800000000000001 1.1 0.0
7.2 1.1 0.0
7.6000000000000005 1.1 0.0
8.0 1.1 0.0
8.4 1.1 0.0
8.8 1.1 0.0
9.200000000000001 1.1 0.0
9.600000000000001 1.1 0.0
10.0 1.1 0.0
10.4 1.1 0.0
10.8 1.1 0.0
11.200000000000001 1.1 0.0
11.600000000000001 1.1 0.0
12.0 1.1 0.0
12.4 1.1 0.0
12.8 1.1 0.0
13.200000000000001 1.1 0.0
13.600000000000001 1.1 0.0
14.0 1.1 0.0
14.4 1.1 0.0
14.8 1.1 0.0
15.200000000000001 1.1 0.0
15.600000000000001 1.1 0.0
16.0 1.1 0.0
0.0 1.2000000000000002 0.0
0.4 1.2000000000000002 0.0
0.8 1.2000000000000002 0.0
1.2000000000000002 1.2000000000000002 0.0
1.6 1.2000000000000002 0.0
2.0 1.2000000000000002 0.0
2.4000000000000004 1.2000000000000002 0.0
2.8000000000000003 1.2000000000000002 0.0
3.2 1.2000000000000002 0.0
3.6 1.2000000000000002 0.0
4.0 1.2000000000000002 0.0
4.4 1.2000000000000002 0.0
4.800000000000001 1.2000000000000002 0.0
5.2 1.2000000000000002 0.0
5.6000000000000005 1.2000000000000002 0.0
6.0 1.2000000000000002 0.0
6.4 1.2000000000000002 0.0
6.800000000000001 1.2000000000000002 0.0
7.2 1.2000000000000002 0.0
7.6000000000000005 1.2000000000000002 0.0
8.0 1.2000000000000002 0.0
8.4 1.2000000000000002 0.0
8.8 1.2000000000000002 0.0
9.200000000000001 1.2000000000000002 0.0
9.600000000000001 1.2000000000000002 0.0
10.0 1.2000000000000002 0.0
10.4 1.2000000000000002 0.0
10.8 1.2000000000000002 0.0
11.200000000000001 1.2000000000000002 0.0
11.600000000000001 1.2000000000000002 0.0
12.0 1.2000000000000002 0.0
12.4 1.2000000000000002 0.0
12.8 1.2000000000000002 0.0
13.200000000000001 1.2000000000000002 0.0
13.600000000000001 1.2000000000000002 0.0
14.0 1.2000000000000002 0.0
14.4 1.2000000000000002 0.0
14.8 1.2000000000000002 0.0
15.200000000000001 1.2000000000000002 0.0
15.600000000000001 1.2000000000000002 0.0
16.0 1.2000000000000002 0.0
0.0 1.3 0.0
0.4 1.3 0.0
0.8 1.3 0.0
1.2000000000000002 1.3 0.0
1.6 1.3 0.0
2.0 1.3 0.0
2.4000000000000004 1.3 0.0
2.8000000000000003 1.3 0.0
3.2 1.3 0.0
3.6 1.3 0.0
4.0 1.3 0.0
4.4 1.3 0.0
4.800000000000001 1.3 0.0
5.2 1.3 0.0
5.6000000000000005 1.3 0.0
6.0 1.3 0.0
6.4 1.3 0.0
6.800000000000001 1.3 0.0
7.2 1.3 0.0
7.6000000000000005 1.3 0.0
8.0 1.3 0.0
8.4 1.3 0.0
8.8 1.3 0.0
9.200000000000001 1.3 0.0
9.600000000000001 1.3 0.0
10.0 1.3 0.0
10.4 1.3 0.0
10.8 1.3 0.0
11.200000000000001 1.3 0.0
11.600000000000001 1.3 0.0
12.0 1.3 0.0
12.4 1.3 0.0
12.8 1.3 0.0
13.200000000000001 1.3 0.0
13.600000000000001 1.3 0.0
14.0 1.3 0.0
14.4 1.3 0.0
14.8 1.3 0.0
15.200000000000001 1.3 0.0
15.600000000000001 1.3 0.0
16.0 1.3 0.0
0.0 1.4000000000000001 0.0
0.4 1.4000000000000001 0.0
0.8 1.4000000000000001 0.0
1.2000000000000002 1.4000000000000001 0.0
1.6 1.4000000000000001 0.0
2.0 1.4000000000000001 0.0
2.4000000000000004 1.4000000000000001 0.0
2.8000000000000003 1.4000000000000001 0.0
3.2 1.4000000000000001 0.0
3.6 1.4000000000000001 0.0
4.0 1.4000000000000001 0.0
4.4 1.4000000000000001 0.0
4.800000000000001 1.4000000000000001 0.0
5.2 1.4000000000000001 0.0
5.6000000000000005 1.4000000000000001 0.0
6.0 1.4000000000000001 0.0
6.4 1.4000000000000001 0.0
6.800000000000001 1.4000000000000001 0.0
7.2 1.4000000000000001 0.0
7.6000000000000005 1.4000000000000001 0.0
8.0 1.4000000000000001 0.0
8.4 1.4000000000000001 0.0
8.8 1.4000000000000001 0.0
9.200000000000001 1.4000000000000001 0.0
9.600000000000001 1.4000000000000001 0.0
10.0 1.4000000000000001 0.0
10.4 1.4000000000000001 0.0
10.8 1.4000000000000001 0.0
11.200000000000001 1.4000000000000001 0.0
11.600000000000001 1.4000000000000001 0.0
12.0 1.4000000000000001 0.0
12.4 1.4000000000000001 0.0
12.8 1.4000000000000001 0.0
13.200000000000001 1.4000000000000001 0.0
13.600000000000001 1.4000000000000001 0.0
14.0 1.4000000000000001 0.0
14.4 1.4000000000000001 0.0
14.8 1.4000000000000001 0.0
15.200000000000001 1.4000000000000001 0.0
15.600000000000001 1.4000000000000001 0.0
16.0 1.4000000000000001 0.0
0.0 1.5 0.0
0.4 1.5 0.0
0.8 1.5 0.0
1.2000000000000002 1.5 0.0
1.6 1.5 0.0
2.0 1.5 0.0
2.4000000000000004 1.5 0.0
2.8000000000000003 1.5 0.0
3.2 1.5 0.0
3.6 1.5 0.0
4.0 1.5 0.0
4.4 1.5 0.0
4.800000000000001 1.5 0.0
5.2 1.5 0.0
5.6000000000000005 1.5 0.0
6.0 1.5 0.0
6.4 1.5 0.0
6.800000000000001 1.5 0.0
7.2 1.5 0.0
7.6000000000000005 1.5 0.0
8.0 1.5 0.0
8.4 1.5 0.0
8.8 1.5 0.0
9.200000000000001 1.5 0.0
9.600000000000001 1.5 0.0
10.0 1.5 0.0
10.4 1.5 0.0
10.8 1.5 0.0
11.200000000000001 1.5 0.0
11.600000000000001 1.5 0.0
12.0 1.5 0.0
12.4 1.5 0.0
12.8 1.5 0.0
13.200000000000001 1.5 0.0
13.600000000000001 1.5 0.0
14.0 1.5 0.0
14.4 1.5 0.0
14.8 1.5 0.0
15.200000000000001 1.5 0.0
15.600000000000001 1.5 0.0
16.0 1.5 0.0
0.0 1.6 0.0
0.4 1.6 0.0
0.8 1.6 0.0
1.2000000000000002 1.6 0.0
1.6 1.6 0.0
2.0 1.6 0.0
2.4000000000000004 1.6 0.0
2.8000000000000003 1.6 0.0
3.2 1.6 0.0
3.6 1.6 0.0
4.0 1.6 0.0
4.4 1.6 0.0
4.800000000000001 1.6 0.0
5.2 1.6 0.0
5.6000000000000005 1.6 0.0
6.0 1.6 0.0
6.4 1.6 0.0
6.800000000000001 1.6 0.0
7.2 1.6 0.0
7.6000000000000005 1.6 0.0
8.0 1.6 0.0
8.4 1.6 0.0
8.8 1.6 0.0
9.200000000000001 1.6 0.0
9.600000000000001 1.6 0.0
10.0 1.6 0.0
10.4 1.6 0.0
10.8 1.6 0.0
11.200000000000001 1.6 0.0
11.600000000000001 1.6 0.0
12.0 1.6 0.0
12.4 1.6 0.0
12.8 1.6 0.0
13.200000000000001 1.6 0.0
13.600000000000001 1.6 0.0
14.0 1.6 0.0
14.4 1.6 0.0
14.8 1.6 0.0
15.200000000000001 1.6 0.0
15.600000000000001 1.6 0.0
16.0 1.6 0.0
0.0 1.7000000000000002 0.0
0.4 1.7000000000000002 0.0
0.8 1.7000000000000002 0.0
1.2000000000000002 1.7000000000000002 0.0
1.6 1.7000000000000002 0.0
2.0 1.7000000000000002 0.0
2.4000000000000004 1.7000000000000002 0.0
2.8000000000000003 1.7000000000000002 0.0
3.2 1.7000000000000002 0.0
3.6 1.7000000000000002 0.0
4.0 1.7000000000000002 0.0
4.4 1.7000000000000002 0.0
4.800000000000001 1.7000000000000002 0.0
5.2 1.7000000000000002 0.0
5.6000000000000005 1.7000000000000002 0.0
6.0 1.7000000000000002 0.0
6.4 1.7000000000000002 0.0
6.800000000000001 1.7000000000000002 0.0
7.2 1.7000000000000002 0.0
7.6000000000000005 1.7000000000000002 0.0
8.0 1.7000000000000002 0.0
8.4 1.7000000000000002 0.0
8.8 1.7000000000000002 0.0
9.200000000000001 1.7000000000000002 0.0
9.600000000000001 1.7000000000000002 0.0
10.0 1.7000000000000002 0.0
10.4 1.7000000000000002 0.0
10.8 1.7000000000000002 0.0
11.200000000000001 1.7000000000000002 0.0
11.600000000000001 1.7000000000000002 0.0
12.0 1.7000000000000002 0.0
12.4 1.7000000000000002 0.0
12.8 1.7000000000000002 0.0
13.200000000000001 1.7000000000000002 0.0
13.600000000000001 1.7000000000000002 0.0
14.0 1.7000000000000002 0.0
14.4 1.7000000000000002 0.0
14.8 1.7000000000000002 0.0
15.200000000000001 1.7000000000000002 0.0
15.600000000000001 1.7000000000000002 0.0
16.0 1.7000000000000002 0.0
0.0 1.8 0.0
0.4 1.8 0.0
0.8 1.8 0.0
1.2000000000000002 1.8 0.0
1.6 1.8 0.0
2.0 1.8 0.0
2.4000000000000004 1.8 0.0
2.8000000000000003 1.8 0.0
3.2 1.8 0.0
3.6 1.8 0.0
4.0 1.8 0.0
4.4 1.8 0.0
4.800000000000001 1.8 0.0
5.2 1.8 0.0
5.6000000000000005 1.8 0.0
6.0 1.8 0.0
6.4 1.8 0.0
6.800000000000001 1.8 0.0
7.2 1.8 0.0
7.6000000000000005 1.8 0.0
8.0 1.8 0.0
8.4 1.8 0.0
8.8 1.8 0.0
9.200000000000001 1.8 0.0
9.600000000000001 1.8 0.0
10.0 1.8 0.0
10.4 1.8 0.0
10.8 1.8 0.0
11.200000000000001 1.8 0.0
11.600000000000001 1.8 0.0
12.0 1.8 0.0
12.4 1.8 0.0
12.8 1.8 0.0
13.200000000000001 1.8 0.0
13.600000000000001 1.8 0.0
14.0 1.8 0.0
14.4 1.8 0.0
14.8 1.8 0.0
15.200000000000001 1.8 0.0
15.600000000000001 1.8 0.0
16.0 1.8 0.0
0.0 1.9000000000000001 0.0
0.4 1.9000000000000001 0.0
0.8 1.9000000000000001 0.0
1.2000000000000002 1.9000000000000001 0.0
1.6 1.9000000000000001 0.0
2.0 1.9000000000000001 0.0
2.4000000000000004 1.9000000000000001 0.0
2.8000000000000003 1.9000000000000001 0.0
3.2 1.9000000000000001 0.0
3.6 1.9000000000000001 0.0
4.0 1.9000000000000001 0.0
4.4 1.9000000000000001 0.0
4.800000000000001 1.9000000000000001 0.0
5.2 1.9000000000000001 0.0
5.6000000000000005 1.9000000000000001 0.0
6.0 1.9000000000000001 0.0
6.4 1.9000000000000001 0.0
6.800000000000001 1.9000000000000001 0.0
7.2 1.9000000000000001 0.0
7.6000000000000005 1.9000000000000001 0.0
8.0 1.9000000000000001 0.0
8.4 1.9000000000000001 0.0
8.8 1.9000000000000001 0.0
9.200000000000001 1.9000000000000001 0.0
9.600000000000001 1.9000000000000001 0.0
10.0 1.9000000000000001 0.0
10.4 1.9000000000000001 0.0
10.8 1.9000000000000001 0.0
11.200000000000001 1.9000000000000001 0.0
11.600000000000001 1.9000000000000001 0.0
12.0 1.9000000000000001 0.0
12.4 1.9000000000000001 0.0
12.8 1.9000000000000001 0.0
13.200000000000001 1.9000000000000001 0.0
13.600000000000001 1.9000000000000001 0.0
14.0 1.9000000000000001 0.0
14.4 1.9000000000000001 0.0
14.8 1.9000000000000001 0.0
15.200000000000001 1.9000000000000001 0.0
15.600000000000001 1.9000000000000001 0.0
16.0 1.9000000000000001 0.0
0.0 2.0 0.0
0.4 2.0 0.0
0.8 2.0 0.0
1.2000000000000002 2.0 0.0
1.6 2.0 0.0
2.0 2.0 0.0
2.4000000000000004 2.0 0.0
2.8000000000000003 2.0 0.0
3.2 2.0 0.0
3.6 2.0 0.0
4.0 2.0 0.0
4.4 2.0 0.0
4.800000000000001 2.0 0.0
5.2 2.0 0.0
5.6000000000000005 2.0 0.0
6.0 2.0 0.0
6.4 2.0 0.0
6.800000000000001 2.0 0.0
7.2 2.0 0.0
7.6000000000000005 2.0 0.0
8.0 2.0 0.0
8.4 2.0 0.0
8.8 2.0 0.0
9.200000000000001 2.0 0.0
9.600000000000001 2.0 0.0
10.0 2.0 0.0
10.4 2.0 0.0
10.8 2.0 0.0
11.200000000000001 2.0 0.0
11.600000000000001 2.0 0.0
12.0 2.0 0.0
12.4 2.0 0.0
12.8 2.0 0.0
13.200000000000001 2.0 0.0
13.600000000000001 2.0 0.0
14.0 2.0 0.0
14.4 2.0 0.0
14.8 2.0 0.0
15.200000000000001 2.0 0.0
15.600000000000001 2.0 0.0
16.0 2.0 0.0
CELLS 800 4000
4 0 1 42 41
4 1 2 43 42
4 2 3 44 43
4 3 4 45 44
4 4 5 46 45
4 5 6 47 46
4 6 7 48 47
4 7 8 49 48
4 8 9 50 49
4 9 10 51 50
4 10 11 52 51
4 11 12 53 52
4 12 13 54 53
4 13 14 55 54
4 14 15 56 55
4 15 16 57 56
4 16 17 58 57
4 17 18 59 58
4 18 19 60 59
4 19 20 61 60
4 20 21 62 61
4 21 22 63 62
4 22 23 64 63
4 23 24 65 64
4 24 25 66 65
4 25 26 67 66
4 26 27 68 67
4 27 28 69 68
4 28 29 70 69
4 29 30 71 70
4 30 31 72 71
4 31 32 73 72
4 32 33 74 73
4 33 34 75 74
4 34 35 76 75
4 35 36 77 76
4 36 37 78 77
4 37 38 79 78
4 38 39 80 79
4 39 40 81 80
4 41 42 83 82
4 42 43 84 83
4 43 44 85 84
4 44 45 86 85
4 45 46 87 86
4 46 47 88 87
4 47 48 89 88
4 48 49 90 89
4 49 50 91 90
4 50 51 92 91
4 51 52 93 92
4 52 53 94 93
4 53 54 95 94
4 54 55 96 95
4 55 56 97 96
4 56 57 98 97
4 57 58 99 98
4 58 59 100 99
4 59 60 101 100
4 60 61 102 101
4 61 62 103 102
4 62 63 104 103
4 63 64 105 104
4 64 65 106 105
4 65 66 107 106
4 66 67 108 107
4 67 68 109 108
4 68 69 110 109
4 69 70 111 110
4 70 71 112 111
4 71 72 113 112
4 72 73 114 113
4 73 74 115 114
4 74 75 116 115
4 75 76 117 116
4 76 77 118 117
4 77 78 119 118
4 78 79 120 119
4 79 80 121 120
4 80 81 122 121
4 82 83 124 123
4 83 84 125 124
4 84 85 126 125
4 85 86 127 126
4 86 87 128 127
4 87 88 129 128
4 88 89 130 129
4 89 90 131 130
4 90 91 132 131
4 91 92 133 132
4 92 93 134 133
4 93 94 135 134
4 94 95 136 135
4 95 96 137 136
4 96 97 138 137
4 97 98 139 138
4 98 99 140 139
4 99 100 141 140
4 100 101 142 141
4 101 102 143 142
4 102 103 144 143
4 103 104 145 144
4 104 105 146 145
4 105 106 147 146
4 106 107 148 147
4 107 108 149 148
4 108 109 150 149
4 109 110 151 150
4 110 111 152 151
4 111 112 153 152
4 112 113 154 153
4 113 114 155 154
4 114 115 156 155
4 115 116 157 156
4 116 117 158 157
4 117 118 159 158
4 118 119 160 159
4 119 120 161 160
4 120 121 162 161
4 121 122 163 162
4 123 124 165 164
4 124 125 166 165
4 125 126 167 166
4 126 127 168 167
4 127 128 169 168
4 128 129 170 169
4 129 130 171 170
4 130 131 172 171
4 131 132 173 172
4 132 133 174 173
4 133 134 175 174
4 134 135 176 175
4 135 136 177 176
4 136 137 178 177
4 137 138 179 178
4 138 139 180 179
4 139 140 181 180
4 140 141 182 181
4 141 142 183 182
4 142 143 184 183
4 143 144 185 184
4 144 145 186 185
4 145 146 187 186
4 146 147 188 187
4 147 148 189 188
4 148 149 190 189
4 149 150 191 190
4 150 151 192 191
4 151 152 193 192
4 152 153 194 193
4 153 154 195 194
4 154 155 196 195
4 155 156 197 196
4 156 157 198 197
4 157 158 199 198
4 158 159 200 199
4 159 160 201 200
4 160 161 202 201
4 161 162 203 202
4 162 163 204 203
4 164 165 206 205
4 165 166 207 206
4 166 167 208 207
4 167 168 209 208
4 168 169 210 209
4 169 170 211 210
4 170 171 212 211
4 171 172 213 212
4 172 173 214 213
4 173 174 215 214
4 174 175 216 215
4 175 176 217 216
4 176 177 218 217
4 177 178 219 218
4 178 179 220 219
4 179 180 221 220
4 180 181 222 221
4 181 182 223 222
4 182 183 224 223
4 183 184 225 224
4 184 185 226 225
4 185 186 227 226
4 186 187 228 227
4 187 188 229 228
4 188 189 230 229
4 189 190 231 230
4 190 191 232 231
4 191 192 233 232
4 192 193 234 233
4 193 194 235 234
4 194 195 236 235
4 195 196 237 236
4 196 197 238 237
4 197 198 239 238
4 198 199 240 239
4 199 200 241 240
4 200 201 242 241
4 201 202 243 242
4 202 203 244 243
4 203 204 245 244
4 205 206 247 246
4 206 207 248 247
4 207 208 249 248
4 208 209 250 249
4 209 210 251 250
4 210 211 252 251
4 211 212 253 252
4 212 213 254 253
4 213 214 255 254
4 214 215 256 255
4 215 216 257 256
4 216 217 258 257
4 217 218 259 258
4 218 219 260 259
4 219 220 261 260
4 220 221 262 261
4 221 222 263 262
4 222 223 264 263
4 223 224 265 264
4 224 225 266 265
4 225 226 267 266
4 226 227 268 267
4 227 228 269 268
4 228 229 270 269
4 229 230 271 270
4 230 231 272 271
4 231 232 273 272
4 232 233 274 273
4 233 234 275 274
4 234 235 276 275
4 235 236 277 276
4 236 237 278 277
4 237 238 279 278
4 238 239 280 279
4 239 240 281 280
4 240 241 282 281
4 241 242 283 282
4 242 243 284 283
4 243 244 285 284
4 244 245 286 285
4 246 247 288 287
4 247 248 289 288
4 248 249 290 289
4 249 250 291 290
4 250 251 292 291
4 251 252 293 292
4 252 253 294 293
4 253 254 295 294
4 254 255 296 295
4 255 256 297 296
4 256 257 298 297
4 257 258 299 298
4 258 259 300 299
4 259 260 301 300
4 260 261 302 301
4 261 262 303 302
4 262 263 304 303
4 263 264 305 304
4 264 265 306 305
4 265 266 307 306
4 266 267 308 307
4 267 268 309 308
4 268 269 310 309
4 269 270 311 310
4 270 271 312 311
4 271 272 313 312
4 272 273 314 313
4 273 274 315 314
4 274 275 316 315
4 275 276 317 316
4 276 277 318 317
4 277 278 319 318
4 278 279 320 319
4 279 280 321 320
4 280 281 322 321
4 281 282 323 322
4 282 283 324 323
4 283 284 325 324
4 284 285 326 325
4 285 286 327 326
4 287 288 329 328
4 288 289 330 329
4 289 290 331 330
4 290 291 332 331
4 291 292 333 332
4 292 293 334 333
4 293 294 335 334
4 294 295 336 335
4 295 296 337 336
4 296 297 338 337
4 297 298 339 338
4 298 299 340 339
4 299 300 341 340
4 300 301 342 341
4 301 302 343 342
4 302 303 344 343
4 303 304 345 344
4 304 305 346 345
4 305 306 347 346
4 306 307 348 347
4 307 308 349 348
4 308 309 350 349
4 309 310 351 350
4 310 311 352 351
4 311 312 353 352
4 312 313 354 353
4 313 314 355 354
4 314 315 356 355
4 315 316 357 356
4 316 317 358 357
4 317 318 359 358
4 318 319 360 359
4 319 320 361 360
4 320 321 362 361
4 321 322 363 362
4 322 323 364 363
4 323 324 365 364
4 324 325 366 365
4 325 326 367 366
4 326 327 368 367
4 328 329 370 369
4 329 330 371 370
4 330 331 372 371
4 331 332 373 372
4 332 333 374 373
4 333 334 375 374
4 334 335 376 375
4 335 336 377 376
4 336 337 378 377
4 337 338 379 378
4 338 339 380 379
4 339 340 381 380
4 340 341 382 381
4 341 342 383 382
4 342 343 384 383
4 343 344 385 384
4 344 345 386 385
4 345 346 387 386
4 346 347 388 387
4 347 348 389 388
4 348 349 390 389
4 349 350 391 390
4 350 351 392 391
4 351 352 393 392
4 352 353 394 393
4 353 354 395 394
4 354 355 396 395
4 355 356 397 396
4 356 357 398 397
4 357 358 399 398
4 358 359 400 399
4 359 360 401 400
4 360 361 402 401
4 361 362 403 402
4 362 363 404 403
4 363 364 405 404
4 364 365 406 405
4 365 366 407 406
4 366 367 408 407
4 367 368 409 408
4 369 370 411 410
4 370 371 412 411
4 371 372 413 412
4 372 373 414 413
4 373 374 415 414
4 374 375 416 415
4 375 376 417 416
4 376 377 418 417
4 377 378 419 418
4 378 379 420 419
4 379 380 421 420
4 380 381 422 421
4 381 382 423 422
4 382 383 424 423
4 383 384 425 424
4 384 385 426 425
4 385 386 427 426
4 386 387 428 427
4 387 388 429 428
4 388 389 430 429
4 389 390 431 430
4 390 391 432 431
4 391 392 433 432
4 392 393 434 433
4 393 394 435 434
4 394 395 436 435
4 395 396 437 436
4 396 397 438 437
4 397 398 439 438
4 398 399 440 439
4 399 400 441 440
4 400 401 442 441
4 401 402 443 442
4 402 403 444 443
4 403 404 445 444
4 404 405 446 445
4 405 406 447 446
4 406 407 448 447
4 407 408 449 448
4 408 409 450 449
4 410 411 452 451
4 411 412 453 452
4 412 413 454 453
4 413 414 455 454
4 414 415 456 455
4 415 416 457 456
4 416 417 458 457
4 417 418 459 458
4 418 419 460 459
4 419 420 461 460
4 420 421 462 461
4 421 422 463 462
4 422 423 464 463
4 423 424 465 464
4 424 425 466 465
4 425 426 467 466
4 426 427 468 467
4 427 428 469 468
4 428 429 470 469
4 429 430 471 470
4 430 431 472 471
4 431 432 473 472
4 432 433 474 473
4 433 434 475 474
4 434 435 476 475
4 435 436 477 476
4 436 437 478 477
4 437 438 479 478
4 438 439 480 479
4 439 440 481 480
4 440 441 482 481
4 441 442 483 482
4 442 443 484 483
4 443 444 485 484
4 444 445 486 485
4 445 446 487 486
4 446 447 488 487
4 447 448 489 488
4 448 449 490 489
4 449 450 491 490
4 451 452 493 492
4 452 453 494 493
4 453 454 495 494
4 454 455 496 495
4 455 456 497 496
4 456 457 498 497
4 457 458 499 498
4 458 459 500 499
4 459 460 501 500
4 460 461 502 501
4 461 462 503 502
4 462 463 504 503
4 463 464 505 504
4 464 465 506 505
4 465 466 507 506
4 466 467 508 507
4 467 468 509 508
4 468 469 510 509
4 469 470 511 510
4 470 471 512 511
4 471 472 513 512
4 472 473 514 513
4 473 474 515 514
4 474 475 516 515
4 475 476 517 516
4 476 477 518 517
4 477 478 519 518
4 478 479 520 519
4 479 480 521 520
4 480 481 522 521
4 481 482 523 522
4 482 483 524 523
4 483 484 525 524
4 484 485 526 525
4 485 486 527 526
4 486 487 528 527
4 487 488 529 528
4 488 489 530 529
4 489 490 531 530
4 490 491 532 531
4 492 493 534 533
4 493 494 535 534
4 494 495 536 535
4 495 496 537 536
4 496 497 538 537
4 497 498 539 538
4 498 499 540 539
4 499 500 541 540
4 500 501 542 541
4 501 502 543 542
4 502 503 544 543
4 503 504 545 544
4 504 505 546 545
4 505 506 547 546
4 506 507 548 547
4 507 508 549 548
4 508 509 550 549
4 509 510 551 550
4 510 511 552 551
4 511 512 553 552
4 512 513 554 553
4 513 514 555 554
4 514 515 556 555
4 515 516 557 556
4 516 517 558 557
4 517 518 559 558
4 518 519 560 559
4 519 520 561 560
4 520 521 562 561
4 521 522 563 562
4 522 523 564 563
4 523 524 565 564
4 524 525 566 565
4 525 526 567 566
4 526 527 568 567
4 527 528 569 568
4 528 529 570 569
4 529 530 571 570
4 530 531 572 571
4 531 532 573 572
4 533 534 575 574
4 534 535 576 575
4 535 536 577 576
4 536 537 578 577
4 537 538 579 578
4 538 539 580 579
4 539 540 581 580
4 540 541 582 581
4 541 542 583 582
4 542 543 584 583
4 543 544 585 584
4 544 545 586 585
4 545 546 587 586
4 546 547 588 587
4 547 548 589 588
4 548 549 590 589
4 549 550 591 590
4 550 551 592 591
4 551 552 593 592
4 552 553 594 593
4 553 554 595 594
4 554 555 596 595
4 555 556 597 596
4 556 557 598 597
4 557 558 599 598
4 558 559 600 599
4 559 560 601 600
4 560 561 602 601
4 561 562 603 602
4 562 563 604 603
4 563 564 605 604
4 564 565 606 605
4 565 566 607 606
4 566 567 608 607
4 567 568 609 608
4 568 569 610 609
4 569 570 611 610
4 570 571 612 611
4 571 572 613 612
4 572 573 614 613
4 574 575 616 615
4 575 576 617 616
4 576 577 618 617
4 577 578 619 618
4 578 579 620 619
4 579 580 621 620
4 580 581 622 621
4 581 582 623 622
4 582 583 624 623
4 583 584 625 624
4 584 585 626 625
4 585 586 627 626
4 586 587 628 627
4 587 588 629 628
4 588 589 630 629
4 589 590 631 630
4 590 591 632 631
4 591 592 633 632
4 592 593 634 633
4 593 594 635 634
4 594 595 636 635
4 595 596 637 636
4 596 597 638 637
4 597 598 639 638
4 598 599 640 639
4 599 600 641 640
4 600 601 642 641
4 601 602 643 642
4 602 603 644 643
4 603 604 645 644
4 604 605 646 645
4 605 606 647 646
4 606 607 648 647
4 607 608 649 648
4 608 609 650 649
4 609 610 651 650
4 610 611 652 651
4 611 612 653 652
4 612 613 654 653
4 613 614 655 654
4 615 616 657 656
4 616 617 658 657
4 617 618 659 658
4 618 619 660 659
4 619 620 661 660
4 620 621 662 661
4 621 622 663 662
4 622 623 664 663
4 623 624 665 664
4 624 625 666 665
4 625 626 667 666
4 626 627 668 667
4 627 628 669 668
4 628 629 670 669
4 629 630 671 670
4 630 631 672 671
4 631 632 673 672
4 632 633 674 673
4 633 634 675 674
4 634 635 676 675
4 635 636 677 676
4 636 637 678 677
4 637 638 679 678
4 638 639 680 679
4 639 640 681 680
4 640 641 682 681
4 641 642 683 682
4 642 643 684 683
4 643 644 685 684
4 644 645 686 685
4 645 646 687 686
4 646 647 688 687
4 647 648 689 688
4 648 649 690 689
4 649 650 691 690
4 650 651 692 691
4 651 652 693 692
4 652 653 694 693
4 653 654 695 694
4 654 655 696 695
4 656 657 698 697
4 657 658 699 698
4 658 659 700 699
4 659 660 701 700
4 660 661 702 701
4 661 662 703 702
4 662 663 704 703
4 663 664 705 704
4 664 665 706 705
4 665 666 707 706
4 666 667 708 707
4 667 668 709 708
4 668 669 710 709
4 669 670 711 710
4 670 671 712 711
4 671 672 713 712
4 672 673 714 713
4 673 674 715 714
4 674 675 716 715
4 675 676 717 716
4 676 677 718 717
4 677 678 719 718
4 678 679 720 719
4 679 680 721 720
4 680 681 722 721
4 681 682 723 722
4 682 683 724 723
4 683 684 725 724
4 684 685 726 725
4 685 686 727 726
4 686 687 728 727
4 687 688 729 728
4 688 689 730 729
4 689 690 731 730
4 690 691 732 731
4 691 692 733 732
4 692 693 734 733
4 693 694 735 734
4 694 695 736 735
4 695 696 737 736
4 697 698 739 738
4 698 699 740 739
4 699 700 741 740
4 700 701 742 741
4 701 702 743 742
4 702 703 744 743
4 703 704 745 744
4 704 705 746 745
4 705 706 747 746
4 706 707 748 747
4 707 708 749 748
4 708 709 750 749
4 709 710 751 750
4 710 711 752 751
4 711 712 753 752
4 712 713 754 753
4 713 714 755 754
4 714 715 756 755
4 715 716 757 756
4 716 717 758 757
4 717 718 759 758
4 718 719 760 759
4 719 720 761 760
4 720 721 762 761
4 721 722 763 762
4 722 723 764 763
4 723 724 765 764
4 724 725 766 765
4 725 726 767 766
4 726 727 768 767
4 727 728 769 768
4 728 729 770 769
4 729 730 771 770
4 730 731 772 771
4 731 732 773 772
4 732 733 774 773
4 733 734 775 774
4 734 735 776 775
4 735 736 777 776
4 736 737 778 777
4 738 739 780 779
4 739 740 781 780
4 740 741 782 781
4 741 742 783 782
4 742 743 784 783
4 743 744 785 784
4 744 745 786 785
4 745 746 787 786
4 746 747 788 787
4 747 748 789 788
4 748 749 790 789
4 749 750 791 790
4 750 751 792 791
4 751 752 793 792
4 752 753 794 793
4 753 754 795 794
4 754 755 796 795
4 755 756 797 796
4 756 757 798 797
4 757 758 799 798
4 758 759 800 799
4 759 760 801 800
4 760 761 802 801
4 761 762 803 802
4 762 763 804 803
4 763 764 805 804
4 764 765 806 805
4 765 766 807 806
4 766 767 808 807
4 767 768 809 808
4 768 769 810 809
4 769 770 811 810
4 770 771 812 811
4 771 772 813 812
4 772 773 814 813
4 773 774 815 814
4 774 775 816 815
4 775 776 817 816
4 776 777 818 817
4 777 778 819 818
4 779 780 821 820
4 780 781 822 821
4 781 782 823 822
4 782 783 824 823
4 783 784 825 824
4 784 785 826 825
4 785 786 827 826
4 786 787 828 827
4 787 788 829 828
4 788 789 830 829
4 789 790 831 830
4 790 791 832 831
4 791 792 833 832
4 792 793 834 833
4 793 794 835 834
4 794 795 836 835
4 795 796 837 836
4 796 797 838 837
4 797 798 839 838
4 798 799 840 839
4 799 800 841 840
4 800 801 842 841
4 801 802 843 842
4 802 803 844 843
4 803 804 845 844
4 804 805 846 845
4 805 806 847 846
4 806 807 848 847
4 807 808 849 848
4 808 809 850 849
4 809 810 851 850
4 810 811 852 851
4 811 812 853 852
4 812 813 854 853
4 813 814 855 854
4 814 815 856 855
4 815 816 857 856
4 816 817 858 857
4 817 818 859 858
4 818 819 860 859
CELL_TYPES 800
9
9
9
9
9
9
9
9
9
9
9
9
9
9
9
9
9
9
9
9
9
9
9
9
9
9
9
9
9
9
9
9
9
9
9
9
9
9
9
9
9
9
9
9
9
9
9
9
9
9
9
9
9
9
9
9
9
9
9
9
9
9
9
9
9
9
9
9
9
9
9
9
9
9
9
9
9
9
9
9
9
9
9
9
9
9
9
9
9
9
9
9
9
9
9
9
9
9
9
9
9
9
9
9
9
9
9
9
9
9
9
9
9
9
9
9
9
9
9
9
9
9
9
9
9
9
9
9
9
9
9
9
9
9
9
9
9
9
9
9
9
9
9
9
9
9
9
9
9
9
9
9
9
9
9
9
9
9
9
9
9
9
9
9
9
9
9
9
9
9
9
9
9
9
9
9
9
9
9
9
9
9
9
9
9
9
9
9
9
9
9
9
9
9
9
9
9
9
9
9
9
9
9
9
9
9
9
9
9
9
9
9
9
9
9
9
9
9
9
9
9
9
9
9
9
9
9
9
9
9
9
9
9
9
9
9
9
9
9
9
9
9
9
9
9
9
9
9
9
9
9
9
9
9
9
9
9
9
9
9
9
9
9
9
9
9
9
9
9
9
9
9
9
9
9
9
9
9
9
9
9
9
9
9
9
9
9
9
9
9
9
9
9
9
9
9
9
9
9
9
9
9
9
9
9
9
9
9
9
9
9
9
9
9
9
9
9
9
9
9
9
9
9
9
9
9
9
9
9
9
9
9
9
9
9
9
9
9
9
9
9
9
9
9
9
9
9
9
9
9
9
9
9
9
9
9
9
9
9
9
9
9
9
9
9
9
9
9
9
9
9
9
9
9
9
9
9
9
9
9
9
9
9
9
9
9
9
9
9
9
9
9
9
9
9
9
9
9
9
9
9
9
9
9
9
9
9
9
9
9
9
9
9
9
9
9
9
9
9
9
9
9
9
9
9
9
9
9
9
9
9
9
9
9
9
9
9
9
9
9
9
9
9
9
9
9
9
9
9
9
9
9
9
9
9
9
9
9
9
9
9
9
9
9
9
9
9
9
9
9
9
9
9
9
9
9
9
9
9
9
9
9
9
9
9
9
9
9
9
9
9
9
9
9
9
9
9
9
9
9
9
9
9
9
9
9
9
9
9
9
9
9
9
9
9
9
9
9
9
9
9
9
9
9
9
9
9
9
9
9
9
9
9
9
9
9
9
9
9
9
9
9
9
9
9
9
9
9
9
9
9
9
9
9
9
9
9
9
9
9
9
9
9
9
9
9
9
9
9
9
9
9
9
9
9
9
9
9
9
9
9
9
9
9
9
9
9
9
9
9
9
9
9
9
9
9
9
9
9
9
9
9
9
9
9
9
9
9
9
9
9
9
9
9
9
9
9
9
9
9
9
9
9
9
9
9
9
9
9
9
9
9
9
9
9
9
9
9
9
9
9
9
9
9
9
9
9
9
9
9
9
9
9
9
9
9
9
9
9
9
9
9
9
9
9
9
9
9
9
9
9
9
9
9
9
9
9
9
9
9
9
9
9
9
9
9
9
9
9
9
9
9
9
9
9
9
9
9
9
9
9
9
9
9
9
9
9
9
9
9
9
9
9
9
9
9
9
9
9
9
9
9
9
9
9
9
9
9
9
9
9
9
9
9
9
9
9
9
9
9
9
9
9
9
9
9
9
9
9
9
9
9
9
9
9
9
9
9
9
9
9
9
9
9
9
9
9
9
9
9
9
9
9
9
9
9
9
9
9
9
9
9
9
9
9
9
9
9
9
9
9
9
9
9
9
9
9
9
9
9
POINT_DATA 861
SCALARS Disp float 2
LOOKUP_TABLE default
0.0 0.0
0.006346567036870417 -0.30794951331514553
0.007817921425405714 -0.6059247626053076
0.0086339438915723 -0.9026991986101993
0.009731267191722053 -1.1990565678737821
0.011619046739496928 -1.4944958772228252
0.01507199713523546 -1.788341595561121
0.021057261798928924 -2.079740345772607
0.030717683405645225 -2.367616724230747
0.04529545274694741 -2.6505513460997174
0.0660171617112288 -2.926618658000647
0.09401330680408837 -3.1933111911201304
0.13028190058285496 -3.447596714153499
0.17567693017071398 -3.686060243498762
0.23089726037282024 -3.9050006394599652
0.2964139236107485 -4.100516046496916
0.372347984035826 -4.268619909384414
0.45833252507014843 -4.405421508988954
0.5534031406422226 -4.507395886363381
0.6559633185419738 -4.571640248551265
0.7634966474328538 -4.596227762723389
0.8710299763237275 -4.571640248551119
0.9735901542234563 -4.507395886363086
1.0686607697954922 -4.405421508988526
1.1546453108297674 -4.268619909383878
1.2305793712547926 -4.100516046496304
1.2960960344926664 -3.905000639459295
1.3513163646947193 -3.686060243498052
1.3967113942825258 -3.4475967141527732
1.4329799880612426 -3.1933111911194105
1.4609761331540574 -2.9266186579999522
1.481697842118302 -2.650551346099064
1.496275611459575 -2.3676167242301442
1.5059360330662706 -2.079740345772064
1.5119212977299499 -1.7883415955606425
1.5153742481256791 -1.4944958772224206
1.5172620276734499 -1.199056567873451
1.5183593509735984 -0.9026991986099466
1.5191753734397648 -0.6059247626051313
1.5206467278282985 -0.30794951331504944
1.5269932948651654 0.0
0.07681067346784437 -0.0026054211991513453
0.08130498855284587 -0.3082685844381741
0.08206086755038965 -0.6059893937171434
0.08277902941101489 -0.9027939717119056
0.08373209417286785 -1.1992269359800467
0.08532519292590124 -1.4948942948993438
0.08828693147659462 -1.7891852695534314
0.09353005793074377 -2.0812896139777934
0.10212568177952748 -2.3701625876275707
0.11520564086272489 -2.6543896088135046
0.13386370640433115 -2.9320275882728217
0.15909434129156544 -3.200540603020595
0.19178188870804885 -3.456865894547735
0.2327011258297108 -3.6975559848455677
0.2824887037875338 -3.9188680564172693
0.3415844428968234 -4.11683522420978
0.4101249950080295 -4.287373684499623
0.48782111995928096 -4.4264642204110425
0.5738429899534933 -4.530428070394806
0.666644706827455 -4.59617750582164
0.763496647432836 -4.621391558307983
0.8603485880382106 -4.5961775058214895
0.9531503049121519 -4.530428070394504
1.03917217490633 -4.426464220410605
1.1168682998575405 -4.287373684499075
1.1854088519687 -4.116835224209154
1.2445045910779406 -3.918868056416586
1.2942921690357154 -3.697555984844845
1.33521140615733 -3.456865894546997
1.3678989535737687 -3.2005406030198644
1.3931295884609627 -2.932027588272118
1.4117876540025358 -2.654389608812844
1.4248676130857068 -2.3701625876269623
1.4334632369344715 -2.0812896139772468
1.4387063633886077 -1.7891852695529502
1.4416681019392932 -1.4948942948989377
1.4432612006923233 -1.1992269359797152
1.4442142654541752 -0.9027939717116529
1.4449324273148003 -0.6059893937169674
1.4456883063123438 -0.3082685844380776
1.4501826213973394 -0.0026054211991487757
0.15257043463855086 -0.004688553958082782
0.15589442953362592 -0.3084295801240682
0.15632333726545222 -0.6060200450229171
0.15690703814764645 -0.9028767355370723
0.1577275650909766 -1.1993604839583907
0.1590556314441045 -1.4952096750495825
0.1615396347949946 -1.7898865756571145
0.166043546653436 -2.0826233425410026
0.17355449067169074 -2.372397880284404
0.18509721890767988 -2.657792625662111
0.20163953973723206 -2.9368436856823665
0.22405044945434047 -3.206988563180166
0.25310221311242964 -3.465140252382743
0.28947968690051346 -3.7078259836496423
0.3337620443632244 -3.9312669167763032
0.386362015846183 -4.131441241681629
0.44744496766873926 -4.304182905287415
0.5168141746355726 -4.445358693837213
0.5937526859174906 -4.551138130668514
0.6767740739435012 -4.618203363854863
0.7634966474328186 -4.643974963655002
0.8502192209221295 -4.61820336385471
0.9332406089481221 -4.551138130668205
1.01017912023001 -4.445358693836766
1.0795483271968074 -4.304182905286857
1.1406312790193225 -4.131441241680993
1.1932312505022376 -3.931266916775609
1.2375136079649052 -3.7078259836489087
1.2738910817529472 -3.465140252381994
1.3029428454109968 -3.2069885631794257
1.3253537551280692 -2.9368436856816538
1.3418960759575917 -2.6577926256614433
1.3534388041935574 -2.3723978802837897
1.360949748211795 -2.0826233425404514
1.3654536600702245 -1.7898865756566316
1.3679376634211085 -1.4952096750491755
1.3692657297742339 -1.199360483958059
1.3700862567175631 -0.9028767355368194
1.3706699575997574 -0.6060200450227411
1.3710988653315836 -0.30842958012397126
1.3744228602266528 -0.0046885539580773595
0.22777197533020976 -0.006369754364441827
0.23030288540372593 -0.3085392834043601
0.23056293868378974 -0.606036458950741
0.23101856523933098 -0.9029423805443574
0.23171319378844668 -1.199466538500234
0.23280739647332127 -1.4954513103101776
0.234841273265385 -1.7904502919008023
0.23861539684582017 -2.0837422129284104
0.2450346289827918 -2.3743179655770645
0.25501755797252706 -2.6607521638878997
0.2694113847034239 -2.941056787651988
0.288964083651537 -3.2126447673494742
0.3143399528504209 -3.4724087642437187
0.34613306839783187 -3.716856646733647
0.38485603889346237 -3.9421819843457273
0.430901626375731 -4.144319043960934
0.4844680908929102 -4.319034801393416
0.5454481472545892 -4.462094944016557
0.6132503550832772 -4.569515771337348
0.6866025593676541 -4.637777260981413
0.7634966474328015 -4.6641116179734405
0.8403907354979434 -4.637777260981257
0.9137429397823036 -4.569515771337033
0.9815451476109658 -4.462094944016103
1.0425252039726127 -4.31903480139285
1.0960916684897566 -4.144319043960288
1.1421372559719867 -3.9421819843450234
1.1808602264675792 -3.716856646732904
1.2126533420149537 -3.4724087642429597
1.238029211213803 -3.2126447673487246
1.2575819101618846 -2.941056787651268
1.2719757368927553 -2.660752163887226
1.2819586658824698 -2.3743179655764464
1.2883778980194265 -2.083742212927856
1.2921520215998514 -1.7904502919003176
1.2941858983919101 -1.4954513103097702
1.2952801010767827 -1.1994665384999021
1.295974729625898 -0.9029423805441045
1.2964303561814394 -0.606036458950565
1.296690409461503 -0.3085392834042628
1.2992213195350142 -0.006369754364433735
0.30265658406499923 -0.007733305330750062
0.30459005862310917 -0.3086237738697406
0.30475907294975324 -0.6060457820811233
0.3051077565809853 -0.9029928527684211
0.30568493085123144 -1.1995506648029157
0.3065731442767606 -1.4956323646750305
0.30819971323598006 -1.7908854734011266
0.31126197952769086 -2.0846493721437422
0.316596900982889 -2.375922493321823
0.3250137224405014 -2.66326454406292
0.3372439213212569 -2.9446616173908575
0.3539186374836809 -3.217502761226217
0.37559370494299116 -3.4786643915510775
0.40277462025164157 -3.724640235825541
0.43591135187487223 -3.9516034879771595
0.4753636685168342 -4.15545677567064
0.5213566137492409 -4.331915142095286
0.5738759732758307 -4.47665697726745
0.632504121454022 -4.585563903582323
0.6962516674993611 -4.654944250109951
0.7634966474327848 -4.681873063777354
0.8307416273662035 -4.654944250109792
0.8944891734115273 -4.5855639035820035
0.9531173215896965 -4.476656977266988
1.005636681116259 -4.331915142094712
1.051629626348635 -4.155456775669986
1.0910819429905634 -3.9516034879764463
1.1242186746137617 -3.72464023582479
1.1513995899223808 -3.478664391550311
1.1730746573816613 -3.2175027612254596
1.189749373544059 -2.944661617390131
1.2019795724247917 -2.663264544062241
1.2103963938823863 -2.3759224933212004
1.2157313153375715 -2.0846493721431854
1.2187935816292739 -1.7908854734006403
1.2204201505884895 -1.4956323646746221
1.2213083640140174 -1.1995506648025838
1.2218855382842633 -0.9029928527681682
1.2222342219154954 -0.6060457820809474
1.2224032362421393 -0.3086237738696429
1.2243367108002448 -0.007733305330739648
0.377332694259126 -0.008832828792923152
0.37879314653697765 -0.3086917506022152
0.37890968139706627 -0.6060526963784227
0.3791709698910516 -0.90303030431953
0.37963692066064597 -1.1996174246721236
0.38034679090092777 -1.4957654007632164
0.381608770659853 -1.791206705026139
0.38400595285027483 -2.085351795033364
0.3882720627393579 -2.3772147605732092
0.39513246280960307 -2.665330745909805
0.40520124240340316 -2.9476573546671863
0.41899518139024566 -3.221560883946355
0.43696442322627194 -3.483904591247582
0.4595248745553696 -3.7311735402997734
0.48706156901941566 -3.9595277894712333
0.5199048603621991 -4.16484725507011
0.5582857240387946 -4.342810031728326
0.6022762437038556 -4.489029308656594
0.6516719282865548 -4.599280585796094
0.7058179973271531 -4.669727747251466
0.763496647432768 -4.697301822619825
0.8211752975383785 -4.669727747251305
0.8753213665789639 -4.5992805857957695
0.9247170511616442 -4.489029308656128
0.968707570826682 -4.342810031727745
1.0070884345032516 -4.16484725506945
1.0399317258460068 -3.959527789470513
1.0674684203100255 -3.7311735402990154
1.0900288716390971 -3.4839045912468087
1.107998113475099 -3.2215608839455916
1.1217920524619198 -2.9476573546664544
1.1318608320557009 -2.6653307459091216
1.1387212321259312 -2.3772147605725835
1.1429873420150038 -2.085351795032805
1.145384524205419 -1.7912067050256517
1.1466465039643412 -1.4957654007628076
1.1473563742046222 -1.1996174246717917
1.1478223249742163 -0.9030303043192772
1.1480836134682018 -0.6060526963782469
1.1482001483282904 -0.3086917506021172
1.149660600606138 -0.00883282879291076
0.45185632287460487 -0.009709275327170296
0.45293731492612177 -0.30874676457032485
0.45302041900722145 -0.6060595413222293
0.45320798155695996 -0.903056331855714
0.4535662455341402 -1.1996697949557933
0.45411965515243186 -1.4958617756461987
0.45505998444302137 -1.7914319073853453
0.4568479604571741 -2.0858651765436336
0.46009379375278764 -2.3782024480204713
0.465421102859596 -2.666956109822806
0.47334790838832336 -2.950048088857436
0.4842765999346805 -3.2248223024256735
0.49855271130239354 -3.4881319964214113
0.5165036031499469 -3.736458632374628
0.5384494735739934 -3.96595571733154
0.5646822940324029 -4.172488768856081
0.5954331409811439 -4.351710742793337
0.630843907700832 -4.499196051073357
0.6709229362122842 -4.610652896669455
0.7153962775099841 -4.682129877960393
0.763496647432751 -4.7104167788125855
0.8115970173555143 -4.6821298779602305
0.8560703586532034 -4.6106528966691265
0.89614938716464 -4.499196051072884
0.931560153884309 -4.351710742792751
0.9623110008330287 -4.172488768855415
0.9885438212914156 -3.9659557173308144
1.0104896917154398 -3.7364586323738638
1.028440583562973 -3.488131996420632
1.042716694930667 -3.2248223024249048
1.0536453864770066 -2.950048088856699
1.0615721920057188 -2.6669561098221184
1.0668995011125153 -2.378202448019843
1.0701453344081209 -2.0858651765430727
1.0719333104222686 -1.791431907384857
1.072873639712856 -1.49586177564579
1.0734270493311473 -1.199669794955461
1.0737853133083273 -0.9030563318554611
1.073972875858066 -0.6060595413220534
1.0740559799391656 -0.3087467645702267
1.0751369719906796 -0.009709275327156243
0.5262643391075189 -0.010395803608521572
0.5270412383931532 -0.3087914653678945
0.5270994673454567 -0.6060668004858395
0.5272209280511982 -0.9030721790089087
0.5274731543301451 -1.1997087031973466
0.5278820256551809 -1.4959307098225563
0.5285474520999341 -1.7915796027861672
0.5297860905995755 -2.086211168380397
0.5320802424422582 -2.3789023796963225
0.5359296102131007 -2.6681514105301725
0.5417504687084469 -2.951842778922148
0.5498456045339135 -3.2272954182784934
0.5604616041003544 -3.4913549448309094
0.5738346688992741 -3.740503177767942
0.5902147214502065 -3.9708937939459807
0.6098572872289688 -4.17838542014733
0.632986950202634 -4.358615250712154
0.6597838797794223 -4.507142945502774
0.6904422068175026 -4.619655920806353
0.7250927141033915 -4.6921295695468395
0.7634966474327336 -4.721213180973306
0.8019005807620733 -4.692129569546675
0.8365510880479538 -4.619655920806021
0.8672094150860218 -4.507142945502298
0.8940063446627954 -4.358615250711564
0.9171360076364439 -4.178385420146659
0.9367785734151891 -3.9708937939452498
0.9531586259661048 -3.740503177767174
0.9665316907650101 -3.491354944830126
0.9771476903314369 -3.2272954182777203
0.98524282615689 -2.951842778921409
0.9910636846522253 -2.6681514105294823
0.9949130524230589 -2.3789023796956923
0.997207204265736 -2.0862111683798354
0.998445842765374 -1.7915796027856787
0.9991112692101259 -1.4959307098221473
0.9995201405351618 -1.1997087031970148
0.9997723668141084 -0.9030721790086557
0.9998938275198499 -0.6060668004856636
0.9999520564721533 -0.3087914653677963
1.0007289557577856 -0.010395803608506183
0.6005798239489235 -0.010923248509143868
0.60112194525166 -0.30882828419015684
0.6011543658420002 -0.6060736308349578
0.6012133395111214 -0.9030788062841834
0.6013614086292304 -1.199733684865047
0.6016275001969735 -1.4959778958567262
0.6020548014396833 -1.7916696647360884
0.6028161809388891 -2.0864168764370836
0.6042409165641035 -2.3793408159184124
0.6066947533003092 -2.6689371957973225
0.6104759532252768 -2.9530571433666486
0.6157913767305135 -3.2289949470888284
0.6227968218583592 -3.493588285911265
0.6316433788698033 -3.7433217546966864
0.6425055337142787 -3.9743545605895685
0.6555912996393407 -4.182547657856809
0.6711264479762736 -4.363531296251269
0.6893226464547405 -4.51286209960767
0.7104572093982029 -4.62625432298219
0.735041863650938 -4.699679046706688
0.7634966474327156 -4.729659545034621
0.7919514312144917 -4.699679046706523
0.8165360854672212 -4.626254322981856
0.8376706484106751 -4.51286209960719
0.8558668468891311 -4.3635312962506765
0.8714019952260522 -4.1825476578561345
0.8844877611511033 -3.9743545605888344
0.8953499159955683 -3.743321754695915
0.904196473007003 -3.4935882859104788
0.9112019181348398 -3.228994947088053
0.9165173416400682 -2.953057143365906
0.9202985415650283 -2.6689371957966306
0.9227523783012286 -2.3793408159177805
0.9241771139264395 -2.086416876436521
0.9249384934256434 -1.7916696647355992
0.9253657946683526 -1.4959778958563172
0.9256318862360957 -1.1997336848647149
0.9257799553542047 -0.9030788062839304
0.9258389290233258 -0.6060736308347818
0.925871349613666 -0.30882828419005864
0.926413470916401 -0.01092324850912744
0.674819921515317 -0.011321997771213854
0.6751905379505888 -0.3088602052055766
0.6751922533976579 -0.6060781561480839
0.6751893069785995 -0.9030769436787657
0.6752360038512627 -1.1997442722376273
0.6753555289063686 -1.4960047858924213
0.675564431995873 -1.7917184776800137
0.6759217073161918 -2.0865161135507484
0.6765774255478763 -2.3795564762045096
0.6777423634504477 -2.6693479158960054
0.6795796305063465 -2.953719900093898
0.6821967626506604 -3.2299461051060123
0.6856608384538331 -3.494856123708629
0.6900469068106424 -3.744938758724804
0.6954561955213601 -3.9763607161631214
0.7020355102033524 -4.184993502454317
0.7099993657778968 -4.366475158551724
0.719624079166928 -4.51636508484856
0.7312305975741803 -4.630416983630853
0.7454492742291877 -4.704698111093057
0.7634966474326972 -4.735686643075543
0.781544020636206 -4.704698111092891
0.795762697291211 -4.630416983630518
0.8073692156984578 -4.516365084848078
0.8169939290874831 -4.366475158551129
0.8249577846620214 -4.184993502453641
0.8315370993440083 -3.9763607161623855
0.836946388054722 -3.7449387587240315
0.8413324564115274 -3.494856123707842
0.8447965322146966 -3.2299461051052347
0.8474136643590068 -2.9537199000931538
0.8492509314149022 -2.669347915895312
0.8504158693174716 -2.3795564762038772
0.8510715875491546 -2.0865161135501853
0.8514288628694725 -1.7917184776795247
0.8516377659589767 -1.496004785892012
0.8517572910140826 -1.1997442722372953
0.851803987886746 -0.9030769436785127
0.8518010414676875 -0.6060781561479078
0.8518027569147565 -0.3088602052054784
0.8521733733500274 -0.01132199777119664
0.7490029940415155 -0.011618652246837882
0.7492519466343557 -0.30889063693251584
0.7492183834947134 -0.606078248555336
0.7491535906301374 -0.9030670163778175
0.7491013672113018 -1.199740476970241
0.749074307498694 -1.4960106578698384
0.7490634364852811 -1.7917336579931809
0.7490591108169791 -2.0865444617254956
0.749057264786996 -2.3796112427027265
0.7490569317083329 -2.669450954379053
0.749056927565063 -2.9538919010478524
0.7490544251811165 -3.230203717987296
0.7490426353606924 -3.495211027758403
0.7490208289306272 -3.7454049056040835
0.7490138140699192 -3.9769604605543103
0.7491090273816688 -4.185765118963344
0.7495033716447344 -4.3674816198637405
0.750549723382945 -4.517694077192054
0.7527207218662628 -4.6321720818085
0.7565466272921897 -4.707104307593216
0.7634966474326781 -4.739173935515214
0.7704466675731673 -4.707104307593049
0.7742725729990934 -4.632172081808165
0.7764435714824097 -4.517694077191572
0.77748992322062 -4.3674816198631445
0.7778842674836861 -4.185765118962666
0.7779794807954363 -3.976960460553575
0.7779724659347299 -3.74540490560331
0.7779506595046664 -3.4952110277576156
0.7779388696842445 -3.2302037179865186
0.7779363673002992 -2.953891901047108
0.7779363631570305 -2.6694509543783593
0.7779360300783679 -2.379611242702094
0.7779341840483851 -2.0865444617249325
0.7779298583800833 -1.791733657992692
0.7779189873666704 -1.4960106578694294
0.7778919276540628 -1.1997404769699094
0.7778397042352273 -0.9030670163775648
0.7777749113706515 -0.6060782485551599
0.777741348231009 -0.3088906369324177
0.7779903008238487 -0.011618652246820143
0.8231406520285607 -0.011839606628056212
0.8233049390895864 -0.30892118059535156
0.8232374593783675 -0.6060727935513776
0.8231115746015505 -0.9030491949958102
0.8229630579619927 -1.19972264223311
0.8227916030547626 -1.4959952080517303
0.822561348659354 -1.7917159303440229
0.8221950433032694 -2.0865151678883045
0.8215362560820662 -2.3795561543261146
0.8203713643292959 -2.6693478846943766
0.8185341667431261 -2.9537195190591796
0.8159103290533594 -3.2299427765522246
0.8124220959560761 -3.494847750026871
0.8079945622796084 -3.7449293284123613
0.8025773976368014 -3.9763734907146793
0.7961961787509544 -4.185090768064678
0.7890124436049867 -4.366780013321749
0.7813830817273458 -4.517071038293435
0.7738379878451248 -4.631735721875663
0.767142794320479 -4.707012526684664
0.7634966474326584 -4.740204336064585
0.7598505005448375 -4.7070125266844975
0.753155307020192 -4.6317357218753274
0.7456102131379758 -4.517071038292953
0.7379808512603419 -4.366780013321156
0.7307971161143811 -4.185090768064001
0.7244158972285413 -3.9763734907139447
0.7189987325857411 -3.7449293284115894
0.7145711989092804 -3.4948477500260844
0.7110829658120055 -3.2299427765514483
0.7084591281222452 -2.9537195190584367
0.7066219305360809 -2.6693478846936833
0.7054570387833139 -2.379556154325482
0.7047982515621126 -2.0865151678877414
0.704431946206029 -1.791715930343534
0.704201691810621 -1.495995208051321
0.7040302369033913 -1.1997226422327782
0.7038817202638336 -0.9030491949955575
0.7037558354870168 -0.6060727935512016
0.7036883557757978 -0.3089211805952534
0.7038526428368234 -0.011839606628038206
0.8972432173194768 -0.01200685580142978
0.8973509739545512 -0.30895059382674805
0.8972533357343866 -0.606062032672077
0.8970688862880832 -0.9030235992666878
0.8968274972648875 -1.1996913703525312
0.8965152757187776 -1.4959588474735381
0.896066480976395 -1.7916641953460597
0.8952972040051461 -2.0864147220374454
0.8938715869048824 -2.379340326978035
0.8914190185645634 -2.6689372691655797
0.8876370540151313 -2.953055920498276
0.8823142398600314 -3.228987914789714
0.8752879949063328 -3.4935716793133884
0.8664088776221465 -3.7433041128718583
0.8555507598493683 -3.974383149750519
0.8426685658872168 -4.182747058540815
0.8278829327782461 -4.364140308917426
0.8115385834193023 -4.514246969666673
0.794271868034677 -4.628899592536849
0.7773730898024325 -4.704544253729809
0.76349664743264 -4.738958011702114
0.7496202050628471 -4.704544253729642
0.7327214268306054 -4.6288995925365155
0.7154547114459882 -4.5142469696661935
0.6991103620870567 -4.364140308916834
0.6843247289780994 -4.18274705854014
0.6714425350159606 -3.9743831497497863
0.6605844172431952 -3.7433041128710896
0.6517052999590216 -3.493571679312605
0.6446790550053361 -3.2289879147889398
0.6393562408502479 -2.953055920497535
0.6355742763008254 -2.6689372691648874
0.6331217079605129 -2.379340326977403
0.6316960908602534 -2.0864147220368823
0.6309268138890068 -1.7916641953455712
0.630478019146625 -1.4959588474731291
0.6301657976005156 -1.1996913703521996
0.6299244085773202 -0.9030235992664352
0.629739959131017 -0.6060620326719011
0.6296423209108525 -0.3089505938266499
0.6297500775459267 -0.012006855801411583
0.9713281672050026 -0.012131606476569285
0.9713946250480112 -0.30897718507146943
0.9712706554655499 -0.6060465931559981
0.9710311285941098 -0.9029905617837938
0.9707006772711445 -1.19964748450266
0.9702524668466153 -1.4959022286592947
0.9695672723446117 -1.791570550383269
0.9683241098829831 -2.0862082981746526
0.9660322838844021 -2.378902253632822
0.962184152988428 -2.6681514788703016
0.9563612020218012 -2.95184043039456
0.9482596186425916 -3.2272852903967135
0.9376320151228003 -3.491332653450484
0.9242466192028427 -3.7404814019383092
0.9078905066641939 -3.9709405512555285
0.8884341278253989 -4.178679326478943
0.8659321615683823 -4.359496283605109
0.8407451443230166 -4.509151875680794
0.8137569152304875 -4.623617209030188
0.7867630640927642 -4.699597075117206
0.7634966474326216 -4.735511647638224
0.74023023077248 -4.6995970751170395
0.7132363796347618 -4.623617209029856
0.6862481505422443 -4.509151875680318
0.6610611332968951 -4.359496283604522
0.6385591670398978 -4.178679326478273
0.6191027882011209 -3.9709405512547997
0.6027466756624905 -3.740481401937544
0.5893612797425516 -3.491332653449705
0.5787336762227782 -3.227285290395943
0.570632092843585 -2.951840430393822
0.5648091418769724 -2.668151478869613
0.5609610109810079 -2.3789022536321918
0.5586691849824337 -2.086208298174091
0.5574260225208085 -1.7915705503827803
0.5567408280188068 -1.4959022286588861
0.5562926175942781 -1.1996474845023284
0.5559621662713131 -0.9029905617835412
0.5557226393998731 -0.6060465931558221
0.555598669817412 -0.3089771850713714
0.5556651276604205 -0.012131606476550918
1.045409820711713 -0.012220664094383426
1.0454420097931176 -0.30899946377576104
1.0452939431986048 -0.6060269219355655
1.0450030345822159 -0.9029506348244873
1.0445879471714068 -1.1995920498325803
1.0440042938026075 -1.4958238935683388
1.043048385558511 -1.7914195290762174
1.041261660806184 -2.0858628105092305
1.0380194340144575 -2.378202907880037
1.0326922990872454 -2.666955841530506
1.0247621369209057 -2.9500444794816416
1.013829758144062 -3.224810528506242
0.9995565459610852 -3.4881087627204694
0.9816242525686135 -3.7364399118778873
0.9597301346613406 -3.9660224264980912
0.9336467858287331 -4.172857271911378
0.9033560332429766 -4.352810164158595
0.8692786001817379 -4.501762249576568
0.8325975292011564 -4.615889378427855
0.795796256489545 -4.69226536483179
0.7634966474326033 -4.729974881321114
0.7311970383756644 -4.6922653648316235
0.6943957656640612 -4.615889378427525
0.6577146946834949 -4.501762249576096
0.6236372616222762 -4.352810164158012
0.5933465090365441 -4.172857271910714
0.5672631602039601 -3.9660224264973682
0.5453690422967116 -3.736439911877127
0.5274367489042637 -3.488108762719696
0.51316353672131 -3.2248105285054764
0.5022311579444871 -2.9500444794809084
0.4943009957781658 -2.6669558415298207
0.4889738608509668 -2.3782029078794094
0.4857316340592493 -2.0858628105086696
0.48394490930692735 -1.7914195290757289
0.4829890010628336 -1.49582389356793
0.48240534769403504 -1.1995920498322485
0.4819902602832262 -0.9029506348242348
0.4816993516668376 -0.6060269219353893
0.481551285072325 -0.3089994637756631
0.48158347415372943 -0.012220664094364918
1.1194968969555252 -0.012280124667429738
1.1194996269497892 -0.3090161514827908
1.1193284242160266 -0.60600324597791
1.118989758126293 -0.9029045382065468
1.1184950530546782 -1.199526158016961
1.1177672509919347 -1.495719289526719
1.1164981406634458 -1.7911925856924737
1.114104714697982 -2.0853507241106186
1.1098419463018598 -2.377215632604756
1.1029802197578267 -2.6653297753753806
1.0929075896418996 -2.947652613106503
1.0791144772562755 -3.221549584922412
1.0611657164086634 -3.4838866770373667
1.0386600194456566 -3.7311673574491433
1.0112092140952669 -3.9596166712662497
0.9784856815626521 -4.165266928973553
0.9404103683546009 -4.34407041731754
0.8974772497327386 -4.49207691456231
0.8512179467837842 -4.605748761243812
0.8047738311714991 -4.682604637896224
0.7634966474325856 -4.722367554871215
0.7222194636936756 -4.68260463789606
0.675775348081402 -4.605748761243486
0.6295160451324662 -4.492076914561843
0.5865829265106279 -4.3440704173169635
0.5485076133026053 -4.165266928972896
0.5157840807700197 -3.959616671265532
0.4883332754196599 -3.73116735744839
0.4658275784566824 -3.4838866770365997
0.44787881760909837 -3.221549584921652
0.43408570522349976 -2.947652613105775
0.4240130751075944 -2.6653297753746994
0.41715134856357816 -2.377215632604131
0.41288858016746754 -2.0853507241100595
0.41049515420201066 -1.7911925856919861
0.4092260438735251 -1.4957192895263107
0.4084982418107828 -1.1995261580166294
0.4080035367391685 -0.9029045382062942
0.4076648706494353 -0.6060032459777339
0.40749366791567304 -0.30901615148269274
0.40749639790993686 -0.012280124667411152
1.1935952783297967 -0.012315796472037567
1.1935731703803363 -0.3090264431961106
1.1933797058508162 -0.6059756058068855
1.1929961768107384 -0.9028530835212903
1.1924239455181362 -1.1994496247042599
1.1915342928939696 -1.495580471172593
1.1899088815624297 -1.7908713021160725
1.1868510389507672 -2.0846495437049932
1.181517526419187 -2.3759234091048684
1.1730979724887254 -2.6632626058786677
1.1608645651747447 -2.9446562324852215
1.1441970108616726 -3.217494506522302
1.122560009804791 -3.478658292070614
1.0954671340827902 -3.724656643368555
1.0624569758011817 -3.951720074794071
1.0231330876157763 -4.155912483036829
0.9773561106636138 -4.333288486591075
0.9256850353973111 -4.480116984883634
0.8699652786123255 -4.593221825006592
0.8138979453709243 -4.67061865900587
0.7634966474325682 -4.71265492169202
0.7130953494942163 -4.670618659005707
0.6570280162528291 -4.593221825006269
0.6013082594678659 -4.480116984883172
0.5496371842015919 -4.333288486590505
0.5038602072494627 -4.155912483036181
0.46453631906409143 -3.951720074793361
0.431526160782518 -3.72465664336781
0.40443328506055193 -3.4786582920698548
0.3827962840037033 -3.21749450652155
0.3661287296906611 -2.9446562324845
0.3538953223767059 -2.663262605877992
0.34547576844626404 -2.375923409104247
0.34014225591469827 -2.0846495437044363
0.3370844133030446 -1.7908713021155862
0.3354590019715095 -1.4955804711721854
0.3345693493473443 -1.1994496247039286
0.33399711805474264 -0.9028530835210377
0.33361358901466515 -0.6059756058067094
0.33342012448514524 -0.3090264431960125
0.33339801653568507 -0.012315796472018912
1.2677087588628553 -0.01233341631352413
1.267667362885514 -0.3090300742230426
1.2674535132711067 -0.6059440173230894
1.2670273122967042 -0.902796948448969
1.2663760647291114 -1.1993611902607233
1.2652992485955303 -1.4953974852884475
1.2632720970457056 -1.7904370443024074
1.2595003164356522 -2.083743006691808
1.253079829838059 -2.3743184427381534
1.2430930474134751 -2.660749186254171
1.228698080464946 -2.9410516661570845
1.2091601776579812 -3.2126423049101747
1.1838374588581582 -3.472419945760721
1.1521573666526095 -3.716904529950177
1.1136046835310847 -3.9423372456888295
1.0677521245192798 -4.144814303213042
1.0144390853231093 -4.320499881988953
0.9542332853648976 -4.465918552691797
0.8891601581731696 -4.578317405859841
0.8233533888918092 -4.656266588031339
0.7634966474325509 -4.700757993714625
0.7036399059732976 -4.65626658803118
0.6378331366919534 -4.578317405859523
0.5727600095002513 -4.465918552691342
0.5125542095420733 -4.320499881988392
0.4592411703459407 -4.144814303212401
0.41338861133417537 -3.942337245688129
0.3748359282126907 -3.716904529949441
0.3431558360071818 -3.472419945759971
0.3178331172073966 -3.2126423049094304
0.29829521440046625 -2.9410516661563704
0.2839002474519663 -2.660749186253501
0.2739134650274053 -2.3743184427375366
0.2674929784298289 -2.083743006691254
0.26372119781978615 -1.7904370443019229
0.2616940462699674 -1.4953974852880405
0.2606172301363886 -1.199361190260392
0.25996598256879644 -0.9027969484487164
0.2595397815943941 -0.6059440173229134
0.25932593197998727 -0.30903007422294454
0.25928453600264584 -0.01233341631350544
1.3418390337620856 -0.012338771692376347
1.3417858589519656 -0.30902739770914783
1.3415560184923323 -0.6059086392854152
1.341088657531738 -0.9027366668510343
1.3403503290687655 -1.199257350079674
1.3390550487175132 -1.4951578245269908
1.3365798125829822 -1.7898740865096556
1.3320748344914306 -2.082623880643121
1.3245595647107231 -2.372397410157079
1.3130125064856655 -2.6577887784292242
1.2964723217238032 -2.93684008451495
1.2740842213485435 -3.2069945187439517
1.2450973557925036 -3.4651726672254815
1.2088496216955682 -3.707912105362181
1.164778474245529 -3.9314760648004805
1.1124834364231606 -4.132003772825436
1.0518572532985653 -4.305765411155932
0.9834328047594348 -4.449535515262413
0.9091409143146724 -4.561030936529185
0.8333754108397318 -4.639463981470214
0.7634966474325331 -4.6865441598966235
0.6936178840253403 -4.6394639814700565
0.6178523805504187 -4.561030936528873
0.5435604901056864 -4.4495355152619664
0.4751360415665942 -4.30576541115538
0.4145098584420419 -4.132003772824806
0.36221482061971844 -3.931476064799791
0.31814367316972403 -3.707912105361456
0.281895939072834 -3.465172667224741
0.25290907351683684 -3.206994518743217
0.23052097314161565 -2.9368400845142437
0.21398078837978632 -2.657788778428561
0.202433730154754 -2.3723974101564673
0.19491846037406596 -2.0826238806425708
0.19041348228252689 -1.7898740865091731
0.18793824614800309 -1.4951578245265846
0.1866429657967538 -1.1992573500793429
0.18590463733378193 -0.9027366668507818
0.1854372763731878 -0.6059086392852392
0.18520743591355487 -0.30902739770904986
0.18515426110343502 -0.012338771692357656
1.4159850829238345 -0.012337721251109003
1.4159311595981896 -0.30901958555384684
1.415694471983724 -0.6058700870469794
1.4151856604288926 -0.9026717354195168
1.4143429292454333 -1.1991325604870968
1.4127927328251957 -1.4948467787529036
1.4098391588646357 -1.789172822040547
1.4045903348194408 -2.081288868834049
1.3959877733195942 -2.3701607625540415
1.382903732867538 -2.6543852776382857
1.3642516324965899 -2.932026923591161
1.3390513137949118 -3.200557283913444
1.3064377674399865 -3.4569222873390353
1.265660751717333 -3.6976854318959123
1.216123247493173 -3.919147948966409
1.1574650317318493 -4.1175117070872504
1.0897109830521094 -4.2891564951542485
1.0134778963165554 -4.431066071349132
0.930402875153247 -4.541372430003917
0.8443404991195574 -4.620066088498751
0.7634966474325149 -4.669798086490343
0.6826527957454801 -4.620066088498597
0.5965904197118114 -4.541372430003611
0.5135153985485379 -4.431066071348694
0.4372823118130271 -4.2891564951537084
0.3695282631333358 -4.117511707086632
0.3108700473720622 -3.919147948965732
0.26133254314795207 -3.6976854318951977
0.22055552742534895 -3.456922287338307
0.18794198107047122 -3.2005572839127203
0.16274166236883603 -2.9320269235904646
0.14408956199792394 -2.65438527763763
0.13100552154589593 -2.3701607625534358
0.12240296004607082 -2.0812888688335027
0.11715413600089049 -1.7891728220400667
0.11420056204033917 -1.4948467787524986
0.11265036562010503 -1.199132560486766
0.1118076344366469 -0.9026717354192643
0.11129882288181589 -0.6058700870468035
0.11106213526735027 -0.3090195855537489
0.1110082119417056 -0.012337721251090289
1.49014183476995 -0.012336007220678572
1.4901044631028173 -0.3090091967638066
1.4898785824275174 -0.6058296831991025
1.4893227398452689 -0.9025994919992245
1.488347610850703 -1.198977345246076
1.486509315904871 -1.4944538231727722
1.4830596456134681 -1.7883278574210044
1.477064347816773 -2.079737476655494
1.467395369581533 -2.3676133157228914
1.452814238948387 -2.6505470231324146
1.4321021611156288 -2.926622283379118
1.404142736207916 -3.1933405492796982
1.3679561937281408 -3.447679336477605
1.3227170368084336 -3.6862379554466114
1.267790520472024 -3.905369187802054
1.2028514465908566 -4.101360736145529
1.128068114207669 -4.2707252819574
1.0443035028259842 -4.410634352052588
0.9532471216070219 -4.519504445336242
0.8576007591070054 -4.5978919070996875
0.7634966474324965 -4.6499999999999915
0.6693925357579958 -4.5978919070995365
0.5737461732580025 -4.519504445335944
0.48268979203908025 -4.410634352052161
0.39892518065744514 -4.270725281956871
0.3241418482743114 -4.101360736144923
0.25920277439319916 -3.90536918780139
0.20427625805684452 -3.68623795544591
0.1590371011371931 -3.4476793364768894
0.12285055865747013 -3.1933405492789864
0.0948911337498044 -2.926622283378432
0.07417905591708575 -2.650547023131767
0.059597925283970205 -2.367613315722292
0.04992894704875375 -2.079737476654952
0.043933649252075414 -1.788327857420527
0.04048397896068198 -1.4944538231723683
0.03864568401485425 -1.1989773452457455
0.03767055502028991 -0.9025994919989722
0.037114712438041916 -0.6058296831989266
0.03688883176274214 -0.3090091967637087
0.03685146009560973 -0.012336007220659848
SCALARS Stress float 6
LOOKUP_TABLE default
-1319.6003922696261 -2126.694311426936 -1647.6024959720603 -31.069100912974346 0.0 0.0
1402.2457866036902 828.7304362536 1059.8690528783368 -19.210139076246733 0.0 0.0
646.6911224928325 185.11821742069435 274.64563509629744 -42.821503830685884 0.0 0.0
511.1831606667832 37.60888358269368 173.18355116637005 -0.3963662213821846 0.0 0.0
644.3299034711322 93.07153118953627 276.44731396970974 3.502900848042451 0.0 0.0
777.1832987448955 152.49706355787538 416.18746980016 1.6723909576037443 0.0 0.0
917.650600567947 216.99128620268834 545.8725638240547 0.18484976847755386 0.0 0.0
1063.830921154031 299.7109763490682 668.6709955699862 -1.3517452612509706 0.0 0.0
1221.3605566387441 399.3008354836107 798.8909662715447 -3.2042284017292095 0.0 0.0
1398.3160731417136 523.1425816219023 949.4017172906158 -5.229742589743685 0.0 0.0
1600.445079018942 676.6750889306454 1126.8872568891416 -7.091804062283169 0.0 0.0
1827.3053617007695 859.7043404763789 1331.3925902664714 -8.462391649690094 0.0 0.0
2072.753216406805 1064.8610971525134 1556.2483193977862 -9.299389191797339 0.0 0.0
2328.713861723576 1283.8659097945872 1793.3133631807282 -9.930024141196744 0.0 0.0
2584.9613065024214 1506.3094813487571 2032.265325651458 -10.310342020240466 0.0 0.0
2829.4841759390824 1720.2013671822863 2261.1281819403707 -10.326937742449246 0.0 0.0
3049.6138740644346 1913.203193182599 2467.4332688378336 -9.815020077862943 0.0 0.0
3233.152201011947 2073.555698442514 2639.207869101879 -8.77745094635593 0.0 0.0
3380.0822349940167 2201.7171578308194 2776.5263699346087 -7.784678161853793 0.0 0.0
3474.9052611631337 2282.982268208205 2864.2678628996036 -10.804457919161573 0.0 0.0
3466.943442535213 2274.5378453345334 2856.201902756719 -4.128253294766182e-11 0.0 0.0
3474.905261164134 2282.982268209269 2864.2678629001807 10.80445791921942 0.0 0.0
3380.082234994167 2201.7171578310235 2776.526369934645 7.784678161908587 0.0 0.0
3233.152201010034 2073.5556984407103 2639.207869100006 8.777450946415192 0.0 0.0
3049.613874062182 1913.2031931804618 2467.43326883583 9.81502007776965 0.0 0.0
2829.484175938915 1720.201367182257 2261.128181940117 10.32693774251212 0.0 0.0
2584.961306502124 1506.3094813486737 2032.2653256506328 10.310342020175241 0.0 0.0
2328.7138617218798 1283.8659097930372 1793.3133631793842 9.930024141165825 0.0 0.0
2072.753216407999 1064.861097153989 1556.2483193981677 9.299389191745034 0.0 0.0
1827.3053616981313 859.7043404739666 1331.392590264443 8.462391649663166 0.0 0.0
1600.4450790174967 676.6750889294556 1126.887256887887 7.09180406242224 0.0 0.0
1398.3160731408993 523.1425816213542 949.4017172898442 5.229742589651538 0.0 0.0
1221.3605566376557 399.30083548280925 798.890966270649 3.2042284018271907 0.0 0.0
1063.830921153195 299.71097634852435 668.6709955692735 1.3517452613601115 0.0 0.0
917.6506005669147 216.99128620189992 545.8725638232075 -0.18484976849760848 0.0 0.0
777.183298744849 152.49706355824043 416.18746979987367 -1.672390957583973 0.0 0.0
644.3299034704633 93.07153118908305 276.44731396913284 -3.5029008479641206 0.0 0.0
511.18316066677653 37.608883582975686 173.18355116639228 0.39636622139154376 0.0 0.0
646.6911224918002 185.11821741942737 274.6456350956018 42.82150383064101 0.0 0.0
1402.245786603322 828.730436253354 1059.8690528778898 19.21013907606531 0.0 0.0
-1319.600392266842 -2126.6943114241863 -1647.6024959692782 31.069100912411383 0.0 0.0
-1680.2385955786451 -2459.0983832089214 -1964.1540601675392 -34.02805663728806 0.0 0.0
957.0600036078596 456.6663363620869 667.4779393143272 -26.785788050641585 0.0 0.0
453.55779471008344 72.24361739412556 157.26808022782689 -37.73827202749241 0.0 0.0
449.5670141773094 9.580718361738779 141.52658932707652 -15.511251602372283 0.0 0.0
568.8703517668176 42.26305018725441 220.42858332849633 -17.361691213004104 0.0 0.0
675.8995333962093 61.28904519934481 325.09016934087816 -23.513433746643383 0.0 0.0
768.5139640970111 83.13492946439675 413.9414944825196 -24.70047133621606 0.0 0.0
856.6832370010138 106.21390238863235 478.82987895335964 -24.98935406658326 0.0 0.0
936.2640605196639 127.3317201620394 530.7534176651815 -25.794742499274776 0.0 0.0
1008.7762990153614 147.06756620011478 577.2226193021165 -26.775037392118747 0.0 0.0
1077.6308574684365 168.02905892186718 622.2086473357483 -27.33373966978746 0.0 0.0
1145.3973171247487 191.9606175493068 668.0758550610568 -27.373041261809657 0.0 0.0
1211.692930642388 218.9602391427182 714.741593443452 -26.99897206192145 0.0 0.0
1273.9317346802243 244.72117660418246 758.756136192032 -26.420669465734647 0.0 0.0
1326.9108240330124 264.3761579073359 795.0928941611369 -25.620573243599818 0.0 0.0
1366.450697071732 273.6971852236377 819.5461687330724 -24.34607763747177 0.0 0.0
1390.1440818464673 270.4860577116091 829.8032669779209 -22.368455992598243 0.0 0.0
1398.5069586425009 255.6877926548216 826.5899689693827 -19.83398265035125 0.0 0.0
1383.929839388763 222.41520321492436 802.7859871683993 -17.728817653642963 0.0 0.0
1295.71248560817 121.22890219929249 708.8062777861353 -19.173370076754946 0.0 0.0
1152.1894281349755 -21.8463859568991 566.580385510448 4.3016257222916465e-11 0.0 0.0
1295.712485608052 121.22890219918634 708.8062777860667 19.173370076800744 0.0 0.0
1383.929839389468 222.4152032157242 802.7859871690995 17.728817653783167 0.0 0.0
1398.5069586429158 255.68779265533982 826.5899689697596 19.83398265056675 0.0 0.0
1390.1440818458334 270.4860577110832 829.8032669776619 22.36845599255735 0.0 0.0
1366.450697070832 273.6971852228796 819.5461687325187 24.346077637598206 0.0 0.0
1326.910824032419 264.3761579069054 795.0928941606699 25.620573243657816 0.0 0.0
1273.9317346788816 244.72117660300654 758.7561361911836 26.420669465772594 0.0 0.0
1211.6929306437808 218.96023914433343 714.7415934443741 26.998972061935397 0.0 0.0
1145.3973171236148 191.96061754842125 668.0758550603759 27.37304126177928 0.0 0.0
1077.6308574682203 168.02905892190608 622.2086473356103 27.33373966989727 0.0 0.0
1008.7762990154492 147.06756620046457 577.2226193021685 26.77503739201642 0.0 0.0
936.2640605191256 127.33172016176992 530.753417664783 25.794742499265933 0.0 0.0
856.6832370014573 106.21390238945028 478.82987895360486 24.989354066670025 0.0 0.0
768.5139640958078 83.13492946342856 413.9414944816685 24.700471336128327 0.0 0.0
675.899533395873 61.28904519935785 325.09016934049237 23.51343374671294 0.0 0.0
568.870351766474 42.263050187253235 220.42858332819256 17.361691213066774 0.0 0.0
449.56701417716533 9.58071836207634 141.52658932711472 15.511251602317834 0.0 0.0
453.5577947095557 72.24361739345576 157.268080227484 37.73827202737205 0.0 0.0
957.0600036072303 456.66633636152585 667.4779393136314 26.785788050553236 0.0 0.0
-1680.238595576522 -2459.098383206694 -1964.1540601653683 34.02805663689156 0.0 0.0
-1418.4863774738094 -2162.219353681624 -1675.133563227017 -72.52831131630523 0.0 0.0
779.5599903709084 364.20823485740453 525.0485011202054 -94.71065855309512 0.0 0.0
313.47385482580825 82.79893143027664 118.94451351295584 -42.21785065140184 0.0 0.0
386.23949691184293 3.136466828496342 117.24434608236231 -37.437254172190244 0.0 0.0
523.5398503680397 31.954515398246617 188.37014405119757 -39.9231751129577 0.0 0.0
641.8121713684316 55.13568988862227 293.05717666992723 -43.90821415397117 0.0 0.0
737.7854100482448 77.06958793043245 390.0361394268608 -45.57193272223952 0.0 0.0
825.115872093467 96.05741738206711 456.61425691602506 -46.42639937782003 0.0 0.0
901.158831108437 113.17989717977713 505.7615568802587 -48.011334330400125 0.0 0.0
969.6033688469872 128.9025162396161 548.2620948886228 -49.35448947785791 0.0 0.0
1035.2596025503258 147.2017606091281 590.3092805872449 -49.721830147202795 0.0 0.0
1100.2552459336375 169.51298076143203 633.991810605312 -49.23499515441104 0.0 0.0
1164.0583907986784 193.9093388667098 678.1314342332414 -48.33107027183935 0.0 0.0
1223.2711179201456 217.77207606694395 719.6966175607868 -47.12663724771713 0.0 0.0
1274.9677794475465 236.66501761359794 755.0029728378097 -45.55494587075766 0.0 0.0
1315.102924473678 246.95159772729332 780.2231658625113 -43.297532768004174 0.0 0.0
1340.9900448136887 246.06688462502652 792.7500794479477 -40.06102783023035 0.0 0.0
1347.7929672338348 229.67119819990938 788.0507262484299 -36.20913928992807 0.0 0.0
1320.3990908036722 183.65235246149962 751.6332678346361 -32.92587258175287 0.0 0.0
1271.5645066116551 122.18333737965841 696.8402036549841 -31.401820375756643 0.0 0.0
1108.0368827765699 -40.10043358812811 535.1312488103368 -4.063593905812013e-11 0.0 0.0
1271.5645066109223 122.18333737896047 696.8402036543628 31.40182037576804 0.0 0.0
1320.399090804182 183.65235246210278 751.6332678350376 32.92587258178859 0.0 0.0
1347.7929672340572 229.67119820019352 788.0507262488627 36.209139290023195 0.0 0.0
1340.9900448117278 246.06688462317365 792.750079446693 40.06102783009963 0.0 0.0
1315.1029244714143 246.95159772513432 780.2231658608915 43.297532768014015 0.0 0.0
1274.9677794465365 236.6650176127669 755.0029728371632 45.55494587073454 0.0 0.0
1223.2711179185062 217.77207606544334 719.6966175596358 47.12663724768146 0.0 0.0
1164.0583907993916 193.9093388676205 678.1314342337271 48.331070271778565 0.0 0.0
1100.2552459336353 169.51298076172148 633.991810605383 49.234995154455774 0.0 0.0
1035.2596025498578 147.20176060890157 590.3092805869775 49.72183014730835 0.0 0.0
969.6033688463707 128.9025162391922 548.2620948882272 49.35448947762745 0.0 0.0
901.1588311076265 113.17989717920496 505.76155687971726 48.0113343303058 0.0 0.0
825.1158720939986 96.05741738291324 456.61425691633525 46.4263993778246 0.0 0.0
737.7854100472398 77.0695879296786 390.0361394260966 45.57193272200567 0.0 0.0
641.8121713676746 55.135689888099634 293.0571766692955 43.9082141540034 0.0 0.0
523.5398503677601 31.954515398279263 188.3701440509855 39.92317511273614 0.0 0.0
386.23949691175204 3.1364668288000264 117.24434608242491 37.43725417209805 0.0 0.0
313.47385482570087 82.7989314300183 118.94451351284211 42.21785065124419 0.0 0.0
779.5599903701154 364.2082348568826 525.0485011194564 94.71065855294059 0.0 0.0
-1418.4863774717164 -2162.219353679335 -1675.13356322479 72.52831131620212 0.0 0.0
-1166.4555647343961 -1879.4663650555824 -1402.3189099829967 -86.34821484452212 0.0 0.0
598.7012356341506 269.0313271135707 391.1351690586225 -145.9448942690437 0.0 0.0
226.00548801740797 68.5770133194363 88.37475040105326 -63.47638488395957 0.0 0.0
321.16077956169767 8.758526094238555 98.69705638176762 -60.73825979498207 0.0 0.0
467.52504590583897 19.357972188417857 155.68439183729777 -65.0696843468841 0.0 0.0
595.691906049005 47.43458331909758 255.19912009841408 -65.48339664606529 0.0 0.0
703.2857495081557 69.17474628807675 360.2953769851299 -67.74028862025786 0.0 0.0
788.6879872985347 86.08946938159075 430.9958598503001 -68.01485684046888 0.0 0.0
861.916568886916 99.31918720204717 478.58235455446373 -69.78735504213833 0.0 0.0
926.6642938683832 111.37630514444368 517.6357243614113 -71.11034726162487 0.0 0.0
988.7314239177068 126.64168583926936 556.3761683970413 -71.14809734535147 0.0 0.0
1050.9838382350306 146.43856416223687 597.4375743495406 -70.25409135567895 0.0 0.0
1111.83925222046 169.13967951061557 639.2886138663296 -68.82111428267935 0.0 0.0
1168.5081017202374 190.21785021452905 678.197385219861 -67.07696363293641 0.0 0.0
1218.5704930135746 208.153333450545 712.1969075834126 -64.80073880903144 0.0 0.0
1259.829459962633 220.07410215086927 738.7939650149002 -61.72062650430072 0.0 0.0
1287.3428002790893 220.71480329856874 752.925926031975 -57.69015384774026 0.0 0.0
1293.0507358237903 203.04169820609934 747.1141093548714 -52.98479474361842 0.0 0.0
1273.698393911796 164.80961750022993 718.5672747295442 -47.9197014582856 0.0 0.0
1245.1576358116924 122.9768975929523 683.582547330704 -41.91930182943105 0.0 0.0
1017.1770761139737 -103.17663134149475 458.3593307799827 -4.973799150320701e-14 0.0 0.0
1245.157635810967 122.97689759224906 683.5825473302949 41.91930182957147 0.0 0.0
1273.6983939122672 164.80961750071975 718.5672747297684 47.9197014581728 0.0 0.0
1293.0507358252692 203.04169820779614 747.1141093561515 52.984794743832424 0.0 0.0
1287.342800277471 220.71480329708046 752.925926030831 57.69015384793552 0.0 0.0
1259.8294599616393 220.07410214999035 738.7939650142491 61.72062650438963 0.0 0.0
1218.570493013305 208.1533334504332 712.1969075832753 64.80073880895213 0.0 0.0
1168.5081017185885 190.21785021303836 678.1973852187101 67.07696363300859 0.0 0.0
1111.839252220186 169.13967951049892 639.2886138661302 68.82111428260797 0.0 0.0
1050.983838235247 146.43856416272058 597.4375743496995 70.25409135569306 0.0 0.0
988.7314239167639 126.64168583859083 556.3761683963995 71.14809734545055 0.0 0.0
926.6642938672052 111.37630514345904 517.635724360674 71.11034726149143 0.0 0.0
861.9165688867821 99.31918720217318 478.5823545543939 69.78735504207556 0.0 0.0
788.687987298179 86.08946938149938 430.9958598500443 68.01485684037348 0.0 0.0
703.2857495074222 69.17474628762461 360.29537698449684 67.74028862013768 0.0 0.0
595.6919060486167 47.43458331910177 255.19912009803656 65.48339664605419 0.0 0.0
467.52504590522955 19.357972187996484 155.68439183693093 65.06968434668163 0.0 0.0
321.1607795617073 8.758526094372952 98.69705638181178 60.73825979494844 0.0 0.0
226.00548801734192 68.57701331926633 88.37475040098245 63.476384883782856 0.0 0.0
598.7012356335539 269.0313271133346 391.1351690580603 145.9448942689234 0.0 0.0
-1166.4555647325199 -1879.4663650536058 -1402.318909980996 86.34821484437143 0.0 0.0
-945.796060071315 -1633.2968548503625 -1161.7499586442293 -84.72705880177566 0.0 0.0
464.5521918893257 183.2654482544678 285.06991818967896 -179.32350357154752 0.0 0.0
164.85752754571533 52.809898968136444 65.30022795415553 -94.43346592061556 0.0 0.0
260.98027680680127 15.083302683422662 82.78817100174908 -86.16737168507552 0.0 0.0
401.3871644023826 11.045969042290238 126.21874669119337 -91.8469840558008 0.0 0.0
539.7885844114724 34.45748832760838 212.2667851320135 -90.64710447547628 0.0 0.0
657.6956005361036 59.98744966412306 321.80616828854835 -90.18744492854542 0.0 0.0
746.4528050447374 76.66457258192978 401.16970180904246 -89.98916483967957 0.0 0.0
817.9433895184304 86.08496374429657 448.82347688113305 -91.03974223517277 0.0 0.0
879.0484304900256 94.21854419584326 484.66568203212586 -92.00875218796547 0.0 0.0
937.8051471313871 106.19632961290976 520.1528872471389 -91.63425294311574 0.0 0.0
996.7972196463344 123.28018188770412 558.2458698483781 -90.32991995437466 0.0 0.0
1054.82714252596 143.25093197051544 597.3436458195238 -88.53516713807066 0.0 0.0
1108.8726341180675 163.07800908710604 634.3447739046186 -86.22745433382373 0.0 0.0
1157.3699881174311 179.4741819495117 666.798181915124 -83.2901393834114 0.0 0.0
1198.4883488478258 191.1073942814272 693.1651554069526 -79.65161341876659 0.0 0.0
1228.186738838288 194.26465234178127 709.6632459199318 -75.20439390943883 0.0 0.0
1239.671818973233 182.1014037782542 709.5074926420555 -69.82555358822046 0.0 0.0
1229.9422417047144 152.67367601991324 690.1568251157546 -62.718706883865146 0.0 0.0
1211.07563188062 118.99922486677491 664.0382048490505 -52.67040887802669 0.0 0.0
904.3927144021682 -185.0772428297807 361.39782924275494 4.1731951228030084e-11 0.0 0.0
1211.0756318793217 118.99922486548286 664.0382048485899 52.670408878062105 0.0 0.0
1229.9422417054548 152.67367602075294 690.1568251161472 62.71870688397574 0.0 0.0
1239.6718189753713 182.10140378058728 709.5074926436549 69.82555358853901 0.0 0.0
1228.1867388383712 194.26465234203593 709.6632459199641 75.20439390969324 0.0 0.0
1198.4883488482628 191.1073942820548 693.1651554074142 79.6516134189599 0.0 0.0
1157.3699881164332 179.4741819486236 666.7981819144068 83.29013938341991 0.0 0.0
1108.8726341166357 163.0780090858415 634.3447739036345 86.22745433378206 0.0 0.0
1054.8271425251478 143.25093196980862 597.3436458190299 88.53516713787484 0.0 0.0
996.7972196464374 123.28018188798885 558.2458698483889 90.32991995422715 0.0 0.0
937.8051471311056 106.19632961298089 520.1528872469199 91.6342529432959 0.0 0.0
879.0484304888299 94.21854419488413 484.66568203142504 92.0087521879834 0.0 0.0
817.9433895185837 86.08496374473766 448.8234768812457 91.03974223521566 0.0 0.0
746.4528050436978 76.6645725811155 401.1697018083294 89.98916483958395 0.0 0.0
657.6956005355178 59.98744966386592 321.8061682880056 90.18744492853412 0.0 0.0
539.7885844116736 34.457488328380606 212.26678513205593 90.64710447556084 0.0 0.0
401.3871644017247 11.045969041759495 126.21874669082743 91.8469840556719 0.0 0.0
260.98027680669986 15.083302683301552 82.78817100167994 86.16737168508956 0.0 0.0
164.8575275456746 52.80989896815971 65.30022795415029 94.43346592041772 0.0 0.0
464.5521918887256 183.26544825435448 285.0699181892163 179.32350357163352 0.0 0.0
-945.7960600696559 -1633.2968548486645 -1161.7499586424565 84.7270588015489 0.0 0.0
-751.1944912099041 -1415.901929470388 -947.2632230557939 -79.70807958567032 0.0 0.0
359.12329800838415 116.24328874870702 202.7736229950627 -199.26130929613893 0.0 0.0
119.21406659828024 35.97169765627382 46.55572927636622 -124.3432199463889 0.0 0.0
208.10474790077294 19.450176886376173 68.27189671803164 -111.89372184625502 0.0 0.0
329.6994947723822 6.845135001691523 100.51811920488399 -118.96434668002375 0.0 0.0
468.9193547638918 21.37220533255571 168.58726148717795 -117.31655991240284 0.0 0.0
596.4580321795647 50.01354670761017 274.4196789077426 -113.81080759603938 0.0 0.0
696.7260889637435 65.02604453384382 363.29441646568966 -112.86943079818411 0.0 0.0
766.4785768694277 73.15538842070347 414.54801266823955 -111.77890816068336 0.0 0.0
825.9269922168371 77.23395219320628 448.6619459054138 -112.03907629501663 0.0 0.0
881.271812516133 85.82549866376573 480.9231352745749 -111.14269525995634 0.0 0.0
936.990853464067 100.12876774817762 516.0153944375936 -109.40062854728602 0.0 0.0
991.8901139117446 117.75616760665216 552.3997708496388 -107.25222400806355 0.0 0.0
1043.185018382162 134.8500148827726 586.6897147319174 -104.5994330266567 0.0 0.0
1089.6187929662449 149.85616683477096 617.4427835163169 -101.10125959840587 0.0 0.0
1130.1533039110411 161.45479600351356 643.5058235912174 -96.88397670001487 0.0 0.0
1163.043220641826 167.21247738046156 662.8571453893006 -92.30387762536455 0.0 0.0
1183.469804976237 163.72868144157746 671.49465366611 -86.59333862929712 0.0 0.0
1184.5423507994556 144.09533058438097 662.4756153482034 -77.90481655049942 0.0 0.0
1171.5009781001422 113.87062809787726 641.0082340797923 -64.45032002349818 0.0 0.0
772.4044662486414 -281.2603179214356 247.8808956092879 5.808331593470939e-11 0.0 0.0
1171.5009780997607 113.87062809756614 641.0082340797844 64.45032002359247 0.0 0.0
1184.5423507999003 144.09533058491772 662.4756153485741 77.90481655076196 0.0 0.0
1183.4698049774183 163.72868144292983 671.4946536668435 86.59333862950396 0.0 0.0
1163.0432206412524 167.21247737994844 662.8571453889194 92.30387762539732 0.0 0.0
1130.1533039113704 161.4547960039648 643.5058235916678 96.88397669991792 0.0 0.0
1089.6187929645075 149.85616683321638 617.4427835151799 101.10125959858128 0.0 0.0
1043.1850183817903 134.85001488255608 586.689714731672 104.59943302663865 0.0 0.0
991.8901139116432 117.75616760667984 552.3997708495492 107.25222400791978 0.0 0.0
936.9908534649319 100.12876774933306 516.0153944381627 109.40062854737339 0.0 0.0
881.2718125169447 85.82549866492474 480.9231352751542 111.1426952600927 0.0 0.0
825.9269922152872 77.23395219185845 448.6619459043814 112.03907629496861 0.0 0.0
766.4785768690342 73.1553884205793 414.54801266795255 111.77890816063851 0.0 0.0
696.7260889627007 65.02604453304617 363.294416464949 112.8694307981367 0.0 0.0
596.4580321792796 50.01354670768481 274.4196789073663 113.81080759597621 0.0 0.0
468.919354763559 21.37220533259285 168.5872614869388 117.31655991238136 0.0 0.0
329.6994947718265 6.845135001339493 100.51811920463244 118.96434667981272 0.0 0.0
208.1047479006508 19.450176886162424 68.27189671792914 111.89372184617837 0.0 0.0
119.21406659836201 35.97169765636809 46.55572927641904 124.34321994613047 0.0 0.0
359.12329800776774 116.24328874843773 202.77362299459773 199.26130929611674 0.0 0.0
-751.1944912086467 -1415.901929468854 -947.2632230542673 79.70807958568847 0.0 0.0
-582.1506249376885 -1218.2708966899856 -755.7754529723113 -74.73583563172383 0.0 0.0
275.49801048855596 63.55092929655214 139.22422890210814 -212.01957328172827 0.0 0.0
82.95263650893389 20.052169204768617 30.901570018444822 -149.0816821932403 0.0 0.0
159.53276823882962 22.35566170830393 54.56642593015519 -135.62132391988695 0.0 0.0
256.5153981314594 6.7138034541559195 78.37048252775634 -142.88836986391613 0.0 0.0
386.2983182103147 7.808614026451768 126.20723746423357 -147.24648724601067 0.0 0.0
519.8221528903726 35.016649869261734 218.10761263301154 -140.38305067543516 0.0 0.0
629.7130446675285 54.125091915746715 313.8593144363482 -135.57888869089078 0.0 0.0
708.1021916862874 57.87740414373504 373.18659790127174 -133.5049995242146 0.0 0.0
764.2187894069369 60.33091361602234 407.6103932698298 -131.08192502171505 0.0 0.0
817.7303174864453 65.62355948659713 437.77115754920044 -129.56235066561234 0.0 0.0
870.0398635176771 76.89658436398287 469.7295430640907 -127.38875454074476 0.0 0.0
921.3372491376496 91.71114935246186 502.94465273384236 -124.92649894350602 0.0 0.0
969.7224708601224 106.8343017449653 534.8259767231013 -122.03431722975783 0.0 0.0
1013.5596398394201 119.7924765448812 563.3184982815155 -118.21677739605461 0.0 0.0
1052.5115920966923 129.31002472722935 587.5578195950968 -113.60148920630877 0.0 0.0
1088.4268670210618 139.1416921200955 610.3925240591424 -108.58244846440226 0.0 0.0
1120.4696484198935 146.40533208873487 630.1549235047461 -103.06597079948354 0.0 0.0
1134.972018840085 138.27131556564913 633.6502706694289 -93.93355795599503 0.0 0.0
1127.3214581549425 110.48578740211583 616.206528801327 -78.11930306892327 0.0 0.0
619.7298839987993 -390.4264908390454 117.76312659353393 5.681499715137761e-11 0.0 0.0
1127.321458154958 110.4857874022155 616.2065288014088 78.11930306905812 0.0 0.0
1134.9720188404542 138.27131556611073 633.6502706696244 93.93355795625219 0.0 0.0
1120.4696484202968 146.40533208923142 630.1549235050418 103.06597079953848 0.0 0.0
1088.426867020198 139.1416921192301 610.392524058529 108.58244846440557 0.0 0.0
1052.5115920962444 129.31002472685145 587.557819594867 113.60148920604027 0.0 0.0
1013.5596398388165 119.79247654455149 563.3184982811063 118.21677739616298 0.0 0.0
969.7224708593759 106.8343017444423 534.8259767225786 122.03431722987077 0.0 0.0
921.3372491376582 91.71114935263995 502.9446527338291 124.92649894357206 0.0 0.0
870.0398635193359 76.89658436614567 469.7295430651955 127.38875454110568 0.0 0.0
817.7303174862398 65.62355948648566 437.77115754907146 129.56235066548322 0.0 0.0
764.218789406005 60.33091361528119 407.61039326922764 131.08192502164036 0.0 0.0
708.1021916854497 57.877404142934246 373.18659790064055 133.5049995239326 0.0 0.0
629.7130446673416 54.1250919158967 313.8593144361522 135.57888869080097 0.0 0.0
519.8221528899497 35.016649869049594 218.1076126325537 140.38305067525616 0.0 0.0
386.298318209879 7.808614026286309 126.20723746397192 147.24648724581556 0.0 0.0
256.51539813081206 6.713803453198906 78.37048252729889 142.88836986373315 0.0 0.0
159.5327682389775 22.355661708617916 54.56642593029191 135.62132391973577 0.0 0.0
82.95263650891769 20.052169204724496 30.901570018426707 149.08168219288197 0.0 0.0
275.49801048795837 63.55092929616637 139.22422890166982 212.019573281497 0.0 0.0
-582.1506249365111 -1218.2708966885164 -755.7754529709276 74.73583563178585 0.0 0.0
-432.97248907518946 -1045.2746878905068 -585.5616709254473 -77.06830007180126 0.0 0.0
204.8683973941167 23.681330846851843 89.60637089007727 -216.96884845526753 0.0 0.0
52.328580456385765 6.965928379775503 17.787745620774775 -167.62706576375675 0.0 0.0
112.7949311085998 23.642552915427565 40.93081023260487 -155.79407630974868 0.0 0.0
186.7437034090022 8.447705289584023 58.26982065694548 -163.13458706257848 0.0 0.0
292.02694655144217 0.06837204795665452 89.04026119956252 -175.44712861052446 0.0 0.0
421.1909516615693 17.58917248290854 156.86708924414097 -169.39244138382384 0.0 0.0
542.0873462485583 38.188515730154876 248.4683683478611 -159.5750686197099 0.0 0.0
630.9114675380021 44.07138757438637 318.79715848878755 -154.00759168058684 0.0 0.0
692.0338867490755 41.287832230716475 357.85476109583476 -150.27093337355984 0.0 0.0
742.8425202574856 44.71520650795553 387.3024507104767 -146.7250058194813 0.0 0.0
792.1663122041656 53.6905517684193 416.9910980819224 -144.01761345773812 0.0 0.0
839.8317249413867 65.59197559577362 447.017803180478 -141.26753425461695 0.0 0.0
884.3151341526243 77.9706128398806 475.6067915177303 -138.2856817464538 0.0 0.0
925.7674908468115 89.18386219451436 502.0769579453456 -134.55602509858917 0.0 0.0
962.7573113054517 97.7148418159747 524.9483153267955 -129.66326153008754 0.0 0.0
998.8428836253502 106.53162082055 547.3621947573828 -124.10683872692977 0.0 0.0
1041.8978783857572 124.65049126950424 577.8656788566375 -118.75181365498155 0.0 0.0
1076.9053416048766 136.09187937595584 601.4584496644987 -110.78708600392181 0.0 0.0
1079.4229616615112 114.28543707011293 592.3951200502158 -94.75735412570273 0.0 0.0
440.842373405083 -511.6878591981315 -31.153407619647027 1.921591774589615e-10 0.0 0.0
1079.4229616617679 114.28543707059099 592.3951200505174 94.75735412601686 0.0 0.0
1076.9053416042634 136.091879375437 601.4584496640299 110.78708600434705 0.0 0.0
1041.8978783849004 124.65049126854713 577.8656788560204 118.75181365494109 0.0 0.0
998.8428836235743 106.53162081882546 547.3621947560449 124.10683872689665 0.0 0.0
962.7573113055132 97.7148418162014 524.948315326811 129.66326153006474 0.0 0.0
925.7674908471358 89.18386219507244 502.0769579455391 134.55602509867742 0.0 0.0
884.3151341523067 77.97061283991661 475.60679151748343 138.28568174668737 0.0 0.0
839.8317249410678 65.59197559554275 447.0178031802884 141.2675342545938 0.0 0.0
792.1663122041144 53.69055176838734 416.99109808188774 144.01761345765638 0.0 0.0
742.8425202571771 44.715206507852 387.3024507101694 146.72500581934128 0.0 0.0
692.0338867489219 41.287832230853894 357.8547610958119 150.27093337355484 0.0 0.0
630.9114675378852 44.07138757462451 318.79715848859445 154.00759168052608 0.0 0.0
542.0873462480728 38.18851572988626 248.4683683474391 159.5750686196467 0.0 0.0
421.1909516614889 17.589172483277146 156.8670892440204 169.3924413837836 0.0 0.0
292.02694655135764 0.06837204834257671 89.04026119963434 175.44712861035362 0.0 0.0
186.74370340874478 8.44770528923215 58.26982065677058 163.13458706235227 0.0 0.0
112.79493110860523 23.642552915648665 40.93081023267859 155.79407630964158 0.0 0.0
52.328580456417825 6.9659283799268445 17.787745620828154 167.62706576349382 0.0 0.0
204.86839739366977 23.681330846520943 89.60637088974843 216.96884845511786 0.0 0.0
-432.9724890741511 -1045.2746878891867 -585.5616709242614 77.06830007177555 0.0 0.0
-314.5445144508538 -880.1667646003309 -443.1224992589482 -80.92727020641783 0.0 0.0
144.38961565919806 -8.59740495800998 51.44687826631155 -215.65084064834159 0.0 0.0
24.199695981141225 -2.096870732431209 6.629431303799467 -180.64341629266357 0.0 0.0
66.96101163251643 23.42287222063031 27.106183523422974 -171.85439329152956 0.0 0.0
119.39237477066051 11.425385496507058 39.110067689168204 -178.88361065251772 0.0 0.0
191.67120009410516 -0.7078482873102359 57.21698006306243 -196.87894235209166 0.0 0.0
297.7639761256045 1.2791372170234059 96.69511573898046 -201.58052407591595 0.0 0.0
422.4973037636358 15.470737578774573 165.99098554238034 -187.77653784573738 0.0 0.0
525.1347094638099 24.306838732712567 239.424907223535 -174.10830959026654 0.0 0.0
594.8076194267665 22.23966804601646 288.58721117684763 -167.09165389282165 0.0 0.0
647.2611990532788 23.466443802561674 321.8590716463951 -161.9775044883637 0.0 0.0
694.0311009553697 29.559214525766826 350.2355113996111 -158.759423355388 0.0 0.0
737.7148200682702 39.16747607333362 377.671846615619 -155.79775919153363 0.0 0.0
777.6140294938876 48.68482810317471 402.69366019551114 -152.8785259236054 0.0 0.0
815.5082387391832 58.07070569552683 426.56599367499626 -149.6263096974202 0.0 0.0
851.8895143156691 66.64291528146987 449.33321668095266 -145.24702259018065 0.0 0.0
887.0467125557701 74.22897226062305 471.0464758826201 -139.25585327202225 0.0 0.0
931.6845249485972 92.3486540277892 502.34434526383944 -133.02434320574716 0.0 0.0
993.1164354076939 127.83529957271901 550.9019513932228 -127.73776659693384 0.0 0.0
1026.1376984613107 131.58630473080837 570.5709028326542 -116.22832683461998 0.0 0.0
226.15587587744176 -640.3575069789999 -200.97389727199138 1.4055956398806302e-10 0.0 0.0
1026.137698462439 131.58630473225358 570.57090283369 116.22832683490017 0.0 0.0
993.1164354060135 127.83529957098767 550.9019513921505 127.73776659724192 0.0 0.0
931.6845249496077 92.34865402880544 502.34434526462906 133.0243432058258 0.0 0.0
887.046712554076 74.22897225930419 471.04647588143894 139.25585327210797 0.0 0.0
851.8895143162216 66.64291528213974 449.3332166813886 145.247022590313 0.0 0.0
815.508238738096 58.070705694174336 426.5659936743144 149.62630969718734 0.0 0.0
777.6140294945077 48.684828104187524 402.6936601959735 152.87852592380116 0.0 0.0
737.7148200675257 39.16747607237358 377.6718466150293 155.79775919128394 0.0 0.0
694.031100954358 29.559214524794864 350.2355113989544 158.75942335514742 0.0 0.0
647.2611990540685 23.466443803875933 321.8590716469638 161.9775044885913 0.0 0.0
594.8076194270445 22.239668046686 288.5872111769968 167.09165389274608 0.0 0.0
525.1347094636964 24.30683873307752 239.42490722350564 174.10830959045904 0.0 0.0
422.49730376318666 15.470737578632047 165.9909855420296 187.77653784572487 0.0 0.0
297.7639761253027 1.2791372172158315 96.69511573889642 201.58052407594937 0.0 0.0
191.67120009419375 -0.7078482867150311 57.21698006327675 196.8789423518524 0.0 0.0
119.39237477083375 11.425385496823452 39.110067689323635 178.88361065223205 0.0 0.0
66.96101163252062 23.422872220692383 27.106183523441437 171.85439329145356 0.0 0.0
24.199695981138397 -2.0968707323636973 6.6294313038185395 180.6434162925063 0.0 0.0
144.38961565888582 -8.59740495814512 51.44687826611484 215.65084064823574 0.0 0.0
-314.544514450132 -880.1667645992527 -443.12249925804736 80.927270206491 0.0 0.0
-217.72771231359903 -732.5393693522296 -324.97171847940416 -92.92257769500623 0.0 0.0
90.1523075496687 -34.6134780829189 21.286741098867065 -208.29200399034983 0.0 0.0
-3.092158643239771 -6.364566642476074 -2.856933152870696 -188.11149089733786 0.0 0.0
21.55893436555843 22.150736330600896 13.109128721377227 -182.8586169013595 0.0 0.0
52.25521564289728 14.631393864616362 20.021832362964613 -189.96619995508766 0.0 0.0
92.23104066564316 2.720351478381004 28.411165456174988 -210.30415153744212 0.0 0.0
151.33597929122556 -2.7770248799918855 45.319408996796206 -225.2309951214798 0.0 0.0
245.25259864074332 -7.034622025395972 75.93977235727542 -222.09772517926376 0.0 0.0
356.8737703316106 -13.283954067802732 118.25330686182666 -200.41482480732247 0.0 0.0
440.6987572085295 -11.583655259448381 162.86654276775948 -178.0520565654209 0.0 0.0
497.7886993657962 -2.8657533541119875 202.18235111029628 -170.99167852319331 0.0 0.0
540.7914716024319 4.741023394565438 233.29522601312206 -169.3349648670602 0.0 0.0
577.5547424630073 12.461524268035511 259.46921541230773 -168.5719170599614 0.0 0.0
611.2614733896376 20.24155505736698 282.7178702639864 -167.67398776505186 0.0 0.0
644.1778491789645 28.393620114841852 305.55573929614235 -166.25339459944726 0.0 0.0
678.9250195586961 37.05182128957263 329.8518031484093 -163.66430774914 0.0 0.0
716.3810446122336 45.05136016357618 355.6141662812393 -158.46502026260407 0.0 0.0
756.0666992777859 51.747623396803476 381.7615890388091 -150.83889559838124 0.0 0.0
825.7732565593678 86.41266924705522 434.1639223284463 -145.3688151790456 0.0 0.0
929.900626887727 151.49447181350257 521.7338465495133 -145.35210647661015 0.0 0.0
-57.74621300352496 -767.3198267980711 -401.69365729496997 5.590550244960468e-11 0.0 0.0
929.900626889012 151.49447181549675 521.7338465505497 145.3521064769944 0.0 0.0
825.7732565588177 86.41266924652453 434.1639223280587 145.3688151794401 0.0 0.0
756.0666992788354 51.747623397929345 381.76158903960703 150.83889559872688 0.0 0.0
716.3810446115535 45.05136016299322 355.6141662807911 158.4650202627931 0.0 0.0
678.9250195587963 37.05182128994939 329.8518031484784 163.66430774900238 0.0 0.0
644.1778491775716 28.39362011307768 305.5557392952489 166.2533945992754 0.0 0.0
611.2614733904787 20.241555058782872 282.71787026468076 167.67398776522245 0.0 0.0
577.5547424628289 12.461524267698799 259.46921541200464 168.5719170598051 0.0 0.0
540.7914716022052 4.741023394590705 233.2952260130492 169.33496486723504 0.0 0.0
497.78869936592724 -2.865753353819631 202.18235111042134 170.99167852313883 0.0 0.0
440.69875720916195 -11.583655258325411 162.86654276819655 178.05205656548642 0.0 0.0
356.873770330904 -13.283954068170676 118.25330686143822 200.41482480741163 0.0 0.0
245.25259864014322 -7.034622025892213 75.93977235693188 222.09772517930762 0.0 0.0
151.33597929089723 -2.7770248800784927 45.31940899667065 225.23099512135866 0.0 0.0
92.23104066568335 2.720351478759663 28.411165456310922 210.304151537203 0.0 0.0
52.255215642829505 14.631393864314695 20.02183236285707 189.96619995488751 0.0 0.0
21.558934365584562 22.150736330442278 13.109128721337262 182.85861690110752 0.0 0.0
-3.092158643414945 -6.364566642739638 -2.8569331530048983 188.1114908971506 0.0 0.0
90.15230754927013 -34.613478083070746 21.286741098671424 208.29200399027056 0.0 0.0
-217.72771231316347 -732.5393693513709 -324.97171847877524 92.92257769506763 0.0 0.0
-150.5144543125706 -596.0297231814928 -236.2872235617322 -106.17848295839883 0.0 0.0
39.74639859211337 -54.63866531896791 -2.9277994617849936 -194.22778807565606 0.0 0.0
-30.035881404567185 -6.935367757322927 -11.094761708495168 -191.9785193970111 0.0 0.0
-23.29584629339609 20.413341354676273 -0.8809648046059269 -189.20155048168837 0.0 0.0
-14.092310207074087 17.573671429795006 1.041692918291071 -195.67093666856755 0.0 0.0
-6.967755697566448 7.141728870952386 0.06392479057375944 -215.39404301786618 0.0 0.0
-3.2778424495680127 0.8720471015976274 -0.7237907470342861 -232.4378603103369 0.0 0.0
-1.2806395921443894 0.13432758533856326 -0.3468433110829956 -235.17909436674492 0.0 0.0
-0.3907885466986656 -0.032709357133944295 -0.13374901217761348 -229.24626801901283 0.0 0.0
-0.10127997119805343 -0.0020592148834630564 -0.029420450424247235 -224.855734467913 0.0 0.0
-0.5091727459539612 -0.0001880088340584507 -0.10463195952838333 -214.11321695941686 0.0 0.0
-1.1120469546688838 0.21207750095733502 0.28872619100680197 -201.04546541013914 0.0 0.0
-1.753383199033948 1.1106082844494978 0.5793227552375555 -192.2896596320104 0.0 0.0
1.0315705151668055 3.3183019162953684 1.2126019430160113 -185.61694437321052 0.0 0.0
12.259527590140578 8.06699716250938 2.861128251923944 -180.80534714205865 0.0 0.0
38.87011135568767 16.54855249734723 7.390794501348012 -176.54981041627232 0.0 0.0
90.39114590216192 30.63738318605276 17.26954664988233 -170.96636011549194 0.0 0.0
180.47548118958795 41.50874412264207 23.976050953381247 -161.78694158813494 0.0 0.0
405.2092660772313 2.325887841094371 43.68417733253064 -157.84050177101028 0.0 0.0
644.5191979376197 41.27264559779074 263.12265645633727 -206.29745549935282 0.0 0.0
-764.2314099192917 -1025.9640139607334 -816.5118731110731 2.2090773654781515e-11 0.0 0.0
644.5191979372316 41.272645597036586 263.12265645620437 206.29745549973507 0.0 0.0
405.2092660779922 2.325887842297192 43.68417733305432 157.84050177158974 0.0 0.0
180.4754811896667 41.50874412234796 23.976050953323835 161.78694158894112 0.0 0.0
90.39114589912798 30.637383182347833 17.26954664713054 170.96636011571047 0.0 0.0
38.87011135661996 16.548552498748833 7.390794502170436 176.54981041608983 0.0 0.0
12.259527590487409 8.066997162674497 2.8611282522016666 180.80534714197307 0.0 0.0
1.0315705152420662 3.318301916564266 1.2126019430827455 185.6169443735167 0.0 0.0
-1.7533831989151878 1.1106082841266698 0.5793227551292972 192.28965963217456 0.0 0.0
-1.112046954155673 0.21207750113899237 0.2887261911872514 201.045465410117 0.0 0.0
-0.5091727464737232 -0.00018801035546189837 -0.10463196023261645 214.1132169594473 0.0 0.0
-0.10127997042103942 -0.0020592144073514618 -0.029420450054111313 224.85573446762638 0.0 0.0
-0.39078854641890715 -0.03270935699691879 -0.13374901205079226 229.24626801900135 0.0 0.0
-1.280639592266649 0.1343275846732288 -0.34684331131086843 235.1790943667958 0.0 0.0
-3.2778424491807208 0.8720471023602231 -0.7237907466890547 232.43786031013545 0.0 0.0
-6.967755697380145 7.141728871223142 0.06392479071144175 215.39404301760783 0.0 0.0
-14.092310207164164 17.57367142938191 1.0416929181393977 195.67093666831934 0.0 0.0
-23.29584629363619 20.413341354027484 -0.880964804873718 189.20155048143138 0.0 0.0
-30.03588140467929 -6.935367757544358 -11.09476170859637 191.97851939686458 0.0 0.0
39.74639859188717 -54.6386653190452 -2.9277994618946988 194.2277880753698 0.0 0.0
-150.51445431226458 -596.0297231807236 -236.28722356134148 106.17848295854853 0.0 0.0
-114.1762596311656 -473.89276511862624 -177.08103544783464 -114.96979388453879 0.0 0.0
-1.8400907477584223 -66.99827731238393 -20.54927389104993 -177.0130093555931 0.0 0.0
-55.751004601891765 -6.01506404847133 -18.547028224865727 -190.97231397219636 0.0 0.0
-67.20187601154613 18.792511925943298 -14.548743324211408 -190.60428298305206 0.0 0.0
-79.19954449776688 19.812034385143935 -17.828162354694612 -195.60804090883772 0.0 0.0
-104.79734250107877 11.329459452301322 -28.07444035012356 -211.6857742564957 0.0 0.0
-157.05028882257213 4.516417830319237 -46.65935588858149 -226.22169762647403 0.0 0.0
-246.77367724761615 7.042857759246219 -76.60282119271154 -222.50770952472632 0.0 0.0
-357.1674445941501 13.140368067777516 -118.48297047801842 -200.51621384979146 0.0 0.0
-440.7282070807864 11.536320183484264 -162.90091625800528 -178.00832370569805 0.0 0.0
-498.3372846011897 2.714147078072152 -202.57253599504014 -171.0053965595454 0.0 0.0
-541.6883434557396 -4.579547930010378 -234.2683565649761 -169.11707334217053 0.0 0.0
-578.4098936363084 -10.672267050860938 -259.90096037058504 -167.84544928020247 0.0 0.0
-608.2555856258364 -14.141081425507394 -278.5579519311875 -166.96569810521038 0.0 0.0
-628.4362714455862 -13.758784244652674 -288.5176402416775 -167.18026341480146 0.0 0.0
-636.9876023659216 -8.3088735835195 -287.6487376146616 -169.14886303668155 0.0 0.0
-632.7116917701492 1.9277228580089911 -274.12430505436146 -173.64223444366652 0.0 0.0
-624.5852758463299 9.564680983490547 -251.24544160091332 -182.8968468983534 0.0 0.0
-598.7474716631459 64.6021401273658 -184.81111862709096 -196.5013099380189 0.0 0.0
-321.13343378846946 196.40830421544712 61.522030298559855 -169.56237371881738 0.0 0.0
-1345.7227012389294 -1307.9752535940722 -1364.1761221909373 -5.609734898825991e-11 0.0 0.0
-321.1334337886852 196.40830421400983 61.5220302980664 169.5623737192314 0.0 0.0
-598.7474716635859 64.60214012698034 -184.811118627326 196.50130993846824 0.0 0.0
-624.585275845403 9.564680984389184 -251.2454416003113 182.89684689830875 0.0 0.0
-632.7116917714021 1.9277228556116484 -274.1243050551385 173.64223444364728 0.0 0.0
-636.9876023645986 -8.308873581630053 -287.6487376136601 169.148863036959 0.0 0.0
-628.4362714443133 -13.758784243581857 -288.5176402408576 167.18026341466134 0.0 0.0
-608.255585626958 -14.141081427113207 -278.557951931935 166.965698105425 0.0 0.0
-578.409893636723 -10.672267051838112 -259.9009603709101 167.8454492804736 0.0 0.0
-541.688343454516 -4.579547928846502 -234.26835656408994 169.11707334206227 0.0 0.0
-498.3372846022702 2.7141470759360224 -202.57253599578635 171.0053965597203 0.0 0.0
-440.7282070795929 11.53632018484008 -162.90091625705458 178.00832370568233 0.0 0.0
-357.1674445935603 13.140368067992153 -118.48297047767842 200.51621384984435 0.0 0.0
-246.77367724641806 7.042857760334248 -76.60282119198561 222.50770952468014 0.0 0.0
-157.05028882226466 4.516417830061934 -46.65935588856499 226.22169762641045 0.0 0.0
-104.7973425005242 11.329459452850777 -28.074440349801232 211.6857742562517 0.0 0.0
-79.199544497902 19.81203438443049 -17.828162354950845 195.6080409084778 0.0 0.0
-67.20187601154265 18.792511925703348 -14.548743324285674 190.6042829829269 0.0 0.0
-55.75100460182439 -6.0150640483825715 -18.547028224819737 190.97231397208398 0.0 0.0
-1.8400907478695439 -66.99827731246381 -20.549273891111888 177.01300935539055 0.0 0.0
-114.17625963108262 -473.8927651180099 -177.0810354476549 114.9697938844482 0.0 0.0
-95.91416337380491 -362.02226609874907 -137.36739796704094 -109.38937211548995 0.0 0.0
-28.916610879659885 -73.9244940096273 -30.846076086871435 -163.18606763030274 0.0 0.0
-79.9102329639111 -5.334428520576527 -25.559141609542685 -186.7940609647918 0.0 0.0
-109.35500334190215 17.4103043041144 -27.62131435809637 -186.95361334752542 0.0 0.0
-143.11249756022585 21.445531239168968 -36.445313369584795 -190.79680845626285 0.0 0.0
-200.86449147148016 14.121864203659365 -56.44407195116055 -201.05726139560278 0.0 0.0
-299.63207979104374 -0.42700499000318715 -97.78583435395475 -201.51844292765918 0.0 0.0
-422.6463490190971 -15.671964366655455 -166.3161971806385 -188.46572611532835 0.0 0.0
-525.1029304137237 -24.49692079014453 -239.51431592870313 -174.24196169440432 0.0 0.0
-594.7257220051501 -22.259006486329966 -288.58376741586204 -167.1021649866834 0.0 0.0
-647.3626785382987 -23.451296652625857 -321.9510535919975 -161.87044355733994 0.0 0.0
-694.5590571746691 -29.371015653372922 -350.5164813926864 -158.15385655577242 0.0 0.0
-737.9463778172493 -37.831624708709825 -377.3319551846886 -154.55475586443558 0.0 0.0
-773.9648328724315 -43.429737003283606 -398.5611555985744 -151.84590734027958 0.0 0.0
-799.962534294427 -43.540278324640724 -411.8433738343665 -151.00960771015596 0.0 0.0
-813.0782151680951 -36.05879639732029 -414.65094354905204 -152.40212639236088 0.0 0.0
-814.6777776009915 -23.49817719253184 -408.73879605266495 -156.2370636382272 0.0 0.0
-805.2284799417719 -8.06167774776597 -395.71877544000495 -162.3433280966202 0.0 0.0
-753.5093076592948 41.18574576875142 -344.8278349676128 -169.37120094396647 0.0 0.0
-623.8178569218182 153.47587454308626 -225.5419752482316 -177.07614059752893 0.0 0.0
-2154.3039005577716 -1608.1566874070509 -1851.3713083703747 1.1475265182525618e-10 0.0 0.0
-623.8178569215429 153.47587454347243 -225.54197524807768 177.07614059782225 0.0 0.0
-753.5093076589148 41.18574576873601 -344.82783496740535 169.37120094411966 0.0 0.0
-805.2284799415484 -8.061677747358175 -395.71877543985846 162.34332809683772 0.0 0.0
-814.6777776005952 -23.49817719218622 -408.7387960527021 156.23706363801028 0.0 0.0
-813.0782151683579 -36.05879639767751 -414.65094354910644 152.40212639264558 0.0 0.0
-799.9625342944729 -43.540278324808604 -411.84337383436423 151.00960771001252 0.0 0.0
-773.9648328719984 -43.42973700301561 -398.5611555982713 151.84590734006116 0.0 0.0
-737.9463778183475 -37.83162471034207 -377.33195518555107 154.55475586481506 0.0 0.0
-694.5590571739926 -29.371015652682253 -350.5164813921827 158.15385655558393 0.0 0.0
-647.3626785385183 -23.451296653238863 -321.9510535921662 161.87044355723054 0.0 0.0
-594.7257220050635 -22.259006486639155 -288.583767415902 167.10216498681447 0.0 0.0
-525.1029304132993 -24.496920789958214 -239.5143159282905 174.24196169430417 0.0 0.0
-422.64634901847086 -15.671964366451832 -166.31619718020465 188.46572611544627 0.0 0.0
-299.63207979075383 -0.4270049903634132 -97.78583435388657 201.51844292760939 0.0 0.0
-200.86449147130628 14.12186420333662 -56.444071951199675 201.057261395433 0.0 0.0
-143.11249756003298 21.445531238868416 -36.445313369634405 190.7968084559524 0.0 0.0
-109.3550033418416 17.410304303865342 -27.621314358156987 186.9536133473806 0.0 0.0
-79.9102329636936 -5.334428520272933 -25.559141609391876 186.79406096459036 0.0 0.0
-28.91661087975333 -73.92449400981462 -30.84607608695388 163.1860676302619 0.0 0.0
-95.91416337372203 -362.0222660983404 -137.3673979668926 109.38937211537325 0.0 0.0
-78.61969775588402 -268.6483242619709 -104.18040660535647 -98.53304046680658 0.0 0.0
-47.548500929014004 -74.0825199884188 -36.48868877319229 -149.11736473256323 0.0 0.0
-102.18814736667869 -5.071802984128721 -32.14849205876766 -178.28795600512805 0.0 0.0
-149.9018781550048 16.164187482248455 -40.087575329280625 -179.31896666434082 0.0 0.0
-204.61989904738653 21.28693642316146 -55.02932968274561 -179.00353398246733 0.0 0.0
-293.3606147929237 10.42433955615303 -88.05704084730547 -178.85910232230856 0.0 0.0
-421.0980138823316 -15.80278949722442 -156.65662428377954 -172.0987363717761 0.0 0.0
-542.174294344624 -38.73585999615656 -248.67881275412114 -160.22008384651443 0.0 0.0
-630.8216439193718 -44.24438970659863 -318.8592804747998 -154.09667362589582 0.0 0.0
-691.8854251933232 -41.19368176132785 -357.7779694861254 -150.31537017733524 0.0 0.0
-742.6605096683197 -44.45411482419249 -387.11680007032385 -146.60124093992957 0.0 0.0
-792.2108463430666 -53.22919471825608 -416.8360621345887 -143.3164514906865 0.0 0.0
-839.823907967238 -64.46005766476199 -446.5492019131269 -139.73182073005907 0.0 0.0
-881.5374029088807 -73.97730782140121 -472.42559097289086 -136.79996585023346 0.0 0.0
-913.3335662911327 -77.40058886828689 -490.2648246732598 -135.8266035050954 0.0 0.0
-931.0788375587499 -71.91587589218892 -496.50439784021165 -137.7054213974026 0.0 0.0
-933.6745628109697 -56.46312470422254 -490.1151043954686 -142.2711768376544 0.0 0.0
-911.8555307086233 -23.302150217107993 -462.5710549943505 -147.68736332924453 0.0 0.0
-851.7522015514071 39.865958810610095 -401.37862868691184 -151.58468517576063 0.0 0.0
-679.7248741227386 201.39961540446126 -237.1198698956123 -151.34244227184047 0.0 0.0
-2594.9520417038657 -1836.5686337876937 -2193.674197184928 -1.3307754898050916e-10 0.0 0.0
-679.7248741234836 201.3996154033376 -237.11986989611273 151.3424422722118 0.0 0.0
-851.7522015482394 39.86595881380501 -401.37862868483217 151.58468517589966 0.0 0.0
-911.8555307100593 -23.302150218885345 -462.5710549952207 147.68736332979276 0.0 0.0
-933.6745628115827 -56.463124705001164 -490.11510439589875 142.27117683765832 0.0 0.0
-931.078837559101 -71.91587589267084 -496.50439784028015 137.70542139750523 0.0 0.0
-913.3335662922499 -77.40058886974131 -490.2648246739588 135.82660350510344 0.0 0.0
-881.5374029076556 -73.97730782025157 -472.4255909720466 136.79996585020066 0.0 0.0
-839.8239079677973 -64.46005766562556 -446.5492019135841 139.73182073009116 0.0 0.0
-792.2108463430757 -53.229194718488785 -416.83606213457153 143.31645149072128 0.0 0.0
-742.6605096680566 -44.45411482421365 -387.1168000703045 146.60124093988043 0.0 0.0
-691.8854251941191 -41.19368176270375 -357.7779694866816 150.31537017752197 0.0 0.0
-630.8216439193063 -44.244389707088445 -318.8592804747079 154.0966736260384 0.0 0.0
-542.1742943440892 -38.73585999607781 -248.67881275361984 160.22008384651988 0.0 0.0
-421.0980138816631 -15.802789496920951 -156.6566242833125 172.09873637175076 0.0 0.0
-293.36061479224975 10.424339556377813 -88.05704084700503 178.8591023221741 0.0 0.0
-204.6198990469355 21.286936423454282 -55.0293296825411 179.0035339823933 0.0 0.0
-149.90187815507196 16.16418748188503 -40.08757532941311 179.31896666411564 0.0 0.0
-102.18814736635264 -5.0718029836224625 -32.14849205851627 178.28795600492276 0.0 0.0
-47.54850092906121 -74.08251998873459 -36.488688773303565 149.11736473244812 0.0 0.0
-78.61969775573384 -268.6483242615767 -104.18040660519314 98.53304046666413 0.0 0.0
-64.01784378181833 -190.64302190698368 -76.39825970664059 -84.87311160230925 0.0 0.0
-61.477405231178615 -69.16818688042237 -39.193881884556866 -133.291296734013 0.0 0.0
-122.80440050089425 -4.897416164371168 -38.289744927896834 -165.55870966886815 0.0 0.0
-188.10964757056684 14.097981170689943 -52.17690748143039 -166.4464769386983 0.0 0.0
-265.8484065916855 19.15301938961389 -74.2013858054439 -162.69558137253668 0.0 0.0
-382.572295582266 1.676137223201974 -123.9820182614506 -153.4884545725865 0.0 0.0
-517.7412192167741 -34.18923443362138 -217.30344212589694 -141.43504069429255 0.0 0.0
-629.9842827618962 -54.955250613542766 -314.22002157385737 -135.91735577610007 0.0 0.0
-708.0450901851881 -57.98240004744488 -373.27101393951216 -133.5861960256559 0.0 0.0
-763.9926350146752 -60.122146214387854 -407.4371649382456 -131.12645941668154 0.0 0.0
-817.2370871795122 -65.03736320375464 -437.27041896369144 -129.43132774944533 0.0 0.0
-869.3785981592504 -75.91014230328017 -468.9419236726816 -126.67624353107766 0.0 0.0
-920.8494941874413 -90.50967228500662 -502.14078539081436 -123.33380998224807 0.0 0.0
-968.4364090361382 -104.7297179645013 -533.229712424431 -120.32632031635784 0.0 0.0
-1006.4725765983546 -113.10343692877558 -556.6407257028368 -119.13046729458092 0.0 0.0
-1028.2249113673608 -108.9680960813759 -565.6266155540645 -121.03390543053192 0.0 0.0
-1025.5522578136968 -86.6284707252789 -553.2695819099217 -125.24440614407821 0.0 0.0
-989.7945435895278 -36.4108193684404 -510.4568669698418 -129.812158155118 0.0 0.0
-898.91146635895 60.71021382853587 -417.14408915302204 -131.28987434009443 0.0 0.0
-711.6590456956246 239.99876628137255 -235.2977734763395 -128.32072943182146 0.0 0.0
-2945.1450037177333 -2075.5823808513505 -2493.5520190830384 -9.142908652393089e-11 0.0 0.0
-711.6590456961791 239.998766280685 -235.2977734767531 128.32072943206768 0.0 0.0
-898.9114663581632 60.71021382933034 -417.14408915239596 131.28987434018538 0.0 0.0
-989.7945435896951 -36.41081936894335 -510.4568669698133 129.81215815531314 0.0 0.0
-1025.5522578130162 -86.62847072466224 -553.269581909528 125.24440614416463 0.0 0.0
-1028.2249113674927 -108.96809608156441 -565.6266155541479 121.0339054304116 0.0 0.0
-1006.4725765967371 -113.10343692738493 -556.6407257016745 119.1304672945256 0.0 0.0
-968.4364090359463 -104.72971796446402 -533.229712424251 120.32632031643837 0.0 0.0
-920.8494941871165 -90.50967228493312 -502.14078539068265 123.33380998225755 0.0 0.0
-869.3785981582841 -75.91014230248852 -468.94192367199696 126.67624353106667 0.0 0.0
-817.2370871798341 -65.03736320441969 -437.270418963924 129.43132774948236 0.0 0.0
-763.9926350143206 -60.12214621425752 -407.4371649380433 131.1264594165512 0.0 0.0
-708.0450901842888 -57.98240004689066 -373.27101393886113 133.58619602568982 0.0 0.0
-629.9842827609897 -54.95525061290003 -314.22002157313955 135.9173557760343 0.0 0.0
-517.7412192160998 -34.18923443342495 -217.30344212536562 141.4350406943064 0.0 0.0
-382.5722955815645 1.6761372238017396 -123.98201826095716 153.48845457236155 0.0 0.0
-265.84840659139223 19.15301938960031 -74.20138580537557 162.69558137233625 0.0 0.0
-188.10964757033742 14.097981170673748 -52.17690748137753 166.4464769384939 0.0 0.0
-122.8044005007035 -4.89741616431301 -38.289744927821495 165.55870966868665 0.0 0.0
-61.47740523107224 -69.16818688028692 -39.19388188448398 133.29129673395738 0.0 0.0
-64.01784378172235 -190.64302190668678 -76.39825970652272 84.87311160222185 0.0 0.0
-53.046567891951426 -127.27531772750365 -54.096565685836495 -70.21376522955333 0.0 0.0
-72.26260676363476 -60.617403282769075 -39.86400301392115 -115.2383616927774 0.0 0.0
-142.00950893696583 -4.440055358458812 -43.928128689491004 -148.6299688923724 0.0 0.0
-224.76027716604074 11.591055074984597 -63.80949575888759 -149.63467568350532 0.0 0.0
-325.62887992700075 12.875860427654192 -95.25111867359786 -139.57742532751848 0.0 0.0
-462.55224974482974 -12.377093627346603 -164.58491178360288 -124.60420961231728 0.0 0.0
-595.5027111377681 -49.52179649577441 -273.49327572493524 -114.87552461211031 0.0 0.0
-697.2309644453725 -65.85974536999953 -363.86375558150087 -113.03252085270954 0.0 0.0
-766.3822369179283 -73.1288152597497 -414.5513474998691 -111.85591825123372 0.0 0.0
-825.6058441686798 -76.90043930603856 -448.37749940389887 -112.07318254043966 0.0 0.0
-880.4466093881923 -84.92383399179496 -480.10112903941 -110.97999987872346 0.0 0.0
-935.5564180856536 -98.5301885716303 -514.5292042667984 -108.72783676249584 0.0 0.0
-990.6388626040598 -116.2147805079668 -551.0058638871418 -105.85375011608468 0.0 0.0
-1043.3128064473842 -134.65669703504977 -586.6731690585992 -103.02707001208952 0.0 0.0
-1088.1642603676248 -148.65021460733567 -616.2674418540967 -101.48103485123565 0.0 0.0
-1112.9645091043812 -146.50501223577737 -627.8368802050873 -102.57789427010177 0.0 0.0
-1103.8398003225782 -114.65362788542143 -607.5825466889374 -106.23871625583028 0.0 0.0
-1046.9966461876 -41.97862312954115 -543.1264801086982 -109.91870299952858 0.0 0.0
-929.7908860282428 82.06885827159041 -423.03101985928174 -110.82997440804976 0.0 0.0
-738.4613982684835 265.6784740871706 -236.26460551778064 -109.84278026244269 0.0 0.0
-3241.15647678028 -2298.7419367771836 -2756.6821873477197 5.3365312169262324e-11 0.0 0.0
-738.461398268188 265.67847408745837 -236.26460551781673 109.84278026249626 0.0 0.0
-929.790886028548 82.06885827107348 -423.03101985961626 110.82997440821454 0.0 0.0
-1046.9966461865133 -41.97862312855489 -543.1264801079402 109.91870299967553 0.0 0.0
-1103.8398003215295 -114.65362788450157 -607.5825466884118 106.23871625595919 0.0 0.0
-1112.9645091049351 -146.50501223646503 -627.8368802054332 102.57789427010763 0.0 0.0
-1088.1642603649373 -148.6502146046614 -616.2674418523608 101.48103485111787 0.0 0.0
-1043.3128064478533 -134.65669703566232 -586.6731690587519 103.02707001197304 0.0 0.0
-990.6388626036736 -116.21478050787897 -551.0058638869486 105.85375011617943 0.0 0.0
-935.5564180850113 -98.53018857120811 -514.5292042663901 108.72783676257754 0.0 0.0
-880.4466093875684 -84.92383399140857 -480.1011290390174 110.97999987861637 0.0 0.0
-825.6058441691163 -76.90043930681801 -448.37749940425897 112.07318254050566 0.0 0.0
-766.3822369164535 -73.12881525836676 -414.5513474988236 111.85591825099074 0.0 0.0
-697.2309644449963 -65.8597453700599 -363.86375558118976 113.03252085273009 0.0 0.0
-595.5027111374332 -49.52179649598125 -273.4932757245707 114.87552461227052 0.0 0.0
-462.5522497446539 -12.377093627727543 -164.58491178344784 124.60420961227032 0.0 0.0
-325.62887992673916 12.875860427209325 -95.25111867363711 139.57742532748424 0.0 0.0
-224.76027716570457 11.591055075095133 -63.80949575876606 149.63467568341906 0.0 0.0
-142.00950893686647 -4.44005535856781 -43.928128689492546 148.62996889233602 0.0 0.0
-72.26260676350122 -60.617403282485675 -39.86400301379607 115.23836169275563 0.0 0.0
-53.046567892041516 -127.27531772734939 -54.096565685817275 70.21376522961934 0.0 0.0
-45.62553103753241 -78.1160474714691 -37.12247355270045 -55.177482579522604 0.0 0.0
-80.58078057142782 -49.83433480725519 -39.124534613604894 -95.08322999511128 0.0 0.0
-160.0082368790637 -3.4908680815028603 -49.050238986643485 -127.52484977504663 0.0 0.0
-260.15726460138427 7.459535304801724 -75.67808468383743 -127.78589198832117 0.0 0.0
-387.0065185514319 4.396906535389123 -118.64844537106532 -113.36523679322454 0.0 0.0
-529.1031982120114 -30.038964765621 -208.26221365949087 -94.39414547867895 0.0 0.0
-657.2656645723184 -59.80617593288502 -321.1083988304659 -90.74311044909092 0.0 0.0
-746.7264256708465 -77.07035871249332 -401.5066331168845 -90.03188768057892 0.0 0.0
-817.8681749965241 -86.01984819769719 -448.80384907564456 -91.10203160641727 0.0 0.0
-878.6151440010174 -93.75447500305647 -484.2583557468936 -92.02633370017443 0.0 0.0
-936.6778098996183 -105.01673098944296 -519.0391024747496 -91.43901258854197 0.0 0.0
-994.740365836984 -121.20252807884879 -556.2041817110393 -89.74131018598446 0.0 0.0
-1052.7686632591333 -141.2659184618902 -595.3102134678804 -87.50838056467191 0.0 0.0
-1109.1422544311067 -163.50964619800607 -634.6756042112604 -85.07275049411307 0.0 0.0
-1159.3877118580629 -181.7728661118518 -669.0545203643986 -83.12505979289996 0.0 0.0
-1189.0716221650287 -182.761820053947 -684.6428674824776 -83.01469722334777 0.0 0.0
-1174.9112649747012 -144.8443628318044 -658.9386872704242 -85.42715077599279 0.0 0.0
-1098.3285735697746 -50.989650161161165 -574.0471320394546 -88.87675565247886 0.0 0.0
-956.9981506142151 97.79004878577082 -429.33470473458976 -91.51243146998517 0.0 0.0
-755.8344890155623 290.67019083108676 -232.60552694805017 -94.4111459835183 0.0 0.0
-3494.279691455827 -2498.0049639923777 -2985.4348760192534 2.504805252101505e-10 0.0 0.0
-755.8344890163908 290.670190830219 -232.60552694863975 94.41114598380895 0.0 0.0
-956.9981506130481 97.79004878695247 -429.3347047339196 91.51243146989044 0.0 0.0
-1098.328573569717 -50.9896501611843 -574.0471320393077 88.87675565241786 0.0 0.0
-1174.9112649744009 -144.84436283158405 -658.9386872703587 85.4271507759847 0.0 0.0
-1189.0716221644443 -182.76182005358993 -684.6428674819203 83.01469722339118 0.0 0.0
-1159.3877118578498 -181.7728661118146 -669.0545203643277 83.12505979313072 0.0 0.0
-1109.1422544307106 -163.5096461978888 -634.6756042108225 85.07275049421526 0.0 0.0
-1052.7686632584891 -141.265918461466 -595.3102134675015 87.50838056476755 0.0 0.0
-994.7403658372948 -121.20252807945427 -556.2041817112917 89.74131018601777 0.0 0.0
-936.6778098989448 -105.01673098900747 -519.0391024743261 91.43901258852455 0.0 0.0
-878.6151440016854 -93.75447500414528 -484.25835574737965 92.0263337003112 0.0 0.0
-817.8681749961889 -86.01984819767202 -448.8038490754134 91.10203160643411 0.0 0.0
-746.7264256698971 -77.07035871189827 -401.50663311622844 90.03188768061479 0.0 0.0
-657.2656645721455 -59.80617593311175 -321.10839883015217 90.74311044906541 0.0 0.0
-529.1031982117511 -30.038964765970732 -208.2622136592476 94.39414547874163 0.0 0.0
-387.0065185508583 4.396906535400728 -118.64844537085972 113.36523679335552 0.0 0.0
-260.1572646010939 7.45953530480722 -75.67808468375739 127.78589198836004 0.0 0.0
-160.00823687886805 -3.4908680812919055 -49.05023898652145 127.52484977496366 0.0 0.0
-80.58078057129057 -49.83433480730956 -39.12453461358003 95.08322999512677 0.0 0.0
-45.625531037203544 -78.11604747118473 -37.12247355251648 55.17748257944093 0.0 0.0
-41.117611867506 -42.8693285352727 -25.196082120833605 -40.2205855655226 0.0 0.0
-86.45063935997506 -38.0991894369201 -37.364948639068544 -73.06218490855008 0.0 0.0
-176.7662900451054 -2.168397533921765 -53.680626751412404 -102.07837614576563 0.0 0.0
-296.2866077775986 2.023531396878173 -88.10058672631939 -101.2552019326801 0.0 0.0
-445.4052893856913 -8.278075308685523 -145.6698870746432 -82.90418480700116 0.0 0.0
-589.2795500232246 -43.22031681596202 -250.86332128329974 -68.89552851424841 0.0 0.0
-702.6306199766024 -68.94298362468646 -359.71998027987127 -67.86667217402811 0.0 0.0
-788.7736617929213 -86.15664803177334 -431.07904027387013 -67.99436911534572 0.0 0.0
-861.8277145890893 -99.19720543112025 -478.52084936618496 -69.83381416880448 0.0 0.0
-926.1190031318645 -110.79577216683829 -517.1099592888552 -71.10762450098314 0.0 0.0
-987.3668029839803 -125.26719066599455 -555.0396778550025 -70.9394591559539 0.0 0.0
-1048.6119190820732 -144.17005755851147 -595.137081724977 -69.79246072466003 0.0 0.0
-1109.158361889253 -166.77551388582606 -636.7608897525994 -68.1992442479056 0.0 0.0
-1167.3302422360043 -189.54658485193644 -677.262736399179 -66.42728489102885 0.0 0.0
-1219.7320661995668 -209.83985741377774 -713.6794257419544 -64.37635862764337 0.0 0.0
-1255.4242443358496 -216.32214965788347 -734.9769575071382 -62.77872069863775 0.0 0.0
-1246.2885604676171 -181.78944296930058 -713.5078801982736 -63.4082074342357 0.0 0.0
-1156.7750304597198 -73.77362111568294 -615.1067640846704 -67.07474693562307 0.0 0.0
-986.406443488258 104.64874586353345 -440.95640453765265 -72.68004386501532 0.0 0.0
-759.1673789521568 323.91991894934006 -217.75291374335632 -80.53327696004035 0.0 0.0
-3704.59396691838 -2663.9060377754977 -3175.522330881084 4.639488793145574e-11 0.0 0.0
-759.1673789525056 323.9199189488775 -217.75291374351434 80.53327696015793 0.0 0.0
-986.406443488506 104.6487458632062 -440.95640453793123 72.6800438651743 0.0 0.0
-1156.7750304593505 -73.77362111544045 -615.1067640845843 67.07474693569687 0.0 0.0
-1246.2885604670932 -181.78944296888002 -713.5078801980629 63.40820743430264 0.0 0.0
-1255.4242443353078 -216.32214965749705 -734.9769575067392 62.77872069861381 0.0 0.0
-1219.732066199614 -209.83985741401764 -713.6794257419168 64.37635862781781 0.0 0.0
-1167.3302422352713 -189.54658485142483 -677.2627363986544 66.42728489108721 0.0 0.0
-1109.1583618883217 -166.77551388517512 -636.7608897521438 68.19924424805612 0.0 0.0
-1048.6119190819802 -144.17005755865569 -595.1370817249494 69.79246072474675 0.0 0.0
-987.3668029837029 -125.26719066599136 -555.0396778548524 70.93945915596103 0.0 0.0
-926.1190031311467 -110.79577216642238 -517.1099592883903 71.10762450097008 0.0 0.0
-861.8277145891824 -99.1972054315532 -478.52084936627654 69.83381416883446 0.0 0.0
-788.7736617925938 -86.15664803173092 -431.07904027361076 67.99436911536617 0.0 0.0
-702.6306199763436 -68.9429836247449 -359.7199802795119 67.86667217384628 0.0 0.0
-589.2795500228042 -43.220316815981924 -250.8633212828604 68.8955285141671 0.0 0.0
-445.40528938499347 -8.278075308311895 -145.66988707424719 82.90418480700568 0.0 0.0
-296.28660777743426 2.0235313965228747 -88.10058672640008 101.25520193270455 0.0 0.0
-176.76629004492236 -2.168397533949474 -53.68062675136553 102.07837614565534 0.0 0.0
-86.45063935989278 -38.099189437040266 -37.36494863907992 73.06218490843722 0.0 0.0
-41.117611867513745 -42.869328535241976 -25.19608212082671 40.22058556548197 0.0 0.0
-38.274355418230165 -21.13399582194075 -17.822505372051275 -26.149595156198025 0.0 0.0
-89.19436816943158 -26.700147681595922 -34.76835475530825 -49.48853291705984 0.0 0.0
-191.9830109747667 -1.0363716156574148 -57.90581477712723 -71.67637417469581 0.0 0.0
-334.69054038974394 -4.307954751850331 -101.52482095729147 -69.4257302465678 0.0 0.0
-499.0892868299127 -23.844286091694563 -176.4975019022811 -51.9328008251808 0.0 0.0
-636.8980157866595 -53.004742239274684 -289.90370672916265 -45.69063724800394 0.0 0.0
-736.7544837084258 -76.21213472711227 -389.1116182150083 -45.517518216516386 0.0 0.0
-825.029546770312 -95.83132775039599 -456.4494012428662 -46.379376421720416 0.0 0.0
-901.0584036247467 -113.02299258870453 -505.6731471095506 -48.04799084277358 0.0 0.0
-968.9359702213494 -128.207704291287 -547.6116526017297 -49.33382763441675 0.0 0.0
-1033.7465273646183 -145.73291899895636 -588.8423495276645 -49.53662551533362 0.0 0.0
-1097.830628968495 -167.28788274001795 -631.6827035272273 -48.92699188240328 0.0 0.0
-1160.9634576785636 -191.2507845536694 -675.2644866638591 -48.03173670270052 0.0 0.0
-1219.860934872935 -215.04441984057118 -716.6504764844005 -46.87053031590487 0.0 0.0
-1270.8545222009213 -233.39057722081242 -751.3788897820829 -45.17371424754733 0.0 0.0
-1306.8939110499564 -239.71382980071888 -772.6650365253893 -42.854729856983745 0.0 0.0
-1312.7751909771293 -219.6148922622524 -765.7876198290369 -41.35629393544566 0.0 0.0
-1245.3521838710678 -132.3090505397667 -688.847273859905 -43.99998274792887 0.0 0.0
-1035.710552048924 87.00074889953595 -474.72175685530556 -52.925087596754906 0.0 0.0
-733.4023992438531 382.6510090628865 -175.66657968832757 -67.03059832499937 0.0 0.0
-3858.37018767754 -2778.817768483658 -3311.498242125712 -7.354827857852797e-11 0.0 0.0
-733.4023992421692 382.65100906454416 -175.6665796871374 67.03059832503139 0.0 0.0
-1035.7105520493183 87.00074889907955 -474.7217568558321 52.92508759677429 0.0 0.0
-1245.3521838701017 -132.3090505389174 -688.8472738592734 43.99998274805506 0.0 0.0
-1312.7751909772578 -219.61489226243157 -765.7876198292248 41.35629393533649 0.0 0.0
-1306.8939110501508 -239.71382980106912 -772.6650365255713 42.854729856929865 0.0 0.0
-1270.8545222008795 -233.390577220922 -751.3788897819927 45.17371424753726 0.0 0.0
-1219.8609348713444 -215.04441983921538 -716.6504764833069 46.87053031586305 0.0 0.0
-1160.9634576779235 -191.25078455323404 -675.2644866635245 48.03173670277653 0.0 0.0
-1097.8306289693203 -167.2878827411434 -631.6827035277566 48.926991882494065 0.0 0.0
-1033.7465273641988 -145.73291899880874 -588.8423495274671 49.53662551537563 0.0 0.0
-968.9359702205574 -128.20770429076134 -547.61165260113 49.3338276344134 0.0 0.0
-901.0584036248574 -113.02299258908246 -505.6731471096072 48.04799084263598 0.0 0.0
-825.0295467699809 -95.83132775035634 -456.44940124257965 46.379376421521386 0.0 0.0
-736.7544837077476 -76.21213472680179 -389.11161821444745 45.51751821651388 0.0 0.0
-636.8980157860015 -53.00474223903945 -289.90370672855806 45.69063724807385 0.0 0.0
-499.0892868293945 -23.844286091626966 -176.49750190195323 51.932800825118264 0.0 0.0
-334.69054038940624 -4.307954751902372 -101.52482095721908 69.42573024654061 0.0 0.0
-191.98301097455126 -1.0363716155864982 -57.90581477704132 71.67637417471467 0.0 0.0
-89.19436816927183 -26.70014768165971 -34.76835475527947 49.48853291675789 0.0 0.0
-38.27435541808596 -21.133995821888554 -17.82250537199235 26.149595156365226 0.0 0.0
-34.699658589100046 -11.833401265878956 -13.959917956493701 -14.665824424529001 0.0 0.0
-87.30121330186293 -17.413766864306332 -31.414494049850777 -24.802806967663503 0.0 0.0
-205.33755525606693 -1.2368793814225167 -61.97233039124683 -34.79751201233063 0.0 0.0
-374.5713442202208 -10.734900667995904 -116.47083701935537 -32.14799621299224 0.0 0.0
-549.693650735664 -36.90474756003206 -208.96927001930746 -23.756430216168678 0.0 0.0
-671.8004724094563 -60.08708700555657 -322.96554303733853 -24.089092496409556 0.0 0.0
-766.9121152029724 -81.60131397496596 -412.41260279102204 -24.618431902911436 0.0 0.0
-856.5108746618661 -105.9713066136259 -478.62381530772404 -24.972448523514178 0.0 0.0
-936.1569806099903 -127.1135724748071 -530.6195813858831 -25.816408928978483 0.0 0.0
-1007.9845873744949 -146.26497158202915 -576.4502133985274 -26.746793103104558 0.0 0.0
-1076.0411362290974 -166.53518336278486 -620.6827612187886 -27.213094625414477 0.0 0.0
-1143.0315858789131 -189.85532062775388 -665.8550932358564 -27.21682210704698 0.0 0.0
-1208.2364785911677 -215.98536813908433 -711.5525820651294 -26.897490865867184 0.0 0.0
-1268.1365111126624 -239.6731942406031 -753.3904724805841 -26.345673413745295 0.0 0.0
-1315.9135912882011 -254.47117616234084 -784.7477274107129 -25.32374323279584 0.0 0.0
-1345.7066252491688 -254.58930617254487 -799.7776444794201 -23.422016870202356 0.0 0.0
-1355.8162547449406 -238.83878557976504 -796.9815979041191 -20.952128670448534 0.0 0.0
-1340.493439366372 -202.75209630592087 -771.4138765539362 -20.79338617117943 0.0 0.0
-1206.5415798636297 -56.29090424636388 -631.8127816558917 -29.36779961680331 0.0 0.0
-702.1067406461785 445.09051674116097 -129.19017524020444 -51.055128252848064 0.0 0.0
-3791.348419206023 -2675.2251890545967 -3227.841258955111 -1.8615864405546745e-10 0.0 0.0
-702.1067406438046 445.0905167434804 -129.19017523849664 51.05512825287881 0.0 0.0
-1206.54157986281 -56.290904245631026 -631.8127816553355 29.367799616866098 0.0 0.0
-1340.4934393665653 -202.75209630617772 -771.413876554041 20.793386171166546 0.0 0.0
-1355.8162547442635 -238.8387855792288 -796.9815979036352 20.95212867037551 0.0 0.0
-1345.7066252476238 -254.58930617115908 -799.777644478294 23.422016870258048 0.0 0.0
-1315.913591288202 -254.47117616253706 -784.7477274106903 25.32374323300114 0.0 0.0
-1268.1365111120112 -239.67319424009975 -753.3904724801488 26.345673413587384 0.0 0.0
-1208.2364785910079 -215.98536813914342 -711.5525820650191 26.897490865810664 0.0 0.0
-1143.0315858795536 -189.85532062865488 -665.8550932363593 27.216822106943773 0.0 0.0
-1076.0411362289558 -166.53518336286652 -620.6827612186838 27.213094625184414 0.0 0.0
-1007.9845873741817 -146.2649715820299 -576.4502133982862 26.746793103024736 0.0 0.0
-936.1569806095506 -127.11357247464653 -530.6195813855753 25.816408928835152 0.0 0.0
-856.5108746607797 -105.97130661280809 -478.62381530699673 24.972448523260226 0.0 0.0
-766.91211520223 -81.6013139745828 -412.41260279046605 24.6184319030509 0.0 0.0
-671.8004724087641 -60.08708700519099 -322.9655430367021 24.089092496329958 0.0 0.0
-549.693650735316 -36.90474756008729 -208.96927001901477 23.75643021608281 0.0 0.0
-374.57134421957966 -10.734900667596179 -116.47083701904228 32.147996212924284 0.0 0.0
-205.33755525598048 -1.2368793814988428 -61.97233039124378 34.79751201241766 0.0 0.0
-87.30121330182571 -17.41376686431892 -31.414494049843377 24.80280696750767 0.0 0.0
-34.69965858902726 -11.833401265834954 -13.959917956458659 14.665824424744937 0.0 0.0
-23.176279304098287 -6.165591283198839 -8.802561176189135 -8.881184358403914 0.0 0.0
-76.60747288771066 -9.999268511938663 -25.9820224198948 -10.31230205777889 0.0 0.0
-216.46011797065125 -3.9689563235446172 -66.12872228825873 -11.289585102650006 0.0 0.0
-422.87441887832466 -32.20521139468049 -140.56050377486375 -6.637044158988773 0.0 0.0
-626.3230394029385 -90.4229010993111 -265.5678171421693 1.0803294523241291 0.0 0.0
-778.0492148684964 -148.32565117656077 -413.82550657048296 1.4297804264789171 0.0 0.0
-916.8725670642625 -216.30178859076375 -545.1076016939439 0.23643100903055725 0.0 0.0
-1064.2720003087761 -299.9470160738051 -668.9926108024517 -1.3686526258245806 0.0 0.0
-1221.23440501858 -399.0856815033512 -798.763800469683 -3.2317901891825933 0.0 0.0
-1397.0070494699416 -521.8367179081926 -948.1389944566212 -5.232483573623776 0.0 0.0
-1597.867363405378 -674.2224115408465 -1124.3983776317814 -7.051596461570638 0.0 0.0
-1823.540171422042 -856.2258996181218 -1327.7903774088766 -8.425038957267345 0.0 0.0
-2066.63803728084 -1059.2360459078882 -1550.4337343354614 -9.334486564694789 0.0 0.0
-2315.0278660664585 -1270.953549570342 -1780.182122929471 -10.008903519715643 0.0 0.0
-2550.427824319858 -1473.0282120469733 -1998.7320278439026 -10.223574243991816 0.0 0.0
-2748.476847232901 -1641.3297244043029 -2181.842634982337 -9.67515597964718 0.0 0.0
-2882.855877780368 -1750.1505449670258 -2303.392446052733 -8.122293486657451 0.0 0.0
-2949.385165652548 -1796.0400247846683 -2359.098702248888 -7.191661489373256 0.0 0.0
-3038.598486617403 -1870.9884643461155 -2439.704535021245 -15.013032370579943 0.0 0.0
-3164.593274303192 -1995.658445984822 -2562.887643477332 -41.16236759202555 0.0 0.0
-6793.121273412295 -5648.982760848232 -6197.603107110255 -6.943423613847699e-11 0.0 0.0
-3164.593274299423 -1995.658445981047 -2562.8876434746107 41.1623675920834 0.0 0.0
-3038.5984866153285 -1870.9884643441058 -2439.7045350193557 15.013032370542799 0.0 0.0
-2949.3851656528777 -1796.040024785108 -2359.0987022489876 7.191661489223073 0.0 0.0
-2882.855877776588 -1750.1505449633814 -2303.3924460497715 8.122293486849244 0.0 0.0
-2748.476847228663 -1641.329724400168 -2181.842634978976 9.675155979613521 0.0 0.0
-2550.4278243183007 -1473.0282120456163 -1998.7320278424631 10.223574244192399 0.0 0.0
-2315.0278660670074 -1270.9535495710943 -1780.1821229294912 10.00890351953721 0.0 0.0
-2066.6380372791855 -1059.2360459064703 -1550.4337343340082 9.334486564748168 0.0 0.0
-1823.5401714212398 -856.2258996175583 -1327.7903774081633 8.425038957189827 0.0 0.0
-1597.8673634045977 -674.2224115403501 -1124.3983776309865 7.051596461444291 0.0 0.0
-1397.0070494688566 -521.8367179074064 -948.1389944557027 5.23248357378138 0.0 0.0
-1221.2344050169036 -399.08568150195106 -798.7638004684459 3.2317901889786746 0.0 0.0
-1064.2720003070958 -299.947016072434 -668.9926108012655 1.3686526255431808 0.0 0.0
-916.8725670633121 -216.30178859014458 -545.1076016931291 -0.23643100863669275 0.0 0.0
-778.0492148673453 -148.32565117566753 -413.82550656951616 -1.4297804266306002 0.0 0.0
-626.3230394023653 -90.42290109907074 -265.56781714165146 -1.080329452412002 0.0 0.0
-422.8744188777602 -32.205211394340985 -140.56050377454935 6.637044158852888 0.0 0.0
-216.46011797063244 -3.9689563239365633 -66.1287222883707 11.289585102673572 0.0 0.0
-76.60747288750804 -9.999268511766758 -25.98202241978244 10.31230205774732 0.0 0.0
-23.176279303982696 -6.165591283129879 -8.80256117613377 8.88118435871806 0.0 0.0
SCALARS Strain float 6
LOOKUP_TABLE default
0.015866417592176066 -0.026054211991513324 0.0 -0.001767048609420091 0.0 0.0
0.009772401781757145 -0.003190711230285886 0.0 -0.007821738096879973 0.0 0.0
0.0028592210683773558 -0.0006463111183577071 0.0 -0.0010076453689779402 0.0 0.0
0.002391682207895429 -0.0009477310170637361 0.0 3.609860883281107e-05 0.0 0.0
0.003731378559905782 -0.0017036810626450249 0.0 0.00026242154567545555 0.0 0.0
0.006675912429391745 -0.003984176765185888 0.0 0.0004551772548694648 0.0 0.0
0.011797768824289998 -0.008436739923100607 0.0 0.0005937577263643929 0.0 0.0
0.01955710783801222 -0.015492682051866047 0.0 0.000634050481116339 0.0 0.0
0.030297738685023112 -0.025458633968235313 0.0 0.0005662333299350252 0.0 0.0
0.0441243478819795 -0.03838262713787106 0.0 0.00034946394540046565 0.0 0.0
0.060897317571426204 -0.054089302721748764 0.0 1.5640655507439595e-05 0.0 0.0
0.08033092358953273 -0.07229411900464539 0.0 -0.00041222531629396005 0.0 0.0
0.10207952920828212 -0.09269180394236784 0.0 -0.0009364342213502911 0.0 0.0
0.12576919973745682 -0.11495741346805885 0.0 -0.0015129500431153822 0.0 0.0
0.15092124180004338 -0.13867416957303796 0.0 -0.002155319600558145 0.0 0.0
0.17681340457875733 -0.16319177712863364 0.0 -0.0028188945448112063 0.0 0.0
0.20239825182424986 -0.18753775115208032 0.0 -0.0033617183930097438 0.0 0.0
0.22631894575799577 -0.21042711422088312 0.0 -0.0035840223323822308 0.0 0.0
0.24703849183978172 -0.23032184031426223 0.0 -0.003374931340182952 0.0 0.0
0.26261688348828943 -0.24537257270374785 0.0 -0.004225962595198809 0.0 0.0
0.2688333222271926 -0.2516379558459393 0.0 2.6281060661048627e-15 0.0 0.0
0.262616883488253 -0.2453725727037061 0.0 0.004225962595209442 0.0 0.0
0.24703849183970616 -0.23032184031418595 0.0 0.0033749313401973784 0.0 0.0
0.22631894575788913 -0.21042711422078747 0.0 0.0035840223323901077 0.0 0.0
0.20239825182412577 -0.18753775115196908 0.0 0.0033617183930071265 0.0 0.0
0.1768134045786241 -0.16319177712850136 0.0 0.0028188945448050246 0.0 0.0
0.1509212417999084 -0.13867416957290554 0.0 0.002155319600556817 0.0 0.0
0.1257691997373243 -0.11495741346793573 0.0 0.001512950043112863 0.0 0.0
0.10207952920815414 -0.0926918039422336 0.0 0.0009364342213452198 0.0 0.0
0.0803309235894144 -0.07229411900454119 0.0 0.00041222531628929814 0.0 0.0
0.06089731757132409 -0.05408930272165438 0.0 -1.5640655512385183e-05 0.0 0.0
0.04412434788189694 -0.038382627137792835 0.0 -0.00034946394540515276 0.0 0.0
0.030297738684960766 -0.025458633968178504 0.0 -0.0005662333299329642 0.0 0.0
0.019557107837968542 -0.01549268205182652 0.0 -0.0006340504811152401 0.0 0.0
0.011797768824260918 -0.008436739923076876 0.0 -0.0005937577263643028 0.0 0.0
0.006675912429375251 -0.003984176765169331 0.0 -0.0004551772548680046 0.0 0.0
0.0037313785598993158 -0.0017036810626419544 0.0 -0.0002624215456732251 0.0 0.0
0.0023916822078939425 -0.0009477310170616531 0.0 -3.609860883240073e-05 0.0 0.0
0.002859221068375238 -0.0006463111183615774 0.0 0.0010076453689760781 0.0 0.0
0.009772401781750716 -0.003190711230281584 0.0 0.007821738096866957 0.0 0.0
0.015866417592167132 -0.026054211991487764 0.0 0.0017670486093675638 0.0 0.0
0.011235787712503751 -0.023442769790413973 0.0 -0.0013057349048024942 0.0 0.0
0.006562742603181591 -0.0024003340446130386 0.0 -0.006490653163712655 0.0 0.0
0.0018425510727112628 -0.0004764120880471905 0.0 -0.0006296548919315126 0.0 0.0
0.002089033278097752 -0.0008876846343655023 0.0 -0.00018145654825805726 0.0 0.0
0.003182704393607937 -0.0015195804230427991 0.0 -0.00014391448802500325 0.0 0.0
0.005693546629658467 -0.003568989133785604 0.0 -0.00026499344369257816 0.0 0.0
0.010256081256053174 -0.007724900479965316 0.0 -0.0006559605492658526 0.0 0.0
0.01729843787866607 -0.014414983841980058 0.0 -0.0012902233201388875 0.0 0.0
0.027094478664976385 -0.023905780268282613 0.0 -0.002190957214411785 0.0 0.0
0.03967253078100462 -0.03620639781196945 0.0 -0.0033224200029020674 0.0 0.0
0.054860875536050686 -0.051125138408598635 0.0 -0.004576852628847272 0.0 0.0
0.07239772787964709 -0.06838686030017681 0.0 -0.005862169592381243 0.0 0.0
0.09200848067268172 -0.08771769114622459 0.0 -0.007167664633342437 0.0 0.0
0.11338351884935631 -0.10882870075440343 0.0 -0.00848891868792003 0.0 0.0
0.1361041463338909 -0.1313313865816877 0.0 -0.009775129253244997 0.0 0.0
0.15954536402561964 -0.15462597592356295 0.0 -0.010891573925768816 0.0 0.0
0.18279584632807178 -0.17781497951499972 0.0 -0.011551327087011648 0.0 0.0
0.2046474936818295 -0.19968592424129608 0.0 -0.01140973454185788 0.0 0.0
0.22352948358521743 -0.21871122152567313 0.0 -0.01039388038690662 0.0 0.0
0.23706707184917872 -0.23281557651799156 0.0 -0.009650582883834862 0.0 0.0
0.24212985151344485 -0.23873600465806782 0.0 1.0652069504235584e-14 0.0 0.0
0.2370670718491446 -0.23281557651795792 0.0 0.009650582883859546 0.0 0.0
0.2235294835851494 -0.2187112215256006 0.0 0.010393880386935866 0.0 0.0
0.20464749368173607 -0.19968592424120002 0.0 0.011409734541876132 0.0 0.0
0.18279584632796267 -0.17781497951489367 0.0 0.011551327087012064 0.0 0.0
0.15954536402550024 -0.15462597592344735 0.0 0.010891573925763318 0.0 0.0
0.13610414633376902 -0.13133138658156904 0.0 0.009775129253243139 0.0 0.0
0.11338351884923681 -0.1088287007542906 0.0 0.008488918687915997 0.0 0.0
0.09200848067256681 -0.08771769114610188 0.0 0.007167664633334239 0.0 0.0
0.07239772787954077 -0.06838686030007594 0.0 0.0058621695923725525 0.0 0.0
0.054860875535959044 -0.051125138408507596 0.0 0.004576852628836871 0.0 0.0
0.0396725307809302 -0.03620639781189396 0.0 0.0033224200028916092 0.0 0.0
0.027094478664919448 -0.023905780268228094 0.0 0.0021909572144072752 0.0 0.0
0.01729843787862587 -0.01441498384193687 0.0 0.0012902233201351901 0.0 0.0
0.010256081256026721 -0.007724900479944898 0.0 0.0006559605492623169 0.0 0.0
0.005693546629644246 -0.0035689891337727956 0.0 0.00026499344369271504 0.0 0.0
0.0031827043936024633 -0.0015195804230386234 0.0 0.00014391448802622903 0.0 0.0
0.0020890332780961894 -0.0008876846343634764 0.0 0.00018145654825753283 0.0 0.0
0.0018425510727106565 -0.00047641208804966603 0.0 0.0006296548919297964 0.0 0.0
0.006562742603174163 -0.002400334044609388 0.0 0.0064906531636994 0.0 0.0
0.011235787712489604 -0.02344276979038678 0.0 0.0013057349047630113 0.0 0.0
0.008309987237687659 -0.018821665826452554 0.0 -0.00454605610313656 0.0 0.0
0.004691128283626711 -0.0013534948309296784 0.0 -0.006674879576643 0.0 0.0
0.001265760767525687 -0.00023532616798760527 0.0 -0.0005485885992545481 0.0 0.0
0.001755284781905517 -0.0007420441622601135 0.0 -0.0004778695277614679 0.0 0.0
0.002685741620572583 -0.0011980126009376152 0.0 -0.0005106763127439896 0.0 0.0
0.0047650871300225 -0.002785077054168536 0.0 -0.0007465968863043352 0.0 0.0
0.008734894011664364 -0.006325111736853289 0.0 -0.0014953754203231415 0.0 0.0
0.015018569845870168 -0.012262994753087045 0.0 -0.0027124362087300505 0.0 0.0
0.023817090317804886 -0.020776889747467907 0.0 -0.0044168678850642195 0.0 0.0
0.035106311331926716 -0.031812775371976285 0.0 -0.006497671198443193 0.0 0.0
0.04869153818332576 -0.04514599689583232 0.0 -0.008756530402104527 0.0 0.0
0.06432834171899694 -0.06052082164439619 0.0 -0.011021996575612241 0.0 0.0
0.08178654680771626 -0.07771434847991887 0.0 -0.01325645487498604 0.0 0.0
0.10082478906349353 -0.09650330944039787 0.0 -0.015498617651345727 0.0 0.0
0.12110291118208716 -0.11656963964228947 0.0 -0.017682397010341123 0.0 0.0
0.14210365413189358 -0.13741909875576647 0.0 -0.01955906824435096 0.0 0.0
0.16306519848673667 -0.1583055844689635 0.0 -0.02068133577007622 0.0 0.0
0.18288464781093897 -0.1781536180275748 0.0 -0.020558895249833002 0.0 0.0
0.19994987413491067 -0.19543850471271076 0.0 -0.01901901187314384 0.0 0.0
0.21217995189416036 -0.20799877579886725 0.0 -0.016256778532114914 0.0 0.0
0.2168064337232859 -0.21360029832728838 0.0 1.7655148176753954e-14 0.0 0.0
0.21217995189412917 -0.20799877579884055 0.0 0.016256778532160503 0.0 0.0
0.19994987413485063 -0.1954385047126482 0.0 0.019019011873190217 0.0 0.0
0.18288464781085667 -0.1781536180274903 0.0 0.02055889524986329 0.0 0.0
0.16306519848664033 -0.1583055844688772 0.0 0.020681335770077205 0.0 0.0
0.14210365413178747 -0.13741909875567254 0.0 0.0195590682443426 0.0 0.0
0.12110291118197838 -0.11656963964218542 0.0 0.01768239701033499 0.0 0.0
0.10082478906338722 -0.09650330944030004 0.0 0.015498617651338264 0.0 0.0
0.08178654680761478 -0.07771434847981332 0.0 0.013256454874972554 0.0 0.0
0.06432834171890305 -0.06052082164430149 0.0 0.011021996575597564 0.0 0.0
0.048691538183243954 -0.0451459968957525 0.0 0.00875653040208906 0.0 0.0
0.03510631133186021 -0.0318127753719126 0.0 0.006497671198426234 0.0 0.0
0.02381709031775412 -0.02077688974742103 0.0 0.004416867885053838 0.0 0.0
0.015018569845834124 -0.012262994753047603 0.0 0.002712436208721405 0.0 0.0
0.008734894011642104 -0.006325111736836077 0.0 0.0014953754203158144 0.0 0.0
0.004765087130012091 -0.0027850770541619505 0.0 0.0007465968863034148 0.0 0.0
0.0026857416205686028 -0.001198012600934553 0.0 0.0005106763127408595 0.0 0.0
0.0017552847819045428 -0.0007420441622585888 0.0 0.00047786952776039237 0.0 0.0
0.0012657607675256315 -0.00023532616798850885 0.0 0.000548588599252466 0.0 0.0
0.0046911282836191864 -0.0013534948309262707 0.0 0.006674879576626762 0.0 0.0
0.008309987237673053 -0.01882166582642476 0.0 0.00454605610311277 0.0 0.0
0.0063272751837904016 -0.015223756863336387 0.0 -0.004993075467554053 0.0 0.0
0.003488704191974965 -0.0009709687283622681 0.0 -0.006105235285457889 0.0 0.0
0.0008945997945063054 -0.00012868529103051012 0.0 -0.0008251930034914741 0.0 0.0
0.0014378188808211465 -0.0005805861567457387 0.0 -0.000784007270172574 0.0 0.0
0.0022360390424878366 -0.0009509042226247264 0.0 -0.0008493334060014492 0.0 0.0
0.00391009934617289 -0.002113448127239854 0.0 -0.0011421275874291502 0.0 0.0
0.007260000465623622 -0.004994488720060895 0.0 -0.002063236067863756 0.0 0.0
0.012741694646758473 -0.010130148013697615 0.0 -0.0037424277240539847 0.0 0.0
0.020502701408383547 -0.01762306518709669 0.0 -0.0060503871433699235 0.0 0.0
0.030470944650790102 -0.027359592004041602 0.0 -0.008841009929547236 0.0 0.0
0.04243315709876236 -0.039089658542454254 0.0 -0.01184384640684412 0.0 0.0
0.056160710183746174 -0.052570990230252544 0.0 -0.01484903059296027 0.0 0.0
0.07146123093286866 -0.06762069584167381 0.0 -0.017807390077408784 0.0 0.0
0.08814510755380191 -0.08407126087949263 0.0 -0.02074185837187042 0.0 0.0
0.10596069747237402 -0.10168285600427888 0.0 -0.023581458975870898 0.0 0.0
0.12451506499930981 -0.12007766994505303 0.0 -0.026057757956356526 0.0 0.0
0.14318315109857255 -0.13866118403935326 0.0 -0.027661644667020098 0.0 0.0
0.16097783023795856 -0.15649141715118894 0.0 -0.027792219228623582 0.0 0.0
0.17644301514133112 -0.17212886456904797 0.0 -0.02584571852341363 0.0 0.0
0.18780786543690572 -0.18370443127543545 0.0 -0.020856840515817047 0.0 0.0
0.19223522016286176 -0.18949050061175673 0.0 2.5259308533698288e-14 0.0 0.0
0.18780786543687739 -0.18370443127541045 0.0 0.020856840515878994 0.0 0.0
0.17644301514127814 -0.17212886456899254 0.0 0.025845718523469806 0.0 0.0
0.1609778302378867 -0.1564914171511082 0.0 0.02779221922866093 0.0 0.0
0.14318315109848873 -0.13866118403927807 0.0 0.027661644667027613 0.0 0.0
0.12451506499921758 -0.12007766994496569 0.0 0.02605775795634671 0.0 0.0
0.10596069747227795 -0.101682856004184 0.0 0.023581458975859056 0.0 0.0
0.0881451075537088 -0.08407126087940822 0.0 0.020741858371863663 0.0 0.0
0.07146123093277995 -0.06762069584158624 0.0 0.01780739007739214 0.0 0.0
0.05616071018366374 -0.05257099023016848 0.0 0.014849030592938496 0.0 0.0
0.04243315709869089 -0.039089658542387315 0.0 0.011843846406823899 0.0 0.0
0.030470944650731496 -0.0273595920039888 0.0 0.008841009929526933 0.0 0.0
0.02050270140833893 -0.017623065187052218 0.0 0.006050387143355691 0.0 0.0
0.012741694646727092 -0.010130148013667638 0.0 0.0037424277240421834 0.0 0.0
0.007260000465604797 -0.004994488720045709 0.0 0.0020632360678563767 0.0 0.0
0.0039100993461645035 -0.0021134481272329923 0.0 0.0011421275874268647 0.0 0.0
0.002236039042485041 -0.0009509042226247266 0.0 0.000849333405998968 0.0 0.0
0.001437818880820957 -0.0005805861567451727 0.0 0.0007840072701721533 0.0 0.0
0.0008945997945063364 -0.00012868529103115492 0.0 0.0008251930034891774 0.0 0.0
0.003488704191968281 -0.0009709687283583861 0.0 0.006105235285443758 0.0 0.0
0.006327275183777245 -0.015223756863311505 0.0 0.004993075467535805 0.0 0.0
0.0048336863952748235 -0.012315372142406624 0.0 -0.004422576702895158 0.0 0.0
0.0026281111059424708 -0.0007623359892755258 0.0 -0.005439290271707438 0.0 0.0
0.0006471224473451389 -8.118713840912404e-05 0.0 -0.0012276350569680023 0.0 0.0
0.0011573223768477784 -0.0004396188758638322 0.0 -0.0011190801436375551 0.0 0.0
0.0018317346197190914 -0.000754430859447359 0.0 -0.001180755522265461 0.0 0.0
0.0031434779809356665 -0.0015704522651934785 0.0 -0.0014715386097306326 0.0 0.0
0.005861044063662726 -0.0037820656266851693 0.0 -0.002433772363549288 0.0 0.0
0.010496484683636157 -0.008047910524764746 0.0 -0.004343494878597432 0.0 0.0
0.01718967864101325 -0.014483974980725546 0.0 -0.0070817961161416774 0.0 0.0
0.025808775422959875 -0.022892910109523875 0.0 -0.010349380900913325 0.0 0.0
0.036131143803974336 -0.03300283507599147 0.0 -0.013848482954225224 0.0 0.0
0.04793722952716781 -0.044580582984402976 0.0 -0.017347979006731813 0.0 0.0
0.06106997845995085 -0.05747913501931885 0.0 -0.020799491369899874 0.0 0.0
0.07539705866485143 -0.07158446783063188 0.0 -0.024214839744914073 0.0 0.0
0.09073631033149088 -0.08672902562752668 0.0 -0.027493024176607962 0.0 0.0
0.10680657734296087 -0.10264105554588847 0.0 -0.030373397715316997 0.0 0.0
0.12314038094874549 -0.11887615167454552 0.0 -0.032412086266589146 0.0 0.0
0.13893438463097615 -0.13467182320018892 0.0 -0.03292046961246361 0.0 0.0
0.1529696177794127 -0.1488240722937316 0.0 -0.030751225036738522 0.0 0.0
0.16374065747345365 -0.1597524313502608 0.0 -0.024309260446292745 0.0 0.0
0.16811244983355336 -0.16595102323192298 0.0 3.090843553321676e-14 0.0 0.0
0.16374065747342817 -0.1597524313502414 0.0 0.02430926044636289 0.0 0.0
0.15296961777936635 -0.14882407229368147 0.0 0.030751225036806294 0.0 0.0
0.13893438463091448 -0.13467182320011523 0.0 0.03292046961250681 0.0 0.0
0.1231403809486731 -0.11887615167447235 0.0 0.03241208626660031 0.0 0.0
0.10680657734288052 -0.10264105554580505 0.0 0.03037339771530667 0.0 0.0
0.0907363103314082 -0.08672902562744933 0.0 0.027493024176594424 0.0 0.0
0.07539705866477162 -0.07158446783055933 0.0 0.0242148397449027 0.0 0.0
0.06106997845987436 -0.057479135019246286 0.0 0.02079949136987941 0.0 0.0
0.04793722952709765 -0.04458058298433194 0.0 0.017347979006704633 0.0 0.0
0.03613114380391288 -0.03300283507593088 0.0 0.013848482954200238 0.0 0.0
0.025808775422909346 -0.022892910109479046 0.0 0.010349380900892059 0.0 0.0
0.017189678640975023 -0.01448397498068589 0.0 0.0070817961161256104 0.0 0.0
0.010496484683609607 -0.008047910524743327 0.0 0.004343494878585038 0.0 0.0
0.00586104406364749 -0.003782065626672707 0.0 0.0024337723635431434 0.0 0.0
0.0031434779809291842 -0.0015704522651849644 0.0 0.0014715386097287138 0.0 0.0
0.0018317346197172318 -0.0007544308594486077 0.0 0.0011807555222643487 0.0 0.0
0.0011573223768475028 -0.0004396188758641395 0.0 0.0011190801436376568 0.0 0.0
0.0006471224473449082 -8.118713840893864e-05 0.0 0.0012276350569654301 0.0 0.0
0.002628111105936668 -0.0007623359892720732 0.0 0.005439290271698626 0.0 0.0
0.00483368639526366 -0.012315372142385225 0.0 0.0044225767028804475 0.0 0.0
0.0036511306946291075 -0.009879849982101285 0.0 -0.0036486104752023168 0.0 0.0
0.0019712339224253195 -0.0006149535029210091 0.0 -0.004788552966811738 0.0 0.0
0.00047227919259244127 -6.879620553060055e-05 0.0 -0.0016164618593030558 0.0 0.0
0.0009090490794746338 -0.0003173954364642723 0.0 -0.001454785487253047 0.0 0.0
0.0014697762623452166 -0.0005956507643873006 0.0 -0.0015122971400644105 0.0 0.0
0.002464812499008834 -0.0011470548558415838 0.0 -0.0017540460641628907 0.0 0.0
0.004573952436683902 -0.002732169921094066 0.0 -0.0026816368024786324 0.0 0.0
0.008329115099381123 -0.00607902199945456 0.0 -0.004580164786422067 0.0 0.0
0.013908137449160217 -0.01139977349324349 0.0 -0.007489224746057845 0.0 0.0
0.021161474580056582 -0.01845782879942567 0.0 -0.011016340521998215 0.0 0.0
0.029828398225803236 -0.026932357332894293 0.0 -0.01476773721035535 0.0 0.0
0.03970397602858597 -0.03659770599728621 0.0 -0.01851923347049632 0.0 0.0
0.05066211645640501 -0.04733802435166895 0.0 -0.02222078864476159 0.0 0.0
0.06262143224142966 -0.059091982745435964 0.0 -0.025884083288038564 0.0 0.0
0.07547498225853695 -0.07176114677190239 0.0 -0.029401534967315235 0.0 0.0
0.08903019377422391 -0.08515996592721231 0.0 -0.032509675243523786 0.0 0.0
0.10296422917707063 -0.0989780034902474 0.0 -0.03484493082359193 0.0 0.0
0.1167327553097002 -0.11269536902953242 0.0 -0.035748520459704176 0.0 0.0
0.129427192029122 -0.1254449654356579 0.0 -0.03377897445228021 0.0 0.0
0.1397808989327667 -0.13592813925221103 0.0 -0.0268034959765489 0.0 0.0
0.1441966252640318 -0.14271857517615869 0.0 3.175584795123143e-14 0.0 0.0
0.1397808989327446 -0.1359281392521903 0.0 0.02680349597662284 0.0 0.0
0.12942719202908212 -0.1254449654356154 0.0 0.033778974452353096 0.0 0.0
0.11673275530964772 -0.11269536902947322 0.0 0.03574852045974866 0.0 0.0
0.10296422917700919 -0.0989780034901889 0.0 0.03484493082359887 0.0 0.0
0.0890301937741559 -0.08515996592714203 0.0 0.03250967524350877 0.0 0.0
0.07547498225846735 -0.0717611467718415 0.0 0.029401534967304688 0.0 0.0
0.06262143224136296 -0.05909198274537095 0.0 0.025884083288023788 0.0 0.0
0.050662116456341846 -0.047338024351606126 0.0 0.022220788644741297 0.0 0.0
0.039703976028528584 -0.036597705997223715 0.0 0.018519233470471342 0.0 0.0
0.02982839822575266 -0.02693235733283863 0.0 0.014767737210327012 0.0 0.0
0.02116147458001414 -0.018457828799391084 0.0 0.011016340521974342 0.0 0.0
0.01390813744912862 -0.011399773493213505 0.0 0.007489224746040199 0.0 0.0
0.008329115099359902 -0.006079021999438507 0.0 0.0045801647864107346 0.0 0.0
0.004573952436672006 -0.002732169921083345 0.0 0.0026816368024711232 0.0 0.0
0.002464812499004284 -0.0011470548558381016 0.0 0.0017540460641604907 0.0 0.0
0.0014697762623438703 -0.0005956507643882732 0.0 0.0015122971400624529 0.0 0.0
0.0009090490794744546 -0.0003173954364649697 0.0 0.0014547854872519724 0.0 0.0
0.0004722791925926296 -6.879620553033113e-05 0.0 0.001616461859299696 0.0 0.0
0.0019712339224204163 -0.0006149535029188081 0.0 0.004788552966803077 0.0 0.0
0.003651130694619422 -0.009879849982082961 0.0 0.003648610475194592 0.0 0.0
0.0027024801287922366 -0.007814874077992216 0.0 -0.002935498865922561 0.0 0.0
0.0014551201657707533 -0.0004985738283963207 0.0 -0.0041973732129464095 0.0 0.0
0.0003383332885477661 -7.052053708347133e-05 0.0 -0.0019380293647851283 0.0 0.0
0.0006822831586484425 -0.00020937344689386464 0.0 -0.0017630262412221117 0.0 0.0
0.0011395919943398406 -0.00045639262611309737 0.0 -0.001825636390610879 0.0 0.0
0.00186717363610139 -0.0008265452966993896 0.0 -0.002026466765674442 0.0 0.0
0.00341038163092767 -0.0018644888001423782 0.0 -0.002810843921387742 0.0 0.0
0.006292261637207794 -0.004296866735168541 0.0 -0.004562487047404436 0.0 0.0
0.010716428003027384 -0.0084380956155648 0.0 -0.0073227680844647255 0.0 0.0
0.016567643294419687 -0.014103323101834115 0.0 -0.010821314028717338 0.0 0.0
0.023569371343855682 -0.02092712127481119 0.0 -0.014586609228366132 0.0 0.0
0.03150600364258774 -0.02867267166069625 0.0 -0.01835276873663025 0.0 0.0
0.040283754019083025 -0.03725176791663505 0.0 -0.022059508065781046 0.0 0.0
0.04987095283949984 -0.046648187340843535 0.0 -0.02573067941813886 0.0 0.0
0.06022336360307014 -0.05683002237373844 0.0 -0.029271908447863513 0.0 0.0
0.071229584258938 -0.06769082538610004 0.0 -0.032431647493398746 0.0 0.0
0.08270201708553607 -0.0790260949191355 0.0 -0.03487797195239701 0.0 0.0
0.09436224403892525 -0.09056818423089838 0.0 -0.03613951196731447 0.0 0.0
0.10569046226144009 -0.10187667505128996 0.0 -0.03481589095405822 0.0 0.0
0.11571713902558375 -0.11200911147686703 0.0 -0.02833126879772273 0.0 0.0
0.1202509248069128 -0.11955679176740627 0.0 3.038715112868573e-14 0.0 0.0
0.11571713902556538 -0.11200911147684825 0.0 0.028331268797797474 0.0 0.0
0.10569046226140717 -0.10187667505125485 0.0 0.0348158909541319 0.0 0.0
0.09436224403888192 -0.09056818423085283 0.0 0.03613951196735763 0.0 0.0
0.0827020170854857 -0.07902609491908977 0.0 0.03487797195240205 0.0 0.0
0.07122958425888322 -0.06769082538604738 0.0 0.0324316474933796 0.0 0.0
0.06022336360301396 -0.05683002237368498 0.0 0.029271908447849986 0.0 0.0
0.049870952839446925 -0.0466481873407941 0.0 0.025730679418125787 0.0 0.0
0.040283754019034154 -0.037251767916585916 0.0 0.022059508065764403 0.0 0.0
0.031506003642542045 -0.02867267166064072 0.0 0.018352768736609085 0.0 0.0
0.023569371343814826 -0.020927121274771227 0.0 0.014586609228335323 0.0 0.0
0.016567643294385734 -0.014103323101804708 0.0 0.010821314028691898 0.0 0.0
0.010716428003002399 -0.008438095615544355 0.0 0.0073227680844453556 0.0 0.0
0.006292261637191649 -0.004296866735152864 0.0 0.004562487047391954 0.0 0.0
0.0034103816309189565 -0.0018644888001358496 0.0 0.0028108439213787484 0.0 0.0
0.0018671736360984727 -0.0008265452966981981 0.0 0.0020264667656706707 0.0 0.0
0.0011395919943392567 -0.00045639262611663685 0.0 0.0018256363906096608 0.0 0.0
0.0006822831586484656 -0.00020937344689269058 0.0 0.0017630262412200478 0.0 0.0
0.00033833328854778 -7.052053708364207e-05 0.0 0.0019380293647805248 0.0 0.0
0.0014551201657669185 -0.0004985738283953291 0.0 0.004197373212936952 0.0 0.0
0.0027024801287851333 -0.007814874077977048 0.0 0.002935498865917619 0.0 0.0
0.0019422482140856036 -0.006069865909867892 0.0 -0.0023716490268387556 0.0 0.0
0.0010439102974220927 -0.00040759809916000086 0.0 -0.0036655944689563697 0.0 0.0
0.0002246120725562324 -7.044756364236028e-05 0.0 -0.0021811578773739465 0.0 0.0
0.0004671087308604909 -0.00011237214234722633 0.0 -0.002025588618575808 0.0 0.0
0.0008263720049783968 -0.00031944954626733326 0.0 -0.002097348041608497 0.0 0.0
0.0013428722122363018 -0.0005806010526383785 0.0 -0.0022993992633167735 0.0 0.0
0.002380081180493152 -0.0011887867537159133 0.0 -0.0028764882139920064 0.0 0.0
0.004415987927904961 -0.002758499467251811 0.0 -0.00431236872911816 0.0 0.0
0.007679399516906611 -0.005691839489704257 0.0 -0.006689688630639149 0.0 0.0
0.012087782832736007 -0.009905429872584748 0.0 -0.009807246828716074 0.0 0.0
0.01739499290101591 -0.015045272546064064 0.0 -0.013289785500633786 0.0 0.0
0.02338891923988436 -0.020863223315775375 0.0 -0.016816323406785204 0.0 0.0
0.029986330456700766 -0.02728144744926549 0.0 -0.020289146581982217 0.0 0.0
0.03719139668731504 -0.03431561161029452 0.0 -0.023724682794558045 0.0 0.0
0.04502827291211835 -0.041994216290145006 0.0 -0.0270725022728098 0.0 0.0
0.05346528594053435 -0.05029444500363789 0.0 -0.030106792923027974 0.0 0.0
0.0624082406880669 -0.05910276728966035 0.0 -0.032480371718655456 0.0 0.0
0.07181907076858583 -0.06833024267156185 0.0 -0.0339071438482051 0.0 0.0
0.0816360429049614 -0.07800713156367065 0.0 -0.033561914125487376 0.0 0.0
0.09131805076903893 -0.08774584373147526 0.0 -0.02871864450392204 0.0 0.0
0.09600983332335242 -0.09621383111017784 0.0 2.8286400999277816e-14 0.0 0.0
0.09131805076902519 -0.08774584373145938 0.0 0.028718644503993945 0.0 0.0
0.08163604290493573 -0.07800713156364827 0.0 0.03356191412556174 0.0 0.0
0.07181907076855197 -0.06833024267153295 0.0 0.03390714384824533 0.0 0.0
0.0624082406880276 -0.059102767289630695 0.0 0.032480371718658085 0.0 0.0
0.053465285940492276 -0.050294445003595284 0.0 0.03010679292300994 0.0 0.0
0.045028272912076193 -0.041994216290100674 0.0 0.027072502272794494 0.0 0.0
0.037191396687276355 -0.03431561161025695 0.0 0.023724682794548826 0.0 0.0
0.029986330456665163 -0.027281447449231357 0.0 0.020289146581966858 0.0 0.0
0.023388919239849846 -0.02086322331574105 0.0 0.016816323406760134 0.0 0.0
0.017394992900985617 -0.015045272546035195 0.0 0.013289785500605746 0.0 0.0
0.01208778283271134 -0.00990542987256016 0.0 0.009807246828693128 0.0 0.0
0.007679399516888336 -0.005691839489686131 0.0 0.006689688630624021 0.0 0.0
0.0044159879278936505 -0.0027584994672428544 0.0 0.004312368729108103 0.0 0.0
0.0023800811804875 -0.0011887867537099263 0.0 0.002876488213985591 0.0 0.0
0.0013428722122348464 -0.0005806010526361771 0.0 0.002299399263314169 0.0 0.0
0.0008263720049780632 -0.0003194495462685682 0.0 0.0020973480416061575 0.0 0.0
0.00046710873086016106 -0.00011237214234629606 0.0 0.0020255886185755315 0.0 0.0
0.00022461207255608718 -7.04475636417415e-05 0.0 0.0021811578773708075 0.0 0.0
0.0010439102974195993 -0.0004075980991597208 0.0 0.0036655944689498125 0.0 0.0
0.001942248214080774 -0.0060698659098559725 0.0 0.0023716490268342527 0.0 0.0
0.0013553032568411525 -0.004630970813461418 0.0 -0.001984677163541885 0.0 0.0
0.0007181773663458129 -0.00034369918841081336 0.0 -0.0031914801200896977 0.0 0.0
0.00011424282432689093 -5.677831122187197e-05 0.0 -0.00234922235652636 0.0 0.0
0.0002588034840377409 -2.3823349284601353e-05 0.0 -0.0022331729006053805 0.0 0.0
0.0005177008573149957 -0.00017784520140232411 0.0 -0.002309614360090485 0.0 0.0
0.0008667410130661523 -0.00037038034932643753 0.0 -0.002552458582862778 0.0 0.0
0.0014858509273945784 -0.0006943744692313618 0.0 -0.002963826245752467 0.0 0.0
0.0027326439055253495 -0.0015247258517557675 0.0 -0.0039108553948237566 0.0 0.0
0.004848215451775131 -0.0032704825409350133 0.0 -0.005664483672208381 0.0 0.0
0.007793795826466712 -0.005982526829167451 0.0 -0.008081643123560397 0.0 0.0
0.011370779287755418 -0.009385605858750942 0.0 -0.010926380124884612 0.0 0.0
0.015401085791352784 -0.01325343413759128 0.0 -0.013908137597035663 0.0 0.0
0.019815002674112108 -0.01750589438859765 0.0 -0.016912337742429468 0.0 0.0
0.0246358898198994 -0.02217790478431426 0.0 -0.019896653791039876 0.0 0.0
0.029934900961921827 -0.02733461108570241 0.0 -0.022825008594386173 0.0 0.0
0.03577614282749372 -0.03304041153493748 0.0 -0.02557980470520764 0.0 0.0
0.042164183519249776 -0.03929953919785175 0.0 -0.027830974312261395 0.0 0.0
0.04916345177741163 -0.04611069672893127 0.0 -0.029202786476122122 0.0 0.0
0.0571490214952469 -0.05380531412249957 0.0 -0.029579230090384157 0.0 0.0
0.06629929754314104 -0.06284270773109152 0.0 -0.02747372693655738 0.0 0.0
0.07113695945444223 -0.07236731051118943 0.0 2.4833433920345982e-14 0.0 0.0
0.06629929754313195 -0.06284270773107516 0.0 0.027473726936620584 0.0 0.0
0.05714902149522913 -0.05380531412249078 0.0 0.02957923009045288 0.0 0.0
0.04916345177738731 -0.0461106967289012 0.0 0.029202786476152556 0.0 0.0
0.042164183519221576 -0.03929953919783198 0.0 0.027830974312260386 0.0 0.0
0.035776142827465454 -0.033040411534905945 0.0 0.02557980470519133 0.0 0.0
0.02993490096189521 -0.027334611085682036 0.0 0.02282500859437033 0.0 0.0
0.02463588981987458 -0.022177904784285267 0.0 0.01989665379103114 0.0 0.0
0.019815002674089085 -0.017505894388579208 0.0 0.01691233774241426 0.0 0.0
0.01540108579133126 -0.01325343413757504 0.0 0.013908137597014477 0.0 0.0
0.011370779287735626 -0.009385605858725799 0.0 0.010926380124863213 0.0 0.0
0.007793795826450447 -0.0059825268291490005 0.0 0.008081643123540976 0.0 0.0
0.00484821545176405 -0.003270482540923489 0.0 0.005664483672199589 0.0 0.0
0.002732643905518726 -0.0015247258517510289 0.0 0.003910855394817128 0.0 0.0
0.0014858509273914574 -0.0006943744692286268 0.0 0.0029638262457496356 0.0 0.0
0.0008667410130655951 -0.0003703803493240842 0.0 0.0025524585828604974 0.0 0.0
0.0005177008573153165 -0.00017784520140135465 0.0 0.0023096143600879575 0.0 0.0
0.00025880348403760307 -2.382334928429405e-05 0.0 0.0022331729006043063 0.0 0.0
0.00011424282432678636 -5.677831122159986e-05 0.0 0.002349222356525581 0.0 0.0
0.0007181773663441698 -0.00034369918841045785 0.0 0.003191480120085784 0.0 0.0
0.0013553032568374708 -0.004630970813452337 0.0 0.0019846771635395047 0.0 0.0
0.0009265410881796501 -0.003477018688470116 0.0 -0.0017296681229469184 0.0 0.0
0.0004654148529262211 -0.0003117637117949875 0.0 -0.0027951910576088767 0.0 0.0
-1.5387149867671096e-06 -2.3088601890405978e-05 0.0 -0.002450834827919278 0.0 0.0
5.4688067005869266e-05 5.8949531829203825e-05 0.0 -0.0023813895168493253 0.0 0.0
0.00020777740971141922 -3.396052597046268e-05 0.0 -0.0024600098567120663 0.0 0.0
0.00041053518076277764 -0.00016381006556237933 0.0 -0.0027337202943801915 0.0 0.0
0.0007077230122787611 -0.00031996628546270104 0.0 -0.0030959843449199637 0.0 0.0
0.0012662419400038753 -0.0006379264420586293 0.0 -0.0035828487651694794 0.0 0.0
0.0022758201678197386 -0.0013521339215684682 0.0 -0.004458011817108862 0.0 0.0
0.0037527561980877752 -0.0025687929086540945 0.0 -0.005893387821616983 0.0 0.0
0.005567999000265933 -0.004173788406021967 0.0 -0.00784286481357761 0.0 0.0
0.007601509934358151 -0.00604385449233792 0.0 -0.010105037265398697 0.0 0.0
0.009812680199977464 -0.00811370923569076 0.0 -0.012511749511823895 0.0 0.0
0.012244196334408812 -0.010415754536986828 0.0 -0.014993490263996627 0.0 0.0
0.014985754240887494 -0.013029499823707599 0.0 -0.01752702788368937 0.0 0.0
0.018178962820670868 -0.016087305532677513 0.0 -0.020054414274113246 0.0 0.0
0.02198571120446953 -0.01975161806235544 0.0 -0.022329859650500456 0.0 0.0
0.02653903974535431 -0.02415988792192751 0.0 -0.023791896707887637 0.0 0.0
0.03228149382782448 -0.02958879413155474 0.0 -0.024098720465321525 0.0 0.0
0.04033256232314606 -0.03712630443264453 0.0 -0.024063256099605298 0.0 0.0
0.04511843300877283 -0.04757195240296594 0.0 1.920599096427722e-14 0.0 0.0
0.04033256232314214 -0.03712630443263208 0.0 0.024063256099659112 0.0 0.0
0.032281493827814624 -0.029588794131547816 0.0 0.024098720465376394 0.0 0.0
0.026539039745340175 -0.024159887921907427 0.0 0.023791896707909724 0.0 0.0
0.02198571120445451 -0.019751618062343858 0.0 0.022329859650491394 0.0 0.0
0.018178962820656456 -0.016087305532662008 0.0 0.020054414274097557 0.0 0.0
0.014985754240875636 -0.013029499823703841 0.0 0.017527027883676848 0.0 0.0
0.012244196334398829 -0.010415754536970946 0.0 0.01499349026398858 0.0 0.0
0.009812680199968338 -0.008113709235683279 0.0 0.0125117495118127 0.0 0.0
0.007601509934349036 -0.006043854492329342 0.0 0.0101050372653851 0.0 0.0
0.005567999000256837 -0.004173788406011775 0.0 0.007842864813558875 0.0 0.0
0.0037527561980810102 -0.0025687929086429433 0.0 0.005893387821606733 0.0 0.0
0.002275820167815485 -0.001352133921567142 0.0 0.004458011817105829 0.0 0.0
0.0012662419400011691 -0.0006379264420588028 0.0 0.003582848765166323 0.0 0.0
0.0007077230122774576 -0.00031996628546247894 0.0 0.0030959843449180004 0.0 0.0
0.00041053518076241134 -0.00016381006556090335 0.0 0.0027337202943780487 0.0 0.0
0.00020777740971174345 -3.3960525971740906e-05 0.0 0.002460009856710508 0.0 0.0
5.468806700628125e-05 5.8949531828447e-05 0.0 0.0023813895168466118 0.0 0.0
-1.538714987043671e-06 -2.3088601891275305e-05 0.0 0.0024508348279175603 0.0 0.0
0.0004654148529245485 -0.00031176371179480707 0.0 0.002795191057606142 0.0 0.0
0.0009265410881769874 -0.003477018688463608 0.0 0.0017296681229452382 0.0 0.0
0.0006223814821003055 -0.002588044284211898 0.0 -0.0015763091479761588 0.0 0.0
0.00026923681649722623 -0.0003048769488745055 0.0 -0.002502489690635009 0.0 0.0
-0.0001229450052727725 2.6812983532001888e-05 0.0 -0.0024944444030781604 0.0 0.0
-0.00014627035426428766 0.00013874341477763616 0.0 -0.002466447403876095 0.0 0.0
-9.910391430421978e-05 0.0001081500225862438 0.0 -0.002544281311376993 0.0 0.0
-4.741340752594455e-05 4.788920345386395e-05 0.0 -0.002811105536703453 0.0 0.0
-1.8995852143678527e-05 1.2736679953669197e-05 0.0 -0.003182671502166047 0.0 0.0
-7.714622856445024e-06 4.728312220667424e-06 0.0 -0.0034803009515437444 0.0 0.0
-2.7238858076641384e-06 1.609391975643571e-06 0.0 -0.0038389631459969367 0.0 0.0
-4.215274161302614e-07 1.5600814311873736e-07 0.0 -0.004705818537166795 0.0 0.0
-3.1331590205044453e-06 1.9051735918720674e-06 0.0 -0.006168273326407312 0.0 0.0
-1.7865255463174207e-05 1.6642768937763757e-05 0.0 -0.008081076374694143 0.0 0.0
-4.1995313111656144e-05 4.18684087929637e-05 0.0 -0.010195197009769187 0.0 0.0
-3.602661346665203e-05 4.7151562215609296e-05 0.0 -0.012448513650053667 0.0 0.0
0.00011024806380217065 -6.387275779302243e-05 0.0 -0.01484425612187022 0.0 0.0
0.0006119469685190344 -0.00048632805181027255 0.0 -0.017348106398778835 0.0 0.0
0.0018008700015950678 -0.0015242738501188705 0.0 -0.019845808650438824 0.0 0.0
0.004021687776910597 -0.00352976722437937 0.0 -0.02206806462886038 0.0 0.0
0.007496129886555897 -0.006593691224054178 0.0 -0.023725836646729573 0.0 0.0
0.013469906958019095 -0.011572077958035613 0.0 -0.02528471667693375 0.0 0.0
0.017375050351222054 -0.022588464945204247 0.0 1.7137333219174877e-14 0.0 0.0
0.01346990695801908 -0.011572077958038123 0.0 0.025284716676969035 0.0 0.0
0.007496129886553137 -0.006593691224046451 0.0 0.023725836646751916 0.0 0.0
0.004021687776908426 -0.003529767224377745 0.0 0.02206806462886729 0.0 0.0
0.0018008700015953762 -0.001524273850138164 0.0 0.019845808650426053 0.0 0.0
0.0006119469685203231 -0.0004863280518052445 0.0 0.0173481063987619 0.0 0.0
0.00011024806380473674 -6.387275779400753e-05 0.0 0.01484425612185946 0.0 0.0
-3.6026613462502135e-05 4.7151562212279386e-05 0.0 0.012448513650045227 0.0 0.0
-4.199531310672346e-05 4.1868408787406404e-05 0.0 0.010195197009753954 0.0 0.0
-1.7865255458765408e-05 1.664276893510486e-05 0.0 0.00808107637467931 0.0 0.0
-3.133159017324101e-06 1.9051735832004558e-06 0.0 0.006168273326391995 0.0 0.0
-4.215274141624345e-07 1.560081443973641e-07 0.0 0.004705818537161207 0.0 0.0
-2.7238858067991077e-06 1.6093919758656156e-06 0.0 0.0038389631459950025 0.0 0.0
-7.714622855724517e-06 4.72831221791582e-06 0.0 0.0034803009515415925 0.0 0.0
-1.899585214336953e-05 1.2736679956350452e-05 0.0 0.00318267150216249 0.0 0.0
-4.7413407525624406e-05 4.7889203454733274e-05 0.0 0.0028111055367015646 0.0 0.0
-9.910391430384782e-05 0.00010815002258456212 0.0 0.0025442813113742773 0.0 0.0
-0.00014627035426417192 0.00013874341477520708 0.0 0.0024664474038736573 0.0 0.0
-0.0001229450052728608 2.681298353122074e-05 0.0 0.002494444403076828 0.0 0.0
0.00026923681649663783 -0.00030487694887474325 0.0 0.0025024896906325443 0.0 0.0
0.0006223814820993272 -0.002588044284207987 0.0 0.0015763091479770645 0.0 0.0
0.0004107176525643079 -0.0019410177729595611 0.0 -0.0015028185284327146 0.0 0.0
0.000121009187258497 -0.00029978447116088157 0.0 -0.002296347053174011 0.0 0.0
-0.00024170561004484736 8.107941629438971e-05 0.0 -0.0024852568022065264 0.0 0.0
-0.00034300177046842425 0.0002170855556487957 0.0 -0.0024858325624362776 0.0 0.0
-0.0003999644334848862 0.00024553308855025126 0.0 -0.0025518660519727393 0.0 0.0
-0.0005021366282983852 0.0002590519815005832 0.0 -0.002786769038222347 0.0 0.0
-0.0007456996893665233 0.0003473132356048547 0.0 -0.003134727340147971 0.0 0.0
-0.0012813657216098166 0.0006486984402476531 0.0 -0.003609814036778846 0.0 0.0
-0.002279598717466902 0.0013545786234581197 0.0 -0.0044692854181586006 0.0 0.0
-0.003752611673675268 0.002568426067364654 0.0 -0.005893771635177923 0.0 0.0
-0.0055762940949208376 0.004179902747884522 0.0 -0.007842982571968655 0.0 0.0
-0.007640088483812717 0.006079015987911266 0.0 -0.010111215315039846 0.0 0.0
-0.009894708467188696 0.008196742225073177 0.0 -0.012506392096968553 0.0 0.0
-0.012305872899093264 0.010503963661128211 0.0 -0.014966932402164696 0.0 0.0
-0.014747979410817617 0.01288655401895379 0.0 -0.01751707066815095 0.0 0.0
-0.016956192539768402 0.015090302112640168 0.0 -0.020210460731097436 0.0 0.0
-0.018516371279510592 0.016706554731577592 0.0 -0.02307753211838554 0.0 0.0
-0.018968069699827332 0.01723553762689983 0.0 -0.026250335510605585 0.0 0.0
-0.017800359258583615 0.016362446358257888 0.0 -0.029671129646966058 0.0 0.0
-0.012926675515583047 0.012800269317034124 0.0 -0.03145345518493917 0.0 0.0
-0.009115367219552126 0.0010796190655042244 0.0 1.6812939929167214e-14 0.0 0.0
-0.01292667551558319 0.01280026931702996 0.0 0.03145345518497015 0.0 0.0
-0.017800359258577 0.016362446358249128 0.0 0.029671129646988856 0.0 0.0
-0.018968069699812514 0.01723553762688986 0.0 0.02625033551060648 0.0 0.0
-0.01851637127949332 0.01670655473155149 0.0 0.0230775321183761 0.0 0.0
-0.01695619253975084 0.015090302112631064 0.0 0.020210460731081802 0.0 0.0
-0.014747979410800076 0.012886554018942554 0.0 0.017517070668135966 0.0 0.0
-0.01230587289907603 0.01050396366110402 0.0 0.014966932402152758 0.0 0.0
-0.009894708467169505 0.008196742225050561 0.0 0.012506392096954144 0.0 0.0
-0.007640088483793937 0.006079015987899027 0.0 0.010111215315019037 0.0 0.0
-0.005576294094905523 0.004179902747861288 0.0 0.007842982571950312 0.0 0.0
-0.003752611673664164 0.002568426067360549 0.0 0.005893771635167343 0.0 0.0
-0.0022795987174604095 0.0013545786234539163 0.0 0.004469285418151702 0.0 0.0
-0.001281365721605867 0.0006486984402497277 0.0 0.0036098140367761284 0.0 0.0
-0.0007456996893644078 0.0003473132356028722 0.0 0.003134727340145685 0.0 0.0
-0.0005021366282970738 0.00025905198150212447 0.0 0.0027867690382200215 0.0 0.0
-0.0003999644334841684 0.00024553308854732364 0.0 0.0025518660519685803 0.0 0.0
-0.0003430017704680356 0.0002170855556477857 0.0 0.002485832562435507 0.0 0.0
-0.00024170561004472767 8.107941629467415e-05 0.0 0.002485256802205484 0.0 0.0
0.00012100918725811084 -0.0002997844711610014 0.0 0.0022963470531719276 0.0 0.0
0.00041071765256382845 -0.0019410177729573238 0.0 0.0015028185284321827 0.0 0.0
0.0002693915876860562 -0.0014599992425652463 0.0 -0.0014217691810863356 0.0 0.0
1.2648018637188982e-05 -0.0002800223805895063 0.0 -0.0021205412961845353 0.0 0.0
-0.0003526095830849737 0.00013100197689691295 0.0 -0.0024252763640121807 0.0 0.0
-0.0005322980868738495 0.0002931660600820812 0.0 -0.002438902137771371 0.0 0.0
-0.0006920132116319942 0.00037578865225071096 0.0 -0.00248096371280304 0.0 0.0
-0.0009512703606156608 0.0004648969621776979 0.0 -0.0026617122826478458 0.0 0.0
-0.0015225896420393622 0.0007268998037693592 0.0 -0.0030402247785951755 0.0 0.0
-0.0027436175893905458 0.0015343485682577632 0.0 -0.003949831641400197 0.0 0.0
-0.004847731800728394 0.003269503466463249 0.0 -0.005673044898488406 0.0 0.0
-0.007793166112188969 0.005982029120374282 0.0 -0.008080548604640345 0.0 0.0
-0.011380973380664943 0.0093954433230991 0.0 -0.01092813063679268 0.0 0.0
-0.015436323885998061 0.013287430777556623 0.0 -0.01389825057272982 0.0 0.0
-0.019881702797356238 0.01757548288193494 0.0 -0.016845651769059646 0.0 0.0
-0.024671543821205684 0.022239632370257067 0.0 -0.01975405343024223 0.0 0.0
-0.029675389668662115 0.027164697295755214 0.0 -0.02273813694923351 0.0 0.0
-0.03458478383890284 0.032057207928673906 0.0 -0.026006703586410596 0.0 0.0
-0.03891247808489305 0.03641864858320067 0.0 -0.029776299090343662 0.0 0.0
-0.04201383092946121 0.03959581306320219 0.0 -0.03413879154592484 0.0 0.0
-0.04270686702108722 0.04059256422737088 0.0 -0.03827696815210712 0.0 0.0
-0.03846902575254619 0.03707725783729224 0.0 -0.03947167509515615 0.0 0.0
-0.0346911059244816 0.023463442131811202 0.0 2.5465740627339528e-14 0.0 0.0
-0.03846902575254333 0.03707725783729104 0.0 0.0394716750952106 0.0 0.0
-0.04270686702107378 0.04059256422735861 0.0 0.0382769681521596 0.0 0.0
-0.04201383092943581 0.039595813063178276 0.0 0.03413879154594254 0.0 0.0
-0.03891247808486097 0.03641864858316998 0.0 0.02977629909033177 0.0 0.0
-0.03458478383887011 0.03205720792863979 0.0 0.02600670358639192 0.0 0.0
-0.029675389668630238 0.027164697295722975 0.0 0.02273813694921021 0.0 0.0
-0.02467154382117384 0.02223963237022723 0.0 0.01975405343022328 0.0 0.0
-0.019881702797324027 0.017575482881895567 0.0 0.01684565176904335 0.0 0.0
-0.0154363238859671 0.013287430777529386 0.0 0.013898250572701037 0.0 0.0
-0.01138097338063836 0.009395443323070508 0.0 0.01092813063676493 0.0 0.0
-0.007793166112168841 0.005982029120353631 0.0 0.008080548604621873 0.0 0.0
-0.004847731800715006 0.0032695034664519088 0.0 0.005673044898475704 0.0 0.0
-0.002743617589382642 0.0015343485682523849 0.0 0.003949831641393756 0.0 0.0
-0.0015225896420355406 0.0007268998037655331 0.0 0.003040224778590778 0.0 0.0
-0.000951270360614049 0.0004648969621757102 0.0 0.002661712282644729 0.0 0.0
-0.0006920132116310063 0.00037578865224940846 0.0 0.0024809637128009056 0.0 0.0
-0.0005322980868731955 0.00029316606008092887 0.0 0.002438902137770228 0.0 0.0
-0.00035260958308462527 0.00013100197689790835 0.0 0.0024252763640105163 0.0 0.0
1.2648018637142324e-05 -0.00028002238059018604 0.0 0.0021205412961836706 0.0 0.0
0.00026939158768562695 -0.0014599992425635374 0.0 0.0014217691810848017 0.0 0.0
0.0001661446075215709 -0.001069041464767994 0.0 -0.0012809295260684855 0.0 0.0
-7.188967431590566e-05 -0.0002443497450653445 0.0 -0.0019385541564535748 0.0 0.0
-0.0004543705673768383 0.0001755536825576881 0.0 -0.002313683569314582 0.0 0.0
-0.000712472743006638 0.00036482221100256383 0.0 -0.0023303727126638327 0.0 0.0
-0.0009733271843682346 0.0004966025997542931 0.0 -0.002337334061777629 0.0 0.0
-0.0014167561581661632 0.0006747695259980112 0.0 -0.002458741931612071 0.0 0.0
-0.002410446204540241 0.0012233313492135706 0.0 -0.002973063983615429 0.0 0.0
-0.004418735575262086 0.0027595576410722788 0.0 -0.0043423450567514526 0.0 0.0
-0.007674946118193988 0.005687095489992437 0.0 -0.006689740321684282 0.0 0.0
-0.012088852328251184 0.009907138175369635 0.0 -0.00980631833876229 0.0 0.0
-0.01740566793229557 0.015057205083169892 0.0 -0.01329184987914145 0.0 0.0
-0.02341148362375125 0.020886931417359415 0.0 -0.01678768739975088 0.0 0.0
-0.03001624929968614 0.027314582964595886 0.0 -0.02015238415323294 0.0 0.0
-0.03717688557325808 0.03432100496985171 0.0 -0.02343299752397093 0.0 0.0
-0.04476561422180482 0.041803616262139506 0.0 -0.02685053161593146 0.0 0.0
-0.052447931369764535 0.04944893314718219 0.0 -0.030803565729395257 0.0 0.0
-0.05961122937797786 0.05665072379415642 0.0 -0.03572518417866048 0.0 0.0
-0.0652190579223683 0.06242360045052814 0.0 -0.041451072969169674 0.0 0.0
-0.0674776002878153 0.06505107054495979 0.0 -0.046428193463116475 0.0 0.0
-0.06282533474733237 0.061394444490104616 0.0 -0.04775221482448108 0.0 0.0
-0.058166041650355285 0.04491565190500233 0.0 2.3158558404290375e-14 0.0 0.0
-0.06282533474732464 0.061394444490092154 0.0 0.04775221482454692 0.0 0.0
-0.06747760028779475 0.06505107054495617 0.0 0.04642819346318325 0.0 0.0
-0.0652190579223336 0.06242360045048527 0.0 0.04145107296920182 0.0 0.0
-0.059611229377933256 0.05665072379410835 0.0 0.03572518417865369 0.0 0.0
-0.05244793136971797 0.049448933147133826 0.0 0.03080356572937471 0.0 0.0
-0.044765614221759044 0.04180361626208714 0.0 0.02685053161590701 0.0 0.0
-0.03717688557321154 0.03432100496981161 0.0 0.023432997523950814 0.0 0.0
-0.0300162492996405 0.027314582964546464 0.0 0.020152384153211363 0.0 0.0
-0.02341148362370831 0.02088693141731603 0.0 0.016787687399722577 0.0 0.0
-0.01740566793225721 0.015057205083132064 0.0 0.01329184987911006 0.0 0.0
-0.012088852328221236 0.009907138175334224 0.0 0.009806318338738471 0.0 0.0
-0.007674946118173395 0.005687095489971186 0.0 0.006689740321670802 0.0 0.0
-0.004418735575249226 0.0027595576410616527 0.0 0.004342345056741957 0.0 0.0
-0.002410446204533559 0.0012233313492097657 0.0 0.002973063983609615 0.0 0.0
-0.0014167561581630887 0.0006747695259973339 0.0 0.0024587419316095737 0.0 0.0
-0.0009733271843671938 0.0004966025997551489 0.0 0.0023373340617780006 0.0 0.0
-0.0007124727430063232 0.00036482221100112304 0.0 0.002330372712661477 0.0 0.0
-0.0004543705673763109 0.0001755536825593281 0.0 0.0023136835693116356 0.0 0.0
-7.1889674315514e-05 -0.0002443497450666848 0.0 0.0019385541564522703 0.0 0.0
0.0001661446075214856 -0.001069041464766493 0.0 0.001280929526066633 0.0 0.0
8.047270351134475e-05 -0.0007425909543022301 0.0 -0.0011033504508300204 0.0 0.0
-0.00014484689138530792 -0.0001948320566070079 0.0 -0.001732812792586599 0.0 0.0
-0.0005487190136272988 0.00021673589044097423 0.0 -0.0021501200585238365 0.0 0.0
-0.0008824950339976518 0.0004301178862350371 0.0 -0.00216326221035106 0.0 0.0
-0.0012484259745101844 0.0006066324284951535 0.0 -0.002119694512144004 0.0 0.0
-0.0019244520161195498 0.00091469566287852 0.0 -0.002210428327948783 0.0 0.0
-0.003428291245529759 0.0018898234539771737 0.0 -0.002894304581942631 0.0 0.0
-0.006286189430067133 0.00428787032016854 0.0 -0.00457619942977832 0.0 0.0
-0.010711702148673083 0.008433105140328792 0.0 -0.007317976689304687 0.0 0.0
-0.01657162136693957 0.014108517474604964 0.0 -0.010821630655010826 0.0 0.0
-0.023578176178978928 0.020939086440285012 0.0 -0.014586420619176737 0.0 0.0
-0.031506988699775425 0.02867852737150496 0.0 -0.018306060980113045 0.0 0.0
-0.040256881969310675 0.037229882065584155 0.0 -0.021868222785239113 0.0 0.0
-0.049783014124680836 0.046570222445830686 0.0 -0.025325078507958274 0.0 0.0
-0.05997183342485067 0.056619399946390744 0.0 -0.028928162886498656 0.0 0.0
-0.07046762677295487 0.06706198752694924 0.0 -0.03322690338936385 0.0 0.0
-0.08046023205874386 0.07712933143784596 0.0 -0.03874018815039295 0.0 0.0
-0.08844813005227531 0.08537480559241963 0.0 -0.045188490787963866 0.0 0.0
-0.09185292961524105 0.08934223893187414 0.0 -0.05082373630254491 0.0 0.0
-0.0863761022106916 0.08496218610491044 0.0 -0.05255304322290013 0.0 0.0
-0.080749022642351 0.06572046383504662 0.0 2.709985014170968e-14 0.0 0.0
-0.0863761022106774 0.08496218610489294 0.0 0.05255304322296425 0.0 0.0
-0.09185292961521198 0.0893422389318494 0.0 0.05082373630260865 0.0 0.0
-0.08844813005223141 0.08537480559237431 0.0 0.045188490788000676 0.0 0.0
-0.08046023205868837 0.07712933143779398 0.0 0.038740188150392416 0.0 0.0
-0.07046762677289518 0.0670619875268887 0.0 0.033226903389342574 0.0 0.0
-0.05997183342479058 0.05661939994633902 0.0 0.02892816288647669 0.0 0.0
-0.049783014124620384 0.04657022244577107 0.0 0.025325078507936926 0.0 0.0
-0.04025688196925201 0.03722988206552653 0.0 0.02186822278521709 0.0 0.0
-0.031506988699720746 0.02867852737145521 0.0 0.018306060980085918 0.0 0.0
-0.023578176178930273 0.020939086440233914 0.0 0.01458642061914352 0.0 0.0
-0.01657162136690037 0.01410851747456713 0.0 0.01082163065498275 0.0 0.0
-0.010711702148645542 0.008433105140305461 0.0 0.007317976689288578 0.0 0.0
-0.006286189430049308 0.00428787032015525 0.0 0.004576199429766563 0.0 0.0
-0.003428291245519636 0.001889823453969854 0.0 0.002894304581936044 0.0 0.0
-0.0019244520161153778 0.000914695662877938 0.0 0.002210428327943447 0.0 0.0
-0.001248425974509196 0.000606632428494861 0.0 0.002119694512142175 0.0 0.0
-0.0008824950339968271 0.00043011788623474465 0.0 0.002163262210349316 0.0 0.0
-0.000548719013626519 0.00021673589044084288 0.0 0.002150120058521375 0.0 0.0
-0.0001448468913850865 -0.0001948320566065999 0.0 0.0017328127925858505 0.0 0.0
8.047270351120259e-05 -0.0007425909543010667 0.0 0.0011033504508288841 0.0 0.0
6.824985660253028e-06 -0.00047566188827083617 0.0 -0.0009127789479841933 0.0 0.0
-0.0002105909243731385 -0.00013489710174751152 0.0 -0.0014980987020061065 0.0 0.0
-0.0006373360293701036 0.0002565806434002721 0.0 -0.0019316701436373168 0.0 0.0
-0.0010417139516854966 0.00048775651598560905 0.0 -0.0019379289062012991 0.0 0.0
-0.0015281339179480209 0.0007121256416021315 0.0 -0.00183844741656789 0.0 0.0
-0.002496140489040669 0.00121711197872911 0.0 -0.001933039137580755 0.0 0.0
-0.004578170367440935 0.0027411348007239794 0.0 -0.002736813210279884 0.0 0.0
-0.008320242951982353 0.0060663340211886095 0.0 -0.004581917917436073 0.0 0.0
-0.013905618675194114 0.011397493875839012 0.0 -0.007483352057305314 0.0 0.0
-0.02116794582495005 0.018466178259192837 0.0 -0.01101785861978267 0.0 0.0
-0.02983217812693892 0.026941234982100094 0.0 -0.014762620664594557 0.0 0.0
-0.039677341541545355 0.03658010991969724 0.0 -0.018456316325525003 0.0 0.0
-0.05056807226327358 0.0472523532492751 0.0 -0.022004896439883882 0.0 0.0
-0.062445627891745514 0.05891634254666356 0.0 -0.025448085215222207 0.0 0.0
-0.07521792235375555 0.07151175852009738 0.0 -0.028990258706306594 0.0 0.0
-0.08849855717583259 0.08472394437274205 0.0 -0.03313567362889791 0.0 0.0
-0.10126053978739194 0.09760838783759808 0.0 -0.03851209488276024 0.0 0.0
-0.11149052696352088 0.10822632346466898 0.0 -0.0450657538299728 0.0 0.0
-0.11587927320154917 0.11333776710631727 0.0 -0.05132090711154604 0.0 0.0
-0.10965162418899825 0.10823352912960013 0.0 -0.055265047627356956 0.0 0.0
-0.10319295934727953 0.08659979814546916 0.0 2.855181369110227e-14 0.0 0.0
-0.10965162418897928 0.10823352912958224 0.0 0.05526504762742031 0.0 0.0
-0.1158792732015117 0.11333776710627758 0.0 0.05132090711161099 0.0 0.0
-0.11149052696346759 0.1082263234646215 0.0 0.04506575383000981 0.0 0.0
-0.10126053978732613 0.09760838783753717 0.0 0.03851209488276324 0.0 0.0
-0.08849855717576034 0.08472394437266659 0.0 0.03313567362888294 0.0 0.0
-0.07521792235368174 0.07151175852003777 0.0 0.028990258706287894 0.0 0.0
-0.06244562789167178 0.058916342546587286 0.0 0.02544808521519712 0.0 0.0
-0.05056807226320198 0.047252353249204924 0.0 0.02200489643986444 0.0 0.0
-0.03967734154147838 0.0365801099196331 0.0 0.01845631632549867 0.0 0.0
-0.029832178126880063 0.026941234982044076 0.0 0.014762620664561216 0.0 0.0
-0.021167945824902057 0.018466178259141652 0.0 0.011017858619755846 0.0 0.0
-0.013905618675158549 0.01139749387581127 0.0 0.007483352057284839 0.0 0.0
-0.00832024295195924 0.006066334021166744 0.0 0.0045819179174240296 0.0 0.0
-0.004578170367427912 0.002741134800711941 0.0 0.0027368132102745537 0.0 0.0
-0.0024961404890347545 0.0012171119787230962 0.0 0.0019330391375766017 0.0 0.0
-0.0015281339179457549 0.000712125641599421 0.0 0.0018384474165673973 0.0 0.0
-0.001041713951684443 0.00048775651598569167 0.0 0.001937928906200878 0.0 0.0
-0.0006373360293694082 0.00025658064339955446 0.0 0.00193167014363674 0.0 0.0
-0.00021059092437308348 -0.00013489710174648258 0.0 0.0014980987020058235 0.0 0.0
6.824985659542434e-06 -0.00047566188826995894 0.0 0.000912778947985051 0.0 0.0
-5.5269873651407724e-05 -0.0002664582304719964 0.0 -0.000717307273533794 0.0 0.0
-0.000269465598725849 -6.961370125872691e-05 0.0 -0.0012360819899364468 0.0 0.0
-0.0007212419619972186 0.0002961432741027984 0.0 -0.0016578551310754454 0.0 0.0
-0.001194700415850063 0.0005379487878892228 0.0 -0.0016547527696626145 0.0 0.0
-0.0018273548959615027 0.0008248387811872863 0.0 -0.0015041761919628712 0.0 0.0
-0.003143829944633405 0.0016090211913591585 0.0 -0.0016171087467882449 0.0 0.0
-0.005854067429003181 0.0037777069503318415 0.0 -0.0024665587542023167 0.0 0.0
-0.010489193929053425 0.008038587094052979 0.0 -0.004337125047643843 0.0 0.0
-0.017191333077552308 0.01448594933301256 0.0 -0.007076910036097881 0.0 0.0
-0.025816201555553066 0.022902945606051148 0.0 -0.010351890947200237 0.0 0.0
-0.036126202033815884 0.03300473474708827 0.0 -0.013837421689311256 0.0 0.0
-0.04788069421244209 0.04453640006118831 0.0 -0.0172740724732132 0.0 0.0
-0.060912345973603246 0.05733365638322538 0.0 -0.02059395881034193 0.0 0.0
-0.07512879250451156 0.07131413749483079 0.0 -0.023840492369557053 0.0 0.0
-0.09041755808376752 0.08639712788709901 0.0 -0.02709245240625478 0.0 0.0
-0.10637608142196002 0.10226312880255707 0.0 -0.030628299963118152 0.0 0.0
-0.12181006527308114 0.11785267664292726 0.0 -0.03511204246596424 0.0 0.0
-0.1342385400641101 0.1307918093525694 0.0 -0.04113649485860191 0.0 0.0
-0.1397338625329834 0.13715677691985712 0.0 -0.04841603570586756 0.0 0.0
-0.13308578897469686 0.13169024932443169 0.0 -0.05639358225523459 0.0 0.0
-0.12600324484588513 0.10804780578295026 0.0 3.0661237437890065e-14 0.0 0.0
-0.1330857889746737 0.13169024932440404 0.0 0.05639358225529878 0.0 0.0
-0.13973386253293807 0.13715677691981787 0.0 0.04841603570592558 0.0 0.0
-0.13423854006404665 0.1307918093525062 0.0 0.04113649485863087 0.0 0.0
-0.12181006527300405 0.11785267664285129 0.0 0.03511204246596603 0.0 0.0
-0.10637608142187563 0.10226312880247568 0.0 0.03062829996310787 0.0 0.0
-0.09041755808368085 0.08639712788701287 0.0 0.027092452406242654 0.0 0.0
-0.0751287925044245 0.07131413749474558 0.0 0.023840492369538484 0.0 0.0
-0.06091234597351851 0.057333656383143555 0.0 0.02059395881032333 0.0 0.0
-0.04788069421236362 0.04453640006110756 0.0 0.017274072473186623 0.0 0.0
-0.03612620203374683 0.033004734747022306 0.0 0.013837421689281548 0.0 0.0
-0.02581620155549629 0.022902945605989853 0.0 0.010351890947176394 0.0 0.0
-0.017191333077509554 0.014485949332971 0.0 0.007076910036080734 0.0 0.0
-0.010489193929024258 0.008038587094028209 0.0 0.004337125047632409 0.0 0.0
-0.005854067428985923 0.0037777069503151066 0.0 0.002466558754194075 0.0 0.0
-0.00314382994462542 0.001609021191351479 0.0 0.0016171087467861704 0.0 0.0
-0.0018273548959585975 0.0008248387811859624 0.0 0.0015041761919647252 0.0 0.0
-0.0011947004158489173 0.000537948787888829 0.0 0.0016547527696633504 0.0 0.0
-0.0007212419619967384 0.00029614327410337516 0.0 0.0016578551310743633 0.0 0.0
-0.0002694655987251185 -6.961370125924192e-05 0.0 0.0012360819899366476 0.0 0.0
-5.526987365046593e-05 -0.00026645823047134363 0.0 0.0007173072735327322 0.0 0.0
-0.00010348994335337056 -0.0001148761016938541 0.0 -0.0005228676123517936 0.0 0.0
-0.0003190569896858924 -4.772565186035099e-06 0.0 -0.0009498084038111509 0.0 0.0
-0.0008000632360123753 0.00033483260735149616 0.0 -0.0013270295748277253 0.0 0.0
-0.001346810677494138 0.0005820833512800583 0.0 -0.0013090625670439252 0.0 0.0
-0.0021600796264672627 0.0009613731229292225 0.0 -0.0011187532962036427 0.0 0.0
-0.0038799596042569835 0.0021132332280120094 0.0 -0.0012410384343876377 0.0 0.0
-0.007248665199847369 0.004986078032085048 0.0 -0.002077246651439545 0.0 0.0
-0.012740334009558218 0.010128315309361086 0.0 -0.0037327703413660724 0.0 0.0
-0.02050908627772139 0.0176299947389486 0.0 -0.0060475329952739435 0.0 0.0
-0.03047718671639115 0.027369137247216027 0.0 -0.008843859288964749 0.0 0.0
-0.042416087194367555 0.039080739851357564 0.0 -0.011827615574711138 0.0 0.0
-0.056075777008485095 0.052499938891754014 0.0 -0.0147742970701927 0.0 0.0
-0.07125351375671489 0.06742812422565954 0.0 -0.0176410513614398 0.0 0.0
-0.08779096915884207 0.08372269003186776 0.0 -0.02048418684624461 0.0 0.0
-0.1055065526666623 0.10122004996795168 0.0 -0.023279724356845884 0.0 0.0
-0.12395699775996952 0.11954355105696773 0.0 -0.02595155133823322 0.0 0.0
-0.14189854894297793 0.13761537717570763 0.0 -0.028874598673685126 0.0 0.0
-0.15659865893742472 0.1529073481061045 0.0 -0.033533058027990476 0.0 0.0
-0.16359987059136044 0.16095444238703557 0.0 -0.042056865662692657 0.0 0.0
-0.15707938842577365 0.15577338767828153 0.0 -0.055663407474440624 0.0 0.0
-0.14964185364813956 0.13055380897698948 0.0 2.4140411891693248e-14 0.0 0.0
-0.1570793884257467 0.1557733876782525 0.0 0.05566340747449583 0.0 0.0
-0.16359987059130804 0.16095444238698148 0.0 0.04205686566274457 0.0 0.0
-0.15659865893735014 0.15290734810603143 0.0 0.03353305802801624 0.0 0.0
-0.1418985489428883 0.13761537717562008 0.0 0.028874598673688717 0.0 0.0
-0.12395699775987244 0.11954355105687345 0.0 0.025951551338225336 0.0 0.0
-0.10550655266656246 0.10122004996785118 0.0 0.023279724356835983 0.0 0.0
-0.08779096915874213 0.08372269003177145 0.0 0.020484186846229768 0.0 0.0
-0.07125351375661769 0.06742812422556656 0.0 0.017641051361425384 0.0 0.0
-0.05607577700839439 0.05249993889166322 0.0 0.014774297070170837 0.0 0.0
-0.0424160871942879 0.03908073985127881 0.0 0.011827615574686135 0.0 0.0
-0.03047718671632612 0.027369137247154198 0.0 0.008843859288943783 0.0 0.0
-0.02050908627767171 0.017629994738897686 0.0 0.006047532995258674 0.0 0.0
-0.01274033400952398 0.010128315309328104 0.0 0.003732770341355147 0.0 0.0
-0.007248665199826965 0.004986078032065762 0.0 0.0020772466514302336 0.0 0.0
-0.003879959604247008 0.0021132332280037157 0.0 0.00124103843438412 0.0 0.0
-0.0021600796264637087 0.0009613731229286028 0.0 0.001118753296203621 0.0 0.0
-0.0013468106774931511 0.0005820833512785282 0.0 0.0013090625670446859 0.0 0.0
-0.0008000632360114821 0.0003348326073510073 0.0 0.0013270295748262775 0.0 0.0
-0.0003190569896852836 -4.77256518674235e-06 0.0 0.0009498084038096839 0.0 0.0
-0.00010348994335346572 -0.00011487610169369924 0.0 0.0005228676123512656 0.0 0.0
-0.0001329370253001628 -2.1524687924281612e-05 0.0 -0.00033994473703057433 0.0 0.0
-0.0003537690871918017 5.244334597913015e-05 0.0 -0.000643350927921778 0.0 0.0
-0.0008715017752846566 0.00036965138054955387 0.0 -0.0009317928642710457 0.0 0.0
-0.0015071117794587935 0.0006260651472610217 0.0 -0.0008941478318816436 0.0 0.0
-0.002542011017781342 0.0011431488681335651 0.0 -0.0006921245133372327 0.0 0.0
-0.004713145607229384 0.0027535326777191906 0.0 -0.0008034993891500963 0.0 0.0
-0.008725267782603402 0.006321111309302305 0.0 -0.0014972610505116627 0.0 0.0
-0.015025309840323992 0.012270689288796866 0.0 -0.0027040626403372794 0.0 0.0
-0.023827910007206618 0.020788400920560585 0.0 -0.004416404824953625 0.0 0.0
-0.0351090537336499 0.03181954307942118 0.0 -0.006499915677025378 0.0 0.0
-0.04866035642140244 0.04512371282961992 0.0 -0.008739415235189214 0.0 0.0
-0.06421870741412458 0.06042510498365304 0.0 -0.010960047703511935 0.0 0.0
-0.08154324956621935 0.07748829210842725 0.0 -0.013145440363645792 0.0 0.0
-0.10039860193371865 0.0960954902713228 0.0 -0.015362321645130475 0.0 0.0
-0.12045773159050979 0.11594648361210214 0.0 -0.017521764518628278 0.0 0.0
-0.14115152618370444 0.13651298062895234 0.0 -0.019297146881467206 0.0 0.0
-0.1613132895796567 0.1567169341735198 0.0 -0.02055518940122111 0.0 0.0
-0.17839542372986608 0.17426240671332463 0.0 -0.0228588519582771 0.0 0.0
-0.18757174239962893 0.18472487927961945 0.0 -0.03119699785936364 0.0 0.0
-0.1820553336026744 0.18100249766293575 0.0 -0.05195597807055696 0.0 0.0
-0.1746969085179898 0.15479953612141598 0.0 1.594037402075088e-14 0.0 0.0
-0.18205533360264295 0.18100249766291324 0.0 0.051955978070599984 0.0 0.0
-0.18757174239956736 0.18472487927955544 0.0 0.031196997859403428 0.0 0.0
-0.17839542372978057 0.1742624067132438 0.0 0.02285885195829848 0.0 0.0
-0.16131328957955565 0.15671693417341817 0.0 0.0205551894012202 0.0 0.0
-0.14115152618359475 0.13651298062884124 0.0 0.019297146881462116 0.0 0.0
-0.1204577315903972 0.11594648361198967 0.0 0.017521764518621225 0.0 0.0
-0.10039860193360563 0.09609549027121793 0.0 0.015362321645119494 0.0 0.0
-0.08154324956610907 0.0774882921083196 0.0 0.013145440363635044 0.0 0.0
-0.064218707414023 0.06042510498354653 0.0 0.010960047703496859 0.0 0.0
-0.04866035642131324 0.04512371282953222 0.0 0.008739415235170779 0.0 0.0
-0.035109053733577034 0.03181954307935212 0.0 0.006499915677008762 0.0 0.0
-0.023827910007150455 0.020788400920503377 0.0 0.0044164048249403145 0.0 0.0
-0.015025309840283864 0.01227068928875803 0.0 0.002704062640326127 0.0 0.0
-0.008725267782578552 0.006321111309280569 0.0 0.0014972610505063788 0.0 0.0
-0.00471314560721635 0.002753532677709149 0.0 0.000803499389149101 0.0 0.0
-0.00254201101777641 0.0011431488681304593 0.0 0.0006921245133361816 0.0 0.0
-0.0015071117794574738 0.0006260651472604178 0.0 0.0008941478318814787 0.0 0.0
-0.0008715017752838148 0.00036965138054945634 0.0 0.0009317928642712911 0.0 0.0
-0.0003537690871909504 5.244334597852835e-05 0.0 0.0006433509279178526 0.0 0.0
-0.00013293702529960846 -2.152468792432528e-05 0.0 0.000339944737032748 0.0 0.0
-0.0001348083141119413 1.3822358488995836e-05 0.0 -0.00019065571751887702 0.0 0.0
-0.000363263675138079 9.100472670603888e-05 0.0 -0.0003224364905796256 0.0 0.0
-0.0009318739616213309 0.0003947804315638581 0.0 -0.0004523676561602982 0.0 0.0
-0.001689428422863448 0.000685874259048304 0.0 -0.00040768023249198725 0.0 0.0
-0.00299115950462104 0.001400024167991033 0.0 -0.00023239525704540464 0.0 0.0
-0.005629712975996648 0.0035200067710919403 0.0 -0.00027899100502264026 0.0 0.0
-0.010252997507193494 0.007731145443255575 0.0 -0.0006534474489997197 0.0 0.0
-0.0173142319313017 0.014432019938135244 0.0 -0.0012873590151565935 0.0 0.0
-0.027108252439878307 0.02392047217093695 0.0 -0.002191486651246803 0.0 0.0
-0.03967017602875531 0.036208776484045184 0.0 -0.0033240389827919365 0.0 0.0
-0.05481552384078264 0.051089005679161324 0.0 -0.0045658108848205215 0.0 0.0
-0.07226733132075414 0.06826984732126912 0.0 -0.005826630387980226 0.0 0.0
-0.09173820259697339 0.08746665373938259 0.0 -0.007115995299900038 0.0 0.0
-0.11289314993351685 0.10837074957784909 0.0 -0.008445001469890238 0.0 0.0
-0.13524464998185468 0.13053438499213224 0.0 -0.009722612856695886 0.0 0.0
-0.15801533055132946 0.1532151833995269 0.0 -0.01067063189631966 0.0 0.0
-0.179983919269117 0.1752006459926597 0.0 -0.010888650781832468 0.0 0.0
-0.1991351348735776 0.1945058160491251 0.0 -0.010916428229337912 0.0 0.0
-0.2114217464962473 0.2076324559647153 0.0 -0.015718984975274887 0.0 0.0
-0.20863278465091534 0.20786037185262465 0.0 -0.03940532927166498 0.0 0.0
-0.20210962921759681 0.18272079948316525 0.0 6.843484112728504e-15 0.0 0.0
-0.20863278465087923 0.20786037185260142 0.0 0.03940532927169109 0.0 0.0
-0.2114217464961778 0.20763245596465027 0.0 0.0157189849752983 0.0 0.0
-0.1991351348734804 0.19450581604902678 0.0 0.01091642822934661 0.0 0.0
-0.17998391926900253 0.17520064599254825 0.0 0.010888650781830534 0.0 0.0
-0.15801533055120612 0.15321518339941184 0.0 0.010670631896318176 0.0 0.0
-0.13524464998172955 0.1305343849920069 0.0 0.00972261285669629 0.0 0.0
-0.11289314993339171 0.10837074957772705 0.0 0.008445001469883221 0.0 0.0
-0.09173820259685121 0.08746665373926092 0.0 0.007115995299891683 0.0 0.0
-0.07226733132064124 0.06826984732115211 0.0 0.005826630387969512 0.0 0.0
-0.05481552384068417 0.051089005679063174 0.0 0.004565810884805741 0.0 0.0
-0.039670176028675036 0.03620877648396608 0.0 0.0033240389827808945 0.0 0.0
-0.027108252439816353 0.02392047217087681 0.0 0.0021914866512394073 0.0 0.0
-0.01731423193125677 0.014432019938095585 0.0 0.0012873590151487415 0.0 0.0
-0.01025299750716457 0.007731145443230003 0.0 0.0006534474489987045 0.0 0.0
-0.0056297129759818754 0.0035200067710805605 0.0 0.0002789910050212108 0.0 0.0
-0.002991159504615359 0.0014000241679865218 0.0 0.00023239525704449776 0.0 0.0
-0.001689428422861425 0.0006858742590489892 0.0 0.0004076802324912677 0.0 0.0
-0.0009318739616207882 0.000394780431563342 0.0 0.0004523676561614297 0.0 0.0
-0.000363263675137885 9.100472670590899e-05 0.0 0.00032243649057759976 0.0 0.0
-0.00013480831411169584 1.38223584890541e-05 0.0 0.0001906557175216842 0.0 0.0
-9.342916783140949e-05 1.7140304304436943e-05 0.0 -0.0001154553966592509 0.0 0.0
-0.00032906542804080313 0.00010388790040171489 0.0 -0.00013405992675112556 0.0 0.0
-0.0009771540719355509 0.0004040384787706418 0.0 -0.00014676460633445012 0.0 0.0
-0.0019137144710178883 0.00072243420292215 0.0 -6.378339495201792e-05 0.0 0.0
-0.003516779925497351 0.0015521524102085128 0.0 0.00022890208576508125 0.0 0.0
-0.006609956546543496 0.003929555801312415 0.0 0.00047769057809571834 0.0 0.0
-0.011806210110122502 0.008449646195424572 0.0 0.0006003006349278657 0.0 0.0
-0.01958034503991906 0.015513921785548999 0.0 0.0006333070959644459 0.0 0.0
-0.03031263608548262 0.025474468311499368 0.0 0.0005640295232369275 0.0 0.0
-0.044116510582380156 0.03838254505871057 0.0 0.0003438512382088056 0.0 0.0
-0.06083937842558855 0.05404640212043254 0.0 1.3378506287803002e-05 0.0 0.0
-0.08018245923435978 0.07216734633746164 0.0 -0.00040709224306449774 0.0 0.0
-0.10178212424935287 0.09242950861430443 0.0 -0.0009374948270986748 0.0 0.0
-0.1252070915701462 0.11447476449301376 0.0 -0.0015494632445562512 0.0 0.0
-0.14983198777197146 0.1377876116435498 0.0 -0.0022307460851336055 0.0 0.0
-0.17465300783044363 0.16150970941720458 0.0 -0.002830969104108053 0.0 0.0
-0.19818492970609 0.18431213196848956 0.0 -0.003020708328224226 0.0 0.0
-0.2185262407508086 0.20431719296543616 0.0 -0.002717889129264104 0.0 0.0
-0.23337842964872327 0.21867984667675375 0.0 -0.005629479271124784 0.0 0.0
-0.23718809271815702 0.22174181399062642 0.0 -0.03051684345520477 0.0 0.0
-0.23526027918626236 0.19798086490352032 0.0 3.4139358007223564e-15 0.0 0.0
-0.23718809271811714 0.22174181399060677 0.0 0.03051684345521593 0.0 0.0
-0.23337842964864444 0.2186798466766866 0.0 0.005629479271130139 0.0 0.0
-0.21852624075069668 0.2043171929653229 0.0 0.002717889129262293 0.0 0.0
-0.19818492970596097 0.18431213196838128 0.0 0.0030207083282249823 0.0 0.0
-0.17465300783030754 0.1615097094170913 0.0 0.0028309691041060042 0.0 0.0
-0.1498319877718335 0.13778761164342063 0.0 0.002230746085133819 0.0 0.0
-0.1252070915700077 0.11447476449287247 0.0 0.0015494632445494858 0.0 0.0
-0.10178212424921809 0.09242950861417873 0.0 0.0009374948270956182 0.0 0.0
-0.0801824592342359 0.07216734633734186 0.0 0.00040709224305945403 0.0 0.0
-0.06083937842548055 0.0540464021203287 0.0 -1.3378506293368862e-05 0.0 0.0
-0.04411651058229269 0.03838254505862869 0.0 -0.00034385123820948084 0.0 0.0
-0.030312636085414967 0.02547446831144035 0.0 -0.000564029523241358 0.0 0.0
-0.019580345039868455 0.015513921785506854 0.0 -0.0006333070959683219 0.0 0.0
-0.01180621011008972 0.008449646195396537 0.0 -0.0006003006349215854 0.0 0.0
-0.00660995654652648 0.003929555801301422 0.0 -0.0004776905780961309 0.0 0.0
-0.0035167799254900937 0.00155215241020392 0.0 -0.00022890208576509144 0.0 0.0
-0.0019137144710154248 0.0007224342029221232 0.0 6.378339495047861e-05 0.0 0.0
-0.0009771540719347017 0.0004040384787688219 0.0 0.0001467646063347564 0.0 0.0
-0.0003290654280402164 0.00010388790040210192 0.0 0.00013405992675071516 0.0 0.0
-9.342916783101798e-05 1.71403043045253e-05 0.0 0.00011545539666333477 0.0 0.0
SCALARS Statev float 8
LOOKUP_TABLE default
0.0 0.020864515263487874 0.0168029743424257 -0.01987154476674117 0.003068570424315458 -0.0013631502975514236 0.0 0.0
0.0 0.007502531217595395 0.0055940720824366 -0.0036411911523308448 -0.0019528809301057497 -0.007572006288888765 0.0 0.0
0.0 0.00025711245545126366 0.0003154112346886806 -0.0001898970690774836 -0.0001255141656111968 -0.0004509658191790233 0.0 0.0
0.0 0.00023893825210140335 0.00015195505668510854 -0.0001092253672274743 -4.2729689457634874e-05 4.125136971077947e-05 0.0 0.0
0.0 0.0013985905051857603 0.00106400731028899 -0.0007878728924314435 -0.0002761344178575463 0.00021688383465090372 0.0 0.0
0.0 0.003766762434719045 0.003643022735704322 -0.002956605930157683 -0.0006864168055466441 0.000433436172420616 0.0 0.0
0.0 0.009176004342094 0.008353811596490375 -0.007326411607526048 -0.0010273999889643206 0.0005913546793741847 0.0 0.0
0.0 0.01749296028733655 0.015690526190120648 -0.014392484058525359 -0.0012980421315952825 0.000651623169512602 0.0 0.0
0.0 0.029246661066831617 0.02598822360446212 -0.02442476086128792 -0.0015634627431741935 0.0006078882991575054 0.0 0.0
0.0 0.04457977807829082 0.03934158396463971 -0.03747676336033205 -0.0018648206043076537 0.00041745059906713345 0.0 0.0
0.0 0.06331151759801307 0.05560043569506119 -0.053381679662539865 -0.0022187560325213256 0.00010783410831712178 0.0 0.0
0.0 0.08478297410634165 0.07448104217714314 -0.07185459377907641 -0.0026264483980666356 -0.0003022142248479885 0.0 0.0
0.0 0.10896582565559737 0.0956474272510735 -0.09257260712442356 -0.003074820126649956 -0.0008155421618569261 0.0 0.0
0.0 0.1353887372265246 0.11874139933830187 -0.11519370217967537 -0.0035476971586263974 -0.001383859729279825 0.0 0.0
0.0 0.16353006329858683 0.1433042974780316 -0.13927987703155087 -0.004024420446480526 -0.002021285154295016 0.0 0.0
0.0 0.19263172128133266 0.16863797802274583 -0.1641568654277259 -0.004481112595019805 -0.002684644354159369 0.0 0.0
0.0 0.2214821855742419 0.1937211371469584 -0.1888281964036399 -0.004892940743318618 -0.003234123131997529 0.0 0.0
0.0 0.2485325055496926 0.21722233010425265 -0.21198635260792487 -0.005235977496327703 -0.003469915470079605 0.0 0.0
0.0 0.2719884027749968 0.2376054459564598 -0.23209551319602337 -0.005509932760435789 -0.003273730524078855 0.0 0.0
0.0 0.2894129316280404 0.25296323237913554 -0.24727872435869475 -0.005684508020441013 -0.004085504642249707 0.0 0.0
0.0 0.297033985824122 0.2591947146366533 -0.2535259270546742 -0.005668787581978974 3.1606661732297425e-15 0.0 0.0
0.0 0.28941293162799575 0.2529632323790965 -0.24727872435865594 -0.005684508020440798 0.004085504642259588 0.0 0.0
0.0 0.2719884027749102 0.2376054459563838 -0.23209551319594787 -0.0055099327604354415 0.003273730524092574 0.0 0.0
0.0 0.2485325055495759 0.21722233010414999 -0.211986352607826 -0.005235977496323917 0.0034699154700867114 0.0 0.0
0.0 0.22148218557410532 0.1937211371468393 -0.18882819640352433 -0.004892940743315183 0.00323412313199612 0.0 0.0
0.0 0.19263172128118064 0.16863797802261304 -0.1641568654275941 -0.004481112595018827 0.0026846443541523653 0.0 0.0
0.0 0.16353006329843267 0.1433042974778967 -0.13927987703141975 -0.004024420446476969 0.002021285154294542 0.0 0.0
0.0 0.1353887372263772 0.11874139933817354 -0.11519370217954907 -0.003547697158624543 0.001383859729277707 0.0 0.0
0.0 0.10896582565544648 0.09564742725094237 -0.09257260712429431 -0.0030748201266478574 0.0008155421618525364 0.0 0.0
0.0 0.08478297410621392 0.07448104217703135 -0.07185459377896716 -0.0026264483980640687 0.0003022142248436774 0.0 0.0
0.0 0.0633115175979003 0.0556004356949626 -0.053381679662443594 -0.0022187560325190067 -0.00010783410832387397 0.0 0.0
0.0 0.044579778078198816 0.03934158396455925 -0.037476763360253504 -0.0018648206043058412 -0.00041745059907062274 0.0 0.0
0.0 0.02924666106676406 0.02598822360440268 -0.02442476086123009 -0.0015634627431725472 -0.000607888299156718 0.0 0.0
0.0 0.017492960287290228 0.015690526190079258 -0.01439248405848544 -0.0012980421315937876 -0.000651623169512922 0.0 0.0
0.0 0.009176004342065272 0.008353811596464008 -0.0073264116075011905 -0.0010273999889628168 -0.0005913546793738338 0.0 0.0
0.0 0.0037667624347022637 0.003643022735688176 -0.00295660593014345 -0.0006864168055447332 -0.00043343617241941315 0.0 0.0
0.0 0.001398590505179714 0.0010640073102843228 -0.0007878728924279758 -0.00027613441785634494 -0.00021688383464969156 0.0 0.0
0.0 0.00023893825209952545 0.00015195505668411284 -0.0001092253672267785 -4.27296894573336e-05 -4.1251369710490834e-05 0.0 0.0
0.0 0.00025711245545118625 0.0003154112346887801 -0.0001898970690776114 -0.00012551416561116754 0.0004509658191777449 0.0 0.0
0.0 0.007502531217584254 0.005594072082430974 -0.0036411911523265344 -0.0019528809301044363 0.007572006288878106 0.0 0.0
0.0 0.020864515263465767 0.016802974342411143 -0.01987154476672101 0.003068570424309848 0.0013631502975062167 0.0 0.0
0.0 0.017194040367109142 0.013002102025332285 -0.01661386685798864 0.003611764832656348 -0.0008633701685177508 0.0 0.0
0.0 0.004807222491785662 0.0034636589986569133 -0.002246858812040193 -0.0012168001866167172 -0.006142437919054313 0.0 0.0
0.0 -0.00010058853593787078 -8.097035440622616e-05 7.86086373890471e-05 2.3617170171790547e-06 -0.00013905735557411135 0.0 0.0
0.0 7.687733295141265e-05 6.785916874442772e-05 -4.8947820917617166e-05 -1.8911347826810454e-05 2.0189722572782318e-05 0.0 0.0
0.0 0.0008554866101021551 0.0007323900850474744 -0.0005469472713361003 -0.00018544281371137364 8.17874977440501e-05 0.0 0.0
0.0 0.003263908627491494 0.002893617784487753 -0.0023739498056766966 -0.0005196679788110597 4.068119501378573e-05 0.0 0.0
0.0 0.00789519725377125 0.007159126071488495 -0.006366891939418002 -0.0007922341320704863 -0.00033485442189504363 0.0 0.0
0.0 0.015621576489754931 0.013892587365673986 -0.01294278367999166 -0.0009498036856823292 -0.0009653617172733049 0.0 0.0
0.0 0.026590594988488144 0.023400286069118894 -0.022341912651815534 -0.0010583734173033534 -0.0018556255619212132 0.0 0.0
0.0 0.04081183609350673 0.03571508456418115 -0.03456273726549381 -0.001152347298687368 -0.0029743445168045226 0.0 0.0
0.0 0.05811133625425696 0.05065807780809492 -0.04941552444600171 -0.001242553362093287 -0.004221514013140036 0.0 0.0
0.0 0.07827595450200445 0.0679607960029389 -0.06662645362964464 -0.0013343423732942012 -0.005506320055977722 0.0 0.0
0.0 0.10039801294653546 0.08735056876834904 -0.08592284055580944 -0.0014277282125396006 -0.006816677996537456 0.0 0.0
0.0 0.12486409580282876 0.10851907614514951 -0.10700327483111599 -0.0015158013140335515 -0.008145449984865478 0.0 0.0
0.0 0.1509048404119884 0.13105879579182858 -0.12947026179393314 -0.0015885339978951628 -0.009442061801078198 0.0 0.0
0.0 0.17784083705413586 0.15435297557119607 -0.15271546655097393 -0.0016375090202223085 -0.010575074916481677 0.0 0.0
0.0 0.20464856626649605 0.17749555990587373 -0.1758374887803212 -0.0016580711255524902 -0.011260537159107874 0.0 0.0
0.0 0.2299196047542848 0.1992783755310533 -0.19762671781315236 -0.0016516577179009288 -0.01115189276740331 0.0 0.0
0.0 0.2518081698314381 0.21814763617384866 -0.21654322380191204 -0.0016044123719364664 -0.010163405757409257 0.0 0.0
0.0 0.2677859592799598 0.23183356219111606 -0.23041494288389658 -0.001418619307219485 -0.009401329072837047 0.0 0.0
0.0 0.27486448440160766 0.23718600537210027 -0.23604861800781526 -0.0011373873642851258 1.0091753821495075e-14 0.0 0.0
0.0 0.2677859592799213 0.2318335621910823 -0.23041494288386258 -0.001418619307219476 0.009401329072861139 0.0 0.0
0.0 0.2518081698313575 0.2181476361737793 -0.2165432238018414 -0.0016044123719377093 0.010163405757436685 0.0 0.0
0.0 0.22991960475417517 0.19927837553095917 -0.19762671781305768 -0.001651657717901416 0.01115189276741876 0.0 0.0
0.0 0.20464856626637146 0.17749555990576663 -0.17583748878021388 -0.001658071125552935 0.01126053715910882 0.0 0.0
0.0 0.17784083705400025 0.1543529755710792 -0.15271546655085677 -0.0016375090202220255 0.010575074916474542 0.0 0.0
0.0 0.1509048404118504 0.1310587957917083 -0.1294702617938139 -0.0015885339978943622 0.00944206180107559 0.0 0.0
0.0 0.12486409580269489 0.10851907614503369 -0.10700327483100054 -0.0015158013140330866 0.008145449984860949 0.0 0.0
0.0 0.10039801294639851 0.08735056876823098 -0.0859228405556913 -0.0014277282125397 0.006816677996529078 0.0 0.0
0.0 0.07827595450188593 0.06796079600283592 -0.06662645362954207 -0.0013343423732938248 0.00550632005596942 0.0 0.0
0.0 0.05811133625415196 0.050658077808004215 -0.04941552444591137 -0.0012425533620928626 0.004221514013128206 0.0 0.0
0.0 0.040811836093421594 0.03571508456410689 -0.034562737265419856 -0.0011523472986869738 0.0029743445167953963 0.0 0.0
0.0 0.02659059498842557 0.023400286069063657 -0.02234191265176108 -0.0010583734173025723 0.001855625561916819 0.0 0.0
0.0 0.015621576489708789 0.01389258736563317 -0.01294278367995153 -0.0009498036856816638 0.0009653617172684802 0.0 0.0
0.0 0.007895197253745542 0.007159126071465328 -0.006366891939395826 -0.0007922341320694881 0.0003348544218926488 0.0 0.0
0.0 0.003263908627476586 0.0028936177844746547 -0.0023739498056650366 -0.0005196679788096156 -4.0681195014553306e-05 0.0 0.0
0.0 0.0008554866100968223 0.0007323900850432616 -0.0005469472713328903 -0.00018544281371037183 -8.178749774363902e-05 0.0 0.0
0.0 7.687733295050967e-05 6.785916874414962e-05 -4.894782091743825e-05 -1.8911347826711202e-05 -2.018972257259913e-05 0.0 0.0
0.0 -0.00010058853593805723 -8.097035440571173e-05 7.860863738861462e-05 2.361717017096833e-06 0.00013905735557395984 0.0 0.0
0.0 0.004807222491774373 0.003463658998650746 -0.0022468588120357243 -0.0012168001866150223 0.006142437919042207 0.0 0.0
0.0 0.01719404036708526 0.01300210202531412 -0.01661386685796614 0.003611764832652017 0.0008633701684834214 0.0 0.0
0.0 0.013029533190012387 0.009646389749693745 -0.012650998969095672 0.0030046092194019364 -0.0036031880560245906 0.0 0.0
0.0 0.003313064686184813 0.0021272134357385847 -0.0012176232679800309 -0.0009095901677585581 -0.005443641015452763 0.0 0.0
0.0 -1.4788444187356762e-07 1.006660811494582e-06 -6.932726308425905e-07 -3.133881806519853e-07 2.434592136757862e-07 0.0 0.0
0.0 6.045021401547908e-06 4.658516712589844e-06 -2.500731911287265e-06 -2.1577848013027157e-06 8.814776477005068e-06 0.0 0.0
0.0 0.00044001666889588166 0.0003985293579065515 -0.00028992018629999273 -0.00010860917160655865 8.324963724460518e-06 0.0 0.0
0.0 0.0023945354661483913 0.0020783155730181666 -0.0016584514815541087 -0.00041986409146405534 -0.00017579010230270984 0.0 0.0
0.0 0.006261904478993997 0.0057466255524590785 -0.005018727352292793 -0.0007278982001662885 -0.0009029402949340274 0.0 0.0
0.0 0.013185345365108753 0.011721997996849974 -0.010820686646483144 -0.0009013113503668248 -0.00210889301681839 0.0 0.0
0.0 0.023017476895098782 0.02023970834335275 -0.019232408651383755 -0.001007299691968972 -0.0037927205387690162 0.0 0.0
0.0 0.035853484114213824 0.03127404140438414 -0.03018048975757093 -0.0010935516468132088 -0.005856062835231038 0.0 0.0
0.0 0.05137542595242941 0.04462150673236867 -0.0434436523741716 -0.0011778543581970429 -0.008110146610190891 0.0 0.0
0.0 0.06917371502517022 0.06003232267637886 -0.05876701596339492 -0.0012653067129839563 -0.010381941638604899 0.0 0.0
0.0 0.08932831758582184 0.07727431601337278 -0.07592061043670456 -0.0013537055766681238 -0.012628150961452127 0.0 0.0
0.0 0.1108675093541716 0.09611463651433438 -0.09467771821751116 -0.0014369182968233002 -0.014885971367125404 0.0 0.0
0.0 0.13413885078991666 0.11621557427052656 -0.11470800860192944 -0.0015075656685973327 -0.017090182714021268 0.0 0.0
0.0 0.15826949751069327 0.13706890165490992 -0.1355108676088987 -0.0015580340460110995 -0.018996200318366904 0.0 0.0
0.0 0.18239579998267438 0.15791847370877765 -0.15633530870569615 -0.0015831650030816652 -0.020160542408283227 0.0 0.0
0.0 0.20524149643973494 0.17767226586144236 -0.17609820847835092 -0.0015740573830915323 -0.02008817643906393 0.0 0.0
0.0 0.2250300558715102 0.19475080711133647 -0.1932487179370608 -0.0015020891742754232 -0.01859097552958106 0.0 0.0
0.0 0.2393403631774576 0.207050664672654 -0.2056570854203656 -0.00139357925228795 -0.01584855486723008 0.0 0.0
0.0 0.24600143832985982 0.21200879553223634 -0.2109350439619674 -0.001073751570269021 1.8176432581284985e-14 0.0 0.0
0.0 0.23934036317742624 0.20705066467262456 -0.2056570854203374 -0.0013935792522869889 0.015848554867275516 0.0 0.0
0.0 0.22503005587144023 0.1947508071112754 -0.19324871793699983 -0.001502089174275762 0.01859097552962697 0.0 0.0
0.0 0.20524149643963915 0.1776722658613599 -0.17609820847826696 -0.0015740573830929374 0.020088176439092994 0.0 0.0
0.0 0.18239579998256825 0.1579184737086865 -0.15633530870560544 -0.0015831650030811116 0.020160542408285905 0.0 0.0
0.0 0.15826949751057812 0.13706890165480945 -0.1355108676087997 -0.001558034046009634 0.018996200318358417 0.0 0.0
0.0 0.13413885078979434 0.11621557427042059 -0.11470800860182372 -0.0015075656685968608 0.017090182714015443 0.0 0.0
0.0 0.11086750935405387 0.09611463651423231 -0.09467771821741006 -0.0014369182968222553 0.014885971367118406 0.0 0.0
0.0 0.08932831758570241 0.07727431601326985 -0.07592061043660174 -0.0013537055766681177 0.012628150961439434 0.0 0.0
0.0 0.0691737150250618 0.06003232267628553 -0.05876701596330158 -0.001265306712983881 0.010381941638589638 0.0 0.0
0.0 0.051375425952336864 0.044621506732288485 -0.04344365237409176 -0.001177854358196749 0.00811014661017405 0.0 0.0
0.0 0.03585348411413994 0.03127404140431949 -0.03018048975750667 -0.0010935516468127918 0.0058560628352170765 0.0 0.0
0.0 0.023017476895043486 0.020239708343304373 -0.019232408651336033 -0.0010072996919683397 0.0037927205387598625 0.0 0.0
0.0 0.01318534536506618 0.011721997996813003 -0.010820686646446672 -0.0009013113503663087 0.0021088930168096853 0.0 0.0
0.0 0.006261904478972508 0.005746625552439568 -0.005018727352274466 -0.0007278982001651059 0.0009029402949297411 0.0 0.0
0.0 0.0023945354661385684 0.0020783155730098096 -0.0016584514815469933 -0.00041986409146281594 0.0001757901023013703 0.0 0.0
0.0 0.0004400166688920369 0.0003985293579036991 -0.0002899201862978309 -0.00010860917160586837 -8.324963724710434e-06 0.0 0.0
0.0 6.045021401404264e-06 4.658516712620016e-06 -2.5007319113235233e-06 -2.1577848012964744e-06 -8.814776476882102e-06 0.0 0.0
0.0 -1.478844417774081e-07 1.0066608114178247e-06 -6.932726307859067e-07 -3.1338818063191833e-07 -2.43459213708743e-07 0.0 0.0
0.0 0.003313064686175386 0.0021272134357331173 -0.001217623267976326 -0.0009095901677567846 0.005443641015438536 0.0 0.0
0.0 0.013029533189987662 0.009646389749675454 -0.012650998969072845 0.003004609219397372 0.003603188056002142 0.0 0.0
0.0 0.010019415214702973 0.007236875094904513 -0.009679586750134566 0.002442711655230018 -0.0038705486745752647 0.0 0.0
0.0 0.0024593901532879935 0.001485447758062501 -0.0008313707568909615 -0.0006540770011715318 -0.004207951659960321 0.0 0.0
0.0 0.0 0.0 0.0 0.0 0.0 0.0 0.0
0.0 -7.570222962668951e-06 -6.801643273332433e-06 5.40796669826639e-06 1.3936765750660403e-06 5.5901071621930325e-06 0.0 0.0
0.0 0.00018507243305108294 0.00016097735899721504 -0.0001128799269521106 -4.809743204510383e-05 -3.427509491955569e-06 0.0 0.0
0.0 0.0015367747089395066 0.0013855903710541324 -0.0010742845046142135 -0.0003113058664399171 -0.00029084343103030134 0.0 0.0
0.0 0.004960850692657098 0.004387776902992652 -0.003744990761761349 -0.0006427861412313009 -0.0011826123158004045 0.0 0.0
0.0 0.01080590284057697 0.009573882704113634 -0.008731069589882316 -0.0008428131142313134 -0.0028582345851278887 0.0 0.0
0.0 0.01951702586569661 0.017059970876583737 -0.016108912737944858 -0.0009510581386388746 -0.005143151527822126 0.0 0.0
0.0 0.03088578228440891 0.02678114122570697 -0.02575002350241913 -0.0010311177232878166 -0.007916575415146109 0.0 0.0
0.0 0.044541187446597894 0.03851402676052829 -0.037405205583178475 -0.0011088211773497424 -0.010918921141354551 0.0 0.0
0.0 0.060334798388806135 0.052021605200338696 -0.05083055093218687 -0.0011910542681518013 -0.013935727405336442 0.0 0.0
0.0 0.07773743703673797 0.06711467711183175 -0.0658397024400967 -0.0012749746717350351 -0.01691271559173395 0.0 0.0
0.0 0.09711542253996339 0.08360518989835232 -0.08225229190015511 -0.0013528979981971571 -0.01986985784464225 0.0 0.0
0.0 0.11747450052492173 0.10124837036885706 -0.09982747157063612 -0.0014208987982208834 -0.022739049371353483 0.0 0.0
0.0 0.1386133437660601 0.1196542198002453 -0.1181801053183411 -0.0014741144819042477 -0.025255389811800616 0.0 0.0
0.0 0.16015873811833625 0.13820689819117293 -0.1367043549663795 -0.0015025432247933869 -0.026911672666999478 0.0 0.0
0.0 0.18065765629924793 0.15593781027018108 -0.15444637837445147 -0.0014914318957295225 -0.027103416896956542 0.0 0.0
0.0 0.19850048364665718 0.1713995885101168 -0.16996451415358713 -0.0014350743565296825 -0.025222762404455916 0.0 0.0
0.0 0.21160220558281673 0.1827919164252328 -0.18142620548868663 -0.0013657109365465513 -0.02031188959203445 0.0 0.0
0.0 0.21828210914643648 0.18768210883144965 -0.1867613128447084 -0.0009207959867411952 2.5254104363270358e-14 0.0 0.0
0.0 0.21160220558278892 0.1827919164252064 -0.1814262054886598 -0.0013657109365466527 0.020311889592094564 0.0 0.0
0.0 0.19850048364659684 0.1713995885100625 -0.16996451415353309 -0.0014350743565293598 0.02522276240451356 0.0 0.0
0.0 0.18065765629916147 0.15593781027010628 -0.15444637837437505 -0.0014914318957311597 0.027103416896991105 0.0 0.0
0.0 0.16015873811824438 0.13820689819109325 -0.13670435496630098 -0.0015025432247923257 0.026911672667004456 0.0 0.0
0.0 0.13861334376595627 0.11965421980015575 -0.11818010531825184 -0.0014741144819037995 0.025255389811789646 0.0 0.0
0.0 0.11747450052481205 0.10124837036876198 -0.0998274715705413 -0.0014208987982207715 0.022739049371342683 0.0 0.0
0.0 0.0971154225398617 0.08360518989826346 -0.0822522919000675 -0.001352897998196111 0.01986985784463455 0.0 0.0
0.0 0.07773743703663549 0.06711467711174393 -0.06583970244000925 -0.0012749746717346244 0.01691271559171824 0.0 0.0
0.0 0.06033479838871053 0.05202160520025613 -0.050830550932104666 -0.0011910542681515457 0.013935727405314482 0.0 0.0
0.0 0.044541187446518214 0.03851402676045955 -0.03740520558311053 -0.001108821177348967 0.01091892114133304 0.0 0.0
0.0 0.03088578228434489 0.02678114122565167 -0.02575002350236428 -0.0010311177232873745 0.007916575415127546 0.0 0.0
0.0 0.01951702586564573 0.01705997087653987 -0.016108912737901316 -0.0009510581386385364 0.0051431515278087085 0.0 0.0
0.0 0.010805902840542905 0.009573882704083514 -0.008731069589852798 -0.000842813114230704 0.002858234585117328 0.0 0.0
0.0 0.004960850692637181 0.004387776902975868 -0.0037449907617459538 -0.0006427861412299141 0.0011826123157945866 0.0 0.0
0.0 0.0015367747089308785 0.0013855903710471274 -0.001074284504608521 -0.0003113058664386048 0.00029084343102816015 0.0 0.0
0.0 0.0001850724330493828 0.00016097735899628498 -0.00011287992695146856 -4.809743204481601e-05 3.4275094921067472e-06 0.0 0.0
0.0 -7.570222962921973e-06 -6.801643273302842e-06 5.40796669824123e-06 1.3936765750616409e-06 -5.590107162176671e-06 0.0 0.0
0.0 0.0 0.0 0.0 0.0 0.0 0.0 0.0
0.0 0.002459390153279601 0.001485447758057603 -0.0008313707568876371 -0.0006540770011699693 0.004207951659947755 0.0 0.0
0.0 0.010019415214681577 0.007236875094887941 -0.009679586750113746 0.0024427116552257935 0.0038705486745589765 0.0 0.0
0.0 0.007479948193484603 0.005370096475389511 -0.007310206896228127 0.0019401104208386303 -0.0033211249384720743 0.0 0.0
0.0 0.001972111328442292 0.0010078531961620631 -0.0005542300654293589 -0.00045362313073270494 -0.00310808472527732 0.0 0.0
0.0 0.0 0.0 0.0 0.0 0.0 0.0 0.0
0.0 -7.51895331653483e-07 -7.717966584702511e-07 6.172824318798055e-07 1.5451422659044886e-07 1.0956882684268698e-06 0.0 0.0
0.0 1.767185518440376e-05 3.069587130740412e-05 -1.825183801844628e-05 -1.2444033288957867e-05 1.325527045994999e-05 0.0 0.0
0.0 0.0009397836917994248 0.0008146214690677377 -0.0006146566525162918 -0.00019996481655144656 -0.0002931262515494408 0.0 0.0
0.0 0.0037066615182226956 0.0031452564879112153 -0.0026127502217688065 -0.0005325062661424019 -0.0012613355794781982 0.0 0.0
0.0 0.008524192912581727 0.00748097206999893 -0.006709799627393725 -0.0007711724426052117 -0.003173635735681597 0.0 0.0
0.0 0.016063995450270686 0.013902324354359244 -0.013014249499847683 -0.0008880748545115743 -0.005898279467084434 0.0 0.0
0.0 0.025915816549800585 0.0222818596098517 -0.021318431661719858 -0.0009634279481318263 -0.009153267122469772 0.0 0.0
0.0 0.037788383342349546 0.03238164189360747 -0.031346879672488226 -0.0010347622211192486 -0.01265723766596472 0.0 0.0
0.0 0.051400449740621745 0.04397553250654025 -0.04286441925959944 -0.0011111132469408334 -0.016173690047324944 0.0 0.0
0.0 0.06661957818213403 0.056906734614006124 -0.05571713349665319 -0.0011896011173529062 -0.019648534197104946 0.0 0.0
0.0 0.08290318576075871 0.07104882966874869 -0.0697850317640334 -0.0012637979047153342 -0.023093882838574366 0.0 0.0
0.0 0.10066959376550094 0.08621886893670067 -0.08489014428222541 -0.0013287246544752061 -0.026410252364623618 0.0 0.0
0.0 0.11925538251588784 0.10214054442325432 -0.10075911226091344 -0.0013814321623408844 -0.029337926740873037 0.0 0.0
0.0 0.13788647120323175 0.1183553391019466 -0.1169406999591171 -0.0014146391428295573 -0.031434429145766433 0.0 0.0
0.0 0.1560205417530941 0.13407343888074044 -0.13265856125165726 -0.0014148776290830451 -0.03201273741581675 0.0 0.0
0.0 0.17212972506505925 0.1480841523225926 -0.14670729207360045 -0.00137686024899183 -0.029935881847248276 0.0 0.0
0.0 0.18441329811529733 0.15885983545862428 -0.1575347567195002 -0.001325078739124161 -0.023624545130878395 0.0 0.0
0.0 0.19136573622998962 0.163854967141162 -0.16312695120230672 -0.0007280159388551948 3.0368936532187973e-14 0.0 0.0
0.0 0.18441329811527538 0.1588598354586027 -0.15753475671947692 -0.0013250787391257419 0.023624545130948072 0.0 0.0
0.0 0.17212972506500768 0.14808415232254446 -0.14670729207355285 -0.0013768602489914257 0.02993588184731461 0.0 0.0
0.0 0.15602054175301822 0.13407343888067397 -0.13265856125158965 -0.0014148776290843364 0.032012737415855794 0.0 0.0
0.0 0.13788647120314765 0.11835533910187426 -0.11694069995904498 -0.001414639142829211 0.0314344291457743 0.0 0.0
0.0 0.11925538251579393 0.10214054442317347 -0.10075911226083181 -0.0013814321623415945 0.029337926740860193 0.0 0.0
0.0 0.1006695937654084 0.08621886893662058 -0.08489014428214617 -0.001328724654474448 0.026410252364609962 0.0 0.0
0.0 0.0829031857606712 0.07104882966867267 -0.06978503176395813 -0.001263797904714457 0.02309388283856353 0.0 0.0
0.0 0.0666195781820476 0.05690673461393187 -0.05571713349657906 -0.0011896011173527148 0.019648534197087036 0.0 0.0
0.0 0.05140044974053977 0.04397553250647003 -0.042864419259529656 -0.0011111132469403039 0.016173690047299683 0.0 0.0
0.0 0.037788383342278645 0.03238164189354721 -0.03134687967242875 -0.001034762221118469 0.01265723766593739 0.0 0.0
0.0 0.025915816549745414 0.022281859609804656 -0.02131843166167308 -0.0009634279481315549 0.009153267122448275 0.0 0.0
0.0 0.01606399545022606 0.01390232435432108 -0.013014249499809836 -0.0008880748545112464 0.005898279467067806 0.0 0.0
0.0 0.008524192912554289 0.007480972069975287 -0.006709799627370864 -0.0007711724426044272 0.003173635735670446 0.0 0.0
0.0 0.0037066615182061256 0.0031452564878977057 -0.0026127502217567523 -0.0005325062661409522 0.0012613355794722004 0.0 0.0
0.0 0.0009397836917914178 0.0008146214690614706 -0.0006146566525112732 -0.00019996481655019824 0.00029312625154642285 0.0 0.0
0.0 1.7671855184049048e-05 3.069587130748811e-05 -1.8251838018577266e-05 -1.2444033288910983e-05 -1.3255270459385894e-05 0.0 0.0
0.0 -7.518953317815904e-07 -7.717966585248155e-07 6.172824319224683e-07 1.545142266023299e-07 -1.0956882685073142e-06 0.0 0.0
0.0 0.0 0.0 0.0 0.0 0.0 0.0 0.0
0.0 0.0019721113284349055 0.0010078531961583961 -0.000554230065426933 -0.0004536231307314616 0.0031080847252673905 0.0 0.0
0.0 0.0074799481934663984 0.005370096475375258 -0.007310206896210068 0.0019401104208348018 0.003321124938460313 0.0 0.0
0.0 0.00554159317884639 0.0038623554218893547 -0.005348026906147891 0.0014856714842585318 -0.0026124054405886037 0.0 0.0
0.0 0.0012725437017383893 0.0006541427999990528 -0.000353324565159374 -0.0003008182348396769 -0.0021981559459619314 0.0 0.0
0.0 0.0 0.0 0.0 0.0 0.0 0.0 0.0
0.0 -3.3050337233756995e-07 1.084503773809964e-07 -8.135396794630929e-08 -2.709640943468698e-08 -1.671032517321288e-07 0.0 0.0
0.0 -2.6170252696690425e-05 -1.7676330206831525e-05 1.544998157014089e-05 2.226348636690639e-06 3.423936677589828e-05 0.0 0.0
0.0 0.0004446460684930152 0.0004051549254189764 -0.000297655958127758 -0.000107498967291219 -0.00022893078530165307 0.0 0.0
0.0 0.00236077432957979 0.0020783121142091063 -0.0016759210880011555 -0.0004023910262079504 -0.0012020963037301198 0.0 0.0
0.0 0.006645018369043594 0.005487965346061703 -0.0048141214639796275 -0.0006738438820820675 -0.0031128621860456738 0.0 0.0
0.0 0.01255981196229596 0.010807299666446495 -0.009994010551040504 -0.000813289115406001 -0.0060360989399689605 0.0 0.0
0.0 0.021034752236648153 0.017820683466120323 -0.016932115153208322 -0.000888568312912004 -0.009559832530162998 0.0 0.0
0.0 0.03104764231747903 0.02627216211413008 -0.025318192404527057 -0.0009539697096030262 -0.013322882171975919 0.0 0.0
0.0 0.042466223580355504 0.0359432380045443 -0.034918840464174615 -0.001024397540369602 -0.017097025299381598 0.0 0.0
0.0 0.055145180214247184 0.046707899794530716 -0.04561037036256013 -0.0010975294319705985 -0.020826509732656755 0.0 0.0
0.0 0.0690686403726464 0.05848781674394089 -0.057321420720178706 -0.001166396023762185 -0.024524290658692032 0.0 0.0
0.0 0.08387511728086976 0.07117783671923236 -0.0699498352413524 -0.0012280014778800602 -0.028087218592535965 0.0 0.0
0.0 0.09937586179076005 0.08458686818406082 -0.08330675121597647 -0.001280116968084254 -0.03125018354642359 0.0 0.0
0.0 0.11569961966068443 0.09839411750801616 -0.09707521532810301 -0.001318902179913072 -0.033644980414462185 0.0 0.0
0.0 0.13139942705890778 0.11206824128748054 -0.11073156574877678 -0.0013366755387038294 -0.03462280705752332 0.0 0.0
0.0 0.1456983364084498 0.12471433669402356 -0.1233949151393583 -0.0013194215546652604 -0.032766211837123714 0.0 0.0
0.0 0.15743610527604202 0.13505571233553254 -0.1337787285744305 -0.0012769837611019321 -0.025965641816243428 0.0 0.0
0.0 0.16490095287641207 0.14028453379932035 -0.13978184554376463 -0.0005026882555556324 3.1002977962657496e-14 0.0 0.0
0.0 0.1574361052760232 0.13505571233551186 -0.1337787285744088 -0.001276983761102933 0.025965641816316127 0.0 0.0
0.0 0.14569833640840754 0.12471433669398285 -0.12339491513931726 -0.0013194215546656434 0.03276621183719318 0.0 0.0
0.0 0.13139942705884666 0.11206824128742529 -0.11073156574872145 -0.0013366755387036967 0.0346228070575651 0.0 0.0
0.0 0.11569961966061457 0.09839411750795626 -0.09707521532804339 -0.0013189021799127959 0.033644980414468714 0.0 0.0
0.0 0.09937586179068023 0.08458686818399248 -0.08330675121590729 -0.001280116968085337 0.03125018354640983 0.0 0.0
0.0 0.08387511728079487 0.07117783671916743 -0.06994983524128806 -0.0012280014778793139 0.028087218592523125 0.0 0.0
0.0 0.06906864037257075 0.05848781674387534 -0.057321420720113536 -0.0011663960237618418 0.024524290658677478 0.0 0.0
0.0 0.05514518021417349 0.04670789979446798 -0.045610370362497744 -0.001097529431970261 0.020826509732638342 0.0 0.0
0.0 0.04246622358028547 0.03594323800448518 -0.03491884046411573 -0.0010243975403694172 0.01709702529935549 0.0 0.0
0.0 0.031047642317416104 0.026272162114078058 -0.025318192404475096 -0.0009539697096029676 0.013322882171945803 0.0 0.0
0.0 0.02103475223660307 0.017820683466082066 -0.016932115153170876 -0.0008885683129111888 0.00955983253013975 0.0 0.0
0.0 0.01255981196226076 0.010807299666416248 -0.009994010551010922 -0.0008132891154053423 0.0060360989399518995 0.0 0.0
0.0 0.006645018369020839 0.005487965346043391 -0.0048141214639622655 -0.0006738438820811249 0.003112862186034957 0.0 0.0
0.0 0.0023607743295663273 0.0020783121141981853 -0.001675921087991801 -0.00040239102620638503 0.0012020963037234324 0.0 0.0
0.0 0.0004446460684885949 0.00040515492541578493 -0.0002976559581253188 -0.00010749896729046582 0.00022893078529953327 0.0 0.0
0.0 -2.617025269698758e-05 -1.7676330206304616e-05 1.5449981569717776e-05 2.226348636586832e-06 -3.423936677511305e-05 0.0 0.0
0.0 -3.3050337223766167e-07 1.0845037733770875e-07 -8.135396791175178e-08 -2.7096409425953743e-08 1.671032516535956e-07 0.0 0.0
0.0 0.0 0.0 0.0 0.0 0.0 0.0 0.0
0.0 0.001272543701732179 0.0006541427999961308 -0.00035332456515744875 -0.00030081823483868057 0.002198155945953559 0.0 0.0
0.0 0.0055415931788319345 0.0038623554218779753 -0.0053480269061330615 0.0014856714842550846 0.0026124054405806435 0.0 0.0
0.0 0.003795428743209526 0.002652163728987234 -0.0037304087114072857 0.001078244982420046 -0.0019639330027101513 0.0 0.0
0.0 0.0008300965444600188 0.00038179285062596446 -0.00019424511579308558 -0.00018754773483287878 -0.001441118760283943 0.0 0.0
0.0 1.5734592941222573e-07 7.148379167026532e-10 -7.331624633568543e-11 -6.415216703671971e-10 3.250372699491736e-08 0.0 0.0
0.0 1.486630277386377e-07 2.4489119827457207e-09 -2.964181907121966e-09 5.152699243734191e-10 5.096973641885543e-08 0.0 0.0
0.0 -2.379593027354603e-05 -1.5358567344587608e-05 1.2367177604946592e-05 2.991389739641069e-06 3.191241762003062e-05 0.0 0.0
0.0 0.00015860951948122373 0.00013670582228584427 -9.6830033319826e-05 -3.987578896601826e-05 -0.00011226243147630308 0.0 0.0
0.0 0.0014425780401751726 0.0011909572602292167 -0.0009326774012036105 -0.00025827985902560633 -0.0009858642626070855 0.0 0.0
0.0 0.00440550580529155 0.003695673023398293 -0.0031521336560914608 -0.0005435393673068286 -0.002799961494422855 0.0 0.0
0.0 0.00973205894629605 0.00782251304766346 -0.007105549451902135 -0.000716963595761325 -0.0055872030906499335 0.0 0.0
0.0 0.016095518341331314 0.013448461307713778 -0.012647233895899078 -0.0008012274118147098 -0.009117249003435043 0.0 0.0
0.0 0.024380612256014983 0.020235811831977146 -0.019371986859690712 -0.0008638249722864388 -0.012902298669713175 0.0 0.0
0.0 0.03363521507752581 0.02797574351614146 -0.027047500472643513 -0.0009282430434979637 -0.016696714927600567 0.0 0.0
0.0 0.0438435254734775 0.03656905147652421 -0.03557390081059012 -0.000995150665934045 -0.020435463579515468 0.0 0.0
0.0 0.05500458121777446 0.04598483090290133 -0.04492553617819353 -0.0010592947247078763 -0.02414423329415201 0.0 0.0
0.0 0.06699743237243383 0.05618023186611264 -0.055063667549281436 -0.0011165643168311254 -0.02773509034171481 0.0 0.0
0.0 0.07999784987805135 0.06704232806493803 -0.06587727139219848 -0.0011650566727396015 -0.030954828133716743 0.0 0.0
0.0 0.09286872248002931 0.07838418407469962 -0.07717357429311565 -0.001210609781583976 -0.03346640012235978 0.0 0.0
0.0 0.1064254769957982 0.089924736180216 -0.08867427403345507 -0.0012504621467607886 -0.034799654346921186 0.0 0.0
0.0 0.11944775193903884 0.1011734845465923 -0.09991509819485395 -0.001258386351738545 -0.03359475470063029 0.0 0.0
0.0 0.13060706198979263 0.11117057020911421 -0.1099462484334432 -0.0012243217756710467 -0.027315717857826723 0.0 0.0
0.0 0.13887520346577453 0.11674328034055052 -0.11649841979732253 -0.00024486054322803835 2.9656832545299494e-14 0.0 0.0
0.0 0.13060706198977853 0.111170570209096 -0.1099462484334248 -0.0012243217756712852 0.02731571785789972 0.0 0.0
0.0 0.11944775193900561 0.1011734845465585 -0.09991509819482025 -0.0012583863517382748 0.03359475470070062 0.0 0.0
0.0 0.10642547699575057 0.08992473618017184 -0.08867427403341098 -0.001250462146760918 0.03479965434696364 0.0 0.0
0.0 0.09286872247997283 0.07838418407465134 -0.07717357429306783 -0.0012106097815835024 0.03346640012236477 0.0 0.0
0.0 0.0799978498779885 0.06704232806488457 -0.06587727139214497 -0.0011650566727396921 0.030954828133701075 0.0 0.0
0.0 0.06699743237237157 0.056180231866058375 -0.05506366754922784 -0.0011165643168304792 0.027735090341699856 0.0 0.0
0.0 0.055004581217715516 0.045984830902850576 -0.04492553617814338 -0.001059294724707166 0.024144233294137472 0.0 0.0
0.0 0.043843525473419874 0.036569051476475566 -0.035573900810541875 -0.0009951506659336984 0.020435463579497968 0.0 0.0
0.0 0.03363521507746662 0.02797574351609238 -0.027047500472594653 -0.0009282430434977551 0.016696714927574713 0.0 0.0
0.0 0.024380612255965172 0.02023581183193697 -0.01937198685965069 -0.0008638249722862694 0.012902298669684039 0.0 0.0
0.0 0.01609551834129315 0.013448461307682473 -0.012647233895868262 -0.0008012274118142088 0.009117249003410575 0.0 0.0
0.0 0.00973205894626686 0.007822513047640513 -0.007105549451879893 -0.0007169635957606279 0.005587203090634231 0.0 0.0
0.0 0.004405505805272421 0.0036956730233830156 -0.0031521336560771055 -0.0005435393673059038 0.002799961494411542 0.0 0.0
0.0 0.001442578040164823 0.0011909572602216115 -0.0009326774011973424 -0.00025827985902426945 0.0009858642626004181 0.0 0.0
0.0 0.00015860951947873646 0.00013670582228446473 -9.683003331885326e-05 -3.987578896561151e-05 0.00011226243147506847 0.0 0.0
0.0 -2.3795930273333767e-05 -1.5358567344056606e-05 1.236717760453477e-05 2.9913897395218354e-06 -3.191241761887045e-05 0.0 0.0
0.0 1.4866302743918312e-07 2.448911942490684e-09 -2.9641818760270107e-09 5.152699335377035e-10 -5.096973651762322e-08 0.0 0.0
0.0 1.5734592914948445e-07 7.148379181953433e-10 -7.331624793983198e-11 -6.415216702555217e-10 -3.250372694055046e-08 0.0 0.0
0.0 0.0008300965444551038 0.0003817928506238812 -0.00019424511579171867 -0.00018754773483216225 0.0014411187602774895 0.0 0.0
0.0 0.0037954287431983718 0.002652163728978524 -0.0037304087113956223 0.0010782449824170966 0.001963933002704403 0.0 0.0
0.0 0.0028664982979024903 0.0016608561212376198 -0.0023712937104163135 0.0007104375891786926 -0.0013697611259053395 0.0 0.0
0.0 0.00039025345698408856 0.00018949986305690262 -8.429260096796921e-05 -0.00010520726208893341 -0.0008449994390378915 0.0 0.0
0.0 1.3692826889826915e-06 9.968127512897806e-08 -1.0271642549699458e-07 3.0351503680169114e-09 -2.0060224451083266e-06 0.0 0.0
0.0 -7.250355826658318e-07 -5.8799604595551026e-09 3.7050874428771987e-09 2.1748730166777004e-09 -2.656265490751838e-07 0.0 0.0
0.0 -1.2246893379543694e-05 -7.270223146820178e-06 5.832213383668171e-06 1.4380097631520058e-06 2.3401590205023206e-05 0.0 0.0
0.0 2.0306285195200547e-05 1.6400429350369052e-05 -9.342101251654696e-06 -7.0583280987143655e-06 -1.8586591379955498e-05 0.0 0.0
0.0 0.0007097500765885999 0.0005358108147758793 -0.0004096455547718908 -0.00012616526000398803 -0.0006743864760022965 0.0 0.0
0.0 0.002673578275272307 0.0021355365227791923 -0.0017636084740079562 -0.00037192804877123563 -0.0022378928370619306 0.0 0.0
0.0 0.006366776157865902 0.005069144998311359 -0.004487633488536004 -0.0005815115097753549 -0.004687589938791517 0.0 0.0
0.0 0.011781947838905276 0.009226327288980457 -0.008537036061970968 -0.0006892912270094862 -0.007853724694859794 0.0 0.0
0.0 0.01782232153756791 0.01432880678555613 -0.013573631122151897 -0.0007551756634042219 -0.011382360424980526 0.0 0.0
0.0 0.02483398493358969 0.02013411015363905 -0.01931793995918834 -0.0008161701944507348 -0.0149440944318346 0.0 0.0
0.0 0.03263441381792836 0.026556086500158206 -0.025679133035061565 -0.0008769534650966498 -0.018452668636672193 0.0 0.0
0.0 0.04110041718251904 0.03360018712308834 -0.032665581785988385 -0.0009346053370998938 -0.021926968931854144 0.0 0.0
0.0 0.05038399309201424 0.04128632668809407 -0.04029836892792934 -0.0009879577601647391 -0.02532327394652813 0.0 0.0
0.0 0.06020768949108606 0.04958549411972127 -0.04855146077276938 -0.0010340333469518385 -0.028421170523136835 0.0 0.0
0.0 0.07074676177065495 0.058394866993307065 -0.057316117776189 -0.0010787492171180628 -0.030866982815205363 0.0 0.0
0.0 0.0814518304355903 0.06766335563184625 -0.06652384979204579 -0.0011395058398002954 -0.032363370270690334 0.0 0.0
0.0 0.09240496646821514 0.0773578416904977 -0.07617004527364635 -0.0011877964168512457 -0.032121682007436404 0.0 0.0
0.0 0.10333279376559956 0.08698095679641188 -0.08580954379425822 -0.0011714130021536432 -0.027486798900287903 0.0 0.0
0.0 0.11281118819842492 0.09299135955610034 -0.09304085836550904 4.9498809408662876e-05 2.5788399193871214e-14 0.0 0.0
0.0 0.10333279376559179 0.08698095679639799 -0.08580954379424391 -0.0011714130021540485 0.027486798900355727 0.0 0.0
0.0 0.09240496646819513 0.07735784169047363 -0.07617004527362302 -0.0011877964168505997 0.03212168200750523 0.0 0.0
0.0 0.0814518304355571 0.06766335563181435 -0.0665238497920143 -0.0011395058397999306 0.032363370270731086 0.0 0.0
0.0 0.07074676177061372 0.05839486699327202 -0.05731611777615539 -0.0010787492171166263 0.030866982815208412 0.0 0.0
0.0 0.06020768949103598 0.04958549411967923 -0.048551460772727796 -0.001034033346951483 0.028421170523119096 0.0 0.0
0.0 0.05038399309196398 0.04128632668805143 -0.04029836892788702 -0.0009879577601643826 0.025323273946511675 0.0 0.0
0.0 0.041100417182475514 0.03360018712305092 -0.03266558178595186 -0.000934605337099083 0.021926968931841893 0.0 0.0
0.0 0.03263441381788626 0.026556086500123578 -0.025679133035027037 -0.0008769534650965265 0.01845266863665714 0.0 0.0
0.0 0.024833984933547194 0.02013411015360469 -0.01931793995915398 -0.000816170194450686 0.014944094431810608 0.0 0.0
0.0 0.01782232153753044 0.014328806785526766 -0.013573631122123437 -0.0007551756634033037 0.011382360424954312 0.0 0.0
0.0 0.011781947838874339 0.00922632728895673 -0.008537036061947332 -0.0006892912270093962 0.007853724694836917 0.0 0.0
0.0 0.006366776157843557 0.005069144998293737 -0.004487633488519534 -0.0005815115097742074 0.0046875899387771825 0.0 0.0
0.0 0.002673578275259366 0.002135536522769273 -0.0017636084739990174 -0.00037192804877025687 0.002237892837052696 0.0 0.0
0.0 0.0007097500765818468 0.0005358108147710015 -0.0004096455547680479 -0.00012616526000295316 0.0006743864759964032 0.0 0.0
0.0 2.0306285193715423e-05 1.640042935002369e-05 -9.342101251401973e-06 -7.058328098621703e-06 1.8586591379571176e-05 0.0 0.0
0.0 -1.2246893380626217e-05 -7.270223146656397e-06 5.832213383543974e-06 1.4380097631124e-06 -2.3401590204421877e-05 0.0 0.0
0.0 -7.250355826865761e-07 -5.879960374254973e-09 3.7050873863785225e-09 2.1748729878759464e-09 2.656265501906971e-07 0.0 0.0
0.0 1.3692826887364033e-06 9.968127513049588e-08 -1.0271642550673252e-07 3.0351503762371122e-09 2.0060224453870885e-06 0.0 0.0
0.0 0.00039025345698091054 0.00018949986305565422 -8.429260096719835e-05 -0.00010520726208845619 0.0008449994390332807 0.0 0.0
0.0 0.002866498297892505 0.0016608561212313581 -0.0023712937104076585 0.0007104375891763008 0.0013697611259011699 0.0 0.0
0.0 0.0015450228865508163 0.0009430919333065034 -0.0013666375110244673 0.0004235455777179639 -0.0009326226508584534 0.0 0.0
0.0 0.0001614281354072887 6.050349801227527e-05 -6.957422732499103e-06 -5.3546075279775745e-05 -0.00038801919166125775 0.0 0.0
0.0 3.5577934067091005e-06 4.3185278237195095e-08 -5.026663230488379e-08 7.081354067689748e-09 -8.579447217332318e-07 0.0 0.0
0.0 1.18694220748499e-06 -2.079905087613832e-07 1.6308234615618577e-07 4.4908162605197285e-08 9.342121845043135e-07 0.0 0.0
0.0 -8.140568799052516e-06 -3.4578367597937734e-06 2.781534804883573e-06 6.763019549102025e-07 1.5872578392245617e-05 0.0 0.0
0.0 -1.4018526707549503e-05 -6.851289740745145e-06 6.491162345865002e-06 3.6012739488017476e-07 6.967667714413061e-06 0.0 0.0
0.0 0.00027525955986365243 0.0001439924262005616 -0.00010908151751960143 -3.491090868096052e-05 -0.00034327943276555965 0.0 0.0
0.0 0.001379966289093656 0.0008923499713889025 -0.000719347105690616 -0.0001730028656982862 -0.0014697604028291705 0.0 0.0
0.0 0.003611784551574002 0.0026181395233904523 -0.0022451773095675588 -0.0003729622138228917 -0.003401075647534916 0.0 0.0
0.0 0.0071434344770190455 0.0052859980481671735 -0.004768632923492114 -0.0005173651246750638 -0.005909451622953715 0.0 0.0
0.0 0.011317757536539155 0.008652461565662456 -0.008049257671714237 -0.0006032038939482148 -0.00882067256653588 0.0 0.0
0.0 0.016233012664185104 0.012500622375464003 -0.011834830291687644 -0.0006657920837763509 -0.011844265093415617 0.0 0.0
0.0 0.021578816331753424 0.016751687557804183 -0.016028651768938487 -0.0007230357888656897 -0.014886966872939531 0.0 0.0
0.0 0.027398182205404163 0.021424887404877992 -0.020650867390296042 -0.0007740200145819623 -0.017909232954033006 0.0 0.0
0.0 0.033820096398516526 0.02658431481728169 -0.02576185326555877 -0.0008224615517229154 -0.02087986656831971 0.0 0.0
0.0 0.040880710317603965 0.032290659453859 -0.03142179201484991 -0.0008688674390090549 -0.02369159341153529 0.0 0.0
0.0 0.04847098298677044 0.0385468631286858 -0.03763354427649728 -0.0009133188521885111 -0.026020648219725103 0.0 0.0
0.0 0.056400011499739694 0.04539706865160609 -0.04442139669375156 -0.0009756719578546183 -0.02747347001444741 0.0 0.0
0.0 0.0653702619769495 0.05320154519465734 -0.05212846304016179 -0.0010730821544954953 -0.027918639124624015 0.0 0.0
0.0 0.0758599766850182 0.062221844862179666 -0.061105576352804614 -0.0011162685093750917 -0.025962758687707324 0.0 0.0
0.0 0.0868136490384111 0.06874418296867854 -0.06912775000838625 0.0003835670397076195 2.3021515249688207e-14 0.0 0.0
0.0 0.07585997668501515 0.062221844862168675 -0.06110557635279222 -0.0011162685093764131 0.02596275868776688 0.0 0.0
0.0 0.06537026197694161 0.05320154519464377 -0.05212846304014848 -0.0010730821544952503 0.027918639124688737 0.0 0.0
0.0 0.05640001149971001 0.04539706865157942 -0.04442139669372387 -0.0009756719578555262 0.027473470014476815 0.0 0.0
0.0 0.04847098298674085 0.038546863128662325 -0.03763354427647523 -0.0009133188521871255 0.02602064821972298 0.0 0.0
0.0 0.04088071031756731 0.032290659453829654 -0.031421792014820225 -0.000868867439009401 0.023691593411517258 0.0 0.0
0.0 0.03382009639848668 0.026584314817257454 -0.025761853265534294 -0.000822461551723166 0.0208798665683069 0.0 0.0
0.0 0.02739818220537313 0.02142488740485228 -0.020650867390270482 -0.000774020014581825 0.01790923295402172 0.0 0.0
0.0 0.021578816331726293 0.01675168755778256 -0.016028651768917244 -0.0007230357888652981 0.014886966872927563 0.0 0.0
0.0 0.016233012664159416 0.01250062237544509 -0.011834830291669044 -0.0006657920837760424 0.011844265093397557 0.0 0.0
0.0 0.011317757536510646 0.00865246156564154 -0.00804925767169363 -0.0006032038939479032 0.008820672566511527 0.0 0.0
0.0 0.007143434476996513 0.005285998048150749 -0.0047686329234763675 -0.0005173651246743882 0.005909451622935276 0.0 0.0
0.0 0.0036117845515599646 0.002618139523380443 -0.0022451773095580737 -0.00037296221382236754 0.003401075647523621 0.0 0.0
0.0 0.001379966289086249 0.0008923499713837845 -0.0007193471056863649 -0.00017300286569741987 0.0014697604028227052 0.0 0.0
0.0 0.0002752595598594981 0.00014399242619911215 -0.00010908151751840745 -3.491090868070435e-05 0.00034327943276229507 0.0 0.0
0.0 -1.4018526707968664e-05 -6.851289740530804e-06 6.491162345696495e-06 3.601273948342484e-07 -6.967667713583561e-06 0.0 0.0
0.0 -8.140568800110385e-06 -3.457836759631832e-06 2.781534804764177e-06 6.763019548676652e-07 -1.58725783910587e-05 0.0 0.0
0.0 1.1869422072544308e-06 -2.0799050879939488e-07 1.630823461870767e-07 4.4908162612318926e-08 -9.342121845898963e-07 0.0 0.0
0.0 3.557793406078418e-06 4.318527827661274e-08 -5.026663234597106e-08 7.081354069359034e-09 8.579447229991194e-07 0.0 0.0
0.0 0.0001614281354046877 6.050349801169511e-05 -6.957422732231423e-06 -5.354607527946312e-05 0.0003880191916587192 0.0 0.0
0.0 0.0015450228865434232 0.0009430919333021813 -0.0013666375110183422 0.0004235455777161595 0.0009326226508551222 0.0 0.0
0.0 0.0007777512877398632 0.00042891301800019487 -0.0006283709878984719 0.0001994579698982778 -0.0005216746129118374 0.0 0.0
0.0 1.155111642725271e-05 -5.336790298200361e-06 2.8462251592410946e-05 -2.3125461294210708e-05 -8.739500573432828e-05 0.0 0.0
0.0 4.333274643394027e-06 8.98285364115981e-08 -1.8940637219131117e-07 9.957783577971345e-08 -5.3854462538847845e-06 0.0 0.0
0.0 2.6308114632164424e-06 -2.1680724395572196e-07 1.9794480660285016e-07 1.886243735286985e-08 -4.227497131651578e-06 0.0 0.0
0.0 -3.603464966560838e-06 -1.5188291616956988e-06 1.2980767152483312e-06 2.207524464473744e-07 9.550742704073474e-06 0.0 0.0
0.0 1.3598618701024337e-06 -3.9227471636042e-06 3.5514862284428464e-06 3.712609351613315e-07 2.336756065573553e-07 0.0 0.0
0.0 0.00011116014957477286 1.4856691997839269e-05 -1.1098078630708816e-05 -3.7586133671304344e-06 -0.00016798140834072548 0.0 0.0
0.0 0.00045991316944998415 0.00014333667229797766 -0.00012096477543462159 -2.2371896863356073e-05 -0.0006955783378390507 0.0 0.0
0.0 0.0013712547545422621 0.0006489053453527212 -0.0005730235354392989 -7.588180991342154e-05 -0.0018526190946136693 0.0 0.0
0.0 0.0030822176052747534 0.0017761867433075949 -0.0016055266823924196 -0.00017066006091517598 -0.0035787110862665096 0.0 0.0
0.0 0.005535675708774488 0.003378030400071229 -0.0031095030635372683 -0.00026852733653395496 -0.0056199729927760966 0.0 0.0
0.0 0.00812174869242468 0.005254606950457523 -0.004906429562887417 -0.0003481773875701143 -0.007903682722126914 0.0 0.0
0.0 0.011132352581407073 0.007332802597182941 -0.006920480920217966 -0.0004123216769649744 -0.010320314590044398 0.0 0.0
0.0 0.014479297106785562 0.009642328105442653 -0.009175993296793226 -0.00046633480864942596 -0.01281372842305095 0.0 0.0
0.0 0.018184337560175918 0.012265789034109149 -0.01174686754156915 -0.0005189214925400018 -0.015365733753896563 0.0 0.0
0.0 0.022392791186120857 0.015334693159534361 -0.01475939940506472 -0.000575293754469643 -0.017926778273374425 0.0 0.0
0.0 0.027259649120399763 0.019004804271075586 -0.01836888204683311 -0.000635922224242481 -0.020269814387086603 0.0 0.0
0.0 0.032803490698438346 0.0234089700676188 -0.022711883606436632 -0.0006970864611821611 -0.02183099106510868 0.0 0.0
0.0 0.039194011935165994 0.028933492432390892 -0.028130951709458295 -0.0008025407229325973 -0.02220892586799393 0.0 0.0
0.0 0.047883169559029104 0.03669290166625194 -0.03570632508155619 -0.0009865765846957216 -0.022173678715409356 0.0 0.0
0.0 0.0620560822012528 0.04365364384765088 -0.04442451307442332 0.0007708692267724554 1.8474805019152996e-14 0.0 0.0
0.0 0.04788316955903371 0.03669290166624615 -0.03570632508155022 -0.0009865765846959855 0.022173678715458188 0.0 0.0
0.0 0.03919401193516279 0.02893349243238241 -0.02813095170945012 -0.0008025407229322792 0.022208925868043676 0.0 0.0
0.0 0.032803490698416725 0.023408970067602303 -0.02271188360641941 -0.0006970864611828874 0.021830991065126273 0.0 0.0
0.0 0.027259649120376664 0.019004804271062423 -0.018368882046820308 -0.0006359222242421353 0.020269814387075077 0.0 0.0
0.0 0.022392791186101012 0.015334693159520124 -0.01475939940505084 -0.0005752937544692743 0.017926778273360523 0.0 0.0
0.0 0.018184337560162946 0.01226578903410027 -0.011746867541560001 -0.000518921492540271 0.015365733753886267 0.0 0.0
0.0 0.01447929710676867 0.00964232810543163 -0.009175993296782124 -0.00046633480864951085 0.012813728423040691 0.0 0.0
0.0 0.011132352581392698 0.007332802597173747 -0.00692048092020952 -0.0004123216769642314 0.010320314590035233 0.0 0.0
0.0 0.008121748692409933 0.005254606950449468 -0.0049064295628794136 -0.00034817738757005225 0.007903682722111043 0.0 0.0
0.0 0.005535675708758129 0.0033780304000621034 -0.0031095030635281532 -0.0002685273365339454 0.005619972992758068 0.0 0.0
0.0 0.003082217605262634 0.001776186743300008 -0.0016055266823852786 -0.00017066006091472823 0.003578711086255409 0.0 0.0
0.0 0.0013712547545387998 0.0006489053453508672 -0.0005730235354377756 -7.588180991309143e-05 0.001852619094609476 0.0 0.0
0.0 0.00045991316944708456 0.00014333667229701215 -0.00012096477543372908 -2.2371896863282994e-05 0.0006955783378353244 0.0 0.0
0.0 0.00011116014957357958 1.4856691997859818e-05 -1.1098078630734673e-05 -3.7586133671251828e-06 0.00016798140834033763 0.0 0.0
0.0 1.3598618696659728e-06 -3.9227471633996156e-06 3.5514862282896986e-06 3.712609351099252e-07 -2.3367560559087018e-07 0.0 0.0
0.0 -3.6034649675283457e-06 -1.5188291616464538e-06 1.2980767152154808e-06 2.2075244643096662e-07 -9.55074270303016e-06 0.0 0.0
0.0 2.6308114633555243e-06 -2.1680724397228148e-07 1.979448066183555e-07 1.886243735392653e-08 4.2274971322142205e-06 0.0 0.0
0.0 4.333274643202221e-06 8.982853641425926e-08 -1.894063722068767e-07 9.957783579261389e-08 5.3854462546030125e-06 0.0 0.0
0.0 1.1551116425656735e-05 -5.33679029840102e-06 2.846225159245915e-05 -2.312546129405811e-05 8.739500573262488e-05 0.0 0.0
0.0 0.0007777512877347754 0.0004289130179975858 -0.000628370987894661 0.00019945796989707473 0.0005216746129093594 0.0 0.0
0.0 0.0002196822714393541 0.0001264783335483213 -0.00018809818511588777 6.161985156756614e-05 -0.00019598886951697412 0.0 0.0
0.0 -2.6374210033844014e-05 -1.584487363446986e-05 2.354427641582684e-05 -7.699402781356926e-06 2.2471554348520086e-05 0.0 0.0
0.0 4.382456499165841e-06 1.8920755133633176e-07 -2.06142350976995e-07 1.6934799640659138e-08 1.276349082984025e-06 0.0 0.0
0.0 5.1478768561907325e-06 -4.925579722016686e-07 4.1149135725175935e-07 8.106661494991256e-08 -6.827247614145952e-06 0.0 0.0
0.0 8.174644518819468e-07 -7.19316746720235e-07 7.057395040941946e-07 1.3577242626038772e-08 -5.591346856143588e-07 0.0 0.0
0.0 1.0851623694529479e-05 -1.7661485458230705e-06 1.8248127386129803e-06 -5.866419278991271e-08 -1.09829774711918e-05 0.0 0.0
0.0 0.00010639289974580279 -2.384255363993468e-06 2.3739946507776172e-06 1.026071321585272e-08 -0.0001609793181316662 0.0 0.0
0.0 0.00024357862921481268 -1.6301984843398424e-06 1.6154499391335676e-06 1.4748545206288587e-08 -0.00042297272477606054 0.0 0.0
0.0 0.0005188106725886554 -1.019630628138395e-06 9.861324229990396e-07 3.349820513924367e-08 -0.0008587616617497696 0.0 0.0
0.0 0.0008966521924168786 3.7652941898180976e-08 -2.974641489713063e-08 -7.906527001043568e-09 -0.001782693989083926 0.0 0.0
0.0 0.00180926956141318 -7.445252432782923e-07 9.854065778189974e-07 -2.408813345402308e-07 -0.003384801505934894 0.0 0.0
0.0 0.002992534095288248 -1.155381515188336e-05 1.4347400287484044e-05 -2.7935851356012255e-06 -0.005467485324362335 0.0 0.0
0.0 0.004497912347643972 -3.0693500556955625e-05 3.4554276705021534e-05 -3.8607761480645e-06 -0.00769543143455305 0.0 0.0
0.0 0.006191968217693536 -3.438811025351877e-05 3.3926311321407984e-05 4.6179893211295217e-07 -0.010035493373201927 0.0 0.0
0.0 0.00804534312366721 6.534261397311673e-05 -8.152675984247177e-05 1.6184145869355284e-05 -0.012493786609023458 0.0 0.0
0.0 0.01000956650920101 0.0004535054322386384 -0.0004996794555114545 4.61740232728124e-05 -0.015052958863367289 0.0 0.0
0.0 0.012117616343929122 0.0014207746668381599 -0.0015159697272210688 9.519506038291071e-05 -0.017623245968937433 0.0 0.0
0.0 0.01429087206784698 0.003217537563576691 -0.0034306336467781243 0.00021309608320143914 -0.019964834388214624 0.0 0.0
0.0 0.017235559174565623 0.00553909865393018 -0.005931980498145005 0.00039288184421483506 -0.02167391012370643 0.0 0.0
0.0 0.02471063108476897 0.010703903921412194 -0.010416978404433628 -0.00028692551697857176 -0.022602849755442165 0.0 0.0
0.0 0.04431254806130314 0.018432493570210807 -0.019829759799946126 0.001397266229735329 1.685283856911468e-14 0.0 0.0
0.0 0.024710631084779288 0.010703903921412782 -0.010416978404433152 -0.00028692551697962013 0.02260284975547247 0.0 0.0
0.0 0.017235559174558896 0.005539098653926202 -0.005931980498141369 0.0003928818442151627 0.021673910123721243 0.0 0.0
0.0 0.014290872067833742 0.0032175375635735987 -0.003430633646774998 0.00021309608320140282 0.01996483438821106 0.0 0.0
0.0 0.012117616343909062 0.0014207746668439523 -0.0015159697272305148 9.5195060386561e-05 0.017623245968921817 0.0 0.0
0.0 0.01000956650919131 0.0004535054322386021 -0.0004996794555108019 4.6174023272200934e-05 0.015052958863352733 0.0 0.0
0.0 0.008045343123660436 6.53426139746139e-05 -8.15267598433465e-05 1.6184145868735012e-05 0.01249378660901381 0.0 0.0
0.0 0.006191968217682274 -3.43881102492417e-05 3.392631131694519e-05 4.6179893229561313e-07 0.010035493373189508 0.0 0.0
0.0 0.004497912347629134 -3.069350055326316e-05 3.4554276701094066e-05 -3.860776147829065e-06 0.007695431434535684 0.0 0.0
0.0 0.0029925340952776163 -1.155381514949741e-05 1.434740028495769e-05 -2.793585135461309e-06 0.0054674853243477884 0.0 0.0
0.0 0.001809269561401831 -7.445252408374821e-07 9.854065749184042e-07 -2.408813340808272e-07 0.0033848015059191813 0.0 0.0
0.0 0.0008966521924151572 3.765294125069544e-08 -2.9746414278661055e-08 -7.906526972068265e-09 0.0017826939890820642 0.0 0.0
0.0 0.0005188106725876839 -1.0196306282761532e-06 9.861324231457728e-07 3.349820513023971e-08 0.0008587616617479839 0.0 0.0
0.0 0.00024357862921321679 -1.6301984843476063e-06 1.6154499391833613e-06 1.4748545164223872e-08 0.0004229727247732477 0.0 0.0
0.0 0.00010639289974428588 -2.384255363959215e-06 2.3739946507447176e-06 1.0260713214538232e-08 0.00016097931813072866 0.0 0.0
0.0 1.08516236943037e-05 -1.766148545821756e-06 1.8248127386144732e-06 -5.866419279272864e-08 1.0982977472662925e-05 0.0 0.0
0.0 8.174644511045028e-07 -7.193167467450317e-07 7.057395041154049e-07 1.3577242629632115e-08 5.591346861267425e-07 0.0 0.0
0.0 5.147876855324791e-06 -4.925579722603341e-07 4.114913573047887e-07 8.106661495554533e-08 6.827247615049081e-06 0.0 0.0
0.0 4.382456498328861e-06 1.8920755132454355e-07 -2.0614235097092366e-07 1.6934799646388747e-08 -1.2763490824118259e-06 0.0 0.0
0.0 -2.637421003379525e-05 -1.5844873634207907e-05 2.3544276415471428e-05 -7.699402781263558e-06 -2.2471554347263597e-05 0.0 0.0
0.0 0.00021968227143709466 0.0001264783335475528 -0.00018809818511477752 6.161985156722501e-05 0.00019598886951593405 0.0 0.0
0.0 1.1865502368827067e-05 5.138249870444723e-06 -8.439889984930235e-06 3.301640114485482e-06 -8.211207933710524e-06 0.0 0.0
0.0 -2.336129432476397e-06 -1.1116858078616794e-06 1.622868442825553e-06 -5.11182634963875e-07 4.822068448699518e-06 0.0 0.0
0.0 1.441305494801163e-06 2.0627455460584805e-07 -2.9231270338987154e-07 8.603814878402352e-08 -2.6167205679723947e-06 0.0 0.0
0.0 7.225213636994682e-06 -6.26737508095702e-07 4.970670154428933e-07 1.296704926528077e-07 -7.976883656600849e-06 0.0 0.0
0.0 5.289954308830244e-06 -9.909029503780996e-07 9.313563458393888e-07 5.954660453870999e-08 -8.96152015784886e-06 0.0 0.0
0.0 1.749793587393277e-05 -3.267387139724688e-06 3.0970099622730848e-06 1.703771774516547e-07 -3.485397288790187e-05 0.0 0.0
0.0 0.0001474593447763023 -2.3662652341056364e-05 1.9166679386528103e-05 4.495972954528175e-06 -0.00019384527100380772 0.0 0.0
0.0 0.0004800231267415735 -0.00015183728052193366 0.00012841940379093055 2.341787673100286e-05 -0.0007172138129574044 0.0 0.0
0.0 0.0013773185959326916 -0.0006517753981115129 0.0005754011605109792 7.63742376005334e-05 -0.0018625746381113126 0.0 0.0
0.0 0.0030815313615840945 -0.0017760175323831176 0.001605300781439045 0.00017071675094407356 -0.003579663427003851 0.0 0.0
0.0 0.005554402725720808 -0.003384395255290343 0.003114967281599816 0.0002694279736905245 -0.005619912416694562 0.0 0.0
0.0 0.008172384448885048 -0.005289918623276499 0.004937978677530242 0.0003519399457462562 -0.007912693361591627 0.0 0.0
0.0 0.011213509202368015 -0.007408518840139322 0.006992637279317142 0.0004158815608221716 -0.010324401256325923 0.0 0.0
0.0 0.014529225039240827 -0.009703643520999127 0.009244448761920215 0.00045919475907892207 -0.012796378326796965 0.0 0.0
0.0 0.017907225614704484 -0.012059212690319182 0.011579917072646155 0.0004792956176730297 -0.01534372724375853 0.0 0.0
0.0 0.021138567304869623 -0.014215190944736064 0.013744891970586896 0.0004702989741491458 -0.01801152551162057 0.0 0.0
0.0 0.023772343196856106 -0.015761107693954373 0.015336662122050784 0.00042444557190359725 -0.020820183070617882 0.0 0.0
0.0 0.025578626404318527 -0.016207664461521817 0.01587396814581151 0.00033369631571030786 -0.023872676500926993 0.0 0.0
0.0 0.02559041181232139 -0.014986935368017476 0.0148640977721857 0.00012283759583178445 -0.027116612617771808 0.0 0.0
0.0 0.020898219286179253 -0.01093411284486969 0.011428810690722028 -0.0004946978458523328 -0.029249144326594548 0.0 0.0
0.0 0.042906075423006944 -0.006394980777034986 0.0035546470983297833 0.0028403336787051845 1.7539789065601497e-14 0.0 0.0
0.0 0.020898219286189217 -0.010934112844871644 0.011428810690723991 -0.0004946978458523457 0.02924914432662013 0.0 0.0
0.0 0.025590411812314133 -0.014986935368009588 0.014864097772177847 0.0001228375958317221 0.02711661261778876 0.0 0.0
0.0 0.025578626404300857 -0.016207664461509383 0.015873968145799347 0.00033369631571003637 0.02387267650092846 0.0 0.0
0.0 0.02377234319683202 -0.0157611076939356 0.015336662122033622 0.0004244455719020075 0.02082018307060869 0.0 0.0
0.0 0.021138567304847818 -0.01421519094472078 0.013744891970571821 0.0004702989741489574 0.01801152551160133 0.0 0.0
0.0 0.017907225614686814 -0.012059212690305167 0.011579917072632714 0.00047929561767244555 0.015343727243745366 0.0 0.0
0.0 0.014529225039216172 -0.009703643520979813 0.009244448761901246 0.0004591947590785683 0.012796378326782232 0.0 0.0
0.0 0.011213509202341543 -0.007408518840120011 0.006992637279298302 0.00041588156082170895 0.010324401256307993 0.0 0.0
0.0 0.008172384448862334 -0.005289918623260762 0.004937978677515348 0.00035193994574540544 0.007912693361572225 0.0 0.0
0.0 0.005554402725696252 -0.003384395255273948 0.003114967281584522 0.00026942797368943055 0.005619912416673952 0.0 0.0
0.0 0.0030815313615713243 -0.0017760175323745212 0.001605300781431378 0.00017071675094314364 0.0035796634269934734 0.0 0.0
0.0 0.0013773185959254054 -0.0006517753981071373 0.0005754011605070978 7.637423760004002e-05 0.0018625746381037262 0.0 0.0
0.0 0.00048002312673942873 -0.00015183728052125362 0.000128419403790451 2.3417876730802435e-05 0.0007172138129552875 0.0 0.0
0.0 0.00014745934477413132 -2.366265234083904e-05 1.9166679386318066e-05 4.495972954521014e-06 0.00019384527100234993 0.0 0.0
0.0 1.7497935873136422e-05 -3.2673871398784497e-06 3.0970099623824147e-06 1.703771774960335e-07 3.485397288874919e-05 0.0 0.0
0.0 5.28995430815565e-06 -9.909029504388956e-07 9.313563458919037e-07 5.95466045469811e-08 8.961520158367861e-06 0.0 0.0
0.0 7.225213636447333e-06 -6.267375081957941e-07 4.970670155263647e-07 1.296704926694279e-07 7.97688365745769e-06 0.0 0.0
0.0 1.441305494282701e-06 2.0627455459091052e-07 -2.923127033791669e-07 8.6038148788252e-08 2.616720568392435e-06 0.0 0.0
0.0 -2.3361294327825708e-06 -1.111685807904915e-06 1.622868442845546e-06 -5.111826349406344e-07 -4.822068448150565e-06 0.0 0.0
0.0 1.1865502367518592e-05 5.138249870744447e-06 -8.439889985380118e-06 3.3016401146356892e-06 8.211207934356174e-06 0.0 0.0
0.0 2.137443724680375e-06 -1.220915436041711e-07 1.897459172304093e-07 -6.765437362616072e-08 2.9265641503399196e-07 0.0 0.0
0.0 1.8201945521193272e-07 7.521789074034169e-08 -4.3940991166809676e-08 -3.1276899573546655e-08 8.775830094003976e-07 0.0 0.0
0.0 -1.1634345729706748e-06 6.01226539403027e-07 -5.299423603850406e-07 -7.128417901799636e-08 3.046428530112735e-06 0.0 0.0
0.0 4.329484037130563e-06 -8.395852453116134e-07 6.500620115114036e-07 1.8952323380020044e-07 -8.50516425354027e-06 0.0 0.0
0.0 9.142621153643805e-06 1.0496029735112879e-06 -7.757203398499131e-07 -2.7388263366131095e-07 -6.052028716237617e-07 0.0 0.0
0.0 5.123074843548421e-05 -1.0431214879511383e-05 8.324796025439833e-06 2.1064188540714873e-06 -4.796788450500987e-05 0.0 0.0
0.0 0.00030447833892048793 -0.00017174850210008102 0.0001329079575018777 3.884054459820364e-05 -0.00042048502053560616 0.0 0.0
0.0 0.0014046104754575758 -0.000903368086616001 0.0007292645707914366 0.0001741035158245635 -0.0014997772019009281 0.0 0.0
0.0 0.003613568240077677 -0.0026182340037380464 0.002245062200900332 0.00037317180283771335 -0.003407899396461151 0.0 0.0
0.0 0.007142220941919657 -0.005285801663016505 0.004768359918674414 0.0005174417443420899 -0.00590822045981346 0.0 0.0
0.0 0.011329239168616122 -0.008662263513340382 0.008058729208166781 0.0006035343051736003 -0.008823814870547265 0.0 0.0
0.0 0.01627025222697245 -0.012533359845693806 0.011866672547972454 0.0006666872977213688 -0.011842250437504781 0.0 0.0
0.0 0.02163895324547684 -0.01681471627811009 0.016091723505975583 0.0007229927721345041 -0.014836439942821987 0.0 0.0
0.0 0.027408232766923554 -0.02146470599574631 0.020697992072566982 0.0007667139231792997 -0.017780056634818592 0.0 0.0
0.0 0.033518596125526934 -0.0263586524754285 0.025564689825185234 0.0007939626502432312 -0.02077501204900148 0.0 0.0
0.0 0.039653112511915 -0.031195457372981933 0.030395908172584783 0.000799549200397138 -0.024025475943309914 0.0 0.0
0.0 0.04524045652576296 -0.03548744465675588 0.034701014608682836 0.0007864300480730395 -0.027745217263046712 0.0 0.0
0.0 0.04942559181149194 -0.03859335920953403 0.03783470056886833 0.0007586586406657186 -0.03202832828066877 0.0 0.0
0.0 0.051424045746970744 -0.039394783616589046 0.038739129784586754 0.0006556538320022498 -0.03607514253983555 0.0 0.0
0.0 0.04808789279573016 -0.03545803561899481 0.03503583871632173 0.0004221969026730605 -0.03716968526738827 0.0 0.0
0.0 0.05264325504404292 -0.029108878415358887 0.025495712755454234 0.003613165659904641 2.3973878437999474e-14 0.0 0.0
0.0 0.04808789279574087 -0.03545803561899253 0.03503583871631924 0.00042219690267328183 0.03716968526743891 0.0 0.0
0.0 0.05142404574696715 -0.03939478361657721 0.038739129784575436 0.0006556538320017591 0.03607514253988604 0.0 0.0
0.0 0.04942559181146354 -0.0385933592095089 0.03783470056884296 0.0007586586406659315 0.03202832828068365 0.0 0.0
0.0 0.04524045652572451 -0.03548744465672532 0.034701014608650965 0.0007864300480743383 0.02774521726303764 0.0 0.0
0.0 0.03965311251187351 -0.031195457372948484 0.03039590817255198 0.0007995492003964789 0.024025475943287532 0.0 0.0
0.0 0.0335185961254873 -0.026358652475396628 0.02556468982515375 0.0007939626502428992 0.020775012048980045 0.0 0.0
0.0 0.02740823276688783 -0.021464705995715778 0.020697992072536902 0.0007667139231788348 0.017780056634802484 0.0 0.0
0.0 0.021638953245434186 -0.01681471627807614 0.016091723505941423 0.0007229927721347215 0.014836439942800752 0.0 0.0
0.0 0.016270252226933984 -0.012533359845664435 0.01186667254794353 0.000666687297720901 0.011842250437478446 0.0 0.0
0.0 0.011329239168581454 -0.008662263513313876 0.008058729208140675 0.0006035343051731953 0.008823814870520936 0.0 0.0
0.0 0.007142220941893561 -0.005285801662997333 0.004768359918655379 0.0005174417443419558 0.0059082204597932855 0.0 0.0
0.0 0.0036135682400615975 -0.0026182340037258804 0.002245062200889315 0.00037317180283656627 0.0034078993964497487 0.0 0.0
0.0 0.0014046104754490024 -0.0009033680866102719 0.0007292645707866309 0.0001741035158236395 0.001499777201892955 0.0 0.0
0.0 0.0003044783389160074 -0.0001717485020981463 0.0001329079575003895 3.8840544597757076e-05 0.00042048502053185644 0.0 0.0
0.0 5.1230748433712564e-05 -1.0431214879312147e-05 8.324796025268215e-06 2.1064188540438516e-06 4.7967884504100154e-05 0.0 0.0
0.0 9.142621153484349e-06 1.0496029730094636e-06 -7.757203394347306e-07 -2.738826335747342e-07 6.052028735240935e-07 0.0 0.0
0.0 4.3294840368064185e-06 -8.395852454249594e-07 6.500620116043701e-07 1.8952323382059561e-07 8.505164254279763e-06 0.0 0.0
0.0 -1.163434573302454e-06 6.012265393456218e-07 -5.299423603552272e-07 -7.128417899038982e-08 -3.046428529158789e-06 0.0 0.0
0.0 1.8201945493223482e-07 7.521789075635805e-08 -4.3940991173805155e-08 -3.127689958255013e-08 -8.775830097342688e-07 0.0 0.0
0.0 2.1374437248040467e-06 -1.2209154361244184e-07 1.8974591724285808e-07 -6.765437363045714e-08 -2.926564150508065e-07 0.0 0.0
0.0 0.0 0.0 0.0 0.0 0.0 0.0 0.0
0.0 2.025764926269102e-07 -3.9828132522126395e-09 7.070323439955061e-09 -3.087510187746869e-09 -2.841493025309881e-08 0.0 0.0
0.0 -9.914601686765636e-07 7.397268922106753e-07 -5.922616598378375e-07 -1.474652323728308e-07 4.0598587520830475e-06 0.0 0.0
0.0 2.1487869235142555e-06 1.151565997838002e-06 -9.829066351066067e-07 -1.686593627313945e-07 7.738539725993308e-07 0.0 0.0
0.0 1.0010828908617427e-05 -8.412790206780969e-07 6.94074543287543e-07 1.4720447739050885e-07 -1.0288120005553084e-05 0.0 0.0
0.0 9.005834236169063e-05 -6.64021361382738e-05 5.052134475690239e-05 1.5880791381371632e-05 -0.0001335736014220599 0.0 0.0
0.0 0.0008015557849921408 -0.0005636452558000901 0.000435713339450526 0.00012793191634956374 -0.0007357804107823396 0.0 0.0
0.0 0.0026913990951227787 -0.0021389861126643816 0.001766957280404944 0.0003720288322594351 -0.0022594839667467643 0.0 0.0
0.0 0.006363109973231067 -0.0050654934038692236 0.004483796051934172 0.0005816973519350429 -0.004686483564547636 0.0 0.0
0.0 0.011783979089226852 -0.009227882679155747 0.008538611492157103 0.0006892711869986511 -0.007852218526456928 0.0 0.0
0.0 0.017831245032505872 -0.014339721756295741 0.01358480969268289 0.0007549120636128513 -0.011386033746922366 0.0 0.0
0.0 0.024857178407813724 -0.02015552727731518 0.01933950702823421 0.000816020249080959 -0.014924573530371953 0.0 0.0
0.0 0.03264788846380407 -0.026583643649216775 0.025707323588099153 0.0008763200611176346 -0.018335870483742172 0.0 0.0
0.0 0.041037461299519885 -0.03358880290690511 0.03265994701813605 0.0009288558887690313 -0.021654597967917896 0.0 0.0
0.0 0.050049758418555114 -0.04105044451066148 0.040085221620034354 0.0009652228906271705 -0.025084785770365214 0.0 0.0
0.0 0.059160703143549875 -0.0486451675925694 0.04766713767354469 0.0009780299190246503 -0.029013395251229018 0.0 0.0
0.0 0.06809966699859421 -0.05576272390757254 0.05479735491686788 0.0009653689907045554 -0.033875658879770974 0.0 0.0
0.0 0.07529199999932501 -0.061388590076642394 0.06047847132305922 0.0009101187535831563 -0.03953113724588949 0.0 0.0
0.0 0.07887802115161634 -0.06376110828487269 0.06297204450554927 0.0007890637793233626 -0.04445759255583157 0.0 0.0
0.0 0.07465182550313401 -0.059480290758455415 0.059012179297054795 0.000468111461400645 -0.04578476307494716 0.0 0.0
0.0 0.07271137739191974 -0.051236645688294905 0.04691555571560762 0.0043210899726873015 2.4881138815935344e-14 0.0 0.0
0.0 0.07465182550313737 -0.05948029075844636 0.05901217929704605 0.000468111461400345 0.04578476307500816 0.0 0.0
0.0 0.0788780211516132 -0.06376110828486009 0.06297204450553752 0.0007890637793225095 0.044457592555896555 0.0 0.0
0.0 0.07529199999928454 -0.06138859007660445 0.060478471323021796 0.0009101187535826868 0.03953113724591452 0.0 0.0
0.0 0.0680996669985401 -0.05576272390752668 0.05479735491682211 0.0009653689907046181 0.03387565887976413 0.0 0.0
0.0 0.05916070314349317 -0.04864516759252189 0.04766713767349811 0.0009780299190237439 0.02901339525120714 0.0 0.0
0.0 0.05004975841849716 -0.04105044451061335 0.040085221619986525 0.0009652228906268073 0.025084785770340658 0.0 0.0
0.0 0.041037461299468676 -0.0335888029068617 0.03265994701809331 0.0009288558887683719 0.021654597967898204 0.0 0.0
0.0 0.032647888463747984 -0.026583643649170326 0.025707323588052524 0.000876320061117787 0.018335870483720176 0.0 0.0
0.0 0.024857178407760715 -0.02015552727727252 0.019339507028192 0.000816020249080511 0.0149245735303432 0.0 0.0
0.0 0.017831245032458823 -0.014339721756258698 0.013584809692645593 0.0007549120636131173 0.011386033746891611 0.0 0.0
0.0 0.011783979089187484 -0.009227882679124718 0.008538611492126539 0.0006892711869981741 0.007852218526430683 0.0 0.0
0.0 0.006363109973205982 -0.005065493403849557 0.004483796051915607 0.0005816973519339475 0.004686483564532303 0.0 0.0
0.0 0.0026913990951087504 -0.0021389861126533275 0.001766957280395479 0.00037202883225784944 0.0022594839667371986 0.0 0.0
0.0 0.0008015557849852426 -0.0005636452557955942 0.00043571333944690733 0.00012793191634868638 0.0007357804107768544 0.0 0.0
0.0 9.005834235976278e-05 -6.640213613778002e-05 5.052134475656282e-05 1.5880791381217147e-05 0.00013357360142131046 0.0 0.0
0.0 1.0010828908641315e-05 -8.412790211465044e-07 6.940745436626978e-07 1.472044774838089e-07 1.0288120006887147e-05 0.0 0.0
0.0 2.148786922683556e-06 1.1515659977445465e-06 -9.829066350297427e-07 -1.6865936271480061e-07 -7.738539720266536e-07 0.0 0.0
0.0 -9.91460169103192e-07 7.397268922441357e-07 -5.922616598629141e-07 -1.4746523238122848e-07 -4.059858752360118e-06 0.0 0.0
0.0 2.0257649190461648e-07 -3.982813265090004e-09 7.070323440943398e-09 -3.0875101758504267e-09 2.8414930444124518e-08 0.0 0.0
0.0 0.0 0.0 0.0 0.0 0.0 0.0 0.0
0.0 0.0 0.0 0.0 0.0 0.0 0.0 0.0
0.0 -1.3075163678298636e-07 -2.968376883690807e-09 1.9471215008150875e-09 1.0212553828761417e-09 -2.5935044429845048e-08 0.0 0.0
0.0 -7.370870923621634e-07 5.222472387705183e-07 -4.182468803565909e-07 -1.0400035841392985e-07 2.143167171448628e-06 0.0 0.0
0.0 -2.6422296392112012e-06 9.348143890716059e-07 -8.018521964083548e-07 -1.3296219266324186e-07 5.419898520181224e-07 0.0 0.0
0.0 1.3351200831005444e-05 -1.756491175502099e-06 7.926429513899209e-07 9.638482241121923e-07 -4.651954301027147e-06 0.0 0.0
0.0 0.0002823680260468115 -0.0001950493597655924 0.00014648350599693512 4.8565853768657165e-05 -0.000215078418505158 0.0 0.0
0.0 0.0014668942030513638 -0.0012168241642851658 0.0009582026341312742 0.00025862153015389133 -0.0010556490529168275 0.0 0.0
0.0 0.004408312703424382 -0.0036900309245387532 0.003146340116732624 0.0005436908078061292 -0.0028092738046890183 0.0 0.0
0.0 0.009726605744491574 -0.007818356818727576 0.007101042984378966 0.0007173138343486115 -0.005581356140971162 0.0 0.0
0.0 0.016099853125946088 -0.013452997158595145 0.012651983505747519 0.0008010136528476334 -0.009116986682593965 0.0 0.0
0.0 0.024393615492771442 -0.02024545241633254 0.019382511997088986 0.0008629404192435578 -0.012903813358433946 0.0 0.0
0.0 0.03363452207852687 -0.027977373807943108 0.027050597300273458 0.0009267765076696127 -0.016659269814209034 0.0 0.0
0.0 0.04379236870181609 -0.0365416101848872 0.0355479450076418 0.000993665177245401 -0.020264883255469882 0.0 0.0
0.0 0.054850859968953426 -0.04589777122508354 0.04484137185346234 0.0010563993716211958 -0.02376083634384562 0.0 0.0
0.0 0.06665385000797075 -0.05594408678580631 0.05484024717758283 0.0011038396082234895 -0.027379466811669112 0.0 0.0
0.0 0.07920949096938673 -0.06633839428357122 0.06521605071697399 0.001122343566597217 -0.03165346261876693 0.0 0.0
0.0 0.09082050747288128 -0.07629231784862817 0.07519424103188689 0.0010980768167411447 -0.03711201087051994 0.0 0.0
0.0 0.10097465391891788 -0.0843194588638351 0.08330648257342277 0.0010129762904122566 -0.04350093273194732 0.0 0.0
0.0 0.10608512495562149 -0.08789302309643307 0.0870646045294635 0.000828418566969489 -0.04911696793612369 0.0 0.0
0.0 0.10081951170843093 -0.08281075549300594 0.08234175704474563 0.00046899844826031985 -0.05088487374028645 0.0 0.0
0.0 0.09481526545644832 -0.0728769992236639 0.0679403302051022 0.00493666901856157 2.8298544063609654e-14 0.0 0.0
0.0 0.1008195117084245 -0.08281075549299062 0.08234175704473012 0.0004689984482605244 0.050884873740347364 0.0 0.0
0.0 0.1060851249555996 -0.08789302309640576 0.08706460452943689 0.0008284185669687307 0.04911696793618623 0.0 0.0
0.0 0.10097465391887163 -0.08431945886379105 0.08330648257337979 0.0010129762904111093 0.0435009327319816 0.0 0.0
0.0 0.09082050747281918 -0.07629231784857457 0.07519424103183342 0.0010980768167411228 0.03711201087051827 0.0 0.0
0.0 0.07920949096931598 -0.06633839428351126 0.06521605071691408 0.0011223435665971536 0.03165346261874722 0.0 0.0
0.0 0.06665385000790579 -0.055944086785750496 0.05484024717752835 0.0011038396082221893 0.027379466811647855 0.0 0.0
0.0 0.05485085996888344 -0.04589777122502373 0.044841371853403075 0.0010563993716206403 0.023760836343823224 0.0 0.0
0.0 0.043792368701748186 -0.03654161018482985 0.03554794500758449 0.0009936651772453388 0.020264883255447737 0.0 0.0
0.0 0.033634522078464846 -0.027977373807891052 0.027050597300222218 0.0009267765076688261 0.016659269814182052 0.0 0.0
0.0 0.02439361549271194 -0.02024545241628362 0.01938251199704037 0.0008629404192432399 0.012903813358400245 0.0 0.0
0.0 0.01609985312590034 -0.013452997158557214 0.012651983505709875 0.0008010136528473498 0.009116986682567585 0.0 0.0
0.0 0.009726605744460243 -0.007818356818702719 0.0071010429843551895 0.0007173138343475365 0.005581356140954607 0.0 0.0
0.0 0.004408312703405071 -0.003690030924523419 0.003146340116718556 0.0005436908078048633 0.002809273804678118 0.0 0.0
0.0 0.0014668942030407089 -0.0012168241642773227 0.0009582026341247809 0.000258621530152541 0.0010556490529100612 0.0 0.0
0.0 0.00028236802604286997 -0.00019504935976328864 0.000146483505995147 4.8565853768141735e-05 0.00021507841850274678 0.0 0.0
0.0 1.3351200830329082e-05 -1.7564911758976816e-06 7.926429517078225e-07 9.638482241898643e-07 4.651954301804345e-06 0.0 0.0
0.0 -2.642229639284034e-06 9.348143888043427e-07 -8.018521961965039e-07 -1.3296219260782063e-07 -5.419898511044326e-07 0.0 0.0
0.0 -7.370870926055721e-07 5.222472387968112e-07 -4.1824688037952025e-07 -1.0400035841729108e-07 -2.143167171551955e-06 0.0 0.0
0.0 -1.3075163665647826e-07 -2.9683768817357188e-09 1.947121500571764e-09 1.0212553811632798e-09 2.5935044404943458e-08 0.0 0.0
0.0 0.0 0.0 0.0 0.0 0.0 0.0 0.0
0.0 0.0 0.0 0.0 0.0 0.0 0.0 0.0
0.0 0.0 0.0 0.0 0.0 0.0 0.0 0.0
0.0 -5.343753312587987e-07 1.5923924280101017e-07 -1.2553624711907673e-07 -3.3702995681934906e-08 5.194519635248062e-07 0.0 0.0
0.0 -4.891351050452018e-06 3.7597731188526184e-06 -3.0534187767064337e-06 -7.063543421461596e-07 7.321877684270394e-06 0.0 0.0
0.0 1.8774339556553024e-05 -2.3552405681932337e-05 1.6426341562962746e-05 7.126064118969502e-06 -2.3940887310150073e-05 0.0 0.0
0.0 0.000573581922642101 -0.0004488222484329441 0.0003382917045731942 0.00011053054385974988 -0.0003131844126206299 0.0 0.0
0.0 0.0023999529886234894 -0.0020851794200831587 0.0016852498029087965 0.0003999296171743625 -0.0012434313903224503 0.0 0.0
0.0 0.006639257214233812 -0.00547867338118274 0.004803990667998297 0.0006746827131844464 -0.0031124951463508497 0.0 0.0
0.0 0.012557568414623122 -0.010805227734743903 0.009991737575511066 0.0008134901592328293 -0.006029225120039273 0.0 0.0
0.0 0.021042780690634675 -0.017827833512171556 0.01693970544036416 0.0008881280718074174 -0.009560907246756949 0.0 0.0
0.0 0.031054506171002763 -0.02627748252454477 0.025325032544417668 0.0009524499801270697 -0.013319880666171159 0.0 0.0
0.0 0.0424354178076454 -0.035919148540374736 0.03489763242902671 0.0010215161113480654 -0.017042854447612554 0.0 0.0
0.0 0.055021626821378664 -0.046615708916845945 0.04552096006207812 0.0010947488547676692 -0.020628797688374778 0.0 0.0
0.0 0.06881911544595357 -0.058311058658649065 0.05714464706857983 0.0011664115900693454 -0.024108733305065043 0.0 0.0
0.0 0.08351701417694529 -0.07092447753660956 0.0696983620398015 0.0012261154968080435 -0.027671005253240538 0.0 0.0
0.0 0.09880831352703492 -0.08409524746897198 0.08284526734995673 0.0012499801190151993 -0.03180216100338658 0.0 0.0
0.0 0.1141482134060742 -0.09682469504764057 0.0956145224565079 0.0012101725911326882 -0.03713099157143445 0.0 0.0
0.0 0.12652353490098328 -0.10713320138744023 0.10605103189087223 0.0010821694965677804 -0.043636810690978925 0.0 0.0
0.0 0.13237396358050837 -0.11174176201378955 0.11089818995612803 0.0008435720576614313 -0.04988011744424138 0.0 0.0
0.0 0.1265969594737541 -0.10591519639480178 0.10544304775348486 0.0004721486413169346 -0.05383709148394521 0.0 0.0
0.0 0.11848965686134194 -0.09457031314956547 0.08909674983316308 0.005473563316402404 2.7847515959855684e-14 0.0 0.0
0.0 0.12659695947374283 -0.10591519639478386 0.10544304775346595 0.00047214864131798963 0.05383709148400784 0.0 0.0
0.0 0.1323739635804724 -0.11174176201375177 0.11089818995608998 0.0008435720576618698 0.04988011744430422 0.0 0.0
0.0 0.12652353490092869 -0.10713320138738977 0.10605103189082259 0.0010821694965670993 0.043636810691014036 0.0 0.0
0.0 0.1141482134060017 -0.09682469504757783 0.09561452245644476 0.0012101725911330128 0.037130991571435776 0.0 0.0
0.0 0.09880831352694944 -0.08409524746889852 0.08284526734988336 0.0012499801190150664 0.03180216100337154 0.0 0.0
0.0 0.08351701417686722 -0.07092447753654259 0.06969836203973515 0.0012261154968074058 0.027671005253223354 0.0 0.0
0.0 0.06881911544586683 -0.058311058658574125 0.05714464706850568 0.0011664115900684876 0.02410873330504147 0.0 0.0
0.0 0.05502162682129706 -0.046615708916775855 0.04552096006200839 0.0010947488547674148 0.02062879768835411 0.0 0.0
0.0 0.04243541780756844 -0.035919148540309725 0.03489763242896203 0.0010215161113476224 0.017042854447585163 0.0 0.0
0.0 0.031054506170934717 -0.026277482524487875 0.025325032544361244 0.0009524499801266225 0.013319880666139202 0.0 0.0
0.0 0.02104278069057663 -0.01782783351212308 0.016939705440315672 0.0008881280718073937 0.009560907246729273 0.0 0.0
0.0 0.012557568414586714 -0.010805227734712068 0.00999173757548019 0.0008134901592318874 0.0060292251200219586 0.0 0.0
0.0 0.006639257214206952 -0.00547867338116113 0.004803990667977764 0.0006746827131833649 0.0031124951463385384 0.0 0.0
0.0 0.002399952988609186 -0.002085179420071575 0.0016852498028988405 0.0003999296171727324 0.0012434313903150367 0.0 0.0
0.0 0.0005735819226353294 -0.0004488222484282482 0.0003382917045695813 0.00011053054385866709 0.00031318441261708746 0.0 0.0
0.0 1.8774339555340165e-05 -2.355240568170104e-05 1.642634156281002e-05 7.126064118890985e-06 2.3940887310102395e-05 0.0 0.0
0.0 -4.891351050725736e-06 3.75977311857375e-06 -3.053418776489887e-06 -7.063543420838591e-07 -7.3218776835696565e-06 0.0 0.0
0.0 -5.343753310887813e-07 1.5923924283369373e-07 -1.2553624714505764e-07 -3.370299568863473e-08 -5.194519636295351e-07 0.0 0.0
0.0 0.0 0.0 0.0 0.0 0.0 0.0 0.0
0.0 0.0 0.0 0.0 0.0 0.0 0.0 0.0
0.0 0.0 0.0 0.0 0.0 0.0 0.0 0.0
0.0 0.0 0.0 0.0 0.0 0.0 0.0 0.0
0.0 -1.9259891853480113e-07 -1.2438204119640457e-08 9.900711751953166e-09 2.537492367688598e-09 -3.208399983975565e-08 0.0 0.0
0.0 -6.526852766322245e-06 3.7580830883049472e-06 -3.101912562618254e-06 -6.56170525686721e-07 6.463826185560262e-06 0.0 0.0
0.0 8.559149589362643e-05 -6.369961145785786e-05 4.4371802626595204e-05 1.9327808831262685e-05 -3.0428113650952223e-05 0.0 0.0
0.0 0.0009135032916393553 -0.0008557657212110159 0.0006531678973800105 0.00020259782383100596 -0.0003899848555654182 0.0 0.0
0.0 0.003731119331884178 -0.0031391109682866163 0.0026091767348920903 0.0005299342333945245 -0.0012868983183641344 0.0 0.0
0.0 0.008515913603434268 -0.007473427288443259 0.006701589299433848 0.0007718379890094131 -0.0031667105077963164 0.0 0.0
0.0 0.016066334123006426 -0.013904227748479698 0.013016040537892792 0.0008881872105868918 -0.005892583625214458 0.0 0.0
0.0 0.02592597969260093 -0.022290145081672902 0.02132740773144456 0.0009627373502283563 -0.009155548609097966 0.0 0.0
0.0 0.03778593708019169 -0.03237889673451408 0.03134624303347393 0.0010326537010401566 -0.012648714525660213 0.0 0.0
0.0 0.05133730796458401 -0.043923102447942 0.04281599588026052 0.0011071065676814473 -0.016107435440795403 0.0 0.0
0.0 0.06643038179029863 -0.056753366855202235 0.05556786766044432 0.0011854991947578674 -0.019456349863001196 0.0 0.0
0.0 0.08256365947394231 -0.0707803591079699 0.06951595893785728 0.0012644001701126336 -0.022734546613133583 0.0 0.0
0.0 0.10025055830805746 -0.08589686060419158 0.08456332886932455 0.001333531734867121 -0.026011826628947073 0.0 0.0
0.0 0.11875555365255011 -0.1017318303424395 0.10036636616835556 0.0013654641740839264 -0.02954910889921462 0.0 0.0
0.0 0.1366106609915741 -0.11714118352336098 0.11582612352871857 0.0013150599946423628 -0.03400148950587634 0.0 0.0
0.0 0.15148503995012874 -0.12968445236956216 0.1285381940449614 0.00114625832460087 -0.039981097035119685 0.0 0.0
0.0 0.15879638904641505 -0.13544618876383552 0.13458832739290505 0.0008578613709302827 -0.047226374096757756 0.0 0.0
0.0 0.15258535627362452 -0.12921951953379449 0.12875423834633085 0.0004652811874635376 -0.055166237357448834 0.0 0.0
0.0 0.14286428863063638 -0.11675700614862342 0.11081825875169947 0.005938747396923962 2.7408630920433552e-14 0.0 0.0
0.0 0.1525853562736037 -0.12921951953376942 0.12875423834630537 0.00046528118746394 0.055166237357509244 0.0 0.0
0.0 0.1587963890463721 -0.13544618876379325 0.1345883273928626 0.0008578613709304547 0.04722637409681701 0.0 0.0
0.0 0.1514850399500576 -0.12968445236949877 0.1285381940448986 0.0011462583246001866 0.03998109703514944 0.0 0.0
0.0 0.13661066099148628 -0.11714118352328498 0.11582612352864205 0.001315059994642816 0.034001489505878224 0.0 0.0
0.0 0.11875555365245512 -0.10173183034235668 0.10036636616827407 0.001365464174082551 0.029549108899203785 0.0 0.0
0.0 0.10025055830795744 -0.08589686060410581 0.08456332886923867 0.0013335317348671417 0.026011826628931953 0.0 0.0
0.0 0.08256365947384316 -0.07078035910788404 0.0695159589377727 0.001264400170111214 0.02273454661311369 0.0 0.0
0.0 0.0664303817902029 -0.05675336685511951 0.05556786766036187 0.0011854991947575757 0.01945634986298135 0.0 0.0
0.0 0.05133730796449168 -0.04392310244786328 0.04281599588018196 0.0011071065676813352 0.016107435440768394 0.0 0.0
0.0 0.037785937080113095 -0.03237889673444709 0.031346243033407425 0.0010326537010397017 0.012648714525630725 0.0 0.0
0.0 0.025925979692533345 -0.022290145081615146 0.021327407731386982 0.0009627373502281527 0.00915554860907235 0.0 0.0
0.0 0.016066334122958395 -0.013904227748438228 0.013016040537851955 0.0008881872105862757 0.00589258362519709 0.0 0.0
0.0 0.008515913603403657 -0.007473427288416961 0.00670158929940851 0.0007718379890084494 0.0031667105077844166 0.0 0.0
0.0 0.0037311193318637498 -0.003139110968270093 0.0026091767348772194 0.0005299342333928756 0.0012868983183562245 0.0 0.0
0.0 0.0009135032916311294 -0.000855765721204491 0.0006531678973748349 0.0002025978238296553 0.00038998485556252893 0.0 0.0
0.0 8.559149589216738e-05 -6.369961145749435e-05 4.4371802626381915e-05 1.9327808831112428e-05 3.042811365110388e-05 0.0 0.0
0.0 -6.526852766371692e-06 3.7580830881273105e-06 -3.101912562484133e-06 -6.561705256431775e-07 -6.46382618533067e-06 0.0 0.0
0.0 -1.9259891850927365e-07 -1.243820411784055e-08 9.900711750511593e-09 2.5374923673294314e-09 3.208399983580417e-08 0.0 0.0
0.0 0.0 0.0 0.0 0.0 0.0 0.0 0.0
0.0 0.0 0.0 0.0 0.0 0.0 0.0 0.0
0.0 0.0 0.0 0.0 0.0 0.0 0.0 0.0
0.0 0.0 0.0 0.0 0.0 0.0 0.0 0.0
0.0 -7.18462332870173e-08 -5.322214849680892e-09 4.219826328331633e-09 1.102388521349622e-09 -1.0684932772376604e-08 0.0 0.0
0.0 -7.73261955756713e-06 5.506778399692866e-06 -4.615097460209385e-06 -8.916809394834721e-07 7.255058080916137e-06 0.0 0.0
0.0 0.00019660366293149426 -0.00016397512311379982 0.00011615073478214884 4.782438833165123e-05 -4.099889371262784e-05 0.0 0.0
0.0 0.0015544909498793951 -0.0013746873112897523 0.0010691205051320334 0.0003055668061577189 -0.0003453965637024089 0.0 0.0
0.0 0.004958164610254981 -0.004378506545821193 0.003737267049823768 0.0006412394959974234 -0.0011949799131771798 0.0 0.0
0.0 0.010805160097960259 -0.009572319233052077 0.008729319496419766 0.0008429997366323094 -0.0028488435428665783 0.0 0.0
0.0 0.01952486393334621 -0.0170665247869719 0.016115457920171293 0.0009510668668006106 -0.0051396934110794846 0.0 0.0
0.0 0.03089529190201179 -0.026788450297915357 0.02575827266441914 0.0010301776334962218 -0.007919460170451966 0.0 0.0
0.0 0.044525576256032845 -0.038499713482229136 0.037393466083429056 0.00110624739880005 -0.010905402605683737 0.0 0.0
0.0 0.06024096924371946 -0.051941678121999964 0.050755165678336 0.0011865124436640088 -0.013866995080772113 0.0 0.0
0.0 0.07749823257996226 -0.06691302655272625 0.06564312291762588 0.0012699036351003787 -0.016754461186217026 0.0 0.0
0.0 0.09669740409442083 -0.08325453192953869 0.08190353348817467 0.001350998441363984 -0.019620632142661236 0.0 0.0
0.0 0.11692557034405149 -0.10079317126039807 0.09936913201710826 0.0014240392432897566 -0.022442831694686523 0.0 0.0
0.0 0.1379507182478233 -0.11910682519903776 0.11763956000249262 0.0014672651965450902 -0.025135427969150928 0.0 0.0
0.0 0.15878872822465492 -0.13701005212539122 0.1355846297295553 0.0014254223958359924 -0.028050291977040058 0.0 0.0
0.0 0.17616863702383567 -0.15184810436292662 0.15061839351986633 0.0012297108430602483 -0.032661086317827374 0.0 0.0
0.0 0.18517793997141196 -0.15917229986193035 0.15829015438567906 0.000882145476251177 -0.04111202509244746 0.0 0.0
0.0 0.17939027631705118 -0.1531243010232039 0.15268840764449157 0.0004358933787125569 -0.054616474873960104 0.0 0.0
0.0 0.1689825294376724 -0.13987802636653257 0.13355316471916776 0.006324861647364601 2.3521115610769527e-14 0.0 0.0
0.0 0.17939027631702564 -0.15312430102317612 0.15268840764446412 0.00043589337871212906 0.054616474874013776 0.0 0.0
0.0 0.18517793997135434 -0.15917229986187756 0.1582901543856258 0.0008821454762517067 0.04111202509249731 0.0 0.0
0.0 0.17616863702375185 -0.15184810436285348 0.15061839351979278 0.0012297108430607345 0.032661086317852174 0.0 0.0
0.0 0.15878872822455303 -0.13701005212530326 0.13558462972946672 0.0014254223958363552 0.028050291977042785 0.0 0.0
0.0 0.1379507182477132 -0.11910682519894224 0.11763956000239784 0.0014672651965444874 0.02513542796914336 0.0 0.0
0.0 0.11692557034393594 -0.10079317126029828 0.09936913201700898 0.001424039243289137 0.022442831694674353 0.0 0.0
0.0 0.09669740409430802 -0.08325453192944089 0.08190353348807768 0.001350998441363228 0.01962063214264564 0.0 0.0
0.0 0.07749823257985272 -0.06691302655263204 0.06564312291753173 0.0012699036351004735 0.016754461186200657 0.0 0.0
0.0 0.060240969243615106 -0.0519416781219099 0.05075516567824609 0.0011865124436637939 0.01386699508074913 0.0 0.0
0.0 0.04452557625594164 -0.038499713482150644 0.03739346608335093 0.0011062473987997203 0.01090540260565864 0.0 0.0
0.0 0.030895291901939105 -0.02678845029785261 0.025758272664357002 0.0010301776334955982 0.007919460170431172 0.0 0.0
0.0 0.01952486393328925 -0.017066524786922544 0.016115457920122266 0.00095106686680028 0.005139693411063825 0.0 0.0
0.0 0.010805160097922702 -0.009572319233019023 0.008729319496387453 0.0008429997366315674 0.0028488435428553863 0.0 0.0
0.0 0.004958164610232007 -0.0043785065458016355 0.0037372670498057024 0.0006412394959959272 0.0011949799131702318 0.0 0.0
0.0 0.001554490949868991 -0.00137468731128125 0.0010691205051251286 0.0003055668061561229 0.0003453965636999476 0.0 0.0
0.0 0.00019660366292935383 -0.00016397512311257934 0.00011615073478130137 4.782438833127806e-05 4.0998893712546815e-05 0.0 0.0
0.0 -7.732619557866765e-06 5.5067783992039e-06 -4.615097459837429e-06 -8.916809393664593e-07 -7.255058080473179e-06 0.0 0.0
0.0 -7.184623319621463e-08 -5.322214842869262e-09 4.219826322927047e-09 1.1023885199412321e-09 1.0684932758656047e-08 0.0 0.0
0.0 0.0 0.0 0.0 0.0 0.0 0.0 0.0
0.0 0.0 0.0 0.0 0.0 0.0 0.0 0.0
0.0 0.0 0.0 0.0 0.0 0.0 0.0 0.0
0.0 0.0 0.0 0.0 0.0 0.0 0.0 0.0
0.0 0.0 0.0 0.0 0.0 0.0 0.0 0.0
0.0 -8.666637402358198e-06 7.591758926213744e-06 -6.718121000279824e-06 -8.736379259339466e-07 8.386661323737721e-06 0.0 0.0
0.0 0.0003540684034922495 -0.0003470772656227422 0.0002489901154937473 9.808715012899497e-05 -1.699810260988223e-05 0.0 0.0
0.0 0.0023538515975920424 -0.002043018201748743 0.0016283538051418312 0.00041466439660691216 -0.0002095211049260451 0.0 0.0
0.0 0.006255647391237946 -0.005739480993474453 0.005013372830052714 0.0007261081634217345 -0.0009055333136969497 0.0 0.0
0.0 0.01320160716283729 -0.011728583199962325 0.010827627505529076 0.0009009556944332691 -0.002101130746854914 0.0 0.0
0.0 0.023029372784945032 -0.020250662198630257 0.019243418557402664 0.0010072436412275768 -0.00379178094399757 0.0 0.0
0.0 0.03585964425446107 -0.031278102917882675 0.030185760166642994 0.0010923427512396938 -0.005858575917777961 0.0 0.0
0.0 0.051344404697981995 -0.044593486687369295 0.043418494109276284 0.001174992578092961 -0.008095439103489878 0.0 0.0
0.0 0.06905331404883203 -0.059928010148682986 0.058667274398609554 0.0012607357500733672 -0.01032399680904069 0.0 0.0
0.0 0.08905452653912951 -0.07703820518465283 0.07569020411468197 0.001348001069970947 -0.012521027786510689 0.0 0.0
0.0 0.1103839658398458 -0.09569683960384147 0.09426594525348969 0.001430894350351744 -0.014753004751023712 0.0 0.0
0.0 0.13340406364498633 -0.11558061318000956 0.11408008638023168 0.0015005267997778141 -0.016934506233410168 0.0 0.0
0.0 0.15717990180236457 -0.13613562492794382 0.1345922113565929 0.0015434135713509331 -0.018740035393326412 0.0 0.0
0.0 0.1804113425624844 -0.156227517392908 0.15469716441862183 0.0015303529742861119 -0.020017557580060314 0.0 0.0
0.0 0.2003086249440867 -0.17340039729711024 0.17202265277942694 0.0013777445176832738 -0.022286852182554027 0.0 0.0
0.0 0.21175466724804473 -0.18297477115131797 0.18202422707176547 0.0009505440795524457 -0.030508971720605828 0.0 0.0
0.0 0.20736859694836368 -0.17807784496239334 0.177725639149223 0.00035220581317018805 -0.05108458029233197 0.0 0.0
0.0 0.19702819113583556 -0.16454053159551615 0.1579388223191294 0.006601709276386763 1.6887533038634217e-14 0.0 0.0
0.0 0.20736859694833634 -0.178077844962366 0.17772563914919656 0.0003522058131692488 0.05108458029237457 0.0 0.0
0.0 0.21175466724797465 -0.1829747711512559 0.18202422707170232 0.0009505440795538019 0.03050897172064536 0.0 0.0
0.0 0.20030862494399068 -0.1734003972970274 0.17202265277934436 0.0013777445176828393 0.022286852182573768 0.0 0.0
0.0 0.18041134256236704 -0.15622751739280685 0.15469716441852058 0.001530352974286591 0.02001755758006082 0.0 0.0
0.0 0.15717990180223748 -0.136135624927834 0.13459221135648297 0.0015434135713510268 0.018740035393322023 0.0 0.0
0.0 0.13340406364485655 -0.1155806131798972 0.11408008638011996 0.001500526799777262 0.01693450623340324 0.0 0.0
0.0 0.11038396583972049 -0.0956968396037327 0.09426594525338203 0.0014308943503506927 0.014753004751013276 0.0 0.0
0.0 0.08905452653900428 -0.07703820518454463 0.07569020411457361 0.0013480010699708884 0.012521027786498953 0.0 0.0
0.0 0.06905331404871225 -0.05992801014857975 0.058667274398506636 0.0012607357500730874 0.010323996809024436 0.0 0.0
0.0 0.051344404697881076 -0.04459348668728164 0.04341849410918875 0.0011749925780928237 0.008095439103470896 0.0 0.0
0.0 0.03585964425438052 -0.03127810291781208 0.030185760166573407 0.001092342751238672 0.005858575917761388 0.0 0.0
0.0 0.02302937278488104 -0.020250662198574205 0.019243418557347087 0.0010072436412271262 0.003791780943986045 0.0 0.0
0.0 0.013201607162793217 -0.011728583199923365 0.010827627505490968 0.0009009556944323933 0.0021011307468463488 0.0 0.0
0.0 0.006255647391212582 -0.005739480993451688 0.005013372830031287 0.0007261081634204133 0.0009055333136916981 0.0 0.0
0.0 0.0023538515975792627 -0.0020430182017377382 0.0016283538051325075 0.0004146643966052283 0.00020952110492414094 0.0 0.0
0.0 0.00035406840348812553 -0.0003470772656198072 0.00024899011549157267 9.808715012823413e-05 1.699810260964398e-05 0.0 0.0
0.0 -8.66663740233874e-06 7.591758925875681e-06 -6.718121000008208e-06 -8.73637925867515e-07 -8.386661323549068e-06 0.0 0.0
0.0 0.0 0.0 0.0 0.0 0.0 0.0 0.0
0.0 0.0 0.0 0.0 0.0 0.0 0.0 0.0
0.0 0.0 0.0 0.0 0.0 0.0 0.0 0.0
0.0 0.0 0.0 0.0 0.0 0.0 0.0 0.0
0.0 0.0 0.0 0.0 0.0 0.0 0.0 0.0
0.0 0.0 0.0 0.0 0.0 0.0 0.0 0.0
0.0 5.008316111063944e-06 -7.380308293370989e-06 2.985490528919224e-06 4.394817764451778e-06 1.024371827691193e-05 0.0 0.0
0.0 0.0006996616715703412 -0.0006115022773117289 0.000446553524658736 0.00016494875265299325 7.643833576478792e-05 0.0 0.0
0.0 0.0031612962981313712 -0.0028452895590137094 0.002328293182949532 0.0005169963760641735 3.416719743068412e-05 0.0 0.0
0.0 0.007888950029109821 -0.007159457806327612 0.006370164936139415 0.0007892928701882029 -0.0003334078342618711 0.0 0.0
0.0 0.015628220495540957 -0.01390857024087439 0.01295917443624899 0.0009493958046253829 -0.0009627171843509095 0.0 0.0
0.0 0.026612753630200887 -0.02341406726761939 0.02235587519031717 0.0010581920773022192 -0.001855873335170083 0.0 0.0
0.0 0.04081256168379095 -0.03571432586935368 0.034563449140795795 0.001150876728557852 -0.002976330672451578 0.0 0.0
0.0 0.05806465504813052 -0.05061614507650952 0.04937659574980343 0.0012395493267061209 -0.004212040654690134 0.0 0.0
0.0 0.07813316491980576 -0.06783573901215498 0.06650579390573573 0.0013299451064192817 -0.005472811700588614 0.0 0.0
0.0 0.10009731945652292 -0.08708832712932388 0.08566689698909358 0.0014214301402302705 -0.006766327918643764 0.0 0.0
0.0 0.12431873141995563 -0.10804206287803535 0.10653682507366222 0.0015052378043730235 -0.008102507715511548 0.0 0.0
0.0 0.14995238124559512 -0.13022391038077324 0.12865574889489562 0.0015681614858777504 -0.00939340419466954 0.0 0.0
0.0 0.1761389414378265 -0.15286834785106151 0.15126990352579678 0.0015984443252645291 -0.010366145677007029 0.0 0.0
0.0 0.20147008905632843 -0.17475856857061814 0.17316564314158495 0.001592925429033536 -0.010616273109116628 0.0 0.0
0.0 0.22360109758327731 -0.1938939166360355 0.19235171555677422 0.0015422010792612417 -0.01064611420911258 0.0 0.0
0.0 0.2381441630736088 -0.20642119412578255 0.20515637894366787 0.0012648151821144683 -0.015337203580256442 0.0 0.0
0.0 0.23706171965589512 -0.20464840043543303 0.20438797389508928 0.0002604265403434961 -0.03874161260437796 0.0 0.0
0.0 0.22836180716167345 -0.19200748679358126 0.18556814091119653 0.0064393458823846245 9.294648384283732e-15 0.0 0.0
0.0 0.23706171965586328 -0.20464840043540272 0.20438797389506064 0.0002604265403419974 0.03874161260440366 0.0 0.0
0.0 0.2381441630735317 -0.20642119412571516 0.2051563789436012 0.0012648151821140156 0.01533720358027904 0.0 0.0
0.0 0.22360109758316424 -0.19389391663593786 0.19235171555667674 0.0015422010792610899 0.010646114209121444 0.0 0.0
0.0 0.20147008905619815 -0.17475856857050553 0.17316564314147256 0.0015929254290329383 0.010616273109115653 0.0 0.0
0.0 0.17613894143768996 -0.15286834785094222 0.15126990352567876 0.001598444325263296 0.010366145677004822 0.0 0.0
0.0 0.14995238124545082 -0.13022391038064837 0.12865574889477122 0.0015681614858773418 0.009393404194667273 0.0 0.0
0.0 0.12431873141981313 -0.10804206287791202 0.10653682507353933 0.0015052378043725792 0.008102507715506585 0.0 0.0
0.0 0.10009731945638269 -0.08708832712920243 0.08566689698897259 0.0014214301402298674 0.006766327918636144 0.0 0.0
0.0 0.07813316491967359 -0.06783573901204099 0.06650579390562153 0.0013299451064194838 0.005472811700579243 0.0 0.0
0.0 0.05806465504801753 -0.050616145076411705 0.04937659574970605 0.001239549326705685 0.004212040654678344 0.0 0.0
0.0 0.04081256168370056 -0.03571432586927462 0.034563449140717524 0.001150876728557113 0.002976330672441572 0.0 0.0
0.0 0.026612753630132255 -0.023414067267558934 0.022355875190257352 0.0010581920773015813 0.0018558733351645496 0.0 0.0
0.0 0.015628220495493846 -0.013908570240832571 0.012959174436207962 0.0009493958046246018 0.0009627171843463584 0.0 0.0
0.0 0.007888950029080313 -0.007159457806300992 0.006370164936113874 0.0007892928701871113 0.0003334078342590429 0.0 0.0
0.0 0.0031612962981168048 -0.002845289559000894 0.0023282931829383168 0.000516996376062578 -3.4167197431078634e-05 0.0 0.0
0.0 0.0006996616715647658 -0.0006115022773074316 0.00044655352465546174 0.00016494875265196936 -7.643833576457867e-05 0.0 0.0
0.0 5.008316110702296e-06 -7.380308293484668e-06 2.9854905290371783e-06 4.3948177644475946e-06 -1.0243718276747989e-05 0.0 0.0
0.0 0.0 0.0 0.0 0.0 0.0 0.0 0.0
0.0 0.0 0.0 0.0 0.0 0.0 0.0 0.0
0.0 0.0 0.0 0.0 0.0 0.0 0.0 0.0
0.0 0.0 0.0 0.0 0.0 0.0 0.0 0.0
0.0 0.0 0.0 0.0 0.0 0.0 0.0 0.0
0.0 0.0 0.0 0.0 0.0 0.0 0.0 0.0
0.0 5.983047871046133e-05 -5.849094938058076e-05 3.8307875915769764e-05 2.0183073464811033e-05 2.2498179114836133e-05 0.0 0.0
0.0 0.0011027566620996083 -0.0009191508058448802 0.000666430630887407 0.0002527201749574725 0.00021485780288486752 0.0 0.0
0.0 0.003953568150050584 -0.003562937208821579 0.00288337197503675 0.0006795652337848289 0.0004591034325514924 0.0 0.0
0.0 0.00916869499465079 -0.00836396136022825 0.007338184885241085 0.0010257764749871804 0.0005972270318104683 0.0 0.0
0.0 0.017524258855835417 -0.015712394478689565 0.014413759949251183 0.0012986345294383871 0.0006510995801001654 0.0 0.0
0.0 0.029265665768672254 -0.026003238283349273 0.024439899410783734 0.0015633388725655192 0.0006060427956963003 0.0 0.0
0.0 0.0445759083255768 -0.039336438903577665 0.03747400958236168 0.0018624293212159042 0.000411873524665915 0.0 0.0
0.0 0.06325380381759178 -0.0555479727923206 0.05333411556658103 0.0022138572257395716 0.00010504926028822095 0.0 0.0
0.0 0.08462450310377334 -0.07434078279279006 0.07172148001230587 0.0026193027804841387 -0.00029756673662002277 0.0 0.0
0.0 0.10864379387505639 -0.09536343873331371 0.09230008118641943 0.003063357546894215 -0.0008161465017576426 0.0 0.0
0.0 0.13478791570773924 -0.1182086557485636 0.11468671725737156 0.0035219384911921543 -0.0014193474987999489 0.0 0.0
0.0 0.16239004244982536 -0.1422874890102085 0.13832901292553904 0.003958476084669267 -0.002097839619961711 0.0 0.0
0.0 0.19040467193993305 -0.16664538213335908 0.16232087881590324 0.00432450331745588 -0.002705192076372641 0.0 0.0
0.0 0.2171527563601098 -0.18985096480371783 0.18528351220757502 0.004567452596142576 -0.0029151185128976787 0.0 0.0
0.0 0.24039647652646023 -0.21001202301309618 0.20533466728750732 0.004677355725588616 -0.0026243975299022546 0.0 0.0
0.0 0.2569960684023183 -0.22465147671468733 0.2198173344660264 0.004834142248660949 -0.005434309850307248 0.0 0.0
0.0 0.26047924021119384 -0.22820294548083428 0.22312888484387974 0.005074060636954641 -0.029981732676508444 0.0 0.0
0.0 0.2566194686036688 -0.21906455162113864 0.20673969213697765 0.012324859484160483 4.3021142204224816e-15 0.0 0.0
0.0 0.26047924021115976 -0.22820294548080355 0.22312888484385096 0.005074060636952352 0.029981732676518845 0.0 0.0
0.0 0.2569960684022339 -0.224651476714613 0.21981733446595508 0.004834142248657629 0.005434309850313086 0.0 0.0
0.0 0.24039647652633 -0.21001202301298344 0.20533466728739563 0.004677355725587957 0.00262439752990239 0.0 0.0
0.0 0.21715275635997341 -0.18985096480359773 0.18528351220745864 0.004567452596138905 0.002915118512895949 0.0 0.0
0.0 0.19040467193978913 -0.16664538213323293 0.1623208788157807 0.004324503317451635 0.0027051920763710297 0.0 0.0
0.0 0.162390042449672 -0.1422874890100741 0.13832901292540756 0.003958476084666441 0.0020978396199593206 0.0 0.0
0.0 0.1347879157075783 -0.11820865574842356 0.11468671725723317 0.0035219384911903055 0.001419347498795501 0.0 0.0
0.0 0.10864379387490664 -0.09536343873318286 0.0923000811862913 0.0030633575468915564 0.0008161465017538921 0.0 0.0
0.0 0.0846245031036331 -0.07434078279266827 0.07172148001218553 0.0026193027804826212 0.00029756673661598607 0.0 0.0
0.0 0.06325380381747044 -0.05554797279221456 0.05333411556647707 0.0022138572257375125 -0.0001050492602921449 0.0 0.0
0.0 0.0445759083254798 -0.03933643890349307 0.03747400958227888 0.0018624293212141196 -0.00041187352466863936 0.0 0.0
0.0 0.029265665768600325 -0.026003238283286042 0.024439899410722082 0.0015633388725639471 -0.0006060427956980801 0.0 0.0
0.0 0.01752425885578375 -0.015712394478643525 0.014413759949206482 0.0012986345294370332 -0.0006510995801003836 0.0 0.0
0.0 0.009168694994617584 -0.008363961360198069 0.007338184885212599 0.0010257764749854608 -0.0005972270318093081 0.0 0.0
0.0 0.0039535681500355545 -0.0035629372088075285 0.0028833719750244674 0.0006795652337830614 -0.0004591034325499329 0.0 0.0
0.0 0.001102756662092811 -0.00091915080583935 0.000666430630883249 0.0002527201749561035 -0.00021485780288373537 0.0 0.0
0.0 5.983047870962018e-05 -5.8490949379959404e-05 3.8307875915364076e-05 2.018307346459534e-05 -2.2498179114609003e-05 0.0 0.0
0.0 0.0 0.0 0.0 0.0 0.0 0.0 0.0
0.0 0.0 0.0 0.0 0.0 0.0 0.0 0.0
0.0 0.0 0.0 0.0 0.0 0.0 0.0 0.0
SCALARS Wm float 4
LOOKUP_TABLE default
14.51358925913413 2.0960971201469203 6.272427872737023 6.145064266250177
7.651150137008859 3.597044537008102 1.8539627410098962 2.2001428589908603
0.8896253322116006 0.781574994248576 0.02421784087381722 0.08383249708920723
0.6315064689220911 0.5655204769191841 0.018653082233716013 0.047332909769190815
1.427380978972721 0.9000527464714262 0.194765231709352 0.33256300079194145
3.310997911459493 1.380518516994015 0.7638785267500832 1.166600867715395
7.079962877669056 2.062125824456757 2.2748793581944353 2.742957695017864
13.319133532369843 2.980211560094038 5.095029753805517 5.243892218470291
22.659374554532977 4.206228835879339 9.682436723273916 8.770708995379712
35.50021080030534 5.7564183479646776 16.39114564555868 13.352646806782003
51.94391006569667 7.613199539294531 25.396870758393288 18.933839768008873
71.75162200807156 9.74093200016564 36.59666718279597 25.41402282510993
94.84829294331637 12.08821618855883 50.08047027878621 32.67960647597134
120.89210419568182 14.59238617812322 65.68803357807047 40.61168443948813
149.26978442990475 17.050028740407043 83.17408521489861 49.04567047459904
178.96005220327731 19.14751891669656 102.07303313888008 57.73950014770064
208.43454320163502 20.553261505806223 121.51261456678425 66.36866712904462
235.85214364669085 21.066068165129828 140.325855106696 74.46022037486476
259.384968289702 20.846260024955583 157.06017152791134 81.47853673683531
275.88430479799644 19.384326550561813 169.72964926354774 86.77032898388659
280.99237614094847 16.526700999648074 175.33530796967366 89.13036717162692
275.88430479797864 19.384326550589563 169.72964926351483 86.77032898387428
259.38496828963497 20.846260024978182 157.06017152784824 81.4785367368085
235.85214364656494 21.066068165121802 140.32585510661366 74.46022037482945
208.43454320148325 20.553261505788623 121.51261456669079 66.36866712900385
178.96005220313648 19.14751891670265 102.07303313877915 57.73950014765478
149.2697844297612 17.050028740407967 83.17408521480075 49.045670474552445
120.89210419553666 14.59238617811183 65.68803357798103 40.61168443944385
94.84829294319769 12.08821618857194 50.08047027869962 32.679606475926136
71.751622007944 9.740932000145264 36.596667182727046 25.4140228250717
51.943910065590565 7.613199539278738 25.396870758336668 18.933839767975144
35.50021080022454 5.756418347953684 16.391145645516453 13.352646806754414
22.65937455447649 4.206228835871165 9.682436723245964 8.770708995359366
13.319133532332373 2.980211560087503 5.095029753788668 5.2438922184562005
7.079962877646132 2.0621258244516576 2.2748793581855127 2.7429576950089625
3.310997911448386 1.380518516992454 0.7638785267460766 1.166600867709854
1.427380978968447 0.9000527464696498 0.19476523170831264 0.33256300079048506
0.6315064689213002 0.5655204769188669 0.018653082233553983 0.04733290976887932
0.8896253322095964 0.7815749942464956 0.024217840873820305 0.08383249708927959
7.651150137003814 3.59704453700987 1.8539627410064767 2.2001428589874665
14.513589259103242 2.0960971201311054 6.272427872728591 6.145064266243551
17.56254113802751 7.535592628333715 4.929290792345037 5.097657717348763
3.2592803666701577 0.7178146684357509 1.0974710636745217 1.443994634559884
0.30746513900577105 0.3654175704434134 -0.021314425809703764 -0.03663800562793858
0.480631257429484 0.45428498846460713 0.005741916739485387 0.020604352225391438
1.0649419533210347 0.7257445284770742 0.11129643508072262 0.2279009897632384
2.6334017986377263 1.0998281500207139 0.6065542784045247 0.9270193702124874
5.808957532462737 1.561740830704697 1.882541379377287 2.364675322380755
11.263189824494384 2.165229449722957 4.4181908868939 4.679769487877524
19.464275567191308 2.9089721460013553 8.590530506619496 7.964772914570461
30.67270561825728 3.7712438136526276 14.673625237393916 12.227836567210744
44.94871284732876 4.722024219136364 22.821109071176757 17.405579557015628
62.26062551356931 5.759799913471101 33.10116648962191 23.399659110476286
82.20354687311384 6.87760537091605 45.20889780055324 30.117043701644583
104.8419677508031 8.021318059517228 59.36976995665336 37.450879734632494
129.59449970098188 9.105645362607808 75.22246981041454 45.266384527959616
155.67564270258893 9.973298984552612 92.35799125199448 53.34435246604175
181.88796192091885 10.44794303293957 110.08400267710233 61.35601621087691
206.6451417501866 10.414863484513564 127.32855782554539 68.90172044012768
227.8352658249352 9.740399220740635 142.64794642303877 75.44692018115572
242.81610772821463 8.556472606867393 154.0445171917759 80.21511792957139
248.6818872052753 7.210025585207754 159.14923539900235 82.32262622106533
242.8161077281642 8.556472606855962 154.04451719174835 80.21511792955981
227.83526582486508 9.74039922075206 142.6479464229817 75.44692018113142
206.64514175009504 10.414863484530517 127.32855782546943 68.9017204400952
181.88796192080096 10.447943032942746 110.0840026770185 61.35601621083959
155.67564270244094 9.973298984532947 92.3579912519064 53.344352466001595
129.5944997008356 9.10564536258939 75.22246981032838 45.26638452791792
104.8419677506687 8.021318059502631 59.369769956573734 37.45087973459233
82.20354687299553 6.877605370916092 45.20889780047608 30.117043701603315
62.26062551346564 5.75979991346594 33.10116648955916 23.399659110440513
44.948712847239065 4.722024219129833 22.821109071125186 17.405579556984062
30.672705618188136 3.7712438136473208 14.673625237355639 12.227836567185168
19.4642755671418 2.9089721459962976 8.59053050659415 7.964772914551347
11.263189824463636 2.165229449722571 4.418190886877601 4.679769487863465
5.808957532443308 1.5617408307007816 1.882541379369671 2.3646753223728525
2.63340179862779 1.0998281500185985 0.6065542784009944 0.9270193702081988
1.064941953317963 0.7257445284761536 0.1112964350798865 0.22790098976192338
0.48063125742871965 0.45428498846399074 0.005741916739420767 0.020604352225308334
0.30746513900566513 0.36541757044302314 -0.02131442580961973 -0.03663800562773813
3.259280366662357 0.7178146684344897 1.0974710636712741 1.4439946345565937
17.562541137998522 7.535592628320579 4.929290792336401 5.097657717341533
13.438581650971582 6.062411054835724 3.4904005583408018 3.8857700377950493
2.057339569502132 0.32792649028101767 0.7360578215416701 0.9933552576794458
0.18803617727976127 0.1876292128562122 0.00012994810882130026 0.0002770163147277283
0.3505530445942804 0.3499908535894412 -0.000447469595683303 0.0010096606005224667
0.795720598691545 0.6245723535203997 0.04890342721085186 0.12224481796029324
2.0514043857611868 0.9823781797549826 0.4074924584190366 0.6615337475871677
4.726179620576585 1.4193673165572787 1.4145127804897066 1.8922995235296003
9.485556586950139 1.9646634783183194 3.5707533835711 3.950139725060713
16.690177205491345 2.6146325410064817 7.170341910753089 6.905202753731773
26.566013214568077 3.350381141261373 12.475163529282325 10.74046854402438
39.0965640687912 4.1607298240159345 19.555869498697895 15.379964746077396
54.15591554067305 5.0494864573351945 28.372224978858682 20.734204104479144
71.78275112317641 6.025045115655789 39.04079465072185 26.716911356798793
91.48424084807873 7.059380241990893 51.16779223505515 33.25706837103266
113.22715420887093 8.070681863809945 64.92397477050835 40.2324975745526
136.25271447560945 8.949298896600316 79.83166064230967 47.4717549366995
159.5558714291585 9.533281808672813 95.3072849885389 54.71530463194681
181.63956760621113 9.624268963290126 110.46028645923639 61.55501218368468
200.48136069627233 9.080980016657644 123.93699870604325 67.46338197357139
213.7849069710024 8.186321414608008 133.87807534071197 71.7205102156824
218.69503389556826 6.432038153353543 138.54749075337295 73.7155049888418
213.7849069709734 8.18632141461107 133.87807534068986 71.72051021567239
200.4813606962066 9.080980016661417 123.93699870599514 67.46338197354997
181.6395676061114 9.624268963283429 110.46028645917195 61.555012183655954
159.5558714290368 9.533281808652545 95.30728498846952 54.71530463191472
136.2527144754916 8.949298896589656 79.831660642237 47.47175493666492
113.2271542087593 8.07068186380875 64.92397477043433 40.232497574516216
91.48424084796339 7.0593802419786895 51.16779223498723 33.25706837099741
71.78275112307219 6.025045115652896 39.04079465065651 26.716911356762807
54.15591554058406 5.049486457334303 28.37222497880316 20.73420410444662
39.09656406871272 4.160729824009648 19.555869498653756 15.379964746049302
26.566013214504437 3.3503811412523863 12.475163529250125 10.740468544001926
16.690177205446314 2.6146325409998066 7.170341910731532 6.905202753714973
9.48555658692143 1.9646634783168464 3.5707533835567182 3.9501397250478663
4.7261796205605755 1.4193673165539393 1.414512780483762 1.8922995235228717
2.05140438575402 0.9823781797526284 0.4074924584169488 0.6615337475844426
0.7957205986892029 0.6245723535194561 0.0489034272103533 0.12224481795939321
0.3505530445938032 0.34999085358894555 -0.0004474695956790032 0.0010096606005368003
0.18803617727971147 0.1876292128561904 0.00012994810881830033 0.0002770163147028242
2.057339569495549 0.327926490279977 0.7360578215390197 0.9933552576765501
13.438581650943597 6.0624110548236825 3.49040055833239 3.8857700377875273
10.244628821160362 4.738886742539104 2.5127852199292784 2.992956858691982
1.4005104946414504 0.14786712656734724 0.5079595642743411 0.7446838037997605
0.13073979516765688 0.13073979516765688 0.0 0.0
0.2580185247812133 0.26095246442959574 -0.0005589101368261422 -0.002375029511556184
0.5874979149746616 0.5245705358871536 0.015020593636197994 0.047906785451309865
1.5291893577722968 0.851266832037956 0.23749318130701333 0.4404293444273273
3.7559727008811707 1.2768698706543369 1.032924462115894 1.4461783681109366
7.779463518805464 1.7625121268361406 2.7800003526087465 3.236951039360579
14.006105394988033 2.3256050396864048 5.828108633051503 5.852391722250126
22.54944260650411 2.948604385177569 10.347813993346813 9.253024227979717
33.34203885538981 3.63040279264067 16.358370964421525 13.353265098327617
46.35913425811838 4.391553456080436 23.902280757002888 18.065300045035052
61.38607085529851 5.236530574405978 32.8278708929741 23.321669387918423
78.54695764677773 6.1531492060884965 43.337641921500925 29.056166519188324
97.28654474981869 7.1046903369689876 54.98765520587159 35.194199206978084
117.23219468352349 7.994597979535265 67.6415247073073 41.5960719966809
137.72253479067626 8.669034509821353 81.01757016204103 48.035930118813916
157.2688797592206 8.913489264801216 94.1725756632766 54.182814831142764
174.0595576070081 8.592599843683695 105.92682894286511 59.54012882045925
186.0757840071489 7.867241968934937 114.73278022904493 63.475761809169086
190.5335767146086 5.777958786572152 119.29342804360124 65.46218988443516
186.0757840071189 7.867241968931771 114.73278022902605 63.47576180916106
174.05955760695883 8.592599843693163 105.92682894282466 59.54012882044103
157.26887975917262 8.913489264835194 94.1725756632202 54.182814831117234
137.72253479059862 8.669034509829698 81.01757016198297 48.03593011878596
117.23219468342859 7.994597979534474 67.64152470724405 41.596071996650075
97.28654474971474 7.1046903369624905 54.98765520580737 35.19419920694481
78.54695764667805 6.153149206076411 43.33764192144403 29.056166519157625
61.386070855204004 5.236530574396193 32.827870892920025 23.321669387887763
46.35913425803696 4.391553456075491 23.902280756955456 18.06530004500602
33.34203885532415 3.6304027926357736 16.358370964384896 13.35326509830349
22.549442606452672 2.948604385172308 10.34781399331998 9.253024227960367
14.006105394950623 2.325605039683383 5.828108633032516 5.852391722234729
7.779463518782069 1.7625121268341961 2.780000352597874 3.2369510393499934
3.755972700866911 1.2768698706509627 1.0329244621107077 1.4461783681052418
1.529189357767293 0.8512668320368334 0.23749318130541522 0.44042934442504544
0.5874979149730046 0.5245705358859221 0.015020593636038549 0.047906785451043425
0.2580185247810956 0.26095246442946124 -0.0005589101368187687 -0.002375029511546818
0.13073979516756687 0.13073979516756687 0.0 0.0
1.4005104946363567 0.14786712656699358 0.5079595642721073 0.7446838037972556
10.244628821136814 4.738886742529247 2.5127852199224474 2.992956858685126
7.700662930911166 3.676976013020525 1.7549265140748338 2.2687604038158105
1.0268350633243621 0.12441151153806283 0.36876213263162183 0.5336614191546772
0.11878485771590638 0.11878485771590638 0.0 0.0
0.20561926352474547 0.20596371172191608 -3.5135490429010894e-05 -0.00030931270674157765
0.43193666758721794 0.42592735714148416 -0.0013257257018682003 0.007335036147602072
1.1117965306639865 0.7291694843231117 0.12269011368172902 0.25993693265914547
2.86639839761836 1.11481190547313 0.7091155318678855 1.042470960277345
6.170936673203698 1.562297046419251 2.060285334132913 2.5483542926515352
11.417589366986606 2.0433686099455635 4.561704615219297 4.812516141821744
18.642776640673215 2.5655602025237942 8.305269586682995 7.771946851466427
27.777700947940406 3.136155682456357 13.312733720028199 11.32881154545584
38.732640466438944 3.7775932329603688 19.557527687946568 15.397519545531999
51.47519498504263 4.510102349152526 27.042247509307842 19.92284512658227
65.75623265371134 5.32628474140893 35.56640016906983 24.863547743232566
81.68247040275848 6.195365004423402 45.33244612113795 30.154659277197158
98.80220953901721 7.0810493509776995 56.01947997815225 35.70168020988726
116.37679529361078 7.851513262737799 67.18078859738118 41.344493433491785
133.4819013710947 8.28776365532842 78.40424098991494 46.78989672585135
148.4669212285505 8.197291261835687 88.64888613765477 51.62074382906008
159.55275086903455 7.624868026438626 96.62419590826546 55.30368693433041
163.76847719663022 5.1806725774886635 101.1985727284096 57.38923189073198
159.5527508690083 7.624868026433508 96.62419590825121 55.303686934323544
148.46692122850203 8.197291261836481 88.64888613762129 51.62074382904428
133.481901371013 8.287763655317555 78.40424098986728 46.789896725828164
116.37679529353846 7.8515132627416495 67.18078859732994 41.34449343346691
98.80220953894143 7.081049350985626 56.01947997809693 35.70168020985886
81.68247040266405 6.195365004408896 45.332446121085795 30.154659277169383
65.75623265363652 5.326284741407242 35.56640016902292 24.863547743206322
51.47519498497047 4.510102349150401 27.042247509263834 19.922845126556215
38.73264046637116 3.7775932329564483 19.55752768790749 15.39751954550721
27.77770094788676 3.1361556824554464 13.312733719996952 11.328811545434366
18.642776640628174 2.5655602025175566 8.30526958666086 7.771946851449764
11.417589366953745 2.0433686099421258 4.561704615203473 4.812516141808145
6.170936673183058 1.5622970464152477 2.0602853341245946 2.5483542926432143
2.8663983976078793 1.1148119054712569 0.7091155318639015 1.0424709602727216
1.1117965306600806 0.7291694843226005 0.12269011368041562 0.25993693265706413
0.43193666758632693 0.4259273571405078 -0.0013257257018542117 0.007335036147673518
0.20561926352461551 0.20596371172180977 -3.513549043056687e-05 -0.0003093127067636702
0.11878485771565897 0.11878485771565897 0.0 0.0
1.0268350633207346 0.12441151153806844 0.3687621326298929 0.5336614191527747
7.700662930892027 3.676976013012639 1.7549265140694033 2.2687604038099773
5.686548361761734 2.827501339263988 1.197059739142317 1.6619872833554292
0.7306685481993305 0.14644288787756898 0.21712208402112332 0.3671035763006381
0.13467325981215802 0.13467325981215802 0.0 0.0
0.18311771005175134 0.18306854559658509 5.4649626201521006e-06 4.3699492546074025e-05
0.33283734851336455 0.3446858385164433 -0.003707629481263676 -0.008140860521814982
0.7813223716291365 0.6032273662599791 0.04648363352080523 0.1316113718483521
2.0495902870477227 0.940976884377115 0.40748393659311655 0.70112946607749
4.728872809697275 1.3527072665352056 1.4799444779727549 1.896221065189315
8.923734928133845 1.769138279355393 3.362510792541376 3.7920858562370805
14.894140293040318 2.2028793567494054 6.387996267823184 6.303264668467722
22.392253189367032 2.674149212327901 10.406620462129219 9.311483514909913
31.347969914794618 3.2123465395178514 15.400504581084942 12.735118794191843
41.72123158087853 3.8403966950438866 21.352098521223724 16.528736364610925
53.52315353913996 4.562163721447401 28.29091240764972 20.670077410042847
66.55477715418733 5.365366582373674 36.06919659338681 25.120213978426825
80.63244109007267 6.2107959979601555 44.6138263783902 29.80781871372233
95.59751002660305 7.049233634655642 53.934217096317425 34.61405929563001
110.30917461241016 7.704336973271834 63.24123209266612 39.36360554647222
123.57319272747357 7.875199972053851 71.97934044497944 43.7186523104403
133.9698191810538 7.457455154609792 79.29846519453915 47.2138988319048
138.12205408175396 4.642887279735631 84.02763744698176 49.45152935503665
133.96981918104785 7.4574551546215435 79.29846519452725 47.213898831899044
123.57319272743477 7.875199972053883 71.9793404449533 43.718652310427615
110.30917461237 7.70433697328669 63.241232092629154 39.363605546454096
95.59751002653309 7.049233634647168 53.93421709627664 34.61405929560924
80.63244109000007 6.210795997956591 44.61382637834543 29.80781871369805
66.55477715411232 5.365366582361275 36.069196593346504 25.12021397840456
53.52315353907605 4.562163721445149 28.290912407610897 20.67007741001999
41.72123158081755 3.8403966950408535 21.352098521187997 16.52873636458871
31.34796991474322 3.2123465395193906 15.400504581053132 12.735118794170695
22.392253189322986 2.674149212329246 10.406620462102854 9.31148351489089
14.894140293004517 2.202879356744445 6.387996267806066 6.3032646684540055
8.923734928109262 1.7691382793535055 3.362510792529528 3.7920858562262287
4.72887280968169 1.3527072665324913 1.4799444779663988 1.8962210651827989
2.0495902870396416 0.940976884375751 0.40748393659020166 0.7011294660736879
0.781322371626321 0.6032273662588232 0.04648363352021981 0.1316113718472784
0.332837348512698 0.3446858385155099 -0.0037076294812119276 -0.008140860521600157
0.18311771005151953 0.18306854559637434 5.464962618021741e-06 4.3699492527169314e-05
0.1346732598117958 0.1346732598117958 0.0 0.0
0.7306685481961619 0.1464428878773098 0.2171220840197956 0.36710357629905643
5.6865483617477075 2.827501339258597 1.1970597391383346 1.661987283350778
4.060436931807839 2.142066459321729 0.7547369943306378 1.1636334781554736
0.5425450244973621 0.18910219870961859 0.12310652024233773 0.23033630554540535
0.16241697419073756 0.16242247235794038 -2.8514702602354354e-07 -5.213020176798422e-06
0.18016753697552812 0.1801757468675042 -5.437097805531514e-07 -7.666182195542942e-06
0.2759430243647502 0.28555558068062986 -0.0022119946014498315 -0.007400561714429793
0.5492168348157549 0.49453407276175226 0.00861216155542054 0.046070600498582276
1.4064902758041595 0.7756796790051823 0.212199476708245 0.4186111200907321
3.329552481731127 1.1244802844827102 0.892025302691707 1.3130468945567109
6.703779460092637 1.5002701661068674 2.394789787414231 2.808719506571538
11.285549443212114 1.8572005002036065 4.576616742027945 4.8517322009805595
17.23341795784193 2.244527235938603 7.681212749710813 7.307677972192508
24.272083992821052 2.6916421817161824 11.497492265077137 10.082949546027734
32.39266806205249 3.2263721312036227 16.021469284674854 13.144826646174012
41.62851286163168 3.863404512386671 21.27947478643388 16.485633562811145
51.92494704245908 4.592230602791715 27.240377346805925 20.092339092861447
63.28999413958016 5.395749337972762 33.98016294340024 23.91408185820712
75.1362347006416 6.26000754380478 40.99074064967912 27.885486507157726
87.58427493132604 7.104887427296413 48.59514836586886 31.884239138160748
99.4755080433179 7.59044806883213 56.1306904474405 35.75436952704524
109.27329962747145 7.377099712654375 62.770908422729406 39.12529149208772
113.55927595952802 4.179234702168897 67.77962877056477 41.60041248679432
109.27329962745371 7.377099712649361 62.770908422720815 39.125291492083484
99.47550804328782 7.59044806883155 56.13069044742092 35.75436952703541
87.58427493126948 7.104887427281518 48.595148365841524 31.88423913814642
75.13623470059314 6.260007543804641 40.9907406496479 27.88548650714059
63.28999413952172 5.39574933796651 33.98016294336679 23.914081858188432
51.924947042410636 4.592230602793787 27.240377346774224 20.092339092842625
41.62851286157486 3.863404512376171 21.27947478640531 16.485633562793385
32.392668062006 3.2263721312009515 16.021469284648443 13.144826646156632
24.272083992783354 2.691642181721654 11.497492265051774 10.082949546009907
17.23341795780216 2.2445272359335844 7.68121274969116 7.307677972177417
11.285549443184385 1.8572005002009606 4.5766167420143695 4.851732200969049
6.703779460071355 1.5002701661030258 2.3947897874051827 2.808719506563146
3.32955248171941 1.1244802844814512 0.8920253026868099 1.31304689455115
1.4064902757979552 0.77567967900368 0.21219947670631595 0.41861112008795914
0.5492168348139933 0.49453407276066097 0.00861216155522715 0.04607060049810577
0.27594302436433504 0.28555558067989545 -0.002211994601396204 -0.007400561714164267
0.18016753697522997 0.18017574686723065 -5.437097838434515e-07 -7.666182216832598e-06
0.16241697419012177 0.16242247235731525 -2.851470254176852e-07 -5.213020168041371e-06
0.5425450244949417 0.18910219870927503 0.12310652024142915 0.23033630554423745
4.06043693179692 2.142066459317238 0.7547369943278424 1.1636334781518423
2.8646280132852917 1.6296452370883505 0.48688353951734537 0.748099236679596
0.3952766875620687 0.21957213232893202 0.048479388112951737 0.12722516712018503
0.19116309958438907 0.19076899815142367 4.464413713001671e-05 0.0003494572958353116
0.1888141031598436 0.188772793028048 -1.1655719252536313e-06 4.24757037208339e-05
0.2476473446317246 0.2535313775411423 -0.001227553108103252 -0.004656479801314388
0.40562411773923457 0.40388877989148975 -0.004132332547536391 0.005867670395280992
0.9039832676877844 0.61415582821614 0.08147264171097876 0.20835479776066523
2.1749104008170286 0.8973536841081534 0.47209187169729405 0.8054648450115818
4.52027969472632 1.2118689420811384 1.4138270763880993 1.8945836762570831
8.015049292215616 1.5220998044568825 3.0538002297326496 3.4391492580260863
12.338442112979813 1.8382582697023075 5.1764810146436195 5.323702828633888
17.52187634794783 2.2087664137389305 7.862446819249442 7.45066311495946
23.50874632744113 2.6596337775763077 11.067959791728441 9.781152758136383
30.311275652984154 3.2123909677114892 14.776532311107111 12.322352374165554
38.02221336484167 3.8792386378675645 19.061712796757075 15.081261930217044
46.49786953129356 4.632207469674236 23.824739370047865 18.04092269157147
55.75299039249183 5.462594598746064 29.14662531255177 21.143770481193986
65.5770000159769 6.436654290763311 34.758324633646474 24.382021091567136
75.74175520084133 7.287802119007793 40.73067437615198 27.72327870568153
85.20055864325144 7.393968310355139 46.83882229513601 30.967768037760273
89.87512778201986 3.808882195838134 52.279368279051184 33.786877307130545
85.20055864325971 7.393968310369994 46.838822295131635 30.96776803775809
75.74175520081158 7.2878021189952475 40.73067437614077 27.72327870567558
65.57700001594948 6.436654290763845 34.75832463362867 24.382021091557007
55.75299039243847 5.462594598726445 29.146625312530436 21.143770481181598
46.497869531252746 4.632207469673217 23.82473937002304 18.040922691556457
38.02221336479927 3.8792386378640886 19.06171279673323 15.08126193020196
30.31127565295327 3.21239096771325 14.776532311087564 12.32235237415246
23.508746327406296 2.659633777572051 11.067959791710518 9.781152758123705
17.521876347909135 2.208766413730071 7.862446819232504 7.450663114946559
12.338442112955358 1.838258269702835 5.1764810146299824 5.323702828622535
8.015049292195311 1.522099804455792 3.053800229722538 3.439149258016984
4.520279694714186 1.2118689420817448 1.4138270763818843 1.894583676250557
2.1749104008089764 0.8973536841067743 0.47209187169436556 0.805464845007835
0.9039832676843887 0.6141558282157139 0.08147264170990705 0.20835479775876795
0.4056241177382159 0.4038887798906723 -0.004132332547612435 0.005867670395155859
0.24764734463143587 0.2535313775407068 -0.0012275531080703373 -0.0046564798012005415
0.18881410315969435 0.18877279302769095 -1.1655719119281183e-06 4.247570391527548e-05
0.19116309958391092 0.1907689981508942 4.46441371338645e-05 0.0003494572958827308
0.39527668756066986 0.2195721323288229 0.04847938811245283 0.1272251671193939
2.8646280132769104 1.6296452370847356 0.4868835395152161 0.7480992366769592
1.8846104915517317 1.206929505081077 0.23597477445115533 0.441706212019498
0.30249503917218484 0.23812107591927478 0.013209757171646555 0.05116420608126358
0.214839805982078 0.21465059950811277 3.2138986878393346e-05 0.00015706748708684877
0.20381284350891601 0.2039994480764235 -2.0896996564036752e-05 -0.00016570757094340203
0.23616305283915112 0.24000821884436185 -0.0009078138919319151 -0.002937352113278856
0.3316154384486096 0.3379022686613717 -0.004267439390170165 -0.0020193908225921093
0.5741313354806997 0.47998505738848446 0.017803881398031966 0.07634239669418337
1.2623842098651106 0.6759305929894955 0.19245360892274768 0.3940000079528676
2.6748623217000658 0.9150064454315631 0.6852724199079467 1.0745834563605547
4.897290498378043 1.1654987706525737 1.627739555326808 2.10405217239866
7.754616554859433 1.4272284028581403 2.932014517828101 3.39537363417319
11.205456023683112 1.735442181353855 4.609056231569973 4.8609576107592805
15.173586813437463 2.1146007592618394 6.5928747076695595 6.466111346506063
19.696565313946493 2.5848207376497707 8.895899936620644 8.215844639676083
24.88600067790368 3.176013057472511 11.579229174433927 10.130758445997232
30.794350600879547 3.8921725313873035 14.676604767762635 12.225573301729629
37.323577320573925 4.680498223794661 18.158072942504393 14.485006154274872
44.449992437156524 5.58636935939444 21.966256240565848 16.897366837196216
52.812329230522394 6.791034139699027 26.419232486625077 19.602062604198302
62.01688973494724 7.529754687961743 31.802292232292146 22.68484281469332
67.34229119655309 3.597340271186973 37.67017344045462 26.074777484911525
62.01688973495056 7.529754687967665 31.802292232290522 22.684842814692388
52.81232923050646 6.791034139689614 26.419232486620984 19.602062604195854
44.449992437148175 5.5863693594093835 21.96625624055138 16.89736683718742
37.32357732055725 4.68049822380077 18.15807294249051 14.485006154265967
30.79435060084732 3.892172531382576 14.676604767746106 12.225573301718663
24.886000677867955 3.1760130574585155 11.579229174421116 10.130758445988313
19.69656531392288 2.584820737648087 8.89589993660799 8.215844639666804
15.173586813415033 2.114600759258195 6.59287470765911 6.46611134649773
11.205456023665445 1.7354421813529435 4.6090562315608326 4.86095761075167
7.754616554841797 1.4272284028585984 2.9320145178187262 3.395373634164471
4.8972904983652885 1.1654987706527697 1.6277395553203777 2.1040521723921457
2.674862321689989 0.9150064454289502 0.6852724199045306 1.0745834563565082
1.2623842098613556 0.6759305929891379 0.1924536089214092 0.3940000079508085
0.5741313354785695 0.47998505738756303 0.017803881397583474 0.07634239669342303
0.33161543844802116 0.3379022686606029 -0.004267439390146275 -0.0020193908224354034
0.23616305283867364 0.2400082188436506 -0.0009078138919075285 -0.0029373521130693684
0.20381284350876885 0.20399944807628928 -2.0896996560052024e-05 -0.00016570757096042956
0.21483980598192892 0.2146505995077246 3.213898690128104e-05 0.00015706748730302236
0.3024950391713669 0.23812107591910614 0.013209757171387967 0.05116420608087259
1.884610491545983 1.2069295050786013 0.2359747744497917 0.44170621201759047
1.206058716955046 0.8987705192374889 0.09632509283606334 0.21096310488149436
0.2393447546888795 0.23761434147164476 -0.0030250205303102707 0.004755433747544974
0.231214132811947 0.2301302404924943 0.00014787104640776402 0.0009360212730450763
0.22121048235633153 0.22038013107955265 9.798906144662817e-05 0.0007323622153322275
0.23739228876375876 0.2398033518735038 -0.0007234690462681308 -0.0016875940634769706
0.30183318989157804 0.3042026022632692 -0.002102107415423562 -0.0002673049562675213
0.4136935890258585 0.380073952474114 0.004308421793028569 0.02931121475871598
0.6415936753140692 0.46555380842317795 0.04472878187933786 0.13131108501155345
1.1955556461547898 0.5949641983380961 0.19708644843917314 0.40350499937752027
2.2290088170167346 0.7526996585439616 0.5618896582395677 0.9144195002332057
3.7351958741466422 0.9437912374288723 1.1807297256964595 1.6106749110213114
5.537034782851091 1.172095470073331 1.9375469153070473 2.427392397470714
7.682308822998667 1.4637827915582928 2.886007474485217 3.3325185569551588
10.186726798940793 1.842008640206652 4.014959544811733 4.32975861392241
13.119884105189618 2.3344073916683463 5.343593941879705 5.4418827716415645
16.617078852522564 2.975377096571583 6.933458842928071 6.708242913022911
20.76901571737264 3.747759435447816 8.859427222139459 8.161829059785363
25.46625289675618 4.517896573618105 11.157199363956407 9.79115695918167
31.18739811613366 5.577783179244063 13.916040166440437 11.693574770449144
39.61525499633029 7.407593259805716 17.877523150910445 14.330138585614144
47.06621202335785 3.7621669909939564 24.71909934513046 18.584945687233436
39.615254996339054 7.407593259811081 17.877523150912562 14.330138585615428
31.187398116143314 5.577783179256043 13.916040166439025 11.693574770448235
25.466252896725084 4.5178965736028776 11.157199363947043 9.791156959175169
20.769015717345095 3.747759435436632 8.859427222129908 8.16182905977855
16.617078852505283 2.975377096567997 6.933458842920406 6.7082429130168775
13.119884105181757 2.3344073916692585 5.343593941874926 5.44188277163758
10.186726798931323 1.8420086402079154 4.014959544805908 4.329758613917501
7.682308822990176 1.4637827915588124 2.886007474480545 3.3325185569508147
5.537034782840172 1.1720954700713657 1.9375469153025129 2.4273923974662965
3.735195874134621 0.9437912374263437 1.1807297256918634 1.6106749110164156
2.2290088170111613 0.752699658544393 0.5618896582369143 0.9144195002298541
1.1955556461531154 0.5949641983380187 0.19708644843858583 0.4035049993765106
0.6415936753121589 0.46555380842241567 0.0447287818789299 0.13131108501081362
0.4136935890253635 0.3800739524737345 0.004308421792979971 0.029311214758648937
0.30183318989100183 0.30420260226251894 -0.00210210741542577 -0.00026730495609126464
0.23739228876348797 0.23980335187302684 -0.0007234690462393393 -0.00168759406329964
0.2212104823557787 0.2203801310788963 9.798906145317266e-05 0.0007323622154291286
0.23121413281164388 0.23013024049205613 0.00014787104641958667 0.0009360212731681737
0.2393447546883969 0.2376143414714929 -0.0030250205303920955 0.004755433747296187
1.2060587169514547 0.8987705192358582 0.09632509283531439 0.2109631048802818
0.7441816452738159 0.6570005516367481 0.020284654970876632 0.06689643866619115
0.20536073801288388 0.21652813403316748 -0.0030040042422918175 -0.008163391777991845
0.24049706017549738 0.24073017749325326 -2.0500100734787557e-05 -0.00021261721702120907
0.23798570256311086 0.2366063324855101 0.00018457156573149398 0.0011947985118692312
0.24937612275761023 0.2496588176944724 -0.00039659311367049006 0.00011389817680837005
0.29846841956584486 0.29773313149031755 -0.0011855511831800746 0.0019208392587075033
0.37694198774413973 0.3425982518367549 0.006498389224501407 0.027845346682883552
0.43493501266438256 0.3369714349219482 0.025558797548456275 0.07240478019397807
0.5028549751840209 0.29222667702650273 0.07041611747937712 0.14021218067814128
0.7035158525699821 0.2883628445952142 0.1502836644663965 0.2648693435083721
1.1605970491173305 0.3105729838851429 0.33818273498850376 0.5118413302436823
1.8288411349038058 0.31261465857550924 0.6208060870903253 0.8954203892379715
2.7015804924632665 0.33874188239815506 1.0158113149844241 1.3470272950806867
3.7653855649456647 0.41482013192685324 1.4988676366128473 1.8516977964059689
5.042052034198526 0.5662097103555935 2.0697234815193597 2.4061188423235707
6.528948085641483 0.8156206022664007 2.7113929852582013 3.0019344981168805
8.271040137139385 1.1875041334872412 3.454204714554952 3.629331289097193
10.216661063403699 1.6389934485947806 4.296375679817242 4.28129193499168
12.85324469572569 2.298216975426845 5.4149516650824445 5.1400760552164035
19.946202405697363 4.769860203844512 7.794040493161399 7.3823017086914575
33.32699703845976 4.200214054508468 15.875439589529416 13.251343394421877
19.94620240567866 4.769860203819186 7.794040493165163 7.382301708694316
12.853244695723458 2.2982169754284096 5.414951665080387 5.140076055214671
10.216661063395568 1.638993448595018 4.29637567981249 4.281291934988062
8.271040137106318 1.1875041334664758 3.454204714548507 3.629331289091333
6.528948085640446 0.8156206022717927 2.7113929852548786 3.0019344981137714
5.042052034197263 0.5662097103582724 2.0697234815171814 2.4061188423218063
3.765385564932255 0.4148201319199132 1.4988676366096896 1.8516977964026502
2.7015804924526807 0.33874188239581554 1.0158113149805112 1.3470272950763547
1.8288411348993332 0.3126146585762037 0.6208060870877616 0.8954203892353685
1.1605970491107018 0.31057298388357146 0.33818273498628226 0.5118413302408473
0.7035158525682018 0.2883628445933678 0.1502836644663679 0.2648693435084667
0.5028549751834777 0.2922266770263605 0.07041611747918966 0.14021218067792696
0.4349350126641822 0.33697143492250203 0.02555879754818622 0.07240478019349406
0.3769419877432798 0.34259825183618087 0.006498389224381012 0.02784534668271793
0.2984684195654865 0.297733131489666 -0.0011855511831371421 0.0019208392589575903
0.249376122756994 0.24965881769376788 -0.0003965931136689629 0.0001138981768952379
0.2379857025626211 0.236606332484849 0.00018457156574776552 0.001194798512024143
0.24049706017526873 0.24073017749290979 -2.0500100715379494e-05 -0.00021261721692574732
0.20536073801259278 0.21652813403257126 -0.0030040042422460464 -0.008163391777732525
0.7441816452720424 0.6570005516356081 0.020284654970638263 0.06689643866579624
0.4685660060154044 0.4653537819523167 0.0002918006812986577 0.0029204233817891863
0.18872736207324 0.18995028819283835 -0.00014248431519984806 -0.0010804418043985976
0.24302365279999374 0.2425734523315368 1.103010521429089e-05 0.00043917036324270584
0.25195770893885405 0.2503493359242933 0.00020907871889840082 0.001399294295662237
0.26784810326391006 0.2663856389672907 -0.00012300430655086227 0.0015854686031703542
0.32177313806436786 0.3163295246634943 -0.0006520544628353373 0.006095667863708838
0.4294427371931883 0.3874192466047087 0.007574555643779821 0.03444893494470007
0.6515436216362743 0.46795075147317144 0.047737195942855276 0.13585567422024727
1.1989490349825829 0.5950306961687188 0.1984907982556453 0.4054275405582189
2.228806490344142 0.7523949160949255 0.5618404113489901 0.9145711629002258
3.743411311879936 0.9462525578007226 1.1839901388760086 1.6131686152032054
5.568424069090534 1.1771601089385604 1.952229284301392 2.4390346758505834
7.737270869967054 1.4698548116944805 2.9115314317840024 3.35588462648857
10.20914229851545 1.8345995978627792 4.032471674631156 4.342071026021515
12.880705814835492 2.2721962644926803 5.2500307900772025 5.35847876026561
15.583196574389147 2.780619737676401 6.47464848518683 6.327928351525921
17.983149965852427 3.335689106086264 7.5244074371469765 7.123053422619177
19.892870475435863 3.9947132807308225 8.28985851924279 7.60829867546226
20.540110461428455 4.450554132322667 8.452388208778524 7.6371681203272495
16.927362134505955 3.4040632685284287 7.248072333703651 6.275226532273868
33.76839270753251 6.195433410414899 14.77591066934676 12.79704862777084
16.927362134539745 3.4040632685536893 7.248072333708678 6.2752265322773715
20.540110461399976 4.45055413229966 8.45238820877528 7.63716812032505
19.89287047541913 3.9947132807267978 8.289858519235398 7.60829867545692
17.983149965868446 3.3356891061190717 7.524407437137544 7.123053422611846
15.58319657436183 2.7806197376640953 6.474648485178387 6.3279283515193345
12.880705814818436 2.2721962644878606 5.250030790070576 5.3584787602600095
10.209142298499485 1.834599597862766 4.032471674622543 4.342071026014179
7.737270869949648 1.469854811693806 2.9115314317752676 3.355884626480575
5.568424069073942 1.1771601089356896 1.952229284294479 2.4390346758437755
3.7434113118671655 0.9462525578016179 1.183990138869367 1.6131686151961804
2.2288064903371807 0.75239491609412 0.5618404113462897 0.9145711628967714
1.198949034978542 0.5950306961680537 0.19849079825430943 0.40542754055617847
0.6515436216347718 0.4679507514723644 0.047737195942608515 0.13585567421979847
0.4294427371920476 0.3874192466039887 0.007574555643624235 0.034448934944434226
0.3217731380636849 0.3163295246626794 -0.0006520544628540667 0.006095667863859561
0.2678481032630002 0.2663856389662874 -0.00012300430654668774 0.0015854686032594593
0.2519577089386539 0.2503493359239302 0.00020907871891194592 0.0013992942958117628
0.24302365279978333 0.2425734523312527 1.10301052163261e-05 0.0004391703633141086
0.18872736207298646 0.18995028819249227 -0.00014248431519301574 -0.001080441804312704
0.4685660060144393 0.4653537819511702 0.00029180068130784254 0.002920423381961196
0.3008488605111008 0.30092611340393527 -5.288107123057896e-06 -7.196478571146139e-05
0.17416991785305908 0.17433298527571126 -1.5205389014597053e-05 -0.0001478620336375592
0.239183871167632 0.23986882588531802 -0.0001290410878239148 -0.0005559136298620266
0.26159961015110955 0.2599721423563012 0.00014530525101376292 0.0014821625437945348
0.2910488560793025 0.29147731912063923 -0.00043626247268967633 7.79943135290924e-06
0.3722074317612349 0.3629860049345433 0.0001425719286604636 0.009078854898030616
0.5983034707364006 0.4818594271591425 0.023967883055783637 0.09247616052147418
1.2740661486975828 0.676695077259381 0.19718496813401615 0.4001861033041865
2.6757283790007436 0.9145617042848211 0.6858150283462199 1.0753516463697022
4.897130246285725 1.1656431653881354 1.627428762464854 2.1040583184327346
7.763764599388625 1.4289908284096424 2.935741335577576 3.399032435401407
11.233666186164339 1.7392867783907877 4.622268214818118 4.872111192955435
15.215828314429736 2.1160061739375333 6.615916383249132 6.483905757243076
19.683569158131213 2.5648100165915144 8.900580232679943 8.218178908859748
24.5804554706869 3.0892185384155013 11.45266818998764 10.038568742283767
29.66718531658389 3.677333370197943 14.134535995421988 11.855315950963954
34.53730522371805 4.339857584197653 16.676631820940457 13.520815818579939
38.6080026895062 5.0896282971969615 18.67735693672072 14.841017455588489
40.586463395249666 5.488287187785125 19.665751901046693 15.432424306417866
37.90746283196895 5.38085904224625 18.20137123858742 14.325232551135272
46.823493438555076 10.93660265566508 20.084004560022507 15.802886222867489
37.907462831959606 5.380859042228665 18.201371238592543 14.32523255113841
40.58646339527274 5.488287187810865 19.66575190104507 15.432424306416793
38.60800268947539 5.089628297188217 18.677356936707135 14.841017455580037
34.537305223665314 4.339857584174286 16.67663182092257 13.520815818568455
29.667185316541186 3.6773333701863127 14.134535995403379 11.855315950951507
24.58045547064659 3.089218538404152 11.452668189970593 10.038568742271845
19.68356915811126 2.5648100165969856 8.900580232665401 8.21817890884888
15.215828314398891 2.1160061739359155 6.615916383232706 6.483905757230264
11.233666186133862 1.7392867783855266 4.62226821480438 4.872111192943954
7.763764599368538 1.4289908284113269 2.9357413355662856 3.3990324353909265
4.897130246265341 1.165643165382827 1.6274287624573094 2.1040583184252073
2.6757283789908852 0.9145617042834409 0.6858150283423623 1.0753516463650818
1.2740661486918652 0.6766950772576943 0.19718496813239828 0.40018610330177296
0.598303470734361 0.48185942715850594 0.023967883055293307 0.09247616052056201
0.3722074317601029 0.362986004933661 0.00014257192858493591 0.009078854897856783
0.2910488560787726 0.2914773191196849 -0.00043626247262817746 7.799431715868957e-06
0.2615996101507732 0.25997214235582505 0.00014530525102230557 0.0014821625439258865
0.23918387116728293 0.23986882588478753 -0.00012904108780656422 -0.000555913629697934
0.17416991785301403 0.17433298527572977 -1.52053890194273e-05 -0.0001478620336963947
0.3008488605104686 0.3009261134033076 -5.288107123425113e-06 -7.196478571559829e-05
0.18725316871356745 0.18725316871356745 0.0 0.0
0.15514016843572057 0.1551338577456344 1.137953929926269e-06 5.1727361562477435e-06
0.22871730776165677 0.22958623472022113 -0.00012886472448819003 -0.0007400622340761673
0.26749806904453616 0.26792062897684527 -0.00015870986119764804 -0.0002638500711116138
0.31829258873196753 0.31697902392746236 -0.00040391685363459404 0.0017174816581397888
0.4549737715363617 0.41999279652589705 0.0033983031828571314 0.031582671827608
0.9368395059271154 0.6204059216661397 0.09387449945606177 0.22255908480491368
2.1816406711133323 0.8973531246713874 0.4757137273739013 0.8085738190680438
4.518281419424981 1.2119566977273424 1.4127453808347803 1.8935793408628554
8.016946144121098 1.5227555790230165 3.0547005458746517 3.4394900192234292
12.34739597178876 1.8394625894017924 5.179430422460502 5.328502959926467
17.53929605044579 2.2100259768545376 7.871751702227956 7.457518371363306
23.51468362767259 2.655455784973537 11.07402721432747 9.78520062837157
30.234218653484955 3.182060808392137 14.748802307760837 12.303355537331992
37.666906740616525 3.7817933852766674 18.904558081713915 14.980555273625935
45.4748470334374 4.4393938983295165 23.309773089371518 17.72568004573636
53.288336526931076 5.14393323246392 27.795794954773406 20.348608339693776
59.77828693531507 5.716344845538814 31.52418614001039 22.53775594976589
62.99985278647991 5.906753870734633 33.46101632322565 23.63208259251962
59.026469565175965 5.310970262726235 31.32881525263029 22.38668404981946
65.9694969331872 14.019786187807945 30.16881531192906 21.780895433450233
59.02646956517907 5.310970262726367 31.328815252632165 22.38668404982052
62.99985278646942 5.906753870726875 33.46101632322395 23.63208259251864
59.77828693527153 5.716344845528753 31.52418613998903 22.53775594975376
53.28833652689664 5.1439332324734135 27.795794954745748 20.34860833967747
45.47484703339544 4.439393898332519 23.309773089343558 17.725680045719365
37.666906740573054 3.781793385278006 18.904558081686517 14.980555273608536
30.234218653436777 3.18206080838237 14.748802307737765 12.303355537316648
23.514683627635716 2.6554557849773537 11.07402721430363 9.785200628354746
17.53929605040707 2.210025976852714 7.87175170220692 7.457518371347426
12.347395971753452 1.8394625893977845 5.179430422443309 5.328502959912364
8.016946144097679 1.522755579024044 3.0547005458618015 3.4394900192118327
4.518281419410348 1.211956697726946 1.412745380827802 1.8935793408555999
2.1816406711054097 0.8973531246706506 0.47571372737077516 0.8085738190639838
0.9368395059230226 0.6204059216648633 0.09387449945500519 0.22255908480315378
0.4549737715349972 0.4199927965248639 0.0033983031827286895 0.031582671827404575
0.31829258873179067 0.3169790239269685 -0.00040391685359091636 0.001717481658413186
0.26749806904402873 0.26792062897622654 -0.00015870986118609665 -0.00026385007101179767
0.22871730776107851 0.22958623471969805 -0.00012886472449332294 -0.0007400622341261979
0.15514016843561135 0.155133857745491 1.1379539320082386e-06 5.172736188366255e-06
0.18725316871307982 0.18725316871307982 0.0 0.0
0.11002913059043057 0.11002913059043057 0.0 0.0
0.1312903314000148 0.1312857457583174 2.4297873496715517e-07 4.342662962442389e-06
0.21242903511060662 0.21289873691342803 -6.366683569401008e-05 -0.00040603496712741
0.2698338656226558 0.270311939389142 -0.00024065189598702753 -0.00023742187049918893
0.3510167424956363 0.35114571134193506 -0.0011726932492020945 0.0010437244029033515
0.6030154412951215 0.5084534937158207 0.02225081236556501 0.0723111352137357
1.4245135838406773 0.7721735189111701 0.21976380118353672 0.43257626374597025
3.3297826096793797 1.1251775888686846 0.8923042037759854 1.3123008170347092
6.701352458243322 1.5011208872073905 2.3930489603713054 2.807182610664624
11.289544637160754 1.8580631153516218 4.578116453897211 4.853365067911925
17.241786823082293 2.2441470933124035 7.6864618001064855 7.311177929663408
24.26717423129383 2.687042138637381 11.497400604045888 10.082731488610563
32.339798164407625 3.211888918662995 15.998503973532408 13.129405272212246
41.4725036901291 3.8275590084571522 21.205614467586443 16.43933021408548
51.573999824516655 4.518677191074326 27.066132397452215 19.98919023599011
62.490873792072954 5.250463145831614 33.562290672140584 23.678119974100746
73.0274355344171 5.890858378113677 39.86553327364287 27.27104388266056
81.98813241985475 6.22507827333795 45.51287648717535 30.250177659341436
86.08324363750722 5.916345355396167 48.42752070947602 31.73937757263505
81.07968461374348 5.37719791032172 45.50636517484349 30.19612152857829
87.63959602001682 17.131697922309908 42.07015253369335 28.437745564013554
81.07968461373714 5.377197910321096 45.506365174839935 30.196121528576153
86.0832436374533 5.916345355361285 48.42752070946337 31.739377572628598
81.98813241984126 6.225078273364494 45.51287648714927 30.2501776593275
73.02743553436076 5.890858378110133 39.86553327360871 27.27104388264195
62.49087379200171 5.250463145819258 33.562290672102996 23.678119974079436
51.573999824474804 4.518677191085077 27.06613239741926 19.98919023597046
41.4725036900696 3.8275590084526647 21.205614467552508 16.439330214064416
32.33979816435441 3.211888918661215 15.998503973501315 13.129405272191883
24.26717423124865 2.6870421386375916 11.49740060401931 10.082731488591751
17.24178682304028 2.2441470933119496 7.686461800082988 7.311177929645338
11.289544637127664 1.858063115348718 4.5781164538808925 4.853365067898051
6.701352458223454 1.5011208872061486 2.39304896036166 2.807182610655649
3.329782609665764 1.125177588865531 0.8923042037710578 1.312300817029175
1.4245135838342604 0.772173518909595 0.2197638011815339 0.4325762637431314
0.6030154412922855 0.508453493714242 0.022250812365153794 0.07231113521288964
0.3510167424950074 0.3511457113410899 -0.0011726932491661509 0.001043724403083745
0.2698338656222126 0.27031193938850545 -0.00024065189597253709 -0.0002374218703204886
0.21242903511008376 0.21289873691292696 -6.366683569586389e-05 -0.00040603496714723914
0.13129033139986537 0.13128574575817234 2.4297873480463597e-07 4.342662958242992e-06
0.1100291305901408 0.1100291305901408 0.0 0.0
0.06075670680107917 0.06075670680107917 0.0 0.0
0.10489447385038028 0.10489447385038028 0.0 0.0
0.19145158416706207 0.19157016406727642 -1.5046278460509477e-05 -0.00010353362175382231
0.2698635863829264 0.2720438804498197 -0.0004408319219873564 -0.0017394621449059746
0.3961010237260757 0.3885390651246346 -0.0008374046351483236 0.008399363236589366
0.8240717032456419 0.6111383723922071 0.06131003528772936 0.15162329556570525
2.0615920949955227 0.940320384911927 0.4143137506508484 0.7069579594327481
4.725595131428328 1.3543773224955689 1.4777296075343926 1.8934882013983656
8.923367961276679 1.770508667509628 3.3617379064954034 3.791121387271649
14.900388006089784 2.2034993011051265 6.391076092738244 6.305812612246409
22.394186849740805 2.671027309460408 10.409575765734626 9.313583774545767
31.311277001472945 3.198647326910028 15.386733865805253 12.725895808757675
41.59574998568139 3.8115035647946174 21.29264405946562 16.491602361421144
53.28623105180139 4.527559349907566 28.163558908568906 20.595112793324905
66.22466374326157 5.334641224722008 35.87707820091947 25.01294431762009
80.04270040511219 6.10945776421958 44.29520745637865 29.638035184514
93.81670972900957 6.636092613374424 53.03130880799026 34.14930830764486
104.80316838632808 6.5804734102131395 60.32293433131705 37.89976064479791
109.44194741607542 5.84755015780411 63.865087752983044 39.72930950528824
104.0042983614834 5.624812176507689 60.445756320960456 37.933729864015255
111.29878267202056 20.253550641356377 55.58550616322067 35.45972586744354
104.00429836147774 5.624812176512113 60.445756320953805 37.93372986401181
109.44194741605875 5.8475501578199935 63.86508775296136 39.72930950527745
104.80316838626075 6.5804734101948705 60.32293433128437 37.89976064478148
93.81670972894155 6.636092613370487 53.03130880794802 34.14930830762304
80.04270040504264 6.1094577642233245 44.29520745633076 29.63803518448854
66.22466374317382 5.3346412246998645 35.87707820087744 25.01294431759651
53.28623105172676 4.5275593499037035 28.163558908524358 20.59511279329871
41.5957499856166 3.811503564794012 21.292644059426088 16.491602361396517
31.3112770014063 3.1986473269015616 15.386733865770235 12.725895808734487
22.394186849688722 2.6710273094574304 10.409575765706075 9.313583774525217
14.900388006048054 2.2034993011029123 6.3910760927161805 6.305812612228961
8.923367961247187 1.770508667503752 3.361737906483145 3.791121387260292
4.725595131410783 1.354377322493228 1.4777296075268527 1.8934882013906997
2.0615920949869166 0.9403203849104779 0.4143137506477458 0.7069579594286945
0.8240717032421058 0.6111383723912232 0.06131003528679834 0.15162329556408416
0.39610102372517725 0.38853906512384284 -0.000837404635190045 0.008399363236524474
0.269863586382601 0.2720438804493225 -0.00044083192196452744 -0.0017394621447571054
0.19145158416691657 0.19157016406715321 -1.5046278462477358e-05 -0.0001035336217741768
0.10489447385023691 0.10489447385023691 0.0 0.0
0.06075670680106736 0.06075670680106736 0.0 0.0
0.0314284440606268 0.0314284440606268 0.0 0.0
0.07913086139962207 0.07913086139962207 0.0 0.0
0.16821996241463089 0.16821314565096296 3.960330448053176e-07 6.420730623111643e-06
0.27046834438562156 0.27258092475772716 -0.0004631040200682218 -0.0016494763520374552
0.4698087465709081 0.4459679751558277 0.0038018764967490855 0.020038894918331288
1.1197043780218106 0.7162334389080245 0.12499003280301008 0.2784809063107758
2.870167229714702 1.1152890733155605 0.7121385448039301 1.0427396115952103
6.16779535981078 1.5642307655598933 2.057555318828273 2.5460092754226147
11.420304761928195 2.044901919062351 4.5625895033007 4.812813339565146
18.649694633021838 2.565374662793175 8.309362949510373 7.774957020718297
27.768799895835762 3.128990248660868 13.311725504174632 11.328084143000252
38.65990066420319 3.7537145533669296 19.527628865184663 15.378557245651578
51.2794378392075 4.46696038992962 26.9464447768149 19.866032672463
65.43608454956826 5.289675209340377 35.38476639848476 24.761642941743183
81.32075596618412 6.194617807487852 45.09702573752538 30.029112421170844
98.30119415806655 7.022125545324509 55.72636826001451 35.55270035272754
114.74167607078367 7.374908691813192 66.40415124544198 40.962616133528506
127.87130594324233 6.87797624819372 75.56455311314987 45.42877658189876
133.59985684425502 5.822739362252818 80.1572742119665 47.619843270035716
128.0202622774847 5.948880638152776 76.30419218186739 45.76718945746455
136.46033795274224 23.350971742987422 70.24662353963805 42.862742670116745
128.0202622774435 5.948880638130621 76.30419218185433 45.767189457458464
133.59985684420946 5.822739362247313 80.15727421193938 47.61984327002283
127.87130594317371 6.877976248190897 75.56455311310542 45.428776581877344
114.74167607069504 7.37490869180431 66.40415124538846 40.9626161335023
98.30119415798514 7.022125545327551 55.72636825995862 35.55270035269897
81.32075596609114 6.19461780748106 45.097025737469124 30.029112421140933
65.43608454948446 5.28967520933931 35.38476639843161 24.761642941713536
51.279437839125926 4.466960389925621 26.94644477676621 19.866032672434077
38.65990066413309 3.753714553368723 19.527628865140706 15.378557245623652
27.768799895771252 3.1289902486548975 13.311725504139917 11.328084142976438
18.649694632973247 2.565374662792133 8.30936294948326 7.774957020697862
11.420304761893327 2.044901919059236 4.562589503283688 4.812813339550399
6.167795359788876 1.564230765556476 2.0575553188189635 2.5460092754134354
2.8701672297026652 1.1152890733140999 0.7121385447990427 1.0427396115895213
1.119704378017191 0.7162334389069364 0.1249900328016288 0.2784809063086255
0.46980874657000127 0.4459679751550688 0.003801876496686488 0.020038894918246154
0.27046834438533807 0.27258092475737067 -0.0004631040200634216 -0.00164947635196918
0.16821996241441295 0.16821314565074597 3.960330447626668e-07 6.4207306222634735e-06
0.07913086139959809 0.07913086139959809 0.0 0.0
0.03142844406049385 0.03142844406049385 0.0 0.0
0.01538577448096579 0.01538577448096579 0.0 0.0
0.05667629197169651 0.05667629197169651 0.0 0.0
0.14579470165865174 0.14579219933398 1.22441077168008e-07 2.379883594554421e-06
0.2762606936644412 0.27907101197437933 -0.0006392339983793947 -0.002171084311558876
0.5805225044268807 0.5141144496124967 0.015937547853785053 0.05047050696059918
1.525551724216713 0.8468487911556457 0.23873688266571647 0.4399660503953503
3.7538848384231844 1.277500937902685 1.0317133129829361 1.4446705875375643
7.780242774334484 1.7641303082754916 2.779832049667462 3.2362804163915295
14.01243406787091 2.3269327948100598 5.8310046674430565 5.854496605617792
22.55425372589279 2.9466943618406694 10.351795237126172 9.25576412692594
33.318153787411156 3.6183804812461275 16.351238717378493 13.34853458878655
46.25221918531915 4.359235412949953 23.855871252982496 18.037112519386703
61.13451863092146 5.182848966401938 32.70178483389026 23.24988483062929
78.13769074079447 6.102135702531452 43.104733600716514 28.93082143754644
96.78573540673369 7.0888955729389185 54.66709924824322 35.02974058555157
116.56939900148102 7.93384954147705 67.238216402569 41.39733305743498
135.90925138916037 8.131504455061956 80.15249464156692 47.62525229253158
151.31940012290406 7.22991234858204 91.25417944723621 52.83530832708579
158.51228218989638 5.857228746311315 97.10861359275889 55.54643985082619
153.46200216347117 6.282906615774817 93.3795015521667 53.7995939955297
163.709321420798 26.385631484961863 86.64847353430784 50.675216401528324
153.4620021634676 6.282906615795428 93.37950155215003 53.79959399552215
158.51228218982652 5.857228746296873 97.10861359272101 55.54643985080857
151.3194001228251 7.22991234858268 91.25417944718168 52.83530832706075
135.90925138907164 8.131504455067693 80.15249464150264 47.62525229250126
116.56939900136848 7.93384954146448 67.23821640250196 41.397333057401966
96.78573540663476 7.088895572942073 54.66709924817568 35.029740585517004
78.13769074068585 6.102135702519787 43.104733600653596 28.930821437512506
61.13451863082386 5.182848966395051 32.7017848338325 23.249884830596265
46.25221918523178 4.359235412946021 23.855871252930672 18.037112519355105
33.318153787338645 3.6183804812431677 16.35123871733658 13.348534588758897
22.554253725835352 2.94669436183562 10.351795237095706 9.255764126904024
14.012434067830386 2.326932794808168 5.831004667421744 5.854496605600475
7.780242774306718 1.7641303082713597 2.7798320496555338 3.2362804163798256
3.7538848384086636 1.2775009379008084 1.031713312976946 1.4446705875309094
1.525551724210556 0.8468487911542023 0.23873688266376955 0.43996605039258346
0.5805225044251332 0.5141144496112957 0.01593754785359771 0.05047050696023989
0.27626069366419526 0.2790710119739482 -0.0006392339983650411 -0.0021710843113877678
0.14579470165838734 0.14579219933371884 1.2244107697319608e-07 2.3798835915387224e-06
0.05667629197156271 0.05667629197156271 0.0 0.0
0.015385774480921089 0.015385774480921089 0.0 0.0
0.00741327301322161 0.00741327301322161 0.0 0.0
0.03927096111237154 0.03927096111237154 0.0 0.0
0.12754506022366832 0.12754506022366832 0.0 0.0
0.2951286299878686 0.2990315204646828 -0.001065791018940563 -0.0028370994578734415
0.7395453339675223 0.5943585193828863 0.03907252249807204 0.10611429208656413
2.029457848996607 0.9785347651797769 0.39944300869894594 0.6514800751178842
4.723913756129806 1.4199123533673985 1.4123195239512585 1.8916818788111476
9.49432674686951 1.9660490388910588 3.576200111652126 3.952077596326326
16.699022582475422 2.61501683749021 7.175080331551216 6.908925413433998
26.56585159762175 3.345940715232328 12.477797994067846 10.742112888321584
39.05548400780289 4.143843007028953 19.54108614260434 15.370554858169577
54.0202120773965 5.011682914752466 28.31050424388868 20.698024918755372
71.49061883106457 5.964703328477825 38.891199127598185 26.634716374988507
90.9847204733953 6.983648476103241 50.889079238899285 33.11199275839283
112.46957487546784 7.977405336416016 64.4800837126025 40.01208582644929
135.05575622886008 8.76468677618962 79.14622316757625 47.14484628509416
157.05542252863782 8.922276662910294 94.01690958148447 54.11623628424309
175.00691772682563 7.782098158343667 107.14129429088915 60.08352527759281
184.24040317881503 5.90322947176229 114.86137782917754 63.4757958778752
180.65865394715715 6.579798488629288 111.92420387764417 62.15465158088355
193.31891550565018 29.25851087355479 104.96232450825877 59.09808012383665
180.65865394711338 6.579798488611548 111.92420387762586 62.15465158087589
184.24040317875955 5.903229471776006 114.86137782912951 63.47579587785413
175.0069177267363 7.7820981583469795 107.1412942908253 60.08352527756401
157.05542252851478 8.922276662899089 94.01690958140792 54.11623628420777
135.05575622874323 8.764686776191079 79.14622316749627 47.14484628505589
112.46957487534515 7.977405336410756 64.48008371252396 40.01208582641039
90.98472047328858 6.983648476106374 50.88907923882711 33.11199275835514
71.49061883094276 5.964703328461963 38.89119912752977 26.63471637495108
54.02021207729691 5.0116829147504145 28.31050424382722 20.698024918719295
39.0554840077198 4.143843007024536 19.541086142556246 15.37055485813903
26.56585159755329 3.3459407152234832 12.477797994032706 10.742112888297102
16.699022582428476 2.6150168374877225 7.1750803315262734 6.908925413414481
9.494326746837867 1.9660490388878273 3.5762001116371955 3.9520775963128396
4.723913756112648 1.4199123533651408 1.4123195239443134 1.8916818788031933
2.029457848987992 0.9785347651774665 0.3994430086962282 0.6514800751142983
0.7395453339646452 0.5943585193814401 0.039072522497561026 0.10611429208564438
0.29512862998739636 0.2990315204640702 -0.0010657910189130222 -0.0028370994577610557
0.12754506022351517 0.12754506022351517 0.0 0.0
0.03927096111210122 0.03927096111210122 0.0 0.0
0.007413273013270433 0.007413273013270433 0.0 0.0
0.0035214410328580363 0.0035214410328580363 0.0 0.0
0.02736571795079753 0.02736571795079753 0.0 0.0
0.11820648909585793 0.11820648909585793 0.0 0.0
0.3398482665053871 0.338810799378889 -0.0006654994807439849 0.0017029666072417363
0.9735326716898409 0.6962493090629662 0.08859087191629733 0.18869249071057756
2.5970482149713887 1.0966998198291498 0.5886058473696697 0.9117425477725692
5.808587148254438 1.5620986193984567 1.8809957252892993 2.365492803566682
11.271766797861206 2.1654683162427646 4.4208486324217775 4.685449849196662
19.47656431329219 2.9080448727671286 8.59894946447398 7.969569976051088
30.665626650871438 3.7639385068834024 14.673878851131295 12.227809292856751
44.890356485703 4.7007779263532194 22.79812955898909 17.39144900036067
62.101010442421156 5.718706158149109 33.02557908128887 23.356725202983178
81.87808838775649 6.811597714665156 45.03966462211459 30.026826050976755
104.2460269977419 7.912982657820378 59.045781570820964 37.28726276910049
128.50385307010896 8.893773836727938 74.62976628924373 44.98031294413737
153.61086851103806 9.521696736270638 91.25470981269322 52.83446196207412
177.90109596670035 9.542640679136653 107.94954693734684 60.40890835021679
198.59246056716148 8.607100073770127 122.97066464081209 67.01469585257921
210.46232463742805 6.07533281345134 133.03329166970855 71.35370015426814
209.9135412318062 6.632881304282379 132.28629938667646 70.9943605408472
225.9177117396591 31.207765420069855 126.2620332874436 68.44791303214572
209.91354123177484 6.632881304283505 132.28629938665418 70.99436054083715
210.4623246373531 6.075332813453823 133.03329166965474 71.3537001542445
198.59246056703842 8.60710007375916 122.97066464073419 67.01469585254513
177.90109596659073 9.542640679153147 107.94954693725954 60.40890835017788
153.61086851091054 9.521696736273126 91.25470981260457 52.8344619620329
128.50385306997507 8.893773836727114 74.62976628915393 44.98031294409402
104.24602699759785 7.912982657803555 59.045781570736345 37.28726276905794
81.87808838762615 6.811597714655891 45.03966462203569 30.026826050934535
62.10101044231209 5.718706158149548 33.02557908121906 23.356725202943487
44.890356485606056 4.7007779263457214 22.798129558933653 17.391449000326695
30.665626650798398 3.7639385068783744 14.673878851090622 12.227809292829402
19.476564313240292 2.9080448727639023 8.59894946444622 7.9695699760301615
11.27176679782362 2.1654683162362307 4.420848632405147 4.685449849182241
5.808587148233645 1.56209861939552 1.8809957252805392 2.365492803557583
2.597048214961388 1.0966998198267213 0.5886058473662558 0.9117425477684115
0.9735326716865376 0.6962493090618418 0.08859087191546967 0.18869249070922622
0.3398482665045437 0.3388107993780055 -0.0006654994807456769 0.0017029666072839386
0.118206489095767 0.118206489095767 0.0 0.0
0.027365717950718096 0.027365717950718096 0.0 0.0
0.0035214410328813857 0.0035214410328813857 0.0 0.0
0.0011566430290865814 0.0011566430290865814 0.0 0.0
0.02028734470384287 0.02028734470384287 0.0 0.0
0.12574293049939642 0.12574293049939642 0.0 0.0
0.43245588002830593 0.410749150183906 0.004256306536895266 0.017450423307504785
1.3055551717418903 0.8659402689762118 0.1538129385473524 0.2858019642183264
3.315691619748214 1.3970047737484503 0.7797378317092647 1.1389490142904963
7.082948160107348 2.0627675622409316 2.27304637293037 2.747134224936043
13.337568928941296 2.9801414464241756 5.10597210289928 5.251455379617848
22.668685523245905 4.202581058710824 9.6901734955504 8.775930968984692
35.481604712342836 5.741138713468102 16.38924728898909 13.351218709885634
51.86139681154389 7.577215627665877 25.367796724643515 18.91638445923454
71.55459119327845 9.677070734069504 36.51106826036197 25.366452198846932
94.44926232719266 11.970905870861635 49.89536582868172 32.58299062764934
120.07719537491208 14.322178310249804 65.32359121381897 40.43142585084338
147.5350359067071 16.380973311479398 82.44861599888117 48.705446596346434
175.3117190630809 17.637666504314147 100.59970810970583 57.07434444906097
201.2626300156179 17.636542798768936 118.55126444006572 65.07482277678318
223.11255045629804 16.477024314468927 134.6085604621583 72.02696567967088
238.02672906963898 14.717165059868892 146.314981825947 76.99458218382313
233.71981429822432 6.817457073054695 148.78885694268087 78.11350028248887
317.7426305269263 94.92614929038993 146.02769123394262 76.78879000259371
233.71981429813957 6.817457073003617 148.78885694265665 78.11350028247932
238.02672906953632 14.717165059851071 146.3149818258869 76.99458218379823
223.11255045619248 16.477024314494095 134.6085604620673 72.02696567963118
201.26263001545237 17.636542798737985 118.55126443997254 65.07482277674193
175.31171906289737 17.637666504267496 100.59970810961077 57.07434444901893
147.5350359065452 16.380973311461716 82.4486159987836 48.705446596299986
120.07719537477607 14.322178310259687 65.32359121372143 40.431425850794966
94.44926232703928 11.970905870838921 49.89536582859583 32.582990627604595
71.55459119315464 9.677070734063598 36.511068260286414 25.366452198804616
51.86139681143687 7.577215627656118 25.367796724582625 18.916384459198134
35.48160471225828 5.741138713457044 16.389247288944556 13.351218709856681
22.668685523184536 4.202581058700898 9.690173495520655 8.775930968963
13.337568928896825 2.9801414464142093 5.105972102880481 5.251455379602135
7.082948160081529 2.0627675622355444 2.273046372920117 2.747134224925869
3.3156916197362767 1.3970047737448605 0.7797378317055939 1.138949014285822
1.3055551717373604 0.8659402689745829 0.1538129385461904 0.2858019642165868
0.4324558800270878 0.410749150182944 0.0042563065368256235 0.01745042330731776
0.12574293049922855 0.12574293049922855 0.0 0.0
0.020287344703776997 0.020287344703776997 0.0 0.0
0.0011566430291034798 0.0011566430291034798 0.0 0.0
CELL_DATA 800
SCALARS Stress float 6
LOOKUP_TABLE default
172.42314308027284 -526.0658342463693 -182.0367881137728 -111.0818070497652 0.0 0.0
404.98333458087905 -87.83441124480507 115.61635580247653 54.13639465105605 0.0 0.0
423.55224262125637 7.278570597568855 129.52385717075603 -2.5570511768087387 0.0 0.0
482.6247039904889 -17.76569159698384 153.78050643100147 -15.940734155697195 0.0 0.0
561.467385587488 -24.758661981004256 216.87575744103856 -11.679846963212164 0.0 0.0
637.6790926756295 -21.611921365206726 287.8842481376232 -10.539265643742862 0.0 0.0
711.3281467532071 -16.304373649847015 340.36518180634187 -11.641460728687179 0.0 0.0
786.4310168746506 -2.4229350911352157 388.1913228786396 -13.732620173662127 0.0 0.0
865.1272028637904 20.630053554251077 440.007732367332 -15.670910464898158 0.0 0.0
946.5140310247552 51.31319059123999 496.5493796592258 -16.86700696314231 0.0 0.0
1028.3603332695477 86.88880225889301 555.6329204321398 -17.33443104035231 0.0 0.0
1109.2431863895213 125.97225546797662 615.8920684205646 -17.323504743561667 0.0 0.0
1189.3788376620182 167.7098284726559 677.0236747106112 -17.14739332631792 0.0 0.0
1269.6140077114487 212.67381829626834 739.7590136726192 -16.808598119892824 0.0 0.0
1350.3918438857966 261.30809822163246 804.5648494864047 -16.150053335797715 0.0 0.0
1430.8073277255896 312.8294605656512 870.6139767082607 -14.973741298949266 0.0 0.0
1508.3793110141955 365.17774965060136 935.6428370767838 -13.197534457711477 0.0 0.0
1580.9762080083744 416.7968672329345 997.7917699008539 -11.255464097863248 0.0 0.0
1649.609868147043 469.5390640870941 1058.4320468342487 -11.17383664373553 0.0 0.0
1757.6490570130763 568.8749910029596 1161.6372497257817 -18.8272286583377 0.0 0.0
1757.6490570139938 568.8749910038957 1161.637249726407 18.827228658356844 0.0 0.0
1649.6098681476578 469.53906408776425 1058.4320468346561 11.173836643867237 0.0 0.0
1580.9762080080175 416.79686723266394 997.7917699004386 11.255464097931505 0.0 0.0
1508.3793110132815 365.17774964980686 935.6428370758732 13.197534457729256 0.0 0.0
1430.8073277251221 312.8294605653157 870.6139767078554 14.973741299000006 0.0 0.0
1350.391843886112 261.30809822211734 804.5648494865959 16.15005333574801 0.0 0.0
1269.6140077116556 212.67381829666084 739.7590136727102 16.808598120032038 0.0 0.0
1189.378837662519 167.70982847336194 677.0236747108823 17.14739332616155 0.0 0.0
1109.243186389266 125.97225546794505 615.8920684203142 17.32350474353671 0.0 0.0
1028.360333268377 86.88880225796595 555.6329204313203 17.334431040402723 0.0 0.0
946.5140310242562 51.31319059100835 496.5493796588766 16.867006963127306 0.0 0.0
865.1272028635761 20.630053554303487 440.0077323671936 15.670910464873296 0.0 0.0
786.4310168740633 -2.4229350914477834 388.191322878226 13.732620173660369 0.0 0.0
711.3281467527119 -16.30437365004299 340.36518180600604 11.641460728848323 0.0 0.0
637.679092675417 -21.611921365092044 287.88424813741545 10.53926564367547 0.0 0.0
561.4673855874437 -24.758661980730686 216.8757574409347 11.679846963355574 0.0 0.0
482.6247039903342 -17.7656915968368 153.7805064309344 15.940734155732573 0.0 0.0
423.5522426210026 7.278570597307895 129.52385717061333 2.5570511767715782 0.0 0.0
404.98333458043084 -87.83441124517609 115.61635580221024 -54.136394651171834 0.0 0.0
172.42314308092432 -526.065834245798 -182.03678811320714 111.08180704935063 0.0 0.0
71.64712929764815 -551.873808008904 -243.65069580467025 -162.25367097782325 0.0 0.0
283.8436896198392 -83.15358128516924 60.684118352448685 7.859596094287422 0.0 0.0
372.6257729452703 35.146938625443894 122.35367534032937 -9.541303295294512 0.0 0.0
448.02794461617947 -16.37218171445864 136.05954406111613 -36.52566682045395 0.0 0.0
534.243184666494 -24.687260346149486 193.85194557402693 -33.80447350169058 0.0 0.0
614.6547368866297 -22.104804038137374 269.32312083720103 -31.16823265630759 0.0 0.0
691.9061535330947 -16.018419590882836 328.424544195792 -32.72492864834585 0.0 0.0
767.9293927087622 -2.165282263945201 378.28775634840554 -35.89151513832319 0.0 0.0
845.023507297485 19.40611589263075 428.97618770142515 -38.730071000118045 0.0 0.0
922.8901143119584 47.13085274100888 482.4348695429061 -40.08391805990962 0.0 0.0
999.9342372535665 78.70554585925964 537.181671811893 -40.13053303982756 0.0 0.0
1075.7223848701562 113.01836587056215 592.533684419139 -39.54279448685497 0.0 0.0
1150.5085113505231 150.27218162453198 648.7720279086749 -38.70482817659736 0.0 0.0
1225.0533295307584 190.29147671157358 706.2169238202839 -37.629210411340985 0.0 0.0
1299.5249868144806 233.11376303173842 764.9857931006314 -36.03409006724704 0.0 0.0
1373.439014610323 278.4515390572772 824.7037558318185 -33.5420005313746 0.0 0.0
1445.9841890576647 325.8707366973003 884.7419881413632 -30.172645782613095 0.0 0.0
1517.222574030253 376.1760895905105 945.5053842620847 -27.028275229450927 0.0 0.0
1595.2845098629525 438.7013518313291 1015.6589334585567 -25.974244588927462 0.0 0.0
1653.4596057140632 488.10470358943627 1069.3485492752177 -27.229944803236624 0.0 0.0
1653.4596057128776 488.1047035882655 1069.3485492744298 27.22994480325464 0.0 0.0
1595.2845098632001 438.7013518316087 1015.6589334588709 25.974244588843323 0.0 0.0
1517.22257403044 376.17608959080167 945.5053842625263 27.028275229724102 0.0 0.0
1445.9841890575656 325.8707366973077 884.7419881414087 30.172645782650285 0.0 0.0
1373.4390146084036 278.4515390554761 824.7037558304912 33.5420005314196 0.0 0.0
1299.5249868117069 233.11376302910014 764.9857930986773 36.034090067231475 0.0 0.0
1225.053329529083 190.29147671008172 706.2169238191631 37.62921041145867 0.0 0.0
1150.5085113501862 150.2721816243877 648.7720279084452 38.70482817655595 0.0 0.0
1075.7223848697706 113.01836587039418 592.5336844188308 39.542794486835085 0.0 0.0
999.9342372529509 78.70554585891773 537.1816718114936 40.130533039982495 0.0 0.0
922.890114311721 47.13085274102812 482.4348695427435 40.08391805983893 0.0 0.0
845.0235072976693 19.40611589308108 428.9761877015401 38.7300710000532 0.0 0.0
767.9293927095133 -2.165282262878719 378.28775634886887 35.891515138285655 0.0 0.0
691.9061535332328 -16.018419590427257 328.4245441958766 32.72492864835657 0.0 0.0
614.6547368857771 -22.104804038744867 269.3231208365937 31.168232656253814 0.0 0.0
534.2431846664141 -24.687260345883658 193.85194557392066 33.804473501721574 0.0 0.0
448.0279446159574 -16.372181714327553 136.05954406104394 36.5256668203818 0.0 0.0
372.62577294543064 35.146938625841244 122.35367534050025 9.541303295242543 0.0 0.0
283.8436896197512 -83.15358128504374 60.68411835247014 -7.859596094417837 0.0 0.0
71.64712929788874 -551.8738080086086 -243.65069580438004 162.2536709776644 0.0 0.0
15.70695495402623 -562.3390751897509 -271.3114910220974 -178.2475022715658 0.0 0.0
159.1019512423946 -70.4037880562817 26.609448955833862 -47.6357011038576 0.0 0.0
302.43196359798844 39.43904471872584 102.56130249501425 -34.43250650802233 0.0 0.0
403.76244242210294 -7.038488947972549 120.99935648250391 -57.307811291306244 0.0 0.0
498.53993955702947 -23.422913505866255 169.5766166038855 -57.954438146098944 0.0 0.0
587.9157805389411 -23.656083895726162 246.03663199552824 -53.34915100305328 0.0 0.0
668.457107837524 -14.873036081841704 313.7214998037858 -54.18339425855976 0.0 0.0
744.9496530154756 -1.825141524631448 365.8463853536812 -57.86308833928388 0.0 0.0
820.6203636082387 18.156381038363662 415.70022530821336 -61.178515793144555 0.0 0.0
894.9067392894385 42.63963813737679 465.94535932923725 -62.45962317019358 0.0 0.0
967.3905287044231 70.14792458326322 516.4516151498628 -62.09173433317329 0.0 0.0
1038.0894863882722 100.21633913920532 567.174634371185 -60.95600508889371 0.0 0.0
1107.71507628348 132.55914147646956 618.4067544732147 -59.57035187112421 0.0 0.0
1176.360782146542 167.33158095906794 670.3109772865909 -57.792692340243406 0.0 0.0
1244.3394468916515 204.11754075840582 722.8427437955747 -55.333388450463715 0.0 0.0
1311.9818162776533 243.30277002408317 776.3546627702844 -51.8488298532614 0.0 0.0
1379.9968047335763 286.12167496648016 831.8053872585854 -47.48091663412729 0.0 0.0
1450.6319932732276 335.7108880036669 891.8794424074742 -43.201020321122606 0.0 0.0
1517.396282787054 386.6006266831108 950.6537960623136 -39.10291869258032 0.0 0.0
1565.3857744655777 424.91162507403993 993.7374595321156 -34.24166251951741 0.0 0.0
1565.3857744648524 424.911625073323 993.7374595314228 34.241662519546 0.0 0.0
1517.3962827869989 386.600626683127 950.6537960619421 39.102918692676866 0.0 0.0
1450.6319932721617 335.7108880026672 891.8794424066605 43.20102032113287 0.0 0.0
1379.9968047309058 286.12167496392254 831.8053872566168 47.4809166342085 0.0 0.0
1311.9818162752772 243.30277002182874 776.354662768463 51.84882985333867 0.0 0.0
1244.3394468908227 204.11754075769448 722.8427437949344 55.33338845032846 0.0 0.0
1176.3607821450723 167.33158095776378 670.3109772855057 57.79269234028472 0.0 0.0
1107.715076282962 132.559141476111 618.4067544728102 59.57035187103858 0.0 0.0
1038.089486388877 100.21633914001336 567.1746343715909 60.9560050887992 0.0 0.0
967.3905287042312 70.1479245833649 516.4516151497601 62.09173433334685 0.0 0.0
894.9067392880373 42.63963813620302 465.9453593283376 62.45962317009529 0.0 0.0
820.6203636068952 18.156381037207012 415.70022530734934 61.178515792962656 0.0 0.0
744.949653014917 -1.8251415249560807 365.8463853532877 57.863088339169494 0.0 0.0
668.4571078366221 -14.873036082499297 313.72149980317977 54.183394258374975 0.0 0.0
587.9157805384422 -23.656083895952612 246.03663199514335 53.349151003023586 0.0 0.0
498.5399395564285 -23.422913506253515 169.576616603479 57.9544381459066 0.0 0.0
403.76244242193883 -7.0384889478157024 120.99935648249036 57.307811291057675 0.0 0.0
302.43196359811617 39.43904471887822 102.56130249509833 34.432506507911306 0.0 0.0
159.10195124245783 -70.40378805597398 26.609448955945155 47.6357011035843 0.0 0.0
15.706954954196306 -562.3390751895214 -271.3114910218689 178.24750227143863 0.0 0.0
-6.089268536906673 -552.8225912407947 -270.9513246779714 -180.2537544815237 0.0 0.0
90.27452393280176 -64.40278179003681 7.761522642829476 -94.80325157465228 0.0 0.0
236.18399298363957 35.51253056868868 81.50895706569847 -68.4317163887274 0.0 0.0
349.298637046546 3.0723964623276157 106.00941172911288 -80.05531798359627 0.0 0.0
453.14646657546433 -21.578430022672435 144.49036361361914 -84.7094277597624 0.0 0.0
552.063358281832 -23.413074671109527 218.538647998126 -77.26394362393488 0.0 0.0
638.4445545749059 -14.837652366790294 293.2849787423103 -76.28283375374693 0.0 0.0
717.3121451751231 -0.9295694698318684 350.74601917507084 -79.7172583013733 0.0 0.0
791.2145536792112 16.707646008030622 399.652030459417 -82.98880806849023 0.0 0.0
862.1564866140099 37.939472445588635 446.89526350014603 -84.00821575789706 0.0 0.0
930.2592363452713 61.48113926855045 493.33502944295 -83.22511039285405 0.0 0.0
996.1348292619765 87.1509351744753 539.4966866822299 -81.62612560123863 0.0 0.0
1060.3103211159785 114.75092249190502 585.6670432986762 -79.67053082632773 0.0 0.0
1123.334640201941 144.14101562167878 632.1063601502115 -77.26604899618945 0.0 0.0
1184.9473456862906 174.75397689674358 678.4004022153767 -74.10352763413871 0.0 0.0
1246.0869590939399 207.77493531344035 725.5881701433502 -69.94750707519019 0.0 0.0
1309.3535706503526 245.65845422123283 776.1880233871993 -64.93336057987594 0.0 0.0
1374.2812669987304 288.98332741585 830.2941702123906 -59.21408977089369 0.0 0.0
1434.7578308700554 332.51680719042594 882.2658842288185 -51.83187763424868 0.0 0.0
1479.207511575066 365.63176129633484 920.9908951098417 -41.61397726117326 0.0 0.0
1479.2075115742332 365.6317612955146 920.9908951094028 41.61397726124369 0.0 0.0
1434.7578308698135 332.51680719020345 882.2658842288647 51.83187763416216 0.0 0.0
1374.2812670003573 288.98332741753757 830.2941702135255 59.21408977087884 0.0 0.0
1309.3535706519406 245.65845422303772 776.1880233884722 64.93336058033519 0.0 0.0
1246.0869590934426 207.77493531312598 725.5881701430637 69.94750707544205 0.0 0.0
1184.9473456852375 174.75397689585753 678.4004022147253 74.1035276341704 0.0 0.0
1123.334640201519 144.14101562140883 632.106360149905 77.2660489962056 0.0 0.0
1060.3103211144542 114.75092249056678 585.6670432975721 79.67053082631526 0.0 0.0
996.1348292605237 87.15093517316353 539.4966866811695 81.62612560107722 0.0 0.0
930.259236344805 61.48113926833827 493.33502944255986 83.22511039294814 0.0 0.0
862.1564866132163 37.939472445077115 446.8952634996041 84.00821575797572 0.0 0.0
791.2145536788895 16.70764600797338 399.652030459224 82.98880806845403 0.0 0.0
717.312145175575 -0.929569469101807 350.74601917538996 79.71725830127215 0.0 0.0
638.4445545745106 -14.83765236692308 293.28497874200644 76.28283375361079 0.0 0.0
552.0633582817536 -23.41307467080733 218.5386479979917 77.26394362393557 0.0 0.0
453.14646657539674 -21.57843002227422 144.4903636136286 84.70942775983706 0.0 0.0
349.29863704622977 3.0723964620644466 106.00941172894983 80.0553179836092 0.0 0.0
236.18399298368973 35.512530568734576 81.50895706572729 68.43171638860784 0.0 0.0
90.27452393284284 -64.402781789763 7.761522642923952 94.80325157454553 0.0 0.0
-6.089268536694902 -552.8225912404299 -270.951324677674 180.25375448137703 0.0 0.0
-11.568060854785031 -531.1244229199145 -254.85373036851433 -177.32682545027163 0.0 0.0
52.89192066532538 -59.62986891723425 -2.021384475572656 -131.55466758309944 0.0 0.0
179.68339882788035 28.253491356453353 62.38106705530009 -102.82611527768941 0.0 0.0
290.7626414436859 10.294725565582546 90.36723209888481 -104.11767593085756 0.0 0.0
396.3620026126438 -17.37776131990738 120.32815635450676 -112.69765063986868 0.0 0.0
505.55977211296505 -22.75981604366884 186.87370977554366 -104.19880105858492 0.0 0.0
601.2800404323708 -15.02392245872078 266.76289677392367 -99.72869818502724 0.0 0.0
683.3435347655221 -0.5059567396698554 331.0816596301267 -101.516760985402 0.0 0.0
756.2519126767729 15.321946059175765 380.51685049697323 -104.17910546819614 0.0 0.0
823.9970906274234 33.07801190899012 424.93863602577716 -104.78318149789999 0.0 0.0
887.9931901922896 52.7273631899948 467.5389237411198 -103.5343042842991 0.0 0.0
948.8789368683574 73.94864082626123 509.05969028306833 -101.49255389310753 0.0 0.0
1007.7397636103908 96.66978629915019 550.1841718392782 -99.10252375099185 0.0 0.0
1064.9319687188145 120.82358690511614 591.1208281579134 -96.05581929912208 0.0 0.0
1120.5245902546842 145.7030801798411 631.5750861688468 -92.27512732762648 0.0 0.0
1175.476728615045 172.2615232767221 672.4697349597485 -87.7655245104639 0.0 0.0
1231.6498590094013 203.0021486605196 715.9699316527903 -82.28736705576986 0.0 0.0
1290.1233964323792 239.03075945031335 763.2073123875268 -75.28364264034019 0.0 0.0
1346.4049980567947 276.5716470327991 810.0843954069935 -64.96831678384862 0.0 0.0
1391.2041299417583 307.53385461504035 847.890829876997 -49.98088434779783 0.0 0.0
1391.2041299410337 307.533854614364 847.8908298765448 49.980884347991186 0.0 0.0
1346.4049980565514 276.5716470326217 810.08439540678 64.96831678400979 0.0 0.0
1290.1233964324977 239.0307594505599 763.2073123874122 75.28364264054849 0.0 0.0
1231.6498590100603 203.00214866136577 715.9699316530947 82.28736705602915 0.0 0.0
1175.4767286152623 172.26152327710224 672.4697349598225 87.76552451058029 0.0 0.0
1120.5245902535414 145.7030801788922 631.5750861681288 92.27512732780443 0.0 0.0
1064.9319687181933 120.82358690467635 591.1208281573902 96.05581929913696 0.0 0.0
1007.7397636097724 96.66978629866446 550.1841718389105 99.10252375085958 0.0 0.0
948.8789368683248 73.94864082634521 509.05969028305253 101.49255389288916 0.0 0.0
887.9931901925345 52.727363190444464 467.53892374121347 103.53430428428831 0.0 0.0
823.9970906268705 33.078011908805365 424.9386360254292 104.78318149809215 0.0 0.0
756.2519126756533 15.321946058346128 380.5168504962754 104.17910546826417 0.0 0.0
683.3435347645287 -0.5059567403527865 331.0816596294732 101.51676098547883 0.0 0.0
601.280040431493 -15.023922459257271 266.76289677328504 99.72869818505139 0.0 0.0
505.55977211263394 -22.759816043516967 186.87370977529952 104.19880105872363 0.0 0.0
396.36200261247984 -17.377761319640573 120.3281563544941 112.69765063979655 0.0 0.0
290.7626414433705 10.29472556531447 90.3672320987188 104.11767593069627 0.0 0.0
179.6833988278798 28.25349135633112 62.38106705526326 102.82611527756984 0.0 0.0
52.89192066547483 -59.62986891674319 -2.0213844753805046 131.55466758303112 0.0 0.0
-11.568060854825774 -531.1244229196365 -254.85373036829887 177.32682545024687 0.0 0.0
-9.669420033439351 -501.19574762661296 -229.38338237657345 -173.17126206248867 0.0 0.0
31.498348332894576 -54.47753413883454 -6.893755741781989 -159.04793566494487 0.0 0.0
132.0907474125376 20.486715934484337 45.77323900410657 -133.01936253249892 0.0 0.0
232.16385321141945 13.331257218593574 73.64455667042034 -128.40391847914077 0.0 0.0
329.70291346760393 -10.30404384058022 98.28812535166631 -138.97804405347514 0.0 0.0
442.78883827517325 -21.808304265890257 151.51951646582359 -134.601826430626 0.0 0.0
551.1249971769386 -14.24841888664931 232.38762587876607 -125.39374093091841 0.0 0.0
639.7056300127151 -1.2347823713136563 303.8212489658377 -123.87208051052525 0.0 0.0
714.170839652784 13.613858167258648 356.9051371815664 -125.01084043787155 0.0 0.0
779.3162684868907 28.2104512402691 399.46872372669236 -124.78858293478632 0.0 0.0
839.1479558817687 43.84337200195527 438.2710814451283 -123.03473417821914 0.0 0.0
895.2288100079945 60.70978153677051 475.34802792273933 -120.56589093845295 0.0 0.0
948.4983110876933 78.54103929518418 511.3070133149613 -117.76706521297106 0.0 0.0
999.9988305211114 97.31305595126194 546.741330682042 -114.3105690453816 0.0 0.0
1050.1656412163045 116.91968645873341 581.8804323759659 -109.97137607540961 0.0 0.0
1098.2957432125036 137.1822259341381 616.279044234454 -104.99318544290705 0.0 0.0
1146.3956868983553 159.2964252979773 651.4781738407905 -99.35916699216693 0.0 0.0
1197.226248173992 186.40023955772733 690.435970802759 -91.67282235172786 0.0 0.0
1250.0836398851786 218.22667953129877 732.7171863000236 -79.12856068388733 0.0 0.0
1298.2070768866881 248.94523525205676 772.0179513801827 -60.043850416499396 0.0 0.0
1298.20707688699 248.9452352523702 772.0179513804171 60.04385041651659 0.0 0.0
1250.0836398850163 218.22667953122482 732.7171863000851 79.12856068413694 0.0 0.0
1197.2262481756502 186.4002395594868 690.4359708040402 91.6728223518413 0.0 0.0
1146.3956868981845 159.2964252979537 651.4781738407696 99.35916699230322 0.0 0.0
1098.2957432120734 137.18222593369222 616.2790442342216 104.99318544258054 0.0 0.0
1050.1656412144905 116.91968645694487 581.8804323747908 109.97137607525221 0.0 0.0
999.9988305203005 97.31305595061093 546.7413306815661 114.31056904538721 0.0 0.0
948.4983110880928 78.541039295807 511.30701331517264 117.76706521304123 0.0 0.0
895.228810008391 60.70978153739159 475.3480279228832 120.56589093854836 0.0 0.0
839.1479558822982 43.84337200286811 438.2710814455311 123.0347341784099 0.0 0.0
779.3162684867707 28.210451240393553 399.46872372662654 124.7885829347506 0.0 0.0
714.170839652379 13.613858167033982 356.9051371812095 125.01084043770467 0.0 0.0
639.7056300120973 -1.2347823717862099 303.8212489653679 123.87208051031374 0.0 0.0
551.1249971767862 -14.248418886453628 232.38762587856272 125.39374093084498 0.0 0.0
442.78883827469923 -21.80830426617594 151.51951646546604 134.60182643042077 0.0 0.0
329.7029134672039 -10.304043840914035 98.28812535144954 138.9780440533098 0.0 0.0
232.16385321121876 13.331257218488972 73.64455667033016 128.4039184790155 0.0 0.0
132.09074741269077 20.48671593454999 45.77323900417223 133.01936253225554 0.0 0.0
31.498348332857745 -54.47753413872833 -6.893755741761174 159.04793566472708 0.0 0.0
-9.669420033532049 -501.1957476264414 -229.38338237641065 173.17126206250373 0.0 0.0
-4.2757157253369655 -464.68956975233607 -197.92532610504466 -169.38496486685796 0.0 0.0
17.588696519452927 -49.563280571767294 -9.592173020152684 -178.49352028742982 0.0 0.0
90.66931328714331 13.464810274172734 31.23961910122068 -157.13933250085216 0.0 0.0
173.87299200903857 14.335212224182847 56.45971897631906 -151.03327214023 0.0 0.0
257.3966357704339 -3.0062668532565753 77.42917588585571 -161.56749908186646 0.0 0.0
364.115973317989 -18.083557812372565 115.99097613448477 -166.48260691757588 0.0 0.0
482.6646252157297 -14.069557022764737 188.82090896277506 -154.95069143736373 0.0 0.0
582.7290785201156 -1.7364858940272718 266.6893372714051 -147.61143130820946 0.0 0.0
660.919662924253 11.019544461436489 325.40288310265936 -145.87524890515905 0.0 0.0
725.4459908918108 23.177988998415476 368.6891049587979 -144.2304807473462 0.0 0.0
781.3505143596818 34.822683955303106 404.204115242995 -141.74434206807845 0.0 0.0
832.7300294455662 47.55250848748493 437.1261401169153 -138.8259935974089 0.0 0.0
880.3461111630897 60.458554026518456 467.93373182581445 -135.7019518719508 0.0 0.0
925.6684736076355 73.82556507253088 497.6528012937545 -131.996366254274 0.0 0.0
970.0471516881424 88.03338029910041 527.216102020989 -127.2646046841119 0.0 0.0
1013.0812370574874 102.89948651806243 556.4399527656526 -121.71510052560357 0.0 0.0
1052.285181210284 116.14393654044699 582.8751969615603 -115.81403041658699 0.0 0.0
1092.9284130595292 131.99181542175563 611.1305741914424 -108.30165541539158 0.0 0.0
1141.7802294819048 156.2663996845935 647.5694272179602 -94.93538983188408 0.0 0.0
1196.2438442539974 188.17608863783136 690.5352317576882 -72.8412662432647 0.0 0.0
1196.2438442547298 188.17608863867315 690.5352317581961 72.84126624357607 0.0 0.0
1141.7802294819344 156.2663996848276 647.5694272177861 94.93538983238435 0.0 0.0
1092.9284130587137 131.99181542108238 611.1305741906779 108.30165541556141 0.0 0.0
1052.285181209199 116.14393653934837 582.875196960716 115.81403041650529 0.0 0.0
1013.0812370556766 102.89948651633097 556.4399527642706 121.71510052553992 0.0 0.0
970.0471516884132 88.03338029962447 527.2161020210772 127.26460468427997 0.0 0.0
925.6684736074751 73.8255650726912 497.65280129366295 131.9963662544983 0.0 0.0
880.346111162496 60.45855402618065 467.9337318253989 135.70195187213187 0.0 0.0
832.7300294469092 47.5525084892011 437.1261401177788 138.82599359765857 0.0 0.0
781.3505143595199 34.82268395540089 404.2041152428259 141.7443420680601 0.0 0.0
725.4459908907442 23.17798899738665 368.68910495806193 144.23048074714106 0.0 0.0
660.9196629234506 11.019544460775805 325.4028831021553 145.87524890497258 0.0 0.0
582.7290785195889 -1.7364858944401078 266.6893372709437 147.611431308004 0.0 0.0
482.66462521519276 -14.069557023007906 188.82090896236065 154.95069143724746 0.0 0.0
364.11597331755104 -18.083557812498213 115.99097613422938 166.4826069174553 0.0 0.0
257.39663577015745 -3.0062668537983273 77.42917588560532 161.56749908164025 0.0 0.0
173.8729920087617 14.335212223815223 56.459718976130915 151.03327214006953 0.0 0.0
90.66931328732726 13.46481027452207 31.239619101381294 157.1393325004101 0.0 0.0
17.588696519362635 -49.563280571815646 -9.592173020194435 178.4935202870982 0.0 0.0
-4.275715725287718 -464.68956975213075 -197.925326104819 169.384964866722 0.0 0.0
1.2583247075102548 -422.9669791490936 -164.56278503843743 -166.8938520064777 0.0 0.0
5.311093496467669 -45.67019457600281 -12.107863219786815 -190.06321641617234 0.0 0.0
52.95730219123207 7.909288495207755 18.260832620683907 -175.11874472748892 0.0 0.0
116.41239578474284 15.235645137131481 39.51422480032235 -169.85545155495973 0.0 0.0
183.1465390013483 2.080392719971034 56.205621589397076 -180.92310227183646 0.0 0.0
268.1061487420737 -10.58729301427594 82.3159887089144 -193.74149912174875 0.0 0.0
385.78707367158563 -12.588491012846802 137.3876501027451 -189.02876611883866 0.0 0.0
502.30643012588047 -2.73069743535526 214.368237804015 -175.13971822853998 0.0 0.0
590.1939261539538 8.057303029081353 280.6978646209588 -167.64130664630812 0.0 0.0
655.718002882181 17.583601220775797 327.61062946668517 -163.37789764523046 0.0 0.0
709.2098321325423 25.597484008398173 362.0591284605959 -159.90191209354 0.0 0.0
755.6425084986533 34.33489377426382 391.25080493141206 -156.35067867807626 0.0 0.0
797.4975802966061 42.716145653660284 417.25488277749633 -152.82352048824467 0.0 0.0
836.2777042353435 50.602193257086995 441.1407938061558 -149.05495299312474 0.0 0.0
874.2057390199359 58.89718230388861 464.59351089860127 -144.3430023632367 0.0 0.0
912.3887967235407 68.60046605561926 488.8096848585727 -138.14956436099692 0.0 0.0
946.6398188052024 76.03459250724046 510.0315131952609 -131.42657817010004 0.0 0.0
974.0539482512695 77.8019374348109 524.8096509465918 -124.59478064979784 0.0 0.0
1013.3495527639867 89.08912079051112 549.8389488716966 -112.68424967599984 0.0 0.0
1076.679729555662 122.6085314140837 597.8068805706413 -89.92359091077638 0.0 0.0
1076.6797295567278 122.60853141525922 597.8068805714465 89.92359091096176 0.0 0.0
1013.3495527628722 89.08912078963124 549.8389488711646 112.68424967648724 0.0 0.0
974.0539482503937 77.8019374339923 524.8096509460013 124.59478064990097 0.0 0.0
946.6398188035917 76.03459250560132 510.03151319398086 131.4265781699774 0.0 0.0
912.3887967227721 68.60046605486042 488.80968485799383 138.149564360854 0.0 0.0
874.2057390205279 58.89718230455571 464.59351089892294 144.34300236317526 0.0 0.0
836.2777042348691 50.602193256738246 441.1407938058311 149.05495299319014 0.0 0.0
797.4975802971702 42.7161456546244 417.2548827779524 152.82352048842336 0.0 0.0
755.6425084971212 34.334893772482246 391.2508049303124 156.35067867761495 0.0 0.0
709.2098321320852 25.597484007840592 362.0591284601764 159.90191209330465 0.0 0.0
655.7180028826795 17.58360122166617 327.610629466973 163.3778976452642 0.0 0.0
590.1939261544559 8.057303030109637 280.6978646212627 167.64130664644773 0.0 0.0
502.3064301263532 -2.7306974341918604 214.36823780432212 175.13971822870127 0.0 0.0
385.7870736712807 -12.588491012582832 137.38765010257768 189.02876611887197 0.0 0.0
268.1061487421401 -10.587293013516094 82.31598870912886 193.74149912164805 0.0 0.0
183.14653900159277 2.0803927205247783 56.20562158963966 180.9231022716491 0.0 0.0
116.41239578486923 15.235645137523862 39.51422480048358 169.85545155481321 0.0 0.0
52.9573021911084 7.9092884951151206 18.260832620622658 175.1187447273207 0.0 0.0
5.311093496560643 -45.6701945758065 -12.107863219701388 190.06321641610367 0.0 0.0
1.2583247074946584 -422.9669791487956 -164.56278503823086 166.89385200646387 0.0 0.0
3.771720595214205 -376.76640284111534 -133.21992522328983 -164.33072145419354 0.0 0.0
-9.549562127531729 -44.12395816029502 -16.10727769599655 -195.6762509783705 0.0 0.0
17.3126489179623 4.499094875670249 6.548518224640685 -187.14192486421493 0.0 0.0
60.425547101929496 16.40797478623206 23.08330443821231 -183.9873914661572 0.0 0.0
106.73473224133471 6.277543131454569 34.30459321975037 -195.94618474019398 0.0 0.0
162.15952809504313 -3.476774505546628 49.68750499347731 -213.29979445669872 0.0 0.0
252.2632495734175 -6.286164927042869 83.05703358085069 -220.74426983399528 0.0 0.0
374.014441837421 -2.8890175580101936 141.91473687715555 -209.42532342669068 0.0 0.0
480.86862867639934 5.031444720988709 209.88311388885882 -193.32062066178315 0.0 0.0
553.5829612046617 11.149681613789397 263.1171553912196 -183.32286469909852 0.0 0.0
605.7427148104578 16.655023532422227 300.6626815427475 -177.63695074382315 0.0 0.0
647.1560469959936 20.9327299234874 327.87226859660836 -173.29630036550424 0.0 0.0
682.9248305570591 25.152463334623434 350.2089975614778 -169.2296217952927 0.0 0.0
714.7703157473458 28.101435240133952 368.88146683100746 -165.28899466437917 0.0 0.0
744.954127755474 30.08121756019085 385.63960644020256 -160.83178299748312 0.0 0.0
776.5860782494091 32.857065274175454 403.1670562408997 -154.88081528131303 0.0 0.0
810.8388558672617 37.307353569340535 422.8048543839888 -146.69703780227903 0.0 0.0
834.294007206759 32.16473020399917 432.60238290265 -138.95002517134114 0.0 0.0
850.0495525013096 15.676127041154956 432.04355021553636 -131.43039965786932 0.0 0.0
921.1696820595288 45.829520721872086 481.44284479165935 -114.09677133067228 0.0 0.0
921.1696820602695 45.829520722736504 481.4428447921813 114.09677133089673 0.0 0.0
850.0495525010788 15.676127041206769 432.0435502155365 131.43039965840012 0.0 0.0
834.2940072067331 32.16473020405107 432.6023829027275 138.95002517156172 0.0 0.0
810.8388558680463 37.30735357023576 422.8048543846862 146.69703780235278 0.0 0.0
776.5860782491742 32.85706527432728 403.16705624091253 154.88081528151577 0.0 0.0
744.9541277548074 30.081217559784903 385.6396064399401 160.83178299756065 0.0 0.0
714.7703157470221 28.101435239498073 368.88146683073666 165.2889946641155 0.0 0.0
682.9248305563268 25.15246333394009 350.20899756100823 169.2296217952583 0.0 0.0
647.1560469955732 20.932729923180347 327.872268596285 173.2963003655554 0.0 0.0
605.7427148110969 16.65502353349973 300.66268154319823 177.63695074396014 0.0 0.0
553.5829612051796 11.149681614740913 263.1171553915665 183.3228646991029 0.0 0.0
480.86862867564383 5.031444720584588 209.8831138884228 193.32062066187137 0.0 0.0
374.0144418370601 -2.889017557786058 141.91473687698726 209.42532342681454 0.0 0.0
252.26324957267698 -6.286164927556964 83.05703358044006 220.74426983396205 0.0 0.0
162.1595280948741 -3.476774505439681 49.687504993456116 213.29979445650858 0.0 0.0
106.73473224137014 6.277543131462387 34.30459321976262 195.94618473999992 0.0 0.0
60.425547102018754 16.407974786204697 23.083304438233682 183.98739146596856 0.0 0.0
17.3126489180213 4.49909487594109 6.548518224741058 187.14192486401407 0.0 0.0
-9.549562127552893 -44.12395816027149 -16.107277695998903 195.67625097823796 0.0 0.0
3.7717205951678068 -376.76640284079525 -133.21992522310438 164.33072145412712 0.0 0.0
2.0611582868988876 -326.8231057737253 -105.72291635121115 -159.53469263817135 0.0 0.0
-28.32659450455715 -45.67776150524723 -22.210787326576753 -197.30609353161816 0.0 0.0
-17.07720991156554 3.4252786564567024 -4.097886776073076 -194.1032532381015 0.0 0.0
6.085569037394476 17.633693061742353 7.133067378639437 -192.99383700257525 0.0 0.0
29.585864729351037 10.771564375413204 12.241634878346618 -204.81858570890208 0.0 0.0
52.123741295598315 2.113000698889469 16.902579100729884 -224.41213037084455 0.0 0.0
85.33250832260852 -0.9311453925652913 27.37094979556213 -239.28083312404442 0.0 0.0
149.06616127292222 1.208899063241013 50.60838331742164 -240.5479728506362 0.0 0.0
239.88769530652198 5.363980747049695 88.1138857283707 -225.73775856286395 0.0 0.0
322.7892627870011 7.141536920409905 130.75992818001927 -208.80430389933176 0.0 0.0
382.16758998422074 8.486079561980446 169.4553425872345 -196.64177749137406 0.0 0.0
419.8039530632565 8.694205338791733 197.88825317171867 -189.37266337990783 0.0 0.0
447.0863052669125 8.637965930266972 219.31211038475658 -184.12511047095117 0.0 0.0
470.07652315621937 6.359471666465481 235.25698526217514 -179.6504749371031 0.0 0.0
493.2185508214055 2.049137026837087 247.9100577019158 -175.34993681561613 0.0 0.0
521.5444585599348 -3.334411138812129 260.47029847671894 -170.5041987878124 0.0 0.0
559.4828760977341 -6.341420931441718 277.6401105839306 -163.18515154615503 0.0 0.0
605.79657022182 -5.842788959617735 300.7679724872929 -152.12102384809194 0.0 0.0
621.3031228847241 -39.29063201457154 292.6146151944792 -144.3723189642238 0.0 0.0
661.1973580428257 -66.84187574216287 295.2930081239863 -145.81087744216228 0.0 0.0
661.1973580437673 -66.84187574101696 295.29300812460554 145.81087744260657 0.0 0.0
621.3031228856406 -39.29063201294122 292.61461519522607 144.3723189649994 0.0 0.0
605.7965702216392 -5.84278895957226 300.7679724871939 152.12102384862536 0.0 0.0
559.4828760968185 -6.341420932353287 277.64011058320636 163.18515154626746 0.0 0.0
521.5444585601285 -3.3344111384871553 260.4702984767822 170.50419878779257 0.0 0.0
493.2185508205932 2.0491370260199915 247.91005770135465 175.349936815651 0.0 0.0
470.0765231566764 6.359471666878818 235.25698526244315 179.65047493719675 0.0 0.0
447.08630526791296 8.637965931985534 219.3121103855762 184.12511047115936 0.0 0.0
419.8039530633126 8.69420533857155 197.88825317163293 189.3726633798688 0.0 0.0
382.1675899839597 8.48607956161267 169.45534258696188 196.64177749120304 0.0 0.0
322.7892627873012 7.14153692104405 130.7599281801676 208.80430389929597 0.0 0.0
239.88769530648074 5.363980747517552 88.1138857284437 225.73775856296416 0.0 0.0
149.06616127253358 1.208899062792252 50.60838331714882 240.5479728506224 0.0 0.0
85.33250832215384 -0.9311453933356209 27.370949795191187 239.2808331238444 0.0 0.0
52.12374129582076 2.1130006995193487 16.902579100987797 224.41213037063372 0.0 0.0
29.58586472932268 10.771564375206392 12.241634878276479 204.818585708704 0.0 0.0
6.085569037288434 17.633693061303735 7.133067378476335 192.9938370022696 0.0 0.0
-17.0772099118101 3.4252786558584756 -4.097886776326635 194.10325323785327 0.0 0.0
-28.3265945047256 -45.67776150543864 -22.210787326688735 197.30609353153434 0.0 0.0
2.0611582868001257 -326.82310577348585 -105.7229163511202 159.53469263804985 0.0 0.0
-8.529506077458528 -275.3773198461148 -86.5635005454289 -150.41119034038593 0.0 0.0
-48.45750206090247 -48.354111394495995 -29.061815526089294 -196.85695349381683 0.0 0.0
-50.56731940291615 3.6826865820739814 -14.097928134996243 -196.68986868577684 0.0 0.0
-46.62129818947328 18.723119017942047 -8.424059477727198 -196.63070049878544 0.0 0.0
-46.61593094237486 15.321068949648927 -9.565387307705267 -206.98260941876663 0.0 0.0
-58.91057447979324 7.330254866657727 -16.179392734781803 -225.33894123924495 0.0 0.0
-88.6928109577141 2.5873404911684235 -27.98520390266478 -239.44511026439784 0.0 0.0
-150.26590451404493 -0.7550446681191154 -50.919298302408095 -240.76446031139852 0.0 0.0
-239.77087806661902 -5.0892661404283395 -88.01022221848031 -225.8494105463537 0.0 0.0
-322.5058715466033 -6.628993419125145 -130.4870325606932 -208.77885718507457 0.0 0.0
-382.43878026655455 -6.852389338448575 -168.86281710441116 -196.43985813327532 0.0 0.0
-421.80048993762216 -7.136263825940631 -198.02965329455188 -188.88943992689542 0.0 0.0
-451.7978109109375 -10.022013252152504 -221.88043428236278 -183.85625850384073 0.0 0.0
-475.33028625254894 -16.015214151984225 -242.39911091043015 -180.70981730430776 0.0 0.0
-490.50360009766547 -25.1779284223023 -259.7701095506653 -179.29014718936824 0.0 0.0
-493.95322530345834 -36.468591586716485 -273.05388328240656 -179.06681785333802 0.0 0.0
-476.8634898026776 -47.07032486561141 -278.8339209498843 -178.913839867702 0.0 0.0
-410.005399280912 -39.56815584685688 -260.7389905456277 -178.5746201982638 0.0 0.0
-228.7863675499704 -41.55386251148391 -202.6127281628622 -181.63766164829315 0.0 0.0
-32.33585834233605 -175.61537839283446 -73.67708239502832 -178.78683895336928 0.0 0.0
-32.335858342891186 -175.61537839390814 -73.67708239537399 178.78683895368368 0.0 0.0
-228.7863675508254 -41.55386251315781 -202.6127281637477 181.6376616487674 0.0 0.0
-410.00539928025574 -39.56815584583671 -260.7389905450707 178.57462019856115 0.0 0.0
-476.86348980455887 -47.07032486810556 -278.83392095121155 178.91383986773025 0.0 0.0
-493.9532253040876 -36.46859158866167 -273.0538832831336 179.06681785357227 0.0 0.0
-490.503600096956 -25.177928421109414 -259.77010955006824 179.29014718920695 0.0 0.0
-475.3302862527444 -16.015214152388722 -242.39911091053983 180.70981730446445 0.0 0.0
-451.79781091178165 -10.022013253566286 -221.88043428296422 183.85625850398094 0.0 0.0
-421.8004899364614 -7.136263825093195 -198.02965329384025 188.88943992685483 0.0 0.0
-382.43878026690624 -6.852389339642755 -168.8628171046832 196.43985813334027 0.0 0.0
-322.50587154628516 -6.628993420361326 -130.48703256080154 208.77885718511882 0.0 0.0
-239.77087806602307 -5.089266140246988 -88.01022221817519 225.8494105464228 0.0 0.0
-150.26590451324412 -0.7550446674464784 -50.91929830193865 240.76446031142316 0.0 0.0
-88.69281095724226 2.5873404915481384 -27.985203902392254 239.44511026424823 0.0 0.0
-58.910574479554285 7.330254866865058 -16.179392734645237 225.33894123906455 0.0 0.0
-46.61593094218549 15.32106894963026 -9.565387307653898 206.98260941856321 0.0 0.0
-46.62129818962045 18.72311901745997 -8.424059477916732 196.6307004986231 0.0 0.0
-50.567319402976494 3.682686581741177 -14.097928135116568 196.68986868561234 0.0 0.0
-48.45750206103024 -48.35411139467042 -29.06181552618955 196.8569534936232 0.0 0.0
-8.52950607751004 -275.377319845767 -86.56350054534883 150.41119034027759 0.0 0.0
-21.89225983164103 -225.520645623268 -74.21579640760783 -137.60683451049348 0.0 0.0
-66.29557386030586 -48.94207001250926 -34.591943481909354 -193.46513563507895 0.0 0.0
-83.15869024270698 3.9272956047629033 -23.835973755161916 -195.43735163617447 0.0 0.0
-97.66094480122557 19.678556896414793 -23.53962706358351 -195.03101141169998 0.0 0.0
-121.05598785917147 19.031161495360674 -31.191810046632853 -202.23448056921035 0.0 0.0
-167.58929191643242 12.407789527641839 -48.98526834327649 -215.54108633467507 0.0 0.0
-253.704189459408 7.819407447544899 -83.40205051769411 -221.72702631132154 0.0 0.0
-373.5221684702376 3.265620489404718 -141.8131555898723 -210.0303231835562 0.0 0.0
-480.40088555249656 -4.7787672172516835 -209.62571322021836 -193.52551536344512 0.0 0.0
-553.1415092396455 -10.595081170160029 -262.7045200902861 -183.27933041398074 0.0 0.0
-605.2482993825081 -15.382333020655935 -299.875962102156 -177.27879589033665 0.0 0.0
-647.3990008553287 -19.536044025143624 -327.28254700056436 -172.42791963877283 0.0 0.0
-685.4488554175039 -26.22176168240881 -351.7705983453842 -168.36836996289873 0.0 0.0
-721.1168390340763 -36.2591870461911 -375.7842220015041 -166.16374978518525 0.0 0.0
-754.4765862811144 -49.88200134841128 -400.14822231142307 -166.16670421655368 0.0 0.0
-783.270851914807 -65.71681072358487 -423.33267623101574 -168.2794671927921 0.0 0.0
-802.4774630373875 -80.38996233236486 -441.2695197835954 -173.00522102705705 0.0 0.0
-810.6888014246834 -93.47609562671744 -452.7209807889544 -180.38382397278434 0.0 0.0
-842.3024124328654 -146.4916504382457 -496.4325510139521 -189.9489397502047 0.0 0.0
-865.1735683524109 -242.4742298558916 -557.4771944844395 -208.634772184121 0.0 0.0
-865.1735683517198 -242.4742298555999 -557.4771944841103 208.6347721844972 0.0 0.0
-842.3024124336628 -146.49165043909312 -496.43255101448636 189.94893975053873 0.0 0.0
-810.6888014246695 -93.4760956272275 -452.7209807892048 180.38382397315917 0.0 0.0
-802.4774630354933 -80.38996233013728 -441.2695197824356 173.00522102671528 0.0 0.0
-783.2708519135077 -65.71681072230811 -423.3326762301653 168.27946719301326 0.0 0.0
-754.476586280353 -49.88200134756545 -400.14822231084713 166.16670421628783 0.0 0.0
-721.1168390342348 -36.25918704651431 -375.7842220015602 166.16374978521844 0.0 0.0
-685.4488554179854 -26.221761683351644 -351.77059834573055 168.36836996323257 0.0 0.0
-647.3990008548816 -19.53604402523672 -327.2825470003476 172.42791963888936 0.0 0.0
-605.2482993824527 -15.382333020765714 -299.8759621020043 177.27879589022723 0.0 0.0
-553.1415092387534 -10.59508116978757 -262.70452008976144 183.27933041403315 0.0 0.0
-480.40088555173827 -4.778767216540647 -209.6257132196073 193.52551536329062 0.0 0.0
-373.5221684690598 3.2656204905406234 -141.81315558903603 210.0303231834679 0.0 0.0
-253.7041894585525 7.819407448227847 -83.40205051715085 221.72702631117443 0.0 0.0
-167.58929191632708 12.407789527111062 -48.985268343392306 215.5410863345084 0.0 0.0
-121.05598785904127 19.031161495142687 -31.19181004665609 202.23448056882842 0.0 0.0
-97.66094480105254 19.67855689653088 -23.53962706349792 195.03101141158896 0.0 0.0
-83.1586902425539 3.9272956048364795 -23.835973755097157 195.437351636022 0.0 0.0
-66.29557386027508 -48.94207001245011 -34.59194348188826 193.46513563496296 0.0 0.0
-21.892259831636785 -225.52064562309607 -74.21579640755759 137.60683451030997 0.0 0.0
-28.68277364181081 -178.60241932005934 -62.18555788856104 -122.58776002644227 0.0 0.0
-81.01111677015709 -46.977078129567445 -38.39600334757453 -186.23569614189802 0.0 0.0
-114.41761103436308 3.860838166930564 -33.23592828953695 -190.21837050852844 0.0 0.0
-146.9593696613016 20.151790950631064 -38.284305726525695 -188.23694820224864 0.0 0.0
-193.01661427095144 21.582476985052374 -52.574184076479796 -191.14566548552756 0.0 0.0
-269.8656001749141 18.264902592518578 -81.48313757328307 -197.00508221287282 0.0 0.0
-384.5837608686976 13.993858810540342 -137.01267953050473 -190.60291450513665 0.0 0.0
-501.3864616753566 3.131315164058549 -213.90377025227406 -175.77884133156294 0.0 0.0
-589.885478831432 -7.897713838787098 -280.4947287846478 -167.73413685737748 0.0 0.0
-655.3922200883472 -17.18275661425895 -327.2962233487706 -163.35279687869152 0.0 0.0
-708.8327003223171 -24.6766749217999 -361.45284190810634 -159.51907452973603 0.0 0.0
-755.6955172828266 -33.16308303793548 -390.6710558475754 -155.24626099105544 0.0 0.0
-799.3522575884847 -43.304018086148886 -418.32248578312203 -151.37482556325452 0.0 0.0
-841.8383504981026 -56.94581534594059 -446.83620744874065 -149.14457597781234 0.0 0.0
-883.7492951965909 -74.87721995893739 -477.15509328023927 -149.4215257549694 0.0 0.0
-922.5928224331291 -95.45150817618037 -507.31183766413596 -152.51177586327245 0.0 0.0
-956.6302374548052 -117.124533341821 -535.5511114077453 -157.92702968147643 0.0 0.0
-994.4244029955873 -149.9852034759997 -571.2369604007465 -163.88150847226555 0.0 0.0
-1039.359939936455 -200.53320148913224 -619.0949166433013 -168.82648041395942 0.0 0.0
-1147.0127663830829 -340.76751922701095 -742.6499168630037 -172.3388658932516 0.0 0.0
-1147.012766383974 -340.7675192280793 -742.6499168637197 172.33886589353213 0.0 0.0
-1039.3599399359828 -200.53320148885507 -619.0949166431296 168.82648041420288 0.0 0.0
-994.4244029941319 -149.9852034746474 -571.2369603998209 163.8815084725536 0.0 0.0
-956.6302374555501 -117.12453334272851 -535.5511114081662 157.92702968151133 0.0 0.0
-922.592822434028 -95.45150817737314 -507.31183766474845 152.5117758635106 0.0 0.0
-883.7492951975482 -74.87721995996179 -477.1550932808045 149.42152575475228 0.0 0.0
-841.838350498279 -56.94581534639558 -446.83620744893284 149.14457597781353 0.0 0.0
-799.3522575883351 -43.30401808608332 -418.32248578301085 151.37482556318844 0.0 0.0
-755.6955172831812 -33.16308303863308 -390.671055847842 155.24626099110944 0.0 0.0
-708.8327003221518 -24.67667492175608 -361.4528419080306 159.5190745295412 0.0 0.0
-655.392220088514 -17.18275661481185 -327.29622334894026 163.35279687878233 0.0 0.0
-589.8854788325218 -7.897713840544933 -280.49472878539336 167.73413685754096 0.0 0.0
-501.3864616752682 3.131315163435126 -213.90377025221096 175.7788413317606 0.0 0.0
-384.58376086851644 13.993858809847842 -137.01267953049285 190.60291450526358 0.0 0.0
-269.86560017446294 18.264902592351522 -81.48313757315078 197.00508221279208 0.0 0.0
-193.01661427084412 21.58247698460511 -52.574184076583926 191.14566548544283 0.0 0.0
-146.95936966122247 20.151790950395267 -38.28430572657718 188.23694820213976 0.0 0.0
-114.41761103443125 3.860838166585827 -33.235928289665274 190.21837050834762 0.0 0.0
-81.01111677006799 -46.97707812964381 -38.3960033475734 186.23569614177978 0.0 0.0
-28.68277364186018 -178.60241931997527 -62.18555788855063 122.58776002637396 0.0 0.0
-31.0340093450229 -135.64789642890915 -50.004571732179606 -106.56012202014952 0.0 0.0
-93.05631390088972 -42.745150310809024 -40.73985604479148 -174.44621430935365 0.0 0.0
-143.89448093668003 3.5323220847013053 -42.16457169374466 -180.9138808082879 0.0 0.0
-194.33933725208658 19.56844809896291 -52.7867459905255 -176.50652807248306 0.0 0.0
-261.2476806083353 24.035549875773345 -73.27833750879691 -174.68097458833628 0.0 0.0
-361.4432433460694 23.933752371539086 -114.78873031916504 -170.5469203513095 0.0 0.0
-480.518199487472 15.703392177216664 -187.5922702285191 -156.66776477225542 0.0 0.0
-582.2375279003612 1.8956332931924464 -266.3575538171067 -147.90470822621796 0.0 0.0
-660.789592384446 -10.966603857761385 -325.3272117957954 -145.92169370774675 0.0 0.0
-725.2733831886097 -22.944722323237357 -368.5069708080048 -144.213928749598 0.0 0.0
-781.2340339346856 -34.308551588283024 -403.9017535377353 -141.35353426003175 0.0 0.0
-832.8425812805708 -46.75868711249419 -436.776994621928 -137.61142375437723 0.0 0.0
-881.3417630963925 -60.42436808403551 -468.33771299695974 -133.88092937060676 0.0 0.0
-928.9259831883398 -77.4794802466925 -500.95152061780607 -131.5246929632536 0.0 0.0
-976.758241196699 -99.16770404393051 -535.9555368801231 -131.9021743932546 0.0 0.0
-1025.0569458110097 -126.1249856420259 -573.8323100809381 -135.24893716471652 0.0 0.0
-1074.9209189602313 -160.0444403248182 -615.9522054918604 -140.3044749362137 0.0 0.0
-1129.3372111407782 -204.71976344967192 -665.6138047064651 -144.43716800932808 0.0 0.0
-1204.0770558272172 -279.03345740103896 -739.9896732335302 -144.18684666380418 0.0 0.0
-1303.6881182216182 -402.36262787512663 -851.5238207654648 -141.85109947828204 0.0 0.0
-1303.688118221232 -402.36262787456013 -851.5238207651053 141.85109947818597 0.0 0.0
-1204.0770558262052 -279.03345740022104 -739.9896732328059 144.18684666408208 0.0 0.0
-1129.3372111406802 -204.71976344961678 -665.6138047061501 144.4371680094521 0.0 0.0
-1074.9209189596404 -160.04444032450522 -615.9522054912437 140.3044749364357 0.0 0.0
-1025.0569458101436 -126.12498564133739 -573.8323100802108 135.24893716482103 0.0 0.0
-976.7582411979317 -99.16770404533786 -535.9555368808069 131.9021743932721 0.0 0.0
-928.9259831882728 -77.47948024696143 -500.95152061775764 131.52469296353468 0.0 0.0
-881.3417630962756 -60.4243680841863 -468.33771299683224 133.88092937068114 0.0 0.0
-832.8425812804106 -46.7586871126511 -436.77699462183193 137.6114237545548 0.0 0.0
-781.2340339344767 -34.30855158834703 -403.9017535375669 141.35353426003982 0.0 0.0
-725.2733831880926 -22.944722323083447 -368.50697080767713 144.21392874963203 0.0 0.0
-660.7895923849959 -10.966603858817638 -325.32721179613543 145.92169370793587 0.0 0.0
-582.2375278997705 1.8956332933414526 -266.35755381666655 147.90470822626258 0.0 0.0
-480.5181994864455 15.703392178046531 -187.59227022775246 156.6677647721424 0.0 0.0
-361.44324334482343 23.933752372696656 -114.7887303183767 170.5469203511378 0.0 0.0
-261.24768060762625 24.035549876638832 -73.27833750833138 174.6809745881382 0.0 0.0
-194.33933725190042 19.568448098932212 -52.78674599048671 176.50652807227175 0.0 0.0
-143.89448093643585 3.5323220849303594 -42.16457169360726 180.91388080800024 0.0 0.0
-93.05631390060901 -42.74515031055531 -40.739856044632006 174.44621430908728 0.0 0.0
-31.034009345076946 -135.64789642894982 -50.00457173220803 106.56012201994031 0.0 0.0
-32.18008804002528 -97.47089495790385 -38.89529489937874 -90.00508603871017 0.0 0.0
-103.41472550087343 -36.64120035110073 -42.016777755592244 -158.28461139894 0.0 0.0
-171.5003886472213 3.021050671696764 -50.5734143605273 -167.111767918378 0.0 0.0
-240.0812965088 18.319449773331794 -66.88737087968177 -160.48167417347847 0.0 0.0
-326.3083771389749 26.788684245013744 -93.90030872258444 -153.3105079112954 0.0 0.0
-438.7291211277533 26.538603033158044 -149.57752636269385 -139.21700915705304 0.0 0.0
-549.482788656494 15.543200798018802 -231.08015487163004 -126.24664726985449 0.0 0.0
-639.6106041857577 1.1553408960406415 -303.76254438520374 -123.94614706392608 0.0 0.0
-714.1498945494334 -13.622884449835354 -356.91206451482344 -125.05549333043321 0.0 0.0
-779.329593288289 -28.14202954100756 -399.4422279266726 -124.75989181897008 0.0 0.0
-839.3339595185352 -43.75744027918961 -438.3156793233098 -122.64408029430244 0.0 0.0
-895.4647319389464 -60.38731890188163 -475.30792594739455 -119.39781915728936 0.0 0.0
-948.4108383861078 -77.83267086360772 -510.9001833087955 -115.92587609831745 0.0 0.0
-1000.138632691773 -97.72753657447453 -546.9367153089725 -113.50514903657573 0.0 0.0
-1053.8665518842251 -123.4095889404611 -586.7792882737771 -113.58258391734687 0.0 0.0
-1111.9889415164212 -158.20825785387237 -633.3694745605093 -116.5108357630138 0.0 0.0
-1176.3871074473857 -203.95192969696535 -688.5511265135567 -120.89778155894145 0.0 0.0
-1250.4509220818447 -265.8533945128407 -756.548893614112 -123.39859680989883 0.0 0.0
-1335.1046234883938 -349.30593622536577 -840.5968437013819 -122.01983298668283 0.0 0.0
-1420.9302443081856 -456.9628062829504 -937.4689831585284 -120.68149401027901 0.0 0.0
-1420.9302443081992 -456.9628062830369 -937.4689831586502 120.68149401047884 0.0 0.0
-1335.1046234890446 -349.30593622608035 -840.5968437018589 122.01983298681338 0.0 0.0
-1250.4509220815487 -265.8533945127691 -756.548893613933 123.39859681013169 0.0 0.0
-1176.3871074461008 -203.95192969584116 -688.55112651272 120.89778155911218 0.0 0.0
-1111.9889415156729 -158.2082578531753 -633.3694745600537 116.51083576284725 0.0 0.0
-1053.8665518826836 -123.4095889388965 -586.7792882727656 113.58258391706022 0.0 0.0
-1000.1386326905797 -97.72753657334312 -546.936715308193 113.50514903639552 0.0 0.0
-948.4108383857362 -77.83267086329681 -510.9001833085265 115.92587609812469 0.0 0.0
-895.4647319375251 -60.38731890071118 -475.3079259464421 119.39781915734471 0.0 0.0
-839.3339595173911 -43.7574402781331 -438.3156793224465 122.64408029406187 0.0 0.0
-779.3295932880583 -28.14202954105947 -399.442227926524 124.75989181892342 0.0 0.0
-714.1498945480037 -13.622884448547005 -356.9120645139177 125.05549333025348 0.0 0.0
-639.6106041845812 1.1553408970715893 -303.7625443843581 123.94614706373252 0.0 0.0
-549.4827886561103 15.543200797936514 -231.08015487131408 126.24664726990963 0.0 0.0
-438.7291211274312 26.538603032979665 -149.5775263624488 139.2170091569295 0.0 0.0
-326.30837713900013 26.788684244499358 -93.90030872269702 153.3105079110779 0.0 0.0
-240.0812965085064 18.319449773367904 -66.88737087958822 160.48167417332263 0.0 0.0
-171.50038864718772 3.0210506713464595 -50.573414360626955 167.11176791831943 0.0 0.0
-103.41472550067061 -36.64120035102601 -42.01677775550897 158.28461139895282 0.0 0.0
-32.18008803999099 -97.47089495760322 -38.895294899278255 90.00508603877422 0.0 0.0
-33.03884141856962 -64.6688638250826 -29.312311573095663 -72.97830001532586 0.0 0.0
-112.71583415968615 -29.24254683246375 -42.58751429764497 -138.16892736037488 0.0 0.0
-197.42345199161804 2.3180654260903557 -58.52942886383779 -148.85520362912462 0.0 0.0
-283.1852988852198 16.75951571031068 -80.43944956727917 -140.14952319896395 0.0 0.0
-386.25514506930415 29.052162953554873 -115.32703013528297 -127.21206478689865 0.0 0.0
-500.98387775617425 26.45789828061968 -184.2952317243682 -107.92064633551155 0.0 0.0
-600.5294646844447 15.616849062497877 -265.9702900150611 -99.90340297269604 0.0 0.0
-683.3908338359252 0.3783488982903265 -331.1533310938124 -101.50677692119699 0.0 0.0
-756.3308545931624 -15.391937498753833 -380.5950129657617 -104.21844375861762 0.0 0.0
-824.1711282815472 -33.167921064610766 -425.05904935956863 -104.72409230584203 0.0 0.0
-888.4120228679451 -52.99092467329169 -467.8661856666011 -103.15551649498154 0.0 0.0
-949.1644822808546 -74.02605858248577 -509.2522322896372 -100.525071200774 0.0 0.0
-1006.7267071627657 -95.50563031930275 -549.1279722947659 -97.58388925292438 0.0 0.0
-1062.4553349180428 -118.62139665368693 -588.7491565092921 -95.05173700727536 0.0 0.0
-1121.216184767739 -147.9551550470511 -632.8605866933273 -94.39640157043279 0.0 0.0
-1188.877392955333 -190.079574593779 -687.7827246120145 -96.44702602750948 0.0 0.0
-1267.6407768748074 -248.78077704062335 -756.5486133338084 -99.95096442956007 0.0 0.0
-1356.3016233578696 -324.61338473504816 -838.8325358780419 -102.39298615221645 0.0 0.0
-1445.92619061625 -413.3624151757624 -928.0791088226048 -102.8620678210621 0.0 0.0
-1523.8426202415797 -512.1116595896912 -1016.5665945896093 -105.04185552969513 0.0 0.0
-1523.8426202408978 -512.1116595891394 -1016.5665945892895 105.04185552997609 0.0 0.0
-1445.9261906158522 -413.3624151753578 -928.0791088225558 102.86206782095317 0.0 0.0
-1356.301623355961 -324.6133847331556 -838.8325358768246 102.39298615217822 0.0 0.0
-1267.6407768743957 -248.78077704036954 -756.5486133334391 99.95096442974588 0.0 0.0
-1188.8773929551983 -190.07957459380424 -687.7827246118383 96.44702602760145 0.0 0.0
-1121.216184767051 -147.95515504662822 -632.860586692761 94.39640157075851 0.0 0.0
-1062.4553349173405 -118.62139665314257 -588.7491565087398 95.05173700725304 0.0 0.0
-1006.7267071629893 -95.50563031980987 -549.1279722948368 97.58388925310436 0.0 0.0
-949.1644822810191 -74.02605858296256 -509.2522322896615 100.52507120093571 0.0 0.0
-888.4120228673715 -52.990924673028516 -467.8661856662345 103.15551649503568 0.0 0.0
-824.1711282813301 -33.16792106466527 -425.0590493593829 104.72409230581769 0.0 0.0
-756.3308545932682 -15.391937499244527 -380.595012965798 104.21844375869259 0.0 0.0
-683.3908338355857 0.37834889834503826 -331.1533310935444 101.5067769211069 0.0 0.0
-600.52946468427 15.61684906217183 -265.9702900148677 99.9034029728722 0.0 0.0
-500.9838777558823 26.457898280294902 -184.2952317241612 107.92064633569538 0.0 0.0
-386.25514506924424 29.052162952722945 -115.32703013546143 127.21206478716805 0.0 0.0
-283.185298884841 16.75951571029064 -80.43944956718 140.14952319898777 0.0 0.0
-197.42345199145018 2.3180654261580402 -58.52942886376798 148.8552036290685 0.0 0.0
-112.71583415951216 -29.24254683232817 -42.58751429755209 138.16892736021686 0.0 0.0
-33.038841418511836 -64.66886382501895 -29.312311573059233 72.9783000153643 0.0 0.0
-33.63163022287366 -37.766158467567024 -21.419336607132205 -55.443507754647186 0.0 0.0
-120.94757332327077 -21.112194211032342 -42.61793026029093 -114.52942393747057 0.0 0.0
-221.89847785732633 1.303763056775483 -66.17765395607613 -126.02585489141532 0.0 0.0
-325.5050239719412 15.872694581918685 -93.61816858738052 -116.14863901155454 0.0 0.0
-441.30929994581436 29.474135671553665 -138.65699011256157 -97.60674475961756 0.0 0.0
-549.2708530300104 25.778550620189634 -216.25025391598652 -79.30753515846925 0.0 0.0
-638.3275384533842 14.8901214438782 -293.09002943751295 -76.09728436642945 0.0 0.0
-717.43148622892 0.8072750247165601 -350.8667947790451 -79.68609950949954 0.0 0.0
-791.3771225169374 -16.829135791103027 -399.7889855655641 -83.00990631425023 0.0 0.0
-862.4559157514266 -38.16959086608071 -447.1435258669012 -83.91908522909597 0.0 0.0
-930.7561698748124 -61.93665149106792 -493.79802799596564 -82.8841955713007 0.0 0.0
-996.3168272803789 -87.40863830984054 -539.72963979929 -80.94282216651393 0.0 0.0
-1058.9211443000734 -113.59977181602218 -584.4347179269253 -78.65300339888421 0.0 0.0
-1119.7467102046699 -140.95377732941546 -628.7190803782588 -76.27535272198354 0.0 0.0
-1182.7822606226384 -173.4495687754819 -676.5253462867008 -74.64035092588298 0.0 0.0
-1256.585443085638 -220.71340319333098 -737.0001816569892 -75.13412098370476 0.0 0.0
-1347.700609020189 -290.37777061443137 -817.3766507900115 -78.04411242141272 0.0 0.0
-1448.6940223566307 -377.9902221268203 -911.7398944928229 -81.77614705088692 0.0 0.0
-1546.2332316689672 -474.83548441559816 -1009.0200574349126 -85.67126619143406 0.0 0.0
-1622.3228211575718 -571.0989505989602 -1095.355471935914 -92.54481455181525 0.0 0.0
-1622.3228211586045 -571.098950600114 -1095.3554719365925 92.54481455211429 0.0 0.0
-1546.2332316697357 -474.8354844165215 -1009.020057435242 85.67126619172154 0.0 0.0
-1448.6940223557535 -377.9902221260208 -911.7398944919928 81.77614705087817 0.0 0.0
-1347.700609020313 -290.37777061467943 -817.3766507901496 78.04411242151008 0.0 0.0
-1256.5854430848387 -220.71340319263143 -737.0001816563104 75.13412098359471 0.0 0.0
-1182.782260622369 -173.44956877539198 -676.5253462864229 74.64035092601937 0.0 0.0
-1119.7467102033688 -140.95377732828598 -628.719080377328 76.2753527219643 0.0 0.0
-1058.9211442995975 -113.59977181581759 -584.4347179265803 78.65300339908941 0.0 0.0
-996.3168272798023 -87.4086383095171 -539.7296397989263 80.94282216656394 0.0 0.0
-930.7561698743652 -61.93665149088027 -493.79802799568307 82.8841955713236 0.0 0.0
-862.4559157510456 -38.16959086598381 -447.1435258666355 83.91908522906155 0.0 0.0
-791.3771225173241 -16.829135791873668 -399.78898556589206 83.00990631441383 0.0 0.0
-717.4314862281285 0.8072750251811698 -350.86679477856256 79.68609950955663 0.0 0.0
-638.3275384530104 14.890121443910587 -293.09002943719594 76.09728436633284 0.0 0.0
-549.2708530299265 25.77855061992785 -216.25025391580755 79.30753515827288 0.0 0.0
-441.30929994548933 29.474135671438837 -138.65699011240392 97.60674475962948 0.0 0.0
-325.505023971454 15.87269458203204 -93.6181685872179 116.14863901160699 0.0 0.0
-221.89847785723646 1.303763056761011 -66.1776539560544 126.02585489143738 0.0 0.0
-120.94757332302311 -21.112194210938398 -42.617930260188444 114.52942393754316 0.0 0.0
-33.63163022278299 -37.76615846754761 -21.419336607099176 55.44350775454898 0.0 0.0
-33.37220633268544 -17.24618178811728 -15.185516436240814 -37.51923688092808 0.0 0.0
-127.36422593545143 -12.766479720687895 -42.03921169684179 -87.61341592351278 0.0 0.0
-245.52970758027925 -0.10653884319411944 -73.690873927042 -98.61123715966428 0.0 0.0
-367.87182884291354 16.428760314759174 -106.73750311499754 -88.2347893024577 0.0 0.0
-488.53771620367525 28.229644841387017 -163.49987539350042 -66.99930279256908 0.0 0.0
-586.7786545596634 24.211975208783066 -244.87923784995274 -54.082567188965896 0.0 0.0
-668.6166660734796 14.723477939593849 -313.8713967715523 -53.933256450284965 0.0 0.0
-745.1407214392952 1.6932923338521277 -366.0037329278705 -57.815140991044295 0.0 0.0
-820.8430939106627 -18.322837575500927 -415.8834594876992 -61.1813660215939 0.0 0.0
-895.2642011679827 -42.961640203723306 -466.2703099198295 -62.35805437911529 0.0 0.0
-967.809227470037 -70.62938312383068 -516.8938574024775 -61.824711621084795 0.0 0.0
-1038.074318490385 -100.45730003663252 -567.2968502303142 -60.549454691842605 0.0 0.0
-1106.4564486710533 -131.77212802976823 -617.4050542638307 -59.02432757561699 0.0 0.0
-1173.3506915277221 -164.92295237256207 -667.6067724644744 -57.042658139968715 0.0 0.0
-1241.222853881592 -201.7341100080979 -720.0128675821805 -54.715990734785834 0.0 0.0
-1317.260172157452 -250.10642796882559 -782.1442987857668 -53.395570160724354 0.0 0.0
-1412.036034013965 -322.47862158230066 -865.6199992321344 -55.31118142168202 0.0 0.0
-1528.876855446464 -425.09513603138066 -975.3971312299116 -60.8701167021665 0.0 0.0
-1639.7127663738625 -534.5899059612453 -1085.6780708977628 -69.22092432892907 0.0 0.0
-1724.7459129820954 -638.5231484345092 -1180.3205323015902 -81.75719086368532 0.0 0.0
-1724.7459129818671 -638.5231484342922 -1180.320532301452 81.75719086368677 0.0 0.0
-1639.7127663741655 -534.5899059615908 -1085.6780708982003 69.22092432898445 0.0 0.0
-1528.8768554463707 -425.0951360313653 -975.3971312300878 60.870116702198196 0.0 0.0
-1412.0360340123375 -322.47862158078215 -865.619999231198 55.31118142173462 0.0 0.0
-1317.2601721565725 -250.10642796803234 -782.1442987851452 53.39557016051732 0.0 0.0
-1241.222853881167 -201.73411000785612 -720.0128675818296 54.715990734940284 0.0 0.0
-1173.3506915275432 -164.9229523725569 -667.6067724643003 57.04265813992177 0.0 0.0
-1106.4564486697438 -131.7721280286888 -617.4050542629899 59.024327575715766 0.0 0.0
-1038.0743184904154 -100.45730003695505 -567.2968502303275 60.54945469202718 0.0 0.0
-967.8092274698103 -70.62938312388742 -516.8938574023348 61.82471162116211 0.0 0.0
-895.2642011667584 -42.9616402027621 -466.2703099190092 62.35805437910509 0.0 0.0
-820.8430939101439 -18.32283757528991 -415.8834594873075 61.18136602159429 0.0 0.0
-745.1407214393986 1.6932923334320975 -366.00373292794893 57.8151409909595 0.0 0.0
-668.6166660735619 14.723477939211762 -313.8713967715513 53.93325645015169 0.0 0.0
-586.7786545592079 24.211975208867365 -244.87923784954856 54.08256718896807 0.0 0.0
-488.5377162031791 28.22964484146998 -163.49987539318448 66.99930279262398 0.0 0.0
-367.87182884271806 16.42876031435282 -106.73750311506078 88.23478930233937 0.0 0.0
-245.52970758039936 -0.1065388437091972 -73.69087392723256 98.6112371595191 0.0 0.0
-127.36422593519842 -12.766479720738072 -42.03921169678095 87.61341592329927 0.0 0.0
-33.372206332636196 -17.24618178816252 -15.185516436239613 37.519236880834136 0.0 0.0
-30.929605362204857 -3.516428047143015 -10.33381002280436 -19.720296886341146 0.0 0.0
-130.25595162754817 -4.874096041748061 -40.53901430078887 -57.37754989790874 0.0 0.0
-268.8174792567777 -1.4891724801240027 -81.0919955210705 -66.13945999724466 0.0 0.0
-410.923033610514 17.96955153974654 -120.90623671254852 -56.58029260874079 0.0 0.0
-526.9477172350158 26.571353466796097 -188.4582017518267 -38.44238143181437 0.0 0.0
-614.6711352432228 21.643038616116684 -269.2026048153177 -31.30263175776033 0.0 0.0
-692.3053563022198 15.699196321756304 -328.8294800334682 -32.50986940753738 0.0 0.0
-768.1044729131858 2.039257127631373 -378.4308042868882 -35.833338581047435 0.0 0.0
-845.2770761643887 -19.601710511543985 -429.18690158149184 -38.72280741277808 0.0 0.0
-923.2450986336469 -47.49437035956623 -482.784452195271 -39.99776108169582 0.0 0.0
-1000.1804242910324 -79.09527174982452 -537.4968413041985 -39.964250775390035 0.0 0.0
-1075.5314584413463 -113.17211072639884 -592.517082800589 -39.35146659283862 0.0 0.0
-1149.652581210612 -149.98353874507023 -648.1991355017522 -38.461545432670306 0.0 0.0
-1223.6279614291211 -189.6407271737134 -705.1653569222309 -37.141436811134795 0.0 0.0
-1298.2635144394999 -232.87719611551694 -764.1888486110753 -35.02473953567567 0.0 0.0
-1375.5179798265858 -282.19957767169194 -827.4729705409088 -32.44576199350688 0.0 0.0
-1463.7338152216075 -347.31097131948684 -904.0149727269594 -32.13653662882161 0.0 0.0
-1578.047433362201 -445.9948344714073 -1010.4013908387888 -38.27798122497993 0.0 0.0
-1735.3781205466842 -599.88921112226 -1166.158619397555 -51.893552203021876 0.0 0.0
-1840.353881961387 -721.6472615476737 -1279.717346034417 -71.64808804675405 0.0 0.0
-1840.3538819607215 -721.6472615469795 -1279.7173460339761 71.648088046678 0.0 0.0
-1735.3781205461923 -599.8892111218299 -1166.158619397159 51.89355220310358 0.0 0.0
-1578.0474333604252 -445.99483446972044 -1010.4013908373374 38.27798122511457 0.0 0.0
-1463.7338152213852 -347.3109713193863 -904.0149727265735 32.136536628837106 0.0 0.0
-1375.5179798270185 -282.1995776722452 -827.4729705410994 32.44576199346249 0.0 0.0
-1298.2635144394208 -232.87719611560874 -764.1888486110115 35.02473953575228 0.0 0.0
-1223.6279614278412 -189.64072717260044 -705.1653569212791 37.14143681107023 0.0 0.0
-1149.6525812087436 -149.98353874339836 -648.1991355004023 38.461545432621975 0.0 0.0
-1075.5314584417897 -113.17211072707455 -592.5170828007765 39.35146659273368 0.0 0.0
-1000.1804242910468 -79.09527175012104 -537.4968413041594 39.964250775446246 0.0 0.0
-923.2450986336205 -47.49437035980351 -482.7844521952441 39.99776108150877 0.0 0.0
-845.2770761645577 -19.601710511995577 -429.1869015815519 38.72280741268247 0.0 0.0
-768.1044729125048 2.0392571280460174 -378.43080428641053 35.83333858084369 0.0 0.0
-692.3053563019953 15.699196321672837 -328.82948003327994 32.50986940740539 0.0 0.0
-614.6711352424163 21.643038616596506 -269.202604814725 31.30263175770541 0.0 0.0
-526.9477172348054 26.571353466592466 -188.4582017516446 38.442381431887945 0.0 0.0
-410.9230336101328 17.969551539625442 -120.90623671245292 56.58029260867377 0.0 0.0
-268.81747925645556 -1.4891724797175456 -81.09199552085192 66.13945999740267 0.0 0.0
-130.2559516273711 -4.8740960417209624 -40.539014300727615 57.377549897844695 0.0 0.0
-30.929605362093636 -3.5164280471254683 -10.333810022765729 19.720296886281364 0.0 0.0
-23.741879990066057 3.1247112906734467 -6.185150609817783 -3.3492733548075195 0.0 0.0
-126.36857564198984 1.6581246338806839 -37.41313530243274 -23.2050129560171 0.0 0.0
-293.30825680420253 -1.9153318509374895 -88.56707659654198 -27.56708961323321 0.0 0.0
-450.57352176579246 19.992682975635866 -136.93511919330433 -22.526902657125245 0.0 0.0
-558.6050692311683 24.353875039792435 -213.12885672188912 -12.96334928735533 0.0 0.0
-638.674038909479 20.320862408651067 -288.87398179111733 -10.521658189515094 0.0 0.0
-711.7910856904291 15.924816616584394 -340.8178868638426 -11.507287641816344 0.0 0.0
-786.6325578794191 2.344412293827446 -388.32666458182666 -13.687269136271658 0.0 0.0
-865.3943567452739 -20.847739728316952 -440.23648922540764 -15.654649508811016 0.0 0.0
-946.8243122745364 -51.67162199508118 -496.878648260521 -16.825942979440367 0.0 0.0
-1028.4376010838023 -87.15876741914829 -555.8062728931266 -17.27802080359072 0.0 0.0
-1108.9684635732938 -126.07413890364825 -615.7991812682112 -17.265147179044483 0.0 0.0
-1189.0641771594198 -167.98934317457918 -676.9861043135301 -17.015222731867638 0.0 0.0
-1269.9669901989616 -213.92570317211062 -740.5261228437046 -16.405404962176426 0.0 0.0
-1352.2587219935717 -264.6163239491914 -807.1007154252172 -15.17277547883085 0.0 0.0
-1434.9726689646027 -319.4853704379 -875.9447785038404 -13.09457234845244 0.0 0.0
-1516.84679149186 -378.17159375696485 -946.2117045435044 -10.913120434197051 0.0 0.0
-1605.870240971615 -450.3387617877182 -1026.657575612118 -13.391184499002298 0.0 0.0
-1735.9871097906516 -573.4839291385667 -1153.0753777916395 -29.405261616770385 0.0 0.0
-2046.5361634591509 -895.5210447612856 -1469.7501692129738 -59.67976092599414 0.0 0.0
-2046.5361634568762 -895.5210447589936 -1469.7501692114254 59.679760925949104 0.0 0.0
-1735.9871097883904 -573.4839291363332 -1153.075377789893 29.40526161665293 0.0 0.0
-1605.8702409715866 -450.33876178778064 -1026.657575612091 13.39118449901978 0.0 0.0
-1516.8467914907574 -378.17159375595963 -946.2117045427176 10.913120434128029 0.0 0.0
-1434.9726689615086 -319.4853704349445 -875.9447785015799 13.09457234854905 0.0 0.0
-1352.2587219916943 -264.6163239474678 -807.1007154237545 15.172775478829983 0.0 0.0
-1269.9669901991638 -213.9257031725265 -740.5261228437421 16.405404962258643 0.0 0.0
-1189.0641771590113 -167.98934317436743 -676.9861043132446 17.015222731745105 0.0 0.0
-1108.9684635736528 -126.07413890425542 -615.7991812684286 17.26514717905234 0.0 0.0
-1028.437601083486 -87.1587674190857 -555.8062728928955 17.27802080343584 0.0 0.0
-946.8243122741529 -51.67162199495732 -496.87864826027385 16.8259429792858 0.0 0.0
-865.3943567445561 -20.847739727899366 -440.23648922496204 15.654649508843047 0.0 0.0
-786.632557878155 2.3444122948104393 -388.3266645810353 13.687269136050261 0.0 0.0
-711.7910856897711 15.924816616944575 -340.81788686341724 11.507287641792795 0.0 0.0
-638.6740389089844 20.320862408787512 -288.8739817907634 10.521658189601517 0.0 0.0
-558.6050692306724 24.35387503998533 -213.12885672149812 12.963349287322751 0.0 0.0
-450.5735217652631 19.992682975800662 -136.9351191930392 22.526902656967042 0.0 0.0
-293.30825680402336 -1.915331851055921 -88.56707659652376 27.56708961319905 0.0 0.0
-126.36857564193971 1.658124633804558 -37.413135302440544 23.205012955906078 0.0 0.0
-23.741879989989062 3.1247112907232193 -6.185150609779752 3.3492733549441622 0.0 0.0
SCALARS Strain float 6
LOOKUP_TABLE default
0.0135511026523399 -0.01462246161089964 0.0 -0.008170370773611269 0.0 0.0
0.0027840417325988367 -0.0019185111743217353 0.0 0.0013867649933825832 0.0 0.0
0.0019177304084897866 -0.0007970210677106238 0.0 -3.360927743439879e-05 0.0 0.0
0.002562985077503393 -0.0013257060398543796 0.0 -0.00025835441171317974 0.0 0.0
0.004351097876010318 -0.0028439289139152724 0.0 -0.00034846949767469715 0.0 0.0
0.00801836118303989 -0.006210458344143799 0.0 -0.0005654636016614312 0.0 0.0
0.014035488897303272 -0.011964710987483862 0.0 -0.0009402159289402245 0.0 0.0
0.022820056819375007 -0.02047565801005069 0.0 -0.0015327176064107717 0.0 0.0
0.03457216053062448 -0.03192063055305372 0.0 -0.00236112137033212 0.0 0.0
0.04922471813235962 -0.04623596492980919 0.0 -0.0033479501559095515 0.0 0.0
0.06653347497511725 -0.06319171086319608 0.0 -0.0043690389311736855 0.0 0.0
0.08619517649406251 -0.08249296147350638 0.0 -0.005358405137280919 0.0 0.0
0.10789283338690127 -0.1038246087052106 0.0 -0.00632110563291588 0.0 0.0
0.13125988519991177 -0.126815791520551 0.0 -0.007237389047579923 0.0 0.0
0.15576550293402247 -0.15093297335083466 0.0 -0.008043405032884865 0.0 0.0
0.1805932656703544 -0.1753647641403555 0.0 -0.00856525268028252 0.0 0.0
0.20460083248196706 -0.19898243268648397 0.0 -0.008537140088268225 0.0 0.0
0.22636560695785804 -0.22037447726757353 0.0 -0.007780563195722623 0.0 0.0
0.24420236846714088 -0.23784720650900404 0.0 -0.006886059034638015 0.0 0.0
0.2554815868703272 -0.24850526427484354 0.0 -0.00884501689576922 0.0 0.0
0.25548158687031003 -0.24850526427482134 0.0 0.008845016895780433 0.0 0.0
0.24420236846708743 -0.2378472065089472 0.0 0.0068860590346671025 0.0 0.0
0.22636560695776792 -0.2203744772674856 0.0 0.007780563195742385 0.0 0.0
0.20460083248185706 -0.19898243268637916 0.0 0.00853714008827633 0.0 0.0
0.1805932656702312 -0.17536476414023472 0.0 0.00856525268027264 0.0 0.0
0.1557655029338929 -0.15093297335070321 0.0 0.0080434050328817 0.0 0.0
0.13125988519978432 -0.12681579152042222 0.0 0.0072373890475812 0.0 0.0
0.10789283338677669 -0.10382460870508314 0.0 0.006321105632911772 0.0 0.0
0.08619517649394426 -0.08249296147338914 0.0 0.005358405137271038 0.0 0.0
0.06653347497501105 -0.06319171086309572 0.0 0.004369038931166358 0.0 0.0
0.049224718132272194 -0.04623596492972393 0.0 0.0033479501558965064 0.0 0.0
0.03457216053055501 -0.031920630552984885 0.0 0.0023611213703282896 0.0 0.0
0.022820056819325307 -0.020475658010003617 0.0 0.0015327176064066084 0.0 0.0
0.014035488897269244 -0.011964710987451888 0.0 0.0009402159289403356 0.0 0.0
0.008018361183018408 -0.006210458344122927 0.0 0.0005654636016587111 0.0 0.0
0.00435109787600102 -0.0028439289139057244 0.0 0.0003484694976755298 0.0 0.0
0.00256298507750069 -0.0013257060398518261 0.0 0.0002583544117133463 0.0 0.0
0.0019177304084893598 -0.0007970210677115119 0.0 3.360927743389919e-05 0.0 0.0
0.0027840417325964983 -0.0019185111743215688 0.0 -0.0013867649933822501 0.0 0.0
0.01355110265232845 -0.014622461610884614 0.0 0.008170370773572688 0.0 0.0
0.0097728874750957 -0.011220642224127553 0.0 -0.010009225998827365 0.0 0.0
0.0014809834117125928 -0.0009582349583383554 0.0 0.00012046075694038816 0.0 0.0
0.0016273284285243522 -0.0005670756547022648 0.0 -0.00012419337767533012 0.0 0.0
0.0022169896314789203 -0.0010815590175532463 0.0 -0.0005284925881229308 0.0 0.0
0.003651456382701597 -0.002244640642912854 0.0 -0.0007661403315511461 0.0 0.0
0.006807177376979362 -0.005083431269607974 0.0 -0.001294134894007315 0.0 0.0
0.012183797890738174 -0.010175173334462162 0.0 -0.0022204289298515256 0.0 0.0
0.020133209833798058 -0.017845106100211616 0.0 -0.003597901167195827 0.0 0.0
0.0307783591489832 -0.0281915475272001 0.0 -0.005425273518960105 0.0 0.0
0.044000482963948116 -0.04109557129075636 0.0 -0.007524242460186903 0.0 0.0
0.05955193075542829 -0.056320287845578854 0.0 -0.009662657828584942 0.0 0.0
0.07717413884321572 -0.07361158997289596 0.0 -0.011714063076367742 0.0 0.0
0.09662088863718224 -0.0927217831954148 0.0 -0.013725349579997659 0.0 0.0
0.1175874192756676 -0.1133442958155424 0.0 -0.015681747640487465 0.0 0.0
0.13961963824031048 -0.13502438915441672 0.0 -0.017422298247044443 0.0 0.0
0.1620293799172028 -0.15707619129820394 0.0 -0.018612426819188066 0.0 0.0
0.18383166489760558 -0.1785184710698129 0.0 -0.01876776889151599 0.0 0.0
0.20370047659516288 -0.1980226684993971 0.0 -0.017665355317385334 0.0 0.0
0.21977888112496524 -0.21367959153465943 0.0 -0.015823020366261265 0.0 0.0
0.22946814261837387 -0.22304631690121646 0.0 -0.01308522977796045 0.0 0.0
0.22946814261835682 -0.2230463169012058 0.0 0.013085229777989316 0.0 0.0
0.21977888112491706 -0.2136795915346097 0.0 0.015823020366309448 0.0 0.0
0.20370047659508309 -0.19802266849931538 0.0 0.017665355317424858 0.0 0.0
0.18383166489750974 -0.17851847106971697 0.0 0.018767768891531755 0.0 0.0
0.16202937991709332 -0.15707619129810446 0.0 0.01861242681917763 0.0 0.0
0.13961963824019447 -0.13502438915431547 0.0 0.01742229824703756 0.0 0.0
0.11758741927555294 -0.11334429581543626 0.0 0.015681747640485133 0.0 0.0
0.09662088863707113 -0.09272178319530511 0.0 0.013725349579989943 0.0 0.0
0.07717413884311053 -0.07361158997279249 0.0 0.011714063076352033 0.0 0.0
0.059551930755333216 -0.05632028784548648 0.0 0.009662657828574228 0.0 0.0
0.04400048296386966 -0.041095571290678645 0.0 0.007524242460167141 0.0 0.0
0.030778359148920742 -0.02819154752713615 0.0 0.005425273518950391 0.0 0.0
0.020133209833752885 -0.017845106100161878 0.0 0.0035979011671861683 0.0 0.0
0.012183797890707115 -0.010175173334429743 0.0 0.002220428929845253 0.0 0.0
0.006807177376961904 -0.0050834312695946515 0.0 0.0012941348940032071 0.0 0.0
0.003651456382694651 -0.0022446406429057486 0.0 0.0007661403315500914 0.0 0.0
0.0022169896314764848 -0.001081559017551137 0.0 0.000528492588121543 0.0 0.0
0.001627328428524366 -0.0005670756547008216 0.0 0.00012419337767466399 0.0 0.0
0.001480983411711989 -0.0009582349583376337 0.0 -0.00012046075694199798 0.0 0.0
0.009772887475081204 -0.011220642224111413 0.0 0.010009225998797555 0.0 0.0
0.0073186312107390294 -0.008954518433254677 0.0 -0.009338211198585522 0.0 0.0
0.0008612012648626446 -0.0006305860405787511 0.0 -0.0006192641143501487 0.0 0.0
0.001299159297169332 -0.00041029467554587473 0.0 -0.0004476225846042903 0.0 0.0
0.001893944365557329 -0.0008584977456440601 0.0 -0.0007741040257213672 0.0 0.0
0.0030278362975030976 -0.0017384490121929996 0.0 -0.0011054849929853505 0.0 0.0
0.005647350178692279 -0.004026757521414792 0.0 -0.001827835249659182 0.0 0.0
0.01034754429859569 -0.008412933155476754 0.0 -0.0031684165754982674 0.0 0.0
0.01741272019403295 -0.015194778400343889 0.0 -0.005177920472643371 0.0 0.0
0.02690707153215549 -0.02439811759224586 0.0 -0.007783792730937156 0.0 0.0
0.03867018445056132 -0.0358632009770492 0.0 -0.010733684575235658 0.0 0.0
0.052454510831526774 -0.04934653069465167 0.0 -0.013738675677164747 0.0 0.0
0.06803454107121634 -0.064623580151419 0.0 -0.01663773794508855 0.0 0.0
0.08521323666936852 -0.08149587472490216 0.0 -0.01946141101948695 0.0 0.0
0.10375665994792688 -0.09972865326714242 0.0 -0.022220958285644854 0.0 0.0
0.12330694870653425 -0.11896434924364296 0.0 -0.024721205351737385 0.0 0.0
0.1433117704246692 -0.13864849192652517 0.0 -0.02650810752923971 0.0 0.0
0.16293657916064003 -0.1579407314267227 0.0 -0.027009434750235872 0.0 0.0
0.1809258988882575 -0.17556945424088877 0.0 -0.025842121266098528 0.0 0.0
0.19546699038798432 -0.18975768897691925 0.0 -0.022527630588320524 0.0 0.0
0.2045208269430818 -0.19855275722493815 0.0 -0.015990018869529776 0.0 0.0
0.2045208269430658 -0.1985527572249266 0.0 0.01599001886957785 0.0 0.0
0.1954669903879407 -0.18975768897687662 0.0 0.022527630588388692 0.0 0.0
0.18092589888818797 -0.17556945424082482 0.0 0.025842121266147933 0.0 0.0
0.16293657916055526 -0.15794073142665255 0.0 0.0270094347502583 0.0 0.0
0.14331177042457377 -0.13864849192644257 0.0 0.02650810752923083 0.0 0.0
0.12330694870643127 -0.11896434924354438 0.0 0.024721205351726283 0.0 0.0
0.10375665994782496 -0.09972865326704827 0.0 0.022220958285639858 0.0 0.0
0.08521323666927094 -0.08149587472480713 0.0 0.01946141101947818 0.0 0.0
0.06803454107112356 -0.06462358015132263 0.0 0.01663773794506651 0.0 0.0
0.052454510831442924 -0.04934653069456818 0.0 0.013738675677147372 0.0 0.0
0.03867018445049175 -0.03586320097698659 0.0 0.010733684575210956 0.0 0.0
0.026907071532099924 -0.02439811759219701 0.0 0.007783792730921668 0.0 0.0
0.017412720193993092 -0.015194778400306586 0.0 0.005177920472629882 0.0 0.0
0.010347544298568045 -0.00841293315545344 0.0 0.0031684165754877203 0.0 0.0
0.005647350178678734 -0.004026757521403468 0.0 0.0018278352496536865 0.0 0.0
0.0030278362974976436 -0.001738449012190335 0.0 0.0011054849929810762 0.0 0.0
0.0018939443655559551 -0.0008584977456427278 0.0 0.00077410402571787 0.0 0.0
0.0012991592971696164 -0.00041029467554543064 0.0 0.000447622584602847 0.0 0.0
0.0008612012648623324 -0.0006305860405774744 0.0 0.000619264114346596 0.0 0.0
0.007318631210725124 -0.008954518433239519 0.0 0.009338211198560542 0.0 0.0
0.0055804807895326325 -0.007240207158443979 0.0 -0.007966087202772476 0.0 0.0
0.0005363345083848198 -0.00046906797881363094 0.0 -0.0012324422704704796 0.0 0.0
0.0010053877334666173 -0.0002989767722305636 0.0 -0.0008896123130534561 0.0 0.0
0.0015897535242023059 -0.0006729926337263326 0.0 -0.001047820465768845 0.0 0.0
0.002478020138004619 -0.0013259033376717966 0.0 -0.001395665271452462 0.0 0.0
0.004575557189103949 -0.003081179325886252 0.0 -0.0021941740257283016 0.0 0.0
0.0085454873401824 -0.006711703578281547 0.0 -0.003794661450451209 0.0 0.0
0.014692691990212212 -0.01255843480045149 0.0 -0.006266818873579216 0.0 0.0
0.022999688059184592 -0.020584539598891283 0.0 -0.009428128974556693 0.0 0.0
0.033280032014565405 -0.030586049569445883 0.0 -0.012983615935996617 0.0 0.0
0.04528426888817129 -0.04231411807805774 0.0 -0.016600952166171357 0.0 0.0
0.05881367082274269 -0.05556810592050532 0.0 -0.020115504400310347 0.0 0.0
0.07371753857007683 -0.0701960819962637 0.0 -0.02355313872358966 0.0 0.0
0.08982462764857654 -0.08602546361662888 0.0 -0.026876413028526502 0.0 0.0
0.10687238015528837 -0.10279617670569152 0.0 -0.029901158523294225 0.0 0.0
0.12444926218698232 -0.12009036205788082 0.0 -0.032214829834240066 0.0 0.0
0.14187426986033572 -0.13721186976381805 0.0 -0.033170727856268845 0.0 0.0
0.15803794500859897 -0.15305082747934495 0.0 -0.03200173008464857 0.0 0.0
0.17137468791214483 -0.16607560686756617 0.0 -0.027537922702357998 0.0 0.0
0.18017383499821457 -0.17464217466225218 0.0 -0.01833342266583715 0.0 0.0
0.18017383499820058 -0.1746421746622424 0.0 0.018333422665898547 0.0 0.0
0.17137468791210497 -0.1660756068675271 0.0 0.027537922702434048 0.0 0.0
0.15803794500853952 -0.15305082747927656 0.0 0.032001730084704416 0.0 0.0
0.14187426986026153 -0.13721186976373456 0.0 0.0331707278562976 0.0 0.0
0.12444926218690017 -0.12009036205780088 0.0 0.03221482983423396 0.0 0.0
0.10687238015519795 -0.10279617670560626 0.0 0.029901158523282012 0.0 0.0
0.08982462764848836 -0.08602546361654273 0.0 0.02687641302851551 0.0 0.0
0.07371753856999208 -0.07019608199618688 0.0 0.023553138723578337 0.0 0.0
0.0588136708226622 -0.05556810592043249 0.0 0.020115504400284756 0.0 0.0
0.045284268888099444 -0.04231411807798802 0.0 0.01660095216614732 0.0 0.0
0.03328003201450441 -0.030586049569388596 0.0 0.012983615935968862 0.0 0.0
0.02299968805913638 -0.02058453959884421 0.0 0.009428128974538819 0.0 0.0
0.014692691990177476 -0.012558434800413742 0.0 0.00626681887356173 0.0 0.0
0.008545487340159197 -0.006711703578260009 0.0 0.003794661450439274 0.0 0.0
0.004575557189093027 -0.0030811793258751496 0.0 0.0021941740257225284 0.0 0.0
0.002478020138000636 -0.0013259033376671336 0.0 0.0013956652714510742 0.0 0.0
0.001589753524201598 -0.0006729926337271097 0.0 0.0010478204657692336 0.0 0.0
0.001005387733466756 -0.0002989767722304526 0.0 0.0008896123130519018 0.0 0.0
0.0005363345083844728 -0.0004690679788124652 0.0 0.0012324422704690918 0.0 0.0
0.005580480789520614 -0.007240207158430214 0.0 0.007966087202752214 0.0 0.0
0.004242408544951948 -0.005837500973238374 0.0 -0.006540747395376634 0.0 0.0
0.0003569364834158373 -0.00037445514887080034 0.0 -0.0017102106785802929 0.0 0.0
0.0007624651565217716 -0.00022182924204250387 0.0 -0.0013367394986099623 0.0 0.0
0.00130390629980065 -0.0005210571015843435 0.0 -0.0013551498864565192 0.0 0.0
0.001997604582263654 -0.0009989797869691674 0.0 -0.001658912786100919 0.0 0.0
0.003610685897680835 -0.0022713385659911545 0.0 -0.0024544959960721147 0.0 0.0
0.006824310602665806 -0.005118272573170657 0.0 -0.004121082205016502 0.0 0.0
0.012001289180351482 -0.009973450705039522 0.0 -0.006824433002143082 0.0 0.0
0.019096526909821943 -0.01679234549135611 0.0 -0.010353034469262834 0.0 0.0
0.027873723093194497 -0.025309695616070105 0.0 -0.014274295350409028 0.0 0.0
0.03808581893658308 -0.0352692999823363 0.0 -0.018261516449604664 0.0 0.0
0.049555386619170694 -0.046491612083215283 0.0 -0.022145361083381887 0.0 0.0
0.06217670829718515 -0.058867520853687516 0.0 -0.025951128723275096 0.0 0.0
0.07584178260909592 -0.07228802984153226 0.0 -0.029644519412491688 0.0 0.0
0.0903695099809319 -0.08657390446772517 0.0 -0.03300889666590556 0.0 0.0
0.10546726113625285 -0.10142684516254974 0.0 -0.03567491817898505 0.0 0.0
0.12063734898956321 -0.11633610511091774 0.0 -0.0370544865376472 0.0 0.0
0.1350297909511131 -0.13044506801457256 0.0 -0.03610736801517789 0.0 0.0
0.1473670188574215 -0.1425008967764283 0.0 -0.03111370167712635 0.0 0.0
0.15615453754879885 -0.15106127991993112 0.0 -0.02029696215582566 0.0 0.0
0.15615453754878628 -0.15106127991992224 0.0 0.020296962155893272 0.0 0.0
0.14736701885738648 -0.14250089677639455 0.0 0.03111370167721217 0.0 0.0
0.13502979095106202 -0.13044506801452105 0.0 0.03610736801524295 0.0 0.0
0.12063734898950021 -0.11633610511085113 0.0 0.03705448653767762 0.0 0.0
0.10546726113618216 -0.1014268451624778 0.0 0.0356749181789755 0.0 0.0
0.0903695099808543 -0.08657390446765323 0.0 0.033008896665894794 0.0 0.0
0.07584178260902125 -0.07228802984146077 0.0 0.029644519412479364 0.0 0.0
0.062176708297113414 -0.05886752085361868 0.0 0.025951128723259997 0.0 0.0
0.049555386619102804 -0.04649161208314734 0.0 0.02214536108335341 0.0 0.0
0.03808581893652341 -0.035269299982275015 0.0 0.018261516449575965 0.0 0.0
0.027873723093142122 -0.025309695616019923 0.0 0.014274295350378607 0.0 0.0
0.019096526909781142 -0.01679234549132058 0.0 0.010353034469244404 0.0 0.0
0.012001289180322394 -0.009973450705015097 0.0 0.006824433002128649 0.0 0.0
0.0068243106026470435 -0.005118272573156002 0.0 0.004121082205007509 0.0 0.0
0.0036106858976724387 -0.002271338565983605 0.0 0.002454495996068562 0.0 0.0
0.00199760458226117 -0.000998979786966503 0.0 0.0016589127860984765 0.0 0.0
0.0013039062997999284 -0.0005210571015851206 0.0 0.0013551498864547429 0.0 0.0
0.0007624651565220075 -0.00022182924204305898 0.0 0.001336739498608408 0.0 0.0
0.0003569364834155597 -0.00037445514886885745 0.0 0.0017102106785794047 0.0 0.0
0.004242408544941401 -0.005837500973226925 0.0 0.006540747395362478 0.0 0.0
0.0031768054117106703 -0.004657302511783923 0.0 -0.005281528792444201 0.0 0.0
0.0002495486764853977 -0.0003092945595808416 0.0 -0.0020676231636442832 0.0 0.0
0.0005610638046548017 -0.00016436239995254454 0.0 -0.001729251712922486 0.0 0.0
0.001030268433468276 -0.0003919890992674091 0.0 -0.0016690466188287179 0.0 0.0
0.0015790998232168146 -0.0007437258332594343 0.0 -0.0019140003518817172 0.0 0.0
0.002752886311893424 -0.0016078862109432102 0.0 -0.002643904829224608 0.0 0.0
0.005231447755718141 -0.0036929193473800304 0.0 -0.004256842006554351 0.0 0.0
0.00938992898087078 -0.007505344787656298 0.0 -0.006931603169209488 0.0 0.0
0.01523463647131687 -0.013065256801313652 0.0 -0.010535203606549803 0.0 0.0
0.02249448140315942 -0.020080490516251714 0.0 -0.014596704565449703 0.0 0.0
0.030903288166499482 -0.028260763347841777 0.0 -0.018706755912483164 0.0 0.0
0.040306691504674225 -0.037444118265739235 0.0 -0.02271821851842415 0.0 0.0
0.05063917897081377 -0.04756248624341808 0.0 -0.026659397903266546 0.0 0.0
0.061853206110115744 -0.05856509967580692 0.0 -0.03048100191468983 0.0 0.0
0.07384513975149137 -0.0703472082313894 0.0 -0.03398895528036605 0.0 0.0
0.08641463828167054 -0.08271112425490834 0.0 -0.03685668518157559 0.0 0.0
0.09925160798093621 -0.09533726740886195 0.0 -0.03855532681373197 0.0 0.0
0.11184339136768931 -0.10769526645062033 0.0 -0.038041793805969726 0.0 0.0
0.1232742629228728 -0.11887220791143971 0.0 -0.0332587378900876 0.0 0.0
0.13222377503547766 -0.12758543450843973 0.0 -0.02193481936162034 0.0 0.0
0.1322237750354669 -0.1275854345084273 0.0 0.02193481936168762 0.0 0.0
0.12327426292284305 -0.1188722079114104 0.0 0.033258737890176415 0.0 0.0
0.11184339136764626 -0.10769526645056793 0.0 0.038041793806032675 0.0 0.0
0.09925160798088342 -0.09533726740880955 0.0 0.03855532681375873 0.0 0.0
0.0864146382816115 -0.0827111242548515 0.0 0.03685668518155838 0.0 0.0
0.0738451397514277 -0.07034720823133522 0.0 0.03398895528034962 0.0 0.0
0.06185320611005368 -0.058565099675748744 0.0 0.03048100191467673 0.0 0.0
0.05063917897075626 -0.047562486243358126 0.0 0.026659397903252335 0.0 0.0
0.04030669150461974 -0.03744411826568239 0.0 0.0227182185184005 0.0 0.0
0.03090328816645077 -0.028260763347789375 0.0 0.018706755912456963 0.0 0.0
0.022494481403116662 -0.020080490516209082 0.0 0.014596704565415397 0.0 0.0
0.01523463647128337 -0.013065256801282121 0.0 0.010535203606525934 0.0 0.0
0.009389928980847673 -0.007505344787636314 0.0 0.006931603169190836 0.0 0.0
0.005231447755703833 -0.0036929193473660415 0.0 0.00425684200654225 0.0 0.0
0.0027528863118871927 -0.0016078862109392134 0.0 0.0026439048292159484 0.0 0.0
0.0015790998232155795 -0.0007437258332601004 0.0 0.0019140003518792748 0.0 0.0
0.001030268433467596 -0.0003919890992675201 0.0 0.0016690466188271635 0.0 0.0
0.0005610638046553706 -0.00016436239995254454 0.0 0.001729251712919322 0.0 0.0
0.000249548676485023 -0.0003092945595802865 0.0 0.002067623163641452 0.0 0.0
0.0031768054117022326 -0.004657302511775001 0.0 0.0052815287924334875 0.0 0.0
0.0023223641714389676 -0.0036561453946044042 0.0 -0.0042317402534322035 0.0 0.0
0.00017666629175391857 -0.00025979980589885265 0.0 -0.002320280810978903 0.0 0.0
0.0003862790693500706 -0.00011553158402499708 0.0 -0.0020427371583251475 0.0 0.0
0.00076311282015884 -0.00027377697373975884 0.0 -0.0019632076594314762 0.0 0.0
0.0012028511791593866 -0.0005392120895533203 0.0 -0.0021710876507493593 0.0 0.0
0.0020071946691783416 -0.0010831478858981392 0.0 -0.002774590080136974 0.0 0.0
0.003783268142242502 -0.0024684361879310224 0.0 -0.004203054444076537 0.0 0.0
0.006924981422870263 -0.005229617563075273 0.0 -0.00666270933159363 0.0 0.0
0.011470846097063725 -0.009476161916087023 0.0 -0.010028585580354243 0.0 0.0
0.017184580030091934 -0.014949953860393883 0.0 -0.013923845915115751 0.0 0.0
0.02377978421477961 -0.02133902958766365 0.0 -0.017925741558944552 0.0 0.0
0.031115138667692444 -0.028480321311592505 0.0 -0.0218220386992225 0.0 0.0
0.039154945808091396 -0.03633746901406054 0.0 -0.025643793376371238 0.0 0.0
0.047907403718723485 -0.04491311003877563 0.0 -0.02937805829098772 0.0 0.0
0.05734423279646492 -0.05417363952844845 0.0 -0.032829641793470365 0.0 0.0
0.06735063740300745 -0.06400579605032508 0.0 -0.03567074353731914 0.0 0.0
0.07775962037059556 -0.07425701174117094 0.0 -0.03754734733789755 0.0 0.0
0.08842169443691547 -0.08474959283157002 0.0 -0.03766606270555284 0.0 0.0
0.09890481072948598 -0.095013578616717 0.0 -0.03385975154615273 0.0 0.0
0.10813037906513673 -0.10398046873583766 0.0 -0.023230957381374595 0.0 0.0
0.10813037906512848 -0.10398046873582523 0.0 0.02323095738144021 0.0 0.0
0.09890481072946203 -0.09501357861669302 0.0 0.03385975154624454 0.0 0.0
0.08842169443688086 -0.08474959283153982 0.0 0.037666062705617565 0.0 0.0
0.07775962037055303 -0.07425701174113453 0.0 0.03754734733792342 0.0 0.0
0.06735063740296032 -0.06400579605028778 0.0 0.03567074353730726 0.0 0.0
0.05734423279641518 -0.05417363952839693 0.0 0.0328296417934556 0.0 0.0
0.047907403718674885 -0.04491311003872722 0.0 0.029378058290975728 0.0 0.0
0.03915494580804829 -0.03633746901402013 0.0 0.025643793376361135 0.0 0.0
0.031115138667650977 -0.02848032131154321 0.0 0.02182203869920063 0.0 0.0
0.023779784214740973 -0.021339029587625458 0.0 0.017925741558915465 0.0 0.0
0.017184580030059626 -0.014949953860367238 0.0 0.013923845915082667 0.0 0.0
0.01147084609703758 -0.009476161916064818 0.0 0.010028585580331817 0.0 0.0
0.006924981422853249 -0.005229617563061062 0.0 0.006662709331576866 0.0 0.0
0.0037832681422321213 -0.0024684361879230288 0.0 0.004203054444065379 0.0 0.0
0.0020071946691742615 -0.0010831478858956967 0.0 0.0027745900801310897 0.0 0.0
0.0012028511791590257 -0.0005392120895550967 0.0 0.002171087650745973 0.0 0.0
0.0007631128201583959 -0.0002737769737409801 0.0 0.0019632076594297554 0.0 0.0
0.00038627906935023715 -0.00011553158402377584 0.0 0.0020427371583194853 0.0 0.0
0.00017666629175361326 -0.00025979980589890816 0.0 0.0023202808109747397 0.0 0.0
0.0023223641714330556 -0.0036561453945975313 0.0 0.004231740253422267 0.0 0.0
0.0016487757354633759 -0.002821318614423418 0.0 -0.0033949133009251176 0.0 0.0
0.00011331192830457693 -0.00021824585690322085 0.0 -0.002472825428180503 0.0 0.0
0.0002255429685785737 -6.728812196432621e-05 0.0 -0.0022766426830337916 0.0 0.0
0.0005003692463196319 -0.0001580447148752384 0.0 -0.0022109246665839577 0.0 0.0
0.0008437036159737454 -0.00036083850935231254 0.0 -0.0024141278167207902 0.0 0.0
0.0013659096093286693 -0.000686239920455245 0.0 -0.0029117078960071985 0.0 0.0
0.002500022498559018 -0.00147885003303605 0.0 -0.004036273223718523 0.0 0.0
0.004648609334871268 -0.0032207213938821866 0.0 -0.006065116190772657 0.0 0.0
0.007879005633810415 -0.006121107446202423 0.0 -0.00892767734568023 0.0 0.0
0.012002573025392232 -0.010000748558252948 0.0 -0.012311006931435942 0.0 0.0
0.016763199163379067 -0.01456946627417599 0.0 -0.015881770281006347 0.0 0.0
0.022026805867858074 -0.019664349453449415 0.0 -0.019411131945541227 0.0 0.0
0.02777452726295479 -0.02525959004549927 0.0 -0.02288248851039898 0.0 0.0
0.03405275924425971 -0.03139671786166254 0.0 -0.02628166641564511 0.0 0.0
0.04091041462978054 -0.038115021765335655 0.0 -0.029481780963517612 0.0 0.0
0.04833101413824753 -0.04539141624297205 0.0 -0.03214928527904648 0.0 0.0
0.05624141006906913 -0.0531759982200537 0.0 -0.03393180043898536 0.0 0.0
0.06474111247692832 -0.061587781403662945 0.0 -0.03461265206753039 0.0 0.0
0.07404395192327995 -0.07073939667842755 0.0 -0.032552204939996554 0.0 0.0
0.08357339638890002 -0.07997920610581932 0.0 -0.024084389455356625 0.0 0.0
0.08357339638889463 -0.07997920610580778 0.0 0.024084389455413358 0.0 0.0
0.07404395192326246 -0.07073939667841511 0.0 0.032552204940082485 0.0 0.0
0.06474111247690242 -0.06158778140364163 0.0 0.034612652067589345 0.0 0.0
0.056241410069036935 -0.05317599822003061 0.0 0.033931800439003235 0.0 0.0
0.048331014138212225 -0.04539141624294096 0.0 0.032149285279029716 0.0 0.0
0.040910414629745456 -0.03811502176529746 0.0 0.029481780963498294 0.0 0.0
0.03405275924422588 -0.03139671786163101 0.0 0.026281666415632454 0.0 0.0
0.02777452726292501 -0.02525959004546552 0.0 0.022882488510389543 0.0 0.0
0.022026805867829263 -0.01966434945342943 0.0 0.019411131945515803 0.0 0.0
0.016763199163351783 -0.014569466274151566 0.0 0.01588177028097959 0.0 0.0
0.01200257302536939 -0.010000748558226746 0.0 0.01231100693140752 0.0 0.0
0.007879005633792319 -0.0061211074461806625 0.0 0.008927677345662577 0.0 0.0
0.004648609334860054 -0.0032207213938670876 0.0 0.0060651161907603335 0.0 0.0
0.0025000224985523845 -0.0014788500330298326 0.0 0.004036273223710751 0.0 0.0
0.0013659096093265322 -0.0006862399204510261 0.0 0.0029117078960029796 0.0 0.0
0.0008437036159738287 -0.00036083850935031414 0.0 0.00241412781671857 0.0 0.0
0.0005003692463195486 -0.00015804471487379512 0.0 0.002210924666582792 0.0 0.0
0.00022554296857824063 -6.728812196454825e-05 0.0 0.0022766426830322928 0.0 0.0
0.00011331192830466019 -0.0002182458569025547 0.0 0.002472825428180614 0.0 0.0
0.0016487757354591015 -0.0028213186144181654 0.0 0.003394913300919511 0.0 0.0
0.0011409221725103835 -0.0021533513874487653 0.0 -0.0027606025676084056 0.0 0.0
4.267004676158925e-05 -0.00018223164272923587 0.0 -0.0025467207112028767 0.0 0.0
7.003406257849454e-05 -1.3313538541948056e-05 0.0 -0.002435678609205516 0.0 0.0
0.00024345748846510418 -4.3623835812356404e-05 0.0 -0.002399945477105314 0.0 0.0
0.00048202077856129844 -0.0001873870413762191 0.0 -0.002617786150955037 0.0 0.0
0.0007952554152676483 -0.0003785148981017006 0.0 -0.0030685295057688022 0.0 0.0
0.0013983185244056673 -0.0007402502879512163 0.0 -0.0038552747972001034 0.0 0.0
0.002600567321123487 -0.0015744869988103538 0.0 -0.005245200863485233 0.0 0.0
0.004523468298471389 -0.0031319019238988943 0.0 -0.007314178793451198 0.0 0.0
0.007023083726083096 -0.005367384129663755 0.0 -0.009858477552982858 0.0 0.0
0.009915694561938249 -0.00806957372216699 0.0 -0.012659694911784425 0.0 0.0
0.013086901163772785 -0.011094979072740596 0.0 -0.015532184203212451 0.0 0.0
0.01654078171031681 -0.014424209127410492 0.0 -0.018432407070431922 0.0 0.0
0.020339304443991374 -0.01811579800835439 0.0 -0.02129750542439779 0.0 0.0
0.024581350758817955 -0.022260000855306217 0.0 -0.024057992592580235 0.0 0.0
0.02937375488934668 -0.02694853448981771 0.0 -0.026495976286660006 0.0 0.0
0.034776139834372666 -0.032234237706731506 0.0 -0.028154159497491893 0.0 0.0
0.040926351688393287 -0.03832822944776648 0.0 -0.028931048255191216 0.0 0.0
0.04850416363467816 -0.04590862517516214 0.0 -0.028728320212242697 0.0 0.0
0.05812769623160896 -0.05523081213646286 0.0 -0.024174234996867883 0.0 0.0
0.0581276962316061 -0.055230812136455754 0.0 0.024174234996918176 0.0 0.0
0.04850416363466806 -0.04590862517515237 0.0 0.028728320212319636 0.0 0.0
0.040926351688375745 -0.03832822944774872 0.0 0.02893104825524484 0.0 0.0
0.03477613983435168 -0.03223423770670575 0.0 0.028154159497501996 0.0 0.0
0.02937375488932434 -0.026948534489795506 0.0 0.02649597628664435 0.0 0.0
0.024581350758797527 -0.022260000855288453 0.0 0.024057992592566135 0.0 0.0
0.02033930444397336 -0.018115798008338846 0.0 0.021297505424385466 0.0 0.0
0.016540781710300156 -0.014424209127397614 0.0 0.018432407070424817 0.0 0.0
0.013086901163757353 -0.011094979072727273 0.0 0.015532184203197796 0.0 0.0
0.009915694561923039 -0.00806957372214745 0.0 0.012659694911764774 0.0 0.0
0.007023083726069412 -0.005367384129646435 0.0 0.00985847755295921 0.0 0.0
0.00452346829846198 -0.003131901923892677 0.0 0.00731417879344054 0.0 0.0
0.0026005673211175473 -0.0015744869988050247 0.0 0.005245200863479349 0.0 0.0
0.0013983185244023366 -0.0007402502879512163 0.0 0.0038552747971961066 0.0 0.0
0.0007952554152665936 -0.0003785148981008124 0.0 0.0030685295057655826 0.0 0.0
0.00048202077856140946 -0.0001873870413762191 0.0 0.002617786150952206 0.0 0.0
0.00024345748846560378 -4.362383581268947e-05 0.0 0.0023999454771035378 0.0 0.0
7.003406257824474e-05 -1.3313538540837833e-05 0.0 0.0024356786092037397 0.0 0.0
4.267004676147823e-05 -0.00018223164272912484 0.0 0.002546720711202155 0.0 0.0
0.0011409221725072471 -0.0021533513874447113 0.0 0.0027606025676039647 0.0 0.0
0.0007744612851399713 -0.0016354310128160465 0.0 -0.002290334100223501 0.0 0.0
-3.9809615716535074e-05 -0.00015262067095622722 0.0 -0.002569259302546034 0.0 0.0
-8.467410454299218e-05 4.917446848062834e-05 0.0 -0.002532375448485724 0.0 0.0
-6.9081827153705255e-06 6.861284167092307e-05 0.0 -0.002527751381220966 0.0 0.0
0.00011558167812258935 -1.0383550156367605e-05 0.0 -0.0027426584311660007 0.0 0.0
0.0002475400951142126 -0.0001052614529237772 0.0 -0.0032069494799998877 0.0 0.0
0.0004411870650208871 -0.00021764243956967633 0.0 -0.003828509552834869 0.0 0.0
0.0008173402521266249 -0.00041557336481945484 0.0 -0.004547715839204769 0.0 0.0
0.0014557560298854855 -0.0007890249063216004 0.0 -0.005566901724752937 0.0 0.0
0.0022965786407861954 -0.0013751971850113343 0.0 -0.007056837000356864 0.0 0.0
0.003268287200459241 -0.0021480691761923687 0.0 -0.00899772949358435 0.0 0.0
0.004315357478435616 -0.003062584655288081 0.0 -0.011199363280577246 0.0 0.0
0.005455327408430105 -0.004105254645266232 0.0 -0.01356704594309821 0.0 0.0
0.006752842312511997 -0.005329456352342277 0.0 -0.016064187142960873 0.0 0.0
0.008343159992177607 -0.006856804501077285 0.0 -0.018641127240909383 0.0 0.0
0.01044774979701224 -0.008890389105216556 0.0 -0.021110081021484595 0.0 0.0
0.013338831409052343 -0.011677268277551889 0.0 -0.022979729117163505 0.0 0.0
0.017221896113212565 -0.015420452605713564 0.0 -0.023583536707926567 0.0 0.0
0.02255572760116778 -0.020806473389038516 0.0 -0.023579304783226562 0.0 0.0
0.031246741679997386 -0.029467444699148082 0.0 -0.023335934565690275 0.0 0.0
0.03124674167999747 -0.029467444699142753 0.0 0.02333593456573313 0.0 0.0
0.0225557276011637 -0.020806473389027857 0.0 0.023579304783288846 0.0 0.0
0.0172218961132041 -0.01542045260570557 0.0 0.023583536707964536 0.0 0.0
0.013338831409044571 -0.011677268277549224 0.0 0.022979729117165504 0.0 0.0
0.010447749797005412 -0.008890389105208563 0.0 0.021110081021466276 0.0 0.0
0.008343159992171445 -0.0068568045010755085 0.0 0.01864112724089717 0.0 0.0
0.006752842312508944 -0.005329456352336948 0.0 0.01606418714295188 0.0 0.0
0.005455327408427413 -0.004105254645256462 0.0 0.013567045943090217 0.0 0.0
0.004315357478434229 -0.0030625846552871927 0.0 0.011199363280562591 0.0 0.0
0.0032682872004561048 -0.0021480691761910364 0.0 0.008997729493567364 0.0 0.0
0.0022965786407834754 -0.0013751971850064493 0.0 0.007056837000341432 0.0 0.0
0.001455756029883376 -0.0007890249063184918 0.0 0.00556690172474783 0.0 0.0
0.0008173402521252926 -0.000415573364820343 0.0 0.004547715839200439 0.0 0.0
0.0004411870650201377 -0.00021764243957211882 0.0 0.0038285095528298174 0.0 0.0
0.00024754009511399055 -0.00010526145292133471 0.0 0.0032069494799966125 0.0 0.0
0.0001155816781228669 -1.0383550157255783e-05 0.0 0.0027426584311633917 0.0 0.0
-6.908182715009703e-06 6.861284166914672e-05 0.0 0.0025277513812175245 0.0 0.0
-8.467410454296442e-05 4.9174468478407896e-05 0.0 0.002532375448483115 0.0 0.0
-3.980961571692365e-05 -0.00015262067095678233 0.0 0.002569259302545812 0.0 0.0
0.0007744612851381671 -0.0016354310128137792 0.0 0.002290334100220448 0.0 0.0
0.000516549567332325 -0.0012574902202703298 0.0 -0.0019886961048377616 0.0 0.0
-0.0001263035635766241 -0.0001254432943863515 0.0 -0.002563689029133953 0.0 0.0
-0.00023834705174100024 0.00011638192982932338 0.0 -0.0025711623083067847 0.0 0.0
-0.00025092507299165345 0.0001782805956931366 0.0 -0.0025852611766354894 0.0 0.0
-0.0002481432747974688 0.0001664227761966064 0.0 -0.0027835018639750797 0.0 0.0
-0.00030140676102688446 0.0001658873363310498 0.0 -0.003228614368835425 0.0 0.0
-0.00046328878048323974 0.00023510743174481874 0.0 -0.00384332829392936 0.0 0.0
-0.0008257915639829361 0.0004219110690137917 0.0 -0.00456009036199867 0.0 0.0
-0.0014565310392916364 0.0007907903064405808 0.0 -0.005572182975570383 0.0 0.0
-0.0022965021617996906 0.0013772583667468474 0.0 -0.007057367296873784 0.0 0.0
-0.0032829250921415087 0.00216661711872268 0.0 -0.009003127789082743 0.0 0.0
-0.004375028647134349 0.003121095833018117 0.0 -0.0112135317190597 0.0 0.0
-0.005561675133165994 0.004194274616275084 0.0 -0.013578350567139519 0.0 0.0
-0.006780224379393823 0.0053127351567638925 0.0 -0.016063061986365312 0.0 0.0
-0.007857506967621553 0.006306603691480284 0.0 -0.018648745017953217 0.0 0.0
-0.008486738603627808 0.006879787203282639 0.0 -0.021276066049145892 0.0 0.0
-0.008228762674287654 0.006623227203051307 0.0 -0.023917201351732587 0.0 0.0
-0.006717619248629042 0.005296994157282242 0.0 -0.026675238632029252 0.0 0.0
-0.003586610123398698 0.002640704206950062 0.0 -0.029194123206388034 0.0 0.0
0.004129841565834735 -0.004693098204095136 0.0 -0.028595961486050925 0.0 0.0
0.004129841565835235 -0.004693098204099577 0.0 0.02859596148606891 0.0 0.0
-0.0035866101233993086 0.0026407042069438447 0.0 0.029194123206410016 0.0 0.0
-0.006717619248624573 0.005296994157282242 0.0 0.02667523863203347 0.0 0.0
-0.008228762674279522 0.006623227203031767 0.0 0.02391720135172104 0.0 0.0
-0.008486738603618427 0.006879787203266652 0.0 0.021276066049128017 0.0 0.0
-0.007857506967612116 0.006306603691475843 0.0 0.018648745017934454 0.0 0.0
-0.006780224379383248 0.005312735156751902 0.0 0.016063061986355875 0.0 0.0
-0.0055616751331552805 0.004194274616258653 0.0 0.013578350567128528 0.0 0.0
-0.0043750286471209154 0.0031210958330101235 0.0 0.011213531719041048 0.0 0.0
-0.003282925092131822 0.0021666171187093575 0.0 0.009003127789065424 0.0 0.0
-0.0022965021617910863 0.0013772583667361893 0.0 0.007057367296860129 0.0 0.0
-0.001456531039287251 0.0007907903064383603 0.0 0.005572182975564721 0.0 0.0
-0.0008257915639799385 0.0004219110690146799 0.0 0.00456009036199545 0.0 0.0
-0.00046328878048165767 0.00023510743174548487 0.0 0.0038433282939250857 0.0 0.0
-0.0003014067610261628 0.00016588733633149388 0.0 0.003228614368832261 0.0 0.0
-0.0002481432747965806 0.0001664227761961623 0.0 0.002783501863972637 0.0 0.0
-0.00025092507299140365 0.0001782805956912492 0.0 0.002585261176633602 0.0 0.0
-0.00023834705174069493 0.00011638192982799112 0.0 0.0025711623083054524 0.0 0.0
-0.0001263035635768739 -0.0001254432943869066 0.0 0.0025636890291327874 0.0 0.0
0.0005165495673315479 -0.0012574902202687997 0.0 0.0019886961048367624 0.0 0.0
0.0003400546201250687 -0.0009833120238501025 0.0 -0.0017886392113620753 0.0 0.0
-0.0002063974142294811 -9.326176047996793e-05 0.0 -0.0025192586467738254 0.0 0.0
-0.0003879177789003485 0.00018178304211413643 0.0 -0.002556519836044102 0.0 0.0
-0.00048738207844192805 0.00028433804850513944 0.0 -0.0025677679567903677 0.0 0.0
-0.0006045955666749703 0.0003381622938540829 0.0 -0.002734493839985308 0.0 0.0
-0.0008488114222390819 0.00044047788077494765 0.0 -0.0031385628007370436 0.0 0.0
-0.0014194779091667997 0.0007609042441076852 0.0 -0.0039007401999953673 0.0 0.0
-0.0026055054018335744 0.0015813659946921632 0.0 -0.005270781599534202 0.0 0.0
-0.00452182511636165 0.003132214384381715 0.0 -0.007320915404338768 0.0 0.0
-0.0070239526695025645 0.00537107044850238 0.0 -0.009860149585509848 0.0 0.0
-0.009933314806083282 0.00809230161707264 0.0 -0.012660074337217053 0.0 0.0
-0.013143097563727502 0.01115466237996543 0.0 -0.015511873713256463 0.0 0.0
-0.016633313700817387 0.01450643126992679 0.0 -0.0183664434659756 0.0 0.0
-0.020344103019481585 0.018077782523318042 0.0 -0.021215611200698814 0.0 0.0
-0.024079266059998133 0.021670252440116222 0.0 -0.024122735931221495 0.0 0.0
-0.027461710318673033 0.02491706964093421 0.0 -0.027138737994491735 0.0 0.0
-0.029967139045730617 0.02731886515542392 0.0 -0.03036715282508562 0.0 0.0
-0.031014761583557898 0.02830098982787721 0.0 -0.033699723657962366 0.0 0.0
-0.029492464696112802 0.026522011468342654 0.0 -0.035330954144924154 0.0 0.0
-0.02190323657201637 0.01857298658663087 0.0 -0.033355481780607654 0.0 0.0
-0.021903236572017287 0.01857298658663442 0.0 0.033355481780656504 0.0 0.0
-0.029492464696109166 0.02652201146833466 0.0 0.03533095414498455 0.0 0.0
-0.03101476158354166 0.028300989827859446 0.0 0.03369972365799867 0.0 0.0
-0.02996713904570672 0.0273188651554106 0.0 0.03036715282508018 0.0 0.0
-0.027461710318647525 0.024917069640915557 0.0 0.027138737994478412 0.0 0.0
-0.02407926605997332 0.021670252440095794 0.0 0.02412273593119929 0.0 0.0
-0.02034410301945691 0.018077782523292285 0.0 0.021215611200681384 0.0 0.0
-0.016633313700792962 0.014506431269898812 0.0 0.018366443465965276 0.0 0.0
-0.013143097563700606 0.011154662379939673 0.0 0.01551187371323437 0.0 0.0
-0.00993331480606044 0.00809230161704999 0.0 0.012660074337189187 0.0 0.0
-0.007023952669483441 0.005371070448486837 0.0 0.009860149585486089 0.0 0.0
-0.004521825116349493 0.0031322143843737216 0.0 0.007320915404323558 0.0 0.0
-0.0026055054018259416 0.001581365994690831 0.0 0.005270781599524543 0.0 0.0
-0.0014194779091626364 0.0007609042441076852 0.0 0.003900740199988484 0.0 0.0
-0.0008488114222372778 0.00044047788077206107 0.0 0.00313856280073338 0.0 0.0
-0.00060459556667386 0.00033816229385275065 0.0 0.0027344938399797014 0.0 0.0
-0.0004873820784414007 0.0002843380485053615 0.0 0.0025677679567891465 0.0 0.0
-0.00038791777889987666 0.00018178304211424745 0.0 0.00255651983604277 0.0 0.0
-0.0002063974142294811 -9.326176047974588e-05 0.0 0.0025192586467731037 0.0 0.0
0.00034005462012479115 -0.0009833120238493722 0.0 0.0017886392113597993 0.0 0.0
0.0002177680976038765 -0.000756709599304739 0.0 -0.0015936408803437496 0.0 0.0
-0.00027700975328243116 -5.575864321216706e-05 0.0 -0.002421204539205579 0.0 0.0
-0.0005299703971793357 0.00024238499486539666 0.0 -0.002484108842058741 0.0 0.0
-0.0007148004327012236 0.00038461666382683113 0.0 -0.002478755694469259 0.0 0.0
-0.0009505399632989686 0.0005025233205742108 0.0 -0.0026009209265786537 0.0 0.0
-0.0014174865554829053 0.000751318885171548 0.0 -0.0030271745153475638 0.0 0.0
-0.0025155492910968746 0.0015003441279195506 0.0 -0.004096856873193222 0.0 0.0
-0.004646803873555871 0.003222486040028727 0.0 -0.00608643621166538 0.0 0.0
-0.007875874045366549 0.006119318202456814 0.0 -0.008928552264359846 0.0 0.0
-0.012006144395073581 0.010006401994970826 0.0 -0.01231309141852055 0.0 0.0
-0.016780496917886856 0.01459057248358242 0.0 -0.01587343392083973 0.0 0.0
-0.02206731059186237 0.01970825127952569 0.0 -0.019341914476668776 0.0 0.0
-0.027830641505179998 0.02530868398226449 0.0 -0.02269266857205121 0.0 0.0
-0.03401778788928381 0.031326547142698224 0.0 -0.026035290767241648 0.0 0.0
-0.040423216001183176 0.03755165278431161 0.0 -0.02960181125210215 0.0 0.0
-0.04660949920748422 0.04355878687093728 0.0 -0.03368880573687949 0.0 0.0
-0.051914208255386646 0.04869559649097788 0.0 -0.03842386756191163 0.0 0.0
-0.055318680596442876 0.051887387462698165 0.0 -0.042939404776837 0.0 0.0
-0.054865786712459674 0.051147810596321897 0.0 -0.04515555166926144 0.0 0.0
-0.046428573787418936 0.04196771338247274 0.0 -0.040960541665087224 0.0 0.0
-0.046428573787418076 0.04196771338246652 0.0 0.040960541665142514 0.0 0.0
-0.05486578671244985 0.0511478105963139 0.0 0.045155551669333716 0.0 0.0
-0.055318680596418535 0.05188738746268129 0.0 0.042939404776889845 0.0 0.0
-0.051914208255350786 0.04869559649093791 0.0 0.03842386756191618 0.0 0.0
-0.046609499207443394 0.0435587868708911 0.0 0.03368880573686306 0.0 0.0
-0.04042321600114471 0.037551652784268086 0.0 0.02960181125207495 0.0 0.0
-0.03401778788924459 0.03132654714265737 0.0 0.026035290767217778 0.0 0.0
-0.027830641505140724 0.025308683982225855 0.0 0.02269266857203356 0.0 0.0
-0.022067310591823708 0.01970825127948439 0.0 0.019341914476641908 0.0 0.0
-0.01678049691785166 0.014590572483547781 0.0 0.01587343392080487 0.0 0.0
-0.012006144395043827 0.010006401994939296 0.0 0.012313091418491795 0.0 0.0
-0.007875874045346204 0.00611931820242928 0.0 0.008928552264340417 0.0 0.0
-0.00464680387354216 0.003222486040014072 0.0 0.006086436211654056 0.0 0.0
-0.002515549291089658 0.001500344127911335 0.0 0.004096856873185617 0.0 0.0
-0.001417486555479408 0.0007513188851688835 0.0 0.0030271745153435115 0.0 0.0
-0.0009505399632976363 0.0005025233205719903 0.0 0.002600920926577488 0.0 0.0
-0.0007148004327005297 0.0003846166638257209 0.0 0.0024787556944684264 0.0 0.0
-0.0005299703971790859 0.0002423849948640644 0.0 0.0024841088420570756 0.0 0.0
-0.0002770097532819038 -5.575864321266666e-05 0.0 0.002421204539204469 0.0 0.0
0.00021776809760348792 -0.0007567095993042602 0.0 0.0015936408803428614 0.0 0.0
0.0001233086555165186 -0.000556681610528742 0.0 -0.0013852815862619439 0.0 0.0
-0.00034004522121772185 -1.3037419295258701e-05 0.0 -0.002267720414609875 0.0 0.0
-0.0006630443597864244 0.0002979908986949775 0.0 -0.0023586332900914497 0.0 0.0
-0.000931923417217928 0.00047680814693062956 0.0 -0.0023270427168551877 0.0 0.0
-0.0012898297416605309 0.000668848805177813 0.0 -0.0024127505842174712 0.0 0.0
-0.002051378432625095 0.001146781990037704 0.0 -0.002915245690356172 0.0 0.0
-0.003787359017444869 0.0024825448623673196 0.0 -0.004257965844992828 0.0 0.0
-0.006917565987884344 0.005224167091035792 0.0 -0.00666906076993623 0.0 0.0
-0.0114690822789828 0.009474915462906797 0.0 -0.010026217465570753 0.0 0.0
-0.017191391416208013 0.014957941263568308 0.0 -0.013926581854631248 0.0 0.0
-0.023792452695066524 0.021353564016945104 0.0 -0.01790826428056569 0.0 0.0
-0.031126019628460178 0.028493263102430166 0.0 -0.021708644886218265 0.0 0.0
-0.039147111640536636 0.036326903952181855 0.0 -0.025339051036274096 0.0 0.0
-0.047812788057402245 0.04479807408929659 0.0 -0.02896577310719095 0.0 0.0
-0.05692465958925322 0.05370089662501165 0.0 -0.03295559579347296 0.0 0.0
-0.06599089855346621 0.06254087007039821 0.0 -0.03777966332708538 0.0 0.0
-0.07408056288325546 0.07037872775370158 0.0 -0.043472959200491545 0.0 0.0
-0.07958662509138811 0.0755872835327942 0.0 -0.04887022860390211 0.0 0.0
-0.07974390481166824 0.07529770443874462 0.0 -0.05107578377644184 0.0 0.0
-0.0694575321463557 0.06434238301263129 0.0 -0.04686414927911664 0.0 0.0
-0.06945753214635045 0.06434238301262862 0.0 0.04686414927917393 0.0 0.0
-0.07974390481165153 0.07529770443873307 0.0 0.051075783776521444 0.0 0.0
-0.07958662509135517 0.07558728353276223 0.0 0.04887022860395929 0.0 0.0
-0.07408056288320974 0.07037872775365894 0.0 0.04347295920050709 0.0 0.0
-0.06599089855341186 0.06254087007034848 0.0 0.037779663327071056 0.0 0.0
-0.05692465958920123 0.05370089662495303 0.0 0.032955595793449866 0.0 0.0
-0.04781278805734837 0.04479807408924241 0.0 0.02896577310717019 0.0 0.0
-0.039147111640483595 0.03632690395212901 0.0 0.025339051036254556 0.0 0.0
-0.031126019628408913 0.028493263102379096 0.0 0.02170864488619484 0.0 0.0
-0.023792452695020144 0.021353564016899362 0.0 0.017908264280532826 0.0 0.0
-0.01719139141616738 0.014957941263529673 0.0 0.01392658185459772 0.0 0.0
-0.011469082278954268 0.009474915462874378 0.0 0.01002621746554988 0.0 0.0
-0.006917565987864666 0.005224167091018472 0.0 0.006669060769921242 0.0 0.0
-0.00378735901743385 0.0024825448623615465 0.0 0.0042579658449822255 0.0 0.0
-0.0020513784326193774 0.0011467819900383702 0.0 0.002915245690349788 0.0 0.0
-0.0012898297416591153 0.0006688488051804775 0.0 0.0024127505842151398 0.0 0.0
-0.0009319234172172064 0.0004768081469302965 0.0 0.0023270427168530228 0.0 0.0
-0.0006630443597858693 0.00029799089869564366 0.0 0.00235863329008823 0.0 0.0
-0.0003400452212169447 -1.3037419294648078e-05 0.0 0.002267720414606489 0.0 0.0
0.00012330865551635206 -0.0005566816105288218 0.0 0.0013852815862592238 0.0 0.0
4.364884458579743e-05 -0.00038074140038041326 0.0 -0.0011700661185032324 0.0 0.0
-0.0003990866603443277 3.494125312919483e-05 0.0 -0.00205769994818622 0.0 0.0
-0.0007869683826530749 0.00034886287798097104 0.0 -0.0021752335894523744 0.0 0.0
-0.0011372406030300541 0.000559942167799754 0.0 -0.0021096463863901627 0.0 0.0
-0.0016393192894283426 0.0008524792861952513 0.0 -0.0021809036939020587 0.0 0.0
-0.002781273215731961 0.0016577371268173824 0.0 -0.002772603120730577 0.0 0.0
-0.005225188397238678 0.0036951489117784675 0.0 -0.004287729830282971 0.0 0.0
-0.009381243984810717 0.007496808369460872 0.0 -0.006928426435178214 0.0 0.0
-0.015236076839056478 0.01306670715202829 0.0 -0.010531680736447169 0.0 0.0
-0.022503490352833333 0.020089662651321394 0.0 -0.014597477644945456 0.0 0.0
-0.030906863953084618 0.02826404979484254 0.0 -0.018677916884598522 0.0 0.0
-0.04027746628823614 0.0374151463346597 0.0 -0.02257471011251766 0.0 0.0
-0.05054748794434816 0.0474732005592311 0.0 -0.026290100338386857 0.0 0.0
-0.06168115407207825 0.05839154830292781 0.0 -0.029965553991791904 0.0 0.0
-0.07350860170652795 0.06998049084833102 0.0 -0.03401650306151227 0.0 0.0
-0.0854575822422595 0.08165044889439788 0.0 -0.03897932151128769 0.0 0.0
-0.09626318960387631 0.09212540927656043 0.0 -0.04493330501530168 0.0 0.0
-0.10367546741191988 0.09912976099150228 0.0 -0.050653383747844116 0.0 0.0
-0.1040567354048704 0.09900672059804005 0.0 -0.05354986749752377 0.0 0.0
-0.09197099099481942 0.08634026692732011 0.0 -0.05195266842071211 0.0 0.0
-0.09197099099481101 0.08634026692731123 0.0 0.05195266842077473 0.0 0.0
-0.10405673540484567 0.09900672059801163 0.0 0.0535498674975986 0.0 0.0
-0.10367546741187803 0.09912976099146142 0.0 0.05065338374790107 0.0 0.0
-0.09626318960382099 0.09212540927651158 0.0 0.044933305015320224 0.0 0.0
-0.08545758224219355 0.0816504488943357 0.0 0.03897932151127359 0.0 0.0
-0.07350860170646198 0.06998049084827329 0.0 0.0340165030614904 0.0 0.0
-0.0616811540720103 0.05839154830286608 0.0 0.029965553991767035 0.0 0.0
-0.05054748794428185 0.047473200559166706 0.0 0.026290100338362765 0.0 0.0
-0.04027746628817222 0.037415146334602856 0.0 0.022574710112493346 0.0 0.0
-0.030906863953026983 0.028264049794791024 0.0 0.01867791688456255 0.0 0.0
-0.022503490352783387 0.0200896626512721 0.0 0.014597477644909929 0.0 0.0
-0.015236076839019022 0.013066707151998092 0.0 0.010531680736423354 0.0 0.0
-0.00938124398478507 0.007496808369441332 0.0 0.006928426435160173 0.0 0.0
-0.005225188397223454 0.0036951489117644787 0.0 0.004287729830272369 0.0 0.0
-0.0027812732157240783 0.001657737126810277 0.0 0.002772603120721917 0.0 0.0
-0.0016393192894260944 0.0008524792861916985 0.0 0.0021809036938968407 0.0 0.0
-0.0011372406030288745 0.000559942167799421 0.0 0.002109646386388331 0.0 0.0
-0.0007869683826523532 0.00034886287797941673 0.0 0.0021752335894520414 0.0 0.0
-0.00039908666034355056 3.4941253129139316e-05 0.0 0.0020576999481863867 0.0 0.0
4.364884458536722e-05 -0.0003807414003791122 0.0 0.001170066118504065 0.0 0.0
-2.422244399558071e-05 -0.0002298175896379151 0.0 -0.0009487179001992363 0.0 0.0
-0.0004558340791032678 8.674228852367794e-05 0.0 -0.0017961960556848733 0.0 0.0
-0.0009027439122640257 0.0003954742814052947 0.0 -0.0019349608326280077 0.0 0.0
-0.0013336704552715517 0.0006399399897871749 0.0 -0.0018461455022130702 0.0 0.0
-0.00202181835863785 0.0010767583341357856 0.0 -0.0019253006451490084 0.0 0.0
-0.0036181520750361296 0.0023005096526362845 0.0 -0.002566244881448021 0.0 0.0
-0.006814085721407959 0.0051123199101339445 0.0 -0.0041351492499858145 0.0 0.0
-0.011995351159627854 0.009967019527564958 0.0 -0.006813945516954023 0.0 0.0
-0.01910160059311844 0.016796964983003093 0.0 -0.010350010189400405 0.0 0.0
-0.027882546787384554 0.025317750589973098 0.0 -0.014271939103377651 0.0 0.0
-0.03807583337337023 0.03525729510695452 0.0 -0.01822151162502561 0.0 0.0
-0.04948220238061718 0.04641731683431116 0.0 -0.021991962071460147 0.0 0.0
-0.0619982158562597 0.05869549523670603 0.0 -0.025591749470840752 0.0 0.0
-0.07557620453999736 0.07203655276383536 0.0 -0.029116549838036243 0.0 0.0
-0.09005927589752571 0.08625521204450948 0.0 -0.032827493642383576 0.0 0.0
-0.10481536270026687 0.10068188331594463 0.0 -0.0372586230621057 0.0 0.0
-0.11825524236020615 0.11370930202570761 0.0 -0.042776104553733596 0.0 0.0
-0.12747382466742488 0.12243432957948297 0.0 -0.04869527104000415 0.0 0.0
-0.12813931106710766 0.12256457563787837 0.0 -0.05345865817477968 0.0 0.0
-0.11459810209658741 0.10849306034774564 0.0 -0.05662840357938703 0.0 0.0
-0.11459810209657725 0.10849306034773853 0.0 0.05662840357945109 0.0 0.0
-0.12813931106707577 0.12256457563784817 0.0 0.05345865817485307 0.0 0.0
-0.12747382466737403 0.12243432957944211 0.0 0.04869527104006077 0.0 0.0
-0.11825524236014015 0.11370930202564367 0.0 0.04277610455375125 0.0 0.0
-0.10481536270018996 0.10068188331586825 0.0 0.03725862306209771 0.0 0.0
-0.090059275897446 0.0862552120444331 0.0 0.03282749364237536 0.0 0.0
-0.07557620453991658 0.07203655276375809 0.0 0.029116549838015093 0.0 0.0
-0.06199821585617965 0.05869549523662432 0.0 0.0255917494708231 0.0 0.0
-0.04948220238054074 0.046417316834233446 0.0 0.021991962071438054 0.0 0.0
-0.03807583337330117 0.03525729510688791 0.0 0.018221511624993136 0.0 0.0
-0.027882546787325685 0.025317750589914922 0.0 0.014271939103344178 0.0 0.0
-0.019101600593072643 0.01679696498295602 0.0 0.010350010189378145 0.0 0.0
-0.01199535115959545 0.009967019527533871 0.0 0.006813945516935371 0.0 0.0
-0.006814085721388113 0.0051123199101141825 0.0 0.004135149249976766 0.0 0.0
-0.0036181520750257906 0.0023005096526262925 0.0 0.002566244881443469 0.0 0.0
-0.0020218183586344224 0.0010767583341304565 0.0 0.0019253006451507293 0.0 0.0
-0.0013336704552699696 0.0006399399897865088 0.0 0.0018461455022137363 0.0 0.0
-0.0009027439122634151 0.0003954742814052947 0.0 0.0019349608326273415 0.0 0.0
-0.00045583407910274043 8.674228852395549e-05 0.0 0.0017961960556828194 0.0 0.0
-2.4222443995441933e-05 -0.00022981758963773816 0.0 0.0009487179001997359 0.0 0.0
-7.937990850231946e-05 -0.00010625434209282636 0.0 -0.0007207656008104135 0.0 0.0
-0.000509142679909369 0.00013978728432018084 0.0 -0.0014888825111871173 0.0 0.0
-0.0010121625181002125 0.00043861778058695844 0.0 -0.0016382965190748777 0.0 0.0
-0.001529348575243894 0.0007228475792890876 0.0 -0.0015347052587012522 0.0 0.0
-0.0024580859471847183 0.0013571016384110735 0.0 -0.0016235523073940272 0.0 0.0
-0.004565703601705717 0.0030862184890541045 0.0 -0.002272131522617793 0.0 0.0
-0.008537029027144982 0.006703974134250945 0.0 -0.003792790132098156 0.0 0.0
-0.014692498911466734 0.012557516899500243 0.0 -0.00625372228899268 0.0 0.0
-0.02300792044380695 0.02059192995605974 0.0 -0.009425533644163098 0.0 0.0
-0.033285467828137016 0.03058992976316821 0.0 -0.01297718206207965 0.0 0.0
-0.045256821400046277 0.042283839701322545 0.0 -0.016552730555164374 0.0 0.0
-0.05869964982088094 0.05545273961010189 0.0 -0.01997370375019547 0.0 0.0
-0.07346620990943709 0.069952298641351 0.0 -0.02326526124331285 0.0 0.0
-0.0894535517539164 0.08567471261809168 0.0 -0.026430482456601068 0.0 0.0
-0.10647055899651331 0.10240504464514366 0.0 -0.029503109041683295 0.0 0.0
-0.1238625201854161 0.11943392212954418 0.0 -0.032816920097700875 0.0 0.0
-0.13984609403064296 0.13493518396979365 0.0 -0.03715283810884351 0.0 0.0
-0.15099110497089183 0.14551425669293927 0.0 -0.043163968971600575 0.0 0.0
-0.15234262815345193 0.14628245060641287 0.0 -0.050930904804823984 0.0 0.0
-0.13782254924701848 0.13124499475963347 0.0 -0.06088236785745649 0.0 0.0
-0.13782254924700627 0.1312449947596157 0.0 0.06088236785751755 0.0 0.0
-0.15234262815341412 0.14628245060637113 0.0 0.05093090480489526 0.0 0.0
-0.15099110497083182 0.1455142566928842 0.0 0.04316396897164709 0.0 0.0
-0.13984609403056492 0.1349351839697146 0.0 0.03715283810885506 0.0 0.0
-0.12386252018532745 0.1194339221294598 0.0 0.032816920097692825 0.0 0.0
-0.10647055899642059 0.10240504464505218 0.0 0.02950310904167469 0.0 0.0
-0.08945355175382265 0.08567471261800463 0.0 0.026430482456582638 0.0 0.0
-0.07346620990934398 0.06995229864125996 0.0 0.02326526124329792 0.0 0.0
-0.058699649820792205 0.05545273961001573 0.0 0.019973703750173433 0.0 0.0
-0.0452568213999658 0.04228383970124394 0.0 0.016552730555134287 0.0 0.0
-0.03328546782806893 0.030589929763101598 0.0 0.012977182062049897 0.0 0.0
-0.02300792044375352 0.02059192995600334 0.0 0.009425533644145334 0.0 0.0
-0.014692498911427737 0.012557516899464716 0.0 0.00625372228897747 0.0 0.0
-0.008537029027120446 0.0067039741342278525 0.0 0.0037927901320863877 0.0 0.0
-0.004565703601692395 0.0030862184890407818 0.0 0.0022721315226080785 0.0 0.0
-0.002458085947179986 0.0013571016384070766 0.0 0.0016235523073916402 0.0 0.0
-0.0015293485752422564 0.0007228475792889766 0.0 0.001534705258702418 0.0 0.0
-0.0010121625180997962 0.0004386177805867364 0.0 0.0016382965190752108 0.0 0.0
-0.0005091426799084253 0.00013978728432012533 0.0 0.001488882511188061 0.0 0.0
-7.937990850194476e-05 -0.00010625434209291483 0.0 0.0007207656008091368 0.0 0.0
-0.00011821348432689005 -1.3394324787197043e-05 0.0 -0.00048775007945206506 0.0 0.0
-0.0005546125925509626 0.0001902727578450003 0.0 -0.0011389744070056662 0.0 0.0
-0.0011169524187460422 0.0004782981780450113 0.0 -0.0012819460830756357 0.0 0.0
-0.001736970038206831 0.000820608894920527 0.0 -0.0011781084270536812 0.0 0.0
-0.00296512060604176 0.0017175047125301823 0.0 -0.0012706395356169575 0.0 0.0
-0.005627984605444558 0.004013092771042892 0.0 -0.0018771979494824897 0.0 0.0
-0.010345948377006087 0.008410419207195208 0.0 -0.00315852768830871 0.0 0.0
-0.01741969547287603 0.0152007931488094 0.0 -0.00516494230816722 0.0 0.0
-0.026917300812052014 0.02440720203010427 0.0 -0.007781670010931885 0.0 0.0
-0.038668939637989064 0.035859947335405984 0.0 -0.01072373083056033 0.0 0.0
-0.05240750397778077 0.049296839041788054 0.0 -0.013689916480517539 0.0 0.0
-0.06788698044482877 0.06447532350731411 0.0 -0.016525033540556233 0.0 0.0
-0.08490978287810541 0.08119851561617608 0.0 -0.019269268021173236 0.0 0.0
-0.10327978821445521 0.09926802738172569 0.0 -0.02191561518417473 0.0 0.0
-0.12268449604271686 0.1183585563797731 0.0 -0.024230443844834193 0.0 0.0
-0.14242402790095698 0.13772500610313276 0.0 -0.026061621986325 0.0 0.0
-0.16078781062167752 0.15558754131202068 0.0 -0.028397531661689568 0.0 0.0
-0.17420627204561318 0.16834753380019762 0.0 -0.03396646536331982 0.0 0.0
-0.17696534094537614 0.17044537945891047 0.0 -0.04546389344353119 0.0 0.0
-0.16216938108307186 0.15508220189563549 0.0 -0.06435437039759495 0.0 0.0
-0.16216938108305742 0.15508220189562216 0.0 0.06435437039763847 0.0 0.0
-0.1769653409453322 0.1704453794588643 0.0 0.0454638934435897 0.0 0.0
-0.17420627204554318 0.16834753380012746 0.0 0.03396646536336112 0.0 0.0
-0.16078781062158756 0.15558754131193897 0.0 0.02839753166169956 0.0 0.0
-0.14242402790085634 0.13772500610303684 0.0 0.026061621986318173 0.0 0.0
-0.12268449604261085 0.11835855637966919 0.0 0.024230443844830085 0.0 0.0
-0.1032797882143488 0.09926802738162 0.0 0.021915615184160187 0.0 0.0
-0.08490978287799897 0.08119851561607616 0.0 0.019269268021160413 0.0 0.0
-0.06788698044472784 0.06447532350721241 0.0 0.01652503354054241 0.0 0.0
-0.05240750397768955 0.04929683904169746 0.0 0.013689916480493058 0.0 0.0
-0.03866893963791154 0.035859947335334486 0.0 0.01072373083053646 0.0 0.0
-0.02691730081199157 0.024407202030046093 0.0 0.0077816700109155645 0.0 0.0
-0.0174196954728306 0.01520079314876277 0.0 0.005164942308152065 0.0 0.0
-0.010345948376977256 0.008410419207165454 0.0 0.00315852768829733 0.0 0.0
-0.005627984605428238 0.004013092771028459 0.0 0.001877197949476661 0.0 0.0
-0.002965120606035085 0.0017175047125252974 0.0 0.0012706395356152367 0.0 0.0
-0.0017369700382050476 0.0008206088949181956 0.0 0.001178108427052016 0.0 0.0
-0.0011169524187455843 0.00047829817804290187 0.0 0.0012819460830737484 0.0 0.0
-0.0005546125925497136 0.00019027275784427866 0.0 0.0011389744070028907 0.0 0.0
-0.0001182134843265778 -1.3394324787498885e-05 0.0 0.0004877500794508438 0.0 0.0
-0.00013387266970610323 4.431298284179874e-05 0.0 -0.0002563638595224349 0.0 0.0
-0.0005831600926239355 0.00023182196868376526 0.0 -0.0007459081486728136 0.0 0.0
-0.0012202156442820966 0.0005174183497661522 0.0 -0.0008598129799641807 0.0 0.0
-0.001976324558040088 0.0009486051204734558 0.0 -0.0007788700011637784 0.0 0.0
-0.003556845964362232 0.0021791768333221384 0.0 -0.0008669444696539075 0.0 0.0
-0.0067860126188636904 0.005061551215978843 0.0 -0.0013177296412055228 0.0 0.0
-0.012192252670933157 0.010181381390905297 0.0 -0.0022080681103914257 0.0 0.0
-0.020147289100692523 0.017858297060547645 0.0 -0.0035882343580332376 0.0 0.0
-0.03078887334639241 0.02820074196987754 0.0 -0.005422679241769979 0.0 0.0
-0.043990356416012955 0.04108330857363596 0.0 -0.007513504274956562 0.0 0.0
-0.059485523846172284 0.056251978771482136 0.0 -0.009623977093331848 0.0 0.0
-0.0770005148887064 0.07343807358476973 0.0 -0.011641419414646137 0.0 0.0
-0.09628093727448622 0.0923852667635714 0.0 -0.013620520020732552 0.0 0.0
-0.1170108145927492 0.11277394650169903 0.0 -0.015503579288952185 0.0 0.0
-0.13869156697961532 0.13410090786128315 0.0 -0.016982489900583708 0.0 0.0
-0.1604752897554187 0.1555049086993403 0.0 -0.017581407685703265 0.0 0.0
-0.18082191909335504 0.1753917995748191 0.0 -0.017605493823382723 0.0 0.0
-0.19670863951008846 0.19063975219274365 0.0 -0.020716962923468696 0.0 0.0
-0.2022848493857876 0.19528199748365438 0.0 -0.03527313370282692 0.0 0.0
-0.18840326886780223 0.1807198318887151 0.0 -0.06618977912346669 0.0 0.0
-0.1884032688677844 0.1807198318887009 0.0 0.06618977912349844 0.0 0.0
-0.20228484938573768 0.1952819974836073 0.0 0.03527313370287477 0.0 0.0
-0.19670863951000747 0.1906397521926726 0.0 0.020716962923500892 0.0 0.0
-0.18082191909325349 0.17539179957471873 0.0 0.01760549382338683 0.0 0.0
-0.16047528975530467 0.15550490869922395 0.0 0.017581407685697603 0.0 0.0
-0.1386915669794962 0.13410090786116413 0.0 0.01698248990058321 0.0 0.0
-0.11701081459263057 0.11277394650158712 0.0 0.015503579288945302 0.0 0.0
-0.09628093727436678 0.0923852667634617 0.0 0.013620520020724114 0.0 0.0
-0.07700051488859352 0.07343807358465426 0.0 0.011641419414635146 0.0 0.0
-0.05948552384607068 0.056251978771379996 0.0 0.00962397709331353 0.0 0.0
-0.043990356415926704 0.04108330857354936 0.0 0.007513504274935634 0.0 0.0
-0.030788873346325366 0.02820074196980915 0.0 0.005422679241757988 0.0 0.0
-0.02014728910064143 0.017858297060499684 0.0 0.003588234358021525 0.0 0.0
-0.012192252670899194 0.01018138139087199 0.0 0.002208068110382655 0.0 0.0
-0.006786012618843946 0.005061551215962856 0.0 0.0013177296412007489 0.0 0.0
-0.003556845964354304 0.002179176833314589 0.0 0.0008669444696530193 0.0 0.0
-0.0019763245580374893 0.0009486051204715684 0.0 0.0007788700011625016 0.0 0.0
-0.0012202156442814235 0.0005174183497673734 0.0 0.0008598129799662346 0.0 0.0
-0.0005831600926231827 0.0002318219686835432 0.0 0.000745908148671981 0.0 0.0
-0.00013387266970563139 4.43129828416617e-05 0.0 0.00025636385952165774 0.0 0.0
-0.00011411874097161379 6.051410235319299e-05 0.0 -4.3540553612497757e-05 0.0 0.0
-0.0005782103622071211 0.00025396318958603725 0.0 -0.00030166516842822233 0.0 0.0
-0.0013308176713497932 0.0005632363408464292 0.0 -0.0003583721649720317 0.0 0.0
-0.0022723252225316792 0.0011372933065647572 0.0 -0.00033954278480746725 0.0 0.0
-0.004235614207586835 0.002740854105760304 0.0 -0.00038204681590048306 0.0 0.0
-0.008004055314953407 0.0061896009983695155 0.0 -0.0005647477773009779 0.0 0.0
-0.014055152302362595 0.011981783990487216 0.0 -0.0009345838041641685 0.0 0.0
-0.022839424668858188 0.020494195048523345 0.0 -0.0015266196878817029 0.0 0.0
-0.03458146385650274 0.03192850668510472 0.0 -0.0023572664032688317 0.0 0.0
-0.04920522275463268 0.046214473589572425 0.0 -0.00334095925003286 0.0 0.0
-0.06644967951173858 0.06310687422894645 0.0 -0.004351027618362147 0.0 0.0
-0.08600011104337546 0.08229842747588512 0.0 -0.005330494773578276 0.0 0.0
-0.1075202158029509 0.10345213655365582 0.0 -0.006278647511080315 0.0 0.0
-0.1305800257007123 0.12613118806828272 0.0 -0.007124396432664937 0.0 0.0
-0.15449661205311388 0.14964866053037795 0.0 -0.007675693891102453 0.0 0.0
-0.17817172632865907 0.1729109206928463 0.0 -0.007543937275749757 0.0 0.0
-0.199997122646548 0.19431466246696338 0.0 -0.006359619537645633 0.0 0.0
-0.21766425297783837 0.21149851982109524 0.0 -0.0056213001070288815 0.0 0.0
-0.22713592316713235 0.2202108303336905 0.0 -0.01582886811673412 0.0 0.0
-0.2186849542019401 0.2098613394470732 0.0 -0.06099881367772231 0.0 0.0
-0.21868495420191916 0.2098613394470643 0.0 0.06099881367773563 0.0 0.0
-0.22713592316707729 0.22021083033364786 0.0 0.015828868116756545 0.0 0.0
-0.217664252977745 0.21149851982100198 0.0 0.00562130010704176 0.0 0.0
-0.19999712264643205 0.19431466246685325 0.0 0.006359619537643524 0.0 0.0
-0.17817172632853154 0.17291092069273528 0.0 0.007543937275746926 0.0 0.0
-0.1544966120529822 0.14964866053025627 0.0 0.007675693891103286 0.0 0.0
-0.13058002570058086 0.12613118806814994 0.0 0.007124396432662217 0.0 0.0
-0.10752021580281854 0.10345213655352525 0.0 0.006278647511072377 0.0 0.0
-0.0860001110432508 0.0822984274757581 0.0 0.005330494773574612 0.0 0.0
-0.06644967951162639 0.06310687422883543 0.0 0.004351027618349657 0.0 0.0
-0.049205222754538376 0.04621447358947961 0.0 0.0033409592500214247 0.0 0.0
-0.03458146385642939 0.03192850668503455 0.0 0.0023572664032647794 0.0 0.0
-0.022839424668801945 0.020494195048473163 0.0 0.0015266196878744864 0.0 0.0
-0.014055152302323286 0.0119817839904508 0.0 0.0009345838041612264 0.0 0.0
-0.00800405531493101 0.006189600998349087 0.0 0.0005647477773004228 0.0 0.0
-0.004235614207577346 0.0027408541057529767 0.0 0.00038204681589953937 0.0 0.0
-0.0022723252225280953 0.001137293306563092 0.0 0.00033954278480502476 0.0 0.0
-0.0013308176713487472 0.000563236340845541 0.0 0.00035837216497158764 0.0 0.0
-0.0005782103622067446 0.00025396318958559316 0.0 0.00030166516842677904 0.0 0.0
-0.00011411874097136052 6.051410235326932e-05 0.0 4.3540553614274113e-05 0.0 0.0
SCALARS Statev float 8
LOOKUP_TABLE default
0.0 0.014947644393106484 0.011626833003398323 -0.012006552907218044 0.00037971990381971936 -0.006726307281964321 0.0 0.0
0.0 0.0010928711422180804 0.0008007979765309486 -0.0006984395825226767 -0.00010235839400827174 0.0006829918629188545 0.0 0.0
0.0 4.385579173756732e-05 5.172837035991776e-06 -3.7997710104494476e-06 -1.373066025542357e-06 -3.676121358851842e-07 0.0 0.0
0.0 0.00044620056522002736 0.00035388377980197466 -0.00028226976623722496 -7.161401356474973e-05 -5.1124867689116196e-05 0.0 0.0
0.0 0.002187149778160433 0.0018319365912629287 -0.001552620889467461 -0.00027931570179546726 -0.00019663148715293904 0.0 0.0
0.0 0.00582538485364175 0.005229374209820367 -0.004714053726097886 -0.0005153204837224822 -0.000428453148292774 0.0 0.0
0.0 0.012400000680732371 0.01096493937577198 -0.010305649126395304 -0.0006592902493766697 -0.0007888769394672912 0.0 0.0
0.0 0.022194806865267327 0.01946655431668301 -0.01870160982496508 -0.0007649444917179251 -0.001354193544153164 0.0 0.0
0.0 0.0354398633819579 0.030937481195187903 -0.030066078417978294 -0.000871402777209598 -0.0021573995342884437 0.0 0.0
0.0 0.052065653165606615 0.045313941832611546 -0.04432793576673942 -0.000986006065872136 -0.003128679065388701 0.0 0.0
0.0 0.07181863388199625 0.06235545589280606 -0.06125016499393802 -0.0011052908988680385 -0.0041436913276491055 0.0 0.0
0.0 0.09406552214056405 0.08176175704794772 -0.08053511986863113 -0.0012266371793165757 -0.005133199575614618 0.0 0.0
0.0 0.11874553082420886 0.10321303945336607 -0.10186355407901493 -0.0013494853743510455 -0.006098189519673746 0.0 0.0
0.0 0.14542970414046325 0.12634046440930785 -0.12486510107995626 -0.0014753633293515204 -0.007018877272021317 0.0 0.0
0.0 0.1734397004844639 0.15061235313615554 -0.14900707880188455 -0.0016052743342708806 -0.007833454339519494 0.0 0.0
0.0 0.20186867536407702 0.17521439418763735 -0.173476779486533 -0.001737614701104442 -0.008370594043396181 0.0 0.0
0.0 0.22936982654919824 0.19901016680698716 -0.1971422882126005 -0.0018678785943867246 -0.008365572140317976 0.0 0.0
0.0 0.2542886931028993 0.22058260887351683 -0.21859030963687437 -0.001992299236642306 -0.0076342421624504015 0.0 0.0
0.0 0.27469056660559354 0.23824627579278768 -0.23613283895696757 -0.002113436835820038 -0.006740799158269452 0.0 0.0
0.0 0.2873014397595306 0.2492891099463549 -0.24697070976975005 -0.0023184001766048557 -0.00860026292321083 0.0 0.0
0.0 0.2873014397595082 0.2492891099463355 -0.2469707097697302 -0.0023184001766051996 0.008600262923221795 0.0 0.0
0.0 0.27469056660553026 0.23824627579273278 -0.23613283895691256 -0.002113436835820148 0.006740799158296828 0.0 0.0
0.0 0.25428869310279667 0.22058260887342748 -0.21859030963678622 -0.001992299236641171 0.007634242162469275 0.0 0.0
0.0 0.22936982654907462 0.19901016680687916 -0.19714228821249447 -0.0018678785943847345 0.00836557214032585 0.0 0.0
0.0 0.20186867536393638 0.17521439418751536 -0.17347677948641183 -0.001737614701103621 0.008370594043385639 0.0 0.0
0.0 0.1734397004843138 0.15061235313602542 -0.14900707880175473 -0.0016052743342706353 0.007833454339516977 0.0 0.0
0.0 0.14542970414031584 0.12634046440918012 -0.12486510107982897 -0.0014753633293510767 0.007018877272020783 0.0 0.0
0.0 0.11874553082406387 0.10321303945324047 -0.10186355407888986 -0.0013494853743505906 0.006098189519671672 0.0 0.0
0.0 0.09406552214042863 0.08176175704783031 -0.08053511986851448 -0.001226637179315755 0.005133199575605062 0.0 0.0
0.0 0.071818633881878 0.062355455892703096 -0.061250164993835995 -0.001105290898867087 0.004143691327641122 0.0 0.0
0.0 0.05206565316550748 0.04531394183252574 -0.04432793576665427 -0.0009860060658714869 0.003128679065375851 0.0 0.0
0.0 0.035439863381879454 0.03093748119511937 -0.03006607841791025 -0.0008714027772091491 0.0021573995342849366 0.0 0.0
0.0 0.022194806865213218 0.01946655431663516 -0.018701609824917944 -0.0007649444917172069 0.0013541935441490236 0.0 0.0
0.0 0.012400000680696025 0.01096493937573963 -0.010305649126363595 -0.0006592902493760273 0.0007888769394653074 0.0 0.0
0.0 0.005825384853619043 0.005229374209799807 -0.004714053726078218 -0.0005153204837215896 0.00042845314829093 0.0 0.0
0.0 0.002187149778149924 0.001831936591254108 -0.0015526208894595037 -0.00027931570179460423 0.00019663148715190736 0.0 0.0
0.0 0.0004462005652170266 0.00035388377980016534 -0.0002822697662357393 -7.161401356442593e-05 5.1124867688822804e-05 0.0 0.0
0.0 4.385579173721889e-05 5.172837036228746e-06 -3.799771010627654e-06 -1.3730660256010448e-06 3.676121358686636e-07 0.0 0.0
0.0 0.0010928711422158461 0.0008007979765298952 -0.0006984395825217267 -0.00010235839400816907 -0.0006829918629170164 0.0 0.0
0.0 0.014947644393086794 0.011626833003385321 -0.012006552907204048 0.0003797199038187253 0.00672630728193113 0.0 0.0
0.0 0.011283013254925128 0.008221365072887097 -0.008719278533843565 0.0004979134609564677 -0.007899928276115662 0.0 0.0
0.0 3.487782054383999e-05 2.8060769214315733e-05 -2.5675339954077283e-05 -2.385429260238443e-06 1.82860077146516e-05 0.0 0.0
0.0 1.0510843392645805e-06 4.5048474666043165e-07 -3.411754010848409e-07 -1.0930934557559298e-07 -1.5643483650145512e-07 0.0 0.0
0.0 0.00020092777744778112 0.00015638095191800914 -0.00012356687596500984 -3.2814075952999466e-05 -5.3658919457029394e-05 0.0 0.0
0.0 0.0015161750144508648 0.0012339874872109428 -0.0010290616458213254 -0.00020492584138961811 -0.00032668217602916863 0.0 0.0
0.0 0.004569634581064201 0.004104731167744808 -0.003646940462831541 -0.00045779070491326667 -0.0008889478694753164 0.0 0.0
0.0 0.010409131542016033 0.009192876309980065 -0.008564585189914419 -0.0006282911200656425 -0.0017950048574230295 0.0 0.0
0.0 0.019263439258731876 0.01685774658138094 -0.01611495396530614 -0.0007427926160748024 -0.0031313114703976257 0.0 0.0
0.0 0.031257332496844946 0.027225815067886856 -0.026377578564164887 -0.0008482365037219523 -0.004921782595958571 0.0 0.0
0.0 0.046256372013899885 0.040180380975814195 -0.039223238078679105 -0.0009571428971350798 -0.007003151525408077 0.0 0.0
0.0 0.06397523427517379 0.05547609039566719 -0.05440814171127696 -0.001067948684390226 -0.009140960899067184 0.0 0.0
0.0 0.08415638010398153 0.07285385499429949 -0.07167429769831483 -0.001179557295984618 -0.011200006748038628 0.0 0.0
0.0 0.10622018016434841 0.09206691239472943 -0.09077422329464867 -0.001292689100080792 -0.013222186813701894 0.0 0.0
0.0 0.13010960042955574 0.11280691522881159 -0.11139884781907369 -0.0014080674097379214 -0.015192567905140031 0.0 0.0
0.0 0.15529408487864946 0.1346191626404366 -0.13309319179970275 -0.0015259708407338289 -0.016953855076170234 0.0 0.0
0.0 0.18090115401920598 0.1568169177864848 -0.1551712348378271 -0.0016456829486576926 -0.018176380812280197 0.0 0.0
0.0 0.20580541436064057 0.17841766303957524 -0.17665173548750085 -0.0017659275520743691 -0.01837552449634202 0.0 0.0
0.0 0.22849452763532424 0.1980968859357905 -0.19620945700991113 -0.0018874289258792778 -0.017313987739402473 0.0 0.0
0.0 0.2467968917246958 0.21398399900358528 -0.2119566831288338 -0.0020273158747513616 -0.015485355186605206 0.0 0.0
0.0 0.25777230883302427 0.22353702446910054 -0.2214026281866797 -0.0021343962824208395 -0.012731240495518372 0.0 0.0
0.0 0.2577723088330088 0.22353702446908646 -0.22140262818666617 -0.0021343962824204353 0.012731240495547006 0.0 0.0
0.0 0.24679689172464037 0.2139839990035368 -0.21195668312878463 -0.0020273158747521423 0.015485355186654485 0.0 0.0
0.0 0.2284945276352322 0.1980968859357109 -0.19620945700982995 -0.0018874289258807694 0.017313987739438444 0.0 0.0
0.0 0.20580541436053043 0.17841766303947998 -0.17665173548740504 -0.0017659275520747345 0.0183755244963573 0.0 0.0
0.0 0.18090115401908521 0.15681691778638027 -0.1551712348377235 -0.0016456829486566377 0.018176380812269174 0.0 0.0
0.0 0.15529408487852428 0.13461916264032758 -0.1330931917995954 -0.0015259708407321763 0.01695385507616355 0.0 0.0
0.0 0.13010960042942876 0.1128069152287014 -0.1113988478189643 -0.0014080674097370683 0.01519256790513617 0.0 0.0
0.0 0.1062201801642214 0.09206691239461945 -0.09077422329453909 -0.001292689100080366 0.013222186813694716 0.0 0.0
0.0 0.08415638010386156 0.07285385499419551 -0.07167429769821156 -0.0011795572959839074 0.011200006748023177 0.0 0.0
0.0 0.06397523427506636 0.05547609039557408 -0.05440814171118441 -0.0010679486843896654 0.009140960899054456 0.0 0.0
0.0 0.04625637201381041 0.040180380975736715 -0.03922323807860209 -0.0009571428971345943 0.007003151525389235 0.0 0.0
0.0 0.03125733249677353 0.02722581506782433 -0.026377578564102742 -0.000848236503721575 0.004921782595949699 0.0 0.0
0.0 0.01926343925867851 0.016857746581334303 -0.01611495396525991 -0.000742792616074393 0.003131311470388455 0.0 0.0
0.0 0.010409131541980959 0.009192876309949125 -0.008564585189883943 -0.000628291120065175 0.0017950048574166175 0.0 0.0
0.0 0.004569634581047098 0.004104731167729791 -0.0036469404628173717 -0.0004577907049124204 0.0008889478694719076 0.0 0.0
0.0 0.001516175014442877 0.001233987487204636 -0.0010290616458158283 -0.00020492584138880778 0.000326682176027711 0.0 0.0
0.0 0.0002009277774457297 0.00015638095191677245 -0.0001235668759639973 -3.281407595277502e-05 5.365891945657955e-05 0.0 0.0
0.0 1.0510843391106306e-06 4.5048474672491145e-07 -3.411754011314375e-07 -1.0930934559347637e-07 1.564348365109341e-07 0.0 0.0
0.0 3.487782054351754e-05 2.8060769214372444e-05 -2.5675339954082897e-05 -2.385429260289539e-06 -1.8286007714566125e-05 0.0 0.0
0.0 0.011283013254902434 0.008221365072872277 -0.008719278533828107 0.0004979134609558204 0.007899928276087917 0.0 0.0
0.0 0.008667424339336528 0.0059896205866511254 -0.006526229861408029 0.0005366092747569002 -0.007020993669055167 0.0 0.0
0.0 0.0 0.0 0.0 0.0 0.0 0.0 0.0
0.0 0.0 0.0 0.0 0.0 0.0 0.0 0.0
0.0 5.4628788481686646e-05 4.607345474861129e-05 -3.6162602547287154e-05 -9.910852201324147e-06 -2.910247893438587e-05 0.0 0.0
0.0 0.0009166502496767959 0.0007543671543649797 -0.0006191596104222961 -0.00013520754394268306 -0.0003520772970860642 0.0 0.0
0.0 0.0035810679163007617 0.003041342098147276 -0.002657548483134458 -0.00038379361501281883 -0.0011342962866194893 0.0 0.0
0.0 0.008486783599602801 0.007453531454990986 -0.006865300063605581 -0.0005882313913854056 -0.0024640324501369907 0.0 0.0
0.0 0.016356443641320138 0.014234003794699145 -0.013519458635166997 -0.00071454515953214 -0.004425700324232681 0.0 0.0
0.0 0.027090277235108894 0.023454754623634163 -0.022634418614063 -0.0008203360095711635 -0.006988472025626277 0.0 0.0
0.0 0.040468945056233094 0.03495852825031405 -0.03403512101980807 -0.0009234072305059636 -0.009921709474023141 0.0 0.0
0.0 0.056224201368885306 0.048497457497604354 -0.047471507101786554 -0.0010259503958177855 -0.012931483130833494 0.0 0.0
0.0 0.0740012694635543 0.06384518009954056 -0.06271676566597585 -0.0011284144335647092 -0.015845309878932932 0.0 0.0
0.0 0.09374012317383568 0.08080111013187564 -0.07956948768614946 -0.0012316224457261504 -0.01868699644516234 0.0 0.0
0.0 0.11483334693090466 0.09913131987456265 -0.09779530353278806 -0.0013360163417745392 -0.021469653285221692 0.0 0.0
0.0 0.13713781370775738 0.11847569189890696 -0.11703416366140415 -0.0014415282375027883 -0.024001871301881358 0.0 0.0
0.0 0.15999513117277292 0.13828134749247245 -0.13673250105807366 -0.0015488464343988181 -0.02583407274114731 0.0 0.0
0.0 0.18235691937878074 0.15771348573030974 -0.15605363651356688 -0.0016598492167428432 -0.026392182833992216 0.0 0.0
0.0 0.2027698792810367 0.17551412441750808 -0.17373424152738604 -0.0017798828901220295 -0.025280508001923933 0.0 0.0
0.0 0.21918757549684523 0.18988589060816718 -0.18798861699206076 -0.0018972736161063225 -0.02201929264531698 0.0 0.0
0.0 0.2292918810715784 0.19882187169766313 -0.1968386304993118 -0.0019832411983511516 -0.01554487725677605 0.0 0.0
0.0 0.22929188107156345 0.19882187169764867 -0.19683863049929884 -0.001983241198349851 0.015544877256823752 0.0 0.0
0.0 0.21918757549679801 0.18988589060812328 -0.18798861699201885 -0.001897273616104522 0.02201929264538389 0.0 0.0
0.0 0.2027698792809619 0.17551412441744116 -0.17373424152731992 -0.0017798828901210593 0.025280508001973206 0.0 0.0
0.0 0.1823569193786928 0.15771348573023156 -0.15605363651349088 -0.0016598492167408424 0.026392182834013588 0.0 0.0
0.0 0.15999513117267022 0.1382813474923828 -0.1367325010579861 -0.0015488464343966554 0.02583407274113743 0.0 0.0
0.0 0.13713781370764122 0.11847569189880611 -0.11703416366130422 -0.0014415282375018971 0.024001871301872015 0.0 0.0
0.0 0.11483334693079214 0.0991313198744645 -0.09779530353269122 -0.0013360163417732744 0.021469653285216158 0.0 0.0
0.0 0.09374012317372506 0.08080111013177951 -0.07956948768605401 -0.0012316224457254417 0.01868699644515468 0.0 0.0
0.0 0.07400126946344494 0.06384518009944656 -0.062716765665882 -0.0011284144335646192 0.01584530987891212 0.0 0.0
0.0 0.05622420136878957 0.048497457497521455 -0.047471507101704016 -0.0010259503958174063 0.012931483130813862 0.0 0.0
0.0 0.040468945056157085 0.03495852825024838 -0.03403512101974304 -0.0009234072305053274 0.009921709473999717 0.0 0.0
0.0 0.02709027723504929 0.02345475462358228 -0.022634418614011678 -0.0008203360095705933 0.006988472025613154 0.0 0.0
0.0 0.01635644364127642 0.014234003794661004 -0.0135194586351295 -0.0007145451595314976 0.004425700324220679 0.0 0.0
0.0 0.008486783599574242 0.007453531454965956 -0.00686530006358124 -0.0005882313913847148 0.0024640324501288453 0.0 0.0
0.0 0.0035810679162862867 0.0030413420981353087 -0.0026575484831233265 -0.0003837936150119823 0.0011342962866143797 0.0 0.0
0.0 0.0009166502496719099 0.0007543671543613391 -0.0006191596104192064 -0.00013520754394213266 0.00035207729708429023 0.0 0.0
0.0 5.462878848070337e-05 4.607345474827267e-05 -3.616260254700557e-05 -9.91085220126714e-06 2.9102478934120207e-05 0.0 0.0
0.0 0.0 0.0 0.0 0.0 0.0 0.0 0.0
0.0 0.0 0.0 0.0 0.0 0.0 0.0 0.0
0.0 0.008667424339315931 0.005989620586637056 -0.006526229861393419 0.0005366092747563573 0.007020993669031839 0.0 0.0
0.0 0.006586246394806808 0.004375266258339017 -0.004891655092062322 0.0005163888337233052 -0.005622788394512667 0.0 0.0
0.0 0.0 0.0 0.0 0.0 0.0 0.0 0.0
0.0 0.0 0.0 0.0 0.0 0.0 0.0 0.0
0.0 1.1164723939156538e-05 6.883051256736424e-06 -5.392542874482362e-06 -1.4905083822540469e-06 -7.101331982093529e-06 0.0 0.0
0.0 0.0004929807678058846 0.0003966557055137175 -0.0003215559422748092 -7.50997632389081e-05 -0.00029444271057555067 0.0 0.0
0.0 0.002546923183067715 0.002107928757685313 -0.0018082109431107672 -0.0002997178145745464 -0.001189742758617148 0.0 0.0
0.0 0.0067027147379559535 0.005770935556871152 -0.005239921016471772 -0.0005310145403993782 -0.0028029846116524983 0.0 0.0
0.0 0.013507827595641408 0.011630855938894454 -0.010951699706577039 -0.0006791562323174179 -0.005230494515661364 0.0 0.0
0.0 0.022943842200739986 0.019668154805489706 -0.018881777952723493 -0.0007863768527662223 -0.00834927446966632 0.0 0.0
0.0 0.03468231143579065 0.029696501685413955 -0.028812169306502593 -0.0008843323789113325 -0.011891509131143957 0.0 0.0
0.0 0.048444152130967644 0.04146519695951218 -0.04048613237571816 -0.0009790645837940172 -0.015519025731064253 0.0 0.0
0.0 0.0639741438421911 0.05477296810921787 -0.053700413322461386 -0.0010725547867564721 -0.019054364767494242 0.0 0.0
0.0 0.08107339422869556 0.06946661391318282 -0.06830087056210124 -0.0011657433510815559 -0.022517421822847397 0.0 0.0
0.0 0.09958116871628502 0.08537232551122467 -0.08411300719420904 -0.001259318317015628 -0.02587195439157604 0.0 0.0
0.0 0.11914491748576314 0.1022273749955251 -0.10087492496832275 -0.0013524500272023327 -0.02893781266405042 0.0 0.0
0.0 0.13905193160998933 0.11961887204969782 -0.11817172404059209 -0.0014471480091056814 -0.03130551224226259 0.0 0.0
0.0 0.15887821227352245 0.13686027172349663 -0.1353118496438679 -0.0015484220796286186 -0.03232659416873046 0.0 0.0
0.0 0.17713643037445034 0.15284545492004767 -0.15118888096060754 -0.0016565739594400827 -0.031231946917626954 0.0 0.0
0.0 0.19202251352212907 0.1660230727949234 -0.16426265533086998 -0.0017604174640533715 -0.026864108293112764 0.0 0.0
0.0 0.20163535934794327 0.1747077314249485 -0.1728700358587065 -0.0018376955662421084 -0.017792440961441898 0.0 0.0
0.0 0.2016353593479312 0.17470773142493679 -0.17287003585869454 -0.0018376955662423925 0.017792440961502377 0.0 0.0
0.0 0.19202251352208738 0.16602307279488449 -0.1642626553308301 -0.0017604174640542983 0.026864108293189942 0.0 0.0
0.0 0.17713643037438026 0.1528454549199843 -0.15118888096054342 -0.0016565739594407857 0.031231946917682992 0.0 0.0
0.0 0.158878212273434 0.1368602717234191 -0.13531184964378914 -0.0015484220796298934 0.03232659416875324 0.0 0.0
0.0 0.13905193160989618 0.11961887204961724 -0.11817172404051175 -0.0014471480091054654 0.03130551224225321 0.0 0.0
0.0 0.11914491748566186 0.10222737499543763 -0.10087492496823561 -0.0013524500272019844 0.028937812664037797 0.0 0.0
0.0 0.0995811687161848 0.08537232551113773 -0.08411300719412265 -0.0012593183170151333 0.02587195439156484 0.0 0.0
0.0 0.08107339422860305 0.06946661391310202 -0.06830087056202166 -0.0011657433510803288 0.02251742182283624 0.0 0.0
0.0 0.06397414384210236 0.054772968109141076 -0.05370041332238576 -0.0010725547867553172 0.01905436476747075 0.0 0.0
0.0 0.04844415213088599 0.041465196959441765 -0.04048613237564866 -0.000979064583793084 0.015519025731038995 0.0 0.0
0.0 0.0346823114357218 0.029696501685355352 -0.02881216930644475 -0.0008843323789105806 0.011891509131115178 0.0 0.0
0.0 0.02294384220068539 0.019668154805442727 -0.018881777952676905 -0.0007863768527658258 0.008349274469648916 0.0 0.0
0.0 0.013507827595599898 0.011630855938859033 -0.010951699706541787 -0.0006791562323172403 0.005230494515645192 0.0 0.0
0.0 0.006702714737930134 0.0057709355568492686 -0.0052399210164506185 -0.0005310145403986511 0.0028029846116423337 0.0 0.0
0.0 0.0025469231830545416 0.002107928757675035 -0.001808210943101495 -0.00029971781457353917 0.001189742758611366 0.0 0.0
0.0 0.0004929807678012863 0.00039665570551068393 -0.0003215559422722246 -7.50997632384594e-05 0.0002944427105731924 0.0 0.0
0.0 1.116472393867259e-05 6.883051256970521e-06 -5.392542874662615e-06 -1.4905083823079004e-06 7.101331982313837e-06 0.0 0.0
0.0 0.0 0.0 0.0 0.0 0.0 0.0 0.0
0.0 0.0 0.0 0.0 0.0 0.0 0.0 0.0
0.0 0.006586246394788674 0.004375266258326933 -0.004891655092049617 0.0005163888337226829 0.005622788394494312 0.0 0.0
0.0 0.0048630929058376075 0.0031212816192932296 -0.0035815115454737503 0.0004602299261805224 -0.004235498664523102 0.0 0.0
0.0 0.0 0.0 0.0 0.0 0.0 0.0 0.0
0.0 0.0 0.0 0.0 0.0 0.0 0.0 0.0
0.0 1.8215530669387722e-06 1.08602907892169e-06 -8.359190984002262e-07 -2.501099805214632e-07 -1.6200993553710983e-06 0.0 0.0
0.0 0.00022916528469968327 0.00017022016175233408 -0.0001370557419189048 -3.316441983342927e-05 -0.00019384332778262607 0.0 0.0
0.0 0.0016609100486372267 0.0013290578777138216 -0.0011188892629400472 -0.00021016861477377407 -0.0010999115823105104 0.0 0.0
0.0 0.00512655087476493 0.004195518861976757 -0.0037410885550676117 -0.0004544303069091434 -0.002824609128611148 0.0 0.0
0.0 0.010791861328309314 0.009080435060859557 -0.0084492831297477 -0.0006311519311118551 -0.0055047151093328564 0.0 0.0
0.0 0.018844741871061693 0.0159090255412723 -0.015163802076891367 -0.0007452234643809435 -0.008998706098176283 0.0 0.0
0.0 0.02893379939101915 0.02444076261195953 -0.023601682085635255 -0.0008390805263242656 -0.012912113990936327 0.0 0.0
0.0 0.04070551558252892 0.03442625241601831 -0.033499638627386155 -0.0009266137886321727 -0.016915570493908776 0.0 0.0
0.0 0.053917651249594925 0.045685504431492906 -0.04467444734661945 -0.001011057084873414 -0.02082595788277149 0.0 0.0
0.0 0.06851697118511288 0.05810829041634084 -0.05701398388200876 -0.0010943065343320794 -0.024662795914512203 0.0 0.0
0.0 0.08416935650820534 0.07158503938809639 -0.07040806858074275 -0.0011769708073536718 -0.028395793761603103 0.0 0.0
0.0 0.10087854267547983 0.08593280427918153 -0.08467427035398908 -0.0012585339251924461 -0.031809320010646416 0.0 0.0
0.0 0.11826786995137932 0.10085697438053234 -0.09951623308357116 -0.0013407412969610932 -0.03453396636034902 0.0 0.0
0.0 0.1353680800002379 0.11585755781498618 -0.11442968616822706 -0.0014278716467590702 -0.0359847507659222 0.0 0.0
0.0 0.15147878322512567 0.13008253107670795 -0.12856022574859427 -0.0015223053281135954 -0.035128680660853465 0.0 0.0
0.0 0.16507173487772414 0.14226497793079723 -0.1406490209213966 -0.0016159570094005764 -0.030269113558936314 0.0 0.0
0.0 0.17445709848393107 0.1509316539258281 -0.1492403067532782 -0.0016913471725497884 -0.019647210659304287 0.0 0.0
0.0 0.17445709848392146 0.15093165392581748 -0.1492403067532677 -0.0016913471725496277 0.019647210659369387 0.0 0.0
0.0 0.16507173487768995 0.14226497793076281 -0.14064902092136267 -0.0016159570094001405 0.03026911355902004 0.0 0.0
0.0 0.15147878322507194 0.1300825310766565 -0.12856022574854398 -0.0015223053281124756 0.03512868066091582 0.0 0.0
0.0 0.13536808000016654 0.1158575578149216 -0.11442968616816324 -0.001427871646758335 0.035984750765949244 0.0 0.0
0.0 0.11826786995129737 0.10085697438046123 -0.09951623308350067 -0.0013407412969605656 0.03453396636033795 0.0 0.0
0.0 0.10087854267539395 0.08593280427910713 -0.0846742703539152 -0.0012585339251919932 0.031809320010633337 0.0 0.0
0.0 0.08416935650812148 0.07158503938802338 -0.07040806858067077 -0.0011769708073526477 0.028395793761590585 0.0 0.0
0.0 0.06851697118503235 0.05810829041627092 -0.05701398388193898 -0.0010943065343318973 0.02466279591449882 0.0 0.0
0.0 0.05391765124951573 0.04568550443142527 -0.044674447346552 -0.0010110570848732578 0.020825957882745848 0.0 0.0
0.0 0.040705515582458156 0.034426252415958224 -0.03349963862732662 -0.0009266137886315988 0.01691557049388022 0.0 0.0
0.0 0.0289337993909584 0.024440762611909122 -0.023601682085585503 -0.0008390805263236321 0.01291211399090341 0.0 0.0
0.0 0.018844741871017524 0.015909025541234807 -0.01516380207685442 -0.0007452234643803782 0.00899870609815697 0.0 0.0
0.0 0.010791861328277993 0.00908043506083343 -0.008449283129722329 -0.0006311519311111023 0.005504715109317425 0.0 0.0
0.0 0.005126550874745206 0.00419551886196062 -0.0037410885550525482 -0.0004544303069080717 0.002824609128601841 0.0 0.0
0.0 0.001660910048628082 0.0013290578777069423 -0.0011188892629341199 -0.0002101686147728221 0.0010999115823051547 0.0 0.0
0.0 0.00022916528469722576 0.00017022016175105087 -0.0001370557419178392 -3.316441983321161e-05 0.00019384332778112136 0.0 0.0
0.0 1.8215530668851006e-06 1.086029079125595e-06 -8.359190985590149e-07 -2.5010998056657757e-07 1.620099355691395e-06 0.0 0.0
0.0 0.0 0.0 0.0 0.0 0.0 0.0 0.0
0.0 0.0 0.0 0.0 0.0 0.0 0.0 0.0
0.0 0.004863092905822902 0.003121281619283626 -0.003581511545463429 0.0004602299261798011 0.0042354986645092695 0.0 0.0
0.0 0.003415623201284296 0.0021292838168730874 -0.002509902977265877 0.0003806191603927889 -0.0030303023856318484 0.0 0.0
0.0 0.0 0.0 0.0 0.0 0.0 0.0 0.0
0.0 0.0 0.0 0.0 0.0 0.0 0.0 0.0
0.0 1.2459832782016668e-06 -8.711175530045244e-08 6.722946238267231e-08 1.9882292917777628e-08 2.0432140011233723e-07 0.0 0.0
0.0 0.0001032378501682164 6.256137814542391e-05 -5.0219055827627855e-05 -1.234232231779605e-05 -0.00010728577918654038 0.0 0.0
0.0 0.0009663838565199799 0.0007335089388174575 -0.0006073821575022638 -0.0001261267813151936 -0.00089408108562647 0.0 0.0
0.0 0.003545949197520103 0.0028030315803216233 -0.002446408318363227 -0.00035662326195839663 -0.002626723374452412 0.0 0.0
0.0 0.008205855055071251 0.00664528053069899 -0.006083880557331901 -0.0005613999733670863 -0.00532126612257266 0.0 0.0
0.0 0.014871394962186691 0.012219560766076188 -0.011526712126898419 -0.000692848639177768 -0.008910062680857474 0.0 0.0
0.0 0.023247240730643028 0.019239418823175407 -0.018453365284132685 -0.0007860535390427222 -0.012974452987297483 0.0 0.0
0.0 0.032994460498422716 0.027430720067261265 -0.02656385165186121 -0.000866868415400056 -0.017107304368166317 0.0 0.0
0.0 0.04391091967933872 0.03663463416882352 -0.03569180191652699 -0.0009428322522965495 -0.02115086193622426 0.0 0.0
0.0 0.05589837926523228 0.04678145949429052 -0.04576548345329001 -0.0010159760410004901 -0.02512842605549792 0.0 0.0
0.0 0.06889288071454952 0.05781929353746014 -0.0567315547137585 -0.00108773882370165 -0.028994964517099868 0.0 0.0
0.0 0.08278372939680341 0.0696425117236619 -0.06848373755329468 -0.0011587741703672732 -0.03255932739138572 0.0 0.0
0.0 0.09706267275557895 0.0820533514708609 -0.0808251732034086 -0.0012281782674523072 -0.035491773770817796 0.0 0.0
0.0 0.11175981543620694 0.09473579144515258 -0.09343693874424311 -0.0012988527009094547 -0.037263657642833806 0.0 0.0
0.0 0.12588589182272322 0.10717251444236009 -0.10579577431994383 -0.0013767401224162167 -0.03685004711539726 0.0 0.0
0.0 0.13814267368448052 0.11845026052219389 -0.1169891400698184 -0.001461120452375402 -0.032230066601197066 0.0 0.0
0.0 0.14748266300376087 0.12726418443099258 -0.12572482314229969 -0.0015393612886927957 -0.021154249306205845 0.0 0.0
0.0 0.1474826630037507 0.12726418443098114 -0.12572482314228806 -0.0015393612886930455 0.021154249306272903 0.0 0.0
0.0 0.13814267368445352 0.11845026052216494 -0.11698914006978887 -0.001461120452376065 0.032230066601282636 0.0 0.0
0.0 0.12588589182267496 0.1071725144423133 -0.10579577431989583 -0.0013767401224174963 0.03685004711545874 0.0 0.0
0.0 0.11175981543615021 0.09473579144510058 -0.09343693874419089 -0.0012988527009096412 0.037263657642858786 0.0 0.0
0.0 0.09706267275551135 0.082053351470803 -0.08082517320335052 -0.0012281782674524603 0.035491773770804834 0.0 0.0
0.0 0.082783729396735 0.06964251172360285 -0.06848373755323603 -0.0011587741703668003 0.032559327391371344 0.0 0.0
0.0 0.06889288071448083 0.05781929353740045 -0.056731554713699006 -0.001087738823701463 0.028994964517086698 0.0 0.0
0.0 0.055898379265164846 0.046781459494232264 -0.04576548345323226 -0.0010159760410000142 0.0251284260554828 0.0 0.0
0.0 0.043910919679273464 0.03663463416876819 -0.03569180191647244 -0.0009428322522957428 0.021150861936199375 0.0 0.0
0.0 0.032994460498363284 0.027430720067211877 -0.026563851651811972 -0.0008668684153999064 0.017107304368137632 0.0 0.0
0.0 0.023247240730591114 0.01923941882313334 -0.018453365284090955 -0.0007860535390423866 0.01297445298726364 0.0 0.0
0.0 0.014871394962147825 0.01221956076604384 -0.011526712126866907 -0.0006928486391769283 0.008910062680835773 0.0 0.0
0.0 0.008205855055044712 0.006645280530677557 -0.006083880557311186 -0.0005613999733663728 0.005321266122556758 0.0 0.0
0.0 0.003545949197502806 0.0028030315803080647 -0.00244640831835075 -0.0003566232619573147 0.002626723374441265 0.0 0.0
0.0 0.0009663838565126987 0.0007335089388126312 -0.0006073821574980856 -0.00012612678131454524 0.0008940810856204781 0.0 0.0
0.0 0.00010323785016714893 6.256137814536304e-05 -5.021905582755009e-05 -1.2342322317812971e-05 0.00010728577918624755 0.0 0.0
0.0 1.245983277765114e-06 -8.711175526903953e-08 6.722946235833695e-08 1.9882292910690027e-08 -2.0432140003799813e-07 0.0 0.0
0.0 0.0 0.0 0.0 0.0 0.0 0.0 0.0
0.0 0.0 0.0 0.0 0.0 0.0 0.0 0.0
0.0 0.003415623201272404 0.0021292838168656147 -0.002509902977257708 0.000380619160392093 0.003030302385620939 0.0 0.0
0.0 0.0022615856943498302 0.0013498204062795814 -0.0016359991085882963 0.00028617870230871395 -0.00202973571016305 0.0 0.0
0.0 6.808126749334917e-07 -1.0371231226033877e-08 1.1382208934150606e-08 -1.010977708115995e-09 1.3495275768488005e-07 0.0 0.0
0.0 3.7869285625906513e-07 -1.0853022555903305e-08 7.76318668522007e-09 3.0898358706842675e-09 7.416418593090768e-08 0.0 0.0
0.0 1.3604614703143307e-06 -5.974308560016638e-08 4.603161736336619e-08 1.371146823681022e-08 2.2487839151353993e-07 0.0 0.0
0.0 5.487268379544059e-05 2.750236385611569e-05 -2.1942037802603097e-05 -5.560326053512613e-06 -7.071016268509523e-05 0.0 0.0
0.0 0.0005377704704878536 0.0003334759300715647 -0.0002725696726575657 -6.09062574139992e-05 -0.0006103161902084873 0.0 0.0
0.0 0.0022424271642190793 0.0016320720440738687 -0.0013908601015494417 -0.00024121194252442804 -0.0021886954553908084 0.0 0.0
0.0 0.0057462668083028915 0.004408765307335751 -0.003946807509917855 -0.00046195779741789315 -0.0047437607245869075 0.0 0.0
0.0 0.01101532331608037 0.008670881423788603 -0.008051775819353837 -0.0006191056044347628 -0.008132207344587175 0.0 0.0
0.0 0.017656559068563164 0.014145150716568699 -0.013424641161610048 -0.0007205095549586503 -0.01204884966540025 0.0 0.0
0.0 0.02536566832859846 0.02053157184177865 -0.01973481106303615 -0.0007967607787424979 -0.016083065112059532 0.0 0.0
0.0 0.03395770648230824 0.02767850649337121 -0.02681329959968621 -0.000865206893685 -0.02001730078245619 0.0 0.0
0.0 0.043393072522220306 0.03554580368105444 -0.03461734201970978 -0.0009284616613446605 -0.023879668002035878 0.0 0.0
0.0 0.05359366568841497 0.044136278900234735 -0.0431472559517862 -0.0009890229484485228 -0.02766210552968216 0.0 0.0
0.0 0.06456898301671328 0.05341687126150434 -0.05236791154938025 -0.0010489597121240808 -0.03117520193257691 0.0 0.0
0.0 0.07610494006440371 0.06327424037664559 -0.06216601169818068 -0.0011082286784649387 -0.03408844723048629 0.0 0.0
0.0 0.08791887127520487 0.07354672316479714 -0.0723849908566154 -0.0011617323081817054 -0.036041764942481916 0.0 0.0
0.0 0.09983168803149706 0.08407173595603762 -0.08285346342780234 -0.001218272528235285 -0.03625814118515275 0.0 0.0
0.0 0.11119950232158504 0.09440166332243027 -0.09311088613009016 -0.0012907771923400544 -0.03262559147833823 0.0 0.0
0.0 0.12069356118741921 0.10346722682446002 -0.10209118056500929 -0.001376046259450699 -0.022284020920212155 0.0 0.0
0.0 0.12069356118741129 0.10346722682445014 -0.10209118056499919 -0.0013760462594508765 0.02228402092027372 0.0 0.0
0.0 0.11119950232156654 0.09440166332240627 -0.09311088613006757 -0.001290777192338787 0.032625591478423546 0.0 0.0
0.0 0.09983168803146791 0.08407173595600492 -0.08285346342777114 -0.0012182725282336966 0.03625814118521527 0.0 0.0
0.0 0.08791887127516379 0.07354672316475713 -0.07238499085657639 -0.00116173230818076 0.03604176494250885 0.0 0.0
0.0 0.07610494006435474 0.06327424037660284 -0.06216601169813951 -0.001108228678463342 0.03408844723047524 0.0 0.0
0.0 0.06456898301665479 0.05341687126145416 -0.05236791154933082 -0.0010489597121233292 0.03117520193255996 0.0 0.0
0.0 0.053593665688359465 0.04413627890018704 -0.043147255951738975 -0.0009890229484480657 0.027662105529667254 0.0 0.0
0.0 0.04339307252217257 0.03554580368101318 -0.03461734201966919 -0.00092846166134398 0.02387966800202342 0.0 0.0
0.0 0.03395770648225497 0.0276785064933269 -0.026813299599642182 -0.0008652068936847287 0.020017300782431066 0.0 0.0
0.0 0.025365668328551687 0.020531571841740714 -0.019734811062998944 -0.0007967607787417487 0.016083065112030684 0.0 0.0
0.0 0.017656559068524827 0.014145150716539079 -0.013424641161580961 -0.0007205095549581136 0.012048849665369833 0.0 0.0
0.0 0.011015323316049873 0.008670881423764723 -0.008051775819330288 -0.0006191056044344367 0.008132207344567174 0.0 0.0
0.0 0.005746266808282614 0.00440876530732006 -0.003946807509903063 -0.0004619577974169957 0.004743760724572815 0.0 0.0
0.0 0.0022424271642072233 0.0016320720440651866 -0.0013908601015416593 -0.0002412119425235262 0.0021886954553811625 0.0 0.0
0.0 0.0005377704704832472 0.0003334759300691029 -0.000272569672655535 -6.090625741356772e-05 0.0006103161902041705 0.0 0.0
0.0 5.487268379393861e-05 2.7502363855948933e-05 -2.1942037802460944e-05 -5.56032605348799e-06 7.071016268464991e-05 0.0 0.0
0.0 1.3604614700957627e-06 -5.974308549345286e-08 4.603161728269662e-08 1.3711468210758126e-08 -2.248783911487155e-07 0.0 0.0
0.0 3.786928558295237e-07 -1.0853022544114866e-08 7.763186676628835e-09 3.0898358674860974e-09 -7.416418584570931e-08 0.0 0.0
0.0 6.808126741997652e-07 -1.0371231215047161e-08 1.1382208922371451e-08 -1.0109777073237724e-09 -1.34952757536912e-07 0.0 0.0
0.0 0.0022615856943404016 0.0013498204062740696 -0.0016359991085820376 0.0002861787023079673 0.002029735710154881 0.0 0.0
0.0 0.0013545747592288617 0.0007611894656445282 -0.0009514404091743407 0.00019025094352981224 -0.0012252932248409073 0.0 0.0
0.0 1.9909435639756062e-06 8.937412855415981e-08 -9.003860818553321e-08 6.64479631372085e-10 -2.003614770262574e-06 0.0 0.0
0.0 7.633755124324298e-07 1.1639296250846529e-08 -7.3622224910363894e-09 -4.277073759809611e-09 -9.900157643555218e-08 0.0 0.0
0.0 2.656093539326999e-06 4.3207230209831995e-07 -3.3300968329804633e-07 -9.906261880027146e-08 -2.803796369481086e-06 0.0 0.0
0.0 4.3474987193112396e-05 1.5399942431056103e-05 -1.221223206604971e-05 -3.18771036500641e-06 -6.212748718691663e-05 0.0 0.0
0.0 0.0002892437187322723 0.00013297190916025865 -0.00010767024920738318 -2.5301659952875457e-05 -0.00039306840742446466 0.0 0.0
0.0 0.0012659926391622187 0.0007582858688359373 -0.0006311454923103198 -0.00012714037652561739 -0.0015788992641736202 0.0 0.0
0.0 0.0035647624962552586 0.002454533494794855 -0.002132055904810567 -0.0003224775899842872 -0.003788299853801637 0.0 0.0
0.0 0.0073552637756476545 0.005361168754515706 -0.004855056275185461 -0.0005061124793302413 -0.006748340359278224 0.0 0.0
0.0 0.012159381311191972 0.009241774357012518 -0.008613673615833527 -0.0006281007411789909 -0.010187094262047947 0.0 0.0
0.0 0.017905477174953534 0.013798634921419846 -0.013090550253328274 -0.0007080846680915691 -0.013803045423790326 0.0 0.0
0.0 0.024135631280281053 0.018886971873423322 -0.018115683952175637 -0.0007712879212476847 -0.017378573122726233 0.0 0.0
0.0 0.030967664496885556 0.024476995904118493 -0.023651042079156418 -0.0008259538249620826 -0.020895782744051798 0.0 0.0
0.0 0.038431630185154095 0.03060898520367786 -0.029733601080885724 -0.0008753841227921333 -0.02434395202673449 0.0 0.0
0.0 0.04656812621273946 0.03732462197448459 -0.0364013088019773 -0.0009233131725072701 -0.027605321932795537 0.0 0.0
0.0 0.05518039456628561 0.04460518538100112 -0.04363262085087698 -0.0009725645301241244 -0.03035334094235352 0.0 0.0
0.0 0.06426647936137367 0.05238731013359686 -0.05137116418458921 -0.0010161459490076407 -0.03222325492277406 0.0 0.0
0.0 0.07373448542420188 0.06077476011824408 -0.05972849569204021 -0.0010462644262038386 -0.03299291991908302 0.0 0.0
0.0 0.08366830889141236 0.06993559626395333 -0.06884005952992657 -0.0010955367340267374 -0.031087309694208556 0.0 0.0
0.0 0.09327213418956361 0.07927062085909879 -0.07808051884770029 -0.0011901020113985888 -0.02291538277351653 0.0 0.0
0.0 0.09327213418955856 0.07927062085909105 -0.07808051884769181 -0.0011901020113992528 0.022915382773570855 0.0 0.0
0.0 0.08366830889140565 0.0699355962639393 -0.0688400595299122 -0.0010955367340270681 0.03108730969428815 0.0 0.0
0.0 0.07373448542418355 0.060774760118220444 -0.05972849569201699 -0.0010462644262034275 0.032992919919140634 0.0 0.0
0.0 0.06426647936134547 0.05238731013356834 -0.05137116418456226 -0.0010161459490061143 0.03222325492279353 0.0 0.0
0.0 0.05518039456624556 0.044605185380967645 -0.043632620850844114 -0.0009725645301235204 0.030353340942338616 0.0 0.0
0.0 0.046568126212695286 0.03732462197444804 -0.03640130880194106 -0.0009233131725069899 0.027605321932777017 0.0 0.0
0.0 0.03843163018511546 0.03060898520364539 -0.02973360108085365 -0.000875384122791745 0.02434395202672098 0.0 0.0
0.0 0.030967664496849547 0.024476995904088025 -0.02365104207912596 -0.0008259538249620705 0.02089578274404004 0.0 0.0
0.0 0.02413563128024922 0.01888697187339785 -0.018115683952150692 -0.0007712879212471572 0.017378573122706808 0.0 0.0
0.0 0.017905477174919755 0.013798634921393382 -0.013090550253302377 -0.0007080846680909935 0.01380304542376663 0.0 0.0
0.0 0.01215938131115957 0.00924177435698895 -0.0086136736158106 -0.0006281007411783465 0.010187094262019084 0.0 0.0
0.0 0.007355263775622895 0.005361168754497098 -0.004855056275167633 -0.0005061124793294654 0.006748340359258757 0.0 0.0
0.0 0.003564762496239466 0.0024545334947834838 -0.002132055904800116 -0.00032247758998336874 0.003788299853787217 0.0 0.0
0.0 0.0012659926391541908 0.0007582858688309731 -0.0006311454923061309 -0.00012714037652484172 0.0015788992641654156 0.0 0.0
0.0 0.00028924371872928703 0.00013297190915925066 -0.00010767024920654226 -2.5301659952708324e-05 0.000393068407421555 0.0 0.0
0.0 4.347498719186143e-05 1.539994243111142e-05 -1.2212232066089397e-05 -3.187710365022013e-06 6.212748718713122e-05 0.0 0.0
0.0 2.656093539175768e-06 4.320723022134924e-07 -3.3300968338521217e-07 -9.906261882828318e-08 2.8037963702199553e-06 0.0 0.0
0.0 7.633755121719557e-07 1.1639296305305632e-08 -7.362222527284898e-09 -4.277073778019772e-09 9.900157712365212e-08 0.0 0.0
0.0 1.990943563442868e-06 8.937412859515158e-08 -9.003860823331489e-08 6.644796381632018e-10 2.0036147712665254e-06 0.0 0.0
0.0 0.00135457475922213 0.0007611894656410886 -0.0009514404091702916 0.00019025094352920308 0.0012252932248354807 0.0 0.0
0.0 0.0006482152321725754 0.00035708407743770477 -0.000463691680185302 0.00010660760274759757 -0.0006243031887038894 0.0 0.0
0.0 4.019246488733748e-06 7.100361481055528e-08 -9.711166305319884e-08 2.610804824264373e-08 -2.9294484840599885e-06 0.0 0.0
0.0 3.1474671524949766e-06 4.223763914944078e-08 -1.7262206394828826e-08 -2.4975432754612166e-08 -2.8335859707218914e-06 0.0 0.0
0.0 6.2820152592075355e-06 5.666717921232437e-07 -4.0043243330401657e-07 -1.6623935881922391e-07 -8.109388045270671e-06 0.0 0.0
0.0 4.6368174813839166e-05 9.220321881432315e-06 -7.215768841864341e-06 -2.004553039567978e-06 -7.048574933251524e-05 0.0 0.0
0.0 0.00019965635550078076 5.377387052432864e-05 -4.336047594118681e-05 -1.0413394583141836e-05 -0.00029563217783171907 0.0 0.0
0.0 0.0006637803444020986 0.0002521585795192915 -0.00020583903858459971 -4.631954093469154e-05 -0.0009855992893581646 0.0 0.0
0.0 0.0018180540484379 0.0009390336909150998 -0.0007861481429484381 -0.00015288554796666159 -0.002522671658938254 0.0 0.0
0.0 0.004017079177534776 0.0024414969930041633 -0.0021209315336559505 -0.00032056545934821206 -0.004801010724848017 0.0 0.0
0.0 0.0070320179396209555 0.004666569175567301 -0.00419808236283888 -0.0004684868127284214 -0.007475280311894578 0.0 0.0
0.0 0.010588481464022276 0.007362957545498715 -0.0067932407452992935 -0.0005697168001994179 -0.010350414552114724 0.0 0.0
0.0 0.014609065675700748 0.01037432842657296 -0.00973710024896913 -0.0006372281776038202 -0.013279332298460898 0.0 0.0
0.0 0.01894934760559376 0.013689199748875665 -0.013000270701905804 -0.0006889290469698656 -0.01623242198709312 0.0 0.0
0.0 0.023703984719413804 0.01736092721836136 -0.016630827510687528 -0.000730099707673818 -0.01914874849376086 0.0 0.0
0.0 0.028934381456362915 0.021480161356041177 -0.020714516341813656 -0.0007656450142275157 -0.021967179413612956 0.0 0.0
0.0 0.03467502753909113 0.026144860680372247 -0.025343190114453126 -0.0008016705659191214 -0.024482525688002937 0.0 0.0
0.0 0.04093231461989457 0.03141211386696635 -0.030570308909201333 -0.0008418049577650406 -0.026247098006062262 0.0 0.0
0.0 0.0478583752510999 0.03745203232201946 -0.036588708513622364 -0.000863323808397113 -0.027124697927963782 0.0 0.0
0.0 0.056161100618350945 0.044925495388056645 -0.044063866156292646 -0.0008616292317639852 -0.027019725016690397 0.0 0.0
0.0 0.06575739449104838 0.05431275636958161 -0.05335604094979544 -0.0009567154197861956 -0.022690976969569142 0.0 0.0
0.0 0.06575739449104845 0.054312756369577136 -0.05335604094979076 -0.0009567154197863977 0.02269097696961652 0.0 0.0
0.0 0.05616110061835081 0.044925495388047784 -0.044063866156283486 -0.0008616292317642549 0.027019725016760435 0.0 0.0
0.0 0.04785837525108913 0.03745203232200225 -0.03658870851360478 -0.0008633238083974616 0.027124697928014536 0.0 0.0
0.0 0.04093231461987054 0.031412113866943835 -0.03057030890917783 -0.0008418049577660087 0.02624709800607141 0.0 0.0
0.0 0.03467502753906296 0.026144860680351326 -0.025343190114432014 -0.0008016705659193107 0.024482525687984646 0.0 0.0
0.0 0.02893438145633876 0.021480161356023077 -0.020714516341795258 -0.0007656450142278126 0.021967179413597847 0.0 0.0
0.0 0.023703984719391544 0.017360927218343602 -0.016630827510669695 -0.0007300997076739028 0.019148748493751963 0.0 0.0
0.0 0.01894934760557576 0.013689199748860945 -0.013000270701891312 -0.000688929046969641 0.016232421987086458 0.0 0.0
0.0 0.014609065675680977 0.010374328426558685 -0.009737100248955388 -0.0006372281776032947 0.013279332298445575 0.0 0.0
0.0 0.010588481463998812 0.007362957545482601 -0.006793240745283506 -0.0005697168001990965 0.010350414552093292 0.0 0.0
0.0 0.007032017939598453 0.004666569175552975 -0.004198082362825021 -0.0004684868127279514 0.007475280311870873 0.0 0.0
0.0 0.004017079177523853 0.0024414969929972717 -0.0021209315336495 -0.0003205654593477712 0.0048010107248362115 0.0 0.0
0.0 0.0018180540484311228 0.0009390336909110488 -0.0007861481429450235 -0.00015288554796602548 0.0025226716589307596 0.0 0.0
0.0 0.0006637803443990423 0.0002521585795182763 -0.000205839038583756 -4.6319540934520296e-05 0.0009855992893545995 0.0 0.0
0.0 0.00019965635549915587 5.3773870524247666e-05 -4.3360475941118674e-05 -1.0413394583128978e-05 0.00029563217783097113 0.0 0.0
0.0 4.636817481265788e-05 9.220321881396282e-06 -7.215768841831927e-06 -2.0045530395643554e-06 7.0485749332207e-05 0.0 0.0
0.0 6.282015259047837e-06 5.666717921675729e-07 -4.0043243333433685e-07 -1.6623935883323336e-07 8.109388045946624e-06 0.0 0.0
0.0 3.147467151733134e-06 4.223763916146502e-08 -1.7262206399751967e-08 -2.497543276171234e-08 2.8335859715571845e-06 0.0 0.0
0.0 4.019246488523413e-06 7.100361483710062e-08 -9.711166309502259e-08 2.6108048257921605e-08 2.929448485061742e-06 0.0 0.0
0.0 0.0006482152321678501 0.00035708407743555875 -0.0004636916801826397 0.00010660760274708075 0.000624303188700312 0.0 0.0
0.0 0.00021890974409098646 0.00011533646051807227 -0.0001568081210438886 4.147166052581634e-05 -0.00021638309592727383 0.0 0.0
0.0 5.094277242274549e-06 -9.466441485288299e-09 -3.793617669192154e-08 4.740261817721105e-08 -4.280086634997861e-06 0.0 0.0
0.0 7.05300396667331e-06 -2.9696716458903764e-07 2.8543016688691036e-07 1.1536997702127929e-08 -9.033156390404619e-06 0.0 0.0
0.0 1.2140570393326893e-05 -1.8588724177023178e-07 2.7233098626217955e-07 -8.64437444919468e-08 -1.8831500187487816e-05 0.0 0.0
0.0 5.328067985917595e-05 2.172153356473875e-06 -1.500122621887148e-06 -6.720307345867338e-07 -8.001681695027371e-05 0.0 0.0
0.0 0.00018348762698593144 1.5444758335650022e-05 -1.2286975823732261e-05 -3.157782511917743e-06 -0.00028959178517890856 0.0 0.0
0.0 0.00043822525862712486 5.4184230012339675e-05 -4.3931525429593874e-05 -1.0252704582745815e-05 -0.0007178587222222917 0.0 0.0
0.0 0.0008929900333638863 0.00014973536933300774 -0.00012210604325014413 -2.762932608286342e-05 -0.0014205921921464984 0.0 0.0
0.0 0.0016382823074544892 0.0003965343530660062 -0.00032384243850450996 -7.269191456149605e-05 -0.0026323108634357063 0.0 0.0
0.0 0.0028763804884097506 0.0008894845245018332 -0.0007305810831628532 -0.00015890344133897977 -0.0043423810496655505 0.0 0.0
0.0 0.004391181659073868 0.00162436138376196 -0.0013630651751450882 -0.00026129620861687085 -0.0064413863861964874 0.0 0.0
0.0 0.006277494794824631 0.002526211400885099 -0.0021795173726295767 -0.00034669402825552095 -0.008737518656638445 0.0 0.0
0.0 0.008388825601874475 0.003561820996568077 -0.0031488468514400633 -0.0004129741451280138 -0.011173419506975845 0.0 0.0
0.0 0.010766780485589596 0.004764884382123861 -0.004303253448047013 -0.0004616309340768486 -0.013728730968778535 0.0 0.0
0.0 0.013428678457896323 0.006252006030163708 -0.005755357273426489 -0.0004966487567372151 -0.016361578062306373 0.0 0.0
0.0 0.016511211274734997 0.008225731335219425 -0.0077006949139675155 -0.0005250364212519104 -0.018893526437243034 0.0 0.0
0.0 0.02004079911815468 0.010948365063042406 -0.010389876692872184 -0.0005584883701702151 -0.02085832214706349 0.0 0.0
0.0 0.02410670620788863 0.01463530103739498 -0.014031391846851805 -0.0006039091905431617 -0.021605963397901374 0.0 0.0
0.0 0.02970474072895862 0.01982919796151402 -0.019239143621846852 -0.0005900543396671673 -0.021702464636691652 0.0 0.0
0.0 0.03839075562797395 0.028283431588355994 -0.027698499771187053 -0.0005849318171689372 -0.021440393158942167 0.0 0.0
0.0 0.03839075562797696 0.028283431588354016 -0.027698499771185107 -0.0005849318171689019 0.02144039315897924 0.0 0.0
0.0 0.029704740728961808 0.01982919796150892 -0.019239143621841853 -0.0005900543396670821 0.021702464636743853 0.0 0.0
0.0 0.02410670620788607 0.014635301037387336 -0.014031391846844458 -0.0006039091905428698 0.021605963397932408 0.0 0.0
0.0 0.020040799118146845 0.01094836506303676 -0.010389876692867422 -0.0005584883701693346 0.020858322147064026 0.0 0.0
0.0 0.016511211274719162 0.008225731335212212 -0.0077006949139607605 -0.0005250364212514491 0.018893526437224972 0.0 0.0
0.0 0.01342867845788575 0.006252006030159541 -0.005755357273422686 -0.0004966487567368539 0.016361578062293707 0.0 0.0
0.0 0.0107667804855794 0.004764884382119545 -0.004303253448042662 -0.000461630934076883 0.013728730968768322 0.0 0.0
0.0 0.008388825601864377 0.003561820996564191 -0.0031488468514361562 -0.00041297414512803327 0.011173419506965144 0.0 0.0
0.0 0.0062774947948150694 0.002526211400882972 -0.002179517372627632 -0.00034669402825533875 0.008737518656624296 0.0 0.0
0.0 0.004391181659063794 0.0016243613837591676 -0.0013630651751427173 -0.0002612962086164508 0.006441386386181724 0.0 0.0
0.0 0.0028763804883990968 0.0008894845244987867 -0.0007305810831604663 -0.00015890344133832017 0.004342381049650584 0.0 0.0
0.0 0.0016382823074504841 0.00039653435306491425 -0.00032384243850369296 -7.26919145612212e-05 0.0026323108634292965 0.0 0.0
0.0 0.0008929900333613723 0.0001497353693325363 -0.0001221060432497807 -2.7629326082755428e-05 0.0014205921921423476 0.0 0.0
0.0 0.00043822525862475175 5.418423001215182e-05 -4.393152542942318e-05 -1.0252704582728614e-05 0.0007178587222198402 0.0 0.0
0.0 0.00018348762698458716 1.544475833564746e-05 -1.2286975823718627e-05 -3.157782511928839e-06 0.00028959178517837415 0.0 0.0
0.0 5.328067985797274e-05 2.1721533564777972e-06 -1.500122621889009e-06 -6.720307345887911e-07 8.001681695023977e-05 0.0 0.0
0.0 1.2140570392541764e-05 -1.8588724178176178e-07 2.723309862751991e-07 -8.644374449343724e-08 1.8831500188019526e-05 0.0 0.0
0.0 7.053003965906881e-06 -2.96967164616163e-07 2.854301669104199e-07 1.153699770574242e-08 9.033156391022634e-06 0.0 0.0
0.0 5.094277242018371e-06 -9.46644148667162e-09 -3.793617671063984e-08 4.740261819731398e-08 4.280086635865553e-06 0.0 0.0
0.0 0.0002189097440886209 0.00011533646051725745 -0.00015680812104282987 4.147166052557242e-05 0.00021638309592580013 0.0 0.0
0.0 3.3626598456334056e-05 1.6285867132302165e-05 -2.324313097408671e-05 6.957263841784535e-06 -3.335063041274466e-05 0.0 0.0
0.0 4.767819463659396e-06 -1.3994365298963317e-07 4.8286205640855733e-08 9.16574473487823e-08 -4.548633714334147e-06 0.0 0.0
0.0 1.0157780953877864e-05 -1.1333170558028457e-06 9.70625612084881e-07 1.6269144371796538e-07 -1.419401539168577e-05 0.0 0.0
0.0 1.9043521960631086e-05 -2.369992733964767e-06 2.0969641026256334e-06 2.7302863133913623e-07 -2.90620701512783e-05 0.0 0.0
0.0 6.235130878410777e-05 -6.430097622679004e-06 5.545454073241563e-06 8.846435494374496e-07 -9.272794153111347e-05 0.0 0.0
0.0 0.0001943398736361183 -2.0127595430104357e-05 1.6601111175898588e-05 3.5264842542057607e-06 -0.0002992081327252405 0.0 0.0
0.0 0.0004459047090902784 -5.792152081191374e-05 4.7153706998408325e-05 1.0767813813505402e-05 -0.000730541860492188 0.0 0.0
0.0 0.0008983049703944126 -0.00015197355586850218 0.0001239084881297078 2.8065067738794462e-05 -0.001430152377950489 0.0 0.0
0.0 0.001639383194586809 -0.0003973258814969043 0.0003245649867150736 7.276089478183055e-05 -0.002636140638467785 0.0 0.0
0.0 0.0028765240824042363 -0.0008896468430364016 0.0007309139776815285 0.0001587328653548734 -0.004343242153467815 0.0 0.0
0.0 0.004411657628688378 -0.0016343040004730253 0.0013739266693584746 0.00026037733111455115 -0.006449409633350164 0.0 0.0
0.0 0.006317737975047983 -0.002573775073126977 0.002227031937299559 0.00034674313582741545 -0.008757969000010059 0.0 0.0
0.0 0.008457938569343348 -0.0036505397499130795 0.0032338673147458965 0.00041667243516717886 -0.01118821920658959 0.0 0.0
0.0 0.01077310973837041 -0.0047911944357247 0.004316217131779345 0.0004749773039453508 -0.013713834361409312 0.0 0.0
0.0 0.013069716799457513 -0.005832411024092677 0.005307082769119299 0.0005253282549733753 -0.016317973104491425 0.0 0.0
0.0 0.015158203059807664 -0.006481256189414201 0.005911619498337425 0.0005696366910767709 -0.0189481974170525 0.0 0.0
0.0 0.016680228599112057 -0.006333301593997509 0.005725032711250521 0.0006082688827469885 -0.02159132143345246 0.0 0.0
0.0 0.017533659295427006 -0.0051180529718132094 0.004488718351776718 0.0006293346200364853 -0.024353768569451824 0.0 0.0
0.0 0.017727344915961247 -0.0028089281716603643 0.0022013748759382324 0.0006075532957221294 -0.026832833604960225 0.0 0.0
0.0 0.01775834512640313 0.003917582166364622 -0.00397404072323701 5.645855687238562e-05 -0.026271732579657123 0.0 0.0
0.0 0.01775834512640867 0.003917582166365768 -0.003974040723237434 5.6458556871670854e-05 0.026271732579671025 0.0 0.0
0.0 0.017727344915964623 -0.0028089281716605395 0.0022013748759377736 0.000607553295722764 0.026832833604976042 0.0 0.0
0.0 0.01753365929541914 -0.005118052971809655 0.004488718351773436 0.0006293346200362145 0.024353768569452178 0.0 0.0
0.0 0.016680228599090855 -0.006333301593985703 0.005725032711238639 0.0006082688827470616 0.021591321433440544 0.0 0.0
0.0 0.015158203059791127 -0.006481256189405682 0.005911619498329129 0.0005696366910765441 0.018948197417031576 0.0 0.0
0.0 0.013069716799441682 -0.005832411024084102 0.005307082769110853 0.0005253282549732433 0.01631797310447476 0.0 0.0
0.0 0.010773109738353905 -0.004791194435713919 0.004316217131768919 0.00047497730394499966 0.013713834361397836 0.0 0.0
0.0 0.008457938569325453 -0.0036505397499011676 0.003233867314734366 0.0004166724351667991 0.011188219206576776 0.0 0.0
0.0 0.006317737975029816 -0.0025737750731170085 0.002227031937290137 0.0003467431358268695 0.008757968999991934 0.0 0.0
0.0 0.004411657628671552 -0.0016343040004637799 0.0013739266693501874 0.0002603773311135927 0.006449409633332 0.0 0.0
0.0 0.0028765240823916413 -0.0008896468430314049 0.0007309139776773659 0.00015873286535403813 0.004343242153453584 0.0 0.0
0.0 0.0016393831945819123 -0.0003973258814947689 0.00032456498671329793 7.276089478147096e-05 0.0026361406384612244 0.0 0.0
0.0 0.0008983049703918879 -0.00015197355586779544 0.00012390848812913812 2.8065067738657365e-05 0.0014301523779469492 0.0 0.0
0.0 0.0004459047090880725 -5.792152081171257e-05 4.7153706998292444e-05 1.0767813813420121e-05 0.000730541860489859 0.0 0.0
0.0 0.0001943398736345231 -2.0127595430061626e-05 1.6601111175869305e-05 3.526484254192346e-06 0.0002992081327244221 0.0 0.0
0.0 6.23513087828764e-05 -6.430097622688582e-06 5.545454073251925e-06 8.846435494366467e-07 9.272794153131542e-05 0.0 0.0
0.0 1.9043521960142297e-05 -2.3699927339865236e-06 2.0969641026435926e-06 2.730286313429299e-07 2.9062070151501816e-05 0.0 0.0
0.0 1.0157780953324386e-05 -1.1333170558755199e-06 9.706256121456505e-07 1.6269144372986992e-07 1.4194015392492124e-05 0.0 0.0
0.0 4.767819463560691e-06 -1.3994365301261741e-07 4.828620561585214e-08 9.165744739677009e-08 4.548633715686086e-06 0.0 0.0
0.0 3.36265984556714e-05 1.6285867132424466e-05 -2.3243130974253155e-05 6.9572638418286836e-06 3.3350630413153724e-05 0.0 0.0
0.0 1.6632462327964354e-06 -8.87437630398127e-08 1.291199073641736e-07 -4.037614432434241e-08 2.496372743401371e-07 0.0 0.0
0.0 3.3212392226868843e-06 -2.205651695796482e-07 1.1731356925556101e-07 1.0325160032408567e-07 -4.211883517799136e-06 0.0 0.0
0.0 1.152813672676666e-05 -1.9873449124120585e-06 1.6545680935185735e-06 3.3277681889348137e-07 -1.5834264773833888e-05 0.0 0.0
0.0 2.4905495873214377e-05 -4.868959686553248e-06 4.1444062258518616e-06 7.245534607013972e-07 -3.236480843826826e-05 0.0 0.0
0.0 7.112694145459538e-05 -1.7556600206021195e-05 1.4634789518573109e-05 2.9218106874480817e-06 -0.00010544559258557333 0.0 0.0
0.0 0.00022595922833825078 -6.573118088037169e-05 5.3577092747175105e-05 1.2154088133196588e-05 -0.00033652867838626757 0.0 0.0
0.0 0.00069233150917223 -0.00026433092647498344 0.0002161478469043075 4.818307957067593e-05 -0.0010182888579481871 0.0 0.0
0.0 0.0018313928004872475 -0.0009457158621330874 0.0007920349061549748 0.0001536809559781122 -0.002540387398147972 0.0 0.0
0.0 0.004017141680853174 -0.0024414274092553717 0.002121068322308901 0.00032035908694646954 -0.004805083704613982 0.0 0.0
0.0 0.007033697131374695 -0.004668194525195006 0.004200276810358282 0.00046791771483672214 -0.007477518290128098 0.0 0.0
0.0 0.010606396611917973 -0.00737996075185496 0.006811526889948923 0.0005684338619060343 -0.010355449990642676 0.0 0.0
0.0 0.014656090987787898 -0.01042633044598942 0.00979032027830731 0.0006360101676821134 -0.013270310757952417 0.0 0.0
0.0 0.019014095147102377 -0.013773057963771557 0.013081710897694502 0.0006913470660770525 -0.01617765465645792 0.0 0.0
0.0 0.023669924561262552 -0.017356583937882746 0.016613726866995627 0.0007428570708871196 -0.019055482453491406 0.0 0.0
0.0 0.02842935607271828 -0.020981928464082315 0.020187725233969472 0.0007942032301128273 -0.0219625687764063 0.0 0.0
0.0 0.03290835976507868 -0.024278930289530896 0.023435748402333395 0.0008431818871974913 -0.02495110492098544 0.0 0.0
0.0 0.03664286192119812 -0.02673724095371762 0.025855194492854273 0.0008820464608633485 -0.028118084951733877 0.0 0.0
0.0 0.03896356045477728 -0.027780613191057985 0.026873255632690343 0.0009073575583676711 -0.03135473394631617 0.0 0.0
0.0 0.03813276660499722 -0.026245338936126773 0.025246367275363654 0.000998971660763094 -0.032861617928171494 0.0 0.0
0.0 0.03113121223129011 -0.018777295866764812 0.017651381591655052 0.0011259142751097431 -0.03064322974221408 0.0 0.0
0.0 0.031131212231305883 -0.018777295866768254 0.017651381591658674 0.0011259142751095727 0.03064322974225804 0.0 0.0
0.0 0.03813276660500469 -0.026245338936121222 0.025246367275357902 0.0009989716607632982 0.032861617928227546 0.0 0.0
0.0 0.038963560454767864 -0.027780613191042965 0.026873255632674772 0.0009073575583681789 0.0313547339463476 0.0 0.0
0.0 0.03664286192117606 -0.026737240953698112 0.02585519449283439 0.0008820464608637323 0.02811808495173288 0.0 0.0
0.0 0.03290835976505102 -0.0242789302895087 0.023435748402311586 0.0008431818871971029 0.02495110492096924 0.0 0.0
0.0 0.028429356072688504 -0.020981928464059173 0.020187725233946824 0.000794203230112358 0.02196256877638755 0.0 0.0
0.0 0.023669924561230942 -0.01735658393785785 0.016613726866971164 0.0007428570708866774 0.019055482453473542 0.0 0.0
0.0 0.019014095147072148 -0.013773057963746657 0.013081710897669997 0.0006913470660766474 0.016177654656443254 0.0 0.0
0.0 0.01465609098775511 -0.010426330445964575 0.009790320278283013 0.0006360101676815607 0.013270310757928807 0.0 0.0
0.0 0.010606396611886545 -0.00737996075183233 0.006811526889927134 0.0005684338619051937 0.010355449990616232 0.0 0.0
0.0 0.007033697131350546 -0.004668194525178997 0.004200276810343002 0.000467917714835996 0.007477518290103657 0.0 0.0
0.0 0.0040171416808387934 -0.002441427409245023 0.0021210683222994066 0.0003203590869456181 0.0048050837046007796 0.0 0.0
0.0 0.0018313928004797205 -0.0009457158621283858 0.0007920349061509842 0.00015368095597740152 0.0025403873981394605 0.0 0.0
0.0 0.0006923315091678579 -0.00026433092647325826 0.000216147846902991 4.818307957026735e-05 0.0010182888579432165 0.0 0.0
0.0 0.00022595922833610195 -6.573118088006425e-05 5.3577092746926735e-05 1.2154088133137535e-05 0.00033652867838477045 0.0 0.0
0.0 7.112694145322489e-05 -1.7556600205923817e-05 1.4634789518491196e-05 2.9218106874326145e-06 0.00010544559258493196 0.0 0.0
0.0 2.4905495872390525e-05 -4.868959686588564e-06 4.144406225881421e-06 7.245534607071444e-07 3.2364808438489876e-05 0.0 0.0
0.0 1.1528136726090548e-05 -1.9873449124981145e-06 1.6545680935884782e-06 3.3277681890963545e-07 1.5834264774483904e-05 0.0 0.0
0.0 3.321239222414406e-06 -2.2056516961316722e-07 1.173135692596754e-07 1.0325160035349212e-07 4.211883518585212e-06 0.0 0.0
0.0 1.663246232129405e-06 -8.874376300538105e-08 1.291199073166848e-07 -4.0376144311303564e-08 -2.496372742301845e-07 0.0 0.0
0.0 0.0 0.0 0.0 0.0 0.0 0.0 0.0
0.0 1.8109905840798467e-06 -1.3791647358652195e-08 1.6067259072794538e-08 -2.2756117141450005e-09 -1.404893609051128e-07 0.0 0.0
0.0 1.033607552539035e-05 -1.944977191429793e-06 1.60049504489381e-06 3.444821465359786e-07 -1.1270025447871102e-05 0.0 0.0
0.0 2.798188649144184e-05 -7.202356558557541e-06 5.992195991934893e-06 1.2101605666226585e-06 -3.167536784002669e-05 0.0 0.0
0.0 8.547667836985006e-05 -3.194445258135264e-05 2.6224738127802144e-05 5.7197144535505e-06 -0.00011602727526679562 0.0 0.0
0.0 0.000345361299138925 -0.0001629859070794816 0.0001329712655866594 3.001464149282218e-05 -0.00046610844658021716 0.0 0.0
0.0 0.0013035158313776495 -0.0007771587178333332 0.0006479801732680455 0.00012917854456528778 -0.0016190189846264453 0.0 0.0
0.0 0.0035713037247338784 -0.0024560302478114117 0.0021338941163169885 0.00032213613149442336 -0.003801311274355062 0.0 0.0
0.0 0.007351781859254419 -0.0053590353151445405 0.00485323646022663 0.0005057988549179106 -0.006748008485213938 0.0 0.0
0.0 0.012163674617800798 -0.009245901764576389 0.008618283112886444 0.0006276186516899439 -0.010189505059097558 0.0 0.0
0.0 0.017922016346998925 -0.01381552769152013 0.013108527544845785 0.0007070001466743562 -0.013799685951953163 0.0 0.0
0.0 0.024161022009394413 -0.018924584213776505 0.018154516835019764 0.0007700673787567341 -0.017323713083785056 0.0 0.0
0.0 0.03097672852060217 -0.024526319973041482 0.023698691957637824 0.0008276280154036602 -0.0207247958397289 0.0 0.0
0.0 0.038323976451462356 -0.030564269170985314 0.029678264382507667 0.0008860047884776389 -0.024096411279530088 0.0 0.0
0.0 0.04605141143844186 -0.03683251799505899 0.03588468230139105 0.0009478356936679045 -0.02765933141728755 0.0 0.0
0.0 0.053634595507550814 -0.04290068011407905 0.04189118742167229 0.0010094926924067158 -0.031706152650656946 0.0 0.0
0.0 0.06047227214604748 -0.04811007053523697 0.04704294713439316 0.001067123400843788 -0.03637081617605244 0.0 0.0
0.0 0.06501468520017073 -0.05142839182728006 0.050288821434983665 0.0011395703922963524 -0.040808945166697544 0.0 0.0
0.0 0.0651161714153221 -0.050898429189976044 0.04966279431889792 0.0012356348710781256 -0.04296080742387997 0.0 0.0
0.0 0.05513615211147704 -0.04231863610963854 0.04083705695373866 0.0014815791558998785 -0.03872013640847496 0.0 0.0
0.0 0.05513615211148517 -0.042318636109635904 0.04083705695373538 0.0014815791559005184 0.03872013640852659 0.0 0.0
0.0 0.06511617141532712 -0.05089842918996791 0.04966279431888951 0.0012356348710783913 0.042960807423949074 0.0 0.0
0.0 0.06501468520015817 -0.05142839182725957 0.0502888214349636 0.0011395703922959357 0.040808945166746644 0.0 0.0
0.0 0.06047227214600675 -0.04811007053519938 0.04704294713435597 0.0010671234008434137 0.03637081617605653 0.0 0.0
0.0 0.05363459550750002 -0.04290068011403644 0.0418911874216298 0.001009492692406641 0.03170615265063742 0.0 0.0
0.0 0.04605141143839195 -0.03683251799501812 0.03588468230135036 0.0009478356936677577 0.02765933141726317 0.0 0.0
0.0 0.038323976451414436 -0.030564269170946186 0.02967826438246853 0.0008860047884776529 0.0240964112795062 0.0 0.0
0.0 0.030976728520556406 -0.02452631997300269 0.02369869195759925 0.000827628015403427 0.02072479583971211 0.0 0.0
0.0 0.024161022009346212 -0.018924584213737515 0.01815451683498102 0.0007700673787564887 0.017323713083757485 0.0 0.0
0.0 0.0179220163469543 -0.013815527691485582 0.013108527544811288 0.0007070001466742915 0.013799685951920833 0.0 0.0
0.0 0.012163674617761812 -0.009245901764546885 0.008618283112857174 0.0006276186516897125 0.010189505059067624 0.0 0.0
0.0 0.007351781859225725 -0.005359035315122503 0.004853236460205132 0.0005057988549173668 0.006748008485192384 0.0 0.0
0.0 0.0035713037247171826 -0.0024560302477989833 0.0021338941163056777 0.0003221361314933055 0.0038013112743411686 0.0 0.0
0.0 0.00130351583136863 -0.0007771587178280435 0.0006479801732635819 0.00012917854456446153 0.0016190189846171901 0.0 0.0
0.0 0.0003453612991355412 -0.00016298590707829235 0.00013297126558570532 3.001464149258692e-05 0.00046610844657721435 0.0 0.0
0.0 8.547667836867741e-05 -3.194445258138386e-05 2.6224738127822758e-05 5.719714453561063e-06 0.0001160272752667309 0.0 0.0
0.0 2.798188649076334e-05 -7.2023565586903065e-06 5.9921959920451365e-06 1.2101605666451557e-06 3.167536784060932e-05 0.0 0.0
0.0 1.0336075524886283e-05 -1.944977191548752e-06 1.6004950449904869e-06 3.4448214655827187e-07 1.1270025448556208e-05 0.0 0.0
0.0 1.810990583707613e-06 -1.3791647389659626e-08 1.6067259090332938e-08 -2.2756117006770195e-09 1.4048936133140436e-07 0.0 0.0
0.0 0.0 0.0 0.0 0.0 0.0 0.0 0.0
0.0 0.0 0.0 0.0 0.0 0.0 0.0 0.0
0.0 4.063806097121623e-07 8.83875332606981e-09 -5.922659735395461e-09 -2.916093590674856e-09 8.037141172206253e-08 0.0 0.0
0.0 6.572326677340931e-06 -1.5203295165892639e-06 1.2407093258339773e-06 2.796201907552822e-07 -6.75283958370676e-06 0.0 0.0
0.0 2.7319562462900586e-05 -1.0054177794838878e-05 8.276781571896873e-06 1.7773962229419938e-06 -3.2457851912907566e-05 0.0 0.0
0.0 0.00011652301559561074 -5.7455520068389556e-05 4.688202862324795e-05 1.0573491445141625e-05 -0.00014189791456909942 0.0 0.0
0.0 0.0006031740349984019 -0.00038044468281618686 0.0003127652676821571 6.767941513402984e-05 -0.0006981357257891484 0.0 0.0
0.0 0.002275215124844578 -0.0016426013370844628 0.0014018621969072497 0.00024073914017721273 -0.0022212849029535076 0.0 0.0
0.0 0.005742484154170971 -0.00440307122916841 0.003941796301993628 0.00046127492717478044 -0.004746299562995397 0.0 0.0
0.0 0.011012472476758288 -0.008669575040540906 0.008050573275925243 0.000619001764615666 -0.008129235447370044 0.0 0.0
0.0 0.01766200904764634 -0.014152202039961826 0.013431994344189574 0.0007202076957722536 -0.012051800780886473 0.0 0.0
0.0 0.025375860367668836 -0.020543597983082123 0.01974740309367789 0.0007961948894042241 -0.016070668335185275 0.0 0.0
0.0 0.03394618172230529 -0.027687110244658957 0.02682262717413889 0.0008644830705200428 -0.019919696377411363 0.0 0.0
0.0 0.04332314543855405 -0.03553354594667617 0.03460450657846201 0.0009290393682141569 -0.02359859895445621 0.0 0.0
0.0 0.05340672416046223 -0.04403580464275729 0.04304065523482084 0.0009951494079364822 -0.027255952098668657 0.0 0.0
0.0 0.06411582944390896 -0.0529935532446558 0.05192766447811607 0.0010658887665396712 -0.031240867526360648 0.0 0.0
0.0 0.07493130005054979 -0.06191554976799561 0.06077316111477043 0.0011423886532251372 -0.03602142714394406 0.0 0.0
0.0 0.0847293684275183 -0.06986995325717932 0.06864264026864753 0.0012273129885317278 -0.04164900102632077 0.0 0.0
0.0 0.09162063684429948 -0.07524543938791842 0.0739184558262717 0.00132698356164665 -0.046992545419780846 0.0 0.0
0.0 0.09201306723441047 -0.07525205422848401 0.07377677163215869 0.0014752825963252674 -0.04920135476981238 0.0 0.0
0.0 0.07984458275265577 -0.06481992122820848 0.0631213782435263 0.0016985429846822068 -0.045020084985898975 0.0 0.0
0.0 0.07984458275266135 -0.06481992122820379 0.06312137824352192 0.001698542984681839 0.04502008498595751 0.0 0.0
0.0 0.09201306723440825 -0.07525205422847005 0.07377677163214566 0.0014752825963243908 0.04920135476988838 0.0 0.0
0.0 0.09162063684427241 -0.07524543938788542 0.07391845582624007 0.0013269835616453048 0.04699254541983641 0.0 0.0
0.0 0.08472936842747181 -0.06986995325713517 0.06864264026860514 0.0012273129885300008 0.041649001026333426 0.0 0.0
0.0 0.07493130005048977 -0.06191554976794347 0.06077316111471963 0.0011423886532238334 0.036021427143928385 0.0 0.0
0.0 0.06411582944384392 -0.05299355324460079 0.051927664478061616 0.0010658887665391302 0.031240867526337326 0.0 0.0
0.0 0.053406724160399106 -0.04403580464270408 0.043040655234768174 0.0009951494079359373 0.02725595209864424 0.0 0.0
0.0 0.04332314543849256 -0.035533545946623744 0.03460450657841028 0.0009290393682134685 0.023598598954435702 0.0 0.0
0.0 0.033946181722245505 -0.027687110244608584 0.026822627174088988 0.0008644830705195674 0.019919696377385627 0.0 0.0
0.0 0.025375860367613048 -0.02054359798303663 0.019747403093633032 0.0007961948894035994 0.01607066833515231 0.0 0.0
0.0 0.0176620090475975 -0.014152202039923057 0.013431994344151436 0.0007202076957716221 0.012051800780852502 0.0 0.0
0.0 0.011012472476721474 -0.008669575040511718 0.008050573275896769 0.0006190017646149571 0.008129235447346714 0.0 0.0
0.0 0.005742484154148518 -0.0044030712291508005 0.003941796301977109 0.0004612749271736894 0.004746299562979829 0.0 0.0
0.0 0.0022752151248331045 -0.0016426013370761817 0.001401862196900017 0.00024073914017616426 0.0022212849029443742 0.0 0.0
0.0 0.0006031740349935986 -0.0003804446828137801 0.00031276526768008676 6.767941513369339e-05 0.0006981357257849966 0.0 0.0
0.0 0.0001165230155947762 -5.7455520068522764e-05 4.688202862334692e-05 1.0573491445175802e-05 0.00014189791456934326 0.0 0.0
0.0 2.7319562462274063e-05 -1.0054177795036007e-05 8.276781572054771e-06 1.7773962229812294e-06 3.245785191349009e-05 0.0 0.0
0.0 6.572326676788523e-06 -1.5203295167052659e-06 1.2407093259271981e-06 2.7962019077806685e-07 6.752839584226963e-06 0.0 0.0
0.0 4.063806093257621e-07 8.838753319458759e-09 -5.922659733024222e-09 -2.916093586432878e-09 -8.037141164573473e-08 0.0 0.0
0.0 0.0 0.0 0.0 0.0 0.0 0.0 0.0
0.0 0.0 0.0 0.0 0.0 0.0 0.0 0.0
0.0 0.0 0.0 0.0 0.0 0.0 0.0 0.0
0.0 2.981848414272846e-06 -7.94984950213985e-07 6.469201108642918e-07 1.4806483934969707e-07 -2.780606513460791e-06 0.0 0.0
0.0 2.6009454961627164e-05 -9.686002145578974e-06 7.89191785037244e-06 1.7940842952065464e-06 -2.33846221349428e-05 0.0 0.0
0.0 0.0001877733533067678 -0.00010844484044982424 8.82228361778436e-05 2.0222004271980658e-05 -0.00018786709105521869 0.0 0.0
0.0 0.0010421225194996722 -0.0007721859950874979 0.0006425841404159216 0.0001296018546715763 -0.0009627820016888871 0.0 0.0
0.0 0.003558970214134864 -0.0028010798850666247 0.002446588492496188 0.0003544913925704376 -0.002646523415774863 0.0 0.0
0.0 0.00819762775294985 -0.006637101769115673 0.006075971942124227 0.0005611298269914434 -0.005317126523347176 0.0 0.0
0.0 0.014872006798053344 -0.0122211297897563 0.011528228635681082 0.0006929011540752145 -0.008905959323151537 0.0 0.0
0.0 0.0232570317721559 -0.019248218772593407 0.01846221506720399 0.0007860037053894187 -0.012975599051298846 0.0 0.0
0.0 0.0329924926773474 -0.027433303834895693 0.02656636253797572 0.000866941296919962 -0.01708354384077259 0.0 0.0
0.0 0.04385380487380113 -0.03660368549581532 0.0356609239423396 0.000942761553475731 -0.0210225384634729 0.0 0.0
0.0 0.055738920748338604 -0.04668853303367622 0.045673397381006786 0.001015135652669404 -0.02478306394910873 0.0 0.0
0.0 0.068626239889411 -0.05764745728644455 0.05655957296379907 0.0010878843226454914 -0.02848998705431642 0.0 0.0
0.0 0.08240503747766723 -0.06930455226292818 0.06813657003279631 0.0011679822301318558 -0.03253992947058676 0.0 0.0
0.0 0.09623867674464771 -0.08108500413329897 0.07982345255955184 0.0012615515737471068 -0.037464680646368514 0.0 0.0
0.0 0.10913579067614687 -0.09172000865095517 0.09034776157410385 0.0013722470768512567 -0.04336163385503545 0.0 0.0
0.0 0.11806890954341563 -0.09895681623370109 0.09744852824052255 0.0015082879931785323 -0.049049201989315436 0.0 0.0
0.0 0.1186329155521048 -0.09916606645731856 0.09748969807838222 0.001676368378936271 -0.0519636096686969 0.0 0.0
0.0 0.10476938849169384 -0.08695798745744072 0.08508748211753478 0.0018705053399059389 -0.05038380899857848 0.0 0.0
0.0 0.1047693884916939 -0.08695798745743255 0.08508748211752615 0.0018705053399063968 0.05038380899863851 0.0 0.0
0.0 0.11863291555208541 -0.09916606645729235 0.09748969807835567 0.001676368378936608 0.051963609668770026 0.0 0.0
0.0 0.11806890954337688 -0.09895681623366033 0.09744852824048204 0.0015082879931781886 0.04904920198936936 0.0 0.0
0.0 0.10913579067609076 -0.09172000865090334 0.09034776157405255 0.0013722470768506873 0.04336163385505176 0.0 0.0
0.0 0.096238676744574 -0.08108500413323502 0.07982345255948799 0.0012615515737469966 0.03746468064635658 0.0 0.0
0.0 0.08240503747759492 -0.06930455226286605 0.0681365700327346 0.0011679822301314579 0.032539929470568614 0.0 0.0
0.0 0.06862623988933525 -0.057647457286379704 0.056559572963734636 0.0010878843226450805 0.028489987054293894 0.0 0.0
0.0 0.05573892074826241 -0.046688533033610896 0.045673397380941796 0.0010151356526690834 0.024783063949087143 0.0 0.0
0.0 0.04385380487373097 -0.03660368549575532 0.03566092394228046 0.0009427615534748565 0.021022538463447864 0.0 0.0
0.0 0.03299249267728191 -0.027433303834840897 0.026566362537921932 0.0008669412969189468 0.017083543840739745 0.0 0.0
0.0 0.0232570317720966 -0.01924821877254447 0.01846221506715552 0.0007860037053889436 0.012975599051263925 0.0 0.0
0.0 0.014872006798012736 -0.012221129789722701 0.011528228635647945 0.0006929011540747628 0.008905959323130059 0.0 0.0
0.0 0.0081976277529222 -0.006637101769093093 0.0060759719421025656 0.000561129826990526 0.00531712652333165 0.0 0.0
0.0 0.003558970214117242 -0.002801079885052969 0.0024465884924836597 0.0003544913925693098 0.0026465234157635434 0.0 0.0
0.0 0.001042122519490457 -0.0007721859950811257 0.0006425841404105587 0.00012960185467056668 0.0009627820016818335 0.0 0.0
0.0 0.00018777335330356253 -0.00010844484044839029 8.822283617665618e-05 2.022200427173402e-05 0.00018786709105282775 0.0 0.0
0.0 2.6009454960911475e-05 -9.686002145672856e-06 7.891917850439524e-06 1.7940842952333442e-06 2.3384622135136707e-05 0.0 0.0
0.0 2.9818484141790946e-06 -7.949849503353812e-07 6.469201109624373e-07 1.4806483937294164e-07 2.7806065138886387e-06 0.0 0.0
0.0 0.0 0.0 0.0 0.0 0.0 0.0 0.0
0.0 0.0 0.0 0.0 0.0 0.0 0.0 0.0
0.0 0.0 0.0 0.0 0.0 0.0 0.0 0.0
0.0 0.0 0.0 0.0 0.0 0.0 0.0 0.0
0.0 9.159772724021529e-07 5.630253744311479e-08 -4.536700834069255e-08 -1.0935529102421052e-08 1.5681455061216043e-07 0.0 0.0
0.0 2.386964052171913e-05 -1.3263861630905332e-05 1.0705288556873144e-05 2.558573074032225e-06 -2.4201700626538957e-05 0.0 0.0
0.0 0.0003086334142759321 -0.00021995493406392147 0.0001791242565611306 4.0830677502790855e-05 -0.0002715438029193261 0.0 0.0
0.0 0.0016965323189469203 -0.001349988686420881 0.0011403014970123725 0.00020968718940850902 -0.0011632764790863708 0.0 0.0
0.0 0.005125805631338902 -0.00418696855941458 0.003734486032772197 0.00045248252664238523 -0.002836405011340766 0.0 0.0
0.0 0.010784688314920516 -0.00907455946374151 0.008443311535678899 0.0006312479280626102 -0.005494357416978462 0.0 0.0
0.0 0.018849723295469356 -0.0159139267458494 0.015168535869158476 0.0007453908766909344 -0.008995170420538375 0.0 0.0
0.0 0.028942573891121297 -0.02444903160161309 0.02360974492883448 0.0008392866727786061 -0.012910525903401705 0.0 0.0
0.0 0.04068698739620382 -0.034415058924540345 0.03348783241751916 0.0009272265070211504 -0.01688048991059085 0.0 0.0
0.0 0.05381374115302752 -0.045611297405521084 0.044599822055367846 0.001011475350153176 -0.020685136145850085 0.0 0.0
0.0 0.06827402495638747 -0.05793153272436698 0.05683924136911624 0.0010922913552507273 -0.024323158910552735 0.0 0.0
0.0 0.0838155484207245 -0.07132498369515161 0.0701528530099628 0.0011721306851888665 -0.027880877256941664 0.0 0.0
0.0 0.10050692414671375 -0.08562441858629759 0.08436387266255313 0.001260545923744452 -0.03160034042196795 0.0 0.0
0.0 0.11765435010444457 -0.10018776918429889 0.09881729101256251 0.001370478171736405 -0.03600481172374807 0.0 0.0
0.0 0.13313220352250374 -0.11342503256139377 0.11191692182559781 0.001508110735795896 -0.04147674201614931 0.0 0.0
0.0 0.1438969092850267 -0.12243748543155517 0.12076469526430435 0.001672790167250833 -0.04736416222002534 0.0 0.0
0.0 0.14496673866648074 -0.12292184240002396 0.1210703797645989 0.0018514626354250053 -0.05212145129310587 0.0 0.0
0.0 0.1302336591927592 -0.10927190637664846 0.10724300482344733 0.0020289015532011403 -0.055262859457501 0.0 0.0
0.0 0.13023365919275826 -0.1092719063766404 0.10724300482343896 0.0020289015532013923 0.0552628594575614 0.0 0.0
0.0 0.14496673866645418 -0.12292184239999338 0.12107037976456735 0.0018514626354259641 0.05212145129318067 0.0 0.0
0.0 0.14389690928498067 -0.1224374854315092 0.1207646952642587 0.0016727901672504483 0.047364162220082454 0.0 0.0
0.0 0.13313220352243185 -0.11342503256132888 0.11191692182553377 0.0015081107357950482 0.04147674201616455 0.0 0.0
0.0 0.11765435010435679 -0.10018776918422242 0.09881729101248671 0.0013704781717356876 0.036004811723738886 0.0 0.0
0.0 0.1005069241466245 -0.08562441858621983 0.08436387266247652 0.0012605459237432872 0.0316003404219555 0.0 0.0
0.0 0.0838155484206331 -0.0713249836950727 0.07015285300988468 0.0011721306851879747 0.027880877256920802 0.0 0.0
0.0 0.06827402495629485 -0.05793153272428668 0.05683924136903662 0.0010922913552499853 0.024323158910532744 0.0 0.0
0.0 0.053813741152938986 -0.04561129740544458 0.04459982205529224 0.001011475350152335 0.02068513614582589 0.0 0.0
0.0 0.04068698739612451 -0.03441505892447321 0.033487832417452644 0.0009272265070205728 0.016880489910557673 0.0 0.0
0.0 0.028942573891052314 -0.024449031601555107 0.02360974492877718 0.0008392866727779218 0.01291052590336855 0.0 0.0
0.0 0.01884972329541574 -0.015913926745803865 0.015168535869113643 0.000745390876690221 0.00899517042051514 0.0 0.0
0.0 0.01078468831488347 -0.00907455946371032 0.008443311535648451 0.0006312479280618611 0.005494357416960981 0.0 0.0
0.0 0.0051258056313159325 -0.004186968559395807 0.003734486032754617 0.00045248252664119163 0.002836405011329427 0.0 0.0
0.0 0.0016965323189354388 -0.0013499886864121785 0.001140301497004753 0.00020968718940742495 0.001163276479079429 0.0 0.0
0.0 0.00030863341427278524 -0.00021995493406230885 0.00017912425655978342 4.083067750252527e-05 0.0002715438029175446 0.0 0.0
0.0 2.3869640521399942e-05 -1.3263861631098818e-05 1.0705288557024168e-05 2.558573074074632e-06 2.4201700626895368e-05 0.0 0.0
0.0 9.159772720464821e-07 5.630253742091469e-08 -4.5367008322703315e-08 -1.0935529098212496e-08 -1.5681455054918204e-07 0.0 0.0
0.0 0.0 0.0 0.0 0.0 0.0 0.0 0.0
0.0 0.0 0.0 0.0 0.0 0.0 0.0 0.0
0.0 0.0 0.0 0.0 0.0 0.0 0.0 0.0
0.0 0.0 0.0 0.0 0.0 0.0 0.0 0.0
0.0 2.633745482838499e-07 1.9034837468267232e-08 -1.5232417022672714e-08 -3.80242044559584e-09 3.959451352121644e-08 0.0 0.0
0.0 2.7320627240037805e-05 -1.844166639238036e-05 1.479931754051154e-05 3.64234885186884e-06 -2.47729515510431e-05 0.0 0.0
0.0 0.0005285803461411605 -0.000415313729117158 0.00033978152496574117 7.553220415141685e-05 -0.00035466462551899877 0.0 0.0
0.0 0.002563337883657706 -0.0021050568914993614 0.001809044075534161 0.00029601281596520183 -0.0012411335655576926 0.0 0.0
0.0 0.006695575146519767 -0.005762691196868513 0.005232397175195209 0.000530294021673306 -0.0028035254353345734 0.0 0.0
0.0 0.013507358547505923 -0.011630430759953627 0.010951033102864712 0.0006793976570889206 -0.005217802995369186 0.0 0.0
0.0 0.022952864137211034 -0.019675962013257265 0.0188893264728915 0.0007866355403657599 -0.008346404862077845 0.0 0.0
0.0 0.03468664000252412 -0.029701157924479353 0.02881637855507112 0.0008847793694082451 -0.011886233954101402 0.0 0.0
0.0 0.048405798663924804 -0.04143664256990277 0.040456691661971717 0.0009799509079310078 -0.015475236012737465 0.0 0.0
0.0 0.06382927807434782 -0.05465877310164274 0.05358571310103159 0.0010730600006111212 -0.01892144706203079 0.0 0.0
0.0 0.08076435517966793 -0.06921865592255114 0.06805526370709061 0.0011633922154604833 -0.022242772199127358 0.0 0.0
0.0 0.09912870051671963 -0.08500932748945454 0.08375678281886435 0.0012525446705901663 -0.02543890287121528 0.0 0.0
0.0 0.11865520376002464 -0.1018316100659934 0.10048333107865706 0.001348278987336324 -0.028532784479646817 0.0 0.0
0.0 0.138391387655051 -0.11901616334726339 0.1175471107083969 0.001469052638866493 -0.031840176524912715 0.0 0.0
0.0 0.1567373704204462 -0.13476922261764868 0.1331394569331505 0.0016297656844981275 -0.036138264647365144 0.0 0.0
0.0 0.1696576024376781 -0.14568223003403813 0.1438635569282992 0.0018186731057389385 -0.04210087905993904 0.0 0.0
0.0 0.1716445606085755 -0.14683724530788286 0.14482374809483506 0.0020134972130477157 -0.04981717834433534 0.0 0.0
0.0 0.1563778111862587 -0.13221061677503293 0.13002397207298805 0.0021866447020447723 -0.059679285268282894 0.0 0.0
0.0 0.15637781118624944 -0.1322106167750183 0.1300239720729735 0.002186644702044885 0.05967928526834006 0.0 0.0
0.0 0.17164456060853706 -0.1468372453078431 0.14482374809479626 0.002013497213046825 0.04981717834440288 0.0 0.0
0.0 0.16965760243761618 -0.14568223003398006 0.14386355692824268 0.0018186731057373033 0.04210087905998568 0.0 0.0
0.0 0.15673737042035726 -0.1347692226175706 0.1331394569330723 0.00162976568449826 0.03613826464737543 0.0 0.0
0.0 0.13839138765495154 -0.11901616334717667 0.11754711070831124 0.0014690526388653471 0.03184017652490609 0.0 0.0
0.0 0.11865520375991881 -0.10183161006590148 0.10048333107856595 0.0013482789873354732 0.02853278447963644 0.0 0.0
0.0 0.09912870051661515 -0.08500932748936423 0.08375678281877502 0.0012525446705891584 0.0254389028711971 0.0 0.0
0.0 0.08076435517956224 -0.06921865592245958 0.06805526370699977 0.0011633922154597788 0.022242772199109757 0.0 0.0
0.0 0.06382927807424729 -0.05465877310155586 0.05358571310094523 0.0010730600006106528 0.0189214470620081 0.0 0.0
0.0 0.04840579866383278 -0.04143664256982382 0.04045669166189327 0.0009799509079305472 0.015475236012707082 0.0 0.0
0.0 0.03468664000244617 -0.029701157924412636 0.028816378555004997 0.0008847793694076339 0.011886233954072097 0.0 0.0
0.0 0.022952864137148622 -0.019675962013203548 0.018889326472837885 0.0007866355403656635 0.008346404862057955 0.0 0.0
0.0 0.013507358547463565 -0.011630430759917166 0.010951033102828774 0.000679397657088392 0.005217802995353234 0.0 0.0
0.0 0.006695575146492596 -0.005762691196845322 0.00523239717517299 0.00053029402167233 0.0028035254353240605 0.0 0.0
0.0 0.00256333788364152 -0.0021050568914865817 0.0018090440755225414 0.00029601281596404005 0.0012411335655505308 0.0 0.0
0.0 0.0005285803461362087 -0.0004153137291139868 0.00033978152496304265 7.553220415094403e-05 0.0003546646255164572 0.0 0.0
0.0 2.7320627239768327e-05 -1.8441666392765163e-05 1.4799317540808621e-05 3.6423488519565477e-06 2.477295155152707e-05 0.0 0.0
0.0 2.633745479801639e-07 1.90348374459991e-08 -1.5232417004860948e-08 -3.802420441135515e-09 -3.959451347502403e-08 0.0 0.0
0.0 0.0 0.0 0.0 0.0 0.0 0.0 0.0
0.0 0.0 0.0 0.0 0.0 0.0 0.0 0.0
0.0 0.0 0.0 0.0 0.0 0.0 0.0 0.0
0.0 0.0 0.0 0.0 0.0 0.0 0.0 0.0
0.0 0.0 0.0 0.0 0.0 0.0 0.0 0.0
0.0 4.294571595168468e-05 -3.3074008192620893e-05 2.6551095409864647e-05 6.522912782756251e-06 -3.1056166121731085e-05 0.0 0.0
0.0 0.0008877992131901807 -0.0007253373708515538 0.0005983001009274838 0.0001270372699240699 -0.0003996485993135595 0.0 0.0
0.0 0.0035673390335359562 -0.003025092226607995 0.0026445460563845526 0.00038054617022344303 -0.001174124576025933 0.0 0.0
0.0 0.008483790473675881 -0.007451586924886627 0.006863069723229691 0.0005885172016569332 -0.002457395354455005 0.0 0.0
0.0 0.016364687991786916 -0.01424045752657058 0.01352561000558939 0.0007148475209811881 -0.004413345475283643 0.0 0.0
0.0 0.027101577915685595 -0.0234643947880935 0.02264372638788423 0.0008206684002092507 -0.0069863122526511645 0.0 0.0
0.0 0.04046555570047856 -0.03495646655733448 0.03403245376979288 0.0009240127875415888 -0.009913076123631832 0.0 0.0
0.0 0.05616498947961121 -0.048449742701220044 0.047422931330098436 0.001026811371121586 -0.012886195229443436 0.0 0.0
0.0 0.07382413926108142 -0.06369824007777727 0.06256955325441622 0.001128686823361045 -0.01573789062956228 0.0 0.0
0.0 0.09338388970758704 -0.08050126640819054 0.0792715840019226 0.0012296824062679214 -0.018501951762690216 0.0 0.0
0.0 0.11427565047389796 -0.09866182934407217 0.0973312059476002 0.0013306233964719462 -0.021174060628355137 0.0 0.0
0.0 0.13639596029624365 -0.11786100223969431 0.11642537334761793 0.0014356288920763683 -0.023519135965281976 0.0 0.0
0.0 0.1589148741564877 -0.1373861031303016 0.13582643153656207 0.0015596715937394182 -0.025367479574235584 0.0 0.0
0.0 0.1798401675726475 -0.15550977838282934 0.15378345037006305 0.0017263280127662742 -0.027678486303207704 0.0 0.0
0.0 0.19521892488052262 -0.16866262616927277 0.16671659850033996 0.0019460276689327912 -0.03317515384619165 0.0 0.0
0.0 0.19887574734010774 -0.17119717907879534 0.16903024273280925 0.0021669363459861533 -0.04456402142725511 0.0 0.0
0.0 0.1839549392565385 -0.15627391703926552 0.1539172179698825 0.0023566990693830443 -0.06329152691636704 0.0 0.0
0.0 0.18395493925652776 -0.1562739170392517 0.15391721796986865 0.002356699069383022 0.06329152691641055 0.0 0.0
0.0 0.19887574734006036 -0.17119717907875107 0.1690302427327637 0.0021669363459873676 0.0445640214273129 0.0 0.0
0.0 0.1952189248804446 -0.1686626261692035 0.1667165985002696 0.0019460276689338349 0.03317515384623254 0.0 0.0
0.0 0.17984016757254928 -0.15550977838274385 0.15378345036997756 0.001726328012766311 0.02767848630321701 0.0 0.0
0.0 0.15891487415637434 -0.13738610313020327 0.13582643153646443 0.0015596715937388193 0.025367479574231445 0.0 0.0
0.0 0.13639596029612308 -0.11786100223958954 0.11642537334751397 0.0014356288920756135 0.023519135965275863 0.0 0.0
0.0 0.11427565047377572 -0.09866182934396636 0.097331205947495 0.0013306233964713514 0.021174060628341203 0.0 0.0
0.0 0.09338388970746855 -0.08050126640808777 0.0792715840018205 0.0012296824062673008 0.01850195176267611 0.0 0.0
0.0 0.07382413926096508 -0.06369824007767669 0.06256955325431607 0.001128686823360582 0.01573789062954606 0.0 0.0
0.0 0.05616498947950691 -0.048449742701129825 0.047422931330008675 0.0010268113711211274 0.01288619522941795 0.0 0.0
0.0 0.04046555570039312 -0.0349564665572604 0.034032453769719646 0.0009240127875407652 0.009913076123608092 0.0 0.0
0.0 0.027101577915618246 -0.023464394788034745 0.022643726387826368 0.000820668400208387 0.006986312252634839 0.0 0.0
0.0 0.01636468799173494 -0.014240457526525382 0.013525610005544588 0.0007148475209807952 0.004413345475269592 0.0 0.0
0.0 0.008483790473643003 -0.0074515869248579555 0.006863069723201725 0.0005885172016562312 0.0024573953544453583 0.0 0.0
0.0 0.003567339033518327 -0.00302509222659322 0.002644546056370988 0.00038054617022223214 0.0011741245760200762 0.0 0.0
0.0 0.0008877992131836641 -0.000725337370846761 0.0005983001009234022 0.00012703726992335877 0.00039964859931112477 0.0 0.0
0.0 4.294571595071595e-05 -3.307400819251954e-05 2.6551095409763346e-05 6.522912782756221e-06 3.105616612160402e-05 0.0 0.0
0.0 0.0 0.0 0.0 0.0 0.0 0.0 0.0
0.0 0.0 0.0 0.0 0.0 0.0 0.0 0.0
0.0 0.0 0.0 0.0 0.0 0.0 0.0 0.0
0.0 0.0 0.0 0.0 0.0 0.0 0.0 0.0
0.0 0.0 0.0 0.0 0.0 0.0 0.0 0.0
0.0 0.0 0.0 0.0 0.0 0.0 0.0 0.0
0.0 9.309205341234689e-05 -7.61144177467209e-05 6.101345729012942e-05 1.5100960456591522e-05 -4.3326197250148146e-05 0.0 0.0
0.0 0.0014128583499939747 -0.0011649376506146984 0.0009732111875078942 0.00019172646310680386 -0.00036719351104032066 0.0 0.0
0.0 0.004549653060377014 -0.004083996291946378 0.0036275254128104494 0.00045647087913592936 -0.0009107954283546384 0.0 0.0
0.0 0.010416291371373886 -0.009200421314989625 0.008571183154792984 0.0006292381601966458 -0.00178543980809344 0.0 0.0
0.0 0.019271328266617416 -0.01687135405686548 0.016128297859109377 0.0007430561977561095 -0.003122400956479621 0.0 0.0
0.0 0.031269293159526625 -0.027235670883710015 0.02638705455581644 0.0008486163278935601 -0.004919282745403864 0.0 0.0
0.0 0.04624315483214665 -0.040169549156676976 0.03921173609919041 0.0009578130574865356 -0.006993533380894516 0.0 0.0
0.0 0.06389605573830642 -0.05540950989429815 0.054340939231838414 0.0010685706624597076 -0.009104441833251778 0.0 0.0
0.0 0.0839541874970593 -0.07268139138679015 0.07150186132653881 0.001179530060251328 -0.011129850348939234 0.0 0.0
0.0 0.10582786132492619 -0.0917299483798034 0.0904384068822282 0.0012915414975752382 -0.013120519930107837 0.0 0.0
0.0 0.1294423095156628 -0.11223488391174752 0.11082896016004057 0.001405923751706903 -0.015020740610407432 0.0 0.0
0.0 0.15420369661433772 -0.13369584847450772 0.13217161529728486 0.0015242331772228515 -0.016527168286619924 0.0 0.0
0.0 0.17904134571301267 -0.15526220867860466 0.15361142016214752 0.0016507885164571278 -0.017159612779787677 0.0 0.0
0.0 0.2021907795079891 -0.17538023893331667 0.1735767312494937 0.0018035076838231554 -0.017187718847208044 0.0 0.0
0.0 0.22028426943970258 -0.19100299668124276 0.18898705312879918 0.002015943552443532 -0.020219349167543955 0.0 0.0
0.0 0.22701009788693108 -0.19625703052883392 0.1939291384293493 0.002327892099484359 -0.03459851752418763 0.0 0.0
0.0 0.21361724498713391 -0.18220354636936842 0.17964796135445976 0.0025555850149084946 -0.06525835397885889 0.0 0.0
0.0 0.21361724498711843 -0.18220354636935224 0.17964796135444372 0.002555585014908329 0.06525835397889163 0.0 0.0
0.0 0.22701009788687782 -0.19625703052878518 0.19392913842930143 0.0023278920994837626 0.03459851752423443 0.0 0.0
0.0 0.22028426943961585 -0.1910029966811659 0.18898705312872455 0.002015943552441469 0.020219349167574403 0.0 0.0
0.0 0.20219077950787315 -0.1753802389332155 0.1735767312493937 0.0018035076838217104 0.01718771884721195 0.0 0.0
0.0 0.17904134571287988 -0.1552622086784896 0.153611420162033 0.0016507885164566013 0.01715961277978259 0.0 0.0
0.0 0.1542036966142009 -0.133695848474389 0.13217161529716653 0.0015242331772225136 0.01652716828661843 0.0 0.0
0.0 0.1294423095155301 -0.1122348839116322 0.11082896015992644 0.0014059237517057336 0.01502074061040139 0.0 0.0
0.0 0.10582786132479449 -0.09172994837968876 0.09043840688211496 0.0012915414975737988 0.013120519930100029 0.0 0.0
0.0 0.08395418749692851 -0.07268139138667636 0.07150186132642579 0.0011795300602505867 0.011129850348929608 0.0 0.0
0.0 0.06389605573818946 -0.055409509894196865 0.05434093923173779 0.0010685706624590451 0.009104441833232727 0.0 0.0
0.0 0.0462431548320477 -0.04016954915659117 0.03921173609910508 0.0009578130574860846 0.00699353338087602 0.0 0.0
0.0 0.03126929315945003 -0.0272356708836429 0.026387054555749963 0.0008486163278929298 0.004919282745393116 0.0 0.0
0.0 0.01927132826656164 -0.016871354056816452 0.01612829785906108 0.0007430561977553649 0.003122400956470557 0.0 0.0
0.0 0.010416291371336619 -0.009200421314956629 0.008571183154760714 0.0006292381601959163 0.001785439808086385 0.0 0.0
0.0 0.004549653060357535 -0.004083996291929057 0.0036275254127941616 0.0004564708791348958 0.0009107954283505785 0.0 0.0
0.0 0.001412858349985267 -0.0011649376506078551 0.0009732111875019517 0.0001917264631059036 0.000367193511038476 0.0 0.0
0.0 9.309205341062672e-05 -7.611441774606664e-05 6.101345728956277e-05 1.5100960456503803e-05 4.33261972497425e-05 0.0 0.0
0.0 0.0 0.0 0.0 0.0 0.0 0.0 0.0
0.0 0.0 0.0 0.0 0.0 0.0 0.0 0.0
0.0 0.0 0.0 0.0 0.0 0.0 0.0 0.0
0.0 0.0 0.0 0.0 0.0 0.0 0.0 0.0
0.0 0.0 0.0 0.0 0.0 0.0 0.0 0.0
0.0 0.0 0.0 0.0 0.0 0.0 0.0 0.0
0.0 0.00022422308042152405 -0.0001948712680292197 0.00015606693024793284 3.880433778128694e-05 -4.669305026483907e-05 0.0 0.0
0.0 0.0021069099942315987 -0.0017257513339541395 0.001461483841631756 0.00026426749232238213 -0.00021352327516486376 0.0 0.0
0.0 0.005807458868221723 -0.0052135147994797106 0.004696674655275366 0.0005168401442043449 -0.00042796622083728173 0.0 0.0
0.0 0.012412486132955074 -0.010983536479281337 0.010323246448572887 0.0006602900307084463 -0.0007849890648205561 0.0 0.0
0.0 0.02221819606937859 -0.019485235257893092 0.01872003415336234 0.0007652011045307461 -0.0013486851891101712 0.0 0.0
0.0 0.03545065041896072 -0.030946118416206952 0.03007429911479028 0.0008718193014166525 -0.0021537559596542886 0.0 0.0
0.0 0.05204230960266984 -0.0452939265986434 0.044307277258745247 0.0009866493398981789 -0.003122221991300135 0.0 0.0
0.0 0.07172142251181705 -0.062271939066787976 0.0611663022550768 0.0011056368117112075 -0.004126413347915467 0.0 0.0
0.0 0.09384101881476747 -0.08156807870576678 0.08034164670314109 0.001226432002625644 -0.005106047860250697 0.0 0.0
0.0 0.11831620014487207 -0.10284235808838597 0.1014930078473193 0.001349350241066652 -0.006057449615566035 0.0 0.0
0.0 0.1446407498660633 -0.12566186848874122 0.12418507691457928 0.001476791574161915 -0.006911126168156643 0.0 0.0
0.0 0.17195285997336734 -0.14934289400220763 0.1477327029939957 0.001610191008211942 -0.007478447809877652 0.0 0.0
0.0 0.19900818828161485 -0.17279000820724866 0.17104197137383315 0.0017480368334154485 -0.007373707835219876 0.0 0.0
0.0 0.223925510672224 -0.1943994636365394 0.19251093269169514 0.001888530944844285 -0.006217748972001071 0.0 0.0
0.0 0.24402438905945645 -0.21185039627908003 0.20980142190515821 0.002048974373921591 -0.0054472147085418525 0.0 0.0
0.0 0.2549018705960667 -0.2210458265785744 0.21874465624800987 0.002301170330564371 -0.015446599715716103 0.0 0.0
0.0 0.2471753389019819 -0.21200018020560574 0.20906451517187144 0.002935665033734214 -0.06022297678568438 0.0 0.0
0.0 0.24717533890196583 -0.21200018020559042 0.20906451517185684 0.002935665033733322 0.06022297678569829 0.0 0.0
0.0 0.2549018705960109 -0.22104582657852467 0.21874465624796208 0.0023011703305623795 0.015446599715740056 0.0 0.0
0.0 0.24402438905934895 -0.21185039627898689 0.20980142190506537 0.0020489743739214032 0.005447214708554503 0.0 0.0
0.0 0.22392551067209363 -0.1943994636364263 0.19251093269158284 0.0018885309448435131 0.0062177489719998594 0.0 0.0
0.0 0.19900818828147748 -0.17279000820712878 0.17104197137371538 0.0017480368334132196 0.007373707835215787 0.0 0.0
0.0 0.1719528599732216 -0.1493428940020806 0.14773270299387045 0.0016101910082100305 0.007478447809878497 0.0 0.0
0.0 0.14464074986591136 -0.12566186848860944 0.12418507691444822 0.0014767915741611753 0.0069111261681528546 0.0 0.0
0.0 0.11831620014472077 -0.1028423580882549 0.1014930078471887 0.0013493502410661551 0.006057449615559691 0.0 0.0
0.0 0.09384101881462283 -0.08156807870564156 0.08034164670301626 0.0012264320026252806 0.005106047860246932 0.0 0.0
0.0 0.07172142251168902 -0.062271939066676926 0.06116630225496629 0.0011056368117106203 0.00412641334790499 0.0 0.0
0.0 0.05204230960256245 -0.04529392659855046 0.04430727725865276 0.000986649339897704 0.003122221991290709 0.0 0.0
0.0 0.03545065041887943 -0.030946118416135905 0.030074299114719774 0.0008718193014161272 0.00215375595964982 0.0 0.0
0.0 0.02221819606931898 -0.01948523525784051 0.018720034153310326 0.0007652011045301596 0.001348685189105833 0.0 0.0
0.0 0.01241248613291304 -0.01098353647924414 0.010323246448536296 0.0006602900307078466 0.0007849890648179202 0.0 0.0
0.0 0.0058074588681988875 -0.005213514799459052 0.004696674655255528 0.0005168401442035221 0.00042796622083560306 0.0 0.0
0.0 0.0021069099942217077 -0.0017257513339462537 0.0014614838416247946 0.00026426749232146023 0.0002135232751643436 0.0 0.0
0.0 0.00022422308041905028 -0.00019487126802763784 0.0001560669302466353 3.880433778100251e-05 4.669305026445317e-05 0.0 0.0
0.0 0.0 0.0 0.0 0.0 0.0 0.0 0.0
0.0 0.0 0.0 0.0 0.0 0.0 0.0 0.0
0.0 0.0 0.0 0.0 0.0 0.0 0.0 0.0