# vtk DataFile Version 3.0
Some data
ASCII
DATASET UNSTRUCTURED_GRID
POINTS 861 float
0.0 0.0 0.0
0.4 0.0 0.0
0.8 0.0 0.0
1.2000000000000002 0.0 0.0
1.6 0.0 0.0
2.0 0.0 0.0
2.4000000000000004 0.0 0.0
2.8000000000000003 0.0 0.0
3.2 0.0 0.0
3.6 0.0 0.0
4.0 0.0 0.0
4.4 0.0 0.0
4.800000000000001 0.0 0.0
5.2 0.0 0.0
5.6000000000000005 0.0 0.0
6.0 0.0 0.0
6.4 0.0 0.0
6.800000000000001 0.0 0.0
7.2 0.0 0.0
7.6000000000000005 0.0 0.0
8.0 0.0 0.0
8.4 0.0 0.0
8.8 0.0 0.0
9.200000000000001 0.0 0.0
9.600000000000001 0.0 0.0
10.0 0.0 0.0
10.4 0.0 0.0
10.8 0.0 0.0
11.200000000000001 0.0 0.0
11.600000000000001 0.0 0.0
12.0 0.0 0.0
12.4 0.0 0.0
12.8 0.0 0.0
13.200000000000001 0.0 0.0
13.600000000000001 0.0 0.0
14.0 0.0 0.0
14.4 0.0 0.0
14.8 0.0 0.0
15.200000000000001 0.0 0.0
15.600000000000001 0.0 0.0
16.0 0.0 0.0
0.0 0.1 0.0
0.4 0.1 0.0
0.8 0.1 0.0
1.2000000000000002 0.1 0.0
1.6 0.1 0.0
2.0 0.1 0.0
2.4000000000000004 0.1 0.0
2.8000000000000003 0.1 0.0
3.2 0.1 0.0
3.6 0.1 0.0
4.0 0.1 0.0
4.4 0.1 0.0
4.800000000000001 0.1 0.0
5.2 0.1 0.0
5.6000000000000005 0.1 0.0
6.0 0.1 0.0
6.4 0.1 0.0
6.800000000000001 0.1 0.0
7.2 0.1 0.0
7.6000000000000005 0.1 0.0
8.0 0.1 0.0
8.4 0.1 0.0
8.8 0.1 0.0
9.200000000000001 0.1 0.0
9.600000000000001 0.1 0.0
10.0 0.1 0.0
10.4 0.1 0.0
10.8 0.1 0.0
11.200000000000001 0.1 0.0
11.600000000000001 0.1 0.0
12.0 0.1 0.0
12.4 0.1 0.0
12.8 0.1 0.0
13.200000000000001 0.1 0.0
13.600000000000001 0.1 0.0
14.0 0.1 0.0
14.4 0.1 0.0
14.8 0.1 0.0
15.200000000000001 0.1 0.0
15.600000000000001 0.1 0.0
16.0 0.1 0.0
0.0 0.2 0.0
0.4 0.2 0.0
0.8 0.2 0.0
1.2000000000000002 0.2 0.0
1.6 0.2 0.0
2.0 0.2 0.0
2.4000000000000004 0.2 0.0
2.8000000000000003 0.2 0.0
3.2 0.2 0.0
3.6 0.2 0.0
4.0 0.2 0.0
4.4 0.2 0.0
4.800000000000001 0.2 0.0
5.2 0.2 0.0
5.6000000000000005 0.2 0.0
6.0 0.2 0.0
6.4 0.2 0.0
6.800000000000001 0.2 0.0
7.2 0.2 0.0
7.6000000000000005 0.2 0.0
8.0 0.2 0.0
8.4 0.2 0.0
8.8 0.2 0.0
9.200000000000001 0.2 0.0
9.600000000000001 0.2 0.0
10.0 0.2 0.0
10.4 0.2 0.0
10.8 0.2 0.0
11.200000000000001 0.2 0.0
11.600000000000001 0.2 0.0
12.0 0.2 0.0
12.4 0.2 0.0
12.8 0.2 0.0
13.200000000000001 0.2 0.0
13.600000000000001 0.2 0.0
14.0 0.2 0.0
14.4 0.2 0.0
14.8 0.2 0.0
15.200000000000001 0.2 0.0
15.600000000000001 0.2 0.0
16.0 0.2 0.0
0.0 0.30000000000000004 0.0
0.4 0.30000000000000004 0.0
0.8 0.30000000000000004 0.0
1.2000000000000002 0.30000000000000004 0.0
1.6 0.30000000000000004 0.0
2.0 0.30000000000000004 0.0
2.4000000000000004 0.30000000000000004 0.0
2.8000000000000003 0.30000000000000004 0.0
3.2 0.30000000000000004 0.0
3.6 0.30000000000000004 0.0
4.0 0.30000000000000004 0.0
4.4 0.30000000000000004 0.0
4.800000000000001 0.30000000000000004 0.0
5.2 0.30000000000000004 0.0
5.6000000000000005 0.30000000000000004 0.0
6.0 0.30000000000000004 0.0
6.4 0.30000000000000004 0.0
6.800000000000001 0.30000000000000004 0.0
7.2 0.30000000000000004 0.0
7.6000000000000005 0.30000000000000004 0.0
8.0 0.30000000000000004 0.0
8.4 0.30000000000000004 0.0
8.8 0.30000000000000004 0.0
9.200000000000001 0.30000000000000004 0.0
9.600000000000001 0.30000000000000004 0.0
10.0 0.30000000000000004 0.0
10.4 0.30000000000000004 0.0
10.8 0.30000000000000004 0.0
11.200000000000001 0.30000000000000004 0.0
11.600000000000001 0.30000000000000004 0.0
12.0 0.30000000000000004 0.0
12.4 0.30000000000000004 0.0
12.8 0.30000000000000004 0.0
13.200000000000001 0.30000000000000004 0.0
13.600000000000001 0.30000000000000004 0.0
14.0 0.30000000000000004 0.0
14.4 0.30000000000000004 0.0
14.8 0.30000000000000004 0.0
15.200000000000001 0.30000000000000004 0.0
15.600000000000001 0.30000000000000004 0.0
16.0 0.30000000000000004 0.0
0.0 0.4 0.0
0.4 0.4 0.0
0.8 0.4 0.0
1.2000000000000002 0.4 0.0
1.6 0.4 0.0
2.0 0.4 0.0
2.4000000000000004 0.4 0.0
2.8000000000000003 0.4 0.0
3.2 0.4 0.0
3.6 0.4 0.0
4.0 0.4 0.0
4.4 0.4 0.0
4.800000000000001 0.4 0.0
5.2 0.4 0.0
5.6000000000000005 0.4 0.0
6.0 0.4 0.0
6.4 0.4 0.0
6.800000000000001 0.4 0.0
7.2 0.4 0.0
7.6000000000000005 0.4 0.0
8.0 0.4 0.0
8.4 0.4 0.0
8.8 0.4 0.0
9.200000000000001 0.4 0.0
9.600000000000001 0.4 0.0
10.0 0.4 0.0
10.4 0.4 0.0
10.8 0.4 0.0
11.200000000000001 0.4 0.0
11.600000000000001 0.4 0.0
12.0 0.4 0.0
12.4 0.4 0.0
12.8 0.4 0.0
13.200000000000001 0.4 0.0
13.600000000000001 0.4 0.0
14.0 0.4 0.0
14.4 0.4 0.0
14.8 0.4 0.0
15.200000000000001 0.4 0.0
15.600000000000001 0.4 0.0
16.0 0.4 0.0
0.0 0.5 0.0
0.4 0.5 0.0
0.8 0.5 0.0
1.2000000000000002 0.5 0.0
1.6 0.5 0.0
2.0 0.5 0.0
2.4000000000000004 0.5 0.0
2.8000000000000003 0.5 0.0
3.2 0.5 0.0
3.6 0.5 0.0
4.0 0.5 0.0
4.4 0.5 0.0
4.800000000000001 0.5 0.0
5.2 0.5 0.0
5.6000000000000005 0.5 0.0
6.0 0.5 0.0
6.4 0.5 0.0
6.800000000000001 0.5 0.0
7.2 0.5 0.0
7.6000000000000005 0.5 0.0
8.0 0.5 0.0
8.4 0.5 0.0
8.8 0.5 0.0
9.200000000000001 0.5 0.0
9.600000000000001 0.5 0.0
10.0 0.5 0.0
10.4 0.5 0.0
10.8 0.5 0.0
11.200000000000001 0.5 0.0
11.600000000000001 0.5 0.0
12.0 0.5 0.0
12.4 0.5 0.0
12.8 0.5 0.0
13.200000000000001 0.5 0.0
13.600000000000001 0.5 0.0
14.0 0.5 0.0
14.4 0.5 0.0
14.8 0.5 0.0
15.200000000000001 0.5 0.0
15.600000000000001 0.5 0.0
16.0 0.5 0.0
0.0 0.6000000000000001 0.0
0.4 0.6000000000000001 0.0
0.8 0.6000000000000001 0.0
1.2000000000000002 0.6000000000000001 0.0
1.6 0.6000000000000001 0.0
2.0 0.6000000000000001 0.0
2.4000000000000004 0.6000000000000001 0.0
2.8000000000000003 0.6000000000000001 0.0
3.2 0.6000000000000001 0.0
3.6 0.6000000000000001 0.0
4.0 0.6000000000000001 0.0
4.4 0.6000000000000001 0.0
4.800000000000001 0.6000000000000001 0.0
5.2 0.6000000000000001 0.0
5.6000000000000005 0.6000000000000001 0.0
6.0 0.6000000000000001 0.0
6.4 0.6000000000000001 0.0
6.800000000000001 0.6000000000000001 0.0
7.2 0.6000000000000001 0.0
7.6000000000000005 0.6000000000000001 0.0
8.0 0.6000000000000001 0.0
8.4 0.6000000000000001 0.0
8.8 0.6000000000000001 0.0
9.200000000000001 0.6000000000000001 0.0
9.600000000000001 0.6000000000000001 0.0
10.0 0.6000000000000001 0.0
10.4 0.6000000000000001 0.0
10.8 0.6000000000000001 0.0
11.200000000000001 0.6000000000000001 0.0
11.600000000000001 0.6000000000000001 0.0
12.0 0.6000000000000001 0.0
12.4 0.6000000000000001 0.0
12.8 0.6000000000000001 0.0
13.200000000000001 0.6000000000000001 0.0
13.600000000000001 0.6000000000000001 0.0
14.0 0.6000000000000001 0.0
14.4 0.6000000000000001 0.0
14.8 0.6000000000000001 0.0
15.200000000000001 0.6000000000000001 0.0
15.600000000000001 0.6000000000000001 0.0
16.0 0.6000000000000001 0.0
0.0 0.7000000000000001 0.0
0.4 0.7000000000000001 0.0
0.8 0.7000000000000001 0.0
1.2000000000000002 0.7000000000000001 0.0
1.6 0.7000000000000001 0.0
2.0 0.7000000000000001 0.0
2.4000000000000004 0.7000000000000001 0.0
2.8000000000000003 0.7000000000000001 0.0
3.2 0.7000000000000001 0.0
3.6 0.7000000000000001 0.0
4.0 0.7000000000000001 0.0
4.4 0.7000000000000001 0.0
4.800000000000001 0.7000000000000001 0.0
5.2 0.7000000000000001 0.0
5.6000000000000005 0.7000000000000001 0.0
6.0 0.7000000000000001 0.0
6.4 0.7000000000000001 0.0
6.800000000000001 0.7000000000000001 0.0
7.2 0.7000000000000001 0.0
7.6000000000000005 0.7000000000000001 0.0
8.0 0.7000000000000001 0.0
8.4 0.7000000000000001 0.0
8.8 0.7000000000000001 0.0
9.200000000000001 0.7000000000000001 0.0
9.600000000000001 0.7000000000000001 0.0
10.0 0.7000000000000001 0.0
10.4 0.7000000000000001 0.0
10.8 0.7000000000000001 0.0
11.200000000000001 0.7000000000000001 0.0
11.600000000000001 0.7000000000000001 0.0
12.0 0.7000000000000001 0.0
12.4 0.7000000000000001 0.0
12.8 0.7000000000000001 0.0
13.200000000000001 0.7000000000000001 0.0
13.600000000000001 0.7000000000000001 0.0
14.0 0.7000000000000001 0.0
14.4 0.7000000000000001 0.0
14.8 0.7000000000000001 0.0
15.200000000000001 0.7000000000000001 0.0
15.600000000000001 0.7000000000000001 0.0
16.0 0.7000000000000001 0.0
0.0 0.8 0.0
0.4 0.8 0.0
0.8 0.8 0.0
1.2000000000000002 0.8 0.0
1.6 0.8 0.0
2.0 0.8 0.0
2.4000000000000004 0.8 0.0
2.8000000000000003 0.8 0.0
3.2 0.8 0.0
3.6 0.8 0.0
4.0 0.8 0.0
4.4 0.8 0.0
4.800000000000001 0.8 0.0
5.2 0.8 0.0
5.6000000000000005 0.8 0.0
6.0 0.8 0.0
6.4 0.8 0.0
6.800000000000001 0.8 0.0
7.2 0.8 0.0
7.6000000000000005 0.8 0.0
8.0 0.8 0.0
8.4 0.8 0.0
8.8 0.8 0.0
9.200000000000001 0.8 0.0
9.600000000000001 0.8 0.0
10.0 0.8 0.0
10.4 0.8 0.0
10.8 0.8 0.0
11.200000000000001 0.8 0.0
11.600000000000001 0.8 0.0
12.0 0.8 0.0
12.4 0.8 0.0
12.8 0.8 0.0
13.200000000000001 0.8 0.0
13.600000000000001 0.8 0.0
14.0 0.8 0.0
14.4 0.8 0.0
14.8 0.8 0.0
15.200000000000001 0.8 0.0
15.600000000000001 0.8 0.0
16.0 0.8 0.0
0.0 0.9 0.0
0.4 0.9 0.0
0.8 0.9 0.0
1.2000000000000002 0.9 0.0
1.6 0.9 0.0
2.0 0.9 0.0
2.4000000000000004 0.9 0.0
2.8000000000000003 0.9 0.0
3.2 0.9 0.0
3.6 0.9 0.0
4.0 0.9 0.0
4.4 0.9 0.0
4.800000000000001 0.9 0.0
5.2 0.9 0.0
5.6000000000000005 0.9 0.0
6.0 0.9 0.0
6.4 0.9 0.0
6.800000000000001 0.9 0.0
7.2 0.9 0.0
7.6000000000000005 0.9 0.0
8.0 0.9 0.0
8.4 0.9 0.0
8.8 0.9 0.0
9.200000000000001 0.9 0.0
9.600000000000001 0.9 0.0
10.0 0.9 0.0
10.4 0.9 0.0
10.8 0.9 0.0
11.200000000000001 0.9 0.0
11.600000000000001 0.9 0.0
12.0 0.9 0.0
12.4 0.9 0.0
12.8 0.9 0.0
13.200000000000001 0.9 0.0
13.600000000000001 0.9 0.0
14.0 0.9 0.0
14.4 0.9 0.0
14.8 0.9 0.0
15.200000000000001 0.9 0.0
15.600000000000001 0.9 0.0
16.0 0.9 0.0
0.0 1.0 0.0
0.4 1.0 0.0
0.8 1.0 0.0
1.2000000000000002 1.0 0.0
1.6 1.0 0.0
2.0 1.0 0.0
2.4000000000000004 1.0 0.0
2.8000000000000003 1.0 0.0
3.2 1.0 0.0
3.6 1.0 0.0
4.0 1.0 0.0
4.4 1.0 0.0
4.800000000000001 1.0 0.0
5.2 1.0 0.0
5.6000000000000005 1.0 0.0
6.0 1.0 0.0
6.4 1.0 0.0
6.800000000000001 1.0 0.0
7.2 1.0 0.0
7.6000000000000005 1.0 0.0
8.0 1.0 0.0
8.4 1.0 0.0
8.8 1.0 0.0
9.200000000000001 1.0 0.0
9.600000000000001 1.0 0.0
10.0 1.0 0.0
10.4 1.0 0.0
10.8 1.0 0.0
11.200000000000001 1.0 0.0
11.600000000000001 1.0 0.0
12.0 1.0 0.0
12.4 1.0 0.0
12.8 1.0 0.0
13.200000000000001 1.0 0.0
13.600000000000001 1.0 0.0
14.0 1.0 0.0
14.4 1.0 0.0
14.8 1.0 0.0
15.200000000000001 1.0 0.0
15.600000000000001 1.0 0.0
16.0 1.0 0.0
0.0 1.1 0.0
0.4 1.1 0.0
0.8 1.1 0.0
1.2000000000000002 1.1 0.0
1.6 1.1 0.0
2.0 1.1 0.0
2.4000000000000004 1.1 0.0
2.8000000000000003 1.1 0.0
3.2 1.1 0.0
3.6 1.1 0.0
4.0 1.1 0.0
4.4 1.1 0.0
4.800000000000001 1.1 0.0
5.2 1.1 0.0
5.6000000000000005 1.1 0.0
6.0 1.1 0.0
6.4 1.1 0.0
6.800000000000001 1.1 0.0
7.2 1.1 0.0
7.6000000000000005 1.1 0.0
8.0 1.1 0.0
8.4 1.1 0.0
8.8 1.1 0.0
9.200000000000001 1.1 0.0
9.600000000000001 1.1 0.0
10.0 1.1 0.0
10.4 1.1 0.0
10.8 1.1 0.0
11.200000000000001 1.1 0.0
11.600000000000001 1.1 0.0
12.0 1.1 0.0
12.4 1.1 0.0
12.8 1.1 0.0
13.200000000000001 1.1 0.0
13.600000000000001 1.1 0.0
14.0 1.1 0.0
14.4 1.1 0.0
14.8 1.1 0.0
15.200000000000001 1.1 0.0
15.600000000000001 1.1 0.0
16.0 1.1 0.0
0.0 1.2000000000000002 0.0
0.4 1.2000000000000002 0.0
0.8 1.2000000000000002 0.0
1.2000000000000002 1.2000000000000002 0.0
1.6 1.2000000000000002 0.0
2.0 1.2000000000000002 0.0
2.4000000000000004 1.2000000000000002 0.0
2.8000000000000003 1.2000000000000002 0.0
3.2 1.2000000000000002 0.0
3.6 1.2000000000000002 0.0
4.0 1.2000000000000002 0.0
4.4 1.2000000000000002 0.0
4.800000000000001 1.2000000000000002 0.0
5.2 1.2000000000000002 0.0
5.6000000000000005 1.2000000000000002 0.0
6.0 1.2000000000000002 0.0
6.4 1.2000000000000002 0.0
6.800000000000001 1.2000000000000002 0.0
7.2 1.2000000000000002 0.0
7.6000000000000005 1.2000000000000002 0.0
8.0 1.2000000000000002 0.0
8.4 1.2000000000000002 0.0
8.8 1.2000000000000002 0.0
9.200000000000001 1.2000000000000002 0.0
9.600000000000001 1.2000000000000002 0.0
10.0 1.2000000000000002 0.0
10.4 1.2000000000000002 0.0
10.8 1.2000000000000002 0.0
11.200000000000001 1.2000000000000002 0.0
11.600000000000001 1.2000000000000002 0.0
12.0 1.2000000000000002 0.0
12.4 1.2000000000000002 0.0
12.8 1.2000000000000002 0.0
13.200000000000001 1.2000000000000002 0.0
13.600000000000001 1.2000000000000002 0.0
14.0 1.2000000000000002 0.0
14.4 1.2000000000000002 0.0
14.8 1.2000000000000002 0.0
15.200000000000001 1.2000000000000002 0.0
15.600000000000001 1.2000000000000002 0.0
16.0 1.2000000000000002 0.0
0.0 1.3 0.0
0.4 1.3 0.0
0.8 1.3 0.0
1.2000000000000002 1.3 0.0
1.6 1.3 0.0
2.0 1.3 0.0
2.4000000000000004 1.3 0.0
2.8000000000000003 1.3 0.0
3.2 1.3 0.0
3.6 1.3 0.0
4.0 1.3 0.0
4.4 1.3 0.0
4.800000000000001 1.3 0.0
5.2 1.3 0.0
5.6000000000000005 1.3 0.0
6.0 1.3 0.0
6.4 1.3 0.0
6.800000000000001 1.3 0.0
7.2 1.3 0.0
7.6000000000000005 1.3 0.0
8.0 1.3 0.0
8.4 1.3 0.0
8.8 1.3 0.0
9.200000000000001 1.3 0.0
9.600000000000001 1.3 0.0
10.0 1.3 0.0
10.4 1.3 0.0
10.8 1.3 0.0
11.200000000000001 1.3 0.0
11.600000000000001 1.3 0.0
12.0 1.3 0.0
12.4 1.3 0.0
12.8 1.3 0.0
13.200000000000001 1.3 0.0
13.600000000000001 1.3 0.0
14.0 1.3 0.0
14.4 1.3 0.0
14.8 1.3 0.0
15.200000000000001 1.3 0.0
15.600000000000001 1.3 0.0
16.0 1.3 0.0
0.0 1.4000000000000001 0.0
0.4 1.4000000000000001 0.0
0.8 1.4000000000000001 0.0
1.2000000000000002 1.4000000000000001 0.0
1.6 1.4000000000000001 0.0
2.0 1.4000000000000001 0.0
2.4000000000000004 1.4000000000000001 0.0
2.8000000000000003 1.4000000000000001 0.0
3.2 1.4000000000000001 0.0
3.6 1.4000000000000001 0.0
4.0 1.4000000000000001 0.0
4.4 1.4000000000000001 0.0
4.800000000000001 1.4000000000000001 0.0
5.2 1.4000000000000001 0.0
5.6000000000000005 1.4000000000000001 0.0
6.0 1.4000000000000001 0.0
6.4 1.4000000000000001 0.0
6.800000000000001 1.4000000000000001 0.0
7.2 1.4000000000000001 0.0
7.6000000000000005 1.4000000000000001 0.0
8.0 1.4000000000000001 0.0
8.4 1.4000000000000001 0.0
8.8 1.4000000000000001 0.0
9.200000000000001 1.4000000000000001 0.0
9.600000000000001 1.4000000000000001 0.0
10.0 1.4000000000000001 0.0
10.4 1.4000000000000001 0.0
10.8 1.4000000000000001 0.0
11.200000000000001 1.4000000000000001 0.0
11.600000000000001 1.4000000000000001 0.0
12.0 1.4000000000000001 0.0
12.4 1.4000000000000001 0.0
12.8 1.4000000000000001 0.0
13.200000000000001 1.4000000000000001 0.0
13.600000000000001 1.4000000000000001 0.0
14.0 1.4000000000000001 0.0
14.4 1.4000000000000001 0.0
14.8 1.4000000000000001 0.0
15.200000000000001 1.4000000000000001 0.0
15.600000000000001 1.4000000000000001 0.0
16.0 1.4000000000000001 0.0
0.0 1.5 0.0
0.4 1.5 0.0
0.8 1.5 0.0
1.2000000000000002 1.5 0.0
1.6 1.5 0.0
2.0 1.5 0.0
2.4000000000000004 1.5 0.0
2.8000000000000003 1.5 0.0
3.2 1.5 0.0
3.6 1.5 0.0
4.0 1.5 0.0
4.4 1.5 0.0
4.800000000000001 1.5 0.0
5.2 1.5 0.0
5.6000000000000005 1.5 0.0
6.0 1.5 0.0
6.4 1.5 0.0
6.800000000000001 1.5 0.0
7.2 1.5 0.0
7.6000000000000005 1.5 0.0
8.0 1.5 0.0
8.4 1.5 0.0
8.8 1.5 0.0
9.200000000000001 1.5 0.0
9.600000000000001 1.5 0.0
10.0 1.5 0.0
10.4 1.5 0.0
10.8 1.5 0.0
11.200000000000001 1.5 0.0
11.600000000000001 1.5 0.0
12.0 1.5 0.0
12.4 1.5 0.0
12.8 1.5 0.0
13.200000000000001 1.5 0.0
13.600000000000001 1.5 0.0
14.0 1.5 0.0
14.4 1.5 0.0
14.8 1.5 0.0
15.200000000000001 1.5 0.0
15.600000000000001 1.5 0.0
16.0 1.5 0.0
0.0 1.6 0.0
0.4 1.6 0.0
0.8 1.6 0.0
1.2000000000000002 1.6 0.0
1.6 1.6 0.0
2.0 1.6 0.0
2.4000000000000004 1.6 0.0
2.8000000000000003 1.6 0.0
3.2 1.6 0.0
3.6 1.6 0.0
4.0 1.6 0.0
4.4 1.6 0.0
4.800000000000001 1.6 0.0
5.2 1.6 0.0
5.6000000000000005 1.6 0.0
6.0 1.6 0.0
6.4 1.6 0.0
6.800000000000001 1.6 0.0
7.2 1.6 0.0
7.6000000000000005 1.6 0.0
8.0 1.6 0.0
8.4 1.6 0.0
8.8 1.6 0.0
9.200000000000001 1.6 0.0
9.600000000000001 1.6 0.0
10.0 1.6 0.0
10.4 1.6 0.0
10.8 1.6 0.0
11.200000000000001 1.6 0.0
11.600000000000001 1.6 0.0
12.0 1.6 0.0
12.4 1.6 0.0
12.8 1.6 0.0
13.200000000000001 1.6 0.0
13.600000000000001 1.6 0.0
14.0 1.6 0.0
14.4 1.6 0.0
14.8 1.6 0.0
15.200000000000001 1.6 0.0
15.600000000000001 1.6 0.0
16.0 1.6 0.0
0.0 1.7000000000000002 0.0
0.4 1.7000000000000002 0.0
0.8 1.7000000000000002 0.0
1.2000000000000002 1.7000000000000002 0.0
1.6 1.7000000000000002 0.0
2.0 1.7000000000000002 0.0
2.4000000000000004 1.7000000000000002 0.0
2.8000000000000003 1.7000000000000002 0.0
3.2 1.7000000000000002 0.0
3.6 1.7000000000000002 0.0
4.0 1.7000000000000002 0.0
4.4 1.7000000000000002 0.0
4.800000000000001 1.7000000000000002 0.0
5.2 1.7000000000000002 0.0
5.6000000000000005 1.7000000000000002 0.0
6.0 1.7000000000000002 0.0
6.4 1.7000000000000002 0.0
6.800000000000001 1.7000000000000002 0.0
7.2 1.7000000000000002 0.0
7.6000000000000005 1.7000000000000002 0.0
8.0 1.7000000000000002 0.0
8.4 1.7000000000000002 0.0
8.8 1.7000000000000002 0.0
9.200000000000001 1.7000000000000002 0.0
9.600000000000001 1.7000000000000002 0.0
10.0 1.7000000000000002 0.0
10.4 1.7000000000000002 0.0
10.8 1.7000000000000002 0.0
11.200000000000001 1.7000000000000002 0.0
11.600000000000001 1.7000000000000002 0.0
12.0 1.7000000000000002 0.0
12.4 1.7000000000000002 0.0
12.8 1.7000000000000002 0.0
13.200000000000001 1.7000000000000002 0.0
13.600000000000001 1.7000000000000002 0.0
14.0 1.7000000000000002 0.0
14.4 1.7000000000000002 0.0
14.8 1.7000000000000002 0.0
15.200000000000001 1.7000000000000002 0.0
15.600000000000001 1.7000000000000002 0.0
16.0 1.7000000000000002 0.0
0.0 1.8 0.0
0.4 1.8 0.0
0.8 1.8 0.0
1.2000000000000002 1.8 0.0
1.6 1.8 0.0
2.0 1.8 0.0
2.4000000000000004 1.8 0.0
2.8000000000000003 1.8 0.0
3.2 1.8 0.0
3.6 1.8 0.0
4.0 1.8 0.0
4.4 1.8 0.0
4.800000000000001 1.8 0.0
5.2 1.8 0.0
5.6000000000000005 1.8 0.0
6.0 1.8 0.0
6.4 1.8 0.0
6.800000000000001 1.8 0.0
7.2 1.8 0.0
7.6000000000000005 1.8 0.0
8.0 1.8 0.0
8.4 1.8 0.0
8.8 1.8 0.0
9.200000000000001 1.8 0.0
9.600000000000001 1.8 0.0
10.0 1.8 0.0
10.4 1.8 0.0
10.8 1.8 0.0
11.200000000000001 1.8 0.0
11.600000000000001 1.8 0.0
12.0 1.8 0.0
12.4 1.8 0.0
12.8 1.8 0.0
13.200000000000001 1.8 0.0
13.600000000000001 1.8 0.0
14.0 1.8 0.0
14.4 1.8 0.0
14.8 1.8 0.0
15.200000000000001 1.8 0.0
15.600000000000001 1.8 0.0
16.0 1.8 0.0
0.0 1.9000000000000001 0.0
0.4 1.9000000000000001 0.0
0.8 1.9000000000000001 0.0
1.2000000000000002 1.9000000000000001 0.0
1.6 1.9000000000000001 0.0
2.0 1.9000000000000001 0.0
2.4000000000000004 1.9000000000000001 0.0
2.8000000000000003 1.9000000000000001 0.0
3.2 1.9000000000000001 0.0
3.6 1.9000000000000001 0.0
4.0 1.9000000000000001 0.0
4.4 1.9000000000000001 0.0
4.800000000000001 1.9000000000000001 0.0
5.2 1.9000000000000001 0.0
5.6000000000000005 1.9000000000000001 0.0
6.0 1.9000000000000001 0.0
6.4 1.9000000000000001 0.0
6.800000000000001 1.9000000000000001 0.0
7.2 1.9000000000000001 0.0
7.6000000000000005 1.9000000000000001 0.0
8.0 1.9000000000000001 0.0
8.4 1.9000000000000001 0.0
8.8 1.9000000000000001 0.0
9.200000000000001 1.9000000000000001 0.0
9.600000000000001 1.9000000000000001 0.0
10.0 1.9000000000000001 0.0
10.4 1.9000000000000001 0.0
10.8 1.9000000000000001 0.0
11.200000000000001 1.9000000000000001 0.0
11.600000000000001 1.9000000000000001 0.0
12.0 1.9000000000000001 0.0
12.4 1.9000000000000001 0.0
12.8 1.9000000000000001 0.0
13.200000000000001 1.9000000000000001 0.0
13.600000000000001 1.9000000000000001 0.0
14.0 1.9000000000000001 0.0
14.4 1.9000000000000001 0.0
14.8 1.9000000000000001 0.0
15.200000000000001 1.9000000000000001 0.0
15.600000000000001 1.9000000000000001 0.0
16.0 1.9000000000000001 0.0
0.0 2.0 0.0
0.4 2.0 0.0
0.8 2.0 0.0
1.2000000000000002 2.0 0.0
1.6 2.0 0.0
2.0 2.0 0.0
2.4000000000000004 2.0 0.0
2.8000000000000003 2.0 0.0
3.2 2.0 0.0
3.6 2.0 0.0
4.0 2.0 0.0
4.4 2.0 0.0
4.800000000000001 2.0 0.0
5.2 2.0 0.0
5.6000000000000005 2.0 0.0
6.0 2.0 0.0
6.4 2.0 0.0
6.800000000000001 2.0 0.0
7.2 2.0 0.0
7.6000000000000005 2.0 0.0
8.0 2.0 0.0
8.4 2.0 0.0
8.8 2.0 0.0
9.200000000000001 2.0 0.0
9.600000000000001 2.0 0.0
10.0 2.0 0.0
10.4 2.0 0.0
10.8 2.0 0.0
11.200000000000001 2.0 0.0
11.600000000000001 2.0 0.0
12.0 2.0 0.0
12.4 2.0 0.0
12.8 2.0 0.0
13.200000000000001 2.0 0.0
13.600000000000001 2.0 0.0
14.0 2.0 0.0
14.4 2.0 0.0
14.8 2.0 0.0
15.200000000000001 2.0 0.0
15.600000000000001 2.0 0.0
16.0 2.0 0.0
CELLS 800 4000
4 0 1 42 41
4 1 2 43 42
4 2 3 44 43
4 3 4 45 44
4 4 5 46 45
4 5 6 47 46
4 6 7 48 47
4 7 8 49 48
4 8 9 50 49
4 9 10 51 50
4 10 11 52 51
4 11 12 53 52
4 12 13 54 53
4 13 14 55 54
4 14 15 56 55
4 15 16 57 56
4 16 17 58 57
4 17 18 59 58
4 18 19 60 59
4 19 20 61 60
4 20 21 62 61
4 21 22 63 62
4 22 23 64 63
4 23 24 65 64
4 24 25 66 65
4 25 26 67 66
4 26 27 68 67
4 27 28 69 68
4 28 29 70 69
4 29 30 71 70
4 30 31 72 71
4 31 32 73 72
4 32 33 74 73
4 33 34 75 74
4 34 35 76 75
4 35 36 77 76
4 36 37 78 77
4 37 38 79 78
4 38 39 80 79
4 39 40 81 80
4 41 42 83 82
4 42 43 84 83
4 43 44 85 84
4 44 45 86 85
4 45 46 87 86
4 46 47 88 87
4 47 48 89 88
4 48 49 90 89
4 49 50 91 90
4 50 51 92 91
4 51 52 93 92
4 52 53 94 93
4 53 54 95 94
4 54 55 96 95
4 55 56 97 96
4 56 57 98 97
4 57 58 99 98
4 58 59 100 99
4 59 60 101 100
4 60 61 102 101
4 61 62 103 102
4 62 63 104 103
4 63 64 105 104
4 64 65 106 105
4 65 66 107 106
4 66 67 108 107
4 67 68 109 108
4 68 69 110 109
4 69 70 111 110
4 70 71 112 111
4 71 72 113 112
4 72 73 114 113
4 73 74 115 114
4 74 75 116 115
4 75 76 117 116
4 76 77 118 117
4 77 78 119 118
4 78 79 120 119
4 79 80 121 120
4 80 81 122 121
4 82 83 124 123
4 83 84 125 124
4 84 85 126 125
4 85 86 127 126
4 86 87 128 127
4 87 88 129 128
4 88 89 130 129
4 89 90 131 130
4 90 91 132 131
4 91 92 133 132
4 92 93 134 133
4 93 94 135 134
4 94 95 136 135
4 95 96 137 136
4 96 97 138 137
4 97 98 139 138
4 98 99 140 139
4 99 100 141 140
4 100 101 142 141
4 101 102 143 142
4 102 103 144 143
4 103 104 145 144
4 104 105 146 145
4 105 106 147 146
4 106 107 148 147
4 107 108 149 148
4 108 109 150 149
4 109 110 151 150
4 110 111 152 151
4 111 112 153 152
4 112 113 154 153
4 113 114 155 154
4 114 115 156 155
4 115 116 157 156
4 116 117 158 157
4 117 118 159 158
4 118 119 160 159
4 119 120 161 160
4 120 121 162 161
4 121 122 163 162
4 123 124 165 164
4 124 125 166 165
4 125 126 167 166
4 126 127 168 167
4 127 128 169 168
4 128 129 170 169
4 129 130 171 170
4 130 131 172 171
4 131 132 173 172
4 132 133 174 173
4 133 134 175 174
4 134 135 176 175
4 135 136 177 176
4 136 137 178 177
4 137 138 179 178
4 138 139 180 179
4 139 140 181 180
4 140 141 182 181
4 141 142 183 182
4 142 143 184 183
4 143 144 185 184
4 144 145 186 185
4 145 146 187 186
4 146 147 188 187
4 147 148 189 188
4 148 149 190 189
4 149 150 191 190
4 150 151 192 191
4 151 152 193 192
4 152 153 194 193
4 153 154 195 194
4 154 155 196 195
4 155 156 197 196
4 156 157 198 197
4 157 158 199 198
4 158 159 200 199
4 159 160 201 200
4 160 161 202 201
4 161 162 203 202
4 162 163 204 203
4 164 165 206 205
4 165 166 207 206
4 166 167 208 207
4 167 168 209 208
4 168 169 210 209
4 169 170 211 210
4 170 171 212 211
4 171 172 213 212
4 172 173 214 213
4 173 174 215 214
4 174 175 216 215
4 175 176 217 216
4 176 177 218 217
4 177 178 219 218
4 178 179 220 219
4 179 180 221 220
4 180 181 222 221
4 181 182 223 222
4 182 183 224 223
4 183 184 225 224
4 184 185 226 225
4 185 186 227 226
4 186 187 228 227
4 187 188 229 228
4 188 189 230 229
4 189 190 231 230
4 190 191 232 231
4 191 192 233 232
4 192 193 234 233
4 193 194 235 234
4 194 195 236 235
4 195 196 237 236
4 196 197 238 237
4 197 198 239 238
4 198 199 240 239
4 199 200 241 240
4 200 201 242 241
4 201 202 243 242
4 202 203 244 243
4 203 204 245 244
4 205 206 247 246
4 206 207 248 247
4 207 208 249 248
4 208 209 250 249
4 209 210 251 250
4 210 211 252 251
4 211 212 253 252
4 212 213 254 253
4 213 214 255 254
4 214 215 256 255
4 215 216 257 256
4 216 217 258 257
4 217 218 259 258
4 218 219 260 259
4 219 220 261 260
4 220 221 262 261
4 221 222 263 262
4 222 223 264 263
4 223 224 265 264
4 224 225 266 265
4 225 226 267 266
4 226 227 268 267
4 227 228 269 268
4 228 229 270 269
4 229 230 271 270
4 230 231 272 271
4 231 232 273 272
4 232 233 274 273
4 233 234 275 274
4 234 235 276 275
4 235 236 277 276
4 236 237 278 277
4 237 238 279 278
4 238 239 280 279
4 239 240 281 280
4 240 241 282 281
4 241 242 283 282
4 242 243 284 283
4 243 244 285 284
4 244 245 286 285
4 246 247 288 287
4 247 248 289 288
4 248 249 290 289
4 249 250 291 290
4 250 251 292 291
4 251 252 293 292
4 252 253 294 293
4 253 254 295 294
4 254 255 296 295
4 255 256 297 296
4 256 257 298 297
4 257 258 299 298
4 258 259 300 299
4 259 260 301 300
4 260 261 302 301
4 261 262 303 302
4 262 263 304 303
4 263 264 305 304
4 264 265 306 305
4 265 266 307 306
4 266 267 308 307
4 267 268 309 308
4 268 269 310 309
4 269 270 311 310
4 270 271 312 311
4 271 272 313 312
4 272 273 314 313
4 273 274 315 314
4 274 275 316 315
4 275 276 317 316
4 276 277 318 317
4 277 278 319 318
4 278 279 320 319
4 279 280 321 320
4 280 281 322 321
4 281 282 323 322
4 282 283 324 323
4 283 284 325 324
4 284 285 326 325
4 285 286 327 326
4 287 288 329 328
4 288 289 330 329
4 289 290 331 330
4 290 291 332 331
4 291 292 333 332
4 292 293 334 333
4 293 294 335 334
4 294 295 336 335
4 295 296 337 336
4 296 297 338 337
4 297 298 339 338
4 298 299 340 339
4 299 300 341 340
4 300 301 342 341
4 301 302 343 342
4 302 303 344 343
4 303 304 345 344
4 304 305 346 345
4 305 306 347 346
4 306 307 348 347
4 307 308 349 348
4 308 309 350 349
4 309 310 351 350
4 310 311 352 351
4 311 312 353 352
4 312 313 354 353
4 313 314 355 354
4 314 315 356 355
4 315 316 357 356
4 316 317 358 357
4 317 318 359 358
4 318 319 360 359
4 319 320 361 360
4 320 321 362 361
4 321 322 363 362
4 322 323 364 363
4 323 324 365 364
4 324 325 366 365
4 325 326 367 366
4 326 327 368 367
4 328 329 370 369
4 329 330 371 370
4 330 331 372 371
4 331 332 373 372
4 332 333 374 373
4 333 334 375 374
4 334 335 376 375
4 335 336 377 376
4 336 337 378 377
4 337 338 379 378
4 338 339 380 379
4 339 340 381 380
4 340 341 382 381
4 341 342 383 382
4 342 343 384 383
4 343 344 385 384
4 344 345 386 385
4 345 346 387 386
4 346 347 388 387
4 347 348 389 388
4 348 349 390 389
4 349 350 391 390
4 350 351 392 391
4 351 352 393 392
4 352 353 394 393
4 353 354 395 394
4 354 355 396 395
4 355 356 397 396
4 356 357 398 397
4 357 358 399 398
4 358 359 400 399
4 359 360 401 400
4 360 361 402 401
4 361 362 403 402
4 362 363 404 403
4 363 364 405 404
4 364 365 406 405
4 365 366 407 406
4 366 367 408 407
4 367 368 409 408
4 369 370 411 410
4 370 371 412 411
4 371 372 413 412
4 372 373 414 413
4 373 374 415 414
4 374 375 416 415
4 375 376 417 416
4 376 377 418 417
4 377 378 419 418
4 378 379 420 419
4 379 380 421 420
4 380 381 422 421
4 381 382 423 422
4 382 383 424 423
4 383 384 425 424
4 384 385 426 425
4 385 386 427 426
4 386 387 428 427
4 387 388 429 428
4 388 389 430 429
4 389 390 431 430
4 390 391 432 431
4 391 392 433 432
4 392 393 434 433
4 393 394 435 434
4 394 395 436 435
4 395 396 437 436
4 396 397 438 437
4 397 398 439 438
4 398 399 440 439
4 399 400 441 440
4 400 401 442 441
4 401 402 443 442
4 402 403 444 443
4 403 404 445 444
4 404 405 446 445
4 405 406 447 446
4 406 407 448 447
4 407 408 449 448
4 408 409 450 449
4 410 411 452 451
4 411 412 453 452
4 412 413 454 453
4 413 414 455 454
4 414 415 456 455
4 415 416 457 456
4 416 417 458 457
4 417 418 459 458
4 418 419 460 459
4 419 420 461 460
4 420 421 462 461
4 421 422 463 462
4 422 423 464 463
4 423 424 465 464
4 424 425 466 465
4 425 426 467 466
4 426 427 468 467
4 427 428 469 468
4 428 429 470 469
4 429 430 471 470
4 430 431 472 471
4 431 432 473 472
4 432 433 474 473
4 433 434 475 474
4 434 435 476 475
4 435 436 477 476
4 436 437 478 477
4 437 438 479 478
4 438 439 480 479
4 439 440 481 480
4 440 441 482 481
4 441 442 483 482
4 442 443 484 483
4 443 444 485 484
4 444 445 486 485
4 445 446 487 486
4 446 447 488 487
4 447 448 489 488
4 448 449 490 489
4 449 450 491 490
4 451 452 493 492
4 452 453 494 493
4 453 454 495 494
4 454 455 496 495
4 455 456 497 496
4 456 457 498 497
4 457 458 499 498
4 458 459 500 499
4 459 460 501 500
4 460 461 502 501
4 461 462 503 502
4 462 463 504 503
4 463 464 505 504
4 464 465 506 505
4 465 466 507 506
4 466 467 508 507
4 467 468 509 508
4 468 469 510 509
4 469 470 511 510
4 470 471 512 511
4 471 472 513 512
4 472 473 514 513
4 473 474 515 514
4 474 475 516 515
4 475 476 517 516
4 476 477 518 517
4 477 478 519 518
4 478 479 520 519
4 479 480 521 520
4 480 481 522 521
4 481 482 523 522
4 482 483 524 523
4 483 484 525 524
4 484 485 526 525
4 485 486 527 526
4 486 487 528 527
4 487 488 529 528
4 488 489 530 529
4 489 490 531 530
4 490 491 532 531
4 492 493 534 533
4 493 494 535 534
4 494 495 536 535
4 495 496 537 536
4 496 497 538 537
4 497 498 539 538
4 498 499 540 539
4 499 500 541 540
4 500 501 542 541
4 501 502 543 542
4 502 503 544 543
4 503 504 545 544
4 504 505 546 545
4 505 506 547 546
4 506 507 548 547
4 507 508 549 548
4 508 509 550 549
4 509 510 551 550
4 510 511 552 551
4 511 512 553 552
4 512 513 554 553
4 513 514 555 554
4 514 515 556 555
4 515 516 557 556
4 516 517 558 557
4 517 518 559 558
4 518 519 560 559
4 519 520 561 560
4 520 521 562 561
4 521 522 563 562
4 522 523 564 563
4 523 524 565 564
4 524 525 566 565
4 525 526 567 566
4 526 527 568 567
4 527 528 569 568
4 528 529 570 569
4 529 530 571 570
4 530 531 572 571
4 531 532 573 572
4 533 534 575 574
4 534 535 576 575
4 535 536 577 576
4 536 537 578 577
4 537 538 579 578
4 538 539 580 579
4 539 540 581 580
4 540 541 582 581
4 541 542 583 582
4 542 543 584 583
4 543 544 585 584
4 544 545 586 585
4 545 546 587 586
4 546 547 588 587
4 547 548 589 588
4 548 549 590 589
4 549 550 591 590
4 550 551 592 591
4 551 552 593 592
4 552 553 594 593
4 553 554 595 594
4 554 555 596 595
4 555 556 597 596
4 556 557 598 597
4 557 558 599 598
4 558 559 600 599
4 559 560 601 600
4 560 561 602 601
4 561 562 603 602
4 562 563 604 603
4 563 564 605 604
4 564 565 606 605
4 565 566 607 606
4 566 567 608 607
4 567 568 609 608
4 568 569 610 609
4 569 570 611 610
4 570 571 612 611
4 571 572 613 612
4 572 573 614 613
4 574 575 616 615
4 575 576 617 616
4 576 577 618 617
4 577 578 619 618
4 578 579 620 619
4 579 580 621 620
4 580 581 622 621
4 581 582 623 622
4 582 583 624 623
4 583 584 625 624
4 584 585 626 625
4 585 586 627 626
4 586 587 628 627
4 587 588 629 628
4 588 589 630 629
4 589 590 631 630
4 590 591 632 631
4 591 592 633 632
4 592 593 634 633
4 593 594 635 634
4 594 595 636 635
4 595 596 637 636
4 596 597 638 637
4 597 598 639 638
4 598 599 640 639
4 599 600 641 640
4 600 601 642 641
4 601 602 643 642
4 602 603 644 643
4 603 604 645 644
4 604 605 646 645
4 605 606 647 646
4 606 607 648 647
4 607 608 649 648
4 608 609 650 649
4 609 610 651 650
4 610 611 652 651
4 611 612 653 652
4 612 613 654 653
4 613 614 655 654
4 615 616 657 656
4 616 617 658 657
4 617 618 659 658
4 618 619 660 659
4 619 620 661 660
4 620 621 662 661
4 621 622 663 662
4 622 623 664 663
4 623 624 665 664
4 624 625 666 665
4 625 626 667 666
4 626 627 668 667
4 627 628 669 668
4 628 629 670 669
4 629 630 671 670
4 630 631 672 671
4 631 632 673 672
4 632 633 674 673
4 633 634 675 674
4 634 635 676 675
4 635 636 677 676
4 636 637 678 677
4 637 638 679 678
4 638 639 680 679
4 639 640 681 680
4 640 641 682 681
4 641 642 683 682
4 642 643 684 683
4 643 644 685 684
4 644 645 686 685
4 645 646 687 686
4 646 647 688 687
4 647 648 689 688
4 648 649 690 689
4 649 650 691 690
4 650 651 692 691
4 651 652 693 692
4 652 653 694 693
4 653 654 695 694
4 654 655 696 695
4 656 657 698 697
4 657 658 699 698
4 658 659 700 699
4 659 660 701 700
4 660 661 702 701
4 661 662 703 702
4 662 663 704 703
4 663 664 705 704
4 664 665 706 705
4 665 666 707 706
4 666 667 708 707
4 667 668 709 708
4 668 669 710 709
4 669 670 711 710
4 670 671 712 711
4 671 672 713 712
4 672 673 714 713
4 673 674 715 714
4 674 675 716 715
4 675 676 717 716
4 676 677 718 717
4 677 678 719 718
4 678 679 720 719
4 679 680 721 720
4 680 681 722 721
4 681 682 723 722
4 682 683 724 723
4 683 684 725 724
4 684 685 726 725
4 685 686 727 726
4 686 687 728 727
4 687 688 729 728
4 688 689 730 729
4 689 690 731 730
4 690 691 732 731
4 691 692 733 732
4 692 693 734 733
4 693 694 735 734
4 694 695 736 735
4 695 696 737 736
4 697 698 739 738
4 698 699 740 739
4 699 700 741 740
4 700 701 742 741
4 701 702 743 742
4 702 703 744 743
4 703 704 745 744
4 704 705 746 745
4 705 706 747 746
4 706 707 748 747
4 707 708 749 748
4 708 709 750 749
4 709 710 751 750
4 710 711 752 751
4 711 712 753 752
4 712 713 754 753
4 713 714 755 754
4 714 715 756 755
4 715 716 757 756
4 716 717 758 757
4 717 718 759 758
4 718 719 760 759
4 719 720 761 760
4 720 721 762 761
4 721 722 763 762
4 722 723 764 763
4 723 724 765 764
4 724 725 766 765
4 725 726 767 766
4 726 727 768 767
4 727 728 769 768
4 728 729 770 769
4 729 730 771 770
4 730 731 772 771
4 731 732 773 772
4 732 733 774 773
4 733 734 775 774
4 734 735 776 775
4 735 736 777 776
4 736 737 778 777
4 738 739 780 779
4 739 740 781 780
4 740 741 782 781
4 741 742 783 782
4 742 743 784 783
4 743 744 785 784
4 744 745 786 785
4 745 746 787 786
4 746 747 788 787
4 747 748 789 788
4 748 749 790 789
4 749 750 791 790
4 750 751 792 791
4 751 752 793 792
4 752 753 794 793
4 753 754 795 794
4 754 755 796 795
4 755 756 797 796
4 756 757 798 797
4 757 758 799 798
4 758 759 800 799
4 759 760 801 800
4 760 761 802 801
4 761 762 803 802
4 762 763 804 803
4 763 764 805 804
4 764 765 806 805
4 765 766 807 806
4 766 767 808 807
4 767 768 809 808
4 768 769 810 809
4 769 770 811 810
4 770 771 812 811
4 771 772 813 812
4 772 773 814 813
4 773 774 815 814
4 774 775 816 815
4 775 776 817 816
4 776 777 818 817
4 777 778 819 818
4 779 780 821 820
4 780 781 822 821
4 781 782 823 822
4 782 783 824 823
4 783 784 825 824
4 784 785 826 825
4 785 786 827 826
4 786 787 828 827
4 787 788 829 828
4 788 789 830 829
4 789 790 831 830
4 790 791 832 831
4 791 792 833 832
4 792 793 834 833
4 793 794 835 834
4 794 795 836 835
4 795 796 837 836
4 796 797 838 837
4 797 798 839 838
4 798 799 840 839
4 799 800 841 840
4 800 801 842 841
4 801 802 843 842
4 802 803 844 843
4 803 804 845 844
4 804 805 846 845
4 805 806 847 846
4 806 807 848 847
4 807 808 849 848
4 808 809 850 849
4 809 810 851 850
4 810 811 852 851
4 811 812 853 852
4 812 813 854 853
4 813 814 855 854
4 814 815 856 855
4 815 816 857 856
4 816 817 858 857
4 817 818 859 858
4 818 819 860 859
CELL_TYPES 800
9
9
9
9
9
9
9
9
9
9
9
9
9
9
9
9
9
9
9
9
9
9
9
9
9
9
9
9
9
9
9
9
9
9
9
9
9
9
9
9
9
9
9
9
9
9
9
9
9
9
9
9
9
9
9
9
9
9
9
9
9
9
9
9
9
9
9
9
9
9
9
9
9
9
9
9
9
9
9
9
9
9
9
9
9
9
9
9
9
9
9
9
9
9
9
9
9
9
9
9
9
9
9
9
9
9
9
9
9
9
9
9
9
9
9
9
9
9
9
9
9
9
9
9
9
9
9
9
9
9
9
9
9
9
9
9
9
9
9
9
9
9
9
9
9
9
9
9
9
9
9
9
9
9
9
9
9
9
9
9
9
9
9
9
9
9
9
9
9
9
9
9
9
9
9
9
9
9
9
9
9
9
9
9
9
9
9
9
9
9
9
9
9
9
9
9
9
9
9
9
9
9
9
9
9
9
9
9
9
9
9
9
9
9
9
9
9
9
9
9
9
9
9
9
9
9
9
9
9
9
9
9
9
9
9
9
9
9
9
9
9
9
9
9
9
9
9
9
9
9
9
9
9
9
9
9
9
9
9
9
9
9
9
9
9
9
9
9
9
9
9
9
9
9
9
9
9
9
9
9
9
9
9
9
9
9
9
9
9
9
9
9
9
9
9
9
9
9
9
9
9
9
9
9
9
9
9
9
9
9
9
9
9
9
9
9
9
9
9
9
9
9
9
9
9
9
9
9
9
9
9
9
9
9
9
9
9
9
9
9
9
9
9
9
9
9
9
9
9
9
9
9
9
9
9
9
9
9
9
9
9
9
9
9
9
9
9
9
9
9
9
9
9
9
9
9
9
9
9
9
9
9
9
9
9
9
9
9
9
9
9
9
9
9
9
9
9
9
9
9
9
9
9
9
9
9
9
9
9
9
9
9
9
9
9
9
9
9
9
9
9
9
9
9
9
9
9
9
9
9
9
9
9
9
9
9
9
9
9
9
9
9
9
9
9
9
9
9
9
9
9
9
9
9
9
9
9
9
9
9
9
9
9
9
9
9
9
9
9
9
9
9
9
9
9
9
9
9
9
9
9
9
9
9
9
9
9
9
9
9
9
9
9
9
9
9
9
9
9
9
9
9
9
9
9
9
9
9
9
9
9
9
9
9
9
9
9
9
9
9
9
9
9
9
9
9
9
9
9
9
9
9
9
9
9
9
9
9
9
9
9
9
9
9
9
9
9
9
9
9
9
9
9
9
9
9
9
9
9
9
9
9
9
9
9
9
9
9
9
9
9
9
9
9
9
9
9
9
9
9
9
9
9
9
9
9
9
9
9
9
9
9
9
9
9
9
9
9
9
9
9
9
9
9
9
9
9
9
9
9
9
9
9
9
9
9
9
9
9
9
9
9
9
9
9
9
9
9
9
9
9
9
9
9
9
9
9
9
9
9
9
9
9
9
9
9
9
9
9
9
9
9
9
9
9
9
9
9
9
9
9
9
9
9
9
9
9
9
9
9
9
9
9
9
9
9
9
9
9
9
9
9
9
9
9
9
9
9
9
9
9
9
9
9
9
9
9
9
9
9
9
9
9
9
9
9
9
9
9
9
9
9
9
9
9
9
9
9
9
9
9
9
9
9
9
9
9
9
9
9
9
9
9
9
9
9
9
9
9
9
9
9
9
9
9
9
9
9
9
9
9
9
9
9
9
9
9
9
9
9
9
9
9
9
9
9
9
9
9
9
9
9
9
9
9
9
9
9
9
9
9
9
9
9
9
9
9
9
9
9
9
9
9
9
9
9
9
9
9
9
POINT_DATA 861
SCALARS Disp float 2
LOOKUP_TABLE default
0.0 0.0
0.004848959552719247 -0.16742801597509158
0.005959437555905655 -0.32698311827481635
0.006698990073520263 -0.48573114666916867
0.007604067310866777 -0.6441709661654421
0.008928556315073605 -0.8020196342958849
0.011075759297723784 -0.9589153143867519
0.014496041987855868 -1.1144190432452774
0.019705931496858408 -1.2679885463667755
0.027261669386239095 -1.418928403813287
0.0377299133720253 -1.5663074505051056
0.05168830499898157 -1.7088942917344356
0.06973248346264334 -1.8451505444293017
0.09246872134566889 -1.9732882417960294
0.12051296498583797 -2.0913213548108507
0.1544219637758847 -2.197105145783971
0.1945645459828289 -2.2883808013360825
0.2409581748608155 -2.362850204292564
0.29311941553539284 -2.41832802986561
0.3499888604387246 -2.4529740464394645
0.4098372107319086 -2.46552130855073
0.46968556102509007 -2.452974046439393
0.5265550059284115 -2.4183280298654624
0.5787162466029705 -2.362850204292351
0.6251098754809336 -2.288380801335816
0.6652524576878528 -2.197105145783667
0.699161456477874 -2.0913213548105163
0.7272057001180173 -1.9732882417956756
0.749941938001017 -1.8451505444289389
0.7679861164646543 -1.7088942917340755
0.7819445080915884 -1.566307450504757
0.7924127520773561 -1.418928403812958
0.7999684899667223 -1.267988546366471
0.805178379475714 -1.1144190432450014
0.8085986621658383 -0.9589153143865079
0.810745865148484 -0.8020196342956775
0.8120703541526888 -0.6441709661652714
0.8129754313900347 -0.4857311466690368
0.813714983907649 -0.32698311827472243
0.8148254619108344 -0.167428015975038
0.8196744214635504 0.0
0.041771408109644824 -0.0020776903611016027
0.04508320811621467 -0.16760493600753118
0.04568204574310816 -0.32704444310295483
0.04634428746397239 -0.48581354211247246
0.047149182188370595 -0.6442852795481059
0.04829058886657719 -0.8022457172766215
0.05015089048192475 -0.9593571047665167
0.053157805612631115 -1.115195396156646
0.057796607116768345 -1.269231019268406
0.06457364291614516 -1.420769506887288
0.07399268345799793 -1.568879106017338
0.08655500530038882 -1.712331726192155
0.10278080182334876 -1.84959552889555
0.12322520174093944 -1.9788883000900037
0.14845423973620675 -2.09822267699127
0.1789892741919442 -2.205428199688271
0.21518477449665374 -2.298183358044665
0.25708022908026906 -2.374088329311059
0.30426658852030486 -2.4308255706569724
0.35576872554128713 -2.466405054017687
0.40983721073189994 -2.479328466403067
0.46390569592250974 -2.466405054017614
0.5154078329434825 -2.430825570656822
0.5625941923835023 -2.3740883293108412
0.6044896469670972 -2.2981833580443927
0.6406851472717846 -2.2054281996879617
0.6712201817274991 -2.09822267699093
0.6964492197227432 -1.978888300089644
0.7168936196403106 -1.8495955288951813
0.7331194161632486 -1.7123317261917892
0.7456817380056195 -1.5688791060169847
0.7551007785474555 -1.4207695068869555
0.761877814346819 -1.2692310192680987
0.7665166158509464 -1.115195396156368
0.7695235309816459 -0.9593571047662715
0.7713838325969895 -0.8022457172764135
0.7725252392751943 -0.6442852795479348
0.7733301339995922 -0.4858135421123405
0.7739923757204562 -0.3270444431028609
0.7745912133473497 -0.16760493600747733
0.7779030133539147 -0.0020776903610992305
0.0826852346700436 -0.0037077795373184398
0.08507830472136729 -0.16768938334569305
0.08542581469538602 -0.32708108098962496
0.08596754730220114 -0.4858871973375915
0.08667960594045622 -0.644379814950446
0.08765697491305674 -0.8024253293770062
0.08923355183491175 -0.9597219307182726
0.09182778933329236 -1.1158579259798216
0.0958860933100873 -1.2703136976216478
0.1018681923135978 -1.4223920974745734
0.11021758411307593 -1.5711573766156839
0.12136684853335722 -1.715382184583898
0.13576356905330814 -1.8535429648782058
0.15389625533327692 -1.9838677926214356
0.1762853723285471 -2.1043690659523544
0.2034121504422677 -2.212854985601784
0.23562178454194696 -2.306949873705279
0.272992195571467 -2.384163941652847
0.3151940962459837 -2.4420575873307544
0.3613285808927929 -2.478476109515259
0.40983721073189155 -2.491745945100269
0.4583458405709871 -2.4784761095151837
0.5044803252177875 -2.442057587330601
0.54668222589229 -2.3841639416526252
0.5840526369217928 -2.306949873705002
0.6162622710214523 -2.2128549856014694
0.6433890491351524 -2.1043690659520093
0.665778166130402 -1.9838677926210708
0.68391085241035 -1.8535429648778319
0.6983075729302817 -1.715382184583527
0.709456837350545 -1.5711573766153266
0.7178062291500081 -1.4223920974742374
0.7237883281535068 -1.2703136976213378
0.7278466321302928 -1.115857925979542
0.7304408696286673 -0.9597219307180263
0.7320174465505191 -0.8024253293767977
0.7329948155231184 -0.6443798149502749
0.733706874161373 -0.48588719733745955
0.7342486067681882 -0.3270810809895311
0.7345961167422069 -0.1676893833456389
0.736989186793526 -0.0037077795373135804
0.12315128013820582 -0.005010214150389834
0.12493602093366438 -0.1677462278146136
0.1251492095452126 -0.3271017655291242
0.12557339929147426 -0.4859480988393929
0.12618954239984523 -0.6444606777932221
0.12702388610669046 -0.8025647127117477
0.1283321304879459 -0.960011893713702
0.13051561153856067 -1.1164078973370317
0.13398971173384563 -1.27123518713342
0.13916672997962823 -1.4237934518756878
0.14643376020356083 -1.5731391432013448
0.15615774205167815 -1.718044084889859
0.1687179498595274 -1.8569920842428482
0.18453470108727382 -1.9882236596331337
0.20406648280397688 -2.1097554103071876
0.22776099110959994 -2.2193786112672167
0.2559565941587947 -2.314673247815724
0.28877065938100177 -2.3930723461790424
0.3259592163581195 -2.4520204860596104
0.3667614207466368 -2.489211888896417
0.40983721073188345 -2.5028292898702262
0.4529130007171269 -2.48921188889634
0.4937152051056363 -2.452020486059454
0.5309037620827415 -2.393072346178817
0.5637178273049335 -2.3146732478154424
0.5919134303541113 -2.219378611266897
0.6156079386597161 -2.1097554103068386
0.635139720376401 -1.988223659632764
0.6509564716041293 -1.8569920842424699
0.6635166794119618 -1.7180440848894842
0.6732406612600635 -1.5731391432009838
0.6805076914839828 -1.423793451875349
0.685684709729755 -1.2712351871331076
0.689158809925032 -1.1164078973367506
0.6913422909756417 -0.9600118937134546
0.6926505353568946 -0.8025647127115387
0.6934848790637389 -0.6444606777930508
0.6941010221721097 -0.48594809883926093
0.6945252119183712 -0.3271017655290305
0.6947384005299195 -0.16774622781455914
0.696523141325374 -0.005010214150382746
0.163358999461183 -0.0060563991587861896
0.16469673050770675 -0.16779263912786452
0.1648360412664449 -0.32711357531675817
0.1651597309882852 -0.4859954298097714
0.1656769739855697 -0.6445296698258222
0.16638235615059965 -0.8026737824464963
0.16745220345836434 -0.9602329999578411
0.16923087981709622 -1.1168472869286374
0.17212301853327885 -1.2719962638971376
0.17649126441270147 -1.424972675525751
0.1826694603010952 -1.5748235241078974
0.1909636822119754 -1.7203168489488159
0.2016844758812569 -1.8599433128729523
0.21518361729269347 -1.9919564751953382
0.2318602822315942 -2.1143797647481852
0.2521121153563431 -2.2249949340950024
0.2762704893118222 -2.3213475613430266
0.30449480695482317 -2.4008058240868393
0.3366406945403964 -2.460712852231399
0.3721234050877979 -2.498629928975276
0.40983721073187546 -2.5126101271563135
0.44755101637595013 -2.4986299289751983
0.48303372692334434 -2.4607128522312403
0.5151796145089065 -2.400805824086611
0.5434039321518945 -2.3213475613427415
0.5675623061073589 -2.2249949340946786
0.5878141392320921 -2.1143797647478317
0.604490804170977 -1.9919564751949645
0.6179899455823984 -1.85994331287257
0.6287107392516655 -1.7203168489484373
0.6370049611625325 -1.574823524107533
0.6431831570509148 -1.4249726755254095
0.6475514029303283 -1.2719962638968234
0.6504435416465042 -1.1168472869283552
0.6522222180052318 -0.960232999957593
0.6532920653129947 -0.8026737824462872
0.653997447478024 -0.6445296698256509
0.6545146904753083 -0.4859954298096394
0.6548383801971487 -0.3271135753166644
0.6549776909558866 -0.16779263912780984
0.656315422002407 -0.006056399158777162
0.20339525510526218 -0.006891665091602671
0.20438884728439785 -0.1678340408791339
0.20448440520808644 -0.32712136369494765
0.2047241022076216 -0.48603014563253777
0.20514101371565804 -0.6445874326532696
0.20572653410492797 -0.8027597818992134
0.20658506800664367 -0.9603964233847904
0.2079901375793481 -1.1171797747067709
0.21030209398347224 -1.272599307527627
0.2138643843001323 -1.425931114192187
0.21895402800530317 -1.5762111906660288
0.2258190883041571 -1.7222019613395603
0.23470545485200275 -1.8623988111506702
0.2458955370093686 -1.9950685126268597
0.2597208433840789 -2.1182444883376377
0.27653698828844536 -2.2297037910195154
0.29665200949899384 -2.326968113951386
0.32025393442459493 -2.407356332284959
0.34731728177732085 -2.4681303591996704
0.37746262351389204 -2.5067375680130493
0.4098372107318674 -2.521106583431162
0.44221179794984 -2.50673756801297
0.47235713968640464 -2.4681303591995105
0.49942048703912123 -2.407356332284728
0.5230224119647116 -2.326968113951098
0.5431374331752474 -2.2297037910191886
0.5599535780796007 -2.118244488337281
0.5737788844542978 -1.9950685126264827
0.5849689666116514 -1.8623988111502845
0.5938553331594848 -1.722201961339179
0.6007203934583276 -1.5762111906656617
0.605810037163489 -1.4259311141918434
0.6093723274801415 -1.272599307527311
0.6116842838842602 -1.1171797747064875
0.6130893534569614 -0.9603964233845418
0.6139478873586757 -0.8027597818990041
0.6145334077479452 -0.6445874326530981
0.6149503192559814 -0.48603014563240576
0.6151900162555166 -0.32712136369485395
0.6152855741792052 -0.16783404087907908
0.616279166358338 -0.006891665091591974
0.24330682737005882 -0.007550953334633111
0.24403235176796964 -0.16787205701835187
0.24409843334288786 -0.3271276181029998
0.24426595864979483 -0.4860537011490842
0.2445834420411985 -0.6446335243019757
0.24505188828760102 -0.8028276574381757
0.2457204853645875 -0.9605146401083109
0.24678816478204715 -1.117417649662158
0.24854873158356133 -1.2730485107586158
0.25130992139650377 -1.4266721289455302
0.25531831441889546 -1.5773051866571495
0.2607613128733483 -1.7237026550720544
0.26782344715546125 -1.8643629089062226
0.2767194639612108 -1.9975650208072828
0.287714266223075 -2.1213539715705445
0.30110603292120014 -2.233508771114835
0.3171813763483225 -2.33153437252523
0.3361461553229398 -2.412716455115597
0.35807787928090296 -2.4742634372580574
0.382828955183905 -2.5135313123311898
0.4098372107318592 -2.528325222603448
0.43684546627981097 -2.51353131233111
0.46159654218280727 -2.4742634372578953
0.4835282661407628 -2.4127164551153633
0.5024930451153714 -2.33153437252494
0.5185683885424833 -2.2335087711145056
0.5319601552405977 -2.1213539715701852
0.5429549575024514 -1.9975650208069031
0.5518509743081914 -1.8643629089058344
0.5589131085902945 -1.7237026550716705
0.5643561070447387 -1.5773051866567804
0.5683645000671227 -1.426672128945185
0.5711256898800591 -1.2730485107582987
0.5728862566815691 -1.1174176496618737
0.5739539360990265 -0.9605146401080621
0.5746225331760121 -0.8028276574379662
0.5750909794224143 -0.6446335243018044
0.5754084628138179 -0.4860537011489522
0.5755759881207247 -0.327127618102906
0.5756420696956428 -0.16787205701829694
0.5763675940935515 -0.0075509533346210704
0.28312560302324186 -0.008061992117257886
0.2836420492358202 -0.16790813211080335
0.28368424301813544 -0.3271328917626787
0.28378661433228136 -0.48606751783465685
0.2840069797501141 -0.6446671099809435
0.284355158231127 -0.8028805107563501
0.2848540202555371 -0.960596987326581
0.28561716745993004 -1.1175767412725066
0.2868690724168589 -1.2733561975492973
0.28885753918335844 -1.4272019732075565
0.29179568429579 -1.5781108974233922
0.2958287065809647 -1.7248245045586081
0.3010836359999406 -1.865842351405852
0.30770886028070216 -1.999454061371892
0.3158996407704526 -2.1237169445301345
0.32589496844819804 -2.2364164618295006
0.3379466341290357 -2.3350493777741597
0.35226564849960856 -2.4168819455180888
0.36901659678873155 -2.47909797586567
0.3882798098805361 -2.518995621343187
0.40983721073185053 -2.5342604853206554
0.43139461158316333 -2.5189956213431057
0.45065782467496335 -2.4790979758655065
0.4674087729640802 -2.4168819455178534
0.4817277873346465 -2.3350493777738675
0.49377945301547593 -2.2364164618291684
0.5037747806932132 -2.123716944529773
0.5119655611829559 -1.9994540613715104
0.5185907854637104 -1.8658423514054618
0.5238457148826793 -1.7248245045582224
0.5278787371678474 -1.5781108974230216
0.5308168822802731 -1.4272019732072097
0.5328053490467686 -1.2733561975489793
0.5340572540036945 -1.1175767412722217
0.5348204012080859 -0.9605969873263321
0.5353192632324955 -0.8028805107561408
0.5356674417135081 -0.6446671099807721
0.5358878071313408 -0.4860675178345248
0.5359901784454867 -0.3271328917625849
0.5360323722278018 -0.16790813211074834
0.5365488184403787 -0.008061992117244765
0.32286983961246535 -0.008451706838567071
0.3232318026385431 -0.16794338501246164
0.323247254573671 -0.32713650624200113
0.32328879009045597 -0.48607268079588584
0.3234152461033029 -0.6446878937603565
0.32363922120396005 -0.802918019857778
0.3239731293952729 -0.9606532115860711
0.32446924954740186 -1.1176735124300654
0.32525970820434186 -1.2735419250951467
0.3265237295597308 -1.4275354609825406
0.3284228014203563 -1.5786380875813804
0.3310670490694094 -1.7255767850613055
0.33453519599577347 -1.86684728659268
0.3389182343359264 -2.0007475252996776
0.34434200611804416 -2.1253460908041633
0.3509774601922988 -2.2384382795061772
0.3590312556091622 -2.3375214796857127
0.3687187220075345 -2.419852825147836
0.38024498951741337 -2.4826174121270035
0.3938853406572889 -2.52310226038926
0.40983721073184154 -2.5388937402053555
0.42578908080639327 -2.523102260389179
0.4394294319462658 -2.4826174121268387
0.4509556994561402 -2.4198528251475997
0.4606431658545078 -2.3375214796854196
0.46869696127136556 -2.2384382795058433
0.4753324153456149 -2.1253460908038
0.48075618712772766 -2.0007475252992943
0.48513922546787636 -1.8668472865922887
0.48860737239423596 -1.7255767850609185
0.4912516200432847 -1.5786380875810084
0.49315069190390626 -1.4275354609821929
0.4944147132592928 -1.2735419250948283
0.49520517191623115 -1.1176735124297803
0.49570129206835933 -0.960653211585822
0.4960352002596718 -0.8029180198575686
0.4962591753603288 -0.644687893760185
0.49638563137317565 -0.4860726807957538
0.4964271668899607 -0.3271365062419073
0.4964426188250884 -0.16794338501240663
0.4968045818511652 -0.008451706838553166
0.36255153431907433 -0.008748205147614029
0.3628065883348442 -0.1679793256631683
0.362792795971068 -0.32713708107371253
0.3627762114473381 -0.4860700100559785
0.3628117916671032 -0.6446960784286612
0.36291036895751383 -0.8029387856598187
0.3630741647510734 -0.960687009035612
0.36332320815602515 -1.1177261952942161
0.3637060342742782 -1.2736326027833123
0.3643102626002598 -1.4276994441370607
0.365225143049187 -1.578908747851456
0.3665204857942606 -1.725977767130343
0.36823115889907604 -1.867395057024918
0.37040207967362354 -2.0014642579438715
0.3730985447300031 -2.126261696042689
0.37641658657720173 -2.239593243128366
0.38050373535228105 -2.338965369225781
0.3855695452651281 -2.4216404036683614
0.3918764350283052 -2.4848121968193007
0.39975398456054245 -2.5258094384369794
0.4098372107318324 -2.542187309359451
0.4199204369031218 -2.525809438436897
0.4277979864353577 -2.484812196819135
0.4341048761985322 -2.421640403668124
0.4391706861113764 -2.338965369225487
0.443257834886453 -2.2395932431280317
0.4465758767336493 -2.126261696042325
0.4492723417900267 -2.001464257943488
0.4514432625645727 -1.8673950570245261
0.4531539356693861 -1.7259777671299548
0.4544492784144577 -1.5789087478510837
0.45536415886338344 -1.4276994441367126
0.45596838718936405 -1.2736326027829934
0.4563512133076165 -1.117726195293931
0.456600256712568 -0.960687009035363
0.45676405250612734 -0.8029387856596092
0.45686262979653797 -0.6446960784284895
0.45689821001630304 -0.48607001005584644
0.45688162549257316 -0.32713708107361866
0.4568678331287968 -0.1679793256631133
0.4571228871445663 -0.008748205147599594
0.40218642020668904 -0.008974477471914166
0.402366214801015 -0.168016795947471
0.4023254938991433 -0.3271337287273428
0.4022531644313551 -0.48606003378757
0.40220083447920896 -0.6446919296353162
0.4021747336156968 -0.8029424116752557
0.4021651103299792 -0.9606975444547796
0.40216268519875387 -1.117743549917652
0.40216237296190394 -1.2736601563618712
0.4021626558295001 -1.4277438790770216
0.402162864106946 -1.5789784593081648
0.4021629572413651 -1.7260812970803865
0.40216030084037685 -1.8675371622082773
0.40215220382500727 -2.00165281852048
0.40213950161761947 -2.1265110559079266
0.40214885120252386 -2.2399254580445707
0.40227128599271067 -2.3394195749456257
0.4027157020812712 -2.4222788370483426
0.40381847265560716 -2.4857149721414946
0.4059680101770836 -2.527088469369178
0.4098372107318229 -2.544086453414334
0.4137064112865623 -2.5270884693690956
0.41585594880803844 -2.485714972141329
0.4169587193823736 -2.422278837048104
0.41740313547093416 -2.3394195749453317
0.4175255702611216 -2.239925458044236
0.41753491984602625 -2.1265110559075624
0.41752221763863906 -2.0016528185200966
0.41751412062327065 -1.8675371622078851
0.41751146422228336 -1.7260812970799984
0.41751155735670314 -1.5789784593077927
0.41751176563414955 -1.4277438790766734
0.4175120485017461 -1.2736601563615524
0.41751173626489646 -1.1177435499173667
0.41750931113367123 -0.9606975444545306
0.41749968784795377 -0.8029424116750462
0.4174735869844417 -0.6446919296351447
0.4174212570322956 -0.4860600337874379
0.41734892756450737 -0.3271337287272489
0.4173082066626358 -0.168016795947416
0.41748800125696145 -0.00897447747189941
0.44178570824819485 -0.009150397150553458
0.4419142136441525 -0.1680536160044714
0.4418491524143106 -0.3271267303314091
0.4417242495852252 -0.48604299356148994
0.44158689840474497 -0.6446759152416423
0.44143816110902695 -0.8029289635712045
0.4412561621762938 -0.9606842956995294
0.4410019258015635 -1.1177256948138177
0.44061863875732815 -1.273632676166431
0.4400150135048915 -1.4276994917558807
0.4391010613765651 -1.5789089743006748
0.43780563353399254 -1.7259772355543186
0.43608929168455896 -1.8673928829709971
0.43390161268806254 -2.001459298429427
0.4311807205047491 -2.126258628205725
0.42788315658934656 -2.239615422838922
0.42403429992657143 -2.3390756256254126
0.41979800131890305 -2.42195985102088
0.415516723336906 -2.4854978456231156
0.41172358039644547 -2.5270510216324893
0.40983721073181356 -2.5447059110769485
0.4079508410671809 -2.5270510216324067
0.4041576981267207 -2.4854978456229504
0.39987642014472524 -2.4219598510206413
0.39564012153706074 -2.3390756256251186
0.3917912648742893 -2.2396154228385874
0.38849370095889 -2.126258628205361
0.38577280877557996 -2.001459298429044
0.38358512977908715 -1.8673928829706057
0.38186878792965745 -1.725977235553931
0.38057336008708836 -1.5789089743003029
0.3796594079587647 -1.427699491755533
0.3790557827063298 -1.273632676166112
0.3786724956620956 -1.1177256948135326
0.37841825928736567 -0.9606842956992803
0.3782362603546329 -0.8029289635709951
0.37808752305891513 -0.6446759152414709
0.377950171878435 -0.4860429935613577
0.3778252690493497 -0.32712673033131523
0.3777602078195078 -0.16805361600441646
0.3778887132154654 -0.009150397150538475
0.4813651662474757 -0.009286042059781365
0.481455304097959 -0.16808786557036748
0.48136818652146657 -0.32711634165268194
0.481194000305649 -0.486019228388416
0.4809749150457406 -0.6446486272148417
0.4807065713124944 -0.8028987379122444
0.4803558505198219 -0.9606478411767561
0.47985550686994327 -1.117672525996262
0.47906472014353296 -1.2735420847792835
0.4778018934605282 -1.4275357402337212
0.4759036220612138 -1.5786383655490834
0.47325873033253757 -1.7255755648434503
0.4697855852118838 -1.8668424242663264
0.4653879871314194 -2.000737117899211
0.4599422122555704 -2.12533964405313
0.45332376131566954 -2.238483031655837
0.44548389445717135 -2.337740992695957
0.43653921312606786 -2.4204797076080684
0.4268570479891093 -2.483985506594197
0.4173456960420251 -2.525790823692265
0.4098372107318044 -2.54420336531597
0.4023287254215831 -2.525790823692182
0.3928173734745002 -2.4839855065940317
0.38313520833754533 -2.420479707607831
0.37419052700644806 -2.3377409926956645
0.3663506601479568 -2.2384830316555036
0.3597322092080618 -2.125339644052767
0.35428643433221896 -2.0007371178988294
0.3498888362517608 -1.8668424242659358
0.3464156911311136 -1.7255755648430635
0.3437707994024433 -1.5786383655487122
0.3418725280031339 -1.427535740233374
0.34060970132013263 -1.2735420847789654
0.33981891459372443 -1.117672525995977
0.3393185709438468 -0.960647841176507
0.33896785015117475 -0.8028987379120349
0.3386995064179289 -0.6446486272146704
0.33848042115802074 -0.48601922838828376
0.3383062349422033 -0.32711634165258807
0.338219117365711 -0.16808786557031255
0.33830925521619426 -0.009286042059766212
0.5209377745777795 -0.009387321923307086
0.520995282965269 -0.16811796460709544
0.5208874831529765 -0.3271026903315674
0.5206670945177795 -0.48598918107032707
0.5203699851881597 -0.64461066683491
0.5199863778293441 -0.8028527919305373
0.5194737625583872 -0.9605888648044942
0.5187065079779286 -1.1175753128234367
0.5174556549462752 -1.2733566448826326
0.5154686073078056 -1.4272025394228376
0.5125307106021053 -1.5781110802964315
0.5084965625645335 -1.724822609065459
0.5032384472644472 -1.8658354395407233
0.49660517862750736 -1.9994395087021344
0.48840142441448064 -2.123707702414712
0.47841778317285016 -2.2364790388870954
0.46651730162726823 -2.335358700465541
0.45276968761919734 -2.417772169445755
0.437674808249889 -2.481126869426025
0.4224900343221382 -2.5231602940028233
0.40983721073179524 -2.5425949187329593
0.39718438714145266 -2.5231602940027407
0.38199961321370385 -2.481126869425861
0.3669047338444011 -2.4177721694455188
0.35315711983633874 -2.33535870046525
0.3412566382907664 -2.236479038886764
0.3312729970491446 -2.1237077024143503
0.3230692428361267 -1.9994395087017545
0.3164359741991956 -1.865835439540335
0.31117785889911864 -1.724822609065074
0.30714371086155523 -1.578111080296062
0.30420581415586184 -1.4272025394224916
0.3022187665173975 -1.2733566448823148
0.3009679134857475 -1.1175753128231518
0.3002006589052907 -0.9605888648042453
0.29968804363433443 -0.802852791930328
0.2993044362755193 -0.6446106668347386
0.2990073269458998 -0.48598918107019495
0.298786938310703 -0.32710269033147354
0.2986791384984106 -0.1681179646070405
0.29873664688590007 -0.009387321923291808
0.5605116549516522 -0.009459437050092076
0.5605402430680884 -0.168142590803734
0.5604120488817159 -0.3270857610178085
0.5601481570356279 -0.4859532828918619
0.5597764101008836 -0.6445628840328688
0.5592848876420135 -0.8027925180411862
0.5586044610747294 -0.9605036149628936
0.5575354842516095 -1.1174161570224634
0.5557767760968746 -1.2730494542936006
0.5530166869168576 -1.4266728745908412
0.5490077411932268 -1.5773050862070876
0.5435633746889315 -1.7237002013794902
0.5365007149238764 -1.864355187206694
0.5276070671859364 -1.9975492948109335
0.5166162430987201 -2.121344167314537
0.5032317414178235 -2.233581060266702
0.4872191384692839 -2.3318996370266065
0.46862563815028135 -2.4138155922230218
0.4481092994421065 -2.4769092641396973
0.42737706535150255 -2.519207956375189
0.40983721073178636 -2.5399326657983017
0.3922973561120713 -2.519207956375107
0.3715651220214708 -2.476909264139534
0.35104878331330325 -2.4138155922227873
0.3324552829943111 -2.331899637026318
0.3164426800457832 -2.233581060266373
0.30305817836489823 -2.1213441673141777
0.2920673542776933 -1.9975492948105558
0.28317370653976487 -1.8643551872063082
0.2761110467747213 -1.7237002013791072
0.27066668027043683 -1.5773050862067204
0.26665773454681513 -1.4266728745904969
0.2638976453668049 -1.2730494542932838
0.2621389372120747 -1.117416157022179
0.2610699603889576 -0.9605036149626449
0.26038953382167446 -0.802792518040977
0.2598980113628048 -0.6445628840326975
0.25952626442806087 -0.4859532828917299
0.2592623725819732 -0.3270857610177147
0.2591341783956008 -0.16814259080367905
0.259162766512037 -0.009459437050076706
0.600092552549371 -0.009507259087828427
0.600095616920325 -0.16816087113675177
0.5999470708631194 -0.32706542003940514
0.5996419513203927 -0.485911949774628
0.5991999850664997 -0.6445064089956712
0.5986050492988508 -0.8027184622064187
0.5977391656442934 -0.9603830825960855
0.5963343670399733 -1.1171786777997224
0.5940245083471666 -1.272600751169462
0.5904624721181143 -1.4259318405742323
0.5853716435337971 -1.5762106722512863
0.5785052297751986 -1.7221991540562813
0.5696215819389563 -1.862391869135155
0.5584460451764683 -1.9950557779431655
0.5446464226613491 -2.1182380707649218
0.5278396276628388 -2.2297770558020655
0.5077095612400442 -2.3273533590887996
0.4842835279322075 -2.4086032934980666
0.45838706061026235 -2.4713413388951713
0.43220250537303223 -2.513966011747495
0.4098372107317777 -2.5362346189115783
0.38747191609052445 -2.513966011747414
0.36128736085329965 -2.471341338895009
0.33539089353136353 -2.4086032934978348
0.3119648602235387 -2.3273533590885145
0.2918347938007582 -2.2297770558017396
0.275027998802262 -2.1182380707645656
0.26122837628715706 -1.9950557779427907
0.2500528395246832 -1.8623918691347723
0.24116919168845494 -1.7221991540559014
0.2343027779298694 -1.5762106722509217
0.22921194934556316 -1.42593184057389
0.22564991311651938 -1.2726007511691466
0.22334005442371868 -1.1171786777994386
0.22193525581940235 -0.9603830825958373
0.22106937216484657 -0.8027184622062095
0.22047443639719827 -0.6445064089955
0.2200324701433057 -0.4859119497744959
0.21972735060057938 -0.3270654200393112
0.21957880454337383 -0.16816087113669678
0.21958186891432785 -0.009507259087813011
0.6396846123583348 -0.009535537628176738
0.6396660178374995 -0.16817240419323715
0.6394977016012124 -0.3270415121015481
0.6391533689440574 -0.48586563208523814
0.6386450794539305 -0.6444422968416322
0.6379434814161814 -0.8026275522671322
0.6368726963733454 -0.9602182329412144
0.6350957960110568 -1.1168468140972263
0.6322045464528476 -1.271997974391721
0.6278355877053217 -1.4249731834628074
0.6216557720654784 -1.57482252877126
0.6133608403879115 -1.7203140292777594
0.6026464665762926 -1.8599388105154133
0.589172705347421 -1.9919509525687535
0.57254223515187 -2.114381859284834
0.5523171239873893 -2.2250653890232193
0.5281099592781522 -2.3217247146134867
0.49991990686599347 -2.4021444678775303
0.4687214184274937 -2.4644362272365474
0.43710851068294954 -2.5074382084697273
0.4098372107317692 -2.531482242893983
0.38256591078059055 -2.5074382084696474
0.35095300303605326 -2.464436227236387
0.31975451459756427 -2.402144467877301
0.29156446218541937 -2.321724714613205
0.26735729747619813 -2.225065389022897
0.2471321863117344 -2.1143818592844816
0.23050171611620016 -1.9919509525683823
0.21702795488734528 -1.8599388105150345
0.20631358107574288 -1.720314029277383
0.19801864939819094 -1.5748225287708983
0.19183883375836044 -1.4249731834624677
0.18746987501084467 -1.2719979743914072
0.1845786254526431 -1.116846814096944
0.18280172509035916 -0.9602182329409668
0.18173094004752538 -0.8026275522669232
0.1810293420097772 -0.6444422968414611
0.1805210525196507 -0.485865632085106
0.18017671986249578 -0.32704151210145416
0.18000840362620898 -0.16817240419318216
0.17998980910537374 -0.009535537628161277
0.679290521542727 -0.00954904752934805
0.6792552233599172 -0.1681772409194084
0.6790690661386559 -0.32701401370642835
0.6786875366078573 -0.48581471810249177
0.678114904664341 -0.6443711742604175
0.6772986674489904 -0.8025159290311541
0.6759963143026368 -0.9599970497153961
0.6738137121906366 -1.1164077186392372
0.6703385719964027 -1.2712368076750962
0.66515986223541 -1.4237935817424177
0.6578911310766773 -1.5731377301851903
0.6481677868906043 -1.7180417811053963
0.6356179634609914 -1.8569915166109188
0.619833967286453 -1.988228428267792
0.6003625748909072 -2.1097713644705474
0.5767268461416545 -2.219451511042714
0.5485242505687301 -2.31503399258638
0.5157178003627838 -2.39446538791353
0.4793222917269904 -2.4562038044043044
0.4422281507980015 -2.49959992442348
0.4098372107317607 -2.52562491254529
0.37744627066552205 -2.4995999244234004
0.3403521297365411 -2.4562038044041463
0.3039566211007603 -2.394465387913304
0.2711501708948302 -2.315033992586102
0.24294757532192388 -2.2194515110423967
0.21931184657269037 -2.109771364470199
0.19984045417716403 -1.988228428267425
0.1840564580026449 -1.8569915166105444
0.17150663457305088 -1.718041781105024
0.16178329038699515 -1.5731377301848324
0.154514559228277 -1.4237935817420808
0.14933584946729583 -1.2712368076747846
0.14586070927307085 -1.1164077186389563
0.1436781071610763 -0.9599970497151491
0.1423757540147257 -0.8025159290309452
0.14155951679937626 -0.6443711742602463
0.14098688485586033 -0.48581471810235977
0.14060535532506205 -0.3270140137063344
0.140419198103801 -0.16817724091935343
0.14038389992099123 -0.00954904752933257
0.7189112808757994 -0.009552658448619585
0.7188661018906826 -0.1681759527665597
0.7186665977644996 -0.3269831101080856
0.7182497201600521 -0.48575968992689555
0.717611732255349 -0.6442920034086402
0.7166665233729523 -0.8023775797929692
0.7150999458643397 -0.9597075993944565
0.7125042164696811 -1.1158573516879957
0.7084425622764206 -1.2703148458325364
0.7024580186948328 -1.4223917490164208
0.694107169543716 -1.5711557300969667
0.6829604787893466 -1.7153810827315825
0.6685779595890523 -1.8535475188099828
0.6504819596645925 -1.9838844094593873
0.6281601213372678 -2.1044031007097566
0.6011286539245758 -2.212944061836562
0.5690302903717849 -2.3073172695574553
0.5318371312591034 -2.3856123657426003
0.490411732592937 -2.4466535280837807
0.4477352083865831 -2.490397694818019
0.4098372107317519 -2.5185719455846463
0.3719392130769237 -2.4903976948179403
0.32926268887057897 -2.4466535280836257
0.2878372902044273 -2.385612365742378
0.25064413109176414 -2.3073172695571817
0.21854576753899385 -2.212944061836249
0.19151430012632306 -2.1044031007094133
0.16919246179902048 -1.9838844094590251
0.1510964618745827 -1.8535475188096133
0.1367139426743096 -1.7153810827312148
0.12556725191995965 -1.571155730096613
0.11721640276885897 -1.4223917490160876
0.11123185918728427 -1.2703148458322278
0.10717020499403374 -1.1158573516877166
0.10457447559938192 -0.9597075993942102
0.10300789809077293 -0.8023775797927607
0.10206268920837773 -0.644292003408469
0.10142470130367519 -0.48575968992676355
0.101007823699228 -0.32698311010799175
0.10080831957304526 -0.1681759527665048
0.10076314058792842 -0.009552658448604097
0.7585455420650976 -0.009551327051939253
0.7585005387063 -0.16816981373286272
0.7582965331393934 -0.32694943680082306
0.7578456234639191 -0.4857005637402473
0.7571359090666682 -0.6442029951451738
0.7560378345399432 -0.8022021484510623
0.7541883222720196 -0.9593430674772297
0.7511762987155408 -1.115193603652215
0.7465322822480426 -1.2692313647005
0.7397522030777389 -1.4207686319514838
0.730332184457519 -1.5688775034522637
0.717774621505835 -1.7123325757987826
0.7015663705425996 -1.8496060641994323
0.6811604569463441 -1.978917229825218
0.6560019318800254 -2.098277640900747
0.6255972830491263 -2.20555103978939
0.5896657708350266 -2.2986091594336333
0.5483212311180442 -2.3756649364384375
0.5023012235014527 -2.435821560206187
0.4539225378859271 -2.4797388538502183
0.409837210731743 -2.5101662621579934
0.3657518835775624 -2.479738853850141
0.31737319796204744 -2.435821560206035
0.27135319034547256 -2.3756649364382194
0.23000865062851128 -2.2986091594333646
0.19407713841443447 -2.205551039789082
0.1636724895835592 -2.0982776409004087
0.13851396451726525 -1.9789172298248612
0.11810805092103425 -1.8496060641990686
0.10189979995782258 -1.7123325757984205
0.08934223700615998 -1.5688775034519147
0.0799222183859578 -1.4207686319511543
0.07314213921566864 -1.2692313647001945
0.06849812274818132 -1.1151936036519379
0.06548609919171026 -0.9593430674769848
0.06363658692379127 -0.8022021484508544
0.06253851239706813 -0.6442029951450027
0.06182879799981774 -0.48570056374011533
0.06137788832434394 -0.32694943680072924
0.06117388275743752 -0.1681698137328078
0.06112887939863998 -0.009551327051923776
0.7981882625927216 -0.009549920788632106
0.7981594021201205 -0.16816132291672434
0.7979669238091792 -0.3269141794531018
0.7974814272289119 -0.4856367496227839
0.796683993687375 -0.644098891029217
0.7954085592055837 -0.8019826001321301
0.7932680490896523 -0.9589003410145701
0.7898397323610662 -1.1144155310279797
0.7846232437278705 -1.267987802922782
0.777063914844686 -1.418926986496917
0.7665953299238537 -1.5663062066958509
0.7526436693827204 -1.708897782755891
0.7346197701758059 -1.8451676988166332
0.7119236794145011 -1.9733296472932553
0.6839547313709959 -2.091399934652312
0.6502135620890811 -2.197279883566817
0.6104884156131589 -2.2889282339433343
0.5650848726538544 -2.3646950620022786
0.514996944309389 -2.4238755463080413
0.4618405502142349 -2.467531455477958
0.40983721073173385 -2.499999999999999
0.35783387124923643 -2.4675314554778827
0.3046774771540942 -2.4238755463078934
0.25458954880964824 -2.3646950620020655
0.2091860058503679 -2.2889282339430723
0.16946085937447092 -2.197279883566515
0.13571969009258242 -2.09139993465198
0.10775074204910497 -1.9733296472929047
0.08505465128782708 -1.8451676988162753
0.06703075208093859 -1.7088977827555345
0.05307909153982903 -1.5663062066955067
0.042610506619015845 -1.4189269864965914
0.03505117773584698 -1.2679878029224796
0.02983468910266341 -1.1144155310277053
0.026406372374085843 -0.9589003410143265
0.024265862258159784 -0.8019826001319229
0.022990427776370833 -0.6440988910290462
0.022192994234834784 -0.48563674962265196
0.0217074976545678 -0.32691417945300794
0.02151501934362674 -0.16816132291666946
0.02148615887102563 -0.009549920788616618
SCALARS Stress float 6
LOOKUP_TABLE default
-1074.2310976103 -1862.0683447913689 -1390.952922207316 -14.309485212683077 0.0 0.0
1234.8971548606683 716.4071148695293 888.7440405129026 -24.403470822554517 0.0 0.0
541.5755769364683 108.33497351517234 199.73438435649717 -36.86982417975075 0.0 0.0
454.8994764998316 17.868399574919376 143.14850425681928 -3.208914527976179 0.0 0.0
563.3244782723868 53.7057842754873 204.88172510386903 0.45738920452868603 0.0 0.0
653.8827268400652 88.78252159055042 296.72733967102147 1.0687491995709726 0.0 0.0
756.5742226533033 119.57486978402171 394.5775542279629 0.5130039974955909 0.0 0.0
857.3140542710288 165.77833951965556 489.0006738242833 -0.423300709271063 0.0 0.0
963.2438338849302 223.45659690757412 579.4521850458775 -1.614512701064364 0.0 0.0
1082.1110365907266 298.38494904913784 678.9773163337763 -2.9232193909229247 0.0 0.0
1218.4944217545235 394.23315178284463 795.6421232646306 -4.23909003598082 0.0 0.0
1372.2857747382593 511.2700378942438 930.8782054084529 -5.425850539100015 0.0 0.0
1539.4047892073795 643.4075384552215 1080.025557776114 -6.1826489926205905 0.0 0.0
1714.4640531997225 785.148537706032 1237.8968912189891 -6.814099691461635 0.0 0.0
1889.384561327135 928.367921053665 1396.4131344088114 -7.269121464518774 0.0 0.0
2055.3898468704315 1064.5886734252442 1546.990081324414 -7.51662115212191 0.0 0.0
2204.2010589315087 1186.3294709087243 1681.8178553277023 -7.415992857057477 0.0 0.0
2327.276525926451 1285.997806681876 1792.8940452697866 -6.815007917257898 0.0 0.0
2420.15533667171 1360.114001945651 1876.2051907627597 -5.692827325732658 0.0 0.0
2472.347538293753 1399.356789006463 1921.8797794094178 -5.620804198081585 0.0 0.0
2467.1858192335335 1391.6751795766454 1915.7876059851724 5.757527787864092e-11 0.0 0.0
2472.3475382930555 1399.3567890057857 1921.879779408786 5.6208041980666685 0.0 0.0
2420.155336671869 1360.1140019458721 1876.2051907626724 5.692827325818506 0.0 0.0
2327.276525925094 1285.9978066805652 1792.89404526873 6.815007917245413 0.0 0.0
2204.201058932039 1186.3294709093773 1681.8178553278995 7.415992857038509 0.0 0.0
2055.389846867798 1064.588673422696 1546.990081322525 7.5166211520303925 0.0 0.0
1889.3845613260373 928.3679210526984 1396.4131344079094 7.2691214645393 0.0 0.0
1714.4640531989457 785.1485377054235 1237.8968912181901 6.814099691524621 0.0 0.0
1539.4047892061856 643.4075384542066 1080.025557775087 6.182648992670311 0.0 0.0
1372.2857747369226 511.2700378931094 930.8782054073672 5.42585053918399 0.0 0.0
1218.494421753987 394.2331517825401 795.6421232641135 4.239090035980276 0.0 0.0
1082.1110365898792 298.3849490485079 678.9773163330707 2.9232193909891357 0.0 0.0
963.2438338837732 223.4565969066598 579.4521850449999 1.6145127010702165 0.0 0.0
857.3140542706618 165.7783395195359 489.00067382390375 0.423300709373267 0.0 0.0
756.5742226525067 119.57486978347026 394.57755422727405 -0.5130039974818974 0.0 0.0
653.8827268398303 88.7825215905988 296.7273396706984 -1.0687491995980487 0.0 0.0
563.3244782724232 53.70578427591629 204.8817251038547 -0.4573892046472299 0.0 0.0
454.89947649966905 17.868399575045178 143.14850425679924 3.2089145278901645 0.0 0.0
541.5755769361061 108.3349735149351 199.73438435628532 36.869824179713085 0.0 0.0
1234.8971548602253 716.4071148690524 888.744040512322 24.403470822560642 0.0 0.0
-1074.2310976076726 -1862.068344788768 -1390.9529222047113 14.309485212020913 0.0 0.0
-1368.9036938754484 -2126.2108138466033 -1634.584327361745 -13.685038134993547 0.0 0.0
836.9761207329237 400.01612534586104 553.7378483322086 -35.19249678126751 0.0 0.0
375.3390211647386 43.67637434160323 124.25240982062711 -30.217032169814342 0.0 0.0
403.44126301012074 1.7226201367022476 121.6697240851643 -16.415205967312968 0.0 0.0
502.1927598660654 23.152548192306362 168.9711060593184 -15.174238566851685 0.0 0.0
591.6093240759106 31.23297008151843 238.98768651068445 -19.129374397169936 0.0 0.0
665.5864618340589 43.07117721953289 316.81199842862725 -21.395643652055224 0.0 0.0
738.1572696037408 59.22420600172306 383.98458481119764 -22.195217069358137 0.0 0.0
806.3292147937117 78.40927065909125 437.2816920632672 -22.479712764181986 0.0 0.0
874.3009088957044 102.59964410072708 486.41300705617635 -22.73791399848233 0.0 0.0
944.0381984976012 132.44165743179335 537.0563577771264 -22.76098871178419 0.0 0.0
1015.72331192409 166.8166196381985 590.3019231260745 -22.55174514234163 0.0 0.0
1087.5931524102557 204.93377773990682 645.2947229337735 -22.033110678851383 0.0 0.0
1157.1724931590056 241.53868808585875 698.3104507759365 -21.41846714848882 0.0 0.0
1218.268997176733 271.33139991778177 743.6670310251158 -20.794920828403033 0.0 0.0
1265.902655539729 289.56240720818846 776.5196179991916 -19.958148712700396 0.0 0.0
1296.7400336994888 293.5472210681004 793.8786274431376 -18.645681039531812 0.0 0.0
1310.977403563427 284.3992976390659 796.4136628729253 -16.6701872642218 0.0 0.0
1308.548957223877 263.16878748111964 784.698880569517 -14.127565503999419 0.0 0.0
1271.4507794224266 213.22995226231478 741.8004610753137 -12.251200064243964 0.0 0.0
1204.6944165005584 144.28136005456167 675.0393378614943 5.0614623603451037e-11 0.0 0.0
1271.4507794226122 213.22995226252982 741.8004610754109 12.251200064203218 0.0 0.0
1308.5489572241745 263.1687874814664 784.6988805696872 14.127565504045117 0.0 0.0
1310.9774035625228 284.3992976382174 796.4136628723307 16.67018726413688 0.0 0.0
1296.7400337001397 293.54722106885686 793.8786274436143 18.64568103957348 0.0 0.0
1265.902655538502 289.5624072070796 776.5196179982694 19.958148712664944 0.0 0.0
1218.2689971755158 271.33139991669 743.6670310242237 20.794920828436098 0.0 0.0
1157.172493158195 241.53868808519303 698.3104507753557 21.418467148540095 0.0 0.0
1087.593152410132 204.9337777399783 645.2947229336501 22.03311067889585 0.0 0.0
1015.7233119242453 166.8166196385668 590.3019231262001 22.55174514240941 0.0 0.0
944.0381984969353 132.4416574313414 537.0563577766727 22.760988711735283 0.0 0.0
874.3009088951322 102.59964410038356 486.4130070557812 22.737913998492697 0.0 0.0
806.3292147933881 78.40927065904646 437.2816920629738 22.479712764315995 0.0 0.0
738.1572696029966 59.224206001177485 383.9845848106628 22.195217069351852 0.0 0.0
665.5864618335155 43.07117721924613 316.8119984281436 21.395643651973078 0.0 0.0
591.6093240754934 31.23297008135819 238.9876865103127 19.129374397178513 0.0 0.0
502.19275986610256 23.152548192777733 168.97110605937795 15.174238566823714 0.0 0.0
403.4412630099182 1.7226201366512237 121.66972408509527 16.415205967255098 0.0 0.0
375.3390211646333 43.67637434160673 124.25240982060504 30.21703216977061 0.0 0.0
836.9761207323771 400.0161253452827 553.737848331549 35.1924967811963 0.0 0.0
-1368.9036938735073 -2126.210813844538 -1634.5843273596624 13.685038134468057 0.0 0.0
-1126.1614405945404 -1849.2371490915398 -1364.5733193799124 -52.4478732447896 0.0 0.0
640.071618958068 308.2017084167622 411.35967075822816 -101.19234686623984 0.0 0.0
266.1941117259653 51.09101311778447 95.18542275398319 -31.64984560544644 0.0 0.0
344.38313104651775 -0.34832753979174313 103.19290736118424 -36.77330087033719 0.0 0.0
456.8248446072696 14.915874926359283 145.65592446003487 -37.394579386462 0.0 0.0
559.6176436845882 27.34563090983443 211.76432162543404 -37.657722062558335 0.0 0.0
637.1346069783436 40.48407650317743 292.1679612024935 -40.39134134792184 0.0 0.0
711.5452482562321 52.97830836486611 362.0619143993553 -41.79535598431671 0.0 0.0
778.3827407464082 69.73038149382194 416.7190779154566 -42.555195211565774 0.0 0.0
843.2721613225876 90.25305544908394 463.79406409645895 -43.0649572812139 0.0 0.0
909.1072006419394 116.40062743804775 511.05934925251705 -43.01141818792791 0.0 0.0
976.5770478841789 147.89439457156863 560.8724009291429 -42.2776356237366 0.0 0.0
1045.2360814024817 181.9666801062266 612.2881201956484 -41.21934053350837 0.0 0.0
1110.4639595438628 215.59318338478366 661.6710462705796 -40.0241926497512 0.0 0.0
1168.558102371301 242.80066526419384 704.2423856897726 -38.777539266187496 0.0 0.0
1214.3219546427315 259.50684634820846 735.3998850189739 -37.17505458142104 0.0 0.0
1245.5405732566583 264.0372119511601 753.225992894417 -34.76581089889475 0.0 0.0
1260.5267401819906 255.5992834888304 756.5266213937728 -31.354803683895973 0.0 0.0
1253.3497288770632 229.47164044038922 740.1309499161505 -27.1181993765542 0.0 0.0
1230.2758679253272 193.57257479138258 711.0109141512007 -22.216318928283243 0.0 0.0
1147.0185431246102 108.4535603332167 628.2565275146901 1.0987655230110249e-10 0.0 0.0
1230.2758679251142 193.57257479116532 711.0109141510663 22.216318928281613 0.0 0.0
1253.3497288775682 229.47164044095686 740.1309499165235 27.11819937659397 0.0 0.0
1260.5267401821384 255.59928348904842 756.5266213938727 31.35480368384941 0.0 0.0
1245.5405732565482 264.0372119511583 753.2259928943424 34.76581089899274 0.0 0.0
1214.3219546431967 259.50684634881384 735.3998850191645 37.17505458150355 0.0 0.0
1168.5581023694353 242.80066526241995 704.2423856883535 38.77753926614858 0.0 0.0
1110.4639595436915 215.59318338478823 661.6710462704287 40.02419264974634 0.0 0.0
1045.2360814022018 181.96668010611884 612.2881201954381 41.21934053355716 0.0 0.0
976.5770478841881 147.89439457178221 560.8724009291764 42.27763562377208 0.0 0.0
909.1072006413684 116.40062743769414 511.0593492521148 43.01141818792461 0.0 0.0
843.27216132238 90.25305544910134 463.7940640963098 43.064957281137914 0.0 0.0
778.3827407464423 69.73038149414052 416.71907791540673 42.55519521167369 0.0 0.0
711.5452482555821 52.97830836444904 362.06191439884145 41.79535598417202 0.0 0.0
637.1346069780956 40.48407650321424 292.1679612021699 40.391341347836494 0.0 0.0
559.6176436841074 27.345630909639866 211.7643216250561 37.65772206258027 0.0 0.0
456.8248446071118 14.915874926711913 145.6559244600547 37.39457938639856 0.0 0.0
344.3831310463305 -0.34832753995292376 103.19290736108144 36.77330087035595 0.0 0.0
266.1941117258813 51.09101311754906 95.18542275388744 31.6498456054258 0.0 0.0
640.0716189575522 308.2017084164116 411.3596707576769 101.19234686602442 0.0 0.0
-1126.1614405925686 -1849.2371490894702 -1364.5733193778221 52.447873244484285 0.0 0.0
-911.267895678305 -1603.6057909707126 -1125.749372697187 -66.01285948923953 0.0 0.0
482.38855882441874 213.6889219792774 294.48894314692694 -144.05037614240297 0.0 0.0
195.7556047630127 48.18720738941254 73.18284364572756 -53.93891735997913 0.0 0.0
287.67387580688546 4.346514966520966 87.6064629221561 -56.749302145653395 0.0 0.0
401.88965686810735 7.084498463324387 122.94291573835086 -61.276311079627426 0.0 0.0
513.5840093677788 22.365237616359583 182.03563435353692 -58.020187056290354 0.0 0.0
606.9053373910522 35.3305617159872 262.4193968904372 -60.838904280675024 0.0 0.0
679.8643696987319 46.973280805550075 335.7482561432023 -61.73470631873856 0.0 0.0
746.4224100569135 61.154988822303636 392.95593806299286 -62.458087003653134 0.0 0.0
808.609064630392 78.40807813801018 439.0680228588434 -62.86516262901537 0.0 0.0
870.2735236080804 100.70664092120641 483.03364996805874 -62.476408488652744 0.0 0.0
933.8601247344302 128.05041186416696 529.0470860862214 -61.299980879457586 0.0 0.0
998.2363082996601 159.42501342918024 577.0680886519968 -59.653019783386135 0.0 0.0
1059.965875196399 188.63564461151083 622.5251357156162 -58.06054330623145 0.0 0.0
1114.5397841447038 213.14246075768705 662.0020294738811 -56.29339571912529 0.0 0.0
1159.3317543740427 229.56591664201153 692.5506926990361 -53.960154389408764 0.0 0.0
1191.2366326134288 234.60276541960843 710.9841772246413 -50.69922038861112 0.0 0.0
1206.4342575325022 226.09968994320585 714.3988421207115 -46.265148629796954 0.0 0.0
1202.401381989292 202.72464477247934 700.9375751485795 -40.31932538038648 0.0 0.0
1186.789625011536 173.59966223806097 678.8085463106185 -31.335550514701946 0.0 0.0
1068.6548561634768 53.629391074272654 561.9980942080402 8.08881850389298e-11 0.0 0.0
1186.7896250108308 173.59966223739207 678.8085463101083 31.335550514810777 0.0 0.0
1202.4013819895488 202.7246447727786 700.937575148854 40.31932538047633 0.0 0.0
1206.4342575325043 226.09968994326778 714.3988421207808 46.26514862983239 0.0 0.0
1191.236632613086 234.6027654193722 710.9841772243707 50.69922038870706 0.0 0.0
1159.3317543743544 229.56591664242248 692.550692699329 53.96015438943057 0.0 0.0
1114.539784143534 213.14246075664624 662.0020294730276 56.293395719149224 0.0 0.0
1059.965875197193 188.63564461246466 622.5251357161541 58.060543306223884 0.0 0.0
998.23630829929 159.42501342900388 577.0680886517022 59.65301978344813 0.0 0.0
933.8601247340719 128.0504118639986 529.0470860859426 61.29998087945473 0.0 0.0
870.2735236079153 100.70664092127342 483.0336499679274 62.47640848865419 0.0 0.0
808.6090646302072 78.4080781380471 439.06802285868616 62.86516262897519 0.0 0.0
746.4224100566317 61.1549888222694 392.95593806277486 62.45808700362559 0.0 0.0
679.8643696982532 46.97328080532972 335.7482561427904 61.734706318726396 0.0 0.0
606.9053373908799 35.33056171613132 262.41939689017863 60.83890428063435 0.0 0.0
513.5840093673322 22.365237616259904 182.03563435323636 58.02018705627093 0.0 0.0
401.889656867825 7.084498463479749 122.9429157383123 61.27631107948961 0.0 0.0
287.673875806838 4.346514966551374 87.60646292214871 56.74930214559241 0.0 0.0
195.7556047629206 48.18720738923986 73.18284364564813 53.938917359967846 0.0 0.0
482.3885588239269 213.68892197900493 294.4889431464564 144.0503761422001 0.0 0.0
-911.2678956765494 -1603.6057909688573 -1125.749372695305 66.01285948899469 0.0 0.0
-725.7783618367852 -1389.2039132202203 -916.4812698204375 -66.2982647533782 0.0 0.0
366.4596202995078 132.16056161287995 204.9982850756584 -173.69083682290383 0.0 0.0
144.51083529651905 40.39676916724098 55.47228133912798 -82.88538753958001 0.0 0.0
235.66896437250838 10.842821358074627 73.95418086020055 -78.19873713087941 0.0 0.0
339.6713568537619 4.637009331411329 102.94521014268965 -84.52735893533263 0.0 0.0
460.89869288729085 10.76202937173713 150.18472957360729 -84.13241938589955 0.0 0.0
563.9407445667551 28.55878247937845 226.50358679308138 -81.45974772670976 0.0 0.0
642.3257982378841 42.27277026407592 304.9674289722109 -81.93512173416897 0.0 0.0
709.3985502567563 53.03944302972796 365.00139344954096 -82.20237547638914 0.0 0.0
769.2701417682161 66.88315563285052 411.2170162356959 -82.10814918974627 0.0 0.0
827.4759674069523 85.08080636225564 452.58568906652346 -81.22764380209789 0.0 0.0
886.6609043955813 108.27191805184341 494.7607909007074 -79.52498528354592 0.0 0.0
946.9564352597315 135.07777384511593 538.6079467888774 -77.49353575684873 0.0 0.0
1004.586027779394 162.14425261324874 581.0162042529624 -75.46094548612669 0.0 0.0
1056.3489105084027 183.6422457523585 617.6250573948769 -73.26855682453993 0.0 0.0
1099.3446514657203 197.88424161917112 646.2011513113524 -70.41035387777798 0.0 0.0
1132.07651691725 204.222273866472 665.7181191110654 -66.48683532150507 0.0 0.0
1150.5373130821501 198.65708291681852 672.2186070672471 -61.293349854718215 0.0 0.0
1151.142228016521 179.09337737764204 662.9553775646814 -53.618062812891985 0.0 0.0
1138.713110233438 151.67468198470527 643.2370358743772 -40.795656244714266 0.0 0.0
976.9815303614251 -11.919459031132334 483.9610814267535 8.767209180859936e-11 0.0 0.0
1138.7131102338 151.6746819851207 643.2370358746742 40.79565624488727 0.0 0.0
1151.1422280153838 179.09337737649076 662.9553775638839 53.6180628128746 0.0 0.0
1150.5373130818339 198.65708291667153 672.2186070671509 61.293349854826886 0.0 0.0
1132.0765169170052 204.22227386630914 665.7181191108383 66.48683532172215 0.0 0.0
1099.3446514645345 197.88424161807075 646.2011513105555 70.41035387773155 0.0 0.0
1056.3489105078186 183.64224575192878 617.6250573944435 73.26855682463169 0.0 0.0
1004.5860277792535 162.1442526132721 581.016204252848 75.46094548616408 0.0 0.0
946.9564352595924 135.0777738451904 538.6079467887462 77.49353575701355 0.0 0.0
886.6609043952482 108.2719180516997 494.7607909004931 79.52498528357506 0.0 0.0
827.4759674067477 85.08080636228902 452.5856890663328 81.22764380212905 0.0 0.0
769.2701417677995 66.88315563262799 411.2170162353887 82.10814918968518 0.0 0.0
709.3985502563409 53.03944302952121 365.001393449173 82.20237547625243 0.0 0.0
642.3257982368676 42.272770263355184 304.9674289714642 81.93512173419984 0.0 0.0
563.9407445664601 28.558782479387027 226.50358679275845 81.45974772666358 0.0 0.0
460.89869288687345 10.762029371591977 150.18472957336522 84.13241938583427 0.0 0.0
339.6713568535317 4.6370093315710745 102.9452101426878 84.52735893530293 0.0 0.0
235.66896437242244 10.842821357997142 73.95418086015113 78.19873713071283 0.0 0.0
144.5108352964875 40.39676916723787 55.472281339117615 82.88538753944809 0.0 0.0
366.4596202988996 132.1605616124713 204.99828507516762 173.6908368227232 0.0 0.0
-725.7783618352744 -1389.2039132185726 -916.4812698187707 66.29826475319058 0.0 0.0
-563.4852100054286 -1199.163059349814 -731.7469463425039 -65.75054638728905 0.0 0.0
275.3012799850538 69.50500617067495 137.36780189111212 -189.69559998282398 0.0 0.0
104.72456863784295 29.450324755097796 40.25246801788221 -110.24388919540345 0.0 0.0
187.3502696708003 16.2653121974176 61.08638708221126 -100.1054409046813 0.0 0.0
277.97882204193377 4.346431421920919 84.55849196869069 -106.5119164745201 0.0 0.0
392.2691636722895 4.427310464686511 121.14997853066026 -109.09899066807483 0.0 0.0
502.4409719452934 21.44169688747754 186.76912650531523 -103.9861804512585 0.0 0.0
597.7045968742779 33.942760860859785 265.58704398165656 -103.53066531079178 0.0 0.0
663.8774477210899 45.8911318818287 331.01846719231037 -101.44653141019647 0.0 0.0
724.4240182157699 55.46736162383589 378.9338343562505 -100.87562458725473 0.0 0.0
779.3174015298772 69.57076813611098 418.6454597190344 -99.27365478112115 0.0 0.0
834.2467484032532 88.51146758351837 457.3682551040607 -96.96693370760103 0.0 0.0
890.0394887442261 111.41988802511004 497.3309808129345 -94.49399003525771 0.0 0.0
943.6506729376456 133.9966347581626 535.6064949908279 -92.23592556280842 0.0 0.0
992.3118727990036 153.3947273085807 569.6833934172724 -89.75993193080879 0.0 0.0
1033.5982886582 166.74829447060864 597.0396891121768 -86.35055823653214 0.0 0.0
1066.9371631260249 172.5417215012444 616.5844949564041 -82.01616532755467 0.0 0.0
1090.133587319954 171.4588796566819 627.6251350840871 -76.32945085678612 0.0 0.0
1097.1171217834537 157.50604431685124 624.3449480634704 -67.2925381414006 0.0 0.0
1086.5210814827426 129.62778427025938 605.3483410548175 -51.19558412949344 0.0 0.0
872.0550396216897 -86.57583145350752 395.0161964636929 9.414868884505267e-11 0.0 0.0
1086.521081482442 129.62778426998398 605.348341054617 51.19558412962437 0.0 0.0
1097.117121783167 157.50604431665926 624.3449480632503 67.29253814150726 0.0 0.0
1090.1335873201187 171.45887965693527 627.6251350841542 76.32945085692884 0.0 0.0
1066.9371631257638 172.54172150106388 616.5844949562195 82.01616532765009 0.0 0.0
1033.5982886565707 166.74829446904783 597.0396891110065 86.35055823648909 0.0 0.0
992.311872798381 153.39472730807927 569.6833934168083 89.75993193083733 0.0 0.0
943.6506729369802 133.99663475767775 535.6064949902662 92.2359255628939 0.0 0.0
890.0394887435958 111.41988802461265 497.33098081248374 94.49399003527274 0.0 0.0
834.2467484027961 88.51146758325382 457.36825510375934 96.96693370755906 0.0 0.0
779.3174015292727 69.57076813569006 418.645459718554 99.27365478110322 0.0 0.0
724.4240182151544 55.46736162341241 378.9338343558283 100.87562458718851 0.0 0.0
663.8774477206987 45.89113188166027 331.01846719194054 101.44653141012891 0.0 0.0
597.7045968737309 33.94276086065058 265.58704398118925 103.5306653107713 0.0 0.0
502.4409719447707 21.441696887282845 186.76912650491363 103.98618045126082 0.0 0.0
392.26916367194747 4.427310464861033 121.14997853058044 109.09899066795712 0.0 0.0
277.97882204171077 4.346431421851661 84.55849196860487 106.5119164744647 0.0 0.0
187.35026967069297 16.2653121972608 61.08638708213142 100.10544090452424 0.0 0.0
104.72456863786533 29.45032475513953 40.25246801790145 110.24388919520622 0.0 0.0
275.3012799845153 69.5050061703338 137.3678018907091 189.69559998266737 0.0 0.0
-563.4852100042166 -1199.163059348385 -731.7469463410763 65.75054638718076 0.0 0.0
-424.74993069007877 -1024.3382965421986 -569.8238395172368 -66.21101123481677 0.0 0.0
203.68811244946056 19.525590110400042 86.31195128466224 -198.6351463384334 0.0 0.0
71.96689230788293 18.174747548388666 27.042491956881477 -132.91277793620236 0.0 0.0
141.661466813394 19.645722549779208 48.39274178341928 -120.75191852146277 0.0 0.0
218.56423189770948 6.069080419804544 67.37939212655789 -126.01834784845474 0.0 0.0
315.9968072501198 -1.0018048789562917 93.83493190522884 -134.3909097905441 0.0 0.0
430.0190525296733 9.426487029768106 144.3174149929136 -130.98148917218379 0.0 0.0
530.2111792114679 27.047055148560986 217.97923815899014 -124.61869661546132 0.0 0.0
612.1145394120431 34.73793509585416 287.02035535179334 -123.11078791843642 0.0 0.0
669.9183811348504 44.55974814307534 339.363604382121 -118.85732555019503 0.0 0.0
724.2532883840327 54.18487454377226 379.41461669139034 -116.57146907688667 0.0 0.0
775.2185053792563 68.64060629730214 415.490801057448 -113.67444661401059 0.0 0.0
826.2632898118457 87.14503483427976 451.5854673141597 -110.76556189051655 0.0 0.0
875.4692756581047 106.22461315677049 486.196165862283 -108.25146178297945 0.0 0.0
920.5588177192061 122.70696889463335 517.1993321388888 -105.61060712912192 0.0 0.0
959.8353159092865 133.21627289317783 542.2152145161878 -102.16353886797589 0.0 0.0
993.3221663891312 140.81100334725 562.7837744156558 -97.09754543096817 0.0 0.0
1022.6535651874362 144.47558595351552 579.152098897234 -91.12012582292044 0.0 0.0
1037.9137751985343 136.738009224429 583.0564636809968 -81.63173862425292 0.0 0.0
1029.9810365704427 108.91432314471632 565.5534717884627 -63.18760488087731 0.0 0.0
751.7379289135274 -170.357326150659 294.1841084449902 1.0376233205988683e-10 0.0 0.0
1029.981036570733 108.91432314514239 565.5534717887718 63.18760488114913 0.0 0.0
1037.913775199146 136.73800922510068 583.0564636814672 81.6317386244512 0.0 0.0
1022.6535651877018 144.47558595390282 579.1520988973572 91.12012582303308 0.0 0.0
993.3221663888356 140.81100334704445 562.78377441546 97.09754543109541 0.0 0.0
959.8353159083822 133.21627289239012 542.2152145155418 102.16353886795852 0.0 0.0
920.5588177183671 122.70696889391908 517.1993321382855 105.61060712915611 0.0 0.0
875.4692756578997 106.22461315675582 486.19616586213095 108.25146178310894 0.0 0.0
826.2632898113915 87.1450348338696 451.5854673138045 110.76556189039815 0.0 0.0
775.2185053791823 68.6406062974354 415.49080105743974 113.67444661400364 0.0 0.0
724.2532883837104 54.184874543674425 379.4146166910784 116.57146907689523 0.0 0.0
669.9183811343846 44.55974814282487 339.3636043817752 118.85732555009945 0.0 0.0
612.1145394116127 34.737935095750004 287.0203553514339 123.1107879184723 0.0 0.0
530.2111792112689 27.047055148784064 217.97923815878136 124.61869661547657 0.0 0.0
430.0190525290763 9.426487029421073 144.317414992533 130.98148917216892 0.0 0.0
315.9968072497276 -1.00180487890544 93.83493190514635 134.3909097902923 0.0 0.0
218.56423189758127 6.069080419708313 67.37939212648884 126.01834784824403 0.0 0.0
141.66146681339148 19.64572254978139 48.392741783419005 120.75191852131454 0.0 0.0
71.96689230781908 18.174747548448046 27.042491956880134 132.9127779360389 0.0 0.0
203.6881124489994 19.525590110182158 86.31195128436747 198.63514633826495 0.0 0.0
-424.7499306891073 -1024.3382965408653 -569.8238395160419 66.2110112349063 0.0 0.0
-302.5735912208667 -874.7289953013765 -429.0234075897464 -76.75067455607086 0.0 0.0
142.09321516925849 -17.933531625028678 46.670327989777064 -198.64983218318173 0.0 0.0
43.52408024471325 8.88577599368099 15.722981546359783 -150.39660801816595 0.0 0.0
97.66212008879089 21.00003267020903 35.59918772339625 -138.73475821597435 0.0 0.0
160.05486869910993 8.744506279564101 50.61691584781881 -143.00524230503936 0.0 0.0
234.65045455498472 -0.8491768536990802 69.69298918227915 -154.08656887626054 0.0 0.0
338.4205494730167 0.06542955636434411 103.84109457242715 -158.47232976664145 0.0 0.0
443.3911993679766 14.238298434713268 162.1211832551184 -148.51528219144342 0.0 0.0
535.0405523920917 26.139850236775654 230.5160831868501 -142.6065459399343 0.0 0.0
604.1618830774254 30.068869593667575 286.57157913473407 -138.48379568289926 0.0 0.0
657.1141597894676 37.952458855519815 329.66069428133073 -133.07579619976835 0.0 0.0
705.3227573161921 48.85552836725702 365.4665562837119 -129.3875234227284 0.0 0.0
752.3562709350126 62.92700856167498 398.8685666955575 -126.10336956383489 0.0 0.0
796.4593323308425 77.7083609782175 429.5740572732206 -123.4003232283552 0.0 0.0
837.8114948669418 90.80756452516079 457.40046124684073 -120.80117741067882 0.0 0.0
874.4338416736329 100.32133312419685 480.84469596188114 -117.36144709439206 0.0 0.0
907.555560839837 105.92150913514348 500.430060950515 -112.14955340540816 0.0 0.0
941.8915064180613 114.38144184892266 521.5286334436394 -105.50374516653217 0.0 0.0
969.1026837745582 117.90092700744587 536.9100799324129 -96.2811247035922 0.0 0.0
967.9999408191279 92.95123027755002 524.5623981762712 -77.559621528792 0.0 0.0
610.2445262763175 -263.47305859864673 178.6855916957464 8.396128237109224e-11 0.0 0.0
967.9999408189103 92.95123027741778 524.5623981762323 77.55962152901287 0.0 0.0
969.1026837748688 117.90092700786806 536.9100799326715 96.2811247038349 0.0 0.0
941.891506418293 114.38144184927587 521.5286334437745 105.50374516673914 0.0 0.0
907.5555608388532 105.92150913421496 500.4300609498435 112.14955340554268 0.0 0.0
874.4338416736721 100.3213331243644 480.84469596190166 117.36144709443639 0.0 0.0
837.8114948669254 90.80756452536698 457.4004612468267 120.80117741073384 0.0 0.0
796.4593323308926 77.70836097843902 429.5740572732356 123.40032322846932 0.0 0.0
752.3562709347076 62.92700856145181 398.8685666953021 126.10336956379196 0.0 0.0
705.3227573156483 48.855528366888265 365.4665562833772 129.3875234226984 0.0 0.0
657.114159789619 37.95245885590334 329.66069428135773 133.07579619982226 0.0 0.0
604.1618830774544 30.068869593908936 286.5715791346708 138.4837956827656 0.0 0.0
535.0405523914853 26.139850236460944 230.51608318639856 142.60654593992166 0.0 0.0
443.39119936749046 14.238298434560393 162.12118325479236 148.51528219145007 0.0 0.0
338.4205494726065 0.06542955630838154 103.84109457224497 158.47232976657773 0.0 0.0
234.65045455470727 -0.8491768537433613 69.69298918219877 154.0865688759781 0.0 0.0
160.0548686992597 8.744506280015568 50.6169158479968 143.00524230487278 0.0 0.0
97.66212008886852 21.00003267037884 35.599187723470344 138.73475821578677 0.0 0.0
43.52408024477788 8.885775993818642 15.722981546420428 150.39660801796032 0.0 0.0
142.09321516895622 -17.933531625173856 46.67032798958962 198.64983218304283 0.0 0.0
-302.57359122001526 -874.7289953001908 -429.0234075887684 76.75067455617251 0.0 0.0
-214.32251864685716 -728.9106206988217 -319.8456539474825 -86.5147455128531 0.0 0.0
88.98481885132485 -47.78076811561846 16.696419105280935 -192.46898609606882 0.0 0.0
16.762116544432118 2.5781762167497835 5.80358709977697 -163.0269092732228 0.0 0.0
55.098043048251114 20.874666311682816 22.79144335567867 -153.18551168140687 0.0 0.0
101.27325944230114 11.507100363463433 33.817966840187275 -156.5241719007292 0.0 0.0
154.60877404771986 1.6274862716909104 46.75353848992001 -168.60111229165136 0.0 0.0
229.4997675041142 -3.1798287890657866 67.39350335942682 -182.5383657044714 0.0 0.0
329.2200367118307 -1.8148834787551054 103.0715481623001 -180.12721525678893 0.0 0.0
426.97736602828695 9.181512294575745 156.87804434531964 -165.12127987683644 0.0 0.0
505.8645748930532 15.37272515794016 212.01863619744762 -155.48805579016087 0.0 0.0
565.2996079971907 20.85069489238085 258.7983205002649 -147.96235251565713 0.0 0.0
613.8054109129081 27.32842015393288 295.95634923245643 -143.50906789649497 0.0 0.0
657.764516693286 38.11249754481447 329.3497296692227 -140.02430511504062 0.0 0.0
697.211060541042 48.74791467531097 357.8059212543816 -137.31339810203144 0.0 0.0
733.8335464625972 58.39295740090345 382.91087498107186 -134.93547950202557 0.0 0.0
767.9618599897192 65.96659941073686 404.899225383958 -132.02671377845084 0.0 0.0
801.0468969623714 71.95098893490376 425.3121195733827 -127.09196209962823 0.0 0.0
835.9514204027323 79.71888105985164 446.76801551220643 -119.607170322338 0.0 0.0
876.5861708580053 93.41978243069458 473.5783187311173 -110.66279931023847 0.0 0.0
896.213536281081 84.32362571543146 480.0583625410492 -95.50354547196423 0.0 0.0
439.1699252403204 -362.7434436419688 46.35101460208185 -6.66844357510854e-12 0.0 0.0
896.2135362804004 84.32362571496887 480.05836254064667 95.5035454721353 0.0 0.0
876.5861708585446 93.41978243137378 473.57831873147074 110.662799310615 0.0 0.0
835.9514204030457 79.71888106037929 446.7680155123351 119.60717032258373 0.0 0.0
801.046896961111 71.95098893364649 425.3121195724639 127.09196209965984 0.0 0.0
767.9618599891104 65.96659941019266 404.89922538359565 132.02671377845263 0.0 0.0
733.8335464635351 58.392957402173145 382.9108749817974 134.9354795021809 0.0 0.0
697.2110605407452 48.747914675031986 357.80592125411033 137.31339810205088 0.0 0.0
657.7645166931577 38.112497544829516 329.34972966910635 140.02430511506307 0.0 0.0
613.8054109126768 27.328420153885418 295.956349232223 143.50906789646135 0.0 0.0
565.2996079967355 20.850694891999595 258.7983204999191 147.9623525156107 0.0 0.0
505.8645748929487 15.372725158082655 212.0186361973059 155.48805579010164 0.0 0.0
426.9773660280042 9.181512294688277 156.87804434512432 165.12127987680532 0.0 0.0
329.2200367109852 -1.8148834795956441 103.07154816176494 180.127215256751 0.0 0.0
229.49976750361424 -3.179828789324053 67.39350335921084 182.53836570430641 0.0 0.0
154.60877404767126 1.6274862720873728 46.753538490035915 168.601112291368 0.0 0.0
101.27325944243009 11.507100363939239 33.817966840367006 156.52417190064597 0.0 0.0
55.0980430482998 20.874666311838748 22.791443355740046 153.18551168128553 0.0 0.0
16.76211654446014 2.578176216903278 5.80358709983113 163.02690927300378 0.0 0.0
88.98481885098342 -47.780768115737565 16.69641910511278 192.46898609582385 0.0 0.0
-214.32251864634276 -728.9106206978894 -319.8456539468183 86.5147455129385 0.0 0.0
-146.99535050109336 -605.067668495586 -236.0460446587835 -102.96903363076437 0.0 0.0
41.58035335669639 -67.8469276849567 -6.472230699167602 -180.3052481979969 0.0 0.0
-8.620593117401025 -0.6425566851315747 -2.7786182428209107 -170.9431984201359 0.0 0.0
13.687609037087203 19.765874454192172 10.036347320197526 -163.61199811653083 0.0 0.0
42.81588499773722 13.921177436659086 17.02169402619031 -166.0341218771588 0.0 0.0
74.59297842832517 4.7175509884423406 23.69310437026483 -179.37672153012818 0.0 0.0
113.86012396970156 -0.5521281559506157 33.88433148479653 -194.73619591043695 0.0 0.0
172.24015093811875 -3.152228717290665 50.73681081612244 -201.20855083755873 0.0 0.0
254.09864998120653 -8.14797706470043 75.38018791900231 -195.80671298674866 0.0 0.0
340.4290685313817 -16.436925863749835 104.40560544770426 -182.42702566745953 0.0 0.0
410.45111264091054 -17.09490823235364 137.10397488063313 -169.09765625043798 0.0 0.0
458.77358782799115 -10.19190569764421 168.89817634795557 -158.32815118945203 0.0 0.0
498.46680508173665 3.243697290623963 199.59663323570624 -153.07834116931187 0.0 0.0
535.0827838753245 15.500520649151099 228.29978779966206 -150.62466598563387 0.0 0.0
567.7659164832614 24.270179507564038 254.6179593366001 -149.69187441178516 0.0 0.0
599.2044783787298 31.536523054667825 279.55679150588156 -149.8901889977437 0.0 0.0
632.9539299677505 37.37016015824965 305.03694004689703 -147.10170524830787 0.0 0.0
670.4018987690482 41.82229643008516 330.68335104952837 -139.1002438428128 0.0 0.0
714.2429505594841 49.03325387479511 358.09831897269333 -127.72915888229778 0.0 0.0
779.0943090248039 74.9374951219562 405.93056076290827 -118.74308630026653 0.0 0.0
205.63637223498478 -466.92509239284703 -116.46158817622828 -5.8406612879480235e-12 0.0 0.0
779.0943090255251 74.9374951230333 405.93056076355015 118.74308630050938 0.0 0.0
714.2429505594146 49.0332538747391 358.0983189726803 127.72915888265057 0.0 0.0
670.4018987696082 41.822296430862124 330.68335104996726 139.10024384315267 0.0 0.0
632.9539299670521 37.37016015735183 305.03694004634013 147.10170524831852 0.0 0.0
599.2044783784464 31.53652305462856 279.55679150568113 149.89018899769877 0.0 0.0
567.7659164836466 24.270179508021457 254.61795933690712 149.69187441185704 0.0 0.0
535.0827838746137 15.500520648252317 228.29978779915595 150.6246659855994 0.0 0.0
498.4668050819566 3.2436972911431177 199.5966332358965 153.07834116940114 0.0 0.0
458.77358782769267 -10.191905697960298 168.89817634771012 158.32815118941753 0.0 0.0
410.4511126406097 -17.094908232623588 137.10397488040775 169.09765625037818 0.0 0.0
340.42906853104284 -16.436925863805172 104.40560544756573 182.42702566732626 0.0 0.0
254.09864998102077 -8.147977064644175 75.38018791894228 195.80671298681085 0.0 0.0
172.24015093773534 -3.1522287175300496 50.73681081594136 201.20855083746028 0.0 0.0
113.86012396944487 -0.5521281561914004 33.88433148464797 194.73619591025096 0.0 0.0
74.59297842826989 4.717550988433771 23.693104370249518 179.37672152990856 0.0 0.0
42.81588499778436 13.921177436692254 17.02169402621383 166.03412187702426 0.0 0.0
13.687609037148375 19.765874454321345 10.036347320254544 163.61199811637334 0.0 0.0
-8.620593117403152 -0.6425566850237225 -2.778618242789462 170.94319841992387 0.0 0.0
41.580353356490214 -67.84692768491513 -6.472230699232852 180.3052481977257 0.0 0.0
-146.99535050064813 -605.0676684947473 -236.04604465831252 102.96903363088352 0.0 0.0
-112.48466760762692 -487.266241667008 -180.98585516651974 -109.27373902999427 0.0 0.0
4.165366441013317 -80.28111503936248 -22.689046875560393 -166.40193953019573 0.0 0.0
-32.07544404745148 -2.37293740122887 -10.331243830085036 -174.84733128208123 0.0 0.0
-26.37015515315834 18.39190019587795 -2.3926462802856 -169.83398904560073 0.0 0.0
-14.781870206675991 15.849409410002833 0.3211685577220549 -171.5174099138039 0.0 0.0
-6.33745556094175 8.049026600906029 0.5160572273244326 -183.3274589607414 0.0 0.0
-2.4203307603052178 1.8479436125157884 -0.17453323531524845 -199.58402843994705 0.0 0.0
-0.555819419320013 0.20214033668707465 -0.10597496878869705 -205.7678681635313 0.0 0.0
-0.0470724518568133 -0.1083936076046319 -0.04634752033388345 -200.47609828558038 0.0 0.0
0.10992937020940019 0.024161280958587383 0.05382794998775964 -188.47422508229306 0.0 0.0
0.12644429752255348 -0.33616721789344517 -0.16801771141633637 -185.19722222175903 0.0 0.0
-0.8945048442061818 0.6034279283702588 0.01797537088593515 -182.682417410108 0.0 0.0
-1.94643137962413 0.6948078500172556 -0.03412689195780416 -180.11107700512102 0.0 0.0
-1.8683771097021804 0.9385121173686386 0.32913687990401996 -172.95058304844622 0.0 0.0
1.8026660852748932 2.699587718179565 1.0719495553679366 -166.33924410627597 0.0 0.0
16.41184927848235 7.148041926364243 3.356066836824752 -160.2836849949087 0.0 0.0
53.20110549062379 16.26313541773238 9.176559229194467 -154.7976937500207 0.0 0.0
134.8508275911355 20.125472996081676 13.39698242631404 -147.5571768590459 0.0 0.0
326.94779197613553 -39.49019273697071 31.11295110732641 -142.02750285246194 0.0 0.0
497.1822919982474 -14.38454476295015 174.95556162350857 -167.155632757814 0.0 0.0
-363.04522371757736 -658.8222308583922 -438.1361457431998 -1.460165321987006e-11 0.0 0.0
497.1822919988851 -14.384544762003088 174.9555616239861 167.1556327578735 0.0 0.0
326.94779197552464 -39.49019273817068 31.112951106752362 142.02750285311538 0.0 0.0
134.85082759140965 20.125472996663788 13.396982426700518 147.55717685957748 0.0 0.0
53.20110549148111 16.26313541890171 9.176559229970636 154.7976937499928 0.0 0.0
16.411849279397046 7.1480419275806995 3.3560668375470186 160.28368499494113 0.0 0.0
1.80266608520418 2.6995877177820375 1.071949555240593 166.33924410624923 0.0 0.0
-1.8683771092500052 0.9385121178243665 0.3291368802045511 172.95058304845762 0.0 0.0
-1.946431379049315 0.6948078497520278 -0.03412689186631468 180.11107700537093 0.0 0.0
-0.8945048438678143 0.6034279280718593 0.017975370885366715 182.68241741004624 0.0 0.0
0.12644429796447554 -0.3361672176414672 -0.16801771121378906 185.19722222169767 0.0 0.0
0.10992937027682714 0.024161280604285018 0.05382794990709883 188.47422508217932 0.0 0.0
-0.047072451925760816 -0.10839360816759491 -0.046347520521115904 200.4760982856434 0.0 0.0
-0.555819418987122 0.20214033719687174 -0.1059749685302851 205.76786816352856 0.0 0.0
-2.4203307600139237 1.84794361307533 -0.17453323506022178 199.58402843972917 0.0 0.0
-6.337455561181226 8.049026600268895 0.5160572270608714 183.3274589605417 0.0 0.0
-14.781870206862406 15.849409409521522 0.3211685575224099 171.51740991369863 0.0 0.0
-26.37015515306043 18.391900196113404 -2.392646280185187 169.83398904542483 0.0 0.0
-32.0754440474185 -2.372937401226023 -10.331243830073912 174.84733128194316 0.0 0.0
4.165366440939386 -80.28111503942968 -22.68904687560257 166.40193953009776 0.0 0.0
-112.4846676075672 -487.2662416663504 -180.98585516631303 109.27373902992053 0.0 0.0
-93.2432593348295 -382.3631080620622 -142.67335732405436 -104.9585433386452 0.0 0.0
-19.651994030582905 -86.51788171532286 -31.85157767303265 -155.77042634058694 0.0 0.0
-53.896989037256475 -3.994383031381628 -17.36847810865412 -174.85042753298058 0.0 0.0
-64.7339614049843 17.119478535375023 -14.280775223833295 -171.77453790137517 0.0 0.0
-71.3287004059288 17.05779556763995 -16.278341599480058 -172.1755531480797 0.0 0.0
-86.20667500914735 11.154242814201716 -22.473303058932892 -181.4923767769361 0.0 0.0
-118.65741598468082 4.38893517798748 -34.12039129903252 -196.3741439324159 0.0 0.0
-173.36713404475432 3.469468457748774 -50.99466779229172 -201.45002267110834 0.0 0.0
-254.04174990786174 7.871079622499772 -75.47055866533611 -195.78566889575023 0.0 0.0
-340.20344466475 16.407636254447173 -104.34294631576674 -182.37763865161799 0.0 0.0
-411.2099810584729 17.482512992806505 -136.9006160427857 -169.2413905572522 0.0 0.0
-458.798245385 10.01029596464101 -169.23751574286334 -158.11974900926268 0.0 0.0
-499.4271883405079 -3.2276462439190396 -200.51333924432234 -152.5699281730364 0.0 0.0
-536.0554604943584 -13.803623965333998 -228.74634974994743 -150.0223188175669 0.0 0.0
-564.6891923247207 -18.252249550790495 -250.06398282899826 -149.351537810458 0.0 0.0
-582.8662120151299 -17.150410246441695 -260.4302672658496 -151.81131390548708 0.0 0.0
-588.4167540974814 -11.007030703215449 -257.34263505711294 -157.18438436726788 0.0 0.0
-584.287345867767 -3.2292061438466675 -238.1452158435952 -167.97503912606572 0.0 0.0
-568.7322544019552 37.50941465464959 -191.62636854426142 -178.58996749919208 0.0 0.0
-331.0553047527996 83.60731613934566 -58.133197286582714 -124.94682094058395 0.0 0.0
-890.5822771314938 -880.0777812103413 -879.5817765378649 -1.4452439245360438e-10 0.0 0.0
-331.0553047528112 83.6073161393529 -58.13319728656924 124.94682094123286 0.0 0.0
-568.7322544019096 37.50941465459079 -191.626368544093 178.58996749930296 0.0 0.0
-584.2873458676496 -3.229206143795281 -238.1452158435796 167.97503912644308 0.0 0.0
-588.4167540956615 -11.007030700817658 -257.3426350558887 157.18438436707993 0.0 0.0
-582.8662120146031 -17.150410245897802 -260.43026726554257 151.811313905558 0.0 0.0
-564.6891923249135 -18.252249551278958 -250.06398282908475 149.35153781050852 0.0 0.0
-536.0554604936422 -13.803623964577369 -228.74634974949126 150.0223188175924 0.0 0.0
-499.4271883405671 -3.2276462440462588 -200.5133392442445 152.56992817304095 0.0 0.0
-458.7982453842321 10.010295965169684 -169.23751574233475 158.11974900928885 0.0 0.0
-411.20998105777875 17.482512993350817 -136.90061604229743 169.24139055721736 0.0 0.0
-340.20344466380595 16.40763625462186 -104.3429463154225 182.37763865146138 0.0 0.0
-254.04174990746094 7.871079621946597 -75.47055866536512 195.7856688958641 0.0 0.0
-173.3671340440955 3.4694684582120128 -50.994667791957035 201.45002267107355 0.0 0.0
-118.65741598438723 4.388935178179033 -34.12039129888855 196.37414393225552 0.0 0.0
-86.20667500892678 11.15424281426537 -22.473303058851513 181.49237677663166 0.0 0.0
-71.32870040594818 17.05779556725333 -16.27834159960579 172.1755531477785 0.0 0.0
-64.73396140480966 17.11947853558427 -14.280775223719784 171.77453790116743 0.0 0.0
-53.89698903726467 -3.994383031459084 -17.368478108682275 174.85042753281135 0.0 0.0
-19.65199403061719 -86.51788171536566 -31.85157767305533 155.7704263404811 0.0 0.0
-93.24325933463352 -382.3631080615358 -142.67335732384262 104.95854333858176 0.0 0.0
-76.01766184026789 -292.9358910673951 -110.6860658722989 -95.70977911862967 0.0 0.0
-36.10747062754397 -86.18765978829998 -36.6887049000155 -144.80738064373577 0.0 0.0
-74.07351917620095 -5.323640842709282 -23.81771057062578 -170.9865038336422 0.0 0.0
-101.27217278956286 15.69096837411826 -25.682240006152814 -169.21240148795334 0.0 0.0
-126.49896344735005 17.61936068282293 -32.64250112637378 -168.30074664381544 0.0 0.0
-165.5169644857434 14.151973164489172 -45.121235709933224 -175.874470332824 0.0 0.0
-232.05288262992923 6.262294350384931 -67.54745072689938 -182.01129848546486 0.0 0.0
-329.40559561528096 1.7121637061318502 -103.30807731867182 -180.30030244635336 0.0 0.0
-427.01819174392665 -9.445779604932714 -156.96620003985697 -165.15306738333126 0.0 0.0
-505.8370189607393 -15.453488870013238 -212.0149610111082 -155.42992072993707 0.0 0.0
-565.2246331119791 -20.775282201106805 -258.7420290729822 -147.88901648123164 0.0 0.0
-613.9289794546336 -27.234079378614233 -296.04374984932514 -143.28892183473897 0.0 0.0
-658.2316450647631 -37.795988947671084 -329.5782910015755 -139.31984043875744 0.0 0.0
-697.5452331603958 -47.506531893062956 -357.5820144108278 -136.1649785337357 0.0 0.0
-730.3786471778213 -53.398080350416194 -379.04992978275345 -134.36883895149793 0.0 0.0
-752.5191891010752 -52.300452143518285 -390.6691031884635 -135.0229070818763 0.0 0.0
-761.8692889360291 -44.51407662440316 -391.64635326252625 -139.10361927614838 0.0 0.0
-757.1011975249254 -32.45627225384466 -383.0176349465001 -146.8008546319542 0.0 0.0
-720.9472456715052 1.829603925148163 -349.3900430544885 -156.06127263110213 0.0 0.0
-660.2356592872997 48.85665718403885 -299.2002095476699 -160.75313081155065 0.0 0.0
-1613.2865981677594 -1155.827449580341 -1339.011730054221 2.332356530132529e-11 0.0 0.0
-660.2356592868081 48.8566571843419 -299.2002095473216 160.7531308118839 0.0 0.0
-720.9472456711418 1.8296039253677066 -349.390043054309 156.061272631316 0.0 0.0
-757.1011975252113 -32.45627225428217 -383.0176349466595 146.80085463219842 0.0 0.0
-761.8692889355001 -44.51407662383969 -391.64635326218826 139.10361927602196 0.0 0.0
-752.5191891012053 -52.30045214382446 -390.66910318854616 135.02290708195451 0.0 0.0
-730.37864717741 -53.398080350142976 -379.04992978242285 134.36883895147002 0.0 0.0
-697.5452331603005 -47.5065318933146 -357.58201441081354 136.16497853383945 0.0 0.0
-658.2316450645815 -37.795988947544416 -329.57829100141834 139.3198404387702 0.0 0.0
-613.9289794540664 -27.2340793783329 -296.0437498489274 143.28892183472183 0.0 0.0
-565.2246331117219 -20.775282201063284 -258.74202907274764 147.8890164812122 0.0 0.0
-505.8370189601782 -15.453488869775686 -212.01496101069492 155.42992072986132 0.0 0.0
-427.01819174335554 -9.4457796048616 -156.96620003947635 165.15306738338836 0.0 0.0
-329.40559561465534 1.7121637063735704 -103.30807731834051 180.30030244639306 0.0 0.0
-232.05288262957538 6.262294350128127 -67.5474507268843 182.01129848529882 0.0 0.0
-165.51696448551715 14.151973164478578 -45.1212357098715 175.87447033261142 0.0 0.0
-126.49896344712471 17.619360682988628 -32.64250112625628 168.3007466436057 0.0 0.0
-101.27217278945704 15.690968374072687 -25.682240006139054 169.2124014877658 0.0 0.0
-74.07351917614012 -5.32364084272334 -23.817710570611247 170.9865038335287 0.0 0.0
-36.107470627482115 -86.18765978824428 -36.68870489997991 144.80738064359366 0.0 0.0
-76.01766184010212 -292.9358910670174 -110.68606587213586 95.70977911851483 0.0 0.0
-61.328002830538885 -216.82737518089988 -83.44661340343163 -84.16639912218277 0.0 0.0
-48.496549575990805 -80.922584527437 -38.82608981469261 -132.26632512420468 0.0 0.0
-92.80389030350861 -6.170334830301598 -29.69196736344188 -163.05975762045156 0.0 0.0
-136.15677916847818 14.170509533561743 -36.586216990426564 -162.7159536655426 0.0 0.0
-179.99079008625503 17.541051670837458 -48.640236924345615 -159.96806858765987 0.0 0.0
-240.66662454784432 13.994180064538444 -67.9170214788962 -159.92729281730547 0.0 0.0
-339.6476220918248 3.663231341976262 -103.36873172861564 -161.42856205073218 0.0 0.0
-443.65147762063384 -14.46346780002387 -162.27987765198836 -149.06995774579633 0.0 0.0
-535.0894350539141 -26.41897698065296 -230.60329258492132 -142.59526318046997 0.0 0.0
-604.1824338675503 -30.12953787453003 -286.61413616431105 -138.44378679510876 0.0 0.0
-656.9666113307519 -37.81618371886079 -329.5468145061726 -133.01513005662733 0.0 0.0
-705.254680638979 -48.63746729551241 -365.3637782014764 -129.15739086953326 0.0 0.0
-752.5536960460386 -62.600189771423416 -398.86842574272913 -125.30260078577322 0.0 0.0
-796.9351367593879 -77.05593989399696 -429.59048388179895 -121.92235460019766 0.0 0.0
-835.8047764748417 -87.59137516769718 -455.03416103610357 -119.79891577381174 0.0 0.0
-862.8364163985981 -89.75290707121265 -470.0589456997254 -120.39451283137977 0.0 0.0
-874.4053027239311 -80.7457141437105 -471.5195307895541 -124.98853618545952 0.0 0.0
-860.5672620331228 -54.044941053301145 -451.6576951576404 -132.24644727233607 0.0 0.0
-817.8517678157191 -7.811077523144689 -408.51432907473986 -138.8971315474628 0.0 0.0
-712.0785069496145 85.62374388850726 -314.875393057047 -144.22174508434114 0.0 0.0
-2054.2239286986323 -1395.5795922675127 -1689.4771727928614 6.346212444441335e-11 0.0 0.0
-712.0785069494934 85.62374388846257 -314.8753930570267 144.2217450846545 0.0 0.0
-817.8517678151272 -7.811077522764535 -408.51432907434736 138.89713154772505 0.0 0.0
-860.5672620333664 -54.04494105369266 -451.65769515776316 132.2464472726261 0.0 0.0
-874.4053027232098 -80.74571414307599 -471.5195307890198 124.98853618544618 0.0 0.0
-862.8364163981943 -89.75290707094096 -470.0589456994698 120.3945128313583 0.0 0.0
-835.8047764744582 -87.59137516739452 -455.0341610358071 119.79891577387716 0.0 0.0
-796.9351367589002 -77.05593989373362 -429.5904838814999 121.92235460021757 0.0 0.0
-752.5536960459439 -62.600189771561034 -398.86842574267496 125.30260078587072 0.0 0.0
-705.2546806382779 -48.63746729499739 -365.36377820099176 129.15739086950055 0.0 0.0
-656.9666113309172 -37.816183719360566 -329.5468145062736 133.01513005666794 0.0 0.0
-604.1824338672508 -30.12953787457342 -286.6141361640182 138.44378679506792 0.0 0.0
-535.0894350530236 -26.41897697996316 -230.60329258421157 142.59526318036134 0.0 0.0
-443.65147762015215 -14.463467799929324 -162.27987765162237 149.0699577457633 0.0 0.0
-339.64762209144317 3.6632313418953277 -103.36873172846518 161.4285620506683 0.0 0.0
-240.66662454743556 13.994180064337208 -67.91702147887003 159.92729281704797 0.0 0.0
-179.99079008596524 17.54105167088089 -48.64023692425229 159.96806858751626 0.0 0.0
-136.15677916842048 14.170509533347873 -36.58621699047271 162.71595366541595 0.0 0.0
-92.80389030349232 -6.170334830375199 -29.691967363458872 163.0597576203469 0.0 0.0
-48.496549576006046 -80.92258452740332 -38.82608981468705 132.26632512401375 0.0 0.0
-61.328002830457976 -216.8273751806191 -83.44661340332313 84.16639912205206 0.0 0.0
-49.95251654566211 -153.20730326830085 -60.94794594418889 -71.84573278050931 0.0 0.0
-58.27504064565881 -72.1250500089208 -39.120027196373876 -117.78732187424657 0.0 0.0
-110.44784736781831 -6.380990221845547 -35.04920229235745 -151.1824261272225 0.0 0.0
-169.324486055278 12.257238998343107 -47.12875171532164 -151.65091852955908 0.0 0.0
-230.9570789924477 16.306472922736504 -64.24816684287114 -146.7665876601073 0.0 0.0
-318.7290394885006 13.348210884387944 -91.26300244628784 -143.01850426532437 0.0 0.0
-427.24794046222405 -7.830573684761003 -143.84308383344478 -131.5842723879644 0.0 0.0
-530.2321980456729 -27.447701094256534 -218.03565273330815 -124.93249394040548 0.0 0.0
-612.2712330168068 -35.04641143477582 -287.1964068416828 -123.07490718754958 0.0 0.0
-669.924840575177 -44.572821886235566 -339.4020308048855 -118.82426474007202 0.0 0.0
-724.0808895210384 -53.971425309604825 -379.2477147605164 -116.54028917960335 0.0 0.0
-774.8900819919052 -68.21442464450348 -415.14938876293854 -113.4534835694866 0.0 0.0
-826.000317408008 -86.56242761637573 -451.2034304278709 -109.97330820878078 0.0 0.0
-876.0118954689127 -106.04067592927262 -486.41542190305677 -106.69867366582326 0.0 0.0
-920.9847922432324 -122.23441308342198 -517.280275266673 -104.35764253550906 0.0 0.0
-953.8883521211766 -127.65927939189389 -536.6850493099 -104.71617843420393 0.0 0.0
-963.599993651432 -115.90038158622767 -535.960725123512 -108.54889224342 0.0 0.0
-940.3513103403707 -76.15005241763822 -504.9581600057418 -114.95341161154232 0.0 0.0
-874.8300717776524 -4.090594986477527 -437.6110053394898 -120.71045234818538 0.0 0.0
-740.717844528178 119.47836338952662 -313.1103244897806 -125.28133550308387 0.0 0.0
-2398.511085910388 -1636.3879578809683 -1989.1696774012053 7.839062732273305e-11 0.0 0.0
-740.7178445291802 119.47836338839687 -313.1103244904529 125.28133550325848 0.0 0.0
-874.8300717765792 -4.090594985523296 -437.6110053388053 120.71045234836397 0.0 0.0
-940.3513103408836 -76.15005241833634 -504.95816000603594 114.95341161182643 0.0 0.0
-963.5999936516886 -115.90038158653417 -535.9607251237544 108.54889224339442 0.0 0.0
-953.8883521204253 -127.65927939120031 -536.6850493093938 104.7161784341036 0.0 0.0
-920.9847922437973 -122.23441308419413 -517.2802752670297 104.35764253558868 0.0 0.0
-876.011895468082 -106.04067592852655 -486.4154219024649 106.69867366574735 0.0 0.0
-826.0003174074507 -86.5624276160649 -451.2034304275262 109.97330820887063 0.0 0.0
-774.890081991577 -68.2144246443395 -415.1493887627326 113.45348356948212 0.0 0.0
-724.0808895207599 -53.9714253095658 -379.2477147603607 116.54028917953214 0.0 0.0
-669.9248405749405 -44.57282188630134 -339.4020308046869 118.82426474006559 0.0 0.0
-612.271233016314 -35.04641143454412 -287.196406841231 123.07490718749125 0.0 0.0
-530.2321980448386 -27.447701093686742 -218.03565273264044 124.93249394028123 0.0 0.0
-427.2479404618276 -7.830573684797226 -143.84308383319728 131.5842723878907 0.0 0.0
-318.7290394878216 13.34821088479879 -91.26300244597651 143.01850426518322 0.0 0.0
-230.95707899218002 16.30647292271637 -64.24816684279696 146.7665876600095 0.0 0.0
-169.3244860551024 12.257238998282897 -47.12875171528848 151.65091852936393 0.0 0.0
-110.4478473676597 -6.380990221704806 -35.04920229226741 151.18242612709867 0.0 0.0
-58.2750406455968 -72.12505000883361 -39.12002719632912 117.78732187411195 0.0 0.0
-49.952516545575435 -153.2073032681031 -60.947945944103544 71.8457327804133 0.0 0.0
-41.84162229136323 -101.5591327234075 -43.0202265044312 -59.172545299627814 0.0 0.0
-66.16021527875348 -61.11634446355543 -38.18296792269268 -101.44825710887444 0.0 0.0
-127.14510304504184 -5.868792355202981 -39.90481390636067 -135.4255088393537 0.0 0.0
-200.86475792548097 10.245717894954955 -57.18256629711568 -136.56237256726135 0.0 0.0
-279.6818053413796 13.027916675372396 -79.94189670627188 -128.36735239501036 0.0 0.0
-389.90619950952043 6.768893256802015 -117.46039749137607 -118.97671377753441 0.0 0.0
-500.7585876731277 -19.321423041873267 -185.64134688583084 -105.8312898990304 0.0 0.0
-597.9752571153531 -34.53385848595664 -265.7943820104476 -103.62597223453261 0.0 0.0
-664.0061340210389 -46.06589489380282 -331.16254254817636 -101.40734300745842 0.0 0.0
-724.4168411587875 -55.44493431651375 -378.95091279624387 -100.86229031505158 0.0 0.0
-779.1081549945799 -69.32844933272608 -418.4462704260787 -99.2416211182394 0.0 0.0
-833.6769262296777 -87.87791970712917 -456.8033965120168 -96.7455972676485 0.0 0.0
-889.184982924944 -110.42291547094851 -496.4407476096583 -93.77891635471997 0.0 0.0
-943.9280366054234 -133.96519381111455 -535.7257126388378 -90.87597444754014 0.0 0.0
-995.1728498426955 -155.76721539885253 -572.3008065184011 -88.54258818928844 0.0 0.0
-1033.262270641371 -166.28079541663953 -596.8172135516103 -87.96006543027866 0.0 0.0
-1042.046783725703 -149.852678123455 -593.3568369957562 -90.81376851522253 0.0 0.0
-1005.2204878396584 -95.26225019582196 -548.2692918509355 -96.29229945546288 0.0 0.0
-914.8218174142718 2.336740917150067 -455.5617651135133 -101.69567674673118 0.0 0.0
-759.2270881862087 147.8068350614833 -307.8661572742057 -108.64828385515581 0.0 0.0
-2699.4986365575965 -1869.6695560612645 -2261.392848151022 8.679279517309624e-11 0.0 0.0
-759.2270881868949 147.80683506070304 -307.86615727464925 108.64828385526056 0.0 0.0
-914.8218174138652 2.3367409174228158 -455.5617651133268 101.69567674700666 0.0 0.0
-1005.2204878393065 -95.26225019556831 -548.2692918506533 96.29229945562531 0.0 0.0
-1042.046783726714 -149.8526781246218 -593.356836996484 90.81376851529667 0.0 0.0
-1033.2622706405875 -166.28079541589395 -596.8172135510772 87.96006543021934 0.0 0.0
-995.1728498431759 -155.76721539950486 -572.3008065187097 88.54258818928793 0.0 0.0
-943.9280366044917 -133.9651938103106 -535.7257126381637 90.87597444751047 0.0 0.0
-889.1849829245907 -110.42291547083155 -496.4407476095028 93.77891635484572 0.0 0.0
-833.6769262295347 -87.87791970718679 -456.8033965119183 96.7455972676514 0.0 0.0
-779.1081549941208 -69.32844933243132 -418.44627042581146 99.24162111810813 0.0 0.0
-724.4168411584778 -55.4449343164764 -378.9509127959805 100.86229031495529 0.0 0.0
-664.00613402044 -46.065894893500825 -331.16254254769564 101.40734300747005 0.0 0.0
-597.9752571149032 -34.53385848588865 -265.79438201002733 103.62597223458235 0.0 0.0
-500.75858767257824 -19.32142304169712 -185.64134688539917 105.83128989897303 0.0 0.0
-389.90619950905324 6.768893256795392 -117.46039749119605 118.97671377754641 0.0 0.0
-279.6818053409787 13.027916675380357 -79.94189670617043 128.36735239493285 0.0 0.0
-200.86475792519855 10.245717895038187 -57.18256629700858 136.5623725672363 0.0 0.0
-127.14510304488161 -5.868792355040517 -39.90481390626347 135.4255088391751 0.0 0.0
-66.1602152787199 -61.11634446345573 -38.1829679226527 101.44825710879118 0.0 0.0
-41.841622291288125 -101.55913272328624 -43.0202265043723 59.17254529957057 0.0 0.0
-36.62425913126543 -61.61747536353282 -29.472520348439474 -46.33241891329054 0.0 0.0
-72.34676402580182 -48.99452816117621 -36.40238765609341 -83.41814567335864 0.0 0.0
-142.8669096242064 -4.740226021897527 -44.28259031351318 -115.88693930650916 0.0 0.0
-230.8180871303715 7.893052738338728 -66.88462731869973 -117.14047057775247 0.0 0.0
-331.48714528602665 9.447034547588636 -96.05275604915525 -107.4745189943972 0.0 0.0
-447.1563401095491 -7.141464719496415 -147.10868237512577 -89.34315334953105 0.0 0.0
-562.5709643771302 -26.921988355499522 -225.2282237467987 -82.7456496613771 0.0 0.0
-642.4950662985257 -42.61366576511493 -305.08706703474104 -81.85130988574845 0.0 0.0
-709.5176894046315 -53.13146204984668 -365.12230371578414 -82.16645539777518 0.0 0.0
-769.2618157644117 -66.85071087727042 -411.2243859281125 -82.1171068066805 0.0 0.0
-827.2219642163163 -84.79732335861655 -452.34262056641614 -81.19098397078574 0.0 0.0
-885.8951121772566 -107.47334115976825 -494.01510019201794 -79.29823821890784 0.0 0.0
-945.633379176578 -133.75305538181516 -537.316655157209 -76.9026135907551 0.0 0.0
-1004.2437291630195 -161.84611740805934 -580.680605259878 -74.4872997940906 0.0 0.0
-1059.8451004854112 -187.0797868561115 -621.0477267426261 -72.33225797897197 0.0 0.0
-1103.7546881084386 -201.98992291362626 -650.5659116745687 -70.93639518975982 0.0 0.0
-1114.282191644318 -186.86367739808748 -648.6985757804872 -71.91722357577096 0.0 0.0
-1064.935552939573 -117.8726397775201 -590.2658776036924 -76.42101451141457 0.0 0.0
-948.9175563939294 6.669441523599119 -471.03827236444477 -83.14802206690656 0.0 0.0
-767.6284777704761 177.0691311533987 -296.8521531732648 -94.32310286700196 0.0 0.0
-2967.7299834484947 -2088.268327089302 -2508.860712714813 3.7548630871242494e-11 0.0 0.0
-767.6284777698728 177.06913115390765 -296.85215317287395 94.32310286706856 0.0 0.0
-948.9175563937401 6.66944152372038 -471.0382723643681 83.14802206713024 0.0 0.0
-1064.9355529388972 -117.87263977691293 -590.2658776031857 76.42101451143935 0.0 0.0
-1114.2821916443859 -186.8636773983191 -648.6985757804885 71.91722357588837 0.0 0.0
-1103.754688108175 -201.98992291340537 -650.5659116742589 70.93639518971185 0.0 0.0
-1059.8451004845897 -187.0797868554702 -621.0477267420202 72.33225797897053 0.0 0.0
-1004.2437291622684 -161.84611740743821 -580.6806052592617 74.48729979410906 0.0 0.0
-945.633379176786 -133.75305538228142 -537.3166551573787 76.90261359085649 0.0 0.0
-885.89511217671 -107.47334115941942 -494.01510019162265 79.29823821893896 0.0 0.0
-827.2219642163652 -84.79732335888647 -452.3426205664515 81.19098397072955 0.0 0.0
-769.2618157635998 -66.85071087671415 -411.2243859275618 82.11710680664686 0.0 0.0
-709.5176894041317 -53.131462049594745 -365.12230371538755 82.1664553977349 0.0 0.0
-642.4950662982121 -42.613665765201894 -305.08706703440004 81.8513098857675 0.0 0.0
-562.5709643765244 -26.92198835523314 -225.2282237462807 82.74564966136614 0.0 0.0
-447.1563401089677 -7.141464719265788 -147.10868237478883 89.34315334942676 0.0 0.0
-331.487145285493 9.44703454766703 -96.05275604899921 107.47451899432811 0.0 0.0
-230.81808713021752 7.893052738308277 -66.88462731866159 117.14047057778171 0.0 0.0
-142.8669096240429 -4.740226021846129 -44.282590313448694 115.88693930636097 0.0 0.0
-72.34676402565881 -48.99452816113267 -36.40238765603745 83.41814567332005 0.0 0.0
-36.624259131145585 -61.61747536341646 -29.47252034836861 46.3324189131759 0.0 0.0
-33.635788685113944 -33.229426406634374 -20.059564527524493 -33.62622214071422 0.0 0.0
-76.5755148253617 -36.71760890597606 -33.98793711940132 -63.90672734115118 0.0 0.0
-157.3549684071885 -3.2598288091706475 -48.18443916490774 -92.48966633993678 0.0 0.0
-260.01911752495505 5.016880345248868 -76.49328841075186 -93.4621877168797 0.0 0.0
-381.21650629296704 2.63538432991525 -113.728519848548 -81.12010559737877 0.0 0.0
-505.5350735361912 -16.372576545273347 -177.28014057649978 -64.51804169338956 0.0 0.0
-605.425017741351 -34.613841527577605 -261.47431030674966 -61.302840775160064 0.0 0.0
-679.8502486192938 -46.90309484396672 -335.67957485637197 -61.587890500062315 0.0 0.0
-746.5489829399611 -61.218412824414685 -393.0674282908773 -62.43350235268925 0.0 0.0
-808.6090073726713 -78.37894008827611 -439.07651140149574 -62.88972338331378 0.0 0.0
-869.9544406331695 -100.36755899548395 -482.7284051418767 -62.432202903985605 0.0 0.0
-932.9818107841363 -127.17760266570858 -528.203980911707 -61.080710613261225 0.0 0.0
-996.734342984467 -158.0268088334421 -575.6468372009556 -59.217184280358175 0.0 0.0
-1058.8821504571301 -187.80861734514144 -621.5693150852817 -57.50158444308334 0.0 0.0
-1116.1961744966804 -215.0841298031731 -663.7739735063708 -55.76618960261565 0.0 0.0
-1164.0746486881878 -234.2547935786853 -697.3052924510966 -53.76505416498545 0.0 0.0
-1182.9450471320333 -226.080533426183 -703.015391156911 -52.64559724875432 0.0 0.0
-1129.5689308692165 -151.5175657012757 -639.8824421913766 -55.627004564995445 0.0 0.0
-985.2202598417381 2.5481024610311067 -491.61093869084385 -64.59746855739367 0.0 0.0
-763.9635313781386 213.38935213434655 -276.3173135030511 -81.03806419452685 0.0 0.0
-3203.2859917086844 -2282.50514577313 -2727.140671975023 3.2162716934180935e-11 0.0 0.0
-763.963531377441 213.38935213500434 -276.31731350265136 81.03806419464135 0.0 0.0
-985.2202598420284 2.548102460671828 -491.61093869103894 64.59746855750282 0.0 0.0
-1129.5689308686137 -151.5175657007485 -639.8824421909568 55.627004565078714 0.0 0.0
-1182.9450471315895 -226.08053342581385 -703.0153911566341 52.645597248761746 0.0 0.0
-1164.0746486880084 -234.2547935786709 -697.3052924508562 53.7650541650592 0.0 0.0
-1116.1961744956607 -215.08412980224702 -663.7739735057495 55.7661896026073 0.0 0.0
-1058.8821504564198 -187.80861734458833 -621.569315084713 57.501584443040336 0.0 0.0
-996.7343429840396 -158.02680883323882 -575.6468372006992 59.2171842804479 0.0 0.0
-932.98181078361 -127.17760266539841 -528.2039809112919 61.08071061329258 0.0 0.0
-869.9544406330714 -100.36755899560302 -482.7284051417902 62.432202903948564 0.0 0.0
-808.6090073722748 -78.37894008817774 -439.0765114012333 62.889723383361975 0.0 0.0
-746.5489829399113 -61.21841282464913 -393.06742829077285 62.43350235271029 0.0 0.0
-679.8502486186997 -46.90309484360903 -335.67957485584617 61.58789049990975 0.0 0.0
-605.4250177408352 -34.61384152742068 -261.47431030627035 61.30284077515326 0.0 0.0
-505.53507353543114 -16.372576544786092 -177.28014057598676 64.51804169330002 0.0 0.0
-381.21650629245175 2.635384330042815 -113.72851984835523 81.12010559728995 0.0 0.0
-260.01911752475195 5.016880345296 -76.49328841067673 93.46218771682425 0.0 0.0
-157.35496840710724 -3.2598288093103847 -48.184439164925294 92.48966633985415 0.0 0.0
-76.57551482535774 -36.717608906086575 -33.98793711943329 63.90672734111773 0.0 0.0
-33.63578868511627 -33.22942640660317 -20.05956452751583 33.626222140549814 0.0 0.0
-31.72404147736003 -16.10098765645102 -14.347508740143313 -21.77947561516406 0.0 0.0
-78.06036252646949 -25.292697625993778 -31.005918045738987 -43.19137249372101 0.0 0.0
-170.18025226681488 -1.97076129531282 -51.64530406863831 -64.79511128713376 0.0 0.0
-289.2719570252206 1.6258107223376546 -86.25889130500838 -65.103215120737 0.0 0.0
-426.6688898809423 -8.253181253321564 -134.12813269373862 -51.710212230890015 0.0 0.0
-552.7798344127933 -24.753458004862573 -207.8817517337017 -41.393904600086024 0.0 0.0
-635.7233718988181 -39.56240082607877 -291.20044640338585 -40.467728628255465 0.0 0.0
-711.323046533629 -52.51412307020563 -361.74010528999264 -41.66019294705795 0.0 0.0
-778.559275345752 -69.8336415197011 -416.87325592403124 -42.5461119161409 0.0 0.0
-843.2591360245721 -90.20503302373687 -463.781811557969 -43.090785870584995 0.0 0.0
-908.7120693461493 -116.00055733054592 -510.6829819358111 -42.96610026780971 0.0 0.0
-975.676607114214 -147.04333593663563 -560.023012079277 -42.096541406588806 0.0 0.0
-1043.7934127400079 -180.69301079732895 -610.9570007184881 -40.946052379865776 0.0 0.0
-1108.760989280526 -214.23147148471963 -660.1603401655213 -39.78548370799233 0.0 0.0
-1166.9478188329954 -241.663235853227 -702.8961083242519 -38.59705309587602 0.0 0.0
-1212.6640754101136 -258.28661118458695 -734.0155335215411 -36.800120964219886 0.0 0.0
-1239.4144905389378 -258.21568842226696 -747.4886050920544 -34.283910451065005 0.0 0.0
-1213.743336825146 -210.29949071898764 -711.4270965032161 -34.35218831708974 0.0 0.0
-1043.610066781744 -28.112292419488853 -536.3689408313509 -44.248938986098416 0.0 0.0
-738.6904225731826 268.2333508855307 -235.94265839729258 -67.59826775198869 0.0 0.0
-3391.5461477599756 -2434.264956314785 -2900.059996219954 2.9684699143217586e-11 0.0 0.0
-738.6904225736433 268.2333508850104 -235.94265839770364 67.59826775211033 0.0 0.0
-1043.6100667819362 -28.112292419745998 -536.3689408314522 44.248938986143465 0.0 0.0
-1213.7433368250609 -210.29949071896834 -711.4270965031589 34.35218831712631 0.0 0.0
-1239.4144905382632 -258.21568842166903 -747.4886050915756 34.28391045101773 0.0 0.0
-1212.6640754097173 -258.28661118432996 -734.01553352117 36.800120964303 0.0 0.0
-1166.9478188320263 -241.66323585237006 -702.8961083236251 38.597053095864624 0.0 0.0
-1108.760989279713 -214.23147148405465 -660.1603401648763 39.78548370793891 0.0 0.0
-1043.79341273957 -180.69301079708586 -610.9570007182575 40.94605237993929 0.0 0.0
-975.6766071144422 -147.04333593709012 -560.0230120793588 42.09654140658683 0.0 0.0
-908.7120693458697 -116.00055733047591 -510.68298193562055 42.96610026774992 0.0 0.0
-843.2591360243575 -90.20503302380949 -463.78181155779265 43.09078587060468 0.0 0.0
-778.5592753456907 -69.83364151994769 -416.87325592391176 42.546111916251164 0.0 0.0
-711.3230465332547 -52.51412307012649 -361.7401052896109 41.66019294703283 0.0 0.0
-635.723371898525 -39.56240082609542 -291.2004464030293 40.467728628180765 0.0 0.0
-552.7798344124158 -24.753458004844695 -207.88175173337171 41.39390460007488 0.0 0.0
-426.66888988045054 -8.253181253367487 -134.1281326935863 51.71021223081502 0.0 0.0
-289.2719570249695 1.625810722425828 -86.25889130490425 65.10321512066753 0.0 0.0
-170.18025226674357 -1.9707612955298788 -51.645304068682044 64.79511128705211 0.0 0.0
-78.06036252642564 -25.292697626014185 -31.005918045731942 43.19137249368214 0.0 0.0
-31.72404147742717 -16.10098765648922 -14.347508740174916 21.779475615146243 0.0 0.0
-28.711303044112384 -9.29642659311347 -11.402318891167756 -12.408316745973401 0.0 0.0
-75.360782783903 -16.220720275089775 -27.474450917697833 -21.625849147275108 0.0 0.0
-180.6364825414054 -1.6676628652322116 -54.69124362199128 -31.677483525553196 0.0 0.0
-319.85208182051537 -1.7427077590064206 -96.4444955947717 -31.47836823505208 0.0 0.0
-475.0877011278545 -16.20677605013026 -155.79265174905936 -23.140958097109497 0.0 0.0
-586.5551626059366 -31.551868791243542 -236.68556316015543 -20.490321198700514 0.0 0.0
-663.6406660785134 -41.3481016392741 -315.3251728181809 -21.434821951417952 0.0 0.0
-737.8803289454503 -58.8620167263486 -383.7310192742589 -22.13310397002393 0.0 0.0
-806.5494942474568 -78.47684622282964 -437.42615877009735 -22.479401892372582 0.0 0.0
-874.2622432658729 -102.52244188245886 -486.3701351688884 -22.750868639244537 0.0 0.0
-943.5740334065089 -131.98938664325306 -536.6165596007559 -22.72843294189816 0.0 0.0
-1014.8532584846237 -166.03389947844903 -589.4965996320132 -22.443995101522976 0.0 0.0
-1086.3086286507773 -203.85366911668692 -644.1405685397206 -21.90827797254369 0.0 0.0
-1154.9313473560435 -239.6490322221657 -696.2883692023659 -21.36419092509899 0.0 0.0
-1213.2369055916063 -266.84564722152663 -738.9859893367208 -20.768378661135166 0.0 0.0
-1254.6364379660035 -279.1849367161062 -765.8336040811133 -19.645139607291245 0.0 0.0
-1276.1605399068694 -274.51093983830015 -774.2719418770181 -17.46959044598706 0.0 0.0
-1282.014580420298 -258.2863686813114 -769.2817835774595 -15.182860436289886 0.0 0.0
-1203.9485462956443 -165.4596241459025 -684.8206602840153 -20.6712624610829 0.0 0.0
-725.586360691723 309.767406837912 -208.59067706335293 -48.79564658934449 0.0 0.0
-3391.7834711300748 -2399.159121436743 -2885.8523885421087 4.922817709029914e-11 0.0 0.0
-725.586360691454 309.7674068381592 -208.59067706315554 48.795646589334844 0.0 0.0
-1203.9485462961186 -165.45962414645567 -684.8206602843827 20.671262461135473 0.0 0.0
-1282.01458042035 -258.2863686814363 -769.2817835775496 15.182860436371183 0.0 0.0
-1276.1605399079226 -274.51093983944077 -774.2719418777513 17.46959044600731 0.0 0.0
-1254.6364379651754 -279.18493671540244 -765.8336040804611 19.645139607236302 0.0 0.0
-1213.2369055908996 -266.8456472209473 -738.9859893361953 20.768378661162295 0.0 0.0
-1154.9313473549525 -239.64903222123314 -696.2883692015143 21.364190925052483 0.0 0.0
-1086.3086286504752 -203.85366911658556 -644.1405685395658 21.90827797257801 0.0 0.0
-1014.8532584846964 -166.03389947875635 -589.4965996320338 22.443995101533268 0.0 0.0
-943.5740334060891 -131.98938664307332 -536.6165596004623 22.728432941955138 0.0 0.0
-874.2622432655439 -102.52244188238306 -486.37013516859946 22.750868639232245 0.0 0.0
-806.5494942470904 -78.4768462227324 -437.42615876980466 22.479401892379922 0.0 0.0
-737.8803289452698 -58.86201672645609 -383.73101927404286 22.133103970019615 0.0 0.0
-663.6406660778392 -41.34810163887785 -315.3251728176035 21.434821951274657 0.0 0.0
-586.5551626057379 -31.5518687914366 -236.68556315989508 20.4903211987067 0.0 0.0
-475.08770112738154 -16.206776050062352 -155.7926517488312 23.140958097062402 0.0 0.0
-319.85208182012207 -1.7427077589382796 -96.44449559464879 31.478368235010134 0.0 0.0
-180.6364825411823 -1.6676628651862972 -54.69124362191058 31.677483525515644 0.0 0.0
-75.36078278380441 -16.220720275057264 -27.47445091765851 21.625849147259647 0.0 0.0
-28.71130304403838 -9.296426593087405 -11.402318891137732 12.408316745923246 0.0 0.0
-17.802706588675207 -4.539042808023118 -6.702524819009496 -7.792311076170982 0.0 0.0
-64.69191814780595 -9.063973407512753 -22.126767466595616 -8.97609172155145 0.0 0.0
-187.48307178605032 -2.861211597906852 -57.103285015187154 -10.798206516537025 0.0 0.0
-358.2339387941846 -13.10001882612167 -111.42678119061998 -9.582484813284381 0.0 0.0
-535.4962080834052 -48.24251570584642 -191.28321100739947 -2.4888671242027876 0.0 0.0
-658.060419629313 -85.1956085004758 -293.9677507854425 0.298537852459571 0.0 0.0
-755.1156485210296 -118.25084801836218 -393.51796798675844 0.5554416055618105 0.0 0.0
-857.6289540740203 -165.80259395698238 -489.2086819067384 -0.4009121605617345 0.0 0.0
-963.6079413756773 -223.70783534199438 -579.7612824303928 -1.6229883994849388 0.0 0.0
-1082.0385413772187 -298.27286190150016 -678.9074513965061 -2.936323463554583 0.0 0.0
-1217.7410948177148 -393.5023536581622 -794.9261831885731 -4.234377351723706 0.0 0.0
-1370.9992813611605 -510.09085732186423 -929.6694893879769 -5.388048250419185 0.0 0.0
-1537.7311621527201 -641.9456076005471 -1078.4900463868632 -6.162692036211634 0.0 0.0
-1711.0090611175413 -782.0343799486673 -1234.6931521286901 -6.882106492815275 0.0 0.0
-1877.7279736322514 -917.2964054560241 -1385.2677071232524 -7.385959657186785 0.0 0.0
-2019.206771851759 -1029.5758077817661 -1511.883656151656 -7.446408433620423 0.0 0.0
-2112.1369496024313 -1096.7172859714062 -1591.9492099441516 -6.659463939152673 0.0 0.0
-2133.3159700859946 -1096.7290387638327 -1602.7523752133588 -4.584402222430633 0.0 0.0
-2129.580905166248 -1077.4678158959186 -1590.5833129715638 -7.363215177562211 0.0 0.0
-2095.388465111647 -1040.7008036976197 -1551.7523559262936 -36.997527341268515 0.0 0.0
-5243.603783778357 -4222.92416304393 -4706.335616329774 4.956746124662459e-11 0.0 0.0
-2095.388465110415 -1040.7008036963898 -1551.7523559252277 36.99752734123608 0.0 0.0
-2129.5809051669876 -1077.4678158967338 -1590.5833129720245 7.363215177518406 0.0 0.0
-2133.3159700850792 -1096.7290387629823 -1602.7523752126033 4.584402222412873 0.0 0.0
-2112.136949604932 -1096.717285974058 -1591.9492099457561 6.659463939222526 0.0 0.0
-2019.2067718498026 -1029.575807779911 -1511.8836561501964 7.446408433609619 0.0 0.0
-1877.7279736319497 -917.2964054558705 -1385.2677071228943 7.385959657216475 0.0 0.0
-1711.0090611158616 -782.0343799471559 -1234.6931521273636 6.882106492857755 0.0 0.0
-1537.7311621516596 -641.9456075996674 -1078.490046386028 6.162692036243065 0.0 0.0
-1370.9992813599085 -510.0908573208259 -929.6694893870058 5.388048250372062 0.0 0.0
-1217.7410948164832 -393.50235365715304 -794.9261831875943 4.234377351800383 0.0 0.0
-1082.0385413768136 -298.27286190135175 -678.9074513960403 2.9363234634851523 0.0 0.0
-963.6079413748712 -223.70783534143735 -579.7612824297605 1.6229883994092411 0.0 0.0
-857.6289540738034 -165.80259395708714 -489.2086819064731 0.400912160544884 0.0 0.0
-755.1156485197446 -118.25084801729321 -393.51796798577965 -0.5554416055987019 0.0 0.0
-658.0604196291464 -85.19560850069604 -293.96775078513963 -0.2985378525002105 0.0 0.0
-535.496208082858 -48.24251570563577 -191.28321100704954 2.4888671242218834 0.0 0.0
-358.23393879373566 -13.100018825929876 -111.42678119042768 9.582484813345218 0.0 0.0
-187.4830717858743 -2.8612115977837753 -57.10328501509741 10.798206516464894 0.0 0.0
-64.69191814779084 -9.063973407557098 -22.126767466604385 8.976091721575312 0.0 0.0
-17.80270658865225 -4.539042807992023 -6.70252481899328 7.792311076046505 0.0 0.0
SCALARS Strain float 6
LOOKUP_TABLE default
0.01212239888179813 -0.02077690361101609 0.0 -0.0008559588412807289 0.0 0.0
0.0074492969448820764 -0.0017692003243958737 0.0 -0.0063864122085663475 0.0 0.0
0.0023125381510012747 -0.0006132482813849989 0.0 -0.0006528314955711849 0.0 0.0
0.002055787193701407 -0.0008239544330382663 0.0 -3.1835958760869784e-05 0.0 0.0
0.002786957801941682 -0.0011431338266381969 0.0 9.053924164286187e-05 0.0 0.0
0.004339614983571263 -0.002260829807367985 0.0 0.00018989023839877404 0.0 0.0
0.006959357090977832 -0.004417903797647255 0.0 0.0002520506552692027 0.0 0.0
0.010787715248918289 -0.0077635291136883555 0.0 0.000276096272723088 0.0 0.0
0.015957034247979045 -0.012424729016302274 0.0 0.00027005548908724016 0.0 0.0
0.02252997734395864 -0.018411030740011363 0.0 0.00022110512614784714 0.0 0.0
0.0305332945159281 -0.025716555122324077 0.0 0.0001703409582908609 0.0 0.0
0.040003212613272554 -0.03437434457719064 0.0 0.00011313560882770005 0.0 0.0
0.05097552043335919 -0.04444984466248178 0.0 -9.253969938012151e-06 0.0 0.0
0.06347560190399336 -0.05600058293974386 0.0 -0.0001487090242307846 0.0 0.0
0.07744155303776994 -0.06901322180419057 0.0 -0.000358382481239641 0.0 0.0
0.09256447624623874 -0.08323053904299857 0.0 -0.0006512039959452392 0.0 0.0
0.1081702638561634 -0.09802556708582749 0.0 -0.0009790379974920914 0.0 0.0
0.1231935869407049 -0.11238125018494849 0.0 -0.0012134934673725803 0.0 0.0
0.13628835697238648 -0.12497540791362638 0.0 -0.0011830728345056634 0.0 0.0
0.14589724399564502 -0.13431007578222576 0.0 -0.0011929473307750477 0.0 0.0
0.1496208757329571 -0.1380715785233664 0.0 2.929947950924827e-15 0.0 0.0
0.14589724399562862 -0.13431007578221338 0.0 0.0011929473307812303 0.0 0.0
0.13628835697235062 -0.12497540791358983 0.0 0.0011830728345119815 0.0 0.0
0.12319358694065272 -0.11238125018490389 0.0 0.0012134934673747192 0.0 0.0
0.10817026385610304 -0.09802556708576443 0.0 0.000979037997490959 0.0 0.0
0.09256447624617582 -0.08323053904294979 0.0 0.0006512039959419482 0.0 0.0
0.07744155303770572 -0.06901322180413233 0.0 0.0003583824812399229 0.0 0.0
0.06347560190392905 -0.05600058293968398 0.0 0.0001487090242311348 0.0 0.0
0.050975520433296354 -0.04444984466242535 0.0 9.253969936531565e-06 0.0 0.0
0.04000321261321432 -0.034374344577139525 0.0 -0.00011313560882784393 0.0 0.0
0.030533294515877413 -0.025716555122276108 0.0 -0.00017034095829211596 0.0 0.0
0.022529977343917453 -0.01841103073997457 0.0 -0.00022110512614811114 0.0 0.0
0.015957034247947408 -0.012424729016276522 0.0 -0.00027005548908718227 0.0 0.0
0.01078771524889481 -0.0077635291136666125 0.0 -0.0002760962727215195 0.0 0.0
0.006959357090962352 -0.004417903797635844 0.0 -0.0002520506552687169 0.0 0.0
0.004339614983562996 -0.002260829807360739 0.0 -0.00018989023839856395 0.0 0.0
0.002786957801938326 -0.001143133826633937 0.0 -9.05392416439009e-05 0.0 0.0
0.0020557871937003118 -0.0008239544330372833 0.0 3.183595875985422e-05 0.0 0.0
0.0023125381509995833 -0.0006132482813849299 0.0 0.0006528314955697968 0.0 0.0
0.007449296944876687 -0.0017692003243934766 0.0 0.006386412208557164 0.0 0.0
0.01212239888178994 -0.020776903610992253 0.0 0.0008559588412394317 0.0 0.0
0.008279500016424612 -0.018538897686592212 0.0 -0.00039194076585592525 0.0 0.0
0.004888297041829165 -0.0013068368530071769 0.0 -0.005061715084076318 0.0 0.0
0.0015763491846971468 -0.000489813574043208 0.0 -0.00042887193377467303 0.0 0.0
0.001833920556578032 -0.0007802533421140571 0.0 -0.00020825941303436693 0.0 0.0
0.0024328767532559837 -0.0010442439250206027 0.0 -0.0001625258072390752 0.0 0.0
0.0037521353669426796 -0.0020284754056064547 0.0 -0.00019768853309771694 0.0 0.0
0.006084020932567403 -0.00403308165760296 0.0 -0.00039813591409085404 0.0 0.0
0.009557145793554498 -0.007194413672721178 0.0 -0.0006836564001792019 0.0 0.0
0.01426979662939255 -0.011625756274360403 0.0 -0.001066829347157509 0.0 0.0
0.020245095426537 -0.017318468306431776 0.0 -0.0015274937993710299 0.0 0.0
0.027476702980304576 -0.02424963055289156 0.0 -0.0020144204258304597 0.0 0.0
0.035985147956688536 -0.03243946424731177 0.0 -0.002502810925886888 0.0 0.0
0.0458377455506883 -0.04196210224452037 0.0 -0.0030402894189871512 0.0 0.0
0.05709179739107255 -0.052897754127030926 0.0 -0.0036462651816100413 0.0 0.0
0.06970509056375603 -0.06523855570751677 0.0 -0.004312837784288673 0.0 0.0
0.08341316845055877 -0.07874919908906457 0.0 -0.004999917984828585 0.0 0.0
0.09761369361040598 -0.09284536184598444 0.0 -0.005538969232894202 0.0 0.0
0.11135226752956388 -0.10656868680141317 0.0 -0.00563266221212648 0.0 0.0
0.12336062057627259 -0.11864778732572345 0.0 -0.0050225023303313784 0.0 0.0
0.13196327776449404 -0.12751031537897392 0.0 -0.0039300174122774 0.0 0.0
0.13517121297652848 -0.13112318274769527 0.0 5.863799029670602e-15 0.0 0.0
0.13196327776447805 -0.1275103153789569 0.0 0.003930017412291233 0.0 0.0
0.12336062057624075 -0.11864778732569006 0.0 0.0050225023303461505 0.0 0.0
0.11135226752951848 -0.10656868680137223 0.0 0.005632662212132963 0.0 0.0
0.09761369361035295 -0.09284536184592768 0.0 0.0055389692328958896 0.0 0.0
0.0834131684505025 -0.07874919908901469 0.0 0.004999917984825219 0.0 0.0
0.06970509056369821 -0.0652385557074654 0.0 0.0043128377842881396 0.0 0.0
0.0570917973910144 -0.05289775412697688 0.0 0.00364626518160953 0.0 0.0
0.045837745550631824 -0.0419621022444643 0.0 0.003040289418984157 0.0 0.0
0.035985147956636196 -0.03243946424725813 0.0 0.00250281092588385 0.0 0.0
0.027476702980258574 -0.024249630552848706 0.0 0.0020144204258247846 0.0 0.0
0.020245095426499195 -0.01731846830639658 0.0 0.0015274937993674386 0.0 0.0
0.014269796629363724 -0.011625756274332908 0.0 0.0010668293471571121 0.0 0.0
0.009557145793533842 -0.007194413672704165 0.0 0.0006836564001770984 0.0 0.0
0.006084020932553943 -0.004033081657592131 0.0 0.0003981359140887084 0.0 0.0
0.0037521353669357094 -0.0020284754056013802 0.0 0.00019768853309773158 0.0 0.0
0.002432876753253559 -0.001044243925017043 0.0 0.00016252580723898942 0.0 0.0
0.0018339205565773612 -0.0007802533421140315 0.0 0.0002082594130336416 0.0 0.0
0.0015763491846969417 -0.0004898135740432515 0.0 0.00042887193377394027 0.0 0.0
0.004888297041823133 -0.001306836853004716 0.0 0.005061715084064797 0.0 0.0
0.00827950001641241 -0.018538897686567836 0.0 0.00039194076582524926 0.0 0.0
0.0059826751283092 -0.014662618946441192 0.0 -0.003054649378131667 0.0 0.0
0.0034257250316780154 -0.0007064590354118974 0.0 -0.004952562728134709 0.0 0.0
0.0011115532260423317 -0.00028661213084686557 0.0 -0.00041144847935072786 0.0 0.0
0.0015672390563377682 -0.0006727836346019476 0.0 -0.0004778583135170868 0.0 0.0
0.002111784513569524 -0.0008769912255821965 0.0 -0.0004708639918952303 0.0 0.0
0.0031924323680694276 -0.0015949771756297141 0.0 -0.0005111585092164873 0.0 0.0
0.0052135180252945185 -0.003273944735926492 0.0 -0.0008845457234132672 0.0 0.0
0.008315676843969447 -0.006062505901928535 0.0 -0.0014506789995713664 0.0 0.0
0.012550503725381811 -0.010020839325070436 0.0 -0.0022021912830533247 0.0 0.0
0.0179143635037358 -0.015119724941999545 0.0 -0.003089163425129861 0.0 0.0
0.024373320274699264 -0.021300185920034236 0.0 -0.004032225158840885 0.0 0.0
0.031932481175290246 -0.028561793488520434 0.0 -0.004968301571705339 0.0 0.0
0.04066175849989962 -0.03698277673649095 0.0 -0.005921269866028934 0.0 0.0
0.05065225409404872 -0.04667679771565024 0.0 -0.006985129611013941 0.0 0.0
0.06189486888623857 -0.057663666579588074 0.0 -0.008172775886585546 0.0 0.0
0.07417051526674986 -0.06975205789472999 0.0 -0.009367425102877351 0.0 0.0
0.08697505641149897 -0.08244944885529452 0.0 -0.010277096753123932 0.0 0.0
0.09946538963004588 -0.09492008433991664 0.0 -0.01043249052818073 0.0 0.0
0.11042048165165734 -0.10597457701319007 0.0 -0.009427070638942539 0.0 0.0
0.11830389310738491 -0.11403417439364905 0.0 -0.007146971185145101 0.0 0.0
0.12127157459774288 -0.1175041173357978 0.0 1.2257989762121113e-14 0.0 0.0
0.11830389310736986 -0.11403417439363522 0.0 0.0071469711851703 0.0 0.0
0.11042048165162865 -0.10597457701315861 0.0 0.009427070638967083 0.0 0.0
0.09946538963000662 -0.0949200843398764 0.0 0.01043249052819448 0.0 0.0
0.08697505641145285 -0.08244944885524877 0.0 0.010277096753127275 0.0 0.0
0.07417051526669953 -0.06975205789467716 0.0 0.009367425102874005 0.0 0.0
0.061894868886187074 -0.05766366657954666 0.0 0.008172775886583111 0.0 0.0
0.05065225409399704 -0.046676797715599225 0.0 0.006985129611011231 0.0 0.0
0.04066175849984979 -0.036982776736442284 0.0 0.005921269866023397 0.0 0.0
0.03193248117524388 -0.02856179348847357 0.0 0.0049683015716984955 0.0 0.0
0.024373320274658068 -0.021300185919995697 0.0 0.004032225158832805 0.0 0.0
0.017914363503702183 -0.015119724941966589 0.0 0.003089163425121633 0.0 0.0
0.01255050372535575 -0.010020839325043775 0.0 0.002202191283049663 0.0 0.0
0.008315676843950584 -0.006062505901912835 0.0 0.0014506789995657066 0.0 0.0
0.005213518025282969 -0.00327394473591601 0.0 0.0008845457234099865 0.0 0.0
0.0031924323680639142 -0.0015949771756263065 0.0 0.0005111585092164731 0.0 0.0
0.002111784513567478 -0.0008769912255797216 0.0 0.0004708639918945437 0.0 0.0
0.001567239056337261 -0.0006727836346023432 0.0 0.000477858313517335 0.0 0.0
0.0011115532260424106 -0.00028661213084777494 0.0 0.0004114484793504591 0.0 0.0
0.003425725031672445 -0.0007064590354091618 0.0 0.004952562728120551 0.0 0.0
0.005982675128297778 -0.0146626189464175 0.0 0.0030546493781116136 0.0 0.0
0.004461851988646375 -0.011743098107338795 0.0 -0.0034712102048624063 0.0 0.0
0.002497411758758475 -0.000516278910857228 0.0 -0.004522310291720712 0.0 0.0
0.0007967229472623536 -0.00016247163566604757 0.0 -0.0007012059256797287 0.0 0.0
0.0013004160682907767 -0.0005411623608996514 0.0 -0.0007377218997021488 0.0 0.0
0.0018131085190202373 -0.0007492743768806719 0.0 -0.0007839271148762106 0.0 0.0
0.0026782351101258205 -0.0012422653474504688 0.0 -0.0008121137128852058 0.0 0.0
0.004364656789837786 -0.002555346197842831 0.0 -0.0012107226643419298 0.0 0.0
0.007071976557374685 -0.0049468047440797205 0.0 -0.002013664355628299 0.0 0.0
0.010813898051334427 -0.008412831377450006 0.0 -0.003047317057362567 0.0 0.0
0.01555506058714401 -0.01290289025588952 0.0 -0.004264584589388047 0.0 0.0
0.021238765090062398 -0.01833073746106769 0.0 -0.00555391032761761 0.0 0.0
0.02785523706995819 -0.02467332182458856 0.0 -0.006832007908788082 0.0 0.0
0.035471198794494604 -0.03200173997373294 0.0 -0.00811993428934937 0.0 0.0
0.04418566618056186 -0.040443412869514805 0.0 -0.009517347783341802 0.0 0.0
0.0540328625279077 -0.05005349397915512 0.0 -0.011069140027368725 0.0 0.0
0.0648626391935223 -0.06069974246609211 0.0 -0.012647472315293205 0.0 0.0
0.07626208533925223 -0.07198843818873688 0.0 -0.013873644790405214 0.0 0.0
0.08750327774915598 -0.08320941216996311 0.0 -0.014170990888077035 0.0 0.0
0.09748845170704373 -0.09327632450322292 0.0 -0.012941436924654855 0.0 0.0
0.10484749296720505 -0.10076909730008476 0.0 -0.00953688378824489 0.0 0.0
0.10768947496311278 -0.10432091028022122 0.0 1.5333220804158998e-14 0.0 0.0
0.10484749296719105 -0.1007690973000744 0.0 0.00953688378828025 0.0 0.0
0.09748845170701836 -0.09327632450319595 0.0 0.012941436924687997 0.0 0.0
0.08750327774912157 -0.08320941216992844 0.0 0.014170990888096958 0.0 0.0
0.07626208533921233 -0.0719884381886987 0.0 0.013873644790409888 0.0 0.0
0.06486263919347829 -0.060699742466046064 0.0 0.012647472315288056 0.0 0.0
0.05403286252786207 -0.050053493979115696 0.0 0.01106914002736467 0.0 0.0
0.04418566618051663 -0.04044341286946497 0.0 0.009517347783336256 0.0 0.0
0.03547119879445098 -0.03200173997369097 0.0 0.0081199342893425 0.0 0.0
0.027855237069917677 -0.02467332182454968 0.0 0.006832007908777695 0.0 0.0
0.021238765090026177 -0.018330737461031945 0.0 0.005553910327607218 0.0 0.0
0.015555060587114419 -0.012902890255860531 0.0 0.004264584589377664 0.0 0.0
0.010813898051311497 -0.008412831377428143 0.0 0.0030473170573553413 0.0 0.0
0.0070719765573582505 -0.004946804744065501 0.0 0.002013664355623231 0.0 0.0
0.004364656789828284 -0.002555346197833904 0.0 0.0012107226643384662 0.0 0.0
0.002678235110121359 -0.0012422653474477012 0.0 0.0008121137128844946 0.0 0.0
0.0018131085190187203 -0.0007492743768794856 0.0 0.0007839271148746564 0.0 0.0
0.0013004160682904527 -0.0005411623608993764 0.0 0.0007377218997013173 0.0 0.0
0.0007967229472622708 -0.00016247163566665372 0.0 0.0007012059256795821 0.0 0.0
0.002497411758753516 -0.0005162789108547408 0.0 0.004522310291708309 0.0 0.0
0.0044618519886364385 -0.011743098107317853 0.0 0.0034712102048475484 0.0 0.0
0.003344327616309331 -0.009407254706064216 0.0 -0.0031207250874140313 0.0 0.0
0.001846302256577339 -0.0004390653226012459 0.0 -0.004057338443797558 0.0 0.0
0.0005787506007230419 -9.799082911726561e-05 0.0 -0.0010775100380145404 0.0 0.0
0.0010511658989059678 -0.0004102339657244003 0.0 -0.0010166035555932331 0.0 0.0
0.0015282814528930658 -0.0006337743002373401 0.0 -0.0010905842168418796 0.0 0.0
0.002219036840993299 -0.0009753459373280278 0.0 -0.0011159226738358282 0.0 0.0
0.0035606545831207 -0.0019226483554422693 0.0 -0.0014521930091870724 0.0 0.0
0.005838518843643138 -0.003859386848694797 0.0 -0.002331449720183732 0.0 0.0
0.009075480744506535 -0.006820601971034483 0.0 -0.0035948244982592636 0.0 0.0
0.013183052209770422 -0.010688311582496892 0.0 -0.005045803660929127 0.0 0.0
0.018090522249092394 -0.015360237323420931 0.0 -0.006578877770118993 0.0 0.0
0.02376876947520211 -0.020789382248505833 0.0 -0.008093004693923744 0.0 0.0
0.030274918850897593 -0.02703363453911011 0.0 -0.009612007845776259 0.0 0.0
0.03771975793792164 -0.03422426496863042 0.0 -0.011241385233567096 0.0 0.0
0.046160622579562126 -0.04244539015225086 0.0 -0.0130262707240703 0.0 0.0
0.05551275885028507 -0.05162589876149256 0.0 -0.014829759849325386 0.0 0.0
0.06547836449810006 -0.06147433067831044 0.0 -0.01628653578879914 0.0 0.0
0.07546275653571778 -0.07141993052958542 0.0 -0.016790238392498956 0.0 0.0
0.0845357476662184 -0.08054936570030075 0.0 -0.015489804014538809 0.0 0.0
0.09149564523934893 -0.08762839558316378 0.0 -0.011365579819867378 0.0 0.0
0.09428451411019043 -0.09138646780467632 0.0 1.7446981359636737e-14 0.0 0.0
0.09149564523933595 -0.08762839558314864 0.0 0.011365579819907625 0.0 0.0
0.08453574766619529 -0.08054936570028379 0.0 0.015489804014574709 0.0 0.0
0.0754627565356877 -0.0714199305295564 0.0 0.016790238392522198 0.0 0.0
0.0654783644980655 -0.06147433067827722 0.0 0.01628653578880713 0.0 0.0
0.055512758850246986 -0.051625898761460634 0.0 0.01482975984931844 0.0 0.0
0.04616062257952259 -0.04244539015221419 0.0 0.013026270724065727 0.0 0.0
0.03771975793788273 -0.03422426496859196 0.0 0.011241385233561805 0.0 0.0
0.030274918850860685 -0.027033634539073634 0.0 0.00961200784577056 0.0 0.0
0.023768769475167713 -0.02078938224847283 0.0 0.008093004693912238 0.0 0.0
0.01809052224906159 -0.015360237323390855 0.0 0.006578877770105962 0.0 0.0
0.01318305220974475 -0.010688311582473116 0.0 0.005045803660916808 0.0 0.0
0.009075480744486702 -0.006820601971016624 0.0 0.0035948244982493913 0.0 0.0
0.005838518843629325 -0.0038593868486859507 0.0 0.0023314497201793534 0.0 0.0
0.00356065458311313 -0.0019226483554359193 0.0 0.0014521930091837682 0.0 0.0
0.0022190368409904363 -0.0009753459373267742 0.0 0.001115922673834594 0.0 0.0
0.001528281452892083 -0.0006337743002365019 0.0 0.0010905842168418328 0.0 0.0
0.0010511658989057193 -0.00041023396572457775 0.0 0.0010166035555910556 0.0 0.0
0.0005787506007229042 -9.799082911721831e-05 0.0 0.001077510038012825 0.0 0.0
0.0018463022565728998 -0.0004390653225998217 0.0 0.004057338443787369 0.0 0.0
0.0033443276163008626 -0.009407254706046104 0.0 0.0031207250874031194 0.0 0.0
0.002483980447839134 -0.00747277087923463 0.0 -0.002616799924449235 0.0 0.0
0.0013614376285303337 -0.0003970894524366523 0.0 -0.003609016952866937 0.0 0.0
0.0004190686540297447 -7.021393120809868e-05 0.0 -0.0014331705595402452 0.0 0.0
0.0008207606344645442 -0.00029135669656368563 0.0 -0.0013014478903544471 0.0 0.0
0.0012530398716329933 -0.0005192723807679022 0.0 -0.0013797050552006446 0.0 0.0
0.001805067863732052 -0.0007693749583967797 0.0 -0.0014135777293940487 0.0 0.0
0.0028295043430251604 -0.001408200752348988 0.0 -0.0016835814783311962 0.0 0.0
0.004646282471035735 -0.002851813667602145 0.0 -0.002467180353791249 0.0 0.0
0.007342808400980285 -0.0052612343073898254 0.0 -0.0038106091053578123 0.0 0.0
0.010814917527288687 -0.00849726709889698 0.0 -0.0054215690039912156 0.0 0.0
0.014943380005030985 -0.012408312746260934 0.0 -0.007094288345215633 0.0 0.0
0.019689283558374474 -0.0169290306161928 0.0 -0.008746372298936897 0.0 0.0
0.02509556088151436 -0.02209798016634984 0.0 -0.010388332738102761 0.0 0.0
0.031269235665095214 -0.02804272805972194 0.0 -0.012127863141123008 0.0 0.0
0.03830181409884598 -0.03487103411179626 0.0 -0.014024178033416141 0.0 0.0
0.04616395764364362 -0.042569185099161626 0.0 -0.015934944192899862 0.0 0.0
0.054646182670186866 -0.05093405591101951 0.0 -0.017511241399302907 0.0 0.0
0.06333159034790868 -0.05955315514378723 0.0 -0.01819606471977323 0.0 0.0
0.07151086136162138 -0.0677529251332938 0.0 -0.017040620957580608 0.0 0.0
0.07814991119318336 -0.07450691677956764 0.0 -0.012692529808829718 0.0 0.0
0.0809364680449351 -0.07857547723567136 0.0 1.7759231585312563e-14 0.0 0.0
0.07814991119317147 -0.07450691677955747 0.0 0.012692529808868449 0.0 0.0
0.07151086136160158 -0.0677529251332754 0.0 0.017040620957618626 0.0 0.0
0.06333159034788376 -0.059553155143761305 0.0 0.018196064719798566 0.0 0.0
0.05464618267015775 -0.050934055910991656 0.0 0.017511241399308944 0.0 0.0
0.04616395764361136 -0.04256918509913809 0.0 0.015934944192892736 0.0 0.0
0.0383018140988129 -0.03487103411176636 0.0 0.014024178033409256 0.0 0.0
0.03126923566506343 -0.028042728059693607 0.0 0.012127863141117806 0.0 0.0
0.025095560881483646 -0.022097980166322244 0.0 0.010388332738094646 0.0 0.0
0.019689283558345035 -0.01692903061616541 0.0 0.008746372298924178 0.0 0.0
0.014943380005005138 -0.012408312746238104 0.0 0.007094288345200853 0.0 0.0
0.010814917527267244 -0.008497267098878448 0.0 0.005421569003978065 0.0 0.0
0.007342808400964048 -0.0052612343073754515 0.0 0.003810609105348239 0.0 0.0
0.004646282471024761 -0.002851813667593619 0.0 0.0024671803537857644 0.0 0.0
0.0028295043430191396 -0.0014082007523452053 0.0 0.0016835814783289146 0.0 0.0
0.0018050678637297002 -0.0007693749583949219 0.0 0.0014135777293924508 0.0 0.0
0.0012530398716321574 -0.0005192723807678224 0.0 0.0013797050552000405 0.0 0.0
0.000820760634464349 -0.0002913566965641785 0.0 0.0013014478903523776 0.0 0.0
0.00041906865402976517 -7.02139312079525e-05 0.0 0.001433170559537681 0.0 0.0
0.0013614376285267763 -0.0003970894524356591 0.0 0.003609016952858769 0.0 0.0
0.002483980447832107 -0.007472770879219468 0.0 0.002616799924441641 0.0 0.0
0.0018138109947770762 -0.005851635128276106 0.0 -0.002151019619398668 0.0 0.0
0.0009895074660363206 -0.0003704561583472746 0.0 -0.0032048212033467444 0.0 0.0
0.0002920086022815095 -5.7640338655203256e-05 0.0 -0.0017278661131706308 0.0 0.0
0.0006062608728883073 -0.0001868610105951223 0.0 -0.0015698221254211242 0.0 0.0
0.0009824120472577346 -0.0003983866383695905 0.0 -0.001637615189084895 0.0 0.0
0.001421304154236234 -0.0006036442856834493 0.0 -0.0017082741269236913 0.0 0.0
0.002170345618057669 -0.0010028197089529591 0.0 -0.0018927290355106952 0.0 0.0
0.003535307773717331 -0.001984832828679293 0.0 -0.0025321889099716374 0.0 0.0
0.005652195768070782 -0.003784450108351399 0.0 -0.003733206937282338 0.0 0.0
0.008461978544167656 -0.006354295076847566 0.0 -0.005355070457036636 0.0 0.0
0.01181423934605569 -0.009498533786817297 0.0 -0.00707987620572115 0.0 0.0
0.01563141592070727 -0.01311271609523925 0.0 -0.008774061427302964 0.0 0.0
0.019947688859828182 -0.017217701275907604 0.0 -0.01043705142934662 0.0 0.0
0.02486352383451722 -0.0219277437251629 0.0 -0.012172211973734274 0.0 0.0
0.030483211199986725 -0.027362280962481254 0.0 -0.01403570095257251 0.0 0.0
0.03683388765655945 -0.03356335404992214 0.0 -0.01593560039459454 0.0 0.0
0.043800153002174616 -0.04040631911387058 0.0 -0.01753648185074282 0.0 0.0
0.05112062866572568 -0.04762806616564926 0.0 -0.018352760540965435 0.0 0.0
0.058353499826206565 -0.054838083329998635 0.0 -0.017521996462437482 0.0 0.0
0.06469916431369538 -0.06129026665068818 0.0 -0.013491299848517095 0.0 0.0
0.06752063886988258 -0.06576950944746683 0.0 1.6099101218802758e-14 0.0 0.0
0.06469916431368508 -0.061290266650675704 0.0 0.013491299848557077 0.0 0.0
0.05835349982618983 -0.05483808332997841 0.0 0.017521996462476656 0.0 0.0
0.051120628665705256 -0.04762806616562734 0.0 0.018352760540988906 0.0 0.0
0.04380015300215068 -0.04040631911384794 0.0 0.01753648185074687 0.0 0.0
0.036833887656532734 -0.0335633540499001 0.0 0.015935600394585966 0.0 0.0
0.03048321119995994 -0.027362280962458786 0.0 0.014035700952565726 0.0 0.0
0.024863523834492158 -0.021927743725138574 0.0 0.012172211973729538 0.0 0.0
0.019947688859804007 -0.01721770127588588 0.0 0.010437051429336089 0.0 0.0
0.015631415920684122 -0.01311271609521602 0.0 0.00877406142729068 0.0 0.0
0.011814239346035241 -0.009498533786798314 0.0 0.007079876205706631 0.0 0.0
0.008461978544150473 -0.006354295076832506 0.0 0.005355070457022945 0.0 0.0
0.005652195768057972 -0.0037844501083403783 0.0 0.003733206937274936 0.0 0.0
0.0035353077737093506 -0.001984832828671681 0.0 0.002532188909966877 0.0 0.0
0.0021703456180538587 -0.001002819708951798 0.0 0.0018927290355090745 0.0 0.0
0.0014213041542347551 -0.0006036442856828185 0.0 0.0017082741269211802 0.0 0.0
0.0009824120472573044 -0.0003983866383697475 0.0 0.0016376151890821187 0.0 0.0
0.0006062608728882885 -0.00018686101059510468 0.0 0.001569822125419182 0.0 0.0
0.0002920086022811032 -5.7640338654808634e-05 0.0 0.001727866113168506 0.0 0.0
0.0009895074660333891 -0.00037045615834629107 0.0 0.003204821203339983 0.0 0.0
0.0018138109947718993 -0.005851635128263927 0.0 0.002151019619395624 0.0 0.0
0.0012911155314458203 -0.004503767519669799 0.0 -0.0018002887718310823 0.0 0.0
0.0006982999936169033 -0.0003566399705488897 0.0 -0.0028413702039086913 0.0 0.0
0.00018070637057635954 -4.444069500685143e-05 0.0 -0.001955126000901313 0.0 0.0
0.00040342091497322374 -9.48982340084313e-05 0.0 -0.001803615569525178 0.0 0.0
0.0007106798735569562 -0.0002718472919039706 0.0 -0.0018572208415948764 0.0 0.0
0.0010588006317786797 -0.00045181209801155005 0.0 -0.0019756821002517274 0.0 0.0
0.001577511536003824 -0.0006928573888002079 0.0 -0.002107067991768453 0.0 0.0
0.0025188152016522693 -0.0012793138395366527 0.0 -0.0025435889516216715 0.0 0.0
0.0040504646542854315 -0.002467071682653996 0.0 -0.0034766568149094453 0.0 0.0
0.0061582648486638684 -0.004316660185052211 0.0 -0.004874334026483374 0.0 0.0
0.008713959247007805 -0.0066645046211551645 0.0 -0.006505729181510562 0.0 0.0
0.01160993963018815 -0.009370649946253844 0.0 -0.008135636497768488 0.0 0.0
0.014850192124671785 -0.012421888432287273 0.0 -0.009728201815043917 0.0 0.0
0.018520005963140167 -0.015912522461975605 0.0 -0.011349389531775337 0.0 0.0
0.022732635209369977 -0.019960596168092086 0.0 -0.01306430109716537 0.0 0.0
0.02755874169822878 -0.024647541956709342 0.0 -0.014808405199537977 0.0 0.0
0.032963350064262986 -0.029935535802411983 0.0 -0.01633245830653562 0.0 0.0
0.038837453324619714 -0.03568185016119846 0.0 -0.017197914191413366 0.0 0.0
0.045017701726159425 -0.041769874344730604 0.0 -0.016806543598820438 0.0 0.0
0.05102576742889881 -0.04785474029035296 0.0 -0.013671209451811713 0.0 0.0
0.05389350212828411 -0.0528425880095373 0.0 1.3886461425194341e-14 0.0 0.0
0.05102576742889098 -0.04785474029034583 0.0 0.013671209451847306 0.0 0.0
0.04501770172614605 -0.04176987434471524 0.0 0.016806543598858116 0.0 0.0
0.03883745332460397 -0.035681850161181326 0.0 0.01719791419143584 0.0 0.0
0.03296335006424475 -0.02993553580239891 0.0 0.01633245830653833 0.0 0.0
0.027558741698208496 -0.02464754195668864 0.0 0.014808405199529098 0.0 0.0
0.022732635209349976 -0.019960596168071738 0.0 0.0130643010971584 0.0 0.0
0.018520005963121526 -0.0159125224619564 0.0 0.011349389531770728 0.0 0.0
0.014850192124654337 -0.012421888432271405 0.0 0.009728201815034858 0.0 0.0
0.011609939630171415 -0.009370649946239578 0.0 0.008135636497757703 0.0 0.0
0.008713959246992474 -0.006664504621138709 0.0 0.006505729181496881 0.0 0.0
0.006158264848651386 -0.00431666018503932 0.0 0.004874334026470216 0.0 0.0
0.004050464654276655 -0.0024670716826479637 0.0 0.003476656814903641 0.0 0.0
0.0025188152016468383 -0.0012793138395331516 0.0 0.0025435889516179392 0.0 0.0
0.0015775115360013331 -0.0006928573887990136 0.0 0.002107067991766488 0.0 0.0
0.0010588006317778676 -0.00045181209801154203 0.0 0.001975682100249187 0.0 0.0
0.0007106798735567002 -0.00027184729190215607 0.0 0.0018572208415925501 0.0 0.0
0.00040342091497324386 -9.489823400780852e-05 0.0 0.0018036155695227256 0.0 0.0
0.00018070637057638716 -4.4440695006353183e-05 0.0 0.0019551260008987023 0.0 0.0
0.0006982999936152224 -0.00035663997054847824 0.0 0.002841370203904201 0.0 0.0
0.0012911155314425783 -0.004503767519660528 0.0 0.0018002887718291248 0.0 0.0
0.0009049075651943637 -0.0034310651517806875 0.0 -0.0015995389555739847 0.0 0.0
0.0004717687015070303 -0.0003559677618250555 0.0 -0.002533303759173014 0.0 0.0
7.123431489104742e-05 -2.0946555169129627e-05 0.0 -0.002118854964617387 0.0 0.0
0.00020998941203988295 -1.2461106608657701e-05 0.0 -0.0019912488226601264 0.0 0.0
0.00043803889188016366 -0.0001448422385882598 0.0 -0.0020326142424194624 0.0 0.0
0.0006973541149625603 -0.00029137451734389863 0.0 -0.002180593650208933 0.0 0.0
0.0010375354293023207 -0.0004501085451533701 0.0 -0.0023436432376777927 0.0 0.0
0.0016082235113362 -0.0007472701085454485 0.0 -0.002580688405869171 0.0 0.0
0.002568100015411169 -0.001382026170074804 0.0 -0.0031426264034976263 0.0 0.0
0.00395386652001812 -0.002487354647521238 0.0 -0.004106586023285685 0.0 0.0
0.005679149387098375 -0.003989252140318701 0.0 -0.005404361331471022 0.0 0.0
0.007640493219271535 -0.0057663128586729374 0.0 -0.006802602697644745 0.0 0.0
0.009813981583146164 -0.007763528095331516 0.0 -0.008225810802288003 0.0 0.0
0.01225851265283828 -0.0100509828598968 0.0 -0.009657408299747702 0.0 0.0
0.01507403232046553 -0.012723757562776392 0.0 -0.011118922960372582 0.0 0.0
0.018361561863897567 -0.01588390649432874 0.0 -0.01261114545691815 0.0 0.0
0.022176577269044602 -0.019579957258103263 0.0 -0.013982675935845925 0.0 0.0
0.026517167385313945 -0.023792290751364405 0.0 -0.01485043172401572 0.0 0.0
0.03145827331219295 -0.028571104768153277 0.0 -0.014762602853911944 0.0 0.0
0.03699027651803526 -0.034069085468960154 0.0 -0.01297453669790792 0.0 0.0
0.039879675186380505 -0.03963412019397968 0.0 9.956879071237879e-15 0.0 0.0
0.036990276518030295 -0.03406908546895825 0.0 0.012974536697938247 0.0 0.0
0.031458273312183704 -0.028571104768140895 0.0 0.014762602853946566 0.0 0.0
0.026517167385302496 -0.02379229075135095 0.0 0.014850431724033622 0.0 0.0
0.02217657726903168 -0.019579957258097237 0.0 0.013982675935844804 0.0 0.0
0.018361561863883883 -0.015883906494318065 0.0 0.012611145456910083 0.0 0.0
0.0150740323204526 -0.012723757562757588 0.0 0.011118922960366373 0.0 0.0
0.012258512652826825 -0.010050982859887049 0.0 0.009657408299743458 0.0 0.0
0.009813981583135411 -0.007763528095321229 0.0 0.008225810802281599 0.0 0.0
0.007640493219260474 -0.005766312858662903 0.0 0.006802602697635014 0.0 0.0
0.005679149387087958 -0.003989252140310647 0.0 0.005404361331459297 0.0 0.0
0.003953866520010169 -0.0024873546475134936 0.0 0.004106586023276655 0.0 0.0
0.002568100015406106 -0.0013820261700704711 0.0 0.003142626403493129 0.0 0.0
0.001608223511333166 -0.0007472701085468572 0.0 0.0025806884058671106 0.0 0.0
0.001037535429300803 -0.00045010854515380074 0.0 0.002343643237675981 0.0 0.0
0.0006973541149618156 -0.0002913745173422263 0.0 0.0021805936502066223 0.0 0.0
0.00043803889187978283 -0.00014484223858631003 0.0 0.002032614242418213 0.0 0.0
0.00020998941203979762 -1.2461106608040373e-05 0.0 0.001991248822658574 0.0 0.0
7.123431489087767e-05 -2.094655516848854e-05 0.0 0.00211885496461467 0.0 0.0
0.000471768701505624 -0.00035596776182490665 0.0 0.002533303759168846 0.0 0.0
0.0009049075651920164 -0.003431065151774118 0.0 0.0015995389555727448 0.0 0.0
0.0006376350394246013 -0.002613853166735527 0.0 -0.001494898317766895 0.0 0.0
0.0003015770649920662 -0.0003670546750469222 0.0 -0.0023140340952637864 0.0 0.0
-3.7971109382550604e-05 1.3887573291843586e-05 0.0 -0.0022221588636511446 0.0 0.0
2.374462004396419e-05 6.323504157898964e-05 0.0 -0.002126874989190022 0.0 0.0
0.00016769688771953468 -2.0179374798361405e-05 0.0 -0.002158027625270103 0.0 0.0
0.0003279663549626922 -0.00012195908738862752 0.0 -0.0023111012000042665 0.0 0.0
0.0005160489981391658 -0.00022166434354207076 0.0 -0.0025243573694655355 0.0 0.0
0.0007898369040060245 -0.00035018743793212347 0.0 -0.002714813927865347 0.0 0.0
0.0012338180552932153 -0.0005911563336221978 0.0 -0.0029532372657450475 0.0 0.0
0.0018988859686359045 -0.0010420904724052326 0.0 -0.003400549986333636 0.0 0.0
0.0027627789925009547 -0.0017018586339225736 0.0 -0.004147590308654058 0.0 0.0
0.003757519812361234 -0.0025225600954046283 0.0 -0.005128345607048836 0.0 0.0
0.0048519923492036255 -0.0034493780779874883 0.0 -0.006232589293893541 0.0 0.0
0.006084232288658802 -0.004526466104010527 0.0 -0.0074134513268096286 0.0 0.0
0.007518133629472692 -0.00582482551881784 0.0 -0.008673753982741735 0.0 0.0
0.009256488277847435 -0.007435892691968872 0.0 -0.010022636427739868 0.0 0.0
0.01144119835990798 -0.009490476299562182 0.0 -0.011358798757251435 0.0 0.0
0.014215874595030176 -0.012130059502532844 0.0 -0.012323634123215658 0.0 0.0
0.017730549119267972 -0.01548780007245405 0.0 -0.01234387776980322 0.0 0.0
0.022450969629409023 -0.01993104489958967 0.0 -0.011305543076214807 0.0 0.0
0.02520806542822416 -0.02596356604489234 0.0 8.709612892010554e-15 0.0 0.0
0.022450969629406632 -0.01993104489958243 0.0 0.011305543076240012 0.0 0.0
0.017730549119263046 -0.015487800072449372 0.0 0.012343877769829894 0.0 0.0
0.014215874595023376 -0.012130059502522498 0.0 0.012323634123226828 0.0 0.0
0.011441198359901032 -0.009490476299559547 0.0 0.011358798757246644 0.0 0.0
0.009256488277841136 -0.0074358926919636265 0.0 0.010022636427732734 0.0 0.0
0.007518133629467133 -0.005824825518809982 0.0 0.008673753982736322 0.0 0.0
0.006084232288654324 -0.004526466104010284 0.0 0.00741345132680607 0.0 0.0
0.00485199234919926 -0.0034493780779812663 0.0 0.006232589293888235 0.0 0.0
0.0037575198123562165 -0.002522560095401331 0.0 0.00512834560703991 0.0 0.0
0.002762778992496669 -0.0017018586339198796 0.0 0.004147590308645953 0.0 0.0
0.0018988859686329923 -0.0010420904724033858 0.0 0.0034005499863285745 0.0 0.0
0.0012338180552914004 -0.0005911563336207624 0.0 0.002953237265742858 0.0 0.0
0.0007898369040049126 -0.0003501874379326191 0.0 0.0027148139278639306 0.0 0.0
0.0005160489981384749 -0.00022166434354267195 0.0 0.002524357369462984 0.0 0.0
0.0003279663549625284 -0.0001219590873886221 0.0 0.002311101200002448 0.0 0.0
0.0001676968877196719 -2.0179374798291027e-05 0.0 0.002158027625268248 0.0 0.0
2.3744620043986358e-05 6.32350415794622e-05 0.0 0.002126874989188071 0.0 0.0
-3.79711093827698e-05 1.3887573292337113e-05 0.0 0.0022221588636484584 0.0 0.0
0.0003015770649914572 -0.0003670546750467727 0.0 0.0023140340952612507 0.0 0.0
0.0006376350394238212 -0.0026138531667312375 0.0 0.0014948983177668698 0.0 0.0
0.0004494864858149107 -0.0020109600146972204 0.0 -0.0014349265432895071 0.0 0.0
0.00017384211556780671 -0.00037145170651562586 0.0 -0.0021609375227440233 0.0 0.0
-0.00014131296207489037 5.1753711517359575e-05 0.0 -0.002272265083910874 0.0 0.0
-0.00015582427491792953 0.0001350824724427975 0.0 -0.0022075604455312316 0.0 0.0
-9.80385195728688e-05 0.00010081593509496663 0.0 -0.002227438671398385 0.0 0.0
-4.4655186537115e-05 4.911044307169242e-05 0.0 -0.0023680577667628245 0.0 0.0
-1.5060521178612889e-05 1.3566680412403505e-05 0.0 -0.002591435676893223 0.0 0.0
-3.421710094094751e-06 2.5024019912515392e-06 0.0 -0.0028096766561724927 0.0 0.0
-3.671156723934624e-08 -3.6691559235130824e-07 0.0 -0.0029373890339623623 0.0 0.0
6.139313025797886e-07 -2.3809410026823382e-07 0.0 -0.0031241241597088085 0.0 0.0
3.767648311943199e-07 -1.1322460947689141e-06 0.0 -0.003542180867315624 0.0 0.0
-3.204083211514209e-06 2.657880121614923e-06 0.0 -0.00427263992648016 0.0 0.0
-1.3441770447303607e-05 1.087026960417485e-05 0.0 -0.005173737872701851 0.0 0.0
-2.5999028446773874e-05 2.47975722219151e-05 0.0 -0.006219702052366808 0.0 0.0
-4.190778104314107e-06 1.5339184821958692e-05 0.0 -0.007429920531383719 0.0 0.0
0.00016473046886396195 -0.00011089855278062114 0.0 -0.008802798736399683 0.0 0.0
0.0007085635984341882 -0.0005512819981590865 0.0 -0.010288900883262533 0.0 0.0
0.0019339833286205876 -0.0015972367625935275 0.0 -0.011726966225961402 0.0 0.0
0.004065385119765452 -0.0034282440190724663 0.0 -0.012810598858040843 0.0 0.0
0.0075234225952695915 -0.0062079159775519765 0.0 -0.013116372411534434 0.0 0.0
0.009673001386848413 -0.012593008587486744 0.0 9.293781022545744e-15 0.0 0.0
0.007523422595269465 -0.006207915977547725 0.0 0.013116372411551142 0.0 0.0
0.004065385119764023 -0.003428244019075809 0.0 0.012810598858053992 0.0 0.0
0.0019339833286196042 -0.0015972367625900563 0.0 0.011726966225960471 0.0 0.0
0.0007085635984349463 -0.0005512819981542392 0.0 0.010288900883255655 0.0 0.0
0.00016473046886514428 -0.00011089855277609324 0.0 0.00880279873639335 0.0 0.0
-4.190778103117473e-06 1.5339184819570357e-05 0.0 0.007429920531377249 0.0 0.0
-2.5999028444562535e-05 2.4797572222120775e-05 0.0 0.006219702052363557 0.0 0.0
-1.3441770444663466e-05 1.0870269602336152e-05 0.0 0.0051737378726957935 0.0 0.0
-3.2040832093022196e-06 2.6578801194805082e-06 0.0 0.00427263992647222 0.0 0.0
3.7676483283309147e-07 -1.1322460946144289e-06 0.0 0.0035421808673103744 0.0 0.0
6.139313037320786e-07 -2.3809410215572138e-07 0.0 0.0031241241597056183 0.0 0.0
-3.671156639163567e-08 -3.6691559483740415e-07 0.0 0.0029373890339616086 0.0 0.0
-3.4217100936014526e-06 2.502401992960425e-06 0.0 0.002809676656171705 0.0 0.0
-1.5060521178378173e-05 1.356668041438052e-05 0.0 0.00259143567689034 0.0 0.0
-4.465518653698911e-05 4.911044306928621e-05 0.0 0.00236805776676135 0.0 0.0
-9.803851957275933e-05 0.00010081593509312238 0.0 0.0022274386713966895 0.0 0.0
-0.00015582427491793539 0.000135082472443671 0.0 0.0022075604455288698 0.0 0.0
-0.00014131296207474565 5.175371151730879e-05 0.0 0.0022722650839090367 0.0 0.0
0.00017384211556757296 -0.0003714517065157587 0.0 0.0021609375227427514 0.0 0.0
0.0004494864858140181 -0.0020109600146944796 0.0 0.001434926543288828 0.0 0.0
0.00032126348989411233 -0.0015578229393360048 0.0 -0.00136431693086149 0.0 0.0
7.930520764469172e-05 -0.00035534811448256857 0.0 -0.002024969991349495 0.0 0.0
-0.0002374550736591291 8.693537330454463e-05 0.0 -0.002273258834657053 0.0 0.0
-0.0003278175119570801 0.00020402699577019495 0.0 -0.0022323017663219763 0.0 0.0
-0.00035761059524783617 0.00021651210237229828 0.0 -0.002237059679485543 0.0 0.0
-0.0004134202855639313 0.00021836881505617428 0.0 -0.0023512870883705 0.0 0.0
-0.0005452941343293533 0.0002485163901179013 0.0 -0.002542213104053422 0.0 0.0
-0.0007969042737071548 0.00035511960694856003 0.0 -0.002721367227679677 0.0 0.0
-0.0012336403708400503 0.0005903579129386539 0.0 -0.002955510269433781 0.0 0.0
-0.0018969717259537527 0.0010406942165016135 0.0 -0.003399184512664577 0.0 0.0
-0.0027617249636236766 0.0017004687954067722 0.0 -0.00414338997670889 0.0 0.0
-0.0037647121150077524 0.002528661184681309 0.0 -0.0051260203820407335 0.0 0.0
-0.004880026057412477 0.0034736897097549747 0.0 -0.006226156736351159 0.0 0.0
-0.006135713974762248 0.004578503106342969 0.0 -0.00740326501135066 0.0 0.0
-0.007523070123394988 0.005857059273985973 0.0 -0.008681602322114155 0.0 0.0
-0.008933025722722135 0.007212131943667292 0.0 -0.010146696208880646 0.0 0.0
-0.010106444088054377 0.00839291124833876 0.0 -0.011867492905143915 0.0 0.0
-0.010646970737081865 0.008995647201371441 0.0 -0.013910219773144734 0.0 0.0
-0.010093026153072058 0.008647327736488932 0.0 -0.016171086597001404 0.0 0.0
-0.007099390756365502 0.006488228384565434 0.0 -0.017121652492584873 0.0 0.0
-0.004715924161580759 -0.0005845595081786453 0.0 1.0807327255335508e-14 0.0 0.0
-0.007099390756366078 0.006488228384566025 0.0 0.017121652492601384 0.0 0.0
-0.010093026153069532 0.008647327736486713 0.0 0.01617108659701597 0.0 0.0
-0.010646970737074981 0.008995647201364929 0.0 0.013910219773148613 0.0 0.0
-0.010106444088044942 0.008392911248340207 0.0 0.011867492905137136 0.0 0.0
-0.008933025722713426 0.007212131943661333 0.0 0.010146696208873408 0.0 0.0
-0.007523070123386643 0.005857059273976094 0.0 0.008681602322106888 0.0 0.0
-0.006135713974753626 0.004578503106338203 0.0 0.007403265011344834 0.0 0.0
-0.004880026057403187 0.00347368970974547 0.0 0.006226156736342688 0.0 0.0
-0.003764712114998429 0.002528661184675635 0.0 0.005126020382030634 0.0 0.0
-0.0027617249636159463 0.0017004687954024936 0.0 0.00414338997669909 0.0 0.0
-0.0018969717259482762 0.0010406942164990624 0.0 0.0033991845126596946 0.0 0.0
-0.0012336403708363911 0.0005903579129346323 0.0 0.0029555102694328664 0.0 0.0
-0.0007969042737051838 0.00035511960694950263 0.0 0.002721367227678946 0.0 0.0
-0.0005452941343283925 0.0002485163901181992 0.0 0.002542213104051211 0.0 0.0
-0.0004134202855631501 0.00021836881505612424 0.0 0.0023512870883674267 0.0 0.0
-0.0003576105952473017 0.0002165121023707005 0.0 0.0022370596794828264 0.0 0.0
-0.00032781751195672863 0.0002040269957708383 0.0 0.002232301766319781 0.0 0.0
-0.00023745507365901825 8.693537330420609e-05 0.0 0.002273258834655339 0.0 0.0
7.930520764461914e-05 -0.0003553481144826957 0.0 0.0020249699913479973 0.0 0.0
0.00032126348989403074 -0.001557822939334055 0.0 0.0013643169308607574 0.0 0.0
0.00022534462620820144 -0.0011846238637681253 0.0 -0.0012442271285421855 0.0 0.0
3.7753424885168087e-06 -0.0003217430131202358 0.0 -0.0018825278855435744 0.0 0.0
-0.00032662974038754857 0.00012019999920847649 0.0 -0.0022225498292309234 0.0 0.0
-0.0004915893446574726 0.0002690624558142776 0.0 -0.002201132289928203 0.0 0.0
-0.0006092862414432224 0.0003262420336614207 0.0 -0.0021839529877124087 0.0 0.0
-0.0007738306573983878 0.0003808582033360129 0.0 -0.0022579338508063236 0.0 0.0
-0.001063830553188928 0.0004771544751760406 0.0 -0.002379233194555294 0.0 0.0
-0.0016139129703611078 0.0007519099519054661 0.0 -0.002594893621333538 0.0 0.0
-0.0025670167617688334 0.0013801564189914008 0.0 -0.0031439368520887042 0.0 0.0
-0.0039513726028990075 0.0024847616652152833 0.0 -0.00410238194767847 0.0 0.0
-0.005678953909988288 0.003989470021216153 0.0 -0.005401534634460192 0.0 0.0
-0.007647546061662446 0.005773132444297298 0.0 -0.0068004282438485645 0.0 0.0
-0.009838429001397746 0.007787217151369723 0.0 -0.00820616342025951 0.0 0.0
-0.012304216195391793 0.010098948636463222 0.0 -0.009603695036280502 0.0 0.0
-0.015080282269687328 0.012754628955065335 0.0 -0.01107887264712508 0.0 0.0
-0.018072897247998855 0.015681919759132728 0.0 -0.012828552886016472 0.0 0.0
-0.020980685237002045 0.018584625799356127 0.0 -0.015080836436805464 0.0 0.0
-0.023283558085077538 0.020938407875627008 0.0 -0.01794721087132814 0.0 0.0
-0.02399189635505346 0.021854880985451755 0.0 -0.020848470540330493 0.0 0.0
-0.021274796571631126 0.01945363814832925 0.0 -0.02144005377375317 0.0 0.0
-0.018771213275552506 0.010554961719947865 0.0 1.2254953996038154e-14 0.0 0.0
-0.021274796571630304 0.01945363814833073 0.0 0.021440053773781696 0.0 0.0
-0.023991896355047226 0.021854880985447054 0.0 0.020848470540354873 0.0 0.0
-0.0232835580850651 0.020938407875612797 0.0 0.017947210871338094 0.0 0.0
-0.020980685236985618 0.01858462579934257 0.0 0.01508083643679909 0.0 0.0
-0.018072897247982774 0.015681919759115627 0.0 0.01282855288600794 0.0 0.0
-0.015080282269672288 0.01275462895505234 0.0 0.011078872647115618 0.0 0.0
-0.012304216195376227 0.010098948636447357 0.0 0.009603695036273337 0.0 0.0
-0.00983842900138176 0.007787217151354666 0.0 0.008206163420249948 0.0 0.0
-0.007647546061646944 0.005773132444284291 0.0 0.00680042824383581 0.0 0.0
-0.0056789539099746005 0.003989470021203534 0.0 0.005401534634446683 0.0 0.0
-0.003951372602888368 0.0024847616652070685 0.0 0.004102381947668817 0.0 0.0
-0.0025670167617618325 0.0013801564189864454 0.0 0.0031439368520842816 0.0 0.0
-0.0016139129703571892 0.0007519099519039445 0.0 0.0025948936213312235 0.0 0.0
-0.0010638305531870927 0.00047715447517442935 0.0 0.002379233194553489 0.0 0.0
-0.0007738306573974241 0.00038085820333560387 0.0 0.0022579338508040433 0.0 0.0
-0.0006092862414425142 0.0003262420336617293 0.0 0.0021839529877096375 0.0 0.0
-0.0004915893446570089 0.0002690624558139621 0.0 0.0022011322899265777 0.0 0.0
-0.0003266297403872215 0.00012019999920827201 0.0 0.0022225498292293513 0.0 0.0
3.7753424886913687e-06 -0.00032174301312010406 0.0 0.0018825278855416835 0.0 0.0
0.00022534462620821936 -0.0011846238637667305 0.0 0.0012442271285406925 0.0 0.0
0.00014377096872380285 -0.0008669749515535438 0.0 -0.001094163188588376 0.0 0.0
-6.286428100357042e-05 -0.0002736261668326705 0.0 -0.00171951565967856 0.0 0.0
-0.00041023555936171635 0.00015290317436721223 0.0 -0.002119708777792396 0.0 0.0
-0.0006468724560210849 0.00032972748277039867 0.0 -0.002114186979282855 0.0 0.0
-0.0008508958605443668 0.00042871590986484024 0.0 -0.0020720382995470556 0.0 0.0
-0.0011202782872157164 0.0005310993552913122 0.0 -0.0020811658143843875 0.0 0.0
-0.001599837314269422 0.0007211310693124931 0.0 -0.0021600983415865148 0.0 0.0
-0.002522634515140062 0.0012818448689947703 0.0 -0.002559838189342117 0.0 0.0
-0.004047375837653801 0.0024631524284148224 0.0 -0.003473753482543338 0.0 0.0
-0.006156180430212446 0.004314328214399664 0.0 -0.0048690769856018935 0.0 0.0
-0.008715055929090203 0.006666396709978631 0.0 -0.006504491393211338 0.0 0.0
-0.011615329172072562 0.009376817319800617 0.0 -0.008132227273394313 0.0 0.0
-0.01486422992128257 0.012436185298162192 0.0 -0.009695475985881297 0.0 0.0
-0.018546278562458145 0.015939115441387774 0.0 -0.011244928319900496 0.0 0.0
-0.022734244318321564 0.019977383692964285 0.0 -0.01292925851545354 0.0 0.0
-0.02735515348401557 0.024509856945676495 0.0 -0.01502384705276566 0.0 0.0
-0.03206011944206604 0.02920677834675165 0.0 -0.017940193137761025 0.0 0.0
-0.03605311672172404 0.03332057692523589 0.0 -0.02177808607953797 0.0 0.0
-0.03784956662132387 0.035381212272496666 0.0 -0.025473898431348996 0.0 0.0
-0.03479699689761732 0.032914336585380996 0.0 -0.026678215086280387 0.0 0.0
-0.031632058975857004 0.021353497588338977 0.0 1.335997285023538e-14 0.0 0.0
-0.03479699689761412 0.032914336585378026 0.0 0.026678215086314114 0.0 0.0
-0.03784956662131446 0.035381212272489936 0.0 0.025473898431381377 0.0 0.0
-0.036053116721706475 0.033320576925216824 0.0 0.02177808607955332 0.0 0.0
-0.032060119442043414 0.02920677834673282 0.0 0.017940193137757965 0.0 0.0
-0.02735515348399268 0.024509856945655457 0.0 0.015023847052756192 0.0 0.0
-0.02273424431829961 0.019977383692944283 0.0 0.012929258515444037 0.0 0.0
-0.018546278562436243 0.015939115441367963 0.0 0.011244928319891424 0.0 0.0
-0.014864229921260054 0.012436185298139692 0.0 0.009695475985871055 0.0 0.0
-0.011615329172050437 0.00937681731978191 0.0 0.008132227273379738 0.0 0.0
-0.008715055929070998 0.006666396709957893 0.0 0.006504491393196066 0.0 0.0
-0.006156180430197241 0.004314328214385554 0.0 0.004869076985589721 0.0 0.0
-0.004047375837642957 0.002463152428408559 0.0 0.0034737534825351295 0.0 0.0
-0.0025226345151334625 0.0012818448689900556 0.0 0.002559838189336996 0.0 0.0
-0.0015998373142663395 0.0007211310693103132 0.0 0.002160098341583812 0.0 0.0
-0.0011202782872142354 0.0005310993552902981 0.0 0.0020811658143827603 0.0 0.0
-0.0008508958605433132 0.00042871590986463993 0.0 0.0020720382995458256 0.0 0.0
-0.0006468724560203832 0.0003297274827692924 0.0 0.002114186979281177 0.0 0.0
-0.0004102355593614927 0.0001529031743668398 0.0 0.002119708777791008 0.0 0.0
-6.286428100370511e-05 -0.0002736261668324879 0.0 0.0017195156596760742 0.0 0.0
0.0001437709687236234 -0.0008669749515524238 0.0 0.0010941631885866767 0.0 0.0
7.1470291090424e-05 -0.0005996858226067277 0.0 -0.0009339945261466213 0.0 0.0
-0.00012450758742035215 -0.00021453264828155487 0.0 -0.0015312351843652055 0.0 0.0
-0.000490107540575486 0.00018635146081144317 0.0 -0.001965426559445049 0.0 0.0
-0.0007945484760403383 0.0003861564784958253 0.0 -0.0019721197557591285 0.0 0.0
-0.0010790867420181578 0.0005212891961929927 0.0 -0.0018990445449548264 0.0 0.0
-0.0014649362826928086 0.0006716486205920074 0.0 -0.0018325563149966836 0.0 0.0
-0.0021867542380049412 0.0010289110420440815 0.0 -0.0019525332970648144 0.0 0.0
-0.0035346062223184484 0.001983175118571973 0.0 -0.002543003853159998 0.0 0.0
-0.005648496668439856 0.0037794685658533236 0.0 -0.003726629956014981 0.0 0.0
-0.008461293629559679 0.006353494243027081 0.0 -0.005350215840314718 0.0 0.0
-0.011816640284907544 0.009502040225725214 0.0 -0.007079493827351546 0.0 0.0
-0.015633782836688044 0.013117275045889344 0.0 -0.008769290196181882 0.0 0.0
-0.019945384378743887 0.01721785202783938 0.0 -0.010395693416758393 0.0 0.0
-0.024855589781445458 0.021918653794842965 0.0 -0.012031892389999181 0.0 0.0
-0.030469157210141276 0.02734815824895459 0.0 -0.01381471558536845 0.0 0.0
-0.03674638078679522 0.0335099154251493 0.0 -0.016085114690143114 0.0 0.0
-0.04325762908442746 0.04002670688370503 0.0 -0.019331866881519402 0.0 0.0
-0.048887298783971696 0.045844379738444234 0.0 -0.023692832326312363 0.0 0.0
-0.051560715998473575 0.048927652654266296 0.0 -0.028179193388342086 0.0 0.0
-0.04784011088790025 0.045971411276643365 0.0 -0.030216896818786164 0.0 0.0
-0.043849636549289174 0.03180149910690403 0.0 1.5205718628674703e-14 0.0 0.0
-0.047840110887894464 0.04597141127663197 0.0 0.030216896818818527 0.0 0.0
-0.05156071599846007 0.04892765265425826 0.0 0.028179193388377655 0.0 0.0
-0.048887298783949665 0.04584437973841909 0.0 0.02369283232633135 0.0 0.0
-0.04325762908440016 0.04002670688367618 0.0 0.01933186688151719 0.0 0.0
-0.03674638078676613 0.0335099154251241 0.0 0.016085114690133892 0.0 0.0
-0.030469157210112355 0.027348158248922325 0.0 0.013814715585357629 0.0 0.0
-0.0248555897814168 0.021918653794818638 0.0 0.012031892389988709 0.0 0.0
-0.019945384378715094 0.017217852027813008 0.0 0.010395693416748506 0.0 0.0
-0.015633782836660143 0.013117275045862848 0.0 0.008769290196166688 0.0 0.0
-0.01181664028488277 0.0095020402257014 0.0 0.007079493827334051 0.0 0.0
-0.008461293629539856 0.006353494243007993 0.0 0.005350215840301443 0.0 0.0
-0.00564849666842551 0.0037794685658413324 0.0 0.0037266299560055885 0.0 0.0
-0.0035346062223091416 0.00198317511856681 0.0 0.0025430038531536222 0.0 0.0
-0.002186754238000252 0.0010289110420406069 0.0 0.0019525332970614178 0.0 0.0
-0.001464936282690899 0.0006716486205928999 0.0 0.0018325563149955548 0.0 0.0
-0.0010790867420168982 0.0005212891961923764 0.0 0.0018990445449535605 0.0 0.0
-0.0007945484760394547 0.0003861564784952389 0.0 0.001972119755756726 0.0 0.0
-0.0004901075405750327 0.00018635146081176878 0.0 0.0019654265594434136 0.0 0.0
-0.00012450758742023994 -0.00021453264828127927 0.0 0.0015312351843634556 0.0 0.0
7.147029109043278e-05 -0.0005996858226059971 0.0 0.0009339945261453726 0.0 0.0
7.660927384941894e-06 -0.00038050289042334585 0.0 -0.0007692430888951617 0.0 0.0
-0.00018185210781439536 -0.00014906694751560794 0.0 -0.001318827342415368 0.0 0.0
-0.0005670819999152649 0.0002212445813020538 0.0 -0.001760584699862657 0.0 0.0
-0.0009338572457746606 0.0004382540331193768 0.0 -0.0017751766531849344 0.0 0.0
-0.001296127526927421 0.0006029359561828627 0.0 -0.0016647937745042684 0.0 0.0
-0.0018260242777579927 0.0008248288702698042 0.0 -0.001552873129677142 0.0 0.0
-0.002838352823596881 0.0014269101083952175 0.0 -0.0017340929985489536 0.0 0.0
-0.00464332162140852 0.002846714626185005 0.0 -0.002470526919483111 0.0 0.0
-0.00733986865232392 0.00525739950939788 0.0 -0.003802601688271916 0.0 0.0
-0.010816081016712019 0.008498455640168935 0.0 -0.005417897409959473 0.0 0.0
-0.014946552928644635 0.01241278717913787 0.0 -0.0070939874913028755 0.0 0.0
-0.01968757699355099 0.01693086050865334 0.0 -0.008739167609935726 0.0 0.0
-0.025073980748412862 0.02208188345640175 0.0 -0.010342021596523102 0.0 0.0
-0.03121894909700905 0.027991711210898308 0.0 -0.01197956122978571 0.0 0.0
-0.038258021892037 0.03481154014851706 0.0 -0.013771637057876563 0.0 0.0
-0.046171076776631174 0.042578356217411954 0.0 -0.01596719755701852 0.0 0.0
-0.05444512466328914 0.0508746120655993 0.0 -0.01907869307565958 0.0 0.0
-0.06165312578722734 0.05835562172745448 0.0 -0.023513631179403506 0.0 0.0
-0.06510127819896915 0.06236518451574791 0.0 -0.028642802884849296 0.0 0.0
-0.06068731234810587 0.05884873952730797 0.0 -0.032459373363274265 0.0 0.0
-0.055913236603134756 0.04225211452159497 0.0 1.5213524884316598e-14 0.0 0.0
-0.060687312348097516 0.05884873952729584 0.0 0.0324593733633079 0.0 0.0
-0.06510127819895124 0.06236518451573171 0.0 0.028642802884886936 0.0 0.0
-0.06165312578720128 0.058355621727430196 0.0 0.02351363117942293 0.0 0.0
-0.05444512466325663 0.05087461206556089 0.0 0.019078693075660375 0.0 0.0
-0.04617107677659592 0.04257835621738086 0.0 0.01596719755701148 0.0 0.0
-0.03825802189200144 0.03481154014847866 0.0 0.013771637057866343 0.0 0.0
-0.031218949096973474 0.02799171121086754 0.0 0.011979561229776114 0.0 0.0
-0.02507398074837772 0.02208188345636785 0.0 0.010342021596513765 0.0 0.0
-0.019687576993517322 0.016930860508620034 0.0 0.008739167609921229 0.0 0.0
-0.01494655292861478 0.012412787179110053 0.0 0.007093987491285057 0.0 0.0
-0.010816081016687507 0.008498455640145645 0.0 0.005417897409945022 0.0 0.0
-0.007339868652305553 0.005257399509382278 0.0 0.003802601688263077 0.0 0.0
-0.004643321621396289 0.0028467146261746488 0.0 0.002470526919477891 0.0 0.0
-0.0028383528235901632 0.0014269101083908148 0.0 0.0017340929985454677 0.0 0.0
-0.0018260242777550784 0.00082482887026817 0.0 0.0015528731296769534 0.0 0.0
-0.0012961275269260523 0.0006029359561825148 0.0 0.0016647937745038295 0.0 0.0
-0.0009338572457735959 0.00043825403311925767 0.0 0.0017751766531847696 0.0 0.0
-0.0005670819999148428 0.00022124458130247146 0.0 0.0017605846998603029 0.0 0.0
-0.0001818521078144369 -0.0001490669475152199 0.0 0.0013188273424142854 0.0 0.0
7.660927385047151e-06 -0.0003805028904229406 0.0 0.0007692430888944176 0.0 0.0
-4.648630208836874e-05 -0.00020894220759810683 0.0 -0.000602321445872777 0.0 0.0
-0.0002336384464031048 -8.184891328303819e-05 0.0 -0.0010844358937536624 0.0 0.0
-0.000640811116802815 0.00025703166488358066 0.0 -0.0015065584873194323 0.0 0.0
-0.001065777684102524 0.0004861583606810588 0.0 -0.001523054487781767 0.0 0.0
-0.0015123594098450084 0.0006761736762698217 0.0 -0.0013778022381619312 0.0 0.0
-0.002215478850731313 0.0010126658763229693 0.0 -0.0012518293737806853 0.0 0.0
-0.003559606756405851 0.0019301644034469944 0.0 -0.0014883339959003716 0.0 0.0
-0.0058351874006223586 0.003854795802425596 0.0 -0.0023279510598169764 0.0 0.0
-0.009075260382168819 0.006819717471828298 0.0 -0.003587643460796245 0.0 0.0
-0.013185967984211448 0.010691294159071859 0.0 -0.005043742387945221 0.0 0.0
-0.01809343414676272 0.015364710330480019 0.0 -0.006578619554289316 0.0 0.0
-0.02376163186148224 0.02078686475442415 0.0 -0.008082566603163446 0.0 0.0
-0.030235168800612985 0.027001762621181768 0.0 -0.009564246503567174 0.0 0.0
-0.03763028928052815 0.03413674837686623 0.0 -0.01111420041185302 0.0 0.0
-0.046069476700039795 0.042333531471871536 0.0 -0.012812284420292199 0.0 0.0
-0.05554034484214747 0.05162772379675411 0.0 -0.014742476766738523 0.0 0.0
-0.0654965214017447 0.061596832512098895 0.0 -0.017275401924459543 0.0 0.0
-0.07423567606332307 0.0706895279226815 0.0 -0.021218028625944668 0.0 0.0
-0.07851424522880499 0.07568767245433537 0.0 -0.026941020156605953 0.0 0.0
-0.07360525961965572 0.07183043662007502 0.0 -0.0336792924469488 0.0 0.0
-0.06817824987794881 0.05304853183144359 0.0 1.4558666772135354e-14 0.0 0.0
-0.07360525961964484 0.07183043662006715 0.0 0.03367929244698252 0.0 0.0
-0.0785142452287828 0.07568767245431389 0.0 0.026941020156640086 0.0 0.0
-0.07423567606329237 0.07068952792265441 0.0 0.02121802862596103 0.0 0.0
-0.06549652140170763 0.0615968325120613 0.0 0.01727540192446411 0.0 0.0
-0.05554034484210622 0.05162772379671447 0.0 0.014742476766733029 0.0 0.0
-0.046069476699997426 0.04233353147183327 0.0 0.012812284420285036 0.0 0.0
-0.0376302892804864 0.03413674837682846 0.0 0.011114200411845188 0.0 0.0
-0.030235168800571637 0.027001762621138754 0.0 0.00956424650355838 0.0 0.0
-0.023761631861442936 0.02078686475438741 0.0 0.008082566603150832 0.0 0.0
-0.018093434146728083 0.015364710330444679 0.0 0.0065786195542738525 0.0 0.0
-0.013185967984182834 0.010691294159047073 0.0 0.0050437423879330125 0.0 0.0
-0.009075260382146674 0.006819717471808442 0.0 0.003587643460786955 0.0 0.0
-0.00583518740060692 0.003854795802411292 0.0 0.0023279510598109582 0.0 0.0
-0.003559606756397173 0.0019301644034410942 0.0 0.0014883339958974458 0.0 0.0
-0.0022154788507274675 0.0010126658763214222 0.0 0.00125182937377879 0.0 0.0
-0.0015123594098433257 0.0006761736762696754 0.0 0.0013778022381617976 0.0 0.0
-0.0010657776841017336 0.0004861583606805915 0.0 0.0015230544877820702 0.0 0.0
-0.000640811116802171 0.0002570316648834954 0.0 0.0015065584873175048 0.0 0.0
-0.00023363844640253892 -8.1848913283119e-05 0.0 0.0010844358937531608 0.0 0.0
-4.6486302088050337e-05 -0.00020894220759781106 0.0 0.0006023214458712868 0.0 0.0
-8.824545702433147e-05 -8.560410221421419e-05 0.0 -0.00043714088782928495 0.0 0.0
-0.0002768192550887425 -1.774286661273572e-05 0.0 -0.0008307874554349654 0.0 0.0
-0.000709608440074825 0.00029200996731229106 0.0 -0.001202365662419178 0.0 0.0
-0.0011927018428936392 0.0005297107917127229 0.0 -0.0012146946125132093 0.0 0.0
-0.0017360864485836884 0.000751467164960489 0.0 -0.001043249653735734 0.0 0.0
-0.0026482379521302903 0.0012498623708143614 0.0 -0.0009171345348694637 0.0 0.0
-0.004356194072942223 0.0025531677337908647 0.0 -0.0012284895551318124 0.0 0.0
-0.007072177882792682 0.0049473120461534185 0.0 -0.00200759515650431 0.0 0.0
-0.010817312444033306 0.008415642795922789 0.0 -0.0030422497611115496 0.0 0.0
-0.015559301149656722 0.012907172231931842 0.0 -0.00426399819006198 0.0 0.0
-0.02124009418100705 0.01833399337146599 0.0 -0.005553261812535681 0.0 0.0
-0.027841459519607273 0.024664732730884154 0.0 -0.006819041024984902 0.0 0.0
-0.035417274505189084 0.031956458527151343 0.0 -0.008075843889196183 0.0 0.0
-0.044069235712605424 0.0403327155468303 0.0 -0.00942853823867886 0.0 0.0
-0.05388390143099827 0.049893792875385784 0.0 -0.010939422541663356 0.0 0.0
-0.0647979054027213 0.06060663593328547 0.0 -0.012520635458858075 0.0 0.0
-0.07626130722358827 0.07203722528015795 0.0 -0.014165690620355486 0.0 0.0
-0.08650244855217452 0.08266051067465077 0.0 -0.016876142806855395 0.0 0.0
-0.0918620619559778 0.08891349576383477 0.0 -0.022966599810221665 0.0 0.0
-0.08685635124403725 0.08520256825854372 0.0 -0.03364289665806397 0.0 0.0
-0.08097735016559943 0.06455148654668574 0.0 1.335997285023538e-14 0.0 0.0
-0.08685635124402447 0.08520256825853427 0.0 0.03364289665809502 0.0 0.0
-0.09186206195595224 0.08891349576380742 0.0 0.022966599810250135 0.0 0.0
-0.08650244855213869 0.08266051067461806 0.0 0.016876142806870865 0.0 0.0
-0.07626130722354556 0.07203722528011744 0.0 0.01416569062035835 0.0 0.0
-0.06479790540267477 0.060606635933239755 0.0 0.012520635458857208 0.0 0.0
-0.05388390143094975 0.04989379287534244 0.0 0.010939422541658163 0.0 0.0
-0.04406923571255691 0.04033271554678543 0.0 0.00942853823867074 0.0 0.0
-0.035417274505141524 0.031956458527105575 0.0 0.00807584388918957 0.0 0.0
-0.027841459519562226 0.02466473273084164 0.0 0.006819041024974866 0.0 0.0
-0.0212400941809674 0.018333993371426462 0.0 0.005553261812522866 0.0 0.0
-0.01555930114962411 0.012907172231900734 0.0 0.004263998190051974 0.0 0.0
-0.010817312444007651 0.008415642795896978 0.0 0.00304224976110383 0.0 0.0
-0.0070721778827744185 0.00494731204613811 0.0 0.0020075951564969023 0.0 0.0
-0.004356194072931448 0.0025531677337823962 0.0 0.001228489555128961 0.0 0.0
-0.002648237952125037 0.0012498623708126289 0.0 0.0009171345348676352 0.0 0.0
-0.0017360864485816958 0.0007514671649601667 0.0 0.0010432496537349887 0.0 0.0
-0.001192701842892795 0.0005297107917125294 0.0 0.001214694612512439 0.0 0.0
-0.0007096084400741832 0.00029200996731149694 0.0 0.0012023656624181038 0.0 0.0
-0.0002768192550885089 -1.7742866613246365e-05 0.0 0.0008307874554345304 0.0 0.0
-8.82454570244029e-05 -8.560410221406771e-05 0.0 0.00043714088782714734 0.0 0.0
-0.00011294746279190865 -1.1397612956000113e-05 0.0 -0.0002831331829971328 0.0 0.0
-0.00030585388912474846 3.713593272834382e-05 0.0 -0.0005614878424183733 0.0 0.0
-0.0007704771632881479 0.00032288452802661566 0.0 -0.0008423364467327391 0.0 0.0
-0.0013185818864381775 0.0005707718112223949 0.0 -0.0008456823453845125 0.0 0.0
-0.0019789959838746292 0.000840895576218624 0.0 -0.0006673403209564476 0.0 0.0
-0.003139732988761611 0.0015689029004588946 0.0 -0.000573659527506298 0.0 0.0
-0.005202883629088996 0.0032699111908324305 0.0 -0.0008896750218696521 0.0 0.0
-0.008321729484898894 0.006070574935111244 0.0 -0.0014461254230786606 0.0 0.0
-0.012557747218560431 0.010027214872981456 0.0 -0.002199445402332097 0.0 0.0
-0.017919240915880732 0.015124748954668168 0.0 -0.003089401118893044 0.0 0.0
-0.024371924881857795 0.021301133664632745 0.0 -0.004031400239743597 0.0 0.0
-0.0319115124433296 0.028546026533069355 0.0 -0.004955562815116632 0.0 0.0
-0.04059814890594245 0.036927262057430785 0.0 -0.0058871230017145115 0.0 0.0
-0.05052229781473055 0.04655599221286897 0.0 -0.006937029075262837 0.0 0.0
-0.061691632175021105 0.05746861784900023 0.0 -0.008127780525876843 0.0 0.0
-0.07391228870685376 0.06950235626662117 0.0 -0.009290526522263177 0.0 0.0
-0.08661440333184035 0.08212416576373396 0.0 -0.0101277785510662 0.0 0.0
-0.09827319722355976 0.09400225737546504 0.0 -0.011153169381604822 0.0 0.0
-0.10512740359065037 0.10191122099058515 0.0 -0.016087002471962722 0.0 0.0
-0.10071815232648151 0.09930535286631144 0.0 -0.03142608643645385 0.0 0.0
-0.09474499413707428 0.07729325193648477 0.0 1.0457780474926182e-14 0.0 0.0
-0.10071815232646603 0.09930535286629336 0.0 0.03142608643647769 0.0 0.0
-0.10512740359062053 0.10191122099055426 0.0 0.016087002471985228 0.0 0.0
-0.09827319722351859 0.09400225737542416 0.0 0.011153169381615837 0.0 0.0
-0.08661440333179186 0.08212416576368892 0.0 0.010127778551067015 0.0 0.0
-0.07391228870680144 0.06950235626657104 0.0 0.009290526522263632 0.0 0.0
-0.061691632174966704 0.05746861784895066 0.0 0.008127780525873618 0.0 0.0
-0.05052229781467554 0.04655599221281826 0.0 0.006937029075256486 0.0 0.0
-0.04059814890588862 0.0369272620573788 0.0 0.005887123001710432 0.0 0.0
-0.031911512443278806 0.028546026533016966 0.0 0.004955562815109421 0.0 0.0
-0.024371924881813313 0.021301133664589387 0.0 0.00403140023973342 0.0 0.0
-0.0179192409158442 0.015124748954632276 0.0 0.003089401118885186 0.0 0.0
-0.012557747218531553 0.010027214872952458 0.0 0.0021994454023278273 0.0 0.0
-0.008321729484877933 0.006070574935091947 0.0 0.0014461254230742 0.0 0.0
-0.005202883629076004 0.003269911190820702 0.0 0.0008896750218660712 0.0 0.0
-0.003139732988755252 0.0015689029004539862 0.0 0.0005736595275055256 0.0 0.0
-0.0019789959838721776 0.0008408955762173687 0.0 0.0006673403209559637 0.0 0.0
-0.0013185818864371436 0.0005707718112222476 0.0 0.0008456823453835338 0.0 0.0
-0.0007704771632874001 0.00032288452802548906 0.0 0.0008423364467316773 0.0 0.0
-0.0003058538891245089 3.713593272816538e-05 0.0 0.0005614878424178678 0.0 0.0
-0.00011294746279213965 -1.1397612956042967e-05 0.0 0.00028313318299690124 0.0 0.0
-0.0001125083969941401 1.3688299937352854e-05 0.0 -0.00016130811769765426 0.0 0.0
-0.00031126115713033366 7.314924917695235e-05 0.0 -0.0002811360389145764 0.0 0.0
-0.0008186440529761921 0.000344653274918934 0.0 -0.00041180728583219156 0.0 0.0
-0.001450780090906618 0.0006147015205580306 0.0 -0.0004084125861392876 0.0 0.0
-0.0022597361549698864 0.0009655618971157976 0.0 -0.0002656737283890343 0.0 0.0
-0.003684483493310766 0.001974898304196094 0.0 -0.00021491125191249496 0.0 0.0
-0.006076919780503084 0.004036291899431146 0.0 -0.0003988028748777658 0.0 0.0
-0.009570050029971347 0.007209103300079227 0.0 -0.0006827920721613164 0.0 0.0
-0.014280119547252449 0.011635214548771677 0.0 -0.0010653781168362144 0.0 0.0
-0.020250122238154544 0.01732381259752009 0.0 -0.0015281926904384066 0.0 0.0
-0.027471976964879803 0.02424761700557879 0.0 -0.0020141279084338716 0.0 0.0
-0.03595726739364918 0.03241649987845899 0.0 -0.002494747967090846 0.0 0.0
-0.045767705699363746 0.041899099966749336 0.0 -0.0030217645992750984 0.0 0.0
-0.05695554832821795 0.05277381083065678 0.0 -0.003630872127100895 0.0 0.0
-0.06945396737152244 0.06501583028722274 0.0 -0.00431921228657417 0.0 0.0
-0.08292020130624865 0.07832089134872221 0.0 -0.004989857343580807 0.0 0.0
-0.0965950649138526 0.0919451780706082 0.0 -0.0053517446044382844 0.0 0.0
-0.10920568416696744 0.10458651870160937 0.0 -0.005276793991935048 0.0 0.0
-0.11799836654014645 0.11388990887869518 0.0 -0.007166338182465191 0.0 0.0
-0.11558001596213723 0.11433119670030292 0.0 -0.02240416830149865 0.0 0.0
-0.1102133178854561 0.0928597279232382 0.0 6.13398221105399e-15 0.0 0.0
-0.11558001596211942 0.11433119670028649 0.0 0.022404168301510763 0.0 0.0
-0.11799836654011242 0.11388990887865827 0.0 0.007166338182478301 0.0 0.0
-0.10920568416692025 0.10458651870156155 0.0 0.0052767939919426046 0.0 0.0
-0.09659506491379763 0.09194517807054745 0.0 0.005351744604439912 0.0 0.0
-0.08292020130619017 0.078320891348668 0.0 0.0049898573435796945 0.0 0.0
-0.06945396737146152 0.06501583028716547 0.0 0.004319212286572334 0.0 0.0
-0.05695554832815629 0.05277381083060079 0.0 0.0036308721270977354 0.0 0.0
-0.04576770569930339 0.04189909996669013 0.0 0.0030217645992726225 0.0 0.0
-0.03595726739359288 0.0324164998784019 0.0 0.002494747967086876 0.0 0.0
-0.02747197696483104 0.024247617005531776 0.0 0.0020141279084294034 0.0 0.0
-0.020250122238114152 0.01732381259748111 0.0 0.0015281926904340127 0.0 0.0
-0.01428011954722057 0.011635214548741309 0.0 0.0010653781168333272 0.0 0.0
-0.009570050029947947 0.007209103300056405 0.0 0.0006827920721590446 0.0 0.0
-0.006076919780487566 0.004036291899418922 0.0 0.0003988028748743577 0.0 0.0
-0.0036844834933026926 0.0019748983041885542 0.0 0.00021491125191249908 0.0 0.0
-0.0022597361549669278 0.0009655618971143773 0.0 0.0002656737283888389 0.0 0.0
-0.0014507800909052404 0.0006147015205578223 0.0 0.00040841258613874917 0.0 0.0
-0.0008186440529752664 0.0003446532749187079 0.0 0.0004118072858317035 0.0 0.0
-0.00031126115712994855 7.314924917690808e-05 0.0 0.0002811360389143755 0.0 0.0
-0.00011250839699385421 1.3688299937327137e-05 0.0 0.00016130811769700224 0.0 0.0
-7.215118150282713e-05 1.4062633071411464e-05 0.0 -0.00010130004399022274 0.0 0.0
-0.0002766734794278672 8.490816138403859e-05 0.0 -0.00011668919238016882 0.0 0.0
-0.0008474686140106107 0.0003525734772123219 0.0 -0.00014037668471498133 0.0 0.0
-0.0016036626522554422 0.0006381411746335897 0.0 -0.0001228518202156539 0.0 0.0
-0.0025910850291601794 0.0010410411595668761 0.0 4.8533070386275385e-05 0.0 0.0
-0.004269930747153205 0.0021954831893227405 0.0 0.00020543417471513195 0.0 0.0
-0.0069610335556469565 0.004427264626594657 0.0 0.00025610455651618605 0.0 0.0
-0.010806006702227243 0.007780726242351756 0.0 0.00027500906998972907 0.0 0.0
-0.01596977189547518 0.012435617777179048 0.0 0.00027029546210892864 0.0 0.0
-0.022534892255020873 0.018416454545670428 0.0 0.0002191129531350026 0.0 0.0
-0.030525306827456834 0.02571296756412791 0.0 0.00016795933963058372 0.0 0.0
-0.03996944968505957 0.034347930428917574 0.0 0.00011361361787702671 0.0 0.0
-0.05089998746027409 0.04438365382799378 0.0 -5.834339640410115e-06 0.0 0.0
-0.0633312985060124 0.055875825319622555 0.0 -0.0001580701130269443 0.0 0.0
-0.07713764665677501 0.06877706248435189 0.0 -0.00040980043224607583 0.0 0.0
-0.09183289469729622 0.08271156222572579 0.0 -0.0007475837142294304 0.0 0.0
-0.10641086179403295 0.09680925490299683 0.0 -0.0010425252630034097 0.0 0.0
-0.11936433912971206 0.10969874436158551 0.0 -0.0010477250977814143 0.0 0.0
-0.12905540304952415 0.11946013898145674 0.0 -0.0015882837652365766 0.0 0.0
-0.131449666972069 0.12207398372259785 0.0 -0.01597544383186877 0.0 0.0
-0.13000834870624817 0.10166262157994396 0.0 2.8727020762175925e-15 0.0 0.0
-0.13144966697204935 0.12207398372258518 0.0 0.015975443831872063 0.0 0.0
-0.12905540304948526 0.11946013898141383 0.0 0.0015882837652386461 0.0 0.0
-0.11936433912965794 0.1096987443615367 0.0 0.0010477250977830189 0.0 0.0
-0.10641086179397169 0.09680925490292192 0.0 0.0010425252630040498 0.0 0.0
-0.09183289469723183 0.08271156222567196 0.0 0.0007475837142293055 0.0 0.0
-0.0771376466567073 0.06877706248428588 0.0 0.0004098004322441052 0.0 0.0
-0.0633312985059442 0.05587582531956342 0.0 0.00015807011302747774 0.0 0.0
-0.05089998746020802 0.04438365382793329 0.0 5.83433964025399e-06 0.0 0.0
-0.039969449684997584 0.034347930428862104 0.0 -0.00011361361788010498 0.0 0.0
-0.03052530682740348 0.025712967564081025 0.0 -0.0001679593396312455 0.0 0.0
-0.02253489225497753 0.01841645454562912 0.0 -0.00021911295313698084 0.0 0.0
-0.01596977189544052 0.01243561777714839 0.0 -0.0002702954621109268 0.0 0.0
-0.010806006702201408 0.007780726242326681 0.0 -0.0002750090699898788 0.0 0.0
-0.006961033555629542 0.004427264626583907 0.0 -0.00025610455651659013 0.0 0.0
-0.00426993074714377 0.002195483189313805 0.0 -0.00020543417471488297 0.0 0.0
-0.00259108502915624 0.0010410411595651544 0.0 -4.853307038551276e-05 0.0 0.0
-0.0016036626522537927 0.0006381411746336061 0.0 0.00012285182021647934 0.0 0.0
-0.0008474686140100497 0.0003525734772125386 0.0 0.00014037668471404363 0.0 0.0
-0.0002766734794277121 8.490816138380738e-05 0.0 0.00011668919238047901 0.0 0.0
-7.215118150278327e-05 1.4062633071508168e-05 0.0 0.00010130004398860456 0.0 0.0
SCALARS Statev float 8
LOOKUP_TABLE default
0.0 0.015846281034602033 0.012614022469351605 -0.015164337916785668 0.0025503154474340794 -0.000669935533515848 0.0 0.0
0.0 0.005090402357081513 0.003682537903652384 -0.002165774105683164 -0.001516763797969218 -0.006069167087873139 0.0 0.0
0.0 2.497075775134144e-05 6.676430312643724e-05 -4.2958207021412035e-05 -2.3806096105025294e-05 -0.00017352378123442505 0.0 0.0
0.0 0.00010623425134859604 2.2815166949856945e-05 -1.6224459777886817e-05 -6.590707171970227e-06 9.879930102820515e-06 0.0 0.0
0.0 0.0006616468955068723 0.00035821667464878233 -0.00025935344295124896 -9.886323169753368e-05 8.459318198398903e-05 0.0 0.0
0.0 0.0016138210447088786 0.0016484661412632926 -0.001278827315554108 -0.0003696388257091838 0.00017599649880435138 0.0 0.0
0.0 0.004271635560729486 0.003947714613729293 -0.003289050481245464 -0.0006586641324838271 0.00024538160330176 0.0 0.0
0.0 0.008210506510153495 0.007483313497579054 -0.006572948719143665 -0.0009103647784353901 0.000281599181943612 0.0 0.0
0.0 0.013716393566319728 0.01234517825148457 -0.011227967972443936 -0.0011172102790406317 0.00029104415420107683 0.0 0.0
0.0 0.020880921802753513 0.01858546555907937 -0.0172613229558703 -0.001324142603209086 0.0002591069782298446 0.0 0.0
0.0 0.02971447378551543 0.026225635319726683 -0.024666516063709572 -0.0015591192560171015 0.0002254491287586116 0.0 0.0
0.0 0.03992882011043323 0.03530500610453529 -0.03347594879644181 -0.00182905730809351 0.00018367166583600032 0.0 0.0
0.0 0.051929598745751655 0.04586364613166928 -0.043737736834282635 -0.0021259092973866696 7.112046696605516e-05 0.0 0.0
0.0 0.06569729259056194 0.05793784978138229 -0.055497784211645945 -0.0024400655697363136 -6.0125728241782264e-05 0.0 0.0
0.0 0.08118407547499125 0.07148180181432796 -0.068726364865855 -0.0027554369484728575 -0.0002638839022008979 0.0 0.0
0.0 0.09809923796565163 0.08620489514401108 -0.08314991251783249 -0.0030549826261785586 -0.0005534879209676549 0.0 0.0
0.0 0.1156506694007196 0.10145147955086048 -0.0981281860689823 -0.0033232934818781634 -0.0008826300903503432 0.0 0.0
0.0 0.1326194994985467 0.11617554208900012 -0.11263098336156355 -0.0035445587274364437 -0.0011248983644482282 0.0 0.0
0.0 0.14745651261536002 0.12904205907809058 -0.12533143713220296 -0.0037106219458877612 -0.0011090660792711395 0.0 0.0
0.0 0.15817518221587468 0.13851736115680008 -0.1347155187507033 -0.003801842406096763 -0.001119876876199985 0.0 0.0
0.0 0.16245743591824882 0.1422461408151322 -0.13845549428342158 -0.003790646531710596 2.1805474093028465e-15 0.0 0.0
0.0 0.15817518221585825 0.13851736115678523 -0.13471551875068952 -0.0038018424060956716 0.0011198768762063624 0.0 0.0
0.0 0.14745651261531828 0.12904205907805413 -0.12533143713216735 -0.0037106219458867503 0.0011090660792763439 0.0 0.0
0.0 0.1326194994984909 0.11617554208895114 -0.11263098336151597 -0.0035445587274351626 0.001124898364450528 0.0 0.0
0.0 0.11565066940064836 0.10145147955079876 -0.09812818606892144 -0.003323293481877373 0.0008826300903494576 0.0 0.0
0.0 0.09809923796558781 0.08620489514395462 -0.08314991251777779 -0.003054982626176883 0.000553487920965553 0.0 0.0
0.0 0.0811840754749209 0.07148180181426644 -0.0687263648657949 -0.002755436948471445 0.00026388390220091285 0.0 0.0
0.0 0.06569729259049067 0.057937849781319745 -0.05549778421158539 -0.002440065569734396 6.012572824131302e-05 0.0 0.0
0.0 0.05192959874568321 0.045863646131609356 -0.04373773683422448 -0.002125909297384848 -7.112046696818204e-05 0.0 0.0
0.0 0.03992882011037089 0.035305006104480424 -0.033475948796388634 -0.0018290573080917874 -0.00018367166583723588 0.0 0.0
0.0 0.029714473785459293 0.026225635319677462 -0.024666516063661666 -0.0015591192560157777 -0.00022544912875985972 0.0 0.0
0.0 0.020880921802709045 0.018585465559040427 -0.01726132295583268 -0.0013241426032077736 -0.00025910697823097013 0.0 0.0
0.0 0.013716393566287777 0.012345178251456035 -0.011227967972416663 -0.0011172102790393513 -0.0002910441542010951 0.0 0.0
0.0 0.008210506510128932 0.007483313497556659 -0.006572948719122441 -0.0009103647784342213 -0.00028159918194337193 0.0 0.0
0.0 0.004271635560715752 0.0039477146137159354 -0.003289050481233525 -0.0006586641324824055 -0.00024538160330145233 0.0 0.0
0.0 0.0016138210447017348 0.0016484661412557908 -0.001278827315547941 -0.0003696388257078485 -0.00017599649880378928 0.0 0.0
0.0 0.000661646895502662 0.0003582166746458666 -0.0002593534429491016 -9.886323169676413e-05 -8.459318198348692e-05 0.0 0.0
0.0 0.00010623425134760824 2.2815166949731628e-05 -1.622445977780638e-05 -6.590707171924775e-06 -9.879930102717885e-06 0.0 0.0
0.0 2.4970757750542014e-05 6.676430312588415e-05 -4.2958207021018374e-05 -2.3806096104865293e-05 0.0001735237812335267 0.0 0.0
0.0 0.005090402357072391 0.0036825379036476173 -0.0021657741056799176 -0.001516763797967693 0.006069167087863871 0.0 0.0
0.0 0.015846281034582303 0.012614022469338083 -0.015164337916766992 0.0025503154474288974 0.0006699355334831599 0.0 0.0
0.0 0.012787954177038919 0.009482825773989331 -0.012413075649214986 0.002930249875225649 -0.00021403527010100862 0.0 0.0
0.0 0.002986301536773727 0.0021340473986816524 -0.0012208465261387836 -0.0009132008725428666 -0.004604212625919839 0.0 0.0
0.0 -4.104458868215477e-05 -4.8452744883201476e-05 4.119170072682445e-05 7.261044156377035e-06 -3.605051556708656e-05 0.0 0.0
0.0 1.0038246308378695e-05 1.8027578602278298e-06 -1.199962154640803e-06 -6.027957055870657e-07 5.138264540701639e-06 0.0 0.0
0.0 0.00031355218546197334 0.00021009843530309314 -0.00015326086709405872 -5.6837568209034225e-05 3.473929412999666e-05 0.0 0.0
0.0 0.0014340758444021898 0.0011994197314514304 -0.000938744740134154 -0.00026067499131727866 5.099333406549219e-05 0.0 0.0
0.0 0.003565413144843038 0.0032959133868693483 -0.002774839853306595 -0.000521073533562749 -0.00011999254661413609 0.0 0.0
0.0 0.007217911229710625 0.006531172631755174 -0.0058073219211073855 -0.0007238507106477927 -0.0003951185782775461 0.0 0.0
0.0 0.012351719031653472 0.011011686999507529 -0.010152386267370389 -0.0008593007321371321 -0.0007745930812231432 0.0 0.0
0.0 0.018957165187410842 0.016757109858793827 -0.015790395653007588 -0.0009667142057862355 -0.00123190091739076 0.0 0.0
0.0 0.027052075237257757 0.02376075901062995 -0.02269019700563843 -0.0010705620049915405 -0.0017185275725772658 0.0 0.0
0.0 0.03675859721543474 0.03204220921121448 -0.03086450949292751 -0.0011776997182869396 -0.002209638239036446 0.0 0.0
0.0 0.04757312755952839 0.041675122539647544 -0.04038743932020387 -0.0012876832194436262 -0.002753858980162083 0.0 0.0
0.0 0.060302924596800034 0.052715708633570196 -0.05132222315155782 -0.001393485482012387 -0.003367825108679686 0.0 0.0
0.0 0.07461761852531645 0.06513624322428672 -0.06365230866480288 -0.001483934559483808 -0.0040425038135194335 0.0 0.0
0.0 0.09025935694690053 0.07868277821067118 -0.07713337771479713 -0.0015494004958740825 -0.004740462051563482 0.0 0.0
0.0 0.10657025952523247 0.09276113221467541 -0.091177169959611 -0.0015839622550643054 -0.005296575379380286 0.0 0.0
0.0 0.1224431960140395 0.10641859995251471 -0.10482959668995394 -0.0015890032625608887 -0.0054159497776915975 0.0 0.0
0.0 0.13635869785654342 0.11838967729222917 -0.11682375950643896 -0.0015659177857900906 -0.004838843978779383 0.0 0.0
0.0 0.14647490835485202 0.12703856948738837 -0.12555658827953892 -0.001481981207849457 -0.0037707518114422304 0.0 0.0
0.0 0.1506462016831154 0.13037672194089972 -0.12902498891642503 -0.0013517330244747926 5.207206194013381e-15 0.0 0.0
0.0 0.14647490835483357 0.12703856948737188 -0.12555658827952254 -0.001481981207849341 0.0037707518114565935 0.0 0.0
0.0 0.1363586978565058 0.11838967729219661 -0.11682375950640655 -0.0015659177857899763 0.0048388439787935625 0.0 0.0
0.0 0.12244319601398976 0.10641859995247166 -0.10482959668991101 -0.0015890032625605441 0.005415949777699186 0.0 0.0
0.0 0.10657025952516887 0.09276113221462096 -0.09117716995955634 -0.0015839622550645766 0.005296575379381432 0.0 0.0
0.0 0.09025935694683972 0.07868277821061799 -0.07713337771474493 -0.0015494004958729747 0.004740462051560576 0.0 0.0
0.0 0.0746176185252538 0.06513624322423198 -0.06365230866474927 -0.0014839345594828094 0.004042503813518472 0.0 0.0
0.0 0.06030292459673567 0.05271570863351424 -0.05132222315150253 -0.0013934854820116967 0.0033678251086785085 0.0 0.0
0.0 0.04757312755946378 0.04167512253959161 -0.040387439320148516 -0.0012876832194430848 0.0027538589801585096 0.0 0.0
0.0 0.03675859721537461 0.03204220921116211 -0.030864509492875294 -0.0011776997182867829 0.002209638239032527 0.0 0.0
0.0 0.027052075237207075 0.02376075901058592 -0.022690197005595002 -0.0010705620049909497 0.0017185275725722267 0.0 0.0
0.0 0.018957165187370128 0.016757109858757772 -0.01579039565297213 -0.0009667142057856325 0.001231900917387033 0.0 0.0
0.0 0.012351719031622802 0.011011686999479811 -0.010152386267343595 -0.000859300732136217 0.000774593081221004 0.0 0.0
0.0 0.007217911229690285 0.00653117263173662 -0.005807321921089563 -0.0007238507106470531 0.0003951185782755242 0.0 0.0
0.0 0.0035654131448305186 0.0032959133868574507 -0.002774839853295873 -0.0005210735335615753 0.00011999254661305847 0.0 0.0
0.0 0.0014340758443956172 0.0011994197314457475 -0.000938744740129462 -0.0002606749913162861 -5.0993334065589025e-05 0.0 0.0
0.0 0.0003135521854591452 0.00021009843530128024 -0.00015326086709271103 -5.68375682085695e-05 -3.473929412971885e-05 0.0 0.0
0.0 1.003824630784464e-05 1.8027578603901615e-06 -1.1999621547676608e-06 -6.027957056223222e-07 -5.1382645406747135e-06 0.0 0.0
0.0 -4.104458868191642e-05 -4.8452744882907535e-05 4.119170072657254e-05 7.261044156334855e-06 3.605051556692236e-05 0.0 0.0
0.0 0.002986301536764382 0.0021340473986764955 -0.0012208465261352402 -0.0009132008725412558 0.004604212625909246 0.0 0.0
0.0 0.012787954177018425 0.00948282577397365 -0.012413075649194904 0.0029302498752212447 0.0002140352700771643 0.0 0.0
0.0 0.009365839131561941 0.006792766628574725 -0.009152535340945171 0.002359768712370441 -0.0023728270259494033 0.0 0.0
0.0 0.0020739270404369335 0.00130470900565016 -0.0006703206429212639 -0.0006343883627288953 -0.0036370622188735924 0.0 0.0
0.0 2.5678426942533087e-08 -2.678779843523035e-09 2.105284134767642e-09 5.734957087552363e-10 -4.864799241920996e-10 0.0 0.0
0.0 1.4943055253806565e-06 -4.097291627318605e-07 3.2206070856406564e-07 8.766845416766876e-08 1.94597797296538e-07 0.0 0.0
0.0 0.00010140196183459996 6.851798961276738e-05 -4.784944661303648e-05 -2.0668542999731194e-05 1.5265540128775545e-05 0.0 0.0
0.0 0.0009759221390278094 0.0007530090784493899 -0.000574632382213853 -0.00017837669623553624 -2.1608122403228768e-05 0.0 0.0
0.0 0.002667303908684669 0.0025268230469613073 -0.0020824112661711235 -0.0004444117807901858 -0.0003594582858902831 0.0 0.0
0.0 0.005937513033028945 0.0053805109368346175 -0.004716986699769485 -0.0006635242370651297 -0.0009073393717752489 0.0 0.0
0.0 0.010501324324317296 0.009388264210763688 -0.008576838504546744 -0.0008114257062169379 -0.0016489737453029704 0.0 0.0
0.0 0.01647003240561115 0.01452907337644117 -0.013610390881116392 -0.0009186824953247876 -0.002529318980474081 0.0 0.0
0.0 0.02371937007206643 0.02076897423652541 -0.019751939232382783 -0.0010170350041426056 -0.0034730767223978224 0.0 0.0
0.0 0.03213780791148165 0.02811274612912041 -0.026995091288158295 -0.001117654840962092 -0.004418692308596763 0.0 0.0
0.0 0.042153252489753296 0.03662696029334003 -0.03540632383462488 -0.0012206364587151798 -0.005385418439093326 0.0 0.0
0.0 0.053183354997334564 0.046415830640812464 -0.04509656112385251 -0.00131926951695993 -0.006464815106567175 0.0 0.0
0.0 0.06595978747820792 0.05747264295081302 -0.05606846917381741 -0.0014041737769956212 -0.007668667876125108 0.0 0.0
0.0 0.07996370443002282 0.06959126559058698 -0.06812500936697846 -0.0014662562236084612 -0.008884149393318877 0.0 0.0
0.0 0.09463614994251265 0.08227324835248404 -0.08077148506582371 -0.001501763286660357 -0.0098251412114383 0.0 0.0
0.0 0.10899624643647879 0.09468094478645984 -0.09317250071499716 -0.0015084440714626334 -0.010024878080290081 0.0 0.0
0.0 0.1216754780490501 0.10560813689280688 -0.10413171419720223 -0.001476422695604573 -0.009074534047047333 0.0 0.0
0.0 0.13088311901825628 0.11350938900117219 -0.11209010709449117 -0.0014192819066809383 -0.006858159039077419 0.0 0.0
0.0 0.13481718138336385 0.11664154701389169 -0.11538347253150491 -0.0012580744823867097 1.0829011298785218e-14 0.0 0.0
0.0 0.13088311901824057 0.11350938900115765 -0.11209010709447681 -0.0014192819066809134 0.006858159039102635 0.0 0.0
0.0 0.12167547804901584 0.10560813689277704 -0.10413171419717228 -0.0014764226956048298 0.009074534047071361 0.0 0.0
0.0 0.10899624643643335 0.09468094478642032 -0.09317250071495765 -0.0015084440714625835 0.010024878080304441 0.0 0.0
0.0 0.09463614994245925 0.08227324835243836 -0.08077148506577825 -0.0015017632866601526 0.009825141211440371 0.0 0.0
0.0 0.07996370442996381 0.06959126559053551 -0.06812500936692767 -0.001466256223607806 0.008884149393314457 0.0 0.0
0.0 0.06595978747815444 0.05747264295076608 -0.05606846917377209 -0.0014041737769939844 0.007668667876123177 0.0 0.0
0.0 0.05318335499727586 0.046415830640761414 -0.04509656112380198 -0.0013192695169594246 0.006464815106564529 0.0 0.0
0.0 0.04215325248969682 0.03662696029329112 -0.03540632383457642 -0.0012206364587147096 0.005385418439087154 0.0 0.0
0.0 0.032137807911428284 0.02811274612907438 -0.026995091288112436 -0.0011176548409619273 0.00441869230858946 0.0 0.0
0.0 0.02371937007202166 0.020768974236485934 -0.019751939232343946 -0.001017035004141981 0.0034730767223897846 0.0 0.0
0.0 0.016470032405574164 0.0145290733764084 -0.01361039088108406 -0.0009186824953243274 0.0025293189804668392 0.0 0.0
0.0 0.010501324324288325 0.009388264210737858 -0.008576838504521705 -0.0008114257062161599 0.0016489737452979047 0.0 0.0
0.0 0.005937513033009919 0.005380510936817607 -0.0047169866997534456 -0.0006635242370641609 0.0009073393717714706 0.0 0.0
0.0 0.0026673039086734483 0.00252682304695057 -0.002082411266161683 -0.00044441178078888496 0.0003594582858881119 0.0 0.0
0.0 0.0009759221390228925 0.0007530090784454212 -0.0005746323822107606 -0.00017837669623465996 2.160812240292972e-05 0.0 0.0
0.0 0.00010140196183302983 6.851798961206957e-05 -4.7849446612531505e-05 -2.066854299953809e-05 -1.5265540128637512e-05 0.0 0.0
0.0 1.4943055251113347e-06 -4.097291626982792e-07 3.220607085392371e-07 8.766845415906338e-08 -1.9459779729232268e-07 0.0 0.0
0.0 2.5678426919816804e-08 -2.678779841143436e-09 2.1052841328877173e-09 5.734957082559921e-10 4.864799235722653e-10 0.0 0.0
0.0 0.0020739270404297734 0.0013047090056458165 -0.0006703206429183758 -0.0006343883627274391 0.003637062218862233 0.0 0.0
0.0 0.009365839131541558 0.006792766628559684 -0.009152535340925735 0.002359768712366052 0.0023728270259333185 0.0 0.0
0.0 0.00698557349259603 0.00492415872153605 -0.006780595055048468 0.00185643633351241 -0.0026130430315022928 0.0 0.0
0.0 0.0014382169385216811 0.0008477357623256884 -0.00041940726779659653 -0.00042832849452909065 -0.0026496554018694734 0.0 0.0
0.0 0.0 0.0 0.0 0.0 0.0 0.0 0.0
0.0 -3.61010483817102e-07 -2.384391063507459e-08 2.5572361306026745e-08 -1.7284506709557237e-09 1.9028191345439208e-08 0.0 0.0
0.0 2.1728400375285625e-05 -1.2986440177861877e-06 2.5519897123933878e-06 -1.2533456946069405e-06 1.2664929158946258e-05 0.0 0.0
0.0 0.0005038265006912479 0.00041691637124177097 -0.00031066206995029313 -0.00010625430129147707 -5.7851281153431203e-05 0.0 0.0
0.0 0.002050321755563189 0.0017767550407921623 -0.0014280119050005331 -0.000348743135791627 -0.00041981690869315435 0.0 0.0
0.0 0.004694335425381895 0.004246737014304155 -0.0036582522093445693 -0.0005884848049595888 -0.0012111131734846982 0.0 0.0
0.0 0.008722672693854674 0.007762952391377805 -0.007009538799381664 -0.0007534135919961392 -0.002235361926315076 0.0 0.0
0.0 0.013988038387179802 0.01228822941548733 -0.011423415015345717 -0.0008648144001416138 -0.003447337475210848 0.0 0.0
0.0 0.02031483290754087 0.017763007908355895 -0.016804309905309515 -0.0009586980030463635 -0.004741717017265122 0.0 0.0
0.0 0.027815516866197876 0.02417158269321162 -0.023119213067678418 -0.0010523696255332114 -0.0060351081573551315 0.0 0.0
0.0 0.036262462034931386 0.03158475690611806 -0.030435908445451357 -0.0011488484606667236 -0.00734444503216535 0.0 0.0
0.0 0.046355452174172106 0.04010257797507055 -0.03886285457620434 -0.0012397233988662168 -0.008762560720360793 0.0 0.0
0.0 0.05744319234356539 0.04977288034253153 -0.048454393562515685 -0.0013184867800158202 -0.010337325883020094 0.0 0.0
0.0 0.06961271272719548 0.060449155335663654 -0.05906974837869254 -0.0013794069569710988 -0.011945990308230892 0.0 0.0
0.0 0.08273792806391925 0.07172428259015147 -0.0703081208010778 -0.0014161617890736515 -0.013214554925353268 0.0 0.0
0.0 0.09565312298022492 0.08288185425958933 -0.08145866097019935 -0.0014231932893899956 -0.013569543955889675 0.0 0.0
0.0 0.1071458095186136 0.09283193812697886 -0.09143493929137851 -0.0013969988356002396 -0.012417285694709835 0.0 0.0
0.0 0.11561984607834505 0.1001921571549704 -0.09883869835429183 -0.0013534588006786981 -0.00912952163155377 0.0 0.0
0.0 0.11952203790951284 0.10326964191021885 -0.10214307781003529 -0.001126564100183578 1.4286315186406995e-14 0.0 0.0
0.0 0.11561984607833271 0.10019215715495816 -0.09883869835427996 -0.0013534588006782068 0.009129521631587714 0.0 0.0
0.0 0.10714580951858443 0.09283193812695305 -0.09143493929135227 -0.0013969988356007793 0.012417285694741806 0.0 0.0
0.0 0.09565312298018587 0.08288185425955513 -0.08145866097016487 -0.0014231932893902471 0.013569543955909142 0.0 0.0
0.0 0.08273792806387394 0.0717242825901125 -0.07030812080103936 -0.0014161617890731664 0.013214554925356696 0.0 0.0
0.0 0.06961271272714382 0.060449155335619134 -0.05906974837864763 -0.00137940695697148 0.011945990308225454 0.0 0.0
0.0 0.05744319234351667 0.04977288034248891 -0.04845439356247408 -0.0013184867800148672 0.010337325883015728 0.0 0.0
0.0 0.04635545217411786 0.0401025779750236 -0.03886285457615726 -0.0012397233988662819 0.008762560720355342 0.0 0.0
0.0 0.03626246203488206 0.031584756906075595 -0.030435908445409506 -0.0011488484606660698 0.007344445032157673 0.0 0.0
0.0 0.027815516866153016 0.02417158269317223 -0.02311921306763965 -0.001052369625532608 0.006035108157344783 0.0 0.0
0.0 0.020314832907500233 0.01776300790832041 -0.016804309905274546 -0.000958698003045854 0.004741717017254714 0.0 0.0
0.0 0.013988038387146812 0.012288229415458488 -0.011423415015317429 -0.0008648144001410503 0.003447337475200987 0.0 0.0
0.0 0.008722672693829685 0.007762952391355903 -0.007009538799360382 -0.0007534135919955229 0.002235361926308208 0.0 0.0
0.0 0.004694335425365864 0.004246737014289164 -0.003658252209330585 -0.0005884848049585778 0.0012111131734797883 0.0 0.0
0.0 0.0020503217555525844 0.0017767550407833497 -0.0014280119049929721 -0.00034874313579037687 0.0004198169086902195 0.0 0.0
0.0 0.0005038265006872467 0.00041691637123894185 -0.0003106620699481482 -0.0001062543012907939 5.785128115297245e-05 0.0 0.0
0.0 2.1728400374469715e-05 -1.2986440177172737e-06 2.5519897123216377e-06 -1.2533456946043939e-06 -1.266492915870853e-05 0.0 0.0
0.0 -3.61010483728179e-07 -2.3843910687060038e-08 2.557236134664049e-08 -1.7284506595681247e-09 -1.9028191384418205e-08 0.0 0.0
0.0 0.0 0.0 0.0 0.0 0.0 0.0 0.0
0.0 0.001438216938515383 0.000847735762322072 -0.00041940726779419015 -0.00042832849452788415 0.002649655401859708 0.0 0.0
0.0 0.006985573492579191 0.0049241587215229435 -0.00678059505503135 0.0018564363335084166 0.0026130430314906163 0.0 0.0
0.0 0.005005457188254463 0.0035146916509322702 -0.004924624587448947 0.0014099329365166798 -0.002258847645620115 0.0 0.0
0.0 0.001146588528553624 0.0005197424251126073 -0.00024268127260289652 -0.00027706115250971026 -0.0017993575650998076 0.0 0.0
0.0 0.0 0.0 0.0 0.0 0.0 0.0 0.0
0.0 -1.7918878968638495e-07 1.6580370838373166e-08 -1.3354665710081564e-08 -3.22570512829003e-09 -1.9972891801069645e-08 0.0 0.0
0.0 -1.7247639504732887e-05 -8.702002164592343e-06 6.965503600280628e-06 1.7364985643117055e-06 8.271449317444566e-06 0.0 0.0
0.0 0.00023126436760956514 0.00015596351497486113 -0.00011253095049536626 -4.34325644794946e-05 -2.2201221819133828e-05 0.0 0.0
0.0 0.0014452354672240557 0.0011235444141956133 -0.0008797757707994068 -0.00024376864339620627 -0.00039321628873984496 0.0 0.0
0.0 0.0035169271996576923 0.0031477501513081487 -0.0026498108592000347 -0.0004979392921081144 -0.0012662931376395347 0.0 0.0
0.0 0.006979133988875752 0.0061555492479416565 -0.005474199270623675 -0.0006813499773179784 -0.002526193617066205 0.0 0.0
0.0 0.011506776636416586 0.01005385175873216 -0.009251996623655275 -0.0008018551350768798 -0.003978397721462425 0.0 0.0
0.0 0.017007794277659766 0.014759642155200791 -0.013865548870521997 -0.0008940932846788048 -0.005522918400691719 0.0 0.0
0.0 0.02343000206137093 0.020240014016653027 -0.01925860929582062 -0.0009814047208324 -0.0070591798852376484 0.0 0.0
0.0 0.030886050207021114 0.026550665255549923 -0.02548067683526278 -0.001069988420287117 -0.008604591880937226 0.0 0.0
0.0 0.03911872011812269 0.033811568484324 -0.03265658288364813 -0.0011549856006758481 -0.010260392942247443 0.0 0.0
0.0 0.048834509005978285 0.042080778981740966 -0.040852640429157726 -0.0012281385525832436 -0.01207377948535128 0.0 0.0
0.0 0.05960994607593742 0.051282163682352236 -0.049997001265422794 -0.0012851624169294249 -0.013914425248914274 0.0 0.0
0.0 0.07086345648340694 0.061122892502980114 -0.05979875009360033 -0.0013241424093797449 -0.015422206929619573 0.0 0.0
0.0 0.0822851263290661 0.0710163835052831 -0.06967908206394541 -0.001337301441337783 -0.015993424844387625 0.0 0.0
0.0 0.09268186582348545 0.08004310965854929 -0.07872368617881714 -0.0013194234797321628 -0.014792769197971213 0.0 0.0
0.0 0.10063943347204128 0.08699444726497035 -0.08571384377392556 -0.0012806034910446708 -0.01083523628868609 0.0 0.0
0.0 0.10463964497786479 0.09010766889197672 -0.0891354565918384 -0.0009722123001383283 1.630987012113394e-14 0.0 0.0
0.0 0.10063943347202736 0.08699444726495667 -0.08571384377391153 -0.001280603491044991 0.01083523628872409 0.0 0.0
0.0 0.09268186582346373 0.08004310965852895 -0.07872368617879737 -0.001319423479731607 0.014792769198007344 0.0 0.0
0.0 0.08228512632903365 0.07101638350525427 -0.06967908206391628 -0.001337301441337997 0.015993424844409444 0.0 0.0
0.0 0.0708634564833677 0.06112289250294619 -0.059798750093566985 -0.0013241424093792206 0.015422206929624746 0.0 0.0
0.0 0.0596099460758971 0.051282163682317264 -0.049997001265388356 -0.0012851624169288695 0.013914425248907932 0.0 0.0
0.0 0.04883450900593486 0.042080778981703044 -0.04085264042912045 -0.0012281385525825977 0.012073779485345514 0.0 0.0
0.0 0.03911872011807851 0.033811568484285626 -0.03265658288361016 -0.0011549856006754522 0.010260392942241672 0.0 0.0
0.0 0.030886050206979605 0.02655066525551363 -0.02548067683522708 -0.0010699884202865569 0.008604591880929385 0.0 0.0
0.0 0.02343000206133261 0.020240014016619765 -0.019258609295787724 -0.0009814047208320444 0.007059179885225761 0.0 0.0
0.0 0.017007794277624905 0.014759642155170782 -0.013865548870492678 -0.00089409328467811 0.005522918400678284 0.0 0.0
0.0 0.01150677663638832 0.010053851758707778 -0.009251996623631475 -0.0008018551350763023 0.003978397721450899 0.0 0.0
0.0 0.006979133988854669 0.006155549247923037 -0.00547419927060596 -0.0006813499773170718 0.0025261936170581094 0.0 0.0
0.0 0.0035169271996456034 0.0031477501512972143 -0.0026498108591902292 -0.000497939292106987 0.0012662931376347553 0.0 0.0
0.0 0.0014452354672156275 0.0011235444141890472 -0.0008797757707940268 -0.0002437686433950216 0.0003932162887371418 0.0 0.0
0.0 0.00023126436760707302 0.00015596351497350507 -0.00011253095049437652 -4.343256447912809e-05 2.220122181874884e-05 0.0 0.0
0.0 -1.724763950490611e-05 -8.702002164186777e-06 6.965503599971768e-06 1.7364985642149449e-06 -8.271449317105504e-06 0.0 0.0
0.0 -1.7918878958620634e-07 1.6580370829333657e-08 -1.3354665703083526e-08 -3.225705126253981e-09 1.9972891788994082e-08 0.0 0.0
0.0 0.0 0.0 0.0 0.0 0.0 0.0 0.0
0.0 0.0011465885285477288 0.0005197424251098603 -0.0002426812726010773 -0.00027706115250878175 0.0017993575650919662 0.0 0.0
0.0 0.0050054571882403006 0.003514691650921219 -0.004924624587434309 0.0014099329365130841 0.0022588476456116436 0.0 0.0
0.0 0.00356138146429329 0.0024050414893278 -0.003419803817007456 0.0010147623276796558 -0.0017620428214144771 0.0 0.0
0.0 0.000631137946094729 0.0002952404406977455 -0.0001256108604757781 -0.00016962958022196753 -0.0011429741530902256 0.0 0.0
0.0 0.0 0.0 0.0 0.0 0.0 0.0 0.0
0.0 -4.930754295569554e-07 3.68350299857422e-08 -2.8272421256256188e-08 -8.562608729485888e-09 -7.715859359061078e-08 0.0 0.0
0.0 -3.179340255214735e-06 -3.4968534907582435e-06 2.8014331384298105e-06 6.954203523284426e-07 4.949858968116906e-06 0.0 0.0
0.0 3.3426799167055545e-05 3.2087978863624366e-05 -2.13827974157874e-05 -1.0705181447837134e-05 4.709149290924522e-06 0.0 0.0
0.0 0.0007157609658720125 0.0006296157183878827 -0.0004815940891104631 -0.00014802162927741988 -0.0003317611324648357 0.0 0.0
0.0 0.002690343468196502 0.0021070541939281202 -0.001726590010622543 -0.00038046418330557683 -0.001121281704750956 0.0 0.0
0.0 0.005162099845680512 0.004588785560986044 -0.003998346094428867 -0.0005904394665571742 -0.002491804197025258 0.0 0.0
0.0 0.009105796270702774 0.007844399230179967 -0.007119567128158127 -0.000724832102021844 -0.004110185884356903 0.0 0.0
0.0 0.013719076321024915 0.011779117339164317 -0.010959222295068124 -0.0008198950440961905 -0.005803730833061059 0.0 0.0
0.0 0.01906747278549599 0.016336869400389576 -0.015434165448849423 -0.0009027039515401472 -0.0074858021607380806 0.0 0.0
0.0 0.02519504381860037 0.021558489741050298 -0.020574023902139648 -0.0009844658389106678 -0.009159910867644411 0.0 0.0
0.0 0.03230588996684425 0.02755538699503047 -0.026493825481620045 -0.0010615615134104272 -0.010928796108806498 0.0 0.0
0.0 0.04028651401822284 0.034424871915939736 -0.03329501484901476 -0.0011298570669249868 -0.012857298918315632 0.0 0.0
0.0 0.049151916001574175 0.04214164817572679 -0.040956969604859096 -0.0011846785708676715 -0.01481238693582494 0.0 0.0
0.0 0.05915528401581081 0.05049518617924321 -0.04927148203140209 -0.0012237041478411169 -0.01644503125004469 0.0 0.0
0.0 0.06899093824779332 0.05907954843342006 -0.05783381145846459 -0.0012457369749554823 -0.017203781858635015 0.0 0.0
0.0 0.07812453573233681 0.06719805224127458 -0.06595826225010767 -0.0012397899911668947 -0.0161658179617424 0.0 0.0
0.0 0.08571540348806159 0.07381976997375729 -0.0726172515671126 -0.0012025184066445844 -0.0120269872151463 0.0 0.0
0.0 0.08993761051072839 0.07703885339434192 -0.07624199122427577 -0.0007968621700661911 1.6537552577355896e-14 0.0 0.0
0.0 0.08571540348805157 0.07381976997374615 -0.07261725156710182 -0.0012025184066444456 0.012026987215183329 0.0 0.0
0.0 0.07812453573231753 0.0671980522412556 -0.06595826225008908 -0.0012397899911665128 0.01616581796177903 0.0 0.0
0.0 0.06899093824776555 0.0590795484333948 -0.05783381145843957 -0.0012457369749551903 0.017203781858658493 0.0 0.0
0.0 0.05915528401577777 0.050495186179214856 -0.04927148203137399 -0.001223704147840856 0.016445031250049494 0.0 0.0
0.0 0.049151916001541854 0.04214164817569859 -0.04095696960483196 -0.0011846785708666048 0.01481238693581838 0.0 0.0
0.0 0.04028651401818682 0.03442487191590832 -0.03329501484898397 -0.0011298570669243512 0.012857298918308366 0.0 0.0
0.0 0.032305889966810365 0.02755538699500044 -0.026493825481591123 -0.0010615615134093434 0.010928796108800183 0.0 0.0
0.0 0.025195043818566666 0.021558489741021314 -0.02057402390211119 -0.0009844658389101056 0.009159910867636099 0.0 0.0
0.0 0.01906747278546329 0.016336869400361574 -0.015434165448821844 -0.0009027039515397215 0.007485802160725908 0.0 0.0
0.0 0.013719076320996136 0.01177911733914014 -0.010959222295044818 -0.0008198950440953255 0.005803730833046511 0.0 0.0
0.0 0.00910579627068 0.007844399230160339 -0.007119567128139035 -0.0007248321020212917 0.004110185884344614 0.0 0.0
0.0 0.005162099845663738 0.004588785560970955 -0.0039983460944147935 -0.0005904394665561646 0.0024918041970165626 0.0 0.0
0.0 0.002690343468184838 0.0021070541939188663 -0.0017265900106144916 -0.0003804641833043742 0.0011212817047457368 0.0 0.0
0.0 0.0007157609658663873 0.0006296157183835815 -0.0004815940891070934 -0.0001480216292764879 0.0003317611324625238 0.0 0.0
0.0 3.3426799165762424e-05 3.20879788631244e-05 -2.138279741543522e-05 -1.0705181447689212e-05 -4.709149290992073e-06 0.0 0.0
0.0 -3.179340256381256e-06 -3.496853490711893e-06 2.8014331383926054e-06 6.95420352319259e-07 -4.949858968001061e-06 0.0 0.0
0.0 -4.930754293848574e-07 3.683502997241244e-08 -2.8272421245946087e-08 -8.562608726462763e-09 7.715859356278835e-08 0.0 0.0
0.0 0.0 0.0 0.0 0.0 0.0 0.0 0.0
0.0 0.0006311379460900693 0.0002952404406957636 -0.00012561086047449142 -0.00016962958022127185 0.0011429741530840942 0.0 0.0
0.0 0.0035613814642819577 0.002405041489318998 -0.00341980381699548 0.0010147623276764795 0.001762042821408291 0.0 0.0
0.0 0.0022568703593767773 0.0015463174441383172 -0.0022218043008760857 0.0006754868567377683 -0.0012902764733460493 0.0 0.0
0.0 0.00034937921082325407 0.00012982321588161133 -3.3084013298090734e-05 -9.673920258352038e-05 -0.0006225643009471094 0.0 0.0
0.0 0.0 0.0 0.0 0.0 0.0 0.0 0.0
0.0 -2.4436484517163937e-07 1.123532113513199e-08 -8.310448798480903e-09 -2.924872336655857e-09 -4.7184642108198884e-08 0.0 0.0
0.0 -2.1238523480092814e-06 -2.3640341126934016e-07 1.8339556778788686e-07 5.300784348148125e-08 6.233329450160591e-07 0.0 0.0
0.0 -2.480541595714835e-05 -1.943019147495602e-05 1.6112347444354982e-05 3.3178440306011152e-06 3.8807700353382116e-05 0.0 0.0
0.0 0.0003330166381020539 0.00025086620844332535 -0.0001884474428179195 -6.241876562540602e-05 -0.00018996967627230601 0.0 0.0
0.0 0.0014782780399198213 0.0012517913176213176 -0.0009977824783664105 -0.00025400883925490733 -0.0009121458539706395 0.0 0.0
0.0 0.003964968158411111 0.003074260506682036 -0.0026094374416849152 -0.0004648230649971208 -0.002132766694342664 0.0 0.0
0.0 0.006628028508210348 0.005688271667281199 -0.0050631708392874855 -0.0006251008279937167 -0.0038099252248841005 0.0 0.0
0.0 0.010499675614893813 0.008843372140988268 -0.008113956301923025 -0.0007294158390652446 -0.005564447107721623 0.0 0.0
0.0 0.014818196159989219 0.012481520504843115 -0.011669855167070704 -0.0008116653377724026 -0.007296293621320825 0.0 0.0
0.0 0.01970457359056396 0.01662446816399161 -0.015736653314389996 -0.0008878148496016103 -0.008997099124769904 0.0 0.0
0.0 0.02531208957392922 0.021374808624755277 -0.020416368628666172 -0.000958439996089102 -0.010764942970555542 0.0 0.0
0.0 0.03170750677920731 0.026840276562940975 -0.02581917858216728 -0.0010210979807736863 -0.012662763059893925 0.0 0.0
0.0 0.039249720841756444 0.03304785830812706 -0.03197635961874982 -0.0010714986893772423 -0.014607474389310855 0.0 0.0
0.0 0.04689200639489926 0.03988893433687333 -0.038776215219399654 -0.0011127191174737064 -0.01627421376014023 0.0 0.0
0.0 0.05544654224824357 0.04709280236706463 -0.04594773559928983 -0.0011450667677747434 -0.017168198905267475 0.0 0.0
0.0 0.06379666833558743 0.05424362265957203 -0.05309031801780149 -0.0011533046417705397 -0.0164607838603222 0.0 0.0
0.0 0.07089001004812873 0.06056096082324293 -0.05944153650387341 -0.001119424319369575 -0.012669860985065689 0.0 0.0
0.0 0.07548563554822292 0.06394768939875646 -0.06334883976067573 -0.0005988496380806488 1.4749052673623808e-14 0.0 0.0
0.0 0.07089001004811951 0.0605609608232323 -0.059441536503862184 -0.0011194243193700468 0.012669860985102137 0.0 0.0
0.0 0.06379666833556917 0.05424362265955396 -0.05309031801778299 -0.0011533046417709668 0.01646078386035879 0.0 0.0
0.0 0.05544654224822107 0.04709280236704363 -0.04594773559926927 -0.0011450667677743792 0.017168198905289474 0.0 0.0
0.0 0.04689200639487198 0.039888934336850236 -0.038776215219376735 -0.0011127191174734802 0.01627421376014263 0.0 0.0
0.0 0.03924972084172813 0.03304785830810271 -0.03197635961872617 -0.0010714986893765504 0.014607474389302509 0.0 0.0
0.0 0.03170750677917952 0.026840276562916418 -0.025819178582143405 -0.0010210979807729987 0.012662763059886697 0.0 0.0
0.0 0.025312089573901377 0.02137480862473099 -0.0204163686286423 -0.0009584399960886717 0.010764942970549123 0.0 0.0
0.0 0.019704573590536685 0.016624468163968564 -0.015736653314367435 -0.0008878148496011313 0.008997099124760915 0.0 0.0
0.0 0.014818196159962063 0.012481520504820525 -0.011669855167048266 -0.0008116653377722721 0.0072962936213086345 0.0 0.0
0.0 0.010499675614870304 0.00884337214096882 -0.008113956301904503 -0.0007294158390643147 0.005564447107706992 0.0 0.0
0.0 0.006628028508191429 0.00568827166726545 -0.005063170839272394 -0.0006251008279930621 0.0038099252248716534 0.0 0.0
0.0 0.003964968158396328 0.0030742605066706847 -0.002609437441674559 -0.00046482306499612546 0.0021327666943347953 0.0 0.0
0.0 0.0014782780399110887 0.0012517913176143549 -0.0009977824783605257 -0.00025400883925382785 0.0009121458539656825 0.0 0.0
0.0 0.00033301663809870923 0.00025086620844140794 -0.0001884474428164892 -6.241876562491892e-05 0.00018996967627087885 0.0 0.0
0.0 -2.4805415957511874e-05 -1.9430191474521312e-05 1.6112347444019706e-05 3.317844030501518e-06 -3.8807700352619665e-05 0.0 0.0
0.0 -2.1238523480836306e-06 -2.364034113059145e-07 1.8339556781594043e-07 5.300784348998214e-08 -6.233329450533722e-07 0.0 0.0
0.0 -2.4436484509791044e-07 1.123532113164423e-08 -8.310448795894743e-09 -2.924872335750786e-09 4.718464209339819e-08 0.0 0.0
0.0 0.0 0.0 0.0 0.0 0.0 0.0 0.0
0.0 0.00034937921081963923 0.00012982321588021664 -3.3084013297151714e-05 -9.673920258306507e-05 0.0006225643009425381 0.0 0.0
0.0 0.0022568703593687047 0.0015463174441320757 -0.002221804300867324 0.0006754868567352504 0.0012902764733418422 0.0 0.0
0.0 0.0016947775724089349 0.00084835488321347 -0.0012275180413788367 0.0003791631581653674 -0.000802530002602161 0.0 0.0
0.0 5.938318161113207e-05 3.093911231773359e-05 1.6173002314807016e-05 -4.711211463254075e-05 -0.00025892238552732873 0.0 0.0
0.0 1.501239477888374e-07 -8.943371455963241e-10 1.017711353153143e-09 -1.233742075570957e-10 2.99033348444305e-08 0.0 0.0
0.0 -3.110318095085595e-07 9.145119677157732e-09 -6.435641195785186e-09 -2.7094784813723947e-09 -6.371271751080803e-08 0.0 0.0
0.0 -5.927896885364767e-07 -5.52336747519001e-07 4.378535186020441e-07 1.1448322891696225e-07 1.8473083706362104e-06 0.0 0.0
0.0 -1.8769231670618605e-05 -1.1185922503373806e-05 8.948951862841179e-06 2.2369706405325992e-06 2.7443295139659658e-05 0.0 0.0
0.0 6.705362360007365e-05 4.1268574831927865e-05 -2.9792070513863756e-05 -1.1476504318064187e-05 -4.6927704802114016e-05 0.0 0.0
0.0 0.0006987090602360745 0.0005663984273471334 -0.0004422367577755765 -0.00012416166957155718 -0.000612890283132907 0.0 0.0
0.0 0.0022073794171307724 0.0017602457924604127 -0.001449435980469462 -0.0003108098119909496 -0.001622771717690299 0.0 0.0
0.0 0.004727969072380583 0.003612416106369345 -0.003130904339702311 -0.0004815117666670312 -0.003074044682605684 0.0 0.0
0.0 0.0073700305990425765 0.005979808177765742 -0.0053741046343265654 -0.0006057035434391723 -0.004775743830913573 0.0 0.0
0.0 0.010594653716188816 0.008704808970583646 -0.008008743617690273 -0.000696065352893386 -0.006453598693273018 0.0 0.0
0.0 0.014317284460804911 0.011781104132882567 -0.011009686218649794 -0.0007714179142327557 -0.00808885801071406 0.0 0.0
0.0 0.018510538737260305 0.01529863292886311 -0.014462014182460601 -0.0008366187464025137 -0.009745185329806722 0.0 0.0
0.0 0.023441489530706364 0.019365889773693277 -0.018471816056547217 -0.0008940737171460498 -0.011493885790826544 0.0 0.0
0.0 0.028977487423835643 0.024058321533489736 -0.023116230815877055 -0.0009420907176126609 -0.013282706387310876 0.0 0.0
0.0 0.035387338293430236 0.029335099615192282 -0.028353164915402174 -0.0009819346997901048 -0.014874514112265314 0.0 0.0
0.0 0.04202724568384149 0.03508186090546825 -0.034058627160650515 -0.0010232337448177206 -0.01582636550424845 0.0 0.0
0.0 0.04882698623096225 0.04115440481769642 -0.04010035983420738 -0.0010540449834890587 -0.01555488897767374 0.0 0.0
0.0 0.055688334821784535 0.04711203816748391 -0.04608065293324761 -0.0010313852342363394 -0.01266293437193742 0.0 0.0
0.0 0.060855922182730775 0.05071509829654818 -0.050341827539585965 -0.00037327075696222606 1.2796621401411912e-14 0.0 0.0
0.0 0.05568833482177993 0.0471120381674769 -0.04608065293324021 -0.0010313852342366688 0.012662934371970132 0.0 0.0
0.0 0.04882698623094959 0.04115440481768252 -0.040100359834193286 -0.001054044983489252 0.01555488897770826 0.0 0.0
0.0 0.04202724568382438 0.03508186090545208 -0.03405862716063461 -0.0010232337448175199 0.01582636550426823 0.0 0.0
0.0 0.03538733829341155 0.02933509961517658 -0.02835316491538694 -0.0009819346997896148 0.014874514112266271 0.0 0.0
0.0 0.028977487423811257 0.024058321533469536 -0.023116230815857106 -0.0009420907176124532 0.013282706387301425 0.0 0.0
0.0 0.023441489530683608 0.019365889773673643 -0.018471816056527944 -0.0008940737171456944 0.011493885790818855 0.0 0.0
0.0 0.018510538737238593 0.015298632928844577 -0.014462014182442404 -0.0008366187464021806 0.009745185329800628 0.0 0.0
0.0 0.014317284460784738 0.01178110413286593 -0.011009686218633652 -0.0007714179142322715 0.008088858010705564 0.0 0.0
0.0 0.010594653716170658 0.008704808970568573 -0.00800874361767548 -0.0006960653528930807 0.006453598693262624 0.0 0.0
0.0 0.007370030599022966 0.005979808177750272 -0.005374104634311761 -0.0006057035434385054 0.00477574383089919 0.0 0.0
0.0 0.0047279690723646085 0.0036124161063569842 -0.0031309043396906774 -0.00048151176666630884 0.003074044682594262 0.0 0.0
0.0 0.0022073794171217835 0.0017602457924535166 -0.0014494359804634424 -0.00031080981199007327 0.001622771717684658 0.0 0.0
0.0 0.0006987090602309196 0.0005663984273434145 -0.00044223675777252944 -0.0001241616695708854 0.0006128902831290881 0.0 0.0
0.0 6.705362359855358e-05 4.1268574831131e-05 -2.9792070513278463e-05 -1.1476504317852602e-05 4.692770480097724e-05 0.0 0.0
0.0 -1.876923167119892e-05 -1.1185922502985817e-05 8.948951862533819e-06 2.2369706404520405e-06 -2.7443295138527886e-05 0.0 0.0
0.0 -5.927896886955267e-07 -5.523367475798059e-07 4.378535186508693e-07 1.1448322892892572e-07 -1.8473083707956017e-06 0.0 0.0
0.0 -3.1103180944933557e-07 9.145119675171675e-09 -6.435641194459957e-09 -2.709478480710289e-09 6.371271749740787e-08 0.0 0.0
0.0 1.5012394747879627e-07 -8.94337143643398e-10 1.0177113510135556e-09 -1.2337420737023362e-10 -2.990333478189685e-08 0.0 0.0
0.0 5.938318160919031e-05 3.09391123170647e-05 1.6173002315209736e-05 -4.711211463227455e-05 0.00025892238552464435 0.0 0.0
0.0 0.0016947775724014947 0.0008483548832092157 -0.0012275180413727485 0.0003791631581635328 0.0008025300025988827 0.0 0.0
0.0 0.0007326986916504486 0.00040338574645919304 -0.0005877643071780876 0.00018437856071889473 -0.0004748472639068944 0.0 0.0
0.0 -2.8821947597132872e-05 -1.9781916265100308e-05 4.145793568794544e-05 -2.167601942284513e-05 -3.120693992411973e-05 0.0 0.0
0.0 2.2756234019458266e-06 -3.622856323065417e-09 1.1119213435067454e-08 -7.496357112000574e-09 4.94855934509731e-07 0.0 0.0
0.0 7.864306231303351e-07 -1.6387003304045022e-09 -2.085611771306629e-10 1.847261507534281e-09 1.628291981626507e-07 0.0 0.0
0.0 -9.772756426188218e-07 -3.398045258660806e-07 2.590990181556171e-07 8.070550771046258e-08 2.1999922900174767e-06 0.0 0.0
0.0 -1.4462249581866582e-05 -3.118218133622721e-06 2.5315201041066685e-06 5.866980295160523e-07 1.122080958253498e-05 0.0 0.0
0.0 -7.839274134671368e-07 -1.3642896362708873e-05 1.1130505087270372e-05 2.5123912754384375e-06 2.935551648033583e-05 0.0 0.0
0.0 0.00025722726453222204 0.00011400832480236425 -8.975831384047702e-05 -2.4250010961887153e-05 -0.00023903460753091487 0.0 0.0
0.0 0.0009942847111039444 0.0006823025202295768 -0.0005521506159872726 -0.00013015190424230417 -0.0009960497650987525 0.0 0.0
0.0 0.002478064013541037 0.0017656306875859346 -0.001487393456675188 -0.00027823723091074807 -0.0020852412980135924 0.0 0.0
0.0 0.00426121435569139 0.0032721248702013888 -0.002857358722034422 -0.00041476614816696693 -0.0034808507487674805 0.0 0.0
0.0 0.006537432037451133 0.005056393318786576 -0.004538312319224554 -0.0005180809995620204 -0.004936984814990311 0.0 0.0
0.0 0.009054200365199638 0.007076352340500789 -0.006473419213511823 -0.0006029331269889629 -0.006405494835792475 0.0 0.0
0.0 0.01189530404633179 0.009382288104027608 -0.00871219696058022 -0.0006700911434473787 -0.007872334124421293 0.0 0.0
0.0 0.015232818588526405 0.01206682033672551 -0.011340605717615406 -0.0007262146191101085 -0.009364761726846246 0.0 0.0
0.0 0.019169196107598364 0.015228051301141018 -0.014454447863321906 -0.0007736034378191073 -0.010894798177798285 0.0 0.0
0.0 0.0236900093220864 0.018917237446995173 -0.01810017367797415 -0.0008170637690210001 -0.01233048042855076 0.0 0.0
0.0 0.028568200755372225 0.023127140628158373 -0.022266806002791257 -0.0008603346253671567 -0.013295538509825322 0.0 0.0
0.0 0.03408221244470181 0.027925839609645637 -0.02701295694592307 -0.0009128826637225373 -0.013323986462878848 0.0 0.0
0.0 0.04049779325680417 0.03335578181901458 -0.0324262957493041 -0.0009294860697104765 -0.011732990606772385 0.0 0.0
0.0 0.04613022221463814 0.03720923691661908 -0.037092121566006234 -0.0001171153506128823 1.0048385734595655e-14 0.0 0.0
0.0 0.040497793256805935 0.033355781819011714 -0.032426295749301524 -0.0009294860697101795 0.011732990606800489 0.0 0.0
0.0 0.03408221244469315 0.027925839609635246 -0.02701295694591274 -0.0009128826637224762 0.013323986462908572 0.0 0.0
0.0 0.02856820075535908 0.023127140628146338 -0.022266806002779773 -0.0008603346253665376 0.013295538509840034 0.0 0.0
0.0 0.023690009322073862 0.018917237446985292 -0.018100173677965105 -0.0008170637690201835 0.012330480428549229 0.0 0.0
0.0 0.01916919610758316 0.015228051301129017 -0.014454447863309973 -0.0007736034378190246 0.010894798177790203 0.0 0.0
0.0 0.01523281858850837 0.01206682033671088 -0.011340605717600457 -0.0007262146191104248 0.009364761726838023 0.0 0.0
0.0 0.011895304046318863 0.009382288104016812 -0.008712196960569924 -0.0006700911434468866 0.0078723341244168 0.0 0.0
0.0 0.009054200365187056 0.007076352340490527 -0.006473419213501982 -0.0006029331269885515 0.006405494835785779 0.0 0.0
0.0 0.0065374320374372895 0.005056393318776253 -0.004538312319214983 -0.0005180809995612718 0.004936984814981016 0.0 0.0
0.0 0.004261214355679113 0.003272124870192156 -0.002857358722025663 -0.00041476614816649297 0.003480850748756359 0.0 0.0
0.0 0.002478064013530552 0.0017656306875785076 -0.001487393456668525 -0.000278237230909982 0.0020852412980053333 0.0 0.0
0.0 0.0009942847110985412 0.0006823025202258032 -0.0005521506159842199 -0.00013015190424158296 0.0009960497650946592 0.0 0.0
0.0 0.00025722726453033113 0.00011400832480149443 -8.97583138397538e-05 -2.42500109617405e-05 0.00023903460752934815 0.0 0.0
0.0 -7.839274148745183e-07 -1.364289636243816e-05 1.1130505087057184e-05 2.512391275381035e-06 -2.9355516480001883e-05 0.0 0.0
0.0 -1.4462249581969928e-05 -3.118218133355886e-06 2.5315201038975335e-06 5.866980294583197e-07 -1.1220809581162338e-05 0.0 0.0
0.0 -9.772756432961733e-07 -3.3980452590838435e-07 2.590990181894388e-07 8.070550771895719e-08 -2.1999922901838158e-06 0.0 0.0
0.0 7.864306230353753e-07 -1.6387003332195712e-09 -2.0856117435996048e-10 1.847261507578611e-09 -1.6282919813890725e-07 0.0 0.0
0.0 2.2756234013447927e-06 -3.6228563214464765e-09 1.1119213431972399e-08 -7.496357110524799e-09 -4.948559343785076e-07 0.0 0.0
0.0 -2.8821947598202394e-05 -1.9781916265230287e-05 4.1457935687925544e-05 -2.167601942269518e-05 3.120693992313511e-05 0.0 0.0
0.0 0.0007326986916454727 0.00040338574645666897 -0.0005877643071744131 0.0001843785607177436 0.00047484726390454495 0.0 0.0
0.0 0.0002658750104789084 0.00011094122219851414 -0.00016307691699741228 5.2135694798898314e-05 -0.00015630088056695795 0.0 0.0
0.0 -3.66640457279014e-05 -1.7803439367602097e-05 2.4842147364154578e-05 -7.038707996552482e-06 2.9934131310173362e-05 0.0 0.0
0.0 5.096525743868014e-07 9.381252579871773e-11 1.5396771685514519e-09 -1.6334896943491657e-09 1.0271581062143611e-07 0.0 0.0
0.0 4.096640072979324e-07 9.90752011270457e-09 -8.396156044114786e-09 -1.5113640685919163e-09 8.098632487915903e-08 0.0 0.0
0.0 -9.706083771774111e-08 3.176992512263397e-08 -2.889344576554432e-08 -2.876479357081302e-09 4.159591329615694e-07 0.0 0.0
0.0 -9.404909624400476e-06 -2.3825541408729436e-06 1.8822818670457874e-06 5.002722738271311e-07 2.07961798874e-05 0.0 0.0
0.0 9.33519153350031e-06 -3.2533167160731577e-06 2.7129804194294685e-06 5.403362966437175e-07 7.213177370144974e-06 0.0 0.0
0.0 7.643251150441477e-05 1.3022463678571628e-08 3.914828569154597e-08 -5.2170749370204684e-08 -9.910276697708361e-05 0.0 0.0
0.0 0.00027157383040979637 6.417312166863475e-05 -5.61981914483822e-05 -7.97493022025234e-06 -0.0004077499969173142 0.0 0.0
0.0 0.0007636589780500712 0.00032869364535492756 -0.00029265383211785463 -3.6039813237073594e-05 -0.0010289986526566613 0.0 0.0
0.0 0.001764721060178495 0.0008905370292688207 -0.0007950514614784899 -9.548556779033017e-05 -0.0019493207773983645 0.0 0.0
0.0 0.0028239185237189718 0.0017017112791967448 -0.0015300929206524877 -0.0001716183585442574 -0.003070079641585959 0.0 0.0
0.0 0.00420409088132152 0.0026639188195844376 -0.0024185014069644448 -0.00024541741261999004 -0.004242570858692486 0.0 0.0
0.0 0.00581110274936618 0.0037745188319553992 -0.0034588948497438015 -0.0003156239822115972 -0.005455330668996387 0.0 0.0
0.0 0.007662166672395242 0.005097636255322631 -0.0047126006026258676 -0.00038503565269676213 -0.006727759615388528 0.0 0.0
0.0 0.009895250436825716 0.006727105857794609 -0.006275433402415297 -0.0004516724553793116 -0.0080740639707692 0.0 0.0
0.0 0.012682070936299859 0.008790039360376947 -0.00827034079533146 -0.0005196985650454856 -0.009446476589023433 0.0 0.0
0.0 0.01612642861858752 0.011422623572404353 -0.010837543109955406 -0.0005850804624489424 -0.010515330953259096 0.0 0.0
0.0 0.020096473889673675 0.014770031725741789 -0.014124454437529757 -0.0006455772882120474 -0.01068339870433335 0.0 0.0
0.0 0.025072608595535378 0.019276800168112295 -0.01852819507051788 -0.0007486050975944016 -0.00976188295431134 0.0 0.0
0.0 0.032183008806373654 0.023304803546195622 -0.02349517840683997 0.00019037486064434802 8.78767544842951e-15 0.0 0.0
0.0 0.025072608595536318 0.01927680016810888 -0.018528195070513988 -0.0007486050975949147 0.009761882954333395 0.0 0.0
0.0 0.020096473889670678 0.014770031725737097 -0.014124454437524926 -0.0006455772882121718 0.010683398704355439 0.0 0.0
0.0 0.01612642861857715 0.011422623572396578 -0.010837543109947447 -0.0005850804624491308 0.010515330953265843 0.0 0.0
0.0 0.012682070936289896 0.008790039360371309 -0.008270340795326217 -0.0005196985650450953 0.009446476589018505 0.0 0.0
0.0 0.009895250436818137 0.006727105857789369 -0.0062754334024105775 -0.0004516724553787931 0.00807406397076265 0.0 0.0
0.0 0.007662166672386686 0.005097636255316295 -0.004712600602619257 -0.00038503565269703383 0.00672775961538218 0.0 0.0
0.0 0.0058111027493609755 0.003774518831952366 -0.0034588948497408906 -0.0003156239822114805 0.005455330668993278 0.0 0.0
0.0 0.004204090881314069 0.0026639188195800366 -0.0024185014069602025 -0.0002454174126198328 0.004242570858686021 0.0 0.0
0.0 0.0028239185237111854 0.0017017112791923778 -0.0015300929206484254 -0.00017161835854395232 0.0030700796415774815 0.0 0.0
0.0 0.0017647210601719231 0.0008905370292652958 -0.0007950514614752357 -9.548556779005935e-05 0.0019493207773910355 0.0 0.0
0.0 0.0007636589780463296 0.00032869364535341916 -0.00029265383211644707 -3.6039813236972425e-05 0.0010289986526533321 0.0 0.0
0.0 0.00027157383040772235 6.41731216677438e-05 -5.619819144759696e-05 -7.974930220146481e-06 0.0004077499969143164 0.0 0.0
0.0 7.643251150404075e-05 1.3022463852659768e-08 3.914828554619088e-08 -5.2170749398944485e-08 9.910276697694586e-05 0.0 0.0
0.0 9.33519153211201e-06 -3.253316716064664e-06 2.712980419424363e-06 5.4033629664031e-07 -7.213177370278689e-06 0.0 0.0
0.0 -9.404909624313116e-06 -2.3825541407960064e-06 1.8822818669881512e-06 5.002722738078568e-07 -2.0796179886363725e-05 0.0 0.0
0.0 -9.706083824089815e-08 3.176992510927292e-08 -2.889344575502035e-08 -2.8764793542557807e-09 -4.159591330680599e-07 0.0 0.0
0.0 4.096640068308793e-07 9.90752010832275e-09 -8.39615604017302e-09 -1.5113640681489081e-09 -8.098632478345155e-08 0.0 0.0
0.0 5.096525740515149e-07 9.381252618957887e-11 1.539677166806176e-09 -1.6334896929998106e-09 -1.0271581055161462e-07 0.0 0.0
0.0 -3.666404572762097e-05 -1.780343936721592e-05 2.4842147363689048e-05 -7.038707996473119e-06 -2.993413130918335e-05 0.0 0.0
0.0 0.0002658750104760452 0.00011094122219747278 -0.00016307691699594287 5.213569479846998e-05 0.00015630088056538366 0.0 0.0
0.0 1.3872142525193996e-05 9.531678602753735e-06 -1.48345905234004e-05 5.302911920646606e-06 -1.4367935899581381e-05 0.0 0.0
0.0 -1.94051682916096e-06 -1.4399595096440732e-06 2.1683480293657883e-06 -7.283885197217016e-07 2.2876911485213833e-06 0.0 0.0
0.0 3.5759001331691198e-06 7.986315396137052e-09 8.366707199187852e-09 -1.635302259532953e-08 7.502227561823966e-07 0.0 0.0
0.0 1.2246992186459819e-06 2.5381721250776117e-08 -2.1230686758183485e-08 -4.151034492589344e-09 2.8141206157904865e-07 0.0 0.0
0.0 -1.2518468598695512e-06 1.2669841209849635e-07 -1.221644284784921e-07 -4.5339836200044425e-09 2.2876574810656336e-06 0.0 0.0
0.0 -7.283120191685377e-06 -1.2028299006059632e-07 1.332125667363325e-07 -1.2929576675733022e-08 1.5199199726814848e-05 0.0 0.0
0.0 1.0812275207315366e-05 -4.487518112859662e-07 4.34666356393863e-07 1.4085454892093362e-08 3.1566928260891873e-06 0.0 0.0
0.0 7.720122962143976e-05 -4.983649456471636e-07 4.990087256531021e-07 -6.437800059238126e-10 -0.00013469437004658616 0.0 0.0
0.0 0.00024151392030226005 -3.346099986310919e-08 3.4922487385842625e-08 -1.4614875227108117e-09 -0.0003311997562498161 0.0 0.0
0.0 0.0003941496881907537 1.8126829795230723e-07 -1.1326452476550909e-07 -6.800377318683419e-08 -0.000673959233638999 0.0 0.0
0.0 0.0007078350329624122 -1.0117340503828772e-06 4.862298738574692e-07 5.2550417652533e-07 -0.0011346169784327564 0.0 0.0
0.0 0.0009517957288184603 2.2005459584004903e-06 -1.6740537302168746e-06 -5.264922281834497e-07 -0.001897768500148755 0.0 0.0
0.0 0.0013716434072449408 -2.71859211209408e-06 4.425392946715679e-06 -1.7068008346212264e-06 -0.0028322938716352775 0.0 0.0
0.0 0.002021540090316906 -1.4755669402354054e-05 1.779615129037464e-05 -3.0404818880205332e-06 -0.0039713444727370074 0.0 0.0
0.0 0.0028959200569077443 -7.546802620367289e-06 6.15316969202525e-06 1.3936329283419037e-06 -0.00526751035800213 0.0 0.0
0.0 0.0039088138075124524 9.842738561633406e-05 -0.00011698688823948172 1.855950262314605e-05 -0.006719110831465868 0.0 0.0
0.0 0.005131569632914481 0.00048071761295145904 -0.0005390311781680207 5.831356521656205e-05 -0.008276530864512263 0.0 0.0
0.0 0.006533331892412852 0.001310012873798504 -0.0014754924125477624 0.00016547953874925528 -0.009808722926793806 0.0 0.0
0.0 0.0086528485731843 0.0024180802974403076 -0.0026937019407624195 0.00027562164332211496 -0.010964241320958839 0.0 0.0
0.0 0.012728839674100607 0.005278367660569191 -0.005127786473304591 -0.0001505811872645969 -0.010943349185682853 0.0 0.0
0.0 0.0221729749846687 0.009842789940533912 -0.01050066948738595 0.000657879546852045 9.487636370986152e-15 0.0 0.0
0.0 0.012728839674104011 0.005278367660568014 -0.005127786473303402 -0.00015058118726460758 0.010943349185698791 0.0 0.0
0.0 0.008652848573182749 0.0024180802974392707 -0.00269370194076154 0.00027562164332226935 0.010964241320963493 0.0 0.0
0.0 0.0065333318924046075 0.0013100128737976024 -0.0014754924125462113 0.00016547953874860772 0.009808722926785966 0.0 0.0
0.0 0.005131569632911341 0.00048071761295084945 -0.0005390311781665701 5.8313565215720956e-05 0.008276530864505745 0.0 0.0
0.0 0.003908813807508658 9.842738561585001e-05 -0.00011698688823858047 1.8559502622731667e-05 0.006719110831459118 0.0 0.0
0.0 0.002895920056902315 -7.5468026196042815e-06 6.153169691326969e-06 1.3936329282765127e-06 0.005267510357996009 0.0 0.0
0.0 0.0020215400903157666 -1.4755669401269255e-05 1.7796151289430843e-05 -3.0404818881610865e-06 0.003971344472733606 0.0 0.0
0.0 0.0013716434072397208 -2.718592112588422e-06 4.425392947202811e-06 -1.7068008346143824e-06 0.0028322938716259707 0.0 0.0
0.0 0.0009517957288150645 2.20054595847282e-06 -1.6740537303522101e-06 -5.264922281207726e-07 0.0018977685001416186 0.0 0.0
0.0 0.0007078350329598253 -1.0117340502723834e-06 4.862298737190403e-07 5.255041765534719e-07 0.0011346169784283043 0.0 0.0
0.0 0.00039414968819009735 1.8126829811518743e-07 -1.1326452490126497e-07 -6.80037732138818e-08 0.0006739592336372868 0.0 0.0
0.0 0.00024151392030112654 -3.346099979589784e-08 3.4922487330321905e-08 -1.4614875344613342e-09 0.0003311997562482445 0.0 0.0
0.0 7.720122962065473e-05 -4.983649456659851e-07 4.990087256999592e-07 -6.437800339607653e-10 0.00013469437004583423 0.0 0.0
0.0 1.0812275206582852e-05 -4.487518112858523e-07 4.3466635639264824e-07 1.4085454893217223e-08 -3.1566928261400406e-06 0.0 0.0
0.0 -7.283120191692113e-06 -1.2028299008835386e-07 1.3321256676119675e-07 -1.2929576672849277e-08 -1.5199199725692273e-05 0.0 0.0
0.0 -1.2518468606018361e-06 1.266984121186041e-07 -1.2216442849522443e-07 -4.533983623376408e-09 -2.287657481392311e-06 0.0 0.0
0.0 1.2246992180088121e-06 2.5381721259092194e-08 -2.1230686764499366e-08 -4.151034494593747e-09 -2.8141206165292687e-07 0.0 0.0
0.0 3.5759001328437384e-06 7.986315396940471e-09 8.366707200290439e-09 -1.635302259722172e-08 -7.502227562251491e-07 0.0 0.0
0.0 -1.9405168295701292e-06 -1.4399595096723262e-06 2.1683480293948297e-06 -7.283885197225157e-07 -2.2876911485192424e-06 0.0 0.0
0.0 1.3872142524235146e-05 9.531678602858968e-06 -1.483459052354775e-05 5.302911920688876e-06 1.4367935899860696e-05 0.0 0.0
0.0 1.2392568618169737e-06 -7.491151091484791e-08 1.1767598598030642e-07 -4.2764475065472074e-08 1.441325408975938e-07 0.0 0.0
0.0 9.72057767056901e-08 1.0988715072973207e-08 -1.4063461377586161e-08 3.0747463046138e-09 4.5551078135935554e-08 0.0 0.0
0.0 -9.462402876639674e-07 -1.4420182900349973e-08 9.087742586867969e-09 5.332440313481976e-09 -2.0327672830565067e-07 0.0 0.0
0.0 1.2179395817203402e-06 1.1035003515391769e-07 -9.250184990650706e-08 -1.7848185247412194e-08 7.672263959003593e-07 0.0 0.0
0.0 -1.7932405396839713e-06 2.0208773404765872e-07 -1.8743847401469773e-07 -1.4649260032958725e-08 1.2225114394928623e-06 0.0 0.0
0.0 -8.185677737144289e-06 6.344991147086527e-07 -4.2236611695467504e-07 -2.1213299775394561e-07 8.113809729669158e-06 0.0 0.0
0.0 2.6511565590880917e-05 3.3957614124837316e-06 -2.5949966976062705e-06 -8.007647148775261e-07 1.0650767067984976e-05 0.0 0.0
0.0 8.328690364181779e-05 -1.35640248519714e-06 1.22956190424691e-06 1.2684058095025665e-07 -0.00010251693295526833 0.0 0.0
0.0 0.00027249805256783223 -6.483083986499613e-05 5.673405196635831e-05 8.096787898637692e-06 -0.000410296573789027 0.0 0.0
0.0 0.0007616606960800748 -0.00032785746772198145 0.0002918364487586022 3.6021018963379443e-05 -0.0010282752101935428 0.0 0.0
0.0 0.001769241252227556 -0.0008848022129062817 0.000790890334790852 9.391187811542916e-05 -0.0019432518994646102 0.0 0.0
0.0 0.002840534668011448 -0.0017095617177500877 0.0015365560631663078 0.00017300565458377846 -0.003070463644920318 0.0 0.0
0.0 0.004233872997386298 -0.0026885015939422992 0.0024399171495973243 0.0002485844443449709 -0.004242747670101686 0.0 0.0
0.0 0.005862614744430382 -0.0038192616328633767 0.0035003185108031807 0.0003189431220601991 -0.00545297486672229 0.0 0.0
0.0 0.007650953626574704 -0.005102098510341068 0.004726190759009345 0.0003759077513317248 -0.006740032330578199 0.0 0.0
0.0 0.009566532318891211 -0.006435065678914921 0.006032939275978028 0.0004021264029368908 -0.008173149128109312 0.0 0.0
0.0 0.011334411698970261 -0.007566884816207465 0.007179307318122947 0.00038757749808451895 -0.009824095908369431 0.0 0.0
0.0 0.012770993347524831 -0.008087595640724194 0.007778144389523629 0.00030945125120055534 -0.01172654426450588 0.0 0.0
0.0 0.01297604927431149 -0.0074805403118966985 0.00731924272879636 0.00016129758310034874 -0.013849417019511909 0.0 0.0
0.0 0.010766180186400472 -0.005405903054322362 0.005486409050809634 -8.050599648726713e-05 -0.015497343820357288 0.0 0.0
0.0 0.021150849539433494 -0.002902502112545595 0.0011605833173690225 0.0017419187951765722 1.2688201184163361e-14 0.0 0.0
0.0 0.010766180186403749 -0.005405903054322845 0.0054864090508101905 -8.050599648734146e-05 0.015497343820365357 0.0 0.0
0.0 0.012976049274310876 -0.007480540311894235 0.007319242728794756 0.00016129758309948747 0.013849417019525027 0.0 0.0
0.0 0.012770993347515264 -0.008087595640717796 0.007778144389517062 0.0003094512512007311 0.011726544264504849 0.0 0.0
0.0 0.011334411698961872 -0.007566884816201696 0.007179307318116969 0.0003875774980847248 0.009824095908365096 0.0 0.0
0.0 0.009566532318880919 -0.006435065678907569 0.006032939275970603 0.00040212640293696173 0.008173149128101152 0.0 0.0
0.0 0.0076509536265645176 -0.005102098510332623 0.004726190759001492 0.00037590775133113525 0.006740032330570278 0.0 0.0
0.0 0.00586261474442128 -0.0038192616328565176 0.003500318510796392 0.0003189431220601271 0.005452974866716132 0.0 0.0
0.0 0.0042338729973737926 -0.002688501593932788 0.0024399171495884837 0.00024858444434430266 0.004242747670093158 0.0 0.0
0.0 0.002840534668000318 -0.001709561717743016 0.0015365560631599362 0.00017300565458308026 0.00307046364490988 0.0 0.0
0.0 0.0017692412522173173 -0.0008848022129004709 0.0007908903347856254 9.391187811484501e-05 0.0019432518994552629 0.0 0.0
0.0 0.0007616606960758007 -0.0003278574677204472 0.0002918364487571104 3.602101896333653e-05 0.001028275210190696 0.0 0.0
0.0 0.00027249805256561194 -6.483083986421451e-05 5.6734051965660354e-05 8.096787898554243e-06 0.0004102965737866329 0.0 0.0
0.0 8.328690364111459e-05 -1.3564024853238189e-06 1.229561904363821e-06 1.268405809600081e-07 0.00010251693295499102 0.0 0.0
0.0 2.6511565589258612e-05 3.395761412479152e-06 -2.594996697609651e-06 -8.00764714869492e-07 -1.065076706811078e-05 0.0 0.0
0.0 -8.185677737127596e-06 6.344991146046106e-07 -4.2236611687006677e-07 -2.1213299773453633e-07 -8.113809728784974e-06 0.0 0.0
0.0 -1.7932405395565322e-06 2.0208773391043767e-07 -1.8743847389716794e-07 -1.4649260013273573e-08 -1.2225114382940275e-06 0.0 0.0
0.0 1.2179395813753475e-06 1.103500351163079e-07 -9.250184987721329e-08 -1.7848185239094284e-08 -7.672263953959417e-07 0.0 0.0
0.0 -9.462402875538081e-07 -1.4420182906866252e-08 9.087742581129425e-09 5.332440325733853e-09 2.0327672879065258e-07 0.0 0.0
0.0 9.720577637506448e-08 1.0988715073645247e-08 -1.4063461376013425e-08 3.0747463023720136e-09 -4.5551078257403936e-08 0.0 0.0
0.0 1.2392568610875138e-06 -7.491151086901853e-08 1.1767598590977797e-07 -4.276447504077999e-08 -1.441325408055337e-07 0.0 0.0
0.0 0.0 0.0 0.0 0.0 0.0 0.0 0.0
0.0 -1.59855136193298e-07 -1.8514062365601714e-09 1.0225299249188145e-09 8.288763116405632e-10 -3.193717500959494e-08 0.0 0.0
0.0 -1.9941408768480762e-07 2.5828373453587508e-08 -1.864119821716918e-08 -7.1871752364167e-09 2.747206064252455e-07 0.0 0.0
0.0 -2.298051953560241e-07 -2.1538815770994417e-07 1.7599475011277815e-07 3.93934075971572e-08 -1.3710705848098936e-06 0.0 0.0
0.0 4.9582583867372025e-06 6.738651282015276e-07 -5.669666132797648e-07 -1.0689851492171679e-07 3.956718657192707e-06 0.0 0.0
0.0 3.966644970481677e-06 7.300271212163097e-06 -5.858962779947927e-06 -1.4413084322151474e-06 2.8434263520388242e-05 0.0 0.0
0.0 2.6370342955565463e-07 4.506125395946572e-06 -3.557496611127e-06 -9.486287848195136e-07 -1.308631424425104e-05 0.0 0.0
0.0 0.00027022997930771617 -0.00011927886270351342 9.42786239738778e-05 2.5000238729635552e-05 -0.0002509896895309443 0.0 0.0
0.0 0.0009932379531664287 -0.0006815437725163844 0.0005514087293403886 0.00013013504317599563 -0.0009969469761053982 0.0 0.0
0.0 0.0024737352098951225 -0.0017633901829169933 0.0014852511396075793 0.0002781390433094124 -0.0020817929781892877 0.0 0.0
0.0 0.004260210211423961 -0.003272106711339525 0.0028573964389442446 0.00041471027239528194 -0.0034789774202041808 0.0 0.0
0.0 0.0065453038107289975 -0.005062817908231186 0.004544343747234432 0.0005184741609967542 -0.004937672259996958 0.0 0.0
0.0 0.009078257231851293 -0.007098332195997802 0.00649448219200857 0.0006038500039892259 -0.006395005494555666 0.0 0.0
0.0 0.011934147312151967 -0.009424122849045652 0.008753790424571702 0.0006703324244739514 -0.007833550315341936 0.0 0.0
0.0 0.01522722926355687 -0.012077061048997972 0.011357476491376554 0.0007195845576214103 -0.009332077740755607 0.0 0.0
0.0 0.018875909735705784 -0.01497475563549144 0.01422863958141601 0.0007461160540754274 -0.011073255093952078 0.0 0.0
0.0 0.022521438489277706 -0.01782557943715229 0.01707692271918031 0.0007486567179719834 -0.013272489386215537 0.0 0.0
0.0 0.025442496229032684 -0.02012126295825343 0.019390510988189093 0.0007307519700643459 -0.016038799761112738 0.0 0.0
0.0 0.02706836692868061 -0.020908500785389937 0.020240227032737028 0.0006682737526529073 -0.01881967399612616 0.0 0.0
0.0 0.025060257317367517 -0.018349133603740072 0.0177702010591566 0.0005789325445834581 -0.019350263073203006 0.0 0.0
0.0 0.02613439026018248 -0.014447039054165556 0.011905651475516598 0.002541387578648955 1.1938366961672386e-14 0.0 0.0
0.0 0.025060257317374976 -0.018349133603740738 0.017770201059157827 0.0005789325445829089 0.019350263073227205 0.0 0.0
0.0 0.027068366928678807 -0.020908500785384924 0.020240227032732042 0.0006682737526528841 0.01881967399614776 0.0 0.0
0.0 0.025442496229018084 -0.020121262958240457 0.019390510988176405 0.0007307519700640575 0.016038799761119514 0.0 0.0
0.0 0.02252143848925901 -0.017825579437137164 0.017076922719165232 0.0007486567179719316 0.013272489386210805 0.0 0.0
0.0 0.01887590973568586 -0.014974755635475298 0.014228639581400115 0.0007461160540751861 0.011073255093942531 0.0 0.0
0.0 0.015227229263539966 -0.012077061048984091 0.011357476491363303 0.0007195845576207857 0.009332077740746509 0.0 0.0
0.0 0.01193414731213491 -0.009424122849030917 0.008753790424557258 0.0006703324244736458 0.007833550315333428 0.0 0.0
0.0 0.009078257231832055 -0.007098332195982295 0.006494482191993388 0.0006038500039889031 0.006395005494545936 0.0 0.0
0.0 0.00654530381071113 -0.005062817908217504 0.004544343747221464 0.0005184741609960388 0.004937672259984426 0.0 0.0
0.0 0.004260210211407446 -0.0032721067113267058 0.002857396438932146 0.00041471027239456013 0.0034789774201909244 0.0 0.0
0.0 0.0024737352098830093 -0.0017633901829081809 0.001485251139599637 0.00027813904330854376 0.0020817929781806205 0.0 0.0
0.0 0.000993237953159591 -0.0006815437725115612 0.0005514087293365053 0.00013013504317505565 0.0009969469761002326 0.0 0.0
0.0 0.00027022997930471564 -0.00011927886270186297 9.427862397258285e-05 2.500023872927993e-05 0.0002509896895281129 0.0 0.0
0.0 2.6370342847776624e-07 4.506125395650212e-06 -3.5574966109008285e-06 -9.486287847493979e-07 1.3086314244604957e-05 0.0 0.0
0.0 3.966644969175008e-06 7.300271212072065e-06 -5.858962779871903e-06 -1.4413084322002616e-06 -2.8434263519905596e-05 0.0 0.0
0.0 4.958258386210212e-06 6.738651282079499e-07 -5.669666132852018e-07 -1.068985149227504e-07 -3.956718657235441e-06 0.0 0.0
0.0 -2.2980519549819493e-07 -2.1538815782330643e-07 1.7599475020454893e-07 3.9393407618768985e-08 1.3710705856223871e-06 0.0 0.0
0.0 -1.9941408819639546e-07 2.5828373477246296e-08 -1.864119823831641e-08 -7.187175238928155e-09 -2.7472060652209204e-07 0.0 0.0
0.0 -1.598551359760529e-07 -1.8514062343378152e-09 1.022529924327987e-09 8.28876310009049e-10 3.1937174965589786e-08 0.0 0.0
0.0 0.0 0.0 0.0 0.0 0.0 0.0 0.0
0.0 0.0 0.0 0.0 0.0 0.0 0.0 0.0
0.0 -2.601208151042033e-07 -4.54463681070783e-09 2.796718489368658e-09 1.747918321339569e-09 -5.343306389855201e-08 0.0 0.0
0.0 3.034054291392965e-07 -9.561134788603184e-09 1.1062018294505187e-08 -1.5008835058998862e-09 6.807127347356168e-08 0.0 0.0
0.0 1.3362785799638764e-06 2.878786360088314e-07 -2.395591357670983e-07 -4.8319500241739456e-08 1.1204183691988318e-06 0.0 0.0
0.0 -8.980326384155852e-08 2.4093120066461596e-06 -1.9358890052479196e-06 -4.7342300139827346e-07 7.546592092523066e-06 0.0 0.0
0.0 -1.5869011706462954e-05 2.1705734019686436e-06 -1.7470140714909715e-06 -4.2355933047761776e-07 -2.1110077594162376e-06 0.0 0.0
0.0 0.00012572064240983617 -5.115745439025689e-05 3.8290381871951176e-05 1.2867072518305579e-05 -6.152703492699735e-05 0.0 0.0
0.0 0.0007123643559479314 -0.0005694921452149117 0.00044526517508595607 0.0001242269701289557 -0.0006219287386467643 0.0 0.0
0.0 0.0022037598072069745 -0.0017574620667325915 0.001446708221859834 0.00031075384487275605 -0.0016200150611972287 0.0 0.0
0.0 0.0047250598092015445 -0.0036103837719329564 0.0031287810487245237 0.00048160272320843495 -0.0030693077572654785 0.0 0.0
0.0 0.00736686109192925 -0.005981267369773991 0.005375707489817549 0.0006055598799564444 -0.004775294702475182 0.0 0.0
0.0 0.010601481652114173 -0.008710057637123146 0.008014076968017494 0.0006959806691056449 -0.0064531811920903815 0.0 0.0
0.0 0.0143295313155813 -0.011793664364323608 0.011022053064336157 0.0007716112999874532 -0.008066542175666247 0.0 0.0
0.0 0.01852334539973529 -0.015321572514324899 0.014484606709895983 0.0008369658044289176 -0.009659937710097925 0.0 0.0
0.0 0.02341523712484859 -0.019369158740253058 0.018479082162536353 0.0008900765777167104 -0.011371872610393989 0.0 0.0
0.0 0.028758806023784552 -0.02388068918117899 0.02295927843788507 0.0009214107432939107 -0.013458718385957722 0.0 0.0
0.0 0.034569679351622515 -0.02851649079584629 0.027591619667199974 0.0009248711286463077 -0.016315342167350054 0.0 0.0
0.0 0.03956963703595261 -0.03250883436587483 0.03162246419471626 0.0008863701711585661 -0.020058882264997593 0.0 0.0
0.0 0.04229606016077618 -0.03438479589214209 0.0335807185147767 0.0008040773773654042 -0.02366823572123198 0.0 0.0
0.0 0.03959334128033055 -0.03158048183662203 0.030945787015928462 0.0006346948206935747 -0.02480333240018395 0.0 0.0
0.0 0.03683140785723217 -0.025988524479954412 0.022715843897439306 0.0032726805825150887 1.2528172943504501e-14 0.0 0.0
0.0 0.03959334128033414 -0.03158048183661951 0.03094578701592593 0.0006346948206935872 0.0248033324002136 0.0 0.0
0.0 0.042296060160772635 -0.03438479589213449 0.03358071851476953 0.0008040773773648999 0.023668235721260953 0.0 0.0
0.0 0.03956963703593326 -0.032508834365856824 0.031622464194698593 0.000886370171158228 0.02005888226500918 0.0 0.0
0.0 0.03456967935159814 -0.028516490795825505 0.02759161966717986 0.0009248711286456702 0.016315342167347164 0.0 0.0
0.0 0.028758806023758965 -0.023880689181157332 0.02295927843786367 0.000921410743293647 0.013458718385948538 0.0 0.0
0.0 0.023415237124823355 -0.019369158740232116 0.018479082162515852 0.0008900765777162568 0.011371872610383634 0.0 0.0
0.0 0.01852334539971142 -0.015321572514304584 0.01448460670987603 0.000836965804428549 0.009659937710088594 0.0 0.0
0.0 0.014329531315554799 -0.011793664364301688 0.01102205306431457 0.0007716112999871176 0.008066542175654735 0.0 0.0
0.0 0.010601481652089219 -0.008710057637103034 0.008014076967997991 0.0006959806691050458 0.006453181192076229 0.0 0.0
0.0 0.007366861091905224 -0.005981267369754863 0.005375707489798909 0.0006055598799559522 0.004775294702459383 0.0 0.0
0.0 0.0047250598091838425 -0.0036103837719188734 0.003128781048711517 0.00048160272320735503 0.0030693077572538398 0.0 0.0
0.0 0.002203759807195808 -0.0017574620667241028 0.001446708221852523 0.0003107538448715782 0.0016200150611904317 0.0 0.0
0.0 0.0007123643559414009 -0.0005694921452100298 0.00044526517508204036 0.00012422697012798967 0.0006219287386420736 0.0 0.0
0.0 0.00012572064240703708 -5.11574543889782e-05 3.829038187097414e-05 1.2867072518004206e-05 6.152703492512418e-05 0.0 0.0
0.0 -1.5869011706345203e-05 2.1705734011438325e-06 -1.7470140708464652e-06 -4.2355933029734474e-07 2.111007761137356e-06 0.0 0.0
0.0 -8.980326473363509e-08 2.4093120064557093e-06 -1.9358890050907018e-06 -4.7342300136500386e-07 -7.546592091885695e-06 0.0 0.0
0.0 1.336278579452702e-06 2.8787863603207013e-07 -2.395591357866599e-07 -4.831950024541764e-08 -1.1204183692300162e-06 0.0 0.0
0.0 3.0340542927854597e-07 -9.561134782204816e-09 1.1062018289073182e-08 -1.5008835068734509e-09 -6.807127350154016e-08 0.0 0.0
0.0 -2.601208150903466e-07 -4.544636810377973e-09 2.7967184891725414e-09 1.7479183212069819e-09 5.3433063895465725e-08 0.0 0.0
0.0 0.0 0.0 0.0 0.0 0.0 0.0 0.0
0.0 0.0 0.0 0.0 0.0 0.0 0.0 0.0
0.0 0.0 0.0 0.0 0.0 0.0 0.0 0.0
0.0 -2.95889627028445e-07 -1.3592507698731995e-08 1.083743040721265e-08 2.7550772915178707e-09 -5.501979115714737e-08 0.0 0.0
0.0 -2.10830933512369e-06 -2.3331483941641915e-07 1.9042684821037513e-07 4.2887991206046476e-08 -6.578148748606533e-07 0.0 0.0
0.0 3.590026227337798e-06 3.7861120638793065e-06 -3.0510371736681863e-06 -7.350748902111133e-07 8.921094626568676e-06 0.0 0.0
0.0 2.2319255910393023e-05 1.1836727406844245e-05 -1.0080496732114795e-05 -1.756230674729519e-06 2.6684240452532984e-05 0.0 0.0
0.0 0.00035247361428217635 -0.00027802502197112993 0.00021142737402438328 6.659764794674663e-05 -0.00024193775602127755 0.0 0.0
0.0 0.0014858498883307556 -0.0012516702628314316 0.0009980118478747847 0.00025365841495664666 -0.0009188814319347261 0.0 0.0
0.0 0.0039595820979798175 -0.0030705047307705105 0.0026054991632394682 0.00046500556753104066 -0.002126656162576836 0.0 0.0
0.0 0.00662554136660236 -0.005687631705720472 0.005062368045388166 0.0006252636603323095 -0.003805500398693782 0.0 0.0
0.0 0.010503590827168076 -0.008846064547407528 0.008116904445850904 0.0007291601015566172 -0.005564470068016702 0.0 0.0
0.0 0.014821971465731845 -0.01248437814683968 0.011673287962979596 0.0008110901838600797 -0.007294394909778557 0.0 0.0
0.0 0.019700132079782606 -0.016622031578770215 0.01573485854416744 0.0008871730346027796 -0.008966040410044243 0.0 0.0
0.0 0.025286752205924124 -0.02136421445084939 0.020405216198431372 0.000958998252418006 -0.01064480963234348 0.0 0.0
0.0 0.03165339033779965 -0.026823505281450253 0.025801932713106848 0.0010215725683433846 -0.012458066232406827 0.0 0.0
0.0 0.039134578888575425 -0.03297345551924203 0.03191235171996215 0.0010611037992798952 -0.014723804370498467 0.0 0.0
0.0 0.04645655423466905 -0.03941742077623492 0.038356867713473755 0.0010605530627610712 -0.017920731282354937 0.0 0.0
0.0 0.0535789306824664 -0.04505720455090491 0.04405716579501325 0.001000038755891696 -0.022198437975362306 0.0 0.0
0.0 0.05755829410706023 -0.04784911804007426 0.046979444013522956 0.0008696740265512543 -0.02660995750781567 0.0 0.0
0.0 0.054143458563873766 -0.04442696960690974 0.04379327720616879 0.0006336924007409268 -0.028588239457246076 0.0 0.0
0.0 0.04847748025536052 -0.0372954175726605 0.03340191775134148 0.0038934998213189962 1.418049705437241e-14 0.0 0.0
0.0 0.05414345856387004 -0.04442696960690165 0.04379327720616054 0.0006336924007410899 0.028588239457276166 0.0 0.0
0.0 0.05755829410705298 -0.04784911804006367 0.0469794440135128 0.0008696740265508726 0.026609957507848923 0.0 0.0
0.0 0.05357893068244138 -0.045057204550881795 0.044057165794990395 0.0010000387558913501 0.022198437975377606 0.0 0.0
0.0 0.04645655423463656 -0.03941742077620714 0.038356867713445694 0.0010605530627614368 0.01792073128235306 0.0 0.0
0.0 0.03913457888854377 -0.03297345551921489 0.03191235171993536 0.0010611037992795318 0.014723804370490538 0.0 0.0
0.0 0.03165339033776437 -0.0268235052814202 0.025801932713077052 0.0010215725683431606 0.012458066232394979 0.0 0.0
0.0 0.025286752205893492 -0.02136421445082287 0.02040521619840545 0.0009589982524174114 0.010644809632333992 0.0 0.0
0.0 0.019700132079750778 -0.016622031578743222 0.01573485854414086 0.0008871730346023579 0.00896604041003319 0.0 0.0
0.0 0.01482197146569991 -0.012484378146812868 0.011673287962953083 0.0008110901838597887 0.007294394909763421 0.0 0.0
0.0 0.010503590827139713 -0.008846064547383861 0.00811690444582755 0.0007291601015563143 0.005564470068000128 0.0 0.0
0.0 0.006625541366580216 -0.005687631705701631 0.005062368045370061 0.0006252636603315712 0.0038055003986805897 0.0 0.0
0.0 0.003959582097963125 -0.0030705047307576006 0.002605499163227736 0.00046500556752986793 0.002126656162568203 0.0 0.0
0.0 0.0014858498883217526 -0.0012516702628244396 0.0009980118478690248 0.00025365841495541435 0.0009188814319299662 0.0 0.0
0.0 0.00035247361427744256 -0.00027802502196810506 0.0002114273740220556 6.659764794604924e-05 0.00024193775601883888 0.0 0.0
0.0 2.2319255909845335e-05 1.1836727406442682e-05 -1.0080496731791069e-05 -1.756230674651658e-06 -2.668424045182758e-05 0.0 0.0
0.0 3.590026226020328e-06 3.7861120638813648e-06 -3.0510371736707435e-06 -7.350748902105973e-07 -8.921094626562896e-06 0.0 0.0
0.0 -2.1083093356935848e-06 -2.3331483945140204e-07 1.9042684823822404e-07 4.2887991213180975e-08 6.578148749946576e-07 0.0 0.0
0.0 -2.9588962689353585e-07 -1.3592507692400482e-08 1.0837430402124616e-08 2.755077290274585e-09 5.50197911312241e-08 0.0 0.0
0.0 0.0 0.0 0.0 0.0 0.0 0.0 0.0
0.0 0.0 0.0 0.0 0.0 0.0 0.0 0.0
0.0 0.0 0.0 0.0 0.0 0.0 0.0 0.0
0.0 0.0 0.0 0.0 0.0 0.0 0.0 0.0
0.0 -3.008317283811859e-07 -1.6894082401111415e-08 1.3667650964936457e-08 3.226431436173586e-09 -5.3084951058647605e-08 0.0 0.0
0.0 1.1150104753520732e-06 6.127124950350998e-08 -4.5542689292908086e-08 -1.572856021057477e-08 1.341901894632642e-07 0.0 0.0
0.0 -1.2542093570888548e-05 1.9105297331278003e-06 -1.6391802654765128e-06 -2.7134946765129393e-07 3.98180663086627e-06 0.0 0.0
0.0 0.00010927908114304752 -4.253053656225198e-05 2.993450848444954e-05 1.2596028077802583e-05 -6.175850569194458e-06 0.0 0.0
0.0 0.0007556416827558583 -0.0006420040401227984 0.000493917321766146 0.00014808671835665283 -0.0003582862298615584 0.0 0.0
0.0 0.0026915782984882793 -0.0021039376965763593 0.0017237294599260864 0.0003802082366502733 -0.001123389280434187 0.0 0.0
0.0 0.005158468707085782 -0.004585680638381695 0.003994975969013071 0.0005907046693686196 -0.0024843062291749567 0.0 0.0
0.0 0.009106021766570813 -0.007845590581587217 0.007120628680818955 0.0007249619007682678 -0.004106687635863801 0.0 0.0
0.0 0.013723089834140138 -0.011782674233309944 0.01096309778767051 0.0008195764456394341 -0.005803846416765764 0.0 0.0
0.0 0.01906700865384391 -0.01633621433673132 0.01543452962307644 0.0009016847136548746 -0.0074814748454562945 0.0 0.0
0.0 0.025170602152362914 -0.021538351328409054 0.02055555943795458 0.0009827918904544521 -0.009122895683911742 0.0 0.0
0.0 0.03223598547103777 -0.027503845273656867 0.026442056556087487 0.001061788717569382 -0.010798173561967689 0.0 0.0
0.0 0.040197218360471236 -0.034374259675699396 0.03323916574096968 0.0011350939347296836 -0.012620583411415812 0.0 0.0
0.0 0.049126992962045646 -0.04214941243687671 0.04096464096820567 0.0011847714686710356 -0.0148237167064249 0.0 0.0
0.0 0.059045773657305546 -0.05034970501733946 0.04917077002513438 0.0011789349922050455 -0.017898114084961683 0.0 0.0
0.0 0.06764782030980968 -0.057592320661099206 0.0565016983088977 0.0010906223522014573 -0.022261831286482483 0.0 0.0
0.0 0.07216975874105316 -0.06120700664819235 0.06029792543737049 0.0009090812108218844 -0.027320759087141794 0.0 0.0
0.0 0.06834404024314031 -0.057131265890493915 0.056509065483809934 0.0006222004066839406 -0.031046945673157238 0.0 0.0
0.0 0.06106692744022413 -0.04861233702666519 0.044159125074838365 0.00445321195182682 1.4085087263193685e-14 0.0 0.0
0.0 0.06834404024313433 -0.05713126589048395 0.05650906548380001 0.0006222004066839578 0.031046945673189507 0.0 0.0
0.0 0.07216975874103826 -0.061207006648175785 0.06029792543735382 0.0009090812108219713 0.027320759087175846 0.0 0.0
0.0 0.06764782030978227 -0.05759232066107407 0.0565016983088731 0.001090622352200954 0.022261831286499795 0.0 0.0
0.0 0.05904577365726528 -0.05034970501730471 0.04917077002509921 0.0011789349922054168 0.017898114084961513 0.0 0.0
0.0 0.049126992962007114 -0.04214941243684342 0.04096464096817282 0.0011847714686706644 0.014823716706418627 0.0 0.0
0.0 0.04019721836042858 -0.034374259675662884 0.03323916574093336 0.001135093934729528 0.012620583411405603 0.0 0.0
0.0 0.032235985470999984 -0.027503845273623734 0.02644205655605511 0.0010617887175686153 0.010798173561958477 0.0 0.0
0.0 0.025170602152323605 -0.021538351328375272 0.020555559437920867 0.000982791890454381 0.009122895683900772 0.0 0.0
0.0 0.019067008653805076 -0.01633621433669831 0.015434529623043782 0.00090168471365451 0.007481474845441759 0.0 0.0
0.0 0.013723089834106413 -0.011782674233281545 0.010963097787642312 0.0008195764456392302 0.0058038464167496535 0.0 0.0
0.0 0.009106021766543324 -0.0078455905815638 0.007120628680796341 0.0007249619007674708 0.0041066876358506026 0.0 0.0
0.0 0.005158468707067817 -0.004585680638365147 0.003994975968997578 0.000590704669367567 0.0024843062291659656 0.0 0.0
0.0 0.002691578298474697 -0.0021039376965656465 0.0017237294599166965 0.0003802082366489488 0.0011233892804283208 0.0 0.0
0.0 0.0007556416827495666 -0.0006420040401179158 0.0004939173217623339 0.00014808671835558283 0.0003582862298588183 0.0 0.0
0.0 0.00010927908114079425 -4.253053656141282e-05 2.9934508483819065e-05 1.2596028077593543e-05 6.175850568849973e-06 0.0 0.0
0.0 -1.2542093571283159e-05 1.9105297326560398e-06 -1.6391802651106939e-06 -2.71349467545375e-07 -3.981806630297611e-06 0.0 0.0
0.0 1.115010474640633e-06 6.1271249441783e-08 -4.554268924408272e-08 -1.5728560197691508e-08 -1.3419018930261137e-07 0.0 0.0
0.0 -3.0083172820327663e-07 -1.6894082390560128e-08 1.3667650956397697e-08 3.226431434162971e-09 5.3084951026648725e-08 0.0 0.0
0.0 0.0 0.0 0.0 0.0 0.0 0.0 0.0
0.0 0.0 0.0 0.0 0.0 0.0 0.0 0.0
0.0 0.0 0.0 0.0 0.0 0.0 0.0 0.0
0.0 0.0 0.0 0.0 0.0 0.0 0.0 0.0
0.0 -1.680433764396781e-07 -1.0793184899027673e-08 8.54508648894806e-09 2.2480984100807976e-09 -2.827633481288059e-08 0.0 0.0
0.0 -9.210434092028008e-07 -1.7461032120779195e-07 1.390253157582676e-07 3.55850054494955e-08 -2.2837027098489457e-07 0.0 0.0
0.0 -6.927858571904818e-07 1.5167734332775125e-05 -1.2371348470894304e-05 -2.7963858618807697e-06 1.936650876523247e-05 0.0 0.0
0.0 0.00021131898642725872 -0.00021107237082549995 0.00015697566619343904 5.40967046320607e-05 -9.03683802367816e-05 0.0 0.0
0.0 0.0014750626007126164 -0.0011249772526736475 0.0008830755630385987 0.00024190168963504903 -0.0004126405503024694 0.0 0.0
0.0 0.0035138342067288037 -0.003144263168329514 0.0026464909312512706 0.000497772237078244 -0.0012638840313022462 0.0 0.0
0.0 0.006978593928099091 -0.006155052583794106 0.005473414792396907 0.0006816377913972043 -0.0025194795406251677 0.0 0.0
0.0 0.011509760718277083 -0.010056771550597463 0.009254818410919425 0.0008019531396780397 -0.003976219999458376 0.0 0.0
0.0 0.017011870963207328 -0.01476303424156869 0.013869350070099 0.0008936841714696822 -0.005523136762669099 0.0 0.0
0.0 0.023423844789011286 -0.02023438896262364 0.01925436614166908 0.0009800228209545538 -0.0070516895063176405 0.0 0.0
0.0 0.030842461114027407 -0.02651360647053863 0.025446102846590164 0.0010675036239484552 -0.008564512526887358 0.0 0.0
0.0 0.03901002290497875 -0.03372286071871494 0.03256859246227217 0.001154268256442771 -0.010145865514529841 0.0 0.0
0.0 0.04870172251030889 -0.04198244246801085 0.04074759116531003 0.0012348513027008467 -0.01187196506656556 0.0 0.0
0.0 0.05959758596988259 -0.05130040515348756 0.05000619251164772 0.0012942126418397453 -0.013820303629271648 0.0 0.0
0.0 0.07093311172190651 -0.061178453823290964 0.05988667974795214 0.0012917740753388273 -0.01634047801797452 0.0 0.0
0.0 0.08129508419531475 -0.069973206074697 0.0687960889757542 0.0011771170989428226 -0.020224555437296274 0.0 0.0
0.0 0.08696885726994973 -0.07446621069309661 0.0735243915035798 0.0009418191895167289 -0.02586009586973618 0.0 0.0
0.0 0.08259674857388355 -0.06994679176383312 0.06934837001789242 0.0005984217459407072 -0.03245309210967776 0.0 0.0
0.0 0.07385229547672614 -0.0602352935204125 0.05527498742264515 0.004960306097767372 1.408248517797972e-14 0.0 0.0
0.0 0.08259674857387787 -0.06994679176382392 0.06934837001788346 0.0005984217459404216 0.03245309210971064 0.0 0.0
0.0 0.0869688572699279 -0.0744662106930751 0.07352439150355815 0.0009418191895168117 0.025860095869767397 0.0 0.0
0.0 0.08129508419528231 -0.069973206074668 0.06879608897572584 0.001177117098942213 0.020224555437312317 0.0 0.0
0.0 0.07093311172186431 -0.06117845382325392 0.059886679747915575 0.0012917740753383854 0.016340478017977562 0.0 0.0
0.0 0.05959758596983599 -0.051300405153446874 0.05000619251160786 0.0012942126418389254 0.013820303629266773 0.0 0.0
0.0 0.04870172251026271 -0.0419824424679707 0.0407475911652707 0.0012348513027000117 0.01187196506655842 0.0 0.0
0.0 0.0390100229049331 -0.03372286071867511 0.03256859246223334 0.0011542682564417487 0.01014586551452177 0.0 0.0
0.0 0.0308424611139798 -0.02651360647049719 0.025446102846548913 0.001067503623948294 0.008564512526877245 0.0 0.0
0.0 0.02342384478896771 -0.020234388962585944 0.019254366141632014 0.0009800228209539195 0.007051689506304625 0.0 0.0
0.0 0.017011870963167326 -0.014763034241534254 0.013869350070064883 0.0008936841714693804 0.005523136762654369 0.0 0.0
0.0 0.01150976071824707 -0.01005677155057125 0.009254818410893902 0.0008019531396773379 0.003976219999446604 0.0 0.0
0.0 0.00697859392807594 -0.006155052583773487 0.005473414792377136 0.000681637791396348 0.0025194795406164004 0.0 0.0
0.0 0.0035138342067126695 -0.0031442631683152606 0.002646490931238383 0.0004977722370768789 0.0012638840312959806 0.0 0.0
0.0 0.0014750626007036722 -0.0011249772526668227 0.0008830755630330526 0.00024190168963376742 0.00041264055029968595 0.0 0.0
0.0 0.0002113189864242938 -0.00021107237082371023 0.000156975666192116 5.409670463159408e-05 9.036838023624204e-05 0.0 0.0
0.0 -6.927858575619148e-07 1.5167734332141156e-05 -1.2371348470398058e-05 -2.7963858617429697e-06 -1.936650876446772e-05 0.0 0.0
0.0 -9.210434094506307e-07 -1.746103211757221e-07 1.390253157316516e-07 3.558500544407194e-08 2.283702709078256e-07 0.0 0.0
0.0 -1.6804337643450485e-07 -1.0793184898566844e-08 8.545086488621468e-09 2.248098409945835e-09 2.8276334812116163e-08 0.0 0.0
0.0 0.0 0.0 0.0 0.0 0.0 0.0 0.0
0.0 0.0 0.0 0.0 0.0 0.0 0.0 0.0
0.0 0.0 0.0 0.0 0.0 0.0 0.0 0.0
0.0 0.0 0.0 0.0 0.0 0.0 0.0 0.0
0.0 0.0 0.0 0.0 0.0 0.0 0.0 0.0
0.0 -1.0572517602993348e-06 1.7913263288201976e-07 -1.4221891708197304e-07 -3.691371580003847e-08 3.1382780622674673e-07 0.0 0.0
0.0 2.2551565352382244e-05 3.3563796031973963e-06 -4.127295901359802e-06 7.709162981626296e-07 1.1311719030190017e-05 0.0 0.0
0.0 0.0005201448097815022 -0.00041104166013199416 0.0003075024323716919 0.00010353922776030211 -7.839999285539938e-05 0.0 0.0
0.0 0.0020522391859398867 -0.0017732012119869587 0.0014258879493566005 0.0003473132626303556 -0.0004315526250547315 0.0 0.0
0.0 0.004696111717234022 -0.004246800644246721 0.0036585327851597535 0.0005882678590869688 -0.0012069525800035002 0.0 0.0
0.0 0.008726332691534434 -0.0077659962910064375 0.007012310243198604 0.0007536860478078226 -0.0022306142305265893 0.0 0.0
0.0 0.013992993917140248 -0.012292439290028023 0.01142753865421197 0.000864900635816058 -0.0034464317860788993 0.0 0.0
0.0 0.0203175373278095 -0.017764965924047242 0.01680680689778084 0.0009581590262664038 -0.004741643174783868 0.0 0.0
0.0 0.02780212305678107 -0.024159622841052712 0.023108842056668938 0.0010507807843837687 -0.006024991787012505 0.0 0.0
0.0 0.03620357107925194 -0.031534113259318354 0.030388020801040416 0.001146092458277915 -0.007306020493551528 0.0 0.0
0.0 0.04622175923799154 -0.039988891858965404 0.038751081435242384 0.0012378104237230013 -0.008681017640918776 0.0 0.0
0.0 0.0572609922766134 -0.04962120771347917 0.04829925830239707 0.0013219494110820744 -0.01021446207682935 0.0 0.0
0.0 0.06950961384034826 -0.060374872288325034 0.058985839989469976 0.0013890322988551736 -0.011821689754713267 0.0 0.0
0.0 0.08273024305076818 -0.07174022587480275 0.07033868728985543 0.001401538584947231 -0.013481297856121675 0.0 0.0
0.0 0.09474093067918632 -0.0820417039096674 0.08076392144356626 0.001277782466101146 -0.01615299174751045 0.0 0.0
0.0 0.10161437147113636 -0.08766955491111383 0.08668550845373073 0.0009840464573831584 -0.022126832718975552 0.0 0.0
0.0 0.09736513612029266 -0.08313092552919964 0.08257520023055018 0.0005557252986495684 -0.03258940182353512 0.0 0.0
0.0 0.08785708789438712 -0.07247538893367826 0.06706837228002582 0.0054070166536523915 1.2946241301214911e-14 0.0 0.0
0.0 0.09736513612028362 -0.08313092552918874 0.08257520023053913 0.0005557252986496014 0.03258940182356468 0.0 0.0
0.0 0.10161437147110795 -0.08766955491108766 0.08668550845370449 0.0009840464573831608 0.022126832719002593 0.0 0.0
0.0 0.09474093067914727 -0.0820417039096332 0.08076392144353242 0.0012777824661007397 0.016152991747524836 0.0 0.0
0.0 0.08273024305072046 -0.07174022587476128 0.07033868728981418 0.001401538584947065 0.01348129785612445 0.0 0.0
0.0 0.06950961384029557 -0.060374872288279036 0.05898583998942479 0.0013890322988542624 0.011821689754711439 0.0 0.0
0.0 0.05726099227656041 -0.049621207713433445 0.04829925830235155 0.001321949411081886 0.010214462076824266 0.0 0.0
0.0 0.04622175923793808 -0.03998889185891876 0.03875108143519667 0.0012378104237220548 0.008681017640911212 0.0 0.0
0.0 0.03620357107919861 -0.03153411325927223 0.03038802080099466 0.0011460924582775785 0.007306020493543747 0.0 0.0
0.0 0.02780212305673162 -0.024159622841009212 0.023108842056626278 0.0010507807843829467 0.006024991787002061 0.0 0.0
0.0 0.0203175373277646 -0.01776496592400813 0.01680680689774218 0.00095815902626594 0.004741643174771536 0.0 0.0
0.0 0.013992993917104454 -0.012292439289996855 0.011427538654181365 0.0008649006358154885 0.003446431786068267 0.0 0.0
0.0 0.008726332691506074 -0.007765996290981225 0.007012310243174197 0.0007536860478070241 0.002230614230518596 0.0 0.0
0.0 0.004696111717216057 -0.004246800644230105 0.0036585327851443366 0.0005882678590857681 0.0012069525799980755 0.0 0.0
0.0 0.0020522391859291206 -0.0017732012119778071 0.0014258879493488413 0.000347313262628968 0.0004315526250519687 0.0 0.0
0.0 0.0005201448097771786 -0.00041104166012904 0.0003075024323694323 0.0001035392277596077 7.839999285473489e-05 0.0 0.0
0.0 2.2551565351634927e-05 3.3563796030948694e-06 -4.12729590125783e-06 7.709162981628362e-07 -1.1311719029780666e-05 0.0 0.0
0.0 -1.0572517608206995e-06 1.791326328939829e-07 -1.4221891709362965e-07 -3.691371580034762e-08 -3.138278062760943e-07 0.0 0.0
0.0 0.0 0.0 0.0 0.0 0.0 0.0 0.0
0.0 0.0 0.0 0.0 0.0 0.0 0.0 0.0
0.0 0.0 0.0 0.0 0.0 0.0 0.0 0.0
0.0 0.0 0.0 0.0 0.0 0.0 0.0 0.0
0.0 0.0 0.0 0.0 0.0 0.0 0.0 0.0
0.0 0.0 0.0 0.0 0.0 0.0 0.0 0.0
0.0 -1.581087433048198e-07 8.28277813918991e-07 -6.535148846367108e-07 -1.7476292928229503e-07 6.594511850684474e-07 0.0 0.0
0.0 5.918889290046196e-05 -5.9223505390507586e-05 4.0965948623210296e-05 1.8257556767297314e-05 4.892438045122651e-06 0.0 0.0
0.0 0.0009399143720746783 -0.0007247866313054908 0.0005516778112634646 0.00017310882004202498 -3.553876770517971e-05 0.0 0.0
0.0 0.00266075527181593 -0.002520411040439102 0.002077337467509519 0.000443073572929584 -0.000363594549702331 0.0 0.0
0.0 0.005953524984527471 -0.005386495594771047 0.00472355082272684 0.000662944772044212 -0.0009045429147669068 0.0 0.0
0.0 0.010508160125144989 -0.00939501118799727 0.008583234283675288 0.0008117769043219767 -0.0016463459474222652 0.0 0.0
0.0 0.016476214551278606 -0.014533925502630425 0.01361521269841304 0.0009187128042173829 -0.002529220902575439 0.0 0.0
0.0 0.023719403308606002 -0.02076838984402658 0.01975204387436253 0.001016345969664012 -0.0034728409362620705 0.0 0.0
0.0 0.03211644446210446 -0.02809372892978241 0.026977693783962305 0.0011160351458201108 -0.004408307776830978 0.0 0.0
0.0 0.04208394100221122 -0.036566656859516135 0.035348601491229675 0.0012180553682864352 -0.0053548243207762565 0.0 0.0
0.0 0.05303874731990184 -0.04629008058580328 0.044973767576123494 0.001316313009679738 -0.006419817787058935 0.0 0.0
0.0 0.06573235031822498 -0.05727373209712234 0.05587216813753049 0.001401563959591927 -0.007626018835630454 0.0 0.0
0.0 0.0796708302490117 -0.0693374215468624 0.06787376990914663 0.0014636516377156557 -0.008812124949728321 0.0 0.0
0.0 0.09421625419614915 -0.08192588731941713 0.08043488956239883 0.0014909977570184661 -0.009682087715202355 0.0 0.0
0.0 0.10768654803635928 -0.09358707042026733 0.09216599917906744 0.001421071241199881 -0.010706590933482654 0.0 0.0
0.0 0.11620330833851394 -0.1007560751066179 0.09968181394126295 0.0010742611653549046 -0.015511766265143436 0.0 0.0
0.0 0.11284524476475087 -0.09697626417488324 0.0965022364904281 0.00047402768445498436 -0.030547308955678015 0.0 0.0
0.0 0.10316143552380783 -0.08578875082707652 0.0800271675020888 0.005761583324987625 1.0077876033687261e-14 0.0 0.0
0.0 0.11284524476473387 -0.09697626417486685 0.09650223649041131 0.00047402768445556863 0.030547308955700257 0.0 0.0
0.0 0.11620330833848014 -0.10075607510658764 0.09968181394123292 0.0010742611653547381 0.015511766265165362 0.0 0.0
0.0 0.10768654803631186 -0.09358707042022645 0.09216599917902668 0.0014210712411997515 0.010706590933493194 0.0 0.0
0.0 0.09421625419609542 -0.08192588731937044 0.08043488956235248 0.0014909977570179795 0.00968208771520378 0.0 0.0
0.0 0.07967083024895288 -0.0693374215468111 0.06787376990909634 0.001463651637714779 0.008812124949727693 0.0 0.0
0.0 0.06573235031816518 -0.057273732097070554 0.055872168137479056 0.0014015639595915308 0.007626018835627377 0.0 0.0
0.0 0.053038747319841095 -0.04629008058575038 0.04497376757607165 0.001316313009678732 0.006419817787053278 0.0 0.0
0.0 0.04208394100215095 -0.036566656859463795 0.03534860149117749 0.0012180553682863036 0.0053548243207712206 0.0 0.0
0.0 0.03211644446204535 -0.028093728929731263 0.026977693783911717 0.0011160351458194956 0.004408307776823793 0.0 0.0
0.0 0.023719403308556736 -0.020768389843983107 0.01975204387431953 0.0010163459696635845 0.003472840936252671 0.0 0.0
0.0 0.016476214551238544 -0.01453392550259481 0.013615212698378102 0.0009187128042167126 0.002529220902567325 0.0 0.0
0.0 0.010508160125113443 -0.00939501118796889 0.008583234283647793 0.0008117769043211015 0.001646345947416562 0.0 0.0
0.0 0.005953524984505946 -0.005386495594751267 0.0047235508227082825 0.000662944772042983 0.000904542914762773 0.0 0.0
0.0 0.0026607552718030873 -0.0025204110404270655 0.002077337467498848 0.000443073572928216 0.00036359454969972136 0.0 0.0
0.0 0.0009399143720685683 -0.0007247866313004977 0.0005516778112595289 0.00017310882004096812 3.55387677045522e-05 0.0 0.0
0.0 5.918889289930391e-05 -5.922350539035597e-05 4.096594862315113e-05 1.8257556767204672e-05 -4.892438044631475e-06 0.0 0.0
0.0 -1.5810874374449778e-07 8.282778139863462e-07 -6.535148846922895e-07 -1.7476292929407742e-07 -6.594511851440517e-07 0.0 0.0
0.0 0.0 0.0 0.0 0.0 0.0 0.0 0.0
0.0 0.0 0.0 0.0 0.0 0.0 0.0 0.0
0.0 0.0 0.0 0.0 0.0 0.0 0.0 0.0
0.0 0.0 0.0 0.0 0.0 0.0 0.0 0.0
0.0 0.0 0.0 0.0 0.0 0.0 0.0 0.0
0.0 0.0 0.0 0.0 0.0 0.0 0.0 0.0
0.0 -2.0234385069297407e-06 1.199513165291696e-06 -1.0298067698676762e-06 -1.6970639542401657e-07 8.062009163894662e-07 0.0 0.0
0.0 0.0002159003156326247 -0.00014229679102939756 0.00010027524805107789 4.2021542978319665e-05 3.5158726873389255e-05 0.0 0.0
0.0 0.0013340750419958058 -0.0011540638282081812 0.0008977965595031743 0.0002562672687050072 5.146292367061184e-05 0.0 0.0
0.0 0.003555385054096592 -0.003293726361796699 0.0027745836492824747 0.0005191427125142234 -0.00012015018950933229 0.0 0.0
0.0 0.007221494468776034 -0.006544537939245006 0.005820996361381407 0.0007235415778635965 -0.0003950617205510054 0.0 0.0
0.0 0.012368772158667279 -0.011021226583504554 0.010161635300359495 0.0008595912831450571 -0.0007731458922353709 0.0 0.0
0.0 0.018963789784984003 -0.016762149887402197 0.015795476239280244 0.0009666736481219444 -0.0012324313981282268 0.0 0.0
0.0 0.027048594775432828 -0.023757015717213278 0.022687278049284162 0.0010697376679291363 -0.0017186582801891953 0.0 0.0
0.0 0.03672955339485983 -0.03201629684989174 0.030840144588676274 0.0011761522612154566 -0.0022029760307710473 0.0 0.0
0.0 0.04749647887697 -0.04160815391259446 0.040322694516547034 0.001285459396047407 -0.0027369569856320313 0.0 0.0
0.0 0.06015397005926655 -0.052584797693574506 0.05119522641692999 0.0013895712766445168 -0.003353137645074608 0.0 0.0
0.0 0.07434805761084438 -0.06489653029840176 0.06342172418093789 0.0014748061174639047 -0.0040492233639794145 0.0 0.0
0.0 0.08973056604631421 -0.07821454692761445 0.07668611096923207 0.0015284359583824024 -0.004734470528686019 0.0 0.0
0.0 0.10544258010895202 -0.09178743653689123 0.09024208404712389 0.0015453524897673363 -0.005124639928640451 0.0 0.0
0.0 0.11996722445342961 -0.10433696349325411 0.10280100599901927 0.0015359574942348832 -0.005079416806263278 0.0 0.0
0.0 0.13028593131244057 -0.11325404423531307 0.11188405318955519 0.0013699910457577575 -0.006897611770471115 0.0 0.0
0.0 0.12934056846942657 -0.11180031906401681 0.11138109410948074 0.0004192249545360481 -0.021769824895837172 0.0 0.0
0.0 0.12086990720992379 -0.10118191779477402 0.09543906974091362 0.0057428480538603156 5.491267163204583e-15 0.0 0.0
0.0 0.12934056846940803 -0.11180031906399965 0.11138109410946377 0.00041922495453583535 0.021769824895849405 0.0 0.0
0.0 0.1302859313124002 -0.11325404423527802 0.1118840531895198 0.0013699910457580509 0.006897611770483541 0.0 0.0
0.0 0.11996722445337474 -0.10433696349320697 0.10280100599897186 0.0015359574942350694 0.005079416806269777 0.0 0.0
0.0 0.10544258010888535 -0.09178743653683379 0.09024208404706613 0.0015453524897677112 0.0051246399286418165 0.0 0.0
0.0 0.08973056604624954 -0.07821454692755808 0.07668611096917657 0.0015284359583814387 0.0047344705286856215 0.0 0.0
0.0 0.07434805761077645 -0.06489653029834272 0.06342172418087955 0.0014748061174632086 0.004049223363977224 0.0 0.0
0.0 0.060153970059198994 -0.05258479769351562 0.05119522641687226 0.001389571276643292 0.003353137645072053 0.0 0.0
0.0 0.04749647887690169 -0.041608153912535244 0.040322694516488 0.0012854593960472376 0.0027369569856291074 0.0 0.0
0.0 0.03672955339479535 -0.03201629684983559 0.03084014458862059 0.0011761522612149901 0.002202976030766944 0.0 0.0
0.0 0.027048594775378285 -0.02375701571716591 0.02268727804923732 0.0010697376679285689 0.001718658280183986 0.0 0.0
0.0 0.01896378978493969 -0.016762149887362913 0.01579547623924181 0.0009666736481211072 0.0012324313981239938 0.0 0.0
0.0 0.012368772158633261 -0.011021226583473926 0.010161635300329631 0.0008595912831442893 0.0007731458922323881 0.0 0.0
0.0 0.007221494468751243 -0.006544537939222347 0.005820996361359716 0.0007235415778626256 0.0003950617205487894 0.0 0.0
0.0 0.0035553850540822472 -0.0032937263617830895 0.002774583649270147 0.0005191427125129415 0.00012015018950778713 0.0 0.0
0.0 0.0013340750419875605 -0.0011540638282010011 0.0008977965594972878 0.0002562672687037139 -5.146292367068795e-05 0.0 0.0
0.0 0.00021590031563051062 -0.00014229679102836012 0.0001002752480503702 4.202154297799003e-05 -3.5158726872972454e-05 0.0 0.0
0.0 -2.0234385071234957e-06 1.1995131649892434e-06 -1.0298067696425486e-06 -1.6970639534663595e-07 -8.062009163824929e-07 0.0 0.0
0.0 0.0 0.0 0.0 0.0 0.0 0.0 0.0
0.0 0.0 0.0 0.0 0.0 0.0 0.0 0.0
0.0 0.0 0.0 0.0 0.0 0.0 0.0 0.0
0.0 0.0 0.0 0.0 0.0 0.0 0.0 0.0
0.0 0.0 0.0 0.0 0.0 0.0 0.0 0.0
0.0 0.0 0.0 0.0 0.0 0.0 0.0 0.0
0.0 7.084767713589994e-07 7.168416903683923e-07 -8.498112130087539e-07 1.3296952264048335e-07 1.7204823570430851e-06 0.0 0.0
0.0 0.00043105548158758303 -0.0002728925788130214 0.0001920846094599014 8.080796935312027e-05 8.088834300091158e-05 0.0 0.0
0.0 0.0017807836708980695 -0.0015483736879355163 0.0011934189762029866 0.00035495471173252935 0.00020155318263315753 0.0 0.0
0.0 0.004258474052324739 -0.003953108537049489 0.0032955684419247854 0.000657540095124705 0.0002488838156438826 0.0 0.0
0.0 0.008236263722398454 -0.007500378845652722 0.00658948275816553 0.0009108960874871876 0.00028022092807703143 0.0 0.0
0.0 0.013731342772824224 -0.012356935865255374 0.011239103118179914 0.001117832747075457 0.00029139431130223285 0.0 0.0
0.0 0.02088762624355667 -0.018590470018081787 0.017266399866017343 0.0013240701520644523 0.00025728515816121253 0.0 0.0
0.0 0.029708175785026988 -0.026219244158638362 0.02466147841540929 0.0015577657432290515 0.00022300624520299244 0.0 0.0
0.0 0.03989424318193207 -0.035274093798318536 0.03344738155940319 0.0018267122389153472 0.00018365824513247656 0.0 0.0
0.0 0.051848276428161304 -0.0457919851304916 0.043669050053187136 0.0021229350773044166 7.42806568303422e-05 0.0 0.0
0.0 0.06554331461418948 -0.057801344498540734 0.05536744389949655 0.0024339005990441386 -6.860272862034642e-05 0.0 0.0
0.0 0.08087256836764052 -0.07120285295748269 0.06846905099049876 0.002733801966983849 -0.00031378295670264796 0.0 0.0
0.0 0.09737150374048102 -0.08554905003393756 0.08256280562262949 0.0029862444113079936 -0.0006507804045923641 0.0 0.0
0.0 0.1139105077999615 -0.09988317678989413 0.09673671209353402 0.0031464646963600025 -0.0009559522317944269 0.0 0.0
0.0 0.1287973432825787 -0.11274698140024786 0.10957828703745566 0.0031686943627920543 -0.0009881278688898196 0.0 0.0
0.0 0.13984337628591784 -0.12240957521699411 0.1192672317337296 0.00314234348326457 -0.0014925619679282652 0.0 0.0
0.0 0.14213106560791613 -0.12486140438594664 0.12180677650952904 0.0030546278764175703 -0.01549447597643228 0.0 0.0
0.0 0.13792199926606813 -0.11718421945641697 0.1078523332950014 0.009331886161415443 2.2412627309620348e-15 0.0 0.0
0.0 0.14213106560789757 -0.12486140438592971 0.12180677650951367 0.0030546278764159323 0.015494475976435992 0.0 0.0
0.0 0.13984337628587049 -0.12240957521695346 0.119267231733689 0.0031423434832645396 0.0014925619679309072 0.0 0.0
0.0 0.12879734328251927 -0.11274698140019593 0.10957828703740506 0.0031686943627909237 0.0009881278688916514 0.0 0.0
0.0 0.11391050779988357 -0.09988317678982675 0.09673671209346615 0.003146464696360294 0.000955952231794158 0.0 0.0
0.0 0.097371503740413 -0.08554905003387797 0.08256280562257153 0.0029862444113064124 0.0006507804045923805 0.0 0.0
0.0 0.08087256836756379 -0.0712028529574157 0.06846905099043296 0.002733801966982741 0.00031378295670029047 0.0 0.0
0.0 0.06554331461411642 -0.05780134449847668 0.05536744389943436 0.002433900599042294 6.860272862032734e-05 0.0 0.0
0.0 0.05184827642808885 -0.045791985130428266 0.043669050053125096 0.0021229350773031503 -7.428065683090599e-05 0.0 0.0
0.0 0.039894243181864825 -0.03527409379825979 0.03344738155934586 0.0018267122389139278 -0.0001836582451349416 0.0 0.0
0.0 0.02970817578497001 -0.02621924415858818 0.024661478415360674 0.0015577657432275173 -0.0002230062452046504 0.0 0.0
0.0 0.02088762624350837 -0.018590470018039547 0.0172663998659766 0.0013240701520629546 -0.0002572851581622883 0.0 0.0
0.0 0.013731342772787694 -0.01235693586522296 0.01123910311814863 0.0011178327470743397 -0.0002913943113032468 0.0 0.0
0.0 0.008236263722370997 -0.007500378845627733 0.006589482758141703 0.0009108960874860304 -0.00028022092807696236 0.0 0.0
0.0 0.004258474052310008 -0.003953108537035427 0.0032955684419120864 0.0006575400951233415 -0.00024888381564380703 0.0 0.0
0.0 0.0017807836708890364 -0.0015483736879267896 0.0011934189761958554 0.00035495471173093416 -0.00020155318263238018 0.0 0.0
0.0 0.00043105548158448747 -0.00027289257881097864 0.00019208460945847216 8.080796935250739e-05 -8.088834300039714e-05 0.0 0.0
0.0 7.084767711647375e-07 7.168416903489842e-07 -8.498112129893314e-07 1.3296952264033003e-07 -1.7204823570084408e-06 0.0 0.0
0.0 0.0 0.0 0.0 0.0 0.0 0.0 0.0
0.0 0.0 0.0 0.0 0.0 0.0 0.0 0.0
0.0 0.0 0.0 0.0 0.0 0.0 0.0 0.0
SCALARS Wm float 4
LOOKUP_TABLE default
11.021501457046279 1.9507386175635353 4.431168801515042 4.639594037967696
5.170579399277948 2.540603453164724 1.1534708106136886 1.476505135499534
0.5779668800707831 0.5658956989463914 -0.0021187585308125936 0.014189939655204256
0.46902160379615215 0.4586530746091233 0.0028468237142189362 0.00752170547280997
0.860486946357718 0.688500655161338 0.060506342970236264 0.1114799482261435
1.7323857678991417 0.9392295516116391 0.272437325424487 0.5207188908630148
3.4404004450810888 1.2959268548280916 0.8728257661270253 1.2716478241259734
6.148239572222517 1.7108178227695536 1.978265280784088 2.45915646866887
10.077736231544835 2.209271631216639 3.756835746438463 4.111628853889737
15.417786927213747 2.826598153754417 6.348198788367111 6.242989985092233
22.3135895214227 3.6039089119057266 9.854953886886943 8.854726722630023
30.79920529962866 4.569313422853827 14.272115126175244 11.957776750599585
41.114873232213526 5.721489320497766 19.824645369526582 15.568738542189184
53.35788981487428 7.058940781781008 26.59469783332881 19.70425119976446
67.47766960481977 8.486815353173554 34.64897996772764 24.341874283918575
83.10829741347001 9.826826904507868 43.901715216944055 29.37975529201806
99.38515142815237 10.848499239262846 53.91743980733326 34.6192123815563
115.01396137902313 11.357183808047859 63.9704589123638 39.68631865861142
128.50078948464542 11.353086209724555 73.02873336412986 44.11896991079105
137.93429495989955 10.816949586507068 79.71833985652 47.39900551687244
141.09684868087547 9.912818829118734 82.42662416442943 48.757405687327314
137.93429495987894 10.81694958650175 79.71833985650963 47.39900551686767
128.50078948461538 11.353086209732927 73.02873336410391 44.11896991077853
115.01396137896145 11.357183808036947 63.97045891233012 39.686318658594395
99.38515142809828 10.848499239271655 53.9174398072917 34.61921238153487
83.1082974133967 9.826826904489645 43.90171521690833 29.379755291998748
67.47766960475442 8.486815353167009 34.64897996769006 24.34187428389734
53.35788981481119 7.05894078177541 26.59469783329273 19.70425119974299
41.11487323215419 5.7214893204916155 19.824645369493915 15.568738542168703
30.799205299573032 4.569313422844872 14.272115126147352 11.95777675058082
22.31358952137981 3.603908911903052 9.854953886863598 8.854726722613153
15.417786927178389 2.8265981537491824 6.348198788350248 6.242989985078962
10.07773623151963 2.2092716312120797 3.756835746427508 4.111628853880045
6.148239572205487 1.710817822767517 1.9782652807766743 2.4591564686612957
3.440400445070577 1.295926854825535 0.8728257661234637 1.27164782412158
1.7323857678941217 0.9392295516105276 0.2724373254232204 0.5207188908603734
0.8604869463559184 0.6885006551609761 0.060506342969706466 0.11147994822523594
0.4690216037956595 0.4586530746086991 0.002846823714194064 0.007521705472766542
0.5779668800699234 0.5658956989457102 -0.0021187585308482045 0.014189939655060988
5.170579399272956 2.5406034531650397 1.1534708106111555 1.476505135496759
11.02150145702126 1.9507386175514236 4.4311688015080435 4.6395940379618015
12.932650070314219 5.7633203536524364 3.393497299035745 3.775832417626037
1.9391817700803469 0.4268722612244477 0.614850914545727 0.8974585943101716
0.24072329429521272 0.26608571511660467 -0.0068469598551223095 -0.01851546096626966
0.37207152801407495 0.37168592296232406 -9.734144677292011e-05 0.00048294649852380985
0.658156721861068 0.566306735640765 0.026529355009794826 0.06532063121050842
1.3928166878714923 0.8098580970913161 0.20488860766169 0.37806998311848594
2.827423582510681 1.0665460985998403 0.6951365545794148 1.0657409293314264
5.2080438437938135 1.368313698110233 1.6810597801296507 2.1586703655539314
8.681764878422818 1.6963118272735171 3.292342802274114 3.693110248875184
13.357408327683528 2.0618081919769686 5.624164794879098 5.671435340827459
19.33452112098295 2.475821225950258 8.770898580089884 8.087801314942803
26.755000847169082 2.9574744101883637 12.853074424512254 10.94445201246847
35.56056837199662 3.52007878246239 17.770911383890812 14.269578205643409
46.12774438548391 4.14933689868871 23.895878957416453 18.082528529378763
58.36176236820475 4.803920515579972 31.177623717662645 22.380218134962117
71.99507481440062 5.380319190274779 39.544847039214844 27.06990858491099
86.35795677100668 5.746179468076517 48.6792530077157 31.932524295214463
100.36660552049564 5.804098566544027 57.90370902424178 36.658797929709806
112.55596011557111 5.508985007630692 66.23489620183061 40.8120789061098
121.15681514976717 4.907441145607133 72.42756955140239 43.821804452757625
124.33129420307483 4.261503484260564 75.01264554240882 45.05714517640553
121.1568151497578 4.907441145614622 72.42756955139103 43.821804452752104
112.55596011553982 5.508985007633616 66.23489620180777 40.81207890609846
100.36660552044563 5.804098566538281 57.90370902421232 36.65879792969506
86.3579567709527 5.746179468077863 48.67925300767944 31.93252429519537
71.99507481434807 5.380319190273743 39.54484703918152 27.0699085848928
58.3617623681458 4.803920515572691 31.177623717629828 22.380218134943284
46.12774438542648 4.14933689868243 23.895878957384532 18.082528529359507
35.5605683719461 3.520078782461498 17.770911383860625 14.269578205623969
26.755000847125327 2.957474410189129 12.85307442448591 10.94445201245029
19.334521120943656 2.4758212259467856 8.770898580069321 8.08780131492755
13.35740832765313 2.0618081919741127 5.624164794863937 5.671435340815079
8.681764878401598 1.6963118272720699 3.292342802263829 3.6931102488656964
5.208043843778674 1.368313698107346 1.6810597801237175 2.158670365547611
2.8274235825020817 1.066546098598224 0.6951365545763858 1.065740929327472
1.3928166878671564 0.8098580970900038 0.20488860766045866 0.37806998311669404
0.658156721859782 0.5663067356403453 0.026529355009490767 0.06532063120994606
0.3720715280137845 0.37168592296197706 -9.734144676486526e-05 0.0004829464985722507
0.2407232942952134 0.2660857151164413 -0.006846959855071339 -0.018515460966156506
1.9391817700745446 0.4268722612237056 0.6148509145433404 0.8974585943074993
12.932650070290329 5.7633203536416335 3.3934972990288568 3.7758324176198337
9.61635710569035 4.526601784454802 2.3030928808839 2.7866624403516473
1.1819377873728145 0.1562752960327138 0.40320129726888065 0.6224611940712197
0.15177809642597817 0.1517789816556792 -3.6811495252537546e-08 -8.48418205815541e-07
0.28030317987612874 0.2804456961261645 4.461018455600662e-08 -0.0001425608602202446
0.5071209173436474 0.4805725894662686 0.005887937086305471 0.02066039079107354
1.0844139081183304 0.7271681307599923 0.12129572566196509 0.23595005169637362
2.2794736319654274 0.9760300639385538 0.48952329963962926 0.8139202683872437
4.356099721721703 1.2656550586030504 1.3146539746322228 1.775790688486429
7.407451033042799 1.5695532329884871 2.687540620152245 3.1503571799020675
11.536452526807908 1.8958523478286855 4.715167094322911 4.925433084656312
16.778288902712752 2.2582297541455567 7.436911118623769 7.083148029943426
23.176448872301073 2.672940505694793 10.880076334270907 9.623432032335366
30.98312547052544 3.163467062087897 15.255266489469037 12.564391918968505
40.09924060191844 3.723864828574503 20.423553582699288 15.951822190644654
50.81317602443015 4.3085111802691385 26.725886128974704 19.778778715186288
62.81691680339646 4.8457525807010695 33.991147104864105 23.9800171178313
75.5594687825685 5.229265213383705 41.942793874227235 28.387409694957565
88.074096534634 5.344148689054617 50.04851053489483 32.681437310684544
98.99910017165648 5.105809603296136 57.43628147048556 36.45700909787479
106.75388253135884 4.639271452019548 62.93127179794947 39.18333928138982
109.53941934859901 3.8792567136658054 65.29993067524742 40.36023195968579
106.75388253133667 4.639271452011742 62.931271797940006 39.183339281384875
98.99910017163232 5.1058096033025855 57.4362814704653 36.45700909786444
88.07409653460101 5.344148689061469 50.048510534868825 32.681437310670695
75.55946878252192 5.229265213382791 41.942793874197605 28.387409694941542
62.816916803352946 4.845752580706546 33.99114710483276 23.980017117813627
50.81317602437849 4.308511180260551 26.725886128947636 19.778778715170304
40.09924060187354 3.7238648285754405 20.423553582671083 15.951822190627015
30.983125470477958 3.1634670620830376 15.255266489443438 12.564391918951483
23.176448872260053 2.6729405056924107 10.880076334248304 9.623432032319352
16.778288902679403 2.258229754143565 7.436911118606124 7.083148029929716
11.536452526781666 1.8958523478270854 4.715167094309614 4.925433084644966
7.407451033023395 1.5695532329872597 2.6875406201429675 3.1503571798931675
4.356099721709046 1.2656550586014086 1.3146539746269938 1.775790688480643
2.2794736319580684 0.9760300639373078 0.4895232996371621 0.8139202683835981
1.0844139081152695 0.7271681307589639 0.12129572566118373 0.23595005169512168
0.5071209173425861 0.4805725894655332 0.005887937086196813 0.020660390790855805
0.28030317987597625 0.2804456961260011 4.461018582549413e-08 -0.00014256086021072043
0.15177809642587578 0.1517789816555761 -3.68114952114993e-08 -8.484182050657688e-07
1.1819377873687378 0.1562752960327365 0.40320129726705933 0.6224611940689417
9.616357105667458 4.526601784444541 2.3030928808775166 2.786662440345401
7.1930290376686 3.515191528286878 1.5950325664959488 2.0828049428857747
0.7762991335997494 0.08308514205570612 0.2548822036844052 0.4383317878596377
0.107140526770707 0.107140526770707 0.0 0.0
0.21171084083671635 0.21171730163095553 3.2718834899474255e-06 -9.732677729144463e-06
0.39312220610080983 0.3952816515509193 -0.0010087449283236948 -0.001150700521785803
0.8105973461967062 0.6253147649234182 0.054737564958107617 0.1305450163151802
1.7947803267122446 0.8916978770347881 0.3300618182205046 0.5730206314569523
3.5380049879828532 1.157124225362112 0.9773990267891373 1.4034817358316043
6.180558005293133 1.439109667930875 2.127362227259195 2.614086110103058
9.75623523977651 1.7307361217008463 3.84179798283371 4.183701135241957
14.25847695157462 2.0438746568167265 6.129243521037551 6.085358773720341
19.786395127664424 2.403203656037632 9.073675840876795 8.309515630750003
26.35802628942394 2.8232831767191002 12.655566156998546 10.879176955706285
34.31726559132082 3.308364068632325 17.180726018567345 13.828175504121152
43.491151049571116 3.8340377074943155 22.472306497875234 17.184806844201567
53.82293478023993 4.33621000890605 28.590842016975387 20.895882754358507
65.00793777723537 4.731066756865188 35.46718385098981 24.809687169380375
76.09479020743706 4.904790681721788 42.50854453795172 28.681454987763555
85.87230100391042 4.7658607650928 48.972713122304114 32.13372711651348
92.92969402187839 4.393038881393765 53.85559877053182 34.681056369952856
95.47039932540483 3.484212124799664 56.1520143637147 35.834172836890474
92.92969402187124 4.393038881397393 53.85559877052462 34.6810563699492
85.8723010038816 4.76586076508952 48.97271312228742 32.13372711650468
76.09479020739866 4.90479068171679 42.508544537929914 28.681454987751955
65.00793777719639 4.731066756864123 35.46718385096555 24.80968716936672
53.82293478019521 4.336210008903431 28.590842016948816 20.89588275434298
43.49115104952866 3.834037707490384 22.472306497851374 17.184806844186888
34.31726559128071 3.3083640686337414 17.180726018542163 13.828175504104818
26.358026289386558 2.8232831767179807 12.655566156977082 10.879176955691502
19.786395127631664 2.4032036560369687 9.073675840858417 8.309515630736282
14.258476951544939 2.0438746568148707 6.12924352102217 6.085358773707899
9.7562352397529 1.730736121698638 3.8417979828223423 4.183701135231916
6.1805580052763585 1.43910966792933 2.1273622272515884 2.614086110095439
3.538004987971534 1.157124225360104 0.9773990267850069 1.4034817358264227
1.7947803267059808 0.8916978770335877 0.3300618182183412 0.5730206314540508
0.8105973461942937 0.6253147649224068 0.054737564957598815 0.13054501631428833
0.39312220610003035 0.39528165155011236 -0.0010087449283297642 -0.0011507005217522937
0.21171084083657668 0.21171730163083488 3.2718834883013152e-06 -9.732677746538556e-06
0.10714052677065787 0.10714052677065787 0.0 0.0
0.7762991335964664 0.08308514205577075 0.2548822036829333 0.4383317878577627
7.19302903764991 3.5151915282786086 1.5950325664910154 2.0828049428802866
5.296399113284219 2.707552231362425 1.0624333060375228 1.5264135758842705
0.568426854655088 0.10681994237318236 0.1756023545935384 0.28600455768836736
0.09745404184250026 0.09745404184250026 0.0 0.0
0.16859887691078002 0.16859258734378701 3.5059575947504334e-07 5.938971233487455e-06
0.30814728282360615 0.31247119491198666 -0.0011446488395076746 -0.0031792632488727053
0.6014979547645425 0.5386926972649465 0.015424086161428383 0.047381171338167334
1.3550400968293859 0.7865197627005643 0.20447642262790997 0.364043911500912
2.766733496865969 1.0439117912863622 0.6766459195231863 1.0461757860564207
4.995317574077264 1.3032567123723087 1.6050025689395764 2.0870582927653794
8.021035504405601 1.563727810780548 3.008072670415555 3.449235023209501
11.836577498959244 1.836396885657562 4.905545747594765 5.094634865706911
16.468207083636646 2.141189287439641 7.320632524752986 7.006385271444031
22.03686267987618 2.5003869559879983 10.333688939536927 9.202786784351247
28.55194740609615 2.917690938552179 13.906048351365511 11.728208116178463
36.32088859551186 3.3735079241596386 18.34324676827498 14.604133903077244
45.17527306704546 3.840132412499953 23.527091331465435 17.80804932308008
54.70429490976777 4.2483013701217365 29.21840445401407 21.23758908563197
64.37966145658628 4.489542055120655 35.220847135620055 24.669272265845578
73.1099818451563 4.458797405050602 40.86479784991192 27.7863865901938
79.62937331576869 4.165109119047915 45.29273423580618 30.17152996091456
82.01461994582013 3.0903087016934903 47.552902130112464 31.37140911401421
79.62937331576065 4.165109119051796 45.29273423579841 30.17152996091042
73.10998184513083 4.458797405043619 40.864797849899915 27.78638659018729
64.37966145656299 4.489542055124527 35.22084713560263 24.669272265835833
54.70429490973645 4.248301370122461 29.218404453993795 21.237589085620172
45.175273067006245 3.8401324124927765 23.52709133144549 17.808049323067983
36.320888595474486 3.373507924155708 18.343246768254573 14.60413390306422
28.551947406059327 2.917690938548311 13.906048351345827 11.728208116165169
22.03686267984295 2.500386955984923 10.333688939519455 9.20278678433857
16.46820708360668 2.14118928743644 7.320632524737935 7.006385271432304
11.836577498934293 1.8363968856558834 4.9055457475821616 5.094634865696247
8.021035504385853 1.563727810778589 3.0080726704063308 3.4492350232009357
4.995317574063041 1.3032567123706547 1.605002568933557 2.087058292758827
2.766733496856958 1.0439117912839828 0.6766459195202681 1.046175786052707
1.3550400968244922 0.7865197626993647 0.20447642262639534 0.3640439114987324
0.6014979547630015 0.5386926972640342 0.015424086161228312 0.04738117133773918
0.30814728282327636 0.312471194911487 -0.0011446488394773627 -0.0031792632487333094
0.16859887691050346 0.168592587343514 3.5059575927603094e-07 5.938971230153005e-06
0.09745404184232719 0.09745404184232719 0.0 0.0
0.5684268546524169 0.10681994237313835 0.17560235459236584 0.2860045576869131
5.296399113269463 2.7075522313561393 1.0624333060336795 1.5264135758796449
3.823698447336656 2.070711856123365 0.6850625058572453 1.0679240853560472
0.402044378851079 0.14277101735510195 0.08459150865643517 0.17468185283954132
0.10928683441652784 0.10928683441652784 0.0 0.0
0.14712980472710305 0.14711207597564382 1.169214643420643e-06 1.655953681576686e-05
0.2509465973196154 0.2526315729033627 -0.0002782003394398308 -0.0014067752443074671
0.4452767399449823 0.4379772193561874 -0.0009681610829480143 0.00826768167174306
0.9561357594920769 0.6605965880077355 0.08791327272450078 0.2076258987598407
2.0911398027923886 0.9247304352381327 0.45658937102881336 0.709819996525442
3.8424651499651934 1.1577168262223918 1.111975130247683 1.5727731934951201
6.357648937738689 1.3946962170384958 2.238374512958668 2.7245782077415224
9.490229803903032 1.6303810885640644 3.746934918894703 4.112913796444263
13.262214416759734 1.8884690615188056 5.658251769098753 5.715493586142178
17.749698444151004 2.189651822521471 8.01635113828903 7.543695483340493
23.116575666532015 2.5416727249545454 10.933650607944495 9.64125233363297
29.396786068440296 2.943255363104415 14.409897675035118 12.04363303030077
36.60199973760063 3.3590292474975976 18.502335479242568 14.74063501086045
44.71246861194775 3.76239703347827 23.299312905194952 17.65075867327452
52.9688853960361 4.082606911351544 28.24521940204825 20.641059082636293
60.63118208768871 4.1715102487453555 33.01315919636788 23.446512642575467
66.72114449193118 3.9569140976713757 37.06653968751978 25.697690706740023
69.03124083058353 2.7053578845190485 39.36335140961377 26.96253153645068
66.72114449191722 3.956914097665958 37.066539687514314 25.697690706736907
60.631182087678894 4.171510248751573 33.01315919635768 23.446512642569672
52.96888539601135 4.0826069113493615 28.245219402033953 20.64105908262802
44.71246861192193 3.7623970334785946 23.299312905178674 17.65075867326467
36.601999737568846 3.3590292474907453 18.502335479227366 14.740635010850765
29.39678606841034 2.943255363101441 14.409897675018952 12.043633030289945
23.116575666503905 2.541672724951171 10.933650607930085 9.641252333622642
17.74969844412536 2.1896518225194406 8.016351138275606 7.543695483330311
13.262214416736958 1.8884690615181254 5.658251769086602 5.71549358613223
9.490229803881356 1.6303810885609864 3.7469349188848557 4.112913796435517
6.357648937722347 1.3946962170361916 2.23837451295166 2.7245782077344916
3.8424651499537528 1.157716826220825 1.1119751302431298 1.572773193489799
2.0911398027852717 0.9247304352367182 0.4565893710262941 0.7098199965222589
0.9561357594885362 0.660596588006504 0.08791327272364262 0.20762589875838935
0.44527673994383205 0.4379772193552437 -0.0009681610830092687 0.008267681671597695
0.2509465973192764 0.2526315729029985 -0.00027820033943580627 -0.0014067752442863328
0.14712980472683929 0.14711207597538653 1.1692146428938903e-06 1.6559536809874406e-05
0.1092868344162711 0.1092868344162711 0.0 0.0
0.4020443788490009 0.1427710173549559 0.08459150865562032 0.1746818528384248
3.8236984473255484 2.070711856118776 0.685062505854439 1.0679240853523346
2.6574076900187285 1.5595391711578532 0.3958023765043962 0.7020661423564789
0.30592850306852615 0.18447147113406576 0.03530750668154341 0.0861495252529171
0.13081089916989003 0.13081089916989003 0.0 0.0
0.14223077170882908 0.14222197234437672 5.916227772428284e-07 8.207741675143951e-06
0.21358808663890314 0.21375823949690162 -3.3456607098455044e-05 -0.00013669625090001892
0.34077858530113503 0.3537814041004942 -0.0038963275472948204 -0.009106491252064293
0.6644614656504702 0.5510947679574902 0.027623806976269708 0.08574289071671018
1.4264401505304587 0.769459004627977 0.22210140628655334 0.4348797396159285
2.846577770781065 1.0145109143777535 0.7534730250342335 1.078593831369077
4.740853401448288 1.21600633438563 1.5133610915189153 2.0114859755437444
7.2420837088435395 1.4236372936937953 2.6750491996032135 3.143397215546533
10.202464836040964 1.6412885684866148 4.1233323246627 4.437843942891649
13.685375989155325 1.8907318305653136 5.89150303829153 5.903141120298484
17.821653644460024 2.183956442226224 8.059811094935547 7.577886107298254
22.716014689205004 2.5222036222619244 10.688449624477196 9.505361442465883
28.52075333667815 2.899425096762371 13.931685047560897 11.689643192354877
34.81920545846513 3.2833515094423307 17.44338218605998 14.092471762962823
41.74336139512841 3.654783369959314 21.49801910910974 16.590558916059365
48.54955689002478 3.882495093562278 25.60801677108608 19.059045025376413
54.20631248045985 3.772902787618247 29.22323132266976 21.210178370171857
56.53541238809469 2.3397751476755184 31.612089917403246 22.58354732301594
54.206312480462714 3.772902787628574 29.223231322664994 21.210178370169125
48.54955689000965 3.882495093561868 25.608016771076855 19.05904502537093
41.74336139511638 3.654783369965008 21.498019109098784 16.59055891605258
34.819205458444635 3.2833515094426096 17.443382186047298 14.092471762954734
28.52075333665616 2.899425096761498 13.931685047548287 11.689643192346377
22.71601468918087 2.5222036222580333 10.68844962446542 9.505361442457415
17.821653644439863 2.1839564422256244 8.05981109492443 7.57788610728981
13.685375989135341 1.890731830563787 5.891503038281301 5.903141120290252
10.20246483602141 1.6412885684847545 4.123332324653213 4.437843942883446
7.24208370882844 1.4236372936934074 2.6750491995957177 3.143397215539316
4.74085340143588 1.2160063343843555 1.5133610915135143 2.0114859755380103
2.8465777707719977 1.0145109143763196 0.7534730250306702 1.0785938313650087
1.4264401505254432 0.7694590046270744 0.2221014062848845 0.4348797396134848
0.664461465648362 0.5510947679564071 0.02762380697591265 0.085742890716042
0.34077858530025107 0.3537814040993611 -0.00389632754723357 -0.009106491251876413
0.21358808663845957 0.21375823949647324 -3.345660710172565e-05 -0.00013669625091195886
0.14223077170859913 0.1422219723441495 5.916227770131883e-07 8.20774167260772e-06
0.13081089916957953 0.13081089916957953 0.0 0.0
0.3059285030670365 0.18447147113391277 0.035307506681013845 0.08614952525210959
2.6574076900107033 1.5595391711543316 0.3958023765026 0.7020661423537723
1.828869331957215 1.2004264569247234 0.23185974682214155 0.39658312821035024
0.23093334838384905 0.2020734176983709 0.0006182851178130706 0.02824164556766507
0.1541255015745033 0.1541306870203563 -2.1719582759986377e-07 -4.968250025342334e-06
0.14855184010082695 0.1485405007656672 8.207922390617571e-07 1.0518542920683493e-05
0.19135514581704416 0.19177533866426913 -5.5563765480446536e-05 -0.0003646290817444896
0.276846753760346 0.2847995722080276 -0.0019932505277382023 -0.005959567919943379
0.454066535303356 0.43915673396065075 -0.0006361243739285649 0.01554592571663386
0.9148036973941823 0.6179635755086986 0.08383532339445109 0.2130047984910326
1.8415843116691448 0.8270450806492023 0.36777280080151326 0.6467664302184288
3.3066159749612396 1.0317971445248155 0.9518616610117964 1.3229571694246267
5.102472643052426 1.2069729645512026 1.7074834376791106 2.188016240822113
7.276839781139012 1.3895030615858237 2.708472710030846 3.1788640095223406
9.828738697481201 1.5954658029652242 3.947258841145956 4.286014053370018
12.825682442875 1.833125991108476 5.447167550335885 5.545388901430643
16.430367684583377 2.1169104117510598 7.314946362890893 6.998510909941424
20.656985337531026 2.444484535240488 9.540638648553902 8.671862153736638
25.582419664566626 2.8024838110954837 12.243992287206808 10.535943566264345
30.932139609875545 3.1995650721558135 15.177928628182578 12.554645909537157
36.547467799478525 3.5572873545622485 18.340295082295107 14.649885362621179
41.893616632722654 3.6042800571917417 21.614903573997935 16.67443300153297
44.35972930796451 1.9990180330051937 24.160408212813447 18.200303062145874
41.89361663270507 3.604280057177781 21.614903573995605 16.674433001531668
36.54746779947118 3.557287354564734 18.34029508228907 14.649885362617376
30.93213960985842 3.199565072151656 15.177928628174783 12.554645909531985
25.58241966454512 2.8024838110878054 12.243992287198637 10.535943566258673
20.656985337512776 2.4444845352395905 9.54063864854385 8.671862153729345
16.43036768457067 2.1169104117541124 7.314946362881992 6.9985109099345655
12.825682442859677 1.833125991107678 5.447167550327875 5.545388901424122
9.828738697466822 1.5954658029639306 3.947258841138972 4.28601405336392
7.2768397811258385 1.3895030615841304 2.708472710024985 3.178864009516721
5.102472643040169 1.2069729645506777 1.7074834376733765 2.1880162408161143
3.3066159749519084 1.0317971445242113 0.9518616610076827 1.322957169420015
1.8415843116632373 0.8270450806476941 0.367772800799635 0.6467664302159076
0.9148036973907933 0.6179635755075195 0.08383532339364987 0.21300479848962328
0.4540665353021321 0.43915673395985566 -0.0006361243740294969 0.015545925716305926
0.27684675375978585 0.284799572207198 -0.001993250527696768 -0.005959567919715571
0.1913551458167035 0.19177533866396448 -5.556376548286809e-05 -0.000364629081778114
0.14855184010050293 0.1485405007653456 8.207922387916424e-07 1.0518542918553883e-05
0.15412550157411564 0.15413068701995775 -2.171958270000216e-07 -4.968250015090288e-06
0.23093334838305396 0.202073417698231 0.0006182851176008328 0.028241645567222157
1.8288693319512406 1.2004264569219474 0.231859746820814 0.39658312820847963
1.1772011907304307 0.8913713313221738 0.08782081528589585 0.1980090441223611
0.19263794243441057 0.2053169208804153 -0.0067582754366600885 -0.005920703009344614
0.17470573118567506 0.1747918002422767 -7.296353753386552e-06 -7.877270284823133e-05
0.16135009798128902 0.16137839973646667 -1.911838206656354e-06 -2.6389916971011686e-05
0.18194872066094897 0.18240820391820545 -6.424226715922827e-05 -0.0003952409900972099
0.23713456276034275 0.2402988321470201 -0.0009635766469344708 -0.002200692739742923
0.3331145442145673 0.343990160728617 -0.004389675127191371 -0.0064859413868581925
0.5534950647247221 0.48066096813225456 0.01565532356686565 0.0571787730256019
1.0501571773565626 0.6318992784437168 0.1289229336476099 0.28933496526523583
1.9244166826437978 0.799564619463563 0.42040888301414014 0.7044431801660954
3.093627375295935 0.953617102709076 0.8615979422286417 1.2784123303582182
4.534591659951396 1.1099812549988157 1.472326053179241 1.9522843517733381
6.208984877394263 1.2788369856349036 2.221420877163025 2.708727014596333
8.163154446550555 1.4678090852314187 3.130363934615126 3.564981426704009
10.514766555412733 1.695075046706611 4.265116256426679 4.554575252279441
13.368478675864484 1.9740347521839066 5.682324715066947 5.712119208613627
16.76081138246563 2.307445689774244 7.4026513825069316 7.05071431018445
20.59594720355968 2.6705148446850586 9.37760838249294 8.547823976381686
25.034526222893426 3.12309252388643 11.695784923120605 10.215648775886379
30.00795840788996 3.439095020960729 14.492672352919096 12.076191034010124
32.671734919488024 1.7170815523693133 17.08489807176279 13.869755295355915
30.0079584078996 3.439095020969093 14.49267235291989 12.076191034010629
25.03452622288861 3.1230925238880287 11.69578492311684 10.215648775883746
20.59594720355596 2.670514844690553 9.37760838248758 8.547823976377822
16.76081138245582 2.307445689773144 7.402651382502009 7.050714310180665
13.368478675848454 1.9740347521781294 5.682324715061243 5.712119208609084
10.51476655540209 1.695075046707682 4.265116256420347 4.554575252274056
8.163154446540254 1.4678090852292498 3.1303639346108576 3.5649814267001494
6.208984877385925 1.2788369856344894 2.221420877159087 2.7087270145923488
4.534591659943305 1.1099812549986625 1.4723260531753455 1.9522843517692987
3.0936273752872974 0.9536171027075078 0.8615979422254207 1.2784123303543684
1.9244166826378968 0.799564619462818 0.4204088830118826 0.7044431801631963
1.0501571773538358 0.6318992784433219 0.1289229336467353 0.2893349652637793
0.5534950647231209 0.4806609681312386 0.015655323566684958 0.05717877302519747
0.33311454421370024 0.34399016072765665 -0.004389675127188854 -0.006485941386767589
0.23713456275986078 0.24029883214624695 -0.0009635766468927967 -0.002200692739493271
0.18194872066071277 0.18240820391800597 -6.424226716412622e-05 -0.0003952409901291706
0.16135009798105268 0.1613783997362263 -1.91183820609508e-06 -2.638991696751545e-05
0.17470573118522253 0.1747918002418013 -7.2963537516321735e-06 -7.877270282710897e-05
0.19263794243372118 0.205316920879892 -0.0067582754367060665 -0.0059207030094649985
1.1772011907267885 0.8913713313204404 0.08782081528516945 0.1980090441211788
0.7575904587600906 0.679503255424767 0.020686890815561812 0.05740031251976192
0.175755524587856 0.18867260257471563 -0.003375023671221349 -0.009542054315638315
0.19006287991408094 0.19008027394974647 -9.224449329999089e-07 -1.6471590732581265e-05
0.17678226077850043 0.17679634422963345 -6.269657850398564e-07 -1.3456485347957748e-05
0.18335220978696934 0.18343694552945153 -1.3324755889627976e-05 -7.141098659260391e-05
0.21627696115229028 0.22100707823959892 -0.0010586562975877284 -0.0036714607897209172
0.27369895831338487 0.27668673599549054 -0.0015982167602728258 -0.0013895609218328466
0.3548683358207174 0.3353500631939048 0.0034287377040128856 0.016089534922799856
0.5121959481988533 0.4150977131280504 0.023616654242440038 0.07348158082836279
0.8391533207698967 0.5231564781633269 0.09737665150999608 0.21862019109657366
1.3986190485164867 0.6427599935079014 0.2767063066610125 0.4791527483475726
2.094589664062251 0.7413551429321468 0.5156758597214682 0.8375586614086357
2.956992116003554 0.8519409330741936 0.8508570887397848 1.2541940941895766
3.993892114341832 0.9878845994557246 1.2767061360396106 1.7293013788464973
5.245220484515636 1.1523285275547943 1.8076595460606308 2.285232410900209
6.820333590785918 1.3710006847976934 2.4903513747876214 2.9589815312006014
8.843854619140101 1.6632946271084799 3.392003415741465 3.7885565762901523
11.372914323888466 2.0080017636573886 4.576873155000767 4.788039405230312
14.360369086675078 2.3774111931177213 6.0186430841384455 5.964314809418915
18.494578279094615 3.0573290131894284 7.950274311795141 7.486974954110043
22.058334268892906 1.5570354804879725 10.878269531709345 9.623029256695585
18.49457827909529 3.0573290131895123 7.950274311795483 7.486974954110289
14.36036908666861 2.377411193113283 6.0186430841372776 5.964314809418049
11.372914323878444 2.00800176365424 4.576873154997001 4.7880394052272015
8.843854619131308 1.6632946271059539 3.392003415738093 3.78855657628726
6.8203335907836244 1.3710006848001262 2.4903513747852406 2.9589815311982584
5.245220484508458 1.1523285275528488 1.8076595460580684 2.285232410897541
3.9938921143371697 0.9878845994538525 1.2767061360382237 1.7293013788450926
2.9569921159998174 0.8519409330746999 0.8508570887378192 1.2541940941872975
2.094589664056658 0.7413551429307246 0.5156758597196037 0.8375586614063298
1.3986190485129861 0.6427599935076301 0.27670630665967955 0.47915274834567695
0.8391533207677037 0.5231564781624579 0.09737665150948362 0.21862019109576203
0.5121959481975104 0.4150977131275976 0.023616654242161337 0.07348158082775143
0.35486833582037913 0.33535006319358285 0.0034287377039958268 0.016089534922800384
0.2736989583128197 0.27668673599497456 -0.0015982167602951202 -0.0013895609218597337
0.21627696115194167 0.22100707823902768 -0.0010586562975445461 -0.0036714607895414583
0.18335220978663846 0.18343694552914597 -1.3324755894992215e-05 -7.141098661248196e-05
0.17678226077819445 0.17679634422931081 -6.269657839693201e-07 -1.3456485332418166e-05
0.19006287991361978 0.1900802739492733 -9.224449321673981e-07 -1.6471590721401528e-05
0.17575552458759316 0.18867260257415452 -0.0033750236711559112 -0.009542054315405406
0.7575904587579364 0.6795032554234047 0.02068689081531577 0.057400312519216054
0.4898244423346752 0.48407762426459017 0.0006295028068798792 0.005117315263205038
0.17021074101651945 0.1710716035331649 -9.516843399889343e-05 -0.0007656940826465054
0.19978386086309222 0.19991375006125353 -1.0603422223933757e-05 -0.00011928577593740577
0.19205986071971398 0.19210934122717904 -3.1251891179798803e-06 -4.635531834708315e-05
0.19276737011059164 0.19324037453214876 -7.318251921059999e-05 -0.0003998219023465308
0.21429892650324936 0.2177932376740763 -0.0008685434918759441 -0.0026257676789509026
0.25569892188820936 0.2573010109455048 -0.0011223925664555863 -0.00047969649083971235
0.30186354556118705 0.2728324103937319 0.0057051533492247656 0.02332598181823026
0.33915030468007845 0.2580653354742559 0.023590076528656148 0.05749489267716644
0.38591159307077366 0.21925397860142573 0.05069260750014627 0.11596500696920149
0.4990899736546119 0.21045653242745088 0.10534151959071685 0.1832919216364443
0.6821736923985557 0.22878700413688496 0.16860768351193461 0.28477900474973566
0.9491091408598828 0.27481068629736527 0.2657484955319133 0.40854995903060454
1.3019416561315984 0.2949074582525302 0.406463706857497 0.6005704910215709
1.7700376465649896 0.29620480519793624 0.6125398774571336 0.8612929639099194
2.353702231406118 0.31260632317472686 0.8693861193308541 1.1717097889005375
3.1033404278725936 0.35875156013141296 1.2110701098318657 1.5335187579093144
4.046709150044304 0.44247522157811264 1.6502026701275054 1.9540312583386865
5.525418074791666 0.6642748800582123 2.295878032352449 2.5652651623810034
8.887639228574017 1.6999318015950002 3.39993746452366 3.7877699624553562
14.744218784089341 1.4651484907342887 6.669594970851373 6.609475322503678
8.887639228576695 1.69993180159577 3.3999374645247786 3.787769962456149
5.525418074788618 0.6642748800556096 2.295878032352202 2.5652651623808054
4.046709150041407 0.44247522157988345 1.6502026701249655 1.9540312583365593
3.103340427877481 0.35875156013821163 1.2110701098307333 1.5335187579085339
2.353702231403997 0.31260632317508463 0.869386119329697 1.1717097888992143
1.770037646562137 0.29620480519764525 0.6125398774559321 0.8612929639085605
1.301941656133641 0.2949074582551956 0.4064637068571576 0.6005704910212887
0.9491091408556318 0.27481068629545546 0.2657484955307879 0.40854995902938834
0.6821736923972985 0.2287870041374771 0.16860768351118827 0.28477900474863416
0.49908997365339774 0.21045653242736972 0.10534151959020516 0.1832919216358223
0.3859115930703424 0.21925397860145535 0.05069260749999798 0.11596500696888944
0.33915030467989904 0.25806533547449473 0.023590076528515254 0.05749489267688907
0.3018635455609493 0.27283241039369754 0.005705153349154255 0.023325981818097526
0.2556989218876349 0.25730101094495444 -0.0011223925664686776 -0.00047969649085086163
0.2142989265029687 0.21779323767356376 -0.0008685434918361739 -0.0026257676787590145
0.19276737011024594 0.19324037453187087 -7.318251922030453e-05 -0.0003998219024045977
0.19205986071932893 0.19210934122681017 -3.1251891194553287e-06 -4.635531836180041e-05
0.19978386086276861 0.1999137500609382 -1.0603422223417794e-05 -0.00011928577594616136
0.17021074101639425 0.17107160353304235 -9.516843399776806e-05 -0.0007656940826503173
0.4898244423335269 0.4840776242633949 0.0006295028068637727 0.005117315263267918
0.32482634538548333 0.32486977409387846 -2.4699665670363174e-06 -4.095874182818501e-05
0.1618272449812726 0.1618328369282822 -4.922502779112896e-07 -5.099696731679755e-06
0.20365199793576583 0.2036162453607585 3.0258266921837877e-06 3.272674831509248e-05
0.20513426548872088 0.20528470850829267 -1.739119249875026e-05 -0.0001330518270730822
0.20774652804680738 0.20803415650855878 -6.111331294526387e-05 -0.00022651514880612773
0.2306455253286563 0.23285159785920248 -0.0007783642386239836 -0.0014277082919221824
0.2814273801964699 0.28463156786658605 -0.0012910356549111076 -0.001913152015205068
0.35757200772779624 0.3368345295308434 0.00394861479954411 0.016788863397408517
0.5126351559940593 0.4147854668542936 0.023873764398955288 0.07397592474081041
0.8380668582023441 0.522579533177616 0.09713546503995432 0.21835185998477363
1.398368230880127 0.6449849148584235 0.2760264275172952 0.47735688850440816
2.101252180210128 0.7422258130520627 0.5194819543538135 0.8395444128042516
2.9747684254706206 0.8552944067770945 0.8574716529540698 1.2620023657394557
4.023538783908972 0.9918202594613128 1.289629479559314 1.7420890448883468
5.2315031657910165 1.1440967213707496 1.8058086271956704 2.2815978172245974
6.56470975919302 1.3154183609814116 2.392973246786105 2.8563181514255014
7.855362314884376 1.4947859949638407 2.968902054222593 3.3916742656979415
8.917862280813 1.6874122413856398 3.4644408019720765 3.766009237455282
9.291776223067245 1.8057221119228528 3.6331947280536876 3.852859383090712
7.41927394504824 0.9866074126403521 3.197050666105611 3.235615866302277
14.925096677882234 2.5850995281808635 6.069508548738015 6.27048860096336
7.419273945047348 0.9866074126362974 3.1970506661072884 3.235615866303758
9.291776223071885 1.8057221119277005 3.633194728053672 3.8528593830905162
8.917862280799646 1.6874122413786898 3.4644408019685953 3.7660092374523604
7.85536231486985 1.494785994954813 2.9689020542197273 3.3916742656953134
6.5647097591820875 1.3154183609768895 2.3929732467828315 2.8563181514223666
5.231503165783799 1.1440967213700346 1.8058086271925229 2.2815978172212414
4.023538783899705 0.9918202594573129 1.2896294795567194 1.7420890448856718
2.9747684254642515 0.8552944067777615 0.8574716529508808 1.2620023657356105
2.1012521802027955 0.7422258130504564 0.5194819543512654 0.839544412801073
1.3983682308742809 0.644984914857214 0.2760264275153374 0.477356888501729
0.8380668581997589 0.5225795331762695 0.09713546503945536 0.21835185998403422
0.5126351559926545 0.41478546685364637 0.023873764398697563 0.07397592474031045
0.3575720077272195 0.33683452953031645 0.003948614799522479 0.016788863397380498
0.28142738019581237 0.2846315678659774 -0.0012910356549341274 -0.0019131520152309857
0.23064552532811025 0.23285159785847176 -0.000778364238593898 -0.0014277082917676658
0.20774652804629395 0.20803415650780677 -6.111331291741474e-05 -0.00022651514859533113
0.20513426548832228 0.20528470850780078 -1.739119249183224e-05 -0.00013305182698657758
0.20365199793546435 0.20361624536036851 3.025826696768955e-06 3.2726748399022514e-05
0.16182724498112996 0.1618328369281643 -4.922502799522008e-07 -5.0996967543437534e-06
0.3248263453847765 0.32486977409314494 -2.4699665649585164e-06 -4.095874180351584e-05
0.2099908107988686 0.2099908107988686 0.0 0.0
0.14818937485215422 0.1481838237144394 2.702453418794739e-07 5.280892372970864e-06
0.2007874621521884 0.20084157264239783 -5.0069416044891895e-06 -4.910354860491062e-05
0.21472624614663752 0.2144534857066616 3.072732330511631e-05 0.0002420331166708727
0.22644902469023045 0.22728753603522406 -0.00014486437740701658 -0.0006936469675865846
0.2642469525176372 0.271088887137008 -0.0014730048050886914 -0.005368929814282081
0.34497449968394206 0.3463749784912855 -0.002640487610719408 0.0012400088033760305
0.5582338800994002 0.48123909160726835 0.01712242715126412 0.05987236134086788
1.049804075319726 0.6317142901548475 0.12883576605870478 0.2892540191061741
1.9223920792813678 0.7993650773360031 0.41951225308575457 0.7035147488596096
3.0932923839008666 0.9536018222593249 0.8613651574631862 1.278325404178354
4.539864168740954 1.11072300702254 1.4745135423805296 1.954627619337883
6.224986870520356 1.280558203887169 2.2287312215359996 2.7156974450971894
8.18767415964994 1.4686710883274825 3.143049548498132 3.575953522824325
10.496093721518742 1.6817411686273904 4.263193752244852 4.5511588006464985
13.109729136768664 1.9126192268179834 5.574954676006039 5.622155233944641
15.815617421389769 2.155333109238101 6.9551737375673035 6.7051105745843635
18.209298234312826 2.4240820264348066 8.139127299544148 7.64608890833387
19.451095370046158 2.511428086051075 8.813946406986815 8.12572087700827
17.974192363336762 2.4868798877936675 8.07037139047469 7.416941085068403
21.813451429271772 5.599793623474347 8.363423707434395 7.850234098363021
17.974192363345633 2.4868798877972607 8.070371390477774 7.416941085070601
19.45109537003895 2.511428086045184 8.81394640698602 8.12572087700775
18.20929823430694 2.4240820264391494 8.139127299538261 7.646088908329532
15.81561742137303 2.1553331092342294 6.955173737560019 6.705110574578779
13.109729136754972 1.9126192268176756 5.574954675998652 5.6221552339386465
10.496093721508974 1.6817411686286534 4.263193752238921 4.551158800641397
8.187674159638505 1.468671088326992 3.1430495484924466 3.5759535228190646
6.22498687050743 1.2805582038859915 2.2287312215300417 2.7156974450913967
4.539864168728844 1.1107230070208016 1.4745135423754636 1.9546276193325773
3.0932923838899735 0.9536018222577476 0.8613651574589152 1.2783254041733103
1.9223920792735754 0.7993650773341673 0.4195122530831278 0.7035147488562811
1.04980407531593 0.6317142901540385 0.12883576605756544 0.2892540191043258
0.5582338800973945 0.48123909160632516 0.017122427150942025 0.059872361340127134
0.3449744996830798 0.34637497849031923 -0.0026404876107130318 0.0012400088034735905
0.2642469525169979 0.2710888871362541 -0.0014730048050554934 -0.005368929814200656
0.22644902468969813 0.2272875360347033 -0.00014486437740873594 -0.0006936469675964661
0.21472624614629043 0.21445348570615708 3.0727323318651954e-05 0.00024203311681468093
0.20078746215190763 0.20084157264213803 -5.006941606779726e-06 -4.910354862362206e-05
0.14818937485188974 0.14818382371418254 2.7024534145801815e-07 5.280892365722374e-06
0.2099908107983644 0.2099908107983644 0.0 0.0
0.12939038171752926 0.12939038171752926 0.0 0.0
0.12927335008526822 0.1292639778948532 6.316936465528355e-07 8.74049676847986e-06
0.19129613747344484 0.19130685239276024 -6.076566036240563e-07 -1.0107262711789667e-05
0.22037185156676728 0.22061094123041905 -2.8044972431344383e-05 -0.00021104469122046926
0.24863595754386725 0.25048312504144987 -0.0003444861575446609 -0.0015026813400378764
0.3087130635338692 0.31018029761394 -0.0012944648854682909 -0.00017276919460237753
0.47293012872702295 0.4504643068975774 0.002657215934177241 0.01980860589526836
0.9196551908358394 0.619082409329267 0.08570868135462383 0.2148641001519484
1.8397318691772773 0.8269790962320449 0.3669767014611529 0.6457760714840796
3.3050592053248327 1.0318982297275936 0.9513451970582741 1.3218157785389644
5.102258028526064 1.2068422133189778 1.7062273432649078 2.1891884719421824
7.28113261923388 1.3896755757701063 2.710647429304079 3.1808096141596938
9.837290645775335 1.596025113375189 3.951571935461217 4.2896935969389265
12.833732159795948 1.8326019678638166 5.452009357100135 5.549120834831999
16.3977309284141 2.1027980139420697 7.304733947478885 6.9901989669931375
20.444815992421592 2.3891308579564425 9.450574006696987 8.60511112776816
24.86217563512121 2.6804876429512117 11.89207566731379 10.289612324856206
28.782350111897934 2.8768795121373203 14.08442341029398 11.821047189466634
30.87163031695544 2.871642969958719 15.34249290368178 12.657494443314953
28.58896366535553 2.530324268269605 14.189499826036656 11.869139571049267
32.13167109418135 8.232259740715959 12.882498702253681 11.016912651211717
28.588963665349652 2.5303242682610074 14.189499826038267 11.86913957105037
30.871630316957187 2.8716429699631023 15.342492903680157 12.657494443313913
28.782350111879634 2.876879512133534 14.084423410285304 11.821047189460796
24.86217563510333 2.6804876429511104 11.892075667303281 10.289612324848932
20.444815992403118 2.38913085795622 9.45057400668645 8.60511112776045
16.397730928392242 2.1027980139376647 7.304733947468989 6.990198966985581
12.833732159778418 1.8326019678622314 5.452009357091335 5.549120834824848
9.837290645757818 1.5960251133748082 3.9515719354520398 4.289693596930971
7.281132619216552 1.3896755757682382 2.710647429296087 3.1808096141522246
5.102258028511504 1.206842213318617 1.7062273432578916 2.1891884719349983
3.305059205314527 1.0318982297269421 0.9513451970537302 1.3218157785338551
1.839731869169909 0.8269790962300927 0.36697670145881345 0.645776071481003
0.9196551908318621 0.6190824093281262 0.08570868135359737 0.21486410015013827
0.472930128725387 0.45046430689665756 0.0026572159339911345 0.019808605894738218
0.30871306353329225 0.3101802976129082 -0.0012944648854081868 -0.00017276919420771038
0.2486359575434398 0.2504831250408817 -0.00034448615752672227 -0.001502681339915208
0.22037185156637706 0.22061094123003966 -2.8044972432744173e-05 -0.000211044691229882
0.19129613747319982 0.19130685239252038 -6.076566040686563e-07 -1.010726271655984e-05
0.1292733500849532 0.12926397789453872 6.316936464977709e-07 8.740496767980233e-06
0.12939038171718276 0.12939038171718276 0.0 0.0
0.07558554558082299 0.07558554558082299 0.0 0.0
0.10694154693283256 0.10694154693283256 0.0 0.0
0.17624709206454467 0.17623665123909574 6.169848764971448e-07 9.823840572470336e-06
0.2225003890197518 0.22235730939381296 1.7991594144691668e-05 0.0001250880317941102
0.2725226028744037 0.27492184799991576 -0.00045093622816061 -0.0019483088973513921
0.3748394096656804 0.3833432278188761 -0.0028003080602351516 -0.005703510092960447
0.6791279830091104 0.5482215555799317 0.032656175803130176 0.09825025162604845
1.428666146917055 0.7698858904573868 0.22321711760890062 0.4355631388507679
2.844006999137806 1.0148061389581715 0.7521237716301099 1.0770770885495238
4.73993269935647 1.2162453910048288 1.512615044720131 2.0110722636315104
7.243990440641277 1.423452029470231 2.6763676443871347 3.1441707667839105
10.204107061640538 1.6404605755993062 4.124680106413968 4.438966379627264
13.68035251965161 1.8886706535497635 5.889947546503372 5.90173431959848
17.800823024018413 2.180850201449907 8.049874899586865 7.570097922981634
22.669534037352552 2.514791074047562 10.665690521807033 9.489052441497954
28.412208042735784 2.8759940241356583 13.880567317802633 11.655646700797488
34.37647801783862 3.1739776430881603 17.240641974629828 13.961858400120633
39.900559641507115 3.270485065776266 20.598613662502135 16.0314609132287
42.74107350904652 3.025831258080037 22.533913749035996 17.181328501930494
39.71570385976486 2.603469053581769 20.918926852766248 16.193307953416838
43.47116768852557 10.755609448803918 18.17913781825224 14.53642042146942
39.71570385976493 2.6034690535846936 20.918926852764535 16.1933079534157
42.74107350903346 3.025831258072708 22.533913749032394 17.18132850192837
39.900559641491164 3.2704850657798294 20.598613662490056 16.031460913221274
34.37647801780726 3.173977643081762 17.240641974614693 13.9618584001108
28.41220804270912 2.8759940241325803 13.88056731778854 11.655646700788
22.66953403732706 2.514791074047734 10.665690521792099 9.489052441487217
17.80082302399492 2.1808502014478783 8.049874899574634 7.570097922972407
13.680352519629183 1.8886706535488424 5.889947546491448 5.90173431958889
10.204107061617155 1.6404605755968809 4.124680106402783 4.438966379617493
7.24399044062248 1.4234520294692483 2.6763676443780584 3.144170766775172
4.7399326993417485 1.216245391003251 1.512615044713766 2.011072263624731
2.8440069991274006 1.0148061389563714 0.7521237716260905 1.077077088544938
1.4286661469112947 0.7698858904557602 0.22321711760720755 0.43556313884832715
0.6791279830063428 0.548221555578793 0.03265617580256277 0.09825025162498675
0.3748394096648835 0.3833432278178467 -0.002800308060175009 -0.0057035100927882425
0.2725226028739106 0.2749218479994264 -0.0004509362281595182 -0.0019483088973562448
0.22250038901923633 0.2223573093932713 1.7991594146077977e-05 0.00012508803181900447
0.17624709206424152 0.17623665123879745 6.169848761276928e-07 9.823840567913113e-06
0.10694154693260007 0.10694154693260007 0.0 0.0
0.07558554558062602 0.07558554558062602 0.0 0.0
0.04157135062077756 0.04157135062077756 0.0 0.0
0.0838534432185677 0.0838534432185677 0.0 0.0
0.1573592409949181 0.15734858240062366 6.366593226293898e-07 1.002193497175889e-05
0.22205634542504193 0.22208698987081552 5.472263375231773e-07 -3.119167211111032e-05
0.29865875431364264 0.30012577727747897 -0.0004934510554369451 -0.0009735719083994921
0.47403576655334667 0.4598021602232116 0.0019011596263389567 0.012332446703796154
0.9685900929445389 0.6620744487201511 0.09285066661178816 0.21366497761259962
2.090839790811074 0.925317014026937 0.4563368385539082 0.709185938230229
3.840688809186934 1.158299980780205 1.1109963735646675 1.5713924548420624
6.358175905749551 1.3949307613483644 2.238459881244047 2.7247852631571385
9.492525809845066 1.6300446124136867 3.7483222425795053 4.1141589548518755
13.25974097774036 1.8862497585744458 5.6581181295787815 5.715373089587135
17.726305314435947 2.1833062790103734 8.006704053019213 7.536294982406362
23.05858152293816 2.5342287853837 10.904178895291029 9.62017384226343
29.336431722644825 2.9492017891936433 14.370224240166557 12.017005693284624
36.59883891203355 3.3748270498483266 18.490372428604395 14.733639433580828
44.53906492006198 3.675654657626641 23.244833168115342 17.618577094319996
51.41078953764395 3.615807286404756 27.55793560923361 20.23704664200561
54.661957676225946 3.088284740506688 29.90562466454882 21.668048271170434
51.15483530411827 2.729862096647823 27.967115717228133 20.457857490242322
55.833114124790164 13.34526118934237 24.254932653052094 18.232920282395696
51.15483530411299 2.7298620966473317 27.967115717225102 20.45785749024055
54.6619576762111 3.0882847405041542 29.90562466454106 21.66804827116587
51.410789537623124 3.6158072864061497 27.5579356092196 20.237046641997388
44.53906492003668 3.675654657633217 23.244833168095468 17.618577094307998
36.59883891200057 3.374827049845096 18.490372428586262 14.733639433569222
29.336431722614762 2.949201789195575 14.370224240147436 12.017005693271745
23.058581522907232 2.534228785380275 10.904178895274983 9.620173842251974
17.726305314405217 2.1833062790072795 8.006704053003512 7.536294982394419
13.259740977713554 1.8862497585738545 5.658118129564338 5.715373089575359
9.49252580982127 1.6300446124117116 3.748322242567948 4.114158954841609
6.358175905732051 1.3949307613476034 2.2384598812356034 2.7247852631488447
3.8406888091742872 1.158299980778245 1.1109963735597919 1.5713924548362517
2.0908397908026526 0.9253170140251606 0.4563368385509452 0.7091859382265464
0.9685900929406689 0.662074448718903 0.09285066661081814 0.21366497761094774
0.4740357665520476 0.4598021602222889 0.0019011596262275869 0.012332446703530987
0.2986587543131861 0.3001257772768255 -0.0004934510554155568 -0.0009735719082239172
0.22205634542478286 0.22208698987052086 5.472263407194726e-07 -3.119167207876441e-05
0.15735924099450888 0.15734858240022098 6.366593221431451e-07 1.0021934965748754e-05
0.08385344321844374 0.08385344321844374 0.0 0.0
0.04157135062068654 0.04157135062068654 0.0 0.0
0.021462166656697323 0.021462166656697323 0.0 0.0
0.062332989015897795 0.062332989015897795 0.0 0.0
0.13693580684881657 0.1369298327057729 3.662909033654852e-07 5.6078521402870744e-06
0.2207984178772531 0.22072752825764766 8.105418954766098e-06 6.278420065066675e-05
0.33484973682552266 0.3424478251379201 -0.0017517323088086937 -0.005846356003588651
0.6106348349807842 0.5231800419586139 0.01962914531476377 0.06782564770740618
1.3606285282370894 0.7872550466044379 0.20745015011316348 0.3659233315194877
2.7657614600251166 1.044677403266355 0.6756973753094555 1.0453866814493054
4.995236631877857 1.3038413486419913 1.604903410681227 2.086491872554639
8.023087275479774 1.5639445856402305 3.0090512154903637 3.450091474349181
11.838618312694377 1.8357227920810497 4.907031173984932 5.095864346628395
16.460087201768673 2.1373178607161063 7.318251026294158 7.004518314758409
21.994655190753726 2.4895309688363914 10.315467718794757 9.189656503122574
28.458458081222282 2.905033871593477 13.857872177149098 11.695552032479705
36.23209613521911 3.38653666551821 18.281097673757607 14.5644617959433
45.218080330170224 3.8913098035187703 23.521460114984958 17.805310411666504
54.704278701445595 4.190804170472813 29.254122353290626 21.259352177682157
62.99201087221322 3.930480972972755 34.68973940156386 24.371790497676606
66.94526773554237 3.131867572363272 37.741816166430844 26.071583996748274
63.05562170421536 2.865452790004249 35.41955770781903 24.77061120639208
68.92123128457344 15.984505133991352 30.77756549770795 22.15916065287412
63.055621704212186 2.865452790005836 35.41955770781603 24.770611206390324
66.94526773552285 3.1318675723622134 37.741816166418886 26.07158399674173
62.99201087218325 3.9304809729697707 34.68973940154652 24.37179049766693
54.70427870141326 4.190804170475007 29.254122353268823 21.259352177669427
45.21808033012964 3.8913098035152682 23.521460114961886 17.805310411652478
36.23209613518329 3.3865366655179265 18.281097673735935 14.564461795929423
28.45845808118449 2.905033871589702 13.857872177128817 11.695552032465956
21.99465519071926 2.4895309688364264 10.315467718774734 9.1896565031081
16.46008720173579 2.137317860713587 7.318251026277073 7.004518314745133
11.838618312666428 1.8357227920797827 4.907031173970457 5.095864346616184
8.023087275458291 1.5639445856377634 3.009051215480526 3.4500914743400033
4.9952366318615455 1.3038413486395783 1.6049034106746003 2.0864918725473673
2.7657614600150935 1.0446774032651023 0.6756973753055214 1.0453866814444701
1.3606285282317083 0.7872550466028786 0.2074501501115846 0.36592333151724454
0.6106348349788471 0.5231800419575534 0.019629145314461395 0.0678256477068325
0.33484973682495045 0.3424478251370479 -0.0017517323087498807 -0.005846356003347453
0.22079841787707466 0.22072752825748992 8.105418950511579e-06 6.278420063420565e-05
0.13693580684850534 0.13692983270546188 3.662909033509835e-07 5.607852140109466e-06
0.062332989015803024 0.062332989015803024 0.0 0.0
0.021462166656604713 0.021462166656604713 0.0 0.0
0.01053748366312928 0.01053748366312928 0.0 0.0
0.04412549037095719 0.04412549037095719 0.0 0.0
0.1174074670913083 0.1174074670913083 0.0 0.0
0.22182696373293903 0.22191896253741664 -1.284063538190359e-05 -7.915816909575139e-05
0.38717505665610497 0.39010365247126494 -0.001183488550393115 -0.0017451072647667104
0.8065835410495011 0.6217635147055481 0.05515768834496236 0.12966233799899074
1.7939508511513194 0.8910426143718007 0.3300143402276648 0.5728938965518535
3.5391749940064208 1.1576705241721463 0.9779376371706983 1.4035668326635762
6.182998164542198 1.4396192805756722 2.1284413102014614 2.614937573765066
9.759402379761053 1.730846056828788 3.8434815148572445 4.185074808075019
14.258994138542421 2.0426075287160272 6.130263666000013 6.0861229438263855
19.77130159423975 2.39763045188743 9.068212445676837 8.305458696675483
26.30090597862622 2.8095149434314477 12.629904595345073 10.861486439849697
34.1979866597468 3.291058610607621 17.118799975138003 13.788128074001186
43.35206461848211 3.838242837650487 22.38345450819532 17.130367272636295
53.791337913548674 4.387832938703468 28.538503022433524 20.865001952411703
64.97320392785244 4.701549250431799 35.46394724240116 24.807707435019466
74.69123707627469 4.283769338672521 42.0004702290585 28.406997508543693
79.49176380800769 3.1913332957410416 45.8230607669535 30.47736974531314
75.63532985035012 2.9628339095465703 43.48043969987094 29.192056240932615
83.19421135704238 18.6204763480171 38.23613293529617 26.33760207372909
75.6353298503328 2.9628339095369163 43.48043969986585 29.192056240930043
79.49176380798227 3.1913332957401552 45.82306076693749 30.477369745304646
74.69123707624057 4.283769338671658 42.00047022903682 28.406997508532097
64.97320392780964 4.70154925042897 35.46394724237559 24.807707435005067
53.79133791350802 4.387832938705587 28.538503022406456 20.865001952395964
43.35206461843404 3.838242837644259 22.383454508169404 17.13036727262038
34.19798665970234 3.2910586106040434 17.118799975113166 13.788128073985124
26.300905978585845 2.809514943430348 12.629904595321841 10.861486439833655
19.77130159420083 2.3976304518839586 9.068212445656558 8.305458696660315
14.258994138510907 2.042607528715167 6.130263665983041 6.086122943812702
9.75940237973548 1.7308460568263937 3.843481514844916 4.185074808064169
6.182998164523576 1.439619280574459 2.1284413101927795 2.6149375737563356
3.539174993993777 1.1576705241698588 0.9779376371661752 1.4035668326577435
1.7939508511446505 0.891042614370333 0.33001434022545895 0.5728938965488591
0.8065835410464857 0.6217635147040177 0.055157688344418004 0.12966233799805
0.3871750566551909 0.3901036524702894 -0.0011834885503913145 -0.0017451072647072005
0.22182696373264332 0.22191896253713161 -1.2840635384272495e-05 -7.9158169103935e-05
0.11740746709111179 0.11740746709111179 0.0 0.0
0.04412549037091088 0.04412549037091088 0.0 0.0
0.010537483663046694 0.010537483663046694 0.0 0.0
0.00513212541765521 0.00513212541765521 0.0 0.0
0.030229179568190847 0.030229179568190847 0.0 0.0
0.1014170639697822 0.1014170639697822 0.0 0.0
0.22974079960967578 0.23007004270130432 -4.4720165838324876e-05 -0.00028452292579028986
0.46333195566295376 0.44179734604029164 0.0038841866018950602 0.017650423020767202
1.0627630887860917 0.7194837775911631 0.11598010774818752 0.22729920344674115
2.2764833686863 0.9756336025852965 0.4876346073738598 0.8132151587271428
4.362520530274311 1.2658557773333974 1.3190111451317503 1.7776536078091625
7.412251995860667 1.5698729791788628 2.689817201867319 3.1525618148144874
11.540175956415807 1.8957621940508171 4.717329732214958 4.927084030150035
16.7760459143404 2.256095171936736 7.436896258510875 7.083054483892788
23.153919423154093 2.6659354607977392 10.87101986449374 9.616964097862613
30.916220657903622 3.1488377526854316 15.223842099797643 12.54354080542053
39.96627286670001 3.7036827114333892 20.354162824874074 15.908427330392549
50.61228487601437 4.290803837689096 26.610909095042203 19.710571943283075
62.56097276888823 4.832469470542338 33.836378371326845 23.892124927019033
75.13068329059871 5.1581845212314485 41.71478867186777 28.257710097499505
86.36318620690925 4.77747084086651 49.28881191648401 32.29690344955871
92.32966538529095 3.2987684940641078 54.220507464143516 34.81038942708334
89.03412793911758 2.9457404766420416 52.290737576731274 33.79764988574425
98.76273154717124 21.108938888902053 46.7157196904134 30.93807296785578
89.03412793910213 2.9457404766415873 52.29073757672147 33.7976498857391
92.3296653852633 3.298768494066454 54.220507464123706 34.81038942707315
86.36318620686652 4.77747084086514 49.28881191645691 32.29690344954449
75.13068329055089 5.158184521229476 41.71478867183798 28.257710097483454
62.56097276883586 4.8324694705388405 33.83637837129563 23.892124927001383
50.612284875965415 4.290803837688322 26.610909095011948 19.710571943265148
39.96627286664935 3.7036827114301634 20.354162824844913 15.908427330374298
30.916220657854165 3.148837752681479 15.223842099770314 12.543540805402381
23.15391942310955 2.6659354607959718 10.87101986446871 9.61696409784487
16.77604591430321 2.2560951719341213 7.436896258491439 7.0830544838776515
11.540175956387573 1.8957621940492948 4.717329732200552 4.927084030137724
7.412251995839631 1.569872979177719 2.689817201857204 3.152561814804708
4.362520530259992 1.2658557773318013 1.319011145125756 1.7776536078024359
2.2764833686779014 0.9756336025838189 0.48763460737113185 0.8132151587229508
1.0627630887824264 0.7194837775900477 0.11598010774722609 0.22729920344515264
0.46333195566179786 0.44179734603922816 0.0038841866018319575 0.017650423020737858
0.2297407996092976 0.23007004270095588 -4.4720165842449927e-05 -0.0002845229258158791
0.10141706396958408 0.10141706396958408 0.0 0.0
0.030229179568142018 0.030229179568142018 0.0 0.0
0.005132125417653765 0.005132125417653765 0.0 0.0
0.002435606374672737 0.002435606374672737 0.0 0.0
0.02068093730293836 0.02068093730293836 0.0 0.0
0.09245994544259167 0.09245994544259167 0.0 0.0
0.25190631044598094 0.25242841920306536 -0.00011556415999488756 -0.00040654459708961403
0.5830013378181902 0.5222956434092487 0.017141618216266793 0.04356407619267481
1.3572502179815529 0.8017458722414742 0.1919277085076345 0.3635766372324441
2.824047025423346 1.0655672733965564 0.6930556136946107 1.0654241383321785
5.213582225087827 1.3676833299563926 1.6824663985956492 2.163432496535786
8.690450613671036 1.6965501842253234 3.297524771046215 3.696375658399499
13.361138604650524 2.06140113376935 5.62655970280704 5.673177768074133
19.328734378261693 2.4726605446337566 8.769442857058824 8.086630976569111
26.725359431327398 2.9494149378003054 12.840302663318932 10.935641830208162
35.48763484718054 3.5059613469315574 17.735099498780006 14.246574001468973
45.98695505859072 4.127017994458798 23.822102549136737 18.0378345149952
58.09426610187164 4.758040578443316 31.037209535254696 22.29901598817363
71.4274056426238 5.2597759904422645 39.25568022099784 26.911949431183686
85.09999476655248 5.4644214292553634 48.03491761238998 31.600655724907124
97.62153245316289 5.251337676769804 56.44566034532815 35.92453443106493
105.38026754686749 3.8198578664311076 62.5641769790617 38.99623270137466
103.32240003607171 2.6437778140086428 62.00060442250753 38.67801779955558
115.64947848480777 22.46657822074624 56.98253810765311 36.2003621564084
103.32240003605618 2.643777814009785 62.00060442249637 38.67801779955001
105.38026754683092 3.8198578664310654 62.56417697903742 38.99623270136247
97.62153245311696 5.251337676772456 56.44566034529589 35.924534431048606
85.09999476649003 5.464421429250941 48.03491761235203 31.600655724887
71.42740564256677 5.2597759904399375 39.25568022096246 26.911949431164402
58.09426610181068 4.758040578438266 31.037209535219198 22.299015988153208
45.986955058531755 4.127017994453523 23.822102549103263 18.037834514974953
35.48763484712716 3.505961346930611 17.73509949874807 14.246574001448472
26.725359431278847 2.949414937799502 12.840302663290675 10.935641830188663
19.328734378221256 2.4726605446317786 8.769442857036728 8.086630976552755
13.361138604618088 2.061401133766917 5.626559702790538 5.673177768060628
8.69045061364691 1.6965501842231305 3.297524771034809 3.6963756583889684
5.213582225071487 1.3676833299549958 1.6824663985884347 2.1634324965280585
2.8240470254133943 1.0655672733945902 0.6930556136911785 1.0654241383276248
1.3572502179767156 0.8017458722404162 0.19192770850611685 0.36357663723018235
0.5830013378166748 0.522295643408226 0.017141618216086993 0.043564076192362126
0.25190631044551937 0.25242841920250386 -0.00011556415998776733 -0.0004065445969967192
0.09245994544238809 0.09245994544238809 0.0 0.0
0.020680937302888943 0.020680937302888943 0.0 0.0
0.002435606374663029 0.002435606374663029 0.0 0.0
0.0006868017162361636 0.0006868017162361636 0.0 0.0
0.014892467160071978 0.014892467160071978 0.0 0.0
0.09554268331810943 0.09554268331810943 0.0 0.0
0.30180646955233026 0.3023230125835945 -0.00023036726330707405 -0.0002861757679571554
0.7583579962245441 0.6338497490637929 0.0402166272318386 0.08429161992891254
1.723402090305425 0.9595523105969131 0.27673560005191633 0.4871141796565951
3.438276968345486 1.2942829131187263 0.8699253646376035 1.274068690589157
6.161883684101393 1.7112183348743342 1.9856081269097543 2.465057222317302
10.087018484093704 2.2095427937463237 3.761841508262159 4.115634182085227
15.420660801013788 2.825265355311223 6.350661299573089 6.244734146129476
22.302802082363925 3.5978419488512503 9.852263989152153 8.85269614436052
30.760676449299996 4.556686720412859 14.256615382109274 11.94737434677786
41.03228977612299 5.702171111462958 19.785783124406233 15.544335540253808
53.19086990233691 7.016079507399492 26.516744721537886 19.658045673399542
67.06942965666327 8.337385518120195 34.481839643315126 24.250204495227905
82.01581252057689 9.356571063430042 43.49484739491139 29.164394062235445
96.69678884916117 9.688889361950386 52.90575125856326 34.102148228647536
109.36794232749334 9.145169237884934 61.67554747808391 38.54722561152457
118.4786379488828 8.280557500268756 68.34930370629743 41.84877674231664
115.00662653473299 2.656008918555334 69.74156880461912 42.60904881155848
165.85981316151137 57.52013092593593 67.16011452333701 41.17956771223842
115.00662653470461 2.6560089185439297 69.74156880460774 42.60904881155294
118.47863794885258 8.280557500281372 68.34930370626867 41.84877674230249
109.3679423274326 9.145169237877862 61.675547478048315 38.547225611506484
96.69678884911625 9.688889361973999 52.905751258517974 34.1021482286243
82.01581252050471 9.356571063416236 43.494847394873446 29.16439406221496
67.06942965660078 8.33738551812179 34.48183964327418 24.250204495204823
53.190869902266954 7.016079507388502 26.516744721500878 19.6580456733776
41.032289776061546 5.7021711114578615 19.785783124371658 15.54433554023204
30.76067644924104 4.556686720404105 14.256615382079241 11.947374346757686
22.30280208231625 3.597841948844408 9.852263989128474 8.852696144343373
15.420660800977396 2.8252653553075415 6.350661299554788 6.244734146115068
10.087018484065815 2.2095427937419974 3.761841508249653 4.115634182074167
6.16188368408302 1.7112183348727061 1.9856081269014823 2.46505722230883
3.438276968333547 1.294282913115163 0.869925364633882 1.2740686905845031
1.7234020902996305 0.9595523105957227 0.2767356000501855 0.48711417965372233
0.7583579962224145 0.6338497490626291 0.040216627231501045 0.08429161992828431
0.3018064695517149 0.3023230125829644 -0.00023036726329842363 -0.00028617576795101924
0.09554268331795904 0.09554268331795904 0.0 0.0
0.014892467160048424 0.014892467160048424 0.0 0.0
0.0006868017162295777 0.0006868017162295777 0.0 0.0
CELL_DATA 800
SCALARS Stress float 6
LOOKUP_TABLE default
154.91156076570968 -508.21745673978546 -182.74536332327278 -107.26043711172846 0.0 0.0
396.62623003113686 -40.973815520339194 117.0577028438728 58.471995109752605 0.0 0.0
389.5735313569138 8.131781295778104 119.11540779090284 -4.4187230598237335 0.0 0.0
450.17828984599754 -8.971962709190128 135.75408403456595 -13.610731410958678 0.0 0.0
523.8126129184627 -13.84256312986357 180.22384321835256 -11.269003073770595 0.0 0.0
593.4973524722107 -6.8225913358254715 248.3322113583567 -9.673427919687423 0.0 0.0
660.9124274702865 0.9187079574258696 309.8092747622922 -9.737606325208608 0.0 0.0
728.3380089165169 16.61651886925378 363.41282292888275 -10.79153766543026 0.0 0.0
796.896369526197 38.900381681216864 413.24686518728583 -12.092475551053749 0.0 0.0
866.9661754040999 66.93452267420382 463.75566611284785 -13.055202090830784 0.0 0.0
937.8807102473102 99.01116755634331 515.8291156591943 -13.50935219975067 0.0 0.0
1008.869974218379 134.4426274038617 569.3744550983381 -13.454472664212116 0.0 0.0
1079.9586978938262 171.60747947130625 623.7255474637252 -13.230000308118939 0.0 0.0
1151.8271545368207 211.01394138965895 679.5087402380688 -12.962568214611425 0.0 0.0
1225.2276741157134 253.70314514731123 737.6497475546289 -12.587089390879882 0.0 0.0
1299.6849960092504 299.6633677567311 797.9266738108363 -11.922861751819841 0.0 0.0
1372.9218283836776 347.52084727170336 858.5301701516768 -10.766426815912219 0.0 0.0
1441.5635283972808 394.93537896563686 916.5866396265944 -9.116910046765327 0.0 0.0
1502.144082682555 439.5722682545876 969.1514277961919 -7.707424250099587 0.0 0.0
1570.5905610427703 499.3025580892342 1032.7154818427518 -9.876517554738292 0.0 0.0
1570.5905610429556 499.30255808943656 1032.715481842834 9.8765175547505 0.0 0.0
1502.144082682582 439.5722682546492 969.1514277961165 7.707424250124673 0.0 0.0
1441.5635283966174 394.9353789650364 916.5866396259808 9.116910046830846 0.0 0.0
1372.9218283837577 347.5208472718707 858.5301701517155 10.766426815837358 0.0 0.0
1299.6849960087304 299.66336775631424 797.9266738104848 11.922861751802127 0.0 0.0
1225.227674114525 253.7031451462355 737.6497475538532 12.58708939085695 0.0 0.0
1151.8271545360265 211.0139413890088 679.5087402374901 12.96256821464435 0.0 0.0
1079.9586978933257 171.6074794709784 623.7255474632959 13.230000308174661 0.0 0.0
1008.8699742174006 134.44262740307423 569.3744550975707 13.454472664275816 0.0 0.0
937.880710246995 99.01116755625063 515.8291156589299 13.509352199781219 0.0 0.0
866.9661754033438 66.93452267366851 463.7556661123011 13.055202090861956 0.0 0.0
796.8963695256393 38.90038168089244 413.2468651868974 12.092475551055774 0.0 0.0
728.3380089160229 16.6165188690061 363.4128229285106 10.791537665557495 0.0 0.0
660.9124274699329 0.9187079573333108 309.80927476198576 9.737606325175719 0.0 0.0
593.4973524718928 -6.822591335871216 248.33221135804868 9.673427919723926 0.0 0.0
523.8126129185525 -13.842563129434188 180.22384321836063 11.269003073677817 0.0 0.0
450.1782898461034 -8.971962708676948 135.75408403472667 13.610731410907587 0.0 0.0
389.5735313567491 8.131781295758922 119.11540779085078 4.418723059795248 0.0 0.0
396.62623003109616 -40.973815520271174 117.0577028438439 -58.471995109737875 0.0 0.0
154.9115607662529 -508.2174567392992 -182.74536332276426 107.26043711129361 0.0 0.0
57.50069641735752 -537.9241523689167 -240.37404381169694 -150.6546675067358 0.0 0.0
248.6270106223683 -26.50812255319577 66.63530042103046 11.948394873694184 0.0 0.0
341.5545972468043 25.17745310159215 110.019124978191 -10.298375660492066 0.0 0.0
411.999959019068 -6.461087940845615 122.08041193199878 -33.251496557513676 0.0 0.0
494.2786819987876 -14.914641914312515 159.50198485789775 -32.035917663270546 0.0 0.0
568.8137679506467 -8.18189379134344 226.32208124164234 -28.640779151970595 0.0 0.0
640.3600663373766 -0.6051497910995494 292.5760393046862 -29.057875860297422 0.0 0.0
708.7934647533715 14.33893022261848 349.5380895637524 -30.668532884514043 0.0 0.0
776.2661646399413 35.19801424982006 399.8227215969639 -32.64930938485424 0.0 0.0
843.7036496404854 60.895506211125415 448.5180934019402 -33.90354945661331 0.0 0.0
910.7608185118157 89.80934461283101 497.3487758225896 -34.08470766773153 0.0 0.0
977.2593596916929 120.6287850408619 546.4490710885832 -33.48247992086661 0.0 0.0
1043.3743246655858 153.68076211728783 596.3025014729963 -32.57393923886207 0.0 0.0
1110.2824152379278 188.84538723669766 647.5153353205164 -31.64437315775291 0.0 0.0
1178.401195615942 226.67983575967617 700.614638042794 -30.547802374074625 0.0 0.0
1247.2101870247109 267.3143156506025 755.4305647503826 -28.856098615964093 0.0 0.0
1315.127638207144 309.94776090652255 810.7706030901868 -26.253074195724864 0.0 0.0
1380.0367942837493 353.5285818436386 865.0246565430867 -22.938813219153015 0.0 0.0
1443.5993825197563 401.1532130631236 920.455518401309 -19.822288720043534 0.0 0.0
1489.6140759453342 438.0323976492319 961.7149330389177 -16.190689994340936 0.0 0.0
1489.6140759457535 438.0323976496769 961.7149330392466 16.190689994397484 0.0 0.0
1443.5993825201301 401.1532130635323 920.4555184015665 19.822288720053493 0.0 0.0
1380.0367942829225 353.5285818428696 865.0246565425042 22.93881321912309 0.0 0.0
1315.1276382069082 309.94776090635423 810.7706030899676 26.2530741956887 0.0 0.0
1247.2101870242839 267.314315650289 755.4305647499128 28.856098616030266 0.0 0.0
1178.401195614848 226.6798357587067 700.6146380418551 30.547802374139224 0.0 0.0
1110.282415236373 188.84538723526663 647.5153353193755 31.644373157730428 0.0 0.0
1043.3743246649458 153.68076211681762 596.3025014725513 32.573939238897715 0.0 0.0
977.259359692385 120.62878504176436 546.44907108903 33.48247992093505 0.0 0.0
910.7608185115599 89.80934461279462 497.34877582242484 34.08470766775775 0.0 0.0
843.7036496399601 60.89550621082482 448.51809340159434 33.90354945658759 0.0 0.0
776.2661646396776 35.19801424979296 399.82272159674625 32.64930938485115 0.0 0.0
708.7934647526369 14.33893022213664 349.5380895632459 30.668532884591286 0.0 0.0
640.3600663366616 -0.6051497915853474 292.5760393041379 29.057875860170565 0.0 0.0
568.8137679500721 -8.181893791700823 226.3220812411863 28.640779151889312 0.0 0.0
494.278681998489 -14.91464191429868 159.50198485772103 32.035917663334395 0.0 0.0
411.99995901888786 -6.4610879408183814 122.08041193195552 33.25149655752401 0.0 0.0
341.5545972467115 25.177453101553816 110.01912497815206 10.298375660491857 0.0 0.0
248.62701062254118 -26.50812255288187 66.63530042117685 -11.948394873879364 0.0 0.0
57.500696417687465 -537.924152368622 -240.37404381135877 150.654667506461 0.0 0.0
10.799380790775928 -540.9441244999473 -256.92118203176756 -164.69341339781607 0.0 0.0
143.96836528515007 -23.495984569877006 36.14171421458192 -40.65299134115019 0.0 0.0
278.00115268893353 29.48836071213539 92.24685402032065 -32.255990561188895 0.0 0.0
364.8333213732307 1.0189636062387484 109.86294521797996 -51.98817224552209 0.0 0.0
454.97641625010885 -13.2353157252567 139.96388033504678 -54.95579332622724 0.0 0.0
541.1307225537475 -11.872148816799982 200.3889152794693 -49.818994077628915 0.0 0.0
615.5120772998605 -1.223088582892558 271.9492228060374 -48.678823573991956 0.0 0.0
684.8240212288595 12.07518176954337 332.2012320947542 -50.516347801817496 0.0 0.0
751.815765173441 31.582002344505106 383.9407310733528 -52.81696951599561 0.0 0.0
816.6735549526569 54.70221980029037 431.0855229400476 -54.09515935256566 0.0 0.0
879.9223060400885 80.0642664221056 476.6251162324349 -53.94598973695497 0.0 0.0
941.7725772007116 107.09555800482481 521.662893160982 -52.779032235208575 0.0 0.0
1003.3896472106469 135.5173043350776 567.0255499252962 -51.37024292538378 0.0 0.0
1065.2165939476533 166.27557642793587 613.5411082786504 -49.86044283695349 0.0 0.0
1127.8418826853147 199.11048956928695 661.4265891700895 -48.079244693717584 0.0 0.0
1190.9656165005672 234.16946072049882 710.6387011306501 -45.51692680208948 0.0 0.0
1253.6668372874817 271.47193332215636 760.7122951195348 -41.812526506857175 0.0 0.0
1316.1051596323186 312.3341505303066 812.3385844794758 -37.17246176446244 0.0 0.0
1373.6933655581468 353.45545360057196 861.5865528868442 -31.235665110734708 0.0 0.0
1413.3659029535847 383.0134212324828 896.0726882422191 -21.823188963536033 0.0 0.0
1413.3659029533414 383.01342123226783 896.0726882420722 21.823188963687453 0.0 0.0
1373.6933655577614 353.4554536002164 861.5865528865672 31.23566511075369 0.0 0.0
1316.105159633363 312.33415053142585 812.3385844801476 37.17246176451218 0.0 0.0
1253.6668372875251 271.4719333222948 760.7122951194301 41.81252650695991 0.0 0.0
1190.965616500788 234.16946072083644 710.6387011307731 45.516926802147246 0.0 0.0
1127.8418826846937 199.11048956879833 661.4265891695675 48.07924469378396 0.0 0.0
1065.2165939474626 166.2755764278798 613.541108278414 49.86044283691061 0.0 0.0
1003.3896472103431 135.51730433494777 567.0255499250401 51.37024292543805 0.0 0.0
941.7725771999404 107.09555800423503 521.6628931603688 52.77903223521836 0.0 0.0
879.9223060395149 80.064266421727 476.62511623201664 53.94598973690783 0.0 0.0
816.6735549523198 54.70221980018252 431.08552293978846 54.09515935253005 0.0 0.0
751.8157651733766 31.58200234468417 383.9407310732753 52.8169695159976 0.0 0.0
684.8240212291248 12.075181770101963 332.2012320948503 50.516347801771346 0.0 0.0
615.512077299792 -1.2230885826544267 271.94922280588116 48.6788235739902 0.0 0.0
541.1307225538626 -11.872148816312986 200.38891527945717 49.81899407762434 0.0 0.0
454.9764162498071 -13.235315725210402 139.9638803349102 54.955793326164255 0.0 0.0
364.83332137314216 1.0189636064782945 109.86294521803356 51.98817224544692 0.0 0.0
278.0011526888337 29.48836071199502 92.2468540202486 32.25599056122092 0.0 0.0
143.9683652853006 -23.49598456961119 36.14171421470682 40.6529913409623 0.0 0.0
10.799380791046119 -540.9441244996148 -256.92118203142667 164.6934133976187 0.0 0.0
-6.230298330916526 -525.437581873391 -248.27802267499825 -167.1211664001069 0.0 0.0
85.04049910510302 -27.533303553713946 17.252158665416722 -85.22199252938204 0.0 0.0
217.5705375270963 28.25467211326191 73.74756289210744 -61.109051068161875 0.0 0.0
314.346006583371 6.859280651218416 96.35352135375797 -72.299624600398 0.0 0.0
406.11793793334783 -10.257217141316898 121.31353075830026 -79.39433723577751 0.0 0.0
501.3829415925652 -13.389349861832613 172.87376668743306 -73.16821800233697 0.0 0.0
583.4479673553623 -3.436134605969487 245.09695873042097 -69.19686753128242 0.0 0.0
656.1738872229832 10.443752040755921 311.1157920946 -70.50254013349792 0.0 0.0
722.6048343129638 27.815306500424462 364.61890298731925 -72.57999765741691 0.0 0.0
785.1549278817258 48.260581553091875 410.8394192297379 -73.64223022883624 0.0 0.0
844.8215519271973 70.18101075262533 453.51237292008676 -73.09618389669563 0.0 0.0
902.5901135784243 93.26748881339707 494.7865981616825 -71.44801234757105 0.0 0.0
959.225434490482 117.44866609086611 535.6483181357073 -69.5417111746018 0.0 0.0
1016.3079437621396 143.52638747563256 577.5198205087215 -67.60564097272015 0.0 0.0
1073.5514003251271 171.0927656975636 620.1260560015628 -65.24660749239744 0.0 0.0
1130.5876801607405 200.54038600913103 663.5166740313696 -61.939274516229304 0.0 0.0
1188.3426099278904 232.6404751222408 708.5276179554004 -57.46221786524717 0.0 0.0
1246.0864605417369 268.17379342808186 755.1573987473714 -51.51789375842261 0.0 0.0
1299.1448189052226 303.59662294788575 799.3147664766694 -42.5996643056205 0.0 0.0
1336.5017978512608 329.1493985351156 830.6526595754497 -27.81086363378719 0.0 0.0
1336.5017978509243 329.1493985348065 830.6526595752208 27.810863633943043 0.0 0.0
1299.144818904715 303.5966229474416 799.3147664763303 42.59966430580549 0.0 0.0
1246.0864605407505 268.1737934271376 755.1573987467507 51.51789375841025 0.0 0.0
1188.3426099273752 232.64047512182768 708.5276179550888 57.46221786541207 0.0 0.0
1130.5876801598913 200.54038600837242 663.5166740307528 61.93927451622075 0.0 0.0
1073.5514003244177 171.0927656969603 620.1260560011207 65.24660749240061 0.0 0.0
1016.3079437622348 143.52638747588446 577.5198205088552 67.60564097274283 0.0 0.0
959.2254344905654 117.4486660911179 535.6483181357803 69.54171117464388 0.0 0.0
902.5901135788483 93.26748881404116 494.78659816192845 71.44801234764995 0.0 0.0
844.8215519270968 70.18101075274102 453.51237291996233 73.09618389669599 0.0 0.0
785.1549278814119 48.26058155302269 410.8394192294984 73.64223022886347 0.0 0.0
722.6048343126783 27.81530650036008 364.61890298708903 72.57999765735781 0.0 0.0
656.1738872221903 10.443752040174239 311.1157920940376 70.50254013343535 0.0 0.0
583.4479673546175 -3.436134606423309 245.09695872985992 69.19686753130392 0.0 0.0
501.3829415922607 -13.389349861839147 172.87376668720268 73.16821800226244 0.0 0.0
406.1179379330206 -10.257217141248995 121.31353075821274 79.39433723572907 0.0 0.0
314.34600658322233 6.859280651184607 96.35352135370455 72.29962460028455 0.0 0.0
217.57053752717044 28.254672113427922 73.7475628921795 61.109051068080745 0.0 0.0
85.04049910516201 -27.53330355348736 17.252158665502392 85.22199252918561 0.0 0.0
-6.2302983307124435 -525.4375818730624 -248.27802267467567 167.12116639995705 0.0 0.0
-9.269473676776002 -499.21451549352093 -226.10820500714726 -165.27919669628906 0.0 0.0
50.663424205844265 -32.34219122915388 5.496369893007114 -119.8400126324008 0.0 0.0
165.0796460653023 24.04050660398712 56.73604580078683 -90.35536410495267 0.0 0.0
261.0297938366721 10.240237467941661 81.3799089865228 -94.03047332505626 0.0 0.0
349.11375010861315 -5.4453604528047626 103.74000637047948 -102.69617503617178 0.0 0.0
450.24775200529706 -13.604261777764151 145.037566531964 -99.48355143072004 0.0 0.0
543.5234358131976 -6.443763403320714 212.98352203135232 -92.03340392068871 0.0 0.0
621.1123600942709 8.389947728435061 284.22862081261286 -90.61306105833455 0.0 0.0
687.817899784092 24.125948859593944 340.9355315945212 -92.02565947142129 0.0 0.0
748.451577695402 41.594767041089554 387.0903398222944 -92.60255596559358 0.0 0.0
804.956988717803 60.10816041767555 427.53885975875926 -91.58701317991462 0.0 0.0
858.5112383762183 79.25866184212535 465.178564330954 -89.45104164947738 0.0 0.0
910.7105889013986 99.26662221358768 501.9482462887355 -87.19886217228837 0.0 0.0
962.3232227730778 120.66413787335523 538.8421579261142 -84.8369252020882 0.0 0.0
1014.1603895713213 143.12571401983269 576.2488796921721 -82.00345128314889 0.0 0.0
1066.1443852746415 166.88600582587094 614.3177554853701 -78.21380158945877 0.0 0.0
1117.721962289228 192.82833244740894 653.1992944412555 -73.09854140652196 0.0 0.0
1169.8738386245209 221.98706055147557 693.8730212821222 -66.031992150957 0.0 0.0
1219.2794779257795 251.92097217373575 733.4672122717819 -54.43001362338016 0.0 0.0
1256.6219042500252 274.8961989302224 763.4891540492089 -34.64524553353432 0.0 0.0
1256.6219042496962 274.8961989299294 763.4891540489982 34.64524553370138 0.0 0.0
1219.2794779249289 251.92097217293082 733.4672122711662 54.43001362346624 0.0 0.0
1169.8738386242387 221.98706055123924 693.8730212818946 66.03199215097182 0.0 0.0
1117.7219622892553 192.82833244758615 653.1992944412109 73.09854140679954 0.0 0.0
1066.1443852734967 166.88600582482303 614.3177554844785 78.21380158949347 0.0 0.0
1014.160389570216 143.12571401884682 576.2488796912936 82.00345128320548 0.0 0.0
962.323222772136 120.66413787256624 538.8421579253918 84.83692520216519 0.0 0.0
910.7105889006727 99.26662221306876 501.94824628816997 87.19886217246392 0.0 0.0
858.5112383752754 79.25866184136422 465.1785643302701 89.45104164949007 0.0 0.0
804.9569887170868 60.10816041714453 427.53885975822794 91.58701317989772 0.0 0.0
748.451577695092 41.5947670409862 387.0903398220342 92.60255596552604 0.0 0.0
687.8178997837373 24.125948859445153 340.9355315942193 92.02565947132005 0.0 0.0
621.1123600937115 8.389947728102435 284.22862081213447 90.61306105824872 0.0 0.0
543.5234358127399 -6.443763403371857 212.98352203098003 92.03340392077548 0.0 0.0
450.24775200493207 -13.604261777784153 145.03756653175563 99.48355143067673 0.0 0.0
349.1137501083957 -5.4453604526420705 103.74000637046828 102.69617503607603 0.0 0.0
261.0297938365777 10.24023746797912 81.37990898650688 94.0304733249443 0.0 0.0
165.07964606526923 24.04050660383873 56.736045800732384 90.35536410472423 0.0 0.0
50.66342420577621 -32.34219122915255 5.496369892987099 119.84001263218302 0.0 0.0
-9.269473676708657 -499.2145154932743 -226.10820500687512 165.2791966961553 0.0 0.0
-6.057405244463993 -465.89132474454425 -196.86436497800918 -162.08950952484847 0.0 0.0
28.857207836840338 -36.28157825688273 -2.227311126012718 -145.45706028551004 0.0 0.0
119.84793509196521 18.605241854235942 41.53595308386034 -116.47371882462105 0.0 0.0
206.9796098783713 12.160063834891153 65.73922530542563 -115.39132675257935 0.0 0.0
288.7362455799777 -1.2336735932839842 86.3086061371846 -124.37408561438303 0.0 0.0
383.34673406390374 -11.706505950797439 117.58597736867327 -126.50117634750647 0.0 0.0
486.8122769808921 -8.078029410190464 176.50467401297786 -118.0851685072162 0.0 0.0
574.5216605461601 4.720370504523901 248.3895065334761 -112.28043584208623 0.0 0.0
645.6956507374459 20.083376787967566 310.85109264595144 -111.4358625478718 0.0 0.0
705.3312833232478 34.87231586558378 358.5424943781743 -111.02127787103478 0.0 0.0
758.6964603143073 49.711064721867125 397.40488674368476 -109.44078662716913 0.0 0.0
808.5358880367758 65.12680020355631 432.17161036739066 -106.87881728357004 0.0 0.0
856.133087751705 81.13366971889377 465.03025453815496 -104.23701393380574 0.0 0.0
902.6696373789543 97.73161214856151 497.18811500701275 -101.66740563967863 0.0 0.0
949.2152703688687 115.08327393268219 529.4878866904907 -98.52045501650636 0.0 0.0
995.2686146563954 133.5929966707577 562.0196143082889 -94.17760166271246 0.0 0.0
1040.9296789476887 152.70567475682702 594.6010727272535 -88.64392322820314 0.0 0.0
1086.6166778909553 174.08948909281517 628.2111796346768 -80.85712526594592 0.0 0.0
1132.2048354405365 198.0785685190077 662.9216794548502 -67.13478204402908 0.0 0.0
1171.3321867668424 219.1544342485399 692.8313816251857 -42.84788910766279 0.0 0.0
1171.332186766139 219.15443424788612 692.831381624716 42.847889107889245 0.0 0.0
1132.2048354404674 198.07856851902883 662.9216794547714 67.13478204424003 0.0 0.0
1086.6166778914649 174.0894890934387 628.2111796349604 80.85712526611408 0.0 0.0
1040.9296789473067 152.70567475654474 594.6010727269154 88.64392322833332 0.0 0.0
995.2686146547335 133.59299666914768 562.0196143070971 94.17760166264975 0.0 0.0
949.2152703677642 115.08327393165436 529.4878866897377 98.52045501646694 0.0 0.0
902.6696373781729 97.7316121478948 497.1881150064701 101.66740563968202 0.0 0.0
856.1330877515053 81.1336697188632 465.0302545379416 104.23701393383601 0.0 0.0
808.5358880365062 65.12680020337945 432.17161036716027 106.87881728343847 0.0 0.0
758.6964603138327 49.71106472161355 397.4048867433589 109.4407866272073 0.0 0.0
705.3312833224153 34.87231586495194 358.542494377563 111.02127787101469 0.0 0.0
645.6956507367529 20.083376787510346 310.85109264543564 111.43586254785306 0.0 0.0
574.5216605458035 4.720370504459687 248.38950653314006 112.28043584204937 0.0 0.0
486.8122769805134 -8.07802941015968 176.50467401270842 118.08516850726261 0.0 0.0
383.34673406355495 -11.706505950744098 117.5859773685386 126.50117634738253 0.0 0.0
288.7362455797995 -1.233673593151111 86.30860613717445 124.37408561425312 0.0 0.0
206.97960987822063 12.160063834683548 65.73922530531902 115.39132675243528 0.0 0.0
119.84793509199832 18.605241854298924 41.53595308388917 116.4737188245143 0.0 0.0
28.85720783686169 -36.28157825664788 -2.2273111259358576 145.45706028532214 0.0 0.0
-6.057405244427528 -465.89132474427765 -196.86436497775128 162.08950952475573 0.0 0.0
-0.4098417121872657 -426.87130045321237 -164.27191396950423 -158.63927340092394 0.0 0.0
12.583772839899755 -40.04514365140945 -8.238411243452905 -163.29732347410248 0.0 0.0
79.81693290151475 13.22885558245131 27.913736545189813 -137.96612376212028 0.0 0.0
153.66503733708396 13.759179293154908 50.22537779144689 -134.87919945823126 0.0 0.0
224.7186820045645 1.6118011130288685 67.96247866175175 -143.9406389395018 0.0 0.0
307.4769935421697 -7.7019544899146 91.88555820941068 -151.5902450434199 0.0 0.0
411.8195143234518 -8.499204600680564 137.34925738802502 -146.77988852047554 0.0 0.0
510.69983787595334 1.3270029257650178 203.82200564943844 -136.92944069023562 0.0 0.0
590.1522143153358 14.726255610187197 269.82926045657405 -131.74899182418832 0.0 0.0
652.6765422076278 27.894602515477608 322.1276188685247 -129.18863376292765 0.0 0.0
703.6615235854463 39.03204546849596 360.91876122229013 -126.73156668113161 0.0 0.0
750.1251467696937 50.907711262224836 393.90198969141954 -123.74327923999411 0.0 0.0
793.3207613382859 62.85468286326125 423.39257427162363 -120.78662548030219 0.0 0.0
834.6486857562713 75.08468144421272 451.222042060855 -118.02729367263515 0.0 0.0
875.1546171842238 87.07695006199332 478.04323203564616 -114.77120861600466 0.0 0.0
916.5180567234661 100.39502439732881 505.727702366918 -110.11654723752862 0.0 0.0
955.9328540440727 113.1128219635795 532.0860361818457 -103.93119743137356 0.0 0.0
993.7145774217968 125.51579115056907 557.3672605947432 -95.85537874829089 0.0 0.0
1034.7854761535084 141.29823320863 585.7278633660335 -81.14917140625867 0.0 0.0
1077.5530415317844 160.58980981461457 616.4630751850403 -53.204117398627 0.0 0.0
1077.5530415325345 160.58980981542587 616.4630751856853 53.204117398816024 0.0 0.0
1034.785476154615 141.29823320991161 585.72786336699 81.14917140661501 0.0 0.0
993.7145774222649 125.51579115113589 557.3672605950776 95.85537874843526 0.0 0.0
955.9328540442297 113.11282196388535 532.0860361819123 103.93119743156757 0.0 0.0
916.5180567232318 100.39502439722636 505.7277023667351 110.11654723758556 0.0 0.0
875.1546171840716 87.07695006201814 478.0432320354836 114.77120861611104 0.0 0.0
834.6486857557065 75.08468144383681 451.2220420604831 118.02729367277632 0.0 0.0
793.3207613380355 62.85468286314497 423.3925742714554 120.78662548029699 0.0 0.0
750.1251467691661 50.907711261756475 393.9019896910451 123.74327923986013 0.0 0.0
703.6615235853843 39.03204546867545 360.9187612222203 126.73156668117227 0.0 0.0
652.6765422075849 27.894602515635228 322.1276188684245 129.18863376280171 0.0 0.0
590.1522143152133 14.726255610360674 269.8292604564325 131.74899182419676 0.0 0.0
510.69983787564865 1.3270029259450453 203.8220056492097 136.9294406903561 0.0 0.0
411.81951432303737 -8.499204600639583 137.34925738781544 146.7798885205011 0.0 0.0
307.4769935417358 -7.701954490204916 91.88555820918407 151.59024504320604 0.0 0.0
224.71868200432732 1.6118011129131666 67.9624786616536 143.94063893918894 0.0 0.0
153.66503733710934 13.759179293241157 50.22537779148099 134.879199457989 0.0 0.0
79.81693290154304 13.228855582524435 27.91373654522024 137.96612376192812 0.0 0.0
12.583772839839973 -40.04514365134966 -8.238411243452907 163.29732347394662 0.0 0.0
-0.40984171209707654 -426.87130045277365 -164.27191396920804 158.63927340092093 0.0 0.0
3.542906157680278 -383.70493400484116 -133.2512554115237 -155.52786497079197 0.0 0.0
-3.023379152930362 -44.00731911192392 -14.10918078521627 -173.7347293902426 0.0 0.0
43.366275475858274 8.940007564904377 15.691884912228796 -154.8126318290377 0.0 0.0
101.75407374219829 15.090694975071058 35.051773852433655 -151.2668709510282 0.0 0.0
158.81513021812668 4.134830249469081 48.913825973968464 -160.76317963811897 0.0 0.0
222.9808439369158 -3.5354252661639736 66.702563861117 -171.74947345976386 0.0 0.0
312.6578460810025 -6.053338898358934 97.94904802225426 -175.18290958112502 0.0 0.0
420.1334037424942 -0.9904234917623889 151.08751989722373 -165.780189620422 0.0 0.0
511.99927384008794 8.69133581887474 214.07616443793916 -155.02536078170422 0.0 0.0
581.1373734181624 19.871159019805432 270.5572432917667 -147.94105224223608 0.0 0.0
633.9966119147219 27.97967396934617 312.64077129486384 -143.95341099867275 0.0 0.0
677.2531518638017 36.257501105627966 345.37283905406383 -140.15497044388098 0.0 0.0
716.3618653684832 44.71028397993961 373.09420218916665 -136.85362271683366 0.0 0.0
752.6097293408781 52.56625692415598 397.39367911627915 -133.98318764397533 0.0 0.0
787.5330211450263 59.62335166217768 419.6723454288757 -130.83192158483718 0.0 0.0
822.7183622528541 66.87572351685064 441.52012971951615 -126.09763540294104 0.0 0.0
858.4236261974839 74.56770028031707 463.6053008628642 -119.20491521411648 0.0 0.0
888.5990510945022 78.01010102305787 480.8609945565382 -110.65730222026599 0.0 0.0
920.2072321825514 81.07362785318021 498.258516246974 -96.41406176981636 0.0 0.0
967.3177553710715 96.98040246035411 529.2613439020423 -66.79396331229464 0.0 0.0
967.317755370131 96.98040245943622 529.2613439013193 66.79396331240476 0.0 0.0
920.2072321820981 81.07362785284096 498.25851624662255 96.41406177013886 0.0 0.0
888.5990510938966 78.01010102257902 480.8609945561142 110.65730222048907 0.0 0.0
858.4236261962806 74.567700279214 463.6053008619739 119.20491521426706 0.0 0.0
822.7183622521284 66.8757235161633 441.52012971901036 126.0976354029174 0.0 0.0
787.5330211454852 59.62335166277998 419.6723454291818 130.83192158486435 0.0 0.0
752.6097293413368 52.56625692488892 397.3936791166093 133.98318764414037 0.0 0.0
716.3618653683448 44.71028397995157 373.0942021890628 136.85362271687666 0.0 0.0
677.2531518635839 36.25750110558761 345.37283905387244 140.15497044389681 0.0 0.0
633.9966119143949 27.979673969243144 312.6407712946056 143.95341099871166 0.0 0.0
581.1373734179446 19.871159019752533 270.5572432915242 147.94105224211265 0.0 0.0
511.99927383956066 8.691335818478372 214.07616443751013 155.0253607815827 0.0 0.0
420.13340374170684 -0.9904234923544593 151.08751989670193 165.78018962036404 0.0 0.0
312.65784608062717 -6.053338898230459 97.94904802214032 175.1829095810552 0.0 0.0
222.9808439368724 -3.535425265747202 66.70256386122239 171.74947345959038 0.0 0.0
158.8151302181469 4.134830249823087 48.91382597408695 160.76317963797064 0.0 0.0
101.75407374233936 15.090694975500478 35.05177385260562 151.26687095087055 0.0 0.0
43.366275475994385 8.940007565157913 15.691884912345687 154.81263182887116 0.0 0.0
-3.023379152953195 -44.00731911180491 -14.109180785187547 173.73472939010898 0.0 0.0
3.5429061576978853 -383.7049340045207 -133.251255411317 155.52786497066325 0.0 0.0
0.46421178506811955 -337.2534387351783 -108.67252127923047 -150.45043357076352 0.0 0.0
-20.507472237650227 -48.917692562238145 -20.826309150448445 -179.79563455543945 0.0 0.0
9.606296310999122 6.4201936821275725 4.80765115608103 -167.0563397925905 0.0 0.0
51.3529584351804 15.946224728472615 20.188641225595475 -164.0042581521984 0.0 0.0
91.77993501396861 7.600850426323884 29.83828311352968 -173.0481487919845 0.0 0.0
134.49102775714388 -0.45335431352880273 40.619188147990684 -187.40323320532823 0.0 0.0
192.88503791026795 -2.548976818014601 59.19037785499308 -196.84393607767296 0.0 0.0
282.37236232378217 0.03371167861360025 92.49552970288129 -195.45467238838685 0.0 0.0
385.97770613178545 4.361401681658444 140.6648363289475 -184.01338171269302 0.0 0.0
468.9841665912171 10.40358747982204 192.72387791018082 -170.28322392581453 0.0 0.0
528.2322570825421 16.942418429266908 237.9634730352151 -161.933420254412 0.0 0.0
571.5516327743202 21.05857699401821 272.27105653027337 -156.7847337137072 0.0 0.0
607.8844553788605 26.263709918830813 300.8185903102673 -152.7833408289128 0.0 0.0
639.6075364986749 30.437257367722935 324.2585233933825 -149.57979128650723 0.0 0.0
668.4090550242793 32.632206052764744 343.4715380427782 -146.4236801218455 0.0 0.0
697.001070889917 33.56531953706843 360.3908238949746 -142.1589009531737 0.0 0.0
728.9928917137594 35.09171757780791 378.04293373684953 -134.98559451927684 0.0 0.0
760.3340119029981 35.03042045233937 394.4508312482616 -124.90223213943314 0.0 0.0
778.2182682894099 19.14941316552897 396.41338857540063 -111.93096228086303 0.0 0.0
825.794762701201 23.071116345171717 421.20127006943244 -85.2237914041708 0.0 0.0
825.7947627014889 23.071116345458393 421.2012700696715 85.22379140423786 0.0 0.0
778.21826829018 19.149413166540683 396.4133885759893 111.9309622812841 0.0 0.0
760.3340119035239 35.0304204530988 394.45083124857064 124.90223213974882 0.0 0.0
728.9928917137779 35.09171757811663 378.0429337368785 134.98559451948626 0.0 0.0
697.0010708889752 33.56531953610269 360.3908238943271 142.15890095304468 0.0 0.0
668.4090550244606 32.6322060530034 343.4715380428786 146.42368012185523 0.0 0.0
639.6075364987108 30.437257368037223 324.2585233934723 149.57979128666346 0.0 0.0
607.8844553787228 26.26370991869979 300.818590310114 152.7833408288957 0.0 0.0
571.551632774369 21.058576994218008 272.2710565302065 156.78473371368162 0.0 0.0
528.2322570821219 16.94241842893905 237.96347303486664 161.93342025431522 0.0 0.0
468.9841665908252 10.403587479530337 192.72387790983737 170.28322392569572 0.0 0.0
385.9777061317041 4.361401682031953 140.6648363289257 184.01338171274392 0.0 0.0
282.37236232330406 0.03371167847940271 92.49552970266086 195.45467238837261 0.0 0.0
192.88503790960016 -2.548976818911906 59.19037785451815 196.84393607758125 0.0 0.0
134.49102775684275 -0.45335431386588443 40.61918814779623 187.40323320508196 0.0 0.0
91.77993501407998 7.600850426679228 29.838283113673576 173.0481487917979 0.0 0.0
51.352958435222654 15.946224728638214 20.188641225658234 164.0042581520387 0.0 0.0
9.606296311071704 6.420193682268406 4.807651156145173 167.05633979241034 0.0 0.0
-20.507472237731108 -48.91769256220489 -20.826309150463263 179.79563455518874 0.0 0.0
0.46421178507314664 -337.25343873477146 -108.67252127905854 150.45043357062232 0.0 0.0
-8.180874619767819 -288.91386519697835 -90.48140038042763 -141.70504247760124 0.0 0.0
-38.02933622941993 -53.79249769557295 -27.543801937442467 -183.24811292776138 0.0 0.0
-22.23473974607697 5.11946253209125 -5.134430539288893 -175.07359398612223 0.0 0.0
2.5116090738085317 16.599391965859432 5.733070606031384 -172.51455712124078 0.0 0.0
24.683632253636905 11.163091831712535 10.757987495984777 -180.61452316617064 0.0 0.0
43.245600990453966 3.5381366009774977 14.170493298377734 -195.58840119968144 0.0 0.0
64.44612813354767 -0.014896742141602637 19.980083178560715 -209.26263888386674 0.0 0.0
96.13138084834605 0.06706822472619756 30.602221817225683 -215.4523242827052 0.0 0.0
146.12295345180488 2.9675428693612034 48.75770336533778 -209.00199319856904 0.0 0.0
209.69884996452092 4.553502174583656 72.31211016949258 -197.24826286354536 0.0 0.0
269.8675430308707 6.874795119361 99.80156965112312 -183.48950636581006 0.0 0.0
318.38910762450973 8.260237505737315 126.77326125437105 -175.256734121087 0.0 0.0
361.8372980332524 9.418513579023625 153.84463795437915 -170.00554391502033 0.0 0.0
396.2533513803813 8.97125974584361 177.32606488013826 -165.18264000167525 0.0 0.0
422.82751470750514 6.484058494444966 196.37111825778177 -160.957576357172 0.0 0.0
450.8247177637206 0.792461165223969 213.3209592391876 -157.15445922649099 0.0 0.0
486.63965477613806 -5.734623408137651 231.38846994698363 -151.11153554275558 0.0 0.0
532.9422275476421 -9.614877010328456 254.6886049718845 -140.6597999318413 0.0 0.0
571.071788194507 -27.35254274984996 268.694527144644 -124.31039600197228 0.0 0.0
596.0132727006543 -77.45553292860583 256.27149629226375 -106.95369080876905 0.0 0.0
596.0132727006422 -77.45553292859302 256.2714962922803 106.95369080896043 0.0 0.0
571.0717881941782 -27.352542749983485 268.69452714449005 124.3103960024869 0.0 0.0
532.942227547191 -9.614877010802331 254.68860497159415 140.65979993213108 0.0 0.0
486.639654776103 -5.734623408112128 231.3884699469649 151.11153554282305 0.0 0.0
450.8247177637353 0.792461165099013 213.32095923910413 157.1544592264991 0.0 0.0
422.82751470759706 6.484058494784577 196.37111825788438 160.95757635724726 0.0 0.0
396.2533513798096 8.971259745012816 177.326064879709 165.182640001692 0.0 0.0
361.8372980333175 9.418513578906207 153.84463795432723 170.00554391515013 0.0 0.0
318.3891076245264 8.260237505842191 126.7732612543812 175.25673412111888 0.0 0.0
269.8675430307641 6.874795119278211 99.80156965101408 183.48950636580264 0.0 0.0
209.698849964298 4.553502174440258 72.31211016937318 197.248262863409 0.0 0.0
146.12295345147405 2.9675428687825036 48.75770336504687 209.00199319858706 0.0 0.0
96.13138084811811 0.06706822430964898 30.60222181702364 215.45232428265575 0.0 0.0
64.44612813378566 -0.014896741519400791 19.980083178817694 209.2626388837308 0.0 0.0
43.24560099036716 3.5381366008620416 14.170493298316321 195.58840119949326 0.0 0.0
24.683632253594812 11.163091831550883 10.757987495924842 180.614523166018 0.0 0.0
2.5116090737507415 16.59939196568767 5.733070605962559 172.51455712104448 0.0 0.0
-22.234739746052707 5.119462532173825 -5.13443053925695 175.07359398594213 0.0 0.0
-38.0293362293661 -53.79249769543921 -27.54380193738717 183.24811292768834 0.0 0.0
-8.180874619815068 -288.91386519665014 -90.48140038033999 141.7050424774925 0.0 0.0
-18.96303204464838 -241.93870061332098 -78.26011251410627 -130.44015747427034 0.0 0.0
-52.80550978130555 -55.40229193826919 -32.46018326809016 -183.05084992861146 0.0 0.0
-52.507504186387564 3.912601906534654 -14.57872823162314 -179.19099866286587 0.0 0.0
-44.759752433405254 17.134682605611353 -8.289088678641242 -176.53551745908652 0.0 0.0
-41.79872325250068 14.403723610470292 -8.222605563544446 -182.86003263441566 0.0 0.0
-48.47384869529596 7.796918309601454 -12.344807892334785 -196.5560046739083 0.0 0.0
-65.83454884668745 2.7636940712206375 -19.58293873600001 -209.40078015330113 0.0 0.0
-96.2444187032153 0.3473413599282811 -30.51422514875118 -215.57214431940758 0.0 0.0
-145.84074830358637 -2.9256282976965693 -48.65382247078513 -209.01873075048545 0.0 0.0
-209.48878815928802 -4.63994137143553 -72.28035569214127 -197.21305521605433 0.0 0.0
-270.0862944920197 -6.2001660201182 -99.43139818876855 -183.4423636367793 0.0 0.0
-319.53561097243414 -7.151105480931143 -126.83528169081153 -174.92377006280714 0.0 0.0
-365.01218948604145 -8.129184327617267 -154.72031277035052 -169.43293027841017 0.0 0.0
-402.0866101410851 -10.901656252490724 -180.63874465937332 -164.9076365795947 0.0 0.0
-427.74263415835355 -17.683186067149293 -203.55086670963962 -162.37024097153505 0.0 0.0
-442.67215902725366 -28.265572410396558 -223.11462427670264 -162.6109150056347 0.0 0.0
-436.715158751515 -41.25358691569026 -234.6194595873859 -164.23082759385275 0.0 0.0
-381.03697159992436 -40.66028558954892 -224.5885079959166 -165.34447226795083 0.0 0.0
-203.07714212980233 -34.403415046670574 -153.3371920183389 -167.23930747460756 0.0 0.0
19.00529785626179 -171.05843300474538 -63.70237334882091 -136.8154548885427 0.0 0.0
19.005297856016455 -171.05843300492344 -63.70237334899497 136.81545488889702 0.0 0.0
-203.0771421302823 -34.40341504741775 -153.3371920186516 167.23930747503601 0.0 0.0
-381.03697159911866 -40.660285588500415 -224.5885079952523 165.34447226825137 0.0 0.0
-436.71515874977297 -41.25358691360236 -234.61945958612264 164.23082759384522 0.0 0.0
-442.6721590257363 -28.265572408227044 -223.1146242754914 162.6109150054952 0.0 0.0
-427.7426341578773 -17.683186066464003 -203.55086670921222 162.3702409714587 0.0 0.0
-402.0866101401265 -10.901656251586246 -180.63874465873164 164.9076365796432 0.0 0.0
-365.0121894854342 -8.129184327542376 -154.7203127699986 169.4329302784377 0.0 0.0
-319.5356109716249 -7.151105480503681 -126.83528169034119 174.92377006278122 0.0 0.0
-270.0862944911564 -6.200166019644804 -99.43139818828051 183.4423636367501 0.0 0.0
-209.48878815877424 -4.639941371728579 -72.2803556920635 197.2130552159798 0.0 0.0
-145.8407483032435 -2.9256282980387613 -48.65382247077191 209.0187307505617 0.0 0.0
-96.24441870271804 0.34734136028942686 -30.51422514848549 215.57214431939735 0.0 0.0
-65.83454884643808 2.763694071478742 -19.582938735841342 209.40078015316618 0.0 0.0
-48.473848695201305 7.796918309548263 -12.344807892320748 196.55600467369766 0.0 0.0
-41.79872325264486 14.403723609910898 -8.222605563756797 182.860032634228 0.0 0.0
-44.7597524333943 17.134682605484304 -8.289088678677796 176.53551745888734 0.0 0.0
-52.50750418634591 3.9126019065533626 -14.578728231607183 179.19099866266538 0.0 0.0
-52.80550978132884 -55.40229193841438 -32.46018326814372 183.05084992848015 0.0 0.0
-18.96303204465662 -241.9387006130853 -78.26011251404137 130.44015747411737 0.0 0.0
-24.43418155775118 -197.169017507137 -66.48095971946644 -117.58159155331182 0.0 0.0
-64.9804144406574 -54.06906755684589 -35.71448988382429 -178.95627888878997 0.0 0.0
-80.94306428977441 2.8323873417586 -23.435346613422645 -179.20570993895728 0.0 0.0
-90.51401225023554 17.326496491427175 -21.952259798082192 -176.11411160897063 0.0 0.0
-106.87871675998676 17.010529024314852 -27.023240965799125 -179.5823727329875 0.0 0.0
-138.67514756259996 11.213420550634872 -38.78764703305924 -189.7312908537963 0.0 0.0
-194.00598284794486 5.212900157124202 -58.761081867598755 -197.8009791005885 0.0 0.0
-282.30661149828217 0.309505051839853 -92.3984884497728 -195.68489680012675 0.0 0.0
-385.7168054674993 -4.386620000636164 -140.57176091578089 -184.06519040461555 0.0 0.0
-468.8206466627154 -10.316317441202994 -192.60205629469897 -170.2304791805494 0.0 0.0
-527.9439497791935 -16.414052579221377 -237.64307352247388 -161.76482675746485 0.0 0.0
-571.3597919390223 -19.960590492371303 -271.78543502621767 -156.30086475494966 0.0 0.0
-608.4834714170796 -25.102339612147908 -300.6142748543313 -151.7914457991882 0.0 0.0
-642.7482964126234 -32.089540865062006 -326.4173676695478 -148.8003864821 0.0 0.0
-675.4902038558007 -42.322599327108435 -351.2581421816791 -148.07558799835482 0.0 0.0
-705.7814751128285 -56.527104740157014 -375.58333959281305 -150.29908181417312 0.0 0.0
-729.9242877358076 -73.4304634376291 -397.8168548913114 -156.13290309902604 0.0 0.0
-742.4795105398174 -89.45808897931366 -414.0082455016185 -165.38659288071037 0.0 0.0
-779.4196355291149 -144.3668638172149 -460.1803825110116 -174.57169158231625 0.0 0.0
-761.495923170413 -216.58046917784196 -486.84871392686233 -189.00847836832472 0.0 0.0
-761.4959231705882 -216.58046917814949 -486.8487139270139 189.00847836865404 0.0 0.0
-779.4196355289926 -144.3668638174269 -460.18038251102814 174.57169158265378 0.0 0.0
-742.4795105398683 -89.45808897960052 -414.0082455016702 165.38659288111978 0.0 0.0
-729.9242877356594 -73.4304634377462 -397.81685489127227 156.13290309911372 0.0 0.0
-705.7814751125427 -56.52710473985745 -375.583339592539 150.29908181418875 0.0 0.0
-675.4902038557838 -42.32259932722236 -351.2581421816101 148.07558799833726 0.0 0.0
-642.7482964130935 -32.08954086587241 -326.4173676698829 148.8003864822123 0.0 0.0
-608.4834714170591 -25.10233961243742 -300.61427485433893 151.79144579933552 0.0 0.0
-571.3597919380034 -19.96059049140966 -271.7854350254781 156.3008647548599 0.0 0.0
-527.9439497786611 -16.41405257900842 -237.64307352207442 161.76482675742727 0.0 0.0
-468.82064666168026 -10.31631744022896 -192.60205629391186 170.23047918036218 0.0 0.0
-385.7168054668453 -4.386620000588346 -140.57176091543494 184.06519040474817 0.0 0.0
-282.30661149770503 0.3095050516907243 -92.39848844959019 195.68489680019957 0.0 0.0
-194.00598284753823 5.212900157299776 -58.7610818674107 197.80097910050205 0.0 0.0
-138.6751475622211 11.213420551032973 -38.787647032823145 189.73129085355757 0.0 0.0
-106.87871675968195 17.010529024630465 -27.023240965614647 179.5823727326718 0.0 0.0
-90.51401225007633 17.32649649150926 -21.952259798011234 176.1141116087394 0.0 0.0
-80.9430642897401 2.8323873416514136 -23.43534661344693 179.20570993874475 0.0 0.0
-64.98041444058747 -54.0690675567552 -35.71448988377675 178.95627888866352 0.0 0.0
-24.43418155767892 -197.169017506947 -66.48095971938778 117.58159155323924 0.0 0.0
-26.106881597811928 -155.56108140311989 -54.500388900279546 -104.04975037692648 0.0 0.0
-75.08862868478793 -50.25278795586657 -37.601240383418734 -170.79397960987308 0.0 0.0
-107.5913269003298 1.9254545802067646 -31.696811555418446 -175.01921030541928 0.0 0.0
-134.53195054740183 17.13722363393951 -35.207646489833714 -171.0917959703663 0.0 0.0
-170.33393733739914 18.38378890972412 -45.75338001355367 -171.19524202499576 0.0 0.0
-225.79141752119727 13.328715800190144 -64.81645312473152 -175.54314550843426 0.0 0.0
-312.7923155104928 8.46221035363933 -97.44492608548154 -176.29067117912098 0.0 0.0
-419.6821238276688 1.1950266674688272 -150.9050779385568 -166.16776353942237 0.0 0.0
-511.8627422622173 -8.707432005563646 -213.99950781741683 -155.01165201485892 0.0 0.0
-581.0700032185391 -19.81499021781518 -270.5049133593536 -147.88532091183885 0.0 0.0
-633.7874966395345 -27.60103247965204 -312.40874817808117 -143.81643914937 0.0 0.0
-676.9682566973108 -35.359410247103895 -344.8588370320846 -139.63553445272927 0.0 0.0
-716.5378942175573 -43.628965256266426 -372.6400322040332 -135.63439054449327 0.0 0.0
-754.7829754573153 -53.51739784636628 -398.7782185086795 -132.6464226407866 0.0 0.0
-793.537998505055 -66.96030693401187 -425.9732901199188 -131.8311835766884 0.0 0.0
-832.0075737531524 -85.09446304384903 -454.9032178582737 -134.4377500016025 0.0 0.0
-867.5268236075074 -106.57831349895551 -484.00346805307873 -140.98721192052582 0.0 0.0
-907.8785605233902 -140.57345419210705 -521.7624754885469 -148.44826450050408 0.0 0.0
-951.7274324458585 -190.92389537628205 -569.5101999169717 -155.68438657565596 0.0 0.0
-1027.213639030761 -311.1923115481659 -664.9714311427717 -166.8958474596105 0.0 0.0
-1027.2136390304836 -311.1923115481003 -664.9714311427015 166.89584745992795 0.0 0.0
-951.7274324452363 -190.92389537570654 -569.5101999165656 155.68438657580606 0.0 0.0
-907.8785605233635 -140.57345419229753 -521.7624754885672 148.448264500733 0.0 0.0
-867.5268236071522 -106.57831349862539 -484.0034680527955 140.98721192045394 0.0 0.0
-832.0075737529745 -85.09446304379615 -454.9032178581625 134.43775000162205 0.0 0.0
-793.5379985047193 -66.96030693383467 -425.97329011972374 131.8311835767614 0.0 0.0
-754.7829754559822 -53.51739784501412 -398.7782185077848 132.64642264066293 0.0 0.0
-716.5378942178256 -43.62896525686644 -372.64003220423007 135.63439054464502 0.0 0.0
-676.9682566971608 -35.3594102471537 -344.85883703196356 139.63553445270182 0.0 0.0
-633.7874966393892 -27.60103247981646 -312.4087481779221 143.81643914940346 0.0 0.0
-581.0700032185524 -19.81499021815467 -270.50491335927154 147.8853209117619 0.0 0.0
-511.86274226172264 -8.707432005434544 -213.99950781704152 155.01165201484437 0.0 0.0
-419.6821238269479 1.1950266677808616 -150.90507793808396 166.1677635394259 0.0 0.0
-312.792315510019 8.462210353524233 -97.44492608532678 176.29067117904 0.0 0.0
-225.7914175211291 13.328715799650428 -64.81645312487058 175.5431455082612 0.0 0.0
-170.33393733719728 18.38378890965236 -45.753380013517216 171.19524202485812 0.0 0.0
-134.53195054723562 17.13722363390753 -35.207646489794456 171.0917959702645 0.0 0.0
-107.59132690026026 1.9254545801592013 -31.696811555412673 175.01921030528126 0.0 0.0
-75.0886286847691 -50.25278795589582 -37.6012403834222 170.79397960976164 0.0 0.0
-26.106881597770027 -155.56108140295098 -54.500388900216294 104.04975037670657 0.0 0.0
-26.837517000152786 -117.81093961936864 -43.394536985856426 -90.23408948667335 0.0 0.0
-83.86156659663416 -44.39878445315304 -38.47810531493615 -158.63390502988642 0.0 0.0
-132.51303201984763 1.2750611158292005 -39.368599338768796 -166.51687940678875 0.0 0.0
-176.79556263800387 16.15719905768697 -48.19435038134274 -161.6033799449138 0.0 0.0
-231.13295137228383 18.391458873287927 -64.0729150742156 -157.49717746584236 0.0 0.0
-307.51335287145224 15.796079274895568 -90.12454792470476 -156.08038457126975 0.0 0.0
-410.7046533217386 10.616827135846345 -136.542694615617 -148.35397239420587 0.0 0.0
-510.3289923874264 -1.1890765949636979 -203.59169749663425 -137.1452505637396 0.0 0.0
-590.1681926584026 -14.807696781499317 -269.84606954340506 -131.6824700845276 0.0 0.0
-652.6438493969018 -27.868535359187007 -322.1168302250179 -129.14580292457623 0.0 0.0
-703.530127337526 -38.7775550987547 -360.75946794906133 -126.62393337914773 0.0 0.0
-749.9587900495546 -50.31836762051037 -393.5572080477823 -123.23207274736953 0.0 0.0
-793.3086193899271 -61.92971769377746 -422.91883414066393 -119.46752832648846 0.0 0.0
-835.603013480584 -75.04488855070122 -451.59105717942595 -116.3323389339327 0.0 0.0
-878.5487980759385 -91.16541616109497 -481.5908109210836 -115.2700243651307 0.0 0.0
-923.9237710359214 -113.47596464356339 -515.6729248269528 -117.80681988902529 0.0 0.0
-973.0334248823498 -144.9114736240224 -556.1499017441841 -123.66464276375046 0.0 0.0
-1027.3615064074477 -188.64060278025775 -605.5529165861066 -130.14847779503378 0.0 0.0
-1093.9903810428261 -256.464852872443 -672.8174926506831 -134.4252933947056 0.0 0.0
-1180.6511048496025 -377.6918706786351 -775.6045000294073 -142.76090829076216 0.0 0.0
-1180.6511048498078 -377.6918706789676 -775.6045000296035 142.76090829098888 0.0 0.0
-1093.990381042884 -256.46485287271133 -672.8174926507336 134.4252933949943 0.0 0.0
-1027.361506407044 -188.64060278004408 -605.55291658579 130.14847779534313 0.0 0.0
-973.0334248819023 -144.91147362375858 -556.149901743799 123.66464276387418 0.0 0.0
-923.923771035137 -113.47596464287254 -515.672924826301 117.8068198889959 0.0 0.0
-878.5487980755504 -91.1654161608295 -481.5908109207512 115.27002436518026 0.0 0.0
-835.6030134805941 -75.04488855091526 -451.59105717941 116.33233893400055 0.0 0.0
-793.308619389569 -61.929717693619864 -422.91883414041786 119.46752832657987 0.0 0.0
-749.9587900487545 -50.31836761994425 -393.5572080472417 123.23207274741719 0.0 0.0
-703.5301273370166 -38.77755509842211 -360.7594679486906 126.623933379064 0.0 0.0
-652.6438493966207 -27.86853535921185 -322.11683022479536 129.14580292457237 0.0 0.0
-590.1681926576979 -14.80769678110159 -269.84606954286306 131.68247008450726 0.0 0.0
-510.32899238682586 -1.1890765946447721 -203.59169749612443 137.14525056363738 0.0 0.0
-410.70465332116413 10.6168271360108 -136.5426946152664 148.35397239413604 0.0 0.0
-307.5133528710101 15.796079275043802 -90.12454792451805 156.0803845710832 0.0 0.0
-231.13295137197855 18.39145887326196 -64.07291507413402 157.49717746569914 0.0 0.0
-176.7955626378935 16.157199057419632 -48.19435038139392 161.603379944735 0.0 0.0
-132.51303201976236 1.2750611156911424 -39.368599338785394 166.51687940662373 0.0 0.0
-83.86156659661974 -44.39878445314076 -38.47810531492814 158.63390502974124 0.0 0.0
-26.83751700009621 -117.81093961922241 -43.39453698579558 90.23408948654311 0.0 0.0
-27.48370371721178 -84.41869802615032 -33.57072052300863 -76.12307718685365 0.0 0.0
-91.94490194317271 -37.14051249694725 -38.725624332035984 -142.89767136226146 0.0 0.0
-155.91789626580902 0.9578107489788144 -46.48679339903441 -153.73823987882668 0.0 0.0
-217.50199195517476 14.369748555028533 -60.918113419609796 -147.66336301933816 0.0 0.0
-289.1487042093622 18.060669722694385 -81.62117717545703 -139.97362435193867 0.0 0.0
-381.79508107906156 17.790018407101137 -115.96832204053209 -131.5712798674739 0.0 0.0
-485.32148679715897 9.743598840123365 -175.50278032009055 -119.19783601145512 0.0 0.0
-574.4059841660048 -4.728600336420428 -248.26382801199296 -112.28842362553328 0.0 0.0
-645.8121727688847 -20.214519730134867 -310.9588363002762 -111.35670050663462 0.0 0.0
-705.3375700081386 -34.85066904862731 -358.5507723849423 -111.00132974724747 0.0 0.0
-758.6639273737849 -49.583339051065906 -397.33720035865866 -109.33917718259387 0.0 0.0
-808.56608230197 -64.88802111597062 -432.0746605243605 -106.40075018688323 0.0 0.0
-856.0257517725735 -80.47421993912033 -464.65299278957264 -102.98919211184929 0.0 0.0
-902.119402903953 -96.55512826466799 -496.32105183305157 -99.94465220832171 0.0 0.0
-949.2860401438807 -115.41711995092328 -529.6047289049072 -98.5361046760568 0.0 0.0
-1001.3511456482759 -142.75929968192517 -569.3519056458817 -100.23049118230078 0.0 0.0
-1062.3848418726532 -183.2309533590929 -620.151064638026 -105.2724618707715 0.0 0.0
-1132.8014374316126 -240.51267276919606 -684.1297349223869 -110.70036436197675 0.0 0.0
-1213.092834312605 -320.7994079155724 -764.4264071189377 -114.31268783752718 0.0 0.0
-1294.5243736578175 -434.6221628601972 -861.5929655443662 -124.89850561180342 0.0 0.0
-1294.524373658579 -434.62216286102523 -861.5929655449527 124.89850561189036 0.0 0.0
-1213.092834312664 -320.7994079157402 -764.4264071190074 114.31268783773598 0.0 0.0
-1132.8014374313643 -240.5126727691091 -684.1297349222713 110.70036436222603 0.0 0.0
-1062.3848418734583 -183.23095336000415 -620.1510646386463 105.27246187079476 0.0 0.0
-1001.3511456484123 -142.759299682169 -569.3519056460599 100.23049118230561 0.0 0.0
-949.2860401440362 -115.41711995116245 -529.6047289050371 98.53610467597021 0.0 0.0
-902.1194029036693 -96.5551282645142 -496.3210518328906 99.94465220828488 0.0 0.0
-856.0257517716254 -80.47421993830935 -464.6529927889079 102.9891921118514 0.0 0.0
-808.566082301463 -64.88802111568445 -432.07466052403936 106.40075018692409 0.0 0.0
-758.6639273735209 -49.58333905098798 -397.3372003584931 109.3391771824824 0.0 0.0
-705.3375700079639 -34.850669048670355 -358.5507723847788 111.0013297471403 0.0 0.0
-645.81217276855 -20.214519730115597 -310.9588363000164 111.35670050665394 0.0 0.0
-574.4059841654448 -4.728600336159182 -248.26382801153096 112.28842362548698 0.0 0.0
-485.32148679641466 9.743598840556778 -175.50278031953007 119.1978360113495 0.0 0.0
-381.79508107858453 17.790018407169878 -115.968322040318 131.5712798674062 0.0 0.0
-289.1487042088956 18.06066972286939 -81.62117717527636 139.97362435183342 0.0 0.0
-217.5019919548791 14.369748555145488 -60.918113419488144 147.66336301920242 0.0 0.0
-155.91789626543016 0.9578107493823609 -46.486793398800266 153.7382398786795 0.0 0.0
-91.9449019430881 -37.14051249674629 -38.72562433195031 142.897671362112 0.0 0.0
-27.48370371715407 -84.41869802605125 -33.57072052296159 76.12307718675117 0.0 0.0
-28.19472169105368 -55.83245966286897 -25.208154406176796 -61.59958744526743 0.0 0.0
-99.49699413406906 -29.042798176479447 -38.56193769316455 -123.99328748984348 0.0 0.0
-178.05952116967302 0.8704873892160707 -53.15452302831659 -136.78670418480354 0.0 0.0
-256.1256709116202 11.629366709805431 -73.33892723831855 -129.37126467179982 0.0 0.0
-342.5404555051147 18.20228403056272 -98.44022358520921 -118.58594028945262 0.0 0.0
-445.7550171657451 17.83393758423025 -143.09787089536945 -104.49609043675241 0.0 0.0
-542.3447596847524 7.618417387388295 -212.05211841559316 -92.64557010564043 0.0 0.0
-621.246810814575 -8.549178088965867 -284.2954673888575 -90.43813373043639 0.0 0.0
-687.9585193448164 -24.256455810278332 -341.0721622922083 -91.97368361968653 0.0 0.0
-748.4705306183021 -41.580319889422604 -387.1003109649487 -92.59390831949005 0.0 0.0
-805.0176806702384 -60.09283250788239 -427.55973805461406 -91.47651701114287 0.0 0.0
-858.7008710179148 -79.3104003238114 -465.2937629128591 -89.0233576574332 0.0 0.0
-910.5309953625601 -98.88540822465046 -501.68485562855955 -86.19298849659314 0.0 0.0
-960.5431844930678 -118.67023307580402 -537.0023903509873 -83.39494687347877 0.0 0.0
-1011.3966970460101 -140.37558039387437 -573.4734270946419 -81.50157753679069 0.0 0.0
-1069.8254222823016 -171.80528331811115 -618.3606165209346 -82.02828405229461 0.0 0.0
-1141.2728017914342 -221.3545432964669 -678.7509902875178 -85.74131769834932 0.0 0.0
-1226.0812815399477 -291.96142972764994 -756.461441110765 -90.88754230628484 0.0 0.0
-1314.9820219483668 -380.7684804724058 -845.3765202091278 -96.33812280907887 0.0 0.0
-1393.2653802957336 -490.051831626065 -939.1061699427498 -111.29123560268414 0.0 0.0
-1393.2653802963277 -490.0518316267117 -939.1061699431307 111.29123560276392 0.0 0.0
-1314.9820219481626 -380.76848047233796 -845.3765202090522 96.3381228093765 0.0 0.0
-1226.0812815397026 -291.9614297275094 -756.4614411105674 90.8875423064298 0.0 0.0
-1141.2728017909787 -221.35454329611693 -678.7509902869813 85.74131769841198 0.0 0.0
-1069.8254222819096 -171.8052833178803 -618.3606165205663 82.02828405242381 0.0 0.0
-1011.3966970456288 -140.37558039355815 -573.4734270942907 81.50157753665741 0.0 0.0
-960.5431844927755 -118.67023307570557 -537.0023903507681 83.394946873603 0.0 0.0
-910.530995362339 -98.88540822461837 -501.68485562841704 86.19298849665546 0.0 0.0
-858.7008710177264 -79.31040032391759 -465.2937629127417 89.02335765761374 0.0 0.0
-805.017680669806 -60.09283250764848 -427.55973805430057 91.47651701106412 0.0 0.0
-748.4705306177345 -41.58031988901367 -387.10031096452377 92.59390831929082 0.0 0.0
-687.9585193439036 -24.256455809607466 -341.0721622915463 91.97368361965817 0.0 0.0
-621.2468108143242 -8.549178089081943 -284.2954673885821 90.43813373048204 0.0 0.0
-542.344759684558 7.618417387061369 -212.05211841539483 92.64557010579102 0.0 0.0
-445.75501716550883 17.833937583919592 -143.09787089526705 104.49609043677908 0.0 0.0
-342.5404555047382 18.202284030391272 -98.44022358515413 118.58594028939515 0.0 0.0
-256.1256709113416 11.629366709793974 -73.33892723824567 129.37126467188577 0.0 0.0
-178.05952116950735 0.8704873892218403 -53.154523028266 136.7867041847432 0.0 0.0
-99.49699413396151 -29.042798176445555 -38.56193769312211 123.99328748968549 0.0 0.0
-28.19472169096167 -55.832459662757486 -25.208154406115742 61.599587445233276 0.0 0.0
-28.7215602704889 -32.47036906377765 -18.357578800279963 -46.596262296405996 0.0 0.0
-106.21991228159568 -20.619886638866515 -38.05193967613866 -102.26927460453027 0.0 0.0
-199.04263371551883 0.8634623264009935 -59.45375141673535 -115.64380526735569 0.0 0.0
-293.2979984422643 8.324706087708819 -85.51119376971451 -107.37456236202786 0.0 0.0
-394.537724673249 18.398166304703985 -115.64293183673031 -93.91670498921248 0.0 0.0
-497.5221344959782 16.79244420755678 -170.46552346379622 -77.2066094245898 0.0 0.0
-583.0799661320096 3.7841977228538397 -244.69656850231104 -69.14957726800175 0.0 0.0
-656.4100156011551 -10.62430537417297 -311.3038377667975 -70.29383254612078 0.0 0.0
-722.7301998040443 -27.909548855223292 -364.7319766292445 -72.55551976032882 0.0 0.0
-785.2012366480346 -48.27120604184677 -410.86854027164867 -73.63740265726659 0.0 0.0
-844.9472005544567 -70.25492017572762 -453.6033979630402 -72.97227584101904 0.0 0.0
-902.8139779712587 -93.46453382809896 -494.9895718268416 -71.09050451251849 0.0 0.0
-958.9297674111614 -117.21745409761965 -535.4056419825199 -68.85998736496981 0.0 0.0
-1014.1457596166301 -141.4933254045539 -575.4772462951385 -66.62957499380505 0.0 0.0
-1069.301469715696 -166.87158981253341 -615.9198995773563 -64.41827698453233 0.0 0.0
-1130.5348501148378 -200.68707530186117 -663.3782319048549 -63.278229972605686 0.0 0.0
-1210.3064307253244 -256.8834038151843 -731.1193240071741 -65.42175087802647 0.0 0.0
-1307.6963912115107 -339.00317031052833 -820.7916193022552 -71.05038698005568 0.0 0.0
-1406.9919068059928 -438.0691768974385 -920.0771410282018 -79.8988036357212 0.0 0.0
-1486.8323683614253 -547.9124333792904 -1015.1192217956828 -100.01022520437205 0.0 0.0
-1486.8323683608774 -547.9124333787781 -1015.1192217953444 100.0102252044355 0.0 0.0
-1406.9919068048775 -438.06917689638266 -920.0771410275089 79.89880363587712 0.0 0.0
-1307.696391211089 -339.0031703101737 -820.791619301955 71.05038698011268 0.0 0.0
-1210.3064307247732 -256.8834038147066 -731.1193240067893 65.42175087803375 0.0 0.0
-1130.5348501147275 -200.68707530187623 -663.3782319046521 63.2782299726632 0.0 0.0
-1069.3014697149401 -166.87158981189452 -615.9198995767355 64.41827698454354 0.0 0.0
-1014.1457596153347 -141.493325403399 -575.4772462941306 66.62957499380487 0.0 0.0
-958.9297674106704 -117.21745409729058 -535.4056419820665 68.85998736495503 0.0 0.0
-902.8139779707129 -93.46453382778155 -494.9895718264137 71.09050451260433 0.0 0.0
-844.947200554384 -70.25492017590193 -453.60339796295375 72.97227584104708 0.0 0.0
-785.2012366478666 -48.27120604192404 -410.86854027153737 73.6374026572469 0.0 0.0
-722.7301998034575 -27.909548854934656 -364.73197662886537 72.55551976038802 0.0 0.0
-656.4100156005355 -10.624305373793547 -311.3038377663145 70.29383254600017 0.0 0.0
-583.0799661315352 3.784197723023375 -244.69656850187522 69.1495772679341 0.0 0.0
-497.52213449534713 16.792444207878624 -170.4655234633646 77.20660942452508 0.0 0.0
-394.537724672444 18.398166305295618 -115.64293183630869 93.91670498906873 0.0 0.0
-293.2979984419395 8.324706087833901 -85.51119376958843 107.37456236194639 0.0 0.0
-199.04263371545346 0.8634623262582082 -59.453751416758564 115.64380526728308 0.0 0.0
-106.21991228142382 -20.619886638792856 -38.051939676065 102.26927460447476 0.0 0.0
-28.721560270472615 -32.4703690637966 -18.357578800280763 46.596262296288565 0.0 0.0
-28.423719834600753 -14.734084789391536 -12.947341387197685 -31.24387044701065 0.0 0.0
-111.21771239482578 -12.28918312365378 -37.05206865554386 -77.91245212589918 0.0 0.0
-219.11868555072192 0.5225127188808525 -65.57885184955231 -90.23302910763022 0.0 0.0
-329.9387360277762 5.99729375310657 -97.19839442875993 -81.96513935589182 0.0 0.0
-441.8352869978544 18.41097584811207 -133.67927503694338 -66.63596735484343 0.0 0.0
-538.5286487877398 13.38318093636816 -198.4372936912493 -52.09028086532911 0.0 0.0
-615.7709682382894 0.9968740078496694 -272.1399169779023 -48.38790346391776 0.0 0.0
-685.0640877932718 -12.205709022615409 -332.40471086458683 -50.33484571352275 0.0 0.0
-751.9075276157895 -31.628268779698907 -384.0111213258564 -52.81059624204443 0.0 0.0
-816.756257642972 -54.7518832578438 -431.1475172049471 -54.08897955378065 0.0 0.0
-880.0721042228748 -80.19668745422548 -476.75689100587306 -53.82258052530081 0.0 0.0
-941.8903695336842 -107.27534794688361 -521.8079893371514 -52.514358358577134 0.0 0.0
-1002.9525226104759 -135.29177812651994 -566.7117377861686 -50.985691424201576 0.0 0.0
-1063.3802382204476 -164.7736450041845 -611.908895580901 -49.34821787892294 0.0 0.0
-1124.1515133050627 -195.66824565570204 -657.8954248974246 -47.29168907677226 0.0 0.0
-1188.2566126327686 -231.527533123507 -707.8847201226577 -44.84023500381872 0.0 0.0
-1266.4724279270458 -285.32719777344437 -773.5931988055436 -44.684588284692744 0.0 0.0
-1376.2578542250644 -378.67818697381244 -874.8847938915237 -50.6080774333513 0.0 0.0
-1492.0607241318596 -493.1515556981965 -990.1886147966152 -63.815819423562104 0.0 0.0
-1583.646200834286 -612.7712891868807 -1096.1771703863747 -89.79711056865422 0.0 0.0
-1583.6462008340109 -612.7712891866146 -1096.1771703861675 89.79711056869913 0.0 0.0
-1492.060724132058 -493.1515556984772 -990.1886147967183 63.81581942370823 0.0 0.0
-1376.257854225426 -378.6781869742571 -874.8847938916983 50.60807743347489 0.0 0.0
-1266.472427926234 -285.3271977727166 -773.5931988048941 44.684588284721514 0.0 0.0
-1188.2566126323834 -231.5275331232121 -707.8847201223625 44.84023500379661 0.0 0.0
-1124.1515133043858 -195.66824565517817 -657.8954248970167 47.29168907688032 0.0 0.0
-1063.380238219896 -164.7736450037559 -611.9088955806418 49.348217878839016 0.0 0.0
-1002.9525226095489 -135.29177812574463 -566.7117377855452 50.98569142416085 0.0 0.0
-941.8903695329086 -107.27534794631146 -521.8079893365624 52.51435835855098 0.0 0.0
-880.072104222361 -80.19668745393963 -476.75689100545094 53.82258052530287 0.0 0.0
-816.7562576425825 -54.75188325766905 -431.1475172046337 54.08897955366635 0.0 0.0
-751.907527615791 -31.62826878001111 -384.01112132579647 52.81059624215078 0.0 0.0
-685.0640877931901 -12.20570902285084 -332.4047108644621 50.334845713509196 0.0 0.0
-615.7709682379855 0.9968740078455447 -272.13991697757797 48.38790346388559 0.0 0.0
-538.5286487872025 13.383180936593316 -198.43729369082283 52.09028086529122 0.0 0.0
-441.83528699758074 18.410975847904695 -133.67927503685704 66.63596735480948 0.0 0.0
-329.93873602752103 5.997293753058043 -97.19839442870645 81.96513935578596 0.0 0.0
-219.11868555058498 0.5225127188053285 -65.57885184953389 90.2330291075619 0.0 0.0
-111.21771239478096 -12.289183123848069 -37.052068655588705 77.91245212580951 0.0 0.0
-28.423719834657398 -14.734084789448984 -12.947341387231912 31.243870446950872 0.0 0.0
-26.039963599669207 -2.9507202489560544 -8.697205154587579 -16.056632615538348 0.0 0.0
-112.82787308237364 -4.60497751935705 -35.22985518051921 -50.89342763864729 0.0 0.0
-238.50562656359796 -0.23923126257974126 -71.6234573478533 -60.03385030682274 0.0 0.0
-368.0240784130057 4.974461864298168 -108.92819688576336 -53.28502640385377 0.0 0.0
-481.90920885832554 18.506390508160536 -152.55029891749132 -39.30631901333534 0.0 0.0
-567.9092198164722 8.095951676474144 -225.3346943605389 -29.400827156289537 0.0 0.0
-641.009891397729 0.06304925332027977 -293.1988697978706 -28.790395350206968 0.0 0.0
-708.9074348919216 -14.400768324199042 -349.6630402155066 -30.544547627672856 0.0 0.0
-776.3314899248237 -35.20388776497559 -399.85834980877803 -32.64789061783338 0.0 0.0
-843.8238681229077 -60.990558920760606 -448.6186559419606 -33.89389145746397 0.0 0.0
-910.8871862866697 -89.95736122056792 -497.4800750187077 -33.98908878492387 0.0 0.0
-977.1946205248539 -120.6864849044976 -546.4463884006894 -33.324992638669464 0.0 0.0
-1042.8216120678053 -153.39507559941364 -595.8936509806061 -32.406495368410496 0.0 0.0
-1109.070469515791 -188.03900434774351 -646.5190392171553 -31.42741508984257 0.0 0.0
-1176.7042959367213 -225.48743661436782 -699.1762792404854 -29.993370439086796 0.0 0.0
-1245.5316523937586 -266.2676191925016 -754.0426552362931 -27.403817731231314 0.0 0.0
-1318.3016603249048 -314.5103148226327 -814.4012234291737 -24.798307031996114 0.0 0.0
-1413.2770376216172 -391.6571993075773 -899.9517354029069 -28.5928206992765 0.0 0.0
-1574.5541561082541 -548.798927211124 -1059.1309418694195 -45.951510582658244 0.0 0.0
-1693.833456401745 -692.898645242165 -1191.5349178562508 -79.67800342094544 0.0 0.0
-1693.83345640173 -692.8986452422034 -1191.534917856357 79.67800342106321 0.0 0.0
-1574.5541561085033 -548.7989272114146 -1059.130941869632 45.951510582662266 0.0 0.0
-1413.2770376215117 -391.65719930755074 -899.9517354027962 28.592820699394547 0.0 0.0
-1318.3016603242472 -314.51031482205866 -814.4012234286166 24.79830703201977 0.0 0.0
-1245.531652392951 -266.26761919178756 -754.0426552355716 27.403817731163073 0.0 0.0
-1176.7042959361254 -225.48743661390307 -699.1762792399186 29.9933704391898 0.0 0.0
-1109.0704695144507 -188.03900434654207 -646.5190392160823 31.427415089786756 0.0 0.0
-1042.821612067279 -153.39507559906224 -595.8936509801625 32.40649536843559 0.0 0.0
-977.1946205250206 -120.68648490489565 -546.4463884007504 33.32499263874691 0.0 0.0
-910.8871862868351 -89.95736122098086 -497.4800750187917 33.989088784969624 0.0 0.0
-843.8238681229375 -60.990558921037874 -448.6186559419196 33.893891457444816 0.0 0.0
-776.3314899245465 -35.20388776498262 -399.85834980855185 32.647890617918804 0.0 0.0
-708.9074348916198 -14.400768324198502 -349.66304021522166 30.544547627730445 0.0 0.0
-641.009891397334 0.06304925340879919 -293.1988697975006 28.790395350152195 0.0 0.0
-567.9092198164669 8.095951676123256 -225.33469436040207 29.400827156254792 0.0 0.0
-481.9092088580421 18.50639050806106 -152.55029891733852 39.30631901335139 0.0 0.0
-368.02407841262846 4.974461864332277 -108.92819688565257 53.285026403737604 0.0 0.0
-238.5056265634234 -0.23923126274894635 -71.6234573478517 60.033850306769374 0.0 0.0
-112.8278730822226 -4.604977519310612 -35.22985518045996 50.89342763858751 0.0 0.0
-26.039963599654527 -2.9507202489413764 -8.69720515457877 16.056632615525537 0.0 0.0
-19.14816665600398 2.669554340336471 -4.943583694700252 -2.264715695835614 0.0 0.0
-108.19274897206759 1.7065843522181545 -31.94584938595483 -20.71762210687158 0.0 0.0
-257.9801061527165 -1.693160675807297 -77.90198004855712 -23.93455480681483 0.0 0.0
-407.71809484615835 6.597358893262793 -121.05114223943065 -21.6437741434279 0.0 0.0
-516.752725890216 16.15443547662639 -173.71375268658278 -13.559823837197591 0.0 0.0
-594.3253225035738 5.150640670797429 -248.90235409722493 -9.54126906075599 0.0 0.0
-661.4619261092357 -1.372668246179714 -310.38036657365535 -9.65548242830313 0.0 0.0
-728.5269473996298 -16.643697599064936 -363.55903805201876 -10.730168556960237 0.0 0.0
-796.9536868954342 -38.8894565624601 -413.26880925998137 -12.082477439386098 0.0 0.0
-867.0979159013701 -67.0517858952095 -463.8719839116168 -13.046318024355422 0.0 0.0
-937.9609615044448 -99.14490488670472 -515.934318357708 -13.469220929820086 0.0 0.0
-1008.6280819680347 -134.35583184165552 -569.2138783069372 -13.40661981352401 0.0 0.0
-1079.35264854425 -171.273145674752 -623.2571423517752 -13.187991396259013 0.0 0.0
-1151.321715090959 -210.9241242757186 -679.2029032798052 -12.844027878236155 0.0 0.0
-1225.6814139248572 -254.86534821805031 -738.4333808455117 -12.139940628897676 0.0 0.0
-1301.6389701154303 -303.0276687056526 -800.5407602622561 -10.652885341453862 0.0 0.0
-1375.378309324998 -352.8575088412085 -862.3160383675202 -7.938164352160122 0.0 0.0
-1446.9271245172338 -406.2690947466004 -924.5429206359611 -6.842814923168668 0.0 0.0
-1550.6571289018746 -501.7537770062588 -1023.4832372528723 -21.53073765914329 0.0 0.0
-1890.3827193483098 -858.3538728882331 -1372.5287300561702 -64.67230941433586 0.0 0.0
-1890.3827193482912 -858.35387288824 -1372.528730056098 64.67230941436301 0.0 0.0
-1550.6571289018082 -501.75377700622937 -1023.4832372527502 21.530737659066563 0.0 0.0
-1446.9271245171328 -406.26909474656895 -924.5429206358231 6.8428149232478 0.0 0.0
-1375.3783093259706 -352.8575088422799 -862.316038368192 7.93816435214591 0.0 0.0
-1301.6389701160344 -303.02766870637305 -800.5407602627121 10.652885341481852 0.0 0.0
-1225.681413924731 -254.86534821805492 -738.4333808454403 12.139940628906048 0.0 0.0
-1151.3217150901817 -210.92412427509126 -679.2029032792743 12.8440278782193 0.0 0.0
-1079.352648543469 -171.27314567415067 -623.2571423512295 13.187991396311617 0.0 0.0
-1008.6280819668116 -134.3558318406297 -569.2138783060789 13.406619813477706 0.0 0.0
-937.9609615038066 -99.14490488629195 -515.9343183572331 13.469220929867836 0.0 0.0
-867.0979159006649 -67.05178589474637 -463.8719839110928 13.046318024317785 0.0 0.0
-796.9536868949841 -38.88945656225964 -413.26880925964696 12.082477439343773 0.0 0.0
-728.5269473995072 -16.643697599219983 -363.5590380519025 10.730168556901662 0.0 0.0
-661.4619261087721 -1.3726682459954311 -310.3803665733022 9.655482428287552 0.0 0.0
-594.3253225030232 5.1506406710505 -248.90235409675867 9.541269060653995 0.0 0.0
-516.7527258901046 16.15443547639078 -173.71375268647972 13.5598238372154 0.0 0.0
-407.71809484579114 6.597358893117727 -121.05114223936909 21.643774143400638 0.0 0.0
-257.9801061523723 -1.693160675549981 -77.90198004837667 23.9345548068127 0.0 0.0
-108.19274897193665 1.7065843523230733 -31.945849385884067 20.717622106818208 0.0 0.0
-19.148166655985467 2.6695543403009427 -4.943583694705356 2.2647156958035883 0.0 0.0
SCALARS Strain float 6
LOOKUP_TABLE default
0.010200949449111364 -0.01127305196770606 0.0 -0.006165793661200236 0.0 0.0
0.002136644537599878 -0.0011912243028905367 0.0 0.0010410220095540823 0.0 0.0
0.0017522427980985467 -0.000718601357211357 0.0 -5.688136656409326e-05 0.0 0.0
0.00213746495218089 -0.000983544129838143 0.0 -0.00018738482510388677 0.0 0.0
0.003082369603016777 -0.0017019818170028733 0.0 -0.0002256451786609992 0.0 0.0
0.005009380747497166 -0.0033393668025076817 0.0 -0.0003230157974296044 0.0 0.0
0.008033997276048066 -0.006090716455668055 0.0 -0.0004930512659377384 0.0 0.0
0.012310863766424715 -0.010094129064995405 0.0 -0.0007442115681463302 0.0 0.0
0.017915967110946864 -0.015417879878157459 0.0 -0.0010846855826617263 0.0 0.0
0.02485910565954875 -0.022063792931166448 0.0 -0.0014870891979419931 0.0 0.0
0.033150891836683904 -0.03004544984975821 0.0 -0.0019019748182843577 0.0 0.0
0.042837468733277144 -0.03941209461983597 0.0 -0.0023249759372628853 0.0 0.0
0.0539757972507703 -0.050225213801112556 0.0 -0.0027640919215972393 0.0 0.0
0.06659160204429555 -0.06250690237196643 0.0 -0.0032205866669127725 0.0 0.0
0.08055504155723037 -0.07612188042359502 0.0 -0.0036937162555110425 0.0 0.0
0.09542260313956709 -0.09062805306441346 0.0 -0.0041008227362095695 0.0 0.0
0.11036135432700223 -0.10520340863538813 0.0 -0.004256554112201549 0.0 0.0
0.12418450014326649 -0.11867832904928743 0.0 -0.003922697626871086 0.0 0.0
0.13546447740539247 -0.1296427418479258 0.0 -0.003146684480839823 0.0 0.0
0.14239604435474648 -0.13619082715279696 0.0 -0.002939017608037775 0.0 0.0
0.14239604435473896 -0.13619082715278852 0.0 0.0029390176080423824 0.0 0.0
0.1354644774053676 -0.12964274184790092 0.0 0.003146684480856421 0.0 0.0
0.12418450014322366 -0.11867832904924835 0.0 0.003922697626878469 0.0 0.0
0.11036135432694735 -0.10520340863533262 0.0 0.004256554112205935 0.0 0.0
0.09542260313950857 -0.0906280530643575 0.0 0.004100822736201715 0.0 0.0
0.08055504155716964 -0.0761218804235404 0.0 0.0036937162555117364 0.0 0.0
0.0665916020442342 -0.06250690237190915 0.0 0.003220586666912495 0.0 0.0
0.05397579725070914 -0.050225213801053936 0.0 0.0027640919215978776 0.0 0.0
0.042837468733219 -0.0394120946197829 0.0 0.0023249759372593326 0.0 0.0
0.0331508918366315 -0.03004544984970714 0.0 0.0019019748182825258 0.0 0.0
0.024859105659504444 -0.022063792931125814 0.0 0.0014870891979372747 0.0 0.0
0.017915967110912118 -0.015417879878125262 0.0 0.0010846855826603385 0.0 0.0
0.01231086376639895 -0.010094129064971868 0.0 0.0007442115681462469 0.0 0.0
0.008033997276029686 -0.0060907164556511795 0.0 0.0004930512659362951 0.0 0.0
0.005009380747486608 -0.003339366802498467 0.0 0.00032301579742932685 0.0 0.0
0.0030823696030121694 -0.0017019818169972112 0.0 0.00022564517865938938 0.0 0.0
0.002137464952179785 -0.0009835441298354786 0.0 0.00018738482510308185 0.0 0.0
0.0017522427980979083 -0.0007186013572111905 0.0 5.688136656373244e-05 0.0 0.0
0.002136644537598653 -0.0011912243028893155 0.0 -0.0010410220095525557 0.0 0.0
0.010200949449101215 -0.011273051967692838 0.0 0.006165793661169566 0.0 0.0
0.007131087572366905 -0.00857268257189342 0.0 -0.007341445990748208 0.0 0.0
0.0011829345011402752 -0.0006054261241598691 0.0 0.00015532186295799666 0.0 0.0
0.0015049679095992044 -0.0005514655589460293 0.0 -0.00013387524432195708 0.0 0.0
0.0018961917033165944 -0.0008409531372961521 0.0 -0.00043702585903812596 0.0 0.0
0.0026484695635088998 -0.001370737513624154 0.0 -0.0005233912010187136 0.0 0.0
0.004296098171503199 -0.002722190260701307 0.0 -0.000764749041618773 0.0 0.0
0.007001440786358729 -0.0051367788746568 0.0 -0.0012046329463567262 0.0 0.0
0.010871381851165214 -0.008726040882085728 0.0 -0.0018168938720817263 0.0 0.0
0.015948918503609147 -0.013526344702635695 0.0 -0.0026009313859014227 0.0 0.0
0.022210540426663653 -0.01950430592815655 0.0 -0.003496347576297132 0.0 0.0
0.029639482828340176 -0.02664364495044569 0.0 -0.004413065738556404 0.0 0.0
0.03827814630363858 -0.0349894718719963 0.0 -0.005307676432489805 0.0 0.0
0.048221357746949335 -0.04463464257043759 0.0 -0.006252894560620087 0.0 0.0
0.05952269373817191 -0.055629407462581604 0.0 -0.007283631866842416 0.0 0.0
0.07207726571182269 -0.06786587437298586 0.0 -0.008344258719719583 0.0 0.0
0.08550641800548592 -0.08096650787063453 0.0 -0.009263126596777055 0.0 0.0
0.09908233201641903 -0.09421064001201129 0.0 -0.009653916334996349 0.0 0.0
0.11173532514319072 -0.10653814507784976 0.0 -0.009091237695392385 0.0 0.0
0.1220457770847392 -0.11651536085677083 0.0 -0.007560691545602016 0.0 0.0
0.1282213937871398 -0.12244267097387285 0.0 -0.004942283205500442 0.0 0.0
0.12822139378713154 -0.12244267097386219 0.0 0.00494228320551765 0.0 0.0
0.1220457770847164 -0.11651536085674596 0.0 0.007560691545629883 0.0 0.0
0.11173532514315307 -0.10653814507781645 0.0 0.009091237695409315 0.0 0.0
0.0990823320163721 -0.09421064001196555 0.0 0.009653916335005785 0.0 0.0
0.08550641800543377 -0.08096650787058479 0.0 0.009263126596771087 0.0 0.0
0.07207726571176828 -0.06786587437293745 0.0 0.008344258719719333 0.0 0.0
0.05952269373811703 -0.055629407462534974 0.0 0.007283631866840445 0.0 0.0
0.04822135774689448 -0.04463464257038585 0.0 0.0062528945606191155 0.0 0.0
0.03827814630358717 -0.03498947187194079 0.0 0.005307676432483532 0.0 0.0
0.029639482828292846 -0.02664364495039928 0.0 0.004413065738549993 0.0 0.0
0.022210540426623793 -0.019504305928119026 0.0 0.003496347576287917 0.0 0.0
0.015948918503577714 -0.013526344702605275 0.0 0.0026009313858972316 0.0 0.0
0.010871381851141781 -0.008726040882065744 0.0 0.0018168938720783956 0.0 0.0
0.007001440786342572 -0.005136778874644143 0.0 0.0012046329463525907 0.0 0.0
0.004296098171494317 -0.002722190260695201 0.0 0.0007647490416159974 0.0 0.0
0.0026484695635052014 -0.0013707375136213784 0.0 0.0005233912010189634 0.0 0.0
0.0018961917033157583 -0.000840953137295708 0.0 0.00043702585903826474 0.0 0.0
0.0015049679095988644 -0.0005514655589460293 0.0 0.00013387524432195708 0.0 0.0
0.001182934501140459 -0.0006054261241587866 0.0 -0.0001553218629604114 0.0 0.0
0.007131087572355088 -0.008572682571879674 0.0 0.0073414459907232 0.0 0.0
0.005222263558477783 -0.00679639540995966 0.0 -0.006778213438451669 0.0 0.0
0.000700873231958693 -0.000387645042098983 0.0 -0.0005284888874349525 0.0 0.0
0.0012074029413459836 -0.0004079302065032042 0.0 -0.0004193278772954556 0.0 0.0
0.0016602521832825637 -0.0007088217228876648 0.0 -0.0006775534650445003 0.0 0.0
0.0022646408493071993 -0.001101230887587401 0.0 -0.0008026984162435025 0.0 0.0
0.003606026628888051 -0.002146731650855216 0.0 -0.001102278695686354 0.0 0.0
0.005972148186244253 -0.004199671763198243 0.0 -0.0017329943145861781 0.0 0.0
0.009415505215099866 -0.007357304344913551 0.0 -0.0026466236526352105 0.0 0.0
0.01394889656161636 -0.011614219564433759 0.0 -0.0037850502950481646 0.0 0.0
0.01952052752926344 -0.01691560493387745 0.0 -0.005065144300883145 0.0 0.0
0.026091557835498207 -0.023218334458108947 0.0 -0.006376839026880715 0.0 0.0
0.033696160409750216 -0.030555098353017174 0.0 -0.007659602936420262 0.0 0.0
0.04243679688464401 -0.039024931881701974 0.0 -0.00898137111581332 0.0 0.0
0.05240112338996658 -0.048711056832658084 0.0 -0.010443498859082856 0.0 0.0
0.0635266080241797 -0.05954985010133029 0.0 -0.011986645048013722 0.0 0.0
0.07550654643609245 -0.071234998879389 0.0 -0.013318654394103124 0.0 0.0
0.08773059531465874 -0.08315889318320036 0.0 -0.013950090756694955 0.0 0.0
0.09923807206454312 -0.09435651627525887 0.0 -0.013334312339741805 0.0 0.0
0.10867086129415798 -0.10349339055006679 0.0 -0.011022606446740857 0.0 0.0
0.11448052478043197 -0.10909562075557533 0.0 -0.0064448464293446195 0.0 0.0
0.11448052478042364 -0.10909562075556822 0.0 0.006444846429372875 0.0 0.0
0.10867086129413724 -0.10349339055004814 0.0 0.011022606446778105 0.0 0.0
0.09923807206450974 -0.09435651627521979 0.0 0.013334312339768117 0.0 0.0
0.08773059531461841 -0.08315889318315994 0.0 0.013950090756708722 0.0 0.0
0.07550654643604673 -0.07123499887934193 0.0 0.013318654394096519 0.0 0.0
0.0635266080241311 -0.059549850101284996 0.0 0.011986645048011613 0.0 0.0
0.05240112338991809 -0.048711056832610566 0.0 0.010443498859079359 0.0 0.0
0.04243679688459556 -0.0390249318816549 0.0 0.008981371115809489 0.0 0.0
0.03369616040970519 -0.030555098352976096 0.0 0.007659602936409993 0.0 0.0
0.026091557835456386 -0.023218334458069867 0.0 0.006376839026871195 0.0 0.0
0.019520527529227838 -0.016915604933843253 0.0 0.005065144300871016 0.0 0.0
0.01394889656158868 -0.011614219564406003 0.0 0.0037850502950407816 0.0 0.0
0.009415505215078612 -0.0073573043448904585 0.0 0.0026466236526279663 0.0 0.0
0.005972148186230292 -0.004199671763184254 0.0 0.0017329943145819038 0.0 0.0
0.003606026628881015 -0.0021467316508470002 0.0 0.0011022786956835506 0.0 0.0
0.0022646408493043058 -0.0011012308875852916 0.0 0.0008026984162419482 0.0 0.0
0.0016602521832818629 -0.0007088217228865545 0.0 0.0006775534650436399 0.0 0.0
0.0012074029413458032 -0.0004079302065036483 0.0 0.00041932787729587195 0.0 0.0
0.0007008732319588595 -0.00038764504209806705 0.0 0.00052848888743251 0.0 0.0
0.005222263558467083 -0.006796395409947073 0.0 0.00677821343843138 0.0 0.0
0.0039030898024778535 -0.005462981608236467 0.0 -0.005748172556529679 0.0 0.0
0.000440624212857961 -0.00029110550442434935 0.0 -0.0011078859028819665 0.0 0.0
0.0009348493351274273 -0.0002957037900624959 0.0 -0.0007944176638861045 0.0 0.0
0.0014167326320693174 -0.0005816150148926225 0.0 -0.000939707299672965 0.0 0.0
0.0019246573398440103 -0.0008903088367433476 0.0 -0.0010806762758313326 0.0 0.0
0.002972614611275126 -0.0016508798944387948 0.0 -0.0013652830699851515 0.0 0.0
0.004952696761683355 -0.0033024791787237273 0.0 -0.0020861569978873895 0.0 0.0
0.007957798639334476 -0.0060023317766177975 0.0 -0.0032274580662670083 0.0 0.0
0.011931580156506492 -0.009701502068905077 0.0 -0.004629139301069285 0.0 0.0
0.016806532640407927 -0.01431802278307881 0.0 -0.006194502231716081 0.0 0.0
0.022522754698746858 -0.019785724827547035 0.0 -0.007789631872632402 0.0 0.0
0.02910125184641344 -0.026119963445306427 0.0 -0.009355748186273105 0.0 0.0
0.03664486579897874 -0.03342022096154462 0.0 -0.010978711005093567 0.0 0.0
0.045260558319504755 -0.04178585001601176 0.0 -0.012730222118441242 0.0 0.0
0.05493292678796505 -0.051203386343916524 0.0 -0.014573344511756237 0.0 0.0
0.06544247125584228 -0.06145318177543979 0.0 -0.016233982746810316 0.0 0.0
0.07629797858151 -0.07203895717549891 0.0 -0.017131487749668717 0.0 0.0
0.08666805570336372 -0.08212922039792936 0.0 -0.016540831250918042 0.0 0.0
0.0953561436698984 -0.09055203125323885 0.0 -0.013668286858664336 0.0 0.0
0.1009869945366556 -0.09599438682473194 0.0 -0.007687077237793438 0.0 0.0
0.1009869945366476 -0.09599438682472572 0.0 0.007687077237828244 0.0 0.0
0.09535614366987939 -0.09055203125322242 0.0 0.01366828685871102 0.0 0.0
0.08666805570333422 -0.08212922039790493 0.0 0.01654083125094774 0.0 0.0
0.07629797858147505 -0.07203895717546649 0.0 0.017131487749686314 0.0 0.0
0.06544247125580274 -0.06145318177540471 0.0 0.016233982746804432 0.0 0.0
0.05493292678792247 -0.051203386343877444 0.0 0.014573344511750408 0.0 0.0
0.045260558319462185 -0.04178585001596824 0.0 0.012730222118436774 0.0 0.0
0.03664486579893714 -0.03342022096150221 0.0 0.010978711005088015 0.0 0.0
0.02910125184637455 -0.026119963445264904 0.0 0.00935574818626228 0.0 0.0
0.022522754698710873 -0.019785724827511286 0.0 0.007789631872620495 0.0 0.0
0.01680653264037693 -0.014318022783049056 0.0 0.0061945022317018705 0.0 0.0
0.011931580156482241 -0.009701502068881984 0.0 0.0046291393010597925 0.0 0.0
0.00795779863931595 -0.0060023317766031425 0.0 0.0032274580662589036 0.0 0.0
0.004952696761671621 -0.0033024791787155117 0.0 0.0020861569978836147 0.0 0.0
0.002972614611269714 -0.001650879894434465 0.0 0.001365283069981571 0.0 0.0
0.0019246573398420952 -0.0008903088367421264 0.0 0.0010806762758304167 0.0 0.0
0.0014167326320687346 -0.0005816150148925114 0.0 0.0009397072996715217 0.0 0.0
0.0009348493351274412 -0.0002957037900618853 0.0 0.0007944176638850498 0.0 0.0
0.0004406242128577875 -0.0002911055044234334 0.0 0.001107885902879413 0.0 0.0
0.0039030898024686456 -0.0054629816082255485 0.0 0.005748172556513859 0.0 0.0
0.0029141540320742343 -0.004383338420429123 0.0 -0.004706407591910572 0.0 0.0
0.0002935858530334415 -0.0002459506472940465 0.0 -0.0015579201642212104 0.0 0.0
0.0007042334017193508 -0.0002125210047791981 0.0 -0.0011746197333643849 0.0 0.0
0.0011676931316511666 -0.0004623932510688933 0.0 -0.0012223540488544293 0.0 0.0
0.0016136281928748816 -0.0007188114008223057 0.0 -0.0013544889111889447 0.0 0.0
0.0024104765118504665 -0.0012471143983314725 0.0 -0.0016096112331134838 0.0 0.0
0.003979682414295402 -0.0024795560254129434 0.0 -0.0022864363133150156 0.0 0.0
0.006505118900383487 -0.004677657043112848 0.0 -0.0035189711744694208 0.0 0.0
0.009913170245103353 -0.007807411484626936 0.0 -0.0051242961783455054 0.0 0.0
0.014084799491955777 -0.011730526122838203 0.0 -0.006875218361791335 0.0 0.0
0.018949102762167637 -0.01636389474437916 0.0 -0.008655250411114035 0.0 0.0
0.024508950271408966 -0.021703053342310374 0.0 -0.010397216854420105 0.0 0.0
0.030861529461003005 -0.027837678546195566 0.0 -0.012189086311114483 0.0 0.0
0.03812746414201386 -0.03488380510486877 0.0 -0.014136677233731909 0.0 0.0
0.04633497253639421 -0.04286790256982753 0.0 -0.016165919612934232 0.0 0.0
0.05534174395753445 -0.05164704766436268 0.0 -0.017989222128498072 0.0 0.0
0.0647828032107525 -0.060855304032396695 0.0 -0.01910486306201481 0.0 0.0
0.07401154367287398 -0.06984007583195773 0.0 -0.018672745290607584 0.0 0.0
0.08203506535496581 -0.07762573003022322 0.0 -0.015576328631477343 0.0 0.0
0.08761049107756648 -0.08302047656310751 0.0 -0.008740424868507235 0.0 0.0
0.08761049107755906 -0.08302047656310174 0.0 0.00874042486854365 0.0 0.0
0.08203506535494842 -0.07762573003021034 0.0 0.015576328631522807 0.0 0.0
0.0740115436728485 -0.06984007583193375 0.0 0.018672745290640558 0.0 0.0
0.06478280321072302 -0.06085530403236694 0.0 0.019104863062034294 0.0 0.0
0.0553417439575003 -0.0516470476643347 0.0 0.01798922212849363 0.0 0.0
0.04633497253635804 -0.042867902569797334 0.0 0.01616591961292846 0.0 0.0
0.03812746414197743 -0.03488380510483724 0.0 0.014136677233728578 0.0 0.0
0.030861529460968762 -0.027837678546164923 0.0 0.012189086311111152 0.0 0.0
0.024508950271375562 -0.02170305334228173 0.0 0.010397216854408697 0.0 0.0
0.01894910276213721 -0.016363894744352292 0.0 0.008655250411100601 0.0 0.0
0.014084799491929562 -0.011730526122813334 0.0 0.006875218361773516 0.0 0.0
0.009913170245082426 -0.007807411484607618 0.0 0.005124296178334042 0.0 0.0
0.006505118900368312 -0.004677657043100414 0.0 0.003518971174460095 0.0 0.0
0.003979682414285868 -0.002479556025405172 0.0 0.002286436313311546 0.0 0.0
0.0024104765118465044 -0.001247114398328697 0.0 0.0016096112331107082 0.0 0.0
0.0016136281928736396 -0.0007188114008211954 0.0 0.0013544889111877234 0.0 0.0
0.0011676931316506878 -0.0004623932510685602 0.0 0.0012223540488530138 0.0 0.0
0.0007042334017194896 -0.00021252100477980873 0.0 0.001174619733361415 0.0 0.0
0.00029358585303312923 -0.0002459506472939077 0.0 0.0015579201642183793 0.0 0.0
0.0029141540320665182 -0.004383338420420236 0.0 0.004706407591898276 0.0 0.0
0.0021488957213080945 -0.0034865219112421297 0.0 -0.003803965597220682 0.0 0.0
0.00020204937325854488 -0.0002213527363506551 0.0 -0.0018909417837116305 0.0 0.0
0.0005090278830526818 -0.00014904962299255864 0.0 -0.0015141583447200735 0.0 0.0
0.0009179936243001313 -0.00034823582626275495 0.0 -0.0014999638784612412 0.0 0.0
0.0013174582945905677 -0.0005698359383428109 0.0 -0.0016191904366126275 0.0 0.0
0.0019089137233777032 -0.0009304613124141436 0.0 -0.0018506724915559047 0.0 0.0
0.003090936237705136 -0.001780458394537776 0.0 -0.002440728291570382 0.0 0.0
0.005090654007047932 -0.0034353909318796116 0.0 -0.003589668382702027 0.0 0.0
0.00790435016200311 -0.00595108992166038 0.0 -0.00523340758204055 0.0 0.0
0.011372545909453205 -0.009175053722319193 0.0 -0.007092300182007849 0.0 0.0
0.015385073441633423 -0.012973448618073702 0.0 -0.00895274394662765 0.0 0.0
0.019935626037448292 -0.01732395744023285 0.0 -0.010770295193349488 0.0 0.0
0.025107623703894244 -0.02230302967987674 0.0 -0.012630170445058986 0.0 0.0
0.031025135795718195 -0.028029957066649125 0.0 -0.014619409138358519 0.0 0.0
0.03775988950311454 -0.034572316641130474 0.0 -0.016705290423957353 0.0 0.0
0.04523795579708856 -0.041856193345817694 0.0 -0.0186203480174148 0.0 0.0
0.05320837987527294 -0.04963190702240938 0.0 -0.01985493741655714 0.0 0.0
0.061243839138361414 -0.05746600444512451 0.0 -0.01963716931183057 0.0 0.0
0.06862052204946649 -0.06463411188263768 0.0 -0.01670920899016387 0.0 0.0
0.07422855345741222 -0.07006191745213108 0.0 -0.009621998762939954 0.0 0.0
0.07422855345740544 -0.07006191745212798 0.0 0.009621998762976203 0.0 0.0
0.06862052204945111 -0.06463411188262258 0.0 0.016709208990210833 0.0 0.0
0.061243839138340236 -0.05746600444510053 0.0 0.01963716931186521 0.0 0.0
0.053208379875248735 -0.04963190702238718 0.0 0.019854937416573293 0.0 0.0
0.04523795579705969 -0.04185619334579771 0.0 0.018620348017408417 0.0 0.0
0.03775988950308437 -0.03457231664110605 0.0 0.016705290423949082 0.0 0.0
0.03102513579568844 -0.028029957066623368 0.0 0.014619409138352357 0.0 0.0
0.025107623703867155 -0.02230302967985054 0.0 0.012630170445052435 0.0 0.0
0.019935626037420523 -0.017323957440206428 0.0 0.010770295193335278 0.0 0.0
0.015385073441608665 -0.012973448618051053 0.0 0.008952743946614716 0.0 0.0
0.011372545909431736 -0.009175053722301874 0.0 0.007092300181991751 0.0 0.0
0.007904350161986012 -0.005951089921646613 0.0 0.005233407582030392 0.0 0.0
0.005090654007035983 -0.0034353909318691755 0.0 0.0035896683826934783 0.0 0.0
0.0030909362376981275 -0.001780458394532003 0.0 0.0024407282915662742 0.0 0.0
0.0019089137233749554 -0.0009304613124122563 0.0 0.0018506724915528516 0.0 0.0
0.0013174582945895685 -0.0005698359383419227 0.0 0.0016191904366110732 0.0 0.0
0.0009179936242998676 -0.0003482358262634211 0.0 0.0014999638784594094 0.0 0.0
0.0005090278830527095 -0.0001490496229923366 0.0 0.0015141583447186857 0.0 0.0
0.00020204937325818406 -0.00022135273634962815 0.0 0.001890941783709188 0.0 0.0
0.0021488957213019744 -0.0034865219112348873 0.0 0.0038039655972113007 0.0 0.0
0.0015524632631114393 -0.002735569375381247 0.0 -0.0030666889914122697 0.0 0.0
0.0001353441965417923 -0.0002067437606517175 0.0 -0.0021228652051633323 0.0 0.0
0.0003373707763161121 -9.54517262578003e-05 0.0 -0.0017935596089075634 0.0 0.0
0.0006723110115454539 -0.00023701182270208232 0.0 -0.0017533021669625115 0.0 0.0
0.001020780909269256 -0.0004321949857105656 0.0 -0.0018753791273008469 0.0 0.0
0.0014593238767456745 -0.0006760026822223431 0.0 -0.0020702998780793014 0.0 0.0
0.0022885332773158185 -0.0012071941430942257 0.0 -0.002540766530553351 0.0 0.0
0.0037655896980537534 -0.002333892005151439 0.0 -0.0035161791606582726 0.0 0.0
0.005937070724302454 -0.004187655263538259 0.0 -0.004996949205705703 0.0 0.0
0.008683172668529082 -0.006677775141345821 0.0 -0.006802539090573101 0.0 0.0
0.011845025924534416 -0.009637801263981949 0.0 -0.00866502651509593 0.0 0.0
0.015396329626360991 -0.013006459930914316 0.0 -0.010459713091286071 0.0 0.0
0.019401551358138924 -0.016842415321192572 0.0 -0.012269351514021587 0.0 0.0
0.023981978439518437 -0.02126006762099575 0.0 -0.01419093806753513 0.0 0.0
0.029233867969838262 -0.026353318371274526 0.0 -0.016196345682693847 0.0 0.0
0.03515876138494996 -0.03211347981797452 0.0 -0.01805218015526211 0.0 0.0
0.04160474168148762 -0.03840247825710863 0.0 -0.019344558130959255 0.0 0.0
0.04835334030885774 -0.04500014505052352 0.0 -0.01941271219006513 0.0 0.0
0.05501786124350823 -0.05149423809805187 0.0 -0.01700903966601236 0.0 0.0
0.060707070499086024 -0.056997858646023136 0.0 -0.010319194329045045 0.0 0.0
0.06070707049908068 -0.056997858646013366 0.0 0.010319194329078185 0.0 0.0
0.055017861243495364 -0.05149423809803233 0.0 0.01700903966605949 0.0 0.0
0.04835334030884052 -0.04500014505050354 0.0 0.019412712190098547 0.0 0.0
0.04160474168146869 -0.038402478257088646 0.0 0.0193445581309738 0.0 0.0
0.03515876138492671 -0.03211347981795232 0.0 0.018052180155255337 0.0 0.0
0.029233867969814586 -0.026353318371251433 0.0 0.016196345682685687 0.0 0.0
0.02398197843949537 -0.02126006762097532 0.0 0.014190938067531245 0.0 0.0
0.019401551358118302 -0.016842415321173032 0.0 0.012269351514015203 0.0 0.0
0.01539632962634005 -0.013006459930896108 0.0 0.010459713091272249 0.0 0.0
0.011845025924515418 -0.009637801263962853 0.0 0.008665026515082663 0.0 0.0
0.008683172668512235 -0.0066777751413289455 0.0 0.006802539090554727 0.0 0.0
0.005937070724289617 -0.004187655263525603 0.0 0.004996949205695378 0.0 0.0
0.003765589698045052 -0.0023338920051434453 0.0 0.003516179160652888 0.0 0.0
0.0022885332773111 -0.001207194143090673 0.0 0.002540766530549854 0.0 0.0
0.0014593238767439953 -0.0006760026822225651 0.0 0.002070299878075832 0.0 0.0
0.001020780909268576 -0.0004321949857107876 0.0 0.0018753791272972942 0.0 0.0
0.0006723110115454123 -0.00023701182270174925 0.0 0.0017533021669594029 0.0 0.0
0.00033737077631609824 -9.545172625752274e-05 0.0 0.0017935596089050654 0.0 0.0
0.00013534419654140373 -0.00020674376065132893 0.0 0.002122865205161306 0.0 0.0
0.0015524632631072066 -0.0027355693753753647 0.0 0.0030666889914067186 0.0 0.0
0.0010980115483201214 -0.0021248381148374906 0.0 -0.002502322749568242 0.0 0.0
7.20571468038611e-05 -0.00019433690490400224 0.0 -0.002258526310476433 0.0 0.0
0.00017988353866359164 -4.388720275760871e-05 0.0 -0.00201256421377749 0.0 0.0
0.00043352678834952807 -0.000129733703210122 0.0 -0.0019662958316291612 0.0 0.0
0.0007151919770875953 -0.00029146440420446673 0.0 -0.0020927619609256154 0.0 0.0
0.0010409627696536389 -0.0004686668045899012 0.0 -0.0022987248103103486 0.0 0.0
0.0015740841956524976 -0.0007649770852427018 0.0 -0.0026441123513618603 0.0 0.0
0.0025529545173360035 -0.001412493517040092 0.0 -0.0033462468025661773 0.0 0.0
0.004065610152360635 -0.0025960766041668304 0.0 -0.004515008612789528 0.0 0.0
0.006046521216321349 -0.004303389664861879 0.0 -0.00604790101365138 0.0 0.0
0.00834658741778481 -0.006397353303426945 0.0 -0.00773808270387083 0.0 0.0
0.0109038454316749 -0.00878607844762791 0.0 -0.009410923051885067 0.0 0.0
0.013760328276143083 -0.011491995573067904 0.0 -0.011085265586011972 0.0 0.0
0.017018190339835357 -0.01461305100907273 0.0 -0.012818113814332066 0.0 0.0
0.0207884771900001 -0.01825481975352794 0.0 -0.014615347043263616 0.0 0.0
0.02513182637212623 -0.02246959794114778 0.0 -0.016309579034106292 0.0 0.0
0.030008100961181366 -0.027214907706500036 0.0 -0.017516416567301907 0.0 0.0
0.03534651974875232 -0.03245157945540411 0.0 -0.017818440475396935 0.0 0.0
0.04112945528960009 -0.03813037653703466 0.0 -0.016308499647543495 0.0 0.0
0.046886588657333986 -0.04369946965386706 0.0 -0.010792775858235626 0.0 0.0
0.04688658865733063 -0.04369946965386884 0.0 0.01079277585826216 0.0 0.0
0.04112945528959068 -0.038130376537027555 0.0 0.016308499647586627 0.0 0.0
0.03534651974873909 -0.0324515794553939 0.0 0.0178184404754278 0.0 0.0
0.03000810096116742 -0.027214907706492486 0.0 0.017516416567313897 0.0 0.0
0.025131826372109076 -0.022469597941134456 0.0 0.016309579034099353 0.0 0.0
0.020788477189983293 -0.0182548197535084 0.0 0.0146153470432544 0.0 0.0
0.0170181903398193 -0.014613051009053635 0.0 0.01281811381432707 0.0 0.0
0.01376032827612908 -0.011491995573054359 0.0 0.011085265586007254 0.0 0.0
0.010903845431660675 -0.008786078447614587 0.0 0.009410923051874909 0.0 0.0
0.008346587417771223 -0.006397353303414732 0.0 0.007738082703859839 0.0 0.0
0.00604652121630922 -0.004303389664850776 0.0 0.006047901013636114 0.0 0.0
0.004065610152352378 -0.0025960766041612793 0.0 0.0045150086127800915 0.0 0.0
0.0025529545173304247 -0.0014124935170383157 0.0 0.0033462468025607928 0.0 0.0
0.0015740841956495555 -0.0007649770852404814 0.0 0.002644112351358696 0.0 0.0
0.001040962769652487 -0.00046866680458779175 0.0 0.002298724810307573 0.0 0.0
0.0007151919770871373 -0.00029146440420302344 0.0 0.0020927619609243386 0.0 0.0
0.00043352678834934766 -0.00012973370320845667 0.0 0.0019662958316272183 0.0 0.0
0.00017988353866371654 -4.3887202756720534e-05 0.0 0.0020125642137753252 0.0 0.0
7.205714680352804e-05 -0.00019433690490341937 0.0 0.0022585263104747955 0.0 0.0
0.001098011548317318 -0.002124838114833598 0.0 0.002502322749563246 0.0 0.0
0.0007712713023094869 -0.0016621947987681684 0.0 -0.0021210963472610145 0.0 0.0
2.0744641895942273e-06 -0.0001825774120902679 0.0 -0.002336960331614457 0.0 0.0
3.118874131886884e-05 1.047954097954662e-05 0.0 -0.0021715656487925894 0.0 0.0
0.00020254529076496608 -2.756964198646905e-05 0.0 -0.0021317670680291723 0.0 0.0
0.00040319048883470654 -0.00014475235172706213 0.0 -0.002252575073953683 0.0 0.0
0.0006221299810905273 -0.0002728162579073157 0.0 -0.0024933533333365565 0.0 0.0
0.0009314544463509683 -0.00043240156845647526 0.0 -0.002799389056129531 0.0 0.0
0.001466605968991258 -0.0007168027615807038 0.0 -0.003217101799923905 0.0 0.0
0.0023353121017130885 -0.0012733042134283057 0.0 -0.00391117599910118 0.0 0.0
0.0035174403869409065 -0.002173217122978466 0.0 -0.004945539544745914 0.0 0.0
0.004924487992658433 -0.0033582116955643837 0.0 -0.006230754180105158 0.0 0.0
0.006473525038974318 -0.004743762506377092 0.0 -0.007612741141667989 0.0 0.0
0.008192448893375476 -0.006322515382159555 0.0 -0.009062758327440246 0.0 0.0
0.010150296048121635 -0.008161689413602069 0.0 -0.010543084755849141 0.0 0.0
0.012441869901816616 -0.010352844303576969 0.0 -0.012051344750304671 0.0 0.0
0.015176180239928408 -0.012994265811284489 0.0 -0.013511127206079332 0.0 0.0
0.018441595389024165 -0.016157340302967338 0.0 -0.014641459877317464 0.0 0.0
0.02229144659131993 -0.019911816064112742 0.0 -0.015009131320206204 0.0 0.0
0.026897375840141 -0.02450981370008032 0.0 -0.014352165279191975 0.0 0.0
0.032543870307303296 -0.03000373600907169 0.0 -0.010868468906987783 0.0 0.0
0.03254387030730137 -0.030003736009068138 0.0 0.01086846890700982 0.0 0.0
0.02689737584013553 -0.024509813700070104 0.0 0.014352165279229834 0.0 0.0
0.022291446591311145 -0.01991181606410075 0.0 0.015009131320232239 0.0 0.0
0.018441595389014673 -0.016157340302957124 0.0 0.014641459877323626 0.0 0.0
0.015176180239917972 -0.01299426581127916 0.0 0.013511127206069284 0.0 0.0
0.012441869901806998 -0.010352844303566311 0.0 0.0120513447502964 0.0 0.0
0.010150296048112739 -0.008161689413592299 0.0 0.010543084755845644 0.0 0.0
0.008192448893368412 -0.0063225153821533375 0.0 0.00906275832743697 0.0 0.0
0.006473525038966241 -0.004743762506368654 0.0 0.007612741141658885 0.0 0.0
0.004924487992650467 -0.0033582116955586105 0.0 0.006230754180093501 0.0 0.0
0.0035174403869341897 -0.002173217122973803 0.0 0.004945539544734423 0.0 0.0
0.0023353121017089667 -0.0012733042134236428 0.0 0.00391117599909635 0.0 0.0
0.0014666059689884825 -0.0007168027615795936 0.0 0.0032171017999208518 0.0 0.0
0.0009314544463495528 -0.0004324015684591398 0.0 0.002799389056127699 0.0 0.0
0.0006221299810897502 -0.00027281625790820385 0.0 0.0024933533333329483 0.0 0.0
0.0004031904888345955 -0.00014475235172572987 0.0 0.002252575073951907 0.0 0.0
0.00020254529076484118 -2.7569641985802917e-05 0.0 0.0021317670680272016 0.0 0.0
3.118874131892435e-05 1.047954098004622e-05 0.0 0.002171565648790341 0.0 0.0
2.074464189164016e-06 -0.0001825774120899626 0.0 0.0023369603316113208 0.0 0.0
0.0007712713023079326 -0.0016621947987654467 0.0 0.0021210963472581 0.0 0.0
0.0005435607626197436 -0.0013187130430140914 0.0 -0.0018692369699609968 0.0 0.0
-6.814158205988019e-05 -0.00017058968966499055 0.0 -0.0023817382667892795 0.0 0.0
-0.00011114248939758653 6.66430738910373e-05 0.0 -0.0022757879926545987 0.0 0.0
-2.0937165476381248e-05 7.062530876777995e-05 0.0 -0.0022424762949221633 0.0 0.0
9.059553362307515e-05 2.613889539593295e-06 0.0 -0.0023494492374273868 0.0 0.0
0.00019271563480249831 -7.080717302287987e-05 0.0 -0.002602644008702193 0.0 0.0
0.0003082728421580222 -0.00013945021301808858 0.0 -0.0029543765436726988 0.0 0.0
0.000478142351753863 -0.00022454100997326698 0.0 -0.003299688764871911 0.0 0.0
0.0007556389919720907 -0.0003599425925990829 0.0 -0.0036445455017928285 0.0 0.0
0.0011438609079664208 -0.0005707319833492264 0.0 -0.004104283496926819 0.0 0.0
0.0016192948493657655 -0.0008662070337630556 0.0 -0.004813858789567638 0.0 0.0
0.0021350208797839554 -0.0012281756670147193 0.0 -0.005733376836055348 0.0 0.0
0.0027035296989723484 -0.0016533287998390378 0.0 -0.006834741075521844 0.0 0.0
0.0033547035612396525 -0.0021896022092269263 0.0 -0.008114189162829855 0.0 0.0
0.004159239290128722 -0.0029078739072092574 0.0 -0.009566328963208415 0.0 0.0
0.0052619794565826605 -0.0039321031802463935 0.0 -0.011083727419327838 0.0 0.0
0.006887782501759518 -0.005463195499129547 0.0 -0.012349333398757822 0.0 0.0
0.009262075421891294 -0.007706043510872895 0.0 -0.01281893808788842 0.0 0.0
0.012533858817142127 -0.01090903127196352 0.0 -0.01218310733748701 0.0 0.0
0.017440533407536485 -0.01589087493540786 0.0 -0.010649690626876873 0.0 0.0
0.017440533407536082 -0.015890874935407417 0.0 0.010649690626895525 0.0 0.0
0.012533858817140003 -0.010909031271962633 0.0 0.012183107337516874 0.0 0.0
0.00926207542188709 -0.007706043510871119 0.0 0.012818938087905574 0.0 0.0
0.00688778250175591 -0.0054631954991259946 0.0 0.01234933339875649 0.0 0.0
0.0052619794565800515 -0.003932103180244173 0.0 0.011083727419320621 0.0 0.0
0.004159239290126238 -0.0029078739072057047 0.0 0.009566328963202808 0.0 0.0
0.003354703561237765 -0.0021896022092287026 0.0 0.008114189162824803 0.0 0.0
0.002703529698971918 -0.0016533287998388158 0.0 0.006834741075519513 0.0 0.0
0.0021350208797826647 -0.001228175667013165 0.0 0.005733376836048354 0.0 0.0
0.0016192948493642806 -0.0008662070337621675 0.0 0.004813858789560643 0.0 0.0
0.0011438609079652273 -0.0005707319833490043 0.0 0.004104283496919825 0.0 0.0
0.0007556389919714662 -0.00035994259260085926 0.0 0.0036445455017902195 0.0 0.0
0.00047814235175350217 -0.00022454100997459925 0.0 0.003299688764869413 0.0 0.0
0.00030827284215781403 -0.00013945021301564609 0.0 0.002954376543669701 0.0 0.0
0.00019271563480230403 -7.080717302321293e-05 0.0 0.002602644008699223 0.0 0.0
9.059553362321393e-05 2.613889538927161e-06 0.0 0.00234944923742611 0.0 0.0
-2.093716547631186e-05 7.062530876711381e-05 0.0 0.0022424762949197208 0.0 0.0
-0.00011114248939764204 6.664307389137036e-05 0.0 0.0022757879926523505 0.0 0.0
-6.814158205989407e-05 -0.00017058968966449095 0.0 0.0023817382667884746 0.0 0.0
0.0005435607626188971 -0.0013187130430125076 0.0 0.0018692369699597755 0.0 0.0
0.0003853749878545143 -0.0010636986781986657 0.0 -0.001695487238627169 0.0 0.0
-0.00013222766464200675 -0.0001491083053333231 0.0 -0.0023792720919880994 0.0 0.0
-0.00024654037109200777 0.00012019311006905564 0.0 -0.002329492017698498 0.0 0.0
-0.00023710141578299482 0.00016527309877012453 0.0 -0.00229527651284267 0.0 0.0
-0.00021854769903768834 0.00014731248862653867 0.0 -0.0023819558675460817 0.0 0.0
-0.00023952777306333883 0.00013348429650728022 0.0 -0.002615684436586413 0.0 0.0
-0.00032082688244461366 0.00015551929542167997 0.0 -0.0029577934758299174 0.0 0.0
-0.0004794991013566119 0.0002266764963725354 0.0 -0.0033019527548722727 0.0 0.0
-0.0007541779810506521 0.00035933758290651596 0.0 -0.003645055526672658 0.0 0.0
-0.0011421798136005273 0.0005693616431547976 0.0 -0.004102303744869862 0.0 0.0
-0.0016191683851919797 0.0008677326677901664 0.0 -0.004809505971098804 0.0 0.0
-0.002148747813027291 0.0012417038167389371 0.0 -0.005731054996663931 0.0 0.0
-0.0027447200148324608 0.001688996641664442 0.0 -0.006835591177104361 0.0 0.0
-0.003416992988376555 0.0022297389662706557 0.0 -0.008118820203757648 0.0 0.0
-0.004110267913122745 0.0028123145392524584 0.0 -0.009586374592540192 0.0 0.0
-0.004658027340735407 0.0032699226293066985 0.0 -0.011206303006014495 0.0 0.0
-0.004739853148884782 0.0033146767383755993 0.0 -0.01295279351526707 0.0 0.0
-0.003973134259576475 0.0026805627292056933 0.0 -0.014814912524581447 0.0 0.0
-0.0020545067737301054 0.0012728712753404814 0.0 -0.01638923704301859 0.0 0.0
0.0024785386126342096 -0.002910049629628819 0.0 -0.014538240765256782 0.0 0.0
0.00247853861263346 -0.0029100496296292633 0.0 0.014538240765271937 0.0 0.0
-0.0020545067737300776 0.0012728712753373728 0.0 0.0163892370430323 0.0 0.0
-0.003973134259575434 0.00268056272920969 0.0 0.014814912524586554 0.0 0.0
-0.0047398531488799245 0.0033146767383809284 0.0 0.012952793515259131 0.0 0.0
-0.00465802734073005 0.0032699226293111394 0.0 0.01120630300600528 0.0 0.0
-0.004110267913118235 0.002812314539251126 0.0 0.009586374592532199 0.0 0.0
-0.003416992988371545 0.0022297389662706557 0.0 0.008118820203752042 0.0 0.0
-0.002744720014826618 0.0016889966416606672 0.0 0.006835591177100198 0.0 0.0
-0.0021487478130212123 0.0012417038167362726 0.0 0.005731054996655105 0.0 0.0
-0.0016191683851865535 0.0008677326677883901 0.0 0.0048095059710901444 0.0 0.0
-0.0011421798135966 0.000569361643151467 0.0 0.004102303744863145 0.0 0.0
-0.0007541779810479599 0.0003593375829038514 0.0 0.003645055526671215 0.0 0.0
-0.0004794991013548078 0.00022667649637297949 0.0 0.00330195275487033 0.0 0.0
-0.0003208268824439475 0.0001555192954223461 0.0 0.002957793475827475 0.0 0.0
-0.00023952777306278372 0.00013348429650683613 0.0 0.0026156844365833876 0.0 0.0
-0.00021854769903729976 0.00014731248862431823 0.0 0.002381955867544333 0.0 0.0
-0.00023710141578274502 0.00016527309876956942 0.0 0.0022952765128405883 0.0 0.0
-0.0002465403710919106 0.00012019311006911115 0.0 0.0023294920176964995 0.0 0.0
-0.00013222766464184021 -0.0001491083053339337 0.0 0.002379272091986906 0.0 0.0
0.00038537498785405633 -0.0010636986781976231 0.0 0.001695487238625254 0.0 0.0
0.0002733040580511492 -0.0008494723756198586 0.0 -0.0015285606901930537 0.0 0.0
-0.0001902235079179193 -0.00011930443584473593 0.0 -0.002326365206752945 0.0 0.0
-0.0003738613061287088 0.00017076925900583184 0.0 -0.0023300133193696615 0.0 0.0
-0.00044554555048587074 0.0002552659993720896 0.0 -0.0022890638261260643 0.0 0.0
-0.0005213512862052294 0.0002875684288022873 0.0 -0.0023468145613910196 0.0 0.0
-0.0006658996567571185 0.00033340090866706973 0.0 -0.002540051506068036 0.0 0.0
-0.0009432250307611911 0.00044811670164435213 0.0 -0.0028162578577036745 0.0 0.0
-0.0014675922133070562 0.0007188010235146258 0.0 -0.0032223628966201456 0.0 0.0
-0.002333064919301797 0.001271714546533964 0.0 -0.003910782095650933 0.0 0.0
-0.0035152794095509587 0.002171801368753723 0.0 -0.004942931623768743 0.0 0.0
-0.004925399464061009 0.0033613973122992302 0.0 -0.006228538269044459 0.0 0.0
-0.006486858712609192 0.004760647077693969 0.0 -0.007606181920094046 0.0 0.0
-0.008231596346201048 0.006363196174433927 0.0 -0.009038046510734754 0.0 0.0
-0.010208333823952975 0.00820582341405851 0.0 -0.010512988941880963 0.0 0.0
-0.01239501856912932 0.01025687667840014 0.0 -0.012114745409159022 0.0 0.0
-0.014610904401591629 0.01233512056270003 0.0 -0.013946708498648763 0.0 0.0
-0.016476224923464775 0.014073881711335279 0.0 -0.01607464369564926 0.0 0.0
-0.017454303898694623 0.01496241220865313 0.0 -0.01839705968861438 0.0 0.0
-0.016630618609430867 0.013862684845716178 0.0 -0.019385914895387713 0.0 0.0
-0.011743568718565772 0.008813718506015533 0.0 -0.016973710607353754 0.0 0.0
-0.01174356871856748 0.008813718506015977 0.0 0.01697371060737779 0.0 0.0
-0.016630618609428854 0.013862684845713957 0.0 0.01938591489541669 0.0 0.0
-0.017454303898687865 0.014962412208645581 0.0 0.018397059688636253 0.0 0.0
-0.0164762249234522 0.014073881711322844 0.0 0.016074643695647928 0.0 0.0
-0.014610904401578362 0.012335120562688484 0.0 0.013946708498640215 0.0 0.0
-0.01239501856911783 0.010256876678388593 0.0 0.012114745409149752 0.0 0.0
-0.01020833382394111 0.008205823414043412 0.0 0.010512988941872636 0.0 0.0
-0.008231596346188724 0.006363196174421049 0.0 0.009038046510729536 0.0 0.0
-0.006486858712596202 0.00476064707768642 0.0 0.007606181920082888 0.0 0.0
-0.004925399464049171 0.0033613973122896823 0.0 0.006228538269031358 0.0 0.0
-0.003515279409541369 0.002171801368749726 0.0 0.00494293162375542 0.0 0.0
-0.0023330649192952607 0.0012717145465295232 0.0 0.003910782095646825 0.0 0.0
-0.0014675922133029484 0.0007188010235117392 0.0 0.003222362896617925 0.0 0.0
-0.0009432250307594287 0.0004481167016441301 0.0 0.0028162578577013986 0.0 0.0
-0.0006658996567560915 0.00033340090866806893 0.0 0.0025400515060644835 0.0 0.0
-0.0005213512862045078 0.00028756842880317546 0.0 0.002346814561387245 0.0 0.0
-0.00044554555048535727 0.0002552659993722006 0.0 0.0022890638261234275 0.0 0.0
-0.0003738613061284035 0.00017076925900533224 0.0 0.0023300133193673578 0.0 0.0
-0.00019022350791778053 -0.00011930443584445838 0.0 0.0023263652067513907 0.0 0.0
0.0002733040580511076 -0.0008494723756191352 0.0 0.00152856069019211 0.0 0.0
0.0001845577974660395 -0.0006568945012684624 0.0 -0.0013526467549000443 0.0 0.0
-0.00024364673598109565 -8.223857806705093e-05 0.0 -0.0022201247643833244 0.0 0.0
-0.0004932185637681608 0.00021849319601707773 0.0 -0.002274767624914742 0.0 0.0
-0.00064524323691037 0.00034003849010377785 0.0 -0.002222783966012748 0.0 0.0
-0.0008149388650772194 0.0004195318081947619 0.0 -0.002240911444942928 0.0 0.0
-0.0010791700795368953 0.0005246117698454178 0.0 -0.002367877396010021 0.0 0.0
-0.0015844977879214683 0.000780947725436798 0.0 -0.002669350315307184 0.0 0.0
-0.002552049697579689 0.0014132653473821755 0.0 -0.003353933999133696 0.0 0.0
-0.004062342901842958 0.0025932035376725615 0.0 -0.004511194243204897 0.0 0.0
-0.006045210131268491 0.004302430317677075 0.0 -0.0060449457953508645 0.0 0.0
-0.00834879970780994 0.006401205153215406 0.0 -0.007736306214805144 0.0 0.0
-0.010914075525925021 0.008799702517972019 0.0 -0.009396140949878784 0.0 0.0
-0.013788583396755316 0.011522969613399603 0.0 -0.011023185749612141 0.0 0.0
-0.01706191136109461 0.014647754177469885 0.0 -0.01270638155813042 0.0 0.0
-0.020752615226914267 0.01817967203579629 0.0 -0.01462723501340879 0.0 0.0
-0.02467543550510015 0.021931424995789595 0.0 -0.017034883136819334 0.0 0.0
-0.028365369173967925 0.02544915196364883 0.0 -0.02012082154927486 0.0 0.0
-0.03097130563283365 0.027830876652425562 0.0 -0.023334449938452684 0.0 0.0
-0.03087015734354369 0.027445834288065463 0.0 -0.024987934389118394 0.0 0.0
-0.025201636125704738 0.02119488136226133 0.0 -0.02158726654178067 0.0 0.0
-0.025201636125704793 0.02119488136226222 0.0 0.021587266541810035 0.0 0.0
-0.03087015734353961 0.027445834288064574 0.0 0.02498793438915442 0.0 0.0
-0.030971305632822035 0.027830876652413572 0.0 0.023334449938476387 0.0 0.0
-0.028365369173949537 0.0254491519636324 0.0 0.020120821549275525 0.0 0.0
-0.024675435505079474 0.02193142499576961 0.0 0.01703488313681034 0.0 0.0
-0.020752615226895976 0.018179672035779415 0.0 0.01462723501340002 0.0 0.0
-0.017061911361075904 0.014647754177458339 0.0 0.012706381558119706 0.0 0.0
-0.013788583396736581 0.01152296961337873 0.0 0.011023185749605147 0.0 0.0
-0.010914075525905259 0.008799702517952701 0.0 0.00939614094986485 0.0 0.0
-0.00834879970779212 0.006401205153197864 0.0 0.007736306214790101 0.0 0.0
-0.0060452101312534895 0.004302430317661532 0.0 0.006044945795334544 0.0 0.0
-0.004062342901832078 0.0025932035376636797 0.0 0.004511194243195515 0.0 0.0
-0.002552049697572681 0.0014132653473781787 0.0 0.003353933999127867 0.0 0.0
-0.0015844977879179989 0.0007809477254343555 0.0 0.0026693503153036313 0.0 0.0
-0.001079170079535452 0.0005246117698427533 0.0 0.0023678773960073285 0.0 0.0
-0.0008149388650762202 0.00041953180819409575 0.0 0.0022409114449413736 0.0 0.0
-0.000645243236909579 0.00034003849010333376 0.0 0.0022227839660115545 0.0 0.0
-0.0004932185637677722 0.00021849319601674466 0.0 0.0022747676249130766 0.0 0.0
-0.00024364673598095687 -8.223857806721746e-05 0.0 0.0022201247643819366 0.0 0.0
0.00018455779746590073 -0.0006568945012677754 0.0 0.0013526467548971854 0.0 0.0
0.00010762062990707366 -0.0004837066171178295 0.0 -0.0011730431633267535 0.0 0.0
-0.000294992498331037 -3.848441439840977e-05 0.0 -0.0020622407653885233 0.0 0.0
-0.0006053506016062138 0.0002641374611206393 0.0 -0.0021643745330762743 0.0 0.0
-0.0008360703304551853 0.0004184049025318659 0.0 -0.002101421479124649 0.0 0.0
-0.0010939122721073113 0.0005402834569608883 0.0 -0.0020650252529642033 0.0 0.0
-0.0014913022978012003 0.0007276186547586772 0.0 -0.0021629205995220002 0.0 0.0
-0.002295289254473115 0.0012220282128700966 0.0 -0.0025753636480252973 0.0 0.0
-0.0037619514829853873 0.002331731950027338 0.0 -0.0035177995415155983 0.0 0.0
-0.005933921023108302 0.004184277105141687 0.0 -0.004990639748549963 0.0 0.0
-0.008683553036663877 0.006678294606701662 0.0 -0.006800389611433366 0.0 0.0
-0.011848143177333875 0.00964200887656319 0.0 -0.008664091349188663 0.0 0.0
-0.01540096883142672 0.013013300099991021 0.0 -0.010439371458949243 0.0 0.0
-0.019408645468599772 0.016852331126151032 0.0 -0.012176939867771297 0.0 0.0
-0.023993222875303893 0.021268744956882468 0.0 -0.013995296556884584 0.0 0.0
-0.02921017865315892 0.026307568602842668 0.0 -0.016116402134620844 0.0 0.0
-0.03489135561765183 0.031785210296638944 0.0 -0.018918822487991815 0.0 0.0
-0.040426392908841674 0.03707820330834055 0.0 -0.02262284335528797 0.0 0.0
-0.04451402259685405 0.04087091254530639 0.0 -0.0266082562546745 0.0 0.0
-0.04489626002294339 0.04084971456981146 0.0 -0.028807534907453747 0.0 0.0
-0.03774084776257412 0.03307295281145883 0.0 -0.025764012544783388 0.0 0.0
-0.03774084776257204 0.03307295281145528 0.0 0.02576401254481503 0.0 0.0
-0.04489626002293658 0.04084971456980391 0.0 0.028807534907493715 0.0 0.0
-0.044514022596837954 0.04087091254529218 0.0 0.02660825625470603 0.0 0.0
-0.04042639290881818 0.037078203308319235 0.0 0.022622843355294242 0.0 0.0
-0.03489135561762538 0.03178521029661674 0.0 0.0189188224879841 0.0 0.0
-0.029210178653133398 0.02630756860281913 0.0 0.016116402134612684 0.0 0.0
-0.023993222875278553 0.02126874495685671 0.0 0.01399529655687276 0.0 0.0
-0.019408645468574487 0.016852331126127273 0.0 0.01217693986776347 0.0 0.0
-0.0154009688314007 0.013013300099968816 0.0 0.010439371458936253 0.0 0.0
-0.011848143177309908 0.009642008876541652 0.0 0.008664091349170788 0.0 0.0
-0.008683553036643823 0.006678294606682567 0.0 0.006800389611416324 0.0 0.0
-0.005933921023093244 0.004184277105129919 0.0 0.004990639748539694 0.0 0.0
-0.003761951482975201 0.0023317319500200107 0.0 0.0035177995415066055 0.0 0.0
-0.0022952892544673836 0.0012220282128665438 0.0 0.002575363648019635 0.0 0.0
-0.0014913022977992019 0.0007276186547582331 0.0 0.002162920599518864 0.0 0.0
-0.0010939122721059236 0.0005402834569602222 0.0 0.0020650252529624824 0.0 0.0
-0.0008360703304542694 0.00041840490253053364 0.0 0.002101421479122706 0.0 0.0
-0.0006053506016055754 0.00026413746111986214 0.0 0.0021643745330742203 0.0 0.0
-0.0002949924983309954 -3.8484414398382016e-05 0.0 0.002062240765386636 0.0 0.0
0.0001076206299070459 -0.00048370661711727436 0.0 0.0011730431633250604 0.0 0.0
3.956560923767949e-05 -0.000330511853770421 0.0 -0.0009896000034290975 0.0 0.0
-0.00034592530447238867 1.0303226928076725e-05 0.0 -0.001857669727709399 0.0 0.0
-0.0007112642360183885 0.0003083704781866592 0.0 -0.0019984831807538794 0.0 0.0
-0.0010171414857966798 0.0004890407721571677 0.0 -0.0019182292006584278 0.0 0.0
-0.0013580727831488948 0.0006526543598246448 0.0 -0.001833425911563269 0.0 0.0
-0.0019328877773019115 0.0009729410078769263 0.0 -0.0019453155072095552 0.0 0.0
-0.003092219284299924 0.0017900579477456713 0.0 -0.0024672347893678337 0.0 0.0
-0.005085708559427082 0.0034309117343982454 0.0 -0.003586138107816217 0.0 0.0
-0.007902656761336668 0.005948685703738077 0.0 -0.0052255498697685865 0.0 0.0
-0.011374717884934965 0.009177239862051545 0.0 -0.007090366407490112 0.0 0.0
-0.015388475328617257 0.012977306395050237 0.0 -0.008950709087558961 0.0 0.0
-0.019932884501621784 0.017321826973737187 0.0 -0.01074601562586136 0.0 0.0
-0.025086480625534868 0.022284174696532322 0.0 -0.012523295487252839 0.0 0.0
-0.03098805825291956 0.027998067086916212 0.0 -0.014375668890895699 0.0 0.0
-0.03773912084925876 0.03455050507125934 0.0 -0.01652951844841488 0.0 0.0
-0.04517833671416774 0.04175141201221555 0.0 -0.01937705497941966 0.0 0.0
-0.052524417033548904 0.048792883313809376 0.0 -0.02321579924367001 0.0 0.0
-0.05801600753765014 0.053901119847403756 0.0 -0.027611391891814385 0.0 0.0
-0.05864598665979254 0.05404934936109829 0.0 -0.030638200411341632 0.0 0.0
-0.04988143657621355 0.04469995757208878 0.0 -0.02961444562639015 0.0 0.0
-0.04988143657621036 0.04469995757208123 0.0 0.029614445626421515 0.0 0.0
-0.058645986659781574 0.05404934936108674 0.0 0.0306382004113826 0.0 0.0
-0.0580160075376297 0.053901119847384216 0.0 0.02761139189184697 0.0 0.0
-0.052524417033521204 0.04879288331377696 0.0 0.02321579924367556 0.0 0.0
-0.04517833671413554 0.04175141201218224 0.0 0.019377054979413222 0.0 0.0
-0.037739120849226496 0.034550505071226034 0.0 0.01652951844840489 0.0 0.0
-0.03098805825288728 0.027998067086885126 0.0 0.014375668890882876 0.0 0.0
-0.02508648062550292 0.022284174696505232 0.0 0.01252329548724379 0.0 0.0
-0.01993288450158981 0.017321826973707433 0.0 0.010746015625849092 0.0 0.0
-0.0153884753285876 0.012977306395021593 0.0 0.008950709087539727 0.0 0.0
-0.011374717884909943 0.00917723986202712 0.0 0.007090366407471238 0.0 0.0
-0.007902656761317454 0.005948685703720091 0.0 0.0052255498697576785 0.0 0.0
-0.005085708559413635 0.003430911734387365 0.0 0.003586138107807474 0.0 0.0
-0.0030922192842917848 0.0017900579477410083 0.0 0.00246723478936145 0.0 0.0
-0.0019328877772986156 0.0009729410078751499 0.0 0.0019453155072069184 0.0 0.0
-0.0013580727831473613 0.0006526543598247558 0.0 0.001833425911562353 0.0 0.0
-0.0010171414857956113 0.0004890407721571677 0.0 0.0019182292006567903 0.0 0.0
-0.0007112642360174656 0.0003083704781877694 0.0 0.00199848318075202 0.0 0.0
-0.0003459253044723956 1.0303226928826126e-05 0.0 0.001857669727707456 0.0 0.0
3.956560923774888e-05 -0.00033051185377008276 0.0 0.0009896000034277652 0.0 0.0
-1.9412687351699764e-05 -0.00019905798416849918 0.0 -0.0008007946367884766 0.0 0.0
-0.0003960778668658793 6.187440685845313e-05 0.0 -0.0016119127373679654 0.0 0.0
-0.0008118152498522713 0.00035112813623472405 0.0 -0.0017780703398518338 0.0 0.0
-0.0011878196800249041 0.0005521492171446374 0.0 -0.001681344916319022 0.0 0.0
-0.00162066725674756 0.0007751104666280373 0.0 -0.0015790032715028435 0.0 0.0
-0.002420835871741772 0.0012787979707880037 0.0 -0.0017093120977732523 0.0 0.0
-0.003977123708260949 0.002483566786835034 0.0 -0.0023054219488830574 0.0 0.0
-0.00650138531376987 0.004673202401185073 0.0 -0.0035092066964702018 0.0 0.0
-0.009913743720722762 0.007807169445828155 0.0 -0.005117104630378511 0.0 0.0
-0.01408830528020058 0.01173400295725524 0.0 -0.0068740006374407026 0.0 0.0
-0.01895168179520676 0.016366341292741282 0.0 -0.008651282167396912 0.0 0.0
-0.024497527059826496 0.02169091699131731 0.0 -0.010369394145412825 0.0 0.0
-0.03081162248919933 0.02778941997076778 0.0 -0.012087339535243269 0.0 0.0
-0.038037615888337845 0.034805184272498124 0.0 -0.013904136114928578 0.0 0.0
-0.046289882703738905 0.04283939129466985 0.0 -0.01591159939405551 0.0 0.0
-0.055421538915039675 0.05170155627079698 0.0 -0.018405064282959183 0.0 0.0
-0.06452010714999412 0.06043735047924326 0.0 -0.02190322473216877 0.0 0.0
-0.07136869470055623 0.0668196863957995 0.0 -0.02643357219006609 0.0 0.0
-0.07224682872721784 0.06716457468195802 0.0 -0.03083150197113632 0.0 0.0
-0.062045743240543696 0.056400896476814566 0.0 -0.033360775435880896 0.0 0.0
-0.06204574324053984 0.05640089647680746 0.0 0.03336077543591248 0.0 0.0
-0.0722468287272025 0.06716457468194337 0.0 0.030831501971179898 0.0 0.0
-0.07136869470053153 0.06681968639577596 0.0 0.026433572190096677 0.0 0.0
-0.0645201071499621 0.06043735047921395 0.0 0.021903224732177262 0.0 0.0
-0.05542153891500218 0.05170155627076145 0.0 0.018405064282958294 0.0 0.0
-0.046289882703699964 0.04283939129463299 0.0 0.015911599394047737 0.0 0.0
-0.038037615888298876 0.03480518427246038 0.0 0.013904136114920695 0.0 0.0
-0.03081162248916102 0.027789419970730256 0.0 0.01208733953523497 0.0 0.0
-0.024497527059788346 0.021690916991279563 0.0 0.010369394145402833 0.0 0.0
-0.018951681795171933 0.01636634129270842 0.0 0.008651282167379454 0.0 0.0
-0.014088305280170924 0.011734002957228373 0.0 0.0068740006374219675 0.0 0.0
-0.009913743720699399 0.007807169445809281 0.0 0.005117104630367686 0.0 0.0
-0.0065013853137528416 0.004673202401168863 0.0 0.0035092066964624302 0.0 0.0
-0.003977123708250381 0.002483566786824598 0.0 0.002305421948878922 0.0 0.0
-0.0024208358717369427 0.0012787979707832298 0.0 0.001709312097770782 0.0 0.0
-0.0016206672567455963 0.000775110466626594 0.0 0.0015790032715021496 0.0 0.0
-0.00118781968002378 0.0005521492171441933 0.0 0.0016813449163204652 0.0 0.0
-0.0008118152498515496 0.0003511281362344465 0.0 0.0017780703398511122 0.0 0.0
-0.00039607786686545604 6.187440685839762e-05 0.0 0.0016119127373659115 0.0 0.0
-1.9412687351498537e-05 -0.00019905798416817132 0.0 0.0008007946367880325 0.0 0.0
-6.736587955635809e-05 -9.173313671273498e-05 0.0 -0.0006057514098532779 0.0 0.0
-0.0004430918219354707 0.00011330834474226892 0.0 -0.0013295005698588935 0.0 0.0
-0.0009073277349420927 0.0003920618893303862 0.0 -0.0015033694684756238 0.0 0.0
-0.0013511517920540561 0.0006101828198055159 0.0 -0.001396436771848364 0.0 0.0
-0.0018972940663746496 0.000913729085964099 0.0 -0.0012874565291994544 0.0 0.0
-0.0029664227364869233 0.0016640323089824882 0.0 -0.0014457318874038505 0.0 0.0
-0.0049493780928611675 0.0033013934190382344 0.0 -0.0020913920554605503 0.0 0.0
-0.007957987190553906 0.006001310873069654 0.0 -0.0032156030472685893 0.0 0.0
-0.011934585635648282 0.009703842185071254 0.0 -0.004623478554793337 0.0 0.0
-0.016810683498219958 0.014322001532296902 0.0 -0.006193699482596349 0.0 0.0
-0.022522844829549804 0.019785233792163348 0.0 -0.007782911713923257 0.0 0.0
-0.029080246551539624 0.02609771038428721 0.0 -0.009325928992013122 0.0 0.0
-0.036572196754262404 0.03334909102727979 0.0 -0.010897523019113287 0.0 0.0
-0.045127328238871195 0.04166509557623854 0.0 -0.012559295258199432 0.0 0.0
-0.054826049892166856 0.051121863973955683 0.0 -0.014304285921679427 0.0 0.0
-0.0655122003527018 0.06152300003805866 0.0 -0.01618219169320101 0.0 0.0
-0.07624562827263115 0.07184900995553578 0.0 -0.0187530118021505 0.0 0.0
-0.08449249634286651 0.07955751398121791 0.0 -0.023043885830804522 0.0 0.0
-0.08588381084191633 0.08035353439245307 0.0 -0.02939505949270116 0.0 0.0
-0.07457780002177662 0.06847807197470379 0.0 -0.036988077607364944 0.0 0.0
-0.07457780002177157 0.06847807197470157 0.0 0.0369880776073967 0.0 0.0
-0.08588381084189772 0.0803535343924402 0.0 0.029395059492740128 0.0 0.0
-0.08449249634283736 0.07955751398119082 0.0 0.023043885830830668 0.0 0.0
-0.07624562827259368 0.07184900995550114 0.0 0.01875301180215716 0.0 0.0
-0.06551220035265948 0.06152300003801692 0.0 0.016182191693200676 0.0 0.0
-0.054826049892121524 0.05112186397391438 0.0 0.014304285921674736 0.0 0.0
-0.045127328238825655 0.041665095576199906 0.0 0.012559295258191938 0.0 0.0
-0.036572196754217655 0.0333490910272376 0.0 0.010897523019104655 0.0 0.0
-0.029080246551495492 0.026097710384245687 0.0 0.009325928992003518 0.0 0.0
-0.02252284482950965 0.019785233792123158 0.0 0.007782911713908269 0.0 0.0
-0.016810683498185812 0.014322001532263151 0.0 0.006193699482581638 0.0 0.0
-0.011934585635621123 0.009703842185046607 0.0 0.004623478554784927 0.0 0.0
-0.00795798719053318 0.0060013108730518905 0.0 0.0032156030472591524 0.0 0.0
-0.004949378092848129 0.003301393419027354 0.0 0.002091392055454361 0.0 0.0
-0.002966422736480491 0.0016640323089788245 0.0 0.0014457318874003255 0.0 0.0
-0.0018972940663720128 0.0009137290859650982 0.0 0.001287456529197456 0.0 0.0
-0.0013511517920530153 0.0006101828198056269 0.0 0.0013964367718475867 0.0 0.0
-0.0009073277349415168 0.00039206188932960906 0.0 0.0015033694684746801 0.0 0.0
-0.0004430918219348323 0.00011330834474226892 0.0 0.0013295005698581719 0.0 0.0
-6.736587955624707e-05 -9.173313671285294e-05 0.0 0.0006057514098517514 0.0 0.0
-0.00010059645990811994 -1.1613832114260036e-05 0.0 -0.0004061703158111385 0.0 0.0
-0.00048207668430533257 0.0001609587559572856 0.0 -0.0010128618776366893 0.0 0.0
-0.0009980089190576025 0.0004296588696948156 0.0 -0.001173029378399193 0.0 0.0
-0.0015132748102741622 0.0006709951368673028 0.0 -0.0010659063335742291 0.0 0.0
-0.002201807622184082 0.0010876004498107106 0.0 -0.000964496368982104 0.0 0.0
-0.0035861633187077857 0.0021389977956225437 0.0 -0.0011564879288374075 0.0 0.0
-0.005972914383323397 0.004199086360906712 0.0 -0.001729847317988642 0.0 0.0
-0.009420992984368132 0.007361643969007181 0.0 -0.0026357561801880203 0.0 0.0
-0.013954066678225602 0.011618972842782904 0.0 -0.0037813628668036947 0.0 0.0
-0.019524475387311918 0.01691916407110039 0.0 -0.005064187271840992 0.0 0.0
-0.026087543675552938 0.02321349231018699 0.0 -0.006368102614621229 0.0 0.0
-0.03366542828738392 0.030523480873748454 0.0 -0.0076317743458877985 0.0 0.0
-0.042349995123747625 0.03894008304670127 0.0 -0.008927310351845463 0.0 0.0
-0.052241538403588306 0.04856141284597726 0.0 -0.010349340193904988 0.0 0.0
-0.06333399520243108 0.05937856483471471 0.0 -0.011779613477304163 0.0 0.0
-0.07537619890714403 0.07112086117538619 0.0 -0.012905373650818008 0.0 0.0
-0.0874995116482846 0.08284872599927251 0.0 -0.014031260893496711 0.0 0.0
-0.0972761341274497 0.09201649245726884 0.0 -0.01743061472861307 0.0 0.0
-0.09971333141917846 0.09376252962992515 0.0 -0.025942866169125722 0.0 0.0
-0.0878611721513403 0.08127598283052517 0.0 -0.04021376066768306 0.0 0.0
-0.0878611721513334 0.08127598283051984 0.0 0.0402137606677086 0.0 0.0
-0.09971333141915704 0.0937625296299025 0.0 0.025942866169158474 0.0 0.0
-0.09727613412741569 0.09201649245723287 0.0 0.017430614728637328 0.0 0.0
-0.08749951164824153 0.08284872599923387 0.0 0.014031260893501984 0.0 0.0
-0.0753761989070959 0.07112086117534 0.0 0.012905373650817564 0.0 0.0
-0.06333399520238034 0.05937856483466719 0.0 0.011779613477304274 0.0 0.0
-0.05224153840353613 0.04856141284592752 0.0 0.01034934019389816 0.0 0.0
-0.042349995123696305 0.03894008304665464 0.0 0.008927310351837942 0.0 0.0
-0.033665428287333835 0.03052348087370227 0.0 0.007631774345881137 0.0 0.0
-0.026087543675507197 0.02321349231014369 0.0 0.00636810261460935 0.0 0.0
-0.019524475387273522 0.016919164071063753 0.0 0.005064187271827558 0.0 0.0
-0.013954066678194793 0.011618972842751596 0.0 0.0037813628667968113 0.0 0.0
-0.009420992984344428 0.007361643968983422 0.0 0.0026357561801808593 0.0 0.0
-0.005972914383307937 0.004199086360892501 0.0 0.0017298473179834795 0.0 0.0
-0.003586163318699525 0.0021389977956166595 0.0 0.0011564879288342433 0.0 0.0
-0.002201807622180779 0.001087600449807713 0.0 0.0009644963689806885 0.0 0.0
-0.0015132748102730867 0.0006709951368667477 0.0 0.0010659063335730357 0.0 0.0
-0.0009980089190568323 0.00042965886969420497 0.0 0.0011730293783983048 0.0 0.0
-0.0004820766843047497 0.00016095875595631415 0.0 0.0010128618776355236 0.0 0.0
-0.00010059645990826566 -1.1613832114410957e-05 0.0 0.00040617031581036134 0.0 0.0
-0.0001127279298930306 3.73521518866049e-05 0.0 -0.00020873622400199854 0.0 0.0
-0.0005043871163620539 0.00019906170479755403 0.0 -0.0006616145593024148 0.0 0.0
-0.0010847340999023403 0.0004639974695542781 0.0 -0.0007804400539886958 0.0 0.0
-0.0016846278774425572 0.0007406722505736152 0.0 -0.0006930305324086561 0.0 0.0
-0.0025541042614020404 0.0013221980268667277 0.0 -0.0006284722212226701 0.0 0.0
-0.0042701122206703634 0.0026998162956692884 0.0 -0.0007902354112148124 0.0 0.0
-0.007009691188921696 0.005141399765037136 0.0 -0.001198067317957241 0.0 0.0
-0.010882088325948586 0.00873614583908533 0.0 -0.0018100579036232634 0.0 0.0
-0.015955778439864315 0.013532990984867155 0.0 -0.002598191270944461 0.0 0.0
-0.022213584714170898 0.01950671854819963 0.0 -0.0034950692431118258 0.0 0.0
-0.02963031713256664 0.026633667887514756 0.0 -0.0044047430749606375 0.0 0.0
-0.03823846270441214 0.034949807716752046 0.0 -0.005287137248633722 0.0 0.0
-0.04812739190089407 0.04454317122359841 0.0 -0.006225529167493804 0.0 0.0
-0.0593504542420544 0.05546319721589299 0.0 -0.0072473387848280835 0.0 0.0
-0.07179514530448908 0.06759240928090593 0.0 -0.008215751682769556 0.0 0.0
-0.08503734470861324 0.08050566085496813 0.0 -0.00876861126745998 0.0 0.0
-0.09817212353707963 0.09327769713992629 0.0 -0.008590689876522672 0.0 0.0
-0.10930675785344746 0.10389698590878327 0.0 -0.009629278798879537 0.0 0.0
-0.11381901227734925 0.10745404422697158 0.0 -0.019192723433538172 0.0 0.0
-0.1024791560112695 0.09532262197226915 0.0 -0.0423154263463274 0.0 0.0
-0.1024791560112609 0.09532262197226027 0.0 0.04231542634634744 0.0 0.0
-0.11381901227732454 0.10745404422694538 0.0 0.01919272343356132 0.0 0.0
-0.10930675785340839 0.10389698590874463 0.0 0.00962927879889891 0.0 0.0
-0.09817212353703042 0.09327769713988054 0.0 0.008590689876525365 0.0 0.0
-0.08503734470855903 0.08050566085491839 0.0 0.008768611267458676 0.0 0.0
-0.07179514530443251 0.06759240928085264 0.0 0.008215751682769779 0.0 0.0
-0.05935045424199565 0.055463197215841475 0.0 0.007247338784824503 0.0 0.0
-0.04812739190083613 0.04454317122354312 0.0 0.0062255291674885305 0.0 0.0
-0.03823846270435589 0.034949807716694536 0.0 0.005287137248630697 0.0 0.0
-0.02963031713251581 0.026633667887462575 0.0 0.004404743074952255 0.0 0.0
-0.022213584714128556 0.019506718548156776 0.0 0.0034950692431028885 0.0 0.0
-0.015955778439829787 0.013532990984833626 0.0 0.0025981912709407418 0.0 0.0
-0.010882088325922322 0.008736145839060239 0.0 0.0018100579036195719 0.0 0.0
-0.007009691188903558 0.005141399765020704 0.0 0.0011980673179531054 0.0 0.0
-0.004270112220660011 0.002699816295658519 0.0 0.0007902354112120369 0.0 0.0
-0.0025541042613979256 0.001322198026863286 0.0 0.0006284722212220317 0.0 0.0
-0.0016846278774411798 0.0007406722505732821 0.0 0.0006930305324073238 0.0 0.0
-0.0010847340999012162 0.0004639974695531679 0.0 0.0007804400539880019 0.0 0.0
-0.0005043871163614572 0.00019906170479747076 0.0 0.0006616145593016376 0.0 0.0
-0.00011272792989299243 3.7352151886643065e-05 0.0 0.000208736224001832 0.0 0.0
-9.232978924847424e-05 4.94853972277387e-05 0.0 -2.944130404586298e-05 0.0 0.0
-0.000495604847309733 0.0002187408192981244 0.0 -0.0002693290873893306 0.0 0.0
-0.0011705078196770358 0.0004953573259228738 0.0 -0.00031114921248859284 0.0 0.0
-0.001883934923484959 0.0008395911671003065 0.0 -0.00028627408570103263 0.0 0.0
-0.002966886260645063 0.0016182621744447179 0.0 -0.000259531579264366 0.0 0.0
-0.004987527979818884 0.003311373907958881 0.0 -0.0003210674693918669 0.0 0.0
-0.008050425356331187 0.006103995434473042 0.0 -0.0004913554197022996 0.0 0.0
-0.012325631375867424 0.010108172009765992 0.0 -0.000740565552091732 0.0 0.0
-0.01792426006686021 0.015426036161424461 0.0 -0.0010821972975226246 0.0 0.0
-0.024860754426315218 0.022064711054898822 0.0 -0.0014858284582329184 0.0 0.0
-0.03313652936602146 0.03003044899652374 0.0 -0.0018973437920966063 0.0 0.0
-0.042790187712687305 0.039365792128454036 0.0 -0.0023170180262800377 0.0 0.0
-0.053877505446950524 0.05012973957380895 0.0 -0.0027582821211916686 0.0 0.0
-0.06640934138727983 0.06232644390198683 0.0 -0.0032082632475933792 0.0 0.0
-0.0801822726410176 0.07574431235504075 0.0 -0.0035962920993083403 0.0 0.0
-0.09457082336252731 0.08976040856436063 0.0 -0.0036884684355141806 0.0 0.0
-0.10843510334535827 0.10325399963229076 0.0 -0.003096824759971528 0.0 0.0
-0.1201349199513212 0.11457944167152156 0.0 -0.0018745733731572178 0.0 0.0
-0.1269188496383494 0.1207670613520273 0.0 -0.006397837836213893 0.0 0.0
-0.12011083329585691 0.11186830265127146 0.0 -0.039029879395777456 0.0 0.0
-0.12011083329584743 0.11186830265126213 0.0 0.03902987939578484 0.0 0.0
-0.1269188496383214 0.12076706135199977 0.0 0.0063978378362224975 0.0 0.0
-0.12013491995127629 0.11457944167147716 0.0 0.0018745733731668768 0.0 0.0
-0.10843510334530196 0.10325399963222903 0.0 0.00309682475997064 0.0 0.0
-0.09457082336246737 0.08976040856429712 0.0 0.003688468435514125 0.0 0.0
-0.08018227264095464 0.07574431235497814 0.0 0.0035962920993080905 0.0 0.0
-0.06640934138721422 0.0623264439019251 0.0 0.003208263247591797 0.0 0.0
-0.05387750544688629 0.050129739573748555 0.0 0.0027582821211902253 0.0 0.0
-0.04279018771262515 0.03936579212839808 0.0 0.002317018026278761 0.0 0.0
-0.03313652936596534 0.03003044899647067 0.0 0.00189734379209211 0.0 0.0
-0.024860754426269196 0.02206471105485619 0.0 0.0014858284582285886 0.0 0.0
-0.017924260066822496 0.015426036161388712 0.0 0.0010821972975200156 0.0 0.0
-0.012325631375838609 0.010108172009737348 0.0 0.000740565552088901 0.0 0.0
-0.008050425356310752 0.006103995434454612 0.0 0.000491355419700551 0.0 0.0
-0.004987527979806353 0.003311373907948889 0.0 0.00032106746938972974 0.0 0.0
-0.0029668862606401086 0.0016182621744397219 0.0 0.0002595315792641162 0.0 0.0
-0.0018839349234830594 0.0008395911670989742 0.0 0.00028627408570064405 0.0 0.0
-0.0011705078196759715 0.0004953573259233734 0.0 0.0003111492124885651 0.0 0.0
-0.0004956048473093418 0.00021874081929834643 0.0 0.0002693290873886367 0.0 0.0
-9.232978924832071e-05 4.9485397227540945e-05 0.0 2.9441304045446648e-05 0.0 0.0
SCALARS Statev float 8
LOOKUP_TABLE default
0.0 0.010948296923833659 0.00838994741518823 -0.008773715387843477 0.0003837679726552503 -0.004771407978747766 0.0 0.0
0.0 0.00042086368979049306 0.00026763921842949396 -0.0002158293259763263 -5.180989245316764e-05 0.0002808860731272984 0.0 0.0
0.0 3.342380937738801e-05 -4.754075056001044e-06 3.773145031477424e-06 9.809300245235895e-07 5.62033213615258e-07 0.0 0.0
0.0 0.00015012999747929457 7.674668493896596e-05 -5.978575547134734e-05 -1.6960929467618702e-05 -1.0445316761423934e-05 0.0 0.0
0.0 0.0009562339574303439 0.0007128784585571962 -0.0005767143171483326 -0.00013616414140886395 -7.914813870198144e-05 0.0 0.0
0.0 0.002621225539301728 0.0024041584151699084 -0.002042509500082703 -0.00036164891508720583 -0.00019726123447366787 0.0 0.0
0.0 0.005759209542425553 0.00519552711277621 -0.004639227442106316 -0.0005562996706698925 -0.00036646238371002644 0.0 0.0
0.0 0.010374764309157722 0.009239217734539335 -0.008539585411573574 -0.0006996323229657577 -0.0006039215784957368 0.0 0.0
0.0 0.01655721036971625 0.014609706133618634 -0.013797166934493319 -0.0008125391991253088 -0.0009274834004980275 0.0 0.0
0.0 0.024317348439166643 0.021320310065708826 -0.020402382782262043 -0.0009179272834467841 -0.001317371570761193 0.0 0.0
0.0 0.033689378848974105 0.029383748710270656 -0.02835994094868017 -0.0010238077615904913 -0.0017263532396875987 0.0 0.0
0.0 0.04444286291178858 0.038848844485938554 -0.0377169411128802 -0.0011319033730583297 -0.0021500677926281275 0.0 0.0
0.0 0.056947932515963876 0.04976900330170372 -0.04852772483043276 -0.0012412784712709276 -0.002592101917591693 0.0 0.0
0.0 0.07123009011250697 0.06216825029405304 -0.06081496823675239 -0.0013532820573006249 -0.0030520732801228236 0.0 0.0
0.0 0.08707494312560146 0.0759159325257047 -0.07444608001682607 -0.0014698525088786083 -0.0035300840934296045 0.0 0.0
0.0 0.10400811334883321 0.09057056322187218 -0.08897995239846698 -0.0015906108234052096 -0.003945825533435912 0.0 0.0
0.0 0.12104260266381622 0.1053058217112189 -0.10359383487394361 -0.0017119868372753129 -0.00411659056359469 0.0 0.0
0.0 0.1367997745148943 0.11894396552916842 -0.11711578069207981 -0.0018281848370885955 -0.0038041777962631368 0.0 0.0
0.0 0.1496433933866662 0.13006684253605588 -0.1281336599234806 -0.0019331826125752452 -0.0030464879655885285 0.0 0.0
0.0 0.15730346699499007 0.1368411186094306 -0.13478238087891484 -0.0020587377305157526 -0.0028106228798261772 0.0 0.0
0.0 0.15730346699498102 0.13684111860942258 -0.134782380878907 -0.002058737730515581 0.002810622879830626 0.0 0.0
0.0 0.14964339338663768 0.13006684253603085 -0.1281336599234561 -0.0019331826125747367 0.0030464879656048 0.0 0.0
0.0 0.13679977451484707 0.1189439655291271 -0.11711578069203964 -0.0018281848370874246 0.0038041777962696676 0.0 0.0
0.0 0.12104260266375275 0.10530582171116395 -0.10359383487388876 -0.0017119868372751353 0.004116590563600049 0.0 0.0
0.0 0.10400811334876742 0.09057056322181511 -0.08897995239841026 -0.0015906108234048574 0.003945825533428287 0.0 0.0
0.0 0.08707494312553526 0.07591593252564716 -0.07444608001676901 -0.0014698525088781254 0.003530084093430596 0.0 0.0
0.0 0.07123009011243887 0.06216825029399381 -0.06081496823669391 -0.0013532820572998978 0.0030520732801221184 0.0 0.0
0.0 0.05694793251589523 0.049769003301643924 -0.048527724830373896 -0.0012412784712700238 0.002592101917591607 0.0 0.0
0.0 0.04444286291172498 0.038848844485882966 -0.037716941112825815 -0.0011319033730571417 0.002150067792623747 0.0 0.0
0.0 0.03368937884891544 0.029383748710219298 -0.028359940948629505 -0.0010238077615897817 0.00172635323968537 0.0 0.0
0.0 0.02431734843911827 0.02132031006566668 -0.02040238278222069 -0.0009179272834459877 0.0013173715707560693 0.0 0.0
0.0 0.01655721036967897 0.014609706133585608 -0.013797166934460918 -0.0008125391991246896 0.0009274834004966135 0.0 0.0
0.0 0.010374764309130964 0.009239217734515111 -0.008539585411550098 -0.0006996323229650103 0.0006039215784939994 0.0 0.0
0.0 0.005759209542406867 0.005195527112759 -0.004639227442089968 -0.00055629967066903 0.00036646238370901076 0.0 0.0
0.0 0.0026212255392919124 0.002404158415160411 -0.0020425095000741987 -0.00036164891508621124 0.0001972612344729158 0.0 0.0
0.0 0.0009562339574249213 0.0007128784585527968 -0.0005767143171446706 -0.00013616414140812575 7.914813870157777e-05 0.0 0.0
0.0 0.00015012999747757974 7.67466849383425e-05 -5.9785755470848705e-05 -1.696092946749381e-05 1.0445316761283245e-05 0.0 0.0
0.0 3.342380937687491e-05 -4.754075055922566e-06 3.7731450314146314e-06 9.80930024507978e-07 -5.620332136057866e-07 0.0 0.0
0.0 0.0004208636897885686 0.00026763921842853146 -0.00021582932597554951 -5.180989245298214e-05 -0.0002808860731259634 0.0 0.0
0.0 0.010948296923816856 0.008389947415176856 -0.00877371538783111 0.0003837679726542519 0.00477140797872275 0.0 0.0
0.0 0.007900998684337775 0.005676136796009198 -0.006157371831140346 0.0004812350351311461 -0.0053829353131606425 0.0 0.0
0.0 9.735811856412316e-08 -9.785169814275069e-09 7.955171207828274e-09 1.8299986064463344e-09 -7.27040002772591e-09 0.0 0.0
0.0 9.430826945183483e-08 -1.020951514236367e-08 7.758883502814768e-09 2.450631639548195e-09 3.6392644398315674e-09 0.0 0.0
0.0 4.277277137427044e-05 9.620894207984083e-06 -7.527141165323851e-06 -2.093753042660466e-06 -4.756403790448212e-06 0.0 0.0
0.0 0.0005933808654659652 0.00039395716793033994 -0.00031549330376756354 -7.84638641627764e-05 -0.00010692427139619646 0.0 0.0
0.0 0.0019371452934008695 0.0017792396129254137 -0.0014885770179561566 -0.00029066259496925704 -0.0003924189126431553 0.0 0.0
0.0 0.004697586594089978 0.004237596788942227 -0.003734348967238208 -0.000503247821704016 -0.0008268805601728598 0.0 0.0
0.0 0.0088464109183687 0.007873230057077912 -0.0072102382017231355 -0.0006629918553547773 -0.0014182029445830436 0.0 0.0
0.0 0.014419182180837455 0.012720118784179616 -0.011938201444529438 -0.0007819173396501774 -0.0021764903638983174 0.0 0.0
0.0 0.02138812582545658 0.018756142577880823 -0.01787045084464854 -0.0008856917332322849 -0.003055601433361159 0.0 0.0
0.0 0.029733165829565693 0.02596641591643423 -0.024980527282008235 -0.0009858886344259782 -0.003969964538875895 0.0 0.0
0.0 0.03954487307413807 0.034392466289374285 -0.0333070531510302 -0.0010854131383440837 -0.004872404193518539 0.0 0.0
0.0 0.050637759133024644 0.04412946101900683 -0.042943531141816156 -0.0011859298771906704 -0.00582943335051488 0.0 0.0
0.0 0.06336682612916425 0.05522582274581809 -0.05393693777292742 -0.0012888849728906445 -0.006872255015791628 0.0 0.0
0.0 0.07760871235662917 0.06757620144444668 -0.06618074980129614 -0.0013954516431505426 -0.007947137288856612 0.0 0.0
0.0 0.09285529298897849 0.08080448439096384 -0.07929911832122491 -0.001505366069738943 -0.008887997314769521 0.0 0.0
0.0 0.1082831155669187 0.09418777137137838 -0.09257153145459791 -0.0016162399167804352 -0.009312626370451925 0.0 0.0
0.0 0.12267227622696697 0.10666297102935206 -0.1049381958108277 -0.0017247752185243531 -0.008793033123543395 0.0 0.0
0.0 0.13435856347140043 0.11681019326933707 -0.11497504457070486 -0.0018351486986322256 -0.007303001792241451 0.0 0.0
0.0 0.14131600092285473 0.12287294440344534 -0.12095583944864263 -0.0019171049548027403 -0.00473180423557401 0.0 0.0
0.0 0.14131600092284413 0.12287294440343614 -0.12095583944863306 -0.0019171049548030875 0.004731804235590483 0.0 0.0
0.0 0.13435856347137354 0.11681019326931338 -0.11497504457068107 -0.0018351486986323386 0.007303001792269188 0.0 0.0
0.0 0.12267227622692656 0.10666297102931652 -0.10493819581079265 -0.0017247752185238331 0.008793033123560716 0.0 0.0
0.0 0.10828311556686561 0.09418777137133204 -0.09257153145455202 -0.001616239916779945 0.009312626370461832 0.0 0.0
0.0 0.09285529298891974 0.08080448439091265 -0.07929911832117494 -0.0015053660697377047 0.008887997314762693 0.0 0.0
0.0 0.07760871235657021 0.06757620144439488 -0.06618074980124594 -0.0013954516431489434 0.007947137288855523 0.0 0.0
0.0 0.06336682612910598 0.05522582274576712 -0.05393693777287768 -0.0012888849728894182 0.00687225501578995 0.0 0.0
0.0 0.05063775913296372 0.044129461018953806 -0.04294353114176369 -0.0011859298771901114 0.005829433350513445 0.0 0.0
0.0 0.039544873074077114 0.03439246628932144 -0.03330705315097749 -0.0010854131383439259 0.004872404193511377 0.0 0.0
0.0 0.02973316582951234 0.025966415916387875 -0.024980527281962275 -0.0009858886344255929 0.003969964538869142 0.0 0.0
0.0 0.02138812582541289 0.01875614257784262 -0.01787045084461082 -0.0008856917332317946 0.0030556014333522783 0.0 0.0
0.0 0.01441918218080332 0.012720118784149134 -0.011938201444499603 -0.0007819173396495257 0.002176490363894167 0.0 0.0
0.0 0.00884641091834501 0.00787323005705667 -0.007210238201702603 -0.0006629918553540691 0.0014182029445787088 0.0 0.0
0.0 0.00469758659407477 0.004237596788928093 -0.0037343489672250173 -0.0005032478217030752 0.0008268805601703733 0.0 0.0
0.0 0.0019371452933928787 0.0017792396129181847 -0.0014885770179498092 -0.00029066259496837493 0.0003924189126414364 0.0 0.0
0.0 0.0005933808654623186 0.00039395716792788965 -0.00031549330376556996 -7.846386416231974e-05 0.00010692427139561626 0.0 0.0
0.0 4.27727713736104e-05 9.620894208024785e-06 -7.5271411653511515e-06 -2.0937530426734982e-06 4.756403790452608e-06 0.0 0.0
0.0 9.430826938068039e-08 -1.0209515134588993e-08 7.758883496907494e-09 2.4506316376819497e-09 -3.6392644370560787e-09 0.0 0.0
0.0 9.735811846572097e-08 -9.78516980428818e-09 7.9551711997036e-09 1.8299986045861706e-09 7.270400020323914e-09 0.0 0.0
0.0 0.00790099868431892 0.00567613679599668 -0.00615737183112707 0.00048123503513039186 0.0053829353131392066 0.0 0.0
0.0 0.005856813735094446 0.003971468694726331 -0.004460857489321411 0.0004893887945950809 -0.00463719906428006 0.0 0.0
0.0 0.0 0.0 0.0 0.0 0.0 0.0 0.0
0.0 0.0 0.0 0.0 0.0 0.0 0.0 0.0
0.0 5.832305365863976e-06 2.40843965273826e-06 -1.8721410320426011e-06 -5.362986206956795e-07 -1.7072258527131352e-06 0.0 0.0
0.0 0.00027824429235194883 0.00017985161497133996 -0.00014264386408338413 -3.720775088795578e-05 -8.827310300254833e-05 0.0 0.0
0.0 0.0014721024837841855 0.0011831481658133173 -0.0009750914500213908 -0.00020805671579192516 -0.00045463177267717804 0.0 0.0
0.0 0.0036777707323093875 0.003300677001079668 -0.0028623643701249334 -0.00043831263095473567 -0.0011001696081242827 0.0 0.0
0.0 0.007338526517321374 0.006507799729752016 -0.0058921423737758475 -0.0006156573559761669 -0.001989911131211583 0.0 0.0
0.0 0.012310432063069764 0.010813101835875942 -0.010068494831786094 -0.0007446070040898447 -0.003098429691340222 0.0 0.0
0.0 0.018505666342690463 0.016165841368610667 -0.015317477416039843 -0.0008483639525708172 -0.004361907229299792 0.0 0.0
0.0 0.02590158057195395 0.02252698037927957 -0.02158383465681069 -0.0009431457224688834 -0.0056755411603003 0.0 0.0
0.0 0.03444536704193256 0.029930435200495365 -0.028895422937498756 -0.0010350122629966053 -0.006973475517362551 0.0 0.0
0.0 0.04441903529733579 0.038473662929981334 -0.037346895607673444 -0.0011267673223078942 -0.00831355795778333 0.0 0.0
0.0 0.055589277036359776 0.048244765447288195 -0.04702429816145831 -0.0012204672858298685 -0.00979531310220246 0.0 0.0
0.0 0.06815892164469156 0.05917820422886219 -0.05786149984139362 -0.0013167043874685455 -0.011361614866995393 0.0 0.0
0.0 0.08176410628171311 0.07096893059636634 -0.06955343970654466 -0.0014154908898216518 -0.012726934345675962 0.0 0.0
0.0 0.09562172455571213 0.08301053747088387 -0.08149468415120062 -0.0015158533196832171 -0.01340652791210581 0.0 0.0
0.0 0.10861142618748268 0.0943445553688962 -0.09272552141174271 -0.001619033957153442 -0.012851070336803794 0.0 0.0
0.0 0.11920610969045706 0.10362495747609837 -0.10190774794040217 -0.001717209535696142 -0.010616542800301306 0.0 0.0
0.0 0.12566765944326197 0.10933232442987609 -0.10754652997494403 -0.001785794454931995 -0.006161144972818651 0.0 0.0
0.0 0.12566765944325367 0.10933232442986844 -0.10754652997493644 -0.0017857944549319474 0.006161144972844938 0.0 0.0
0.0 0.11920610969043552 0.10362495747607861 -0.10190774794038272 -0.001717209535695869 0.010616542800338307 0.0 0.0
0.0 0.10861142618744217 0.0943445553688603 -0.09272552141170666 -0.0016190339571535547 0.01285107033682946 0.0 0.0
0.0 0.09562172455566643 0.08301053747084339 -0.08149468415116098 -0.001515853319682421 0.013406527912118243 0.0 0.0
0.0 0.08176410628165962 0.0709689305963202 -0.06955343970649877 -0.0014154908898214291 0.012726934345668604 0.0 0.0
0.0 0.0681589216446378 0.05917820422881518 -0.0578614998413476 -0.0013167043874675998 0.011361614866992421 0.0 0.0
0.0 0.05558927703630485 0.04824476544724022 -0.04702429816141115 -0.0012204672858290564 0.009795313102199521 0.0 0.0
0.0 0.04441903529728135 0.03847366292993383 -0.037346895607626565 -0.001126767322307264 0.008313557957778793 0.0 0.0
0.0 0.0344453670418831 0.029930435200452393 -0.028895422937456807 -0.0010350122629955813 0.006973475517352154 0.0 0.0
0.0 0.025901580571908236 0.022526980379239427 -0.021583834656771203 -0.0009431457224682205 0.005675541160291394 0.0 0.0
0.0 0.018505666342651182 0.016165841368576198 -0.015317477416006003 -0.0008483639525701889 0.004361907229288125 0.0 0.0
0.0 0.012310432063038865 0.010813101835848738 -0.010068494831759447 -0.0007446070040892857 0.003098429691332813 0.0 0.0
0.0 0.007338526517297108 0.006507799729730417 -0.005892142373755006 -0.0006156573559754115 0.001989911131204939 0.0 0.0
0.0 0.0036777707322945474 0.003300677001066171 -0.002862364370112472 -0.00043831263095369944 0.0011001696081200311 0.0 0.0
0.0 0.001472102483775812 0.0011831481658064185 -0.0009750914500154559 -0.00020805671579096177 0.00045463177267443425 0.0 0.0
0.0 0.0002782442923494835 0.00017985161496982007 -0.00014264386408216378 -3.720775088765615e-05 8.827310300181282e-05 0.0 0.0
0.0 5.832305365475795e-06 2.408439652919547e-06 -1.8721410321824194e-06 -5.362986207371473e-07 1.7072258528300846e-06 0.0 0.0
0.0 0.0 0.0 0.0 0.0 0.0 0.0 0.0
0.0 0.0 0.0 0.0 0.0 0.0 0.0 0.0
0.0 0.005856813735078365 0.00397146869471529 -0.004460857489309571 0.0004893887945942809 0.004637199064262337 0.0 0.0
0.0 0.004283500925536395 0.002773667887309852 -0.003217556180378384 0.00044388829306853025 -0.0035755973933282894 0.0 0.0
0.0 0.0 0.0 0.0 0.0 0.0 0.0 0.0
0.0 0.0 0.0 0.0 0.0 0.0 0.0 0.0
0.0 1.7764958665315978e-06 -1.7819784007305854e-07 1.3787375697884427e-07 4.03240830942293e-08 1.8782013220909485e-07 0.0 0.0
0.0 0.0001056367619404039 6.0652120602746195e-05 -4.787554799929103e-05 -1.2776572603455027e-05 -4.854989176622495e-05 0.0 0.0
0.0 0.0009341916851770141 0.0007049265285507011 -0.0005725480827096345 -0.00013237844584106665 -0.00041409623595477083 0.0 0.0
0.0 0.002760319767986793 0.002397948161093221 -0.002042481116565205 -0.0003554670445280161 -0.001186597719980718 0.0 0.0
0.0 0.0058727717255434055 0.005159268519422593 -0.004603616017845202 -0.0005556525015773914 -0.0023109250445315353 0.0 0.0
0.0 0.010223291414685136 0.00890720729917329 -0.008209742995456775 -0.000697464303716514 -0.003685599331522865 0.0 0.0
0.0 0.015638556738893833 0.01356940800217354 -0.012765334170177075 -0.0008040738319964632 -0.0052371532387412096 0.0 0.0
0.0 0.02206801558653695 0.019084187014619936 -0.018189128994039235 -0.0008950580205806998 -0.006839381481975358 0.0 0.0
0.0 0.029511976578258572 0.02547038240898394 -0.024490235821763254 -0.0009801465872206804 -0.008426924025754682 0.0 0.0
0.0 0.038062714817751725 0.03282838410286619 -0.03176515366305967 -0.001063230439806515 -0.010074668759823744 0.0 0.0
0.0 0.04788161065480653 0.041260587912670586 -0.04011274030698363 -0.0011478476056869496 -0.01185134878579588 0.0 0.0
0.0 0.058910975907325185 0.050751998018888106 -0.04951833398791431 -0.001233664030973778 -0.013725138614355072 0.0 0.0
0.0 0.07067233084025404 0.06108561844509933 -0.05976472717419728 -0.001320891270902041 -0.015428772178099336 0.0 0.0
0.0 0.08296609336707052 0.07176801767148701 -0.07035685420928517 -0.0014111634622018057 -0.016384478917420505 0.0 0.0
0.0 0.09462461785638081 0.08197262018891821 -0.0804682235761361 -0.0015043966127821292 -0.015871098632058548 0.0 0.0
0.0 0.10427943610978226 0.09051478665950911 -0.08892232498990545 -0.0015924616696036844 -0.013114491222691269 0.0 0.0
0.0 0.11042450429377304 0.09604418863456515 -0.09438940213126745 -0.001654786503297685 -0.007325536010554206 0.0 0.0
0.0 0.11042450429376559 0.09604418863455802 -0.09438940213126053 -0.001654786503297508 0.007325536010586984 0.0 0.0
0.0 0.1042794361097639 0.09051478665949148 -0.08892232498988806 -0.001592461669603417 0.01311449122273555 0.0 0.0
0.0 0.09462461785635158 0.08197262018889129 -0.08046822357610936 -0.0015043966127819219 0.015871098632088406 0.0 0.0
0.0 0.08296609336703309 0.07176801767145355 -0.07035685420925193 -0.00141116346220164 0.016384478917435958 0.0 0.0
0.0 0.07067233084021102 0.061085618445061975 -0.059764727174160606 -0.0013208912709013682 0.015428772178093561 0.0 0.0
0.0 0.058910975907278194 0.050751998018847506 -0.04951833398787393 -0.0012336640309735364 0.013725138614349201 0.0 0.0
0.0 0.047881610654757475 0.04126058791262812 -0.04011274030694103 -0.0011478476056870973 0.011851348785791117 0.0 0.0
0.0 0.03806271481770393 0.03282838410282466 -0.031765153663018283 -0.001063230439806377 0.010074668759817645 0.0 0.0
0.0 0.029511976578212917 0.02547038240894426 -0.024490235821723945 -0.0009801465872203079 0.008426924025742832 0.0 0.0
0.0 0.02206801558649639 0.01908418701458444 -0.018189128994004402 -0.0008950580205800551 0.006839381481963447 0.0 0.0
0.0 0.015638556738859152 0.013569408002143653 -0.012765334170147805 -0.0008040738319958405 0.005237153238726646 0.0 0.0
0.0 0.010223291414658598 0.008907207299150023 -0.008209742995434133 -0.0006974643037158878 0.003685599331514141 0.0 0.0
0.0 0.005872771725524953 0.0051592685194063155 -0.004603616017829672 -0.0005556525015766412 0.002310925044524244 0.0 0.0
0.0 0.0027603197679758893 0.0023979481610836876 -0.002042481116556679 -0.0003554670445270082 0.0011865977199766637 0.0 0.0
0.0 0.000934191685170936 0.0007049265285464553 -0.0005725480827060742 -0.00013237844584038121 0.00041409623595215937 0.0 0.0
0.0 0.0001056367619390083 6.0652120602437916e-05 -4.7875547999031554e-05 -1.277657260340644e-05 4.854989176593893e-05 0.0 0.0
0.0 1.7764958662467406e-06 -1.7819784004332652e-07 1.3787375695581053e-07 4.032408308752122e-08 -1.8782013217738892e-07 0.0 0.0
0.0 0.0 0.0 0.0 0.0 0.0 0.0 0.0
0.0 0.0 0.0 0.0 0.0 0.0 0.0 0.0
0.0 0.004283500925522318 0.0027736678873006007 -0.003217556180368318 0.0004438882930677161 0.003575597393314417 0.0 0.0
0.0 0.0030158512056280527 0.001872517319707112 -0.0022403323609874026 0.0003678150412802911 -0.0025577780348588148 0.0 0.0
0.0 0.0 0.0 0.0 0.0 0.0 0.0 0.0
0.0 0.0 0.0 0.0 0.0 0.0 0.0 0.0
0.0 3.1234164431588785e-07 -2.5617850497127908e-08 2.0115826190663957e-08 5.502024306463789e-09 4.21043713021938e-08 0.0 0.0
0.0 3.5680480810993434e-05 1.550141120832775e-05 -1.2303963839642868e-05 -3.1974473686849015e-06 -1.9438635718711477e-05 0.0 0.0
0.0 0.0005046965226560707 0.00035638770895528066 -0.00028616511163676023 -7.022259731852058e-05 -0.00031632506451412316 0.0 0.0
0.0 0.002006519352519185 0.0015718748731714611 -0.0013125767716295153 -0.00025929810154194644 -0.0010900020623460622 0.0 0.0
0.0 0.004508434088657474 0.0038384849527237043 -0.0033615953103946984 -0.0004768896423290056 -0.0023410013807110717 0.0 0.0
0.0 0.008173089331988079 0.007021672966864066 -0.006384911081856986 -0.0006367618850070775 -0.0039279626052170285 0.0 0.0
0.0 0.012812608336724058 0.010985569263773844 -0.010235187081767107 -0.0007503821820067352 -0.005671385134238619 0.0 0.0
0.0 0.018293689698453762 0.015655788348843278 -0.014815691773752694 -0.0008400965750905789 -0.007464619239775145 0.0 0.0
0.0 0.024583512113420393 0.021033049918787492 -0.020113811947460244 -0.0009192379713272544 -0.009234353312976899 0.0 0.0
0.0 0.03186008085076929 0.027209798819249495 -0.026215023404478302 -0.0009947754147711981 -0.011055501102874734 0.0 0.0
0.0 0.04006248095857879 0.03430510747184767 -0.033235377723186764 -0.0010697297486609212 -0.013033797206104761 0.0 0.0
0.0 0.04944171538719448 0.04234323247910561 -0.04119791723603146 -0.0011453152430741294 -0.015099874746253296 0.0 0.0
0.0 0.059802156233772295 0.0511828276731281 -0.049960784482352014 -0.001222043190776082 -0.016972442707835107 0.0 0.0
0.0 0.07034181774510422 0.060463234839639356 -0.059163063809538015 -0.0013001710301013215 -0.018154582023730024 0.0 0.0
0.0 0.08060701215107297 0.06953596460250176 -0.06815439084485514 -0.0013815737576466165 -0.017814329392645146 0.0 0.0
0.0 0.08942515657531064 0.07741675024200519 -0.07595621485579555 -0.0014605353862096374 -0.014868738454373401 0.0 0.0
0.0 0.09539374045155248 0.0828849595857855 -0.08136479097030977 -0.0015201686154756734 -0.00829003667657129 0.0 0.0
0.0 0.09539374045154603 0.08288495958577896 -0.08136479097030334 -0.0015201686154755528 0.008290036676605533 0.0 0.0
0.0 0.08942515657529583 0.07741675024198992 -0.07595621485578086 -0.0014605353862090424 0.014868738454417746 0.0 0.0
0.0 0.08060701215104707 0.069535964602477 -0.06815439084483074 -0.0013815737576462553 0.01781432939267792 0.0 0.0
0.0 0.07034181774507209 0.06046323483960994 -0.05916306380950918 -0.0013001710301007933 0.0181545820237459 0.0 0.0
0.0 0.059802156233736706 0.05118282767309677 -0.04996078448232185 -0.0012220431907749131 0.016972442707830215 0.0 0.0
0.0 0.04944171538715646 0.04234323247907218 -0.041197917235999304 -0.0011453152430728742 0.015099874746246786 0.0 0.0
0.0 0.04006248095854023 0.03430510747181369 -0.03323537772315378 -0.0010697297486599057 0.013033797206100432 0.0 0.0
0.0 0.03186008085073293 0.027209798819217257 -0.026215023404447004 -0.0009947754147702382 0.011055501102869122 0.0 0.0
0.0 0.024583512113385032 0.021033049918756635 -0.020113811947430234 -0.0009192379713263912 0.009234353312965326 0.0 0.0
0.0 0.018293689698420896 0.01565578834881483 -0.014815691773725043 -0.000840096575089793 0.007464619239761931 0.0 0.0
0.0 0.012812608336693926 0.010985569263748631 -0.010235187081742576 -0.0007503821820060535 0.005671385134221678 0.0 0.0
0.0 0.008173089331965165 0.007021672966844235 -0.00638491108183791 -0.0006367618850063228 0.003927962605206881 0.0 0.0
0.0 0.0045084340886414245 0.00383848495271011 -0.0033615953103821572 -0.0004768896423279517 0.0023410013807028613 0.0 0.0
0.0 0.0020065193525094244 0.0015718748731635805 -0.0013125767716227327 -0.00025929810154084836 0.0010900020623414647 0.0 0.0
0.0 0.0005046965226521378 0.0003563877089528009 -0.0002861651116347447 -7.022259731805623e-05 0.0003163250645119108 0.0 0.0
0.0 3.5680480810242664e-05 1.5501411208400355e-05 -1.2303963839689244e-05 -3.1974473687110367e-06 1.943863571873508e-05 0.0 0.0
0.0 3.1234164401444015e-07 -2.5617850471780222e-08 2.0115826170972936e-08 5.502024300809174e-09 -4.2104371261965705e-08 0.0 0.0
0.0 0.0 0.0 0.0 0.0 0.0 0.0 0.0
0.0 0.0 0.0 0.0 0.0 0.0 0.0 0.0
0.0 0.00301585120561658 0.0018725173196998375 -0.00224033236097924 0.0003678150412794014 0.0025577780348482572 0.0 0.0
0.0 0.001973861274553753 0.0011850492129465843 -0.001461447942853118 0.0002763987299065336 -0.001696801973397652 0.0 0.0
0.0 0.0 0.0 0.0 0.0 0.0 0.0 0.0
0.0 0.0 0.0 0.0 0.0 0.0 0.0 0.0
0.0 7.616774122468806e-07 -5.549138125016537e-08 4.2107338484635224e-08 1.338404276552882e-08 1.233693222903045e-07 0.0 0.0
0.0 1.3792477312204912e-05 1.3894655065298606e-06 -1.1002928006474396e-06 -2.8917270588242077e-07 -2.327323625648195e-06 0.0 0.0
0.0 0.000219480280170335 0.0001509992601849981 -0.00012052971551129102 -3.0469544673706957e-05 -0.0002061571990383205 0.0 0.0
0.0 0.0012111875987234684 0.0009095148197048564 -0.000745092820996019 -0.00016442199870883703 -0.0009056211009765715 0.0 0.0
0.0 0.003234176569794716 0.002597710519874131 -0.002224626033782777 -0.00037308448609135465 -0.0021300227167549064 0.0 0.0
0.0 0.0062219714407271975 0.0051722736124667585 -0.0046166866905251215 -0.0005555869219416369 -0.0037847413689182166 0.0 0.0
0.0 0.010041531796421307 0.008436011708202603 -0.007753604635094979 -0.0006824070731076242 -0.005649023569684396 0.0 0.0
0.0 0.014554017842864263 0.012262265067260213 -0.01148785192109605 -0.0007744131461641622 -0.007530013720474451 0.0 0.0
0.0 0.019728308009168524 0.016638894213120835 -0.015788530193644384 -0.0008503640194764555 -0.009380870568663076 0.0 0.0
0.0 0.025636297011544327 0.02164620415152129 -0.02072695301503642 -0.0009192511364848766 -0.01127508926391951 0.0 0.0
0.0 0.03242379146929318 0.027404167199556788 -0.026418828498812982 -0.0009853387007437904 -0.013297732865042697 0.0 0.0
0.0 0.040195039108416174 0.033980669892204954 -0.03292967827520485 -0.0010509916170001275 -0.01542452450874277 0.0 0.0
0.0 0.048586931165561544 0.04130503164027515 -0.040188225985724454 -0.0011168056545507153 -0.01739603919579954 0.0 0.0
0.0 0.05770413814725348 0.04912469160176061 -0.04794213926868111 -0.0011825523330794942 -0.018702566414590498 0.0 0.0
0.0 0.06669505809753005 0.05701420675199787 -0.05576421010430014 -0.0012499966476977285 -0.018586026683373277 0.0 0.0
0.0 0.0745387001218109 0.06425099824422459 -0.06293181495288963 -0.0013191832913349352 -0.015836456823591492 0.0 0.0
0.0 0.08042008339270248 0.06973987124738859 -0.06836144427078573 -0.001378426976602855 -0.009064976204540337 0.0 0.0
0.0 0.08042008339269822 0.06973987124738364 -0.06836144427078113 -0.0013784269766025426 0.009064976204573642 0.0 0.0
0.0 0.07453870012179692 0.06425099824420948 -0.06293181495287486 -0.0013191832913346125 0.015836456823635714 0.0 0.0
0.0 0.06669505809750759 0.05701420675197551 -0.05576421010427808 -0.0012499966476974482 0.018586026683405726 0.0 0.0
0.0 0.05770413814722878 0.049124691601737394 -0.04794213926865857 -0.0011825523330787995 0.01870256641460496 0.0 0.0
0.0 0.0485869311655332 0.04130503164025039 -0.0401882259857007 -0.0011168056545496638 0.01739603919579397 0.0 0.0
0.0 0.04019503910838465 0.033980669892177635 -0.032929678275178065 -0.0010509916169995606 0.015424524508735011 0.0 0.0
0.0 0.03242379146926165 0.027404167199529123 -0.02641882849878588 -0.0009853387007432493 0.01329773286503649 0.0 0.0
0.0 0.025636297011514073 0.021646204151494836 -0.020726953015010683 -0.0009192511364841554 0.011275089263912567 0.0 0.0
0.0 0.019728308009136723 0.0166388942130938 -0.015788530193617825 -0.000850364019475973 0.009380870568650578 0.0 0.0
0.0 0.01455401784283673 0.01226226506723696 -0.011487851921073333 -0.000774413146163625 0.007530013720461021 0.0 0.0
0.0 0.010041531796398197 0.00843601170818343 -0.007753604635076666 -0.0006824070731067641 0.00564902356966856 0.0 0.0
0.0 0.006221971440709501 0.005172273612451666 -0.004616686690510882 -0.0005555869219407832 0.003784741368908302 0.0 0.0
0.0 0.003234176569781536 0.0025977105198633655 -0.002224626033773059 -0.0003730844860903058 0.0021300227167468364 0.0 0.0
0.0 0.0012111875987161449 0.0009095148196993834 -0.0007450928209913719 -0.00016442199870801157 0.0009056211009718603 0.0 0.0
0.0 0.00021948028016792337 0.00015099926018387227 -0.00012052971551039553 -3.046954467347678e-05 0.00020615719903687877 0.0 0.0
0.0 1.3792477311648281e-05 1.3894655066059788e-06 -1.1002928007062737e-06 -2.8917270589969506e-07 2.3273236257825295e-06 0.0 0.0
0.0 7.616774120036076e-07 -5.54913812317514e-08 4.210733847065235e-08 1.3384042761090036e-08 -1.2336932224923908e-07 0.0 0.0
0.0 0.0 0.0 0.0 0.0 0.0 0.0 0.0
0.0 0.0 0.0 0.0 0.0 0.0 0.0 0.0
0.0 0.001973861274544609 0.0011850492129410687 -0.001461447942846767 0.0002763987299056986 0.0016968019733894762 0.0 0.0
0.0 0.0011795289852919377 0.0006677976500383007 -0.0008482355066377221 0.0001804378565994217 -0.0010043784372002586 0.0 0.0
0.0 0.0 0.0 0.0 0.0 0.0 0.0 0.0
0.0 0.0 0.0 0.0 0.0 0.0 0.0 0.0
0.0 6.928205378478581e-07 -3.733951306313336e-08 2.7903524939343766e-08 9.435988123798777e-09 1.2742599449485983e-07 0.0 0.0
0.0 6.479069014494974e-06 1.5489189086041548e-06 -1.2322502762355273e-06 -3.166686323686314e-07 -4.150821087323325e-06 0.0 0.0
0.0 0.00011140046429944066 4.821431461407047e-05 -3.844908214539961e-05 -9.765232468670906e-06 -9.962669251484226e-05 0.0 0.0
0.0 0.0006315056421206501 0.0004227107848795758 -0.00034094496252360756 -8.176582235596832e-05 -0.0006326279797871689 0.0 0.0
0.0 0.0020419962009050924 0.001519814021536792 -0.0012687442544921765 -0.0002510697670446148 -0.0017360964316852096 0.0 0.0
0.0 0.004350244024970523 0.003413142926825917 -0.002971314329431331 -0.00044182859739458607 -0.0032842123119912548 0.0 0.0
0.0 0.007344299917162546 0.005944823289566946 -0.005355041912308981 -0.0005897813772579656 -0.005123086851655042 0.0 0.0
0.0 0.010890852836465872 0.008926644516643364 -0.008236091064112824 -0.0006905534525305372 -0.00701751614824122 0.0 0.0
0.0 0.014935344392007444 0.012312918443942987 -0.01154495778253377 -0.00076796066140922 -0.00885105046116615 0.0 0.0
0.0 0.019552207995277283 0.016164318437149824 -0.015331618732094014 -0.0008326997050557975 -0.010699125382777659 0.0 0.0
0.0 0.024807052885384033 0.02059819509599468 -0.019706684936491123 -0.0008915101595035493 -0.012656583249790875 0.0 0.0
0.0 0.030875325209582628 0.025705775157063605 -0.02475890634775469 -0.0009468688093089056 -0.014704319970685786 0.0 0.0
0.0 0.03767565550031888 0.031485355191479 -0.030482086301325588 -0.0010032688901533983 -0.016620665041174237 0.0 0.0
0.0 0.04493032584744258 0.037792875698485384 -0.036736014031587653 -0.00105686166689775 -0.0179934525643514 0.0 0.0
0.0 0.0524256978025488 0.044409091999366726 -0.04330110124925156 -0.001107990750115168 -0.018166592266337347 0.0 0.0
0.0 0.05967976714401651 0.05093447300760268 -0.049769959254815706 -0.0011645137527869598 -0.015954100437730996 0.0 0.0
0.0 0.06559245506258311 0.05648488461892658 -0.05525978352002098 -0.0012251010989056037 -0.009627540802862895 0.0 0.0
0.0 0.06559245506257595 0.05648488461891967 -0.055259783520013164 -0.0012251010989064862 0.009627540802893577 0.0 0.0
0.0 0.05967976714400234 0.05093447300758765 -0.04976995925479948 -0.0011645137527881606 0.015954100437773493 0.0 0.0
0.0 0.052425697802531576 0.04440909199934851 -0.04330110124923321 -0.0011079907501152873 0.018166592266368888 0.0 0.0
0.0 0.044930325847422736 0.03779287569846623 -0.03673601403156886 -0.0010568616668973885 0.01799345256436342 0.0 0.0
0.0 0.03767565550029272 0.031485355191456496 -0.0304820863013035 -0.0010032688901529885 0.016620665041166726 0.0 0.0
0.0 0.030875325209555587 0.02570577515704048 -0.02475890634773219 -0.0009468688093082837 0.014704319970676243 0.0 0.0
0.0 0.024807052885359573 0.02059819509597332 -0.01970668493647022 -0.0008915101595031004 0.012656583249785153 0.0 0.0
0.0 0.019552207995254464 0.016164318437130027 -0.01533161873207452 -0.0008326997050555064 0.010699125382771343 0.0 0.0
0.0 0.014935344391984013 0.012312918443923421 -0.011544957782514574 -0.0007679606614088416 0.008851050461154069 0.0 0.0
0.0 0.010890852836443263 0.00892664451662484 -0.008236091064094824 -0.000690553452530012 0.007017516148227424 0.0 0.0
0.0 0.007344299917141415 0.005944823289550399 -0.005355041912293108 -0.0005897813772572926 0.005123086851638304 0.0 0.0
0.0 0.004350244024954956 0.0034131429268137396 -0.002971314329419937 -0.0004418285973938017 0.00328421231198082 0.0 0.0
0.0 0.0020419962008954694 0.0015198140215295407 -0.0012687442544858831 -0.0002510697670436579 0.0017360964316782586 0.0 0.0
0.0 0.0006315056421161134 0.0004227107848766771 -0.000340944962521196 -8.176582235548079e-05 0.0006326279797833397 0.0 0.0
0.0 0.0001114004642979919 4.8214314613784856e-05 -3.844908214516076e-05 -9.765232468624012e-06 9.962669251415352e-05 0.0 0.0
0.0 6.479069014264665e-06 1.5489189087893552e-06 -1.2322502763820776e-06 -3.166686324072831e-07 4.150821087837892e-06 0.0 0.0
0.0 6.928205376352142e-07 -3.733951305122376e-08 2.7903524930424694e-08 9.435988120799248e-09 -1.2742599445425477e-07 0.0 0.0
0.0 0.0 0.0 0.0 0.0 0.0 0.0 0.0
0.0 0.0 0.0 0.0 0.0 0.0 0.0 0.0
0.0 0.0011795289852853368 0.0006677976500347195 -0.000848235506633454 0.00018043785659873412 0.0010043784371947463 0.0 0.0
0.0 0.0005965488081230408 0.0003048627334071728 -0.00040087596869404986 9.60132352868772e-05 -0.0004804605049479466 0.0 0.0
0.0 1.266647607192392e-07 -7.072771973675951e-10 8.507483974345466e-10 -1.4347120006705642e-10 2.5171596720899338e-08 0.0 0.0
0.0 0.0 0.0 0.0 0.0 0.0 0.0 0.0
0.0 8.694762653476193e-07 -2.987712020632065e-08 2.159330647060148e-08 8.283813735721381e-09 1.7349073420562356e-07 0.0 0.0
0.0 5.1066087824657345e-06 6.893103321181774e-07 -5.451211636694699e-07 -1.441891684487208e-07 -2.840625630068992e-06 0.0 0.0
0.0 6.516654200098343e-05 2.0809257861489502e-05 -1.6464566562032163e-05 -4.3446912994573325e-06 -6.598165533341819e-05 0.0 0.0
0.0 0.00029718169880202513 0.0001486385289333281 -0.00011880004959602209 -2.9838479337306034e-05 -0.0003667345268072352 0.0 0.0
0.0 0.001066170010651851 0.0006774331432317248 -0.0005507100141217034 -0.00012672312911002123 -0.0011911043375006914 0.0 0.0
0.0 0.0026298647826262095 0.0018397650335454166 -0.0015504201258441635 -0.0002893449077012518 -0.0024996789226273733 0.0 0.0
0.0 0.0047054013748514855 0.0035764769526978953 -0.003125203534896012 -0.00045127341780188215 -0.0041246673345023115 0.0 0.0
0.0 0.00736956518207589 0.005687535026107514 -0.005117295598459297 -0.0005702394276482172 -0.005866688360888084 0.0 0.0
0.0 0.010257725789085095 0.008090025182595429 -0.007433426966779251 -0.0006565982158161749 -0.007588908436114614 0.0 0.0
0.0 0.013548257317753764 0.010805225678554325 -0.010081362891631128 -0.0007238627869231995 -0.009306168490693134 0.0 0.0
0.0 0.017348518060132035 0.01393008159719162 -0.013150877181007775 -0.000779204416183845 -0.011076332374960389 0.0 0.0
0.0 0.02179760209945379 0.017569755629911546 -0.016742128461977975 -0.0008276271679335727 -0.012914532062660734 0.0 0.0
0.0 0.026814286243936704 0.021780828340716506 -0.020907618820773476 -0.0008732095199430239 -0.014670309773868058 0.0 0.0
0.0 0.03240007122707728 0.026523242331908718 -0.0256047028173111 -0.0009185395145976203 -0.015966752669518393 0.0 0.0
0.0 0.0382547582637602 0.0317418311366492 -0.03078743989204284 -0.0009543912446063508 -0.016379895546533477 0.0 0.0
0.0 0.04438014087181325 0.037397417344837564 -0.03640804605365627 -0.0009893712911812735 -0.01505511684453588 0.0 0.0
0.0 0.05020472944282407 0.04298936250002222 -0.04193950301725916 -0.0010498594827630736 -0.009924454335175796 0.0 0.0
0.0 0.050204729442824836 0.04298936250002111 -0.04193950301725884 -0.0010498594827622453 0.009924454335200898 0.0 0.0
0.0 0.04438014087180853 0.03739741734482938 -0.03640804605364868 -0.0009893712911807036 0.015055116844574822 0.0 0.0
0.0 0.03825475826375126 0.031741831136637644 -0.030787439892031778 -0.0009543912446058573 0.01637989554656144 0.0 0.0
0.0 0.032400071227067014 0.0265232423318978 -0.025604702817301175 -0.0009185395145966282 0.015966752669528426 0.0 0.0
0.0 0.026814286243918448 0.02178082834070119 -0.020907618820758565 -0.0008732095199426145 0.014670309773861426 0.0 0.0
0.0 0.021797602099432205 0.01756975562989381 -0.0167421284619603 -0.0008276271679335115 0.012914532062651165 0.0 0.0
0.0 0.017348518060112072 0.013930081597174864 -0.01315087718099116 -0.0007792044161837081 0.011076332374953247 0.0 0.0
0.0 0.013548257317738092 0.010805225678540878 -0.010081362891618005 -0.00072386278692287 0.009306168490687857 0.0 0.0
0.0 0.010257725789068436 0.008090025182581947 -0.0074334269667663405 -0.0006565982158156054 0.00758890843610425 0.0 0.0
0.0 0.007369565182060043 0.0056875350260950225 -0.005117295598447447 -0.0005702394276475714 0.005866688360876587 0.0 0.0
0.0 0.0047054013748358235 0.003576476952686412 -0.003125203534885336 -0.0004512734178010753 0.004124667334488651 0.0 0.0
0.0 0.00262986478261677 0.0018397650335385568 -0.0015504201258380648 -0.0002893449077004921 0.0024996789226195163 0.0 0.0
0.0 0.0010661700106468944 0.0006774331432284116 -0.0005507100141189304 -0.00012672312910948122 0.0011911043374960603 0.0 0.0
0.0 0.00029718169879949444 0.0001486385289322844 -0.00011880004959517789 -2.9838479337106595e-05 0.0003667345268049782 0.0 0.0
0.0 6.51665419996665e-05 2.080925786133783e-05 -1.646456656191362e-05 -4.344691299424194e-06 6.59816553328982e-05 0.0 0.0
0.0 5.106608782301527e-06 6.893103322680291e-07 -5.451211637881976e-07 -1.4418916847982441e-07 2.840625630720457e-06 0.0 0.0
0.0 8.694762648168817e-07 -2.987712019000699e-08 2.1593306458356525e-08 8.283813731647456e-09 -1.7349073409897767e-07 0.0 0.0
0.0 0.0 0.0 0.0 0.0 0.0 0.0 0.0
0.0 1.2666476022059354e-07 -7.072771946710994e-10 8.50748394078545e-10 -1.4347119940746084e-10 -2.5171596621278046e-08 0.0 0.0
0.0 0.0005965488081184097 0.00030486273340507217 -0.00040087596869142295 9.601323528635087e-05 0.00048046050494462365 0.0 0.0
0.0 0.00019944260914291258 0.00010006130336253327 -0.00013824006933352032 3.817876597098709e-05 -0.00016524071084108872 0.0 0.0
0.0 1.8030073051673429e-06 -4.177191184509683e-09 1.0378638774830307e-08 -6.201447590320216e-09 3.8291760625588695e-07 0.0 0.0
0.0 8.129603515550081e-07 -9.729788138728575e-10 -5.062304710215263e-10 1.479209284894036e-09 1.6676851108718092e-07 0.0 0.0
0.0 1.3942118126280809e-06 -1.7202479833820512e-08 1.1633862331670308e-08 5.568617502153395e-09 2.882879494068393e-07 0.0 0.0
0.0 5.214382283546808e-06 4.495140746438041e-07 -3.292766674341405e-07 -1.202374072096678e-07 -2.9491396578848085e-06 0.0 0.0
0.0 5.381763166720007e-05 9.923593056500593e-06 -7.884162481969808e-06 -2.0394305745307852e-06 -5.7111301667289526e-05 0.0 0.0
0.0 0.0001806344462281209 5.1991358355096225e-05 -4.154356071851076e-05 -1.0447797636585423e-05 -0.0002404178871197824 0.0 0.0
0.0 0.00046053173157392717 0.0001935380194445895 -0.00015466948193377662 -3.8868537510812845e-05 -0.0006761910588748757 0.0 0.0
0.0 0.0011901076717907356 0.0006229629280700698 -0.0005051474081454984 -0.0001178155199245716 -0.0015190020368361702 0.0 0.0
0.0 0.0023871343353785634 0.001477210752069825 -0.0012326729936254792 -0.0002445377584443454 -0.0027318576337103245 0.0 0.0
0.0 0.003932331843004944 0.0026656855444424452 -0.0022936301925340825 -0.000372055351908362 -0.004125619716797802 0.0 0.0
0.0 0.005797817560949058 0.004055761325389155 -0.0035833213573902927 -0.0004724399679988594 -0.0055745396033897955 0.0 0.0
0.0 0.007864698258870555 0.00564365006682482 -0.005090779363220017 -0.0005528707036047998 -0.0070765748966643794 0.0 0.0
0.0 0.010244156701683913 0.007484302036769919 -0.006868076610602598 -0.0006162254261673163 -0.008598547469124548 0.0 0.0
0.0 0.013020832561923086 0.009663980242838533 -0.008998184444240206 -0.0006657957985983253 -0.01014783690872068 0.0 0.0
0.0 0.016275417407164393 0.012282109100626888 -0.011576004566792492 -0.0007061045338343951 -0.011663061493688072 0.0 0.0
0.0 0.020074263028395312 0.015416332907427357 -0.014672245152680462 -0.0007440877547468973 -0.012886647148566865 0.0 0.0
0.0 0.02434464864791709 0.01913399840935584 -0.01835479090164755 -0.0007792075077083018 -0.013385402302393573 0.0 0.0
0.0 0.029305707332144645 0.023629628701305347 -0.02284361328061075 -0.0007860154206945951 -0.012897062769540755 0.0 0.0
0.0 0.03488731535408258 0.029081305073419196 -0.0282485975416416 -0.0008327075317776031 -0.009760559618733563 0.0 0.0
0.0 0.0348873153540814 0.029081305073416615 -0.02824859754163869 -0.0008327075317779365 0.009760559618754728 0.0 0.0
0.0 0.029305707332140992 0.023629628701298425 -0.022843613280603553 -0.0007860154206948658 0.01289706276957314 0.0 0.0
0.0 0.0243446486479099 0.01913399840934603 -0.018354790901638104 -0.0007792075077079195 0.013385402302415503 0.0 0.0
0.0 0.02007426302838586 0.015416332907418276 -0.014672245152671723 -0.0007440877547465511 0.012886647148570305 0.0 0.0
0.0 0.01627541740715317 0.012282109100618742 -0.01157600456678472 -0.0007061045338340192 0.011663061493679704 0.0 0.0
0.0 0.013020832561909843 0.009663980242828519 -0.00899818444423032 -0.0006657957985981971 0.010147836908712283 0.0 0.0
0.0 0.010244156701673234 0.007484302036761448 -0.0068680766105942105 -0.0006162254261672394 0.00859854746911902 0.0 0.0
0.0 0.007864698258862522 0.005643650066818018 -0.005090779363213581 -0.0005528707036044367 0.007076574896661327 0.0 0.0
0.0 0.00579781756093793 0.004055761325381032 -0.0035833213573828807 -0.00047243996799815213 0.005574539603381024 0.0 0.0
0.0 0.003932331842994536 0.002665685544435566 -0.002293630192527823 -0.000372055351907742 0.0041256197167874025 0.0 0.0
0.0 0.0023871343353692193 0.0014772107520641148 -0.0012326729936204608 -0.00024453775844365355 0.0027318576337003785 0.0 0.0
0.0 0.0011901076717856693 0.0006229629280668826 -0.0005051474081428578 -0.00011781551992402452 0.0015190020368306793 0.0 0.0
0.0 0.00046053173157148294 0.00019353801944367252 -0.00015466948193304322 -3.886853751062916e-05 0.0006761910588720076 0.0 0.0
0.0 0.00018063444622701117 5.199135835496118e-05 -4.1543560718402826e-05 -1.0447797636558345e-05 0.00024041788711914256 0.0 0.0
0.0 5.381763166639286e-05 9.923593056431878e-06 -7.88416248191598e-06 -2.0394305745158812e-06 5.711130166688291e-05 0.0 0.0
0.0 5.214382283350799e-06 4.495140747247215e-07 -3.292766674956489e-07 -1.202374072290745e-07 2.949139658533973e-06 0.0 0.0
0.0 1.3942118121365584e-06 -1.7202479827439693e-08 1.1633862327329383e-08 5.568617500112952e-09 -2.8828794930130727e-07 0.0 0.0
0.0 8.12960351106587e-07 -9.729788137991681e-10 -5.062304704954294e-10 1.479209284295063e-09 -1.667685109932312e-07 0.0 0.0
0.0 1.8030073045943297e-06 -4.1771911826671024e-09 1.0378638770354691e-08 -6.201447587687759e-09 -3.8291760613307903e-07 0.0 0.0
0.0 0.00019944260914063033 0.00010006130336182193 -0.00013824006933256742 3.81787659707454e-05 0.00016524071084001002 0.0 0.0
0.0 3.7203793073760095e-05 1.5372237352473794e-05 -2.213712952949263e-05 6.764892177018833e-06 -2.7071417752180442e-05 0.0 0.0
0.0 2.3409661729961703e-06 6.496376963596438e-10 1.3091562580591183e-08 -1.3741200276949575e-08 4.872012716183131e-07 0.0 0.0
0.0 8.28283976103979e-07 8.757322001854407e-09 -7.994197467743662e-09 -7.631245341108108e-10 1.6872916499049268e-07 0.0 0.0
0.0 1.0341171999299922e-06 3.4830124123105497e-09 -4.631541757330647e-09 1.1485293450206947e-09 2.129476539670559e-07 0.0 0.0
0.0 7.0141744001618765e-06 5.899134643658461e-08 -3.913999453686175e-08 -1.9851351899729252e-08 -1.4604362671682745e-06 0.0 0.0
0.0 4.9283329056268204e-05 3.0505746992612956e-06 -2.37371459451981e-06 -6.768601047414754e-07 -5.999479310633425e-05 0.0 0.0
0.0 0.00015420061164173277 1.5989981144912415e-05 -1.2736412339217968e-05 -3.25356880569446e-06 -0.0002339622381824309 0.0 0.0
0.0 0.00034434876055447624 4.348938257506045e-05 -3.477594709854036e-05 -8.71343547652004e-06 -0.0004988085491967432 0.0 0.0
0.0 0.00058443172284484 0.00010261209406511476 -8.245932172017495e-05 -2.0152772344939827e-05 -0.0009275195902114304 0.0 0.0
0.0 0.0010108210425347844 0.0002106650766599305 -0.0001704830540211244 -4.01820226388061e-05 -0.0015400560797007297 0.0 0.0
0.0 0.0015154668793558469 0.0004299716813671379 -0.0003460773403368699 -8.389434103026798e-05 -0.002428495206812107 0.0 0.0
0.0 0.0022589136611862837 0.0007456255898015696 -0.0006017333012250848 -0.00014389228857648488 -0.0034550392924812172 0.0 0.0
0.0 0.0031473107916594645 0.0011392379361061902 -0.0009268984637527087 -0.00021233947235348166 -0.00462466900462658 0.0 0.0
0.0 0.004256975614827673 0.0016528827912767187 -0.001374089383565365 -0.00027879340771135404 -0.005966814842808076 0.0 0.0
0.0 0.0056004812703308055 0.0023493844817195357 -0.002011496250233552 -0.00033788823148598376 -0.007473880470565179 0.0 0.0
0.0 0.007270291474551339 0.0033290259983706745 -0.002939846970568151 -0.0003891790278025214 -0.009040719449383455 0.0 0.0
0.0 0.009304092812348765 0.004793064997687097 -0.004357480195004176 -0.0004355848026829175 -0.010384883436702 0.0 0.0
0.0 0.011793452350797505 0.006964974876095418 -0.0064765228770419635 -0.0004884519990534522 -0.010990360688774483 0.0 0.0
0.0 0.015011547687519354 0.010040512852761783 -0.009512619085205546 -0.0005278937675562344 -0.01056707218946137 0.0 0.0
0.0 0.019746683324820664 0.0147286909890787 -0.014225170117275455 -0.0005035208718032465 -0.009259292646362875 0.0 0.0
0.0 0.01974668332482219 0.0147286909890784 -0.014225170117275067 -0.0005035208718033277 0.00925929264637904 0.0 0.0
0.0 0.015011547687522442 0.010040512852760872 -0.009512619085204713 -0.0005278937675561582 0.010567072189484543 0.0 0.0
0.0 0.011793452350796875 0.006964974876092322 -0.0064765228770389295 -0.0004884519990533879 0.01099036068878787 0.0 0.0
0.0 0.00930409281234343 0.004793064997683673 -0.004357480195000832 -0.0004355848026828383 0.01038488343669979 0.0 0.0
0.0 0.007270291474544911 0.003329025998367679 -0.0029398469705654087 -0.0003891790278022691 0.009040719449376133 0.0 0.0
0.0 0.005600481270325552 0.002349384481717256 -0.0020114962502314057 -0.00033788823148584964 0.007473880470558594 0.0 0.0
0.0 0.0042569756148241825 0.0016528827912757997 -0.001374089383564489 -0.00027879340771131143 0.005966814842802807 0.0 0.0
0.0 0.003147310791656497 0.001139237936105181 -0.0009268984637518798 -0.00021233947235330057 0.004624669004622561 0.0 0.0
0.0 0.002258913661181564 0.0007456255898003677 -0.0006017333012240145 -0.00014389228857635315 0.0034550392924738082 0.0 0.0
0.0 0.0015154668793515838 0.00042997168136589835 -0.0003460773403358913 -8.389434103000698e-05 0.0024284952068052085 0.0 0.0
0.0 0.0010108210425311577 0.00021066507665945742 -0.00017048305402069888 -4.018202263875859e-05 0.0015400560796955077 0.0 0.0
0.0 0.0005844317228430841 0.00010261209406484002 -8.24593217199904e-05 -2.0152772344849557e-05 0.0009275195902085878 0.0 0.0
0.0 0.00034434876055329695 4.348938257491145e-05 -3.4775947098434866e-05 -8.713435476476554e-06 0.000498808549194888 0.0 0.0
0.0 0.00015420061164031533 1.5989981144833156e-05 -1.2736412339144055e-05 -3.2535688056890985e-06 0.00023396223818120088 0.0 0.0
0.0 4.9283329055439386e-05 3.0505746992357215e-06 -2.3737145944979233e-06 -6.768601047378018e-07 5.9994793105810324e-05 0.0 0.0
0.0 7.014174400006745e-06 5.8991346453448513e-08 -3.9139994547784925e-08 -1.9851351905666963e-08 1.4604362678764197e-06 0.0 0.0
0.0 1.0341171994111593e-06 3.4830124097744975e-09 -4.63154175459075e-09 1.1485293448161685e-09 -2.1294765385734702e-07 0.0 0.0
0.0 8.282839756553083e-07 8.757321996808003e-09 -7.99419746324245e-09 -7.631245335657651e-10 -1.687291648967851e-07 0.0 0.0
0.0 2.340966172321822e-06 6.496376968874008e-10 1.3091562575233056e-08 -1.3741200272117913e-08 -4.87201271473837e-07 0.0 0.0
0.0 3.720379307292071e-05 1.5372237352487326e-05 -2.2137129529489638e-05 6.764892177002257e-06 2.7071417752373257e-05 0.0 0.0
0.0 1.746363269014452e-06 -1.080716133846742e-07 1.601080298073669e-07 -5.203641642269867e-08 2.3480853834527648e-07 0.0 0.0
0.0 1.9123188255993405e-06 6.1714549819844006e-09 4.6147839292784756e-09 -1.0786238911258017e-08 3.8895708384930174e-07 0.0 0.0
0.0 1.1324841838398629e-06 -2.0396477026518506e-09 7.519093663156123e-10 1.2877383363375548e-09 -9.035081241221435e-09 0.0 0.0
0.0 1.734389115730626e-06 -3.426272551337574e-08 2.642407399801066e-08 7.838651515365196e-09 -3.147858745448002e-07 0.0 0.0
0.0 9.953805422042497e-06 -2.824057047961973e-07 2.6187735011953544e-07 2.052835467667127e-08 -4.775443298677871e-06 0.0 0.0
0.0 5.4265484100049784e-05 -3.980363960959009e-06 3.271720077826846e-06 7.086438831321566e-07 -6.0456375825605464e-05 0.0 0.0
0.0 0.0001561499679239918 -1.6883005208345434e-05 1.3574593691545599e-05 3.308411516799829e-06 -0.000235583333837003 0.0 0.0
0.0 0.00034526818173335366 -4.352733352376975e-05 3.4801823794944296e-05 8.725509728825404e-06 -0.0004995148787199742 0.0 0.0
0.0 0.0005842401875251343 -0.0001023434156854429 8.22238682334416e-05 2.0119547452001312e-05 -0.0009278120269163477 0.0 0.0
0.0 0.0010094283679698928 -0.00021011631839945238 0.00016990763423483136 4.0208684164621094e-05 -0.0015385340270611552 0.0 0.0
0.0 0.0015211086729664451 -0.0004271842590452111 0.00034445695886957503 8.27273001756359e-05 -0.0024247552438206735 0.0 0.0
0.0 0.002264028117209537 -0.000752049338922734 0.0006079030051487244 0.00014414633377400979 -0.0034570459858474386 0.0 0.0
0.0 0.0031660795176534163 -0.0011639333130492053 0.0009500438099179405 0.0002138895031312646 -0.004632963083485028 0.0 0.0
0.0 0.004289761478157256 -0.0016938705390389256 0.0014101592153324218 0.0002837113237065029 -0.005975020928222917 0.0 0.0
0.0 0.005562717358361282 -0.0023034058214961607 0.0019537902182862154 0.0003496156032099442 -0.007475561459910236 0.0 0.0
0.0 0.006901812591851534 -0.0028217368406297876 0.002412570316402747 0.00040916652422703795 -0.009092361110941244 0.0 0.0
0.0 0.008038319223210137 -0.0029700869248818207 0.002513942745445699 0.0004561441794361215 -0.010817792756546984 0.0 0.0
0.0 0.008809516834772364 -0.002465822591955051 0.0019754259377596766 0.0004903966541953732 -0.012665434385098085 0.0 0.0
0.0 0.009129463225057985 -0.0013207319736786081 0.0009102668493516225 0.0004104651243269854 -0.014215126045848691 0.0 0.0
0.0 0.008699615863406571 0.002031370913822551 -0.0021218030778439303 9.043216402137926e-05 -0.012759639851705726 0.0 0.0
0.0 0.00869961586341025 0.0020313709138224997 -0.0021218030778441133 9.043216402161453e-05 0.012759639851716275 0.0 0.0
0.0 0.009129463225059559 -0.0013207319736777698 0.0009102668493510608 0.0004104651243267077 0.014215126045856834 0.0 0.0
0.0 0.008809516834772093 -0.0024658225919554693 0.001975425937760636 0.0004903966541948329 0.012665434385099286 0.0 0.0
0.0 0.008038319223205538 -0.002970086924880647 0.002513942745445097 0.0004561441794355503 0.010817792756539144 0.0 0.0
0.0 0.006901812591845901 -0.0028217368406269466 0.0024125703164004334 0.0004091665242265121 0.009092361110933842 0.0 0.0
0.0 0.005562717358354159 -0.0023034058214923625 0.001953790218282812 0.0003496156032095492 0.007475561459903236 0.0 0.0
0.0 0.0042897614781517825 -0.001693870539036389 0.0014101592153302998 0.00028371132370608903 0.00597502092821668 0.0 0.0
0.0 0.0031660795176475806 -0.0011639333130457584 0.00095004380991523 0.0002138895031305282 0.004632963083480508 0.0 0.0
0.0 0.0022640281172027835 -0.0007520493389193551 0.000607903005145842 0.00014414633377351317 0.0034570459858389493 0.0 0.0
0.0 0.0015211086729604649 -0.00042718425904265933 0.0003444569588674588 8.272730017520076e-05 0.0024247552438123937 0.0 0.0
0.0 0.0010094283679653868 -0.00021011631839841657 0.00016990763423385325 4.020868416456327e-05 0.0015385340270554076 0.0 0.0
0.0 0.0005842401875233599 -0.00010234341568495834 8.222386823302216e-05 2.0119547451936175e-05 0.0009278120269139126 0.0 0.0
0.0 0.0003452681817318388 -4.352733352351167e-05 3.480182379472707e-05 8.725509728784567e-06 0.0004995148787181644 0.0 0.0
0.0 0.00015614996792274915 -1.6883005208300965e-05 1.3574593691533254e-05 3.3084115167677094e-06 0.0002355833338363141 0.0 0.0
0.0 5.4265484099238306e-05 -3.980363960935896e-06 3.271720077811727e-06 7.086438831241787e-07 6.0456375825317785e-05 0.0 0.0
0.0 9.953805421739608e-06 -2.8240570484434127e-07 2.6187735016127506e-07 2.0528354683062358e-08 4.77544329936935e-06 0.0 0.0
0.0 1.734389115481487e-06 -3.426272556375121e-08 2.6424074039755474e-08 7.838651523996147e-09 3.147858750531272e-07 0.0 0.0
0.0 1.1324841835152314e-06 -2.0396477618268826e-09 7.519094147149888e-10 1.2877383471123686e-09 9.035081849323725e-09 0.0 0.0
0.0 1.9123188250146794e-06 6.171454966831536e-09 4.61478392936193e-09 -1.0786238896188575e-08 -3.889570833359948e-07 0.0 0.0
0.0 1.7463632684856744e-06 -1.0807161335057875e-07 1.601080297566021e-07 -5.2036416406020456e-08 -2.3480853827189452e-07 0.0 0.0
0.0 0.0 0.0 0.0 0.0 0.0 0.0 0.0
0.0 3.3206270015814023e-07 3.228124362425176e-09 -1.4545472289870203e-09 -1.773577133437446e-09 6.641880132428198e-08 0.0 0.0
0.0 1.4757096058646086e-06 -5.042358733278197e-08 3.9705942243262753e-08 1.071764508951822e-08 -3.3909016321690117e-07 0.0 0.0
0.0 4.7567242102009705e-06 8.586580532441724e-08 -6.589115752284112e-08 -1.9974647801562612e-08 4.1962479055410535e-07 0.0 0.0
0.0 1.3739130231049403e-05 -1.976770317521907e-06 1.6628470920341722e-06 3.1392322548774184e-07 -1.2243715862182017e-05 0.0 0.0
0.0 6.340529668787627e-05 -1.3885258667755198e-05 1.1139614020406583e-05 2.745644647348575e-06 -7.354472496868414e-05 0.0 0.0
0.0 0.00018930154301152578 -5.351738908717849e-05 4.2901603785415716e-05 1.0615785301762794e-05 -0.0002448451293960239 0.0 0.0
0.0 0.0004628257842263109 -0.0001941926309125446 0.0001551958483333441 3.899678257920052e-05 -0.000678459238218498 0.0 0.0
0.0 0.0011874704593905331 -0.000621918463338926 0.0005042147969622246 0.00011770366637670118 -0.0015179346203909308 0.0 0.0
0.0 0.0023840651821086943 -0.0014755537368412346 0.0012312489015236165 0.00024430483531761736 -0.0027299353944216006 0.0 0.0
0.0 0.00393307998252779 -0.0026667654043175844 0.0022950870402428363 0.00037167836407474725 -0.004125595521197415 0.0 0.0
0.0 0.00580896904966008 -0.004067678791191963 0.003595732189707966 0.00047194660148399797 -0.005574270678279701 0.0 0.0
0.0 0.007895353677874072 -0.005677753910815368 0.00512506125308755 0.0005526926577278154 -0.007064757715345307 0.0 0.0
0.0 0.010287921396169263 -0.007532352704691773 0.006912522622260564 0.000619830082431211 -0.008578583917613663 0.0 0.0
0.0 0.012977894084775746 -0.0096079386621135 0.008928367155979463 0.000679571506134032 -0.010189762765180408 0.0 0.0
0.0 0.015797319745763427 -0.011730162692526941 0.010995708864342353 0.000734453828184587 -0.011992820435064512 0.0 0.0
0.0 0.01841369423147443 -0.013533474462279146 0.012749422314582745 0.0007840521476964021 -0.014044915955361921 0.0 0.0
0.0 0.020230863461437768 -0.014497105847716935 0.013674971019487545 0.0008221348282293963 -0.016247033981165147 0.0 0.0
0.0 0.019788138113792545 -0.013640341301277632 0.012725119137742064 0.0009152221635355635 -0.017116482904817598 0.0 0.0
0.0 0.015046487981707803 -0.008991232877370765 0.00802410389625883 0.0009671289811119293 -0.014516600388565533 0.0 0.0
0.0 0.015046487981715019 -0.008991232877372283 0.008024103896260322 0.000967128981111963 0.014516600388585287 0.0 0.0
0.0 0.01978813811379735 -0.013640341301276573 0.01272511913774106 0.0009152221635355115 0.01711648290484219 0.0 0.0
0.0 0.02023086346143431 -0.01449710584771043 0.013674971019481275 0.0008221348282291478 0.016247033981181696 0.0 0.0
0.0 0.018413694231460893 -0.013533474462267431 0.012749422314571178 0.000784052147696253 0.01404491595535945 0.0 0.0
0.0 0.01579731974574778 -0.011730162692514243 0.010995708864330149 0.0007344538281840948 0.01199282043505576 0.0 0.0
0.0 0.012977894084761389 -0.00960793866210216 0.008928367155968614 0.0006795715061335417 0.010189762765171367 0.0 0.0
0.0 0.01028792139615323 -0.007532352704679276 0.006912522622248309 0.000619830082430966 0.008578583917603877 0.0 0.0
0.0 0.007895353677859929 -0.005677753910803593 0.005125061253076138 0.0005526926577274499 0.007064757715338174 0.0 0.0
0.0 0.005808969049646189 -0.004067678791181518 0.0035957321896982457 0.00047194660148327096 0.00557427067826971 0.0 0.0
0.0 0.003933079982513327 -0.002666765404307489 0.0022950870402336215 0.0003716783640738678 0.004125595521184804 0.0 0.0
0.0 0.0023840651820977777 -0.0014755537368341788 0.0012312489015174827 0.0002443048353166956 0.0027299353944107117 0.0 0.0
0.0 0.001187470459384776 -0.0006219184633350692 0.0005042147969590447 0.00011770366637602433 0.001517934620385099 0.0 0.0
0.0 0.0004628257842236375 -0.00019419263091127238 0.00015519584833234283 3.899678257892952e-05 0.0006784592382153307 0.0 0.0
0.0 0.00018930154300984242 -5.351738908690369e-05 4.2901603785207786e-05 1.0615785301695827e-05 0.00024484512939487187 0.0 0.0
0.0 6.340529668664486e-05 -1.3885258667671345e-05 1.1139614020337758e-05 2.7456446473335754e-06 7.354472496823507e-05 0.0 0.0
0.0 1.3739130230638378e-05 -1.9767703175743337e-06 1.6628470920782757e-06 3.139232254960414e-07 1.2243715862511685e-05 0.0 0.0
0.0 4.756724209896255e-06 8.586580527146026e-08 -6.589115747702943e-08 -1.997464779442696e-08 -4.1962479018488263e-07 0.0 0.0
0.0 1.4757096055855447e-06 -5.042358739631655e-08 3.970594229465235e-08 1.0717645101664079e-08 3.3909016367588894e-07 0.0 0.0
0.0 3.3206269971330245e-07 3.2281243589135146e-09 -1.4545472286881782e-09 -1.7735771302251563e-09 -6.64188012348373e-08 0.0 0.0
0.0 0.0 0.0 0.0 0.0 0.0 0.0 0.0
0.0 0.0 0.0 0.0 0.0 0.0 0.0 0.0
0.0 9.659038647247042e-07 1.536493391610939e-08 -9.441890028047111e-09 -5.923043888061976e-09 1.9697054502569396e-07 0.0 0.0
0.0 2.3595770756542535e-06 8.103527067074457e-08 -6.628456757845172e-08 -1.4750703092293867e-08 4.821090557083344e-07 0.0 0.0
0.0 6.5906872819304125e-06 3.108815427979235e-07 -2.5702362177301864e-07 -5.385792102489637e-08 1.4093816020137892e-06 0.0 0.0
0.0 1.9689833718411336e-05 -4.323565045967924e-06 3.481887619712086e-06 8.416774262558507e-07 -1.5373298617983168e-05 0.0 0.0
0.0 8.161103490543774e-05 -2.744459791772088e-05 2.205638487557389e-05 5.388213042146966e-06 -8.581650440037536e-05 0.0 0.0
0.0 0.000312239047364334 -0.0001540102839667673 0.00012328081127463983 3.0729472692127475e-05 -0.0003775715899786113 0.0 0.0
0.0 0.0010686957033654782 -0.000678204155347977 0.000551409411395493 0.0001267947439524841 -0.0011937530731212051 0.0 0.0
0.0 0.0026247897244835337 -0.001837089600266342 0.0015479473225809286 0.0002891422776854129 -0.002496042767011731 0.0 0.0
0.0 0.004702741455331901 -0.003575339970541549 0.0031241428938993117 0.0004511970766422369 -0.004122436623496959 0.0 0.0
0.0 0.007371828086252051 -0.005689876895598867 0.005119915948387243 0.0005699609472116261 -0.005866692505863334 0.0 0.0
0.0 0.010266164274760528 -0.008099561613357249 0.007443758928613445 0.000655802684743801 -0.007580879001993303 0.0 0.0
0.0 0.013563517067929718 -0.010830297421857978 0.01010734755004855 0.0007229498718094307 -0.009259938672533729 0.0 0.0
0.0 0.017364678023990825 -0.013966439908340603 0.013184999375752723 0.0007814405325878753 -0.010981978063800194 0.0 0.0
0.0 0.0217469957062445 -0.01752432562996989 0.01668520663752889 0.0008391189924409938 -0.012913429626911839 0.0 0.0
0.0 0.0264492948058755 -0.021325394157687572 0.0204265311235917 0.0008988630340958665 -0.015287192386798501 0.0 0.0
0.0 0.031107740952415065 -0.02491360772825844 0.02395474809365273 0.0009588596346056996 -0.018287987794308024 0.0 0.0
0.0 0.034432278656347806 -0.02742541672473768 0.026389282369368192 0.0010361343553694888 -0.02140462249994613 0.0 0.0
0.0 0.03472638259130512 -0.027252171324254275 0.026118597316402627 0.0011335740078516482 -0.022964037363634865 0.0 0.0
0.0 0.027881560503859038 -0.02152981354458734 0.02021256531474186 0.0013172482298454686 -0.019417620524805734 0.0 0.0
0.0 0.027881560503865956 -0.021529813544588577 0.020212565314742942 0.0013172482298456317 0.01941762052483097 0.0 0.0
0.0 0.03472638259130963 -0.027252171324251832 0.026118597316400406 0.001133574007851414 0.022964037363668942 0.0 0.0
0.0 0.03443227865633958 -0.027425416724726516 0.026389282369357166 0.0010361343553693452 0.021404622499966858 0.0 0.0
0.0 0.03110774095239604 -0.02491360772824091 0.023954748093635604 0.0009588596346053111 0.018287987794309624 0.0 0.0
0.0 0.02644929480585165 -0.02132539415766754 0.020426531123571883 0.0008988630340956568 0.015287192386789255 0.0 0.0
0.0 0.021746995706223692 -0.01752432562995272 0.016685206637511926 0.0008391189924407882 0.012913429626902121 0.0 0.0
0.0 0.017364678023972305 -0.013966439908325192 0.01318499937573776 0.0007814405325874297 0.010981978063791089 0.0 0.0
0.0 0.013563517067907514 -0.010830297421839098 0.010107347550029979 0.0007229498718091125 0.009259938672524762 0.0 0.0
0.0 0.010266164274737028 -0.00809956161333813 0.007443758928594783 0.000655802684743346 0.007580879001979727 0.0 0.0
0.0 0.007371828086230454 -0.005689876895581782 0.00511991594837098 0.0005699609472108021 0.005866692505847856 0.0 0.0
0.0 0.004702741455312501 -0.0035753399705268666 0.0031241428938855696 0.0004511970766412971 0.00412243662348164 0.0 0.0
0.0 0.002624789724471625 -0.0018370896002571787 0.0015479473225727064 0.00028914227768447203 0.002496042767002539 0.0 0.0
0.0 0.0010686957033588405 -0.000678204155343396 0.0005514094113917267 0.00012679474395166932 0.0011937530731153307 0.0 0.0
0.0 0.000312239047361299 -0.0001540102839656076 0.0001232808112737157 3.072947269189187e-05 0.0003775715899761113 0.0 0.0
0.0 8.161103490394799e-05 -2.7444597917636704e-05 2.2056384875501698e-05 5.388213042134957e-06 8.58165043999328e-05 0.0 0.0
0.0 1.968983371780405e-05 -4.323565046030994e-06 3.481887619762209e-06 8.41677426268742e-07 1.5373298618218027e-05 0.0 0.0
0.0 6.590687281374371e-06 3.1088154276881837e-07 -2.570236217490074e-07 -5.385792101982278e-08 -1.4093816018841068e-06 0.0 0.0
0.0 2.3595770750547986e-06 8.103527064889636e-08 -6.628456756069521e-08 -1.4750703088195763e-08 -4.821090555798598e-07 0.0 0.0
0.0 9.659038644330307e-07 1.5364933911636078e-08 -9.441890025310556e-09 -5.923043886328447e-09 -1.969705449648645e-07 0.0 0.0
0.0 0.0 0.0 0.0 0.0 0.0 0.0 0.0
0.0 0.0 0.0 0.0 0.0 0.0 0.0 0.0
0.0 0.0 0.0 0.0 0.0 0.0 0.0 0.0
0.0 1.762862297087584e-06 7.425115861487428e-08 -6.029149643128876e-08 -1.3959662183589334e-08 3.448992119798501e-07 0.0 0.0
0.0 5.631795685873164e-06 -1.4824425064953943e-07 1.3403771441117517e-07 1.420653623836041e-08 -5.775398407694789e-07 0.0 0.0
0.0 2.659038185849242e-05 -6.769699547283736e-06 5.517362924699575e-06 1.2523366225841926e-06 -1.7561945908252493e-05 0.0 0.0
0.0 0.00013168059715511107 -6.522823641865255e-05 5.218140718996382e-05 1.3046829228688734e-05 -0.0001338756000954932 0.0 0.0
0.0 0.0006560109663141711 -0.00043065478908407807 0.0003480730552848315 8.25817337992467e-05 -0.0006467620069006213 0.0 0.0
0.0 0.0020406576759404342 -0.001517477682185652 0.0012667962981760658 0.0002506813840095863 -0.0017349112841869834 0.0 0.0
0.0 0.0043447793963692855 -0.0034100607093036444 0.002968294195746472 0.0004417665135571726 -0.0032787676374511038 0.0 0.0
0.0 0.007341505118334053 -0.005945311838055675 0.005355496264064718 0.0005898155739909565 -0.005121494173413875 0.0 0.0
0.0 0.010894481461095066 -0.00892979807521797 0.008239462259127084 0.000690335816090886 -0.007017980215259742 0.0 0.0
0.0 0.014937175714710654 -0.012316988244681387 0.011549617940947568 0.0007673703037338142 -0.008837354513233439 0.0 0.0
0.0 0.019543120453531432 -0.016169375199401797 0.015337638534324034 0.000831736665077763 -0.010623861999526947 0.0 0.0
0.0 0.024782086639741897 -0.020605161726496166 0.01971317829364596 0.000891983432850202 -0.01248297615074346 0.0 0.0
0.0 0.030826853588459657 -0.025676569003402497 0.02472318627015261 0.0009533827332498681 -0.014617891817874146 0.0 0.0
0.0 0.03750363739376725 -0.031215460096678 0.03019319507606245 0.001022265020615537 -0.017387333829434488 0.0 0.0
0.0 0.04408367540081824 -0.03661281784748223 0.03550898568652086 0.0011038321609613626 -0.021015202999359214 0.0 0.0
0.0 0.049119239204533593 -0.040568505343866364 0.03936474392471735 0.0012037614191489753 -0.02491632604333906 0.0 0.0
0.0 0.04976202174084088 -0.04082023163601395 0.03948182702363341 0.0013384046123805118 -0.027060006093322573 0.0 0.0
0.0 0.0412213458196943 -0.033567536794388175 0.03202702875753349 0.0015405080368546807 -0.023908120737003477 0.0 0.0
0.0 0.041221345819697046 -0.03356753679438586 0.032027028757531 0.001540508036854855 0.023908120737032176 0.0 0.0
0.0 0.049762021740839796 -0.04082023163600732 0.03948182702362704 0.001338404612380275 0.027060006093358787 0.0 0.0
0.0 0.04911923920452174 -0.04056850534385149 0.039364743924703155 0.0012037614191483179 0.02491632604336657 0.0 0.0
0.0 0.04408367540079442 -0.036612817847460004 0.035508985686499475 0.0011038321609605037 0.02101520299936388 0.0 0.0
0.0 0.03750363739373917 -0.031215460096653457 0.030193195076038945 0.0010222650206144909 0.017387333829427153 0.0 0.0
0.0 0.030826853588431232 -0.025676569003378016 0.024723186270128827 0.0009533827332491861 0.01461789181786534 0.0 0.0
0.0 0.024782086639712052 -0.020605161726471068 0.01971317829362128 0.0008919834328497858 0.012482976150730754 0.0 0.0
0.0 0.01954312045350335 -0.016169375199377698 0.015337638534300393 0.0008317366650773062 0.010623861999517932 0.0 0.0
0.0 0.014937175714682664 -0.012316988244657705 0.011549617940924545 0.0007673703037331609 0.00883735451321983 0.0 0.0
0.0 0.010894481461067595 -0.008929798075195495 0.008239462259105202 0.0006903358160902951 0.007017980215242956 0.0 0.0
0.0 0.007341505118310325 -0.00594531183803673 0.005355496264046502 0.0005898155739902281 0.0051214941733968835 0.0 0.0
0.0 0.004344779396353048 -0.0034100607092907016 0.0029682941957345855 0.00044176651355611616 0.003278767637441099 0.0 0.0
0.0 0.0020406576759296083 -0.0015174776821772257 0.0012667962981688095 0.0002506813840084164 0.0017349112841793194 0.0 0.0
0.0 0.0006560109663084554 -0.0004306547890804462 0.00034807305528184417 8.258173379860208e-05 0.0006467620068958664 0.0 0.0
0.0 0.00013168059715335754 -6.522823641836272e-05 5.2181407189721876e-05 1.3046829228640863e-05 0.0001338756000947827 0.0 0.0
0.0 2.6590381857560384e-05 -6.7696995473388935e-06 5.517362924743582e-06 1.2523366225952665e-06 1.7561945908393703e-05 0.0 0.0
0.0 5.631795685369224e-06 -1.4824425076314563e-07 1.3403771450434684e-07 1.420653625878859e-08 5.775398411508205e-07 0.0 0.0
0.0 1.7628622966370727e-06 7.425115859493936e-08 -6.029149641515662e-08 -1.3959662179784548e-08 -3.4489921188806817e-07 0.0 0.0
0.0 0.0 0.0 0.0 0.0 0.0 0.0 0.0
0.0 0.0 0.0 0.0 0.0 0.0 0.0 0.0
0.0 0.0 0.0 0.0 0.0 0.0 0.0 0.0
0.0 0.0 0.0 0.0 0.0 0.0 0.0 0.0
0.0 6.301117771691601e-07 3.177133557320747e-08 -2.5610055499987776e-08 -6.161280073216576e-09 1.139376708674144e-07 0.0 0.0
0.0 7.479034888138472e-06 5.4592668232219e-07 -4.381286801518101e-07 -1.0779800217037303e-07 1.3945185929680183e-06 0.0 0.0
0.0 4.0466296376663596e-05 -7.670023281227546e-06 6.196189133944084e-06 1.4738341472834647e-06 -1.3768794988065859e-05 0.0 0.0
0.0 0.0002655289308614939 -0.00017117982735675015 0.0001373458111620302 3.383401619471991e-05 -0.00023488886893239435 0.0 0.0
0.0 0.001228897693256815 -0.00091425062253408 0.0007501035528691804 0.00016414706966489946 -0.0009176629212189171 0.0 0.0
0.0 0.0032299547297016647 -0.0025931672811196783 0.002220550017813351 0.000372617263306327 -0.0021263886006842843 0.0 0.0
0.0 0.006218080623538726 -0.005170355931537861 0.00461460178878501 0.0005557541427528517 -0.003777912763182336 0.0 0.0
0.0 0.010043449375852038 -0.008438132197044626 0.007755660693705061 0.0006824715033395629 -0.005647349120775895 0.0 0.0
0.0 0.014557455573278082 -0.01226553650086292 0.0114912213987069 0.0007743151021560175 -0.007529299784185241 0.0 0.0
0.0 0.019721469410976168 -0.01663549811257243 0.01578530596507754 0.0008501921474948921 -0.009362805873431879 0.0 0.0
0.0 0.02559732157961671 -0.021624042685765038 0.020705527679384703 0.0009185150063803226 -0.0111844359897988 0.0 0.0
0.0 0.032349856821693015 -0.027366775508546375 0.026383182046134046 0.0009835934624123268 -0.013076388412187516 0.0 0.0
0.0 0.0401485482716657 -0.0339602234218231 0.03290925451744078 0.0010509689043823305 -0.015248549087626144 0.0 0.0
0.0 0.04860083202914574 -0.04123974779391806 0.04010915393368394 0.0011305938602341077 -0.01807405859404975 0.0 0.0
0.0 0.057289421640900146 -0.048417565851181316 0.047185234220838826 0.0012323316303425112 -0.02184725723934998 0.0 0.0
0.0 0.06386577653129165 -0.05373896396202945 0.052378286452718734 0.0013606775093107214 -0.026172287155108685 0.0 0.0
0.0 0.06472179789700078 -0.054208361210781285 0.05268706753852883 0.0015212936722524234 -0.029152135469453777 0.0 0.0
0.0 0.05461721443362291 -0.045353137400531304 0.04363889237758649 0.0017142450229448098 -0.027990765053436707 0.0 0.0
0.0 0.054617214433622274 -0.045353137400526426 0.043638892377581055 0.0017142450229453573 0.02799076505346694 0.0 0.0
0.0 0.06472179789699403 -0.05420836121077037 0.052687067538517936 0.0015212936722524308 0.02915213546949203 0.0 0.0
0.0 0.06386577653127351 -0.053738963962009945 0.052378286452699305 0.0013606775093106466 0.02617228715513803 0.0 0.0
0.0 0.05728942164086718 -0.04841756585115189 0.04718523422080883 0.0012323316303430383 0.02184725723935523 0.0 0.0
0.0 0.04860083202910825 -0.041239747793885825 0.04010915393365139 0.0011305938602344278 0.01807405859404325 0.0 0.0
0.0 0.040148548271627914 -0.033960223421790614 0.03290925451740824 0.0010509689043823882 0.015248549087617275 0.0 0.0
0.0 0.03234985682165631 -0.027366775508515042 0.026383182046102856 0.000983593462412178 0.013076388412175174 0.0 0.0
0.0 0.025597321579582936 -0.021624042685735617 0.02070552767935598 0.0009185150063796374 0.011184435989789722 0.0 0.0
0.0 0.01972146941094082 -0.016635498112542082 0.0157853059650476 0.0008501921474944759 0.009362805873419078 0.0 0.0
0.0 0.014557455573243738 -0.012265536500834218 0.011491221398678511 0.0007743151021557025 0.0075292997841674555 0.0 0.0
0.0 0.01004344937582307 -0.008438132197020297 0.007755660693681358 0.0006824715033389427 0.005647349120758414 0.0 0.0
0.0 0.0062180806235173575 -0.005170355931519903 0.00461460178876782 0.0005557541427520838 0.0037779127631711773 0.0 0.0
0.0 0.0032299547296873706 -0.002593167281107946 0.002220550017802697 0.000372617263305249 0.0021263886006761433 0.0 0.0
0.0 0.001228897693248855 -0.0009142506225281711 0.0007501035528643073 0.00016414706966386367 0.0009176629212139066 0.0 0.0
0.0 0.0002655289308585661 -0.00017117982735541485 0.00013734581116094674 3.383401619446809e-05 0.00023488886893063788 0.0 0.0
0.0 4.04662963759118e-05 -7.670023281493533e-06 6.196189134150908e-06 1.4738341473425233e-06 1.376879498851846e-05 0.0 0.0
0.0 7.479034887487536e-06 5.459266822702636e-07 -4.3812868011058e-07 -1.0779800215968128e-07 -1.3945185928411796e-06 0.0 0.0
0.0 6.301117768796378e-07 3.177133555832444e-08 -2.5610055487985994e-08 -6.161280070339225e-09 -1.1393767081387647e-07 0.0 0.0
0.0 0.0 0.0 0.0 0.0 0.0 0.0 0.0
0.0 0.0 0.0 0.0 0.0 0.0 0.0 0.0
0.0 0.0 0.0 0.0 0.0 0.0 0.0 0.0
0.0 0.0 0.0 0.0 0.0 0.0 0.0 0.0
0.0 9.159772724021529e-07 5.630253744311479e-08 -4.536700834069255e-08 -1.0935529102421052e-08 1.5681455061216043e-07 0.0 0.0
0.0 3.6499130375786427e-06 2.443337404273526e-07 -1.945136292978826e-07 -4.982011112942882e-08 4.815244143757611e-07 0.0 0.0
0.0 6.295051813114404e-05 -2.8321888553955947e-05 2.2628027839737827e-05 5.693860714218137e-06 -3.7386047739959505e-05 0.0 0.0
0.0 0.0005358571682251974 -0.00037995668587975575 0.00030634895077518077 7.36077351045752e-05 -0.00035086292209547074 0.0 0.0
0.0 0.0020148867638401556 -0.0015720504613794943 0.0013138793827475745 0.00025817107863191973 -0.0011010295375097317 0.0 0.0
0.0 0.004503627128658372 -0.003834418227913729 0.003357634874324753 0.0004767833535889762 -0.0023335109579745287 0.0 0.0
0.0 0.008172318934232758 -0.00702194405115241 0.006384905702424009 0.0006370383487283995 -0.003921446743322586 0.0 0.0
0.0 0.012816248671062066 -0.010988973573390627 0.010238548294327477 0.0007504252790631566 -0.005670279829287332 0.0 0.0
0.0 0.018295779492407488 -0.01565807224769931 0.014817939327193417 0.0008401329205058891 -0.0074620874462520545 0.0 0.0
0.0 0.024566559078848346 -0.021020928949591927 0.020101477042040208 0.0009194519075517063 -0.009212090495866193 0.0 0.0
0.0 0.03179246510562683 -0.027159822908166344 0.026165523235404352 0.0009942996727619823 -0.010966830684787559 0.0 0.0
0.0 0.039940655414428004 -0.034218408901012694 0.033152217075611064 0.0010661918254016285 -0.012820001805573354 0.0 0.0
0.0 0.04937240312792782 -0.04230367272974163 0.041163964010428246 0.0011397087193133835 -0.014852078886077228 0.0 0.0
0.0 0.05991939249516579 -0.05125766065338673 0.05002830362918268 0.001229357024204054 -0.017338696590279354 0.0 0.0
0.0 0.07023996140931174 -0.060163901441412926 0.058814087507607166 0.0013498139338057377 -0.02078858760209023 0.0 0.0
0.0 0.07814953116418806 -0.06681092259911411 0.06530567946046167 0.0015052431386524292 -0.025252034140084385 0.0 0.0
0.0 0.079399267734658 -0.06751113611849831 0.0658278792710838 0.0016832568474144808 -0.029579106374618296 0.0 0.0
0.0 0.068316250092841 -0.057223153341418254 0.055352598309587164 0.0018705550318310518 -0.031913989373046 0.0 0.0
0.0 0.06831625009283966 -0.057223153341412966 0.055352598309581835 0.0018705550318310945 0.031913989373076546 0.0 0.0
0.0 0.07939926773464626 -0.06751113611848378 0.06582787927106924 0.0016832568474145107 0.029579106374658 0.0 0.0
0.0 0.07814953116416395 -0.06681092259909013 0.0653056794604381 0.0015052431386520194 0.02525203414011309 0.0 0.0
0.0 0.07023996140927777 -0.06016390144138186 0.05881408750757759 0.0013498139338042634 0.020788587602097907 0.0 0.0
0.0 0.05991939249512443 -0.0512576606533503 0.05002830362914713 0.001229357024203147 0.017338696590276786 0.0 0.0
0.0 0.049372403127884296 -0.0423036727297036 0.0411639640103909 0.0011397087193126738 0.01485207888607119 0.0 0.0
0.0 0.03994065541438421 -0.03421840890097471 0.03315221707557359 0.0010661918254011192 0.012820001805563856 0.0 0.0
0.0 0.031792465105583936 -0.02715982290812888 0.026165523235367215 0.0009942996727616497 0.01096683068477845 0.0 0.0
0.0 0.0245665590788055 -0.021020928949554703 0.02010147704200345 0.0009194519075512429 0.009212090495853854 0.0 0.0
0.0 0.01829577949236833 -0.015658072247665827 0.014817939327160502 0.0008401329205053213 0.0074620874462356206 0.0 0.0
0.0 0.012816248671029087 -0.010988973573362556 0.010238548294300053 0.0007504252790624966 0.005670279829271187 0.0 0.0
0.0 0.008172318934208897 -0.0070219440511316115 0.006384905702404144 0.0006370383487274649 0.00392144674331213 0.0 0.0
0.0 0.004503627128639908 -0.0038344182278977164 0.0033576348743099135 0.0004767833535878014 0.002333510957966164 0.0 0.0
0.0 0.0020148867638284692 -0.0015720504613700916 0.0013138793827393623 0.0002581710786307296 0.0011010295375036385 0.0 0.0
0.0 0.0005358571682201774 -0.0003799566858764198 0.00030634895077246815 7.360773510395159e-05 0.00035086292209265404 0.0 0.0
0.0 6.295051813011429e-05 -2.832188855404946e-05 2.2628027839799203e-05 5.693860714250275e-06 3.738604774001264e-05 0.0 0.0
0.0 3.6499130372347384e-06 2.443337402505015e-07 -1.945136291574413e-07 -4.982011109308278e-08 -4.815244140498247e-07 0.0 0.0
0.0 9.159772720464821e-07 5.630253742091469e-08 -4.5367008322703315e-08 -1.0935529098212496e-08 -1.5681455054918204e-07 0.0 0.0
0.0 0.0 0.0 0.0 0.0 0.0 0.0 0.0
0.0 0.0 0.0 0.0 0.0 0.0 0.0 0.0
0.0 0.0 0.0 0.0 0.0 0.0 0.0 0.0
0.0 0.0 0.0 0.0 0.0 0.0 0.0 0.0
0.0 0.0 0.0 0.0 0.0 0.0 0.0 0.0
0.0 3.662063484168769e-06 -4.4153136574293105e-07 3.455010490035713e-07 9.603031673937829e-08 -5.674611420016904e-07 0.0 0.0
0.0 0.00012276595230579633 -7.047259130644413e-05 5.646726967561016e-05 1.4005321630834098e-05 -6.653936433969221e-05 0.0 0.0
0.0 0.0009544548203256219 -0.0007093216828913912 0.0005780886010050426 0.0001312330818863489 -0.0004420459648841831 0.0 0.0
0.0 0.002760114180499267 -0.002395346818370305 0.0020408076284724845 0.00035453918989782166 -0.0011924475509765273 0.0 0.0
0.0 0.005872494544242791 -0.005158829327259586 0.00460286161988859 0.0005559677073709957 -0.002301783224169019 0.0 0.0
0.0 0.01022621111443885 -0.008909896924854761 0.008212196664697437 0.000697700260157321 -0.003680256797909062 0.0 0.0
0.0 0.015643108840404037 -0.013573386934450028 0.012769252897126611 0.0008041340373234214 -0.005236413248051883 0.0 0.0
0.0 0.022067000878119004 -0.019083896303985673 0.018188682495265743 0.0008952138087199247 -0.006834272127990011 0.0 0.0
0.0 0.029484502594336198 -0.02544885782016574 0.024468327728730553 0.0009805300914351718 -0.00840175243335038 0.0 0.0
0.0 0.03797384769800046 -0.0327564825613268 0.03169367518367736 0.0010628073776494285 -0.010002343183368678 0.0 0.0
0.0 0.047722373835321345 -0.041132055298337585 0.03998812769439366 0.0011439276039439169 -0.011693110783279968 0.0 0.0
0.0 0.05877909915221076 -0.05065372977767321 0.04942838986907877 0.0012253399085944382 -0.013466848320880506 0.0 0.0
0.0 0.0707435993470241 -0.061155624062937695 0.05983556579153843 0.0013200582713992267 -0.015359574703557135 0.0 0.0
0.0 0.08294625759490237 -0.07167610021073806 0.07022128834251296 0.0014548118682251076 -0.017902529040736154 0.0 0.0
0.0 0.09239229458004931 -0.07969370657122812 0.0780597978169999 0.0016339087542282173 -0.022120230800063798 0.0 0.0
0.0 0.09426619045487625 -0.08088607078477482 0.07905327670518898 0.0018327940795858626 -0.028356375045436782 0.0 0.0
0.0 0.08236590894122017 -0.06948818566273196 0.06746470675636457 0.002023478906367341 -0.03568794467970811 0.0 0.0
0.0 0.08236590894122063 -0.06948818566272837 0.06746470675636113 0.002023478906367239 0.035687944679739035 0.0 0.0
0.0 0.09426619045486212 -0.08088607078475918 0.07905327670517354 0.0018327940795856545 0.028356375045473725 0.0 0.0
0.0 0.09239229458001924 -0.0796937065712001 0.07805979781697212 0.0016339087542278819 0.0221202308000892 0.0 0.0
0.0 0.08294625759486157 -0.07167610021070206 0.07022128834247733 0.0014548118682247266 0.017902529040742722 0.0 0.0
0.0 0.0707435993469762 -0.06115562406289563 0.05983556579149722 0.001320058271398355 0.015359574703556055 0.0 0.0
0.0 0.058779099152161104 -0.05065372977762976 0.049428389869036346 0.0012253399085934255 0.01346684832087567 0.0 0.0
0.0 0.047722373835272974 -0.04113205529829528 0.0399881276943527 0.0011439276039425532 0.011693110783272474 0.0 0.0
0.0 0.037973847697950744 -0.032756482561283336 0.031693675183634945 0.0010628073776483918 0.01000234318336024 0.0 0.0
0.0 0.029484502594287674 -0.02544885782012322 0.024468327728688902 0.0009805300914343272 0.008401752433339661 0.0 0.0
0.0 0.022067000878073346 -0.01908389630394601 0.018188682495226663 0.0008952138087193401 0.0068342721279746575 0.0 0.0
0.0 0.015643108840365547 -0.01357338693441667 0.012769252897093665 0.000804134037323001 0.005236413248037429 0.0 0.0
0.0 0.010226211114410248 -0.008909896924829535 0.008212196664672796 0.0006977002601567391 0.0036802567978998823 0.0 0.0
0.0 0.005872494544221499 -0.005158829327240664 0.0046028616198705834 0.000555967707370079 0.0023017832241611497 0.0 0.0
0.0 0.0027601141804860065 -0.0023953468183587306 0.0020408076284621217 0.0003545391898966084 0.0011924475509712176 0.0 0.0
0.0 0.0009544548203192958 -0.0007093216828869843 0.0005780886010013638 0.00013123308188562046 0.0004420459648814995 0.0 0.0
0.0 0.00012276595230442373 -7.047259130631188e-05 5.646726967549092e-05 1.4005321630820825e-05 6.653936433956246e-05 0.0 0.0
0.0 3.662063483679039e-06 -4.4153136594930666e-07 3.4550104916556245e-07 9.603031678375644e-08 5.674611422837028e-07 0.0 0.0
0.0 0.0 0.0 0.0 0.0 0.0 0.0 0.0
0.0 0.0 0.0 0.0 0.0 0.0 0.0 0.0
0.0 0.0 0.0 0.0 0.0 0.0 0.0 0.0
0.0 0.0 0.0 0.0 0.0 0.0 0.0 0.0
0.0 0.0 0.0 0.0 0.0 0.0 0.0 0.0
0.0 0.0 0.0 0.0 0.0 0.0 0.0 0.0
0.0 3.9946716160757514e-06 -3.827811487610416e-07 3.0297241696581306e-07 7.980873179521831e-08 -3.5952194763537006e-07 0.0 0.0
0.0 0.0002591677301747253 -0.0001655336359780574 0.00013227372751795376 3.3259908460103586e-05 -9.822879336913941e-05 0.0 0.0
0.0 0.0014618609500674918 -0.001171101243901408 0.0009666329772222192 0.00020446826667918917 -0.0004793142775881289 0.0 0.0
0.0 0.0036775645506968283 -0.0033007741065870285 0.0028622356630431762 0.00043853844354385224 -0.0011008045729577112 0.0 0.0
0.0 0.0073449522455675854 -0.0065125881752325756 0.00589646931613347 0.0006161188590991034 -0.0019814031859122245 0.0 0.0
0.0 0.012316303254871357 -0.010817988125304987 0.01007323621326893 0.0007447519120360497 -0.003094825115657117 0.0 0.0
0.0 0.018510125742002746 -0.016169543199791244 0.015321067825117732 0.0008484753746735125 -0.0043610305376418435 0.0 0.0
0.0 0.025895928780121903 -0.022522613522128712 0.021579232254614996 0.0009433812675137151 -0.005668409067792319 0.0 0.0
0.0 0.0344079487190538 -0.02989960144564155 0.02886431007517662 0.001035291370464905 -0.006949087687226296 0.0 0.0
0.0 0.044318057452395344 -0.03838823778456428 0.0372620455467389 0.0011261922378253489 -0.008264496363330842 0.0 0.0
0.0 0.05540745952599368 -0.04808966102336369 0.04687234737029616 0.0012173136530675569 -0.00970781336147899 0.0 0.0
0.0 0.0679364309518029 -0.05899358314173545 0.05768383565568949 0.0013097474860459765 -0.011164821519306124 0.0 0.0
0.0 0.08159044971134655 -0.07084403422384944 0.06943428684187058 0.001409747381978875 -0.012322450595768366 0.0 0.0
0.0 0.09529885377839052 -0.08275553010351784 0.08121526354804084 0.0015402665554769832 -0.013450361245795706 0.0 0.0
0.0 0.106351503034784 -0.09227518932762238 0.09053316941996302 0.0017420199076593032 -0.016772709721979504 0.0 0.0
0.0 0.10939049751828224 -0.09447803805426139 0.09250491340002343 0.001973124654237992 -0.025113260516619412 0.0 0.0
0.0 0.09739043728102566 -0.08250636383652875 0.08032010421962858 0.0021862596169001233 -0.039046398230290554 0.0 0.0
0.0 0.097390437281022 -0.08250636383652252 0.08032010421962266 0.0021862596168999 0.039046398230315506 0.0 0.0
0.0 0.10939049751825954 -0.09447803805423954 0.09250491340000173 0.0019731246542377895 0.02511326051665027 0.0 0.0
0.0 0.10635150303474515 -0.0922751893275875 0.09053316941992848 0.0017420199076589678 0.016772709722002156 0.0 0.0
0.0 0.09529885377834388 -0.08275553010347678 0.08121526354800077 0.0015402665554760443 0.013450361245800605 0.0 0.0
0.0 0.08159044971129244 -0.07084403422380234 0.06943428684182394 0.0014097473819784194 0.012322450595768208 0.0 0.0
0.0 0.06793643095174681 -0.05899358314168669 0.05768383565564098 0.0013097474860457377 0.01116482151930483 0.0 0.0
0.0 0.05540745952593519 -0.048089661023313246 0.046872347370245496 0.0012173136530677319 0.009707813361473253 0.0 0.0
0.0 0.04431805745233931 -0.0383882377845155 0.03726204554669072 0.0011261922378247862 0.00826449636332385 0.0 0.0
0.0 0.03440794871899892 -0.0298996014455936 0.028864310075129622 0.001035291370463982 0.006949087687219975 0.0 0.0
0.0 0.02589592878007163 -0.02252261352208448 0.021579232254571673 0.000943381267512804 0.0056684090677804125 0.0 0.0
0.0 0.018510125741960447 -0.016169543199754062 0.015321067825081275 0.0008484753746727917 0.004361030537629896 0.0 0.0
0.0 0.012316303254837013 -0.010817988125274548 0.01007323621323927 0.0007447519120352792 0.0030948251156488514 0.0 0.0
0.0 0.00734495224554175 -0.0065125881752094465 0.005896469316111198 0.0006161188590982492 0.00198140318590524 0.0 0.0
0.0 0.0036775645506809734 -0.0033007741065726078 0.002862235663029928 0.00043853844354268 0.0011008045729529667 0.0 0.0
0.0 0.0014618609500594822 -0.0011711012438948563 0.0009666329772166549 0.00020446826667820035 0.00047931427758545744 0.0 0.0
0.0 0.00025916773017165234 -0.00016553363597630397 0.00013227372751653283 3.3259908459771224e-05 9.822879336816512e-05 0.0 0.0
0.0 3.994671615471208e-06 -3.827811489542046e-07 3.029724171163164e-07 7.980873183789661e-08 3.595219478180604e-07 0.0 0.0
0.0 0.0 0.0 0.0 0.0 0.0 0.0 0.0
0.0 0.0 0.0 0.0 0.0 0.0 0.0 0.0
0.0 0.0 0.0 0.0 0.0 0.0 0.0 0.0
0.0 0.0 0.0 0.0 0.0 0.0 0.0 0.0
0.0 0.0 0.0 0.0 0.0 0.0 0.0 0.0
0.0 0.0 0.0 0.0 0.0 0.0 0.0 0.0
0.0 8.980462647992259e-06 -4.380879097263704e-07 3.7152830397087534e-07 6.655960575552441e-08 -3.2518915855701954e-07 0.0 0.0
0.0 0.0005104306825670065 -0.00034562407972440893 0.00027797681266219994 6.764726706220918e-05 -0.00011749007404931071 0.0 0.0
0.0 0.0019153881370890056 -0.0017564242356140998 0.001469470666021401 0.0002869535695926975 -0.0004080246581830484 0.0 0.0
0.0 0.004703778672943073 -0.004244345462749877 0.0037397713769771346 0.0005045740857727401 -0.0008237921784045504 0.0 0.0
0.0 0.008850644501043808 -0.007883646864298537 0.007220293968045182 0.0006633528962533523 -0.0014129787844635161 0.0 0.0
0.0 0.014427646592649017 -0.012726714346600826 0.01194472566409163 0.0007819886825091915 -0.002173768692912627 0.0 0.0
0.0 0.021391590961269573 -0.01875887919585044 0.017873007556706132 0.0008858716391443006 -0.0030544486541647944 0.0 0.0
0.0 0.02972197925572593 -0.025957037355492204 0.024970903801659526 0.000986133553832682 -0.003962884920756627 0.0 0.0
0.0 0.039498756158762874 -0.03435318891174565 0.03326777862788621 0.00108541028385942 -0.004853912344331019 0.0 0.0
0.0 0.050530957021172024 -0.044037216930425074 0.04285207370702286 0.0011851432234022026 -0.005804244727704468 0.0 0.0
0.0 0.0631722687611215 -0.05505693895982279 0.05377000797453229 0.001286930985290475 -0.00683878238866013 0.0 0.0
0.0 0.0772834087136717 -0.06729861939858775 0.06590602560121196 0.001392593797375794 -0.007825837867061428 0.0 0.0
0.0 0.09229194920423775 -0.08034015185828763 0.07883763748948557 0.0015025143688020752 -0.008412361636953972 0.0 0.0
0.0 0.10715087544501664 -0.09327398254283281 0.09165119438840832 0.0016227881544245623 -0.008268311885106723 0.0 0.0
0.0 0.11971309391373831 -0.10417778606740509 0.10238542874578437 0.0017923573216207436 -0.009257572129788942 0.0 0.0
0.0 0.12492763281097 -0.1083581363004288 0.10624751121606069 0.002110625084368031 -0.018595353795963613 0.0 0.0
0.0 0.11384884221155658 -0.0968366390739084 0.09445906263709299 0.0023775764368153896 -0.04127961230185511 0.0 0.0
0.0 0.11384884221154898 -0.09683663907390008 0.09445906263708415 0.0023775764368158844 0.04127961230187362 0.0 0.0
0.0 0.12492763281094185 -0.10835813630040358 0.10624751121603523 0.0021106250843682833 0.01859535379598671 0.0 0.0
0.0 0.11971309391369414 -0.10417778606736634 0.10238542874574592 0.0017923573216203875 0.009257572129806782 0.0 0.0
0.0 0.10715087544496217 -0.09327398254278521 0.09165119438836154 0.001622788154423625 0.008268311885109108 0.0 0.0
0.0 0.09229194920417796 -0.08034015185823531 0.07883763748943455 0.0015025143688007499 0.008412361636953556 0.0 0.0
0.0 0.07728340871360867 -0.06729861939853261 0.06590602560115809 0.001392593797374551 0.007825837867060311 0.0 0.0
0.0 0.0631722687610582 -0.055056938959767335 0.05377000797447839 0.0012869309852889226 0.0068387823886572755 0.0 0.0
0.0 0.05053095702110717 -0.04403721693036857 0.04285207370696727 0.0011851432234013014 0.005804244727698868 0.0 0.0
0.0 0.039498756158698314 -0.03435318891168926 0.03326777862783036 0.001085410283858878 0.004853912344326987 0.0 0.0
0.0 0.02972197925566736 -0.025957037355441297 0.024970903801609042 0.0009861335538322348 0.00396288492074765 0.0 0.0
0.0 0.021391590961221514 -0.018758879195808306 0.017873007556664683 0.0008858716391436355 0.003054448654156106 0.0 0.0
0.0 0.014427646592611573 -0.012726714346567356 0.011944725664058891 0.0007819886825084659 0.002173768692907797 0.0 0.0
0.0 0.008850644501015865 -0.007883646864273352 0.007220293968020969 0.0006633528962523809 0.001412978784459076 0.0 0.0
0.0 0.00470377867292483 -0.004244345462733026 0.0037397713769614085 0.0005045740857716153 0.0008237921784011268 0.0 0.0
0.0 0.001915388137078167 -0.0017564242356040939 0.0014694706660125995 0.0002869535695914949 0.00040802465818072454 0.0 0.0
0.0 0.0005104306825628587 -0.00034562407972163126 0.0002779768126599099 6.764726706172118e-05 0.00011749007404846367 0.0 0.0
0.0 8.980462647344409e-06 -4.380879100179671e-07 3.715283041992491e-07 6.655960581867162e-08 3.251891587349111e-07 0.0 0.0
0.0 0.0 0.0 0.0 0.0 0.0 0.0 0.0
0.0 0.0 0.0 0.0 0.0 0.0 0.0 0.0
0.0 0.0 0.0 0.0 0.0 0.0 0.0 0.0
0.0 0.0 0.0 0.0 0.0 0.0 0.0 0.0
0.0 0.0 0.0 0.0 0.0 0.0 0.0 0.0
0.0 0.0 0.0 0.0 0.0 0.0 0.0 0.0
0.0 3.333720125902409e-05 -1.702512427341882e-05 1.3450517005609077e-05 3.5746072678098904e-06 -4.905021836469957e-06 0.0 0.0
0.0 0.0008915986592300044 -0.0006194616070089178 0.000501790279196388 0.00011767132781252972 -8.325386938079726e-05 0.0 0.0
0.0 0.002596349928674401 -0.0023815289374406563 0.002020779189703696 0.0003607497477369603 -0.000197030971602039 0.0 0.0
0.0 0.0057674909849785875 -0.00521074527801476 0.004653095336679604 0.0005576499413351538 -0.00036583414813435883 0.0 0.0
0.0 0.010392777265470766 -0.0092533007423459 0.008553261519583844 0.0007000392227620519 -0.000601073360851249 0.0 0.0
0.0 0.016567669163480354 -0.014617729031116699 0.01380514970000364 0.0008125793311130655 -0.0009251250908106052 0.0 0.0
0.0 0.024319330481997678 -0.02132165050151861 0.02040351513465539 0.000918135366863215 -0.0013162263239162978 0.0 0.0
0.0 0.033672683557708784 -0.029369343393365856 0.028345330601164034 0.0010240127922018162 -0.001722243920008945 0.0 0.0
0.0 0.044389100571413466 -0.03880240186807002 0.037670808347249854 0.0011315935208201506 -0.0021427319687042255 0.0 0.0
0.0 0.05683699131931679 -0.04967253763626907 0.04843219061583867 0.0012403470204303733 -0.0025868382330403016 0.0 0.0
0.0 0.07102211497905975 -0.06198792335315832 0.06063527759580928 0.00135264575734901 -0.0030412908851763093 0.0 0.0
0.0 0.0866385078556842 -0.07554381366498865 0.07407246690397545 0.0014713467610131974 -0.00343847287113267 0.0 0.0
0.0 0.10299123161794374 -0.08971798115540203 0.08812227731232236 0.0015957038430796564 -0.0035499809260752806 0.0 0.0
0.0 0.11874483752722428 -0.10338097211954636 0.10166174565495803 0.0017192264645882914 -0.0029936286233934466 0.0 0.0
0.0 0.13197836679066294 -0.11489650235180886 0.11305358207752478 0.0018429202742840552 -0.0017856167791560256 0.0 0.0
0.0 0.13964575845306545 -0.12145341951522873 0.11941461968782648 0.0020387998274021615 -0.006117938246645031 0.0 0.0
0.0 0.1330617587690492 -0.11400524360353197 0.1112657048416059 0.002739538761926036 -0.03818913937339109 0.0 0.0
0.0 0.1330617587690392 -0.11400524360352249 0.11126570484159674 0.002739538761925695 0.038189139373398115 0.0 0.0
0.0 0.13964575845303362 -0.12145341951520082 0.11941461968779908 0.002038799827401695 0.006117938246654632 0.0 0.0
0.0 0.1319783667906115 -0.11489650235176421 0.11305358207748056 0.0018429202742835625 0.0017856167791646554 0.0 0.0
0.0 0.11874483752715645 -0.10338097211948782 0.10166174565489919 0.001719226464588585 0.002993628623392743 0.0 0.0
0.0 0.10299123161787285 -0.08971798115534084 0.08812227731226087 0.0015957038430799496 0.0035499809260748608 0.0 0.0
0.0 0.0866385078556121 -0.07554381366492623 0.07407246690391316 0.0014713467610130231 0.003438472871132312 0.0 0.0
0.0 0.07102211497898661 -0.061987923353094845 0.06063527759574637 0.0013526457573484626 0.003041290885174946 0.0 0.0
0.0 0.05683699131924541 -0.04967253763620701 0.048432190615777256 0.0012403470204297177 0.0025868382330381744 0.0 0.0
0.0 0.044389100571345944 -0.03880240186801115 0.03767080834719189 0.0011315935208192328 0.0021427319687035507 0.0 0.0
0.0 0.033672683557646674 -0.02936934339331159 0.028345330601110573 0.001024012792201018 0.001722243920003828 0.0 0.0
0.0 0.02431933048194723 -0.02132165050147463 0.020403515134612284 0.0009181353668623475 0.0013162263239124574 0.0 0.0
0.0 0.016567669163439398 -0.014617729031080433 0.013805149699968065 0.0008125793311123692 0.0009251250908085465 0.0 0.0
0.0 0.010392777265439511 -0.009253300742317757 0.008553261519556335 0.0007000392227614221 0.0006010733608491794 0.0 0.0
0.0 0.005767490984957829 -0.005210745277995837 0.004653095336661478 0.0005576499413343598 0.00036583414813281276 0.0 0.0
0.0 0.0025963499286631 -0.0023815289374297987 0.002020779189693964 0.00036074974773583424 0.00019703097160122775 0.0 0.0
0.0 0.000891598659224289 -0.000619461607004719 0.0005017902791928915 0.000117671327811828 8.325386938031599e-05 0.0 0.0
0.0 3.333720125832238e-05 -1.702512427348077e-05 1.34505170056453e-05 3.5746072678354564e-06 4.905021836435817e-06 0.0 0.0
0.0 0.0 0.0 0.0 0.0 0.0 0.0 0.0
0.0 0.0 0.0 0.0 0.0 0.0 0.0 0.0
0.0 0.0 0.0 0.0 0.0 0.0 0.0 0.0