# vtk DataFile Version 3.0
Some data
ASCII
DATASET UNSTRUCTURED_GRID
POINTS 861 float
0.0 0.0 0.0
0.4 0.0 0.0
0.8 0.0 0.0
1.2000000000000002 0.0 0.0
1.6 0.0 0.0
2.0 0.0 0.0
2.4000000000000004 0.0 0.0
2.8000000000000003 0.0 0.0
3.2 0.0 0.0
3.6 0.0 0.0
4.0 0.0 0.0
4.4 0.0 0.0
4.800000000000001 0.0 0.0
5.2 0.0 0.0
5.6000000000000005 0.0 0.0
6.0 0.0 0.0
6.4 0.0 0.0
6.800000000000001 0.0 0.0
7.2 0.0 0.0
7.6000000000000005 0.0 0.0
8.0 0.0 0.0
8.4 0.0 0.0
8.8 0.0 0.0
9.200000000000001 0.0 0.0
9.600000000000001 0.0 0.0
10.0 0.0 0.0
10.4 0.0 0.0
10.8 0.0 0.0
11.200000000000001 0.0 0.0
11.600000000000001 0.0 0.0
12.0 0.0 0.0
12.4 0.0 0.0
12.8 0.0 0.0
13.200000000000001 0.0 0.0
13.600000000000001 0.0 0.0
14.0 0.0 0.0
14.4 0.0 0.0
14.8 0.0 0.0
15.200000000000001 0.0 0.0
15.600000000000001 0.0 0.0
16.0 0.0 0.0
0.0 0.1 0.0
0.4 0.1 0.0
0.8 0.1 0.0
1.2000000000000002 0.1 0.0
1.6 0.1 0.0
2.0 0.1 0.0
2.4000000000000004 0.1 0.0
2.8000000000000003 0.1 0.0
3.2 0.1 0.0
3.6 0.1 0.0
4.0 0.1 0.0
4.4 0.1 0.0
4.800000000000001 0.1 0.0
5.2 0.1 0.0
5.6000000000000005 0.1 0.0
6.0 0.1 0.0
6.4 0.1 0.0
6.800000000000001 0.1 0.0
7.2 0.1 0.0
7.6000000000000005 0.1 0.0
8.0 0.1 0.0
8.4 0.1 0.0
8.8 0.1 0.0
9.200000000000001 0.1 0.0
9.600000000000001 0.1 0.0
10.0 0.1 0.0
10.4 0.1 0.0
10.8 0.1 0.0
11.200000000000001 0.1 0.0
11.600000000000001 0.1 0.0
12.0 0.1 0.0
12.4 0.1 0.0
12.8 0.1 0.0
13.200000000000001 0.1 0.0
13.600000000000001 0.1 0.0
14.0 0.1 0.0
14.4 0.1 0.0
14.8 0.1 0.0
15.200000000000001 0.1 0.0
15.600000000000001 0.1 0.0
16.0 0.1 0.0
0.0 0.2 0.0
0.4 0.2 0.0
0.8 0.2 0.0
1.2000000000000002 0.2 0.0
1.6 0.2 0.0
2.0 0.2 0.0
2.4000000000000004 0.2 0.0
2.8000000000000003 0.2 0.0
3.2 0.2 0.0
3.6 0.2 0.0
4.0 0.2 0.0
4.4 0.2 0.0
4.800000000000001 0.2 0.0
5.2 0.2 0.0
5.6000000000000005 0.2 0.0
6.0 0.2 0.0
6.4 0.2 0.0
6.800000000000001 0.2 0.0
7.2 0.2 0.0
7.6000000000000005 0.2 0.0
8.0 0.2 0.0
8.4 0.2 0.0
8.8 0.2 0.0
9.200000000000001 0.2 0.0
9.600000000000001 0.2 0.0
10.0 0.2 0.0
10.4 0.2 0.0
10.8 0.2 0.0
11.200000000000001 0.2 0.0
11.600000000000001 0.2 0.0
12.0 0.2 0.0
12.4 0.2 0.0
12.8 0.2 0.0
13.200000000000001 0.2 0.0
13.600000000000001 0.2 0.0
14.0 0.2 0.0
14.4 0.2 0.0
14.8 0.2 0.0
15.200000000000001 0.2 0.0
15.600000000000001 0.2 0.0
16.0 0.2 0.0
0.0 0.30000000000000004 0.0
0.4 0.30000000000000004 0.0
0.8 0.30000000000000004 0.0
1.2000000000000002 0.30000000000000004 0.0
1.6 0.30000000000000004 0.0
2.0 0.30000000000000004 0.0
2.4000000000000004 0.30000000000000004 0.0
2.8000000000000003 0.30000000000000004 0.0
3.2 0.30000000000000004 0.0
3.6 0.30000000000000004 0.0
4.0 0.30000000000000004 0.0
4.4 0.30000000000000004 0.0
4.800000000000001 0.30000000000000004 0.0
5.2 0.30000000000000004 0.0
5.6000000000000005 0.30000000000000004 0.0
6.0 0.30000000000000004 0.0
6.4 0.30000000000000004 0.0
6.800000000000001 0.30000000000000004 0.0
7.2 0.30000000000000004 0.0
7.6000000000000005 0.30000000000000004 0.0
8.0 0.30000000000000004 0.0
8.4 0.30000000000000004 0.0
8.8 0.30000000000000004 0.0
9.200000000000001 0.30000000000000004 0.0
9.600000000000001 0.30000000000000004 0.0
10.0 0.30000000000000004 0.0
10.4 0.30000000000000004 0.0
10.8 0.30000000000000004 0.0
11.200000000000001 0.30000000000000004 0.0
11.600000000000001 0.30000000000000004 0.0
12.0 0.30000000000000004 0.0
12.4 0.30000000000000004 0.0
12.8 0.30000000000000004 0.0
13.200000000000001 0.30000000000000004 0.0
13.600000000000001 0.30000000000000004 0.0
14.0 0.30000000000000004 0.0
14.4 0.30000000000000004 0.0
14.8 0.30000000000000004 0.0
15.200000000000001 0.30000000000000004 0.0
15.600000000000001 0.30000000000000004 0.0
16.0 0.30000000000000004 0.0
0.0 0.4 0.0
0.4 0.4 0.0
0.8 0.4 0.0
1.2000000000000002 0.4 0.0
1.6 0.4 0.0
2.0 0.4 0.0
2.4000000000000004 0.4 0.0
2.8000000000000003 0.4 0.0
3.2 0.4 0.0
3.6 0.4 0.0
4.0 0.4 0.0
4.4 0.4 0.0
4.800000000000001 0.4 0.0
5.2 0.4 0.0
5.6000000000000005 0.4 0.0
6.0 0.4 0.0
6.4 0.4 0.0
6.800000000000001 0.4 0.0
7.2 0.4 0.0
7.6000000000000005 0.4 0.0
8.0 0.4 0.0
8.4 0.4 0.0
8.8 0.4 0.0
9.200000000000001 0.4 0.0
9.600000000000001 0.4 0.0
10.0 0.4 0.0
10.4 0.4 0.0
10.8 0.4 0.0
11.200000000000001 0.4 0.0
11.600000000000001 0.4 0.0
12.0 0.4 0.0
12.4 0.4 0.0
12.8 0.4 0.0
13.200000000000001 0.4 0.0
13.600000000000001 0.4 0.0
14.0 0.4 0.0
14.4 0.4 0.0
14.8 0.4 0.0
15.200000000000001 0.4 0.0
15.600000000000001 0.4 0.0
16.0 0.4 0.0
0.0 0.5 0.0
0.4 0.5 0.0
0.8 0.5 0.0
1.2000000000000002 0.5 0.0
1.6 0.5 0.0
2.0 0.5 0.0
2.4000000000000004 0.5 0.0
2.8000000000000003 0.5 0.0
3.2 0.5 0.0
3.6 0.5 0.0
4.0 0.5 0.0
4.4 0.5 0.0
4.800000000000001 0.5 0.0
5.2 0.5 0.0
5.6000000000000005 0.5 0.0
6.0 0.5 0.0
6.4 0.5 0.0
6.800000000000001 0.5 0.0
7.2 0.5 0.0
7.6000000000000005 0.5 0.0
8.0 0.5 0.0
8.4 0.5 0.0
8.8 0.5 0.0
9.200000000000001 0.5 0.0
9.600000000000001 0.5 0.0
10.0 0.5 0.0
10.4 0.5 0.0
10.8 0.5 0.0
11.200000000000001 0.5 0.0
11.600000000000001 0.5 0.0
12.0 0.5 0.0
12.4 0.5 0.0
12.8 0.5 0.0
13.200000000000001 0.5 0.0
13.600000000000001 0.5 0.0
14.0 0.5 0.0
14.4 0.5 0.0
14.8 0.5 0.0
15.200000000000001 0.5 0.0
15.600000000000001 0.5 0.0
16.0 0.5 0.0
0.0 0.6000000000000001 0.0
0.4 0.6000000000000001 0.0
0.8 0.6000000000000001 0.0
1.2000000000000002 0.6000000000000001 0.0
1.6 0.6000000000000001 0.0
2.0 0.6000000000000001 0.0
2.4000000000000004 0.6000000000000001 0.0
2.8000000000000003 0.6000000000000001 0.0
3.2 0.6000000000000001 0.0
3.6 0.6000000000000001 0.0
4.0 0.6000000000000001 0.0
4.4 0.6000000000000001 0.0
4.800000000000001 0.6000000000000001 0.0
5.2 0.6000000000000001 0.0
5.6000000000000005 0.6000000000000001 0.0
6.0 0.6000000000000001 0.0
6.4 0.6000000000000001 0.0
6.800000000000001 0.6000000000000001 0.0
7.2 0.6000000000000001 0.0
7.6000000000000005 0.6000000000000001 0.0
8.0 0.6000000000000001 0.0
8.4 0.6000000000000001 0.0
8.8 0.6000000000000001 0.0
9.200000000000001 0.6000000000000001 0.0
9.600000000000001 0.6000000000000001 0.0
10.0 0.6000000000000001 0.0
10.4 0.6000000000000001 0.0
10.8 0.6000000000000001 0.0
11.200000000000001 0.6000000000000001 0.0
11.600000000000001 0.6000000000000001 0.0
12.0 0.6000000000000001 0.0
12.4 0.6000000000000001 0.0
12.8 0.6000000000000001 0.0
13.200000000000001 0.6000000000000001 0.0
13.600000000000001 0.6000000000000001 0.0
14.0 0.6000000000000001 0.0
14.4 0.6000000000000001 0.0
14.8 0.6000000000000001 0.0
15.200000000000001 0.6000000000000001 0.0
15.600000000000001 0.6000000000000001 0.0
16.0 0.6000000000000001 0.0
0.0 0.7000000000000001 0.0
0.4 0.7000000000000001 0.0
0.8 0.7000000000000001 0.0
1.2000000000000002 0.7000000000000001 0.0
1.6 0.7000000000000001 0.0
2.0 0.7000000000000001 0.0
2.4000000000000004 0.7000000000000001 0.0
2.8000000000000003 0.7000000000000001 0.0
3.2 0.7000000000000001 0.0
3.6 0.7000000000000001 0.0
4.0 0.7000000000000001 0.0
4.4 0.7000000000000001 0.0
4.800000000000001 0.7000000000000001 0.0
5.2 0.7000000000000001 0.0
5.6000000000000005 0.7000000000000001 0.0
6.0 0.7000000000000001 0.0
6.4 0.7000000000000001 0.0
6.800000000000001 0.7000000000000001 0.0
7.2 0.7000000000000001 0.0
7.6000000000000005 0.7000000000000001 0.0
8.0 0.7000000000000001 0.0
8.4 0.7000000000000001 0.0
8.8 0.7000000000000001 0.0
9.200000000000001 0.7000000000000001 0.0
9.600000000000001 0.7000000000000001 0.0
10.0 0.7000000000000001 0.0
10.4 0.7000000000000001 0.0
10.8 0.7000000000000001 0.0
11.200000000000001 0.7000000000000001 0.0
11.600000000000001 0.7000000000000001 0.0
12.0 0.7000000000000001 0.0
12.4 0.7000000000000001 0.0
12.8 0.7000000000000001 0.0
13.200000000000001 0.7000000000000001 0.0
13.600000000000001 0.7000000000000001 0.0
14.0 0.7000000000000001 0.0
14.4 0.7000000000000001 0.0
14.8 0.7000000000000001 0.0
15.200000000000001 0.7000000000000001 0.0
15.600000000000001 0.7000000000000001 0.0
16.0 0.7000000000000001 0.0
0.0 0.8 0.0
0.4 0.8 0.0
0.8 0.8 0.0
1.2000000000000002 0.8 0.0
1.6 0.8 0.0
2.0 0.8 0.0
2.4000000000000004 0.8 0.0
2.8000000000000003 0.8 0.0
3.2 0.8 0.0
3.6 0.8 0.0
4.0 0.8 0.0
4.4 0.8 0.0
4.800000000000001 0.8 0.0
5.2 0.8 0.0
5.6000000000000005 0.8 0.0
6.0 0.8 0.0
6.4 0.8 0.0
6.800000000000001 0.8 0.0
7.2 0.8 0.0
7.6000000000000005 0.8 0.0
8.0 0.8 0.0
8.4 0.8 0.0
8.8 0.8 0.0
9.200000000000001 0.8 0.0
9.600000000000001 0.8 0.0
10.0 0.8 0.0
10.4 0.8 0.0
10.8 0.8 0.0
11.200000000000001 0.8 0.0
11.600000000000001 0.8 0.0
12.0 0.8 0.0
12.4 0.8 0.0
12.8 0.8 0.0
13.200000000000001 0.8 0.0
13.600000000000001 0.8 0.0
14.0 0.8 0.0
14.4 0.8 0.0
14.8 0.8 0.0
15.200000000000001 0.8 0.0
15.600000000000001 0.8 0.0
16.0 0.8 0.0
0.0 0.9 0.0
0.4 0.9 0.0
0.8 0.9 0.0
1.2000000000000002 0.9 0.0
1.6 0.9 0.0
2.0 0.9 0.0
2.4000000000000004 0.9 0.0
2.8000000000000003 0.9 0.0
3.2 0.9 0.0
3.6 0.9 0.0
4.0 0.9 0.0
4.4 0.9 0.0
4.800000000000001 0.9 0.0
5.2 0.9 0.0
5.6000000000000005 0.9 0.0
6.0 0.9 0.0
6.4 0.9 0.0
6.800000000000001 0.9 0.0
7.2 0.9 0.0
7.6000000000000005 0.9 0.0
8.0 0.9 0.0
8.4 0.9 0.0
8.8 0.9 0.0
9.200000000000001 0.9 0.0
9.600000000000001 0.9 0.0
10.0 0.9 0.0
10.4 0.9 0.0
10.8 0.9 0.0
11.200000000000001 0.9 0.0
11.600000000000001 0.9 0.0
12.0 0.9 0.0
12.4 0.9 0.0
12.8 0.9 0.0
13.200000000000001 0.9 0.0
13.600000000000001 0.9 0.0
14.0 0.9 0.0
14.4 0.9 0.0
14.8 0.9 0.0
15.200000000000001 0.9 0.0
15.600000000000001 0.9 0.0
16.0 0.9 0.0
0.0 1.0 0.0
0.4 1.0 0.0
0.8 1.0 0.0
1.2000000000000002 1.0 0.0
1.6 1.0 0.0
2.0 1.0 0.0
2.4000000000000004 1.0 0.0
2.8000000000000003 1.0 0.0
3.2 1.0 0.0
3.6 1.0 0.0
4.0 1.0 0.0
4.4 1.0 0.0
4.800000000000001 1.0 0.0
5.2 1.0 0.0
5.6000000000000005 1.0 0.0
6.0 1.0 0.0
6.4 1.0 0.0
6.800000000000001 1.0 0.0
7.2 1.0 0.0
7.6000000000000005 1.0 0.0
8.0 1.0 0.0
8.4 1.0 0.0
8.8 1.0 0.0
9.200000000000001 1.0 0.0
9.600000000000001 1.0 0.0
10.0 1.0 0.0
10.4 1.0 0.0
10.8 1.0 0.0
11.200000000000001 1.0 0.0
11.600000000000001 1.0 0.0
12.0 1.0 0.0
12.4 1.0 0.0
12.8 1.0 0.0
13.200000000000001 1.0 0.0
13.600000000000001 1.0 0.0
14.0 1.0 0.0
14.4 1.0 0.0
14.8 1.0 0.0
15.200000000000001 1.0 0.0
15.600000000000001 1.0 0.0
16.0 1.0 0.0
0.0 1.1 0.0
0.4 1.1 0.0
0.8 1.1 0.0
1.2000000000000002 1.1 0.0
1.6 1.1 0.0
2.0 1.1 0.0
2.4000000000000004 1.1 0.0
2.8000000000000003 1.1 0.0
3.2 1.1 0.0
3.6 1.1 0.0
4.0 1.1 0.0
4.4 1.1 0.0
4.800000000000001 1.1 0.0
5.2 1.1 0.0
5.6000000000000005 1.1 0.0
6.0 1.1 0.0
6.4 1.1 0.0
6.800000000000001 1.1 0.0
7.2 1.1 0.0
7.6000000000000005 1.1 0.0
8.0 1.1 0.0
8.4 1.1 0.0
8.8 1.1 0.0
9.200000000000001 1.1 0.0
9.600000000000001 1.1 0.0
10.0 1.1 0.0
10.4 1.1 0.0
10.8 1.1 0.0
11.200000000000001 1.1 0.0
11.600000000000001 1.1 0.0
12.0 1.1 0.0
12.4 1.1 0.0
12.8 1.1 0.0
13.200000000000001 1.1 0.0
13.600000000000001 1.1 0.0
14.0 1.1 0.0
14.4 1.1 0.0
14.8 1.1 0.0
15.200000000000001 1.1 0.0
15.600000000000001 1.1 0.0
16.0 1.1 0.0
0.0 1.2000000000000002 0.0
0.4 1.2000000000000002 0.0
0.8 1.2000000000000002 0.0
1.2000000000000002 1.2000000000000002 0.0
1.6 1.2000000000000002 0.0
2.0 1.2000000000000002 0.0
2.4000000000000004 1.2000000000000002 0.0
2.8000000000000003 1.2000000000000002 0.0
3.2 1.2000000000000002 0.0
3.6 1.2000000000000002 0.0
4.0 1.2000000000000002 0.0
4.4 1.2000000000000002 0.0
4.800000000000001 1.2000000000000002 0.0
5.2 1.2000000000000002 0.0
5.6000000000000005 1.2000000000000002 0.0
6.0 1.2000000000000002 0.0
6.4 1.2000000000000002 0.0
6.800000000000001 1.2000000000000002 0.0
7.2 1.2000000000000002 0.0
7.6000000000000005 1.2000000000000002 0.0
8.0 1.2000000000000002 0.0
8.4 1.2000000000000002 0.0
8.8 1.2000000000000002 0.0
9.200000000000001 1.2000000000000002 0.0
9.600000000000001 1.2000000000000002 0.0
10.0 1.2000000000000002 0.0
10.4 1.2000000000000002 0.0
10.8 1.2000000000000002 0.0
11.200000000000001 1.2000000000000002 0.0
11.600000000000001 1.2000000000000002 0.0
12.0 1.2000000000000002 0.0
12.4 1.2000000000000002 0.0
12.8 1.2000000000000002 0.0
13.200000000000001 1.2000000000000002 0.0
13.600000000000001 1.2000000000000002 0.0
14.0 1.2000000000000002 0.0
14.4 1.2000000000000002 0.0
14.8 1.2000000000000002 0.0
15.200000000000001 1.2000000000000002 0.0
15.600000000000001 1.2000000000000002 0.0
16.0 1.2000000000000002 0.0
0.0 1.3 0.0
0.4 1.3 0.0
0.8 1.3 0.0
1.2000000000000002 1.3 0.0
1.6 1.3 0.0
2.0 1.3 0.0
2.4000000000000004 1.3 0.0
2.8000000000000003 1.3 0.0
3.2 1.3 0.0
3.6 1.3 0.0
4.0 1.3 0.0
4.4 1.3 0.0
4.800000000000001 1.3 0.0
5.2 1.3 0.0
5.6000000000000005 1.3 0.0
6.0 1.3 0.0
6.4 1.3 0.0
6.800000000000001 1.3 0.0
7.2 1.3 0.0
7.6000000000000005 1.3 0.0
8.0 1.3 0.0
8.4 1.3 0.0
8.8 1.3 0.0
9.200000000000001 1.3 0.0
9.600000000000001 1.3 0.0
10.0 1.3 0.0
10.4 1.3 0.0
10.8 1.3 0.0
11.200000000000001 1.3 0.0
11.600000000000001 1.3 0.0
12.0 1.3 0.0
12.4 1.3 0.0
12.8 1.3 0.0
13.200000000000001 1.3 0.0
13.600000000000001 1.3 0.0
14.0 1.3 0.0
14.4 1.3 0.0
14.8 1.3 0.0
15.200000000000001 1.3 0.0
15.600000000000001 1.3 0.0
16.0 1.3 0.0
0.0 1.4000000000000001 0.0
0.4 1.4000000000000001 0.0
0.8 1.4000000000000001 0.0
1.2000000000000002 1.4000000000000001 0.0
1.6 1.4000000000000001 0.0
2.0 1.4000000000000001 0.0
2.4000000000000004 1.4000000000000001 0.0
2.8000000000000003 1.4000000000000001 0.0
3.2 1.4000000000000001 0.0
3.6 1.4000000000000001 0.0
4.0 1.4000000000000001 0.0
4.4 1.4000000000000001 0.0
4.800000000000001 1.4000000000000001 0.0
5.2 1.4000000000000001 0.0
5.6000000000000005 1.4000000000000001 0.0
6.0 1.4000000000000001 0.0
6.4 1.4000000000000001 0.0
6.800000000000001 1.4000000000000001 0.0
7.2 1.4000000000000001 0.0
7.6000000000000005 1.4000000000000001 0.0
8.0 1.4000000000000001 0.0
8.4 1.4000000000000001 0.0
8.8 1.4000000000000001 0.0
9.200000000000001 1.4000000000000001 0.0
9.600000000000001 1.4000000000000001 0.0
10.0 1.4000000000000001 0.0
10.4 1.4000000000000001 0.0
10.8 1.4000000000000001 0.0
11.200000000000001 1.4000000000000001 0.0
11.600000000000001 1.4000000000000001 0.0
12.0 1.4000000000000001 0.0
12.4 1.4000000000000001 0.0
12.8 1.4000000000000001 0.0
13.200000000000001 1.4000000000000001 0.0
13.600000000000001 1.4000000000000001 0.0
14.0 1.4000000000000001 0.0
14.4 1.4000000000000001 0.0
14.8 1.4000000000000001 0.0
15.200000000000001 1.4000000000000001 0.0
15.600000000000001 1.4000000000000001 0.0
16.0 1.4000000000000001 0.0
0.0 1.5 0.0
0.4 1.5 0.0
0.8 1.5 0.0
1.2000000000000002 1.5 0.0
1.6 1.5 0.0
2.0 1.5 0.0
2.4000000000000004 1.5 0.0
2.8000000000000003 1.5 0.0
3.2 1.5 0.0
3.6 1.5 0.0
4.0 1.5 0.0
4.4 1.5 0.0
4.800000000000001 1.5 0.0
5.2 1.5 0.0
5.6000000000000005 1.5 0.0
6.0 1.5 0.0
6.4 1.5 0.0
6.800000000000001 1.5 0.0
7.2 1.5 0.0
7.6000000000000005 1.5 0.0
8.0 1.5 0.0
8.4 1.5 0.0
8.8 1.5 0.0
9.200000000000001 1.5 0.0
9.600000000000001 1.5 0.0
10.0 1.5 0.0
10.4 1.5 0.0
10.8 1.5 0.0
11.200000000000001 1.5 0.0
11.600000000000001 1.5 0.0
12.0 1.5 0.0
12.4 1.5 0.0
12.8 1.5 0.0
13.200000000000001 1.5 0.0
13.600000000000001 1.5 0.0
14.0 1.5 0.0
14.4 1.5 0.0
14.8 1.5 0.0
15.200000000000001 1.5 0.0
15.600000000000001 1.5 0.0
16.0 1.5 0.0
0.0 1.6 0.0
0.4 1.6 0.0
0.8 1.6 0.0
1.2000000000000002 1.6 0.0
1.6 1.6 0.0
2.0 1.6 0.0
2.4000000000000004 1.6 0.0
2.8000000000000003 1.6 0.0
3.2 1.6 0.0
3.6 1.6 0.0
4.0 1.6 0.0
4.4 1.6 0.0
4.800000000000001 1.6 0.0
5.2 1.6 0.0
5.6000000000000005 1.6 0.0
6.0 1.6 0.0
6.4 1.6 0.0
6.800000000000001 1.6 0.0
7.2 1.6 0.0
7.6000000000000005 1.6 0.0
8.0 1.6 0.0
8.4 1.6 0.0
8.8 1.6 0.0
9.200000000000001 1.6 0.0
9.600000000000001 1.6 0.0
10.0 1.6 0.0
10.4 1.6 0.0
10.8 1.6 0.0
11.200000000000001 1.6 0.0
11.600000000000001 1.6 0.0
12.0 1.6 0.0
12.4 1.6 0.0
12.8 1.6 0.0
13.200000000000001 1.6 0.0
13.600000000000001 1.6 0.0
14.0 1.6 0.0
14.4 1.6 0.0
14.8 1.6 0.0
15.200000000000001 1.6 0.0
15.600000000000001 1.6 0.0
16.0 1.6 0.0
0.0 1.7000000000000002 0.0
0.4 1.7000000000000002 0.0
0.8 1.7000000000000002 0.0
1.2000000000000002 1.7000000000000002 0.0
1.6 1.7000000000000002 0.0
2.0 1.7000000000000002 0.0
2.4000000000000004 1.7000000000000002 0.0
2.8000000000000003 1.7000000000000002 0.0
3.2 1.7000000000000002 0.0
3.6 1.7000000000000002 0.0
4.0 1.7000000000000002 0.0
4.4 1.7000000000000002 0.0
4.800000000000001 1.7000000000000002 0.0
5.2 1.7000000000000002 0.0
5.6000000000000005 1.7000000000000002 0.0
6.0 1.7000000000000002 0.0
6.4 1.7000000000000002 0.0
6.800000000000001 1.7000000000000002 0.0
7.2 1.7000000000000002 0.0
7.6000000000000005 1.7000000000000002 0.0
8.0 1.7000000000000002 0.0
8.4 1.7000000000000002 0.0
8.8 1.7000000000000002 0.0
9.200000000000001 1.7000000000000002 0.0
9.600000000000001 1.7000000000000002 0.0
10.0 1.7000000000000002 0.0
10.4 1.7000000000000002 0.0
10.8 1.7000000000000002 0.0
11.200000000000001 1.7000000000000002 0.0
11.600000000000001 1.7000000000000002 0.0
12.0 1.7000000000000002 0.0
12.4 1.7000000000000002 0.0
12.8 1.7000000000000002 0.0
13.200000000000001 1.7000000000000002 0.0
13.600000000000001 1.7000000000000002 0.0
14.0 1.7000000000000002 0.0
14.4 1.7000000000000002 0.0
14.8 1.7000000000000002 0.0
15.200000000000001 1.7000000000000002 0.0
15.600000000000001 1.7000000000000002 0.0
16.0 1.7000000000000002 0.0
0.0 1.8 0.0
0.4 1.8 0.0
0.8 1.8 0.0
1.2000000000000002 1.8 0.0
1.6 1.8 0.0
2.0 1.8 0.0
2.4000000000000004 1.8 0.0
2.8000000000000003 1.8 0.0
3.2 1.8 0.0
3.6 1.8 0.0
4.0 1.8 0.0
4.4 1.8 0.0
4.800000000000001 1.8 0.0
5.2 1.8 0.0
5.6000000000000005 1.8 0.0
6.0 1.8 0.0
6.4 1.8 0.0
6.800000000000001 1.8 0.0
7.2 1.8 0.0
7.6000000000000005 1.8 0.0
8.0 1.8 0.0
8.4 1.8 0.0
8.8 1.8 0.0
9.200000000000001 1.8 0.0
9.600000000000001 1.8 0.0
10.0 1.8 0.0
10.4 1.8 0.0
10.8 1.8 0.0
11.200000000000001 1.8 0.0
11.600000000000001 1.8 0.0
12.0 1.8 0.0
12.4 1.8 0.0
12.8 1.8 0.0
13.200000000000001 1.8 0.0
13.600000000000001 1.8 0.0
14.0 1.8 0.0
14.4 1.8 0.0
14.8 1.8 0.0
15.200000000000001 1.8 0.0
15.600000000000001 1.8 0.0
16.0 1.8 0.0
0.0 1.9000000000000001 0.0
0.4 1.9000000000000001 0.0
0.8 1.9000000000000001 0.0
1.2000000000000002 1.9000000000000001 0.0
1.6 1.9000000000000001 0.0
2.0 1.9000000000000001 0.0
2.4000000000000004 1.9000000000000001 0.0
2.8000000000000003 1.9000000000000001 0.0
3.2 1.9000000000000001 0.0
3.6 1.9000000000000001 0.0
4.0 1.9000000000000001 0.0
4.4 1.9000000000000001 0.0
4.800000000000001 1.9000000000000001 0.0
5.2 1.9000000000000001 0.0
5.6000000000000005 1.9000000000000001 0.0
6.0 1.9000000000000001 0.0
6.4 1.9000000000000001 0.0
6.800000000000001 1.9000000000000001 0.0
7.2 1.9000000000000001 0.0
7.6000000000000005 1.9000000000000001 0.0
8.0 1.9000000000000001 0.0
8.4 1.9000000000000001 0.0
8.8 1.9000000000000001 0.0
9.200000000000001 1.9000000000000001 0.0
9.600000000000001 1.9000000000000001 0.0
10.0 1.9000000000000001 0.0
10.4 1.9000000000000001 0.0
10.8 1.9000000000000001 0.0
11.200000000000001 1.9000000000000001 0.0
11.600000000000001 1.9000000000000001 0.0
12.0 1.9000000000000001 0.0
12.4 1.9000000000000001 0.0
12.8 1.9000000000000001 0.0
13.200000000000001 1.9000000000000001 0.0
13.600000000000001 1.9000000000000001 0.0
14.0 1.9000000000000001 0.0
14.4 1.9000000000000001 0.0
14.8 1.9000000000000001 0.0
15.200000000000001 1.9000000000000001 0.0
15.600000000000001 1.9000000000000001 0.0
16.0 1.9000000000000001 0.0
0.0 2.0 0.0
0.4 2.0 0.0
0.8 2.0 0.0
1.2000000000000002 2.0 0.0
1.6 2.0 0.0
2.0 2.0 0.0
2.4000000000000004 2.0 0.0
2.8000000000000003 2.0 0.0
3.2 2.0 0.0
3.6 2.0 0.0
4.0 2.0 0.0
4.4 2.0 0.0
4.800000000000001 2.0 0.0
5.2 2.0 0.0
5.6000000000000005 2.0 0.0
6.0 2.0 0.0
6.4 2.0 0.0
6.800000000000001 2.0 0.0
7.2 2.0 0.0
7.6000000000000005 2.0 0.0
8.0 2.0 0.0
8.4 2.0 0.0
8.8 2.0 0.0
9.200000000000001 2.0 0.0
9.600000000000001 2.0 0.0
10.0 2.0 0.0
10.4 2.0 0.0
10.8 2.0 0.0
11.200000000000001 2.0 0.0
11.600000000000001 2.0 0.0
12.0 2.0 0.0
12.4 2.0 0.0
12.8 2.0 0.0
13.200000000000001 2.0 0.0
13.600000000000001 2.0 0.0
14.0 2.0 0.0
14.4 2.0 0.0
14.8 2.0 0.0
15.200000000000001 2.0 0.0
15.600000000000001 2.0 0.0
16.0 2.0 0.0
CELLS 800 4000
4 0 1 42 41
4 1 2 43 42
4 2 3 44 43
4 3 4 45 44
4 4 5 46 45
4 5 6 47 46
4 6 7 48 47
4 7 8 49 48
4 8 9 50 49
4 9 10 51 50
4 10 11 52 51
4 11 12 53 52
4 12 13 54 53
4 13 14 55 54
4 14 15 56 55
4 15 16 57 56
4 16 17 58 57
4 17 18 59 58
4 18 19 60 59
4 19 20 61 60
4 20 21 62 61
4 21 22 63 62
4 22 23 64 63
4 23 24 65 64
4 24 25 66 65
4 25 26 67 66
4 26 27 68 67
4 27 28 69 68
4 28 29 70 69
4 29 30 71 70
4 30 31 72 71
4 31 32 73 72
4 32 33 74 73
4 33 34 75 74
4 34 35 76 75
4 35 36 77 76
4 36 37 78 77
4 37 38 79 78
4 38 39 80 79
4 39 40 81 80
4 41 42 83 82
4 42 43 84 83
4 43 44 85 84
4 44 45 86 85
4 45 46 87 86
4 46 47 88 87
4 47 48 89 88
4 48 49 90 89
4 49 50 91 90
4 50 51 92 91
4 51 52 93 92
4 52 53 94 93
4 53 54 95 94
4 54 55 96 95
4 55 56 97 96
4 56 57 98 97
4 57 58 99 98
4 58 59 100 99
4 59 60 101 100
4 60 61 102 101
4 61 62 103 102
4 62 63 104 103
4 63 64 105 104
4 64 65 106 105
4 65 66 107 106
4 66 67 108 107
4 67 68 109 108
4 68 69 110 109
4 69 70 111 110
4 70 71 112 111
4 71 72 113 112
4 72 73 114 113
4 73 74 115 114
4 74 75 116 115
4 75 76 117 116
4 76 77 118 117
4 77 78 119 118
4 78 79 120 119
4 79 80 121 120
4 80 81 122 121
4 82 83 124 123
4 83 84 125 124
4 84 85 126 125
4 85 86 127 126
4 86 87 128 127
4 87 88 129 128
4 88 89 130 129
4 89 90 131 130
4 90 91 132 131
4 91 92 133 132
4 92 93 134 133
4 93 94 135 134
4 94 95 136 135
4 95 96 137 136
4 96 97 138 137
4 97 98 139 138
4 98 99 140 139
4 99 100 141 140
4 100 101 142 141
4 101 102 143 142
4 102 103 144 143
4 103 104 145 144
4 104 105 146 145
4 105 106 147 146
4 106 107 148 147
4 107 108 149 148
4 108 109 150 149
4 109 110 151 150
4 110 111 152 151
4 111 112 153 152
4 112 113 154 153
4 113 114 155 154
4 114 115 156 155
4 115 116 157 156
4 116 117 158 157
4 117 118 159 158
4 118 119 160 159
4 119 120 161 160
4 120 121 162 161
4 121 122 163 162
4 123 124 165 164
4 124 125 166 165
4 125 126 167 166
4 126 127 168 167
4 127 128 169 168
4 128 129 170 169
4 129 130 171 170
4 130 131 172 171
4 131 132 173 172
4 132 133 174 173
4 133 134 175 174
4 134 135 176 175
4 135 136 177 176
4 136 137 178 177
4 137 138 179 178
4 138 139 180 179
4 139 140 181 180
4 140 141 182 181
4 141 142 183 182
4 142 143 184 183
4 143 144 185 184
4 144 145 186 185
4 145 146 187 186
4 146 147 188 187
4 147 148 189 188
4 148 149 190 189
4 149 150 191 190
4 150 151 192 191
4 151 152 193 192
4 152 153 194 193
4 153 154 195 194
4 154 155 196 195
4 155 156 197 196
4 156 157 198 197
4 157 158 199 198
4 158 159 200 199
4 159 160 201 200
4 160 161 202 201
4 161 162 203 202
4 162 163 204 203
4 164 165 206 205
4 165 166 207 206
4 166 167 208 207
4 167 168 209 208
4 168 169 210 209
4 169 170 211 210
4 170 171 212 211
4 171 172 213 212
4 172 173 214 213
4 173 174 215 214
4 174 175 216 215
4 175 176 217 216
4 176 177 218 217
4 177 178 219 218
4 178 179 220 219
4 179 180 221 220
4 180 181 222 221
4 181 182 223 222
4 182 183 224 223
4 183 184 225 224
4 184 185 226 225
4 185 186 227 226
4 186 187 228 227
4 187 188 229 228
4 188 189 230 229
4 189 190 231 230
4 190 191 232 231
4 191 192 233 232
4 192 193 234 233
4 193 194 235 234
4 194 195 236 235
4 195 196 237 236
4 196 197 238 237
4 197 198 239 238
4 198 199 240 239
4 199 200 241 240
4 200 201 242 241
4 201 202 243 242
4 202 203 244 243
4 203 204 245 244
4 205 206 247 246
4 206 207 248 247
4 207 208 249 248
4 208 209 250 249
4 209 210 251 250
4 210 211 252 251
4 211 212 253 252
4 212 213 254 253
4 213 214 255 254
4 214 215 256 255
4 215 216 257 256
4 216 217 258 257
4 217 218 259 258
4 218 219 260 259
4 219 220 261 260
4 220 221 262 261
4 221 222 263 262
4 222 223 264 263
4 223 224 265 264
4 224 225 266 265
4 225 226 267 266
4 226 227 268 267
4 227 228 269 268
4 228 229 270 269
4 229 230 271 270
4 230 231 272 271
4 231 232 273 272
4 232 233 274 273
4 233 234 275 274
4 234 235 276 275
4 235 236 277 276
4 236 237 278 277
4 237 238 279 278
4 238 239 280 279
4 239 240 281 280
4 240 241 282 281
4 241 242 283 282
4 242 243 284 283
4 243 244 285 284
4 244 245 286 285
4 246 247 288 287
4 247 248 289 288
4 248 249 290 289
4 249 250 291 290
4 250 251 292 291
4 251 252 293 292
4 252 253 294 293
4 253 254 295 294
4 254 255 296 295
4 255 256 297 296
4 256 257 298 297
4 257 258 299 298
4 258 259 300 299
4 259 260 301 300
4 260 261 302 301
4 261 262 303 302
4 262 263 304 303
4 263 264 305 304
4 264 265 306 305
4 265 266 307 306
4 266 267 308 307
4 267 268 309 308
4 268 269 310 309
4 269 270 311 310
4 270 271 312 311
4 271 272 313 312
4 272 273 314 313
4 273 274 315 314
4 274 275 316 315
4 275 276 317 316
4 276 277 318 317
4 277 278 319 318
4 278 279 320 319
4 279 280 321 320
4 280 281 322 321
4 281 282 323 322
4 282 283 324 323
4 283 284 325 324
4 284 285 326 325
4 285 286 327 326
4 287 288 329 328
4 288 289 330 329
4 289 290 331 330
4 290 291 332 331
4 291 292 333 332
4 292 293 334 333
4 293 294 335 334
4 294 295 336 335
4 295 296 337 336
4 296 297 338 337
4 297 298 339 338
4 298 299 340 339
4 299 300 341 340
4 300 301 342 341
4 301 302 343 342
4 302 303 344 343
4 303 304 345 344
4 304 305 346 345
4 305 306 347 346
4 306 307 348 347
4 307 308 349 348
4 308 309 350 349
4 309 310 351 350
4 310 311 352 351
4 311 312 353 352
4 312 313 354 353
4 313 314 355 354
4 314 315 356 355
4 315 316 357 356
4 316 317 358 357
4 317 318 359 358
4 318 319 360 359
4 319 320 361 360
4 320 321 362 361
4 321 322 363 362
4 322 323 364 363
4 323 324 365 364
4 324 325 366 365
4 325 326 367 366
4 326 327 368 367
4 328 329 370 369
4 329 330 371 370
4 330 331 372 371
4 331 332 373 372
4 332 333 374 373
4 333 334 375 374
4 334 335 376 375
4 335 336 377 376
4 336 337 378 377
4 337 338 379 378
4 338 339 380 379
4 339 340 381 380
4 340 341 382 381
4 341 342 383 382
4 342 343 384 383
4 343 344 385 384
4 344 345 386 385
4 345 346 387 386
4 346 347 388 387
4 347 348 389 388
4 348 349 390 389
4 349 350 391 390
4 350 351 392 391
4 351 352 393 392
4 352 353 394 393
4 353 354 395 394
4 354 355 396 395
4 355 356 397 396
4 356 357 398 397
4 357 358 399 398
4 358 359 400 399
4 359 360 401 400
4 360 361 402 401
4 361 362 403 402
4 362 363 404 403
4 363 364 405 404
4 364 365 406 405
4 365 366 407 406
4 366 367 408 407
4 367 368 409 408
4 369 370 411 410
4 370 371 412 411
4 371 372 413 412
4 372 373 414 413
4 373 374 415 414
4 374 375 416 415
4 375 376 417 416
4 376 377 418 417
4 377 378 419 418
4 378 379 420 419
4 379 380 421 420
4 380 381 422 421
4 381 382 423 422
4 382 383 424 423
4 383 384 425 424
4 384 385 426 425
4 385 386 427 426
4 386 387 428 427
4 387 388 429 428
4 388 389 430 429
4 389 390 431 430
4 390 391 432 431
4 391 392 433 432
4 392 393 434 433
4 393 394 435 434
4 394 395 436 435
4 395 396 437 436
4 396 397 438 437
4 397 398 439 438
4 398 399 440 439
4 399 400 441 440
4 400 401 442 441
4 401 402 443 442
4 402 403 444 443
4 403 404 445 444
4 404 405 446 445
4 405 406 447 446
4 406 407 448 447
4 407 408 449 448
4 408 409 450 449
4 410 411 452 451
4 411 412 453 452
4 412 413 454 453
4 413 414 455 454
4 414 415 456 455
4 415 416 457 456
4 416 417 458 457
4 417 418 459 458
4 418 419 460 459
4 419 420 461 460
4 420 421 462 461
4 421 422 463 462
4 422 423 464 463
4 423 424 465 464
4 424 425 466 465
4 425 426 467 466
4 426 427 468 467
4 427 428 469 468
4 428 429 470 469
4 429 430 471 470
4 430 431 472 471
4 431 432 473 472
4 432 433 474 473
4 433 434 475 474
4 434 435 476 475
4 435 436 477 476
4 436 437 478 477
4 437 438 479 478
4 438 439 480 479
4 439 440 481 480
4 440 441 482 481
4 441 442 483 482
4 442 443 484 483
4 443 444 485 484
4 444 445 486 485
4 445 446 487 486
4 446 447 488 487
4 447 448 489 488
4 448 449 490 489
4 449 450 491 490
4 451 452 493 492
4 452 453 494 493
4 453 454 495 494
4 454 455 496 495
4 455 456 497 496
4 456 457 498 497
4 457 458 499 498
4 458 459 500 499
4 459 460 501 500
4 460 461 502 501
4 461 462 503 502
4 462 463 504 503
4 463 464 505 504
4 464 465 506 505
4 465 466 507 506
4 466 467 508 507
4 467 468 509 508
4 468 469 510 509
4 469 470 511 510
4 470 471 512 511
4 471 472 513 512
4 472 473 514 513
4 473 474 515 514
4 474 475 516 515
4 475 476 517 516
4 476 477 518 517
4 477 478 519 518
4 478 479 520 519
4 479 480 521 520
4 480 481 522 521
4 481 482 523 522
4 482 483 524 523
4 483 484 525 524
4 484 485 526 525
4 485 486 527 526
4 486 487 528 527
4 487 488 529 528
4 488 489 530 529
4 489 490 531 530
4 490 491 532 531
4 492 493 534 533
4 493 494 535 534
4 494 495 536 535
4 495 496 537 536
4 496 497 538 537
4 497 498 539 538
4 498 499 540 539
4 499 500 541 540
4 500 501 542 541
4 501 502 543 542
4 502 503 544 543
4 503 504 545 544
4 504 505 546 545
4 505 506 547 546
4 506 507 548 547
4 507 508 549 548
4 508 509 550 549
4 509 510 551 550
4 510 511 552 551
4 511 512 553 552
4 512 513 554 553
4 513 514 555 554
4 514 515 556 555
4 515 516 557 556
4 516 517 558 557
4 517 518 559 558
4 518 519 560 559
4 519 520 561 560
4 520 521 562 561
4 521 522 563 562
4 522 523 564 563
4 523 524 565 564
4 524 525 566 565
4 525 526 567 566
4 526 527 568 567
4 527 528 569 568
4 528 529 570 569
4 529 530 571 570
4 530 531 572 571
4 531 532 573 572
4 533 534 575 574
4 534 535 576 575
4 535 536 577 576
4 536 537 578 577
4 537 538 579 578
4 538 539 580 579
4 539 540 581 580
4 540 541 582 581
4 541 542 583 582
4 542 543 584 583
4 543 544 585 584
4 544 545 586 585
4 545 546 587 586
4 546 547 588 587
4 547 548 589 588
4 548 549 590 589
4 549 550 591 590
4 550 551 592 591
4 551 552 593 592
4 552 553 594 593
4 553 554 595 594
4 554 555 596 595
4 555 556 597 596
4 556 557 598 597
4 557 558 599 598
4 558 559 600 599
4 559 560 601 600
4 560 561 602 601
4 561 562 603 602
4 562 563 604 603
4 563 564 605 604
4 564 565 606 605
4 565 566 607 606
4 566 567 608 607
4 567 568 609 608
4 568 569 610 609
4 569 570 611 610
4 570 571 612 611
4 571 572 613 612
4 572 573 614 613
4 574 575 616 615
4 575 576 617 616
4 576 577 618 617
4 577 578 619 618
4 578 579 620 619
4 579 580 621 620
4 580 581 622 621
4 581 582 623 622
4 582 583 624 623
4 583 584 625 624
4 584 585 626 625
4 585 586 627 626
4 586 587 628 627
4 587 588 629 628
4 588 589 630 629
4 589 590 631 630
4 590 591 632 631
4 591 592 633 632
4 592 593 634 633
4 593 594 635 634
4 594 595 636 635
4 595 596 637 636
4 596 597 638 637
4 597 598 639 638
4 598 599 640 639
4 599 600 641 640
4 600 601 642 641
4 601 602 643 642
4 602 603 644 643
4 603 604 645 644
4 604 605 646 645
4 605 606 647 646
4 606 607 648 647
4 607 608 649 648
4 608 609 650 649
4 609 610 651 650
4 610 611 652 651
4 611 612 653 652
4 612 613 654 653
4 613 614 655 654
4 615 616 657 656
4 616 617 658 657
4 617 618 659 658
4 618 619 660 659
4 619 620 661 660
4 620 621 662 661
4 621 622 663 662
4 622 623 664 663
4 623 624 665 664
4 624 625 666 665
4 625 626 667 666
4 626 627 668 667
4 627 628 669 668
4 628 629 670 669
4 629 630 671 670
4 630 631 672 671
4 631 632 673 672
4 632 633 674 673
4 633 634 675 674
4 634 635 676 675
4 635 636 677 676
4 636 637 678 677
4 637 638 679 678
4 638 639 680 679
4 639 640 681 680
4 640 641 682 681
4 641 642 683 682
4 642 643 684 683
4 643 644 685 684
4 644 645 686 685
4 645 646 687 686
4 646 647 688 687
4 647 648 689 688
4 648 649 690 689
4 649 650 691 690
4 650 651 692 691
4 651 652 693 692
4 652 653 694 693
4 653 654 695 694
4 654 655 696 695
4 656 657 698 697
4 657 658 699 698
4 658 659 700 699
4 659 660 701 700
4 660 661 702 701
4 661 662 703 702
4 662 663 704 703
4 663 664 705 704
4 664 665 706 705
4 665 666 707 706
4 666 667 708 707
4 667 668 709 708
4 668 669 710 709
4 669 670 711 710
4 670 671 712 711
4 671 672 713 712
4 672 673 714 713
4 673 674 715 714
4 674 675 716 715
4 675 676 717 716
4 676 677 718 717
4 677 678 719 718
4 678 679 720 719
4 679 680 721 720
4 680 681 722 721
4 681 682 723 722
4 682 683 724 723
4 683 684 725 724
4 684 685 726 725
4 685 686 727 726
4 686 687 728 727
4 687 688 729 728
4 688 689 730 729
4 689 690 731 730
4 690 691 732 731
4 691 692 733 732
4 692 693 734 733
4 693 694 735 734
4 694 695 736 735
4 695 696 737 736
4 697 698 739 738
4 698 699 740 739
4 699 700 741 740
4 700 701 742 741
4 701 702 743 742
4 702 703 744 743
4 703 704 745 744
4 704 705 746 745
4 705 706 747 746
4 706 707 748 747
4 707 708 749 748
4 708 709 750 749
4 709 710 751 750
4 710 711 752 751
4 711 712 753 752
4 712 713 754 753
4 713 714 755 754
4 714 715 756 755
4 715 716 757 756
4 716 717 758 757
4 717 718 759 758
4 718 719 760 759
4 719 720 761 760
4 720 721 762 761
4 721 722 763 762
4 722 723 764 763
4 723 724 765 764
4 724 725 766 765
4 725 726 767 766
4 726 727 768 767
4 727 728 769 768
4 728 729 770 769
4 729 730 771 770
4 730 731 772 771
4 731 732 773 772
4 732 733 774 773
4 733 734 775 774
4 734 735 776 775
4 735 736 777 776
4 736 737 778 777
4 738 739 780 779
4 739 740 781 780
4 740 741 782 781
4 741 742 783 782
4 742 743 784 783
4 743 744 785 784
4 744 745 786 785
4 745 746 787 786
4 746 747 788 787
4 747 748 789 788
4 748 749 790 789
4 749 750 791 790
4 750 751 792 791
4 751 752 793 792
4 752 753 794 793
4 753 754 795 794
4 754 755 796 795
4 755 756 797 796
4 756 757 798 797
4 757 758 799 798
4 758 759 800 799
4 759 760 801 800
4 760 761 802 801
4 761 762 803 802
4 762 763 804 803
4 763 764 805 804
4 764 765 806 805
4 765 766 807 806
4 766 767 808 807
4 767 768 809 808
4 768 769 810 809
4 769 770 811 810
4 770 771 812 811
4 771 772 813 812
4 772 773 814 813
4 773 774 815 814
4 774 775 816 815
4 775 776 817 816
4 776 777 818 817
4 777 778 819 818
4 779 780 821 820
4 780 781 822 821
4 781 782 823 822
4 782 783 824 823
4 783 784 825 824
4 784 785 826 825
4 785 786 827 826
4 786 787 828 827
4 787 788 829 828
4 788 789 830 829
4 789 790 831 830
4 790 791 832 831
4 791 792 833 832
4 792 793 834 833
4 793 794 835 834
4 794 795 836 835
4 795 796 837 836
4 796 797 838 837
4 797 798 839 838
4 798 799 840 839
4 799 800 841 840
4 800 801 842 841
4 801 802 843 842
4 802 803 844 843
4 803 804 845 844
4 804 805 846 845
4 805 806 847 846
4 806 807 848 847
4 807 808 849 848
4 808 809 850 849
4 809 810 851 850
4 810 811 852 851
4 811 812 853 852
4 812 813 854 853
4 813 814 855 854
4 814 815 856 855
4 815 816 857 856
4 816 817 858 857
4 817 818 859 858
4 818 819 860 859
CELL_TYPES 800
9
9
9
9
9
9
9
9
9
9
9
9
9
9
9
9
9
9
9
9
9
9
9
9
9
9
9
9
9
9
9
9
9
9
9
9
9
9
9
9
9
9
9
9
9
9
9
9
9
9
9
9
9
9
9
9
9
9
9
9
9
9
9
9
9
9
9
9
9
9
9
9
9
9
9
9
9
9
9
9
9
9
9
9
9
9
9
9
9
9
9
9
9
9
9
9
9
9
9
9
9
9
9
9
9
9
9
9
9
9
9
9
9
9
9
9
9
9
9
9
9
9
9
9
9
9
9
9
9
9
9
9
9
9
9
9
9
9
9
9
9
9
9
9
9
9
9
9
9
9
9
9
9
9
9
9
9
9
9
9
9
9
9
9
9
9
9
9
9
9
9
9
9
9
9
9
9
9
9
9
9
9
9
9
9
9
9
9
9
9
9
9
9
9
9
9
9
9
9
9
9
9
9
9
9
9
9
9
9
9
9
9
9
9
9
9
9
9
9
9
9
9
9
9
9
9
9
9
9
9
9
9
9
9
9
9
9
9
9
9
9
9
9
9
9
9
9
9
9
9
9
9
9
9
9
9
9
9
9
9
9
9
9
9
9
9
9
9
9
9
9
9
9
9
9
9
9
9
9
9
9
9
9
9
9
9
9
9
9
9
9
9
9
9
9
9
9
9
9
9
9
9
9
9
9
9
9
9
9
9
9
9
9
9
9
9
9
9
9
9
9
9
9
9
9
9
9
9
9
9
9
9
9
9
9
9
9
9
9
9
9
9
9
9
9
9
9
9
9
9
9
9
9
9
9
9
9
9
9
9
9
9
9
9
9
9
9
9
9
9
9
9
9
9
9
9
9
9
9
9
9
9
9
9
9
9
9
9
9
9
9
9
9
9
9
9
9
9
9
9
9
9
9
9
9
9
9
9
9
9
9
9
9
9
9
9
9
9
9
9
9
9
9
9
9
9
9
9
9
9
9
9
9
9
9
9
9
9
9
9
9
9
9
9
9
9
9
9
9
9
9
9
9
9
9
9
9
9
9
9
9
9
9
9
9
9
9
9
9
9
9
9
9
9
9
9
9
9
9
9
9
9
9
9
9
9
9
9
9
9
9
9
9
9
9
9
9
9
9
9
9
9
9
9
9
9
9
9
9
9
9
9
9
9
9
9
9
9
9
9
9
9
9
9
9
9
9
9
9
9
9
9
9
9
9
9
9
9
9
9
9
9
9
9
9
9
9
9
9
9
9
9
9
9
9
9
9
9
9
9
9
9
9
9
9
9
9
9
9
9
9
9
9
9
9
9
9
9
9
9
9
9
9
9
9
9
9
9
9
9
9
9
9
9
9
9
9
9
9
9
9
9
9
9
9
9
9
9
9
9
9
9
9
9
9
9
9
9
9
9
9
9
9
9
9
9
9
9
9
9
9
9
9
9
9
9
9
9
9
9
9
9
9
9
9
9
9
9
9
9
9
9
9
9
9
9
9
9
9
9
9
9
9
9
9
9
9
9
9
9
9
9
9
9
9
9
9
9
9
9
9
9
9
9
9
9
9
9
9
9
9
9
9
9
9
9
9
9
9
9
9
9
9
9
9
9
9
9
9
9
9
9
9
9
9
9
9
9
9
9
9
9
9
9
9
9
9
9
9
9
9
9
9
9
9
9
9
9
9
9
9
9
9
9
9
9
9
9
9
9
9
9
9
9
9
9
9
9
9
9
9
9
9
9
9
9
9
9
9
9
9
9
9
9
9
9
9
9
9
9
9
9
9
9
9
9
9
9
9
9
9
9
9
9
9
9
9
9
9
9
POINT_DATA 861
SCALARS Disp float 2
LOOKUP_TABLE default
0.0 0.0
0.017627086091496373 -0.3221481828291264
0.03139671467910342 -0.5943517132341406
0.042441815443235976 -0.861882851360221
0.05506040535640374 -1.1242685206812901
0.07023649547106399 -1.381392046663875
0.0884539924286069 -1.6320247340814766
0.10990710647449636 -1.8748390708374305
0.13465941252659472 -2.1084632650428907
0.16272564540393997 -2.3315423907841217
0.1941036016018947 -2.5427372125099392
0.22878820119816096 -2.7407207757539283
0.2667763179001935 -2.9241742863797056
0.30807141240977176 -3.091785272501635
0.35269348204250206 -3.242243226172745
0.40069728821652595 -3.3742215819443016
0.4521906999911584 -3.4863262867163916
0.5073165566424818 -3.5769922418595828
0.5661192237360364 -3.6443495604586005
0.6282160583533343 -3.686206573369558
0.6923795040236083 -3.7004754884992996
0.756542949693882 -3.686206573369557
0.8186397843111796 -3.6443495604586
0.8774424514047342 -3.5769922418595823
0.9325683080560575 -3.4863262867163907
0.9840617198306901 -3.374221581944301
1.032065526004714 -3.2422432261727447
1.0766875956374446 -3.0917852725016344
1.117982690147023 -2.9241742863797042
1.1559708068490555 -2.7407207757539265
1.1906554064453214 -2.5427372125099392
1.222033362643276 -2.331542390784121
1.2500995955206209 -2.108463265042889
1.2748519015727193 -1.8748390708374294
1.2963050156186091 -1.632024734081475
1.3145225125761517 -1.3813920466638756
1.3296986026908122 -1.12426852068129
1.3423171926039799 -0.8618828513602216
1.3533622933681124 -0.5943517132341398
1.3671319219557196 -0.3221481828291252
1.3847590080472159 0.0
0.07980045605788956 -0.010946761720303089
0.09077688138975155 -0.32129484488353405
0.09837420014145734 -0.5958974302240948
0.10860853443054481 -0.862960522441499
0.11983108279979829 -1.1256883780470959
0.1335329334379056 -1.3830832899685694
0.1499513309031201 -1.6340434904844294
0.16927440657466522 -1.877190372455387
0.19155839715111778 -2.1111515914904473
0.21682059042869528 -2.3345678454579875
0.24506160133759794 -2.546099458070648
0.27627849512396396 -2.7444193824621648
0.3104696709160271 -2.928209210313687
0.34763923444688516 -3.0961574584889466
0.38780500106883214 -3.2469559382543456
0.43101149687184787 -3.379282348156605
0.47733943022766434 -3.491747591215411
0.5268800543532994 -3.5827853847280493
0.579613030590797 -3.650502602793169
0.6351393795794356 -3.69264349896275
0.6923795040236081 -3.7070249857087654
0.7496196284677809 -3.692643498962749
0.8051459774564189 -3.650502602793168
0.8578789536939165 -3.5827853847280493
0.9074195778195516 -3.4917475912154106
0.9537475111753683 -3.3792823481566057
0.996954006978384 -3.246955938254345
1.0371197736003313 -3.096157458488946
1.074289337131189 -2.9282092103136863
1.1084805129232522 -2.744419382462163
1.1396974067096182 -2.5460994580706475
1.1679384176185204 -2.334567845457986
1.193200610896098 -2.1111515914904464
1.2154846014725507 -1.877190372455386
1.234807677144096 -1.6340434904844279
1.2512260746093102 -1.3830832899685699
1.2649279252474175 -1.1256883780470959
1.2761504736166709 -0.8629605224414996
1.2863848079057585 -0.595897430224094
1.2939821266574643 -0.3212948448835329
1.3049585519893263 -0.0109467617203031
0.15416731274461618 -0.020349731228289973
0.16204022724504316 -0.320669008967013
0.16612906276072123 -0.5967490984884215
0.17432334474691044 -0.8640096668986211
0.18427474293493012 -1.1269176205014604
0.1964005000164256 -1.384602205530228
0.2110073799788809 -1.6358484894648553
0.228190849434432 -1.8792952322600462
0.248005035417077 -2.1135573172951
0.27046330739578295 -2.3372751089382793
0.29556794302740574 -2.54910793710107
0.3233174708285369 -2.747728819199565
0.35371128424875725 -2.931819579490439
0.3867529755924217 -3.100069429139143
0.42245603628767936 -3.2511718056852494
0.4608525318512158 -3.3838074900290795
0.501998136357882 -3.4965911585462885
0.5459491257752955 -3.587955945464003
0.5926630695703261 -3.655990975771608
0.6417824501487824 -3.698387600870446
0.6923795040236081 -3.712874338716588
0.7429765578984339 -3.6983876008704453
0.7920959384768901 -3.6559909757716076
0.8388098822719202 -3.587955945464003
0.8827608716893339 -3.496591158546288
0.9239064761960003 -3.3838074900290795
0.9623029717595367 -3.251171805685249
0.9980060324547945 -3.100069429139142
1.0310477237984588 -2.9318195794904383
1.0614415372186792 -2.7477288191995632
1.0891910650198104 -2.549107937101069
1.114295700651433 -2.3372751089382784
1.1367539726301388 -2.113557317295099
1.1565681586127838 -1.8792952322600456
1.173751628068335 -1.6358484894648537
1.1883585080307904 -1.3846022055302285
1.2004842651122858 -1.1269176205014602
1.2104356633003053 -0.8640096668986218
1.2186299452864946 -0.5967490984884206
1.2227187808021727 -0.32066900896701195
1.2305916953025997 -0.02034973122828998
0.2253236547964473 -0.028386382174130857
0.23157739729533144 -0.3204849947405603
0.23374549733782105 -0.5971262465600838
0.2398445134898449 -0.8648765082050525
0.24835374154480933 -1.1279873026489673
0.2589027038773553 -1.385930958808701
0.2716688253530039 -1.6374405639978438
0.2867083421242046 -1.8811521657657693
0.3040500175641701 -2.11568051972916
0.323704313735978 -2.3396642068752107
0.3456728198895002 -2.551762737810699
0.36995512593060176 -2.7506490859731687
0.3965510698927794 -2.935005191359584
0.425462853388871 -3.103520506738608
0.4566982265102624 -3.254889281175478
0.49027578771531083 -3.387794459032386
0.5262292827751327 -3.500854799896888
0.5645950372166025 -3.5925070867448503
0.605342843112565 -3.6608327669813563
0.6481977417411827 -3.703479583169718
0.692379504023608 -3.718076987330995
0.7365612663060336 -3.703479583169717
0.7794161649346513 -3.6608327669813554
0.8201639708306132 -3.5925070867448503
0.8585297252720832 -3.500854799896888
0.8944832203319051 -3.3877944590323854
0.9280607815369537 -3.254889281175477
0.9592961546583452 -3.103520506738607
0.9882079381544365 -2.935005191359583
1.0148038821166143 -2.7506490859731674
1.0390861881577158 -2.5517627378106975
1.0610546943112378 -2.33966420687521
1.0807089904830458 -2.115680519729159
1.0980506659230111 -1.8811521657657686
1.113090182694212 -1.637440563997842
1.1258563041698606 -1.3859309588087017
1.1364052665024065 -1.1279873026489668
1.144914494557371 -0.864876508205053
1.1510135107093946 -0.5971262465600831
1.1531816107518846 -0.32048499474055925
1.1594353532507684 -0.028386382174130875
0.29442856753505015 -0.0352314081932873
0.2997068629022655 -0.3207201816009572
0.3008521453701492 -0.597232018514321
0.30515043913130074 -0.8655171014074985
0.312120308553537 -1.1288880298161583
0.32107448789636195 -1.3870686661169216
0.33198815241327506 -1.638816411291085
0.34487671821909427 -1.882760999300028
0.3597442620493883 -2.1175209054286004
0.3765940138015896 -2.3417351921574103
0.39542645829867595 -2.554063886416321
0.41624150901138973 -2.753180164355598
0.43903907744641624 -2.9377658667080495
0.4638193761239952 -3.106510177691809
0.4905836748830806 -3.258107293223049
0.5193370028863143 -3.3912416683890174
0.5500944441031792 -3.5045376538263633
0.5828846531534472 -3.5964427065624522
0.6177159878875657 -3.66504402215764
0.6544264788754877 -3.707953397527782
0.692379504023608 -3.72267746987978
0.7303325291717284 -3.707953397527781
0.7670430201596505 -3.6650440221576397
0.8018743548937688 -3.5964427065624514
0.8346645639440367 -3.5045376538263633
0.8654220051609015 -3.3912416683890174
0.8941753331641354 -3.2581072932230484
0.920939631923221 -3.1065101776918076
0.9457199306007996 -2.9377658667080486
0.9685174990358262 -2.7531801643555966
0.98933254974854 -2.5540638864163197
1.0081649942456263 -2.3417351921574094
1.0250147459978276 -2.1175209054285995
1.0398822898281217 -1.8827609993000272
1.0527708556339408 -1.638816411291083
1.0636845201508538 -1.3870686661169223
1.0726386994936787 -1.1288880298161579
1.0796085689159152 -0.865517101407499
1.0839068626770667 -0.5972320185143202
1.0850521451449504 -0.3207201816009561
1.0903304405121657 -0.035231408193287336
0.36214789264423713 -0.04104544494784929
0.36673470770135186 -0.32127807215382603
0.3673397176823291 -0.5972068698504829
0.3701819606810789 -0.8659424813229464
0.37561637684514104 -1.1296089495480566
0.38295746603414 -1.3880148977255713
0.39201372935986256 -1.6399745043119383
0.4027465584264024 -1.884121171755657
0.41513822397744243 -2.1190783504326074
0.42918285920446836 -2.343488022523136
0.4448790711465802 -2.556011390084634
0.462226720338772 -2.75532201884916
0.4812254617813922 -2.9401014723679024
0.5018732457990126 -3.1090381214656957
0.524164727898804 -3.2608252565210174
0.5480919270663183 -3.394148385077883
0.5736541003852794 -3.5076397574517584
0.600880989741882 -3.599766527141284
0.6298385000221308 -3.6686378599773635
0.6605021326269015 -3.71183716673713
0.692379504023608 -3.726714088863727
0.7242568754203146 -3.7118371667371295
0.7549205080250854 -3.668637859977363
0.783878018305334 -3.5997665271412833
0.8111049076619364 -3.507639757451759
0.8366670809808977 -3.394148385077882
0.860594280148412 -3.2608252565210174
0.8828857622482036 -3.1090381214656944
0.9035335462658236 -2.9401014723679015
0.922532287708444 -2.755322018849159
0.9398799369006356 -2.5560113900846333
0.9555761488427476 -2.343488022523135
0.9696207840697735 -2.1190783504326065
0.9820124496208136 -1.8841211717556559
0.9927452786873534 -1.6399745043119365
1.0018015420130757 -1.3880148977255717
1.0091426312020748 -1.1296089495480561
1.0145770473661369 -0.8659424813229469
1.0174192903648867 -0.5972068698504821
1.018024300345864 -0.321278072153825
1.0226111154029787 -0.04104544494784933
0.4288968413801032 -0.045968168051849494
0.43291708853261246 -0.322051552441722
0.4332230288406319 -0.5971344594031949
0.4349048647008656 -0.8661841001412496
0.43887107711770806 -1.130147448597713
0.44459603968695227 -1.388768879993798
0.4517931029446231 -1.640914494026059
0.4603680442185712 -1.8852322458689694
0.4702823272165076 -2.1203527317982847
0.4815212194322244 -2.3449226417872326
0.4940808859925975 -2.55760522282352
0.5079608920175003 -2.757074611457452
0.5231604514613668 -2.9420119311470088
0.5396752598875963 -3.111104220904044
0.5574937704093147 -3.263043057040322
0.5765960519864031 -3.396514624275997
0.5969675893333309 -3.5101617130769287
0.6186439733797374 -3.602481431159095
0.6417607846147774 -3.671623896150351
0.6664526889288579 -3.715153843199417
0.6923795040236079 -3.7302209120687686
0.7183063191183582 -3.715153843199416
0.7429982234324388 -3.6716238961503507
0.7661150346674789 -3.6024814311590947
0.7877914187138849 -3.510161713076929
0.808162956060813 -3.3965146242759965
0.8272652376379013 -3.263043057040322
0.8450837481596197 -3.1111042209040427
0.861598556585849 -2.9420119311470074
0.8767981160297157 -2.7570746114574516
0.8906781220546183 -2.5576052228235193
0.9032377886149915 -2.344922641787232
0.9144766808307084 -2.1203527317982838
0.9243909638286447 -1.8852322458689685
0.9329659051025929 -1.6409144940260572
0.9401629683602636 -1.3887688799937983
0.9458879309295077 -1.1301474485977128
0.9498541433463502 -0.8661841001412501
0.951535979206584 -0.5971344594031942
0.9518419195146034 -0.32205155244172096
0.9558621666671128 -0.04596816805184948
0.4949530190394308 -0.05011700686744913
0.49846090487906586 -0.3229457069077469
0.4985727073466298 -0.5970575322980335
0.499318350619515 -0.8662761884094811
0.5019106703123042 -1.1305085887411797
0.5060343471513514 -1.3893308585527637
0.5113741489520616 -1.6416366079010085
0.5177909965377275 -1.886094077451961
0.5252269328008289 -2.1213439324361274
0.5336594157821299 -2.3460389834801845
0.5430821246375023 -2.5588453374222273
0.5534941812397105 -2.758437905257643
0.5648943133480518 -2.943497225964555
0.5772762203757876 -3.112708553961002
0.5906230390165573 -3.264761017164338
0.6049043863687338 -3.3983410588386977
0.6200931570420152 -3.512104468443965
0.6362313203302246 -3.604589030179116
0.6535294940556458 -3.6740078043131685
0.6723022420711622 -3.7179215827077354
0.6923795040236079 -3.7332294485884807
0.7124567659760538 -3.717921582707735
0.7312295139915703 -3.674007804313168
0.7485276877169917 -3.6045890301791155
0.7646658510052006 -3.512104468443965
0.7798546216784822 -3.3983410588386986
0.7941359690306586 -3.2647610171643375
0.8074827876714283 -3.1127085539610007
0.819864694699164 -2.943497225964554
0.8312648268075055 -2.7584379052576415
0.8416768834097135 -2.558845337422227
0.851099592265086 -2.346038983480183
0.859532075246387 -2.1213439324361265
0.8669680115094884 -1.8860940774519597
0.8733848590951545 -1.6416366079010067
0.8787246608958644 -1.389330858552764
0.8828483377349118 -1.1305085887411792
0.8854406574277007 -0.8662761884094816
0.886186300700586 -0.5970575322980327
0.88629810316815 -0.3229457069077459
0.8898059890077852 -0.05011700686744913
0.5605137354639169 -0.05358924562351541
0.5635332706279363 -0.32388411497982156
0.5634815451272343 -0.5969923154348412
0.5634489401690241 -0.866248193993564
0.564765280661833 -1.1307020747728926
0.5673161844279282 -1.3897027625155671
0.5708051016241265 -1.6421415093992688
0.5750651396739769 -1.8867067746333104
0.5800223086478273 -2.1220518764303518
0.5856477343817469 -2.3468369699420717
0.5919329969574317 -2.559731673347203
0.5988767582501914 -2.7594118674723327
0.6064773221887984 -2.9445573957925197
0.6147268544205886 -3.113851369979855
0.623604457097506 -3.265979842815294
0.6330712525945014 -3.39962894856792
0.6430880447118402 -3.5134692227718096
0.6536994647868418 -3.606089449118689
0.6651892442979251 -3.675790919971941
0.678072220208308 -3.7201538094617685
0.6923795040236077 -3.7357702234242915
0.7066867878389079 -3.720153809461768
0.7195697637492908 -3.6757909199719405
0.7310595432603745 -3.606089449118688
0.7416709633353757 -3.513469222771809
0.7516877554527146 -3.399628948567921
0.7611545509497099 -3.265979842815294
0.7700321536266274 -3.1138513699798533
0.7782816858584175 -2.944557395792519
0.7858822497970244 -2.7594118674723314
0.792826011089784 -2.5597316733472026
0.7991112736654691 -2.346836969942071
0.8047366993993886 -2.122051876430351
0.809693868373239 -1.886706774633309
0.8139539064230894 -1.642141509399267
0.8174428236192877 -1.3897027625155673
0.819993727385383 -1.1307020747728922
0.8213100678781917 -0.8662481939935647
0.8212774629199815 -0.5969923154348405
0.8212257374192795 -0.3238841149798206
0.824245272583299 -0.0535892456235154
0.625727122004965 -0.05646557038010006
0.6282712026360703 -0.3248086527933539
0.6280482365243495 -0.596939163518269
0.6273422147737386 -0.8661224735061264
0.6274716488886245 -1.1307394417445285
0.6284860092654923 -1.3898880865666592
0.6301345041603003 -1.6424303025020355
0.6322402521835888 -1.8870706281592373
0.6347186535659304 -2.12247653856531
0.637536423195378 -2.3473165175853445
0.640683699261424 -2.560264160714853
0.644158795339091 -2.7599964708863083
0.6479597352424781 -2.945192525715453
0.6520777527021944 -3.1145330528190613
0.6564894960516876 -3.2667005522502888
0.6611500839919684 -3.400380085194207
0.666008539442523 -3.5142574627651726
0.671104480695834 -3.606981330117909
0.6767843351500872 -3.676969845335879
0.683782453251155 -3.721858916188599
0.6923795040236078 -3.7378744321125867
0.7009765547960608 -3.7218589161885993
0.7079746728971288 -3.676969845335879
0.7136545273513821 -3.6069813301179083
0.7187504686046929 -3.514257462765172
0.7236089240552476 -3.400380085194207
0.7282695119955281 -3.2667005522502883
0.7326812553450214 -3.11453305281906
0.7367992728047378 -2.945192525715452
0.7406002127081247 -2.7599964708863074
0.7440753087857918 -2.5602641607148526
0.747222584851838 -2.347316517585344
0.7500403544812856 -2.122476538565309
0.752518755863627 -1.887070628159236
0.7546245038869157 -1.6424303025020337
0.7562729987817236 -1.3898880865666596
0.7572873591585914 -1.130739441744528
0.7574167932734772 -0.866122473506127
0.7567107715228664 -0.5969391635182685
0.7564878054111456 -0.32480865279335297
0.7590318860422508 -0.05646557038010004
0.6907098752319776 -0.058813922357368174
0.6927894155921046 -0.32567705445220124
0.6923698562344451 -0.5968897778293881
0.6910558749965537 -0.8659144496966251
0.6900734567186354 -1.1306321190189772
0.6895899038836 -1.3898913774958732
0.6894113016616682 -1.6425044920754737
0.6893662263650524 -1.8871860557493407
0.6893661308893869 -2.1226179337439794
0.6893756904813172 -2.347477541931803
0.6893844118919296 -2.5604427234182667
0.6893904588176888 -2.7601916930396917
0.6893917730682063 -2.9454027331285744
0.6893793293518818 -3.114754074444973
0.6893290719800501 -3.2669243844658453
0.6891932080393381 -3.400596738285408
0.6889099068856166 -3.514471123598944
0.6885029361974552 -3.607262087182487
0.6883606209008638 -3.677536057626718
0.6894522738096198 -3.7230394924865635
0.6923795040236079 -3.7395758527465546
0.6953067342375959 -3.723039492486564
0.6963983871463522 -3.6775360576267175
0.6962560718497609 -3.607262087182487
0.6958491011615993 -3.514471123598943
0.6955658000078779 -3.400596738285408
0.6954299360671655 -3.2669243844658444
0.6953796786953338 -3.114754074444972
0.6953672349790095 -2.9454027331285735
0.695368549229527 -2.7601916930396904
0.6953745961552862 -2.5604427234182667
0.6953833175658988 -2.347477541931802
0.6953928771578288 -2.122617933743979
0.6953927816821635 -1.8871860557493398
0.6953477063855478 -1.642504492075472
0.695169104163616 -1.3898913774958734
0.6946855513285806 -1.1306321190189768
0.693703133050662 -0.8659144496966257
0.6923891518127707 -0.5968897778293876
0.6919695924551112 -0.32567705445220035
0.6940491328152383 -0.05881392235736817
0.7555576648393826 -0.0606931108469104
0.7571860397908118 -0.32646000494238975
0.7565386957537438 -0.5968318601488086
0.7546547361111223 -0.8656337660725623
0.7526205342646032 -1.1303903262904005
0.7506761445998997 -1.3897176267606965
0.748685003223325 -1.6423658589885013
0.7464930930436466 -1.8870535516517337
0.7440148892505919 -2.122476098917651
0.741215706448197 -2.347319959647411
0.7380852969754474 -2.560267282138912
0.7346219041938822 -2.7599975137431243
0.7308236069816644 -2.9451881517080016
0.7266818044801856 -3.1145149441447466
0.7221734922535581 -3.266652685906607
0.7172516174058126 -3.4002815747720487
0.7118461114153639 -3.5141128543972147
0.7059525775149887 -3.60692847575234
0.6999676997422231 -3.677475579846993
0.695101885560585 -3.723690901165667
0.6923795040236078 -3.7409132124002844
0.6896571224866308 -3.723690901165667
0.6847913083049928 -3.677475579846993
0.678806430532227 -3.606928475752339
0.672912896631852 -3.5141128543972138
0.6675073906414034 -3.4002815747720487
0.6625855157936574 -3.2666526859066054
0.65807720356703 -3.1145149441447453
0.6539354010655514 -2.9451881517080007
0.6501371038533335 -2.759997513743123
0.6466737110717684 -2.5602672821389123
0.6435433015990188 -2.34731995964741
0.6407441187966239 -2.12247609891765
0.6382659150035693 -1.8870535516517328
0.6360740048238909 -1.6423658589885
0.6340828634473163 -1.389717626760697
0.6321384737826128 -1.1303903262904
0.6301042719360934 -0.865633766072563
0.6282203122934722 -0.596831860148808
0.627572968256404 -0.3264600049423888
0.6292013432078333 -0.060693110846910425
0.8203512470133705 -0.06215597951453094
0.8215465708874145 -0.32713845279654136
0.8206412357081002 -0.5967520155167907
0.8182074365549934 -0.8652857179417687
0.8151677314874335 -1.1300225732177687
0.8117953807080694 -1.3893717227051614
0.8080058142085041 -1.6420162741972524
0.8036710333220148 -1.8866736301328062
0.7987150685746541 -2.122051073988467
0.7931066049884593 -2.346843688386153
0.7868364973745771 -2.559737757265121
0.779903275169673 -2.7594139116858996
0.7723053533712526 -2.944548914180249
0.764035205338658 -3.1138161598242067
0.7550724690593855 -3.2658867793879387
0.7453747637137831 -3.3994375122910543
0.7348692222852947 -3.513186337033192
0.7235126430697262 -3.605977575739243
0.7116616128858505 -3.6767688645761805
0.7007543626180316 -3.723798916826308
0.6923795040236078 -3.741933238156121
0.6840046454291844 -3.7237989168263086
0.6730973951613654 -3.67676886457618
0.6612463649774895 -3.6059775757392427
0.6498897857619214 -3.5131863370331917
0.6393842443334328 -3.3994375122910534
0.6296865389878301 -3.2658867793879365
0.6207238027085576 -3.113816159824205
0.6124536546759632 -2.944548914180248
0.6048557328775428 -2.7594139116858987
0.5979225106726388 -2.559737757265121
0.5916524030587563 -2.3468436883861523
0.5860439394725617 -2.122051073988467
0.5810879747252007 -1.8866736301328053
0.5767531938387117 -1.642016274197251
0.5729636273391464 -1.3893717227051618
0.5695912765597824 -1.1300225732177684
0.5665515714922225 -0.8652857179417694
0.5641177723391155 -0.59675201551679
0.5632124371598014 -0.32713845279654036
0.5644077610338453 -0.062155979514531015
0.8851598814314324 -0.06325208786049916
0.8859464121241111 -0.3277013654091962
0.8847581452406319 -0.5966375413889766
0.8817844839785082 -0.8648726356287824
0.8777738457399222 -1.1295355303631636
0.8730005278297736 -1.3888580124242238
0.8674246824475286 -1.641457489472968
0.8609503752591986 -1.8860467612122338
0.8535167950041839 -2.1213428839675013
0.8450984836410134 -2.3460486461367593
0.8356881367838347 -2.558854071926981
0.8252847069165677 -2.7584408611919433
0.8138870768056777 -2.943485133866799
0.8014893759204319 -3.1126581672788296
0.788075208518518 -3.2646278310761843
0.7736104641214885 -3.3980674602657763
0.7580284266706822 -3.511696547649134
0.7412434226875899 -3.604408312314611
0.7235082414722376 -3.6753912068288423
0.7064389274061749 -3.7233359906248737
0.6923795040236079 -3.7426946511771226
0.6783200806410409 -3.7233359906248737
0.6612507665749782 -3.6753912068288423
0.6435155853596257 -3.60440831231461
0.6267305813765337 -3.5116965476491333
0.6111485439257273 -3.398067460265775
0.5966837995286975 -3.2646278310761825
0.583269632126784 -3.112658167278828
0.570871931241538 -2.9434851338667976
0.559474301130648 -2.758440861191942
0.549070871263381 -2.5588540719269814
0.5396605244062024 -2.346048646136759
0.531242213043032 -2.1213428839675004
0.5238086327880173 -1.8860467612122331
0.5173343255996873 -1.6414574894729665
0.5117584802174423 -1.388858012424224
0.5069851623072936 -1.1295355303631631
0.5029745240687078 -0.8648726356287831
0.5000008628065841 -0.596637541388976
0.49881259592310484 -0.3277013654091952
0.49959912661578354 -0.06325208786049925
0.9500428866104581 -0.06402993459414015
0.9504522993007027 -0.3281439689180651
0.9489647970214946 -0.5964775754734646
0.9454573228809472 -0.8643950911213149
0.9405007631871622 -1.128934082103316
0.9343464772155935 -1.388179968350527
0.9269932419205651 -1.6406909359828976
0.9183815676005741 -1.8851733044076993
0.9084701676191557 -2.120351523661974
0.8972414018043353 -2.3449347515037564
0.8846903207341443 -2.557616155332377
0.8708163322162896 -2.75707833082805
0.8556188074273173 -2.9419968846539217
0.8390939839487871 -3.111041327492905
0.8212305490821933 -3.2628767498145703
0.802005083149886 -3.3961739192513085
0.7813686882862092 -3.509649743778254
0.7592043420356083 -3.6022236228849294
0.73558747338383 -3.6733143128926136
0.7121967600904627 -3.7222555005309697
0.6923795040236079 -3.7432733357575643
0.6725622479567531 -3.7222555005309697
0.6491715346633856 -3.6733143128926136
0.6255546660116074 -3.602223622884929
0.6033903197610065 -3.5096497437782537
0.5827539248973296 -3.396173919251307
0.5635284589650223 -3.262876749814569
0.5456650240984287 -3.111041327492903
0.5291402006198985 -2.941996884653921
0.5139426758309261 -2.7570783308280484
0.5000686873130716 -2.557616155332377
0.4875176062428805 -2.3449347515037555
0.4762888404280603 -2.120351523661973
0.46637744044664164 -1.8851733044076984
0.45776576612665093 -1.6406909359828958
0.45041253083162236 -1.3881799683505274
0.44425824486005366 -1.1289340821033156
0.4393016851662688 -0.8643950911213156
0.4357942110257213 -0.5964775754734638
0.4343067087465131 -0.3281439689180642
0.43471612143675775 -0.06402993459414023
1.0150497095479967 -0.06453875338171614
1.0151228094560119 -0.3284664736848023
1.0133321382161664 -0.5962639525961044
1.0092982133162411 -0.8638528799360323
1.003412835714255 -1.1282214154623689
0.9958896863193265 -1.3873399338720156
0.9867636613771695 -1.6397175520298475
0.976015125803405 -1.8840534492158163
0.9636252384531624 -2.1190769465352957
0.9495853778720217 -2.343501926101478
0.9338931395330445 -2.5560239461617553
0.916548286063921 -2.7553262855425342
0.8975505777086927 -2.9400841826648882
0.8768985355059031 -3.1089658778707063
0.8545870479318115 -3.2606341666696577
0.830604187331933 -3.39375848613937
0.8049294579399392 -3.5070527925439485
0.7774493058672074 -3.599433225320082
0.747997703057349 -3.6705102469397843
0.7180919257249241 -3.7204831032913215
0.6923795040236079 -3.743768693706346
0.6666670823222917 -3.720483103291321
0.6367613049898666 -3.670510246939784
0.6073097021800083 -3.599433225320082
0.5798295501072764 -3.5070527925439476
0.5541548207152825 -3.3937584861393693
0.5301719601154041 -3.2606341666696563
0.5078604725413126 -3.1089658778707046
0.4872084303385232 -2.940084182664887
0.4682107219832949 -2.755326285542533
0.4508658685141714 -2.5560239461617553
0.4351736301751941 -2.3435019261014776
0.4211337695940536 -2.1190769465352948
0.40874388224381086 -1.8840534492158156
0.3979953466700464 -1.6397175520298457
0.3888693217278893 -1.3873399338720163
0.38134617233296086 -1.1282214154623684
0.3754607947309747 -0.8638528799360331
0.37142686983104944 -0.5962639525961039
0.36963619859120395 -0.32846647368480136
0.3697092984992193 -0.0645387533817162
1.0802185430872173 -0.0648298724369425
1.0800080809936476 -0.3286733311609462
1.0779280173438177 -0.5959920400571617
1.0733808005691716 -0.863245738045357
1.0665764243990281 -1.1273990311290027
1.0576876811815863 -1.3863389235126462
1.046788417247065 -1.6385376534671274
1.03390155035891 -1.882687170800634
1.0190319875469283 -2.117519059874261
1.0021803854676656 -2.34175010000534
0.9833466752033742 -2.5540773961604764
0.9625307068859198 -2.753184690311882
0.9397324623599465 -2.93774698375777
0.9149524697883282 -3.1064318588052684
0.8881928388415119 -3.257900508113718
0.8594536610755592 -3.3908215161288364
0.8287447654733328 -3.503911269024111
0.796017370116822 -3.596056382925618
0.7608584247029283 -3.6669601275021924
0.7242331148021693 -3.7179041467529337
0.6923795040236078 -3.7443103768969537
0.6605258932450462 -3.7179041467529337
0.6239005833442872 -3.666960127502192
0.5887416379303937 -3.5960563829256174
0.5560142425738829 -3.50391126902411
0.5253053469716563 -3.390821516128835
0.49656616920570384 -3.2579005081137167
0.4698065382588876 -3.1064318588052666
0.4450265456872693 -2.937746983757769
0.4222283011612961 -2.7531846903118806
0.4014123328438418 -2.5540773961604764
0.3825786225795501 -2.3417501000053393
0.36572702050028744 -2.11751905987426
0.35085745768830595 -1.882687170800633
0.33797059080015074 -1.6385376534671254
0.32707132686562956 -1.3863389235126464
0.31818258364818763 -1.1273990311290023
0.3113782074780443 -0.8632457380453576
0.30683099070339814 -0.5959920400571611
0.30475092705356827 -0.3286733311609453
0.30454046495999854 -0.06482987243694256
1.1455731644339708 -0.06495754884493275
1.1451488388094984 -0.3287731966571526
1.1428193470449455 -0.5956617636330854
1.1377812875692837 -0.8625737025458663
1.1300594612066994 -1.1264665906902311
1.1197984867601667 -1.3851764690851975
1.1071200135810857 -1.6371508541389468
1.0920912209076494 -1.8810742077800076
1.0747402960310821 -2.1156777289361943
1.0550763503446299 -2.3396792196318694
1.033101007521114 -2.551776477621767
1.008813755042124 -2.7506535050588403
0.9822145547303092 -2.9349852169794293
0.9533054486326336 -3.1034390129206346
0.9220952797658943 -3.2546759916479955
0.8886002737318524 -3.387362564215212
0.8528478206596828 -3.5002258573875666
0.8149171476977111 -3.5921223527382837
0.7743025627809852 -3.6626721656729746
0.7308197139075957 -3.714346563238619
0.6923795040236079 -3.74506199067992
0.6539392941396197 -3.714346563238619
0.6104564452662301 -3.662672165672974
0.5698418603495043 -3.5921223527382837
0.5319111873875328 -3.5002258573875658
0.49615873431536317 -3.38736256421521
0.46266372828132135 -3.2546759916479946
0.43145355941458213 -3.1034390129206333
0.4025444533169066 -2.9349852169794284
0.37594525300509196 -2.7506535050588394
0.3516580005261018 -2.5517764776217673
0.32968265770258587 -2.3396792196318685
0.3100187120161337 -2.115677728936194
0.2926677871395665 -1.8810742077800064
0.27763899446613016 -1.637150854138945
0.26496052128704917 -1.3851764690851978
0.2546995468405163 -1.126466590690231
0.2469777204779321 -0.862573702545867
0.2419396610022704 -0.5956617636330849
0.23961016923771755 -0.32877319665715177
0.2391858436132451 -0.06495754884493281
1.2111171254286728 -0.06497905128076914
1.2105748659626439 -0.32878003498750524
1.2080759175807017 -0.595278964413947
1.202580000092601 -0.861836905566602
1.1939308137193319 -1.125421562333742
1.1822800220473366 -1.3838505251965483
1.167810661186109 -1.635556036407693
1.1506342758105803 -1.8792140683038654
1.130799918515348 -2.1135527931288216
1.1083231567367644 -2.3372892552053295
1.083206200779517 -2.549121198603803
1.0554476774051853 -2.747732674007362
1.025046881132629 -2.9317988046856054
0.9920075633235662 -3.0999868767915104
0.9563416471019284 -3.2509599659587396
0.9180882914772226 -3.3833823856615464
0.8772844208273652 -3.4959883531651252
0.8341109711891153 -3.587661301841139
0.7884290356067251 -3.6577177530142277
0.7382472397560872 -3.7095618326199746
0.6923795040236079 -3.746210253789786
0.6465117682911281 -3.7095618326199746
0.5963299724404902 -3.6577177530142277
0.5506480368581002 -3.5876613018411385
0.5074745872198503 -3.4959883531651244
0.46667071656999287 -3.3833823856615455
0.42841736094528743 -3.2509599659587383
0.3927514447236496 -3.0999868767915086
0.35971212691458687 -2.931798804685605
0.3293113306420307 -2.7477326740073615
0.30155280726769884 -2.549121198603803
0.27643585131045123 -2.3372892552053286
0.25395908953186785 -2.1135527931288207
0.23412473223663552 -1.8792140683038643
0.2169483468611068 -1.6355560364076913
0.2024789859998793 -1.3838505251965487
0.19082819432788414 -1.1254215623337418
0.18217900795461492 -0.8618369055666025
0.17668309046651434 -0.5952789644139466
0.17418414208457192 -0.3287800349875044
0.17364188261854324 -0.06497905128076918
1.2768233982574302 -0.06495353073822445
1.2763032866604338 -0.3287163411187971
1.2737775361753219 -0.5948570443745409
1.267862553877128 -0.8610343781301832
1.2582593242146 -1.1242587596389977
1.245189521823603 -1.3823574450607126
1.2289119015509422 -1.6337513672465331
1.2095804989959968 -1.8771060745258343
1.1872604621580323 -2.1111440889233375
1.1619706418515015 -2.3345802216096088
1.1337123495566037 -2.546111584584902
1.1024826723181858 -2.7444222202779645
1.0682799388390614 -2.9281874104444543
1.031107789248861 -3.09607551586387
0.990983912011468 -3.2467493875668962
0.9479499325388172 -3.3788843176892365
0.902124361423292 -3.4911873102751816
0.8535507649874755 -3.5826648609660228
0.8031093149286491 -3.6523007164069834
0.7473725861444085 -3.7032206598771324
0.6923795040236079 -3.7479018920757428
0.6373864219028068 -3.703220659877132
0.5816496931185662 -3.652300716406983
0.5312082430597397 -3.5826648609660228
0.48263464662392336 -3.4911873102751807
0.43680907550839837 -3.3788843176892365
0.3937750960357476 -3.2467493875668954
0.3536512187983547 -3.0960755158638684
0.31647906920815444 -2.928187410444454
0.2822763357290301 -2.7444222202779645
0.251046658490612 -2.5461115845849016
0.22278836619571443 -2.334580221609608
0.19749854588918353 -2.1111440889233366
0.17517850905121893 -1.8771060745258334
0.15584710649627362 -1.6337513672465311
0.13956948622361295 -1.3823574450607128
0.126499683832616 -1.1242587596389972
0.11689645417008795 -0.8610343781301839
0.110981471871894 -0.5948570443745406
0.10845572138678217 -0.3287163411187962
0.10793560978978568 -0.0649535307382245
1.3426155344483988 -0.0649387618769902
1.3423375042794183 -0.32862061301822126
1.340028280412169 -0.5944182945731176
1.3337176773974182 -0.8601611131535116
1.323113428868634 -1.1229702469200367
1.308582678097208 -1.3806918828699455
1.2904742770659183 -1.6317344187511273
1.2689792088423342 -1.874749430458346
1.2441713735179525 -2.108451490515121
1.2160686137121848 -2.3315521832582418
1.184669546054964 -2.5427477249110493
1.149969072526387 -2.7407221041336776
1.111963981411409 -2.9241510347409725
1.0706570725360967 -3.0917034683070828
1.0260673653082426 -3.2420460205125083
0.9782474890325276 -3.3738518145515255
0.9273276066296788 -3.4858684989579154
0.8735508548807089 -3.576959127787545
0.8172455957013802 -3.646877126774969
0.7602601602260475 -3.694998354788515
0.6923795040236079 -3.75
0.6244988478211678 -3.694998354788515
0.5675134123458352 -3.6468771267749687
0.5112081531665064 -3.576959127787545
0.45743140141753635 -3.4858684989579145
0.406511519014688 -3.373851814551525
0.35869164273897264 -3.242046020512507
0.31410193551111915 -3.0917034683070805
0.2727950266358069 -2.924151034740972
0.23478993552082852 -2.740722104133677
0.20008946199225175 -2.5427477249110484
0.16869039433503122 -2.3315521832582413
0.1405876345292633 -2.10845149051512
0.11577979920488178 -1.874749430458345
0.09428473098129739 -1.6317344187511258
0.07617632995000821 -1.3806918828699453
0.06164557917858224 -1.1229702469200362
0.05104133064979782 -0.8601611131535121
0.04473072763504704 -0.5944182945731171
0.042421503767797616 -0.3286206130182204
0.042143473598817024 -0.06493876187699026
SCALARS Stress float 6
LOOKUP_TABLE default
-766.4940387656155 -24387.31441288436 -7546.142535494995 -566.6074226092605 0.0 0.0
11550.822761920219 6825.820624542417 5512.993015938792 -880.1298892403141 0.0 0.0
6567.591235734468 -582.4982395295781 1795.5278988614675 -376.4216184868535 0.0 0.0
6720.275422616825 511.6101673236625 2169.5656769821467 -56.063033526806265 0.0 0.0
7715.681894973935 186.15517299814852 2370.5511203916262 -129.209207355554 0.0 0.0
9286.791836190183 263.0353920058489 2864.94816845881 -133.14516013976632 0.0 0.0
11021.352084286815 286.60934831515107 3392.38842978059 -141.18426706245666 0.0 0.0
12836.860666103761 333.815850403736 3951.2029549522495 -144.2432846214715 0.0 0.0
14673.554700228246 380.2565252482027 4516.143367642935 -145.3310529333029 0.0 0.0
16514.34669972704 428.22622545282906 5082.771877553961 -145.61416048136425 0.0 0.0
18353.076783776105 476.05365302820775 5648.739131041293 -145.61414270967035 0.0 0.0
20189.54101396251 523.8544823876207 6214.018648905041 -145.64639070598318 0.0 0.0
22026.168464698167 571.8217948015738 6779.397077849923 -145.93005971518696 0.0 0.0
23869.600254840298 620.6287085320473 7347.068689011705 -146.76572078196966 0.0 0.0
25734.42503311866 671.4303293573912 7921.756608742815 -148.4766569255716 0.0 0.0
27645.295026216612 725.420478700047 8511.214651474998 -150.90300971838437 0.0 0.0
29626.13322140511 781.9592948454612 9122.427754875172 -152.001733003242 0.0 0.0
31656.934488987114 835.0755096379709 9747.602999587525 -145.70115919877432 0.0 0.0
33587.66807434249 871.5449229193421 10337.76389917855 -121.52660306637512 0.0 0.0
35064.218643095955 880.4330598058492 10783.39551087054 -71.09213768167905 0.0 0.0
35629.82242099322 875.4245332482906 10951.574086272454 3.387867764104158e-11 0.0 0.0
35064.218643095664 880.4330598057368 10783.395510870423 71.09213768178586 0.0 0.0
33587.6680743425 871.5449229195387 10337.763899178613 121.52660306621505 0.0 0.0
31656.93448898737 835.0755096384939 9747.602999587762 145.70115919880624 0.0 0.0
29626.13322140484 781.9592948446765 9122.427754874856 152.00173300344437 0.0 0.0
27645.295026215386 725.4204786970402 8511.214651473727 150.90300971835768 0.0 0.0
25734.425033118772 671.4303293575585 7921.756608742899 148.4766569255762 0.0 0.0
23869.600254840254 620.628708531869 7347.0686890116385 146.76572078197864 0.0 0.0
22026.168464697348 571.8217947998394 6779.397077849158 145.93005971517084 0.0 0.0
20189.541013962367 523.8544823875691 6214.018648904983 145.64639070559878 0.0 0.0
18353.076783776225 476.05365302888333 5648.739131041535 145.61414270975482 0.0 0.0
16514.34669972719 428.22622545357046 5082.771877554229 145.6141604813854 0.0 0.0
14673.554700227029 380.25652524548275 4516.143367641752 145.33105293332954 0.0 0.0
12836.860666103981 333.8158504039943 3951.202954952393 144.2432846215277 0.0 0.0
11021.352084286771 286.6093483147919 3392.388429780468 141.1842670623902 0.0 0.0
9286.791836190505 263.03539200657286 2864.9481684591224 133.14516013986469 0.0 0.0
7715.68189497363 186.15517299741447 2370.551120391314 129.20920735553153 0.0 0.0
6720.275422616805 511.61016732374264 2169.565676982165 56.06303352665407 0.0 0.0
6567.591235734282 -582.498239529836 1795.5278988613336 376.42161848667735 0.0 0.0
11550.822761920173 6825.82062454241 5512.993015938775 880.1298892401367 0.0 0.0
-766.4940387657125 -24387.314412884414 -7546.142535495041 566.6074226092358 0.0 0.0
-4352.25096602942 -24227.59242312247 -8573.953016745569 -387.20339884587463 0.0 0.0
7104.14879472765 4670.1009802826175 3532.2749325030804 -701.7407586158326 0.0 0.0
4617.930203566446 -655.376346032943 1188.7661572600507 -263.10434918207494 0.0 0.0
5994.05731478776 231.72177402980796 1867.7337266452705 -217.77217387528773 0.0 0.0
6859.692077378866 28.769329678399732 2066.5384221171807 -313.9824243235167 0.0 0.0
8284.607227260289 22.89884865747166 2492.2518227753276 -355.68213998910187 0.0 0.0
9822.367661383556 7.657147869561875 2949.0074427759355 -374.3781043962628 0.0 0.0
11431.515705028585 2.34033224765248 3430.156811182871 -382.03165060340854 0.0 0.0
13062.243266908448 0.244639433785607 3918.74637190267 -384.1328308338343 0.0 0.0
14698.548627666542 -0.31229600894222154 4409.470899497279 -384.3479435413262 0.0 0.0
16334.453739102028 -0.3160800880152346 4900.241297704204 -384.0549328974572 0.0 0.0
17969.22912025805 -0.04844916015036915 5390.754201329369 -383.91093476299346 0.0 0.0
19604.887400559823 0.6735994337031279 5881.6682999980585 -384.4433300506452 0.0 0.0
21246.99189517034 2.3848369326548102 6374.813019630898 -386.58415481341683 0.0 0.0
22906.86936657188 5.6038906146378125 6873.741977155956 -391.7954506682179 0.0 0.0
24601.44745646584 9.512553015051267 7383.288002844266 -401.0267713756029 0.0 0.0
26341.415404394225 9.099096502290518 7905.1543502689565 -410.89337543741163 0.0 0.0
28093.786504272706 -7.831722807633035 8425.786434439524 -406.22452370219764 0.0 0.0
29717.22561667588 -56.81024451013801 8898.12461164972 -354.1087401482404 0.0 0.0
30922.739616299168 -133.14181377068564 9236.879340758547 -217.00151286579907 0.0 0.0
31373.824019757627 -179.1855489921296 9358.39154122965 1.3383782970777247e-10 0.0 0.0
30922.739616298644 -133.14181377154222 9236.87934075813 217.00151286590162 0.0 0.0
29717.225616675758 -56.810244510170136 8898.124611649675 354.10874014816955 0.0 0.0
28093.786504272837 -7.831722807370497 8425.786434439642 406.22452370206787 0.0 0.0
26341.41540439413 9.09909650183036 7905.15435026879 410.8933754375579 0.0 0.0
24601.447456465732 9.512553014574436 7383.288002844094 401.02677137560283 0.0 0.0
22906.8693665716 5.603890613878477 6873.7419771556415 391.79545066832975 0.0 0.0
21246.991895170486 2.3848369329476924 6374.813019631034 386.5841548132509 0.0 0.0
19604.887400559463 0.6735994327517147 5881.668299997664 384.4433300507684 0.0 0.0
17969.229120258056 -0.0484491603447168 5390.754201329315 383.9109347627475 0.0 0.0
16334.453739102157 -0.31608008741363136 4900.241297704423 384.0549328975187 0.0 0.0
14698.548627666403 -0.31229600902842947 4409.470899497213 384.3479435412825 0.0 0.0
13062.243266907868 0.24463943224318285 3918.7463719020334 384.1328308337688 0.0 0.0
11431.51570502861 2.3403322476598305 3430.156811182882 382.0316506034617 0.0 0.0
9822.367661383441 7.657147869224168 2949.0074427758004 374.37810439624076 0.0 0.0
8284.607227260485 22.89884865782871 2492.251822775494 355.6821399892359 0.0 0.0
6859.692077378921 28.769329678562716 2066.5384221172453 313.9824243235865 0.0 0.0
5994.057314787671 231.72177402965215 1867.733726645197 217.77217387532613 0.0 0.0
4617.930203566489 -655.3763460329196 1188.7661572600716 263.1043491819901 0.0 0.0
7104.148794727672 4670.100980282477 3532.274932503045 701.7407586156995 0.0 0.0
-4352.250966029278 -24227.5924231224 -8573.953016745501 387.2033988459599 0.0 0.0
-4762.242424997844 -21205.3791204142 -7790.2864636236145 -1783.2462041553022 0.0 0.0
4492.810184058678 2815.435290941345 2192.4736425000065 -1268.9715036357884 0.0 0.0
3424.808965442475 117.4276489380053 1062.670984314144 -178.41049482242144 0.0 0.0
5001.3428873471685 37.953804958180406 1511.7890076916049 -502.3659399844748 0.0 0.0
6103.509214622471 89.4988921222001 1857.9024320234012 -625.1830434194954 0.0 0.0
7353.674674330467 22.268442700107478 2212.782935109172 -716.5180005380587 0.0 0.0
8738.825181013215 12.162974924200185 2625.2964467812253 -752.2162432964104 0.0 0.0
10165.484054941619 3.01700114834108 3050.550316826988 -766.6428492392067 0.0 0.0
11613.464753120381 0.3549615430998916 3484.145914399045 -770.5187525022867 0.0 0.0
13066.539243539248 -0.4517716960866913 3919.826241552948 -770.7429400806712 0.0 0.0
14520.182074455448 -0.4491549590217172 4355.919875848928 -770.0803897766166 0.0 0.0
15973.41088545266 -0.08051173320891714 4791.999112115836 -769.7229964248788 0.0 0.0
17427.728884443844 0.9156253146153155 5228.593352927538 -770.6744262085158 0.0 0.0
18887.340638294274 3.3127464545390275 5667.196015424646 -774.7836948910084 0.0 0.0
20360.422055671883 7.935912725323394 6110.507390519161 -785.1114542515697 0.0 0.0
21858.142787598965 13.807485036860761 6561.5850817907485 -804.0566814603935 0.0 0.0
23384.117946674545 13.843206292100867 7019.3883458899945 -825.8697351009318 0.0 0.0
24903.562898340882 -10.233501591767329 7467.998819024735 -821.1428627025036 0.0 0.0
26291.889440200066 -83.87616099915304 7862.403983760273 -722.3466653241112 0.0 0.0
27306.828398526577 -204.8583863111802 8130.5910036646255 -447.10714403767474 0.0 0.0
27679.554556769246 -282.3904891099122 8219.149220297799 2.0378365661599673e-11 0.0 0.0
27306.828398526428 -204.85838631131824 8130.591003664534 447.1071440376246 0.0 0.0
26291.88944020016 -83.87616099862215 7862.403983760461 722.3466653242483 0.0 0.0
24903.562898341 -10.233501591443968 7467.998819024869 821.1428627025235 0.0 0.0
23384.117946674425 13.84320629156143 7019.388345889798 825.8697351009125 0.0 0.0
21858.142787599554 13.807485038220896 6561.5850817913315 804.0566814602206 0.0 0.0
20360.42205567191 7.9359127254008826 6110.507390519194 785.1114542516152 0.0 0.0
18887.340638294412 3.3127464548045253 5667.1960154247645 774.7836948910132 0.0 0.0
17427.728884443615 0.9156253141241422 5228.593352927324 770.6744262085659 0.0 0.0
15973.410885452315 -0.08051173408091472 4791.999112115471 769.7229964248936 0.0 0.0
14520.182074455772 -0.4491549580936294 4355.919875849302 770.080389776562 0.0 0.0
13066.539243538733 -0.4517716969721306 3919.826241552529 770.7429400806693 0.0 0.0
11613.464753120375 0.354961543036012 3484.145914399024 770.5187525023155 0.0 0.0
10165.484054941637 3.017001148365459 3050.5503168269997 766.6428492391083 0.0 0.0
8738.825181013184 12.1629749241689 2625.296446781206 752.2162432963145 0.0 0.0
7353.674674330195 22.268442699604247 2212.7829351089395 716.5180005381455 0.0 0.0
6103.509214622727 89.49889212303623 1857.9024320237295 625.183043419552 0.0 0.0
5001.342887347137 37.95380495813778 1511.7890076915826 502.36593998464696 0.0 0.0
3424.8089654425794 117.42764893814318 1062.6709843142166 178.41049482233802 0.0 0.0
4492.810184058573 2815.4352909411086 2192.473642499905 1268.971503635844 0.0 0.0
-4762.2424249979085 -21205.37912041421 -7790.286463623636 1783.2462041552446 0.0 0.0
-4376.333105557208 -18229.062501279826 -6781.61868205111 -2226.1736510695328 0.0 0.0
2804.751258763729 1145.8025900809248 1185.166154653396 -1737.8193997176616 0.0 0.0
2503.594858211594 542.2878778056329 913.7648208051684 -528.7675987288418 0.0 0.0
4046.562276076414 77.71953713455358 1237.2845439632904 -726.2190914733192 0.0 0.0
5277.03946808637 96.30338225897393 1612.0028551036028 -930.0180893481577 0.0 0.0
6423.464404665392 42.517067171436636 1939.7944415510487 -1034.3567143395105 0.0 0.0
7645.4041256340715 15.149211832525381 2298.16600123998 -1086.3574249511032 0.0 0.0
8898.0356249222 4.908630481164987 2670.88327662101 -1105.4308262180161 0.0 0.0
10163.881907712337 0.3580335252913702 3049.2719823712882 -1111.0706327112039 0.0 0.0
11434.548925372106 -0.6693826767018756 3430.1638628086225 -1111.480044068508 0.0 0.0
12705.975652853633 -0.6800116900627522 3811.588692349071 -1110.6555781612221 0.0 0.0
13977.48116108443 -0.1401134178386947 4193.202314299978 -1110.2212324493937 0.0 0.0
15249.934884450362 1.3048212372045889 4575.37191170627 -1111.5623052695312 0.0 0.0
16526.015081268626 4.832229701763627 4959.254193291118 -1117.1622778461715 0.0 0.0
17810.80239574454 11.786150045003422 5346.776563736865 -1131.095953093544 0.0 0.0
19110.925650713783 20.969938287056003 5739.568676700252 -1156.5033250976628 0.0 0.0
20426.76938212225 21.91733950860229 6134.606016489253 -1185.3266087764525 0.0 0.0
21728.54755676136 -13.87643001337485 6514.401338024397 -1176.5247665250756 0.0 0.0
22912.61418459989 -128.7108286131833 6835.17100679601 -1034.6945342220479 0.0 0.0
23772.455119676262 -323.6694073215317 7034.63571370642 -641.1639848863427 0.0 0.0
24082.072019021794 -451.78359975107435 7089.086525781216 3.481659405224491e-11 0.0 0.0
23772.455119676375 -323.66940732120656 7034.63571370655 641.1639848863198 0.0 0.0
22912.614184599577 -128.7108286135699 6835.171006795801 1034.6945342220815 0.0 0.0
21728.54755676206 -13.87643001156762 6514.401338025148 1176.5247665251388 0.0 0.0
20426.76938212184 21.917339507422945 6134.606016488781 1185.3266087764994 0.0 0.0
19110.92565071354 20.969938286337793 5739.568676699965 1156.503325097674 0.0 0.0
17810.80239574477 11.786150045515235 5346.776563737084 1131.0959530935302 0.0 0.0
16526.015081268793 4.832229702354553 4959.254193291345 1117.1622778462083 0.0 0.0
15249.934884450102 1.3048212367636296 4575.37191170606 1111.562305269582 0.0 0.0
13977.48116108438 -0.14011341809029432 4193.202314299887 1110.2212324494794 0.0 0.0
12705.975652853576 -0.6800116902515256 3811.5886923489984 1110.6555781611341 0.0 0.0
11434.548925371966 -0.6693826770207991 3430.163862808484 1111.4800440684821 0.0 0.0
10163.881907712124 0.3580335249324449 3049.2719823711186 1111.0706327110963 0.0 0.0
8898.035624922373 4.908630481800223 2670.8832766212518 1105.4308262180011 0.0 0.0
7645.404125634265 15.149211832827493 2298.1660012401285 1086.3574249510684 0.0 0.0
6423.464404665333 42.5170671711022 1939.7944415509303 1034.356714339483 0.0 0.0
5277.0394680865575 96.30338225932121 1612.0028551037633 930.0180893482304 0.0 0.0
4046.5622760764677 77.71953713493009 1237.284543963419 726.2190914733497 0.0 0.0
2503.5948582115266 542.2878778055049 913.7648208051095 528.7675987288924 0.0 0.0
2804.7512587638844 1145.802590081012 1185.166154653469 1737.819399717671 0.0 0.0
-4376.333105557254 -18229.06250127986 -6781.618682051133 2226.1736510694354 0.0 0.0
-3750.606641519541 -15518.46083946274 -5780.720244294685 -2276.9803292481283 0.0 0.0
1704.2363406973784 -141.12663779528214 468.93291087062886 -2054.9392977838597 0.0 0.0
1785.4593326181628 676.5998344197951 738.6177501113874 -1001.9267719719943 0.0 0.0
3177.185811009033 190.2520312083721 1010.2313526652218 -990.9829362405196 0.0 0.0
4423.4893541517495 113.75159234047183 1361.172283947666 -1202.0214911631012 0.0 0.0
5484.021154602089 60.252014752298834 1663.2819508063167 -1318.2050815180353 0.0 0.0
6548.477331249564 21.940489112896664 1971.1253461087379 -1376.2228034299474 0.0 0.0
7628.110364141175 6.546211128629135 2290.3969725809416 -1399.1950893003875 0.0 0.0
8713.802915197304 0.6070697582622238 2614.3229954866697 -1405.900692720423 0.0 0.0
9802.383940860926 -0.9735285601853008 2940.423123690222 -1406.6152993999656 0.0 0.0
10891.761499105018 -0.9508673447853901 3267.2431895280693 -1405.7660740257816 0.0 0.0
11981.400938571225 -0.20495598780874147 3594.3587947750266 -1405.3464095237846 0.0 0.0
13071.620081174124 1.814091582269029 3922.0302518269173 -1406.9659405538177 0.0 0.0
14163.500256326772 6.758651516088548 4251.077672352858 -1413.4477763878244 0.0 0.0
15259.215537969387 16.613971723965534 4582.748852908006 -1429.3735714463496 0.0 0.0
16361.936153592755 29.92203780710036 4917.557457419956 -1458.2503076235894 0.0 0.0
17471.829865936823 31.929772357318456 5251.127891488244 -1490.5545896969522 0.0 0.0
18569.111621802735 -19.216333990037555 5564.96858634381 -1477.169060592283 0.0 0.0
19573.637697221067 -188.32340009991327 5815.594289136348 -1300.7753199102988 0.0 0.0
20305.462026123 -481.8168980479336 5947.093538422522 -809.2196326216339 0.0 0.0
20562.36219619743 -678.8794244116375 5965.044831535738 1.0689404916774947e-10 0.0 0.0
20305.462026122615 -481.8168980487329 5947.0935384221675 809.2196326215446 0.0 0.0
19573.63769722048 -188.3234001011978 5815.594289135785 1300.7753199102715 0.0 0.0
18569.111621803266 -19.216333988668026 5564.968586344379 1477.16906059226 0.0 0.0
17471.829865936306 31.929772355974976 5251.127891487686 1490.5545896968063 0.0 0.0
16361.936153592846 29.922037807056626 4917.557457419972 1458.2503076235896 0.0 0.0
15259.215537969056 16.613971722999224 4582.748852907615 1429.3735714464071 0.0 0.0
14163.500256327208 6.7586515172345685 4251.0776723533345 1413.4477763878601 0.0 0.0
13071.620081174 1.8140915821460695 3922.030251826843 1406.9659405538969 0.0 0.0
11981.40093857125 -0.2049559878655458 3594.3587947750157 1405.3464095238119 0.0 0.0
10891.761499104121 -0.9508673469103428 3267.2431895271634 1405.7660740256229 0.0 0.0
9802.383940860851 -0.9735285603266348 2940.423123690158 1406.6152993998824 0.0 0.0
8713.80291519706 0.6070697576732655 2614.322995486421 1405.9006927204466 0.0 0.0
7628.110364141531 6.54621112950182 2290.3969725813104 1399.1950893005053 0.0 0.0
6548.477331249544 21.940489112801416 1971.125346108704 1376.2228034300576 0.0 0.0
5484.021154602343 60.25201475281629 1663.2819508065481 1318.2050815178661 0.0 0.0
4423.489354151767 113.75159234039131 1361.1722839476479 1202.0214911630947 0.0 0.0
3177.185811009282 190.25203120875182 1010.2313526654103 990.9829362404512 0.0 0.0
1785.4593326181234 676.599834419696 738.6177501113459 1001.9267719720815 0.0 0.0
1704.2363406972877 -141.12663779532534 468.9329108705888 2054.9392977837365 0.0 0.0
-3750.6066415196583 -15518.460839462787 -5780.7202442947355 2276.9803292481497 0.0 0.0
-3107.0051684201953 -13130.210850819876 -4871.164805772021 -2172.322983821282 0.0 0.0
979.1502489166581 -1043.4090589969946 -19.277643024100826 -2242.357921273657 0.0 0.0
1216.4173169039116 628.5295216687283 553.484051571792 -1459.699546845138 0.0 0.0
2400.6071795514354 295.8660068943853 808.941955933746 -1286.959367241779 0.0 0.0
3572.8611583064676 147.24952767588613 1116.0332057947062 -1448.975206340482 0.0 0.0
4537.447167333361 76.25331690503067 1384.1101452715177 -1565.321884761593 0.0 0.0
5449.358361834129 29.853874880618346 1643.7636710144247 -1623.6992216051694 0.0 0.0
6356.562668065403 8.585573191127851 1909.5444723769594 -1647.9367425732048 0.0 0.0
7263.086010108367 0.8540376464860273 2179.182014326456 -1655.2490479809233 0.0 0.0
8170.025703177632 -1.2523138277041 2450.6320168049792 -1656.1747239892243 0.0 0.0
9077.451492968297 -1.2421153199120383 2722.862813294515 -1655.4120721478903 0.0 0.0
9985.161981799545 -0.25706478307216685 2995.471475104943 -1655.0529095025195 0.0 0.0
10892.928122797086 2.392888936393746 3268.5963035200452 -1656.7890919936135 0.0 0.0
11800.305013223928 8.874442771314353 3542.7538367985726 -1663.48549026059 0.0 0.0
12706.807839608791 21.858505686085007 3818.5999035884647 -1679.7962987741782 0.0 0.0
13612.987344306655 39.68041461589527 4095.800327676765 -1709.4523586909936 0.0 0.0
14520.900371257514 42.958125521567254 4369.157549033725 -1742.842417576367 0.0 0.0
15424.331841261785 -25.533163242654837 4619.63960340574 -1727.002078888904 0.0 0.0
16268.726552048358 -258.3193817714944 4803.122151083058 -1528.024296826844 0.0 0.0
16893.349997630805 -672.5705192956912 4866.233843500534 -958.7873723926077 0.0 0.0
17103.937177213033 -959.2381207421698 4843.409716941259 1.4978240869822912e-11 0.0 0.0
16893.349997630994 -672.5705192952128 4866.233843500734 958.7873723926361 0.0 0.0
16268.72655204813 -258.3193817719648 4803.122151082849 1528.0242968268728 0.0 0.0
15424.33184126108 -25.533163244057206 4619.639603405108 1727.002078888967 0.0 0.0
14520.90037125738 42.95812552122028 4369.157549033581 1742.8424175764253 0.0 0.0
13612.987344306752 39.680414616083254 4095.800327676851 1709.4523586911746 0.0 0.0
12706.80783960869 21.85850568583473 3818.599903588356 1679.7962987741348 0.0 0.0
11800.305013224064 8.874442771718435 3542.7538367987345 1663.485490260738 0.0 0.0
10892.928122797184 2.392888936678446 3268.5963035201585 1656.789091993677 0.0 0.0
9985.161981799474 -0.25706478340443084 2995.4714751048205 1655.0529095026568 0.0 0.0
9077.45149296756 -1.2421153216795204 2722.8628132937656 1655.4120721478519 0.0 0.0
8170.025703177384 -1.2523138282414124 2450.6320168047428 1656.1747239891113 0.0 0.0
7263.086010108399 0.854037646596808 2179.182014326498 1655.249047981055 0.0 0.0
6356.562668065263 8.585573190884752 1909.5444723768442 1647.9367425732949 0.0 0.0
5449.358361833919 29.853874880424073 1643.7636710143033 1623.699221605192 0.0 0.0
4537.447167333487 76.253316905409 1384.1101452716687 1565.3218847615647 0.0 0.0
3572.861158306388 147.24952767560697 1116.0332057945984 1448.975206340424 0.0 0.0
2400.607179551402 295.8660068944842 808.9419559337658 1286.9593672417232 0.0 0.0
1216.417316903861 628.5295216686388 553.4840515717501 1459.6995468451955 0.0 0.0
979.1502489167538 -1043.409058997018 -19.27764302407951 2242.3579212735867 0.0 0.0
-3107.0051684200375 -13130.210850819716 -4871.164805771926 2172.322983821349 0.0 0.0
-2527.657831734025 -11052.031290083643 -4073.906736545301 -2014.063769131771 0.0 0.0
493.8314988774668 -1620.9235927018017 -338.12762814730047 -2332.836792354759 0.0 0.0
755.1194138059701 487.7298064106334 372.854766064981 -1846.2104848389265 0.0 0.0
1708.2621587074236 365.4012696274573 622.0990285004643 -1583.4066769974995 0.0 0.0
2742.430508900611 186.71286302021832 878.743011576249 -1673.808267682322 0.0 0.0
3589.550522216183 92.26799612300022 1104.5455555017552 -1774.9539384134496 0.0 0.0
4348.98022367729 37.361206773335056 1315.9024291351882 -1829.008414074535 0.0 0.0
5084.120266708905 10.880448035846706 1528.500214423425 -1851.9697429736002 0.0 0.0
5811.790502564164 1.1168049232770105 1743.8721922462323 -1859.1885216074795 0.0 0.0
6537.422112886935 -1.501464859890401 1960.7761944081133 -1860.2177610181807 0.0 0.0
7262.997117587313 -1.5147931141004065 2178.4446973419645 -1859.5918948587482 0.0 0.0
7988.7654509419835 -0.2943765003131418 2396.5413223325004 -1859.3139153590596 0.0 0.0
8714.015958213799 2.980908847574355 2615.0990601184117 -1860.9810749955343 0.0 0.0
9436.925129420923 10.954181502781466 2834.3637932771117 -1867.233421751317 0.0 0.0
10154.63543133671 26.974917473610873 3054.4831046430972 -1882.4191250904096 0.0 0.0
10865.608045112182 49.355359097454155 3274.4890212628907 -1910.4633487447218 0.0 0.0
11574.947973406839 54.41617299138809 3488.8092439194693 -1943.3250246302998 0.0 0.0
12292.419736353128 -31.274000718624464 3678.343720690352 -1928.928915389624 0.0 0.0
12991.426769912468 -333.2834016917311 3797.443010466222 -1721.9649909867207 0.0 0.0
13524.905971853137 -889.783122618762 3790.5368547703133 -1095.8248212860522 0.0 0.0
13691.879549493353 -1291.7875829132333 3720.0275899740354 5.1301185521879233e-11 0.0 0.0
13524.905971853563 -889.783122617837 3790.536854770717 1095.824821286039 0.0 0.0
12991.426769912527 -333.2834016916794 3797.443010466255 1721.9649909866469 0.0 0.0
12292.419736352524 -31.274000719847294 3678.3437206898034 1928.9289153896243 0.0 0.0
11574.947973406848 54.41617299149524 3488.809243919504 1943.3250246302414 0.0 0.0
10865.608045111116 49.35535909489472 3274.4890212618034 1910.463348744746 0.0 0.0
10154.635431336937 26.974917474176795 3054.483104643336 1882.4191250904228 0.0 0.0
9436.925129421084 10.954181503146472 2834.363793277269 1867.2334217514203 0.0 0.0
8714.015958213708 2.980908847376199 2615.099060118325 1860.9810749955197 0.0 0.0
7988.765450942354 -0.29437649941603183 2396.5413223328815 1859.3139153591649 0.0 0.0
7262.997117586963 -1.514793114909196 2178.444697341617 1859.5918948587655 0.0 0.0
6537.4221128872805 -1.5014648592705768 1960.7761944084034 1860.217761018273 0.0 0.0
5811.790502564438 1.1168049238896955 1743.8721922464983 1859.1885216074797 0.0 0.0
5084.120266708829 10.880448035712298 1528.500214423363 1851.9697429735738 0.0 0.0
4348.98022367734 37.36120677351409 1315.9024291352562 1829.0084140745419 0.0 0.0
3589.5505222160896 92.26799612290675 1104.545555501699 1774.9539384135169 0.0 0.0
2742.4305089005697 186.7128630202224 878.7430115762378 1673.8082676822773 0.0 0.0
1708.2621587075948 365.4012696278103 622.0990285006214 1583.4066769974481 0.0 0.0
755.1194138060541 487.7298064107399 372.8547660650383 1846.2104848389995 0.0 0.0
493.8314988773802 -1620.923592701926 -338.1276281473638 2332.8367923547275 0.0 0.0
-2527.657831734036 -11052.031290083563 -4073.9067365452797 2014.0637691318623 0.0 0.0
-2035.698514668291 -9247.252738886344 -3384.8853760663906 -1845.175360128895 0.0 0.0
160.91671601915556 -1944.8406800572027 -535.1771892114141 -2353.442023970043 0.0 0.0
370.56960593209345 315.0177084254273 205.67619430725628 -2143.8861880119607 0.0 0.0
1086.3756986512499 395.15678039494264 444.4597437138577 -1853.3417856261221 0.0 0.0
1940.2145009951998 222.04118704236907 648.6767064112706 -1872.8707660368618 0.0 0.0
2646.046164282326 107.77525527586523 826.1464258674575 -1946.8692496081087 0.0 0.0
3248.671212793795 43.91912063676629 987.7771000291685 -1991.8484789599358 0.0 0.0
3811.304892753931 13.055103113416646 1147.307998760204 -2011.4367993746146 0.0 0.0
4360.057650289024 1.4042324676935358 1308.4385648270154 -2017.786567590813 0.0 0.0
4904.538701857972 -1.7121550707853785 1470.847964036156 -2018.7831911548112 0.0 0.0
5448.363073022741 -1.746071652408581 1633.9851004111006 -2018.3151844347801 0.0 0.0
5992.223499773133 -0.3174175482742818 1797.5718246674571 -2018.1176549580039 0.0 0.0
6535.033567615687 3.5147756692119856 1961.5645029854693 -2019.5351724647594 0.0 0.0
7073.812056240878 12.788600135513231 2125.9801969129176 -2024.75125652062 0.0 0.0
7603.640992834729 31.466167289870018 2290.5321480373805 -2037.4767427818374 0.0 0.0
8121.102628611705 58.13816839011461 2453.7722391005454 -2061.7931583877803 0.0 0.0
8634.539489993578 65.89088595247206 2610.129112783815 -2092.8990217673463 0.0 0.0
9171.064595206004 -34.39864556453841 2740.9997848924395 -2084.7471385370586 0.0 0.0
9735.200304206142 -406.9183548892015 2798.4845847950824 -1886.4147880796788 0.0 0.0
10189.92666478425 -1127.3569924021658 2718.770901714625 -1225.338380529947 0.0 0.0
10312.015916729053 -1678.7089538447988 2589.992088865277 -2.1259438653942198e-11 0.0 0.0
10189.926664784422 -1127.3569924019748 2718.7709017147345 1225.3383805299181 0.0 0.0
9735.200304206157 -406.9183548894267 2798.484584795019 1886.4147880795595 0.0 0.0
9171.064595206386 -34.39864556343362 2740.9997848928865 2084.7471385370445 0.0 0.0
8634.539489993633 65.89088595281055 2610.1291127839327 2092.899021767361 0.0 0.0
8121.102628610879 58.13816838812113 2453.7722390997 2061.793158387891 0.0 0.0
7603.640992834362 31.46616728903743 2290.53214803702 2037.4767427818597 0.0 0.0
7073.812056241268 12.788600136375244 2125.980196913293 2024.7512565206266 0.0 0.0
6535.033567615366 3.5147756683801035 1961.5645029851237 2019.535172464709 0.0 0.0
5992.223499773677 -0.317417547067798 1797.5718246679826 2018.1176549579272 0.0 0.0
5448.36307302243 -1.7460716531879967 1633.9851004107732 2018.3151844347353 0.0 0.0
4904.538701858138 -1.7121550704117965 1470.8479640363178 2018.7831911548808 0.0 0.0
4360.057650289077 1.4042324678730864 1308.4385648270852 2017.7865675907924 0.0 0.0
3811.3048927540785 13.055103113675045 1147.3079987603262 2011.4367993746039 0.0 0.0
3248.6712127938154 43.91912063686243 987.7771000292037 1991.848478959889 0.0 0.0
2646.0461642822324 107.77525527570462 826.146425867381 1946.8692496081262 0.0 0.0
1940.2145009953265 222.041187042757 648.6767064114251 1872.8707660368314 0.0 0.0
1086.3756986511673 395.15678039488654 444.4597437138163 1853.3417856261756 0.0 0.0
370.569605932195 315.01770842553714 205.6761943073196 2143.8861880119457 0.0 0.0
160.91671601915243 -1944.840680057342 -535.177189211457 2353.442023970072 0.0 0.0
-2035.6985146682596 -9247.252738886305 -3384.885376066369 1845.1753601289147 0.0 0.0
-1630.253358439394 -7675.123431255284 -2791.6130369084035 -1682.0506586995848 0.0 0.0
-75.9943742337623 -2079.762298415538 -646.7270017947901 -2323.2575753180577 0.0 0.0
39.909237730135835 147.1795411858653 56.126633674800345 -2352.1117598907595 0.0 0.0
520.7080568483964 392.07807200607516 273.83583865634154 -2078.298338572735 0.0 0.0
1168.2920082760402 247.0119559107232 424.5911892560291 -2039.4859823771285 0.0 0.0
1711.154354293724 121.01338931777148 549.6503230834488 -2080.0755932511906 0.0 0.0
2149.9207456739337 49.202736028482164 659.7370445107247 -2111.7876235373005 0.0 0.0
2538.5500326245715 14.817368623421949 766.0102203743982 -2126.283119965194 0.0 0.0
2908.023529047999 1.6736781824731608 872.9091621691418 -2131.087716187992 0.0 0.0
3271.3658127552267 -1.869712291887847 980.8488301390016 -2131.900698448031 0.0 0.0
3633.523440750169 -1.922143662738904 1089.480389126229 -2131.5960610167667 0.0 0.0
3995.552359403074 -0.32989944837613905 1198.5667379864094 -2131.4678892110505 0.0 0.0
4356.109431827089 3.937282982938683 1308.0140144430084 -2132.4822047901616 0.0 0.0
4711.344137704171 14.20368752277853 1417.6643475680848 -2136.1843958795403 0.0 0.0
5054.632989710697 34.914043996270095 1526.8641101120904 -2145.3606199561636 0.0 0.0
5380.615242030442 65.28965811319492 1633.7714700430909 -2164.095140728607 0.0 0.0
5700.07468711005 76.96132611555461 1733.1108039676822 -2192.208745070869 0.0 0.0
6057.730665244209 -32.730746535806304 1807.4999756125208 -2195.101513239739 0.0 0.0
6493.499792199171 -472.061652475134 1806.4314419172108 -2023.5573043571173 0.0 0.0
6879.029630260362 -1378.5845330351683 1650.1335291675582 -1351.7748781133937 0.0 0.0
6950.104381005952 -2125.7613357296514 1447.3029135828906 3.9904080040287226e-11 0.0 0.0
6879.029630260106 -1378.5845330361394 1650.13352916719 1351.7748781133905 0.0 0.0
6493.4997921989925 -472.06165247587575 1806.4314419169345 2023.5573043571426 0.0 0.0
6057.730665244497 -32.730746535322524 1807.4999756127525 2195.101513239751 0.0 0.0
5700.074687110131 76.9613261158759 1733.1108039678018 2192.208745070903 0.0 0.0
5380.615242030803 65.28965811418001 1633.771470043495 2164.0951407285243 0.0 0.0
5054.632989710253 34.91404399531009 1526.8641101116693 2145.3606199562755 0.0 0.0
4711.344137704539 14.203687523674873 1417.6643475684646 2136.1843958796544 0.0 0.0
4356.109431826965 3.937282982800987 1308.0140144429295 2132.48220479015 0.0 0.0
3995.5523594030155 -0.3298994484094848 1198.5667379863821 2131.4678892110046 0.0 0.0
3633.5234407498383 -1.9221436636350901 1089.4803891258612 2131.596061016831 0.0 0.0
3271.3658127548097 -1.8697122929905277 980.8488301385455 2131.9006984479793 0.0 0.0
2908.0235290478918 1.6736781823390885 872.9091621690695 2131.087716188014 0.0 0.0
2538.5500326242127 14.817368622673088 766.0102203740656 2126.2831199651755 0.0 0.0
2149.9207456740637 49.20273602870488 659.7370445108306 2111.7876235373074 0.0 0.0
1711.154354293579 121.01338931729785 549.6503230832631 2080.075593251195 0.0 0.0
1168.2920082761148 247.01195591094697 424.5911892561186 2039.4859823770355 0.0 0.0
520.7080568482888 392.0780720059204 273.8358386562628 2078.298338572855 0.0 0.0
39.909237730018845 147.17954118554587 56.12663367466942 2352.111759890739 0.0 0.0
-75.99437423373823 -2079.762298415596 -646.7270017948002 2323.257575318093 0.0 0.0
-1630.2533584393152 -7675.123431255227 -2791.613036908363 1682.0506586994984 0.0 0.0
-1301.8746139788711 -6299.349267367615 -2280.3671644039464 -1529.0005532947805 0.0 0.0
-253.24384773390724 -2078.7962340614004 -699.6120245385923 -2254.712815528451 0.0 0.0
-253.48383513868208 4.042757965940453 -74.8323231518225 -2476.9784888393247 0.0 0.0
-1.4991291735734436 366.1094907264448 109.38310846586143 -2247.3595111673353 0.0 0.0
425.28992736815377 259.14156658116656 205.32944818479615 -2166.625849357977 0.0 0.0
787.3368816373229 130.16088300266898 275.24932939199755 -2172.69066680962 0.0 0.0
1054.0340534720845 52.84681829602451 332.0642615304327 -2188.244369462569 0.0 0.0
1266.2342522618876 15.989277309706125 384.6670588714783 -2196.3355095165866 0.0 0.0
1455.7937172591312 1.8705891244858606 437.2992919150853 -2199.0961980642455 0.0 0.0
1637.9065380613636 -1.9653185577868122 490.78236585107294 -2199.595937621413 0.0 0.0
1818.4617381359556 -2.0329595501033424 544.9286335757556 -2199.4513041319155 0.0 0.0
1998.7665893783978 -0.33692033122886045 599.5289007141507 -2199.381031789385 0.0 0.0
2177.339111013103 4.203205759221099 654.4626950316972 -2199.882539915416 0.0 0.0
2349.8015424541436 15.074875207408894 709.4629252984656 -2201.7429624676042 0.0 0.0
2508.260539509724 37.01094489826308 763.5814453223961 -2206.593542785535 0.0 0.0
2645.1839964420005 70.14510013686771 814.5987289736606 -2218.181609186264 0.0 0.0
2772.0176443006776 87.01764191596827 857.7105858649938 -2241.711175826567 0.0 0.0
2949.9477493927716 -24.349935752929696 877.6793440919528 -2259.4708584858677 0.0 0.0
3259.8151937463954 -520.6700321052346 821.7435484923484 -2133.8538133591273 0.0 0.0
3583.5570104377393 -1635.2700996969038 584.4860732222506 -1479.2665741788678 0.0 0.0
3590.9211032301705 -2643.0440571460836 284.36311382522587 8.702727427589707e-11 0.0 0.0
3583.5570104369763 -1635.2700996989433 584.4860732214096 1479.2665741788164 0.0 0.0
3259.8151937469493 -520.6700321041913 821.7435484928276 2133.8538133592283 0.0 0.0
2949.947749392266 -24.349935754154515 877.6793440914334 2259.4708584857217 0.0 0.0
2772.017644300699 87.01764191599025 857.7105858650067 2241.7111758264427 0.0 0.0
2645.18399644258 70.14510013822995 814.5987289742428 2218.181609186191 0.0 0.0
2508.2605395099877 37.01094489897952 763.5814453226902 2206.5935427855784 0.0 0.0
2349.801542454327 15.074875207656362 709.462925298595 2201.7429624675838 0.0 0.0
2177.339111013024 4.20320575898284 654.4626950316024 2199.8825399154553 0.0 0.0
1998.766589378746 -0.336920330350047 599.5289007145188 2199.3810317894886 0.0 0.0
1818.4617381354692 -2.0329595513866963 544.9286335752248 2199.451304131981 0.0 0.0
1637.9065380613051 -1.9653185581129655 490.7823658509576 2199.5959376212677 0.0 0.0
1455.793717258878 1.8705891238996841 437.29929191483336 2199.096198064302 0.0 0.0
1266.234252261439 15.989277308669797 384.6670588710326 2196.3355095165607 0.0 0.0
1054.0340534721079 52.84681829607507 332.06426153045487 2188.244369462641 0.0 0.0
787.3368816372968 130.16088300258227 275.2493293919638 2172.690666809636 0.0 0.0
425.28992736817884 259.1415665811274 205.32944818479186 2166.6258493579626 0.0 0.0
-1.4991291734095427 366.10949072681626 109.38310846602198 2247.3595111673503 0.0 0.0
-253.4838351387227 4.042757965779089 -74.83232315188314 2476.978488839295 0.0 0.0
-253.24384773385583 -2078.796234061426 -699.6120245385844 2254.712815528449 0.0 0.0
-1301.8746139787959 -6299.349267367594 -2280.367164403917 1529.0005532946354 0.0 0.0
-1039.2750269204437 -5091.052447592632 -1839.0982423539233 -1385.0089280765715 0.0 0.0
-394.05571015176133 -1983.5537098846034 -713.2828260109094 -2155.433351255213 0.0 0.0
-521.497294967872 -105.58305008470901 -188.12410351577438 -2526.4959929660317 0.0 0.0
-490.88016384131515 326.6639227098447 -49.264872339441126 -2355.024600005196 0.0 0.0
-291.9429010163486 258.52497003480596 -10.025379294462795 -2248.210220705163 0.0 0.0
-124.49844842414862 133.96199019452922 2.839062531114177 -2222.2915114294756 0.0 0.0
-38.09713785691349 54.489703043933204 4.917769556105924 -2220.450192439247 0.0 0.0
-5.349870957928118 16.47259102210186 3.336816019252126 -2221.3536757956363 0.0 0.0
3.4386820078392475 1.95685015629995 1.6186596492417493 -2221.783023443868 0.0 0.0
4.166455432717186 -1.99686203046317 0.6508780206762026 -2221.8900637511024 0.0 0.0
3.169291629513509 -2.0718684872789552 0.3292269426704024 -2221.9000242110624 0.0 0.0
1.8756707760157667 -0.3421375974821146 0.4600599535601191 -2221.8821433791745 0.0 0.0
-1.2220274630825259 4.282875539268787 0.9182544228558669 -2221.8167738977154 0.0 0.0
-10.654015640326236 15.333635400864669 1.4038859281615146 -2221.6773293564383 0.0 0.0
-35.02178190541059 37.5910425692564 0.7707781991537672 -2221.796060860998 0.0 0.0
-84.23224015084406 72.1536796694902 -3.6235681444061356 -2225.0582190117293 0.0 0.0
-148.8751191189029 95.10667198085446 -16.1305341414145 -2241.832789011125 0.0 0.0
-154.36295704094994 -8.073832612873147 -48.731036896146975 -2276.206418380278 0.0 0.0
27.718709220680466 -543.87276320595 -154.8462161955808 -2215.7641284165775 0.0 0.0
295.5943333842741 -1886.4870187342194 -477.26780560498355 -1611.7371040496407 0.0 0.0
217.1086318973518 -3246.2724409421353 -908.7491427134348 -9.379164112033322e-11 0.0 0.0
295.5943333839564 -1886.4870187350089 -477.26780560531586 1611.7371040496841 0.0 0.0
27.718709221146412 -543.8727632051064 -154.84621619518796 2215.7641284166307 0.0 0.0
-154.36295704066765 -8.073832612130715 -48.73103689583964 2276.206418380156 0.0 0.0
-148.8751191189354 95.10667198082618 -16.130534141432747 2241.832789011166 0.0 0.0
-84.23224015072145 72.15367966992362 -3.6235681442393 2225.058219011684 0.0 0.0
-35.02178190461967 37.59104257140817 0.7707782000364887 2221.796060860946 0.0 0.0
-10.654015640253505 15.333635400868427 1.4038859281844651 2221.6773293563488 0.0 0.0
-1.2220274633066595 4.282875538691798 0.9182544226155471 2221.816773897631 0.0 0.0
1.87567077652335 -0.34213759623242623 0.46005995408731337 2221.8821433790686 0.0 0.0
3.1692916291208917 -2.0718684884293594 0.3292269422074554 2221.900024211145 0.0 0.0
4.1664554326384575 -1.996862030696974 0.6508780205824252 2221.890063750988 0.0 0.0
3.4386820081818996 1.9568501571110488 1.6186596495878405 2221.783023443788 0.0 0.0
-5.349870958009589 16.472591021731276 3.336816019116519 2221.3536757957613 0.0 0.0
-38.09713785705003 54.48970304343304 4.917769555914909 2220.4501924393076 0.0 0.0
-124.49844842407347 133.96199019452635 2.8390625311358377 2222.29151142954 0.0 0.0
-291.9429010164629 258.5249700346069 -10.025379294556807 2248.210220705174 0.0 0.0
-490.88016384139985 326.6639227097117 -49.264872339506475 2355.024600005151 0.0 0.0
-521.4972949677486 -105.58305008452541 -188.12410351568224 2526.495992966068 0.0 0.0
-394.05571015173075 -1983.5537098845382 -713.2828260108807 2155.433351255126 0.0 0.0
-1039.2750269205 -5091.052447592737 -1839.0982423539715 1385.0089280765344 0.0 0.0
-832.0882964396295 -4029.199552499116 -1458.3863546816242 -1246.9520255180137 0.0 0.0
-512.9597947861851 -1825.7721585787656 -701.6195860094854 -2029.8200116018184 0.0 0.0
-772.4027887816293 -179.64260992033144 -285.61361961058816 -2508.4849264954746 0.0 0.0
-955.8821810435827 281.25022444994744 -202.38958697809053 -2399.2519142147244 0.0 0.0
-987.2880271179139 246.70711058549955 -222.17427495972433 -2279.496308936794 0.0 0.0
-1024.6567211734782 131.91062577353287 -267.8238286199838 -2226.3101346368417 0.0 0.0
-1126.0935747653034 53.891630838087295 -321.6605831781649 -2207.4879522781707 0.0 0.0
-1276.0428082074548 16.229583883328747 -377.9439672972378 -2201.0588558942986 0.0 0.0
-1449.0090914419939 1.9189119235275953 -434.1270538555399 -2199.101659096976 0.0 0.0
-1629.8511239526044 -1.965266694270099 -489.54491719406235 -2198.8004992973174 0.0 0.0
-1812.3568241565488 -2.0362728301128428 -544.3179290959986 -2198.9627081849953 0.0 0.0
-1995.1179668740035 -0.34577284511322404 -598.6391219157351 -2199.000400110898 0.0 0.0
-2179.561087306588 4.164971731144384 -652.6188346726333 -2198.375883599763 0.0 0.0
-2369.9917138244655 14.964672939278074 -706.5081122655561 -2196.2529087982034 0.0 0.0
-2575.0023358529825 36.65293068472681 -761.5048215504771 -2191.6386836501238 0.0 0.0
-2806.7766314956625 70.97044842946676 -820.7418549198585 -2185.9563262334113 0.0 0.0
-3061.338483016733 99.85116195058393 -888.4461963198451 -2193.234555921102 0.0 0.0
-3256.4780958202414 15.917566894353428 -972.1681586777661 -2242.6824962205474 0.0 0.0
-3209.0638016526987 -532.2437715462202 -1122.3922719596753 -2265.2362955172753 0.0 0.0
-2991.849139771375 -2116.7533013797974 -1532.5807323453519 -1752.8151268889433 0.0 0.0
-3192.402232330798 -3958.7058023909294 -2145.3324104165185 -5.6843418860808015e-11 0.0 0.0
-2991.849139771531 -2116.7533013803745 -1532.5807323455729 1752.8151268889865 0.0 0.0
-3209.0638016525527 -532.2437715457761 -1122.3922719594987 2265.236295517407 0.0 0.0
-3256.4780958198535 15.917566895122881 -972.1681586774193 2242.682496220502 0.0 0.0
-3061.338483016878 99.85116195004434 -888.4461963200501 2193.234555921115 0.0 0.0
-2806.7766314948212 70.97044843164375 -820.7418549189531 2185.9563262334614 0.0 0.0
-2575.0023358520316 36.65293068706965 -761.504821549489 2191.6386836501497 0.0 0.0
-2369.9917138236565 14.964672940951981 -706.508112264811 2196.2529087981807 0.0 0.0
-2179.5610873068135 4.16497173056225 -652.6188346728756 2198.3758835997787 0.0 0.0
-1995.1179668741693 -0.34577284554332266 -598.6391219159136 2199.000400110826 0.0 0.0
-1812.356824156497 -2.0362728301298887 -544.3179290959882 2198.962708184999 0.0 0.0
-1629.8511239528598 -1.9652666947795403 -489.5449171942918 2198.8004992974284 0.0 0.0
-1449.0090914421617 1.9189119231116294 -434.1270538557151 2199.1016590969657 0.0 0.0
-1276.0428082074377 16.22958388327681 -377.94396729724815 2201.0588558940317 0.0 0.0
-1126.0935747653625 53.89163083793343 -321.66058317822876 2207.487952278116 0.0 0.0
-1024.6567211735878 131.91062577335973 -267.8238286200684 2226.3101346368367 0.0 0.0
-987.2880271182644 246.70711058494513 -222.17427495999573 2279.4963089366606 0.0 0.0
-955.88218104375 281.25022444962343 -202.38958697823796 2399.251914214738 0.0 0.0
-772.4027887816042 -179.64260992018606 -285.6136196105371 2508.4849264954373 0.0 0.0
-512.9597947861535 -1825.7721585786296 -701.6195860094352 2029.8200116018372 0.0 0.0
-832.0882964396039 -4029.19955249923 -1458.3863546816497 1246.9520255179543 0.0 0.0
-671.7879772331105 -3099.971785395238 -1131.5279287885048 -1111.1615572905766 0.0 0.0
-618.5771508927731 -1629.2368743457694 -674.3442075715627 -1880.2448720252637 0.0 0.0
-1011.6401542771099 -220.02296740224833 -369.4989365038074 -2429.756461314822 0.0 0.0
-1402.9309720822039 235.1509501843986 -350.3340065693418 -2379.958291484074 0.0 0.0
-1664.7519135397497 225.8710779739726 -431.6642506697332 -2256.9960444342887 0.0 0.0
-1914.3292747514668 124.20430694484483 -537.0374903419868 -2182.3238519219317 0.0 0.0
-2210.096034422476 51.02424407484838 -647.7215371042884 -2148.383704887429 0.0 0.0
-2545.8526039879025 15.283432906402645 -759.1707513244501 -2135.160666250626 0.0 0.0
-2901.5586025523703 1.7660386312974836 -869.9377691763223 -2131.0033883634046 0.0 0.0
-3264.1459746500486 -1.8718895185920559 -979.8053592505926 -2130.3437024412347 0.0 0.0
-3628.11472059308 -1.928053956617795 -1089.0128323649096 -2130.660006365109 0.0 0.0
-3992.2200677454157 -0.3442585056348406 -1197.7692978753148 -2130.7640408063057 0.0 0.0
-4357.7055155128755 3.8600990692462176 -1306.1536249330886 -2129.65085021669 0.0 0.0
-4728.310951541988 13.995159137321608 -1414.2947377214 -2125.728792952313 0.0 0.0
-5111.770836973843 34.35626813470177 -1523.2243706517424 -2116.7776352892784 0.0 0.0
-5521.795833815401 66.6089352580622 -1636.556069567202 -2102.3241137066907 0.0 0.0
-5963.421323627074 99.53014490655313 -1759.167353616156 -2097.19254104952 0.0 0.0
-6356.312718430887 45.276348946017826 -1893.3109108454619 -2155.6871973637885 0.0 0.0
-6456.513795387627 -476.55754071558135 -2079.9214008309623 -2274.9205929813907 0.0 0.0
-6284.415170489325 -2303.309204063107 -2576.3173123657293 -1905.404442075125 0.0 0.0
-6664.677194423115 -4813.915255674957 -3443.577735029422 3.5697667044587433e-11 0.0 0.0
-6284.415170489252 -2303.3092040630527 -2576.317312365692 1905.4044420751143 0.0 0.0
-6456.513795387933 -476.5575407160536 -2079.9214008311956 2274.92059298147 0.0 0.0
-6356.3127184307505 45.27634894628451 -1893.3109108453405 2155.6871973637058 0.0 0.0
-5963.421323626925 99.53014490686724 -1759.167353616018 2097.192541049585 0.0 0.0
-5521.795833814549 66.60893526040414 -1636.5560695662439 2102.324113706826 0.0 0.0
-5111.770836973883 34.3562681347757 -1523.2243706517324 2116.777635289275 0.0 0.0
-4728.3109515411725 13.995159139177158 -1414.2947377205987 2125.7287929523695 0.0 0.0
-4357.70551551278 3.860099069378272 -1306.1536249330204 2129.6508502166835 0.0 0.0
-3992.2200677451015 -0.34425850504721467 -1197.769297875045 2130.7640408063403 0.0 0.0
-3628.1147205933125 -1.9280539571611328 -1089.0128323651422 2130.6600063650426 0.0 0.0
-3264.1459746503983 -1.8718895194524308 -979.8053592509551 2130.343702441192 0.0 0.0
-2901.5586025526904 1.7660386306079303 -869.9377691766249 2131.003388363353 0.0 0.0
-2545.8526039881526 15.283432905840256 -759.1707513246937 2135.1606662506424 0.0 0.0
-2210.096034422005 51.02424407573255 -647.7215371038816 2148.383704887515 0.0 0.0
-1914.3292747512755 124.20430694524396 -537.0374903418098 2182.3238519218276 0.0 0.0
-1664.7519135396878 225.87107797401987 -431.6642506697003 2256.996044434203 0.0 0.0
-1402.9309720821673 235.15095018445547 -350.3340065693136 2379.9582914841594 0.0 0.0
-1011.6401542770674 -220.02296740223707 -369.49893650379136 2429.7564613148934 0.0 0.0
-618.5771508927503 -1629.2368743456893 -674.3442075715318 1880.2448720253112 0.0 0.0
-671.7879772333205 -3099.971785395402 -1131.527928788617 1111.1615572905444 0.0 0.0
-551.7322720100829 -2295.7479842781727 -854.2440768864767 -974.2304527926569 0.0 0.0
-715.3051343215884 -1411.522114185926 -638.0481745522545 -1707.9365264735234 0.0 0.0
-1242.3181009281448 -230.83957806124616 -441.9473036968173 -2295.8677851929633 0.0 0.0
-1836.662243246274 191.56983031615727 -493.52772387903536 -2297.9272759972887 0.0 0.0
-2328.1634455631342 198.359748003072 -638.9411092680187 -2178.1971150505888 0.0 0.0
-2795.3409034201013 111.61692560541822 -805.117193344405 -2088.228180741115 0.0 0.0
-3290.7216068157845 46.10636010606225 -973.3845740129166 -2042.2151865158369 0.0 0.0
-3814.9665097176953 13.723941007928097 -1140.3727706129298 -2023.3901327207275 0.0 0.0
-4354.261413912674 1.5256868866773061 -1305.8207181077985 -2017.4508410114381 0.0 0.0
-4898.719468927097 -1.7183631701149693 -1470.1313496291634 -2016.5385284591596 0.0 0.0
-5444.096821066924 -1.7536565628746388 -1633.7551432889404 -2017.011693934101 0.0 0.0
-5989.444690043383 -0.3324958981838364 -1796.9331557824703 -2017.1955532068391 0.0 0.0
-6535.719358510444 3.4054686908787986 -1959.6941669458695 -2015.7201790988406 0.0 0.0
-7085.82163627433 12.48559687257795 -2122.0008118205255 -2010.3444970066819 0.0 0.0
-7645.770563085593 30.965993148687893 -2284.4413709810706 -1997.785855357379 0.0 0.0
-8229.055598937699 59.62786391201507 -2450.828320507705 -1975.7152719748779 0.0 0.0
-8852.41206625157 92.4753286813372 -2627.981021271071 -1956.0565428053608 0.0 0.0
-9451.627987372616 74.52520795398979 -2813.1308338255876 -2012.2945496326952 0.0 0.0
-9720.040709956707 -369.52109155604717 -3026.8685404538264 -2233.099645994764 0.0 0.0
-9585.584932516469 -2412.0459652117006 -3599.2892693184513 -2070.562928707327 0.0 0.0
-10236.206662176499 -5859.580439223304 -4828.736130419942 4.189359970041551e-11 0.0 0.0
-9585.58493251623 -2412.0459652111217 -3599.289269318206 2070.562928707264 0.0 0.0
-9720.040709957204 -369.52109155704545 -3026.8685404542744 2233.099645994757 0.0 0.0
-9451.627987372694 74.52520795384203 -2813.1308338256554 2012.294549632742 0.0 0.0
-8852.412066251756 92.47532868085196 -2627.981021271271 1956.0565428053583 0.0 0.0
-8229.055598937279 59.627863913106154 -2450.828320507252 1975.7152719747942 0.0 0.0
-7645.770563085993 30.965993147600326 -2284.441370981518 1997.785855357268 0.0 0.0
-7085.82163627414 12.4855968729048 -2122.0008118203705 2010.344497006582 0.0 0.0
-6535.719358510593 3.4054686907200598 -1959.694166945963 2015.7201790987244 0.0 0.0
-5989.444690042952 -0.3324958969856304 -1796.933155781981 2017.1955532067145 0.0 0.0
-5444.096821066851 -1.7536565626343759 -1633.7551432888451 2017.0116939341237 0.0 0.0
-4898.719468927266 -1.7183631706509992 -1470.131349629375 2016.5385284593451 0.0 0.0
-4354.261413911958 1.5256868881858612 -1305.8207181071316 2017.4508410113986 0.0 0.0
-3814.966509717827 13.72394100759428 -1140.3727706130703 2023.3901327208428 0.0 0.0
-3290.7216068154544 46.106360106939015 -973.3845740125549 2042.2151865160997 0.0 0.0
-2795.3409034203005 111.61692560501223 -805.1171933445867 2088.228180741184 0.0 0.0
-2328.163445562819 198.359748003758 -638.9411092677185 2178.197115050577 0.0 0.0
-1836.6622432462034 191.56983031628096 -493.5277238789768 2297.9272759972637 0.0 0.0
-1242.3181009281695 -230.83957806127646 -441.9473036968339 2295.867785193169 0.0 0.0
-715.3051343216022 -1411.5221141859554 -638.0481745522673 1707.9365264734688 0.0 0.0
-551.732272010046 -2295.7479842781972 -854.2440768864728 974.2304527926206 0.0 0.0
-466.7407976527701 -1613.9499256061054 -624.2072169776628 -833.5342482300103 0.0 0.0
-804.2272322123899 -1185.4471386471719 -596.9023112578685 -1513.658803050033 0.0 0.0
-1465.4696838376613 -217.52130090601088 -504.89729542310164 -2111.0721443375396 0.0 0.0
-2260.152333044555 151.97393721170565 -632.4535187498548 -2153.9989691267783 0.0 0.0
-2981.083694612473 166.47501087459017 -844.3826051213651 -2041.2420511423054 0.0 0.0
-3669.9858769077173 95.36709913667426 -1072.3856333313129 -1942.3288385931162 0.0 0.0
-4368.996057100491 39.592286649876094 -1298.821131135185 -1888.2134940968772 0.0 0.0
-5083.739238118024 11.707355551218335 -1521.6095647700413 -1865.5370675240683 0.0 0.0
-5807.207278231108 1.2380150496971254 -1741.790778954423 -1858.430125013664 0.0 0.0
-6533.571527485789 -1.5086378442149595 -1960.524049599002 -1857.4091102278426 0.0 0.0
-7260.287400654292 -1.5234297025176389 -2178.5432491070424 -1858.0354161013297 0.0 0.0
-7986.811795907741 -0.3087373571001777 -2396.136159979452 -1858.3089165508966 0.0 0.0
-8713.703050461078 2.8648486053434254 -2613.25146055672 -1856.6339473841695 0.0 0.0
-9442.80459223035 10.544634234444132 -2829.6779873987716 -1850.3102710349942 0.0 0.0
-10177.80445740329 26.726008944381036 -3045.323534537674 -1835.118663964362 0.0 0.0
-10929.102694952828 51.23524766395307 -3263.3602341866617 -1807.509723260129 0.0 0.0
-11725.006083544027 78.02498088295931 -3494.09433079832 -1773.6133227492817 0.0 0.0
-12536.897133764543 94.17265094628682 -3732.8173448454763 -1811.6381149892734 0.0 0.0
-13003.92091092854 -209.41677604773227 -3964.0013060928823 -2122.5030101532884 0.0 0.0
-12895.246996102564 -2391.4934010199577 -4586.022119136756 -2244.906691341633 0.0 0.0
-13958.177658011808 -7162.342654777697 -6336.156093836853 7.315748007385992e-11 0.0 0.0
-12895.246996102416 -2391.493401019583 -4586.0221191366 2244.906691341673 0.0 0.0
-13003.920910928244 -209.4167760468078 -3964.0013060925153 2122.5030101532766 0.0 0.0
-12536.897133765382 94.17265094430849 -3732.8173448463226 1811.6381149893948 0.0 0.0
-11725.006083544427 78.02498088207022 -3494.0943307987086 1773.6133227492337 0.0 0.0
-10929.10269495244 51.23524766491502 -3263.3602341862575 1807.509723260112 0.0 0.0
-10177.804457403421 26.726008943827996 -3045.3235345378785 1835.1186639644227 0.0 0.0
-9442.804592230303 10.544634234322126 -2829.677987398794 1850.310271034865 0.0 0.0
-8713.70305046122 2.864848604997043 -2613.251460556867 1856.6339473841545 0.0 0.0
-7986.811795907664 -0.30873735698879656 -2396.1361599793972 1858.3089165510883 0.0 0.0
-7260.2874006540005 -1.5234297018642913 -2178.543249106759 1858.0354161013488 0.0 0.0
-6533.571527485795 -1.5086378442031165 -1960.5240495989992 1857.4091102279472 0.0 0.0
-5807.207278231059 1.2380150498875846 -1741.790778954351 1858.4301250136582 0.0 0.0
-5083.739238118017 11.707355551113544 -1521.6095647700713 1865.5370675240915 0.0 0.0
-4368.996057100157 39.59228665049322 -1298.8211311348994 1888.2134940969077 0.0 0.0
-3669.9858769081743 95.36709913564934 -1072.3856333317572 1942.3288385932049 0.0 0.0
-2981.083694612274 166.47501087491815 -844.3826051212067 2041.2420511423322 0.0 0.0
-2260.1523330445257 151.97393721170272 -632.4535187498468 2153.998969126761 0.0 0.0
-1465.469683837667 -217.5213009060887 -504.8972954231267 2111.0721443375664 0.0 0.0
-804.2272322124037 -1185.447138647231 -596.9023112578906 1513.6588030500227 0.0 0.0
-466.7407976528191 -1613.9499256061415 -624.2072169776883 833.5342482300109 0.0 0.0
-412.30074045278263 -1055.7528918450043 -440.4160896893361 -687.7706441476738 0.0 0.0
-883.4301075666131 -960.3296536615842 -553.1279283684592 -1298.2761964045442 0.0 0.0
-1680.0840376327897 -186.48061359783165 -559.9693953691865 -1878.2235540324684 0.0 0.0
-2675.1384904751767 116.53743370620681 -767.580317030691 -1948.4184724390416 0.0 0.0
-3626.8787157039214 132.4926100976202 -1048.3158316818906 -1844.6547200499845 0.0 0.0
-4540.946264664881 77.00636775983105 -1339.181969071515 -1743.396221491059 0.0 0.0
-5446.275645298598 32.126389124706556 -1624.2447768521677 -1685.8475036348084 0.0 0.0
-6352.661403041599 9.44578008695406 -1902.9646868863938 -1661.4868723176453 0.0 0.0
-7260.512983996406 0.9491472028356824 -2177.869151038071 -1653.9612667856964 0.0 0.0
-8168.695887491781 -1.2526348410690389 -2450.984556699855 -1652.987016647978 0.0 0.0
-9076.660220860269 -1.2508947632012664 -2723.3733346870426 -1653.7443811670507 0.0 0.0
-9984.338777713869 -0.27649136323297085 -2995.3845807231305 -1654.1094062125603 0.0 0.0
-10891.800151553298 2.306414335879289 -3266.8481211652247 -1652.4012113130107 0.0 0.0
-11799.571355121601 8.391053999151623 -3537.3540903367357 -1645.7731390966226 0.0 0.0
-12708.920038825463 21.717456824016146 -3806.160774600435 -1629.1778107105117 0.0 0.0
-13623.764061222975 43.00564680811521 -4074.227524324458 -1598.4917472690531 0.0 0.0
-14578.003519392665 58.300419318094676 -4355.910930022371 -1554.849080020931 0.0 0.0
-15601.702147422435 90.74299100797188 -4653.287746924339 -1558.2059683634213 0.0 0.0
-16310.165207256105 -7.449494954445441 -4895.2844106631655 -1919.8146821967393 0.0 0.0
-16207.266725950034 -2164.2640055877955 -5511.459219461348 -2414.7142230514487 0.0 0.0
-17904.730648610173 -8813.061639941401 -8015.337686565473 4.04156708100345e-11 0.0 0.0
-16207.266725950003 -2164.264005587655 -5511.459219461298 2414.71422305136 0.0 0.0
-16310.165207255857 -7.449494953770717 -4895.284410662886 1919.814682196743 0.0 0.0
-15601.702147422622 90.74299100759767 -4653.287746924506 1558.205968363603 0.0 0.0
-14578.003519392549 58.30041931846674 -4355.910930022227 1554.8490800209313 0.0 0.0
-13623.764061222382 43.00564680948496 -4074.22752432387 1598.491747269066 0.0 0.0
-12708.920038825418 21.717456823932938 -3806.1607746004456 1629.177810710646 0.0 0.0
-11799.571355121712 8.39105399869491 -3537.354090336905 1645.773139096709 0.0 0.0
-10891.800151552985 2.30641433651018 -3266.8481211649423 1652.4012113130234 0.0 0.0
-9984.338777713994 -0.27649136351713466 -2995.3845807232533 1654.1094062127117 0.0 0.0
-9076.660220860413 -1.250894763523764 -2723.3733346871804 1653.7443811669837 0.0 0.0
-8168.69588749175 -1.2526348411584998 -2450.984556699873 1652.9870166479766 0.0 0.0
-7260.51298399624 0.9491472031113837 -2177.869151037939 1653.9612667855222 0.0 0.0
-6352.661403041689 9.445780086769577 -1902.9646868864752 1661.4868723177776 0.0 0.0
-5446.275645298298 32.12638912549029 -1624.2447768518425 1685.847503634586 0.0 0.0
-4540.946264664845 77.0063677599049 -1339.1819690714822 1743.3962214911007 0.0 0.0
-3626.8787157038696 132.49261009772465 -1048.3158316818437 1844.6547200499128 0.0 0.0
-2675.138490475263 116.5374337060598 -767.5803170307607 1948.4184724390316 0.0 0.0
-1680.0840376327187 -186.48061359764873 -559.9693953691102 1878.2235540324511 0.0 0.0
-883.4301075665672 -960.3296536616556 -553.127928368467 1298.2761964047334 0.0 0.0
-412.30074045252417 -1055.7528918448477 -440.41608968921173 687.7706441476296 0.0 0.0
-383.26994560458536 -624.4733428597693 -302.32298653930656 -537.7978753953462 0.0 0.0
-947.8055707692961 -743.2605988465019 -507.3198508847395 -1063.2740582954973 0.0 0.0
-1882.9180488031457 -145.2187648509434 -608.4410440962267 -1598.4203432014826 0.0 0.0
-3082.260669785326 84.72058126349546 -899.2620265565495 -1680.2590441992663 0.0 0.0
-4268.939348434731 98.83343543782473 -1251.0317738990725 -1587.1811055301398 0.0 0.0
-5411.272722208013 58.31695072178425 -1605.8867314458685 -1490.7135168042016 0.0 0.0
-6524.160628265765 24.478292172395427 -1949.9047008280118 -1434.8883146466162 0.0 0.0
-7622.31301304096 7.186110684415972 -2284.538070706963 -1411.2524990533723 0.0 0.0
-8714.30495430266 0.7018317837895225 -2614.0809367556603 -1404.1056627911864 0.0 0.0
-9804.072536998918 -0.9690327705212809 -2941.5124709308325 -1403.3121534406744 0.0 0.0
-10893.179211170933 -0.9575300746765762 -3268.2410223736815 -1404.1459956024796 0.0 0.0
-11982.025197099281 -0.230047444747413 -3594.6765733632083 -1404.5876619694304 0.0 0.0
-13070.195743155638 1.7465336571026455 -3920.53476284956 -1403.0058083578583 0.0 0.0
-14156.48967443175 6.410963783986503 -4245.023613194332 -1396.7184470217928 0.0 0.0
-15240.075035069249 15.984349434014284 -4567.2272056905695 -1380.4548064651542 0.0 0.0
-16316.608196507248 35.65354672614434 -4884.286394934331 -1348.6937798764998 0.0 0.0
-17410.13532858549 40.6399760807068 -5210.848605751435 -1303.9822997891426 0.0 0.0
-18628.553577463892 50.260095151169565 -5573.488044693815 -1267.0664573141103 0.0 0.0
-19636.192884656353 197.76488109202575 -5831.5284010692985 -1598.87739738185 0.0 0.0
-19505.479044366148 -1616.0404116488808 -6336.455836804511 -2542.2208330840813 0.0 0.0
-22186.06320109364 -10929.51826593441 -9934.674440108412 1.0686562745831907e-11 0.0 0.0
-19505.479044366315 -1616.0404116492732 -6336.4558368046755 2542.220833084045 0.0 0.0
-19636.192884656153 197.7648810923549 -5831.528401069138 1598.877397381784 0.0 0.0
-18628.553577464143 50.2600951505776 -5573.48804469407 1267.0664573140039 0.0 0.0
-17410.135328585493 40.63997608095625 -5210.848605751362 1303.9822997892784 0.0 0.0
-16316.608196506415 35.65354672804584 -4884.286394933512 1348.69377987657 0.0 0.0
-15240.07503506937 15.984349433475641 -4567.227205690771 1380.4548064651126 0.0 0.0
-14156.489674432309 6.4109637826816925 -4245.023613194888 1396.718447021793 0.0 0.0
-13070.195743155446 1.7465336574504455 -3920.5347628494 1403.0058083576757 0.0 0.0
-11982.025197099654 -0.23004744565025526 -3594.6765733635925 1404.5876619694425 0.0 0.0
-10893.179211171224 -0.9575300751191715 -3268.2410223739034 1404.145995602352 0.0 0.0
-9804.07253699877 -0.9690327699741914 -2941.5124709306237 1403.3121534407746 0.0 0.0
-8714.304954302746 0.7018317834032288 -2614.080936755802 1404.1056627910255 0.0 0.0
-7622.313013040823 7.186110684591586 -2284.5380707068693 1411.2524990534898 0.0 0.0
-6524.160628265617 24.478292172809738 -1949.9047008278424 1434.888314646512 0.0 0.0
-5411.272722207829 58.316950722244755 -1605.8867314456757 1490.7135168042603 0.0 0.0
-4268.939348434892 98.83343543734442 -1251.0317738992635 1587.1811055299265 0.0 0.0
-3082.260669785374 84.72058126330847 -899.2620265566196 1680.2590441991588 0.0 0.0
-1882.9180488029858 -145.21876485052107 -608.4410440960518 1598.420343201473 0.0 0.0
-947.8055707693218 -743.2605988466105 -507.31985088477967 1063.2740582956283 0.0 0.0
-383.26994560460383 -624.4733428597928 -302.322986539319 537.7978753953488 0.0 0.0
-371.66850329479485 -323.21929682592344 -208.46634003621546 -388.16983255940016 0.0 0.0
-988.3253673984035 -540.8249668620788 -458.7451002781448 -811.2572030931651 0.0 0.0
-2068.0745655254173 -102.71806301134876 -651.2377885610298 -1270.0870135748833 0.0 0.0
-3481.4043808971473 56.13711011562717 -1027.5801812344557 -1346.9258618681918 0.0 0.0
-4911.056736571597 68.30403076681498 -1452.8258117414343 -1267.8085825113703 0.0 0.0
-6284.391999332712 41.19278720672902 -1872.9597636377946 -1184.1249986263251 0.0 0.0
-7604.39693530822 17.475005125243474 -2276.0765790548926 -1135.4579748687293 0.0 0.0
-8893.307350422972 5.17871440004614 -2666.438590806878 -1114.9974029390808 0.0 0.0
-10168.6967786474 0.5219799635286009 -3050.452439605161 -1108.9699979023171 0.0 0.0
-11439.657787002889 -0.6832273860772986 -3432.1023043166906 -1108.429193190081 0.0 0.0
-12709.797905647085 -0.6853038777023457 -3813.1449628574364 -1109.2483771539296 0.0 0.0
-13979.854513528768 -0.1395118203468826 -4193.998207604735 -1109.697815442389 0.0 0.0
-15249.038269252731 1.1584034682312705 -4574.36395973535 -1108.445458756184 0.0 0.0
-16514.18945124087 4.888052498863644 -4952.790419622601 -1102.9231276552066 0.0 0.0
-17771.621079121596 10.560367165879029 -5328.318213586714 -1089.2613704723713 0.0 0.0
-19012.627314230846 26.599796417464596 -5695.8082553440145 -1058.78308970365 0.0 0.0
-20226.29288130559 38.08970909538962 -6056.460951663061 -1019.3429910520993 0.0 0.0
-21590.184237362046 -27.57227262831404 -6485.326952997106 -968.4523073303944 0.0 0.0
-22969.88185938613 312.22039868581373 -6797.298438210095 -1148.246815879683 0.0 0.0
-22757.386620487516 -585.7875264085317 -7002.952244068816 -2532.0504991610183 0.0 0.0
-26969.301013933662 -13646.048668424646 -12184.60490470749 1.3301360013429075e-11 0.0 0.0
-22757.38662048764 -585.787526408521 -7002.952244068849 2532.050499160937 0.0 0.0
-22969.881859386016 312.2203986860473 -6797.298438209991 1148.246815879665 0.0 0.0
-21590.184237362446 -27.57227262949965 -6485.326952997583 968.4523073302461 0.0 0.0
-20226.292881305548 38.08970909542522 -6056.46095166304 1019.3429910521816 0.0 0.0
-19012.62731423099 26.599796417037922 -5695.808255344187 1058.7830897036026 0.0 0.0
-17771.62107912151 10.560367165831646 -5328.318213586704 1089.2613704722044 0.0 0.0
-16514.1894512408 4.888052498941848 -4952.790419622559 1102.9231276552923 0.0 0.0
-15249.03826925291 1.158403467721966 -4574.363959735557 1108.445458756205 0.0 0.0
-13979.854513529235 -0.139511821518008 -4193.998207605224 1109.6978154423746 0.0 0.0
-12709.797905647014 -0.6853038775161302 -3813.14496285736 1109.248377153824 0.0 0.0
-11439.657787002672 -0.6832273856550204 -3432.1023043164982 1108.4291931901664 0.0 0.0
-10168.696778647252 0.5219799636718867 -3050.4524396050742 1108.9699979022932 0.0 0.0
-8893.30735042298 5.1787143998965215 -2666.4385908069253 1114.9974029391076 0.0 0.0
-7604.396935308413 17.475005124830332 -2276.0765790550754 1135.4579748687083 0.0 0.0
-6284.391999332784 41.1927872067656 -1872.9597636378053 1184.1249986264374 0.0 0.0
-4911.056736571922 68.30403076622574 -1452.8258117417092 1267.8085825112757 0.0 0.0
-3481.4043808971496 56.13711011557405 -1027.580181234472 1346.9258618681597 0.0 0.0
-2068.0745655253054 -102.71806301130316 -651.2377885609825 1270.0870135748874 0.0 0.0
-988.3253673983352 -540.8249668619613 -458.74510027808907 811.2572030930638 0.0 0.0
-371.66850329491774 -323.219296826035 -208.46634003628589 388.1698325595288 0.0 0.0
-362.6641944186628 -151.01201001648295 -154.10286133054376 -250.0992422725648 0.0 0.0
-990.6821382468256 -362.09944567118794 -405.834475175404 -546.3578585997673 0.0 0.0
-2226.318749411829 -69.8297293694414 -688.8445436343812 -886.9340439991596 0.0 0.0
-3872.2997135283613 32.008271875968056 -1152.0874324957185 -943.9935277324383 0.0 0.0
-5557.974697214071 44.19881243940995 -1654.1327654323984 -885.9776536870056 0.0 0.0
-7164.075934554902 27.510340668712463 -2140.9696781658563 -824.070559635217 0.0 0.0
-8688.768314823665 11.942032562944405 -2603.047884678215 -788.0760796048764 0.0 0.0
-10166.230752175039 3.629956951209749 -3048.780238567149 -773.0427276671675 0.0 0.0
-11623.757373193657 0.4116893531019059 -3487.003705152167 -768.7040763138139 0.0 0.0
-13075.386917485554 -0.442720395107429 -3922.748891364199 -768.3884084130578 0.0 0.0
-14526.424946089772 -0.4535078126127843 -4358.063536170715 -769.043332699483 0.0 0.0
-15977.875969120665 -0.0954363535234819 -4793.391421642256 -769.4170170725617 0.0 0.0
-17428.226930366865 0.8769583869987372 -5228.20499159396 -768.5256104942152 0.0 0.0
-18873.78238142954 2.991129677731891 -5661.237375525544 -764.5960392524115 0.0 0.0
-20303.637209193203 8.995131333677023 -6088.392623357857 -753.9403738213684 0.0 0.0
-21714.501231261467 10.539610750937271 -6511.18848615316 -733.6299979352478 0.0 0.0
-23047.051762890642 55.16145588799681 -6897.567092100795 -689.6878004957273 0.0 0.0
-24447.00938833382 -84.4416364712054 -7359.435307441509 -691.8202586580921 0.0 0.0
-26278.30427112028 135.06659368607808 -7842.971303230258 -641.6848257865408 0.0 0.0
-25905.57118961467 1123.879777512764 -7434.507423630572 -2142.4049834910566 0.0 0.0
-32510.919086758928 -17054.021801822655 -14869.48226657448 -2.8421709430404007e-11 0.0 0.0
-25905.571189614584 1123.8797775131784 -7434.507423630423 2142.404983490896 0.0 0.0
-26278.304271119818 135.06659368712212 -7842.971303229809 641.6848257866254 0.0 0.0
-24447.009388334263 -84.44163647228532 -7359.435307441967 691.8202586581051 0.0 0.0
-23047.051762890755 55.16145588778055 -6897.567092100894 689.6878004956313 0.0 0.0
-21714.501231262395 10.539610748576084 -6511.188486154145 733.6299979352585 0.0 0.0
-20303.637209192846 8.995131334155257 -6088.392623357606 753.9403738213083 0.0 0.0
-18873.782381429075 2.991129678721025 -5661.237375525107 764.5960392523663 0.0 0.0
-17428.22693036716 0.876958386240533 -5228.204991594276 768.5256104941113 0.0 0.0
-15977.875969121178 -0.09543635449012466 -4793.391421642703 769.4170170725278 0.0 0.0
-14526.424946089612 -0.4535078119521385 -4358.063536170469 769.0433326994475 0.0 0.0
-13075.386917485459 -0.44272039494737003 -3922.7488913641214 768.3884084131703 0.0 0.0
-11623.757373193124 0.41168935429079934 -3487.00370515165 768.7040763137977 0.0 0.0
-10166.23075217533 3.6299569504712785 -3048.780238567457 773.0427276671196 0.0 0.0
-8688.768314823705 11.942032562820955 -2603.0478846782657 788.0760796048862 0.0 0.0
-7164.075934554649 27.510340669121145 -2140.969678165658 824.0705596351714 0.0 0.0
-5557.974697213912 44.198812439567625 -1654.1327654323031 885.9776536870219 0.0 0.0
-3872.2997135284213 32.008271875871564 -1152.0874324957647 943.9935277325478 0.0 0.0
-2226.3187494120207 -69.82972936974329 -688.8445436345294 886.9340439991234 0.0 0.0
-990.6821382466824 -362.09944567104543 -405.8344751753183 546.3578585996917 0.0 0.0
-362.6641944183741 -151.01201001634476 -154.10286133041566 250.09924227255792 0.0 0.0
-326.83122656732695 -95.79645558493878 -126.78830464567972 -147.30621944632017 0.0 0.0
-933.0755261225662 -224.70053396022413 -347.33281802483714 -274.3231124248197 0.0 0.0
-2344.0909323648866 -58.81936570652028 -720.8730894214222 -433.51785437658924 0.0 0.0
-4255.671863844653 17.6707540561042 -1271.4003329365642 -466.44288896027393 0.0 0.0
-6216.126894721729 29.698818421778764 -1855.9284228899855 -441.59676281920207 0.0 0.0
-8054.242823383247 19.217170860819536 -2410.5076957567285 -411.72917385098947 0.0 0.0
-9779.026342041108 8.5685529337145 -2931.1373367322185 -393.66980248877053 0.0 0.0
-11441.558730968107 2.6702642218366037 -3431.6665400238808 -385.86437978724257 0.0 0.0
-13079.488877262487 0.33181491017680287 -3923.7471187056917 -383.49298782266277 0.0 0.0
-14711.150232930388 -0.304004126922095 -4413.436271117193 -383.2372846040853 0.0 0.0
-16342.985693277187 -0.31948090586865874 -4902.991552254916 -383.52091986214265 0.0 0.0
-17975.963295124395 -0.061331224529851625 -5392.807387904678 -383.6774398793925 0.0 0.0
-19608.21837258071 0.6206366225856215 -5882.279320787439 -383.1629298831276 0.0 0.0
-21234.19644134703 2.27678275015316 -6369.575897579063 -381.1481031077476 0.0 0.0
-22843.156327669887 5.620305977831393 -6851.260806507618 -375.57009616439007 0.0 0.0
-24406.25003831627 13.33362096462183 -7317.874925205494 -365.493508371697 0.0 0.0
-25930.57319100333 7.616112877810508 -7776.887123437654 -346.90385264729 0.0 0.0
-27148.040231700506 125.7564431107701 -8106.685136576922 -322.4876312909463 0.0 0.0
-29478.833511074932 -721.0097033628118 -9059.952964331324 -508.6113973547733 0.0 0.0
-28862.833767200304 3634.035892584691 -7568.639362384687 -725.912864319025 0.0 0.0
-39200.9665487394 -20964.97051013432 -18049.78111766212 1.0106759873451665e-10 0.0 0.0
-28862.83376720074 3634.0358925838896 -7568.6393623850545 725.9128643190612 0.0 0.0
-29478.833511074557 -721.0097033618079 -9059.95296433091 508.6113973547672 0.0 0.0
-27148.040231701045 125.75644310959572 -8106.685136577436 322.48763129099535 0.0 0.0
-25930.573191003194 7.616112878015542 -7776.887123437556 346.90385264711017 0.0 0.0
-24406.250038316462 13.333620963984902 -7317.874925205743 365.49350837171175 0.0 0.0
-22843.156327669498 5.620305978580216 -6851.260806507276 375.57009616429184 0.0 0.0
-21234.196441346907 2.276782750322612 -6369.575897578976 381.14810310766984 0.0 0.0
-19608.218372580603 0.6206366225985089 -5882.279320787401 383.16292988301274 0.0 0.0
-17975.963295124246 -0.06133122417355441 -5392.807387904527 383.67743987915316 0.0 0.0
-16342.985693276994 -0.31948090543950647 -4902.991552254728 383.5209198623838 0.0 0.0
-14711.150232930517 -0.30400412736972804 -4413.436271117365 383.23728460427424 0.0 0.0
-13079.488877262334 0.3318149106068642 -3923.747118705519 383.4929878226356 0.0 0.0
-11441.558730967987 2.6702642220164385 -3431.6665400237916 385.8643797873638 0.0 0.0
-9779.026342041241 8.568552933286508 -2931.1373367323868 393.6698024888119 0.0 0.0
-8054.242823382749 19.217170861873992 -2410.5076957562615 411.7291738509796 0.0 0.0
-6216.1268947216595 29.698818421914368 -1855.9284228899235 441.5967628192911 0.0 0.0
-4255.671863844573 17.6707540562617 -1271.4003329364937 466.4428889602878 0.0 0.0
-2344.090932364808 -58.81936570650446 -720.8730894213934 433.51785437654564 0.0 0.0
-933.0755261225992 -224.70053396021862 -347.3328180248453 274.32311242488595 0.0 0.0
-326.83122656749026 -95.7964555850544 -126.78830464576339 147.3062194461187 0.0 0.0
-170.0946969281244 -40.43869157514794 -63.16001655098171 -98.7127648762767 0.0 0.0
-760.2549922975895 -115.43213829058013 -262.70613917645096 -115.94151386999224 0.0 0.0
-2394.653506723117 -61.9947964564671 -736.9944909538749 -147.5525231262277 0.0 0.0
-4684.88468099155 -88.5440354322111 -1432.0286149271287 -164.51578698032858 0.0 0.0
-6972.148550308109 -156.16757878944082 -2138.4948387292657 -163.26273886149633 0.0 0.0
-9062.527405798019 -223.3640733265256 -2785.767443737363 -155.6655425240401 0.0 0.0
-11000.84235069126 -281.7928856682014 -3384.790570907839 -149.85994890276223 0.0 0.0
-12863.503231540668 -333.49244541163364 -3959.0987030856904 -146.8647108935591 0.0 0.0
-14699.605967011852 -382.0324293420529 -4524.491518906171 -145.7174923588356 0.0 0.0
-16530.763067697564 -429.58339963515675 -5088.103940199817 -145.42879908271385 0.0 0.0
-18363.661352313855 -477.0423952721488 -5652.211124275802 -145.41816236061345 0.0 0.0
-20198.85408855779 -524.528358202247 -6217.014734028011 -145.39501579927799 0.0 0.0
-22034.181877330222 -572.0654123025315 -6781.874186889825 -145.0984225596792 0.0 0.0
-23862.844776887665 -618.0377466052964 -7344.264757047887 -144.29994938952507 0.0 0.0
-25672.417077869013 -665.3940127397734 -7901.343327182635 -142.37691060051384 0.0 0.0
-27422.992088695857 -692.2644386470558 -8434.576958202873 -138.6563938195718 0.0 0.0
-29097.35420424702 -780.5994561799777 -8963.3860981281 -142.43765239656068 0.0 0.0
-30463.292318010772 -515.6237879876802 -9293.674831799535 -96.91429530620849 0.0 0.0
-31868.688048763364 -1738.0319505367115 -10082.015999790023 -475.8635403000394 0.0 0.0
-32534.967289306944 4127.442785061055 -8522.257351273767 -2.1423626844539285 0.0 0.0
-48109.79697193926 -25229.710623704592 -22001.85227869316 3.637978807091713e-12 0.0 0.0
-32534.96728930791 4127.442785058776 -8522.257351274742 2.142362684415957 0.0 0.0
-31868.688048763317 -1738.0319505365733 -10082.015999789968 475.8635403001259 0.0 0.0
-30463.29231801097 -515.6237879879069 -9293.67483179966 96.91429530639266 0.0 0.0
-29097.354204246825 -780.5994561795575 -8963.386098127916 142.43765239649383 0.0 0.0
-27422.992088695668 -692.2644386464858 -8434.576958202648 138.65639381964274 0.0 0.0
-25672.41707786815 -665.3940127380665 -7901.343327181867 142.37691060036582 0.0 0.0
-23862.844776887174 -618.0377466048783 -7344.264757047617 144.2999493894131 0.0 0.0
-22034.181877330295 -572.0654123023421 -6781.874186889792 145.0984225598595 0.0 0.0
-20198.854088557164 -524.528358200595 -6217.014734027329 145.3950157990597 0.0 0.0
-18363.661352313356 -477.0423952713514 -5652.211124275414 145.41816236085265 0.0 0.0
-16530.763067698175 -429.5833996365316 -5088.103940200413 145.42879908273824 0.0 0.0
-14699.60596701172 -382.03242934186034 -4524.491518906075 145.7174923588948 0.0 0.0
-12863.50323154011 -333.49244541039747 -3959.098703085152 146.86471089370178 0.0 0.0
-11000.842350691726 -281.7928856693971 -3384.790570908337 149.85994890283484 0.0 0.0
-9062.527405797295 -223.36407332496177 -2785.767443736677 155.66554252411635 0.0 0.0
-6972.148550308242 -156.1675787895165 -2138.494838729328 163.26273886165342 0.0 0.0
-4684.884680991324 -88.54403543155183 -1432.028614926863 164.51578698038145 0.0 0.0
-2394.653506723045 -61.99479645623347 -736.9944909537838 147.5525231261816 0.0 0.0
-760.2549922975886 -115.43213829052188 -262.70613917643317 115.94151387011328 0.0 0.0
-170.09469692820983 -40.43869157532025 -63.16001655105903 98.71276487604878 0.0 0.0
SCALARS Strain float 6
LOOKUP_TABLE default
0.044067715228740964 -0.10946761720303091 0.0 -0.007365896493920387 0.0 0.0
0.03924589334887929 0.008533379455923565 0.0 -0.011441688560124083 0.0 0.0
0.03101841168967452 -0.015457169899541798 0.0 -0.004893481040329093 0.0 0.0
0.02957961334662542 -0.01077671081278015 0.0 -0.0007288194358484821 0.0 0.0
0.034743350034785035 -0.014198573658057607 0.0 -0.0016797196956222023 0.0 0.0
0.04174198384025394 -0.01691243304694425 0.0 -0.0017308870818169625 0.0 0.0
0.04958826375429047 -0.020187564029525353 0.0 -0.001835395471811936 0.0 0.0
0.05775677512248485 -0.02351301617956534 0.0 -0.0018751627000791289 0.0 0.0
0.06602317366180452 -0.026883264475565764 0.0 -0.001889303688132937 0.0 0.0
0.074305236344125 -0.030254546738657358 0.0 -0.0018929840862577348 0.0 0.0
0.0825781947427763 -0.033622455607085065 0.0 -0.0018929838552257132 0.0 0.0
0.09084089537287358 -0.03698606708236323 0.0 -0.0018934030791777799 0.0 0.0
0.09910401401451363 -0.04034923933981429 0.0 -0.0018970907762974297 0.0 0.0
0.1073964551778859 -0.04372185987311778 0.0 -0.0019079543701656034 0.0 0.0
0.11578234475844301 -0.04712712081600526 0.0 -0.0019301965400324306 0.0 0.0
0.1243715224358205 -0.050607662123037175 0.0 -0.0019617391263389945 0.0 0.0
0.1332740855324446 -0.054213044990193124 0.0 -0.001976022529042147 0.0 0.0
0.14241065468109737 -0.057931428684672104 0.0 -0.0018941150695840664 0.0 0.0
0.15112437713856564 -0.06153042334568487 0.0 -0.001579845839862877 0.0 0.0
0.1578253503594652 -0.06436925593192051 0.0 -0.0009241977898618286 0.0 0.0
0.160408614175685 -0.06549497209465707 0.0 4.432218481120742e-16 0.0 0.0
0.15782535035946407 -0.06436925593192043 0.0 0.0009241977898632164 0.0 0.0
0.15112437713856533 -0.061530423345684024 0.0 0.0015798458398607988 0.0 0.0
0.14241065468109748 -0.05793142868467023 0.0 0.0018941150695844832 0.0 0.0
0.13327408553244496 -0.05421304499019619 0.0 0.0019760225290447768 0.0 0.0
0.12437152243582075 -0.05060766212304847 0.0 0.0019617391263386528 0.0 0.0
0.11578234475844318 -0.04712712081600474 0.0 0.001930196540032494 0.0 0.0
0.10739645517788601 -0.0437218598731185 0.0 0.0019079543701657235 0.0 0.0
0.09910401401451328 -0.04034923933982058 0.0 0.001897090776297219 0.0 0.0
0.09084089537287304 -0.0369860670823632 0.0 0.0018934030791727856 0.0 0.0
0.08257819474277554 -0.033622455607082234 0.0 0.0018929838552268147 0.0 0.0
0.07430523634412425 -0.030254546738654284 0.0 0.001892984086258011 0.0 0.0
0.06602317366180428 -0.026883264475575756 0.0 0.0018893036881332845 0.0 0.0
0.05775677512248535 -0.023513016179564607 0.0 0.0018751627000798588 0.0 0.0
0.04958826375429096 -0.0201875640295269 0.0 0.0018353954718110742 0.0 0.0
0.041741983840253974 -0.01691243304694158 0.0 0.0017308870818182422 0.0 0.0
0.03474335003478506 -0.014198573658060341 0.0 0.0016797196956219091 0.0 0.0
0.02957961334662517 -0.010776710812779741 0.0 0.0007288194358465035 0.0 0.0
0.03101841168967416 -0.01545716989954261 0.0 0.004893481040326807 0.0 0.0
0.039245893348879096 0.008533379455923633 0.0 0.011441688560121782 0.0 0.0
0.04406771522874064 -0.10946761720303101 0.0 0.007365896493920068 0.0 0.0
0.027441063329654965 -0.10174865614144987 0.0 -0.005033644184996361 0.0 0.0
0.02321718010445971 0.007395869310566995 0.0 -0.009122629862005823 0.0 0.0
0.022289566300991572 -0.011986926271404463 0.0 -0.003420356539366974 0.0 0.0
0.02682110332292619 -0.010634077692000508 0.0 -0.002831038260378741 0.0 0.0
0.03115549875920097 -0.013245499100852074 0.0 -0.004081771516205718 0.0 0.0
0.03765031012915225 -0.016050794331766073 0.0 -0.004623867819858324 0.0 0.0
0.04467684142094955 -0.01911877691689143 0.0 -0.004866915357151416 0.0 0.0
0.052008832809997144 -0.022280807113078924 0.0 -0.004966411457844313 0.0 0.0
0.05943272981753757 -0.025470261261047757 0.0 -0.004993726800839847 0.0 0.0
0.0668790052331002 -0.028663590770790455 0.0 -0.004996523266037241 0.0 0.0
0.07432238086908588 -0.03185362295564943 0.0 -0.0049927141276669435 0.0 0.0
0.08176008697303642 -0.03504021722818189 0.0 -0.004990842151918911 0.0 0.0
0.08920092415365148 -0.03822646555366832 0.0 -0.00499776329065839 0.0 0.0
0.09666916269100638 -0.041420783187538585 0.0 -0.005025594012574417 0.0 0.0
0.10421532803120354 -0.04464289756251858 0.0 -0.005093340858686834 0.0 0.0
0.1119180364485402 -0.047929540423889916 0.0 -0.005213348027882833 0.0 0.0
0.11983569685181429 -0.051324359149483335 0.0 -0.00534161388068635 0.0 0.0
0.12784200045391575 -0.054818518022106535 0.0 -0.005280918808128568 0.0 0.0
0.13532415653267002 -0.05820707656503911 0.0 -0.004603413621927129 0.0 0.0
0.1409580917910141 -0.06090513750444003 0.0 -0.002821019667255387 0.0 0.0
0.1431003111104319 -0.061994251086441576 0.0 1.7403613272737317e-15 0.0 0.0
0.1409580917910134 -0.060905137504442874 0.0 0.0028210196672567196 0.0 0.0
0.13532415653266958 -0.058207076565039026 0.0 0.004603413621926203 0.0 0.0
0.12784200045391586 -0.05481851802210559 0.0 0.005280918808126883 0.0 0.0
0.11983569685181475 -0.051324359149485244 0.0 0.005341613880688249 0.0 0.0
0.11191803644854068 -0.04792954042389187 0.0 0.005213348027882836 0.0 0.0
0.1042153280312037 -0.044642897562521475 0.0 0.005093340858688287 0.0 0.0
0.0966691626910065 -0.041420783187537544 0.0 0.005025594012572264 0.0 0.0
0.08920092415365169 -0.03822646555367193 0.0 0.00499776329065999 0.0 0.0
0.08176008697303687 -0.035040217228182784 0.0 0.004990842151915718 0.0 0.0
0.07432238086908528 -0.03185362295564695 0.0 0.00499271412766774 0.0 0.0
0.06687900523309974 -0.028663590770790566 0.0 0.004996523266036673 0.0 0.0
0.05943272981753793 -0.025470261261053638 0.0 0.0049937268008389945 0.0 0.0
0.052008832809997255 -0.022280807113078945 0.0 0.004966411457845002 0.0 0.0
0.04467684142094968 -0.01911877691689275 0.0 0.004866915357151131 0.0 0.0
0.03765031012915245 -0.016050794331764828 0.0 0.0046238678198600655 0.0 0.0
0.0311554987592009 -0.01324549910085144 0.0 0.004081771516206625 0.0 0.0
0.026821103322926095 -0.010634077692001049 0.0 0.002831038260379239 0.0 0.0
0.022289566300991725 -0.011986926271404444 0.0 0.0034203565393658725 0.0 0.0
0.023217180104460073 0.007395869310566315 0.0 0.0091226298620041 0.0 0.0
0.027441063329655475 -0.10174865614144984 0.0 0.00503364418499748 0.0 0.0
0.019682286251067507 -0.08719810226913884 0.0 -0.02318220065401893 0.0 0.0
0.014952187520131357 0.004049250714868699 0.0 -0.01649662954726525 0.0 0.0
0.015353896877334152 -0.006144081679944903 0.0 -0.002319336432691478 0.0 0.0
0.022682100217761167 -0.00957992881776726 0.0 -0.006530757219798173 0.0 0.0
0.02759644408689396 -0.01149462300935781 0.0 -0.008127379564453441 0.0 0.0
0.03341579630493841 -0.014238344200658924 0.0 -0.009314734006994766 0.0 0.0
0.03973793677250795 -0.016985367567070666 0.0 -0.009778811162853337 0.0 0.0
0.046247069297745115 -0.019808966551911212 0.0 -0.009966357040109685 0.0 0.0
0.052840572451688696 -0.022644641193563648 0.0 -0.010016743782529728 0.0 0.0
0.05945363451291094 -0.025481807086118736 0.0 -0.01001965822104873 0.0 0.0
0.06606770429094241 -0.02831639870025169 0.0 -0.01001104506709602 0.0 0.0
0.07267917652668938 -0.031148517555018795 0.0 -0.010006398953523423 0.0 0.0
0.07929438095485601 -0.03397990522948401 0.0 -0.010018767540710705 0.0 0.0
0.08593094004865265 -0.03681524124830571 0.0 -0.01007218803358311 0.0 0.0
0.09262444532349269 -0.03966671460565996 0.0 -0.010206448905270412 0.0 0.0
0.09942762508775346 -0.04256055437890028 0.0 -0.010452736858985113 0.0 0.0
0.10637074240509964 -0.04553604340738632 0.0 -0.01073630655631211 0.0 0.0
0.11333116651555494 -0.04860851008400726 0.0 -0.010674857215132543 0.0 0.0
0.1197916554668586 -0.05165082094093628 0.0 -0.009390506649213442 0.0 0.0
0.12464554306660278 -0.05418042103484271 0.0 -0.005812392872489773 0.0 0.0
0.1264926346870644 -0.05526000811115012 0.0 2.632442874794805e-16 0.0 0.0
0.12464554306660236 -0.05418042103484306 0.0 0.005812392872489121 0.0 0.0
0.11979165546685805 -0.051650820940934046 0.0 0.009390506649215227 0.0 0.0
0.11333116651555492 -0.048608510084006025 0.0 0.01067485721513281 0.0 0.0
0.10637074240510012 -0.04553604340738854 0.0 0.010736306556311866 0.0 0.0
0.09942762508775345 -0.04256055437889522 0.0 0.010452736858982865 0.0 0.0
0.09262444532349269 -0.03966671460565966 0.0 0.010206448905270997 0.0 0.0
0.08593094004865272 -0.03681524124830475 0.0 0.010072188033583174 0.0 0.0
0.07929438095485593 -0.0339799052294858 0.0 0.010018767540711356 0.0 0.0
0.07267917652668952 -0.0311485175550221 0.0 0.010006398953523619 0.0 0.0
0.06606770429094204 -0.02831639870024808 0.0 0.01001104506709531 0.0 0.0
0.059453634512910344 -0.02548180708612176 0.0 0.010019658221048708 0.0 0.0
0.0528405724516888 -0.022644641193563922 0.0 0.010016743782530101 0.0 0.0
0.04624706929774512 -0.01980896655191113 0.0 0.009966357040108405 0.0 0.0
0.03973793677250786 -0.016985367567070742 0.0 0.009778811162852088 0.0 0.0
0.033415796304938156 -0.014238344200660683 0.0 0.009314734006995893 0.0 0.0
0.027596444086893494 -0.011494623009354506 0.0 0.008127379564454175 0.0 0.0
0.02268210021776111 -0.009579928817767392 0.0 0.00653075721980041 0.0 0.0
0.015353896877334357 -0.006144081679944478 0.0 0.0023193364326903956 0.0 0.0
0.01495218752013136 0.004049250714867824 0.0 0.016496629547265974 0.0 0.0
0.01968228625106723 -0.08719810226913875 0.0 0.023182200654018183 0.0 0.0
0.01563435624721037 -0.07440838482498667 0.0 -0.028940257463903926 0.0 0.0
0.010527303176717157 -0.00025586316972106056 0.0 -0.02259165219632961 0.0 0.0
0.010333895243141773 -0.002414600129496979 0.0 -0.0068739787834749405 0.0 0.0
0.01826030525873531 -0.0075371725443867926 0.0 -0.009440848189153148 0.0 0.0
0.023822737984387984 -0.009852046573490094 0.0 -0.012090235161526054 0.0 0.0
0.02914385476024324 -0.012332302933467482 0.0 -0.013446637286413635 0.0 0.0
0.03475704780856161 -0.014839609131148457 0.0 -0.014122646524364348 0.0 0.0
0.04047649026395774 -0.01732883519990899 0.0 -0.01437060074083421 0.0 0.0
0.046244964514716824 -0.01981794066749899 0.0 -0.014443918225245659 0.0 0.0
0.05202850290666267 -0.02230041609565461 0.0 -0.014449240572890607 0.0 0.0
0.057813515243279656 -0.02477974657625438 0.0 -0.014438522516095887 0.0 0.0
0.06359781250409895 -0.027256725780165813 0.0 -0.014432876021842123 0.0 0.0
0.06938465932283659 -0.029731436088048936 0.0 -0.014450309968503914 0.0 0.0
0.07518394577185385 -0.03220374276333081 0.0 -0.01452310961200023 0.0 0.0
0.08101616790804991 -0.034677437688997094 0.0 -0.014704247390216073 0.0 0.0
0.08691382033108794 -0.03717089179968578 0.0 -0.015034543226269613 0.0 0.0
0.09289906187661447 -0.03973247640037425 0.0 -0.015409245914093872 0.0 0.0
0.0988919504217903 -0.04243380549224553 0.0 -0.01529482196482598 0.0 0.0
0.1045033806557252 -0.045265231930159786 0.0 -0.013451028944886617 0.0 0.0
0.10879582613880398 -0.047828983286681684 0.0 -0.00833513180352245 0.0 0.0
0.11045440570606377 -0.0490156558159599 0.0 4.531965080989409e-16 0.0 0.0
0.10879582613880384 -0.04782898328668043 0.0 0.008335131803522158 0.0 0.0
0.10450338065572458 -0.045265231930160944 0.0 0.013451028944887061 0.0 0.0
0.09889195042178998 -0.04243380549223867 0.0 0.015294821964826805 0.0 0.0
0.09289906187661491 -0.03973247640037882 0.0 0.01540924591409449 0.0 0.0
0.0869138203310883 -0.037170891799688584 0.0 0.01503454322626976 0.0 0.0
0.08101616790804995 -0.034677437688995214 0.0 0.014704247390215894 0.0 0.0
0.07518394577185342 -0.03220374276332844 0.0 0.01452310961200071 0.0 0.0
0.06938465932283627 -0.02973143608805042 0.0 0.01445030996850457 0.0 0.0
0.06359781250409921 -0.02725672578016686 0.0 0.01443287602184323 0.0 0.0
0.05781351524327978 -0.02477974657625513 0.0 0.014438522516094746 0.0 0.0
0.05202850290666263 -0.02230041609565578 0.0 0.014449240572890269 0.0 0.0
0.046244964514716574 -0.01981794066750021 0.0 0.014443918225244247 0.0 0.0
0.040476490263957283 -0.017328835199906436 0.0 0.014370600740834016 0.0 0.0
0.0347570478085619 -0.014839609131147458 0.0 0.014122646524363895 0.0 0.0
0.029143854760243615 -0.012332302933468885 0.0 0.01344663728641328 0.0 0.0
0.023822737984388165 -0.009852046573488878 0.0 0.012090235161526998 0.0 0.0
0.018260305258734812 -0.007537172544385179 0.0 0.009440848189153543 0.0 0.0
0.010333895243141716 -0.0024146001294974304 0.0 0.0068739787834756 0.0 0.0
0.010527303176717706 -0.0002558631697209728 0.0 0.022591652196329724 0.0 0.0
0.015634356247210216 -0.0744083848249867 0.0 0.028940257463902656 0.0 0.0
0.013195738418038436 -0.06329531386859237 0.0 -0.029600744280225667 0.0 0.0
0.00802947229387387 -0.00396538706632842 0.0 -0.02671421087119017 0.0 0.0
0.006804470286294041 -0.00040311645199534926 0.0 -0.013025048035635933 0.0 0.0
0.014085203979234781 -0.005329865589469525 0.0 -0.012882778171126753 0.0 0.0
0.019905060956326544 -0.008108234495446768 0.0 -0.01562627938512032 0.0 0.0
0.024834804824672534 -0.01041969458435112 0.0 -0.017136666059734452 0.0 0.0
0.029752787903415373 -0.012669701570472971 0.0 -0.01789089644458932 0.0 0.0
0.03469513704514153 -0.014845029949440033 0.0 -0.018189536160905035 0.0 0.0
0.03964661947811913 -0.016989153517234658 0.0 -0.0182767090053655 0.0 0.0
0.044602745311609585 -0.019119078239627652 0.0 -0.01828599889219955 0.0 0.0
0.04955936901225016 -0.02124326136967356 0.0 -0.018274958962335153 0.0 0.0
0.054515773934675334 -0.023364664379958433 0.0 -0.0182695033238092 0.0 0.0
0.059472333890756846 -0.02548140504159022 0.0 -0.018290557227199633 0.0 0.0
0.06443074679583043 -0.027588073635439 0.0 -0.018374821093041716 0.0 0.0
0.06939703345289899 -0.029679876727696272 0.0 -0.018581856428802546 0.0 0.0
0.07438846152512321 -0.03176963022748357 0.0 -0.018957253999106666 0.0 0.0
0.0794345628339158 -0.03392478777435102 0.0 -0.019377209666060373 0.0 0.0
0.08452692973048304 -0.03629720198217001 0.0 -0.019203197787699675 0.0 0.0
0.0894272821525507 -0.0390254649800357 0.0 -0.016910079158833885 0.0 0.0
0.09332939517005318 -0.04178791783705798 0.0 -0.010519855224081243 0.0 0.0
0.094882562870301 -0.04318550766365794 0.0 1.388646142519434e-15 0.0 0.0
0.09332939517005294 -0.04178791783706085 0.0 0.010519855224080082 0.0 0.0
0.08942728215255052 -0.03902546498004039 0.0 0.016910079158833528 0.0 0.0
0.08452692973048277 -0.03629720198216481 0.0 0.01920319778769938 0.0 0.0
0.07943456283391605 -0.03392478777435612 0.0 0.019377209666058482 0.0 0.0
0.07438846152512371 -0.031769630227483955 0.0 0.018957253999106662 0.0 0.0
0.06939703345289935 -0.029679876727700012 0.0 0.018581856428803292 0.0 0.0
0.06443074679583022 -0.02758807363543465 0.0 0.018374821093042185 0.0 0.0
0.059472333890756526 -0.025481405041590542 0.0 0.018290557227200657 0.0 0.0
0.054515773934675535 -0.02336466437995873 0.0 0.01826950332380956 0.0 0.0
0.04955936901225023 -0.021243261369681483 0.0 0.0182749589623331 0.0 0.0
0.04460274531160951 -0.019119078239628145 0.0 0.018285998892198473 0.0 0.0
0.039646619478119156 -0.016989153517236857 0.0 0.018276709005365804 0.0 0.0
0.03469513704514144 -0.014845029949436758 0.0 0.018189536160906575 0.0 0.0
0.02975278790341547 -0.012669701570473368 0.0 0.01789089644459075 0.0 0.0
0.02483480482467268 -0.010419694584349257 0.0 0.017136666059732256 0.0 0.0
0.019905060956326784 -0.008108234495447168 0.0 0.015626279385120227 0.0 0.0
0.01408520397923517 -0.005329865589468281 0.0 0.012882778171125868 0.0 0.0
0.006804470286294056 -0.0004031164519957246 0.0 0.013025048035637057 0.0 0.0
0.008029472293873546 -0.003965387066328445 0.0 0.026714210871188575 0.0 0.0
0.013195738418037992 -0.06329531386859236 0.0 0.029600744280225952 0.0 0.0
0.011467037642786879 -0.05368379929281106 0.0 -0.028240198789676665 0.0 0.0
0.0064897812976149345 -0.006656854203823805 0.0 -0.02915065297655755 0.0 0.0
0.004309066224658777 0.0004877955556300865 0.0 -0.01897609410898678 0.0 0.0
0.010345823953514981 -0.0033349936687558463 0.0 -0.016730471774143132 0.0 0.0
0.01596938169132645 -0.006297093907772332 0.0 -0.018836677682426264 0.0 0.0
0.020496690643401986 -0.008501069384382165 0.0 -0.020349184501900708 0.0 0.0
0.02473636549032809 -0.01049041367486974 0.0 -0.0211080898808672 0.0 0.0
0.028905618271974902 -0.012356232844707913 0.0 -0.021423177653451662 0.0 0.0
0.03304537597258242 -0.014159131848419809 0.0 -0.02151823762375201 0.0 0.0
0.03717605896142226 -0.01593724814911245 0.0 -0.021530271411859918 0.0 0.0
0.04130482641787959 -0.017706682035993786 0.0 -0.021520356937922574 0.0 0.0
0.045432988293514935 -0.019472235509272098 0.0 -0.021515687823532754 0.0 0.0
0.0495581568253008 -0.021230322194793736 0.0 -0.021538258195916978 0.0 0.0
0.05367408264676482 -0.022970216061177186 0.0 -0.021625311373387673 0.0 0.0
0.05777335158413216 -0.02467881908636546 0.0 -0.021837351884064313 0.0 0.0
0.061861715608094295 -0.02636477943489566 0.0 -0.022222880662982933 0.0 0.0
0.06598632834445466 -0.02812029625282904 0.0 -0.02265695142849277 0.0 0.0
0.07023049954606432 -0.03019362298321457 0.0 -0.022451027025555764 0.0 0.0
0.07452642860627443 -0.0328993699635546 0.0 -0.01986431585874898 0.0 0.0
0.07817625500184679 -0.03600222835817548 0.0 -0.012464235841103899 0.0 0.0
0.07969342849176653 -0.03771721094494229 0.0 1.942890293094024e-16 0.0 0.0
0.07817625500184669 -0.03600222835817366 0.0 0.012464235841104274 0.0 0.0
0.07452642860627433 -0.0328993699635563 0.0 0.01986431585874934 0.0 0.0
0.07023049954606385 -0.03019362298321958 0.0 0.022451027025556576 0.0 0.0
0.0659863283444547 -0.028120296252830346 0.0 0.02265695142849353 0.0 0.0
0.061861715608094364 -0.02636477943489499 0.0 0.022222880662985275 0.0 0.0
0.05777335158413216 -0.0246788190863664 0.0 0.021837351884063754 0.0 0.0
0.053674082646764626 -0.022970216061175608 0.0 0.021625311373389588 0.0 0.0
0.04955815682530066 -0.021230322194792622 0.0 0.021538258195917797 0.0 0.0
0.04543298829351524 -0.019472235509273468 0.0 0.02151568782353454 0.0 0.0
0.04130482641787968 -0.01770668203600039 0.0 0.021520356937922074 0.0 0.0
0.03717605896142217 -0.015937248149114402 0.0 0.02153027141185845 0.0 0.0
0.033045375972582364 -0.014159131848419368 0.0 0.021518237623753707 0.0 0.0
0.02890561827197473 -0.012356232844708739 0.0 0.021423177653452828 0.0 0.0
0.024736365490327514 -0.010490413674870218 0.0 0.021108089880867494 0.0 0.0
0.020496690643401816 -0.00850106938438069 0.0 0.020349184501900344 0.0 0.0
0.01596938169132663 -0.006297093907773445 0.0 0.018836677682425508 0.0 0.0
0.010345823953514638 -0.0033349936687553303 0.0 0.0167304717741424 0.0 0.0
0.004309066224658724 0.0004877955556297777 0.0 0.01897609410898755 0.0 0.0
0.006489781297615418 -0.006656854203824109 0.0 0.029150652976556626 0.0 0.0
0.011467037642787278 -0.053683799292810634 0.0 0.028240198789677533 0.0 0.0
0.010050617881273297 -0.04535780959799924 0.0 -0.026182828998713027 0.0 0.0
0.005407734325660986 -0.008338173769604256 0.0 -0.030326878300611863 0.0 0.0
0.002484720210316429 0.0007466877622467401 0.0 -0.024000736302906046 0.0 0.0
0.007060060346345237 -0.001668535432674547 0.0 -0.020584286800967494 0.0 0.0
0.012113968732608357 -0.0044981959656142 0.0 -0.021759507479870186 0.0 0.0
0.016152532283643783 -0.006579804135961906 0.0 -0.023074401199374844 0.0 0.0
0.019715005664523673 -0.008310517945352043 0.0 -0.023777109382968956 0.0 0.0
0.023111530339855614 -0.009864528481519261 0.0 -0.02407560665865681 0.0 0.0
0.026441469017066562 -0.011327910017599212 0.0 -0.024169450780897238 0.0 0.0
0.02974819847011235 -0.012754804785242024 0.0 -0.02418283089323635 0.0 0.0
0.033049590731594775 -0.014169736687964424 0.0 -0.024174694633163733 0.0 0.0
0.036349456835961635 -0.015579432042413296 0.0 -0.02417108089966778 0.0 0.0
0.039642959837620007 -0.016978767983260444 0.0 -0.024192753974941954 0.0 0.0
0.04291664868493479 -0.018352162476533155 0.0 -0.02427403448276712 0.0 0.0
0.046150990123508505 -0.01967880321660166 0.0 -0.024471448626175327 0.0 0.0
0.049342273655020405 -0.020963368804075344 0.0 -0.02483602353368138 0.0 0.0
0.05255990174166792 -0.022323554961032527 0.0 -0.025263225320193892 0.0 0.0
0.05599149410180806 -0.024112515189158343 0.0 -0.025076075900065106 0.0 0.0
0.05976089443640062 -0.0268497216790267 0.0 -0.02238554488282737 0.0 0.0
0.06327339926103837 -0.030422079853028992 0.0 -0.014245722676718673 0.0 0.0
0.06481703773687558 -0.03257679862376726 0.0 6.696032617270475e-16 0.0 0.0
0.06327339926103849 -0.030422079853025613 0.0 0.014245722676718513 0.0 0.0
0.05976089443640077 -0.026849721679026575 0.0 0.02238554488282641 0.0 0.0
0.0559914941018077 -0.024112515189162735 0.0 0.025076075900065123 0.0 0.0
0.05255990174166775 -0.02232355496103206 0.0 0.025263225320193136 0.0 0.0
0.04934227365502054 -0.020963368804084906 0.0 0.02483602353368169 0.0 0.0
0.04615099012350844 -0.01967880321659953 0.0 0.024471448626175497 0.0 0.0
0.0429166486849348 -0.018352162476531802 0.0 0.024274034482768464 0.0 0.0
0.03964295983762 -0.016978767983261176 0.0 0.02419275397494176 0.0 0.0
0.03634945683596158 -0.01557943204240994 0.0 0.02417108089966915 0.0 0.0
0.03304959073159477 -0.014169736687967418 0.0 0.024174694633163945 0.0 0.0
0.02974819847011271 -0.012754804785239883 0.0 0.024182830893237552 0.0 0.0
0.026441469017066618 -0.011327910017596959 0.0 0.024169450780897238 0.0 0.0
0.02311153033985554 -0.00986452848151973 0.0 0.024075606658656466 0.0 0.0
0.019715005664523548 -0.008310517945351327 0.0 0.02377710938296905 0.0 0.0
0.016152532283643543 -0.006579804135962149 0.0 0.02307440119937573 0.0 0.0
0.012113968732608161 -0.004498195965614099 0.0 0.021759507479869607 0.0 0.0
0.007060060346345326 -0.0016685354326732727 0.0 0.020584286800966824 0.0 0.0
0.0024847202103166046 0.0007466877622470609 0.0 0.024000736302906993 0.0 0.0
0.005407734325660837 -0.008338173769604657 0.0 0.03032687830061146 0.0 0.0
0.010050617881273082 -0.04535780959799884 0.0 0.026182828998714196 0.0 0.0
0.008769714599087645 -0.0381053878583297 0.0 -0.023987279681675647 0.0 0.0
0.004524610383998704 -0.009162812690497625 0.0 -0.03059474631161055 0.0 0.0
0.0010718071755614425 0.0007107198417681123 0.0 -0.0278705204441555 0.0 0.0
0.004172453707093049 -0.0003204692615729475 0.0 -0.02409344321313959 0.0 0.0
0.00839499566479554 -0.0027731308758978603 0.0 -0.024347319958479195 0.0 0.0
0.01182934829969665 -0.004669412608845351 0.0 -0.02530930024490541 0.0 0.0
0.014695811732970073 -0.0061350768660506155 0.0 -0.025894030226479167 0.0 0.0
0.017315979810959226 -0.00737264382170412 0.0 -0.026148678391869996 0.0 0.0
0.01983552405550306 -0.008495723160335594 0.0 -0.02623122537868057 0.0 0.0
0.02231898979584181 -0.00957164077419512 0.0 -0.026244181485012553 0.0 0.0
0.02479345682197568 -0.010632252618412809 0.0 -0.026238097397652142 0.0 0.0
0.027265235888186894 -0.011686280074402259 0.0 -0.026235529514454056 0.0 0.0
0.029727548920096408 -0.012727323227555676 0.0 -0.02625395724204188 0.0 0.0
0.03216090708563175 -0.01373574537905313 0.0 -0.02632176633476806 0.0 0.0
0.03453520749118278 -0.014683928874858816 0.0 -0.026487197656163884 0.0 0.0
0.03683764753182255 -0.015571621459617813 0.0 -0.026803311059041147 0.0 0.0
0.03915866745186348 -0.016537548474403734 0.0 -0.027207687282975505 0.0 0.0
0.041795421267038176 -0.018040089797970366 0.0 -0.027101712800981757 0.0 0.0
0.045088652176171896 -0.02083511910794785 0.0 -0.024523392245035826 0.0 0.0
0.04856251245995258 -0.02499983131175915 0.0 -0.015929398946889314 0.0 0.0
0.050193154881114574 -0.027746556777615505 0.0 -2.7668839441830073e-16 0.0 0.0
0.04856251245995298 -0.02499983131175862 0.0 0.015929398946888936 0.0 0.0
0.04508865217617241 -0.020835119107948906 0.0 0.02452339224503427 0.0 0.0
0.04179542126703776 -0.018040089797966084 0.0 0.027101712800981573 0.0 0.0
0.03915866745186305 -0.0165375484744023 0.0 0.027207687282975693 0.0 0.0
0.03683764753182267 -0.01557162145962527 0.0 0.02680331105904258 0.0 0.0
0.034535207491182725 -0.01468392887486189 0.0 0.026487197656164183 0.0 0.0
0.03216090708563185 -0.013735745379049973 0.0 0.026321766334768154 0.0 0.0
0.029727548920096575 -0.012727323227558839 0.0 0.026253957242041215 0.0 0.0
0.02726523588818701 -0.011686280074397827 0.0 0.02623552951445306 0.0 0.0
0.024793456821975778 -0.010632252618415744 0.0 0.026238097397651566 0.0 0.0
0.022318989795841838 -0.009571640774193745 0.0 0.02624418148501346 0.0 0.0
0.01983552405550295 -0.008495723160334881 0.0 0.0262312253786803 0.0 0.0
0.01731597981095939 -0.007372643821703231 0.0 0.026148678391869858 0.0 0.0
0.014695811732969986 -0.006135076866050221 0.0 0.025894030226478557 0.0 0.0
0.011829348299696535 -0.0046694126088458986 0.0 0.02530930024490564 0.0 0.0
0.00839499566479536 -0.002773130875896344 0.0 0.024347319958478806 0.0 0.0
0.004172453707092784 -0.00032046926157304354 0.0 0.02409344321314028 0.0 0.0
0.0010718071755616897 0.0007107198417684142 0.0 0.0278705204441553 0.0 0.0
0.00452461038399896 -0.009162812690498255 0.0 0.030594746311610944 0.0 0.0
0.008769714599087718 -0.038105387858329585 0.0 0.0239872796816759 0.0 0.0
0.00754883791004856 -0.03174281756325473 0.0 -0.02186665856309461 0.0 0.0
0.0037097620791466807 -0.00931472942803486 0.0 -0.030202348479134743 0.0 0.0
-0.00010541307364031957 0.0005918438988219228 0.0 -0.03057745287857986 0.0 0.0
0.0016046694182483576 0.0007685745167732693 0.0 -0.027017878401445546 0.0 0.0
0.004834055323630074 -0.001154265016744488 0.0 -0.026513317770902673 0.0 0.0
0.007549776202866792 -0.0027861400694769033 0.0 -0.027040982712265477 0.0 0.0
0.009686194057560863 -0.003968473005134579 0.0 -0.027453239105984913 0.0 0.0
0.01152150877962613 -0.004882753536381346 0.0 -0.027641680559547525 0.0 0.0
0.013228243384712578 -0.0056630306459133474 0.0 -0.02770414031044389 0.0 0.0
0.014888360387005466 -0.006387670525800783 0.0 -0.027714709079824398 0.0 0.0
0.016536279835555612 -0.007094116463128293 0.0 -0.027710748793217967 0.0 0.0
0.018180406539208327 -0.007792828143326108 0.0 -0.027709082559743664 0.0 0.0
0.019812620212996523 -0.008476498754490452 0.0 -0.027722268662272103 0.0 0.0
0.021408918635884563 -0.00912249429029449 0.0 -0.02777039714643403 0.0 0.0
0.02293049771739095 -0.009697675429752832 0.0 -0.027889688059430134 0.0 0.0
0.024354484517917784 -0.010195131777544325 0.0 -0.028133236829471896 0.0 0.0
0.02578526524042541 -0.01076497160603883 0.0 -0.028498713685921297 0.0 0.0
0.027626499482605985 -0.01196149969396413 0.0 -0.028536319672116606 0.0 0.0
0.030465944276832746 -0.014810205113550245 0.0 -0.026306244956642525 0.0 0.0
0.03398782465710323 -0.019686667404317727 0.0 -0.01757307341547411 0.0 0.0
0.03576820953824992 -0.023224917620531527 0.0 5.212844045310305e-16 0.0 0.0
0.03398782465710396 -0.019686667404321647 0.0 0.01757307341547408 0.0 0.0
0.030465944276833377 -0.014810205113553267 0.0 0.026306244956642855 0.0 0.0
0.027626499482606346 -0.011961499693962489 0.0 0.028536319672116776 0.0 0.0
0.02578526524042514 -0.010764971606037519 0.0 0.028498713685921738 0.0 0.0
0.024354484517917507 -0.010195131777540547 0.0 0.028133236829470817 0.0 0.0
0.022930497717390808 -0.009697675429756336 0.0 0.027889688059431587 0.0 0.0
0.021408918635884493 -0.009122494290291133 0.0 0.027770397146435498 0.0 0.0
0.01981262021299623 -0.008476498754490837 0.0 0.027722268662271954 0.0 0.0
0.018180406539208126 -0.007792828143326146 0.0 0.027709082559743067 0.0 0.0
0.016536279835555858 -0.007094116463131727 0.0 0.02771074879321881 0.0 0.0
0.014888360387005715 -0.006387670525804987 0.0 0.027714709079823735 0.0 0.0
0.013228243384712351 -0.005663030645913748 0.0 0.027704140310444186 0.0 0.0
0.011521508779625957 -0.0048827535363840545 0.0 0.027641680559547285 0.0 0.0
0.009686194057561017 -0.003968473005133817 0.0 0.02745323910598499 0.0 0.0
0.007549776202867054 -0.002786140069478774 0.0 0.027040982712265526 0.0 0.0
0.0048340553236299755 -0.0011542650167436158 0.0 0.026513317770901455 0.0 0.0
0.0016046694182481702 0.0007685745167727747 0.0 0.027017878401447103 0.0 0.0
-0.00010541307364022889 0.0005918438988206973 0.0 0.030577452878579617 0.0 0.0
0.0037097620791469044 -0.009314729428035172 0.0 0.030202348479135208 0.0 0.0
0.00754883791004881 -0.03174281756325462 0.0 0.02186665856309348 0.0 0.0
0.006360201577762989 -0.02612338366926386 0.0 -0.019877007192832148 0.0 0.0
0.0029013931492304535 -0.008964697361898255 0.0 -0.029311266601869862 0.0 0.0
-0.0011612348279145877 0.0005126880272654594 0.0 -0.032200720354911214 0.0 0.0
-0.0007207345446563266 0.0016687214846937924 0.0 -0.029215673645175355 0.0 0.0
0.001429743114691825 0.00034977876957640816 0.0 -0.028166136041653703 0.0 0.0
0.0033285690895946156 -0.0009430749015306362 0.0 -0.028244978668525066 0.0 0.0
0.004692803647620737 -0.0018149133810236536 0.0 -0.028447176803013403 0.0 0.0
0.005730186757037663 -0.002396405580151519 0.0 -0.028552361623715626 0.0 0.0
0.006620213764736303 -0.0028302865681388975 0.0 -0.02858825057483519 0.0 0.0
0.00745630711936689 -0.0032028599486575897 0.0 -0.02859474718907838 0.0 0.0
0.0082779651796413 -0.0035552503553180842 0.0 -0.028592866953714907 0.0 0.0
0.009095044976317607 -0.003899127836794968 0.0 -0.028591953413262015 0.0 0.0
0.009898696703879137 -0.004226686680271096 0.0 -0.028598473018900415 0.0 0.0
0.010662201011511906 -0.00451352232559187 0.0 -0.02862265851207886 0.0 0.0
0.011340414112217631 -0.004722708252756867 0.0 -0.028685716056211966 0.0 0.0
0.011898804238544215 -0.0048389485874391555 0.0 -0.02883636091942143 0.0 0.0
0.012442995879831949 -0.005009504135668668 0.0 -0.02914224528574537 0.0 0.0
0.013469744634455326 -0.005863190318991736 0.0 -0.02937312116031628 0.0 0.0
0.01584746569415131 -0.008725688273884289 0.0 -0.027740099573668662 0.0 0.0
0.019493961091900682 -0.014428415123974508 0.0 -0.019230465464325285 0.0 0.0
0.021492626931132144 -0.019028146611313516 0.0 1.130606025467884e-15 0.0 0.0
0.019493961091901178 -0.014428415123982297 0.0 0.019230465464324616 0.0 0.0
0.015847465694151793 -0.008725688273880622 0.0 0.027740099573669977 0.0 0.0
0.013469744634455414 -0.005863190318996324 0.0 0.02937312116031439 0.0 0.0
0.012442995879832002 -0.005009504135668608 0.0 0.02914224528574376 0.0 0.0
0.01189880423854419 -0.004838948587434086 0.0 0.02883636091942049 0.0 0.0
0.011340414112217439 -0.0047227082527541205 0.0 0.028685716056212514 0.0 0.0
0.010662201011512258 -0.004513522325591101 0.0 0.02862265851207859 0.0 0.0
0.009898696703879249 -0.004226686680272027 0.0 0.028598473018900915 0.0 0.0
0.009095044976317478 -0.0038991278367916478 0.0 0.02859195341326335 0.0 0.0
0.008277965179641592 -0.0035552503553229744 0.0 0.028592866953715754 0.0 0.0
0.00745630711936726 -0.00320285994865896 0.0 0.02859474718907648 0.0 0.0
0.006620213764736292 -0.002830286568141069 0.0 0.02858825057483594 0.0 0.0
0.005730186757037641 -0.002396405580155359 0.0 0.02855236162371528 0.0 0.0
0.004692803647620745 -0.0018149133810234693 0.0 0.028447176803014333 0.0 0.0
0.003328569089594666 -0.0009430749015309799 0.0 0.02824497866852526 0.0 0.0
0.0014297431146920157 0.0003497787695761808 0.0 0.028166136041653515 0.0 0.0
-0.0007207345446563052 0.0016687214846951627 0.0 0.029215673645175556 0.0 0.0
-0.0011612348279144576 0.0005126880272648042 0.0 0.032200720354910825 0.0 0.0
0.002901393149230736 -0.008964697361898472 0.0 0.02931126660186984 0.0 0.0
0.006360201577763288 -0.0261233836692639 0.0 0.019877007192830257 0.0 0.0
0.005198850900317617 -0.02113770233405162 0.0 -0.018005116064995424 0.0 0.0
0.0020749762530844615 -0.008256760745179009 0.0 -0.028020633566317767 0.0 0.0
-0.0021669257444386354 0.0005365168473019243 0.0 -0.03284444790855842 0.0 0.0
-0.0028704993947621816 0.0024435371678203587 0.0 -0.03061531980006755 0.0 0.0
-0.0018324638911922583 0.001745577270640247 0.0 -0.029226732869167125 0.0 0.0
-0.0008276938212092084 0.000852299029812198 0.0 -0.028889789648583193 0.0 0.0
-0.0002795968981846262 0.0003222175676708776 0.0 -0.028865852501710212 0.0 0.0
-5.646346535167167e-05 8.538253751852332e-05 0.0 -0.028877597785343267 0.0 0.0
1.1830145330884046e-05 2.1982382958783317e-06 0.0 -0.02888317930477028 0.0 0.0
2.2851253178266602e-05 -1.7210310332406046e-05 0.0 -0.028884570828764333 0.0 0.0
1.8460420464480815e-05 -1.5607120294671036e-05 0.0 -0.028884700314743814 0.0 0.0
9.201470345961962e-06 -5.214284081774456e-06 0.0 -0.028884467863929272 0.0 0.0
-1.3911832258600059e-05 2.18700372566838e-05 0.0 -0.028883618060670302 0.0 0.0
-7.837636019517188e-05 9.054337157257019e-05 0.0 -0.028881805281633696 0.0 0.0
-0.00023265164067966747 0.0002393317184056669 0.0 -0.028883348791192972 0.0 0.0
-0.0005239563680418467 0.0004925521107903265 0.0 -0.028925756847152484 0.0 0.0
-0.0008628398023536737 0.000723041839794748 0.0 -0.029143826257144633 0.0 0.0
-0.0006866074809412188 0.0002642718278412799 0.0 -0.029590683438943617 0.0 0.0
0.0011866720152056988 -0.0025286725555674 0.0 -0.028804933669415517 0.0 0.0
0.005023603903430176 -0.009159924885340032 0.0 -0.020952582352645327 0.0 0.0
0.007318075534970115 -0.015193901438486555 0.0 -1.218643241873707e-15 0.0 0.0
0.0050236039034302704 -0.009159924885343009 0.0 0.020952582352645892 0.0 0.0
0.0011866720152061744 -0.0025286725555644695 0.0 0.028804933669416194 0.0 0.0
-0.0006866074809413832 0.0002642718278441068 0.0 0.02959068343894202 0.0 0.0
-0.0008628398023537663 0.0007230418397946831 0.0 0.029143826257145164 0.0 0.0
-0.0005239563680421336 0.0004925521107920594 0.0 0.028925756847151887 0.0 0.0
-0.00023265164068026682 0.00023933171841391615 0.0 0.028883348791192295 0.0 0.0
-7.83763601948464e-05 9.054337157244572e-05 0.0 0.02888180528163252 0.0 0.0
-1.391183225849294e-05 2.187003725449523e-05 0.0 0.0288836180606692 0.0 0.0
9.201470345834893e-06 -5.214284077078343e-06 0.0 0.028884467863927885 0.0 0.0
1.8460420464937915e-05 -1.560712029913925e-05 0.0 0.028884700314744882 0.0 0.0
2.2851253178363638e-05 -1.7210310333316207e-05 0.0 0.02888457082876284 0.0 0.0
1.1830145330860736e-05 2.198238298900681e-06 0.0 0.028883179304769253 0.0 0.0
-5.646346535131952e-05 8.53825375169959e-05 0.0 0.028877597785344898 0.0 0.0
-0.00027959689818427274 0.00032221756766886826 0.0 0.02886585250171099 0.0 0.0
-0.000827693821208861 0.0008522990298120382 0.0 0.02888978964858402 0.0 0.0
-0.0018324638911923906 0.001745577270639565 0.0 0.029226732869167264 0.0 0.0
-0.002870499394762308 0.0024435371678199185 0.0 0.030615319800066973 0.0 0.0
-0.0021669257444384316 0.0005365168473025188 0.0 0.03284444790855889 0.0 0.0
0.002074976253084475 -0.008256760745178776 0.0 0.028020633566316636 0.0 0.0
0.005198850900317563 -0.021137702334051985 0.0 0.01800511606499494 0.0 0.0
0.004070937378572965 -0.016710285785813708 0.0 -0.016210376331734177 0.0 0.0
0.0012262886429514515 -0.007306991721700325 0.0 -0.02638766015082364 0.0 0.0
-0.0031641295996117677 0.0006888115629866695 0.0 -0.03261030404444117 0.0 0.0
-0.004897701861425699 0.0031436587742822474 0.0 -0.03119027488479141 0.0 0.0
-0.004973239389028232 0.0030477290060439565 0.0 -0.029633452016178313 0.0 0.0
-0.004919413801597717 0.002598273953557859 0.0 -0.02894203175027893 0.0 0.0
-0.0052288144453164 0.0024410893911056396 0.0 -0.028697343379616214 0.0 0.0
-0.005837642465916411 0.0025621280826736838 0.0 -0.028613765126625883 0.0 0.0
-0.006596733244311951 0.00283429877756394 0.0 -0.028588321568260685 0.0 0.0
-0.007411990343930525 0.0031692677282486505 0.0 -0.02858440649086512 0.0 0.0
-0.00824225281789358 0.003524830765728258 0.0 -0.028586515206404952 0.0 0.0
-0.009077112492228749 0.0038889067689590424 0.0 -0.028587005201441685 0.0 0.0
-0.009925124642120713 0.004269094741624557 0.0 -0.028578886486796923 0.0 0.0
-0.010812643410132909 0.004689573103831423 0.0 -0.02855128781437667 0.0 0.0
-0.011787733842966292 0.005188025389528825 0.0 -0.028491302887451622 0.0 0.0
-0.012909226047742726 0.005796129971770618 0.0 -0.028417432241034348 0.0 0.0
-0.014123799863529775 0.0064239328287577875 0.0 -0.028512049226974322 0.0 0.0
-0.014848014591426092 0.006422557216218779 0.0 -0.02915487245086712 0.0 0.0
-0.013563364943004644 0.0038359652526874606 0.0 -0.029448071841724585 0.0 0.0
-0.009485244648269154 -0.003797121698723896 0.0 -0.02278659664955627 0.0 0.0
-0.006805953842442819 -0.011786927047833677 0.0 -7.381248390281314e-16 0.0 0.0
-0.009485244648268741 -0.0037971216987262193 0.0 0.022786596649556817 0.0 0.0
-0.013563364943004856 0.0038359652526891996 0.0 0.0294480718417263 0.0 0.0
-0.014848014591425828 0.006422557216221525 0.0 0.029154872450866523 0.0 0.0
-0.014123799863529383 0.006423932828755616 0.0 0.0285120492269745 0.0 0.0
-0.012909226047743146 0.005796129971778882 0.0 0.028417432241034997 0.0 0.0
-0.011787733842966533 0.005188025389537631 0.0 0.02849130288745194 0.0 0.0
-0.010812643410132492 0.004689573103837463 0.0 0.028551287814376353 0.0 0.0
-0.0099251246421206 0.004269094741622345 0.0 0.028578886486797107 0.0 0.0
-0.00907711249222866 0.0038889067689574083 0.0 0.02858700520144073 0.0 0.0
-0.00824225281789331 0.0035248307657280804 0.0 0.02858651520640499 0.0 0.0
-0.007411990343930693 0.003169267728246831 0.0 0.028584406490866562 0.0 0.0
-0.006596733244311906 0.0028342987775623746 0.0 0.028588321568260563 0.0 0.0
-0.005837642465916231 0.0025621280826734136 0.0 0.028613765126622413 0.0 0.0
-0.005228814445316371 0.002441089391105055 0.0 0.028697343379615513 0.0 0.0
-0.0049194138015978784 0.0025982739535572843 0.0 0.02894203175027888 0.0 0.0
-0.004973239389028747 0.003047729006042117 0.0 0.02963345201617658 0.0 0.0
-0.00489770186142583 0.0031436587742811007 0.0 0.031190274884791584 0.0 0.0
-0.0031641295996119364 0.0006888115629872815 0.0 0.03261030404444069 0.0 0.0
0.00122628864295133 -0.0073069917216997664 0.0 0.02638766015082388 0.0 0.0
0.0040709373785733005 -0.016710285785814266 0.0 0.01621037633173341 0.0 0.0
0.0029883096851100635 -0.012794885067943771 0.0 -0.014445100244777496 0.0 0.0
0.0003624858684121317 -0.0062068023340323426 0.0 -0.02444318333632843 0.0 0.0
-0.004173917915526466 0.0009715937991601345 0.0 -0.03158683399709269 0.0 0.0
-0.006841880275833609 0.0038056522188993124 0.0 -0.030939457789292968 0.0 0.0
-0.008015069808655108 0.004273979636184089 0.0 -0.029340948577645756 0.0 0.0
-0.008952396598661622 0.004298071682364406 0.0 -0.028370210074985122 0.0 0.0
-0.010155434232568221 0.00454184757766439 0.0 -0.02792898816353658 0.0 0.0
-0.011613432042312447 0.005033952197500544 0.0 -0.02775708866125813 0.0 0.0
-0.013205535416944317 0.005666074750749528 0.0 -0.02770304404872426 0.0 0.0
-0.014848214000096473 0.006356567553258002 0.0 -0.027694468131736056 0.0 0.0
-0.016504162273483117 0.007066051059653898 0.0 -0.027698580082746414 0.0 0.0
-0.01816393000415565 0.0077832627559029244 0.0 -0.027699932530481978 0.0 0.0
-0.019835087288768618 0.008515089206015179 0.0 -0.027685461052816975 0.0 0.0
-0.021541105389833826 0.009283884329581696 0.0 -0.027634474308380067 0.0 0.0
-0.023325552031093662 0.010124274152111888 0.0 -0.02751810925876062 0.0 0.0
-0.0252540584676133 0.011070572531364217 0.0 -0.027330213478186982 0.0 0.0
-0.02732765080507097 0.012081533740397613 0.0 -0.027263503033643766 0.0 0.0
-0.02900951174930528 0.01260081718864462 0.0 -0.028023933565729246 0.0 0.0
-0.02844785056461832 0.010421865090749981 0.0 -0.029573967708758073 0.0 0.0
-0.024102636077803375 0.0017745527039670504 0.0 -0.024770257746976627 0.0 0.0
-0.020937146486059002 -0.008907193884195981 0.0 4.623038063478191e-16 0.0 0.0
-0.024102636077803143 0.0017745527039671539 0.0 0.024770257746976485 0.0 0.0
-0.028447850564618786 0.010421865090748425 0.0 0.029573967708759107 0.0 0.0
-0.02900951174930519 0.012600817188645563 0.0 0.02802393356572818 0.0 0.0
-0.027327650805070915 0.012081533740398758 0.0 0.02726350303364461 0.0 0.0
-0.02525405846761399 0.011070572531373215 0.0 0.027330213478188745 0.0 0.0
-0.02332555203109399 0.010124274152112308 0.0 0.02751810925876058 0.0 0.0
-0.021541105389833726 0.009283884329588547 0.0 0.027634474308380806 0.0 0.0
-0.01983508728876844 0.008515089206015597 0.0 0.027685461052816877 0.0 0.0
-0.01816393000415538 0.007783262755904985 0.0 0.027699932530482425 0.0 0.0
-0.016504162273483114 0.0070660510596518775 0.0 0.027698580082745554 0.0 0.0
-0.014848214000096383 0.00635656755325477 0.0 0.027694468131735497 0.0 0.0
-0.013205535416944436 0.005666074750747016 0.0 0.02770304404872359 0.0 0.0
-0.011613432042312487 0.005033952197498472 0.0 0.027757088661258353 0.0 0.0
-0.010155434232567801 0.004541847577667495 0.0 0.027928988163537706 0.0 0.0
-0.008952396598661533 0.00429807168236585 0.0 0.028370210074983762 0.0 0.0
-0.008015069808654919 0.004273979636184183 0.0 0.029340948577644646 0.0 0.0
-0.006841880275833549 0.003805652218899499 0.0 0.030939457789294078 0.0 0.0
-0.004173917915526294 0.0009715937991601033 0.0 0.03158683399709361 0.0 0.0
0.00036248586841208054 -0.006206802334032025 0.0 0.024443183336329055 0.0 0.0
0.0029883096851094255 -0.012794885067944106 0.0 0.014445100244777074 0.0 0.0
0.00196632673169656 -0.009369775398046025 0.0 -0.012664995886304542 0.0 0.0
-0.0005021702385006713 -0.005027580607618867 0.0 -0.022203174844155803 0.0 0.0
-0.005202410182003629 0.001372200216631213 0.0 -0.029846281207508527 0.0 0.0
-0.008730374375887058 0.004453134102268752 0.0 -0.02987305458796475 0.0 0.0
-0.010979945185918253 0.005442455572262091 0.0 -0.028316562495657664 0.0 0.0
-0.012936454115492031 0.005958771773173853 0.0 -0.027146966349634507 0.0 0.0
-0.01506269071321864 0.006626691071773364 0.0 -0.02654879742470588 0.0 0.0
-0.017384859304180975 0.00750162862553558 0.0 -0.026304071725369457 0.0 0.0
-0.01981486452273168 0.008497751632464095 0.0 -0.026226860933148688 0.0 0.0
-0.022285822775436566 0.009544684411983818 0.0 -0.02621500086996907 0.0 0.0
-0.02476722090555691 0.010608009663719423 0.0 -0.026221152021143317 0.0 0.0
-0.027251324972695945 0.011677904289247865 0.0 -0.026223542191688914 0.0 0.0
-0.029744163745169735 0.01276014763163887 0.0 -0.02620436232828493 0.0 0.0
-0.03226483535894973 0.013874161656505176 0.0 -0.02613447846108686 0.0 0.0
-0.03484863974867939 0.015050147866843437 0.0 -0.025971216119645934 0.0 0.0
-0.03755847730979497 0.016317965198728187 0.0 -0.02568429853567341 0.0 0.0
-0.040458801792373246 0.01768296627469065 0.0 -0.02542873505646969 0.0 0.0
-0.043150231498055684 0.018769764271567263 0.0 -0.026159829145225036 0.0 0.0
-0.04350561910176873 0.017272758417835567 0.0 -0.029030295397931928 0.0 0.0
-0.03891092181078713 0.007717081476693881 0.0 -0.02691731807319525 0.0 0.0
-0.03514855845641763 -0.006700488007221858 0.0 5.447031714567174e-16 0.0 0.0
-0.03891092181078717 0.00771708147669605 0.0 0.026917318073194425 0.0 0.0
-0.04350561910176903 0.017272758417831994 0.0 0.02903029539793183 0.0 0.0
-0.04315023149805573 0.018769764271566732 0.0 0.026159829145225647 0.0 0.0
-0.040458801792373156 0.0176829662746888 0.0 0.02542873505646965 0.0 0.0
-0.037558477309795196 0.016317965198732333 0.0 0.025684298535672317 0.0 0.0
-0.03484863974867909 0.01505014786683927 0.0 0.025971216119644484 0.0 0.0
-0.03226483535894951 0.013874161656506293 0.0 0.02613447846108557 0.0 0.0
-0.029744163745170103 0.012760147631638439 0.0 0.02620436232828341 0.0 0.0
-0.027251324972696306 0.011677904289252474 0.0 0.026223542191687297 0.0 0.0
-0.024767220905557035 0.010608009663720372 0.0 0.02622115202114361 0.0 0.0
-0.0222858227754363 0.009544684411981712 0.0 0.026215000869971482 0.0 0.0
-0.019814864522731374 0.008497751632469568 0.0 0.026226860933148174 0.0 0.0
-0.01738485930418093 0.0075016286255343186 0.0 0.026304071725370953 0.0 0.0
-0.015062690713218856 0.00662669107177671 0.0 0.026548797424709294 0.0 0.0
-0.012936454115492142 0.005958771773172393 0.0 0.02714696634963539 0.0 0.0
-0.010979945185918157 0.0054424555722646 0.0 0.02831656249565752 0.0 0.0
-0.008730374375886977 0.004453134102269176 0.0 0.029873054587964423 0.0 0.0
-0.005202410182003684 0.0013722002166311237 0.0 0.029846281207511198 0.0 0.0
-0.0005021702385006765 -0.0050275806076189745 0.0 0.022203174844155096 0.0 0.0
0.001966326731696775 -0.009369775398046207 0.0 0.012664995886304068 0.0 0.0
0.0010235317256118022 -0.006433327606084879 0.0 -0.010835945226990135 0.0 0.0
-0.0013476119862043888 -0.0038255413780304715 0.0 -0.019677564439650432 0.0 0.0
-0.00624372052469464 0.001867943964361091 0.0 -0.027443937876388012 0.0 0.0
-0.010580042292915556 0.005098778463750144 0.0 -0.02800198659864812 0.0 0.0
-0.013888557081692204 0.006570574503973708 0.0 -0.026536146664849967 0.0 0.0
-0.01688440158324663 0.007590392761041918 0.0 -0.025250274901710508 0.0 0.0
-0.0199561370187745 0.008699687215602898 0.0 -0.024546775423259407 0.0 0.0
-0.02315384287676188 0.00996655998208819 0.0 -0.024251981877812887 0.0 0.0
-0.026425207245298458 0.011329687161026782 0.0 -0.024159591625177643 0.0 0.0
-0.029724808606264135 0.012733600176406118 0.0 -0.024146318432961954 0.0 0.0
-0.03303133698505713 0.014150628826129417 0.0 -0.024154460409317284 0.0 0.0
-0.03633939163353389 0.015572878247045292 0.0 -0.02415801591516166 0.0 0.0
-0.039652935334378324 0.017004756009553416 0.0 -0.02413624131599421 0.0 0.0
-0.04298532293140525 0.01846144704061591 0.0 -0.024054033523454928 0.0 0.0
-0.04636112599862653 0.019968322032633358 0.0 -0.02385654263153671 0.0 0.0
-0.049827325994980076 0.021544870632029003 0.0 -0.023497626402381684 0.0 0.0
-0.0535009263928471 0.023218775525928312 0.0 -0.023056973195740665 0.0 0.0
-0.05722651862797394 0.02487543497264647 0.0 -0.023551295494860555 0.0 0.0
-0.0587594774314318 0.024404799445293484 0.0 -0.027592539131992746 0.0 0.0
-0.054009961700277755 0.0142644366677592 0.0 -0.029183786987441243 0.0 0.0
-0.04954314016713723 -0.0053702126461154945 0.0 9.428222091933947e-16 0.0 0.0
-0.05400996170027782 0.014264436667760613 0.0 0.02918378698744175 0.0 0.0
-0.05875947743143224 0.024404799445297106 0.0 0.027592539131992597 0.0 0.0
-0.0572265186279739 0.02487543497263911 0.0 0.023551295494862127 0.0 0.0
-0.053500926392847196 0.023218775525925064 0.0 0.023056973195740044 0.0 0.0
-0.049827325994980194 0.02154487063203262 0.0 0.02349762640238146 0.0 0.0
-0.04636112599862603 0.0199683220326311 0.0 0.02385654263153749 0.0 0.0
-0.04298532293140481 0.018461447040615264 0.0 0.024054033523453245 0.0 0.0
-0.03965293533437831 0.017004756009552122 0.0 0.02413624131599402 0.0 0.0
-0.03633939163353377 0.015572878247045657 0.0 0.024158015915164144 0.0 0.0
-0.03303133698505707 0.014150628826131825 0.0 0.02415446040931754 0.0 0.0
-0.02972480860626417 0.012733600176406179 0.0 0.024146318432963318 0.0 0.0
-0.026425207245298597 0.011329687161027552 0.0 0.02415959162517756 0.0 0.0
-0.023153842876761654 0.009966559982087708 0.0 0.02425198187781318 0.0 0.0
-0.01995613701877419 0.008699687215605056 0.0 0.0245467754232598 0.0 0.0
-0.01688440158324671 0.007590392761038145 0.0 0.025250274901711663 0.0 0.0
-0.01388855708169194 0.006570574503974814 0.0 0.026536146664850317 0.0 0.0
-0.010580042292915414 0.005098778463750074 0.0 0.02800198659864788 0.0 0.0
-0.006243720524694512 0.0018679439643607466 0.0 0.02744393787638836 0.0 0.0
-0.0013476119862043364 -0.0038255413780307144 0.0 0.01967756443965029 0.0 0.0
0.0010235317256116496 -0.006433327606084949 0.0 0.010835945226990142 0.0 0.0
0.00018274977003759763 -0.0039996892140118446 0.0 -0.008941018373919762 0.0 0.0
-0.002146964164788 -0.002646811214405314 0.0 -0.01687759055325908 0.0 0.0
-0.007280745174713424 0.0024276770815138075 0.0 -0.024416906202422095 0.0 0.0
-0.01239912812738916 0.0057467653797898385 0.0 -0.025329440141707543 0.0 0.0
-0.0167606587461432 0.00767525487156682 0.0 -0.023980511360649794 0.0 0.0
-0.020811467921356883 0.009205224189403751 0.0 -0.022664150879383765 0.0 0.0
-0.024843200644901805 0.010766412578849683 0.0 -0.02191601754725251 0.0 0.0
-0.028923028655008842 0.012430668035326763 0.0 -0.021599329340129387 0.0 0.0
-0.03303718491422918 0.014162318938565895 0.0 -0.02150149646821406 0.0 0.0
-0.03716512365014752 0.015923257492082114 0.0 -0.021488831216423716 0.0 0.0
-0.041296364760126 0.017693795859504965 0.0 -0.021498676955171662 0.0 0.0
-0.045428202280439804 0.019468202580839335 0.0 -0.02150342228076328 0.0 0.0
-0.04956218819752248 0.02124950448075718 0.0 -0.021481215747069144 0.0 0.0
-0.05370441222110163 0.023047343438183265 0.0 -0.021395050808256093 0.0 0.0
-0.05786793521746271 0.024881208504258935 0.0 -0.02117931153923665 0.0 0.0
-0.06207198748984037 0.026762015612361738 0.0 -0.0207803927144977 0.0 0.0
-0.06644360183090692 0.028692373770713042 0.0 -0.020213038040272108 0.0 0.0
-0.07116469360323763 0.03083619979656002 0.0 -0.020256677588724487 0.0 0.0
-0.07419672517785411 0.03177092695210668 0.0 -0.024957590868557613 0.0 0.0
-0.06952274879217647 0.021756768890178108 0.0 -0.03139128489966883 0.0 0.0
-0.06428105425329055 -0.00518520569694355 0.0 5.2562121322097255e-16 0.0 0.0
-0.06952274879217658 0.02175676889017867 0.0 0.031391284899667686 0.0 0.0
-0.0741967251778543 0.03177092695210927 0.0 0.024957590868557658 0.0 0.0
-0.07116469360323777 0.03083619979655869 0.0 0.020256677588726846 0.0 0.0
-0.06644360183090715 0.028692373770714513 0.0 0.020213038040272108 0.0 0.0
-0.06207198748984036 0.026762015612366803 0.0 0.02078039271449787 0.0 0.0
-0.057867935217462335 0.024881208504258474 0.0 0.021179311539238403 0.0 0.0
-0.053704412221101255 0.02304734343818141 0.0 0.021395050808257217 0.0 0.0
-0.04956218819752229 0.021249504480759445 0.0 0.021481215747069307 0.0 0.0
-0.04542820228043982 0.019468202580838288 0.0 0.021503422280765246 0.0 0.0
-0.04129636476012601 0.01769379585950378 0.0 0.021498676955170784 0.0 0.0
-0.03716512365014721 0.01592325749208165 0.0 0.021488831216423695 0.0 0.0
-0.033037184914228974 0.014162318938566829 0.0 0.021501496468211787 0.0 0.0
-0.02892302865500887 0.012430668035326093 0.0 0.021599329340131104 0.0 0.0
-0.024843200644901964 0.010766412578852668 0.0 0.021916017547249617 0.0 0.0
-0.02081146792135687 0.009205224189404022 0.0 0.022664150879384306 0.0 0.0
-0.016760658746143173 0.0076752548715671946 0.0 0.023980511360648864 0.0 0.0
-0.012399128127389263 0.005746765379789335 0.0 0.025329440141707408 0.0 0.0
-0.0072807451747134554 0.0024276770815145005 0.0 0.02441690620242187 0.0 0.0
-0.0021469641647876535 -0.0026468112144057273 0.0 0.016877590553261528 0.0 0.0
0.00018274977003846822 -0.003999689214011636 0.0 0.008941018373919184 0.0 0.0
-0.0005261552339243135 -0.0020939773160830095 0.0 -0.006991372380139502 0.0 0.0
-0.0028631571792496206 -0.001533614861751456 0.0 -0.013822562757841467 0.0 0.0
-0.008284100530594975 0.0030109448150943425 0.0 -0.020779464461619268 0.0 0.0
-0.014189491180987054 0.006395886950830293 0.0 -0.02184336757459046 0.0 0.0
-0.019616399234481795 0.008774123860689834 0.0 -0.020633354371891822 0.0 0.0
-0.024735008939953937 0.010817323934089745 0.0 -0.019379275718454617 0.0 0.0
-0.029732663528345415 0.012833489454502644 0.0 -0.018653548090406015 0.0 0.0
-0.03469553712517099 0.014896207179043969 0.0 -0.018346282487693835 0.0 0.0
-0.039651456114055496 0.01699608799550643 0.0 -0.01825337361628543 0.0 0.0
-0.04460664042944257 0.019113532348042018 0.0 -0.01824305799472877 0.0 0.0
-0.04956209822718211 0.021237342699943536 0.0 -0.01825389794283224 0.0 0.0
-0.05451776605428449 0.023363902418469997 0.0 -0.018259639605602593 0.0 0.0
-0.0594727963719895 0.025494828427293312 0.0 -0.01823907550865216 0.0 0.0
-0.06442452939804327 0.02763432475035907 0.0 -0.01815733981128331 0.0 0.0
-0.06937351089096139 0.029790875108309807 0.0 -0.017945912484047002 0.0 0.0
-0.07431009171022399 0.03197960962079309 0.0 -0.0175330191383945 0.0 0.0
-0.07929536369842137 0.03413467578190892 0.0 -0.01695176989725886 0.0 0.0
-0.08485792596300548 0.03655436290899243 0.0 -0.01647186394508343 0.0 0.0
-0.08973031914331585 0.03919040633404861 0.0 -0.020785406165964047 0.0 0.0
-0.08559865084915068 0.030682700263511595 0.0 -0.033048870830093065 0.0 0.0
-0.07963402694640395 -0.006466484867868962 0.0 1.43982048506075e-16 0.0 0.0
-0.08559865084915064 0.030682700263510124 0.0 0.033048870830092586 0.0 0.0
-0.08973031914331557 0.03919040633404972 0.0 0.020785406165963194 0.0 0.0
-0.08485792596300547 0.03655436290899021 0.0 0.016471863945082058 0.0 0.0
-0.07929536369842187 0.03413467578191007 0.0 0.016951769897260625 0.0 0.0
-0.07431009171022392 0.031979609620800126 0.0 0.017533019138395414 0.0 0.0
-0.06937351089096094 0.0297908751083076 0.0 0.017945912484046464 0.0 0.0
-0.06442452939804326 0.027634324750354218 0.0 0.018157339811283316 0.0 0.0
-0.05947279637198934 0.025494828427294534 0.0 0.018239075508649782 0.0 0.0
-0.05451776605428442 0.023363902418466625 0.0 0.018259639605602753 0.0 0.0
-0.049562098227182605 0.0212373426999421 0.0 0.018253897942830572 0.0 0.0
-0.04460664042944298 0.019113532348044228 0.0 0.018243057994730076 0.0 0.0
-0.039651456114055135 0.016996087995504842 0.0 0.01825337361628334 0.0 0.0
-0.03469553712517071 0.014896207179044503 0.0 0.018346282487695362 0.0 0.0
-0.029732663528345547 0.012833489454504242 0.0 0.01865354809040466 0.0 0.0
-0.02473500893995401 0.010817323934091481 0.0 0.01937927571845538 0.0 0.0
-0.019616399234481576 0.008774123860687957 0.0 0.020633354371889043 0.0 0.0
-0.014189491180986905 0.006395886950829534 0.0 0.021843367574589066 0.0 0.0
-0.008284100530595069 0.0030109448150959506 0.0 0.020779464461619147 0.0 0.0
-0.002863157179249524 -0.001533614861751901 0.0 0.013822562757843167 0.0 0.0
-0.0005261552339243516 -0.0020939773160830798 0.0 0.006991372380139532 0.0 0.0
-0.0010608140611807664 -0.0007458942191331014 0.0 -0.005046207823272202 0.0 0.0
-0.0034422717362816834 -0.0005335191327955713 0.0 -0.010546343640211151 0.0 0.0
-0.009209439050268522 0.003565378216072928 0.0 -0.01651113117647348 0.0 0.0
-0.015949857297807495 0.007044162393775541 0.0 -0.01751003620428649 0.0 0.0
-0.022478501011396063 0.009887343976303625 0.0 -0.016481511572647812 0.0 0.0
-0.02867430953201696 0.012441991580489408 0.0 -0.015393624982142227 0.0 0.0
-0.03463408231564663 0.01490808529717089 0.0 -0.014760953673293477 0.0 0.0
-0.04047464693750462 0.017365512483845012 0.0 -0.014494966238208054 0.0 0.0
-0.046268588203774545 0.019831333727196497 0.0 -0.014416609972730124 0.0 0.0
-0.052049110637460316 0.022304224000049 0.0 -0.014409579511471059 0.0 0.0
-0.05782824412813273 0.024780987783368274 0.0 -0.014420228903001084 0.0 0.0
-0.06360806598850621 0.02726008152259853 0.0 -0.01442607160075105 0.0 0.0
-0.06938538301186302 0.029740895360823298 0.0 -0.01440979096383039 0.0 0.0
-0.07514909370551871 0.032224910068789525 0.0 -0.014338000659517685 0.0 0.0
-0.08088146862597673 0.034702710774891864 0.0 -0.01416039781614083 0.0 0.0
-0.08655932388276441 0.037195652336449614 0.0 -0.013764180166147454 0.0 0.0
-0.09210390754267646 0.03961457929492994 0.0 -0.013251458883677287 0.0 0.0
-0.0981815723483721 0.041975405422397166 0.0 -0.012589879995295124 0.0 0.0
-0.10512179223764424 0.046211872439823415 0.0 -0.014927208606435876 0.0 0.0
-0.1024038234467216 0.04171157066479186 0.0 -0.03291665648909325 0.0 0.0
-0.09610052470997012 -0.009499384464161504 0.0 1.682681771697503e-16 0.0 0.0
-0.10240382344672218 0.04171157066479214 0.0 0.032916656489092186 0.0 0.0
-0.1051217922376442 0.04621187243982426 0.0 0.014927208606435649 0.0 0.0
-0.09818157234837162 0.04197540542239256 0.0 0.012589879995293197 0.0 0.0
-0.09210390754267636 0.03961457929493002 0.0 0.013251458883678364 0.0 0.0
-0.08655932388276423 0.03719565233644797 0.0 0.013764180166146837 0.0 0.0
-0.08088146862597623 0.03470271077489148 0.0 0.014160397816138655 0.0 0.0
-0.07514909370551863 0.03222491006878976 0.0 0.0143380006595188 0.0 0.0
-0.0693853830118628 0.029740895360821307 0.0 0.014409790963830663 0.0 0.0
-0.06360806598850606 0.027260081522594095 0.0 0.014426071600750864 0.0 0.0
-0.05782824412813278 0.024780987783368985 0.0 0.014420228902999713 0.0 0.0
-0.05204911063746015 0.02230422400005048 0.0 0.014409579511472165 0.0 0.0
-0.046268588203774164 0.019831333727196858 0.0 0.014416609972729814 0.0 0.0
-0.040474646937504355 0.01736551248384435 0.0 0.014494966238208402 0.0 0.0
-0.03463408231564671 0.014908085297169384 0.0 0.01476095367329321 0.0 0.0
-0.028674309532017363 0.012441991580489715 0.0 0.015393624982143694 0.0 0.0
-0.02247850101139639 0.00988734397630158 0.0 0.016481511572646584 0.0 0.0
-0.015949857297807398 0.007044162393775304 0.0 0.017510036204286077 0.0 0.0
-0.009209439050268095 0.0035653782160729158 0.0 0.016511131176473532 0.0 0.0
-0.0034422717362816023 -0.0005335191327951704 0.0 0.010546343640209828 0.0 0.0
-0.0010608140611811077 -0.0007458942191333702 0.0 0.005046207823273874 0.0 0.0
-0.001355648665072775 2.0090533541395437e-05 0.0 -0.003251290149543342 0.0 0.0
-0.0038015098099642404 0.00028427769177740455 0.0 -0.007102652161796976 0.0 0.0
-0.009993582337553413 0.004023596292722108 0.0 -0.011530142571989073 0.0 0.0
-0.017681379826712192 0.007696622078415965 0.0 -0.012271915860521697 0.0 0.0
-0.025374972556580885 0.01103915525616676 0.0 -0.011517709497931076 0.0 0.0
-0.0326501906665288 0.014095120122424701 0.0 -0.01071291727525782 0.0 0.0
-0.039557182795945396 0.01699743446206754 0.0 -0.010244989034863398 0.0 0.0
-0.04626342833845129 0.019840666270869327 0.0 -0.010049555459673176 0.0 0.0
-0.0528888988422697 0.022668200064284258 0.0 -0.00999315299207958 0.0 0.0
-0.05949214716978883 0.0254949901112991 0.0 -0.009989049309369754 0.0 0.0
-0.06609434916447389 0.02832446518432767 0.0 -0.009997563325093274 0.0 0.0
-0.07269914955860969 0.031156423904376777 0.0 -0.010002421221943303 0.0 0.0
-0.07930014260202391 0.03398903267487625 0.0 -0.009990832936424797 0.0 0.0
-0.08588154253837602 0.03681748528382129 0.0 -0.009939748510281347 0.0 0.0
-0.09239908980792974 0.039633020405494976 0.0 -0.00980122485967779 0.0 0.0
-0.09882153284320404 0.042391232629876645 0.0 -0.00953718997315822 0.0 0.0
-0.10497165036013405 0.04519273556192714 0.0 -0.008965941406444453 0.0 0.0
-0.11106923152580006 0.047287458861306975 0.0 -0.008993663362555197 0.0 0.0
-0.11982966429128511 0.051857246329956204 0.0 -0.00834190273522503 0.0 0.0
-0.12006191447889666 0.055629516807431716 0.0 -0.027851264785383724 0.0 0.0
-0.11466933933119894 -0.014199506979113177 0.0 -3.7990444123892075e-16 0.0 0.0
-0.12006191447889705 0.0556295168074334 0.0 0.027851264785381653 0.0 0.0
-0.11982966429128508 0.05185724632996006 0.0 0.008341902735226132 0.0 0.0
-0.11106923152579998 0.04728745886130292 0.0 0.008993663362555367 0.0 0.0
-0.10497165036013412 0.04519273556192637 0.0 0.008965941406443207 0.0 0.0
-0.09882153284320361 0.0423912326298677 0.0 0.009537189973158366 0.0 0.0
-0.09239908980792905 0.03963302040549647 0.0 0.009801224859677007 0.0 0.0
-0.08588154253837582 0.036817485283824884 0.0 0.009939748510280764 0.0 0.0
-0.07930014260202377 0.033989032674873375 0.0 0.00999083293642345 0.0 0.0
-0.07269914955861012 0.031156423904373377 0.0 0.01000242122194286 0.0 0.0
-0.06609434916447443 0.028324465184330364 0.0 0.009997563325092818 0.0 0.0
-0.05949214716978869 0.02549499011129964 0.0 0.009989049309371216 0.0 0.0
-0.05288889884226959 0.02266820006428862 0.0 0.009993152992079367 0.0 0.0
-0.04626342833845117 0.019840666270866544 0.0 0.010049555459672553 0.0 0.0
-0.03955718279594537 0.016997434462067067 0.0 0.010244989034863521 0.0 0.0
-0.03265019066652844 0.014095120122426068 0.0 0.01071291727525723 0.0 0.0
-0.025374972556580454 0.01103915525616716 0.0 0.011517709497931287 0.0 0.0
-0.017681379826712276 0.007696622078415639 0.0 0.012271915860523123 0.0 0.0
-0.009993582337553698 0.00402359629272111 0.0 0.011530142571988606 0.0 0.0
-0.003801509809963865 0.0002842776917777735 0.0 0.007102652161795992 0.0 0.0
-0.0013556486650717298 2.0090533541460716e-05 0.0 0.0032512901495432523 0.0 0.0
-0.001300278992490707 0.00020144701889481616 0.0 -0.001914980852802162 0.0 0.0
-0.0038073276026352387 0.0007971098464199843 0.0 -0.003566200461522657 0.0 0.0
-0.010550915979132517 0.0043033492041468615 0.0 -0.005635732106895661 0.0 0.0
-0.019397764950902577 0.008378962065452349 0.0 -0.006063757556483561 0.0 0.0
-0.02834129006690634 0.01225657706852647 0.0 -0.005740757916649629 0.0 0.0
-0.036684278329572384 0.015793211633014066 0.0 -0.005352479260062864 0.0 0.0
-0.044511278534507794 0.019108088282828565 0.0 -0.005117707432354016 0.0 0.0
-0.052064299241137486 0.022323189227597174 0.0 -0.005016236937234154 0.0 0.0
-0.05951232143061916 0.025506513068503153 0.0 -0.004985408841694616 0.0 0.0
-0.06693514075178578 0.02868535973543676 0.0 -0.004982084699853108 0.0 0.0
-0.07435996191664478 0.031867368463768815 0.0 -0.004985771958207853 0.0 0.0
-0.0817905133969282 0.03505284936842097 0.0 -0.004987806718432102 0.0 0.0
-0.08921860383665628 0.038238849723165165 0.0 -0.004981118088480661 0.0 0.0
-0.0966200335344918 0.04141704242213992 0.0 -0.004954925340400718 0.0 0.0
-0.10394732088755479 0.04456972723115543 0.0 -0.00488241125013707 0.0 0.0
-0.11107443823522006 0.04765285555010577 0.0 -0.004751415608832063 0.0 0.0
-0.1179989594391769 0.05059927103605054 0.0 -0.004509750084414767 0.0 0.0
-0.12376880811830332 0.05351087026797001 0.0 -0.004192339206782303 0.0 0.0
-0.13272272355383347 0.05420313119629533 0.0 -0.006611948165612051 0.0 0.0
-0.13841226363130155 0.07281738915730096 0.0 -0.009436867236147322 0.0 0.0
-0.13748270530200238 -0.01894873105106933 0.0 1.3010426069826053e-15 0.0 0.0
-0.138412263631302 0.07281738915729814 0.0 0.009436867236147799 0.0 0.0
-0.13272272355383374 0.05420313119629918 0.0 0.00661194816561197 0.0 0.0
-0.1237688081183035 0.053510870267965714 0.0 0.0041923392067829395 0.0 0.0
-0.11799895943917672 0.05059927103605121 0.0 0.00450975008441243 0.0 0.0
-0.11107443823521969 0.04765285555010325 0.0 0.00475141560883225 0.0 0.0
-0.10394732088755448 0.04456972723115807 0.0 0.004882411250135794 0.0 0.0
-0.09662003353449157 0.04141704242214044 0.0 0.004954925340399706 0.0 0.0
-0.08921860383665581 0.038238849723165005 0.0 0.004981118088479166 0.0 0.0
-0.08179051339692822 0.035052849368422304 0.0 0.0049878067184289925 0.0 0.0
-0.07435996191664472 0.03186736846377039 0.0 0.004985771958210988 0.0 0.0
-0.0669351407517855 0.028685359735434984 0.0 0.0049820846998555645 0.0 0.0
-0.05951232143061932 0.025506513068504825 0.0 0.004985408841694263 0.0 0.0
-0.052064299241137285 0.022323189227597757 0.0 0.005016236937235729 0.0 0.0
-0.04451127853450756 0.01910808828282688 0.0 0.005117707432354556 0.0 0.0
-0.03668427832957216 0.015793211633017886 0.0 0.005352479260062734 0.0 0.0
-0.028341290066906288 0.012256577068526951 0.0 0.005740757916650785 0.0 0.0
-0.019397764950902525 0.00837896206545291 0.0 0.006063757556483742 0.0 0.0
-0.010550915979132193 0.00430334920414678 0.0 0.0056357321068950935 0.0 0.0
-0.003807327602635399 0.0007971098464200736 0.0 0.0035662004615235167 0.0 0.0
-0.0013002789924912248 0.00020144701889460853 0.0 0.0019149808527995434 0.0 0.0
-0.0006950754224514276 0.00014768861234291952 0.0 -0.0012832659433915968 0.0 0.0
-0.0032340675452874022 0.0009572810057581605 0.0 -0.0015072396803098988 0.0 0.0
-0.01077478360250007 0.004387498014233154 0.0 -0.0019181828006409603 0.0 0.0
-0.021143564429418747 0.008732649766716965 0.0 -0.002138705230744271 0.0 0.0
-0.0314187491252625 0.012885127189608863 0.0 -0.0021224156051994503 0.0 0.0
-0.04079893975339426 0.016655621907670448 0.0 -0.0020236520528125225 0.0 0.0
-0.04950433656859225 0.020169484954057647 0.0 -0.0019481793357359095 0.0 0.0
-0.05787862943495737 0.023566440674881377 0.0 -0.0019092412416162694 0.0 0.0
-0.06613824391268694 0.02692598408216677 0.0 -0.0018943274006648627 0.0 0.0
-0.07437728432873536 0.030280383513670288 0.0 -0.0018905743880752819 0.0 0.0
-0.08262442648224737 0.03363859673852374 0.0 -0.001890436110687974 0.0 0.0
-0.09088195580444358 0.037001161442867476 0.0 -0.001890135205390611 0.0 0.0
-0.09913999998786259 0.04036375703481742 0.0 -0.0018862794932758276 0.0 0.0
-0.10737077012895854 0.043720475567876844 0.0 -0.0018758993420638255 0.0 0.0
-0.11551197937946146 0.047033670543878615 0.0 -0.0018508998378066795 0.0 0.0
-0.12342469834820441 0.05032503137711283 0.0 -0.0018025331196544325 0.0 0.0
-0.13087079268977297 0.0531881131726628 0.0 -0.0018516894811552928 0.0 0.0
-0.13760251366037304 0.05705733178477707 0.0 -0.0012598858389807153 0.0 0.0
-0.14161336831832674 0.05423589632014654 0.0 -0.00618622602390051 0.0 0.0
-0.15608261459721567 0.08222305088617635 0.0 -2.7850714897897227e-05 0.0 0.0
-0.1697016405060997 -0.02098107924257434 0.0 2.7755575615628914e-17 0.0 0.0
-0.15608261459721567 0.08222305088616788 0.0 2.7850714897411505e-05 0.0 0.0
-0.14161336831832677 0.05423589632014707 0.0 0.006186226023901634 0.0 0.0
-0.13760251366037352 0.05705733178477642 0.0 0.001259885838983104 0.0 0.0
-0.13087079268977295 0.05318811317266434 0.0 0.0018516894811544202 0.0 0.0
-0.12342469834820466 0.05032503137711506 0.0 0.001802533119655357 0.0 0.0
-0.11551197937946088 0.047033670543884715 0.0 0.0018508998378047523 0.0 0.0
-0.10737077012895717 0.04372047556787781 0.0 0.0018758993420623718 0.0 0.0
-0.09913999998786328 0.040363757034818426 0.0 0.001886279493278173 0.0 0.0
-0.09088195580444396 0.037001161442873784 0.0 0.0018901352053877774 0.0 0.0
-0.08262442648224666 0.03363859673852641 0.0 0.0018904361106910853 0.0 0.0
-0.07437728432873547 0.03028038351366523 0.0 0.001890574388075595 0.0 0.0
-0.06613824391268672 0.026925984082167398 0.0 0.001894327400665632 0.0 0.0
-0.05787862943495723 0.023566440674885912 0.0 0.001909241241618122 0.0 0.0
-0.04950433656859204 0.020169484954053116 0.0 0.0019481793357368537 0.0 0.0
-0.04079893975339401 0.016655621907676152 0.0 0.002023652052813512 0.0 0.0
-0.03141874912526295 0.012885127189608776 0.0 0.0021224156052014947 0.0 0.0
-0.021143564429419004 0.008732649766719522 0.0 0.002138705230744959 0.0 0.0
-0.010774783602500202 0.0043874980142340776 0.0 0.0019181828006403616 0.0 0.0
-0.0032340675452875106 0.0009572810057584234 0.0 0.0015072396803114724 0.0 0.0
-0.0006950754224514801 0.00014768861234230212 0.0 0.0012832659433886337 0.0 0.0