# vtk DataFile Version 3.0
Some data
ASCII
DATASET UNSTRUCTURED_GRID
POINTS 861 float
0.0 0.0 0.0
0.4 0.0 0.0
0.8 0.0 0.0
1.2000000000000002 0.0 0.0
1.6 0.0 0.0
2.0 0.0 0.0
2.4000000000000004 0.0 0.0
2.8000000000000003 0.0 0.0
3.2 0.0 0.0
3.6 0.0 0.0
4.0 0.0 0.0
4.4 0.0 0.0
4.800000000000001 0.0 0.0
5.2 0.0 0.0
5.6000000000000005 0.0 0.0
6.0 0.0 0.0
6.4 0.0 0.0
6.800000000000001 0.0 0.0
7.2 0.0 0.0
7.6000000000000005 0.0 0.0
8.0 0.0 0.0
8.4 0.0 0.0
8.8 0.0 0.0
9.200000000000001 0.0 0.0
9.600000000000001 0.0 0.0
10.0 0.0 0.0
10.4 0.0 0.0
10.8 0.0 0.0
11.200000000000001 0.0 0.0
11.600000000000001 0.0 0.0
12.0 0.0 0.0
12.4 0.0 0.0
12.8 0.0 0.0
13.200000000000001 0.0 0.0
13.600000000000001 0.0 0.0
14.0 0.0 0.0
14.4 0.0 0.0
14.8 0.0 0.0
15.200000000000001 0.0 0.0
15.600000000000001 0.0 0.0
16.0 0.0 0.0
0.0 0.1 0.0
0.4 0.1 0.0
0.8 0.1 0.0
1.2000000000000002 0.1 0.0
1.6 0.1 0.0
2.0 0.1 0.0
2.4000000000000004 0.1 0.0
2.8000000000000003 0.1 0.0
3.2 0.1 0.0
3.6 0.1 0.0
4.0 0.1 0.0
4.4 0.1 0.0
4.800000000000001 0.1 0.0
5.2 0.1 0.0
5.6000000000000005 0.1 0.0
6.0 0.1 0.0
6.4 0.1 0.0
6.800000000000001 0.1 0.0
7.2 0.1 0.0
7.6000000000000005 0.1 0.0
8.0 0.1 0.0
8.4 0.1 0.0
8.8 0.1 0.0
9.200000000000001 0.1 0.0
9.600000000000001 0.1 0.0
10.0 0.1 0.0
10.4 0.1 0.0
10.8 0.1 0.0
11.200000000000001 0.1 0.0
11.600000000000001 0.1 0.0
12.0 0.1 0.0
12.4 0.1 0.0
12.8 0.1 0.0
13.200000000000001 0.1 0.0
13.600000000000001 0.1 0.0
14.0 0.1 0.0
14.4 0.1 0.0
14.8 0.1 0.0
15.200000000000001 0.1 0.0
15.600000000000001 0.1 0.0
16.0 0.1 0.0
0.0 0.2 0.0
0.4 0.2 0.0
0.8 0.2 0.0
1.2000000000000002 0.2 0.0
1.6 0.2 0.0
2.0 0.2 0.0
2.4000000000000004 0.2 0.0
2.8000000000000003 0.2 0.0
3.2 0.2 0.0
3.6 0.2 0.0
4.0 0.2 0.0
4.4 0.2 0.0
4.800000000000001 0.2 0.0
5.2 0.2 0.0
5.6000000000000005 0.2 0.0
6.0 0.2 0.0
6.4 0.2 0.0
6.800000000000001 0.2 0.0
7.2 0.2 0.0
7.6000000000000005 0.2 0.0
8.0 0.2 0.0
8.4 0.2 0.0
8.8 0.2 0.0
9.200000000000001 0.2 0.0
9.600000000000001 0.2 0.0
10.0 0.2 0.0
10.4 0.2 0.0
10.8 0.2 0.0
11.200000000000001 0.2 0.0
11.600000000000001 0.2 0.0
12.0 0.2 0.0
12.4 0.2 0.0
12.8 0.2 0.0
13.200000000000001 0.2 0.0
13.600000000000001 0.2 0.0
14.0 0.2 0.0
14.4 0.2 0.0
14.8 0.2 0.0
15.200000000000001 0.2 0.0
15.600000000000001 0.2 0.0
16.0 0.2 0.0
0.0 0.30000000000000004 0.0
0.4 0.30000000000000004 0.0
0.8 0.30000000000000004 0.0
1.2000000000000002 0.30000000000000004 0.0
1.6 0.30000000000000004 0.0
2.0 0.30000000000000004 0.0
2.4000000000000004 0.30000000000000004 0.0
2.8000000000000003 0.30000000000000004 0.0
3.2 0.30000000000000004 0.0
3.6 0.30000000000000004 0.0
4.0 0.30000000000000004 0.0
4.4 0.30000000000000004 0.0
4.800000000000001 0.30000000000000004 0.0
5.2 0.30000000000000004 0.0
5.6000000000000005 0.30000000000000004 0.0
6.0 0.30000000000000004 0.0
6.4 0.30000000000000004 0.0
6.800000000000001 0.30000000000000004 0.0
7.2 0.30000000000000004 0.0
7.6000000000000005 0.30000000000000004 0.0
8.0 0.30000000000000004 0.0
8.4 0.30000000000000004 0.0
8.8 0.30000000000000004 0.0
9.200000000000001 0.30000000000000004 0.0
9.600000000000001 0.30000000000000004 0.0
10.0 0.30000000000000004 0.0
10.4 0.30000000000000004 0.0
10.8 0.30000000000000004 0.0
11.200000000000001 0.30000000000000004 0.0
11.600000000000001 0.30000000000000004 0.0
12.0 0.30000000000000004 0.0
12.4 0.30000000000000004 0.0
12.8 0.30000000000000004 0.0
13.200000000000001 0.30000000000000004 0.0
13.600000000000001 0.30000000000000004 0.0
14.0 0.30000000000000004 0.0
14.4 0.30000000000000004 0.0
14.8 0.30000000000000004 0.0
15.200000000000001 0.30000000000000004 0.0
15.600000000000001 0.30000000000000004 0.0
16.0 0.30000000000000004 0.0
0.0 0.4 0.0
0.4 0.4 0.0
0.8 0.4 0.0
1.2000000000000002 0.4 0.0
1.6 0.4 0.0
2.0 0.4 0.0
2.4000000000000004 0.4 0.0
2.8000000000000003 0.4 0.0
3.2 0.4 0.0
3.6 0.4 0.0
4.0 0.4 0.0
4.4 0.4 0.0
4.800000000000001 0.4 0.0
5.2 0.4 0.0
5.6000000000000005 0.4 0.0
6.0 0.4 0.0
6.4 0.4 0.0
6.800000000000001 0.4 0.0
7.2 0.4 0.0
7.6000000000000005 0.4 0.0
8.0 0.4 0.0
8.4 0.4 0.0
8.8 0.4 0.0
9.200000000000001 0.4 0.0
9.600000000000001 0.4 0.0
10.0 0.4 0.0
10.4 0.4 0.0
10.8 0.4 0.0
11.200000000000001 0.4 0.0
11.600000000000001 0.4 0.0
12.0 0.4 0.0
12.4 0.4 0.0
12.8 0.4 0.0
13.200000000000001 0.4 0.0
13.600000000000001 0.4 0.0
14.0 0.4 0.0
14.4 0.4 0.0
14.8 0.4 0.0
15.200000000000001 0.4 0.0
15.600000000000001 0.4 0.0
16.0 0.4 0.0
0.0 0.5 0.0
0.4 0.5 0.0
0.8 0.5 0.0
1.2000000000000002 0.5 0.0
1.6 0.5 0.0
2.0 0.5 0.0
2.4000000000000004 0.5 0.0
2.8000000000000003 0.5 0.0
3.2 0.5 0.0
3.6 0.5 0.0
4.0 0.5 0.0
4.4 0.5 0.0
4.800000000000001 0.5 0.0
5.2 0.5 0.0
5.6000000000000005 0.5 0.0
6.0 0.5 0.0
6.4 0.5 0.0
6.800000000000001 0.5 0.0
7.2 0.5 0.0
7.6000000000000005 0.5 0.0
8.0 0.5 0.0
8.4 0.5 0.0
8.8 0.5 0.0
9.200000000000001 0.5 0.0
9.600000000000001 0.5 0.0
10.0 0.5 0.0
10.4 0.5 0.0
10.8 0.5 0.0
11.200000000000001 0.5 0.0
11.600000000000001 0.5 0.0
12.0 0.5 0.0
12.4 0.5 0.0
12.8 0.5 0.0
13.200000000000001 0.5 0.0
13.600000000000001 0.5 0.0
14.0 0.5 0.0
14.4 0.5 0.0
14.8 0.5 0.0
15.200000000000001 0.5 0.0
15.600000000000001 0.5 0.0
16.0 0.5 0.0
0.0 0.6000000000000001 0.0
0.4 0.6000000000000001 0.0
0.8 0.6000000000000001 0.0
1.2000000000000002 0.6000000000000001 0.0
1.6 0.6000000000000001 0.0
2.0 0.6000000000000001 0.0
2.4000000000000004 0.6000000000000001 0.0
2.8000000000000003 0.6000000000000001 0.0
3.2 0.6000000000000001 0.0
3.6 0.6000000000000001 0.0
4.0 0.6000000000000001 0.0
4.4 0.6000000000000001 0.0
4.800000000000001 0.6000000000000001 0.0
5.2 0.6000000000000001 0.0
5.6000000000000005 0.6000000000000001 0.0
6.0 0.6000000000000001 0.0
6.4 0.6000000000000001 0.0
6.800000000000001 0.6000000000000001 0.0
7.2 0.6000000000000001 0.0
7.6000000000000005 0.6000000000000001 0.0
8.0 0.6000000000000001 0.0
8.4 0.6000000000000001 0.0
8.8 0.6000000000000001 0.0
9.200000000000001 0.6000000000000001 0.0
9.600000000000001 0.6000000000000001 0.0
10.0 0.6000000000000001 0.0
10.4 0.6000000000000001 0.0
10.8 0.6000000000000001 0.0
11.200000000000001 0.6000000000000001 0.0
11.600000000000001 0.6000000000000001 0.0
12.0 0.6000000000000001 0.0
12.4 0.6000000000000001 0.0
12.8 0.6000000000000001 0.0
13.200000000000001 0.6000000000000001 0.0
13.600000000000001 0.6000000000000001 0.0
14.0 0.6000000000000001 0.0
14.4 0.6000000000000001 0.0
14.8 0.6000000000000001 0.0
15.200000000000001 0.6000000000000001 0.0
15.600000000000001 0.6000000000000001 0.0
16.0 0.6000000000000001 0.0
0.0 0.7000000000000001 0.0
0.4 0.7000000000000001 0.0
0.8 0.7000000000000001 0.0
1.2000000000000002 0.7000000000000001 0.0
1.6 0.7000000000000001 0.0
2.0 0.7000000000000001 0.0
2.4000000000000004 0.7000000000000001 0.0
2.8000000000000003 0.7000000000000001 0.0
3.2 0.7000000000000001 0.0
3.6 0.7000000000000001 0.0
4.0 0.7000000000000001 0.0
4.4 0.7000000000000001 0.0
4.800000000000001 0.7000000000000001 0.0
5.2 0.7000000000000001 0.0
5.6000000000000005 0.7000000000000001 0.0
6.0 0.7000000000000001 0.0
6.4 0.7000000000000001 0.0
6.800000000000001 0.7000000000000001 0.0
7.2 0.7000000000000001 0.0
7.6000000000000005 0.7000000000000001 0.0
8.0 0.7000000000000001 0.0
8.4 0.7000000000000001 0.0
8.8 0.7000000000000001 0.0
9.200000000000001 0.7000000000000001 0.0
9.600000000000001 0.7000000000000001 0.0
10.0 0.7000000000000001 0.0
10.4 0.7000000000000001 0.0
10.8 0.7000000000000001 0.0
11.200000000000001 0.7000000000000001 0.0
11.600000000000001 0.7000000000000001 0.0
12.0 0.7000000000000001 0.0
12.4 0.7000000000000001 0.0
12.8 0.7000000000000001 0.0
13.200000000000001 0.7000000000000001 0.0
13.600000000000001 0.7000000000000001 0.0
14.0 0.7000000000000001 0.0
14.4 0.7000000000000001 0.0
14.8 0.7000000000000001 0.0
15.200000000000001 0.7000000000000001 0.0
15.600000000000001 0.7000000000000001 0.0
16.0 0.7000000000000001 0.0
0.0 0.8 0.0
0.4 0.8 0.0
0.8 0.8 0.0
1.2000000000000002 0.8 0.0
1.6 0.8 0.0
2.0 0.8 0.0
2.4000000000000004 0.8 0.0
2.8000000000000003 0.8 0.0
3.2 0.8 0.0
3.6 0.8 0.0
4.0 0.8 0.0
4.4 0.8 0.0
4.800000000000001 0.8 0.0
5.2 0.8 0.0
5.6000000000000005 0.8 0.0
6.0 0.8 0.0
6.4 0.8 0.0
6.800000000000001 0.8 0.0
7.2 0.8 0.0
7.6000000000000005 0.8 0.0
8.0 0.8 0.0
8.4 0.8 0.0
8.8 0.8 0.0
9.200000000000001 0.8 0.0
9.600000000000001 0.8 0.0
10.0 0.8 0.0
10.4 0.8 0.0
10.8 0.8 0.0
11.200000000000001 0.8 0.0
11.600000000000001 0.8 0.0
12.0 0.8 0.0
12.4 0.8 0.0
12.8 0.8 0.0
13.200000000000001 0.8 0.0
13.600000000000001 0.8 0.0
14.0 0.8 0.0
14.4 0.8 0.0
14.8 0.8 0.0
15.200000000000001 0.8 0.0
15.600000000000001 0.8 0.0
16.0 0.8 0.0
0.0 0.9 0.0
0.4 0.9 0.0
0.8 0.9 0.0
1.2000000000000002 0.9 0.0
1.6 0.9 0.0
2.0 0.9 0.0
2.4000000000000004 0.9 0.0
2.8000000000000003 0.9 0.0
3.2 0.9 0.0
3.6 0.9 0.0
4.0 0.9 0.0
4.4 0.9 0.0
4.800000000000001 0.9 0.0
5.2 0.9 0.0
5.6000000000000005 0.9 0.0
6.0 0.9 0.0
6.4 0.9 0.0
6.800000000000001 0.9 0.0
7.2 0.9 0.0
7.6000000000000005 0.9 0.0
8.0 0.9 0.0
8.4 0.9 0.0
8.8 0.9 0.0
9.200000000000001 0.9 0.0
9.600000000000001 0.9 0.0
10.0 0.9 0.0
10.4 0.9 0.0
10.8 0.9 0.0
11.200000000000001 0.9 0.0
11.600000000000001 0.9 0.0
12.0 0.9 0.0
12.4 0.9 0.0
12.8 0.9 0.0
13.200000000000001 0.9 0.0
13.600000000000001 0.9 0.0
14.0 0.9 0.0
14.4 0.9 0.0
14.8 0.9 0.0
15.200000000000001 0.9 0.0
15.600000000000001 0.9 0.0
16.0 0.9 0.0
0.0 1.0 0.0
0.4 1.0 0.0
0.8 1.0 0.0
1.2000000000000002 1.0 0.0
1.6 1.0 0.0
2.0 1.0 0.0
2.4000000000000004 1.0 0.0
2.8000000000000003 1.0 0.0
3.2 1.0 0.0
3.6 1.0 0.0
4.0 1.0 0.0
4.4 1.0 0.0
4.800000000000001 1.0 0.0
5.2 1.0 0.0
5.6000000000000005 1.0 0.0
6.0 1.0 0.0
6.4 1.0 0.0
6.800000000000001 1.0 0.0
7.2 1.0 0.0
7.6000000000000005 1.0 0.0
8.0 1.0 0.0
8.4 1.0 0.0
8.8 1.0 0.0
9.200000000000001 1.0 0.0
9.600000000000001 1.0 0.0
10.0 1.0 0.0
10.4 1.0 0.0
10.8 1.0 0.0
11.200000000000001 1.0 0.0
11.600000000000001 1.0 0.0
12.0 1.0 0.0
12.4 1.0 0.0
12.8 1.0 0.0
13.200000000000001 1.0 0.0
13.600000000000001 1.0 0.0
14.0 1.0 0.0
14.4 1.0 0.0
14.8 1.0 0.0
15.200000000000001 1.0 0.0
15.600000000000001 1.0 0.0
16.0 1.0 0.0
0.0 1.1 0.0
0.4 1.1 0.0
0.8 1.1 0.0
1.2000000000000002 1.1 0.0
1.6 1.1 0.0
2.0 1.1 0.0
2.4000000000000004 1.1 0.0
2.8000000000000003 1.1 0.0
3.2 1.1 0.0
3.6 1.1 0.0
4.0 1.1 0.0
4.4 1.1 0.0
4.800000000000001 1.1 0.0
5.2 1.1 0.0
5.6000000000000005 1.1 0.0
6.0 1.1 0.0
6.4 1.1 0.0
6.800000000000001 1.1 0.0
7.2 1.1 0.0
7.6000000000000005 1.1 0.0
8.0 1.1 0.0
8.4 1.1 0.0
8.8 1.1 0.0
9.200000000000001 1.1 0.0
9.600000000000001 1.1 0.0
10.0 1.1 0.0
10.4 1.1 0.0
10.8 1.1 0.0
11.200000000000001 1.1 0.0
11.600000000000001 1.1 0.0
12.0 1.1 0.0
12.4 1.1 0.0
12.8 1.1 0.0
13.200000000000001 1.1 0.0
13.600000000000001 1.1 0.0
14.0 1.1 0.0
14.4 1.1 0.0
14.8 1.1 0.0
15.200000000000001 1.1 0.0
15.600000000000001 1.1 0.0
16.0 1.1 0.0
0.0 1.2000000000000002 0.0
0.4 1.2000000000000002 0.0
0.8 1.2000000000000002 0.0
1.2000000000000002 1.2000000000000002 0.0
1.6 1.2000000000000002 0.0
2.0 1.2000000000000002 0.0
2.4000000000000004 1.2000000000000002 0.0
2.8000000000000003 1.2000000000000002 0.0
3.2 1.2000000000000002 0.0
3.6 1.2000000000000002 0.0
4.0 1.2000000000000002 0.0
4.4 1.2000000000000002 0.0
4.800000000000001 1.2000000000000002 0.0
5.2 1.2000000000000002 0.0
5.6000000000000005 1.2000000000000002 0.0
6.0 1.2000000000000002 0.0
6.4 1.2000000000000002 0.0
6.800000000000001 1.2000000000000002 0.0
7.2 1.2000000000000002 0.0
7.6000000000000005 1.2000000000000002 0.0
8.0 1.2000000000000002 0.0
8.4 1.2000000000000002 0.0
8.8 1.2000000000000002 0.0
9.200000000000001 1.2000000000000002 0.0
9.600000000000001 1.2000000000000002 0.0
10.0 1.2000000000000002 0.0
10.4 1.2000000000000002 0.0
10.8 1.2000000000000002 0.0
11.200000000000001 1.2000000000000002 0.0
11.600000000000001 1.2000000000000002 0.0
12.0 1.2000000000000002 0.0
12.4 1.2000000000000002 0.0
12.8 1.2000000000000002 0.0
13.200000000000001 1.2000000000000002 0.0
13.600000000000001 1.2000000000000002 0.0
14.0 1.2000000000000002 0.0
14.4 1.2000000000000002 0.0
14.8 1.2000000000000002 0.0
15.200000000000001 1.2000000000000002 0.0
15.600000000000001 1.2000000000000002 0.0
16.0 1.2000000000000002 0.0
0.0 1.3 0.0
0.4 1.3 0.0
0.8 1.3 0.0
1.2000000000000002 1.3 0.0
1.6 1.3 0.0
2.0 1.3 0.0
2.4000000000000004 1.3 0.0
2.8000000000000003 1.3 0.0
3.2 1.3 0.0
3.6 1.3 0.0
4.0 1.3 0.0
4.4 1.3 0.0
4.800000000000001 1.3 0.0
5.2 1.3 0.0
5.6000000000000005 1.3 0.0
6.0 1.3 0.0
6.4 1.3 0.0
6.800000000000001 1.3 0.0
7.2 1.3 0.0
7.6000000000000005 1.3 0.0
8.0 1.3 0.0
8.4 1.3 0.0
8.8 1.3 0.0
9.200000000000001 1.3 0.0
9.600000000000001 1.3 0.0
10.0 1.3 0.0
10.4 1.3 0.0
10.8 1.3 0.0
11.200000000000001 1.3 0.0
11.600000000000001 1.3 0.0
12.0 1.3 0.0
12.4 1.3 0.0
12.8 1.3 0.0
13.200000000000001 1.3 0.0
13.600000000000001 1.3 0.0
14.0 1.3 0.0
14.4 1.3 0.0
14.8 1.3 0.0
15.200000000000001 1.3 0.0
15.600000000000001 1.3 0.0
16.0 1.3 0.0
0.0 1.4000000000000001 0.0
0.4 1.4000000000000001 0.0
0.8 1.4000000000000001 0.0
1.2000000000000002 1.4000000000000001 0.0
1.6 1.4000000000000001 0.0
2.0 1.4000000000000001 0.0
2.4000000000000004 1.4000000000000001 0.0
2.8000000000000003 1.4000000000000001 0.0
3.2 1.4000000000000001 0.0
3.6 1.4000000000000001 0.0
4.0 1.4000000000000001 0.0
4.4 1.4000000000000001 0.0
4.800000000000001 1.4000000000000001 0.0
5.2 1.4000000000000001 0.0
5.6000000000000005 1.4000000000000001 0.0
6.0 1.4000000000000001 0.0
6.4 1.4000000000000001 0.0
6.800000000000001 1.4000000000000001 0.0
7.2 1.4000000000000001 0.0
7.6000000000000005 1.4000000000000001 0.0
8.0 1.4000000000000001 0.0
8.4 1.4000000000000001 0.0
8.8 1.4000000000000001 0.0
9.200000000000001 1.4000000000000001 0.0
9.600000000000001 1.4000000000000001 0.0
10.0 1.4000000000000001 0.0
10.4 1.4000000000000001 0.0
10.8 1.4000000000000001 0.0
11.200000000000001 1.4000000000000001 0.0
11.600000000000001 1.4000000000000001 0.0
12.0 1.4000000000000001 0.0
12.4 1.4000000000000001 0.0
12.8 1.4000000000000001 0.0
13.200000000000001 1.4000000000000001 0.0
13.600000000000001 1.4000000000000001 0.0
14.0 1.4000000000000001 0.0
14.4 1.4000000000000001 0.0
14.8 1.4000000000000001 0.0
15.200000000000001 1.4000000000000001 0.0
15.600000000000001 1.4000000000000001 0.0
16.0 1.4000000000000001 0.0
0.0 1.5 0.0
0.4 1.5 0.0
0.8 1.5 0.0
1.2000000000000002 1.5 0.0
1.6 1.5 0.0
2.0 1.5 0.0
2.4000000000000004 1.5 0.0
2.8000000000000003 1.5 0.0
3.2 1.5 0.0
3.6 1.5 0.0
4.0 1.5 0.0
4.4 1.5 0.0
4.800000000000001 1.5 0.0
5.2 1.5 0.0
5.6000000000000005 1.5 0.0
6.0 1.5 0.0
6.4 1.5 0.0
6.800000000000001 1.5 0.0
7.2 1.5 0.0
7.6000000000000005 1.5 0.0
8.0 1.5 0.0
8.4 1.5 0.0
8.8 1.5 0.0
9.200000000000001 1.5 0.0
9.600000000000001 1.5 0.0
10.0 1.5 0.0
10.4 1.5 0.0
10.8 1.5 0.0
11.200000000000001 1.5 0.0
11.600000000000001 1.5 0.0
12.0 1.5 0.0
12.4 1.5 0.0
12.8 1.5 0.0
13.200000000000001 1.5 0.0
13.600000000000001 1.5 0.0
14.0 1.5 0.0
14.4 1.5 0.0
14.8 1.5 0.0
15.200000000000001 1.5 0.0
15.600000000000001 1.5 0.0
16.0 1.5 0.0
0.0 1.6 0.0
0.4 1.6 0.0
0.8 1.6 0.0
1.2000000000000002 1.6 0.0
1.6 1.6 0.0
2.0 1.6 0.0
2.4000000000000004 1.6 0.0
2.8000000000000003 1.6 0.0
3.2 1.6 0.0
3.6 1.6 0.0
4.0 1.6 0.0
4.4 1.6 0.0
4.800000000000001 1.6 0.0
5.2 1.6 0.0
5.6000000000000005 1.6 0.0
6.0 1.6 0.0
6.4 1.6 0.0
6.800000000000001 1.6 0.0
7.2 1.6 0.0
7.6000000000000005 1.6 0.0
8.0 1.6 0.0
8.4 1.6 0.0
8.8 1.6 0.0
9.200000000000001 1.6 0.0
9.600000000000001 1.6 0.0
10.0 1.6 0.0
10.4 1.6 0.0
10.8 1.6 0.0
11.200000000000001 1.6 0.0
11.600000000000001 1.6 0.0
12.0 1.6 0.0
12.4 1.6 0.0
12.8 1.6 0.0
13.200000000000001 1.6 0.0
13.600000000000001 1.6 0.0
14.0 1.6 0.0
14.4 1.6 0.0
14.8 1.6 0.0
15.200000000000001 1.6 0.0
15.600000000000001 1.6 0.0
16.0 1.6 0.0
0.0 1.7000000000000002 0.0
0.4 1.7000000000000002 0.0
0.8 1.7000000000000002 0.0
1.2000000000000002 1.7000000000000002 0.0
1.6 1.7000000000000002 0.0
2.0 1.7000000000000002 0.0
2.4000000000000004 1.7000000000000002 0.0
2.8000000000000003 1.7000000000000002 0.0
3.2 1.7000000000000002 0.0
3.6 1.7000000000000002 0.0
4.0 1.7000000000000002 0.0
4.4 1.7000000000000002 0.0
4.800000000000001 1.7000000000000002 0.0
5.2 1.7000000000000002 0.0
5.6000000000000005 1.7000000000000002 0.0
6.0 1.7000000000000002 0.0
6.4 1.7000000000000002 0.0
6.800000000000001 1.7000000000000002 0.0
7.2 1.7000000000000002 0.0
7.6000000000000005 1.7000000000000002 0.0
8.0 1.7000000000000002 0.0
8.4 1.7000000000000002 0.0
8.8 1.7000000000000002 0.0
9.200000000000001 1.7000000000000002 0.0
9.600000000000001 1.7000000000000002 0.0
10.0 1.7000000000000002 0.0
10.4 1.7000000000000002 0.0
10.8 1.7000000000000002 0.0
11.200000000000001 1.7000000000000002 0.0
11.600000000000001 1.7000000000000002 0.0
12.0 1.7000000000000002 0.0
12.4 1.7000000000000002 0.0
12.8 1.7000000000000002 0.0
13.200000000000001 1.7000000000000002 0.0
13.600000000000001 1.7000000000000002 0.0
14.0 1.7000000000000002 0.0
14.4 1.7000000000000002 0.0
14.8 1.7000000000000002 0.0
15.200000000000001 1.7000000000000002 0.0
15.600000000000001 1.7000000000000002 0.0
16.0 1.7000000000000002 0.0
0.0 1.8 0.0
0.4 1.8 0.0
0.8 1.8 0.0
1.2000000000000002 1.8 0.0
1.6 1.8 0.0
2.0 1.8 0.0
2.4000000000000004 1.8 0.0
2.8000000000000003 1.8 0.0
3.2 1.8 0.0
3.6 1.8 0.0
4.0 1.8 0.0
4.4 1.8 0.0
4.800000000000001 1.8 0.0
5.2 1.8 0.0
5.6000000000000005 1.8 0.0
6.0 1.8 0.0
6.4 1.8 0.0
6.800000000000001 1.8 0.0
7.2 1.8 0.0
7.6000000000000005 1.8 0.0
8.0 1.8 0.0
8.4 1.8 0.0
8.8 1.8 0.0
9.200000000000001 1.8 0.0
9.600000000000001 1.8 0.0
10.0 1.8 0.0
10.4 1.8 0.0
10.8 1.8 0.0
11.200000000000001 1.8 0.0
11.600000000000001 1.8 0.0
12.0 1.8 0.0
12.4 1.8 0.0
12.8 1.8 0.0
13.200000000000001 1.8 0.0
13.600000000000001 1.8 0.0
14.0 1.8 0.0
14.4 1.8 0.0
14.8 1.8 0.0
15.200000000000001 1.8 0.0
15.600000000000001 1.8 0.0
16.0 1.8 0.0
0.0 1.9000000000000001 0.0
0.4 1.9000000000000001 0.0
0.8 1.9000000000000001 0.0
1.2000000000000002 1.9000000000000001 0.0
1.6 1.9000000000000001 0.0
2.0 1.9000000000000001 0.0
2.4000000000000004 1.9000000000000001 0.0
2.8000000000000003 1.9000000000000001 0.0
3.2 1.9000000000000001 0.0
3.6 1.9000000000000001 0.0
4.0 1.9000000000000001 0.0
4.4 1.9000000000000001 0.0
4.800000000000001 1.9000000000000001 0.0
5.2 1.9000000000000001 0.0
5.6000000000000005 1.9000000000000001 0.0
6.0 1.9000000000000001 0.0
6.4 1.9000000000000001 0.0
6.800000000000001 1.9000000000000001 0.0
7.2 1.9000000000000001 0.0
7.6000000000000005 1.9000000000000001 0.0
8.0 1.9000000000000001 0.0
8.4 1.9000000000000001 0.0
8.8 1.9000000000000001 0.0
9.200000000000001 1.9000000000000001 0.0
9.600000000000001 1.9000000000000001 0.0
10.0 1.9000000000000001 0.0
10.4 1.9000000000000001 0.0
10.8 1.9000000000000001 0.0
11.200000000000001 1.9000000000000001 0.0
11.600000000000001 1.9000000000000001 0.0
12.0 1.9000000000000001 0.0
12.4 1.9000000000000001 0.0
12.8 1.9000000000000001 0.0
13.200000000000001 1.9000000000000001 0.0
13.600000000000001 1.9000000000000001 0.0
14.0 1.9000000000000001 0.0
14.4 1.9000000000000001 0.0
14.8 1.9000000000000001 0.0
15.200000000000001 1.9000000000000001 0.0
15.600000000000001 1.9000000000000001 0.0
16.0 1.9000000000000001 0.0
0.0 2.0 0.0
0.4 2.0 0.0
0.8 2.0 0.0
1.2000000000000002 2.0 0.0
1.6 2.0 0.0
2.0 2.0 0.0
2.4000000000000004 2.0 0.0
2.8000000000000003 2.0 0.0
3.2 2.0 0.0
3.6 2.0 0.0
4.0 2.0 0.0
4.4 2.0 0.0
4.800000000000001 2.0 0.0
5.2 2.0 0.0
5.6000000000000005 2.0 0.0
6.0 2.0 0.0
6.4 2.0 0.0
6.800000000000001 2.0 0.0
7.2 2.0 0.0
7.6000000000000005 2.0 0.0
8.0 2.0 0.0
8.4 2.0 0.0
8.8 2.0 0.0
9.200000000000001 2.0 0.0
9.600000000000001 2.0 0.0
10.0 2.0 0.0
10.4 2.0 0.0
10.8 2.0 0.0
11.200000000000001 2.0 0.0
11.600000000000001 2.0 0.0
12.0 2.0 0.0
12.4 2.0 0.0
12.8 2.0 0.0
13.200000000000001 2.0 0.0
13.600000000000001 2.0 0.0
14.0 2.0 0.0
14.4 2.0 0.0
14.8 2.0 0.0
15.200000000000001 2.0 0.0
15.600000000000001 2.0 0.0
16.0 2.0 0.0
CELLS 800 4000
4 0 1 42 41
4 1 2 43 42
4 2 3 44 43
4 3 4 45 44
4 4 5 46 45
4 5 6 47 46
4 6 7 48 47
4 7 8 49 48
4 8 9 50 49
4 9 10 51 50
4 10 11 52 51
4 11 12 53 52
4 12 13 54 53
4 13 14 55 54
4 14 15 56 55
4 15 16 57 56
4 16 17 58 57
4 17 18 59 58
4 18 19 60 59
4 19 20 61 60
4 20 21 62 61
4 21 22 63 62
4 22 23 64 63
4 23 24 65 64
4 24 25 66 65
4 25 26 67 66
4 26 27 68 67
4 27 28 69 68
4 28 29 70 69
4 29 30 71 70
4 30 31 72 71
4 31 32 73 72
4 32 33 74 73
4 33 34 75 74
4 34 35 76 75
4 35 36 77 76
4 36 37 78 77
4 37 38 79 78
4 38 39 80 79
4 39 40 81 80
4 41 42 83 82
4 42 43 84 83
4 43 44 85 84
4 44 45 86 85
4 45 46 87 86
4 46 47 88 87
4 47 48 89 88
4 48 49 90 89
4 49 50 91 90
4 50 51 92 91
4 51 52 93 92
4 52 53 94 93
4 53 54 95 94
4 54 55 96 95
4 55 56 97 96
4 56 57 98 97
4 57 58 99 98
4 58 59 100 99
4 59 60 101 100
4 60 61 102 101
4 61 62 103 102
4 62 63 104 103
4 63 64 105 104
4 64 65 106 105
4 65 66 107 106
4 66 67 108 107
4 67 68 109 108
4 68 69 110 109
4 69 70 111 110
4 70 71 112 111
4 71 72 113 112
4 72 73 114 113
4 73 74 115 114
4 74 75 116 115
4 75 76 117 116
4 76 77 118 117
4 77 78 119 118
4 78 79 120 119
4 79 80 121 120
4 80 81 122 121
4 82 83 124 123
4 83 84 125 124
4 84 85 126 125
4 85 86 127 126
4 86 87 128 127
4 87 88 129 128
4 88 89 130 129
4 89 90 131 130
4 90 91 132 131
4 91 92 133 132
4 92 93 134 133
4 93 94 135 134
4 94 95 136 135
4 95 96 137 136
4 96 97 138 137
4 97 98 139 138
4 98 99 140 139
4 99 100 141 140
4 100 101 142 141
4 101 102 143 142
4 102 103 144 143
4 103 104 145 144
4 104 105 146 145
4 105 106 147 146
4 106 107 148 147
4 107 108 149 148
4 108 109 150 149
4 109 110 151 150
4 110 111 152 151
4 111 112 153 152
4 112 113 154 153
4 113 114 155 154
4 114 115 156 155
4 115 116 157 156
4 116 117 158 157
4 117 118 159 158
4 118 119 160 159
4 119 120 161 160
4 120 121 162 161
4 121 122 163 162
4 123 124 165 164
4 124 125 166 165
4 125 126 167 166
4 126 127 168 167
4 127 128 169 168
4 128 129 170 169
4 129 130 171 170
4 130 131 172 171
4 131 132 173 172
4 132 133 174 173
4 133 134 175 174
4 134 135 176 175
4 135 136 177 176
4 136 137 178 177
4 137 138 179 178
4 138 139 180 179
4 139 140 181 180
4 140 141 182 181
4 141 142 183 182
4 142 143 184 183
4 143 144 185 184
4 144 145 186 185
4 145 146 187 186
4 146 147 188 187
4 147 148 189 188
4 148 149 190 189
4 149 150 191 190
4 150 151 192 191
4 151 152 193 192
4 152 153 194 193
4 153 154 195 194
4 154 155 196 195
4 155 156 197 196
4 156 157 198 197
4 157 158 199 198
4 158 159 200 199
4 159 160 201 200
4 160 161 202 201
4 161 162 203 202
4 162 163 204 203
4 164 165 206 205
4 165 166 207 206
4 166 167 208 207
4 167 168 209 208
4 168 169 210 209
4 169 170 211 210
4 170 171 212 211
4 171 172 213 212
4 172 173 214 213
4 173 174 215 214
4 174 175 216 215
4 175 176 217 216
4 176 177 218 217
4 177 178 219 218
4 178 179 220 219
4 179 180 221 220
4 180 181 222 221
4 181 182 223 222
4 182 183 224 223
4 183 184 225 224
4 184 185 226 225
4 185 186 227 226
4 186 187 228 227
4 187 188 229 228
4 188 189 230 229
4 189 190 231 230
4 190 191 232 231
4 191 192 233 232
4 192 193 234 233
4 193 194 235 234
4 194 195 236 235
4 195 196 237 236
4 196 197 238 237
4 197 198 239 238
4 198 199 240 239
4 199 200 241 240
4 200 201 242 241
4 201 202 243 242
4 202 203 244 243
4 203 204 245 244
4 205 206 247 246
4 206 207 248 247
4 207 208 249 248
4 208 209 250 249
4 209 210 251 250
4 210 211 252 251
4 211 212 253 252
4 212 213 254 253
4 213 214 255 254
4 214 215 256 255
4 215 216 257 256
4 216 217 258 257
4 217 218 259 258
4 218 219 260 259
4 219 220 261 260
4 220 221 262 261
4 221 222 263 262
4 222 223 264 263
4 223 224 265 264
4 224 225 266 265
4 225 226 267 266
4 226 227 268 267
4 227 228 269 268
4 228 229 270 269
4 229 230 271 270
4 230 231 272 271
4 231 232 273 272
4 232 233 274 273
4 233 234 275 274
4 234 235 276 275
4 235 236 277 276
4 236 237 278 277
4 237 238 279 278
4 238 239 280 279
4 239 240 281 280
4 240 241 282 281
4 241 242 283 282
4 242 243 284 283
4 243 244 285 284
4 244 245 286 285
4 246 247 288 287
4 247 248 289 288
4 248 249 290 289
4 249 250 291 290
4 250 251 292 291
4 251 252 293 292
4 252 253 294 293
4 253 254 295 294
4 254 255 296 295
4 255 256 297 296
4 256 257 298 297
4 257 258 299 298
4 258 259 300 299
4 259 260 301 300
4 260 261 302 301
4 261 262 303 302
4 262 263 304 303
4 263 264 305 304
4 264 265 306 305
4 265 266 307 306
4 266 267 308 307
4 267 268 309 308
4 268 269 310 309
4 269 270 311 310
4 270 271 312 311
4 271 272 313 312
4 272 273 314 313
4 273 274 315 314
4 274 275 316 315
4 275 276 317 316
4 276 277 318 317
4 277 278 319 318
4 278 279 320 319
4 279 280 321 320
4 280 281 322 321
4 281 282 323 322
4 282 283 324 323
4 283 284 325 324
4 284 285 326 325
4 285 286 327 326
4 287 288 329 328
4 288 289 330 329
4 289 290 331 330
4 290 291 332 331
4 291 292 333 332
4 292 293 334 333
4 293 294 335 334
4 294 295 336 335
4 295 296 337 336
4 296 297 338 337
4 297 298 339 338
4 298 299 340 339
4 299 300 341 340
4 300 301 342 341
4 301 302 343 342
4 302 303 344 343
4 303 304 345 344
4 304 305 346 345
4 305 306 347 346
4 306 307 348 347
4 307 308 349 348
4 308 309 350 349
4 309 310 351 350
4 310 311 352 351
4 311 312 353 352
4 312 313 354 353
4 313 314 355 354
4 314 315 356 355
4 315 316 357 356
4 316 317 358 357
4 317 318 359 358
4 318 319 360 359
4 319 320 361 360
4 320 321 362 361
4 321 322 363 362
4 322 323 364 363
4 323 324 365 364
4 324 325 366 365
4 325 326 367 366
4 326 327 368 367
4 328 329 370 369
4 329 330 371 370
4 330 331 372 371
4 331 332 373 372
4 332 333 374 373
4 333 334 375 374
4 334 335 376 375
4 335 336 377 376
4 336 337 378 377
4 337 338 379 378
4 338 339 380 379
4 339 340 381 380
4 340 341 382 381
4 341 342 383 382
4 342 343 384 383
4 343 344 385 384
4 344 345 386 385
4 345 346 387 386
4 346 347 388 387
4 347 348 389 388
4 348 349 390 389
4 349 350 391 390
4 350 351 392 391
4 351 352 393 392
4 352 353 394 393
4 353 354 395 394
4 354 355 396 395
4 355 356 397 396
4 356 357 398 397
4 357 358 399 398
4 358 359 400 399
4 359 360 401 400
4 360 361 402 401
4 361 362 403 402
4 362 363 404 403
4 363 364 405 404
4 364 365 406 405
4 365 366 407 406
4 366 367 408 407
4 367 368 409 408
4 369 370 411 410
4 370 371 412 411
4 371 372 413 412
4 372 373 414 413
4 373 374 415 414
4 374 375 416 415
4 375 376 417 416
4 376 377 418 417
4 377 378 419 418
4 378 379 420 419
4 379 380 421 420
4 380 381 422 421
4 381 382 423 422
4 382 383 424 423
4 383 384 425 424
4 384 385 426 425
4 385 386 427 426
4 386 387 428 427
4 387 388 429 428
4 388 389 430 429
4 389 390 431 430
4 390 391 432 431
4 391 392 433 432
4 392 393 434 433
4 393 394 435 434
4 394 395 436 435
4 395 396 437 436
4 396 397 438 437
4 397 398 439 438
4 398 399 440 439
4 399 400 441 440
4 400 401 442 441
4 401 402 443 442
4 402 403 444 443
4 403 404 445 444
4 404 405 446 445
4 405 406 447 446
4 406 407 448 447
4 407 408 449 448
4 408 409 450 449
4 410 411 452 451
4 411 412 453 452
4 412 413 454 453
4 413 414 455 454
4 414 415 456 455
4 415 416 457 456
4 416 417 458 457
4 417 418 459 458
4 418 419 460 459
4 419 420 461 460
4 420 421 462 461
4 421 422 463 462
4 422 423 464 463
4 423 424 465 464
4 424 425 466 465
4 425 426 467 466
4 426 427 468 467
4 427 428 469 468
4 428 429 470 469
4 429 430 471 470
4 430 431 472 471
4 431 432 473 472
4 432 433 474 473
4 433 434 475 474
4 434 435 476 475
4 435 436 477 476
4 436 437 478 477
4 437 438 479 478
4 438 439 480 479
4 439 440 481 480
4 440 441 482 481
4 441 442 483 482
4 442 443 484 483
4 443 444 485 484
4 444 445 486 485
4 445 446 487 486
4 446 447 488 487
4 447 448 489 488
4 448 449 490 489
4 449 450 491 490
4 451 452 493 492
4 452 453 494 493
4 453 454 495 494
4 454 455 496 495
4 455 456 497 496
4 456 457 498 497
4 457 458 499 498
4 458 459 500 499
4 459 460 501 500
4 460 461 502 501
4 461 462 503 502
4 462 463 504 503
4 463 464 505 504
4 464 465 506 505
4 465 466 507 506
4 466 467 508 507
4 467 468 509 508
4 468 469 510 509
4 469 470 511 510
4 470 471 512 511
4 471 472 513 512
4 472 473 514 513
4 473 474 515 514
4 474 475 516 515
4 475 476 517 516
4 476 477 518 517
4 477 478 519 518
4 478 479 520 519
4 479 480 521 520
4 480 481 522 521
4 481 482 523 522
4 482 483 524 523
4 483 484 525 524
4 484 485 526 525
4 485 486 527 526
4 486 487 528 527
4 487 488 529 528
4 488 489 530 529
4 489 490 531 530
4 490 491 532 531
4 492 493 534 533
4 493 494 535 534
4 494 495 536 535
4 495 496 537 536
4 496 497 538 537
4 497 498 539 538
4 498 499 540 539
4 499 500 541 540
4 500 501 542 541
4 501 502 543 542
4 502 503 544 543
4 503 504 545 544
4 504 505 546 545
4 505 506 547 546
4 506 507 548 547
4 507 508 549 548
4 508 509 550 549
4 509 510 551 550
4 510 511 552 551
4 511 512 553 552
4 512 513 554 553
4 513 514 555 554
4 514 515 556 555
4 515 516 557 556
4 516 517 558 557
4 517 518 559 558
4 518 519 560 559
4 519 520 561 560
4 520 521 562 561
4 521 522 563 562
4 522 523 564 563
4 523 524 565 564
4 524 525 566 565
4 525 526 567 566
4 526 527 568 567
4 527 528 569 568
4 528 529 570 569
4 529 530 571 570
4 530 531 572 571
4 531 532 573 572
4 533 534 575 574
4 534 535 576 575
4 535 536 577 576
4 536 537 578 577
4 537 538 579 578
4 538 539 580 579
4 539 540 581 580
4 540 541 582 581
4 541 542 583 582
4 542 543 584 583
4 543 544 585 584
4 544 545 586 585
4 545 546 587 586
4 546 547 588 587
4 547 548 589 588
4 548 549 590 589
4 549 550 591 590
4 550 551 592 591
4 551 552 593 592
4 552 553 594 593
4 553 554 595 594
4 554 555 596 595
4 555 556 597 596
4 556 557 598 597
4 557 558 599 598
4 558 559 600 599
4 559 560 601 600
4 560 561 602 601
4 561 562 603 602
4 562 563 604 603
4 563 564 605 604
4 564 565 606 605
4 565 566 607 606
4 566 567 608 607
4 567 568 609 608
4 568 569 610 609
4 569 570 611 610
4 570 571 612 611
4 571 572 613 612
4 572 573 614 613
4 574 575 616 615
4 575 576 617 616
4 576 577 618 617
4 577 578 619 618
4 578 579 620 619
4 579 580 621 620
4 580 581 622 621
4 581 582 623 622
4 582 583 624 623
4 583 584 625 624
4 584 585 626 625
4 585 586 627 626
4 586 587 628 627
4 587 588 629 628
4 588 589 630 629
4 589 590 631 630
4 590 591 632 631
4 591 592 633 632
4 592 593 634 633
4 593 594 635 634
4 594 595 636 635
4 595 596 637 636
4 596 597 638 637
4 597 598 639 638
4 598 599 640 639
4 599 600 641 640
4 600 601 642 641
4 601 602 643 642
4 602 603 644 643
4 603 604 645 644
4 604 605 646 645
4 605 606 647 646
4 606 607 648 647
4 607 608 649 648
4 608 609 650 649
4 609 610 651 650
4 610 611 652 651
4 611 612 653 652
4 612 613 654 653
4 613 614 655 654
4 615 616 657 656
4 616 617 658 657
4 617 618 659 658
4 618 619 660 659
4 619 620 661 660
4 620 621 662 661
4 621 622 663 662
4 622 623 664 663
4 623 624 665 664
4 624 625 666 665
4 625 626 667 666
4 626 627 668 667
4 627 628 669 668
4 628 629 670 669
4 629 630 671 670
4 630 631 672 671
4 631 632 673 672
4 632 633 674 673
4 633 634 675 674
4 634 635 676 675
4 635 636 677 676
4 636 637 678 677
4 637 638 679 678
4 638 639 680 679
4 639 640 681 680
4 640 641 682 681
4 641 642 683 682
4 642 643 684 683
4 643 644 685 684
4 644 645 686 685
4 645 646 687 686
4 646 647 688 687
4 647 648 689 688
4 648 649 690 689
4 649 650 691 690
4 650 651 692 691
4 651 652 693 692
4 652 653 694 693
4 653 654 695 694
4 654 655 696 695
4 656 657 698 697
4 657 658 699 698
4 658 659 700 699
4 659 660 701 700
4 660 661 702 701
4 661 662 703 702
4 662 663 704 703
4 663 664 705 704
4 664 665 706 705
4 665 666 707 706
4 666 667 708 707
4 667 668 709 708
4 668 669 710 709
4 669 670 711 710
4 670 671 712 711
4 671 672 713 712
4 672 673 714 713
4 673 674 715 714
4 674 675 716 715
4 675 676 717 716
4 676 677 718 717
4 677 678 719 718
4 678 679 720 719
4 679 680 721 720
4 680 681 722 721
4 681 682 723 722
4 682 683 724 723
4 683 684 725 724
4 684 685 726 725
4 685 686 727 726
4 686 687 728 727
4 687 688 729 728
4 688 689 730 729
4 689 690 731 730
4 690 691 732 731
4 691 692 733 732
4 692 693 734 733
4 693 694 735 734
4 694 695 736 735
4 695 696 737 736
4 697 698 739 738
4 698 699 740 739
4 699 700 741 740
4 700 701 742 741
4 701 702 743 742
4 702 703 744 743
4 703 704 745 744
4 704 705 746 745
4 705 706 747 746
4 706 707 748 747
4 707 708 749 748
4 708 709 750 749
4 709 710 751 750
4 710 711 752 751
4 711 712 753 752
4 712 713 754 753
4 713 714 755 754
4 714 715 756 755
4 715 716 757 756
4 716 717 758 757
4 717 718 759 758
4 718 719 760 759
4 719 720 761 760
4 720 721 762 761
4 721 722 763 762
4 722 723 764 763
4 723 724 765 764
4 724 725 766 765
4 725 726 767 766
4 726 727 768 767
4 727 728 769 768
4 728 729 770 769
4 729 730 771 770
4 730 731 772 771
4 731 732 773 772
4 732 733 774 773
4 733 734 775 774
4 734 735 776 775
4 735 736 777 776
4 736 737 778 777
4 738 739 780 779
4 739 740 781 780
4 740 741 782 781
4 741 742 783 782
4 742 743 784 783
4 743 744 785 784
4 744 745 786 785
4 745 746 787 786
4 746 747 788 787
4 747 748 789 788
4 748 749 790 789
4 749 750 791 790
4 750 751 792 791
4 751 752 793 792
4 752 753 794 793
4 753 754 795 794
4 754 755 796 795
4 755 756 797 796
4 756 757 798 797
4 757 758 799 798
4 758 759 800 799
4 759 760 801 800
4 760 761 802 801
4 761 762 803 802
4 762 763 804 803
4 763 764 805 804
4 764 765 806 805
4 765 766 807 806
4 766 767 808 807
4 767 768 809 808
4 768 769 810 809
4 769 770 811 810
4 770 771 812 811
4 771 772 813 812
4 772 773 814 813
4 773 774 815 814
4 774 775 816 815
4 775 776 817 816
4 776 777 818 817
4 777 778 819 818
4 779 780 821 820
4 780 781 822 821
4 781 782 823 822
4 782 783 824 823
4 783 784 825 824
4 784 785 826 825
4 785 786 827 826
4 786 787 828 827
4 787 788 829 828
4 788 789 830 829
4 789 790 831 830
4 790 791 832 831
4 791 792 833 832
4 792 793 834 833
4 793 794 835 834
4 794 795 836 835
4 795 796 837 836
4 796 797 838 837
4 797 798 839 838
4 798 799 840 839
4 799 800 841 840
4 800 801 842 841
4 801 802 843 842
4 802 803 844 843
4 803 804 845 844
4 804 805 846 845
4 805 806 847 846
4 806 807 848 847
4 807 808 849 848
4 808 809 850 849
4 809 810 851 850
4 810 811 852 851
4 811 812 853 852
4 812 813 854 853
4 813 814 855 854
4 814 815 856 855
4 815 816 857 856
4 816 817 858 857
4 817 818 859 858
4 818 819 860 859
CELL_TYPES 800
9
9
9
9
9
9
9
9
9
9
9
9
9
9
9
9
9
9
9
9
9
9
9
9
9
9
9
9
9
9
9
9
9
9
9
9
9
9
9
9
9
9
9
9
9
9
9
9
9
9
9
9
9
9
9
9
9
9
9
9
9
9
9
9
9
9
9
9
9
9
9
9
9
9
9
9
9
9
9
9
9
9
9
9
9
9
9
9
9
9
9
9
9
9
9
9
9
9
9
9
9
9
9
9
9
9
9
9
9
9
9
9
9
9
9
9
9
9
9
9
9
9
9
9
9
9
9
9
9
9
9
9
9
9
9
9
9
9
9
9
9
9
9
9
9
9
9
9
9
9
9
9
9
9
9
9
9
9
9
9
9
9
9
9
9
9
9
9
9
9
9
9
9
9
9
9
9
9
9
9
9
9
9
9
9
9
9
9
9
9
9
9
9
9
9
9
9
9
9
9
9
9
9
9
9
9
9
9
9
9
9
9
9
9
9
9
9
9
9
9
9
9
9
9
9
9
9
9
9
9
9
9
9
9
9
9
9
9
9
9
9
9
9
9
9
9
9
9
9
9
9
9
9
9
9
9
9
9
9
9
9
9
9
9
9
9
9
9
9
9
9
9
9
9
9
9
9
9
9
9
9
9
9
9
9
9
9
9
9
9
9
9
9
9
9
9
9
9
9
9
9
9
9
9
9
9
9
9
9
9
9
9
9
9
9
9
9
9
9
9
9
9
9
9
9
9
9
9
9
9
9
9
9
9
9
9
9
9
9
9
9
9
9
9
9
9
9
9
9
9
9
9
9
9
9
9
9
9
9
9
9
9
9
9
9
9
9
9
9
9
9
9
9
9
9
9
9
9
9
9
9
9
9
9
9
9
9
9
9
9
9
9
9
9
9
9
9
9
9
9
9
9
9
9
9
9
9
9
9
9
9
9
9
9
9
9
9
9
9
9
9
9
9
9
9
9
9
9
9
9
9
9
9
9
9
9
9
9
9
9
9
9
9
9
9
9
9
9
9
9
9
9
9
9
9
9
9
9
9
9
9
9
9
9
9
9
9
9
9
9
9
9
9
9
9
9
9
9
9
9
9
9
9
9
9
9
9
9
9
9
9
9
9
9
9
9
9
9
9
9
9
9
9
9
9
9
9
9
9
9
9
9
9
9
9
9
9
9
9
9
9
9
9
9
9
9
9
9
9
9
9
9
9
9
9
9
9
9
9
9
9
9
9
9
9
9
9
9
9
9
9
9
9
9
9
9
9
9
9
9
9
9
9
9
9
9
9
9
9
9
9
9
9
9
9
9
9
9
9
9
9
9
9
9
9
9
9
9
9
9
9
9
9
9
9
9
9
9
9
9
9
9
9
9
9
9
9
9
9
9
9
9
9
9
9
9
9
9
9
9
9
9
9
9
9
9
9
9
9
9
9
9
9
9
9
9
9
9
9
9
9
9
9
9
9
9
9
9
9
9
9
9
9
9
9
9
9
9
9
9
9
9
9
9
9
9
9
9
9
9
9
9
9
9
9
9
9
9
9
9
9
9
9
9
9
9
9
9
9
9
9
9
9
9
9
9
9
9
9
9
9
9
9
9
9
9
9
9
9
9
9
9
9
9
9
9
9
9
9
9
9
9
9
9
9
9
9
9
9
9
9
9
9
9
9
9
9
9
9
9
9
9
9
9
9
9
9
9
9
9
9
9
9
9
9
9
9
9
9
9
9
9
9
9
9
9
9
9
9
9
9
9
9
9
9
9
9
9
9
9
9
9
9
9
9
9
9
9
9
9
9
9
9
9
9
9
9
9
9
9
POINT_DATA 861
SCALARS Disp float 2
LOOKUP_TABLE default
0.0 0.0
0.005923281887040118 -0.26223740706802234
0.007280768504805377 -0.5151010622978112
0.008072171488534693 -0.7668837422759572
0.009103592837117517 -1.0182907048780916
0.010795055551455325 -1.268893130314757
0.013797389079903834 -1.5181182956586952
0.01890954325597918 -1.7652441318548506
0.02707327230724975 -2.00936655790826
0.03931531878076875 -2.2493053216287957
0.05665882328828644 -2.4834661887409992
0.08006353200647752 -2.709760896779342
0.11039796853693731 -2.925639246971289
0.14843031365142867 -3.128209360470383
0.19482414308923685 -3.314323921877402
0.2500702380612181 -3.4806495823016697
0.31436454777101136 -3.6237569498409097
0.38746277320399847 -3.7402650932342816
0.46855740623141 -3.8270734831129585
0.5562288865389856 -3.8816105864868695
0.6482250944823921 -3.9021342353126487
0.7402213024257933 -3.881610586486746
0.8278927827333497 -3.82707348311271
0.9089874157607294 -3.7402650932339205
0.9820856411936751 -3.623756949840458
1.0463799509034244 -3.480649582301154
1.101626045875361 -3.314323921876837
1.1480198753131252 -3.1282093604697847
1.1860522204275719 -2.9256392469706762
1.2163866569579895 -2.7097608967787346
1.239791365676143 -2.4834661887404126
1.2571348701836296 -2.2493053216282437
1.2693769166571238 -2.0093665579077498
1.2775406457083764 -1.765244131854391
1.2826527998844397 -1.51811829565829
1.2856551334128807 -1.2688931303144144
1.2873465961272152 -1.0182907048778105
1.288378017475797 -0.7668837422757424
1.289169420459526 -0.5151010622976608
1.29052690707729 -0.26223740706793924
1.296450188964327 0.0
0.0654108689432406 -0.0024571138467328214
0.06956610378445775 -0.26251362503766124
0.07027167543771923 -0.5151635288882251
0.07097233092603514 -0.7669743061699444
0.07187499629799754 -1.0184409577889337
0.07331032062641571 -1.2692302228282106
0.07589000551998423 -1.5188221063332255
0.08036838623805329 -1.766529853732852
0.08762973316426662 -2.0114747902040744
0.09861144770881408 -2.2524812247485015
0.11422642705028957 -2.487943038286866
0.13531584496602733 -2.7157524074113324
0.1626459127369897 -2.933338772617304
0.19691478013894798 -3.137789089865841
0.23872820910953696 -3.325927097303302
0.28854398290046773 -3.4943675089422928
0.34656307211300125 -3.639595737873647
0.41260044773515886 -3.7581120637646834
0.4859654554658154 -3.8466701547377795
0.5653073646115697 -3.902526298220002
0.6482250944823771 -3.9235961503040455
0.7311428243531789 -3.9025262982198763
0.8104847334989156 -3.846670154737524
0.8838497412295439 -3.7581120637643135
0.9498871168516658 -3.639595737873186
1.0079062060641601 -3.494367508941767
1.0577219798550508 -3.325927097302727
1.0995354088255995 -3.1377890898652328
1.1338042762275182 -2.9333387726166813
1.1611343439984425 -2.7157524074107156
1.1822237619141462 -2.4879430382862715
1.1978387412555935 -2.2524812247479433
1.2088204558001185 -2.0114747902035597
1.2160818027263156 -1.7665298537323888
1.2205601834443738 -1.5188221063328178
1.2231398683379358 -1.269230222827867
1.2245751926663513 -1.0184409577886524
1.225477858038313 -0.7669743061697295
1.2261785135266288 -0.5151635288880747
1.2268840851798901 -0.2625136250375778
1.2310393200211016 -0.002457113846730362
0.12982518033243792 -0.004411257967398346
0.13287897813499838 -0.262651127821058
0.13328235215293002 -0.5151958840046671
0.13385360054202683 -0.76705397838238
0.1346377737150324 -1.018560300465187
0.13584289837985764 -1.2694969101727822
0.1380104786971722 -1.5194053063205062
0.1418580405434063 -1.7676334209168887
0.14820123308434047 -2.013322081786212
0.15789097463083812 -2.2552934311757378
0.17173516407973438 -2.491925651685399
0.19046648843342573 -2.721091689183086
0.21475098882329793 -2.940205756860146
0.24520474861310027 -3.146340169325959
0.2823801326363336 -3.3362938467697063
0.32670339407401416 -3.5066376020722188
0.3783912856250256 -3.6537845788799306
0.43733441369389753 -3.77413025886995
0.5029477238387875 -3.8642880764682044
0.5739467807988864 -3.9213061662445337
0.6482250944823622 -3.9428672480182834
0.7225034081658331 -3.9213061662444053
0.7935024651259162 -3.8642880764679437
0.859115775270781 -3.774130258869573
0.9180589033396221 -3.6537845788794607
0.9697467948905988 -3.506637602071684
1.0140700563282434 -3.336293846769122
1.0512454403514409 -3.1463401693253408
1.081699200141208 -2.940205756859514
1.1059837005310469 -2.721091689182461
1.1247150248847075 -2.4919256516847974
1.1385592143335788 -2.255293431175174
1.1482489558800562 -2.0133220817856925
1.1545921484209758 -1.7676334209164222
1.1584397102672002 -1.519405306320097
1.1606072905845095 -1.2694969101724374
1.1618124152493328 -1.0185603004649055
1.1625965884223377 -0.767053978382165
1.1631678368114347 -0.5151958840045167
1.1635712108293663 -0.2626511278209742
1.1666250086319212 -0.004411257967393105
0.1937128830833778 -0.005983303294001937
0.1960251524256801 -0.26274493895686263
0.196270818472601 -0.5152136451504308
0.19671753366900832 -0.7671181672783534
0.19738700539165402 -1.0186570265538075
0.19838952708499777 -1.2697014687356396
0.2001689785000742 -1.519872053806678
0.20339344640976112 -1.768555870607847
0.20881318179950148 -2.014904931669748
0.21719255972798446 -2.257735443991552
0.2292393447486077 -2.495406018190612
0.24558205140694803 -2.725771096139832
0.26679081340351113 -2.9462323053277157
0.2933984553600116 -3.1538522613813456
0.32589290479318384 -3.3454120852889284
0.36467602208069194 -3.5174474342611934
0.40998446382220993 -3.6663127581104065
0.4617830459991102 -3.7883120670695
0.5196005449157254 -3.879919594101239
0.5823418254742591 -3.9379979401279854
0.648225094482348 -3.9600550723701646
0.7141083634904324 -3.937997940127855
0.7768496440489517 -3.8799195941009734
0.8346671429655446 -3.7883120670691164
0.8864657251424183 -3.6663127581099286
0.9317741668839058 -3.5174474342606503
0.9705572841713825 -3.345412085288335
1.003051733604523 -3.1538522613807194
1.0296593755609926 -2.946232305327076
1.0508681375575266 -2.725771096139199
1.0672108442158406 -2.4954060181900037
1.0792576292364415 -2.257735443990982
1.0876370071649069 -2.0149049316692245
1.0930567425546343 -1.7685558706073778
1.096281210464313 -1.519872053806267
1.0980606618793851 -1.269701468735294
1.0990631835727274 -1.0186570265535262
1.0997326552953728 -0.7671181672781383
1.1001793704917802 -0.5152136451502805
1.100425036538701 -0.26274493895677853
1.1027373058809982 -0.005983303293994156
0.2573005102606733 -0.007254783209723102
0.25905756604908015 -0.262817759447912
0.2592177075666605 -0.5152238328284294
0.25955969281766855 -0.7671678903219079
0.2601189157194235 -1.018735462073152
0.26094249684610754 -1.2698559837521934
0.26237245104160384 -1.5202305874036013
0.26498857904228074 -1.7693001771737864
0.2694912365205467 -2.016223406391255
0.27655490266898036 -2.259804420512148
0.28679165485675606 -2.498380152713313
0.3007304538518392 -2.729785938246489
0.31884506607132057 -2.9514136085245233
0.3415863802384821 -3.1603200987715123
0.3693816805675163 -3.3532744863436887
0.402595111996862 -3.5267877601187236
0.441479185662499 -3.677169099651511
0.48607512147423826 -3.800644483100095
0.5360614398736313 -3.8935660679360256
0.5905922018157236 -3.952637592835438
0.648225094482334 -3.975218414658305
0.7058579871489402 -3.952637592835304
0.7603887490910197 -3.893566067935756
0.810375067490393 -3.800644483099706
0.8549710033021094 -3.677169099651027
0.8938550769677205 -3.5267877601181734
0.9270685083970387 -3.3532744863430883
0.9548638087260459 -3.160320098770879
0.9776051228931807 -2.951413608523877
0.9957197351126373 -2.7297859382458496
1.009658534107698 -2.4983801527126994
1.0198952862954545 -2.259804420511574
1.0269589524438731 -2.0162234063907283
1.031461609922128 -1.7693001771733152
1.0340777379227981 -1.5202305874031894
1.035507692118291 -1.2698559837518473
1.036331273244974 -1.0187354620728704
1.036890496146729 -0.7671678903216929
1.037232481397737 -0.5152238328282792
1.0373926229153172 -0.26281775944782765
1.0391496787037198 -0.007254783209713071
0.3206901139496373 -0.008277124058368992
0.32201065729718625 -0.26287736307865367
0.32212119193978056 -0.5152311693958868
0.32237696155935053 -0.7672047580704189
0.32282908786517245 -1.0187989531873718
0.3234957086620026 -1.2699713513293878
0.32461378372991717 -1.5204945015154137
0.3266638879678287 -1.7698725269120283
0.3302611387630297 -2.0172805446036755
0.33601674891701455 -2.2615013757933986
0.34444475711672456 -2.500847593549513
0.35597747426970594 -2.7331354245989106
0.37099567830157637 -2.9557484697982703
0.389867061007587 -3.1657420353046493
0.4129542864496496 -3.3598792218545253
0.4405896625686629 -3.534653856916618
0.47302242921482673 -3.6863430284521206
0.5103599210323183 -3.811114525174918
0.552462438755276 -3.9052246361347343
0.5987786521825851 -3.9652433202185478
0.6482250944823199 -3.9883921507485276
0.6976715367820507 -3.9652433202184127
0.7439877502093488 -3.905224636134461
0.7860902679322899 -3.8111145251745246
0.823427759749762 -3.6863430284516308
0.8558605263959042 -3.5346538569160613
0.883495902514894 -3.359879221853918
0.9065831279569342 -3.1657420353040098
0.9254545106629225 -2.955748469797618
0.9404727146947727 -2.733135424598266
0.9520054318477352 -2.5008475935488947
0.9604334400474293 -2.261501375792821
0.9661890502014014 -2.017280544603146
0.9697863009965936 -1.769872526911555
0.9718364052344997 -1.5204945015150009
0.9729544803024119 -1.2699713513290414
0.9736211010992416 -1.0187989531870902
0.9740732274050633 -0.7672047580702039
0.9743289970246332 -0.5152311693957365
0.9744395316672274 -0.26287736307856907
0.9757600750147729 -0.008277124058357037
0.383935099648498 -0.009089649256736701
0.3849080171141866 -0.26292677695283895
0.3849865415656895 -0.5152380370732726
0.38516912660437014 -0.7672302390891004
0.38551606889671947 -1.0188493647992813
0.3860414662575138 -1.2700568032037123
0.38688396667149644 -1.520680110555241
0.38841777363298957 -1.7702876994431558
0.3911524409635461 -2.018083027372097
0.39561767101763085 -2.2628309035521315
0.4022521723968389 -2.5028119214196347
0.41139110981915356 -2.735822581394743
0.42332430737147964 -2.9592399379561525
0.4383376406146263 -3.17012097463702
0.45672895436743977 -3.3652281290407933
0.47878842643770547 -3.5410458264001643
0.5047597256828456 -3.693828769158536
0.5348007708537909 -3.8197092105164785
0.5689469686778086 -3.9148833780423855
0.6069816601326603 -3.9758153964576555
0.6482250944823056 -3.9995914286095284
0.6894685288319474 -3.9758153964575182
0.7275032202867902 -3.9148833780421097
0.761649418110794 -3.819709210516081
0.7916904632817233 -3.6938287691580416
0.8176617625268457 -3.5410458263996025
0.8397212345970922 -3.3652281290401813
0.8581125483498879 -3.1701209746363754
0.8731258815930173 -2.9592399379554957
0.8850590791453273 -2.7358225813940944
0.8941980165676268 -2.5028119214190125
0.900832517946822 -2.262830903551551
0.9052977480008968 -2.0180830273715653
0.9080324153314465 -1.770287699442681
0.9095662222929357 -1.5206801105548275
0.9104087227069169 -1.2700568032033657
0.9109341200677109 -1.0188493647989996
0.9112810623600598 -0.7672302390888853
0.9114636473987405 -0.5152380370731224
0.9115421718502432 -0.2629267769527541
0.9125150893159293 -0.009089649256723186
0.4470710656455081 -0.00972401064142113
0.4477672561203261 -0.2629683088031448
0.44782136600910427 -0.5152449371316054
0.4479380877503673 -0.7672456221013223
0.4481813596126741 -1.0188867830370916
0.44857190050248086 -1.2701195187671026
0.4491773581581215 -1.5208031451986694
0.45024614933412294 -1.7705657607842626
0.45217903198221165 -2.018646378452707
0.45540086108701966 -2.2638022380463743
0.46026970081799357 -2.5042807070973208
0.46703959044271437 -2.7378546691766954
0.4759151927073901 -2.9618957106740202
0.48709931168303167 -3.173464622913036
0.5008199492493131 -3.3693282197060985
0.5173250461998333 -3.5459684655470025
0.5368457200382988 -3.6996262209469424
0.5595663110625748 -3.826417851142989
0.5856710781609162 -3.9225208976854353
0.6152921810976141 -3.9843344439814357
0.6482250944822907 -4.008811397515494
0.6811580078669651 -3.9843344439812967
0.7107791108036561 -3.922520897685157
0.7368838779019867 -3.826417851142588
0.75960446892625 -3.6996262209464446
0.7791251427647019 -3.545968465546436
0.7956302397152076 -3.369328219705483
0.8093508772814757 -3.173464622912388
0.8205349962571048 -2.96189571067336
0.8294105985217686 -2.737854669176043
0.8361804881464782 -2.5042807070966955
0.8410493278774426 -2.263802238045791
0.8442711569822433 -2.0186463784521735
0.8462040396303273 -1.770565760783787
0.847272830806326 -1.5208031451982555
0.8478782884619658 -1.2701195187667562
0.8482688293517723 -1.0188867830368098
0.8485121012140789 -0.7672456221011074
0.8486288229553418 -0.5152449371314551
0.84868293284412 -0.26296830880306
0.8493791233189362 -0.009724010641406343
0.5101198872152075 -0.010209899971572052
0.5106046891434751 -0.263004024862456
0.5106326860325008 -0.5152510442094438
0.510687115159038 -0.7672519292651604
0.5108291696868947 -1.018910544652016
0.5110829592802758 -1.270163330780837
0.5114785860783345 -1.5208800955677662
0.5121434845885711 -1.7707307787279691
0.5133458669829849 -2.0189950862581645
0.5153962867976372 -2.264434024220881
0.5185544709345096 -2.505267469492796
0.5229981813786577 -2.7392442982262586
0.5288557986369169 -2.9637288984798453
0.5362545349202638 -3.1757866217018953
0.5453491455284001 -3.372191965558482
0.5563336055573418 -3.5494321625972614
0.5694279330530213 -3.7037433129144715
0.5848425752927321 -3.8312357352508006
0.6028252992210925 -3.928108206106825
0.6238246613347358 -3.9907587695343434
0.6482250944822754 -4.016024742842302
0.6726255276298139 -3.9907587695342035
0.6936248897434529 -3.928108206106544
0.7116076136718051 -3.8312357352503974
0.7270222559115069 -3.7037433129139714
0.7401165834071771 -3.549432162596692
0.7511010434361092 -3.3721919655578634
0.7601956540442371 -3.1757866217012447
0.7675943903275766 -2.9637288984791823
0.7734520075858278 -2.739244298225604
0.7778957180299688 -2.5052674694921695
0.7810539021668349 -2.264434024220296
0.7831043219814826 -2.0189950862576302
0.7843067043758937 -1.7707307787274928
0.7849716028861287 -1.520880095567352
0.7853672296841869 -1.2701633307804903
0.7856210192775679 -1.0189105446517344
0.7857630738054245 -0.7672519292649453
0.7858175029319616 -0.5152510442092935
0.7858454998209872 -0.2630040248623712
0.7863303017492534 -0.010209899971556337
0.5730971428644911 -0.010577070747786037
0.5734300949537418 -0.2630365349152497
0.5734270007450382 -0.5152545573446023
0.5734203440212186 -0.7672499180744528
0.5734640142151065 -1.018920403529252
0.5735773899158315 -1.2701882404087694
0.5737720898301905 -1.520923455401385
0.5740918090520083 -1.7708117605795755
0.5746495746281466 -2.019164681799451
0.5756222266889592 -2.2647585815641467
0.5771522248684418 -2.505798526628814
0.5793374513498554 -2.740013995520749
0.5822329393730106 -2.964760972093895
0.5859005286925502 -3.1771093092409872
0.5904260910555956 -3.373841162157908
0.5959380333703685 -3.5514548679058686
0.6026298520803118 -3.7061951686362833
0.6107584173032554 -3.834174810959644
0.6206226704801615 -3.9316220389316325
0.6327546664443863 -3.995020351377107
0.6482250944822598 -4.021172146620999
0.6636955225201333 -3.9950203513769664
0.6758275184843558 -3.93162203893135
0.685691771661257 -3.8341748109592384
0.6938203368841953 -3.7061951686357815
0.7005121555941342 -3.5514548679052975
0.7060240979089026 -3.3738411621572877
0.7105496602719444 -3.1771093092403357
0.714217249591481 -2.964760972093231
0.7171127376146331 -2.7400139955200933
0.7192979640960435 -2.505798526628186
0.7208279622755233 -2.2647585815635605
0.721800614336334 -2.0191646817989164
0.7223583799124713 -1.770811760579099
0.7226780991342885 -1.5209234554009712
0.7228727990486473 -1.2701882404084226
0.7229861747493723 -1.0189204035289703
0.7230298449432602 -0.7672499180742376
0.7230231882194406 -0.515254557344452
0.7230200940107367 -0.26303653491516493
0.7233530460999867 -0.010577070747769613
0.6360201015074359 -0.010851340560665786
0.6362460241839942 -0.2630688164816706
0.6362093922005654 -0.5152535902688543
0.6361423081495565 -0.7672400665084964
0.636090127431417 -1.0189164745395827
0.636063382242035 -1.2701934074488295
0.6360530897395901 -1.5209370848460193
0.63604945158984 -1.7708360845361886
0.6360481720714347 -2.0192091502218825
0.6360480980272545 -2.2648404833213767
0.6360482295990846 -2.505934197718987
0.6360469296679444 -2.7402174822925303
0.6360383129709547 -2.965043051505928
0.6360195947920241 -3.177481920206893
0.6360056180417468 -3.3743231166032643
0.6360624789659883 -3.5520788338403877
0.6363533327806085 -3.7070166757564533
0.6371877095599973 -3.8352737885049173
0.6389979224698055 -3.9330932837947223
0.6422654872080388 -3.9970544768639735
0.6482250944822437 -4.024153510448933
0.6541847017564495 -3.997054476863833
0.6574522664946821 -3.933093283794439
0.6592624794044889 -3.835273788504511
0.6600968561838771 -3.707016675755951
0.6603877099984983 -3.552078833839816
0.6604445709227404 -3.3743231166026435
0.6604305941724642 -3.177481920206241
0.6604118759935355 -2.9650430515052637
0.6604032592965475 -2.7402174822918735
0.6604019593654084 -2.5059341977183585
0.6604020909372392 -2.26484048332079
0.6604020168930596 -2.019209150221348
0.6604007373746545 -1.770836084535712
0.6603970992249047 -1.520937084845605
0.6603868067224599 -1.2701934074484826
0.660360061533078 -1.0189164745393007
0.6603078808149386 -0.7672400665082812
0.6602407967639297 -0.5152535902687038
0.6602041647805007 -0.2630688164815858
0.6604300874570586 -0.010851340560648945
0.6988999035397583 -0.011057939922377791
0.6990517469435642 -0.26310132422663324
0.6989841593089313 -0.5152475153982332
0.6988581074770859 -0.7672225399429965
0.698712792713064 -1.0188991582740654
0.6985481017937275 -1.2701786072932253
0.6983333568397715 -1.5209209108962012
0.6980062337423777 -1.7708110300640836
0.6974463061937554 -2.0191645117591945
0.6964738933964519 -2.264758593357141
0.6949444938630777 -2.5057984508840914
0.6927552292421939 -2.7400117370552146
0.6898417424190247 -2.9647544282846248
0.6861377556132402 -3.177099985288583
0.6815884826391907 -3.373845267353016
0.6761960501475092 -3.5515216468918887
0.670078645161099 -3.70642890695409
0.6635348061670078 -3.834747677338199
0.6570369623978993 -3.9327267760154427
0.6512667499793288 -3.9969762618824736
0.6482250944822275 -4.025066072424655
0.6451834389851256 -3.9969762618823323
0.6394132265665552 -3.9327267760151603
0.6329153827974505 -3.834747677337793
0.6263715438033647 -3.7064289069535885
0.6202541388169612 -3.551521646891318
0.6148617063252856 -3.373845267352396
0.6103124333512415 -3.177099985287932
0.6066084465454634 -2.9647544282839613
0.6036949597223008 -2.740011737054559
0.6015056951014227 -2.5057984508834634
0.5999762955680531 -2.264758593356555
0.5990038827707524 -2.0191645117586603
0.5984439552221318 -1.770811030063607
0.598116832124739 -1.520920910895787
0.5979020871707834 -1.2701786072928787
0.5977373962514473 -1.0188991582737836
0.5975920814874255 -0.7672225399427813
0.59746602965558 -0.5152475153980827
0.5973984420209472 -0.2631013242265485
0.597550285424753 -0.011057939922360694
0.7617483885109024 -0.011215633151868206
0.761850322579362 -0.26313228017134777
0.7617551049471052 -0.5152367178109415
0.7615730605032754 -0.7671975047953237
0.7613379908413233 -1.0188690622436396
0.7610390311535168 -1.2701442930214892
0.760623983626668 -1.5208748588802283
0.7599522864495165 -1.7707291361241329
0.7587491429526639 -2.018994828013686
0.7567000571298081 -2.2644342197885603
0.7535418400238242 -2.5052669310900675
0.7490932352938713 -2.739239411527345
0.7432197083656132 -2.9637156546359082
0.7357909100804557 -3.175768449563436
0.726681128492182 -3.372201888677244
0.7158185361396593 -3.549569042759706
0.7032704006783413 -3.7042101949023665
0.6893117794255388 -3.832357708118356
0.6744926911629172 -3.9303177348745417
0.6599896927490143 -3.9949003996916836
0.6482250944822117 -4.024084734575475
0.6364604962154089 -3.994900399691542
0.621957497801508 -3.9303177348742606
0.6071384095388933 -3.832357708117952
0.5931797882861009 -3.704210194901867
0.5806316528247945 -3.5495690427591375
0.5697690604722828 -3.372201888676625
0.5606592788840195 -3.1757684495627876
0.5532304805988729 -2.9637156546352474
0.5473569536706256 -2.739239411526691
0.542908348940683 -2.5052669310894413
0.539750131834707 -2.264434219787976
0.5377010460118569 -2.018994828013152
0.5364979025150078 -1.7707291361236566
0.5358262053378583 -1.5208748588798142
0.5354111578110103 -1.2701442930211426
0.5351121981232042 -1.0188690622433578
0.5348771284612521 -0.7671975047951085
0.5346950840174226 -0.515236717810791
0.5345998663851658 -0.26313228017126306
0.5347018004536255 -0.011215633151850908
0.824583127999271 -0.011333302187142852
0.8246467150740571 -0.2631600492095213
0.8245270309885668 -0.5152216782017508
0.8242925245969193 -0.767165340007341
0.8239715191236116 -1.018826990876703
0.8235437306985555 -1.2700914597624795
0.8229204707237744 -1.52079466247465
0.8218470434864665 -1.7705634550310592
0.8199161208403642 -2.018646475325866
0.816695747267967 -2.263802566997999
0.8118257021992139 -2.5042794204736505
0.8050509607367528 -2.737847450445413
0.7961655707902272 -2.9618775720953114
0.784966990384847 -3.1734407572697894
0.7712484354327526 -3.3693458248023287
0.7548532703760316 -3.546168866214978
0.7357749241562189 -3.7002975649187455
0.7142825638775617 -3.8280350075319807
0.6911415040499871 -3.9258207172494246
0.6679821843534195 -3.990707957882411
0.6482250944821963 -4.021264458701546
0.6284680046109739 -3.9907079578822704
0.6053086849144104 -3.9258207172491444
0.5821676250868456 -3.8280350075315783
0.5606752648082022 -3.7002975649182495
0.5415969185884055 -3.5461688662144133
0.5252017535317003 -3.369345824801714
0.5114831985796211 -3.173440757269143
0.5002846181742567 -2.9618775720946533
0.49139922822774623 -2.7378474504447623
0.48462448676529885 -2.504279420473027
0.47975444169655773 -2.2638025669974167
0.476534068124169 -2.0186464753253337
0.4746031454780724 -1.7705634550305838
0.47352971824076745 -1.5207946624742361
0.4729064582659877 -1.270091459762133
0.47247866984093206 -1.0188269908764214
0.4721576643676247 -0.7671653400071257
0.4719231579759772 -0.5152216782016004
0.47180347389048716 -0.2631600492094366
0.4718670609652732 -0.011333302187125409
0.8874161932259986 -0.011417239004029594
0.8874472227267308 -0.26318314951387073
0.8873046735775538 -0.5152027069688525
0.8870211505626938 -0.7671265899191003
0.8866184529248594 -1.018773965566345
0.8860658337476897 -1.2700199699513004
0.8852085054270564 -1.5206683765595046
0.8836749843331158 -1.770285694294923
0.8809435126780979 -2.018083729921071
0.8764789383253574 -2.262831099200022
0.8698419379875502 -2.502809657449939
0.8606993002893746 -2.7358138609873968
0.8487660434725948 -2.9592203567176947
0.8337625469863462 -3.1700974101944985
0.8153998336091344 -3.3652558692941055
0.7934263173579412 -3.541293773276996
0.7677521395607498 -3.694655856734312
0.7386799080193479 -3.82175674585784
0.7072292387419412 -3.9192308901036923
0.6756484554901514 -3.984478920849099
0.648225094482181 -4.016697249520575
0.6208017334742124 -3.9844789208489586
0.5892209502224292 -3.919230890103414
0.5577702809450353 -3.8217567458574413
0.5286980494036507 -3.6946558567338204
0.5030238716064794 -3.5412937732764354
0.4810503553553063 -3.365255869293495
0.4626876419781146 -3.170097410193857
0.4476841454918863 -2.959220356717041
0.435750888675126 -2.7358138609867497
0.4266082509769681 -2.502809657449319
0.4199712506391762 -2.2628310991994423
0.41550667628644694 -2.0180837299205403
0.412775204631437 -1.7702856942944487
0.4112416835375007 -1.5206683765590912
0.4103843552168695 -1.270019969950954
0.40983173603970047 -1.0187739655660633
0.40942903840186645 -0.7671265899188852
0.4091455153870066 -0.515202706968702
0.4090029662378297 -0.26318314951378613
0.40903399573856203 -0.011417239004012017
0.9502552869959545 -0.011473170008914067
0.9502580656947571 -0.26320040708828435
0.9500932949723692 -0.5151799282512425
0.9497639378352046 -0.7670818457096221
0.9492848546978793 -1.0187112758940582
0.9486031598675416 -1.2699268237648231
0.9474773619610355 -1.520480713743582
0.9454298907224141 -1.7698715746725158
0.9418357858293032 -2.017281741039013
0.936079511281651 -2.2615011081424825
0.9276481989369753 -2.5008442904621053
0.9161141141461862 -2.7331264716482857
0.9011077684620432 -2.9557320098596898
0.8822746916535861 -3.1657268407681642
0.8592487428912116 -3.359920625932682
0.8316821580229383 -3.534930679142215
0.7994142034692928 -3.6872739163153248
0.7627883682743118 -3.8135193414338246
0.7231175281847775 -3.9105728629725354
0.6832597486500044 -3.9762617795293793
0.6482250944821663 -4.010401406301057
0.6131904403143303 -3.9762617795292403
0.5733326607795663 -3.9105728629722596
0.5336618206900478 -3.8135193414334303
0.4970359854950877 -3.6872739163148385
0.4647680309414661 -3.534930679141661
0.43720144607321715 -3.359920625932076
0.4141754973108676 -3.1657268407675283
0.3953424205024351 -2.955732009859042
0.3803360748183163 -2.7331264716476436
0.3688019900275486 -2.50084429046149
0.3603706776828913 -2.261501108141907
0.3546144031352534 -2.017281741038485
0.35102029824215225 -1.7698715746720428
0.34897282700353677 -1.5204807137431693
0.3478470290970335 -1.269926823764477
0.3471653342666969 -1.0187112758937766
0.346686251129372 -0.767081845709407
0.3463568939922077 -0.5151799282510919
0.34619212326981985 -0.2632004070881998
0.34619490196862246 -0.011473170008896397
1.0131057187741168 -0.011506588061224543
1.0130846197277232 -0.2632111364807686
1.0128983657660944 -0.515153312512402
1.0125258007086262 -0.7670318289475646
1.011973354702493 -1.0186391838750855
1.011149875568471 -1.269805800106041
1.0097201032364418 -1.5202162405102115
1.0071075591532532 -1.7693003290143918
1.0026063597979433 -2.0162247710943406
0.9955406729510342 -2.2598034085290712
0.985300566730423 -2.4983760015342398
0.9713642249315722 -2.7297783801285687
0.9532737457597336 -2.951405016595327
0.9305965077269536 -3.160321665966682
0.9028980580178674 -3.3533356302434028
0.8697674200764016 -3.527082203595218
0.8309759228754463 -3.6781610486410194
0.7868982222227301 -3.8033397991196445
0.7391131223439974 -3.8998690911407228
0.6910001977304849 -3.966060418773537
0.6482250944821513 -4.002345753466065
0.6054499912338215 -3.9660604187733997
0.5573370666203205 -3.8998690911404505
0.5095519667416061 -3.803339799119255
0.4654742660889145 -3.6781610486405394
0.4266827688879869 -3.52708220359467
0.3935521309465501 -3.353335630242804
0.36585368123749284 -3.1603216659660522
0.343176443204742 -2.9514050165946855
0.3250859640329318 -2.7297783801279327
0.3111496222341064 -2.4983760015336305
0.3009095160135164 -2.2598034085284997
0.29384382916662427 -2.0162247710938157
0.28934262981132647 -1.7693003290139209
0.28673008572814546 -1.5202162405097999
0.2853003133961201 -1.2698058001056953
0.2844768342620995 -1.0186391838748041
0.28392438825596666 -0.7670318289473496
0.28355182319849875 -0.5151533125122515
0.2833655692368702 -0.26321113648068406
0.28334447019047654 -0.011506588061206842
1.075970923129189 -0.011522946208917681
1.0759313176647618 -0.263215168154755
1.075725454009008 -0.51512286143932
1.075311933985796 -0.7669771803420522
1.0746861363346538 -1.018557092090807
1.0737011988775607 -1.269649069413776
1.0719280459948095 -1.519858296905069
1.0687054564063172 -1.768556578313046
1.0632847179666052 -2.0149060164191273
1.0549020816378338 -2.2577335301021915
1.042852935721663 -2.4954015312185174
1.0265177925662026 -2.7257668045314802
1.0053441723073853 -2.9462356060908226
0.9788191325177645 -3.153877525759426
0.9464550013348849 -3.3455024418696966
0.9078105057209933 -3.5177641414417673
0.8626361687340188 -3.6673482593552778
0.8112945952364676 -3.791251334022532
0.7555031843516735 -3.8871290137161503
0.6990386944260392 -3.9538388866498617
0.6482250944821366 -3.992458724365865
0.5974114945382386 -3.9538388866497267
0.5409470046126178 -3.887129013715883
0.48515559372784534 -3.791251334022148
0.4338140202303224 -3.6673482593548052
0.3886396832433795 -3.517764141441227
0.3499951876295212 -3.345502441869105
0.3176310564466752 -3.1538775257588036
0.2911060166570879 -2.9462356060901884
0.26993239639830297 -2.725766804530851
0.25359725324287197 -2.4954015312179143
0.24154810732672538 -2.2577335301016253
0.23316547099797336 -2.014906016418606
0.22774473255827574 -1.7685565783125774
0.22452214296979256 -1.5198582969046583
0.22274899008704638 -1.2696490694134308
0.221764052629955 -1.0185570920905254
0.22113825497881331 -0.766977180341837
0.22072473495560152 -0.5151228614391694
0.22051887129984787 -0.26321516815467044
0.22047926583542107 -0.011522946208899987
1.1388523656358254 -0.011527758926885819
1.1388015704495207 -0.2632129284474482
1.138580536624469 -0.5150887326128879
1.1381277389297375 -0.7669184768580224
1.1374232162917153 -1.0184623446222445
1.1362509104328768 -1.2694462266964563
1.1340923686312128 -1.5193922115476366
1.1302436266747753 -1.7676338557128488
1.123896525681824 -2.0133223936970155
1.11420273490339 -2.2552906270178004
1.1003581187143259 -2.4919216364855585
1.0816401147738526 -2.721092577725972
1.0573996875819887 -2.940223879300576
1.0270400239916262 -3.1463938418815443
0.9900222299680002 -3.336424738543225
0.9459238848382746 -3.507000367582957
0.8945514093320716 -3.6548894311597016
0.836241478910593 -3.7773063705681436
0.7725907724732992 -3.8723526299945537
0.7075916793241711 -3.9395220241744084
0.6482250944821216 -3.980619398152058
0.5888585096400776 -3.939522024174276
0.5238594164909652 -3.8723526299942908
0.4602087100536966 -3.7773063705677665
0.40189877963225035 -3.654889431159236
0.35052630412608315 -3.507000367582426
0.306427958996395 -3.336424738542642
0.26941016497280706 -3.146393841880931
0.23905050138248235 -2.9402238792999507
0.21481007419065495 -2.7210925777253516
0.19609207025021458 -2.491921636484962
0.1822474540611779 -2.25529062701724
0.17255366328276533 -2.0133223936964986
0.1662065622898305 -1.7676338557123834
0.16235782033340385 -1.519392211547228
0.1601992785317459 -1.2694462266961115
0.15902697267290974 -1.0184623446219632
0.15832245003488812 -0.7669184768578073
0.15786965234015693 -0.5150887326127374
0.15764861851510564 -0.26321292844736366
0.15759782332880082 -0.011527758926868116
1.2017489122928902 -0.01152661215276303
1.2016976818476979 -0.26320563578841605
1.2014705682182318 -0.515051525087259
1.2009788461937132 -0.7668554938891958
1.2001821492530125 -1.0183507396352902
1.1987899605117578 -1.2691839252069774
1.1962192459125995 -1.518809105656114
1.1917354028628924 -1.7665290500488255
1.184467661080169 -2.0114739052936814
1.173481624167473 -2.2524777005475847
1.157868650521296 -2.4879404658134314
1.1367981810946552 -2.7157602419648916
1.1095192143745496 -2.9333737253336643
1.0753521767695773 -3.1378742385789886
1.033720195644595 -3.3261099068187607
0.9842259266250503 -3.494813447722872
0.9267972823239603 -3.640844973441017
0.8618811812622854 -3.7615995229194406
0.7908180893431207 -3.8555586380560376
0.7170099131164247 -3.922980288676198
0.6482250944821063 -3.9666294680278242
0.5794402758477948 -3.9229802886760683
0.5056320996211164 -3.8555586380557805
0.4345690077019804 -3.7615995229190715
0.36965290664034217 -3.6408449734405606
0.31222426233929274 -3.4948134477223496
0.26272999331979 -3.3261099068181883
0.22109801219485004 -3.137874238578385
0.18693097458991953 -2.933373725333048
0.15965200786985476 -2.71576024196428
0.13858153844325014 -2.487940465812843
0.12296856479710364 -2.2524777005470304
0.11198252788443165 -2.0114739052931694
0.10471478610172635 -1.766529050048363
0.10023094305203151 -1.5188091056557074
0.09766022845288037 -1.2691839252066337
0.09626803971162887 -1.018350739635009
0.09547134277092865 -0.7668554938889808
0.09497962074641068 -0.5150515250871085
0.09475250711694484 -0.2632056357883315
0.09470127667175267 -0.011526612152745303
1.2646554978506026 -0.01152498006317477
1.2646207240058396 -0.2631958454961067
1.2644047628991288 -0.5150125167631768
1.2638703545681451 -0.7667862933162672
1.2629572605178303 -1.0182142393949707
1.261315013518555 -1.268852639991913
1.2583171616040063 -1.5181041392519314
1.253195665672664 -1.7652413341491897
1.2450238609657862 -2.009364184927774
1.2327775771463907 -2.2493013350369693
1.2154385058657693 -2.4834660168751284
1.1920575574550218 -2.7097771905519257
1.1617802204860228 -2.925692604792101
1.1238580087373744 -3.12832879525103
1.0776731587754138 -3.314570463451136
1.0228501210524361 -3.4812201933372258
0.9594394609705424 -3.625255207373447
0.8881296900667005 -3.7442408012323285
0.8103884806273579 -3.836914839883063
0.7285666997919819 -3.904059465163029
0.6482250944820906 -3.949999999999994
0.5678834891722071 -3.904059465162903
0.4860617083368508 -3.836914839882812
0.4083204988975409 -3.744240801231968
0.3370107279937408 -3.6252552073730007
0.2736000679118923 -3.481220193336715
0.21877703018896102 -3.3145704634505737
0.17259218022704723 -3.1283287952504377
0.13466996847844492 -2.9256926047914957
0.10439263150949095 -2.709777190551324
0.08101168309878345 -2.4834660168745484
0.06367261181819497 -2.249301335036422
0.051426327998825544 -2.0093641849272674
0.043254523291967543 -1.7652413341487312
0.038133027360639046 -1.5181041392515273
0.03513517544609862 -1.2688526399915703
0.033492928446826914 -1.0182142393946898
0.032579834396513255 -0.7667862933160522
0.03204542606552996 -0.5150125167630264
0.031829464958819664 -0.2631958454960222
0.0317946911140567 -0.011524980063157041
SCALARS Stress float 6
LOOKUP_TABLE default
-1251.5568644091663 -2053.4917143032644 -1576.4182961514862 -26.880719513701045 0.0 0.0
1357.4832033992807 797.6096769453504 1014.2975869640873 -20.768390823613807 0.0 0.0
616.0045764461074 163.11809845360347 251.60037396436974 -41.39773027521937 0.0 0.0
494.2538538134502 29.599444877990194 162.59243906769453 -1.2529594497104837 0.0 0.0
618.384514254442 79.80199263080799 252.3514782299374 2.7162871840091536 0.0 0.0
738.7037876870935 131.09486537001428 378.36143141569545 1.8063732845101002 0.0 0.0
867.5177361303209 185.0095772472311 499.9741292977062 0.5418892252428598 0.0 0.0
999.5958919975388 255.96548455373306 613.2562505325833 -0.9000257755847415 0.0 0.0
1140.975418077188 341.80442545299684 729.668380391284 -2.569001485698697 0.0 0.0
1299.269783732487 449.19024709576746 862.993733791296 -4.380450076317529 0.0 0.0
1479.9607383337836 583.2339641173578 1020.1908342813404 -6.10777291465191 0.0 0.0
1683.135800329091 744.3310719796896 1201.9457481468585 -7.455101781169941 0.0 0.0
1903.4580958471638 925.7662600191196 1402.385942154987 -8.279826583767905 0.0 0.0
2133.5753579473685 1119.9984381076124 1614.1383218396024 -8.90775831605032 0.0 0.0
2364.0306098836973 1317.3975901509475 1827.6474265846641 -9.31201399844301 0.0 0.0
2583.9256792141978 1507.1215020147897 2032.0725417630028 -9.414443318579627 0.0 0.0
2781.8895265053593 1678.2101022450834 2216.2946717993887 -9.048299330958173 0.0 0.0
2946.5729122104703 1819.8540987869346 2369.2568747422815 -8.156400330364642 0.0 0.0
3075.8779430052055 1930.544831636963 2489.0399356180374 -7.063338218788932 0.0 0.0
3155.3844259632106 1996.710106867984 2561.6519583698273 -9.03161752029007 0.0 0.0
3146.510797405158 1986.7375609594426 2552.436613906454 5.561950899846124e-11 0.0 0.0
3155.384425961534 1996.7101068663042 2561.6519583686813 9.03161752019335 0.0 0.0
3075.877943006692 1930.5448316385507 2489.039935618977 7.063338218931808 0.0 0.0
2946.572912210644 1819.8540987871856 2369.256874742197 8.156400330261338 0.0 0.0
2781.889526501962 1678.2101022417978 2216.294671796767 9.048299330963058 0.0 0.0
2583.925679213652 1507.1215020143957 2032.0725417623244 9.414443318536826 0.0 0.0
2364.030609881808 1317.39759014919 1827.647426583067 9.312013998592606 0.0 0.0
2133.575357945592 1119.9984381060376 1614.1383218381418 8.907758315977064 0.0 0.0
1903.4580958451393 925.7662600172843 1402.3859421534198 8.279826583988715 0.0 0.0
1683.135800328518 744.3310719793599 1201.9457481463007 7.4551017812851725 0.0 0.0
1479.9607383326074 583.2339641164167 1020.1908342802952 6.107772914674593 0.0 0.0
1299.2697837310166 449.1902470945722 862.9937337901878 4.380450076242983 0.0 0.0
1140.9754180757614 341.8044254518094 729.6683803901769 2.5690014857666092 0.0 0.0
999.595891997327 255.96548455380224 613.2562505323482 0.9000257754149406 0.0 0.0
867.5177361305059 185.00957724774054 499.974129297574 -0.5418892252072389 0.0 0.0
738.7037876865395 131.09486536985014 378.361431415149 -1.8063732846587452 0.0 0.0
618.3845142536991 79.8019926302426 252.35147822934186 -2.7162871838157123 0.0 0.0
494.2538538132569 29.599444878063018 162.59243906762427 1.2529594498427175 0.0 0.0
616.0045764459272 163.11809845357135 251.60037396423496 41.39773027510504 0.0 0.0
1357.4832033991368 797.609676945141 1014.297586963714 20.768390823599105 0.0 0.0
-1251.5568644064092 -2053.4917143006337 -1576.418296148785 26.88071951283845 0.0 0.0
-1593.8394582617368 -2367.142319159034 -1873.1195895537169 -28.76651171833247 0.0 0.0
926.3995030568208 440.3766628803439 636.9260105229316 -28.719241874106416 0.0 0.0
430.16445339954583 64.44371788747858 147.22952505910288 -35.850174133339955 0.0 0.0
435.2237525876302 6.513542989753172 134.74797603951828 -15.677862983660884 0.0 0.0
548.4059171543493 35.72959542996127 203.11908241532075 -16.50997361256414 0.0 0.0
650.2519907822245 51.3368209935915 298.3423069026791 -22.124519813297912 0.0 0.0
737.5450037972648 70.07583033303588 386.1435186151632 -23.79224679845673 0.0 0.0
821.3055719972097 91.06381830777548 451.73773227592187 -24.177410483234194 0.0 0.0
898.0882941646347 111.68321270458364 503.3322174755625 -24.782708510891506 0.0 0.0
969.7153852400277 132.66077654497926 550.2836496238715 -25.56383994030267 0.0 0.0
1038.9514497096632 155.92407645052225 596.7153985979926 -25.99655573297783 0.0 0.0
1107.9047461434666 182.67923097253743 644.6135677107527 -25.98835020109325 0.0 0.0
1176.110800682815 213.03719028860945 693.9117699626488 -25.58374163395952 0.0 0.0
1240.944982622538 242.43445765164915 741.0336536275937 -24.987451858258446 0.0 0.0
1296.9155608742935 265.81250088893074 780.7114334264916 -24.22385741737549 0.0 0.0
1339.5600799518138 278.6983566939178 808.4815141458805 -23.072646729146765 0.0 0.0
1366.0398691303662 278.5348633556194 821.6431916431754 -21.285087259905207 0.0 0.0
1376.6661709812354 266.1491491459908 820.7601862098716 -18.888885853676104 0.0 0.0
1366.5123818907919 237.4110180481468 801.416259702273 -16.57752928726995 0.0 0.0
1295.3799734773297 153.39781902912634 724.5471986849514 -16.982685343485613 0.0 0.0
1175.6021148593074 33.294863409129945 605.7335961511506 -6.52811138479592e-13 0.0 0.0
1295.3799734762895 153.39781902813442 724.5471986841994 16.982685343514966 0.0 0.0
1366.5123818912862 237.41101804870206 801.4162597026778 16.577529287509122 0.0 0.0
1376.666170981719 266.1491491465352 820.7601862103096 18.88888585363433 0.0 0.0
1366.0398691290104 278.53486335439027 821.6431916422843 21.28508725983129 0.0 0.0
1339.560079951489 278.6983566937059 808.4815141456346 23.072646729103944 0.0 0.0
1296.915560872903 265.812500887697 780.7114334255303 24.223857417404403 0.0 0.0
1240.9449826218076 242.43445765111088 741.0336536270072 24.9874518583362 0.0 0.0
1176.1108006823063 213.03719028832035 693.9117699623431 25.583741634108822 0.0 0.0
1107.9047461436116 182.67923097294627 644.6135677108779 25.988350201149167 0.0 0.0
1038.9514497092014 155.92407645028038 596.7153985976988 25.99655573299468 0.0 0.0
969.7153852392129 132.66077654442194 550.2836496233482 25.56383994022334 0.0 0.0
898.0882941645567 111.68321270478037 503.33221747545286 24.782708510870492 0.0 0.0
821.305571997302 91.06381830816218 451.73773227593364 24.17741048321197 0.0 0.0
737.545003797017 70.07583033304994 386.1435186148891 23.79224679837237 0.0 0.0
650.2519907820953 51.33682099385189 298.3423069024216 22.12451981325068 0.0 0.0
548.4059171539395 35.72959542980398 203.11908241501055 16.509973612594848 0.0 0.0
435.2237525873535 6.513542989639875 134.74797603940823 15.67786298371644 0.0 0.0
430.16445339942254 64.44371788749878 147.22952505906764 35.850174133169396 0.0 0.0
926.3995030561803 440.3766628797464 636.9260105222359 28.719241874078158 0.0 0.0
-1593.8394582597737 -2367.1423191569916 -1873.119589551636 28.766511717714465 0.0 0.0
-1335.8694505938008 -2074.358899210395 -1587.9980151680961 -67.07838299923635 0.0 0.0
740.2923056548655 349.1603355858428 492.99494856345086 -96.98702954558368 0.0 0.0
298.88952105019706 73.27846566989751 111.68036215876603 -39.126088786978436 0.0 0.0
373.42333960317046 1.5529082205226425 112.50945746741229 -37.32418428113168 0.0 0.0
503.2795076204138 26.05578399237918 173.8039448475962 -38.93931386899968 0.0 0.0
616.7586043340548 45.882025957113775 267.1852149738165 -41.9970864716568 0.0 0.0
707.709042737149 65.06787958523833 361.8182462644187 -44.155473710988964 0.0 0.0
791.5392750882035 82.35761533242146 430.2824140721994 -45.075202116401705 0.0 0.0
865.4398642643011 99.46217681028313 480.32809938519375 -46.37918578685778 0.0 0.0
933.1652356384441 116.42587771078206 523.5676511463089 -47.5439428966577 0.0 0.0
998.8870663574794 136.62770989770675 566.7315909969025 -47.834677153207664 0.0 0.0
1064.6888194049825 161.41117932317798 612.0686447500085 -47.30673707925522 0.0 0.0
1130.2005341331026 188.81576557291538 658.564536559588 -46.3885699445873 0.0 0.0
1191.5572155849645 215.9108194409095 702.8180593602891 -45.18478282748765 0.0 0.0
1245.5700931773893 237.83007769343064 740.7832781337229 -43.67502058568951 0.0 0.0
1287.9242117445988 250.79806908945176 768.4350398456875 -41.58097063985822 0.0 0.0
1316.0621748620035 252.4419500059409 783.3325456616947 -38.55309686102189 0.0 0.0
1326.2088082098978 239.53257592191187 782.0242374267972 -34.76311988738097 0.0 0.0
1305.86573483773 200.60428737897305 752.6610097526924 -31.14058240728821 0.0 0.0
1265.433989949463 147.54482982329824 706.2730625036121 -28.66802318212506 0.0 0.0
1125.2686318013912 7.718450929732967 567.5998563131545 -4.247802110057819e-11 0.0 0.0
1265.4339899494937 147.54482982338536 706.2730625035774 28.66802318213789 0.0 0.0
1305.8657348374322 200.60428737877635 752.6610097524979 31.14058240752763 0.0 0.0
1326.2088082100404 239.532575922114 782.0242374269527 34.763119887476144 0.0 0.0
1316.0621748611675 252.44195000524584 783.3325456610492 38.55309686103112 0.0 0.0
1287.9242117447498 250.79806908976303 768.4350398458203 41.58097064002624 0.0 0.0
1245.5700931773822 237.8300776936255 740.7832781336261 43.67502058579267 0.0 0.0
1191.5572155840737 215.91081944020385 702.8180593596717 45.18478282766358 0.0 0.0
1130.200534134099 188.81576557415173 658.5645365602702 46.388569944697835 0.0 0.0
1064.688819404673 161.4111793230582 612.0686447497893 47.30673707909189 0.0 0.0
998.8870663573084 136.62770989780455 566.7315909968312 47.834677153252514 0.0 0.0
933.1652356380224 116.42587771065627 523.5676511460343 47.543942896743424 0.0 0.0
865.4398642647466 99.46217681102212 480.32809938545927 46.37918578701079 0.0 0.0
791.5392750878175 82.35761533233796 430.2824140719003 45.075202116437346 0.0 0.0
707.709042736448 65.06787958478179 361.81824626383906 44.155473710877246 0.0 0.0
616.7586043340507 45.88202595757288 267.18521497367277 41.99708647187343 0.0 0.0
503.27950761962825 26.055783991749845 173.80394484709205 38.93931386893986 0.0 0.0
373.4233396030683 1.5529082207341303 112.50945746744925 37.32418428114194 0.0 0.0
298.88952105018194 73.27846566961503 111.68036215867713 39.126088786918686 0.0 0.0
740.2923056542077 349.1603355854144 492.99494856278807 96.98702954541658 0.0 0.0
-1335.8694505916396 -2074.3588992081513 -1587.9980151658758 67.07838299897023 0.0 0.0
-1093.3001026288373 -1801.114997802069 -1324.0613275030905 -80.73599458805242 0.0 0.0
565.4899454667556 253.3837095049445 363.2568961576765 -145.57058396776853 0.0 0.0
216.8885970264226 62.23926272305141 83.73835792484218 -60.75064101623209 0.0 0.0
310.47910058436 7.206165454599298 95.15170954912682 -59.72763999475548 0.0 0.0
447.8065902750413 14.89976566436719 144.3855091421795 -63.83790935481102 0.0 0.0
570.8115703931808 38.98002759004021 231.25764625205431 -63.18347024083136 0.0 0.0
674.5259703601345 58.10210379533487 331.6187960836738 -65.84956946679246 0.0 0.0
756.8830795460273 73.82345015024802 405.0298902020754 -66.19812655294331 0.0 0.0
828.697714339607 87.4764134057783 454.96018353761025 -67.6227155805799 0.0 0.0
892.9065800728009 100.80683804495527 495.1650840471526 -68.77953229025957 0.0 0.0
954.7677932300869 117.63545550729711 534.7764808298791 -68.74230645227246 0.0 0.0
1017.4908080756902 139.4598465168901 577.0945962149095 -67.80439290734115 0.0 0.0
1079.7182934157352 164.9031309352246 621.0018853687083 -66.37272508387834 0.0 0.0
1138.1418237387406 188.69030235907655 662.1513785644074 -64.67842276294836 0.0 0.0
1189.804327368465 208.9628925307871 698.1130455688691 -62.49391769425528 0.0 0.0
1232.5437101579366 222.86428435855396 726.4212823601038 -59.56544445472558 0.0 0.0
1262.0939578814937 225.80292975758738 742.6911324226451 -55.693254904103334 0.0 0.0
1271.6475224148737 212.0891265930028 740.7534590746095 -50.997014114600724 0.0 0.0
1257.5952482616092 179.16241924099444 717.5008349123925 -45.666137847374515 0.0 0.0
1233.3484055293738 141.6249893143389 686.8036070368142 -38.85145537983137 0.0 0.0
1037.0885602577541 -53.88328289757338 492.96438269500607 1.8399504142507794e-11 0.0 0.0
1233.3484055295478 141.62498931457458 686.8036070368968 38.85145537990551 0.0 0.0
1257.5952482618864 179.1624192413566 717.5008349126164 45.66613784758106 0.0 0.0
1271.6475224153241 212.08912659351438 740.7534590750771 50.99701411462387 0.0 0.0
1262.093957880562 225.8029297567196 742.6911324218582 55.69325490396274 0.0 0.0
1232.5437101596576 222.8642843604775 726.4212823614055 59.56544445481917 0.0 0.0
1189.8043273694395 208.96289253192737 698.1130455695262 62.49391769435636 0.0 0.0
1138.14182373797 188.6903023584938 662.1513785638545 64.67842276303092 0.0 0.0
1079.7182934161324 164.90313093578243 621.001885368996 66.3727250837931 0.0 0.0
1017.490808075761 139.45984651716904 577.0945962149958 67.80439290724699 0.0 0.0
954.7677932295746 117.63545550702541 534.7764808295769 68.74230645226126 0.0 0.0
892.9065800724411 100.806838044883 495.16508404692263 68.77953229031016 0.0 0.0
828.6977143387986 87.47641340523663 454.9601835371031 67.6227155806668 0.0 0.0
756.8830795450426 73.8234501494916 405.02989020137665 66.19812655287154 0.0 0.0
674.5259703595427 58.1021037950794 331.6187960831604 65.84956946681227 0.0 0.0
570.8115703930675 38.98002759041718 231.25764625187378 63.18347024092694 0.0 0.0
447.80659027430096 14.89976566374533 144.38550914174877 63.83790935470623 0.0 0.0
310.4791005843598 7.206165454856791 95.15170954920279 59.72763999471382 0.0 0.0
216.8885970261933 62.23926272263646 83.73835792464892 60.75064101619377 0.0 0.0
565.4899454661359 253.38370950458088 363.2568961570804 145.5705839675232 0.0 0.0
-1093.3001026270283 -1801.114997800205 -1324.0613275011385 80.73599458777298 0.0 0.0
-882.2663026222826 -1563.892298684315 -1092.0735741024698 -79.40052792771925 0.0 0.0
436.53803097281065 168.87012106362045 261.7798597280809 -177.8695499175052 0.0 0.0
158.87482858879434 48.8317996633246 62.31198847563569 -91.21509666133063 0.0 0.0
253.34135378127164 13.411854413119702 80.02490711892072 -84.04230221314427 0.0 0.0
382.6994478093578 8.537911480190532 118.19857457417761 -89.76821763788095 0.0 0.0
515.8871459639863 26.47155675582596 191.39438927356974 -88.50974358324792 0.0 0.0
629.7619231577363 49.78978237980184 293.13039523099695 -87.7667404283015 0.0 0.0
716.4061979190657 65.96775625841173 375.2262097088903 -87.73933850865015 0.0 0.0
787.1821256100071 76.07535432297391 426.6624519363987 -88.45628276306537 0.0 0.0
848.0163799827757 85.55752714968389 464.3580483797284 -89.22983598562755 0.0 0.0
906.405481166108 98.77628623122926 500.59932463913685 -88.75311343524953 0.0 0.0
965.5207975691487 117.46919895313314 539.5708648829547 -87.38578057986165 0.0 0.0
1024.546378651958 139.69865999436456 580.2977766193302 -85.61585585109368 0.0 0.0
1079.8887243217941 161.90574052115173 619.1547870200898 -83.41356831532713 0.0 0.0
1129.4805556129636 180.08626867080872 653.0491107112243 -80.6130798689321 0.0 0.0
1171.436286806783 192.9933414241583 680.4544175705602 -77.07982678816862 0.0 0.0
1202.7030727314188 197.99970646075357 698.6272898836628 -72.6917219677012 0.0 0.0
1217.236150437468 188.9891656917106 701.5383022826765 -67.32523685838214 0.0 0.0
1211.2761957864052 163.3441879353061 685.9497459671302 -60.08115536957639 0.0 0.0
1194.7174388725457 131.98770936671656 662.1287557939559 -49.29053035835573 0.0 0.0
929.5880139627901 -131.85778893161427 400.6896623227221 4.11404244005098e-11 0.0 0.0
1194.7174388725512 131.98770936672912 662.1287557940043 49.290530358353614 0.0 0.0
1211.2761957862267 163.34418793523344 685.9497459671613 60.081155369727256 0.0 0.0
1217.2361504366565 188.98916569095803 701.5383022823561 67.32523685848324 0.0 0.0
1202.7030727310603 197.9997064605029 698.6272898832782 72.69172196768302 0.0 0.0
1171.4362868079527 192.99334142556216 680.4544175714381 77.07982678841536 0.0 0.0
1129.4805556133856 180.08626867139418 653.0491107115424 80.61307986899932 0.0 0.0
1079.8887243221338 161.90574052167455 619.1547870202492 83.41356831538546 0.0 0.0
1024.5463786519813 139.69865999460512 580.2977766193183 85.6158558510807 0.0 0.0
965.5207975693587 117.46919895358351 539.5708648831384 87.38578057995753 0.0 0.0
906.4054811647726 98.7762862300477 500.5993246381984 88.75311343508343 0.0 0.0
848.0163799820534 85.55752714918933 464.3580483793055 89.22983598560494 0.0 0.0
787.182125609381 76.07535432255244 426.66245193596717 88.45628276292904 0.0 0.0
716.4061979181686 65.96775625775967 375.22620970821265 87.73933850854976 0.0 0.0
629.7619231571119 49.78978237953042 293.13039523044597 87.76674042825898 0.0 0.0
515.8871459635092 26.47155675569438 191.3943892732172 88.50974358328092 0.0 0.0
382.69944780892007 8.537911480043777 118.19857457401284 89.76821763783927 0.0 0.0
253.3413537811161 13.411854412652138 80.02490711872883 84.04230221297334 0.0 0.0
158.87482858873207 48.831799663230065 62.311988475588656 91.21509666110187 0.0 0.0
436.53803097216615 168.87012106323684 261.77985972752896 177.86954991731318 0.0 0.0
-882.2663026206807 -1563.8922986825842 -1092.0735741007004 79.40052792751283 0.0 0.0
-696.5934978913226 -1354.2574412705735 -885.6349939359575 -75.35798460280445 0.0 0.0
335.1550549766887 103.13889468837168 183.58603185723013 -196.85053396270126 0.0 0.0
115.08071620336277 33.711246676930884 44.637588864088094 -120.39028804321698 0.0 0.0
202.25173500077426 18.17853900889898 66.13276137893213 -108.64823692950341 0.0 0.0
313.39311692161175 5.888846837936914 95.17816007448614 -115.31669567657259 0.0 0.0
446.1759721671029 15.091947137441226 152.11836736427742 -114.97875429354045 0.0 0.0
568.5922768788153 40.697339695929415 247.0145704667972 -110.99895262894785 0.0 0.0
668.4127168576872 55.5990611975236 336.779444217133 -110.31906546115542 0.0 0.0
737.9913173077168 65.1103505667063 393.383973261535 -108.85297550998503 0.0 0.0
797.6967545379001 70.49324438721594 430.3638721758433 -108.89794162798077 0.0 0.0
852.5616907110999 80.02107849668205 463.4488104212605 -107.8424844169989 0.0 0.0
908.1007912349942 95.52186920935175 499.09520945189394 -106.00953247562798 0.0 0.0
963.5546972178795 114.94301419265123 536.6704206914311 -103.88602941294033 0.0 0.0
1015.7045191903667 133.89623982346816 572.3396697631862 -101.39401251401226 0.0 0.0
1062.8831997969494 150.40966861075236 604.2263645028858 -98.10848297638249 0.0 0.0
1103.7536773347454 162.81181283281575 630.8580344655888 -93.94797029788191 0.0 0.0
1137.1895965271692 169.25548787979204 650.7926878167825 -89.30502059679756 0.0 0.0
1159.3631107831143 167.63766739331078 661.1866436463923 -83.59344672964666 0.0 0.0
1163.009656946177 150.66570642678127 654.7563396432427 -74.87592997734669 0.0 0.0
1151.1123597298947 121.6137453579725 634.4246687698469 -60.738747187331164 0.0 0.0
804.6184302350343 -222.61039400463366 293.5099603782909 3.410605131648481e-13 0.0 0.0
1151.1123597300552 121.6137453581895 634.4246687700443 60.738747187348835 0.0 0.0
1163.0096569455084 150.66570642618785 654.756339642889 74.87592997748773 0.0 0.0
1159.363110782242 167.6376673925344 661.1866436458524 83.5934467296826 0.0 0.0
1137.1895965268648 169.25548787958382 650.7926878165243 89.30502059694243 0.0 0.0
1103.7536773354473 162.81181283373672 630.8580344660982 93.94797029800917 0.0 0.0
1062.8831997970688 150.4096686110218 604.2263645029153 98.10848297645894 0.0 0.0
1015.7045191903414 133.89623982359984 572.3396697631617 101.39401251397966 0.0 0.0
963.5546972183027 114.94301419330787 536.6704206916814 103.88602941306843 0.0 0.0
908.1007912349633 95.52186920961303 499.0952094518845 106.00953247569562 0.0 0.0
852.561690710401 80.0210784962306 463.4488104207229 107.84248441704834 0.0 0.0
797.6967545366432 70.49324438610695 430.36387217503193 108.89794162787688 0.0 0.0
737.9913173072955 65.11035056654288 393.383973261268 108.85297550996088 0.0 0.0
668.4127168571846 55.59906119723953 336.77944421669537 110.31906546105705 0.0 0.0
568.5922768785872 40.697339696133795 247.014570466507 110.99895262891262 0.0 0.0
446.17597216649006 15.091947137021764 152.11836736387588 114.97875429346425 0.0 0.0
313.393116921335 5.888846837979377 95.1781600744411 115.31669567657826 0.0 0.0
202.25173500061996 18.178539008782217 66.13276137885096 108.64823692932805 0.0 0.0
115.08071620330922 33.71124667697486 44.63758886408521 120.390288043049 0.0 0.0
335.1550549762269 103.13889468820922 183.58603185685757 196.85053396258215 0.0 0.0
-696.5934978899297 -1354.2574412690506 -885.6349939344059 75.3579846026635 0.0 0.0
-535.9205955714215 -1163.1377570784452 -702.0112728696834 -71.67847236571659 0.0 0.0
254.9097095231103 51.290913246981354 123.58626424677512 -208.6944390487851 0.0 0.0
79.93099226325496 19.126119871981487 29.7169799326995 -144.50122843152528 0.0 0.0
154.62737075016173 21.367579618433954 52.79955426654165 -131.41981191901903 0.0 0.0
244.22809064514584 6.528230558369148 74.88133771224142 -137.6896776846061 0.0 0.0
365.8127794974363 3.9773944883957872 114.7273409625399 -144.06303552410162 0.0 0.0
493.04333020004503 26.537188123888516 194.00238320907266 -137.56073787136876 0.0 0.0
601.7047221448983 46.077846184584274 286.9291836158038 -132.67519383271215 0.0 0.0
681.9562965763737 51.42103074567986 351.9739154999489 -130.59211847367067 0.0 0.0
738.6594501484692 55.61153467599186 390.90552854404484 -127.6579618361872 0.0 0.0
791.8460977273378 61.45827264476856 422.31101106096474 -125.91447878216428 0.0 0.0
843.772505268153 73.54100504654821 454.65940437271155 -123.62884397505012 0.0 0.0
895.1925677155332 89.64168794448588 488.64530213447586 -121.17019078380902 0.0 0.0
943.9140813787602 106.11866524986554 521.4026048822114 -118.44618784681448 0.0 0.0
988.1833665441463 120.31937046906671 550.7437734762265 -114.9205160758289 0.0 0.0
1027.1881384751107 130.27453591156737 575.2478217802868 -110.4296982482477 0.0 0.0
1062.476894912347 139.70252498950177 597.5546030973048 -105.1944848701917 0.0 0.0
1094.50949205332 146.96611236351993 617.2363472579592 -99.54396382558167 0.0 0.0
1110.2600903099603 140.17747820237625 621.9643540295482 -90.45336215065798 0.0 0.0
1103.0638971483631 112.95564187322121 604.9996815691763 -74.00722520895617 0.0 0.0
660.4299591098568 -325.29212931501263 171.03818984594622 3.425171257731563e-11 0.0 0.0
1103.0638971493863 112.95564187432694 604.9996815698792 74.00722520913105 0.0 0.0
1110.2600903091236 140.1774782017252 621.9643540290444 90.45336215094065 0.0 0.0
1094.5094920529164 146.96611236322818 617.2363472576494 99.54396382578074 0.0 0.0
1062.4768949115166 139.70252498878406 597.5546030967822 105.1944848703013 0.0 0.0
1027.188138476423 130.27453591314904 575.2478217813111 110.42969824846102 0.0 0.0
988.1833665441594 120.31937046936471 550.7437734761876 114.92051607609942 0.0 0.0
943.9140813777876 106.11866524889174 521.4026048814848 118.44618784667627 0.0 0.0
895.1925677154065 89.64168794462083 488.6453021343957 121.17019078389103 0.0 0.0
843.7725052683587 73.54100504706322 454.659404372882 123.6288439751351 0.0 0.0
791.8460977268742 61.458272644487764 422.3110110606122 125.91447878219566 0.0 0.0
738.6594501480273 55.611534675773484 390.9055285437609 127.65796183607424 0.0 0.0
681.9562965759985 51.42103074564113 351.97391549963237 130.59211847370992 0.0 0.0
601.7047221442928 46.07784618430421 286.9291836153341 132.6751938327002 0.0 0.0
493.04333019969584 26.537188123925578 194.00238320875124 137.5607378713569 0.0 0.0
365.812779496789 3.9773944878354315 114.72734096214336 144.06303552392018 0.0 0.0
244.22809064501314 6.528230558552565 74.88133771225664 137.68967768436394 0.0 0.0
154.62737075002897 21.367579618357563 52.799554266478495 131.4198119188106 0.0 0.0
79.9309922632222 19.12611987204859 29.716979932709968 144.50122843137 0.0 0.0
254.90970952265616 51.29091324678481 123.5862642464486 208.69443904860591 0.0 0.0
-535.9205955702802 -1163.1377570770844 -702.0112728683588 71.67847236562173 0.0 0.0
-394.29747133899093 -996.5181034520381 -539.5731187749222 -76.04380964852507 0.0 0.0
186.88728816322674 12.068045006273659 76.86262003550894 -212.3873462290454 0.0 0.0
49.98114038698157 7.135810047105139 17.13497791373806 -162.70164194278462 0.0 0.0
108.63262768942924 22.728113583576974 39.40982080845727 -150.93347398976638 0.0 0.0
178.69371530036386 8.513048811881271 55.97657412230915 -157.06452123763765 0.0 0.0
274.94999586437183 -0.9717214262724776 82.20187365427573 -170.00983181758818 0.0 0.0
396.73102957841814 11.085767489753705 138.62619139592698 -166.4136947837368 0.0 0.0
514.3259702300061 31.214481982951554 222.80747581015086 -156.59480765346333 0.0 0.0
605.524162162806 39.397474453125064 296.62599377503335 -150.98004404314403 0.0 0.0
669.0360479785401 38.286347333741894 341.54395517706166 -146.910016143477 0.0 0.0
719.7715885114692 42.16714403340178 373.3969318618278 -142.8502448780051 0.0 0.0
768.7293181679902 51.66516918427742 403.74586473149753 -139.98473273435562 0.0 0.0
816.2434931688035 64.36214298378624 434.31882981372667 -137.19355114704106 0.0 0.0
860.5420086438332 77.5257336074747 463.28743426185895 -134.35270582738963 0.0 0.0
901.9238005798284 89.46344313430501 490.1055350644296 -130.94622843755621 0.0 0.0
938.7503836858727 98.3902844641733 513.1255822236091 -126.30888095900868 0.0 0.0
973.7276324855401 106.19151142663026 534.5120054617581 -120.56577731728851 0.0 0.0
1014.650693183954 122.12031411846357 562.7659835288918 -114.74508779018211 0.0 0.0
1048.6135406186281 132.71081229641277 585.274257887469 -106.68283719181093 0.0 0.0
1050.9140156021979 110.8738485444524 576.0396449913652 -90.10543298154631 0.0 0.0
491.38272695850895 -439.39142052048146 30.86484247217939 -7.675637903048482e-11 0.0 0.0
1050.914015603293 110.87384854564003 576.0396449921718 90.10543298164166 0.0 0.0
1048.6135406181857 132.71081229623044 585.2742578871714 106.6828371921126 0.0 0.0
1014.6506931832098 122.12031411784622 562.7659835283839 114.74508779042432 0.0 0.0
973.7276324848686 106.19151142608123 534.512005461221 120.56577731739358 0.0 0.0
938.7503836864063 98.39028446480631 513.125582224047 126.30888095908571 0.0 0.0
901.9238005799515 89.46344313464542 490.10553506453925 130.94622843764796 0.0 0.0
860.5420086440463 77.52573360796087 463.28743426197224 134.35270582743286 0.0 0.0
816.243493168731 64.36214298403036 434.31882981366 137.19355114732176 0.0 0.0
768.7293181678373 51.66516918422366 403.7458647314015 139.9847327342289 0.0 0.0
719.7715885101903 42.167144032110514 373.39693186091824 142.8502448778287 0.0 0.0
669.0360479790911 38.286347334721896 341.5439551774786 146.91001614354883 0.0 0.0
605.5241621627872 39.39747445343299 296.6259937749249 150.98004404315444 0.0 0.0
514.3259702296065 31.214481983023443 222.80747580984567 156.59480765349585 0.0 0.0
396.7310295778674 11.085767489214433 138.62619139545683 166.4136947835911 0.0 0.0
274.9499958641413 -0.9717214260668432 82.20187365427496 170.0098318173582 0.0 0.0
178.69371530010915 8.513048811551446 55.97657412213668 157.064521237429 0.0 0.0
108.63262768925104 22.72811358330354 39.40982080832241 150.93347398966432 0.0 0.0
49.98114038710922 7.135810047427344 17.13497791387293 162.7016419425872 0.0 0.0
186.88728816282793 12.068045005960117 76.86262003520855 212.38734622883297 0.0 0.0
-394.297471338088 -996.5181034508826 -539.5731187738417 76.04380964849018 0.0 0.0
-284.11333380098324 -836.638683140894 -405.895838635906 -81.59680965991461 0.0 0.0
128.5905804327905 -19.760662414217578 41.104062527596255 -209.73969332114257 0.0 0.0
22.18932974906269 -1.0634129560114556 6.339810441019874 -175.55679743753842 0.0 0.0
63.66204886737135 22.5446893711962 25.855612931778563 -166.49760662290925 0.0 0.0
114.16814666495414 11.559620715788423 37.623577991543655 -172.13911084872112 0.0 0.0
180.36109342373965 -0.07223780154835802 53.79228486103343 -188.93236202867357 0.0 0.0
277.61138657047576 -1.622789278796204 86.06421360387361 -197.44942381372158 0.0 0.0
396.11689148224275 10.144899692251041 145.7892859503341 -185.71025224556902 0.0 0.0
499.4638401976621 20.758802379983088 217.02037122837743 -171.4684122596753 0.0 0.0
572.7609207369104 20.919517309552486 270.8382372255959 -163.69388441374386 0.0 0.0
626.3379968826567 22.416433966396667 307.8808535568634 -158.00763849593937 0.0 0.0
673.3616795740442 28.692325759485456 337.95994853614366 -154.57555783896163 0.0 0.0
716.9668512413759 38.75082477227991 366.3497378037374 -151.50956756228987 0.0 0.0
756.4172620767341 48.58058217395867 391.6281430475329 -148.6657734375951 0.0 0.0
793.6382367007396 58.07737806609927 415.34740388377077 -145.70102385427617 0.0 0.0
829.1721172100777 66.4314566631595 437.6327318502114 -141.67132978832666 0.0 0.0
863.5089014157683 73.48920924673405 458.7387506041901 -135.73407513052615 0.0 0.0
905.2365234695178 88.62228022668063 487.09550971012777 -128.84302728070458 0.0 0.0
961.6143345027981 119.01307188767072 530.3232543686495 -122.77651510617294 0.0 0.0
992.1159513441743 120.50944339497752 547.4781543217914 -110.72627443654011 0.0 0.0
288.31176474361297 -560.5975787564989 -129.0455153266155 5.31947819126799e-11 0.0 0.0
992.1159513445932 120.50944339552245 547.4781543222826 110.72627443686588 0.0 0.0
961.6143345037335 119.01307188888944 530.3232543692201 122.77651510649099 0.0 0.0
905.2365234696845 88.62228022708402 487.0955097102763 128.84302728095298 0.0 0.0
863.5089014157252 73.4892092468284 458.73875060409136 135.7340751306814 0.0 0.0
829.1721172096034 66.43145666267732 437.6327318499323 141.67132978828613 0.0 0.0
793.6382367009684 58.07737806653211 415.3474038839387 145.7010238542642 0.0 0.0
756.4172620767147 48.58058217389558 391.6281430475153 148.66577343759295 0.0 0.0
716.9668512412757 38.750824772414305 366.3497378036383 151.5095675623131 0.0 0.0
673.3616795737897 28.69232575931352 337.9599485359711 154.57555783896305 0.0 0.0
626.3379968819996 22.41643396559176 307.8808535563052 158.00763849560985 0.0 0.0
572.7609207370537 20.919517310083382 270.8382372256823 163.6938844137514 0.0 0.0
499.46384019715856 20.758802379774338 217.02037122800292 171.4684122596448 0.0 0.0
396.11689148190396 10.144899692395363 145.78928595015256 185.7102522456925 0.0 0.0
277.61138656981177 -1.6227892793679821 86.0642136034737 197.44942381357848 0.0 0.0
180.361093423619 -0.07223780122469892 53.792284861114084 188.9323620284309 0.0 0.0
114.16814666474247 11.559620715540404 37.62357799141359 172.1391108484274 0.0 0.0
63.66204886729223 22.54468937123879 25.855612931765464 166.4976066227725 0.0 0.0
22.189329749054213 -1.0634129556913927 6.339810441112647 175.55679743734004 0.0 0.0
128.5905804323373 -19.76066241456155 41.10406252730363 209.73969332088717 0.0 0.0
-284.11333380035904 -836.6386831399086 -405.89583863508585 81.59680965989797 0.0 0.0
-195.38453074888943 -694.983303284468 -297.0435271376521 -95.20292205077757 0.0 0.0
76.13588756956467 -44.84260937324973 12.888849108887968 -201.07373468194967 0.0 0.0
-4.75536056587796 -4.821687411811297 -2.882433375881112 -183.13538980816122 0.0 0.0
19.31261457194731 21.29667931694381 12.181016563806601 -177.30397651665976 0.0 0.0
49.57545699369335 14.548303767385388 19.205204455549822 -182.82315661565374 0.0 0.0
86.94994974110452 3.416776901757887 26.988862803990074 -201.31044105484548 0.0 0.0
139.9342308290975 -2.3359729707067456 41.44050661937835 -217.45273509778988 0.0 0.0
223.8169511774775 -6.167750694288979 67.51427769040731 -218.3622644654594 0.0 0.0
329.46774372613817 -12.868597203691612 104.75196727813315 -201.8609376157196 0.0 0.0
417.01338309904247 -15.207763689911072 146.20302953581816 -179.70568443413137 0.0 0.0
476.01196113067 -6.337010722508069 185.51989717647675 -168.42048523580976 0.0 0.0
520.9173320616537 3.1244446964874015 218.4446229175488 -164.89002084165162 0.0 0.0
558.665906372628 11.469187003732024 246.40568060213127 -163.7542517676725 0.0 0.0
592.3293768288507 19.439475486551046 270.7046868071598 -162.91590968544298 0.0 0.0
624.3683846093874 27.457553468639027 293.7368736016964 -161.87171859267698 0.0 0.0
657.667477604035 35.53982317294011 317.4652318558992 -159.90886408241192 0.0 0.0
693.8536225139651 42.878266081845 342.60096450283174 -155.08095777174452 0.0 0.0
732.919572252968 48.987905926145544 368.47088643418846 -147.01332851778537 0.0 0.0
795.3439293303715 76.13805443858817 413.47950969362677 -139.90046185272257 0.0 0.0
889.7149409409647 131.56822001520254 490.9635162808923 -138.2799234168678 0.0 0.0
17.990394933780834 -682.1264924786892 -319.7478716885631 3.722533392647165e-11 0.0 0.0
889.7149409403321 131.56822001471124 490.963516280725 138.279923417171 0.0 0.0
795.3439293318077 76.13805444040659 413.4795096946659 139.9004618531565 0.0 0.0
732.9195722532544 48.98790592671112 368.4708864344583 147.01332851813248 0.0 0.0
693.8536225146045 42.878266082858765 342.6009645031904 155.08095777197175 0.0 0.0
657.6674776037744 35.53982317283864 317.4652318558266 159.90886408254156 0.0 0.0
624.3683846101127 27.457553469519368 293.7368736021887 161.87171859274866 0.0 0.0
592.3293768276218 19.439475485309615 270.7046868063473 162.91590968526378 0.0 0.0
558.6659063720757 11.469187002977169 246.40568060175627 163.75425176766527 0.0 0.0
520.9173320623113 3.1244446978383777 218.44462291807213 164.89002084188837 0.0 0.0
476.0119611306657 -6.337010722535052 185.51989717640149 168.42048523575568 0.0 0.0
417.0133830992057 -15.207763689255398 146.20302953596567 179.70568443422712 0.0 0.0
329.4677437255843 -12.868597204031754 104.75196727784414 201.8609376157526 0.0 0.0
223.81695117718692 -6.167750694179577 67.51427769033592 218.36226446549364 0.0 0.0
139.93423082874747 -2.3359729708814583 41.44050661922562 217.4527350976208 0.0 0.0
86.94994974085643 3.416776901425662 26.988862803828667 201.3104410545829 0.0 0.0
49.575456993867974 14.54830376783482 19.205204455739022 182.82315661539943 0.0 0.0
19.31261457198045 21.296679317033462 12.181016563843837 177.30397651645285 0.0 0.0
-4.75536056576047 -4.821687411454628 -2.8824333757415164 183.13538980799763 0.0 0.0
76.13588756938964 -44.84260937325147 12.88884910881626 201.0737346817335 0.0 0.0
-195.3845307483765 -694.9833032835382 -297.0435271370607 95.20292205094083 0.0 0.0
-137.2295672810167 -564.4272994227224 -218.11272407774038 -108.18287501234826 0.0 0.0
28.20315583817237 -62.571964112765485 -9.297786978678984 -185.91496143940753 0.0 0.0
-30.86533525561834 -5.462750204986296 -10.889570139969422 -187.0733561932998 0.0 0.0
-24.31034810883115 19.627604272443254 -1.412408240402736 -183.6313008724611 0.0 0.0
-14.258978365413759 17.171008319179638 0.8724158123608765 -188.48699160091687 0.0 0.0
-6.7393739877651555 7.452115920340468 0.2214895360841984 -205.83356916389215 0.0 0.0
-2.951587742965085 1.1475121930574996 -0.5413191113990408 -223.51806470086453 0.0 0.0
-1.030742496158652 0.07679252330205966 -0.2933038948872575 -226.59756582054942 0.0 0.0
-0.31544035501110557 -0.004568103591154227 -0.10086751547241946 -218.6816611382681 0.0 0.0
0.006700640577093964 -0.0053382046110428405 0.005109860594274096 -213.71461065282216 0.0 0.0
-0.41764495461688966 0.015501246771655985 -0.13871905527403783 -210.44732409118703 0.0 0.0
-0.9253755958579859 0.15677655061005424 0.21687030096469329 -198.07911377785896 0.0 0.0
-1.9512835855165918 0.8068521026072446 0.41965720952184427 -188.62083501082049 0.0 0.0
-0.503761855327781 2.4214746474895605 0.957837464155304 -181.52045562481212 0.0 0.0
7.974944902218141 6.293128843021478 2.271547212339229 -176.48244542894602 0.0 0.0
30.822845717169002 13.553035832617567 5.998365188493963 -172.1674653497224 0.0 0.0
78.1163686322175 26.18400446262173 14.622953644103234 -166.84327880394375 0.0 0.0
164.90574514259083 35.74151681194512 20.05534740522276 -157.67085386761318 0.0 0.0
383.7591486726034 -7.530667285780893 35.53983911204833 -152.2050827525401 0.0 0.0
607.4630172549676 28.711473242938254 241.03175386144986 -198.47632265522108 0.0 0.0
-651.3160658886945 -924.6116802310474 -709.3776702640232 1.2221335055073723e-12 0.0 0.0
607.463017254974 28.711473243135913 241.03175386152887 198.47632265512573 0.0 0.0
383.7591486729771 -7.530667285626748 35.539839112001516 152.20508275340836 0.0 0.0
164.90574514283884 35.74151681271216 20.05534740563772 157.67085386814037 0.0 0.0
78.11636863196048 26.184004462283298 14.62295364377107 166.8432788042203 0.0 0.0
30.82284571715897 13.553035832697077 5.998365188478715 172.16746534965975 0.0 0.0
7.974944902292322 6.293128842885437 2.27154721236829 176.48244542888116 0.0 0.0
-0.503761854833698 2.4214746481337457 0.9578374645188603 181.5204556247691 0.0 0.0
-1.951283585946058 0.806852101521379 0.41965720891827374 188.62083501108532 0.0 0.0
-0.9253755950155238 0.15677655156959958 0.216870301498453 198.07911377798354 0.0 0.0
-0.4176449541625189 0.015501246953213865 -0.13871905509420657 210.44732409099518 0.0 0.0
0.006700640652439915 -0.005338205485408309 0.005109860342550121 213.71461065276094 0.0 0.0
-0.31544035484353117 -0.00456810383935391 -0.10086751551088469 218.6816611382135 0.0 0.0
-1.0307424959608475 0.07679252339638021 -0.29330389479254926 226.59756582056787 0.0 0.0
-2.9515877432292292 1.1475121923025369 -0.5413191117073026 223.51806470068036 0.0 0.0
-6.739373987928831 7.452115919911997 0.22148953590625853 205.83356916359145 0.0 0.0
-14.258978365332307 17.171008319218778 0.872415812396691 188.48699160069626 0.0 0.0
-24.310348108889293 19.627604272342662 -1.4124082404517049 183.63130087227398 0.0 0.0
-30.865335255606293 -5.462750204749462 -10.88957013989759 187.07335619309595 0.0 0.0
28.20315583799262 -62.57196411264467 -9.297786978707496 185.91496143914532 0.0 0.0
-137.2295672808667 -564.4272994221167 -218.11272407747364 108.18287501245693 0.0 0.0
-107.95577000842209 -446.5497702622408 -166.42168297792523 -112.92281995051664 0.0 0.0
-8.251927291787865 -73.2973704510626 -24.450070716869238 -170.51970534543764 0.0 0.0
-55.45042140500653 -5.190874062900127 -18.202226299281612 -186.25855260311366 0.0 0.0
-66.73639469868229 18.129389237053026 -14.592834023575438 -185.18523081125517 0.0 0.0
-76.90948501858219 19.049054016175624 -17.362381238349602 -188.61433427639082 0.0 0.0
-99.28207324859551 11.278843869596436 -26.358123078514936 -203.0027967773167 0.0 0.0
-145.40837164479967 4.7259092905611855 -42.42015526115888 -218.63767945146998 0.0 0.0
-225.22589509793073 6.233056246326897 -68.04278476870385 -218.7209960508695 0.0 0.0
-329.6749426699138 12.696560696445038 -104.92881373856427 -201.88679053834682 0.0 0.0
-416.9871606358664 15.200272531859305 -146.1869865278274 -179.67119219572265 0.0 0.0
-476.4965136458849 6.238044799714551 -185.74005526816129 -168.43520272055596 0.0 0.0
-521.6334685031918 -3.1012926610953286 -219.30797840494597 -164.757514675692 0.0 0.0
-559.8197995193976 -10.304503025665369 -247.3045405019057 -163.12473758790745 0.0 0.0
-591.2094365927535 -14.843824023295241 -268.5574931374029 -162.0961154076098 0.0 0.0
-613.4347796061684 -15.730374699539368 -281.33094672375955 -162.20964410318854 0.0 0.0
-624.3569120773344 -11.596411622496788 -283.21739840447765 -164.2378671561574 0.0 0.0
-622.3312751229106 -2.5433488215569042 -272.2007286517944 -168.7505594880099 0.0 0.0
-615.1771960051271 4.644542484532792 -250.31810707612055 -178.23259766274862 0.0 0.0
-593.9498527219806 54.30949027843691 -189.02245440484882 -192.1631857808282 0.0 0.0
-321.98733699018396 166.80817077300986 32.95464964844365 -155.05971334362076 0.0 0.0
-1214.9078316913533 -1186.7626069170979 -1228.4592491242315 -1.7486456727056066e-10 0.0 0.0
-321.9873369898604 166.80817077369414 32.954649648719226 155.05971334432994 0.0 0.0
-593.9498527230462 54.30949027680843 -189.0224544056244 192.16318578125802 0.0 0.0
-615.1771960046842 4.644542485097773 -250.31810707584322 178.2325976629565 0.0 0.0
-622.3312751230576 -2.5433488218603344 -272.2007286518541 168.75055948801037 0.0 0.0
-624.3569120770239 -11.596411622281096 -283.21739840419474 164.23786715609668 0.0 0.0
-613.4347796060025 -15.730374699664758 -281.3309467235882 162.2096441031017 0.0 0.0
-591.2094365925718 -14.84382402332821 -268.557493137391 162.09611540782484 0.0 0.0
-559.8197995198923 -10.304503026577827 -247.30454050219782 163.12473758801428 0.0 0.0
-521.633468502749 -3.1012926608442655 -219.307978404522 164.75751467559445 0.0 0.0
-476.4965136453679 6.238044799976144 -185.74005526780076 168.43520272061156 0.0 0.0
-416.98716063622993 15.20027253067977 -146.18698652808874 179.6711921958178 0.0 0.0
-329.67494266916833 12.69656069684698 -104.92881373812357 201.88679053833414 0.0 0.0
-225.22589509728073 6.233056246397411 -68.0427847684567 218.7209960509273 0.0 0.0
-145.4083716449108 4.725909289437137 -42.420155261529615 218.63767945130508 0.0 0.0
-99.2820732484307 11.278843869314123 -26.358123078561142 203.0027967770129 0.0 0.0
-76.90948501858352 19.0490540157134 -17.36238123849179 188.61433427625573 0.0 0.0
-66.73639469861453 18.12938923699891 -14.592834023574841 185.18523081097297 0.0 0.0
-55.45042140487821 -5.19087406260558 -18.202226299156735 186.25855260296893 0.0 0.0
-8.251927291867972 -73.29737045124145 -24.450070716944705 170.51970534523707 0.0 0.0
-107.9557700082995 -446.54977026156865 -166.42168297773026 112.922819950418 0.0 0.0
-90.25842998270512 -341.2684305712852 -129.4612157841654 -105.80092338633628 0.0 0.0
-31.620759976486447 -78.08657262236136 -32.907351994486845 -157.8367219002662 0.0 0.0
-78.4629655929009 -5.159189904386228 -25.07365085117946 -182.28847167335937 0.0 0.0
-107.29261227119343 16.775325316740375 -27.179190020691376 -181.79352637742394 0.0 0.0
-138.36757080536665 20.3523571231384 -35.334636510531645 -184.30948061291863 0.0 0.0
-190.2620830880489 14.510053466826841 -52.63365267383162 -194.16191363469994 0.0 0.0
-279.6260655515158 2.9678871250236902 -86.93620769602005 -197.00183183255297 0.0 0.0
-396.3526409759162 -10.358591846457376 -146.12660586902598 -186.26749773271115 0.0 0.0
-499.46799273703726 -20.965279070304504 -217.11896968979272 -171.579898178124 0.0 0.0
-572.6999009001678 -20.95709433166713 -270.8414374378816 -163.6817906286357 0.0 0.0
-626.3709656564891 -22.38913885462989 -307.9275168479309 -157.93884852296094 0.0 0.0
-673.8013560425711 -28.589388019288492 -338.2250178155508 -154.11346613161155 0.0 0.0
-717.5184380454135 -37.90239191041155 -366.3919551452578 -150.38212347025714 0.0 0.0
-754.5479205673632 -44.8468370495311 -389.14761629386925 -147.40806100971443 0.0 0.0
-782.5935667337502 -46.91701673916731 -404.6167528075546 -146.30013730754305 0.0 0.0
-798.2552029626149 -41.59131367515681 -409.9066747360833 -147.5588709559425 0.0 0.0
-801.8904578712431 -30.590465061097376 -405.88693503279995 -151.4474497958734 0.0 0.0
-793.8400715069799 -16.382406094139213 -394.1714539931511 -157.9008671563597 0.0 0.0
-744.8458605824221 30.207937010176323 -346.5193342078178 -165.4269719234444 0.0 0.0
-630.9370145759583 127.7595776180759 -243.3104883272669 -173.1024433640685 0.0 0.0
-2005.3920704799089 -1484.8175465601173 -1711.5039086884683 6.866684998385608e-11 0.0 0.0
-630.9370145759879 127.75957761798607 -243.31048832721706 173.10244336434255 0.0 0.0
-744.8458605832084 30.207937008934238 -346.51933420839066 165.42697192385486 0.0 0.0
-793.840071506501 -16.382406093924203 -394.17145399277484 157.90086715659234 0.0 0.0
-801.8904578709648 -30.5904650607861 -405.8869350326722 151.44744979587392 0.0 0.0
-798.2552029628529 -41.59131367567222 -409.90667473627127 147.55887095608395 0.0 0.0
-782.5935667335627 -46.91701673896629 -404.61675280734715 146.3001373074971 0.0 0.0
-754.5479205668607 -44.84683704920178 -389.14761629347845 147.40806100961188 0.0 0.0
-717.5184380451004 -37.90239191051406 -366.39195514509447 150.38212347040448 0.0 0.0
-673.8013560420757 -28.589388018968943 -338.22501781516996 154.11346613170997 0.0 0.0
-626.3709656562288 -22.389138854556222 -307.9275168478041 157.9388485227664 0.0 0.0
-572.699900900312 -20.957094332180517 -270.8414374379308 163.6817906286166 0.0 0.0
-499.46799273627045 -20.965279069847394 -217.1189696892028 171.57989817806384 0.0 0.0
-396.3526409751632 -10.35859184635404 -146.12660586860673 186.26749773292207 0.0 0.0
-279.62606555088735 2.967887125299537 -86.93620769569748 197.00183183243695 0.0 0.0
-190.26208308763043 14.510053466953941 -52.63365267368595 194.16191363448053 0.0 0.0
-138.36757080541804 20.352357122609327 -35.33463651071088 184.30948061279523 0.0 0.0
-107.29261227080693 16.775325317243908 -27.179190020428724 181.79352637717108 0.0 0.0
-78.4629655927339 -5.159189904233237 -25.073650851085983 182.28847167322775 0.0 0.0
-31.62075997648839 -78.08657262240627 -32.90735199450019 157.83672190009835 0.0 0.0
-90.25842998244094 -341.26843057077485 -129.4612157839311 105.80092338619049 0.0 0.0
-73.51207591019951 -253.05006787511658 -97.9686431355948 -94.44953695874774 0.0 0.0
-48.226512678412355 -76.56949587406524 -37.43797944506166 -144.30723534580315 0.0 0.0
-99.63134398304045 -5.258394315945212 -31.452204689928283 -173.90151230216483 0.0 0.0
-146.2172998164564 15.490891487207637 -39.18131670926762 -174.5309875828442 0.0 0.0
-197.4517986447229 20.262380281992836 -53.065074878409014 -173.5228385276745 0.0 0.0
-277.65116307548436 12.474592565588928 -80.92100391566343 -173.95409150377967 0.0 0.0
-396.9009598762542 -8.889966693974687 -138.43277917635612 -169.1011315257612 0.0 0.0
-514.4494060696406 -31.668991535435683 -222.9957065015688 -157.22760903503072 0.0 0.0
-605.4859457327442 -39.616516399620586 -296.71244289293145 -151.03997311957698 0.0 0.0
-668.9458763119785 -38.24608385087154 -341.5182192098065 -146.93232067276963 0.0 0.0
-719.6042921596788 -41.959040935662685 -373.24414859229324 -142.77251892104093 0.0 0.0
-768.7595378269475 -51.31330555710224 -403.63293736193543 -139.4578090145652 0.0 0.0
-816.4782173958909 -63.61191708773474 -434.1465399228051 -135.8347592284678 0.0 0.0
-859.2545736653697 -74.85995476021841 -461.4966476521852 -132.65483911102265 0.0 0.0
-893.4300703738668 -80.781752049233 -481.81472524414266 -131.27566676894497 0.0 0.0
-914.0117126776773 -77.92592477157416 -490.8332036078649 -132.85052379391618 0.0 0.0
-919.2182590579913 -64.72502813453465 -486.90285421479973 -137.4958349073694 0.0 0.0
-899.179448273557 -33.167903693098054 -461.13456314057504 -143.39811379430213 0.0 0.0
-842.8740142091343 26.172607902809347 -403.9238691572863 -148.01265020450396 0.0 0.0
-685.6768740448673 172.2375970323203 -255.6195963962664 -149.6637467189207 0.0 0.0
-2449.420398087519 -1718.9593197873774 -2059.2699839013208 1.0807710282279004e-10 0.0 0.0
-685.6768740446795 172.23759703249942 -255.6195963960388 149.66374671904015 0.0 0.0
-842.8740142086233 26.172607903042234 -403.9238691569517 148.01265020474847 0.0 0.0
-899.1794482717401 -33.167903691352436 -461.13456313933796 143.3981137944835 0.0 0.0
-919.2182590586399 -64.72502813532721 -486.90285421533065 137.4958349074492 0.0 0.0
-914.0117126776513 -77.92592477167912 -490.8332036077848 132.85052379390797 0.0 0.0
-893.4300703731723 -80.78175204862099 -481.8147252436059 131.27566676879488 0.0 0.0
-859.2545736645467 -74.85995475931526 -461.4966476515623 132.65483911085067 0.0 0.0
-816.4782173951114 -63.61191708703655 -434.14653992231564 135.83475922826432 0.0 0.0
-768.7595378262057 -51.313305556560316 -403.6329373613831 139.45780901448427 0.0 0.0
-719.6042921598387 -41.95904093593832 -373.2441485924472 142.7725189208941 0.0 0.0
-668.9458763116706 -38.24608385087761 -341.51821920959475 146.9323206726435 0.0 0.0
-605.4859457323398 -39.61651639957449 -296.7124428925809 151.03997311954095 0.0 0.0
-514.449406069208 -31.668991535498797 -222.9957065011829 157.22760903509976 0.0 0.0
-396.9009598756079 -8.889966693536092 -138.43277917588972 169.10113152564037 0.0 0.0
-277.65116307501364 12.474592565702265 -80.92100391547685 173.95409150358077 0.0 0.0
-197.45179864449864 20.262380281901905 -53.065074878383946 173.52283852743716 0.0 0.0
-146.21729981633948 15.490891487258946 -39.18131670922118 174.53098758269874 0.0 0.0
-99.63134398288274 -5.258394315712067 -31.45220468981018 173.90151230211603 0.0 0.0
-48.226512678429714 -76.56949587420738 -37.43797944511041 144.3072353456366 0.0 0.0
-73.51207591007096 -253.0500678747685 -97.96864313545181 94.44953695867137 0.0 0.0
-59.80773322133256 -179.33278871157464 -71.74215657987216 -81.07548393716016 0.0 0.0
-60.81361002292279 -70.41277538333996 -39.36809177923417 -128.85061333010304 0.0 0.0
-119.33944839147152 -5.222079604626787 -37.35869825637393 -161.45980291468706 0.0 0.0
-182.87289105998417 13.50721750142912 -50.786490078109864 -162.15358185011658 0.0 0.0
-255.57795434648688 18.693123669929996 -70.90072208938629 -158.45123993097548 0.0 0.0
-363.39883551750876 6.264618020574283 -112.4929744891219 -150.6952863136551 0.0 0.0
-490.72618867107576 -25.410131494307116 -193.27273627381638 -138.54993459403792 0.0 0.0
-601.9149549403547 -46.81759606133985 -287.18702073890796 -133.00422356143568 0.0 0.0
-681.9764622179341 -51.60307871434914 -352.1134967834452 -130.6400358955056 0.0 0.0
-738.524658230557 -55.49173873477456 -390.82064583651373 -127.6855199714666 0.0 0.0
-791.4804487297803 -61.02090862377601 -421.94738627214304 -125.8378479325951 0.0 0.0
-843.2228593601868 -72.7408201889169 -454.0233994789967 -123.0955106584472 0.0 0.0
-894.8519130339965 -88.68177985362654 -488.0315324503539 -119.78437002903314 0.0 0.0
-943.5655515393238 -104.85072612382535 -520.6736329378678 -116.57750121846476 0.0 0.0
-984.1938062346162 -116.12165079673736 -546.8308866055619 -114.90632918625839 0.0 0.0
-1009.5746549188639 -115.40600426326367 -559.3604391507314 -116.40244697828997 0.0 0.0
-1010.4617025603944 -96.42054036039232 -550.5020851473766 -120.65273476119766 0.0 0.0
-977.8259854375374 -49.08172281056551 -510.74005811912497 -125.81622606801254 0.0 0.0
-893.0649565538833 41.80460960356213 -423.7617915723781 -128.42886702143838 0.0 0.0
-717.1018869342472 209.07280018151778 -254.11519301926808 -127.41551361651746 0.0 0.0
-2800.1921585891596 -1960.2693318661936 -2361.1087682838447 1.1257128562647267e-10 0.0 0.0
-717.1018869335985 209.07280018217983 -254.11519301873207 127.41551361660579 0.0 0.0
-893.0649565537958 41.80460960355674 -423.761791572472 128.428867021557 0.0 0.0
-977.8259854368234 -49.08172280994255 -510.74005811866175 125.81622606807278 0.0 0.0
-1010.4617025612339 -96.42054036148427 -550.5020851481823 120.65273476137894 0.0 0.0
-1009.5746549189923 -115.40600426354285 -559.3604391508045 116.4024469784721 0.0 0.0
-984.1938062335776 -116.12165079573371 -546.8308866048251 114.90632918613791 0.0 0.0
-943.5655515388135 -104.85072612343319 -520.673632937448 116.57750121837232 0.0 0.0
-894.8519130344235 -88.68177985426183 -488.03153245071724 119.78437002895895 0.0 0.0
-843.2228593594596 -72.74082018838412 -454.0233994785462 123.09551065843714 0.0 0.0
-791.4804487296785 -61.02090862393395 -421.9473862720837 125.8378479325723 0.0 0.0
-738.5246582302216 -55.49173873464474 -390.8206458362787 127.68551997132869 0.0 0.0
-681.9764622176885 -51.603078714420676 -352.11349678321466 130.6400358954546 0.0 0.0
-601.9149549395397 -46.81759606086805 -287.1870207382404 133.00422356133691 0.0 0.0
-490.72618867049215 -25.410131494130574 -193.27273627334503 138.54993459398074 0.0 0.0
-363.3988355169802 6.264618020739489 -112.49297448884025 150.69528631355237 0.0 0.0
-255.57795434611347 18.693123669857044 -70.90072208931713 158.4512399307695 0.0 0.0
-182.87289105983876 13.507217501275107 -50.7864900781273 162.1535818499307 0.0 0.0
-119.3394483912607 -5.22207960427741 -37.35869825620483 161.45980291463607 0.0 0.0
-60.813610023009055 -70.4127753836655 -39.3680917793577 128.85061332992336 0.0 0.0
-59.8077332211374 -179.33278871124114 -71.74215657971354 81.07548393716007 0.0 0.0
-49.67725495683557 -119.47602926166208 -50.74598526554928 -66.95884291036671 0.0 0.0
-70.6628734553656 -61.03899730271114 -39.51056122742301 -111.26636907302037 0.0 0.0
-137.80228808635957 -4.7712432496743205 -42.77023975824859 -144.8819446791903 0.0 0.0
-217.7444870307928 11.238005276337578 -61.866260962433685 -145.8149334436793 0.0 0.0
-311.8765836261758 13.396383669230008 -90.05180168352973 -136.68363877612185 0.0 0.0
-440.4264142782352 -5.517176107533055 -148.3147569937308 -122.95569170065032 0.0 0.0
-567.3244718548228 -39.68673893250873 -245.94188168494176 -112.23053767492833 0.0 0.0
-668.8929762090615 -56.418285677544766 -337.26061911834654 -110.45995633079275 0.0 0.0
-737.9749507209883 -65.15870556567069 -393.4564273642526 -108.89846137180805 0.0 0.0
-797.5094832616786 -70.29469599965469 -430.21095106636517 -108.92645808034749 0.0 0.0
-851.9811128680565 -79.37574518265832 -462.8765623659293 -107.74078096314095 0.0 0.0
-906.941231428814 -94.22221610503202 -497.90345222749806 -105.49247813345738 0.0 0.0
-962.3901399150202 -113.51526115117267 -535.3833508887328 -102.66454891502762 0.0 0.0
-1016.0952224101954 -133.900609663293 -572.5345801573158 -99.7273003900396 0.0 0.0
-1063.6476005337672 -151.05413378679458 -605.0341580758953 -97.76195646478118 0.0 0.0
-1093.0206434762003 -153.4629089819283 -621.1793817963346 -98.35938355142727 0.0 0.0
-1089.1174137775126 -126.47407679597072 -606.0068690864191 -102.00459203041437 0.0 0.0
-1037.5027293758349 -58.818812438266775 -546.7336655193794 -106.35446960926033 0.0 0.0
-926.6062793490105 58.84865427991119 -433.1322326970052 -108.36925614633003 0.0 0.0
-742.2638968327867 234.77147215779752 -254.02345055421193 -109.26809982672768 0.0 0.0
-3099.028698831674 -2187.47639228052 -2628.0724824097447 5.0313531119172694e-11 0.0 0.0
-742.2638968322148 234.7714721582132 -254.0234505537124 109.26809982702348 0.0 0.0
-926.6062793491844 58.84865427962987 -433.1322326971482 108.36925614657517 0.0 0.0
-1037.502729375951 -58.8188124384731 -546.7336655193882 106.35446960929897 0.0 0.0
-1089.1174137772603 -126.47407679581741 -606.006869086351 102.00459203044582 0.0 0.0
-1093.0206434763847 -153.4629089823648 -621.1793817964113 98.35938355155943 0.0 0.0
-1063.6476005344834 -151.05413378766914 -605.0341580763267 97.76195646490856 0.0 0.0
-1016.0952224083841 -133.90060966161568 -572.534580156033 99.72730038992401 0.0 0.0
-962.390139915246 -113.51526115166224 -535.3833508890214 102.66454891505194 0.0 0.0
-906.941231429452 -94.22221610601359 -497.9034522279388 105.49247813365517 0.0 0.0
-851.9811128680857 -79.37574518296226 -462.87656236596325 107.74078096318291 0.0 0.0
-797.5094832621155 -70.29469600041182 -430.21095106667326 108.92645808029894 0.0 0.0
-737.9749507207459 -65.1587055657717 -393.4564273640306 108.8984613718573 0.0 0.0
-668.892976208353 -56.418285677153875 -337.2606191177947 110.45995633076551 0.0 0.0
-567.3244718540841 -39.68673893214371 -245.94188168429793 112.2305376749064 0.0 0.0
-440.4264142778503 -5.517176107597588 -148.31475699348965 122.95569170061026 0.0 0.0
-311.8765836259452 13.396383668710023 -90.05180168362003 136.68363877604602 0.0 0.0
-217.74448703045678 11.238005276580347 -61.86626096226241 145.81493344356483 0.0 0.0
-137.8022880862661 -4.7712432496866715 -42.77023975822283 144.88194467905453 0.0 0.0
-70.66287345535642 -61.03899730274596 -39.51056122743072 111.26636907286372 0.0 0.0
-49.6772549567922 -119.47602926149285 -50.745985265485515 66.95884291023674 0.0 0.0
-42.918319690039674 -73.09268646454281 -34.803301846374744 -52.55310636072684 0.0 0.0
-78.29826220210444 -49.77735025213937 -38.422683736273136 -91.70351645769196 0.0 0.0
-155.13901867097246 -3.779711814389744 -47.676126644082196 -124.23371663854067 0.0 0.0
-251.24442924559094 7.745392020719391 -72.96945860127397 -124.69374445146451 0.0 0.0
-370.2963967205221 6.631653303977814 -110.82896105229882 -112.0295472042694 0.0 0.0
-504.2631354582229 -22.01885523064746 -187.61429797561829 -92.8268632381037 0.0 0.0
-629.0110036721658 -49.20219890943606 -292.1924606460317 -88.4441976983297 0.0 0.0
-716.6873293268504 -66.38711818985709 -375.52430287062305 -87.74426118205558 0.0 0.0
-787.1889725760071 -76.08627905706034 -426.7170750395796 -88.49395670826806 0.0 0.0
-847.7652817270188 -85.27878228307634 -464.13150246071973 -89.25649771460078 0.0 0.0
-905.6185293964555 -97.93719765734417 -499.82617614048416 -88.62203845681587 0.0 0.0
-963.8741430125451 -115.782394975985 -537.9387766785751 -86.90859541228818 0.0 0.0
-1022.6199725886681 -137.80649351784228 -578.3873646118377 -84.69190305594014 0.0 0.0
-1080.037598254115 -162.15839734280522 -619.3213212234217 -82.22910870210227 0.0 0.0
-1132.7836123793215 -183.48947323192226 -656.4465385205921 -80.04004048192903 0.0 0.0
-1167.7771992400742 -189.8488178844769 -677.364195769763 -79.45087807388032 0.0 0.0
-1161.0344687837173 -159.08094189875214 -658.9908477443357 -81.68039061051081 0.0 0.0
-1091.4092207928827 -71.85078026981506 -580.9718028598177 -85.64969093065301 0.0 0.0
-955.8293687964531 71.26866290219937 -442.081460794847 -89.25903473255313 0.0 0.0
-758.2007527847412 259.8454866597542 -249.42994873687593 -94.0566956256509 0.0 0.0
-3356.9910272077855 -2392.646238960527 -2862.536956267225 2.5401902803423582e-11 0.0 0.0
-758.2007527846126 259.8454866597752 -249.42994873678214 94.056695625857 0.0 0.0
-955.8293687969295 71.26866290158932 -442.0814607951198 89.25903473279746 0.0 0.0
-1091.4092207929968 -71.85078027004843 -580.9718028598411 85.64969093079445 0.0 0.0
-1161.0344687837417 -159.0809418988845 -658.9908477443821 81.6803906105803 0.0 0.0
-1167.777199239424 -189.84881788389959 -677.3641957692271 79.45087807375481 0.0 0.0
-1132.7836123793716 -183.48947323223294 -656.4465385206502 80.04004048204683 0.0 0.0
-1080.0375982533378 -162.1583973422082 -619.321321222847 82.2291087021955 0.0 0.0
-1022.6199725881753 -137.80649351748195 -578.3873646116211 84.69190305584884 0.0 0.0
-963.8741430121843 -115.78239497580687 -537.9387766782818 86.9085954121066 0.0 0.0
-905.6185293967443 -97.93719765792889 -499.8261761407097 88.62203845682633 0.0 0.0
-847.7652817275143 -85.27878228389527 -464.1315024611054 89.25649771463137 0.0 0.0
-787.1889725753657 -76.08627905666307 -426.71707503911205 88.49395670809726 0.0 0.0
-716.6873293263883 -66.38711818971076 -375.5243028702185 87.74426118200283 0.0 0.0
-629.0110036714977 -49.20219890920147 -292.1924606454448 88.4441976983959 0.0 0.0
-504.2631354577877 -22.018855230776687 -187.61429797531974 92.82686323820612 0.0 0.0
-370.29639671985416 6.631653304248404 -110.82896105201658 112.02954720432658 0.0 0.0
-251.2444292452413 7.745392020992304 -72.96945860109578 124.69374445133354 0.0 0.0
-155.1390186707778 -3.77971181424884 -47.67612664398145 124.23371663849407 0.0 0.0
-78.29826220207535 -49.77735025211641 -38.42268373625753 91.70351645752066 0.0 0.0
-42.91831969010032 -73.09268646450602 -34.80330184638189 52.553106360679976 0.0 0.0
-38.87148509219674 -39.92389543652361 -23.6386141586161 -38.25542738852525 0.0 0.0
-83.64362699148968 -37.81646286401057 -36.43802695665007 -70.39541761670473 0.0 0.0
-171.1879772838406 -2.4003535551111037 -52.07671972938979 -99.35771210126335 0.0 0.0
-284.8852497559916 3.105726979020444 -84.41379983904403 -99.03336724840484 0.0 0.0
-425.87480919187306 -4.144864225071674 -134.5916371279823 -82.55506142650404 0.0 0.0
-563.8308999632856 -34.26110591425494 -226.780932563642 -67.45383210022385 0.0 0.0
-673.6389297821532 -57.725673681860606 -330.9020346251395 -66.01845994334865 0.0 0.0
-756.9560995938191 -73.86446702016254 -405.0761971565409 -66.13629505797311 0.0 0.0
-828.7144831097663 -87.45559429887435 -454.99565958114994 -67.65306867241065 0.0 0.0
-892.5891969184038 -100.45508889516807 -494.8658390964905 -68.79920858227565 0.0 0.0
-953.7974310328333 -116.64155542576324 -533.8290616083855 -68.59216572058276 0.0 0.0
-1015.5962651623025 -137.6199810169846 -575.2548812529735 -67.40359038801408 0.0 0.0
-1077.3311433561425 -162.75294085914462 -618.7352091809754 -65.78065661530628 0.0 0.0
-1136.996799544165 -187.97352930530752 -661.2013161183811 -64.03053029299184 0.0 0.0
-1191.6782466450404 -211.26380420557877 -700.2204466877175 -61.96073895118134 0.0 0.0
-1232.4233274565315 -223.07686862700086 -726.6801488065934 -60.08026973211737 0.0 0.0
-1232.1888620031264 -197.19016849497189 -714.0213190342301 -60.296922003635245 0.0 0.0
-1151.8913888488485 -97.94055022371865 -624.7119211408325 -64.06737577235837 0.0 0.0
-987.3204658046338 74.8854343794352 -456.35010966882277 -70.53600752909769 0.0 0.0
-760.9419969861625 292.5475071224884 -234.4251807766455 -80.3129071412838 0.0 0.0
-3574.3335463992416 -2566.4170911589736 -3060.3610073008085 5.468692165777611e-11 0.0 0.0
-760.9419969867622 292.54750712184835 -234.42518077715755 80.31290714134123 0.0 0.0
-987.3204658047669 74.88543437916987 -456.3501096689734 70.536007529224 0.0 0.0
-1151.8913888485295 -97.94055022351415 -624.7119211405909 64.06737577256811 0.0 0.0
-1232.1888620028963 -197.19016849488068 -714.0213190340829 60.29692200373013 0.0 0.0
-1232.42332745691 -223.0768686275023 -726.6801488067205 60.08026973205659 0.0 0.0
-1191.6782466440563 -211.26380420471898 -700.2204466870816 61.96073895117263 0.0 0.0
-1136.9967995442325 -187.9735293055782 -661.2013161183347 64.03053029297124 0.0 0.0
-1077.3311433557162 -162.75294085898378 -618.7352091807802 65.7806566154493 0.0 0.0
-1015.5962651621464 -137.6199810170334 -575.254881252865 67.40359038799991 0.0 0.0
-953.7974310317957 -116.6415554249715 -533.8290616077429 68.5921657204369 0.0 0.0
-892.5891969187996 -100.45508889592385 -494.8658390967317 68.79920858246126 0.0 0.0
-828.7144831091265 -87.4555942985088 -454.99565958073697 67.65306867233289 0.0 0.0
-756.9560995933164 -73.86446701998005 -405.07619715614544 66.13629505795728 0.0 0.0
-673.6389297820098 -57.72567368208073 -330.9020346248555 66.018459943316 0.0 0.0
-563.8308999626079 -34.26110591403324 -226.78093256310564 67.45383210027165 0.0 0.0
-425.87480919109714 -4.144864224540386 -134.59163712756663 82.55506142652688 0.0 0.0
-284.8852497556532 3.105726979124858 -84.41379983893643 99.03336724824212 0.0 0.0
-171.18797728361815 -2.4003535548439427 -52.0767197292426 99.35771210116451 0.0 0.0
-83.64362699127176 -37.816462863979325 -36.43802695657532 70.39541761658084 0.0 0.0
-38.87148509183204 -39.92389543634283 -23.638614158452462 38.25542738847712 0.0 0.0
-36.30403530814306 -19.58738199507861 -16.7674251909665 -24.844460223092682 0.0 0.0
-85.98147516474137 -26.374075796987665 -33.70666528851869 -47.645860986439686 0.0 0.0
-185.61463527647965 -1.1575337328390343 -56.0316507027956 -69.72034362292051 0.0 0.0
-320.2704171057066 -2.2940881603233776 -96.54457056417355 -68.32521130854644 0.0 0.0
-477.1756552584542 -18.09371353824198 -161.8673029494421 -51.816928485922524 0.0 0.0
-611.3687696750054 -43.69803762064183 -263.85246352184447 -44.31322806977297 0.0 0.0
-706.5607936572584 -64.15551919338657 -360.8579135749389 -44.110515498307585 0.0 0.0
-791.4259666403748 -82.08181001966476 -430.0734061566453 -44.99506509324692 0.0 0.0
-865.4747798204987 -99.43722330671778 -480.36754037480625 -46.40796560062769 0.0 0.0
-932.7625933198187 -115.98947926153811 -523.1783955872885 -47.550859907685215 0.0 0.0
-997.7787838733796 -135.5365491684861 -565.6587352041789 -47.693540005293826 0.0 0.0
-1062.7617978618682 -159.62088611758602 -610.2303572609137 -47.0191920916908 0.0 0.0
-1127.6168058293488 -186.5745341247345 -656.1635060410491 -46.07816488393566 0.0 0.0
-1188.7326080768387 -213.66336663732622 -700.2970829364872 -44.936529130914835 0.0 0.0
-1242.546649140086 -235.5310421200274 -738.1716522455336 -43.35615038958003 0.0 0.0
-1282.6225952000034 -246.25353621428846 -763.6524688035804 -41.063927690822105 0.0 0.0
-1295.821535407376 -233.40313791899516 -764.0642458220833 -39.164281970325845 0.0 0.0
-1240.010101210638 -157.26970539263772 -698.5904724032737 -41.28333188520149 0.0 0.0
-1039.6460807108251 53.12616131679209 -493.66567183741984 -50.683499005521924 0.0 0.0
-736.6466131210894 348.81604754685816 -194.22324475282664 -66.87592209486428 0.0 0.0
-3737.455306270479 -2691.368730975126 -3206.2661702108753 3.880096244301967e-11 0.0 0.0
-736.6466131215034 348.8160475464344 -194.2232447531144 66.87592209489844 0.0 0.0
-1039.6460807102937 53.12616131725903 -493.665671837115 50.68349900544424 0.0 0.0
-1240.0101012103748 -157.26970539245406 -698.5904724030655 41.283331885245566 0.0 0.0
-1295.8215354064137 -233.40313791810763 -764.0642458214523 39.16428197022601 0.0 0.0
-1282.622595199297 -246.2535362137607 -763.6524688030056 41.063927690806665 0.0 0.0
-1242.5466491397742 -235.53104211987434 -738.171652245224 43.356150389725514 0.0 0.0
-1188.7326080761004 -213.66336663677947 -700.2970829358636 44.93652913087736 0.0 0.0
-1127.6168058284518 -186.57453412404482 -656.163506040514 46.078164883921744 0.0 0.0
-1062.7617978619414 -159.62088611795707 -610.2303572609214 47.01919209183721 0.0 0.0
-997.77878387234 -135.53654916763304 -565.658735203542 47.693540005091066 0.0 0.0
-932.7625933198058 -115.9894792618516 -523.1783955872154 47.55085990777835 0.0 0.0
-865.4747798200085 -99.43722330652078 -480.36754037446667 46.40796560062496 0.0 0.0
-791.4259666395988 -82.08181001919658 -430.0734061560946 44.99506509323646 0.0 0.0
-706.5607936571645 -64.15551919370128 -360.8579135747014 44.11051549833621 0.0 0.0
-611.3687696745345 -43.698037620537576 -263.8524635213656 44.31322806979432 0.0 0.0
-477.1756552579205 -18.093713538075153 -161.8673029491464 51.81692848590623 0.0 0.0
-320.2704171054187 -2.2940881603885384 -96.54457056412465 68.32521130835279 0.0 0.0
-185.61463527622456 -1.1575337326645003 -56.03165070266671 69.72034362298925 0.0 0.0
-85.98147516471168 -26.374075797056122 -33.706665288530324 47.64586098635104 0.0 0.0
-36.30403530826532 -19.587381995117894 -16.767425191014958 24.844460223051115 0.0 0.0
-32.87883981531735 -11.037234963659383 -13.174822433693015 -13.992155018856083 0.0 0.0
-83.81793781294152 -17.14949934671956 -30.290231147898325 -23.874875886484027 0.0 0.0
-197.94516256529496 -1.0799600981486837 -59.70753679903308 -33.9377886671926 0.0 0.0
-357.5151710636207 -7.5563918508410906 -109.73143595962455 -32.11840502955468 0.0 0.0
-527.0652419769187 -29.76065495068676 -190.96458611061925 -23.361225454423103 0.0 0.0
-646.0117961408788 -50.58404689004002 -296.2519833687841 -22.94372833058762 0.0 0.0
-735.8433089451024 -68.4711372255482 -384.60334510743917 -23.719781993095232 0.0 0.0
-821.1162942098556 -90.80375991619933 -451.51655699495007 -24.14342262579762 0.0 0.0
-898.1369377182283 -111.60955198970166 -503.3432718253954 -24.803757985016496 0.0 0.0
-969.217217853226 -132.136268053283 -549.798161310787 -25.557104931682805 0.0 0.0
-1037.753177163153 -154.7842234878131 -595.5654937855405 -25.901291269978053 0.0 0.0
-1106.0463771599389 -181.01519319820326 -642.8680862434283 -25.83311099059582 0.0 0.0
-1173.412040615143 -210.7248327160352 -691.4295586540577 -25.466556352685775 0.0 0.0
-1236.4042656341178 -238.51422727424787 -736.8516370280026 -24.931663570796967 0.0 0.0
-1288.0160688875535 -257.8341259832596 -772.368415236184 -24.04112997702348 0.0 0.0
-1322.0277301307087 -262.55456940579893 -791.802911532593 -22.331887902596108 0.0 0.0
-1336.0686750510083 -250.83525823921846 -793.0024528004171 -19.802429584198254 0.0 0.0
-1327.5579544005911 -221.36382496217894 -774.1504941251894 -18.95250218770984 0.0 0.0
-1209.457916055896 -90.35588995616189 -650.2535064231251 -26.96227776671612 0.0 0.0
-712.4206035886853 403.3697531668216 -155.17340926346003 -50.40788226354981 0.0 0.0
-3687.350307235068 -2605.148527509107 -3140.0290779892625 -1.6928680679484387e-11 0.0 0.0
-712.4206035886602 403.3697531668007 -155.17340926334523 50.40788226363003 0.0 0.0
-1209.4579160563082 -90.35588995663855 -650.2535064234364 26.962277766755985 0.0 0.0
-1327.5579544002976 -221.36382496199408 -774.150494125009 18.95250218774677 0.0 0.0
-1336.068675051398 -250.83525823970325 -793.0024528008558 19.802429584137286 0.0 0.0
-1322.0277301297053 -262.5545694049286 -791.802911531863 22.331887902559693 0.0 0.0
-1288.0160688866538 -257.83412598254574 -772.3684152355706 24.041129977147527 0.0 0.0
-1236.4042656338593 -238.51422727419936 -736.8516370277624 24.93166357089395 0.0 0.0
-1173.4120406148847 -210.72483271597298 -691.4295586539288 25.466556352703314 0.0 0.0
-1106.0463771585075 -181.01519319700884 -642.868086242454 25.833110990584167 0.0 0.0
-1037.7531771621802 -154.78422348710163 -595.5654937848717 25.901291269997934 0.0 0.0
-969.2172178533724 -132.13626805372326 -549.7981613108474 25.557104931712793 0.0 0.0
-898.1369377176028 -111.60955198936509 -503.34327182498333 24.80375798500829 0.0 0.0
-821.116294209544 -90.80375991619779 -451.51655699472406 24.14342262582367 0.0 0.0
-735.8433089445095 -68.47113722529046 -384.603345106935 23.71978199314696 0.0 0.0
-646.0117961404571 -50.584046889994795 -296.2519833683251 22.943728330535514 0.0 0.0
-527.0652419760471 -29.760654950048988 -190.96458611002322 23.361225454432 0.0 0.0
-357.51517106320523 -7.556391850778413 -109.73143595949217 32.11840502944669 0.0 0.0
-197.9451625651414 -1.0799600982772124 -59.70753679902559 33.93778866722969 0.0 0.0
-83.81793781292195 -17.149499346808444 -30.290231147919112 23.874875886470534 0.0 0.0
-32.87883981527166 -11.037234963615587 -13.174822433666177 13.992155018948157 0.0 0.0
-21.522292142481106 -5.636829405545826 -8.147736464408078 -8.562154246327829 0.0 0.0
-73.08546369680748 -9.80521562974416 -24.86720379796548 -9.923022583231655 0.0 0.0
-207.51857143708003 -3.2039502154056265 -63.21675649574567 -11.239458940661388 0.0 0.0
-402.5868810503246 -25.507286899109864 -130.5919557190004 -7.710733173020166 0.0 0.0
-597.7293232622593 -76.34372724618683 -240.513903888289 0.22057544143306274 0.0 0.0
-740.4667154877109 -127.16556766303128 -376.0034626670403 1.4057577785456736 0.0 0.0
-866.5359278582191 -184.13568076680943 -499.08877414454815 0.6016345437852131 0.0 0.0
-1000.0173557813232 -256.1655751009811 -613.5504698258187 -0.9028451679539167 0.0 0.0
-1141.0989725937447 -341.8291366253849 -729.7753901641138 -2.5939130416361067 0.0 0.0
-1298.4530290205823 -448.35482525164093 -862.2115301609865 -4.393365412293376 0.0 0.0
-1478.036571824598 -581.3924092254775 -1018.3386345423046 -6.0790396169859555 0.0 0.0
-1680.2716748534663 -741.6880014013836 -1199.2116212568988 -7.409202931230565 0.0 0.0
-1899.0821936884356 -921.7850977068716 -1398.2479493177811 -8.293921848752193 0.0 0.0
-2123.8767026387104 -1110.9312233875144 -1604.8890033117702 -8.997964117495375 0.0 0.0
-2337.947426084799 -1292.3525843984057 -1802.412954478717 -9.323584946114075 0.0 0.0
-2518.3571874239115 -1443.3797778321546 -1968.0522345582474 -8.975510937159104 0.0 0.0
-2638.268626754535 -1537.8883006822477 -2075.2821007954262 -7.566049187375572 0.0 0.0
-2685.954428316528 -1564.9677016379135 -2112.332148975274 -6.082667050021289 0.0 0.0
-2741.866615188055 -1606.4062568203678 -2159.605184815804 -12.714801518199689 0.0 0.0
-2823.4233047902535 -1686.56937223314 -2238.006097923323 -40.17125125084799 0.0 0.0
-6322.9415392477495 -5212.834984186706 -5743.88997477302 -6.792788553866558e-12 0.0 0.0
-2823.4233047897533 -1686.5693722326782 -2238.006097922773 40.17125125087996 0.0 0.0
-2741.8666151886255 -1606.4062568210343 -2159.605184815993 12.714801518298067 0.0 0.0
-2685.954428314547 -1564.9677016360133 -2112.3321489735517 6.082667050001895 0.0 0.0
-2638.268626754465 -1537.8883006822944 -2075.282100795362 7.566049187336951 0.0 0.0
-2518.357187423534 -1443.3797778319513 -1968.0522345576137 8.975510937164358 0.0 0.0
-2337.9474260825355 -1292.3525843962816 -1802.412954477063 9.323584946152891 0.0 0.0
-2123.876702638259 -1110.9312233872865 -1604.8890033111556 8.997964117459986 0.0 0.0
-1899.0821936879204 -921.7850977065809 -1398.2479493171911 8.29392184885494 0.0 0.0
-1680.2716748510975 -741.6880013992541 -1199.2116212551512 7.4092029312350824 0.0 0.0
-1478.0365718218777 -581.3924092229861 -1018.3386345402206 6.0790396172034775 0.0 0.0
-1298.4530290206544 -448.35482525201115 -862.2115301608501 4.393365412151152 0.0 0.0
-1141.0989725927943 -341.8291366247304 -729.7753901633507 2.593913041680775 0.0 0.0
-1000.0173557815369 -256.1655751015138 -613.5504698257988 0.9028451679001677 0.0 0.0
-866.5359278572166 -184.1356807661628 -499.0887741437499 -0.6016345438600155 0.0 0.0
-740.466715487007 -127.16556766266021 -376.0034626663455 -1.4057577786593214 0.0 0.0
-597.7293232612116 -76.3437272453033 -240.51390388753487 -0.2205754414593244 0.0 0.0
-402.5868810499221 -25.507286899058478 -130.59195571882975 7.710733173084904 0.0 0.0
-207.5185714367983 -3.203950215617027 -63.21675649572461 11.239458940442441 0.0 0.0
-73.0854636966079 -9.805215629749336 -24.867203797907173 9.923022583348004 0.0 0.0
-21.52229214245097 -5.636829405520769 -8.147736464391519 8.562154246410106 0.0 0.0
SCALARS Strain float 6
LOOKUP_TABLE default
0.014808204717600297 -0.024571138467328148 0.0 -0.0014848282376498318 0.0 0.0
0.00910096063100672 -0.0027621796963892796 0.0 -0.007448108898087559 0.0 0.0
0.002686112001868221 -0.0006246659041400595 0.0 -0.0008988496807801166 0.0 0.0
0.0022785304153901792 -0.0009056389398719084 0.0 1.454114965409752e-05 0.0 0.0
0.003403605078650799 -0.0015025291084204227 0.0 0.00020229956030076083 0.0 0.0
0.0058672453034829 -0.0033709251345372974 0.0 0.00036816227384985415 0.0 0.0
0.010143109630654826 -0.0070381067453043 0.0 0.00048741247568710754 0.0 0.0
0.016594854034182413 -0.012857218780014702 0.0 0.0005281020087849837 0.0 0.0
0.025507219405986978 -0.021082322958144026 0.0 0.00048812135273764145 0.0 0.0
0.0369819387262959 -0.03175903119705682 0.0 0.00033675073952957026 0.0 0.0
0.050935266532135995 -0.044768495458670995 0.0 0.00010656868184849642 0.0 0.0
0.06717393156081364 -0.05991510631990228 0.0 -0.00019319319236402795 0.0 0.0
0.08545847705618899 -0.07699525646014647 0.0 -0.0005811376132770169 0.0 0.0
0.10553271819037452 -0.09579729395458508 0.0 -0.0010111787574487267 0.0 0.0
0.127049905512237 -0.11603175425899823 0.0 -0.001509617086108069 0.0 0.0
0.14942550585221834 -0.1371792664062343 0.0 -0.002053836561887704 0.0 0.0
0.17174066892847537 -0.15838788032737586 0.0 -0.0025341452458658006 0.0 0.0
0.1927410730754982 -0.1784697053040189 0.0 -0.0027689212784562985 0.0 0.0
0.21095764166873393 -0.1959667162482131 0.0 -0.00260137422168147 0.0 0.0
0.22458461031372795 -0.20915711733132608 0.0 -0.003041159523771958 0.0 0.0
0.2299905198585101 -0.2146191499139678 0.0 4.584874147006701e-15 0.0 0.0
0.22458461031369692 -0.20915711733130377 0.0 0.003041159523778038 0.0 0.0
0.2109576416686702 -0.1959667162481415 0.0 0.0026013742216920797 0.0 0.0
0.19274107307540694 -0.17846970530392686 0.0 0.002768921278459154 0.0 0.0
0.17174066892836884 -0.15838788032728798 0.0 0.002534145245865236 0.0 0.0
0.14942550585210748 -0.1371792664061266 0.0 0.0020538365618830365 0.0 0.0
0.127049905512126 -0.11603175425889764 0.0 0.0015096170861089433 0.0 0.0
0.10553271819026394 -0.0957972939544845 0.0 0.001011178757447005 0.0 0.0
0.0854584770560809 -0.07699525646004915 0.0 0.0005811376132766602 0.0 0.0
0.06717393156071404 -0.05991510631980558 0.0 0.00019319319236154285 0.0 0.0
0.050935266532050154 -0.044768495458591503 0.0 -0.00010656868185245083 0.0 0.0
0.036981938726226016 -0.03175903119699451 0.0 -0.00033675073953334453 0.0 0.0
0.025507219405933697 -0.02108232295809816 0.0 -0.00048812135273630446 0.0 0.0
0.01659485403414492 -0.012857218779977964 0.0 -0.0005281020087882786 0.0 0.0
0.010143109630630165 -0.007038106745278518 0.0 -0.0004874124756862238 0.0 0.0
0.005867245303469196 -0.003370925134526118 0.0 -0.0003681622738509275 0.0 0.0
0.00340360507864509 -0.0015025291084185223 0.0 -0.0002022995602972547 0.0 0.0
0.002278530415388647 -0.0009056389398707577 0.0 -1.4541149652179953e-05 0.0 0.0
0.002686112001866596 -0.0006246659041391279 0.0 0.0008988496807771828 0.0 0.0
0.0091009606310011 -0.002762179696385117 0.0 0.0074481088980776575 0.0 0.0
0.01480820471759212 -0.024571138467303785 0.0 0.0014848282375970212 0.0 0.0
0.010388087103042905 -0.02205628983699189 0.0 -0.0010153763151314386 0.0 0.0
0.006076008118098311 -0.002068603765178112 0.0 -0.006104537562074054 0.0 0.0
0.0017577839269717365 -0.00047410853427948144 0.0 -0.0005679331747307118 0.0 0.0
0.0020041510753478755 -0.0008511805321140722 0.0 -0.00018964085842507056 0.0 0.0
0.0029224871254757206 -0.0013479779354764574 0.0 -0.0001489914332586377 0.0 0.0
0.005018761527483366 -0.003018899290126379 0.0 -0.00023722153835287 0.0 0.0
0.008822582014546955 -0.006435053309056023 0.0 -0.0005590905444593608 0.0 0.0
0.014674659555352982 -0.01194644531019117 0.0 -0.0010733684014253638 0.0 0.0
0.02280382683845101 -0.01977761938976144 0.0 -0.0017994098841081045 0.0 0.0
0.03324586735752871 -0.029940547734710957 0.0 -0.002707030853143252 0.0 0.0
0.04588049657151654 -0.042297314722000226 0.0 -0.0037072743712988597 0.0 0.0
0.060524357108375115 -0.056653962018721596 0.0 -0.0047298857783059575 0.0 0.0
0.07699866896615082 -0.07283254944428257 0.0 -0.005780751636332886 0.0 0.0
0.09510287046568414 -0.0906540442778806 0.0 -0.00686323104913953 0.0 0.0
0.11453650345189992 -0.1098496244615203 0.0 -0.00794307611008127 0.0 0.0
0.1347935787543304 -0.12994009885274727 0.0 -0.008920020648951277 0.0 0.0
0.1550705810433637 -0.15013814519510527 0.0 -0.009547004257917165 0.0 0.0
0.17425297919101757 -0.16932582817834346 0.0 -0.009484818630669658 0.0 0.0
0.19088364609551361 -0.18607296677623109 0.0 -0.008566205032260354 0.0 0.0
0.2028245487707024 -0.19847789878831965 0.0 -0.007568023158327863 0.0 0.0
0.20729432467701173 -0.20366506352817268 0.0 8.047382205056408e-15 0.0 0.0
0.20282454877067294 -0.19847789878829564 0.0 0.0075680231583500025 0.0 0.0
0.19088364609545627 -0.18607296677617072 0.0 0.00856620503228701 0.0 0.0
0.17425297919093796 -0.16932582817826075 0.0 0.009484818630681176 0.0 0.0
0.15507058104327037 -0.15013814519501908 0.0 0.009547004257917196 0.0 0.0
0.13479357875423123 -0.12994009885264932 0.0 0.008920020648945322 0.0 0.0
0.11453650345179911 -0.10984962446142697 0.0 0.00794307611007872 0.0 0.0
0.09510287046558422 -0.09065404427778431 0.0 0.006863231049137928 0.0 0.0
0.07699866896605367 -0.07283254944418768 0.0 0.005780751636327901 0.0 0.0
0.06052435710828506 -0.0566539620186302 0.0 0.0047298857782994835 0.0 0.0
0.04588049657143868 -0.04229731472192434 0.0 0.003707274371289472 0.0 0.0
0.033245867357465146 -0.029940547734651143 0.0 0.002707030853135098 0.0 0.0
0.022803826838402663 -0.019777619389713088 0.0 0.0017994098841040103 0.0 0.0
0.014674659555319297 -0.011946445310156519 0.0 0.0010733684014211536 0.0 0.0
0.008822582014525227 -0.006435053309035304 0.0 0.0005590905444558501 0.0 0.0
0.005018761527471763 -0.0030188992901150243 0.0 0.0002372215383517513 0.0 0.0
0.0029224871254717793 -0.0013479779354742725 0.0 0.00014899143325956612 0.0 0.0
0.0020041510753470142 -0.0008511805321142102 0.0 0.0001896408584258987 0.0 0.0
0.0017577839269712473 -0.00047410853427926893 0.0 0.0005679331747280654 0.0 0.0
0.0060760081180910325 -0.0020686037651747053 0.0 0.006104537562062392 0.0 0.0
0.010388087103028788 -0.022056289836965604 0.0 0.0010153763150918043 0.0 0.0
0.007634494506401161 -0.017630947236345746 0.0 -0.004089603933463082 0.0 0.0
0.004321464775615107 -0.0011565695960067909 0.0 -0.0061855393404742975 0.0 0.0
0.0012182780087855404 -0.00025058131102781867 0.0 -0.0005078480272438968 0.0 0.0
0.001694276952627995 -0.0007193055420457841 0.0 -0.00047950686078402944 0.0 0.0
0.0024866222972884846 -0.0010803438243677061 0.0 -0.000493619269720469 0.0 0.0
0.004215881227674732 -0.0023562295371447597 0.0 -0.0006602250262382547 0.0 0.0
0.007518927704435853 -0.005249737367262241 0.0 -0.001275773529683009 0.0 0.0
0.012738442983960326 -0.010130084374974669 0.0 -0.0022706684735931465 0.0 0.0
0.02004116760928975 -0.017150707328370176 0.0 -0.003657769647387318 0.0 0.0
0.029417413744242386 -0.02627109621525134 0.0 -0.005348902278131649 0.0 0.0
0.04071939225323452 -0.0373148995187303 0.0 -0.007183234017594475 0.0 0.0
0.05376978092945447 -0.050093443642498126 0.0 -0.009019099263829822 0.0 0.0
0.0684228252245932 -0.06446766355206195 0.0 -0.010836096845983542 0.0 0.0
0.08453642976629465 -0.08031585757752235 0.0 -0.012691736281632582 0.0 0.0
0.10187330682614248 -0.09742493992813357 0.0 -0.0145483125145911 0.0 0.0
0.12001394123586505 -0.11539962659450548 0.0 -0.01620321923665879 0.0 0.0
0.13828877452485402 -0.13358510118379494 0.0 -0.01725886245112025 0.0 0.0
0.1556955477672022 -0.15100001652408507 0.0 -0.01721638066558533 0.0 0.0
0.17076545888123595 -0.1662471968172969 0.0 -0.015794436968678598 0.0 0.0
0.18159671330446855 -0.1773582095399154 0.0 -0.01305166012415137 0.0 0.0
0.18569578420868368 -0.18229461033059507 0.0 1.4556064686921388e-14 0.0 0.0
0.18159671330444227 -0.1773582095398893 0.0 0.013051660124190914 0.0 0.0
0.17076545888118475 -0.16624719681724742 0.0 0.015794436968721823 0.0 0.0
0.15569554776713243 -0.15100001652401412 0.0 0.017216380665608166 0.0 0.0
0.13828877452477223 -0.13358510118371736 0.0 0.017258862451122733 0.0 0.0
0.1200139412357766 -0.11539962659441588 0.0 0.01620321923665379 0.0 0.0
0.10187330682605233 -0.09742493992804303 0.0 0.014548312514586784 0.0 0.0
0.08453642976620575 -0.0803158575774379 0.0 0.01269173628163035 0.0 0.0
0.06842282522450754 -0.0644676635519705 0.0 0.010836096845973048 0.0 0.0
0.05376978092937429 -0.05009344364241917 0.0 0.00901909926381512 0.0 0.0
0.040719392253165065 -0.037314899518661175 0.0 0.007183234017581452 0.0 0.0
0.029417413744185855 -0.0262710962151964 0.0 0.0053489022781209586 0.0 0.0
0.020041167609246312 -0.017150707328323852 0.0 0.003657769647380753 0.0 0.0
0.012738442983930004 -0.010130084374945877 0.0 0.0022706684735870676 0.0 0.0
0.007518927704417233 -0.005249737367247096 0.0 0.0012757735296779194 0.0 0.0
0.004215881227665873 -0.002356229537135279 0.0 0.0006602250262398713 0.0 0.0
0.002486622297284856 -0.0010803438243679152 0.0 0.0004936192697198476 0.0 0.0
0.001694276952627215 -0.0007193055420447116 0.0 0.0004795068607842271 0.0 0.0
0.0012182780087860211 -0.0002505813110290728 0.0 0.0005078480272431226 0.0 0.0
0.004321464775608463 -0.0011565695960036389 0.0 0.006185539340458966 0.0 0.0
0.007634494506387647 -0.017630947236318993 0.0 0.004089603933438774 0.0 0.0
0.005780673355755746 -0.014217626211623757 0.0 -0.004527439515975026 0.0 0.0
0.003197419236528974 -0.000833158134270215 0.0 -0.005644987750127166 0.0 0.0
0.0008654765541602726 -0.00013974411881164 0.0 -0.000789758333211017 0.0 0.0
0.0013952336488162603 -0.0005695596976400879 0.0 -0.0007737653760124699 0.0 0.0
0.002089991769986773 -0.0008758080398235961 0.0 -0.0008234167996523241 0.0 0.0
0.0034774663855252387 -0.0017953678970546879 0.0 -0.0010207917348380331 0.0 0.0
0.006254899155954194 -0.00412640541547591 0.0 -0.0017581406181012582 0.0 0.0
0.010805254124284095 -0.008333781284487382 0.0 -0.003138404834465905 0.0 0.0
0.01724889164777917 -0.014506623025213168 0.0 -0.005024449548599547 0.0 0.0
0.02553270368638278 -0.02255494668205294 0.0 -0.007306717960368992 0.0 0.0
0.03548686459870448 -0.03227250513956991 0.0 -0.009762111300242205 0.0 0.0
0.04693933581862925 -0.04347124531701429 0.0 -0.01221303182931221 0.0 0.0
0.05977050494132945 -0.056039258321890134 0.0 -0.01463107031177948 0.0 0.0
0.073877614237091 -0.06989964722776648 0.0 -0.017066566824607984 0.0 0.0
0.0890969584008506 -0.08490319786991422 0.0 -0.019486226443897695 0.0 0.0
0.1051144487862827 -0.10075079023252949 0.0 -0.021667251412609168 0.0 0.0
0.12138377989802267 -0.1169226038578991 0.0 -0.023141290823016813 0.0 0.0
0.1370201013668942 -0.13257112115072914 0.0 -0.023305006086837464 0.0 0.0
0.15069847434393607 -0.14638995733910606 0.0 -0.02153876114888709 0.0 0.0
0.1607806869582786 -0.15665713295451797 0.0 -0.016942242751971648 0.0 0.0
0.16470817252021686 -0.16175583320010628 0.0 2.1768177538294964e-14 0.0 0.0
0.16078068695825437 -0.15665713295449252 0.0 0.016942242752024328 0.0 0.0
0.15069847434389008 -0.1463899573390584 0.0 0.021538761148941196 0.0 0.0
0.13702010136683326 -0.13257112115066533 0.0 0.023305006086866482 0.0 0.0
0.12138377989795168 -0.11692260385783335 0.0 0.023141290823018443 0.0 0.0
0.1051144487862054 -0.10075079023244228 0.0 0.021667251412600695 0.0 0.0
0.08909695840077156 -0.08490319786982985 0.0 0.019486226443890402 0.0 0.0
0.07387761423701275 -0.06989964722769212 0.0 0.017066566824601177 0.0 0.0
0.059770504941254396 -0.056039258321812474 0.0 0.014631070311763885 0.0 0.0
0.04693933581855978 -0.04347124531694402 0.0 0.01221303182929218 0.0 0.0
0.03548686459864363 -0.032272505139511236 0.0 0.009762111300224632 0.0 0.0
0.025532703686332908 -0.022554946682004414 0.0 0.007306717960353242 0.0 0.0
0.017248891647741064 -0.014506623025178775 0.0 0.00502444954858986 0.0 0.0
0.010805254124257757 -0.008333781284465927 0.0 0.003138404834456643 0.0 0.0
0.00625489915593871 -0.0041264054154631444 0.0 0.0017581406180967722 0.0 0.0
0.003477466385517935 -0.0017953678970472169 0.0 0.0010207917348376574 0.0 0.0
0.0020899917699844996 -0.0008758080398249096 0.0 0.0008234167996513779 0.0 0.0
0.0013952336488157215 -0.0005695596976388826 0.0 0.0007737653760118825 0.0 0.0
0.0008654765541600383 -0.00013974411881308098 0.0 0.0007897583332105195 0.0 0.0
0.0031974192365226586 -0.0008331581342670664 0.0 0.0056449877501119055 0.0 0.0
0.005780673355743102 -0.014217626211599851 0.0 0.004527439515956308 0.0 0.0
0.00439263947101711 -0.011469103821835247 0.0 -0.004021286264174876 0.0 0.0
0.002396496632484047 -0.0006621206089550218 0.0 -0.0050337876658521135 0.0 0.0
0.0006276584607355312 -8.762122728002197e-05 0.0 -0.0011857962565972986 0.0 0.0
0.0011265101909537908 -0.0004329539603271667 0.0 -0.0010923971041923485 0.0 0.0
0.0017285050355488219 -0.0007096331678213696 0.0 -0.001149704420264725 0.0 0.0
0.0028169191527254362 -0.0013494129687386719 0.0 -0.0013379987780373311 0.0 0.0
0.00505760274521649 -0.0031122385436794142 0.0 -0.002081215627776419 0.0 0.0
0.008898481848678596 -0.0065832815209058634 0.0 -0.0036388159442292452 0.0 0.0
0.01445790453337455 -0.011878064669635799 0.0 -0.00589051935531066 0.0 0.0
0.021625522920261684 -0.0188296590092373 0.0 -0.008574986957422334 0.0 0.0
0.030219438978573557 -0.027207876794500613 0.0 -0.011449835327341628 0.0 0.0
0.040066764018205664 -0.03682164229539517 0.0 -0.014314705450222691 0.0 0.0
0.051069907983303596 -0.047580822352772285 0.0 -0.017143376165952583 0.0 0.0
0.06317076812024469 -0.05944886961651867 0.0 -0.019983069036079888 0.0 0.0
0.07626091469797495 -0.07233568282798496 0.0 -0.02277766840168592 0.0 0.0
0.09012188136872837 -0.08603211327712537 0.0 -0.02530006419492333 0.0 0.0
0.1043500118467202 -0.10015135170856847 0.0 -0.02713107676362911 0.0 0.0
0.11822781776391535 -0.11401229052709161 0.0 -0.027611835189601603 0.0 0.0
0.13064635042685666 -0.12652521016747886 0.0 -0.02568191797142482 0.0 0.0
0.14020456826087857 -0.13622690045281208 0.0 -0.019881299861219427 0.0 0.0
0.14408223166652095 -0.14168539189181312 0.0 2.634958223834971e-14 0.0 0.0
0.14020456826085714 -0.13622690045279046 0.0 0.01988129986127738 0.0 0.0
0.13064635042681605 -0.12652521016743862 0.0 0.02568191797148351 0.0 0.0
0.11822781776386201 -0.11401229052704218 0.0 0.02761183518963787 0.0 0.0
0.10435001184665922 -0.10015135170850946 0.0 0.02713107676363391 0.0 0.0
0.09012188136866162 -0.08603211327705167 0.0 0.025300064194915622 0.0 0.0
0.07626091469790673 -0.07233568282791407 0.0 0.02277766840167536 0.0 0.0
0.06317076812017751 -0.05944886961644938 0.0 0.019983069036070143 0.0 0.0
0.05106990798323933 -0.047580822352707476 0.0 0.017143376165937117 0.0 0.0
0.040066764018146704 -0.03682164229533452 0.0 0.01431470545020292 0.0 0.0
0.03021943897852139 -0.027207876794455365 0.0 0.011449835327318041 0.0 0.0
0.021625522920218757 -0.018829659009197648 0.0 0.008574986957403054 0.0 0.0
0.014457904533342052 -0.011878064669606248 0.0 0.005890519355295491 0.0 0.0
0.008898481848656192 -0.00658328152088791 0.0 0.003638815944218537 0.0 0.0
0.005057602745203702 -0.003112238543669525 0.0 0.0020812156277709277 0.0 0.0
0.002816919152719953 -0.0013494129687351111 0.0 0.0013379987780362652 0.0 0.0
0.0017285050355474454 -0.0007096331678214915 0.0 0.001149704420264839 0.0 0.0
0.0011265101909538942 -0.0004329539603288999 0.0 0.0010923971041899906 0.0 0.0
0.0006276584607354326 -8.762122728033075e-05 0.0 0.0011857962565943242 0.0 0.0
0.0023964966324785224 -0.0006621206089526574 0.0 0.005033787665839627 0.0 0.0
0.004392639471006489 -0.011469103821814432 0.0 0.004021286264161636 0.0 0.0
0.0033013583688722824 -0.00917433023506799 0.0 -0.0033276506115885894 0.0 0.0
0.0017888474876789767 -0.0005450875246343957 0.0 -0.004440301346365139 0.0 0.0
0.00045788032770528557 -7.102122421652189e-05 0.0 -0.0015650737445618212 0.0 0.0
0.0008848699067398273 -0.00031174383596261663 0.0 -0.0014125608058483403 0.0 0.0
0.0013984338783150597 -0.0005695136306469897 0.0 -0.0014724756872311665 0.0 0.0
0.0022308698309308587 -0.0010040972575932152 0.0 -0.0016245883530210383 0.0 0.0
0.0039602241322825565 -0.002247615758199474 0.0 -0.002318891328838037 0.0 0.0
0.007059193791390698 -0.004937611346846001 0.0 -0.003836580906783893 0.0 0.0
0.011691076186482416 -0.009298104904210505 0.0 -0.006230038886715572 0.0 0.0
0.01772952294211862 -0.015132415199916694 0.0 -0.009144969439044581 0.0 0.0
0.02495090669086418 -0.02215884353160609 0.0 -0.012239973306476212 0.0 0.0
0.03318865148106465 -0.030183215741272147 0.0 -0.015322815474374796 0.0 0.0
0.042361983422351264 -0.03913164715814737 0.0 -0.0183620568813785 0.0 0.0
0.05244826018509155 -0.04900437932753751 0.0 -0.021407138189599148 0.0 0.0
0.06340325195134495 -0.059768213485523816 0.0 -0.024403408015344203 0.0 0.0
0.07508517845647147 -0.07129033140720516 0.0 -0.027113186042777092 0.0 0.0
0.08721282307956922 -0.08329834753512165 0.0 -0.02917313522114179 0.0 0.0
0.09930001192556147 -0.09532363708191594 0.0 -0.02997376270550447 0.0 0.0
0.1105234139378333 -0.10658655053180095 0.0 -0.028233349783650885 0.0 0.0
0.11970331965880501 -0.11588901811108954 0.0 -0.022012101682558814 0.0 0.0
0.12361610574933232 -0.12186506975611483 0.0 2.5712938722666223e-14 0.0 0.0
0.119703319658786 -0.11588901811106944 0.0 0.022012101682619065 0.0 0.0
0.1105234139377988 -0.10658655053176976 0.0 0.02823334978371228 0.0 0.0
0.09930001192551655 -0.09532363708187519 0.0 0.029973762705542244 0.0 0.0
0.08721282307951796 -0.08329834753507202 0.0 0.02917313522114843 0.0 0.0
0.07508517845641498 -0.07129033140714448 0.0 0.02711318604276753 0.0 0.0
0.06340325195128735 -0.059768213485465294 0.0 0.024403408015331855 0.0 0.0
0.05244826018503561 -0.04900437932748144 0.0 0.021407138189586665 0.0 0.0
0.04236198342229819 -0.039131647158091566 0.0 0.018362056881364355 0.0 0.0
0.03318865148101592 -0.030183215741222992 0.0 0.015322815474355194 0.0 0.0
0.02495090669082073 -0.02215884353156604 0.0 0.012239973306452823 0.0 0.0
0.017729522942082843 -0.015132415199887263 0.0 0.009144969439023433 0.0 0.0
0.011691076186455401 -0.009298104904185197 0.0 0.006230038886700261 0.0 0.0
0.007059193791372841 -0.004937611346830602 0.0 0.003836580906772715 0.0 0.0
0.003960224132273187 -0.002247615758190733 0.0 0.002318891328832435 0.0 0.0
0.002230869830927523 -0.0010040972575927473 0.0 0.0016245883530192824 0.0 0.0
0.0013984338783142082 -0.0005695136306466972 0.0 0.0014724756872318433 0.0 0.0
0.0008848699067393558 -0.0003117438359628497 0.0 0.001412560805846059 0.0 0.0
0.00045788032770495586 -7.102122421621731e-05 0.0 0.0015650737445596365 0.0 0.0
0.001788847487674714 -0.0005450875246321252 0.0 0.00444030134635565 0.0 0.0
0.003301358368863914 -0.00917433023505069 0.0 0.0033276506115793095 0.0 0.0
0.002432293664221533 -0.007234432915260639 0.0 -0.0026880607609022977 0.0 0.0
0.0013143023964893893 -0.0004547286224556551 0.0 -0.0039024906549712845 0.0 0.0
0.00032638686272938507 -6.883867859351307e-05 0.0 -0.0018784573237084212 0.0 0.0
0.0006619091637874687 -0.00020432015451719388 0.0 -0.0017085287024269829 0.0 0.0
0.001090424566429604 -0.0004391492485980906 0.0 -0.0017718464057571224 0.0 0.0
0.0017098722184712405 -0.0007408371885744961 0.0 -0.0019074729925588059 0.0 0.0
0.0029703842193446735 -0.0015432184162786605 0.0 -0.002470748158282591 0.0 0.0
0.005335592865062031 -0.003466169361171458 0.0 -0.003842339189599018 0.0 0.0
0.008999871730801575 -0.00682916924515757 0.0 -0.006089539040309974 0.0 0.0
0.013874664291615948 -0.011504311264878933 0.0 -0.008990556709397069 0.0 0.0
0.01971679850190343 -0.017165567739037293 0.0 -0.012114878796919746 0.0 0.0
0.026340168718300975 -0.023596222888926155 0.0 -0.015224439805604745 0.0 0.0
0.033683163494341 -0.030736204378751956 0.0 -0.01827541952377799 0.0 0.0
0.04175580874495024 -0.0386129380419286 0.0 -0.02132398547857864 0.0 0.0
0.050563482278849034 -0.04724498925787013 0.0 -0.024327750705613112 0.0 0.0
0.06003846414425726 -0.05657304315192335 0.0 -0.027073881991325974 0.0 0.0
0.07001543052010661 -0.06641596247410836 0.0 -0.029212776028031597 0.0 0.0
0.08023405374370376 -0.07651662984035405 0.0 -0.030286310953529544 0.0 0.0
0.09022611159858687 -0.08648130775350321 0.0 -0.02908953539826992 0.0 0.0
0.09909765725562142 -0.09545561881443991 0.0 -0.02331741863378275 0.0 0.0
0.10310858587410907 -0.10209623383482752 0.0 2.555681360982831e-14 0.0 0.0
0.09909765725560564 -0.09545561881441852 0.0 0.023317418633845136 0.0 0.0
0.09022611159855831 -0.08648130775347859 0.0 0.029089535398333907 0.0 0.0
0.08023405374366649 -0.07651662984031891 0.0 0.030286310953569248 0.0 0.0
0.07001543052006477 -0.06641596247407056 0.0 0.029212776028038318 0.0 0.0
0.06003846414421132 -0.05657304315186959 0.0 0.027073881991314518 0.0 0.0
0.05056348227880276 -0.047244989257823326 0.0 0.024327750705603172 0.0 0.0
0.04175580874490653 -0.0386129380418902 0.0 0.02132398547856497 0.0 0.0
0.033683163494299444 -0.030736204378710635 0.0 0.018275419523764866 0.0 0.0
0.026340168718262044 -0.02359622288888546 0.0 0.015224439805585112 0.0 0.0
0.01971679850186841 -0.017165567739004454 0.0 0.012114878796895469 0.0 0.0
0.013874664291587447 -0.011504311264852327 0.0 0.00899055670937482 0.0 0.0
0.0089998717307807 -0.006829169245138147 0.0 0.006089539040296771 0.0 0.0
0.005335592865048488 -0.0034661693611606212 0.0 0.0038423391895901927 0.0 0.0
0.002970384219337715 -0.0015432184162729682 0.0 0.002470748158277611 0.0 0.0
0.0017098722184688958 -0.0007408371885753605 0.0 0.0019074729925562493 0.0 0.0
0.0010904245664286683 -0.0004391492485970235 0.0 0.0017718464057540958 0.0 0.0
0.0006619091637870056 -0.00020432015451727516 0.0 0.0017085287024242472 0.0 0.0
0.0003263868627291092 -6.883867859314754e-05 0.0 0.0018784573237064744 0.0 0.0
0.0013143023964858806 -0.00045472862245410107 0.0 0.0039024906549626837 0.0 0.0
0.0024322936642152643 -0.007234432915246712 0.0 0.0026880607608960505 0.0 0.0
0.001740476187044879 -0.005601253574176783 0.0 -0.0021868075707618057 0.0 0.0
0.0009378754544952199 -0.000386239548085201 0.0 -0.0034177979662877505 0.0 0.0
0.0002135395375515587 -6.503568085590912e-05 0.0 -0.002115919288665333 0.0 0.0
0.00044999200446220456 -0.00010845088029927745 0.0 -0.001962364608517624 0.0 0.0
0.0007922659401418321 -0.0003058992636727235 0.0 -0.002026866881348394 0.0 0.0
0.0012449981818091849 -0.0005326378856244344 0.0 -0.0021879875881618263 0.0 0.0
0.0020928110395526133 -0.0009999250626244144 0.0 -0.0025847054872597092 0.0 0.0
0.0037520922801127232 -0.0022153964240665047 0.0 -0.0036754867896394306 0.0 0.0
0.0064433896911209555 -0.004560294430339028 0.0 -0.005578466480445527 0.0 0.0
0.01011333604472745 -0.008015603343748753 0.0 -0.008149831905735623 0.0 0.0
0.014548411694618294 -0.012277740365804885 0.0 -0.011054046224548057 0.0 0.0
0.019556864861745498 -0.01710858415757798 0.0 -0.013983396673353144 0.0 0.0
0.025074651550396596 -0.02244480261846395 0.0 -0.016854985843238968 0.0 0.0
0.03113094567740378 -0.02832823532437742 0.0 -0.019706164761911404 0.0 0.0
0.0377821681460021 -0.034819182588444984 0.0 -0.022528847487657093 0.0 0.0
0.04503221348623201 -0.04193168098548464 0.0 -0.02514660595287331 0.0 0.0
0.052801581078426765 -0.049572718779678886 0.0 -0.027220695144103652 0.0 0.0
0.06103169765327189 -0.05763262367160926 0.0 -0.028409323728410103 0.0 0.0
0.069657337543799 -0.06612414032219392 0.0 -0.02800408833163907 0.0 0.0
0.07819252040171815 -0.07471686538344212 0.0 -0.02364811877719663 0.0 0.0
0.08233228346168894 -0.08216657116386858 0.0 2.1376997394462194e-14 0.0 0.0
0.07819252040170654 -0.07471686538342426 0.0 0.02364811877725259 0.0 0.0
0.06965733754377683 -0.06612414032217366 0.0 0.02800408833170058 0.0 0.0
0.061031697653242414 -0.05763262367158353 0.0 0.028409323728446317 0.0 0.0
0.052801581078394076 -0.049572718779649715 0.0 0.027220695144108915 0.0 0.0
0.04503221348619704 -0.04193168098544656 0.0 0.02514660595285822 0.0 0.0
0.03778216814596718 -0.03481918258840888 0.0 0.022528847487644384 0.0 0.0
0.031130945677371444 -0.028328235324343493 0.0 0.01970616476190088 0.0 0.0
0.025074651550366013 -0.022444802618433148 0.0 0.016854985843229434 0.0 0.0
0.019556864861716608 -0.01710858415754968 0.0 0.013983396673332073 0.0 0.0
0.014548411694592499 -0.012277740365786044 0.0 0.011054046224525082 0.0 0.0
0.010113336044706357 -0.00801560334372377 0.0 0.008149831905715822 0.0 0.0
0.006443389691105915 -0.004560294430323627 0.0 0.0055784664804331315 0.0 0.0
0.0037520922801033835 -0.0022153964240584326 0.0 0.00367548678963238 0.0 0.0
0.002092811039548136 -0.0009999250626230578 0.0 0.002584705487253639 0.0 0.0
0.0012449981818079907 -0.0005326378856232916 0.0 0.002187987588159748 0.0 0.0
0.000792265940141358 -0.00030589926367376326 0.0 0.0020268668813456653 0.0 0.0
0.00044999200446193594 -0.00010845088030018199 0.0 0.0019623646085164263 0.0 0.0
0.00021353953755153787 -6.503568085471888e-05 0.0 0.002115919288663343 0.0 0.0
0.0009378754544929191 -0.00038623954808492643 0.0 0.003417797966280428 0.0 0.0
0.0017404761870402133 -0.005601253574165839 0.0 0.0021868075707574043 0.0 0.0
0.0012120048206690185 -0.004265300531824586 0.0 -0.0018549261322951842 0.0 0.0
0.0006409985216166746 -0.0003411305605243363 0.0 -0.002987236130261709 0.0 0.0
0.00010303251945374179 -4.810106498559956e-05 0.0 -0.0022817068237109867 0.0 0.0
0.0002456045679925082 -2.1479865651815944e-05 0.0 -0.002163094198959074 0.0 0.0
0.0004948051515473368 -0.00016810246080276435 0.0 -0.0022259788824337914 0.0 0.0
0.0008117704892997841 -0.00034360820833333444 0.0 -0.002434491577933665 0.0 0.0
0.0013256566353690457 -0.000601551013577939 0.0 -0.002735651573570079 0.0 0.0
0.0023341011308129597 -0.0012299989765633035 0.0 -0.0034154397735715204 0.0 0.0
0.004066002761332629 -0.002591516733720582 0.0 -0.004776343636465431 0.0 0.0
0.006510754939405884 -0.004781717588861768 0.0 -0.006733651033592191 0.0 0.0
0.009502368226275723 -0.007589097657463892 0.0 -0.009100222254482425 0.0 0.0
0.012876659628009114 -0.010796631720269761 0.0 -0.011587481698106122 0.0 0.0
0.016570441927007427 -0.014326307099372639 0.0 -0.014089171016443334 0.0 0.0
0.02061668361435391 -0.01822343163975747 0.0 -0.0165727488007052 0.0 0.0
0.02509883829634768 -0.02256471225904645 0.0 -0.019026217087795443 0.0 0.0
0.0300984844057766 -0.027432011794329702 0.0 -0.021374248342311993 0.0 0.0
0.03563621216923776 -0.032844738446704366 0.0 -0.023333805606857896 0.0 0.0
0.04174670771008882 -0.038784799083276214 0.0 -0.024495585287038463 0.0 0.0
0.04872760755250458 -0.04550570623098631 0.0 -0.02464583125820217 0.0 0.0
0.05674974407647869 -0.053429536978356805 0.0 -0.022583244185485473 0.0 0.0
0.06100108286884752 -0.061803745527526585 0.0 2.0845304649075302e-14 0.0 0.0
0.05674974407647184 -0.05342953697834702 0.0 0.022583244185538226 0.0 0.0
0.04872760755248921 -0.04550570623096548 0.0 0.024645831258257 0.0 0.0
0.0417467077100675 -0.038784799083253406 0.0 0.02449558528706773 0.0 0.0
0.03563621216921478 -0.032844738446681496 0.0 0.02333380560685731 0.0 0.0
0.030098484405752732 -0.027432011794308278 0.0 0.021374248342296533 0.0 0.0
0.025098838296324952 -0.022564712259022082 0.0 0.01902621708778347 0.0 0.0
0.020616683614334417 -0.018223431639738174 0.0 0.016572748800696334 0.0 0.0
0.016570441926988505 -0.014326307099353841 0.0 0.014089171016432783 0.0 0.0
0.012876659627990377 -0.010796631720252218 0.0 0.011587481698089356 0.0 0.0
0.009502368226259116 -0.00758909765745132 0.0 0.009100222254460546 0.0 0.0
0.006510754939392457 -0.004781717588846819 0.0 0.006733651033576912 0.0 0.0
0.004066002761323463 -0.002591516733713591 0.0 0.004776343636456918 0.0 0.0
0.0023341011308075452 -0.0012299989765586403 0.0 0.0034154397735676354 0.0 0.0
0.0013256566353665872 -0.0006015510135787518 0.0 0.002735651573566902 0.0 0.0
0.0008117704892989536 -0.00034360820833193674 0.0 0.0024344915779317754 0.0 0.0
0.0004948051515470024 -0.0001681024608036094 0.0 0.0022259788824313177 0.0 0.0
0.0002456045679920258 -2.1479865651432814e-05 0.0 0.0021630941989568705 0.0 0.0
0.00010303251945309759 -4.810106498414662e-05 0.0 0.0022817068237090117 0.0 0.0
0.0006409985216147062 -0.00034113056052454684 0.0 0.0029872361302555345 0.0 0.0
0.001212004820665672 -0.0042653005318163805 0.0 0.0018549261322922297 0.0 0.0
0.000832380223126527 -0.0032072029454685465 0.0 -0.0016475889575161477 0.0 0.0
0.00041232235068370306 -0.00032395809607329705 0.0 -0.0026401830434252386 0.0 0.0
-1.218866565407509e-05 -1.2730297053065643e-05 0.0 -0.0023831981086800823 0.0 0.0
4.626683758540665e-05 5.931378331998881e-05 0.0 -0.0023063427782195377 0.0 0.0
0.00019630736826613905 -2.964943783288191e-05 0.0 -0.0023681141952846207 0.0 0.0
0.0003850945188549844 -0.00015038333996127942 0.0 -0.0026017000313693413 0.0 0.0
0.0006430239202210602 -0.0002849463912655219 0.0 -0.0029068819072291903 0.0 0.0
0.0010968559974452298 -0.0005265290410980384 0.0 -0.00327169799123793 0.0 0.0
0.0019130220461887255 -0.0010703198185875653 0.0 -0.003922000788464924 0.0 0.0
0.0031283128003688947 -0.002032295502478996 0.0 -0.005033249888616822 0.0 0.0
0.004644030826120136 -0.003333641130950857 0.0 -0.006600474122878017 0.0 0.0
0.006350893130710923 -0.004865920331359548 0.0 -0.008459315384917608 0.0 0.0
0.008203846678368416 -0.006570765130411428 0.0 -0.010456570480107374 0.0 0.0
0.010241439603231322 -0.008476492524986196 0.0 -0.012524938221214636 0.0 0.0
0.012546880847272941 -0.010655755223913502 0.0 -0.014649585764367997 0.0 0.0
0.015254701280895306 -0.013233356215629563 0.0 -0.01679814105473608 0.0 0.0
0.01852547991610861 -0.016366814209911325 0.0 -0.018772930179281798 0.0 0.0
0.022491022999812104 -0.020190266270585497 0.0 -0.020057916532860192 0.0 0.0
0.027495311426413552 -0.0249253884394884 0.0 -0.020193809278263895 0.0 0.0
0.034503030002622864 -0.03147853664814872 0.0 -0.01973350524519362 0.0 0.0
0.03867607009468384 -0.04064383803315075 0.0 1.740274591099933e-14 0.0 0.0
0.0345030300026199 -0.0314785366481484 0.0 0.019733505245239497 0.0 0.0
0.027495311426404594 -0.02492538843947086 0.0 0.020193809278305754 0.0 0.0
0.022491022999799437 -0.020190266270570578 0.0 0.02005791653288008 0.0 0.0
0.018525479916096613 -0.016366814209895334 0.0 0.018772930179277593 0.0 0.0
0.015254701280884322 -0.013233356215619435 0.0 0.016798141054723728 0.0 0.0
0.012546880847262833 -0.010655755223899197 0.0 0.014649585764357865 0.0 0.0
0.010241439603222985 -0.008476492524984431 0.0 0.012524938221207454 0.0 0.0
0.008203846678360851 -0.006570765130407236 0.0 0.010456570480098931 0.0 0.0
0.006350893130703146 -0.004865920331346701 0.0 0.008459315384906827 0.0 0.0
0.00464403082611266 -0.003333641130943595 0.0 0.006600474122863924 0.0 0.0
0.003128312800363029 -0.0020322955024711965 0.0 0.005033249888608834 0.0 0.0
0.0019130220461850821 -0.0010703198185862874 0.0 0.003922000788461392 0.0 0.0
0.0010968559974430486 -0.0005265290410963622 0.0 0.0032716979912350013 0.0 0.0
0.0006430239202198863 -0.0002849463912657032 0.0 0.00290688190722711 0.0 0.0
0.00038509451885475484 -0.0001503833399625333 0.0 0.002601700031367674 0.0 0.0
0.00019630736826607842 -2.9649437831194802e-05 0.0 0.0023681141952821183 0.0 0.0
4.6266837585365385e-05 5.931378332035017e-05 0.0 0.002306342778217795 0.0 0.0
-1.2188665654224664e-05 -1.2730297051688555e-05 0.0 0.0023831981086787912 0.0 0.0
0.0004123223506828055 -0.00032395809607289666 0.0 0.0026401830434213333 0.0 0.0
0.0008323802231251553 -0.0032072029454631073 0.0 0.0016475889575167124 0.0 0.0
0.0005648066913956191 -0.0024043458729585787 0.0 -0.0015298864261754125 0.0 0.0
0.00023661336641178684 -0.0003239465569183311 0.0 -0.0023945521861241954 0.0 0.0
-0.00012964504304698287 3.520973184583471e-05 0.0 -0.0024282697140662985 0.0 0.0
-0.0001490809614353175 0.00013689065728173628 0.0 -0.0023897880590743993 0.0 0.0
-9.865738440180459e-05 0.00010622627593405811 0.0 -0.0024477836856284132 0.0 0.0
-4.629711478355868e-05 4.8165577720877726e-05 0.0 -0.00267220349356586 0.0 0.0
-1.7413315243526234e-05 1.2722525920912981e-05 0.0 -0.0029970113112936627 0.0 0.0
-6.147085194093961e-06 3.6525774586063076e-06 0.0 -0.0032679582679821634 0.0 0.0
-1.691953232054713e-06 8.502012839051322e-07 0.0 -0.0035218406534411103 0.0 0.0
7.190956229747528e-08 -5.896496917678093e-08 0.0 -0.004147975833916599 0.0 0.0
-1.4604491375313144e-06 3.7872361129278167e-07 0.0 -0.005259903740762408 0.0 0.0
-1.2395785162332943e-05 1.1292327673766904e-05 0.0 -0.006797177771983908 0.0 0.0
-3.416859490041962e-05 3.271904635364516e-05 0.0 -0.008536532162882624 0.0 0.0
-4.086866150992442e-05 4.661976202255771e-05 0.0 -0.010413946768220729 0.0 0.0
5.360521745520789e-05 -2.0525975540049536e-05 0.0 -0.01243418412389355 0.0 0.0
0.00043464342357710326 -0.0003338949301005432 0.0 -0.014576865055783433 0.0 0.0
0.0014065382425113796 -0.001168691589033489 0.0 -0.01674972792672533 0.0 0.0
0.003305737111496414 -0.0028643318927769044 0.0 -0.01871381572907338 0.0 0.0
0.006347222060051831 -0.005523685419054081 0.0 -0.020154400860130813 0.0 0.0
0.011533965015547825 -0.009779552526829112 0.0 -0.02126486564305095 0.0 0.0
0.014899018185513365 -0.0194696290182809 0.0 1.326716514427062e-14 0.0 0.0
0.011533965015547952 -0.009779552526828668 0.0 0.021264865643080298 0.0 0.0
0.006347222060049347 -0.005523685419050647 0.0 0.020154400860149836 0.0 0.0
0.003305737111493702 -0.0028643318927713247 0.0 0.018713815729076825 0.0 0.0
0.0014065382425116446 -0.0011686915890356127 0.0 0.016749727926715717 0.0 0.0
0.00043464342357907 -0.00033389493010240086 0.0 0.014576865055768724 0.0 0.0
5.360521745724294e-05 -2.052597554215083e-05 0.0 0.012434184123882266 0.0 0.0
-4.086866150644392e-05 4.6619762022082176e-05 0.0 0.010413946768211724 0.0 0.0
-3.416859489588299e-05 3.271904634487082e-05 0.0 0.008536532162872496 0.0 0.0
-1.2395785158720272e-05 1.1292327674823296e-05 0.0 0.006797177771970305 0.0 0.0
-1.460449135233348e-06 3.7872361062656654e-07 0.0 0.005259903740751255 0.0 0.0
7.190956401458047e-08 -5.8964972995462954e-08 0.0 0.004147975833911782 0.0 0.0
-1.691953230922833e-06 8.502012825352021e-07 0.0 0.003521840653439079 0.0 0.0
-6.147085193393688e-06 3.6525774586796336e-06 0.0 0.0032679582679799022 0.0 0.0
-1.7413315243239896e-05 1.2722525917971967e-05 0.0 0.002997011311290805 0.0 0.0
-4.629711478346325e-05 4.816557771924215e-05 0.0 0.002672203493562237 0.0 0.0
-9.865738440154867e-05 0.00010622627593411506 0.0 0.0024477836856264786 0.0 0.0
-0.00014908096143543905 0.0001368906572814424 0.0 0.002389788059072733 0.0 0.0
-0.0001296450430473921 3.5209731846885436e-05 0.0 0.0024282697140643726 0.0 0.0
0.00023661336641108018 -0.00032394655691779924 0.0 0.0023945521861216765 0.0 0.0
0.0005648066913945411 -0.0024043458729554553 0.0 0.001529886426175958 0.0 0.0
0.00037960850951485666 -0.0018214629560120332 0.0 -0.0014670257433066604 0.0 0.0
0.000105319711466328 -0.00031731844838576745 0.0 -0.002215477367981233 0.0 0.0
-0.0002420493330979032 8.436228956352659e-05 0.0 -0.002422955912755143 0.0 0.0
-0.0003392082448342985 0.00021280856586388904 0.0 -0.0024107918261967276 0.0 0.0
-0.0003875071041981137 0.00023706147971660135 0.0 -0.0024557671382542012 0.0 0.0
-0.0004742948416156013 0.00024557213670057317 0.0 -0.0026489462202606753 0.0 0.0
-0.0006773350641872758 0.00031112982895648093 0.0 -0.0029360590281831554 0.0 0.0
-0.0011088133075201896 0.0005347420602795741 0.0 -0.0032903267803591338 0.0 0.0
-0.0019154254324071232 0.0010716110409830564 0.0 -0.003929599710176105 0.0 0.0
-0.0031272654133469944 0.0020313176640833243 0.0 -0.005032628393353011 0.0 0.0
-0.00464833019282233 0.0033363331445936655 0.0 -0.006598377498894719 0.0 0.0
-0.006378439305066019 0.004890353825927553 0.0 -0.0084634436210316 0.0 0.0
-0.008271842036192151 0.006636984350098213 0.0 -0.010453333318417711 0.0 0.0
-0.010316574724792587 0.008567353217285687 0.0 -0.012506972393331116 0.0 0.0
-0.012427131832163724 0.010606139630104787 0.0 -0.014649524751956397 0.0 0.0
-0.014387296847614472 0.012548955403405847 0.0 -0.016949263632987863 0.0 0.0
-0.015826554975626794 0.014032404270434277 0.0 -0.019447198569223546 0.0 0.0
-0.016302103453999794 0.01458040193280637 0.0 -0.02225198699898298 0.0 0.0
-0.015335070234598746 0.013877744600901961 0.0 -0.025311887214783665 0.0 0.0
-0.01101483489458967 0.01077038586145221 0.0 -0.02680309280663804 0.0 0.0
-0.007604138742753925 0.0003438793672885527 0.0 1.5184034585224992e-14 0.0 0.0
-0.011014834894590392 0.010770385861455496 0.0 0.026803092806666554 0.0 0.0
-0.015335070234593812 0.013877744600890078 0.0 0.025311887214804506 0.0 0.0
-0.016302103453988158 0.01458040193279729 0.0 0.022251986998986985 0.0 0.0
-0.015826554975611667 0.014032404270418141 0.0 0.01944719856921202 0.0 0.0
-0.014387296847598794 0.012548955403391798 0.0 0.016949263632971154 0.0 0.0
-0.012427131832149479 0.010606139630090963 0.0 0.014649524751943619 0.0 0.0
-0.010316574724777606 0.008567353217271013 0.0 0.012506972393321675 0.0 0.0
-0.008271842036175956 0.006636984350078621 0.0 0.010453333318404017 0.0 0.0
-0.006378439305051071 0.004890353825914836 0.0 0.008463443621014 0.0 0.0
-0.00464833019280974 0.003336333144583355 0.0 0.006598377498879118 0.0 0.0
-0.0031272654133378368 0.002031317664070559 0.0 0.005032628393342412 0.0 0.0
-0.001915425432401602 0.0010716110409807115 0.0 0.003929599710170615 0.0 0.0
-0.0011088133075168546 0.0005347420602781744 0.0 0.0032903267803570204 0.0 0.0
-0.0006773350641854857 0.00031112982895147907 0.0 0.0029360590281798564 0.0 0.0
-0.00047429484161455875 0.00024557213669920317 0.0 0.0026489462202584895 0.0 0.0
-0.00038750710419731586 0.000237061479714592 0.0 0.002455767138253271 0.0 0.0
-0.00033920824483398297 0.00021280856586360208 0.0 0.0024107918261939646 0.0 0.0
-0.00024204933309790455 8.436228956462338e-05 0.0 0.002422955912753777 0.0 0.0
0.00010531971146622115 -0.00031731844838632934 0.0 0.0022154773679785964 0.0 0.0
0.00037960850951461217 -0.0018214629560098095 0.0 0.0014670257433063165 0.0 0.0
0.0002548351711490427 -0.0013768113238253545 0.0 -0.001375495251135611 0.0 0.0
8.395545253416314e-06 -0.0002936249144400856 0.0 -0.002051515171377824 0.0 0.0
-0.00034657759510833965 0.0001291859824114064 0.0 -0.0023671723817919794 0.0 0.0
-0.0005213926322275293 0.0002859996782772403 0.0 -0.002368344941706073 0.0 0.0
-0.0006675366871983183 0.0003608369868127984 0.0 -0.002389853229967781 0.0 0.0
-0.0008925090183189289 0.00043573765372882135 0.0 -0.0025291012715951 0.0 0.0
-0.001358430880000332 0.0006312421077553075 0.0 -0.002795484458290057 0.0 0.0
-0.0023435508425052117 0.0012378751651224114 0.0 -0.0034459126963774863 0.0 0.0
-0.004065286649635617 0.0025901821666413486 0.0 -0.0047822813474896406 0.0 0.0
-0.0065091286610498185 0.004780131795710383 0.0 -0.006730859487901489 0.0 0.0
-0.009508527294921177 0.007595152052203078 0.0 -0.009100447992800496 0.0 0.0
-0.012902664572763742 0.010821433049008927 0.0 -0.011582246959506914 0.0 0.0
-0.016627906516769417 0.014384280946567234 0.0 -0.014042155689100961 0.0 0.0
-0.020673224841788976 0.01829614009396743 0.0 -0.01646161869363551 0.0 0.0
-0.02496546742599562 0.022497212753434668 0.0 -0.01895097752752863 0.0 0.0
-0.02926340976730095 0.026763903384553207 0.0 -0.021724281638791226 0.0 0.0
-0.03313344589265061 0.030656710176720336 0.0 -0.025004436722712946 0.0 0.0
-0.03597213689428 0.03356334903109148 0.0 -0.02889563641244899 0.0 0.0
-0.03665260834565551 0.034530293830095364 0.0 -0.0326556562062204 0.0 0.0
-0.03283449585088211 0.0313415200003118 0.0 -0.03363157775571365 0.0 0.0
-0.029411495667006862 0.01900806861554984 0.0 2.0500962039093906e-14 0.0 0.0
-0.03283449585087965 0.03134152000030921 0.0 0.03363157775575923 0.0 0.0
-0.0366526083456447 0.03453029383007935 0.0 0.032655656206263886 0.0 0.0
-0.035972136894259 0.033563349031072616 0.0 0.028895636412466723 0.0 0.0
-0.03313344589262343 0.03065671017669458 0.0 0.025004436722705265 0.0 0.0
-0.0292634097672725 0.026763903384522912 0.0 0.021724281638774896 0.0 0.0
-0.024965467425968845 0.022497212753409115 0.0 0.018950977527510467 0.0 0.0
-0.020673224841762372 0.018296140093943272 0.0 0.016461618693620624 0.0 0.0
-0.01662790651674209 0.014384280946540668 0.0 0.014042155689087822 0.0 0.0
-0.012902664572737352 0.010821433048984927 0.0 0.01158224695948543 0.0 0.0
-0.009508527294898192 0.007595152052181014 0.0 0.009100447992774967 0.0 0.0
-0.006509128661032532 0.004780131795691689 0.0 0.006730859487883918 0.0 0.0
-0.0040652866496239904 0.0025901821666333502 0.0 0.004782281347480209 0.0 0.0
-0.0023435508424981795 0.0012378751651179298 0.0 0.0034459126963747753 0.0 0.0
-0.0013584308799969708 0.0006312421077544002 0.0 0.002795484458286001 0.0 0.0
-0.0008925090183176383 0.0004357376537289134 0.0 0.002529101271593433 0.0 0.0
-0.0006675366871976629 0.0003608369868106238 0.0 0.0023898532299668845 0.0 0.0
-0.0005213926322268734 0.0002859996782788897 0.0 0.002368344941703616 0.0 0.0
-0.0003465775951078837 0.00012918598241177737 0.0 0.0023671723817906306 0.0 0.0
8.395545253505398e-06 -0.0002936249144402951 0.0 0.002051515171375486 0.0 0.0
0.00025483517114922616 -0.0013768113238235204 0.0 0.0013754952511336636 0.0 0.0
0.00015896768696506948 -0.0010080292608068916 0.0 -0.0012278439804637208 0.0 0.0
-7.012126338028303e-05 -0.00025434671261479564 0.0 -0.0018759692814159486 0.0 0.0
-0.00044273809642225465 0.00017005421044442664 0.0 -0.002258770345029731 0.0 0.0
-0.0006943898311939516 0.0003545743811169188 0.0 -0.0022661905465985108 0.0 0.0
-0.0009359923729546065 0.00047548338647232817 0.0 -0.002255339276241927 0.0 0.0
-0.0013138104997963613 0.0006216153509452433 0.0 -0.002325576526568754 0.0 0.0
-0.0021208590151110054 0.001032411603617834 0.0 -0.0026673850837820516 0.0 0.0
-0.003755437354262557 0.002217209146049265 0.0 -0.0037012766460234794 0.0 0.0
-0.006439120273124235 0.00455549046307364 0.0 -0.005577041331503903 0.0 0.0
-0.010113023301437738 0.008015602942692435 0.0 -0.00814677545698344 0.0 0.0
-0.014555983164017686 0.012286368200642408 0.0 -0.011055614490636717 0.0 0.0
-0.019575164261233298 0.017127752699741323 0.0 -0.01396736454955879 0.0 0.0
-0.02510496293988228 0.022476489591069435 0.0 -0.016759957995563412 0.0 0.0
-0.031146419196843453 0.028355196844687867 0.0 -0.01947713135431974 0.0 0.0
-0.03764215001101949 0.034730096915685044 0.0 -0.022316610596725392 0.0 0.0
-0.0443418890956672 0.041376347413552915 0.0 -0.025650769054111615 0.0 0.0
-0.05071338312308727 0.04777169084027258 0.0 -0.02992398223420998 0.0 0.0
-0.05579177513278988 0.05300481130257543 0.0 -0.035063297444301804 0.0 0.0
-0.057875474405177915 0.05543422385425065 0.0 -0.03965845004291808 0.0 0.0
-0.053645511959738636 0.05210739421292098 0.0 -0.041010863109465674 0.0 0.0
-0.049392724678057234 0.03693742527450483 0.0 2.2983351333216717e-14 0.0 0.0
-0.0536455119597324 0.05210739421291597 0.0 0.0410108631095187 0.0 0.0
-0.05787547440516025 0.05543422385423512 0.0 0.039658450042970625 0.0 0.0
-0.055791775132760235 0.053004811302555355 0.0 0.03506329744432831 0.0 0.0
-0.05071338312305005 0.04777169084023149 0.0 0.029923982234205067 0.0 0.0
-0.04434188909562731 0.04137634741351307 0.0 0.02565076905409381 0.0 0.0
-0.037642150010980445 0.034730096915649634 0.0 0.022316610596704665 0.0 0.0
-0.031146419196804394 0.02835519684465352 0.0 0.01947713135430112 0.0 0.0
-0.025104962939843604 0.02247648959103467 0.0 0.016759957995542824 0.0 0.0
-0.01957516426119745 0.01712775269970915 0.0 0.013967364549534848 0.0 0.0
-0.014555983163985674 0.012286368200609216 0.0 0.011055614490607872 0.0 0.0
-0.010113023301412295 0.008015602942668008 0.0 0.00814677545696181 0.0 0.0
-0.006439120273106667 0.0045554904630576735 0.0 0.0055770413314903365 0.0 0.0
-0.003755437354251899 0.00221720914604012 0.0 0.0037012766460163913 0.0 0.0
-0.002120859015105806 0.0010324116036157386 0.0 0.0026673850837762754 0.0 0.0
-0.0013138104997942055 0.0006216153509446288 0.0 0.0023255765265657543 0.0 0.0
-0.0009359923729537992 0.0004754833864718378 0.0 0.0022553392762400676 0.0 0.0
-0.0006943898311936279 0.00035457438111702436 0.0 0.00226619054659732 0.0 0.0
-0.0004427380964219653 0.00017005421044515522 0.0 0.002258770345028959 0.0 0.0
-7.01212633800862e-05 -0.000254346712615409 0.0 0.0018759692814138405 0.0 0.0
0.00015896768696497567 -0.0010080292608055587 0.0 0.0012278439804627285 0.0 0.0
7.757375183050734e-05 -0.0006993391088560663 0.0 -0.001053981291183082 0.0 0.0
-0.0001393995605559735 -0.00020178939381502043 0.0 -0.0016750818525281526 0.0 0.0
-0.000532590205046193 0.0002087497525412485 0.0 -0.002097980587523981 0.0 0.0
-0.0008577758158678965 0.00041747148859456654 0.0 -0.002107007055438047 0.0 0.0
-0.0011941460187551239 0.0005785749132232374 0.0 -0.002050047168911384 0.0 0.0
-0.001762434372253758 0.0008231799882816455 0.0 -0.002070867896518502 0.0 0.0
-0.0029885617682175033 0.0015697436553391043 0.0 -0.0025476992432214417 0.0 0.0
-0.005331240936198169 0.003459401792716964 0.0 -0.0038549555222190156 0.0 0.0
-0.008995057509697773 0.00682367143426631 0.0 -0.006083431186679099 0.0 0.0
-0.01387696836318461 0.011507294277580925 0.0 -0.008988589342664792 0.0 0.0
-0.019724547544978464 0.01717565005772707 0.0 -0.012115968545411925 0.0 0.0
-0.026344868143694276 0.023604893985638052 0.0 -0.015197607037526567 0.0 0.0
-0.0336709416287855 0.030727811178109563 0.0 -0.018143448149797632 0.0 0.0
-0.04170776232932545 0.03856958250812339 0.0 -0.021005884376818464 0.0 0.0
-0.050420287035506335 0.0471259943482325 0.0 -0.023993916560826736 0.0 0.0
-0.059559617560480574 0.05619093536381488 0.0 -0.027605546065722585 0.0 0.0
-0.06843301167324141 0.06511824301710502 0.0 -0.03238231916068488 0.0 0.0
-0.0756536260235107 0.07257833049077628 0.0 -0.03818976972797379 0.0 0.0
-0.07878931566149547 0.07623927138445007 0.0 -0.04352259806512179 0.0 0.0
-0.07375518032470017 0.07223089176515624 0.0 -0.04544512778817804 0.0 0.0
-0.06855840251992378 0.054315262002445214 0.0 2.4496030204268493e-14 0.0 0.0
-0.0737551803246898 0.07223089176514955 0.0 0.045445127788232766 0.0 0.0
-0.07878931566147152 0.07623927138442599 0.0 0.04352259806517666 0.0 0.0
-0.07565362602347316 0.07257833049074215 0.0 0.03818976972800286 0.0 0.0
-0.06843301167319495 0.06511824301705317 0.0 0.032382319160684944 0.0 0.0
-0.059559617560430586 0.056190935363763836 0.0 0.027605546065709537 0.0 0.0
-0.050420287035455987 0.04712599434818775 0.0 0.02399391656080676 0.0 0.0
-0.04170776232927514 0.03856958250807576 0.0 0.02100588437679914 0.0 0.0
-0.03367094162873583 0.030727811178057007 0.0 0.018143448149775785 0.0 0.0
-0.026344868143647726 0.023604893985594934 0.0 0.015197607037502617 0.0 0.0
-0.019724547544937316 0.01717565005768593 0.0 0.012115968545383562 0.0 0.0
-0.013876968363151401 0.011507294277549119 0.0 0.008988589342639899 0.0 0.0
-0.008995057509673986 0.006823671434243337 0.0 0.006083431186663009 0.0 0.0
-0.005331240936182921 0.0034594017927056233 0.0 0.00385495552220855 0.0 0.0
-0.002988561768209451 0.0015697436553335155 0.0 0.002547699243215392 0.0 0.0
-0.0017624343722502565 0.0008231799882800939 0.0 0.002070867896515556 0.0 0.0
-0.0011941460187537645 0.0005785749132226172 0.0 0.002050047168909734 0.0 0.0
-0.0008577758158672551 0.0004174714885938733 0.0 0.002107007055436742 0.0 0.0
-0.0005325902050458827 0.0002087497525423968 0.0 0.00209798058752318 0.0 0.0
-0.0001393995605557311 -0.00020178939381633356 0.0 0.0016750818525258161 0.0 0.0
7.757375183074496e-05 -0.0006993391088549292 0.0 0.0010539812911830805 0.0 0.0
6.946747006639169e-06 -0.00044674528597473306 0.0 -0.0008704649578347675 0.0 0.0
-0.00020249002948162682 -0.00013993483448937276 0.0 -0.001446462797949265 0.0 0.0
-0.0006176598244405783 0.00024697228225201314 0.0 -0.0018833373339693965 0.0 0.0
-0.0010105503431124437 0.0004738048576786657 0.0 -0.0018909338238569692 0.0 0.0
-0.0014509724595788886 0.0006739084562979373 0.0 -0.001781713680833291 0.0 0.0
-0.00225936592105471 0.0010708492262957105 0.0 -0.0017915882079979663 0.0 0.0
-0.003966586431409411 0.002260680246464863 0.0 -0.002372949587688471 0.0 0.0
-0.007051970164665366 0.00492682640265546 0.0 -0.003838410018601135 0.0 0.0
-0.011687974300953786 0.009294794133651965 0.0 -0.006222681238231228 0.0 0.0
-0.017734483615409823 0.015138453354754416 0.0 -0.009144513650481242 0.0 0.0
-0.024956746419331002 0.022168279578497697 0.0 -0.012238560667890494 0.0 0.0
-0.03317553809366498 0.030177404294142327 0.0 -0.0152850260359923 0.0 0.0
-0.04229927811575008 0.03907670061184014 0.0 -0.018211949964154383 0.0 0.0
-0.052323781963539706 0.048878721139078145 0.0 -0.021065966388202056 0.0 0.0
-0.06324066703830972 0.05960119525351679 0.0 -0.02401367592389865 0.0 0.0
-0.07479317427739843 0.07105784840888947 0.0 -0.02748609938600121 0.0 0.0
-0.0861172371857829 0.0824740404664631 0.0 -0.032116911291029816 0.0 0.0
-0.09537084410564395 0.09208473369097676 0.0 -0.038032112304601774 0.0 0.0
-0.09941077453038435 0.09680899481485214 0.0 -0.04400862960916255 0.0 0.0
-0.09361554212826424 0.09209251037780586 0.0 -0.0480269679589833 0.0 0.0
-0.08758663541959279 0.07175748027254888 0.0 2.4539398291167913e-14 0.0 0.0
-0.09361554212824978 0.09209251037779444 0.0 0.04802696795904145 0.0 0.0
-0.09941077453035307 0.09680899481481968 0.0 0.04400862960921891 0.0 0.0
-0.09537084410559818 0.09208473369093048 0.0 0.038032112304629814 0.0 0.0
-0.08611723718572697 0.08247404046640806 0.0 0.032116911291030094 0.0 0.0
-0.07479317427733823 0.07105784840882792 0.0 0.027486099385990566 0.0 0.0
-0.06324066703824807 0.05960119525345109 0.0 0.02401367592388405 0.0 0.0
-0.052323781963477575 0.048878721139025486 0.0 0.021065966388184042 0.0 0.0
-0.04229927811568914 0.03907670061177727 0.0 0.01821194996413528 0.0 0.0
-0.033175538093608195 0.03017740429408137 0.0 0.015285026035969172 0.0 0.0
-0.02495674641928139 0.02216827957844736 0.0 0.012238560667863536 0.0 0.0
-0.017734483615369032 0.015138453354710635 0.0 0.009144513650456897 0.0 0.0
-0.011687974300923753 0.009294794133622655 0.0 0.006222681238216584 0.0 0.0
-0.007051970164645652 0.004926826402639051 0.0 0.003838410018590587 0.0 0.0
-0.00396658643139832 0.002260680246457267 0.0 0.002372949587682702 0.0 0.0
-0.0022593659210499144 0.001070849226292039 0.0 0.0017915882079952588 0.0 0.0
-0.0014509724595769915 0.0006739084562952806 0.0 0.0017817136808327837 0.0 0.0
-0.0010105503431114462 0.000473804857679168 0.0 0.0018909338238557605 0.0 0.0
-0.0006176598244400962 0.000246972282251745 0.0 0.0018833373339675213 0.0 0.0
-0.0002024900294815171 -0.00013993483448954924 0.0 0.0014464627979472282 0.0 0.0
6.946747006506464e-06 -0.0004467452859740477 0.0 0.0008704649578330774 0.0 0.0
-5.274761598382207e-05 -0.00024888100001809247 0.0 -0.0006831903826894489 0.0 0.0
-0.00025919126002790354 -7.380533235313049e-05 0.0 -0.0011921457139499956 0.0 0.0
-0.0006985237738712742 0.0002853340596123852 0.0 -0.0016150704003008683 0.0 0.0
-0.0011562638295018832 0.0005233268378495916 0.0 -0.001617358450398931 0.0 0.0
-0.0017199064251939922 0.0007709190162563056 0.0 -0.0014610557642231652 0.0 0.0
-0.002816564332563825 0.0013887717552348467 0.0 -0.0014811257438121354 0.0 0.0
-0.005052895519022199 0.0031120841925669305 0.0 -0.0021147409665683787 0.0 0.0
-0.008892179298123195 0.006574981797348535 0.0 -0.0036328348106480237 0.0 0.0
-0.014458607752773668 0.011878623099428364 0.0 -0.005884188706840487 0.0 0.0
-0.0216322413344003 0.01883789020145869 0.0 -0.008576186268960341 0.0 0.0
-0.030220560024327575 0.02721379621793899 0.0 -0.011445030575934377 0.0 0.0
-0.04003352621336166 0.03679833558402746 0.0 -0.014267876726277894 0.0 0.0
-0.05095964650577322 0.04748201884433648 0.0 -0.016997088070933006 0.0 0.0
-0.06296960967733284 0.05924657504369214 0.0 -0.019691062739203135 0.0 0.0
-0.07603635956319005 0.07209092031492648 0.0 -0.022419379817304276 0.0 0.0
-0.08990266892802644 0.08583268850223773 0.0 -0.025390034506746897 0.0 0.0
-0.10358649731708941 0.09962828480023572 0.0 -0.029212168081902922 0.0 0.0
-0.11482850066431116 0.11134003705646617 0.0 -0.03460391831384997 0.0 0.0
-0.1198725306153064 0.11721924628192801 0.0 -0.04147249373288567 0.0 0.0
-0.11361003482730792 0.1121144643975841 0.0 -0.04920109902650385 0.0 0.0
-0.10693775812082965 0.08971340967595862 0.0 2.319845704423784e-14 0.0 0.0
-0.11361003482728843 0.11211446439756517 0.0 0.04920109902655949 0.0 0.0
-0.11987253061526922 0.11721924628188815 0.0 0.0414724937329388 0.0 0.0
-0.11482850066425755 0.1113400370564118 0.0 0.03460391831387751 0.0 0.0
-0.1035864973170241 0.09962828480017005 0.0 0.029212168081905125 0.0 0.0
-0.08990266892795555 0.08583268850217037 0.0 0.025390034506736724 0.0 0.0
-0.07603635956311751 0.07209092031485297 0.0 0.02241937981729233 0.0 0.0
-0.06296960967726019 0.05924657504362335 0.0 0.019691062739188175 0.0 0.0
-0.050959646505701416 0.04748201884426685 0.0 0.016997088070914507 0.0 0.0
-0.04003352621329457 0.03679833558396201 0.0 0.014267876726252356 0.0 0.0
-0.03022056002426928 0.027213796217878537 0.0 0.011445030575908649 0.0 0.0
-0.021632241334352664 0.018837890201407612 0.0 0.008576186268939086 0.0 0.0
-0.014458607752737489 0.011878623099395214 0.0 0.005884188706824112 0.0 0.0
-0.008892179298098556 0.006574981797325915 0.0 0.0036328348106367935 0.0 0.0
-0.005052895519007868 0.0031120841925555798 0.0 0.0021147409665637196 0.0 0.0
-0.0028165643325572865 0.0013887717552295174 0.0 0.001481125743811396 0.0 0.0
-0.0017199064251917048 0.0007709190162564603 0.0 0.0014610557642244276 0.0 0.0
-0.001156263829500979 0.0005233268378502891 0.0 0.0016173584503974417 0.0 0.0
-0.0006985237738706615 0.00028533405961264516 0.0 0.0016150704003002588 0.0 0.0
-0.00025919126002781594 -7.380533235308277e-05 0.0 0.001192145713947769 0.0 0.0
-5.27476159841698e-05 -0.0002488810000178067 0.0 0.0006831903826888396 0.0 0.0
-9.901366106827416e-05 -0.00010585432830639881 0.0 -0.0004973205560508283 0.0 0.0
-0.0003068364002264575 -8.959833397843236e-06 0.0 -0.0009151404290171615 0.0 0.0
-0.0007742295987073015 0.0003228994975706184 0.0 -0.0012916609422491958 0.0 0.0
-0.0012991470929427395 0.0005667604477107087 0.0 -0.0012830972088036551 0.0 0.0
-0.0020134188852941005 0.0008841962642042462 0.0 -0.001090553393543414 0.0 0.0
-0.0034476129248054736 0.0017978670479231094 0.0 -0.001121331695797654 0.0 0.0
-0.00624467808905439 0.004120144812876079 0.0 -0.0017730591502338857 0.0 0.0
-0.010804160035255379 0.008332366507714326 0.0 -0.0031293117849634784 0.0 0.0
-0.01725421846060435 0.014511886986624756 0.0 -0.005020360317028696 0.0 0.0
-0.025539727806177862 0.022563907556357725 0.0 -0.007309083737459234 0.0 0.0
-0.03548036133953918 0.03227182524340518 0.0 -0.009753833117098248 0.0 0.0
-0.04688595426784734 0.043429012012982826 0.0 -0.012163144378980067 0.0 0.0
-0.05962332506054756 0.05590568647375513 0.0 -0.014508692423655855 0.0 0.0
-0.07361146371562532 0.06963912042568952 0.0 -0.016865963400232484 0.0 0.0
-0.0887607834959641 0.08455445850088743 0.0 -0.01923740985226399 0.0 0.0
-0.10477354075108261 0.10040918006130241 0.0 -0.021524948047613596 0.0 0.0
-0.12064488810565699 0.11635808740659237 0.0 -0.02398155844282934 0.0 0.0
-0.13391623047793158 0.1301671427575047 0.0 -0.02800965951177628 0.0 0.0
-0.14031987601303542 0.13758230573084745 0.0 -0.035846190137652834 0.0 0.0
-0.13409761233692122 0.13269197299564067 0.0 -0.04870473034371183 0.0 0.0
-0.12703399985975092 0.10863177657003271 0.0 2.001003529539247e-14 0.0 0.0
-0.1340976123368983 0.13269197299561425 0.0 0.04870473034375877 0.0 0.0
-0.1403198760129915 0.13758230573080227 0.0 0.0358461901376981 0.0 0.0
-0.1339162304778692 0.13016714275744393 0.0 0.028009659511800754 0.0 0.0
-0.12064488810558231 0.11635808740651857 0.0 0.02398155844283218 0.0 0.0
-0.10477354075100155 0.10040918006121932 0.0 0.021524948047607295 0.0 0.0
-0.0887607834958803 0.08455445850080855 0.0 0.01923740985225369 0.0 0.0
-0.07361146371554168 0.06963912042560536 0.0 0.016865963400218155 0.0 0.0
-0.059623325060465394 0.055905686473674526 0.0 0.014508692423644227 0.0 0.0
-0.046885954267769966 0.04342901201290588 0.0 0.012163144378960546 0.0 0.0
-0.03548036133947197 0.03227182524334294 0.0 0.00975383311707448 0.0 0.0
-0.025539727806123225 0.022563907556300306 0.0 0.007309083737443059 0.0 0.0
-0.017254218460562052 0.014511886986585294 0.0 0.0050203603170150025 0.0 0.0
-0.01080416003522597 0.008332366507687091 0.0 0.0031293117849539704 0.0 0.0
-0.006244678089036746 0.004120144812858849 0.0 0.0017730591502274052 0.0 0.0
-0.0034476129247970138 0.00179786704791752 0.0 0.0011213316957969432 0.0 0.0
-0.002013418885291346 0.0008841962642049371 0.0 0.0010905533935440148 0.0 0.0
-0.0012991470929418747 0.0005667604477109456 0.0 0.0012830972088019798 0.0 0.0
-0.0007742295987068036 0.0003228994975713942 0.0 0.0012916609422478974 0.0 0.0
-0.00030683640022552693 -8.959833398125999e-06 0.0 0.0009151404290155509 0.0 0.0
-9.901366106696722e-05 -0.00010585432830628748 0.0 0.0004973205560502025 0.0 0.0
-0.00012698796576164764 -1.8329719226728718e-05 0.0 -0.00032297798290020487 0.0 0.0
-0.0003397862641954473 4.766183169495171e-05 0.0 -0.000619396192823716 0.0 0.0
-0.0008422893997289465 0.0003566817603047178 0.0 -0.0009063644670979666 0.0 0.0
-0.0014466504159421167 0.0006084322642817094 0.0 -0.0008824539721110101 0.0 0.0
-0.0023460356210755783 0.0010317622775833013 0.0 -0.0006796227062500474 0.0 0.0
-0.004163559575627871 0.002325721033992886 0.0 -0.0007185254857537682 0.0 0.0
-0.007509104697626645 0.005245956244775474 0.0 -0.001278536681540416 0.0 0.0
-0.012744803686735659 0.010137641321102302 0.0 -0.002262995403847146 0.0 0.0
-0.02005111471423154 0.017160555627227486 0.0 -0.003656248563371504 0.0 0.0
-0.02942300870937272 0.026279147773035458 0.0 -0.005351340837482721 0.0 0.0
-0.04070327516192203 0.037305327025429914 0.0 -0.0071738643870508855 0.0 0.0
-0.053698038915421575 0.05003281283294078 0.0 -0.00897586087650791 0.0 0.0
-0.06825011347778312 0.06430940378579286 0.0 -0.010751369858642248 0.0 0.0
-0.08422182201748599 0.08001643590218467 0.0 -0.012585852794248713 0.0 0.0
-0.10139517394168956 0.09696267525467825 0.0 -0.014432185578216294 0.0 0.0
-0.11933852579491067 0.11475346859447491 0.0 -0.01600376125031185 0.0 0.0
-0.13710300740960177 0.13251642957130502 0.0 -0.017076935781775618 0.0 0.0
-0.1524507960734653 0.1482590555154523 0.0 -0.018896068414476382 0.0 0.0
-0.1608122494830274 0.15785187830056413 0.0 -0.026195042050595377 0.0 0.0
-0.1554570974889722 0.15429298986831796 0.0 -0.04547736674495358 0.0 0.0
-0.14841646210511708 0.1291462816902041 0.0 1.3806664145299408e-14 0.0 0.0
-0.15545709748894546 0.15429298986828893 0.0 0.04547736674498969 0.0 0.0
-0.16081224948297632 0.1578518783005162 0.0 0.026195042050629686 0.0 0.0
-0.15245079607339362 0.14825905551538182 0.0 0.018896068414493598 0.0 0.0
-0.13710300740951678 0.13251642957122498 0.0 0.017076935781775215 0.0 0.0
-0.11933852579481918 0.11475346859438709 0.0 0.01600376125030885 0.0 0.0
-0.10139517394159508 0.0969626752545854 0.0 0.01443218557821269 0.0 0.0
-0.08422182201739092 0.08001643590209347 0.0 0.012585852794239207 0.0 0.0
-0.06825011347769022 0.0643094037857041 0.0 0.010751369858633208 0.0 0.0
-0.05369803891533477 0.05003281283285308 0.0 0.008975860876496376 0.0 0.0
-0.040703275161846394 0.037305327025359346 0.0 0.007173864387031577 0.0 0.0
-0.02942300870931153 0.026279147772973785 0.0 0.005351340837470347 0.0 0.0
-0.020051114714184217 0.01716055562718225 0.0 0.0036562485633619083 0.0 0.0
-0.012744803686701802 0.010137641321072019 0.0 0.0022629954038401933 0.0 0.0
-0.007509104697605724 0.005245956244754598 0.0 0.0012785366815360943 0.0 0.0
-0.004163559575617644 0.0023257210339847644 0.0 0.000718525485752854 0.0 0.0
-0.0023460356210721965 0.0010317622775819124 0.0 0.0006796227062499903 0.0 0.0
-0.0014466504159410176 0.000608432264281154 0.0 0.0008824539721086536 0.0 0.0
-0.0008422893997281258 0.0003566817603050143 0.0 0.00090636446709886 0.0 0.0
-0.0003397862641951787 4.766183169458237e-05 0.0 0.0006193961928225638 0.0 0.0
-0.00012698796576212734 -1.8329719226669036e-05 0.0 0.00032297798289966455 0.0 0.0
-0.00012807611298055815 1.3894318555218619e-05 0.0 -0.00018189801524512908 0.0 0.0
-0.0003479300933227809 8.541475670766198e-05 0.0 -0.0003103733865242924 0.0 0.0
-0.0008985445674807024 0.00038107924855574867 0.0 -0.0004411912526735037 0.0 0.0
-0.0016105237065242714 0.0006609177087760986 0.0 -0.00041093999300146695 0.0 0.0
-0.002736107102444586 0.0012405261363681364 0.0 -0.00024031801665044193 0.0 0.0
-0.004953629175516212 0.0029679335227168037 0.0 -0.0002524420976382401 0.0 0.0
-0.008818197061081997 0.006440361478525822 0.0 -0.0005574411883403436 0.0 0.0
-0.01468948104053824 0.011962607818296214 0.0 -0.001070804557514074 0.0 0.0
-0.022817223369273974 0.019791043846207335 0.0 -0.0017991367036386927 0.0 0.0
-0.03324876319859117 0.02994645990415655 0.0 -0.00270898943468337 0.0 0.0
-0.04585430384102211 0.04227809805214911 0.0 -0.00370124101441543 0.0 0.0
-0.0604367951834332 0.05657693587023009 0.0 -0.004704360994444223 0.0 0.0
-0.07680750540634743 0.07265637254237686 0.0 -0.005739831247449273 0.0 0.0
-0.09474877341244302 0.09032523315257027 0.0 -0.006830303127629649 0.0 0.0
-0.11390781268065892 0.109271375460445 0.0 -0.007919367392784926 0.0 0.0
-0.13365364165079344 0.12890087122865504 0.0 -0.00878765220701232 0.0 0.0
-0.15293093170345587 0.14817111893127477 0.0 -0.009042335803355313 0.0 0.0
-0.1699739912260493 0.16532784667907338 0.0 -0.008951024988237216 0.0 0.0
-0.18108908518232567 0.17718895055745504 0.0 -0.01273741642565304 0.0 0.0
-0.17824124357626822 0.17731279505689754 0.0 -0.03396343512567983 0.0 0.0
-0.17196204658578762 0.15309699076032063 0.0 6.156533616241688e-15 0.0 0.0
-0.17824124357623716 0.17731279505686673 0.0 0.03396343512570163 0.0 0.0
-0.18108908518226796 0.1771889505573951 0.0 0.012737416425674301 0.0 0.0
-0.16997399122596782 0.16532784667899317 0.0 0.008951024988246742 0.0 0.0
-0.15293093170335964 0.14817111893117574 0.0 0.009042335803354272 0.0 0.0
-0.13365364165069027 0.12890087122855723 0.0 0.008787652207010187 0.0 0.0
-0.11390781268055329 0.10927137546034381 0.0 0.007919367392784237 0.0 0.0
-0.0947487734123382 0.09032523315246642 0.0 0.006830303127626697 0.0 0.0
-0.07680750540624418 0.07265637254227457 0.0 0.0057398312474446055 0.0 0.0
-0.060436795183336806 0.05657693587014087 0.0 0.004704360994436406 0.0 0.0
-0.04585430384093899 0.042278098052070716 0.0 0.0037012410144062775 0.0 0.0
-0.03324876319852306 0.02994645990408719 0.0 0.0027089894346759595 0.0 0.0
-0.022817223369221578 0.01979104384615767 0.0 0.0017991367036339027 0.0 0.0
-0.01468948104050018 0.011962607818259238 0.0 0.0010708045575107752 0.0 0.0
-0.008818197061057497 0.006440361478504024 0.0 0.0005574411883386656 0.0 0.0
-0.004953629175503336 0.002967933522705782 0.0 0.0002524420976369738 0.0 0.0
-0.0027361071024396607 0.0012405261363674215 0.0 0.00024031801665118098 0.0 0.0
-0.001610523706522728 0.0006609177087757761 0.0 0.0004109399930001415 0.0 0.0
-0.000898544567479753 0.0003810792485548645 0.0 0.00044119125267398586 0.0 0.0
-0.00034793009332251837 8.541475670721937e-05 0.0 0.00031037338652411693 0.0 0.0
-0.0001280761129804357 1.389431855532882e-05 0.0 0.00018189801524632604 0.0 0.0
-8.693461190747465e-05 1.6320895882604626e-05 0.0 -0.00011130800520226181 0.0 0.0
-0.00031341868934247296 9.790292309343864e-05 0.0 -0.0001289992935820115 0.0 0.0
-0.0009379617971186731 0.0003900832408222104 0.0 -0.0001461129662285981 0.0 0.0
-0.00180937797662344 0.0006920057292865698 0.0 -8.706954542164744e-05 0.0 0.0
-0.003194176311987553 0.0013650024031940824 0.0 0.00016817930362429516 0.0 0.0
-0.005800123642280119 0.0033128521506445505 0.0 0.0003881552467711938 0.0 0.0
-0.010149184807363964 0.007049664041824815 0.0 0.0004932892174739532 0.0 0.0
-0.01661662579777538 0.012877158996359127 0.0 0.0005275710029161219 0.0 0.0
-0.025522610657842004 0.02109720365907549 0.0 0.00048699774644912113 0.0 0.0
-0.03698169387502157 0.03176365510615511 0.0 0.0003322398549836887 0.0 0.0
-0.05090002461421146 0.0447444893830267 0.0 0.00010373405104233038 0.0 0.0
-0.06707285672468327 0.05983051412965976 0.0 -0.00018947129254778122 0.0 0.0
-0.08524943589705922 0.07681120541563308 0.0 -0.0005794447591458808 0.0 0.0
-0.10513382713826122 0.0954544332795853 0.0 -0.0010390036458219048 0.0 0.0
-0.1262598596061731 0.11539443367624909 0.0 -0.0015846162995549248 0.0 0.0
-0.1477921222560892 0.13593254385646072 0.0 -0.002113985629029702 0.0 0.0
-0.16840053873216917 0.1558976606757045 0.0 -0.002353973403055626 0.0 0.0
-0.18631372542898042 0.17358721687112072 0.0 -0.002089452592867176 0.0 0.0
-0.19945373784339804 0.1864379817297498 0.0 -0.004069417071002153 0.0 0.0
-0.2027042326815842 0.18920823513169074 0.0 -0.025788583390592673 0.0 0.0
-0.2008540132747187 0.1662946802783034 0.0 9.71445146547012e-17 0.0 0.0
-0.20270423268154947 0.18920823513165885 0.0 0.025788583390600327 0.0 0.0
-0.1994537378433326 0.18643798172968112 0.0 0.004069417071011754 0.0 0.0
-0.1863137254288875 0.17358721687103948 0.0 0.0020894525928682253 0.0 0.0
-0.16840053873206073 0.15589766067559627 0.0 0.002353973403051355 0.0 0.0
-0.1477921222559747 0.1359325438563483 0.0 0.002113985629027884 0.0 0.0
-0.12625985960605618 0.1153944336761443 0.0 0.0015846162995547045 0.0 0.0
-0.1051338271381452 0.09545443327947178 0.0 0.0010390036458193218 0.0 0.0
-0.08524943589694543 0.07681120541552207 0.0 0.0005794447591454671 0.0 0.0
-0.0670728567245769 0.05983051412956579 0.0 0.0001894712925448877 0.0 0.0
-0.05090002461412005 0.044744489382949885 0.0 -0.00010373405104114469 0.0 0.0
-0.03698169387494735 0.031763655106080285 0.0 -0.00033223985498831085 0.0 0.0
-0.02552261065778425 0.021097203659022498 0.0 -0.00048699774644958083 0.0 0.0
-0.01661662579773308 0.01287715899631538 0.0 -0.000527571002916242 0.0 0.0
-0.010149184807336155 0.007049664041801891 0.0 -0.000493289217474319 0.0 0.0
-0.005800123642265171 0.0033128521506331455 0.0 -0.0003881552467712867 0.0 0.0
-0.0031941763119817056 0.0013650024031936067 0.0 -0.00016817930362383697 0.0 0.0
-0.0018093779766212026 0.0006920057292855815 0.0 8.70695454226323e-05 0.0 0.0
-0.0009379617971169796 0.00039008324082069926 0.0 0.00014611296622575175 0.0 0.0
-0.0003134186893415548 9.790292309302589e-05 0.0 0.00012899929358352406 0.0 0.0
-8.69346119073864e-05 1.6320895882659873e-05 0.0 0.00011130800520333138 0.0 0.0
SCALARS Statev float 8
LOOKUP_TABLE default
0.0 0.0194443346170526 0.015621124023964006 -0.0185456426366528 0.0029245186126887865 -0.0011353788839717175 0.0 0.0
0.0 0.006795021931739837 0.005031405509874476 -0.0031925568955709803 -0.001838848614303492 -0.00717811981738058 0.0 0.0
0.0 0.00017475062294002518 0.0002281668282646433 -0.00013884897079236087 -8.931785747228259e-05 -0.0003606791872022646 0.0 0.0
0.0 0.0001808308919473931 9.554897224145431e-05 -6.836672494014238e-05 -2.7182247301312205e-05 3.0829622500333784e-05 0.0 0.0
0.0 0.00113247779304315 0.0008099127136697068 -0.000595435082847894 -0.00021447763082181256 0.00016698782690864177 0.0 0.0
0.0 0.0030001294368966662 0.0029379108102260006 -0.002350801632733186 -0.0005871091774928165 0.00034467942115122275 0.0 0.0
0.0 0.007472698993184042 0.006832996509820625 -0.005911916833398412 -0.0009210796764222024 0.00048036791575895054 0.0 0.0
0.0 0.014328952978577897 0.012900707176824186 -0.011717767988988189 -0.001182939187836009 0.000539802343867585 0.0 0.0
0.0 0.024029200492899267 0.021409551524367455 -0.0199853793877063 -0.0014241721366611431 0.0005215183720517242 0.0 0.0
0.0 0.03671181678387717 0.03245386577896405 -0.03076158715624997 -0.0016922786227140988 0.00039369659052169813 0.0 0.0
0.0 0.052260512866609314 0.04594060003806512 -0.0439344379203351 -0.002006162117729991 0.0001859697297389711 0.0 0.0
0.0 0.0701219198609265 0.06167766778935797 -0.059309139357086794 -0.0023685284322711225 -9.627686920881783e-05 0.0 0.0
0.0 0.09038790138029332 0.07943341488021433 -0.07666532170323884 -0.0027680931769755103 -0.0004734998676880353 0.0 0.0
0.0 0.11272044259713197 0.09896604654055856 -0.09577571562544271 -0.0031903309151155427 -0.0008953778993400721 0.0 0.0
0.0 0.13674758080915805 0.11994731998792188 -0.11633122515505048 -0.0036160948328713555 -0.0013885609041283079 0.0 0.0
0.0 0.1618668312553215 0.14181466852181399 -0.13779087658484246 -0.004023791936971533 -0.0019314487987461687 0.0 0.0
0.0 0.18701179253682554 0.16367297845701528 -0.1592816545411441 -0.004391323915871281 -0.0024165173545633405 0.0 0.0
0.0 0.21075094670918243 0.18429187497473976 -0.1795952311175244 -0.004696643857215299 -0.002662888074161555 0.0 0.0
0.0 0.23137898249372232 0.20220762910459025 -0.19727206358846305 -0.004935565516126938 -0.00250955082483721 0.0 0.0
0.0 0.246618404650766 0.2156452312817686 -0.21056511328916644 -0.0050801179926023435 -0.0029237484960081845 0.0 0.0
0.0 0.2531304552256491 0.2210667271337831 -0.21600441660179767 -0.005062310531985373 3.864963904476326e-15 0.0 0.0
0.0 0.24661840465073503 0.21564523128174173 -0.21056511328914004 -0.00508011799260165 0.002923748496015524 0.0 0.0
0.0 0.231378982493645 0.20220762910452295 -0.19727206358839577 -0.0049355655161270225 0.0025095508248459686 0.0 0.0
0.0 0.2107509467090769 0.18429187497464775 -0.17959523111743353 -0.0046966438572142435 0.002662888074165759 0.0 0.0
0.0 0.1870117925367129 0.16367297845691692 -0.15928165454104887 -0.004391323915868196 0.002416517354562716 0.0 0.0
0.0 0.16186683125519633 0.1418146685217043 -0.13779087658473466 -0.004023791936969553 0.0019314487987420548 0.0 0.0
0.0 0.13674758080903615 0.11994731998781528 -0.11633122515494627 -0.003616094832868842 0.001388560904127238 0.0 0.0
0.0 0.11272044259701045 0.09896604654045227 -0.0957757156253391 -0.0031903309151132646 0.0008953778993393028 0.0 0.0
0.0 0.09038790138017495 0.07943341488011124 -0.07666532170313771 -0.002768093176973465 0.0004734998676848073 0.0 0.0
0.0 0.070121919860814 0.06167766778925994 -0.05930913935699015 -0.002368528432269686 9.627686920483545e-05 0.0 0.0
0.0 0.052260512866514494 0.045940600037982185 -0.04393443792025421 -0.0020061621177279417 -0.00018596972974322117 0.0 0.0
0.0 0.036711816783801705 0.03245386577889806 -0.03076158715618557 -0.001692278622712556 -0.000393696590524503 0.0 0.0
0.0 0.024029200492843128 0.021409551524317873 -0.019985379387658306 -0.0014241721366595292 -0.0005215183720512705 0.0 0.0
0.0 0.014328952978536768 0.012900707176787513 -0.011717767988952469 -0.001182939187835047 -0.0005398023438686727 0.0 0.0
0.0 0.00747269899315698 0.006832996509795607 -0.005911916833375103 -0.000921079676420501 -0.0004803679157585298 0.0 0.0
0.0 0.003000129436884537 0.002937910810213996 -0.0023508016327228377 -0.0005871091774911611 -0.0003446794211503638 0.0 0.0
0.0 0.0011324777930380977 0.0008099127136659719 -0.0005954350828451737 -0.00021447763082079707 -0.0001669878269076503 0.0 0.0
0.0 0.0001808308919459594 9.554897224089309e-05 -6.836672493975082e-05 -2.7182247301141643e-05 -3.0829622500135266e-05 0.0 0.0
0.0 0.00017475062293884202 0.00022816682826366934 -0.00013884897079174128 -8.931785747192719e-05 0.00036067918720081754 0.0 0.0
0.0 0.006795021931728743 0.005031405509868698 -0.0031925568955665463 -0.0018388486143021527 0.007178119817370871 0.0 0.0
0.0 0.01944433461703156 0.01562112402395004 -0.01854564263663341 0.00292451861268336 0.0011353788839301214 0.0 0.0
0.0 0.015935454582891546 0.011996891531282458 -0.015421016812919897 0.0034241252816374296 -0.0006414116627931154 0.0 0.0
0.0 0.0042564747543325804 0.0030599646129191188 -0.0019254988092102024 -0.0011344658037089116 -0.0057311874177106694 0.0 0.0
0.0 -8.62020629658323e-05 -7.55284756061205e-05 6.976384397109855e-05 5.764631635021961e-06 -0.00010188091099729243 0.0 0.0
0.0 4.8564274429958024e-05 3.9924590953631786e-05 -2.879065412211538e-05 -1.1133936831516412e-05 1.4171360362520976e-05 0.0 0.0
0.0 0.0006539532111882391 0.0005387305564718978 -0.0003993384132717591 -0.00013939214320013823 6.563822370469611e-05 0.0 0.0
0.0 0.002608758832995447 0.0022920202654166492 -0.0018526919485669815 -0.0004393283168496717 5.0397219220002874e-05 0.0 0.0
0.0 0.0063820342735376 0.005819186018982927 -0.0050998996771025595 -0.0007192863418803652 -0.0002497913360794234 0.0 0.0
0.0 0.012746177855519429 0.011382334021242481 -0.01049219944532035 -0.0008901345759221308 -0.0007590620651433193 0.0 0.0
0.0 0.021798207027743568 0.019235908512898053 -0.01823390468582406 -0.0010020038270739861 -0.0014772346734665152 0.0 0.0
0.0 0.03355227224446619 0.029421707070581844 -0.02832385306514 -0.001097854005441847 -0.002374700933919317 0.0 0.0
0.0 0.04789554075382229 0.041814698535541 -0.04062343483179134 -0.0011912637037496852 -0.0033693191467701485 0.0 0.0
0.0 0.06470819753916297 0.05622577257568273 -0.05493858070280297 -0.0012871918728797574 -0.004392037225691746 0.0 0.0
0.0 0.08319460874363298 0.0724785384031136 -0.07109270153975743 -0.0013858368633561078 -0.005448162995091414 0.0 0.0
0.0 0.10386667472032159 0.09037334771949032 -0.08889324861176363 -0.0014800991077266886 -0.006538394174982172 0.0 0.0
0.0 0.12609281423991228 0.10962171154900155 -0.10806224647451379 -0.0015594650744876223 -0.007628165963655392 0.0 0.0
0.0 0.14933294830778737 0.129726548160831 -0.12811152824507027 -0.0016150199157608063 -0.00862007624147237 0.0 0.0
0.0 0.17269142688479658 0.14989064878021008 -0.14824929492072303 -0.0016413538594868987 -0.009270298123538403 0.0 0.0
0.0 0.1948708028574491 0.16900001233914516 -0.16736043438828674 -0.0016395779508585188 -0.009239263114571869 0.0 0.0
0.0 0.21414786196525587 0.18560932510268527 -0.18400812890408227 -0.0016011961986029592 -0.008350697151525841 0.0 0.0
0.0 0.2282284002361412 0.19766456642988695 -0.1962149971252219 -0.0014495693046650737 -0.007347248248862553 0.0 0.0
0.0 0.23434635586050506 0.20237485679205566 -0.20115953427870265 -0.0012153225133530968 8.058657907650257e-15 0.0 0.0
0.0 0.22822840023611127 0.19766456642986005 -0.19621499712519558 -0.0014495693046643614 0.007347248248884308 0.0 0.0
0.0 0.2141478619651882 0.18560932510262693 -0.1840081289040233 -0.001601196198603408 0.008350697151549394 0.0 0.0
0.0 0.1948708028573552 0.16900001233906461 -0.16736043438820544 -0.0016395779508591682 0.00923926311458393 0.0 0.0
0.0 0.17269142688469272 0.14989064878012034 -0.1482492949206341 -0.0016413538594863195 0.009270298123539392 0.0 0.0
0.0 0.1493329483076738 0.12972654816073279 -0.1281115282449721 -0.0016150199157603817 0.00862007624146697 0.0 0.0
0.0 0.12609281423980087 0.10962171154890443 -0.1080622464744178 -0.0015594650744867517 0.007628165963652462 0.0 0.0
0.0 0.10386667472020873 0.09037334771939239 -0.08889324861166666 -0.0014800991077256584 0.006538394174979559 0.0 0.0
0.0 0.08319460874352248 0.0724785384030181 -0.07109270153966227 -0.0013858368633557765 0.0054481629950844865 0.0 0.0
0.0 0.06470819753905932 0.05622577257559273 -0.05493858070271319 -0.0012871918728795527 0.004392037225684544 0.0 0.0
0.0 0.04789554075373392 0.04181469853546464 -0.040623434831715384 -0.0011912637037492708 0.0033693191467605425 0.0 0.0
0.0 0.03355227224439643 0.029421707070520737 -0.02832385306507941 -0.0010978540054412897 0.0023747009339121954 0.0 0.0
0.0 0.021798207027689538 0.019235908512850234 -0.01823390468577697 -0.0010020038270732588 0.0014772346734626936 0.0 0.0
0.0 0.01274617785548167 0.011382334021208937 -0.01049219944528748 -0.0008901345759214734 0.0007590620651393976 0.0 0.0
0.0 0.006382034273514564 0.0058191860189620494 -0.005099899677082696 -0.0007192863418793451 0.0002497913360770093 0.0 0.0
0.0 0.0026087588329830346 0.002292020265405699 -0.0018526919485575093 -0.00043932831684818734 -5.0397219220507434e-05 0.0 0.0
0.0 0.0006539532111846358 0.0005387305564693051 -0.00039933841326986744 -0.00013939214319943778 -6.563822370416696e-05 0.0 0.0
0.0 4.856427442941836e-05 3.9924590953818675e-05 -2.8790654122267234e-05 -1.1133936831551322e-05 -1.4171360362414873e-05 0.0 0.0
0.0 -8.620206296604358e-05 -7.552847560601621e-05 6.976384397097239e-05 5.764631635043594e-06 0.00010188091099686317 0.0 0.0
0.0 0.004256474754321589 0.003059964612913105 -0.001925498809205813 -0.0011344658037072905 0.005731187417699375 0.0 0.0
0.0 0.015935454582868266 0.011996891531264717 -0.015421016812897755 0.003424125281633032 0.0006414116627615161 0.0 0.0
0.0 0.011968185995285343 0.00882030638780243 -0.011644953938936617 0.002824647551134187 -0.0032175849544730105 0.0 0.0
0.0 0.00294823793961596 0.0018832361735647213 -0.0010524403926085312 -0.0008307957809561932 -0.00492470795638171 0.0 0.0
0.0 4.357763635923645e-07 1.2686452775500103e-06 -1.1188145638617476e-06 -1.4983071368825874e-07 7.911269868230471e-07 0.0 0.0
0.0 -3.5234966812886607e-10 -1.7461968559550043e-06 1.8291124574768458e-06 -8.291560152195804e-08 5.7075348706823135e-06 0.0 0.0
0.0 0.00030779318808764696 0.00027001435244637857 -0.00019499756562758698 -7.501678681879172e-05 1.2591810576527054e-05 0.0 0.0
0.0 0.0018802494485925232 0.0016016890674008526 -0.0012597239379685213 -0.0003419651294323301 -0.00011426290210671611 0.0 0.0
0.0 0.004993612196465519 0.004620711679524593 -0.003970785831686081 -0.000649925847838512 -0.0007017523714401529 0.0 0.0
0.0 0.010690762237806843 0.009549706652626238 -0.008709139917896173 -0.0008405667347300599 -0.0016846908460799242 0.0 0.0
0.0 0.01879264996949968 0.01658365370226146 -0.01562936626694735 -0.0009542874353140918 -0.0030548402321581673 0.0 0.0
0.0 0.02940883281807867 0.0257115778593358 -0.024668126273628112 -0.0010434515857077051 -0.004730831020475099 0.0 0.0
0.0 0.04227875766425865 0.036779995872789024 -0.03564961008218726 -0.0011303857906017338 -0.006561383214602775 0.0 0.0
0.0 0.057072606220073284 0.049606556568539344 -0.04838536334288153 -0.0012211932256578025 -0.008404111681799503 0.0 0.0
0.0 0.07396769284169123 0.06404289300712644 -0.0627285947738875 -0.0013142982332389145 -0.010233045436703905 0.0 0.0
0.0 0.09210868771420805 0.07995673700657163 -0.078553848762309 -0.001402888244262636 -0.012104334104875243 0.0 0.0
0.0 0.11196301112264044 0.09711337639399628 -0.09563456025963407 -0.0014788161343623854 -0.013980537246977134 0.0 0.0
0.0 0.13277357712083412 0.11510316984054478 -0.11356907806256727 -0.0015340917779773614 -0.015662666618340627 0.0 0.0
0.0 0.15378571249961118 0.13326212539404547 -0.1316982188530391 -0.0015639065410065554 -0.01675767219192696 0.0 0.0
0.0 0.1738371576238354 0.15059683894617576 -0.1490353298352396 -0.0015615091109362725 -0.01676446010704937 0.0 0.0
0.0 0.19130295335433598 0.1656660281527448 -0.16416242813730617 -0.0015036000154384065 -0.015389609397383852 0.0 0.0
0.0 0.20397064925116137 0.17655027019321157 -0.17513837311035224 -0.001411897082858919 -0.012678975822783742 0.0 0.0
0.0 0.20973572847202637 0.1809324185105411 -0.1797938998530719 -0.001138518657469087 1.510944147575799e-14 0.0 0.0
0.0 0.20397064925113303 0.1765502701931852 -0.17513837311032662 -0.0014118970828585697 0.01267897582282312 0.0 0.0
0.0 0.19130295335427866 0.1656660281526945 -0.1641624281372564 -0.0015036000154381762 0.01538960939742396 0.0 0.0
0.0 0.1738371576237546 0.15059683894610584 -0.14903532983516918 -0.0015615091109365327 0.016764460107070975 0.0 0.0
0.0 0.1537857124995186 0.13326212539396579 -0.13169821885296024 -0.001563906541005624 0.016757672191929328 0.0 0.0
0.0 0.13277357712073184 0.11510316984045621 -0.11356907806247887 -0.0015340917779773325 0.015662666618333453 0.0 0.0
0.0 0.11196301112253672 0.0971133763939063 -0.09563456025954468 -0.0014788161343616188 0.01398053724697148 0.0 0.0
0.0 0.09210868771410848 0.07995673700648523 -0.07855384876222332 -0.001402888244261943 0.012104334104870723 0.0 0.0
0.0 0.07396769284158931 0.06404289300703869 -0.06272859477379973 -0.0013142982332389748 0.010233045436691976 0.0 0.0
0.0 0.05707260621998158 0.04960655656846019 -0.04838536334280279 -0.0012211932256573509 0.008404111681786923 0.0 0.0
0.0 0.042278757664179746 0.03677999587272048 -0.035649610082119 -0.0011303857906014866 0.006561383214589169 0.0 0.0
0.0 0.029408832818015998 0.025711577859280774 -0.02466812627357359 -0.0010434515857071535 0.004730831020463294 0.0 0.0
0.0 0.018792649969449175 0.016583653702217288 -0.01562936626690365 -0.0009542874353136443 0.003054840232149613 0.0 0.0
0.0 0.010690762237773814 0.009549706652597275 -0.00870913991786799 -0.0008405667347292687 0.001684690846073382 0.0 0.0
0.0 0.004993612196447315 0.004620711679507924 -0.0039707858316705745 -0.0006499258478373509 0.0007017523714365153 0.0 0.0
0.0 0.0018802494485827682 0.001601689067392486 -0.0012597239379615582 -0.000341965129430928 0.00011426290210551676 0.0 0.0
0.0 0.0003077931880853676 0.0002700143524449775 -0.00019499756562658399 -7.501678681839362e-05 -1.2591810576370817e-05 0.0 0.0
0.0 -3.523497185650194e-10 -1.746196855851539e-06 1.8291124573942525e-06 -8.291560154268925e-08 -5.707534870618138e-06 0.0 0.0
0.0 4.3577636366283043e-07 1.2686452775494604e-06 -1.1188145638593043e-06 -1.4983071369015705e-07 -7.911269868203997e-07 0.0 0.0
0.0 0.0029482379396073453 0.0018832361735597292 -0.001052440392605217 -0.0008307957809545074 0.00492470795636855 0.0 0.0
0.0 0.01196818599526155 0.008820306387784806 -0.011644953938914512 0.002824647551129693 0.0032175849544521604 0.0 0.0
0.0 0.009131056416579611 0.006559409380942195 -0.008838093367811307 0.0022786839868690957 -0.003477871586330345 0.0 0.0
0.0 0.0021566246744926043 0.0012949304176891273 -0.0007069564193582893 -0.000587973998330833 -0.0037525701585461742 0.0 0.0
0.0 0.0 0.0 0.0 0.0 0.0 0.0 0.0
0.0 -3.61742659807936e-06 -3.625041599950587e-06 2.8556902871457664e-06 7.693513128048184e-07 2.6939439193515766e-06 0.0 0.0
0.0 0.00011279663279236568 8.988673082138588e-05 -6.201871901960053e-05 -2.7868011801784794e-05 6.476021960219102e-06 0.0 0.0
0.0 0.0011533682100072354 0.0010287650443224776 -0.0007871642100370366 -0.00024160083428544045 -0.00019940662170722523 0.0 0.0
0.0 0.003923800028270092 0.0034668506539720363 -0.002907698784786871 -0.000559151869185165 -0.0009020962150329567 0.0 0.0
0.0 0.00868733861235395 0.007739118737082442 -0.006960029080616464 -0.0007790896564659648 -0.0022778291892776416 0.0 0.0
0.0 0.015860155185185763 0.013919057971496219 -0.01301851824542624 -0.0009005397260699732 -0.004145354246052009 0.0 0.0
0.0 0.025260187447118887 0.021962128669156943 -0.020976873376097792 -0.0009852552930591295 -0.006412584040595618 0.0 0.0
0.0 0.036570915486669034 0.03169164353705981 -0.030626366006016446 -0.0010652775310433199 -0.00886846131636266 0.0 0.0
0.0 0.04971046288122405 0.042926713442348496 -0.04177666644316283 -0.0011500469991856772 -0.011331574721516776 0.0 0.0
0.0 0.06423374706751242 0.055550770998706686 -0.054312693708389606 -0.0012380772903171015 -0.013768224885689061 0.0 0.0
0.0 0.08060901216455765 0.0694631676397825 -0.06814265893610713 -0.0013205087036753111 -0.01622574732868965 0.0 0.0
0.0 0.09794716481749295 0.08450855067115774 -0.08311613627316217 -0.0013924143979954673 -0.018673805513872373 0.0 0.0
0.0 0.11614005586698294 0.10037565858557101 -0.09892666416554517 -0.0014489944200257827 -0.020892900634697738 0.0 0.0
0.0 0.13490578529690941 0.1165260512018855 -0.11504444087123084 -0.0014816103306546035 -0.02241727850926347 0.0 0.0
0.0 0.15290520333637295 0.13209112763332126 -0.13061296531145988 -0.0014781623218612346 -0.022642044903347643 0.0 0.0
0.0 0.1686762346714164 0.14575549298385806 -0.14432312531055008 -0.001432367673308056 -0.020945101356871224 0.0 0.0
0.0 0.18029576651881452 0.15585658782515846 -0.1544850298822404 -0.0013715579429185024 -0.01643717383203384 0.0 0.0
0.0 0.18606927415726873 0.16018135136862424 -0.15919133737118932 -0.0009900139974347592 2.153745931599005e-14 0.0 0.0
0.0 0.18029576651878854 0.15585658782513387 -0.1544850298822157 -0.0013715579429183005 0.016437173832085556 0.0 0.0
0.0 0.16867623467136436 0.14575549298381166 -0.14432312531050343 -0.0014323676733082186 0.020945101356922638 0.0 0.0
0.0 0.15290520333630184 0.13209112763325956 -0.13061296531139727 -0.0014781623218621284 0.02264204490337637 0.0 0.0
0.0 0.13490578529682992 0.11652605120181672 -0.11504444087116332 -0.0014816103306533666 0.022417278509266926 0.0 0.0
0.0 0.11614005586688855 0.10037565858548995 -0.09892666416546309 -0.0014489944200268257 0.020892900634688048 0.0 0.0
0.0 0.09794716481739926 0.08450855067107654 -0.08311613627308101 -0.0013924143979955803 0.018673805513863766 0.0 0.0
0.0 0.08060901216447029 0.06946316763970643 -0.06814265893603186 -0.0013205087036745758 0.01622574732868177 0.0 0.0
0.0 0.06423374706742375 0.0555507709986309 -0.054312693708313695 -0.0012380772903171089 0.013768224885674571 0.0 0.0
0.0 0.0497104628811439 0.04292671344227924 -0.04177666644309371 -0.0011500469991855837 0.011331574721497968 0.0 0.0
0.0 0.03657091548660055 0.031691643537000644 -0.03062636600595764 -0.0010652775310429849 0.008868461316345236 0.0 0.0
0.0 0.025260187447062866 0.021962128669108405 -0.02097687337604978 -0.000985255293058628 0.006412584040579211 0.0 0.0
0.0 0.015860155185144602 0.013919057971460577 -0.01301851824539111 -0.0009005397260694633 0.00414535424604119 0.0 0.0
0.0 0.008687338612327714 0.007739118737058848 -0.006960029080593755 -0.000779089656465082 0.0022778291892693136 0.0 0.0
0.0 0.003923800028253777 0.003466850653958357 -0.0029076987847744865 -0.0005591518691838688 0.0009020962150282129 0.0 0.0
0.0 0.001153368209999292 0.0010287650443160331 -0.0007871642100318909 -0.00024160083428414192 0.00019940662170560693 0.0 0.0
0.0 0.00011279663279152042 8.98867308212366e-05 -6.201871901956188e-05 -2.7868011801674538e-05 -6.476021959802793e-06 0.0 0.0
0.0 -3.6174265984943674e-06 -3.6250415999880494e-06 2.855690287177244e-06 7.693513128108262e-07 -2.693943919397257e-06 0.0 0.0
0.0 0.0 0.0 0.0 0.0 0.0 0.0 0.0
0.0 0.00215662467448461 0.0012949304176844713 -0.0007069564193551464 -0.0005879739983293273 0.0037525701585341023 0.0 0.0
0.0 0.009131056416559048 0.0065594093809262285 -0.008838093367791079 0.0022786839868648425 0.0034778715863152607 0.0 0.0
0.0 0.0067484672385941255 0.004820022174948346 -0.006611152143500798 0.0017911299685524531 -0.002989079401114526 0.0 0.0
0.0 0.0017245480823000505 0.0008597814488075454 -0.0004589943782217863 -0.000400787070585758 -0.002721483516924546 0.0 0.0
0.0 0.0 0.0 0.0 0.0 0.0 0.0 0.0
0.0 -5.188331528762466e-07 -4.14356545067993e-08 3.6158957523343855e-08 5.27669698345673e-09 1.5282457852682477e-07 0.0 0.0
0.0 -6.950624964966618e-06 5.112525583584691e-06 -9.75691647019119e-07 -4.136833936565563e-06 1.7282409027727292e-05 0.0 0.0
0.0 0.0006688802537818099 0.0005642823419495973 -0.0004208484496614675 -0.00014343389228813034 -0.00018737211145510786 0.0 0.0
0.0 0.0028901832866972898 0.002423173395844007 -0.001976848977995324 -0.0004463244178486779 -0.0009402480022084995 0.0 0.0
0.0 0.006773036057502617 0.005978241808034219 -0.005275671690755989 -0.0007025701172782354 -0.002498204543616794 0.0 0.0
0.0 0.01297165793384336 0.011276100614713572 -0.010437674574931062 -0.0008384260397825218 -0.004740587679390812 0.0 0.0
0.0 0.02110966325395076 0.018210314383641926 -0.017288885002441964 -0.0009214293811999532 -0.007414999089609173 0.0 0.0
0.0 0.030948682192439472 0.026586474989048575 -0.025591251016948886 -0.000995223972099679 -0.010296044852683385 0.0 0.0
0.0 0.0422618992622487 0.03622472012611405 -0.035151350796482676 -0.0010733693296313509 -0.013178690302684488 0.0 0.0
0.0 0.054984757263476014 0.04702717074496434 -0.04587204941983718 -0.0011551213251271672 -0.016030370039888366 0.0 0.0
0.0 0.0686636672109011 0.05894291528994758 -0.057709833052111595 -0.0012330822378360312 -0.01889869264798063 0.0 0.0
0.0 0.08380605049427868 0.07186321498898321 -0.07056231967185272 -0.0013008953171304632 -0.021729698363389796 0.0 0.0
0.0 0.09982337376512015 0.08557487157318652 -0.08421924392768013 -0.001355627645506389 -0.02429802644667714 0.0 0.0
0.0 0.11601330876980093 0.09968143697757971 -0.09828935469694963 -0.001392082280630056 -0.02618608437804899 0.0 0.0
0.0 0.13193067119159343 0.11347742821368957 -0.11207907467646996 -0.0013983535372196151 -0.02673660711044263 0.0 0.0
0.0 0.146177139481119 0.12586391034877825 -0.12449609219452504 -0.0013678181542530836 -0.02490086295162033 0.0 0.0
0.0 0.15708382074163962 0.1354221557642568 -0.13410156970764586 -0.0013205860566108862 -0.019240522966560803 0.0 0.0
0.0 0.1630806372219703 0.1398375394067937 -0.13903068643272673 -0.0008068529740668473 2.5817022131224832e-14 0.0 0.0
0.0 0.15708382074161797 0.13542215576423544 -0.13410156970762427 -0.0013205860566111005 0.01924052296661878 0.0 0.0
0.0 0.1461771394810757 0.12586391034873853 -0.12449609219448476 -0.001367818154253616 0.024900862951677052 0.0 0.0
0.0 0.13193067119153595 0.11347742821363874 -0.11207907467641842 -0.00139835353722036 0.026736607110477584 0.0 0.0
0.0 0.11601330876973137 0.0996814369775196 -0.09828935469689047 -0.0013920822806290478 0.026186084378054024 0.0 0.0
0.0 0.09982337376503982 0.08557487157311736 -0.0842192439276104 -0.0013556276455069178 0.024298026446666225 0.0 0.0
0.0 0.08380605049419868 0.07186321498891422 -0.07056231967178367 -0.0013008953171305437 0.021729698363378368 0.0 0.0
0.0 0.06866366721082275 0.05894291528987973 -0.05770983305204416 -0.0012330822378355322 0.018898692647970127 0.0 0.0
0.0 0.05498475726340181 0.047027170744900315 -0.04587204941977357 -0.0011551213251267114 0.016030370039873062 0.0 0.0
0.0 0.042261899262179714 0.036224720126054995 -0.035151350796423696 -0.0010733693296312795 0.013178690302663474 0.0 0.0
0.0 0.03094868219238257 0.026586474988999905 -0.02559125101690115 -0.0009952239720987623 0.010296044852661957 0.0 0.0
0.0 0.021109663253902983 0.01821031438360123 -0.01728888500240156 -0.0009214293811996638 0.007414999089590188 0.0 0.0
0.0 0.012971657933807853 0.011276100614682923 -0.010437674574900985 -0.0008384260397819351 0.004740587679377412 0.0 0.0
0.0 0.006773036057479774 0.005978241808014306 -0.0052756716907371385 -0.0007025701172771708 0.0024982045436073904 0.0 0.0
0.0 0.002890183286683768 0.0024231733958331074 -0.001976848977985841 -0.00044632441784726634 0.0009402480022035604 0.0 0.0
0.0 0.0006688802537766081 0.0005642823419457738 -0.00042084844965849325 -0.0001434338922872806 0.0001873721114536132 0.0 0.0
0.0 -6.950624965141235e-06 5.112525583929453e-06 -9.756916473111073e-07 -4.136833936618434e-06 -1.7282409027071675e-05 0.0 0.0
0.0 -5.188331527648552e-07 -4.1435654614880927e-08 3.615895760672632e-08 5.276697008148161e-09 -1.52824578662946e-07 0.0 0.0
0.0 0.0 0.0 0.0 0.0 0.0 0.0 0.0
0.0 0.0017245480822926079 0.0008597814488038406 -0.00045899437821929866 -0.0004007870705845402 0.0027214835169145552 0.0 0.0
0.0 0.00674846723857707 0.004820022174934967 -0.006611152143483585 0.0017911299685486053 0.002989079401103968 0.0 0.0
0.0 0.004950378553041122 0.0034244872055190995 -0.004776385766456042 0.001351898560936943 -0.002347996811752132 0.0 0.0
0.0 0.0010770553251173755 0.0005431596026139356 -0.00028267036782537617 -0.00026048923478856 -0.0018812444048500224 0.0 0.0
0.0 0.0 0.0 0.0 0.0 0.0 0.0 0.0
0.0 -3.6664793810011766e-07 7.818231770269547e-08 -5.978643755202454e-08 -1.8395880150670938e-08 -1.337257647959679e-07 0.0 0.0
0.0 -2.276451151281824e-05 -1.6931195924365037e-05 1.3899050657472747e-05 3.032145266892288e-06 2.6641356564276983e-05 0.0 0.0
0.0 0.0002733905023278865 0.000250805441847922 -0.00018211548398335093 -6.868995786457115e-05 -0.00012986454720501195 0.0 0.0
0.0 0.0017534353911735669 0.0015488306131325694 -0.0012276921856607022 -0.0003211384274718689 -0.0008759049446617151 0.0 0.0
0.0 0.005247728653263782 0.004305697965224245 -0.0037078184112213893 -0.0005978795540028489 -0.002402433055788872 0.0 0.0
0.0 0.010025064129410698 0.008688861085686193 -0.007926593721190159 -0.00076226736449604 -0.004814950205085767 0.0 0.0
0.0 0.017044733048184938 0.014492324844273707 -0.013642790481782156 -0.0008495343624915431 -0.007729296197880829 0.0 0.0
0.0 0.02533930221051756 0.021503303070685594 -0.020584933172390962 -0.0009183698982946295 -0.010838021009055225 0.0 0.0
0.0 0.034819554124099567 0.029540073142881554 -0.02855003108628857 -0.0009900420565929513 -0.013944691552191631 0.0 0.0
0.0 0.04539110278274026 0.038521630088588 -0.03745602455224666 -0.0010656055363413594 -0.017011538499010267 0.0 0.0
0.0 0.05710921216234067 0.0484290914535197 -0.047291794243224515 -0.001137297210295178 -0.020089016026916987 0.0 0.0
0.0 0.06969082014736844 0.05922079000203068 -0.05801959748212782 -0.0012011925199028762 -0.02312799773665123 0.0 0.0
0.0 0.08300874590871461 0.07075691484074535 -0.06950247290366875 -0.001254441937076603 -0.025891862428904615 0.0 0.0
0.0 0.09723615868392131 0.08275694736047826 -0.08146265154800467 -0.0012942958124734713 -0.028012169953383414 0.0 0.0
0.0 0.1109921738472208 0.09474643283820544 -0.09343100078723822 -0.0013154320509673242 -0.028887047898019068 0.0 0.0
0.0 0.12360583975030044 0.10591649872220744 -0.10461323006905072 -0.001303268653156777 -0.02725996269394538 0.0 0.0
0.0 0.1340335667261841 0.11508181548134729 -0.11381878129512978 -0.0012630341862174344 -0.021222497969123504 0.0 0.0
0.0 0.1404569679253374 0.11969936294771769 -0.11910482520017167 -0.0005945377475458548 2.570339774354835e-14 0.0 0.0
0.0 0.13403356672616654 0.11508181548132805 -0.11381878129511029 -0.0012630341862178538 0.021222497969183532 0.0 0.0
0.0 0.12360583975026679 0.10591649872217489 -0.10461323006901808 -0.001303268653156901 0.027259962694004932 0.0 0.0
0.0 0.11099217384717402 0.09474643283816296 -0.09343100078719573 -0.0013154320509670976 0.02888704789805637 0.0 0.0
0.0 0.09723615868386264 0.0827569473604278 -0.08146265154795486 -0.0012942958124729474 0.028012169953388164 0.0 0.0
0.0 0.08300874590864744 0.07075691484068748 -0.06950247290361085 -0.0012544419370767155 0.02589186242889341 0.0 0.0
0.0 0.06969082014730138 0.05922079000197292 -0.058019597482070424 -0.0012011925199024408 0.023127997736637883 0.0 0.0
0.0 0.05710921216227666 0.04842909145346404 -0.04729179424316919 -0.0011372972102948972 0.02008901602690493 0.0 0.0
0.0 0.04539110278267704 0.03852163008853415 -0.037456024552193136 -0.001065605536340992 0.017011538498994467 0.0 0.0
0.0 0.03481955412404276 0.029540073142833346 -0.028550031086240782 -0.0009900420565925577 0.013944691552171153 0.0 0.0
0.0 0.025339302210467974 0.021503303070644155 -0.020584933172350505 -0.0009183698982936671 0.010838021009031192 0.0 0.0
0.0 0.017044733048146785 0.014492324844241336 -0.013642790481750287 -0.0008495343624910344 0.007729296197861036 0.0 0.0
0.0 0.010025064129380921 0.008688861085660641 -0.007926593721165066 -0.000762267364495583 0.004814950205070769 0.0 0.0
0.0 0.005247728653243279 0.004305697965207821 -0.00370781841120598 -0.0005978795540018407 0.0024024330557789733 0.0 0.0
0.0 0.0017534353911631466 0.0015488306131242135 -0.0012276921856537604 -0.0003211384274704538 0.0008759049446565705 0.0 0.0
0.0 0.0002733905023254548 0.0002508054418464193 -0.00018211548398230717 -6.868995786411168e-05 0.00012986454720424696 0.0 0.0
0.0 -2.2764511513180253e-05 -1.693119592383641e-05 1.3899050657070197e-05 3.0321452667661864e-06 -2.6641356563673913e-05 0.0 0.0
0.0 -3.666479379339813e-07 7.818231770586554e-08 -5.97864375543729e-08 -1.8395880151489496e-08 1.3372576479446834e-07 0.0 0.0
0.0 0.0 0.0 0.0 0.0 0.0 0.0 0.0
0.0 0.0010770553251114466 0.0005431596026111793 -0.00028267036782354463 -0.000260489234787634 0.0018812444048420813 0.0 0.0
0.0 0.004950378553027488 0.0034244872055083798 -0.004776385766441941 0.0013518985609335587 0.0023479968117446843 0.0 0.0
0.0 0.003329730108282387 0.0023141730971564475 -0.003275641932530069 0.0009614688353736171 -0.0017562406201479816 0.0 0.0
0.0 0.0006805207124968558 0.0003020696151144724 -0.00014343922803573388 -0.00015863038707873808 -0.001189462947337077 0.0 0.0
0.0 2.9041076945466384e-07 -3.4488798683329004e-09 2.6803405111441826e-09 7.685393571887485e-10 5.864590140692222e-08 0.0 0.0
0.0 -3.9933846218285653e-07 2.3010864123224606e-08 -1.7665084308602554e-08 -5.345779814626124e-09 -7.114747973550936e-08 0.0 0.0
0.0 -1.302989917836412e-05 -8.601534390209968e-06 6.873741146144614e-06 1.7277932440654016e-06 1.8119404142756462e-05 0.0 0.0
0.0 6.59298416118213e-05 5.8865424160462057e-05 -3.991398032651074e-05 -1.895144383395132e-05 -3.465353074548562e-05 0.0 0.0
0.0 0.0010204704926555382 0.0008359769253438896 -0.0006453357867844263 -0.00019064113855946319 -0.0006824585659547975 0.0 0.0
0.0 0.003353194320324105 0.002826579799038122 -0.002363607733453326 -0.0004629720655847953 -0.0021175616697737595 0.0 0.0
0.0 0.007740064827852355 0.006195182667288148 -0.005535379080771484 -0.0006598035865166636 -0.004391841500152255 0.0 0.0
0.0 0.012914603367357993 0.010851142635703654 -0.010088021470220122 -0.0007631211654835324 -0.007331003205526635 0.0 0.0
0.0 0.0198006302249562 0.016483221938825343 -0.015651623439078683 -0.0008315984997466644 -0.01047799057275161 0.0 0.0
0.0 0.02748222561413032 0.022913606806089094 -0.022016280049697596 -0.0008973267563915057 -0.013617264833929091 0.0 0.0
0.0 0.03597837710769948 0.03007463114088178 -0.029108656013699368 -0.0009659751271823519 -0.01670020704358847 0.0 0.0
0.0 0.04533934316837414 0.037977520243254556 -0.036945556338786475 -0.0010319639044681194 -0.01978418503657004 0.0 0.0
0.0 0.05550725935964682 0.046629160162046254 -0.045538195400184896 -0.0010909647618613124 -0.022833783996627333 0.0 0.0
0.0 0.06671441719104165 0.05596080698841949 -0.0548207618910981 -0.0011400450973214178 -0.025638295914098757 0.0 0.0
0.0 0.07784785862297573 0.06580893173767507 -0.0646244278520414 -0.0011845038856337505 -0.0278452477247191 0.0 0.0
0.0 0.08973687547349188 0.07590780997286939 -0.07468384164320474 -0.0012239683296645367 -0.02899223942379698 0.0 0.0
0.0 0.10123083398576002 0.085818023895385 -0.08458385847800581 -0.001234165417379238 -0.027913641690311356 0.0 0.0
0.0 0.11111508451991077 0.09465927075504317 -0.09345830165572973 -0.0012009690993135048 -0.022355324706066316 0.0 0.0
0.0 0.11821103389516854 0.09957505516935618 -0.0992225709648188 -0.000352484204537464 2.5118795932144167e-14 0.0 0.0
0.0 0.11111508451989525 0.09465927075502506 -0.09345830165571126 -0.0012009690993138272 0.022355324706126427 0.0 0.0
0.0 0.10123083398573499 0.08581802389535884 -0.08458385847797996 -0.0012341654173789489 0.027913641690371686 0.0 0.0
0.0 0.08973687547345327 0.07590780997283322 -0.07468384164316921 -0.0012239683296640315 0.028992239423834096 0.0 0.0
0.0 0.07784785862292941 0.06580893173763554 -0.06462442785200202 -0.0011845038856334606 0.027845247724724395 0.0 0.0
0.0 0.06671441719098418 0.0559608069883709 -0.05482076189104873 -0.0011400450973221975 0.02563829591408453 0.0 0.0
0.0 0.055507259359594066 0.04662916016200028 -0.04553819540013963 -0.0010909647618606512 0.022833783996613878 0.0 0.0
0.0 0.04533934316832633 0.03797752024321315 -0.036945556338745744 -0.001031963904467405 0.019784185036558183 0.0 0.0
0.0 0.035978377107651255 0.03007463114084094 -0.029108656013659032 -0.0009659751271819387 0.01670020704357428 0.0 0.0
0.0 0.027482225614083373 0.022913606806050178 -0.022016280049658908 -0.0008973267563912774 0.01361726483390836 0.0 0.0
0.0 0.019800630224914788 0.016483221938791683 -0.015651623439045664 -0.0008315984997460177 0.010477990572726926 0.0 0.0
0.0 0.012914603367325141 0.010851142635676613 -0.01008802147019351 -0.0007631211654831033 0.0073310032055058545 0.0 0.0
0.0 0.007740064827827401 0.006195182667268616 -0.005535379080752908 -0.0006598035865157027 0.004391841500138542 0.0 0.0
0.0 0.003353194320309507 0.00282657979902648 -0.0023636077334427017 -0.00046297206558377525 0.0021175616697650893 0.0 0.0
0.0 0.0010204704926476524 0.0008359769253382508 -0.0006453357867799256 -0.00019064113855832423 0.0006824585659499705 0.0 0.0
0.0 6.592984161039524e-05 5.886542415991899e-05 -3.9913980326139055e-05 -1.895144383378016e-05 3.4653530745287226e-05 0.0 0.0
0.0 -1.3029899178969628e-05 -8.601534390183496e-06 6.873741146118266e-06 1.7277932440652332e-06 -1.811940414263487e-05 0.0 0.0
0.0 -3.9933846203843063e-07 2.3010864114477826e-08 -1.766508430182229e-08 -5.345779812654833e-09 7.114747970917023e-08 0.0 0.0
0.0 2.9041076910978675e-07 -3.44887986405181e-09 2.6803405077244864e-09 7.685393563274542e-10 -5.8645901335916544e-08 0.0 0.0
0.0 0.0006805207124919884 0.00030206961511244955 -0.00014343922803436787 -0.00015863038707808144 0.0011894629473308059 0.0 0.0
0.0 0.0033297301082722292 0.002314173097148502 -0.0032756419325192503 0.0009614688353707473 0.0017562406201429679 0.0 0.0
0.0 0.0025066151649569646 0.0014078267103993934 -0.002019468942087462 0.0006116422316880676 -0.0011982380453309793 0.0 0.0
0.0 0.0002825557503841444 0.00013683501124175977 -5.095491081846566e-05 -8.588010042329416e-05 -0.0006567624653101607 0.0 0.0
0.0 7.233461810833938e-07 4.0017557915611497e-08 -4.0553640355387805e-08 5.36082439776952e-10 -7.979434091330734e-07 0.0 0.0
0.0 -6.912692928673081e-07 3.576760310965045e-08 -2.777547033257206e-08 -7.992132777078679e-09 -2.2944665066148297e-07 0.0 0.0
0.0 -6.391897239850792e-06 -4.468201958701695e-06 3.540926401879755e-06 9.272755568219377e-07 1.4971894740895514e-05 0.0 0.0
0.0 -1.4478735166788848e-05 -7.906569170669722e-06 7.948525784899349e-06 -4.1956614229649054e-08 2.2140225466820278e-05 0.0 0.0
0.0 0.0004474262095582608 0.0003337238299890423 -0.00025231806861166487 -8.140576137737695e-05 -0.00042132745507113115 0.0 0.0
0.0 0.001944823322428899 0.0015614953656523456 -0.001265768664921027 -0.0002957267007313181 -0.0016397542901444083 0.0 0.0
0.0 0.004909380016455012 0.003919804082649163 -0.0034040565686978956 -0.0005157475139512704 -0.0036157259078846552 0.0 0.0
0.0 0.009396026177923882 0.007337901258600953 -0.006691165075684059 -0.0006467361829168852 -0.006240001695870424 0.0 0.0
0.0 0.014362575743833839 0.011572899865903792 -0.010848823305411951 -0.0007240765604918323 -0.009196993041133987 0.0 0.0
0.0 0.02017103682103897 0.01639633482177921 -0.01560819722915014 -0.0007881375926290874 -0.012163595147806518 0.0 0.0
0.0 0.02666056690009925 0.021741455543748848 -0.020890769848909092 -0.0008506856948397486 -0.015071469678327436 0.0 0.0
0.0 0.03373945496304545 0.02763945538598861 -0.026730119828056263 -0.0009093355579323325 -0.017959579586155343 0.0 0.0
0.0 0.04160154745133707 0.03414190261040106 -0.033178455800650125 -0.0009634468097509481 -0.020826546517968857 0.0 0.0
0.0 0.05001890871705183 0.04125573536783433 -0.04024581845894128 -0.0010099169088929757 -0.023504590500406194 0.0 0.0
0.0 0.05918873916890231 0.048893998191331646 -0.04784131687989109 -0.0010526813114405354 -0.025653340038978904 0.0 0.0
0.0 0.06852876673935154 0.056985773633823164 -0.055877100227132305 -0.001108673406690833 -0.026917637587137746 0.0 0.0
0.0 0.07811324356561196 0.06549124744598168 -0.06433686268591686 -0.0011543847600647844 -0.026617211448145526 0.0 0.0
0.0 0.0877720312180669 0.07396832056401091 -0.07283080413527403 -0.0011375164287368508 -0.022476748148436525 0.0 0.0
0.0 0.09587862201092147 0.07926257995982396 -0.07918624270712014 -7.633725270385553e-05 2.2379667563576788e-14 0.0 0.0
0.0 0.08777203121805702 0.07396832056399677 -0.07283080413525927 -0.0011375164287374595 0.022476748148491252 0.0 0.0
0.0 0.07811324356559447 0.06549124744596102 -0.06433686268589678 -0.001154384760064234 0.026617211448203122 0.0 0.0
0.0 0.06852876673932293 0.05698577363379571 -0.05587710022710538 -0.0011086734066903365 0.0269176375871708 0.0 0.0
0.0 0.05918873916886596 0.0488939981913007 -0.047841316879861 -0.0010526813114396804 0.025653340038982793 0.0 0.0
0.0 0.05001890871700809 0.04125573536779829 -0.04024581845890492 -0.0010099169088934172 0.0235045905003901 0.0 0.0
0.0 0.04160154745129603 0.0341419026103662 -0.03317845580061536 -0.0009634468097508013 0.020826546517954958 0.0 0.0
0.0 0.033739454963007384 0.027639455385956108 -0.02673011982802427 -0.0009093355579318495 0.017959579586144254 0.0 0.0
0.0 0.026660566900063087 0.021741455543718893 -0.020890769848879713 -0.0008506856948391579 0.015071469678314254 0.0 0.0
0.0 0.020171036821004105 0.016396334821750864 -0.015608197229121937 -0.0007881375926289165 0.012163595147787096 0.0 0.0
0.0 0.014362575743804831 0.011572899865881095 -0.010848823305389936 -0.0007240765604911402 0.009196993041113308 0.0 0.0
0.0 0.009396026177895556 0.007337901258579201 -0.006691165075662524 -0.0006467361829166739 0.006240001695849689 0.0 0.0
0.0 0.004909380016436147 0.003919804082634515 -0.003404056568684223 -0.0005157475139502943 0.003615725907872124 0.0 0.0
0.0 0.0019448233224187595 0.0015614953656446556 -0.0012657686649143718 -0.0002957267007302838 0.0016397542901369344 0.0 0.0
0.0 0.00044742620955353664 0.0003337238299858057 -0.000252318068609144 -8.14057613766616e-05 0.000421327455066955 0.0 0.0
0.0 -1.4478735167191913e-05 -7.90656917040377e-06 7.948525784666953e-06 -4.1956614263116795e-08 -2.2140225465909616e-05 0.0 0.0
0.0 -6.391897241610608e-06 -4.468201958655666e-06 3.5409264018481987e-06 9.272755568074499e-07 -1.4971894740911173e-05 0.0 0.0
0.0 -6.912692931992568e-07 3.576760311970206e-08 -2.7775470339463316e-08 -7.992132780238646e-09 2.2944665079067858e-07 0.0 0.0
0.0 7.233461808916071e-07 4.0017557942181484e-08 -4.055364038238454e-08 5.360824402034846e-10 7.979434097093332e-07 0.0 0.0
0.0 0.0002825557503811545 0.00013683501124053278 -5.095491081767238e-05 -8.588010042286063e-05 0.0006567624653055996 0.0 0.0
0.0 0.002506615164947526 0.001407826710393567 -0.0020194689420793203 0.000611642231685753 0.0011982380453270317 0.0 0.0
0.0 0.0012873921496076015 0.0007687697070087347 -0.0011171208747754488 0.0003483511677667142 -0.0007941676067162942 0.0 0.0
0.0 9.161075004009356e-05 3.0060719622790373e-05 1.2214715987331783e-05 -4.2275435610122e-05 -0.0002606201170868554 0.0 0.0
0.0 1.974292151276635e-06 4.669359409339437e-10 9.710079581579794e-09 -1.0177015522512823e-08 5.315429770126307e-07 0.0 0.0
0.0 1.1563379201789526e-06 -1.052228898863463e-07 7.318019092787808e-08 3.2042698958468053e-08 1.37468713874646e-06 0.0 0.0
0.0 -7.082956019438934e-06 -2.260783716435727e-06 1.7870226030401688e-06 4.737611133955584e-07 1.1829558599583108e-05 0.0 0.0
0.0 -2.2473515982605855e-05 -9.454907229686644e-06 7.983048101566951e-06 1.4718591281197154e-06 2.1629128439091843e-05 0.0 0.0
0.0 0.00014222047938518582 6.426183900428246e-05 -4.792366692243403e-05 -1.633817208184868e-05 -0.00016880906399169865 0.0 0.0
0.0 0.0009433265710325316 0.0005874179518656234 -0.00046786420887569367 -0.00011955374298992986 -0.0010012064943791222 0.0 0.0
0.0 0.0026709293979824754 0.0019253523207568592 -0.0016205844284814383 -0.00030476789227541946 -0.0025472542770896534 0.0 0.0
0.0 0.005542465844909643 0.004084586967524055 -0.00362091643846577 -0.00046367052905828526 -0.004605630536213521 0.0 0.0
0.0 0.008964893049711362 0.0068661241731473276 -0.006299851551636593 -0.0005662726215107376 -0.007046122954035212 0.0 0.0
0.0 0.013046062436282417 0.010059829641582342 -0.009423110906901906 -0.0006367187346804239 -0.009577999446199616 0.0 0.0
0.0 0.017484471568000304 0.01359325851466457 -0.012895086339666366 -0.0006981721749982033 -0.012119546638133565 0.0 0.0
0.0 0.022335788121443576 0.01749491039180248 -0.016744266442940865 -0.0007506439488616258 -0.014640093746016462 0.0 0.0
0.0 0.02774675466374697 0.02184078428576879 -0.021041620688500184 -0.0007991635972685953 -0.017132103777689853 0.0 0.0
0.0 0.03378193494084994 0.02670872010249626 -0.025863961804055063 -0.000844758298441201 -0.019532521055063746 0.0 0.0
0.0 0.040361294037999776 0.032117009601935295 -0.03122881301490811 -0.0008881965870271976 -0.021569262630161054 0.0 0.0
0.0 0.04726525362876792 0.03808410177764644 -0.03713941243464015 -0.0009446893430063424 -0.0228206259323893 0.0 0.0
0.0 0.055080748146980475 0.044893540369375075 -0.043862865207117505 -0.0010306751622575446 -0.02304973656182193 0.0 0.0
0.0 0.06429548547519537 0.05279114571633298 -0.05172269303683274 -0.00106845267950023 -0.021143802617810445 0.0 0.0
0.0 0.0735513460003526 0.05852505940400477 -0.05876185825961859 0.0002367988556137497 2.015054789694659e-14 0.0 0.0
0.0 0.06429548547519445 0.052791145716325594 -0.05172269303682432 -0.0010684526795012401 0.021143802617858972 0.0 0.0
0.0 0.055080748146966764 0.04489354036935769 -0.0438628652071005 -0.0010306751622571652 0.023049736561872612 0.0 0.0
0.0 0.04726525362874463 0.03808410177762512 -0.037139412434618886 -0.000944689343006229 0.022820625932415343 0.0 0.0
0.0 0.04036129403797109 0.03211700960191254 -0.031228813014885913 -0.0008881965870266272 0.021569262630158452 0.0 0.0
0.0 0.03378193494082149 0.026708720102473632 -0.025863961804032366 -0.0008447582984412403 0.01953252105504881 0.0 0.0
0.0 0.027746754663719102 0.021840784285745814 -0.021041620688477383 -0.0007991635972684431 0.017132103777678032 0.0 0.0
0.0 0.022335788121419745 0.017494910391782956 -0.01674426644292131 -0.0007506439488616616 0.014640093746007622 0.0 0.0
0.0 0.0174844715679774 0.013593258514646211 -0.012895086339648545 -0.0006981721749976567 0.01211954663812271 0.0 0.0
0.0 0.01304606243625802 0.010059829641564356 -0.009423110906884143 -0.0006367187346802011 0.009577999446182834 0.0 0.0
0.0 0.008964893049690746 0.006866124173131967 -0.006299851551621822 -0.0005662726215101393 0.00704612295401762 0.0 0.0
0.0 0.005542465844891198 0.004084586967510836 -0.003620916438453132 -0.0004636705290577057 0.004605630536198144 0.0 0.0
0.0 0.0026709293979720592 0.0019253523207493363 -0.0016205844284747201 -0.00030476789227461536 0.002547254277081537 0.0 0.0
0.0 0.0009433265710266386 0.0005874179518618464 -0.00046786420887253257 -0.00011955374298931406 0.001001206494373632 0.0 0.0
0.0 0.00014222047938252289 6.426183900368666e-05 -4.792366692198375e-05 -1.633817208170282e-05 0.0001688090639903808 0.0 0.0
0.0 -2.247351598306949e-05 -9.454907229307356e-06 7.983048101286322e-06 1.4718591280209903e-06 -2.16291284378265e-05 0.0 0.0
0.0 -7.082956019109611e-06 -2.2607837162789905e-06 1.7870226029226582e-06 4.737611133563445e-07 -1.182955859823825e-05 0.0 0.0
0.0 1.1563379194985721e-06 -1.052228899289195e-07 7.318019095975782e-08 3.204269896916251e-08 -1.374687139172642e-06 0.0 0.0
0.0 1.9742921512056968e-06 4.66935958397686e-10 9.710079560613996e-09 -1.0177015519011291e-08 -5.315429764074405e-07 0.0 0.0
0.0 9.16107500372506e-05 3.0060719622132673e-05 1.2214715987722126e-05 -4.2275435609854555e-05 0.0002606201170840008 0.0 0.0
0.0 0.0012873921496010076 0.0007687697070049757 -0.0011171208747700041 0.0003483511677650276 0.0007941676067135563 0.0 0.0
0.0 0.00060894496943755 0.00032126263123779424 -0.0004709285158760189 0.00014966588463822495 -0.000409950970856039 0.0 0.0
0.0 -1.8921478592114704e-05 -1.628772756066306e-05 3.379205581063043e-05 -1.7504328249967423e-05 -2.6224492559893414e-05 0.0 0.0
0.0 2.5881785983443444e-06 3.1955993776089484e-08 -7.855090664776666e-08 4.659491287167767e-08 -2.438041173985879e-06 0.0 0.0
0.0 1.0563066317596314e-06 -7.969145320431001e-08 7.083343890062371e-08 8.858014303684355e-09 -1.39108350296134e-06 0.0 0.0
0.0 -4.886731957448423e-06 -9.39654367924834e-07 7.800355040558849e-07 1.596188638689573e-07 8.586840718877733e-06 0.0 0.0
0.0 -6.7020815709910536e-06 -4.046770291916343e-06 3.4409943475730954e-06 6.057759443432119e-07 1.5335702343651087e-05 0.0 0.0
0.0 5.8580641349167484e-05 2.009566548580121e-06 -1.2044202392744074e-06 -8.051463093056532e-07 -7.999635095792213e-05 0.0 0.0
0.0 0.0002852093304871321 6.979103205202006e-05 -5.869344432476634e-05 -1.1097587727253879e-05 -0.0004329885531869576 0.0 0.0
0.0 0.0009326054440576793 0.00040350838266969667 -0.00035464726606270006 -4.8861116606996044e-05 -0.0012978085994605685 0.0 0.0
0.0 0.002243870430434532 0.001239738783642543 -0.0011114320650771495 -0.00012830671856539394 -0.0026970759909731145 0.0 0.0
0.0 0.004261313267249011 0.0025327453501477397 -0.002309658289877596 -0.0002230870602701411 -0.004411007814812487 0.0 0.0
0.0 0.006366242193808508 0.00407866007182371 -0.0037724996223731807 -0.0003061604494505327 -0.006315745113976138 0.0 0.0
0.0 0.008850622661731243 0.00579732944791407 -0.005420503684967949 -0.0003768257629461163 -0.00832776520712763 0.0 0.0
0.0 0.011630753818360528 0.007715008962527636 -0.007279138806964936 -0.00043587015556269634 -0.010407031395303875 0.0 0.0
0.0 0.01472597479708011 0.009906830564831506 -0.009415885103940067 -0.0004909454608914421 -0.012545253422663194 0.0 0.0
0.0 0.018283499308644525 0.01249587147541839 -0.011948356267304361 -0.0005475152081140338 -0.01471932582166472 0.0 0.0
0.0 0.022470046289751026 0.0156344306494158 -0.015026523659795357 -0.0006079069896204433 -0.01675687772824912 0.0 0.0
0.0 0.027321130305539856 0.019452613327087757 -0.01878312011218549 -0.000669493214902272 -0.018146743262128985 0.0 0.0
0.0 0.032895565056690196 0.02425301812596002 -0.023492843553145345 -0.000760174572814694 -0.018375103274178507 0.0 0.0
0.0 0.040404327136575845 0.03098825290236219 -0.030065360062391938 -0.0009228928399702106 -0.017935866240774343 0.0 0.0
0.0 0.05229321886136 0.037083306573764054 -0.03768584178588946 0.0006025352121254532 1.6921360146415765e-14 0.0 0.0
0.0 0.04040432713658418 0.0309882529023614 -0.03006536006239037 -0.0009228928399710604 0.017935866240816268 0.0 0.0
0.0 0.032895565056680426 0.02425301812594816 -0.023492843553133184 -0.0007601745728150087 0.018375103274214717 0.0 0.0
0.0 0.027321130305523605 0.019452613327074916 -0.01878312011217257 -0.0006694932149023432 0.018146743262144355 0.0 0.0
0.0 0.022470046289730053 0.01563443064940266 -0.015026523659782935 -0.0006079069896197573 0.016756877728241956 0.0 0.0
0.0 0.01828349930862914 0.012495871475408447 -0.011948356267294227 -0.0005475152081142133 0.014719325821650682 0.0 0.0
0.0 0.014725974797064216 0.009906830564819832 -0.00941588510392834 -0.0004909454608914966 0.01254525342265213 0.0 0.0
0.0 0.011630753818351904 0.00771500896252236 -0.007279138806960027 -0.00043587015556233904 0.010407031395299025 0.0 0.0
0.0 0.008850622661720105 0.005797329447907572 -0.005420503684961376 -0.00037682576294620265 0.008327765207119283 0.0 0.0
0.0 0.006366242193794517 0.004078660071815457 -0.0037724996223653176 -0.0003061604494501362 0.006315745113962279 0.0 0.0
0.0 0.004261313267236047 0.00253274535014013 -0.002309658289870319 -0.00022308706026981113 0.0044110078147991 0.0 0.0
0.0 0.0022438704304251073 0.0012397387836370656 -0.0011114320650721626 -0.00012830671856490323 0.002697075990963882 0.0 0.0
0.0 0.000932605444054348 0.00040350838266787873 -0.0003546472660609859 -4.886111660689189e-05 0.0012978085994566064 0.0 0.0
0.0 0.00028520933048457707 6.979103205134867e-05 -5.869344432418001e-05 -1.1097587727168693e-05 0.0004329885531835846 0.0 0.0
0.0 5.858064134827179e-05 2.0095665486655083e-06 -1.2044202393364037e-06 -8.05146309329105e-07 7.999635095803904e-05 0.0 0.0
0.0 -6.702081571250581e-06 -4.0467702916457795e-06 3.4409943473660026e-06 6.057759442797796e-07 -1.5335702341902113e-05 0.0 0.0
0.0 -4.886731957445377e-06 -9.39654367900613e-07 7.800355040415845e-07 1.5961886385902521e-07 -8.5868407180745e-06 0.0 0.0
0.0 1.0563066318469105e-06 -7.969145322096712e-08 7.083343891930393e-08 8.858014301663899e-09 1.3910835039088993e-06 0.0 0.0
0.0 2.5881785982921185e-06 3.1955993783472514e-08 -7.855090666841711e-08 4.659491288494108e-08 2.438041174822041e-06 0.0 0.0
0.0 -1.8921478593423715e-05 -1.628772756079546e-05 3.379205581066974e-05 -1.7504328249874182e-05 2.6224492558797397e-05 0.0 0.0
0.0 0.0006089449694339184 0.00032126263123614 -0.00047092851587357277 0.00014966588463743215 0.0004099509708544819 0.0 0.0
0.0 0.00013456639125591222 7.714449255000852e-05 -0.00011522281288310206 3.807832033309342e-05 -0.00012350905101488478 0.0 0.0
0.0 -2.1566198900659096e-05 -1.2207039416241672e-05 1.7271316934736496e-05 -5.0642775184948035e-06 2.2342312588102972e-05 0.0 0.0
0.0 2.9982298870640747e-06 1.5315271367529047e-07 -1.0887522261545135e-07 -4.427749105984299e-08 3.68391644659856e-06 0.0 0.0
0.0 2.4863621727649716e-06 -2.0642684310100274e-07 1.6850139566915948e-07 3.7925447431845875e-08 -2.5811477324048594e-06 0.0 0.0
0.0 -7.289403513114088e-07 -2.9735637742503324e-07 2.9139050858057884e-07 5.965868844451832e-09 2.5472051835072387e-06 0.0 0.0
0.0 2.364175507516454e-06 -1.089836660095922e-06 1.128171441653935e-06 -3.8334781558011374e-08 3.632905564738616e-06 0.0 0.0
0.0 6.639423517996699e-05 -1.7460869062131442e-06 1.7456046740793057e-06 4.822321338260822e-10 -9.127647018242358e-05 0.0 0.0
0.0 0.0001872196198480358 -1.3181397706785934e-06 1.2825452555272263e-06 3.559451515142306e-08 -0.00032218991231502123 0.0 0.0
0.0 0.0004322689115652376 -2.729048855943031e-07 2.485799961356696e-07 2.4324889458612326e-08 -0.000678979058643625 0.0 0.0
0.0 0.0007180249605342006 3.806384338659338e-08 -1.4558194364567645e-08 -2.3505649022252743e-08 -0.0013696858954299113 0.0 0.0
0.0 0.0013278156182891577 4.4294892279957013e-07 -5.333286374017596e-07 9.037971460235892e-08 -0.0025240885275769746 0.0 0.0
0.0 0.0021954293020820925 -7.208436905681423e-06 9.445686978376924e-06 -2.2372500726952843e-06 -0.0042221492928717404 0.0 0.0
0.0 0.003404106281554615 -2.257241300464318e-05 2.6387346276616542e-05 -3.814933271973009e-06 -0.006084461307741959 0.0 0.0
0.0 0.004792317027483054 -3.328088406581774e-05 3.5193502198352605e-05 -1.9126181325343798e-06 -0.00805418084509817 0.0 0.0
0.0 0.006337051091398658 2.6577507027158173e-05 -3.66218815833208e-05 1.0044374556163443e-05 -0.010139912333317255 0.0 0.0
0.0 0.00799911922745428 0.00030985629652292455 -0.0003464282929051361 3.6571996382209866e-05 -0.01233868800623704 0.0 0.0
0.0 0.00982277881619584 0.0010771668365103784 -0.0011605026279321157 8.333579142174278e-05 -0.014580765302274059 0.0 0.0
0.0 0.011736883320699436 0.0025649036821092106 -0.002765597838014909 0.0002006941559056899 -0.016664094628794403 0.0 0.0
0.0 0.014370536968348507 0.004470440074428215 -0.004857083600948197 0.00038664352651999144 -0.018175734784347797 0.0 0.0
0.0 0.020824693767168268 0.008901264769929569 -0.008650367736369178 -0.00025089703356038996 -0.01868467344853308 0.0 0.0
0.0 0.03702915744049071 0.01570461448921423 -0.01688761122135474 0.0011829967321405033 1.3257624165152748e-14 0.0 0.0
0.0 0.020824693767179242 0.008901264769930082 -0.008650367736369593 -0.0002508970335604795 0.018684673448563664 0.0 0.0
0.0 0.014370536968339752 0.004470440074424023 -0.004857083600945046 0.0003866435265210183 0.018175734784355534 0.0 0.0
0.0 0.011736883320689246 0.0025649036821070318 -0.002765597838012171 0.00020069415590513793 0.016664094628791003 0.0 0.0
0.0 0.009822778816180117 0.001077166836510923 -0.0011605026279334317 8.333579142250953e-05 0.01458076530226085 0.0 0.0
0.0 0.00799911922744578 0.00030985629652503853 -0.0003464282929074295 3.6571996382390846e-05 0.012338688006223146 0.0 0.0
0.0 0.006337051091387944 2.657750702866218e-05 -3.662188158458715e-05 1.0044374555925108e-05 0.01013991233330681 0.0 0.0
0.0 0.004792317027477576 -3.3280884063295883e-05 3.519350219594031e-05 -1.9126181326442366e-06 0.008054180845089723 0.0 0.0
0.0 0.003404106281545068 -2.257241300049318e-05 2.6387346271722453e-05 -3.814933271228244e-06 0.006084461307728387 0.0 0.0
0.0 0.0021954293020703067 -7.208436904040374e-06 9.445686976700124e-06 -2.2372500726610778e-06 0.004222149292856518 0.0 0.0
0.0 0.0013278156182832406 4.4294892336801733e-07 -5.333286380246338e-07 9.037971465709758e-08 0.002524088527568318 0.0 0.0
0.0 0.0007180249605308704 3.8063843037859754e-08 -1.4558194075614214e-08 -2.3505648962269258e-08 0.0013696858954258882 0.0 0.0
0.0 0.00043226891156436737 -2.729048857305619e-07 2.4857999620031006e-07 2.4324889530116307e-08 0.0006789790586423031 0.0 0.0
0.0 0.00018721961984661688 -1.318139770683688e-06 1.2825452555676276e-06 3.5594515116055197e-08 0.0003221899123125204 0.0 0.0
0.0 6.639423517872163e-05 -1.7460869062009423e-06 1.7456046740544948e-06 4.822321464775781e-10 9.127647018195961e-05 0.0 0.0
0.0 2.3641755065539714e-06 -1.089836660091752e-06 1.1281714416482808e-06 -3.833478155653694e-08 -3.632905564451288e-06 0.0 0.0
0.0 -7.289403519139611e-07 -2.973563774640001e-07 2.913905086177331e-07 5.9658688462696775e-09 -2.547205182573429e-06 0.0 0.0
0.0 2.486362172771958e-06 -2.0642684315615342e-07 1.6850139571757136e-07 3.792544743858212e-08 2.581147733170587e-06 0.0 0.0
0.0 2.998229886315251e-06 1.5315271366876977e-07 -1.0887522262307489e-07 -4.4277491045686047e-08 -3.6839164458742666e-06 0.0 0.0
0.0 -2.156619890082245e-05 -1.2207039415911251e-05 1.727131693435178e-05 -5.0642775184405545e-06 -2.234231258721221e-05 0.0 0.0
0.0 0.0001345663912540242 7.714449254948937e-05 -0.00011522281288238237 3.807832033289319e-05 0.00012350905101401845 0.0 0.0
0.0 3.2135182398568115e-06 -6.982030328198596e-08 -2.8028418034980204e-07 3.5010448363177107e-07 9.709160500559422e-07 0.0 0.0
0.0 -4.590301294488145e-07 -4.181382663047237e-08 1.1540685655998344e-07 -7.359302992951363e-08 1.2788015094566992e-06 0.0 0.0
0.0 8.705359872606845e-07 1.1312338385686884e-07 -1.6231167840494914e-07 4.9188294548079965e-08 -1.5947289146654668e-06 0.0 0.0
0.0 4.540381824264504e-06 -2.214385206705372e-07 1.6777659523727817e-07 5.366192543325925e-08 -3.3838256504101e-06 0.0 0.0
0.0 2.234650289345272e-06 -4.296699384636424e-07 4.084102503255156e-07 2.1259688138128025e-08 -3.780792661120274e-06 0.0 0.0
0.0 2.8233521946751077e-06 -5.033941860013412e-07 7.176228619253267e-07 -2.142286759239441e-07 -9.90986215555939e-06 0.0 0.0
0.0 8.690916387671374e-05 -6.83457491917397e-06 5.757492144737169e-06 1.0770827744367253e-06 -9.376919531404538e-05 0.0 0.0
0.0 0.00029996617038636293 -7.539842481410143e-05 6.367375924798779e-05 1.1724665566113648e-05 -0.00044695383169783 0.0 0.0
0.0 0.0009368520323680303 -0.00040539909862073205 0.0003562226028881139 4.917649573261817e-05 -0.001305071433177597 0.0 0.0
0.0 0.0022420137630955557 -0.0012388096811616132 0.0011105550806784872 0.0001282546004831264 -0.0026969028948086175 0.0 0.0
0.0 0.004275090952185225 -0.0025351006402955763 0.0023117880672240236 0.00022331257307155094 -0.00440871986352749 0.0 0.0
0.0 0.00640526805621585 -0.004103885869149122 0.0037944481188708222 0.00030943775027829953 -0.006321595930247603 0.0 0.0
0.0 0.008918999159749036 -0.00585915660388652 0.005477820355194584 0.00038133624869193415 -0.008332711729774915 0.0 0.0
0.0 0.011698949549379972 -0.007785629517569866 0.007351921942806925 0.00043370757476294186 -0.010399722893032188 0.0 0.0
0.0 0.014575048085157995 -0.009805549916267833 0.009342642914107593 0.00046290700216023665 -0.012540799378614943 0.0 0.0
0.0 0.01739311184155079 -0.011707733002268256 0.01124557599579561 0.0004621570064726413 -0.014814171359957816 0.0 0.0
0.0 0.019752637948603394 -0.01312701471622226 0.012703323008879998 0.0004236917073422712 -0.017253441295879413 0.0 0.0
0.0 0.02143499512684478 -0.013594727820861536 0.013258936265761828 0.0003357915550997111 -0.019934963229367244 0.0 0.0
0.0 0.02152465548877104 -0.012567390417178467 0.012431738688819534 0.0001356517283589286 -0.022813765799632894 0.0 0.0
0.0 0.017534819943373768 -0.009105253979006571 0.009502795976574552 -0.0003975419975679799 -0.024787316533170976 0.0 0.0
0.0 0.03574116961360606 -0.005152432368359152 0.002612641780650668 0.00253979058770848 1.7463461232658517e-14 0.0 0.0
0.0 0.017534819943381616 -0.00910525397900747 0.009502795976575312 -0.00039754199756784534 0.024787316533190263 0.0 0.0
0.0 0.02152465548876554 -0.012567390417171798 0.01243173868881303 0.00013565172835876445 0.022813765799648146 0.0 0.0
0.0 0.021434995126829726 -0.013594727820850852 0.013258936265751007 0.00033579155509983746 0.019934963229368552 0.0 0.0
0.0 0.019752637948582154 -0.013127014716206944 0.012703323008865073 0.00042369170734189314 0.01725344129586788 0.0 0.0
0.0 0.01739311184152998 -0.01170773300225338 0.011245575995781375 0.00046215700647201627 0.014814171359941904 0.0 0.0
0.0 0.014575048085141545 -0.009805549916254347 0.009342642914094899 0.00046290700215943987 0.012540799378603293 0.0 0.0
0.0 0.011698949549361563 -0.007785629517555824 0.007351921942792713 0.00043370757476310525 0.010399722893019953 0.0 0.0
0.0 0.008918999159726227 -0.005859156603869658 0.005477820355178376 0.0003813362486912839 0.008332711729759832 0.0 0.0
0.0 0.0064052680561963215 -0.004103885869135376 0.0037944481188581514 0.00030943775027722004 0.00632159593023127 0.0 0.0
0.0 0.004275090952167459 -0.002535100640284637 0.0023117880672137202 0.00022331257307091606 0.004408719863511167 0.0 0.0
0.0 0.0022420137630820044 -0.0012388096811528006 0.0011105550806706822 0.00012825460048211884 0.0026969028947967794 0.0 0.0
0.0 0.0009368520323628628 -0.0004053990986176745 0.000356222602885539 4.917649573213575e-05 0.0013050714331722707 0.0 0.0
0.0 0.00029996617038391724 -7.539842481353972e-05 6.367375924758127e-05 1.1724665565958495e-05 0.0004469538316949655 0.0 0.0
0.0 8.690916387474746e-05 -6.834574919070383e-06 5.757492144632739e-06 1.0770827744376638e-06 9.376919531289048e-05 0.0 0.0
0.0 2.8233521944234122e-06 -5.033941862757694e-07 7.176228621448628e-07 -2.1422867586909735e-07 9.909862157322205e-06 0.0 0.0
0.0 2.234650288854331e-06 -4.296699385658576e-07 4.0841025041209105e-07 2.125968815375575e-08 3.780792661946654e-06 0.0 0.0
0.0 4.540381823745887e-06 -2.21438520774206e-07 1.6777659532341525e-07 5.366192545078949e-08 3.383825651316616e-06 0.0 0.0
0.0 8.705359867971277e-07 1.1312338384314161e-07 -1.6231167840111624e-07 4.918829455797005e-08 1.5947289151805552e-06 0.0 0.0
0.0 -4.5903012953337203e-07 -4.181382671822508e-08 1.1540685665878006e-07 -7.359302994055777e-08 -1.2788015094858314e-06 0.0 0.0
0.0 3.2135182384743826e-06 -6.982030283852016e-08 -2.8028418101078293e-07 3.5010448384931994e-07 -9.709160491175e-07 0.0 0.0
0.0 -5.791226492451871e-07 3.285152939261595e-08 -4.863961923435168e-08 1.5788089841737027e-08 -8.324711323925468e-08 0.0 0.0
0.0 1.072232150949494e-06 8.45821057616945e-09 1.578071526124009e-08 -2.4238925837414334e-08 3.622133256371999e-07 0.0 0.0
0.0 -8.51610895217516e-07 3.87971722816421e-07 -3.229927327830222e-07 -6.497899003340789e-08 2.5777499616923116e-06 0.0 0.0
0.0 2.3170474054768553e-06 -5.353679274885773e-07 4.153482557112534e-07 1.2001967177731235e-07 -5.029098799562232e-06 0.0 0.0
0.0 5.190944312913469e-06 1.8277477474251754e-06 -1.4781097767410113e-06 -3.496379706841001e-07 6.170018000161123e-06 0.0 0.0
0.0 2.316719033287369e-05 1.6159983108086347e-06 -1.1562172481336677e-06 -4.5978106267500007e-07 -4.996394344000567e-06 0.0 0.0
0.0 0.00016235948688843421 -8.625303309924728e-05 6.655926225888519e-05 1.969377084036213e-05 -0.00023446064446686873 0.0 0.0
0.0 0.0009638420111641675 -0.0005965154341988552 0.0004759492540872851 0.00012056618011156963 -0.0010244352258522414 0.0 0.0
0.0 0.002671550593902051 -0.0019250730590905782 0.0016201281183526259 0.0003049449407379515 -0.0025517426711740275 0.0 0.0
0.0 0.005539599866863932 -0.004083326954203304 0.0036196052598616454 0.00046372169434165573 -0.004602996209729223 0.0 0.0
0.0 0.008971524814967899 -0.0068721474501925745 0.0063056500227195965 0.0005664974274729767 -0.007047242962002 0.0 0.0
0.0 0.013074048345570879 -0.010083879401303144 0.00944634042831819 0.000637538972984965 -0.009578771899795962 0.0 0.0
0.0 0.01753851413699881 -0.013646755847125852 0.012947927316333286 0.0006988285307925519 -0.01208718808398762 0.0 0.0
0.0 0.022374440824891262 -0.01755147691896726 0.016804830973923237 0.0007466459450440054 -0.01454531390050922 0.0 0.0
0.0 0.027582627040450888 -0.021729800246646953 0.02095098235781855 0.000778817888828397 -0.01704907574253057 0.0 0.0
0.0 0.03292193819376539 -0.025949380735104728 0.025159617136380957 0.0007897635987237597 -0.019806016316363965 0.0 0.0
0.0 0.03788355424317049 -0.02977870970343523 0.028997996412669765 0.0007807132907654891 -0.023035619875366585 0.0 0.0
0.0 0.04165807934343782 -0.03261876732687604 0.03186324377331197 0.0007555235535640775 -0.026842925139416305 0.0 0.0
0.0 0.04352935430266677 -0.03340284613853985 0.03274220635285911 0.00066063978568072 -0.030505105571215614 0.0 0.0
0.0 0.040550077558721184 -0.029853137144066087 0.029391350857866566 0.0004617862861995115 -0.03138124599198076 0.0 0.0
0.0 0.04385099978321657 -0.024179017497480186 0.02085681237959787 0.003322205117882303 1.9604977363751885e-14 0.0 0.0
0.0 0.040550077558729525 -0.029853137144063548 0.02939135085786447 0.00046178628619908255 0.03138124599202277 0.0 0.0
0.0 0.04352935430266061 -0.03340284613852783 0.03274220635284728 0.0006606397856805428 0.030505105571253775 0.0 0.0
0.0 0.04165807934341665 -0.03261876732685653 0.03186324377329332 0.0007555235535632377 0.026842925139431026 0.0 0.0
0.0 0.03788355424313773 -0.029778709703408793 0.028997996412643057 0.000780713290765735 0.023035619875358904 0.0 0.0
0.0 0.032921938193730106 -0.025949380735076147 0.02515961713635258 0.0007897635987235693 0.0198060163163458 0.0 0.0
0.0 0.02758262704041796 -0.021729800246620506 0.020950982357792584 0.0007788178888279422 0.017049075742513003 0.0 0.0
0.0 0.022374440824862108 -0.017551476918942086 0.01680483097389877 0.000746645945043299 0.014545313900495668 0.0 0.0
0.0 0.017538514136966953 -0.0136467558471 0.012947927316307947 0.0006988285307920506 0.012087188083972564 0.0 0.0
0.0 0.01307404834553818 -0.010083879401278185 0.009446340428293903 0.0006375389729842831 0.009578771899773198 0.0 0.0
0.0 0.00897152481493883 -0.006872147450170588 0.006305650022697745 0.000566497427472843 0.007047242961979006 0.0 0.0
0.0 0.0055395998668408605 -0.00408332695418614 0.0036196052598452266 0.0004637216943409151 0.0046029962097119004 0.0 0.0
0.0 0.002671550593889644 -0.0019250730590812145 0.0016201281183443766 0.00030494494073683785 0.0025517426711653786 0.0 0.0
0.0 0.0009638420111581003 -0.0005965154341948044 0.0004759492540840454 0.00012056618011075823 0.001024435225846788 0.0 0.0
0.0 0.00016235948688505123 -8.625303309813127e-05 6.655926225802552e-05 1.9693770840105833e-05 0.00023446064446432026 0.0 0.0
0.0 2.3167190332469576e-05 1.6159983104157063e-06 -1.156217247830878e-06 -4.597810625849192e-07 4.996394345186264e-06 0.0 0.0
0.0 5.190944311969762e-06 1.8277477472750174e-06 -1.4781097766163166e-06 -3.496379706586941e-07 -6.1700179994526315e-06 0.0 0.0
0.0 2.3170474052071046e-06 -5.353679276156672e-07 4.1534825581663706e-07 1.2001967179903552e-07 5.029098800391734e-06 0.0 0.0
0.0 -8.51610895895015e-07 3.879717228070785e-07 -3.229927327862791e-07 -6.497899002079428e-08 -2.5777499613305103e-06 0.0 0.0
0.0 1.0722321505991261e-06 8.458210587669078e-09 1.5780715253357328e-08 -2.423892584102801e-08 -3.622133257924839e-07 0.0 0.0
0.0 -5.791226488939735e-07 3.285152937202806e-08 -4.863961920387383e-08 1.57880898318369e-08 8.324711318699175e-08 0.0 0.0
0.0 0.0 0.0 0.0 0.0 0.0 0.0 0.0
0.0 1.2793262250216665e-07 8.703308849541075e-11 4.028570319636627e-09 -4.115603408136257e-09 2.4778079492361678e-08 0.0 0.0
0.0 3.087267841740579e-07 3.5272498413739316e-07 -2.7914098530033996e-07 -7.358399883704616e-08 1.9493148984115917e-06 0.0 0.0
0.0 1.1181216524886435e-06 1.1610300552405146e-06 -9.780011077054432e-07 -1.8302894753507136e-07 2.7122919784635563e-06 0.0 0.0
0.0 3.0520043571175116e-06 2.0625783743840965e-06 -1.6038252223340427e-06 -4.5875315205009723e-07 4.57624617842018e-07 0.0 0.0
0.0 3.287770016471096e-05 -2.8224301444051056e-05 2.138413763057709e-05 6.840163813474072e-06 -6.417333701961912e-05 0.0 0.0
0.0 0.0005304486306976906 -0.00035733833453523004 0.0002738608285087922 8.347750602643743e-05 -0.00046907037394715604 0.0 0.0
0.0 0.0019616762875885986 -0.0015651873709698599 0.001269386434869628 0.0002958009361002295 -0.0016573177285680802 0.0 0.0
0.0 0.00490528639653571 -0.003916183983399341 0.0034002754621332287 0.0005159085212661106 -0.0036135216809494008 0.0 0.0
0.0 0.00939585371681338 -0.007337940374468862 0.0066911372186641135 0.0006468031558047573 -0.0062366552882374355 0.0 0.0
0.0 0.014367548890626275 -0.01158076648751123 0.010856890744192764 0.000723875743318454 -0.009199571744663184 0.0 0.0
0.0 0.020191065278840105 -0.016413785936477115 0.015625730514743506 0.0007880554217336031 -0.012154413032369443 0.0 0.0
0.0 0.026681136209429218 -0.02176920953841863 0.020918612040530065 0.0008505974978885872 -0.01499410612559333 0.0 0.0
0.0 0.03371984847744838 -0.027654681232135207 0.026748369786512623 0.0009063114456225442 -0.017752618445876448 0.0 0.0
0.0 0.04140437471015192 -0.034018894375090224 0.03307113848250419 0.0009477558925860636 -0.020610026928729104 0.0 0.0
0.0 0.04930207541057482 -0.04062496922484797 0.03965870966298248 0.0009662595618654469 -0.02392371224479071 0.0 0.0
0.0 0.05723273009111304 -0.046944733651321326 0.045986134311036056 0.0009585993402852106 -0.02813653638041417 0.0 0.0
0.0 0.06371437924087882 -0.052037331591672585 0.05113017980391972 0.0009071517877528922 -0.033199121964975875 0.0 0.0
0.0 0.06700480528603767 -0.05422773122601396 0.05343316398968695 0.0007945672363269445 -0.03773428559025953 0.0 0.0
0.0 0.06319151366063328 -0.05034220058856022 0.04983426152209766 0.0005079390664625116 -0.03906523440211971 0.0 0.0
0.0 0.0608233554962834 -0.04281296664315269 0.038769186300458475 0.004043780342694257 2.1584296849841422e-14 0.0 0.0
0.0 0.06319151366063806 -0.0503422005885543 0.0498342615220924 0.0005079390664619241 0.039065234402171176 0.0 0.0
0.0 0.06700480528602802 -0.05422773122599801 0.05343316398967155 0.000794567236326387 0.0377342855903089 0.0 0.0
0.0 0.06371437924085313 -0.052037331591647557 0.05113017980389551 0.0009071517877520507 0.033199121965000015 0.0 0.0
0.0 0.057232730091067205 -0.04694473365128284 0.04598613431099716 0.000958599340285703 0.02813653638040823 0.0 0.0
0.0 0.04930207541052749 -0.04062496922480826 0.03965870966294331 0.0009662595618649287 0.023923712244773004 0.0 0.0
0.0 0.04140437471010723 -0.03401889437505293 0.03307113848246758 0.0009477558925853408 0.020610026928710327 0.0 0.0
0.0 0.0337198484774046 -0.027654681232097977 0.026748369786475944 0.0009063114456220189 0.017752618445860062 0.0 0.0
0.0 0.026681136209385087 -0.02176920953838208 0.020918612040493712 0.0008505974978883562 0.014994106125575387 0.0 0.0
0.0 0.020191065278798267 -0.016413785936443336 0.01562573051471057 0.0007880554217327674 0.012154413032346548 0.0 0.0
0.0 0.014367548890585453 -0.01158076648747906 0.010856890744160477 0.0007238757433185704 0.00919957174463625 0.0 0.0
0.0 0.009395853716782792 -0.007337940374444651 0.006691137218640497 0.0006468031558041517 0.006236655288217449 0.0 0.0
0.0 0.004905286396514865 -0.003916183983383201 0.0034002754621181653 0.0005159085212650331 0.003613521680936303 0.0 0.0
0.0 0.001961676287577068 -0.001565187370960882 0.001269386434862028 0.0002958009360988545 0.0016573177285600959 0.0 0.0
0.0 0.0005304486306922855 -0.0003573383345319055 0.00027386082850617275 8.34775060257326e-05 0.0004690703739429502 0.0 0.0
0.0 3.2877700163086116e-05 -2.8224301443799158e-05 2.1384137630381735e-05 6.8401638134173815e-06 6.417333701920441e-05 0.0 0.0
0.0 3.0520043570592036e-06 2.062578373970797e-06 -1.6038252219954904e-06 -4.587531519753026e-07 -4.576246166161487e-07 0.0 0.0
0.0 1.118121651734157e-06 1.1610300551261984e-06 -9.780011076113283e-07 -1.8302894751486846e-07 -2.7122919777632236e-06 0.0 0.0
0.0 3.0872678368772475e-07 3.527249841650855e-07 -2.7914098532379785e-07 -7.358399884129436e-08 -1.9493148985491376e-06 0.0 0.0
0.0 1.2793262222365965e-07 8.703308583074716e-11 4.028570317766604e-09 -4.115603403594462e-09 -2.4778079435018216e-08 0.0 0.0
0.0 0.0 0.0 0.0 0.0 0.0 0.0 0.0
0.0 0.0 0.0 0.0 0.0 0.0 0.0 0.0
0.0 -1.2025212151614905e-07 -2.8111852206668733e-09 1.9303984439410896e-09 8.807867767261456e-10 -2.3879236813071873e-08 0.0 0.0
0.0 -1.2016412647234477e-08 2.358701196635101e-07 -1.8706940738575973e-07 -4.88007122777528e-08 9.968503669507865e-07 0.0 0.0
0.0 -2.7265341130230055e-06 6.697305670033401e-07 -5.5367061972004e-07 -1.1605994728328967e-07 9.8950861346801e-07 0.0 0.0
0.0 1.9361269510298283e-06 5.432355348126097e-06 -4.608719780222385e-06 -8.236355679037076e-07 9.818950191297948e-06 0.0 0.0
0.0 0.00016965016868128826 -0.00010478272936903606 7.801918316882809e-05 2.6763546200207995e-05 -0.00011182917444098582 0.0 0.0
0.0 0.0010439634711457938 -0.000862955126514309 0.0006707959253933018 0.0001921592011210075 -0.0007465500934989481 0.0 0.0
0.0 0.003357497533730716 -0.0028226730866967678 0.0023598368095047693 0.00046283627719199825 -0.0021259006159203503 0.0 0.0
0.0 0.007733988243976166 -0.0061907500618547905 0.005530551889335988 0.000660198172518801 -0.004385110720037525 0.0 0.0
0.0 0.012916335484380651 -0.010853813648888754 0.010090735015154199 0.0007630786337345716 -0.007328677583035726 0.0 0.0
0.0 0.019811849749848634 -0.016491597743673446 0.015660612848343067 0.0008309848953303813 -0.010480076522288188 0.0 0.0
0.0 0.027487520478797794 -0.02291890017639521 0.02202272869832386 0.0008961714780713282 -0.013597365398966757 0.0 0.0
0.0 0.03595162960663181 -0.03006175203207149 0.02909689490915117 0.0009648571229203358 -0.016586251339420197 0.0 0.0
0.0 0.04524328394257583 -0.03792822111022137 0.03689747736202674 0.0010307437481946158 -0.019490376860978424 0.0 0.0
0.0 0.05528773613361732 -0.046493746810436706 0.04541006556295592 0.0010836812474807802 -0.022500134281405376 0.0 0.0
0.0 0.06620627004293017 -0.05552389395100726 0.054414562744026805 0.0011093312069804656 -0.026092314255004814 0.0 0.0
0.0 0.07643703984645199 -0.06435108709870108 0.06325890003734533 0.0010921870613557032 -0.03081383360878932 0.0 0.0
0.0 0.0856123331872648 -0.07160422876771755 0.07059089003949409 0.0010133387282234702 -0.03655415878908962 0.0 0.0
0.0 0.09033628981817027 -0.07489692665167928 0.07405500821424287 0.0008419184374364092 -0.041853022793843085 0.0 0.0
0.0 0.08555451576221194 -0.07023723447928554 0.06972870214431837 0.0005085323349672464 -0.043788726111163315 0.0 0.0
0.0 0.07947356155046197 -0.061039508877203004 0.056374657271466684 0.0046648516057361915 2.303018886706809e-14 0.0 0.0
0.0 0.0855545157622121 -0.07023723447927663 0.06972870214431015 0.000508532334966532 0.04378872611121688 0.0 0.0
0.0 0.0903362898181508 -0.07489692665165593 0.07405500821421881 0.0008419184374370014 0.041853022793896424 0.0 0.0
0.0 0.08561233318722682 -0.07160422876768195 0.07059089003945863 0.0010133387282231596 0.03655415878911792 0.0 0.0
0.0 0.07643703984639594 -0.06435108709865325 0.06325890003729646 0.001092187061356835 0.03081383360878701 0.0 0.0
0.0 0.06620627004287132 -0.055523893950957144 0.05441456274397686 0.001109331206980219 0.026092314254989396 0.0 0.0
0.0 0.05528773613356137 -0.046493746810388925 0.045410065562908795 0.0010836812474801585 0.022500134281386967 0.0 0.0
0.0 0.04524328394251887 -0.0379282211101724 0.03689747736197853 0.00103074374819387 0.0194903768609603 0.0 0.0
0.0 0.03595162960657186 -0.03006175203202117 0.029096894909100602 0.0009648571229205575 0.016586251339399324 0.0 0.0
0.0 0.027487520478744698 -0.02291890017635082 0.02202272869827985 0.0008961714780709657 0.013597365398942933 0.0 0.0
0.0 0.01981184974979956 -0.016491597743632944 0.015660612848302953 0.0008309848953299988 0.01048007652226012 0.0 0.0
0.0 0.012916335484342014 -0.010853813648856677 0.01009073501512259 0.0007630786337340943 0.007328677583012627 0.0 0.0
0.0 0.0077339882439472 -0.006190750061831996 0.005530551889314086 0.0006601981725179102 0.0043851107200221 0.0 0.0
0.0 0.003357497533714475 -0.002822673086683886 0.0023598368094932933 0.00046283627719059036 0.0021259006159111706 0.0 0.0
0.0 0.001043963471137277 -0.0008629551265082035 0.0006707959253884123 0.00019215920111979092 0.0007465500934936423 0.0 0.0
0.0 0.0001696501686782911 -0.00010478272936750601 7.801918316766582e-05 2.6763546199840224e-05 0.00011182917443937526 0.0 0.0
0.0 1.9361269505477064e-06 5.4323553476128035e-06 -4.608719779813855e-06 -8.236355677989236e-07 -9.81895019026943e-06 0.0 0.0
0.0 -2.7265341129553597e-06 6.697305666602282e-07 -5.536706194513042e-07 -1.1605994720890727e-07 -9.895086123568786e-07 0.0 0.0
0.0 -1.2016412875131788e-08 2.3587011969736817e-07 -1.8706940741441086e-07 -4.880071228295733e-08 -9.968503670892533e-07 0.0 0.0
0.0 -1.2025212151506954e-07 -2.8111852205958148e-09 1.930398443898689e-09 8.807867766964716e-10 2.387923681280424e-08 0.0 0.0
0.0 0.0 0.0 0.0 0.0 0.0 0.0 0.0
0.0 0.0 0.0 0.0 0.0 0.0 0.0 0.0
0.0 0.0 0.0 0.0 0.0 0.0 0.0 0.0
0.0 -2.753639778462669e-07 3.9391479335367114e-08 -3.029326652753084e-08 -9.09821280783757e-09 1.2794686007769317e-07 0.0 0.0
0.0 -2.677320229357619e-06 2.2297085123764727e-06 -1.8012906928620412e-06 -4.284178195144073e-07 4.660310910861767e-06 0.0 0.0
0.0 -2.2088385674995357e-06 -6.572668469459169e-06 4.033959987228989e-06 2.538708482230157e-06 -4.826376743706687e-06 0.0 0.0
0.0 0.00038981817110003616 -0.0002879817493154289 0.0002153233499254272 7.26583993900019e-05 -0.0001931642158895121 0.0 0.0
0.0 0.001794235265155508 -0.0015584070030614714 0.0012392144108177591 0.0003191925922437116 -0.0009139525979144022 0.0 0.0
0.0 0.0052437840913849435 -0.004298023640813894 0.003699687438052072 0.000598336202761823 -0.002402430586300829 0.0 0.0
0.0 0.010021701846683414 -0.008686022246743726 0.007923440594352456 0.0007625816523912738 -0.004807001240397723 0.0 0.0
0.0 0.017050272235331756 -0.014497694669700457 0.013648346183260626 0.0008493484864398259 -0.007728469695436718 0.0 0.0
0.0 0.025347834806088113 -0.021510219316313604 0.020592871791560014 0.0009173475247535744 -0.010837930515369661 0.0 0.0
0.0 0.03480559116573886 -0.029529020439019713 0.02854124834918301 0.0009877720898367223 -0.013913623820257352 0.0 0.0
0.0 0.045310324705909726 -0.038460675334234834 0.037397616681390376 0.0010630586528443742 -0.016877310828259016 0.0 0.0
0.0 0.056930494889647895 -0.04830295863621964 0.047165279483543356 0.001137679152676346 -0.01976951148313154 0.0 0.0
0.0 0.06944383650241409 -0.059056561473434944 0.05785344328453626 0.001203118188898634 -0.022742770489856498 0.0 0.0
0.0 0.08268073710316329 -0.0704900344961848 0.06925386291589031 0.0012361715802944803 -0.02620742739983266 0.0 0.0
0.0 0.09628154674684698 -0.0817703715357189 0.08056372442614707 0.0012066471095718717 -0.03079085159463443 0.0 0.0
0.0 0.10744568262321244 -0.09109165917570125 0.09000247316082527 0.001089186014875744 -0.03664950419968138 0.0 0.0
0.0 0.11283279801218873 -0.09533916850126495 0.09447514377538355 0.0008640247258813764 -0.04259982927926026 0.0 0.0
0.0 0.10753428945528916 -0.08993310061169492 0.08942422199593636 0.0005088786157585747 -0.046606482661235835 0.0 0.0
0.0 0.09949910019473893 -0.07931481523746982 0.07410421046208936 0.005210604775380432 2.3881938093772703e-14 0.0 0.0
0.0 0.10753428945528348 -0.08993310061168197 0.0894242219959245 0.00050887861575756 0.046606482661290145 0.0 0.0
0.0 0.11283279801215887 -0.09533916850123346 0.09447514377535202 0.00086402472588141 0.04259982927931344 0.0 0.0
0.0 0.1074456826231621 -0.09109165917565522 0.09000247316077986 0.0010891860148753048 0.036649504199708915 0.0 0.0
0.0 0.09628154674678337 -0.08177037153566394 0.08056372442609175 0.0012066471095721386 0.03079085159463429 0.0 0.0
0.0 0.08268073710309333 -0.07049003449612447 0.06925386291583055 0.0012361715802939332 0.02620742739982029 0.0 0.0
0.0 0.06944383650234029 -0.05905656147337164 0.05785344328447322 0.0012031181888984047 0.022742770489840237 0.0 0.0
0.0 0.05693049488958178 -0.04830295863616213 0.047165279483486935 0.0011376791526751652 0.019769511483115027 0.0 0.0
0.0 0.045310324705838324 -0.03846067533417395 0.03739761668132917 0.0010630586528447446 0.01687731082823961 0.0 0.0
0.0 0.03480559116567025 -0.029529020438961866 0.028541248349125352 0.0009877720898364961 0.01391362382023165 0.0 0.0
0.0 0.025347834806029326 -0.021510219316264352 0.020592871791511102 0.0009173475247532458 0.010837930515342155 0.0 0.0
0.0 0.01705027223528233 -0.014497694669659084 0.013648346183219508 0.000849348486439575 0.007728469695413008 0.0 0.0
0.0 0.010021701846650478 -0.008686022246714727 0.007923440594324349 0.000762581652390377 0.00480700124038244 0.0 0.0
0.0 0.005243784091362917 -0.00429802364079631 0.003699687438035599 0.0005983362027607135 0.002402430586290635 0.0 0.0
0.0 0.0017942352651444708 -0.001558407003052561 0.0012392144108104124 0.0003191925922421481 0.0009139525979089187 0.0 0.0
0.0 0.00038981817109511215 -0.00028798174931229405 0.00021532334992301706 7.26583993892768e-05 0.00019316421588732506 0.0 0.0
0.0 -2.2088385681836173e-06 -6.572668469630204e-06 4.0339599873828534e-06 2.5387084822473273e-06 4.826376744185544e-06 0.0 0.0
0.0 -2.6773202299643514e-06 2.2297085123149827e-06 -1.8012906928123983e-06 -4.284178195025789e-07 -4.6603109105827655e-06 0.0 0.0
0.0 -2.753639776801677e-07 3.939147936987461e-08 -3.029326655495933e-08 -9.09821281491388e-09 -1.2794686018833129e-07 0.0 0.0
0.0 0.0 0.0 0.0 0.0 0.0 0.0 0.0
0.0 0.0 0.0 0.0 0.0 0.0 0.0 0.0
0.0 0.0 0.0 0.0 0.0 0.0 0.0 0.0
0.0 0.0 0.0 0.0 0.0 0.0 0.0 0.0
0.0 -1.9259891853480113e-07 -1.2438204119640457e-08 9.900711751953166e-09 2.537492367688598e-09 -3.208399983975565e-08 0.0 0.0
0.0 -4.13729028755241e-06 2.1222168552399446e-06 -1.720954024302559e-06 -4.0126283093741515e-07 3.660227470108126e-06 0.0 0.0
0.0 4.2555920235382546e-05 -2.4720403213862852e-05 1.607271307718513e-05 8.64769013667784e-06 -4.671650567662963e-06 0.0 0.0
0.0 0.0006441742112856762 -0.0006096983850821082 0.0004610498812373219 0.0001486485038447859 -0.0002743765217167872 0.0 0.0
0.0 0.0029172058103547342 -0.002419932489994571 0.0019762899906368148 0.0004436424993577557 -0.0009649663964900923 0.0 0.0
0.0 0.006765947153711959 -0.005971609783079664 0.00526859994000161 0.0007030098430780542 -0.0024921594152813014 0.0 0.0
0.0 0.012972502187782814 -0.011276867921038594 0.010438195423290289 0.0008386724977482966 -0.004733767269633002 0.0 0.0
0.0 0.021118186118787307 -0.018217530352880897 0.01729643893659246 0.000921091416288456 -0.007415851798670531 0.0 0.0
0.0 0.030952401246342152 -0.026589112438042038 0.02559531514792031 0.000993797290121721 -0.01029294407599577 0.0 0.0
0.0 0.04222619358933826 -0.036194737255780776 0.035124528179370694 0.0010702090764100804 -0.01313806498591815 0.0 0.0
0.0 0.05485451669607638 -0.046920837430024405 0.04576954030612492 0.0011512971238994234 -0.01589609333120578 0.0 0.0
0.0 0.06841002171477895 -0.058741641263911605 0.05750832865118987 0.0012333126127217291 -0.01862208432607581 0.0 0.0
0.0 0.08350002924403514 -0.07163234551892221 0.07032452245473622 0.0013078230641860944 -0.0213788592910392 0.0 0.0
0.0 0.09954498724253225 -0.08536460245230745 0.08401422049914532 0.0013503819531619891 -0.024357173091786453 0.0 0.0
0.0 0.11531390793201621 -0.09900843265763545 0.09769365153493739 0.0013147811226979739 -0.02815032300396628 0.0 0.0
0.0 0.12874463515164292 -0.11035068843504119 0.10919071942233619 0.0011599690127050417 -0.03349047233175148 0.0 0.0
0.0 0.13547556931447957 -0.11564960296816311 0.1147660367230301 0.0008835662451328546 -0.040312126281362465 0.0 0.0
0.0 0.12967554393222924 -0.10980340775649985 0.10930379091200289 0.0004996168444968995 -0.047978361983370375 0.0 0.0
0.0 0.12007453774957003 -0.09803557777763233 0.09234734889554876 0.005688228882083657 2.2868859583802248e-14 0.0 0.0
0.0 0.1296755439322148 -0.1098034077564809 0.1093037909119842 0.0004996168444966544 0.04797836198342336 0.0 0.0
0.0 0.1354755693144406 -0.11564960296812489 0.11476603672299215 0.0008835662451325883 0.04031212628141243 0.0 0.0
0.0 0.1287446351515824 -0.1103506884349874 0.10919071942228278 0.0011599690127046369 0.03349047233177718 0.0 0.0
0.0 0.11531390793194118 -0.09900843265757028 0.0976936515348723 0.0013147811226979717 0.028150323003967574 0.0 0.0
0.0 0.09954498724245263 -0.08536460245223813 0.0840142204990769 0.0013503819531611502 0.024357173091777908 0.0 0.0
0.0 0.08350002924395104 -0.07163234551884994 0.07032452245466408 0.0013078230641858435 0.02137885929102572 0.0 0.0
0.0 0.06841002171469734 -0.05874164126384107 0.05750832865112014 0.0012333126127209168 0.018622084326059635 0.0 0.0
0.0 0.0548545166959951 -0.0469208374299542 0.045769540306054554 0.0011512971238996203 0.015896093331188473 0.0 0.0
0.0 0.04222619358926113 -0.03619473725571477 0.03512452817930535 0.0010702090764094212 0.013138064985894968 0.0 0.0
0.0 0.030952401246273468 -0.02658911243798352 0.025595315147861994 0.0009937972901215386 0.010292944075969906 0.0 0.0
0.0 0.02111818611873078 -0.018217530352832592 0.01729643893654416 0.0009210914162884129 0.007415851798648878 0.0 0.0
0.0 0.012972502187743488 -0.01127686792100432 0.010438195423256814 0.000838672497747517 0.004733767269618847 0.0 0.0
0.0 0.006765947153685105 -0.005971609783056508 0.005268599939979559 0.0007030098430769445 0.0024921594152707565 0.0 0.0
0.0 0.0029172058103394704 -0.00241993248998235 0.001976289990626173 0.00044364249935617594 0.0009649663964845729 0.0 0.0
0.0 0.0006441742112795617 -0.0006096983850774929 0.0004610498812337398 0.00014864850384375267 0.0002743765217147167 0.0 0.0
0.0 4.255592023456865e-05 -2.4720403214086462e-05 1.60727130774122e-05 8.647690136674358e-06 4.671650568182293e-06 0.0 0.0
0.0 -4.137290287616304e-06 2.1222168550724747e-06 -1.720954024177956e-06 -4.012628308945171e-07 -3.6602274698942704e-06 0.0 0.0
0.0 -1.9259891850927365e-07 -1.243820411784055e-08 9.900711750511593e-09 2.5374923673294314e-09 3.208399983580417e-08 0.0 0.0
0.0 0.0 0.0 0.0 0.0 0.0 0.0 0.0
0.0 0.0 0.0 0.0 0.0 0.0 0.0 0.0
0.0 0.0 0.0 0.0 0.0 0.0 0.0 0.0
0.0 0.0 0.0 0.0 0.0 0.0 0.0 0.0
0.0 -7.18462332870173e-08 -5.322214849680892e-09 4.219826328331633e-09 1.102388521349622e-09 -1.0684932772376604e-08 0.0 0.0
0.0 -4.8291697324288e-06 3.3170465471834772e-06 -2.716761576946988e-06 -6.002849702364836e-07 4.3365654256083615e-06 0.0 0.0
0.0 0.00012149585355020671 -9.214959136431605e-05 6.422091584982177e-05 2.792867551449453e-05 -1.7337594998861745e-05 0.0 0.0
0.0 0.0011713015159068346 -0.0010200214827058916 0.0007832548287039926 0.0002367666540018992 -0.00024443187849474394 0.0 0.0
0.0 0.003922826581417537 -0.0034594250026041243 0.0029019617346744426 0.0005574632679296772 -0.0009148191709703531 0.0 0.0
0.0 0.008687055358534125 -0.007737790533551336 0.0069586403976896 0.0007791501358617328 -0.0022695399492098285 0.0 0.0
0.0 0.015866345183001885 -0.013924322925875553 0.013023599744082752 0.0009007231817927895 -0.0041408704242873575 0.0 0.0
0.0 0.025269707097540898 -0.021969763213573336 0.02098500044681122 0.0009847627667620954 -0.00641469402588965 0.0 0.0
0.0 0.03656654044751227 -0.03168708010992624 0.030623593281572176 0.0010634868283540318 -0.008862134962730668 0.0 0.0
0.0 0.04965282914756001 -0.042877285235440765 0.04173083519844484 0.0011464500369959365 -0.011286897703935884 0.0 0.0
0.0 0.06406592610468743 -0.055408901568827024 0.05417535164924518 0.001233549919581946 -0.013653543887656872 0.0 0.0
0.0 0.08029616575340517 -0.06920024198604002 0.06788169089872223 0.0013185510873176978 -0.01603356650642359 0.0 0.0
0.0 0.09753781825802445 -0.08416961863907885 0.08277292948191617 0.00139668915716266 -0.01843192024589862 0.0 0.0
0.0 0.11571936634053512 -0.10003605963995037 0.09858590919004273 0.001450150449907668 -0.02074390454109607 0.0 0.0
0.0 0.13411919751424595 -0.11585076102693517 0.11442472297751119 0.001426038049424005 -0.023197698456782084 0.0 0.0
0.0 0.14978414278803692 -0.1292407522407342 0.1279919405436388 0.0012488116970953119 -0.027176783626735625 0.0 0.0
0.0 0.1580389840619464 -0.13595547069694636 0.13504237269574007 0.0009130980012063163 -0.034929222039774555 0.0 0.0
0.0 0.15254240467171762 -0.1302057188624716 0.12973618469338402 0.0004695341690877156 -0.04766066255087513 0.0 0.0
0.0 0.14223918988736628 -0.11760249927544433 0.1115118201952775 0.006090679080166722 1.930920701109784e-14 0.0 0.0
0.0 0.15254240467169503 -0.1302057188624475 0.12973618469335912 0.00046953416908841826 0.04766066255092133 0.0 0.0
0.0 0.1580389840618986 -0.1359554706969024 0.1350423726956958 0.0009130980012064721 0.0349292220398182 0.0 0.0
0.0 0.14978414278796687 -0.12924075224067275 0.12799194054357776 0.0012488116970948901 0.02717678362675736 0.0 0.0
0.0 0.13411919751416068 -0.11585076102686132 0.11442472297743755 0.0014260380494237504 0.023197698456783683 0.0 0.0
0.0 0.11571936634044068 -0.10003605963986836 0.0985859091899614 0.0014501504499069852 0.02074390454109056 0.0 0.0
0.0 0.09753781825793034 -0.08416961863899773 0.08277292948183541 0.0013966891571622442 0.01843192024588845 0.0 0.0
0.0 0.08029616575330879 -0.06920024198595641 0.06788169089863938 0.0013185510873169582 0.01603356650640953 0.0 0.0
0.0 0.06406592610459394 -0.05540890156874645 0.054175351649164705 0.0012335499195818504 0.013653543887643385 0.0 0.0
0.0 0.049652829147471385 -0.04287728523536408 0.04173083519836855 0.0011464500369955553 0.011286897703916547 0.0 0.0
0.0 0.03656654044743782 -0.03168708010986207 0.030623593281508484 0.0010634868283535648 0.008862134962708799 0.0 0.0
0.0 0.025269707097477046 -0.021969763213518217 0.020985000446756635 0.000984762766761573 0.006414694025871062 0.0 0.0
0.0 0.015866345182955724 -0.01392432292583529 0.013023599744043044 0.000900723181792232 0.004140870424274675 0.0 0.0
0.0 0.008687055358502923 -0.007737790533523574 0.006958640397662798 0.0007791501358607828 0.002269539949200525 0.0 0.0
0.0 0.0039228265813975646 -0.0034594250025870993 0.0029019617346589554 0.0005574632679281416 0.0009148191709642964 0.0 0.0
0.0 0.0011713015158990431 -0.001020021482699683 0.0007832548286991159 0.0002367666540005664 0.0002444318784934117 0.0 0.0
0.0 0.00012149585354905072 -9.21495913640205e-05 6.422091584964339e-05 2.792867551437701e-05 1.733759499916551e-05 0.0 0.0
0.0 -4.829169732710814e-06 3.31704654667318e-06 -2.7167615765629393e-06 -6.002849701102316e-07 -4.336565425167485e-06 0.0 0.0
0.0 -7.184623319621463e-08 -5.322214842869262e-09 4.219826322927047e-09 1.1023885199412321e-09 1.0684932758656047e-08 0.0 0.0
0.0 0.0 0.0 0.0 0.0 0.0 0.0 0.0
0.0 0.0 0.0 0.0 0.0 0.0 0.0 0.0
0.0 0.0 0.0 0.0 0.0 0.0 0.0 0.0
0.0 0.0 0.0 0.0 0.0 0.0 0.0 0.0
0.0 0.0 0.0 0.0 0.0 0.0 0.0 0.0
0.0 -6.841498567106869e-06 6.4436814996710675e-06 -5.319776421494063e-06 -1.1239050781770298e-06 5.7737749000938035e-06 0.0 0.0
0.0 0.0002336246749485898 -0.00023009886951483275 0.0001636664079626666 6.643246155216597e-05 -6.002635933054669e-06 0.0 0.0
0.0 0.0018403676605483123 -0.0015680414789665726 0.0012313793723008203 0.00033666210666575175 -0.0001424535208467196 0.0 0.0
0.0 0.004987407119057946 -0.0046138208784928395 0.00396560577989411 0.0006482150985987273 -0.0007050999800624178 0.0 0.0
0.0 0.010706729381236334 -0.009555906677798248 0.008715801312005096 0.0008401053657931677 -0.0016780595576349358 0.0 0.0
0.0 0.018803048237882473 -0.016593447960651327 0.01563897826346812 0.0009544696971832067 -0.003052945010563344 0.0 0.0
0.0 0.02941733253285131 -0.02571794755504687 0.024675183685982486 0.0010427638690644078 -0.004733179658682814 0.0 0.0
0.0 0.0422640184675671 -0.036766174169114124 0.035637853492655996 0.0011283206764580965 -0.006553848366982066 0.0 0.0
0.0 0.056994981568692996 -0.049539006791179986 0.04832142903084454 0.0012175777603353872 -0.00836461137931593 0.0 0.0
0.0 0.07377454960965354 -0.06387613650888505 0.06256660598861094 0.0013095305202741212 -0.010152353715151085 0.0 0.0
0.0 0.09175299826113312 -0.07964909965146252 0.07825120819885131 0.0013978914526111893 -0.012001677915546825 0.0 0.0
0.0 0.1114199439623372 -0.09664299473753746 0.09516925301319995 0.0014737417243374984 -0.013868555623151752 0.0 0.0
0.0 0.1320004871083749 -0.11444027182643743 0.11291532367954096 0.0015249481468964645 -0.015469930190331162 0.0 0.0
0.0 0.15243715652646755 -0.13212010080817654 0.13059361658905583 0.001526484219120859 -0.016567800116161383 0.0 0.0
0.0 0.17028048623742936 -0.14753453583410597 0.14613750318199456 0.0013970326521114567 -0.01835938509996877 0.0 0.0
0.0 0.1807154817868759 -0.15627482834525425 0.1552862798651578 0.0009885484800960494 -0.02553615656352359 0.0 0.0
0.0 0.17644461169729467 -0.15154197521917573 0.15115260484377285 0.0003893703754027859 -0.04460797975772035 0.0 0.0
0.0 0.1661449901352602 -0.13857563792554373 0.1321875431303577 0.006388094795185975 1.3310533231170041e-14 0.0 0.0
0.0 0.17644461169726583 -0.15154197521914795 0.15115260484374488 0.00038937037540296706 0.044607979757756 0.0 0.0
0.0 0.1807154817868208 -0.1562748283452046 0.1552862798651088 0.0009885484800960225 0.025536156563558912 0.0 0.0
0.0 0.1702804862373473 -0.14753453583403503 0.14613750318192392 0.0013970326521110857 0.018359385099985404 0.0 0.0
0.0 0.1524371565263723 -0.13212010080809408 0.1305936165889737 0.001526484219120481 0.016567800116162275 0.0 0.0
0.0 0.1320004871082719 -0.11444027182634786 0.11291532367945245 0.0015249481468954424 0.015469930190328364 0.0 0.0
0.0 0.11141994396222935 -0.09664299473744391 0.09516925301310727 0.0014737417243366477 0.013868555623146261 0.0 0.0
0.0 0.0917529982610259 -0.0796490996513694 0.07825120819875944 0.0013978914526099973 0.012001677915537802 0.0 0.0
0.0 0.07377454960954928 -0.06387613650879478 0.06256660598852089 0.0013095305202738246 0.010152353715142226 0.0 0.0
0.0 0.056994981568592784 -0.049539006791093375 0.048321429030758575 0.0012175777603347585 0.00836461137930249 0.0 0.0
0.0 0.04226401846748362 -0.03676617416904145 0.03563785349258368 0.00112832067645775 0.006553848366965395 0.0 0.0
0.0 0.029417332532782108 -0.025717947554986104 0.02467518368592251 0.0010427638690635908 0.0047331796586692265 0.0 0.0
0.0 0.018803048237830695 -0.01659344796060566 0.015638978263423142 0.0009544696971825399 0.0030529450105537836 0.0 0.0
0.0 0.010706729381200961 -0.009555906677766747 0.008715801311974459 0.0008401053657922798 0.001678059557628119 0.0 0.0
0.0 0.004987407119035526 -0.004613820878472505 0.0039656057798753055 0.0006482150985972089 0.0007050999800577235 0.0 0.0
0.0 0.0018403676605380879 -0.0015680414789578253 0.0012313793722936025 0.0003366621066642205 0.0001424535208455277 0.0 0.0
0.0 0.00023362467494610452 -0.00023009886951342695 0.00016366640796168787 6.643246155173865e-05 6.002635933209132e-06 0.0 0.0
0.0 -6.841498567070774e-06 6.443681499305453e-06 -5.3197764212179655e-06 -1.12390507808752e-06 -5.773774899932734e-06 0.0 0.0
0.0 0.0 0.0 0.0 0.0 0.0 0.0 0.0
0.0 0.0 0.0 0.0 0.0 0.0 0.0 0.0
0.0 0.0 0.0 0.0 0.0 0.0 0.0 0.0
0.0 0.0 0.0 0.0 0.0 0.0 0.0 0.0
0.0 0.0 0.0 0.0 0.0 0.0 0.0 0.0
0.0 0.0 0.0 0.0 0.0 0.0 0.0 0.0
0.0 -2.954697391411588e-06 1.1204070781334966e-06 -2.1702425045638648e-06 1.0498354264303762e-06 6.599272382743932e-06 0.0 0.0
0.0 0.0005136787450779407 -0.0004318687541519508 0.00031228466899026306 0.00011958408516168792 6.337791425705837e-05 0.0 0.0
0.0 0.0025059467157272264 -0.0022438242402000536 0.0018074580879025098 0.00043636615229754284 4.582637065939911e-05 0.0 0.0
0.0 0.006374527531850195 -0.005818592239855967 0.00510204718357475 0.0007165450562812203 -0.00024908402243010584 0.0 0.0
0.0 0.012751762274248271 -0.011397380044855682 0.010507677341069997 0.0008897027037856678 -0.0007569400633787052 0.0 0.0
0.0 0.021819392423275616 -0.01924896791640548 0.018246871291840414 0.0010020966245650822 -0.001476687849833478 0.0 0.0
0.0 0.03355804485453097 -0.02942557875337114 0.028328618175676938 0.001096960577694172 -0.0023767470705714933 0.0 0.0
0.0 0.047869730920970265 -0.04179106253111636 0.04060204116316514 0.001189021367951253 -0.003364524227905715 0.0 0.0
0.0 0.06461331197598005 -0.056142388216795944 0.05485864014111606 0.0012837480756799295 -0.004368530551566477 0.0 0.0
0.0 0.08298273019147169 -0.07229367679032683 0.07091273430705325 0.0013809424832735213 -0.005408766014864357 0.0 0.0
0.0 0.10347432215398036 -0.0900298008807258 0.08855792043494833 0.0014718804457774656 -0.006506191501209292 0.0 0.0
0.0 0.12540041690389223 -0.1090130361480503 0.1074699693641757 0.0015430667838746998 -0.007606832703083622 0.0 0.0
0.0 0.14807423398180064 -0.1286250392215475 0.12704289811318908 0.0015821411083582022 -0.008497337664278569 0.0 0.0
0.0 0.1702841917594665 -0.1478163448947603 0.14623168853069374 0.0015846563640667453 -0.008784904218760735 0.0 0.0
0.0 0.18996191171332952 -0.1648294729326774 0.16328210313109562 0.0015473698015817932 -0.008704642459796987 0.0 0.0
0.0 0.20309232445225472 -0.17615270969661515 0.17485116287351735 0.0013015468230975398 -0.01238690681468573 0.0 0.0
0.0 0.20185104523212977 -0.17430684604246974 0.17399455527178526 0.0003122907706845038 -0.03330813265625369 0.0 0.0
0.0 0.1930793900748738 -0.1621430614578599 0.15588166432002967 0.00626139713783005 6.387251838546604e-15 0.0 0.0
0.0 0.20185104523209618 -0.1743068460424387 0.17399455527175473 0.0003122907706839383 0.033308132656274435 0.0 0.0
0.0 0.2030923244521875 -0.17615270969655655 0.17485116287345873 0.001301546823097763 0.012386906814706474 0.0 0.0
0.0 0.18996191171323645 -0.1648294729325969 0.16328210313101518 0.0015473698015816084 0.008704642459806034 0.0 0.0
0.0 0.17028419175935366 -0.14781634489466353 0.14623168853059584 0.0015846563640676279 0.008784904218760489 0.0 0.0
0.0 0.1480742339816852 -0.12862503922144697 0.12704289811308955 0.0015821411083573643 0.008497337664276912 0.0 0.0
0.0 0.12540041690377315 -0.10901303614794719 0.10746996936407321 0.001543066783874055 0.007606832703081321 0.0 0.0
0.0 0.10347432215386045 -0.09002980088062182 0.088557920434845 0.0014718804457767233 0.006506191501205073 0.0 0.0
0.0 0.0829827301913535 -0.0722936767902246 0.07091273430695119 0.0013809424832733573 0.005408766014859463 0.0 0.0
0.0 0.06461331197587358 -0.05614238821670346 0.054858640141024456 0.0012837480756789932 0.004368530551558811 0.0 0.0
0.0 0.04786973092087773 -0.04179106253103605 0.040602041163085655 0.0011890213679504361 0.003364524227896303 0.0 0.0
0.0 0.033558044854453226 -0.029425578753303056 0.028328618175609475 0.0010969605776935943 0.0023767470705636923 0.0 0.0
0.0 0.02181939242321861 -0.019248967916355084 0.018246871291790603 0.0010020966245644647 0.001476687849828795 0.0 0.0
0.0 0.012751762274206878 -0.011397380044818838 0.010507677341033831 0.0008897027037850077 0.0007569400633750676 0.0 0.0
0.0 0.006374527531825332 -0.005818592239833288 0.005102047183553311 0.0007165450562799752 0.0002490840224277552 0.0 0.0
0.0 0.002505946715714126 -0.0022438242401885303 0.0018074580878925824 0.00043636615229594825 -4.582637065998802e-05 0.0 0.0
0.0 0.0005136787450744171 -0.00043186875414953397 0.00031228466898856135 0.00011958408516097235 -6.337791425643502e-05 0.0 0.0
0.0 -2.954697391660287e-06 1.1204070778922997e-06 -2.1702425043776962e-06 1.049835426485489e-06 -6.599272382665475e-06 0.0 0.0
0.0 0.0 0.0 0.0 0.0 0.0 0.0 0.0
0.0 0.0 0.0 0.0 0.0 0.0 0.0 0.0
0.0 0.0 0.0 0.0 0.0 0.0 0.0 0.0
0.0 0.0 0.0 0.0 0.0 0.0 0.0 0.0
0.0 0.0 0.0 0.0 0.0 0.0 0.0 0.0
0.0 0.0 0.0 0.0 0.0 0.0 0.0 0.0
0.0 3.188883778408488e-05 -3.059243529898186e-05 1.9773908628131552e-05 1.0818526670850366e-05 1.3169985827614708e-05 0.0 0.0
0.0 0.000854212856344491 -0.00068081614237797 0.0004893561986991943 0.00019145994367877564 0.00016531182288566522 0.0 0.0
0.0 0.0031816483964623252 -0.002852543610336671 0.0022739747217275803 0.0005785688886090883 0.0003698803956501002 0.0 0.0
0.0 0.007463241121743132 -0.006841341850439906 0.005921905392654711 0.000919436457785198 0.00048546796840474567 0.0 0.0
0.0 0.014358598006893743 -0.012921113086258965 0.011737635133453321 0.0011834779528056378 0.0005393079900995227 0.0 0.0
0.0 0.02404796408520305 -0.021424522585057525 0.02000003779806563 0.0014244847869918748 0.000520718615990391 0.0 0.0
0.0 0.03671504387385748 -0.0324552782630376 0.03076443239364096 0.001690845869396597 0.0003893536053435026 0.0 0.0
0.0 0.05222675967089883 -0.04590943832074014 0.043906888619603734 0.0020025497011364104 0.00018276156606314648 0.0 0.0
0.0 0.07001505627922669 -0.061582847784403365 0.05921972919250114 0.002363118591902219 -9.31516544417834e-05 0.0 0.0
0.0 0.0901618395162553 -0.07923407449915401 0.07647413568965811 0.002759938809495946 -0.0004716237751121021 0.0 0.0
0.0 0.11229428187391471 -0.09858817396511661 0.09541594083759716 0.003172233127519515 -0.0009220301122944644 0.0 0.0
0.0 0.135924335207386 -0.1192122707840648 0.11564565602739585 0.003566614756668777 -0.0014634096952554389 0.0 0.0
0.0 0.16019689502361575 -0.14031748433755523 0.13641982861264823 0.0038976557249071394 -0.001997303986846633 0.0 0.0
0.0 0.18361608266006546 -0.16062895120061305 0.15651677608779085 0.0041121751128219575 -0.0022556147636197416 0.0 0.0
0.0 0.2041278662227075 -0.17839990306331754 0.17421462551337258 0.004185277549944707 -0.0020103779212169003 0.0 0.0
0.0 0.21888705919527554 -0.191393421929912 0.18711780531384586 0.004275616616066386 -0.0039041246512655607 0.0 0.0
0.0 0.22183129064690135 -0.19447397936286764 0.19004893788878607 0.004425041474081526 -0.025266357124331645 0.0 0.0
0.0 0.21776063377099109 -0.18567439301691951 0.17425860792820577 0.011415785088713421 1.942890293094024e-16 0.0 0.0
0.0 0.22183129064686344 -0.1944739793628339 0.19004893788875346 0.004425041474080219 0.02526635712433888 0.0 0.0
0.0 0.21888705919519827 -0.191393421929845 0.1871178053137794 0.004275616616065478 0.0039041246512738804 0.0 0.0
0.0 0.20412786622260656 -0.1783999030632291 0.1742146255132874 0.004185277549941919 0.002010377921218196 0.0 0.0
0.0 0.18361608265994067 -0.1606289512005049 0.15651677608768297 0.004112175112821671 0.0022556147636159755 0.0 0.0
0.0 0.16019689502348522 -0.14031748433744137 0.13641982861253632 0.0038976557249048435 0.001997303986844747 0.0 0.0
0.0 0.13592433520725872 -0.11921227078395352 0.11564565602728633 0.0035666147566670893 0.0014634096952547172 0.0 0.0
0.0 0.11229428187378285 -0.0985881739650016 0.0954159408374841 0.0031722331275174593 0.0009220301122923429 0.0 0.0
0.0 0.09016183951612608 -0.0792340744990415 0.07647413568954729 0.0027599388094942056 0.00047162377511035004 0.0 0.0
0.0 0.07001505627911152 -0.06158284778430301 0.05921972919240269 0.0023631185919002298 9.31516544388309e-05 0.0 0.0
0.0 0.05222675967080251 -0.045909438320655464 0.04390688861952167 0.002002549701133809 -0.00018276156606479056 0.0 0.0
0.0 0.036715043873772175 -0.03245527826296337 0.030764432393568082 0.001690845869395252 -0.000389353605346276 0.0 0.0
0.0 0.024047964085140427 -0.0214245225850024 0.020000037798011933 0.0014244847869904669 -0.0005207186159914313 0.0 0.0
0.0 0.014358598006845961 -0.01292111308621636 0.011737635133411946 0.0011834779528044177 -0.000539307990098944 0.0 0.0
0.0 0.007463241121715881 -0.006841341850414941 0.005921905392631257 0.0009194364577836811 -0.00048546796840413873 0.0 0.0
0.0 0.0031816483964485004 -0.002852543610323644 0.002273974721716418 0.0005785688886072269 -0.0003698803956487154 0.0 0.0
0.0 0.0008542128563403231 -0.0006808161423749045 0.0004893561986970035 0.00019145994367790228 -0.00016531182288486557 0.0 0.0
0.0 3.188883778329969e-05 -3.059243529842401e-05 1.9773908627746043e-05 1.081852667067791e-05 -1.316998582747144e-05 0.0 0.0
0.0 0.0 0.0 0.0 0.0 0.0 0.0 0.0
0.0 0.0 0.0 0.0 0.0 0.0 0.0 0.0
0.0 0.0 0.0 0.0 0.0 0.0 0.0 0.0
SCALARS Wm float 4
LOOKUP_TABLE default
13.508768687975177 2.0510790806574772 5.738679536020051 5.719010071297644
6.923436355262681 3.292467814594683 1.6430783281012658 1.9878902125667335
0.7869151570577163 0.7140948527062503 0.013696325975000454 0.059123978376465346
0.5747179318552249 0.5332541498463884 0.011563103861822018 0.029900678147014418
1.2235381338598432 0.827143482782709 0.1436654482852545 0.25272920279187894
2.7426516269874592 1.2281571040804984 0.5778834224666702 0.9366111004402893
5.783768298014703 1.792478765545002 1.7593233135310806 2.231966218938621
10.787025416380136 2.522205321855587 3.9701300229160044 4.294690071608546
18.252820312350202 3.473802234709953 7.573547231509238 7.205470846131007
28.524946747706256 4.67507096019721 12.857617344475093 10.992258443033954
41.730516533584236 6.1334222824871425 19.978555866016322 15.618538385080777
57.71654040740269 7.837642247773558 28.863191566276313 21.01570659335285
76.50625357564932 9.756364232522813 39.643660102583496 27.106229240542973
97.90276243713647 11.853632707414603 52.23793362664031 33.81119610308161
121.4850442391673 13.967367783912744 66.50675067339941 41.01092578185508
146.45705336833234 15.830645803709087 82.11637437861224 48.51003318601098
171.5132174425131 17.140060141144055 98.3456080516587 56.027549249710404
194.98963413599728 17.685411413906994 114.17846997335653 63.125752748733596
215.15953623859184 17.559564121684712 128.30426140249878 69.29571071440857
229.33109065155037 16.452485908023778 138.94663343207426 73.93197131145214
233.8364477674566 14.328452197983015 143.54868666018086 75.95930890929272
229.3310906515024 16.452485908006043 138.94663343205255 73.93197131144376
215.15953623854656 17.559564121716924 128.30426140244475 69.2957107143848
194.9896341359165 17.685411413929547 114.17846997328502 63.12575274870193
171.51321744237185 17.140060141110382 98.3456080515848 56.02754924967664
146.45705336820987 15.830645803703478 82.11637437853281 48.5100331859736
121.48504423903213 13.967367783888431 66.5067506733254 41.010925781818294
97.90276243701521 11.853632707400486 52.23793362656991 33.811196103044814
76.50625357553355 9.756364232507497 39.64366010251866 27.106229240507442
57.716540407305814 7.837642247768336 28.863191566218358 21.015706593319155
41.73051653349811 6.133422282474714 19.978555865970964 15.618538385052402
28.52494674764268 4.675070960189245 12.857617344442092 10.992258443011348
18.252820312301356 3.473802234700207 7.573547231487108 7.205470846114041
10.787025416348701 2.5222053218509335 3.9701300229017784 4.294690071595992
5.783768297997293 1.7924787655439554 1.759323313523113 2.2319662189302254
2.7426516269784127 1.2281571040782433 0.5778834224640208 0.9366111004361474
1.223538133856276 0.8271434827811026 0.1436654482844535 0.2527292027907198
0.5747179318543981 0.5332541498458456 0.011563103861715926 0.02990067814683667
0.7869151570568702 0.7140948527057714 0.013696325974891805 0.05912397837620631
6.923436355257608 3.2924678145962543 1.6430783280979862 1.987890212563363
13.508768687945903 2.0510790806424146 5.738679536012177 5.719010071291327
16.22339880657541 7.024123156273847 4.479193585164399 4.720082065137164
2.855066568691501 0.627628914926707 0.948667298028143 1.278770355736651
0.2849592917923112 0.3342649859186714 -0.01703478433015975 -0.03227090979620033
0.4432701381676579 0.4281215264855067 0.003051863308916804 0.012096748373234338
0.9186823337642922 0.6736733040645703 0.07756805394868241 0.1674409757510399
2.1863264168045635 1.0020406267540374 0.4538112171471467 0.7304745729033792
4.744475850789874 1.3914219628686126 1.4423273210857106 1.910726566835549
9.124599468131454 1.8819073205235648 3.4255422068113677 3.8171499407965195
15.695979765868444 2.4686096848163857 6.700313538436622 6.527056542615444
24.679388225511037 3.143294986977957 11.486125811915496 10.049967426617572
36.150527850301984 3.889413009906274 17.920273914458324 14.340840925937378
50.130400064903135 4.714128467714863 26.08693955222018 19.3293320449681
66.31941329428139 5.621558644943042 35.74183217845327 24.95602247088509
84.88631691605467 6.572550755426713 47.16211271188019 31.15165344874779
105.41134630346508 7.498886892726289 60.089682691016115 37.82277671972268
127.28682270488567 8.262862977595349 74.2319738478642 44.791985879426065
149.49844768992 8.70277301237523 89.02680025494257 51.76887442260214
170.63540045796228 8.708601349312229 103.53971920940882 58.38707989924127
188.81506860088678 8.177907480156623 116.48833321005661 64.14882791067346
201.66873196117368 7.186912895531559 126.13396835395098 68.34785071169124
206.59338084589535 6.053768375392317 130.37242384978316 70.16718862071995
201.6687319611484 7.1869128955358725 126.13396835393027 68.34785071168224
188.81506860081137 8.177907480147578 116.48833321001058 64.1488279106533
170.6354004578745 8.70860134931492 103.53971920934632 58.38707989921335
149.49844768982342 8.70277301237655 89.02680025487567 51.76887442257112
127.286822704773 8.262862977587297 74.23197384779348 44.791985879392186
105.41134630335203 7.498886892713307 60.089682690949665 37.82277671968906
84.88631691595124 6.57255075542113 47.162112711816086 31.151653448714015
66.31941329418741 5.6215586449416515 35.74183217839391 24.956022470851813
50.13040006481656 4.714128467711832 26.086939552167834 19.32933204493688
36.15052785022757 3.889413009899716 17.92027391441702 14.340840925910822
24.67938822545476 3.143294986972621 11.486125811885602 10.049967426596526
15.695979765828639 2.4686096848138996 6.700313538415796 6.527056542598942
9.124599468105185 1.8819073205215369 3.425542206798678 3.8171499407849714
4.744475850774248 1.3914219628665432 1.4423273210792538 1.910726566828447
2.186326416797067 1.0020406267528201 0.45381121714441 0.7304745728998381
0.9186823337620464 0.673673304063615 0.07756805394818767 0.16744097575024425
0.4432701381672661 0.4281215264850642 0.0030518633089090396 0.012096748373292776
0.28495929179223084 0.3342649859184538 -0.01703478433009485 -0.032270909796128
2.8550665686833248 0.627628914924813 0.9486672980250654 1.2787703557334473
16.223398806549227 7.024123156262938 4.479193585156141 4.720082065130131
12.315721804896594 5.611778234795218 3.1365775820112436 3.567365988090129
1.7850131664649456 0.2664977089210421 0.6346081669905718 0.8839072905533332
0.17725130864862515 0.17672417142935246 8.87516165464299e-05 0.00043838560272626106
0.3269392613594948 0.32833168108441346 -0.0005921398737290758 -0.0008002798511894537
0.6914203065239355 0.5783831604403104 0.030459376076557975 0.08257777000706727
1.7008216297446206 0.8967417772074416 0.2968318001243895 0.5072480524127905
3.8474795553639316 1.268583930565181 1.0670836066233802 1.511812018175369
7.6678426087204885 1.7196715901152781 2.746406167361362 3.20176485124385
13.442392675357642 2.240127092128102 5.564510891196932 5.637754692032609
21.36585205417284 2.8214865718385607 9.737292316161568 8.807073166172716
31.43754155730604 3.4604303464553734 15.326146938330451 12.650964272520227
43.580088445240804 4.166981298425942 22.309235668781245 17.103871478033607
57.8998624388078 4.958071584712406 30.833066901247225 22.10872395284819
74.02766112222245 5.814380532194625 40.58385868574345 27.629421904284342
92.04022444963202 6.66616571201556 51.794313035126926 33.57974570248949
111.33161228491818 7.419362276590586 64.08927116602601 39.82297884230159
131.059163863196 7.933842331112567 76.9930431270086 46.132278405074835
149.91900410699262 8.041311249405 89.74398228390648 52.13371057368118
166.11575684525354 7.6102402734461005 101.16026522502304 57.34525134678442
177.58330080951254 6.8601566000298 109.61354760381457 61.109596605668116
181.7670849315789 5.435808236591138 113.49548364533446 62.835793049653326
177.58330080949233 6.86015660003755 109.61354760379545 61.109596605659206
166.11575684520378 7.6102402734517165 101.16026522498514 57.345251346766865
149.91900410692224 8.04131124941087 89.74398228385431 52.13371057365698
131.0591638631067 7.933842331108931 76.99304312695065 46.1322784050471
111.33161228483269 7.419362276597457 64.08927116596428 39.82297884227099
92.04022444954727 6.666165712021713 51.794313035067006 33.57974570245857
74.02766112212939 5.814380532186314 40.5838586856886 27.629421904254418
57.899862438727624 4.958071584716002 30.833066901194055 22.108723952817563
43.580088445165984 4.166981298423437 22.30923566873646 17.10387147800612
31.43754155724258 3.460430346451721 15.326146938294599 12.65096427249626
21.365852054123607 2.821486571834397 9.737292316135553 8.807073166153657
13.442392675321628 2.240127092126183 5.564510891178205 5.637754692017241
7.667842608698158 1.719671590113521 2.7464061673507776 3.2017648512338606
3.8474795553507333 1.2685839305624904 1.0670836066186138 1.5118120181696273
1.7008216297391276 0.8967417772065982 0.2968318001224433 0.5072480524100863
0.6914203065219482 0.57838316043899 0.03045937607632173 0.08257777000663638
0.3269392613591929 0.32833168108407024 -0.0005921398737215832 -0.0008002798511558221
0.17725130864869423 0.17672417142942284 8.875161654546238e-05 0.00043838560272591986
1.7850131664593474 0.2664977089204258 0.6346081669882363 0.8839072905506837
12.315721804869439 5.611778234783249 3.13657758200333 3.5673659880828668
9.337584228888453 4.375445027442475 2.2356898722036425 2.726449329242336
1.2057268577518363 0.12235071676230769 0.42952199341514463 0.653854147574383
0.12386018719715973 0.12386018719715973 0.0 0.0
0.24342262514223378 0.24489476289047002 -0.0002258727988700789 -0.0012462649493661406
0.5170648813394704 0.4837430360354664 0.007082511943864696 0.02623933336013919
1.2661838446046856 0.7765419351781229 0.16423445261025021 0.32540745681631256
3.0475184192040476 1.1467098459175464 0.7657451827807399 1.135063390505762
6.27055137699888 1.5540259853842182 2.115143519462228 2.6013818721524355
11.264242353643972 2.0130655183032387 4.4958462995179875 4.755330535822744
18.123853636990372 2.5113381406613327 8.047169712489069 7.565345783839967
26.79817457936574 3.051521133795004 12.784469927058144 10.96218351851259
37.295842919424956 3.657619367517933 18.760224149435974 14.877999402471051
49.47311702770416 4.340685161678753 25.86186945709955 19.270562408925866
63.52813364478193 5.093731611560148 34.330158612939385 24.104243420282398
79.02623059352563 5.884257677592575 43.80597440618251 29.335998509750567
95.70403298176026 6.628917254166785 54.221030086897926 34.854085640695565
113.03538562107684 7.203243119932663 65.37209821093927 40.46004429020489
129.72800184760538 7.428666975173342 76.4422558876609 45.857078984771135
144.17804800667145 7.1761359379217 86.40905780685931 50.592854261890395
154.56641967435132 6.574923133051411 93.90766589741881 54.08383064388111
158.3689029783585 4.873756876840575 97.69680564206402 55.79834045945385
154.5664196743305 6.57492313305487 93.907665897402 54.08383064387362
144.17804800662782 7.176135937927268 86.40905780682587 50.5928542618747
129.7280018475413 7.428666975174878 76.44225588761643 45.857078984750004
113.03538562100057 7.203243119928604 65.37209821089111 40.460044290180825
95.70403298168202 6.628917254171852 54.221030086842795 34.854085640667385
79.02623059343952 5.8842576775874065 43.80597440613007 29.335998509722018
63.52813364470671 5.093731611557905 34.33015861289279 24.10424342025603
49.473117027626515 4.34068516167219 25.861869457054937 19.27056240889937
37.295842919362315 3.6576193675175883 18.760224149398056 14.877999402446665
26.79817457931081 3.0515211337908563 12.784469927028143 10.962183518491818
18.12385363694699 2.5113381406572715 8.04716971246672 7.565345783822988
11.264242353612449 2.013065518298777 4.495846299503401 4.755330535810273
6.270551376978715 1.5540259853802298 2.1151435194542945 2.6013818721441906
3.0475184191930715 1.1467098459151823 0.7657451827767384 1.1350633905011505
1.2661838446005098 0.7765419351774122 0.16423445260886085 0.3254074568142371
0.517064881338354 0.4837430360344172 0.007082511943813594 0.026239333360123147
0.24342262514198673 0.24489476289023984 -0.0002258727988719738 -0.001246264949381061
0.12386018719695786 0.12386018719695786 0.0 0.0
1.205726857746831 0.12235071676175163 0.4295219934130837 0.6538541475719967
9.33758422886662 4.375445027433656 2.2356898721972245 2.7264493292357415
6.980104144387012 3.387633607781086 1.5431543270286732 2.049316209577257
0.8831000117427862 0.11554219062304118 0.3081653832762532 0.4593924378434914
0.11273081801611964 0.11273081801611964 0.0 0.0
0.19480589354662659 0.19483079732419656 1.4865376397614385e-06 -2.6390315209770547e-05
0.38747268283828307 0.3900492568832035 -0.0024677874278596678 -0.00010878661706068807
0.9230092927326701 0.6667614573544824 0.07758191143396105 0.17866592394422617
2.316383861270767 1.0047131926539246 0.5141429598070935 0.79752770880975
4.9540611784016715 1.387297270035743 1.5437565085848783 2.023007399781052
9.16292909604721 1.7878033326774432 3.490310848554492 3.8848149148152755
14.967835732053038 2.2116709081268726 6.426063957393802 6.330100866532362
22.31561808280932 2.6673021602117544 10.37141471769089 9.276901204906666
31.14475960391984 3.178102237091945 15.310702958903276 12.655954407924625
41.46962029766718 3.767544323347959 21.269677116453774 16.432398857865437
53.12449150748724 4.432138659923048 28.100660663512684 20.591692184051496
66.28342272188294 5.143112213283077 36.04471420712834 25.095596301471534
80.5872138664523 5.869170225277284 44.84596604775239 29.872077593422624
95.41870540289072 6.5062110460759355 54.129949633210366 34.78254472360441
110.01013966048242 6.8770355767788605 63.570168480000234 39.562935603703295
122.90946562887203 6.813420929761994 72.26107642179412 43.834968277315944
132.5065435070411 6.341957306852411 79.05974195415145 47.10484424603722
136.0974522592834 4.344104434845739 82.84964451048873 48.903703313948974
132.5065435070192 6.341957306850495 79.05974195413793 47.104844246030666
122.90946562883141 6.81342092976151 72.26107642176723 43.83496827730268
110.01013966041812 6.877035576766891 63.57016847996552 39.562935603685695
95.41870540282979 6.506211046076231 54.129949633169744 34.782544723583804
80.5872138663782 5.869170225272676 44.84596604770711 29.872077593398398
66.28342272181791 5.143112213285105 36.04471420708532 25.095596301447543
53.12449150742709 4.432138659926459 28.10066066347257 20.591692184028048
41.4696202976102 3.767544323349408 21.269677116417792 16.432398857842983
31.144759603863662 3.178102237087975 15.310702958871973 12.655954407903714
22.315618082763116 2.6673021602067317 10.371414717667012 9.276901204889368
14.967835732015804 2.2116709081222585 6.426063957375607 6.33010086651794
9.162929096022511 1.7878033326755085 3.4903108485426024 3.884814914804399
4.954061178385249 1.3872972700327673 1.5437565085783675 2.023007399774115
2.31638386126179 1.0047131926516466 0.5141429598041032 0.7975277088060411
0.9230092927294454 0.6667614573532409 0.07758191143321827 0.17866592394298608
0.38747268283767444 0.3900492568824217 -0.0024677874278366562 -0.00010878661691061332
0.19480589354638403 0.19483079732399886 1.4865376360904557e-06 -2.6390315250891564e-05
0.1127308180158591 0.1127308180158591 0.0 0.0
0.8831000117389263 0.11554219062278995 0.3081653832745659 0.45939243784157147
6.9801041443693 3.3876336077738323 1.5431543270237005 2.0493162095717645
5.123258516978902 2.6001942385309857 1.0384413176817784 1.484622960766138
0.6267983182697208 0.14394462520720278 0.17439663139079586 0.3084570616717221
0.12741547126358316 0.12741547126358316 0.0 0.0
0.1728461409490185 0.17281027032144142 3.015638851906e-06 3.285498872519207e-05
0.3048325265114621 0.31440063645866284 -0.0024489716965620852 -0.007119138250638656
0.6551743378235186 0.5512518951327738 0.023687736581577554 0.08023470610916746
1.6465603176317558 0.8483615915289434 0.2792707842511706 0.5189279418516415
3.7810943153962495 1.210441000891507 1.0936189182702318 1.4770343962345105
7.134216076229399 1.5638271227725316 2.5387273862669577 3.031661567189913
11.938999538674887 1.923432500730789 4.909308121374188 5.106258916569907
17.974044329969352 2.30327498957483 8.07178785591333 7.598981484481191
25.188578670253268 2.7323035516019045 12.015157158154631 10.441117960496742
33.57548488262553 3.233924151605787 16.739047592174273 13.602513138845485
43.199182959965576 3.8139624302431954 22.302971580961522 17.082248948760853
53.93705098616069 4.463523674731751 28.608602471402822 20.864924840026102
65.66592340415008 5.142783026727901 35.62545642253677 24.897683954885416
78.2841064518762 5.816126285277707 43.392959142160755 29.07502102443773
90.80016753663716 6.35336349798344 51.2053744057595 33.241429632894246
102.19438515124477 6.502934738042434 58.60054698506769 37.09090342813464
111.19723064847362 6.162040283320883 64.84205260994355 40.19313775520912
114.7227754737179 3.853657576703818 68.75078284404032 42.11833505297379
111.19723064846406 6.1620402833275225 64.84205260993282 40.19313775520366
102.1943851512133 6.502934738041193 58.60054698504771 37.09090342812443
90.80016753660205 6.353363497989073 51.2053744057324 33.241429632880546
78.28410645181653 5.81612628526832 43.39295914212794 29.07502102442023
65.66592340409709 5.142783026731267 35.62545642250078 24.89768395486508
53.93705098609899 4.463523674724536 28.608602471368336 20.864924840006108
43.19918295990878 3.8139624302371686 22.302971580930176 17.08224894874143
33.575484882573754 3.233924151602192 16.739047592145095 13.602513138826472
25.18857867021155 2.732303551601923 12.01515715813009 10.441117960479538
17.974044329934628 2.303274989574865 8.07178785589358 7.598981484466186
11.938999538644318 1.9234325007256208 4.909308121360433 5.106258916558264
7.134216076206804 1.563827122768629 2.53872738625748 3.0316615671806946
3.7810943153827132 1.210441000889175 1.0936189182648675 1.4770343962286694
1.6465603176255694 0.8483615915276824 0.27927078424913415 0.5189279418487525
0.6551743378217255 0.5512518951316878 0.023687736581347624 0.08023470610868993
0.30483252651126524 0.31440063645822824 -0.0024489716965196274 -0.007119138250443326
0.1728461409486671 0.17281027032108903 3.015638851890708e-06 3.285498872616192e-05
0.1274154712633275 0.1274154712633275 0.0 0.0
0.6267983182669212 0.14394462520711332 0.17439663138958342 0.30845706167022446
5.123258516965075 2.600194238525215 1.0384413176781246 1.4846229607617352
3.6311913160896876 1.9659221017976656 0.6413452872690057 1.023923927023017
0.4671871558414761 0.1878741294384721 0.0938694078627416 0.18544361854026237
0.15322634478065278 0.15323654263289188 -5.595583971474408e-07 -9.638293841952227e-06
0.16914692312912724 0.16913263711301016 9.176681420014073e-07 1.3368347975063384e-05
0.2562866694617767 0.26155269444909374 -0.0010952880045957466 -0.004170736982721361
0.47043054440432996 0.4521282392994158 3.561147433938294e-05 0.01826669363057509
1.1288343375154029 0.7022659189508931 0.13458948351775102 0.2919789350467588
2.638128708439361 1.0091303291394575 0.6316446483091894 0.997353730990714
5.341233149699497 1.3413040713296946 1.7888076528304362 2.2111214255393663
9.01622446703264 1.6421891038009142 3.4765776345988444 3.897457728632884
13.812668996844502 1.958776732155114 5.920208900334802 5.933683364354586
19.483242138352395 2.315983842216877 8.930205587437747 8.237052708697771
26.03622807099228 2.739151449051435 12.511794483661324 10.785282138279523
33.53985670097483 3.2427019257857337 16.711092626597743 13.586062148591358
41.99713519265151 3.821758571629417 21.530089429651238 16.645287191370848
51.46175871165124 4.459945323897085 27.07276132889956 19.9290520588546
61.39346625530915 5.137400663184763 32.8768382206494 23.379227371475018
71.94740253399674 5.809280683860412 39.26046311026294 26.877658739873382
82.13717415447894 6.212616665092321 45.635263229870546 30.289294259516094
90.60338508409188 6.04471422217812 51.2809721520924 33.27769870982135
94.22747347047972 3.4169528505908673 55.40935775256435 35.40116286732446
90.60338508408489 6.044714222184754 51.2809721520834 33.277698709816725
82.13717415445453 6.212616665089557 45.63526322985638 30.289294259508594
71.94740253395777 5.809280683854198 39.26046311024178 26.877658739861793
61.39346625526601 5.137400663180098 32.87683822062489 23.37922737146104
51.46175871160873 4.459945323900939 27.072761328870314 19.929052058837485
41.997135192610145 3.821758571629687 21.53008942962562 16.645287191354846
33.53985670093221 3.242701925779607 16.711092626575674 13.58606214857694
26.036228070954724 2.7391514490494884 12.511794483640301 10.785282138264941
19.48324213831794 2.3159838422156787 8.93020558741863 8.237052708683638
13.812668996813349 1.9587767321520675 5.9202089003192775 5.933683364342004
9.016224467011156 1.6421891038004053 3.476577634587784 3.8974577286229675
5.341233149683923 1.3413040713284576 1.7888076528232186 2.211121425532247
2.6381287084296328 1.0091303291373812 0.6316446483057405 0.9973537309865117
1.1288343375108092 0.702265918949646 0.13458948351643737 0.291978935044726
0.47043054440296067 0.452128239298263 3.5611474281709834e-05 0.018266693630416584
0.25628666946113626 0.26155269444842266 -0.0010952880045851977 -0.0041707369827012515
0.16914692312864388 0.1691326371125322 9.176681415783688e-07 1.336834797013782e-05
0.15322634478039535 0.15323654263262204 -5.595583963068968e-07 -9.638293830423766e-06
0.4671871558392767 0.18787412943826037 0.09386940786189316 0.18544361853912314
3.631191316079492 1.9659221017932795 0.6413452872665277 1.0239239270196867
2.5432865682619177 1.4980046361069772 0.40514761290691514 0.6401343192480257
0.34183718363232407 0.2157033974360134 0.031143509662274544 0.09499027653403605
0.18015290804245943 0.17999841243429374 1.525987098850016e-05 0.000139235737177165
0.1769167375506127 0.17687373957066826 3.4546871376071265e-06 3.954329280686736e-05
0.23049140280790345 0.23410696201405626 -0.000666201293887204 -0.002949357912265516
0.3584728172679021 0.3681259996809576 -0.005098576870052615 -0.004554605543003089
0.731623345511818 0.5593260345506562 0.04263963877771244 0.12965767218344917
1.7099553011073148 0.8082531492488416 0.31486356625823253 0.5868385856002408
3.565308270242799 1.0899884997638742 1.01795464975833 1.4573651207205942
6.3791362505824045 1.363205000965075 2.292558393675055 2.7233728559422734
9.859485106659276 1.6247219920559006 3.9489840109438115 4.285779103659567
14.034786532453852 1.9214084198754706 6.061599427516118 6.051778685062266
18.85868012195694 2.275127398037775 8.594554039196622 7.988998684722544
24.36188620563389 2.703343128902741 11.544479367282065 10.114063709449086
30.667750255213424 3.221417668673747 14.999804343809581 12.446528242730098
37.68808356374642 3.810871523964763 18.892923566647127 14.984288473134535
45.447174844821404 4.455196386092771 23.315614734841773 17.67636372388685
53.71450823148252 5.209664706440352 27.999741471251976 20.5051020537902
62.340135789882716 5.892956874376144 33.011416930076074 23.435761985430503
70.48258275869408 5.992931894064853 38.19011114534651 26.299539719282702
74.41546661663982 3.049339278140167 42.65901854453165 28.707108793968015
70.48258275868666 5.99293189406564 38.19011114534108 26.299539719279952
62.34013578986978 5.892956874377882 33.011416930066716 23.43576198542519
53.71450823145608 5.209664706437295 27.999741471237286 20.50510205378152
45.4471748447894 4.455196386089692 23.315614734823797 17.676363723875916
37.6880835637035 3.810871523955701 18.89292356662638 14.984288473121403
30.6677502551791 3.2214176686703326 14.999804343791016 12.446528242717765
24.36188620561218 2.7033431289087577 11.544479367265788 10.114063709437627
18.85868012193021 2.275127398036519 8.594554039182007 7.988998684711669
14.034786532426995 1.9214084198724053 6.061599427502952 6.051778685051633
9.859485106636606 1.624721992052069 3.948984010933786 4.285779103650751
6.379136250565195 1.3632050009649483 2.2925583936662934 2.723372855933955
3.5653082702309145 1.0899884997623905 1.0179546497534118 1.4573651207151115
1.7099553011013533 0.8082531492478481 0.3148635662561685 0.5868385855973365
0.7316233455087405 0.5593260345495089 0.0426396387770709 0.12965767218216068
0.35847281726734737 0.36812599968019405 -0.005098576870019478 -0.004554605542827387
0.23049140280736796 0.23410696201351416 -0.0006662012938801158 -0.002949357912266035
0.1769167375503799 0.17687373957041225 3.4546871385210492e-06 3.954329282910256e-05
0.18015290804213602 0.1799984124338629 1.525987099658219e-05 0.0001392357372765558
0.34183718363074883 0.2157033974356901 0.031143509661811307 0.09499027653324738
2.543286568254424 1.4980046361038835 0.40514761290498685 0.6401343192455534
1.659820177504228 1.1092625570777774 0.18614061342650912 0.3644170069999412
0.2649674205003464 0.2303803030085156 0.004368125589485428 0.0302189919023455
0.20270147477748204 0.20279787859103854 -1.0787765709772377e-05 -8.561604784683016e-05
0.19102035469872078 0.19128467025776144 -2.7174403410760296e-05 -0.00023714115562997002
0.2192521445732694 0.22196898517253177 -0.0005530963902835668 -0.0021637442089787206
0.29980001865605016 0.3079106442288868 -0.003432464240035228 -0.004678161332801566
0.48143729756619685 0.4409483694624355 0.004058242738348766 0.03643068536541264
0.9931015002017723 0.6152376313071507 0.11485561796386583 0.26300825093075625
2.085854307299766 0.8274632736016935 0.466063788352822 0.7923272453452501
3.8548848165349447 1.0512307095411462 1.1798922537281495 1.623761853265649
6.151627985302739 1.2726118546831 2.189501748516447 2.6895143821031935
8.93086313850601 1.5212540743529248 3.504736492486261 3.904872571666824
12.120518859946428 1.8163438306330864 5.066367101674457 5.237807927638884
15.759853997896286 2.1733135030539232 6.889414074330643 6.697126420511724
19.96729980532298 2.6199220749646335 9.038621795367384 8.308755934990955
24.82183437540767 3.1668986422935017 11.558995019558468 10.095940713555708
30.269521192331588 3.779981464562891 14.43744021782446 12.052099509944238
36.237982303819116 4.471111868544663 17.609930877079965 14.15693955819449
43.24130056920168 5.401561826363605 21.32453005121241 16.515208691625663
51.08380794744471 6.0129973530798875 25.85531464917206 19.21549594519275
55.52143550211344 2.8072521701737445 30.61809528533227 22.096088046607434
51.08380794744098 6.012997353076891 25.855314649171543 19.215495945192544
43.24130056920245 5.401561826375182 21.324530051205713 16.515208691621524
36.23798230380596 4.4711118685492925 17.60993087706909 14.156939558187567
30.269521192312673 3.779981464565476 14.43744021781159 12.052099509935601
24.82183437538458 3.1668986422911436 11.55899501954624 10.095940713547208
19.96729980530432 2.6199220749656305 9.038621795356061 8.308755934982626
15.759853997867781 2.1733135030418453 6.889414074321347 6.697126420504593
12.120518859929245 1.8163438306313517 5.066367101666074 5.237807927631818
8.930863138489809 1.521254074352144 3.5047364924780497 3.9048725716596158
6.1516279852898395 1.272611854682929 2.1895017485100707 2.6895143820968412
3.854884816523615 1.051230709540059 1.1798922537231942 1.6237618532603617
2.085854307293079 0.8274632736002633 0.4660637883505271 0.7923272453422897
0.993101500198524 0.6152376313064695 0.11485561796290297 0.26300825092915125
0.4814372975647224 0.44094836946145344 0.0040582427381692125 0.036430685365099906
0.2998000186553702 0.30791064422792713 -0.0034324642400024776 -0.004678161332554282
0.21925214457286335 0.22196898517185806 -0.0005530963902537465 -0.0021637442087409898
0.1910203546983306 0.1912846702574548 -2.717440341745489e-05 -0.00023714115570682814
0.2027014747771153 0.20279787859056222 -1.0787765703864226e-05 -8.561604774304712e-05
0.2649674204991435 0.23038030300802478 0.004368125589236422 0.03021899190188221
1.6598201774992714 1.109262557075651 0.1861406134253482 0.36441700699827323
1.0593083349133858 0.8299213723427654 0.06906573655515401 0.16032122601546678
0.21599705574892636 0.22547169669230727 -0.005088296978933999 -0.004386343964446949
0.21866837661717903 0.21817995200133672 6.328356648923358e-05 0.0004251410493531227
0.2075782519503413 0.20730909299866404 2.7880481045684065e-05 0.00024127847063153392
0.2202840568681934 0.22227900053227048 -0.0004866192371897405 -0.0015083244268873446
0.27374239819585483 0.2786030476601648 -0.002024663898431193 -0.0028359855658786504
0.36494203851064977 0.3507007648804761 0.0007039114164913866 0.01353736221368226
0.5318990656353985 0.4300820999537395 0.02291699330070808 0.07889997238095063
0.9375947559949851 0.5456424700692615 0.12004167557263239 0.27191061035309094
1.7259811444091435 0.6865120984461424 0.37655319872781007 0.6629158472351916
2.918253923260307 0.8435873307105328 0.8463001936196869 1.2283663989300868
4.350251168732292 1.022804293437076 1.4267062819841583 1.9007405933110573
6.057000879943281 1.2440481491495352 2.1649530335083362 2.647999697285411
8.049724061521541 1.523203637793443 3.0513247098044465 3.4751957139236533
10.390241712113044 1.8827929347993309 4.103074756616958 4.404374020696755
13.211669580408298 2.357284585629239 5.37892954608483 5.475455448694228
16.62608269033139 2.946630640117791 6.954503701582097 6.724948348631503
20.57123138075793 3.552736241160101 8.872046144112215 8.146448995485615
25.314454815734265 4.3380965069813255 11.172317272701813 9.80404103605113
32.3109216735868 5.771458690429423 14.452976401510501 12.086486581646877
38.469639648332475 2.855510313490728 19.958041062303764 15.656088272537984
32.310921673585355 5.771458690421922 14.452976401514142 12.086486581649284
25.314454815725725 4.338096506979907 11.172317272697573 9.804041036048242
20.57123138073992 3.5527362411536503 8.87204614410553 8.146448995480737
16.626082690316935 2.946630640117649 6.9545037015739535 6.724948348625326
13.211669580394615 2.3572845856259717 5.3789295460791005 5.475455448689544
10.390241712101798 1.8827929347984897 4.103074756611424 4.4043740206918836
8.049724061516944 1.5232036377940201 3.0513247098017007 3.4751957139212193
6.057000879933097 1.2440481491462414 2.164953033504815 2.647999697282037
4.350251168726292 1.0228042934392771 1.4267062819801515 1.9007405933068644
2.9182539232526303 0.8435873307100763 0.8463001936163406 1.2283663989262132
1.7259811444050033 0.6865120984464226 0.37655319872593274 0.6629158472326478
0.9375947559927933 0.5456424700686079 0.12004167557206476 0.2719106103521201
0.5318990656341587 0.43008209995346003 0.02291699330038479 0.07889997238031424
0.3649420385100815 0.350700764879888 0.00070391141648926 0.013537362213704137
0.2737423981954771 0.2786030476594458 -0.0020246638984027622 -0.002835985565565998
0.22028405686777697 0.22227900053169397 -0.0004866192371674094 -0.0015083244267494944
0.2075782519500365 0.2073090929981793 2.788048106239389e-05 0.00024127847079477119
0.21866837661695293 0.21817995200095025 6.32835665061016e-05 0.00042514104949661734
0.21599705574831546 0.22547169669190464 -0.005088296978979595 -0.0043863439646094245
1.0593083349104921 0.8299213723411252 0.06906573655467585 0.1603212260146903
0.6591009484170057 0.6069022294422178 0.010837032891801067 0.04136168608298716
0.19287391629173545 0.20148090902624127 -0.001886003063182178 -0.006720989671323685
0.2280262686796123 0.22873852186363372 -8.436796294480191e-05 -0.0006278852210766314
0.22386389457716888 0.22334957173604797 6.0727106394395155e-05 0.0004535957347265444
0.23142331805171518 0.2321877426401591 -0.00033200300468506303 -0.0004324215837587571
0.27064106886114525 0.27264339271719523 -0.0013949452608093028 -0.0006073785952406138
0.33726178490962844 0.31836843124866554 0.0030476199638328184 0.01584573369713008
0.39256400626878013 0.31873160500752534 0.018335289941141798 0.05549711132011313
0.4442579178155229 0.27595768608469246 0.05405070659604319 0.11424952513478728
0.5816595275126026 0.256522008800961 0.11385604695063667 0.21128147176100512
0.9066385451663959 0.2974116961618717 0.24182159541732073 0.3674052535872029
1.4007561881213926 0.30781163350131485 0.4366554163313485 0.6562891382887285
2.064005027165394 0.31391503786409414 0.731204354762261 1.0188856345390391
2.878653059417243 0.3453542826147089 1.101496209948487 1.4318025668540495
3.8654284592043524 0.42244988545549034 1.5493472237681811 1.8936313499806792
5.026485972135568 0.5665732951660195 2.0611121748017913 2.3988005021677568
6.412029916567244 0.8024285508717833 2.6687210237027306 2.9408803419927305
7.9976362053267165 1.1091215934814525 3.373418996360684 3.5150956154845763
10.205065221605512 1.598000090382872 4.326495438527633 4.280569692695009
16.05052257688266 3.548567870443867 6.285433684679248 6.216521021759551
26.85402453838628 3.10464684920204 12.68304975124094 11.066327937943306
16.05052257690057 3.5485678704545145 6.285433684683452 6.216521021762606
10.205065221590239 1.598000090372628 4.32649543852495 4.280569692692662
7.997636205324747 1.1091215934857563 3.3734189963571217 3.515095615481867
6.412029916548299 0.8024285508623509 2.66872102369777 2.9408803419881733
5.026485972129983 0.5665732951660176 2.0611121747989527 2.398800502165013
3.865428459194691 0.42244988545166173 1.5493472237652925 1.8936313499777362
2.878653059416205 0.34535428261682644 1.101496209946909 1.4318025668524694
2.064005027159831 0.31391503786382935 0.7312043547597018 1.0188856345363009
1.400756188113576 0.30781163349888563 0.436655416328913 0.6562891382857776
0.906638545163299 0.29741169616102153 0.24182159541627812 0.3674052535859984
0.5816595275098376 0.25652200879890263 0.11385604695031892 0.21128147176061668
0.44425791781533663 0.2759576860848142 0.054050706595917625 0.11424952513460448
0.3925640062681842 0.3187316050075682 0.01833528994093405 0.05549711131968209
0.33726178490876646 0.31836843124799497 0.0030476199637253236 0.01584573369704626
0.27064106886037187 0.2726433927163622 -0.0013949452607935817 -0.0006073785951967864
0.23142331805131744 0.23218774263958164 -0.00033200300466517557 -0.0004324215835990059
0.22386389457684264 0.2233495717355728 6.0727106410572394e-05 0.0004535957348591452
0.22802626867925216 0.2287385218631303 -8.436796292345567e-05 -0.0006278852209546773
0.19287391629132572 0.20148090902559473 -0.001886003063140966 -0.006720989671128079
0.659100948415584 0.6069022294412408 0.010837032891639458 0.04136168608270393
0.42203850173775004 0.42224956229777133 -0.0001743162454215971 -3.6744314599621106e-05
0.1805733997788236 0.1808289109953583 -8.183895031881427e-06 -0.0002473273215028204
0.23118201203610256 0.23090512263527385 8.949997797215119e-06 0.00026793940303146944
0.23766248720339572 0.23699519706246924 7.344534285448779e-05 0.0005938447980720785
0.24880234577676621 0.24829305117325137 -0.00015958010455933522 0.0006688747080742935
0.29150751123235735 0.2909146054409115 -0.0011003830891032325 0.0016932888805490072
0.377243403743609 0.35826623564222415 0.002693288691664286 0.016283879409720786
0.538845019521758 0.4321929336956376 0.024813444288941368 0.08183864153717861
0.9397914304493724 0.5455723475324326 0.12093111404923232 0.2732879688677077
1.7251253838737557 0.6861309694444112 0.37627808389621425 0.66271633053313
2.922900347857301 0.8455138130798117 0.8480112123329625 1.2293753224445279
4.37274229620315 1.0265411095967631 1.4373012704013344 1.9088999162050533
6.102582111735945 1.250014587216791 2.1850357891157395 2.6675317354034163
8.088625859490072 1.5224946782918085 3.0731427421096926 3.4929884390885673
10.25919947281314 1.8445252507681182 4.055848709890424 4.358825512154595
12.491428814244157 2.2170974266392216 5.070039673532741 5.204291714072194
14.502016607912742 2.620236216351176 5.9646385133768645 5.917141878184702
16.10330348026588 3.0970036366472784 6.641090490286971 6.365209353331628
16.661488254852696 3.43291126835393 6.811135722225054 6.417441264273708
13.52190040942883 2.404774425548323 5.85091868963711 5.266207294243387
27.20042684455784 4.814976373878837 11.737871525067181 10.647578945611814
13.521900409431098 2.4047744255439154 5.85091868964092 5.266207294246253
16.661488254843476 3.4329112683486964 6.811135722222727 6.417441264272055
16.103303480240264 3.097003636632297 6.641090490280902 6.365209353327051
14.502016607903554 2.62023621635661 5.964638513368721 5.917141878178233
12.49142881422698 2.217097426635907 5.070039673525152 5.204291714065908
10.25919947280391 1.8445252507699363 4.05584870988462 4.358825512149354
8.088625859471543 1.5224946782849185 3.073142742103523 3.492988439083107
6.102582111722073 1.2500145872169097 2.1850357891086416 2.667531735396521
4.372742296191219 1.0265411095962549 1.4373012703957624 1.9088999161992022
2.922900347846038 0.8455138130780143 0.8480112123284828 1.2293753224395396
1.725125383868193 0.6861309694452479 0.376278083893505 0.6627163305294402
0.9397914304463869 0.5455723475316444 0.12093111404843923 0.27328796886630313
0.5388450195204362 0.4321929336951366 0.02481344428865975 0.0818386415366399
0.377243403742652 0.35826623564157245 0.0026932886915630996 0.016283879409516113
0.2915075112318318 0.29091460544004094 -0.0011003830890724713 0.0016932888808632164
0.2488023457764725 0.24829305117279737 -0.0001595801045432511 0.0006688747082184856
0.23766248720285857 0.23699519706175812 7.344534287028681e-05 0.0005938447982302669
0.23118201203582664 0.23090512263490703 8.949997800203205e-06 0.00026793940311929085
0.18057339977849882 0.18082891099505946 -8.18389503739529e-06 -0.0002473273215231908
0.42203850173690377 0.42224956229663935 -0.00017431624539131265 -3.674431434429797e-05
0.27266035385573334 0.27263961472561116 1.3476233019465938e-06 1.9391506820260498e-05
0.16667433486351108 0.16674004709692025 -4.1262205781022296e-06 -6.158601283106038e-05
0.2279326321215129 0.22847472653304834 -7.973112946567173e-05 -0.0004623632820697327
0.24736753210730814 0.24641101892649586 7.808161107092745e-05 0.000878431569741323
0.2705941943429444 0.27229317711884454 -0.0005212984267012306 -0.0011776843491988847
0.3350096200133309 0.3355536504820763 -0.0012038115529831577 0.0006597810842374381
0.5006777789970617 0.4424465865503081 0.00839067765880476 0.049840514787948785
1.002468958290789 0.6161197009382349 0.11839354100643512 0.26795571634611903
2.0862032381325735 0.8271472408676137 0.4663093099953247 0.7927466872696349
3.8536425322372874 1.051209225055021 1.1791610407309074 1.6232722664513581
6.156904396494344 1.2736531051432785 2.191533066143787 2.691718225207275
8.951493135716762 1.524133517463268 3.514109556298312 3.9132500619551767
12.15876212339352 1.8190553926440411 5.085932693864943 5.253774036884536
15.776571725181247 2.1639379506518144 6.904592444908281 6.708041329621141
19.7955489445336 2.56454741378077 8.973223505215604 8.257778025537224
24.043273873948003 3.0103849950081347 11.19692519557886 9.835963683361001
28.172353849594668 3.5064467431048296 13.352161933994593 11.31374517249525
31.66843207624691 4.075961942870558 15.081706394310318 12.510763739066023
33.371156007661455 4.340746882366509 15.966392227433625 13.064016897861322
31.020351303378675 4.242210084055498 14.71425334415963 12.063887875163541
38.24248632320503 9.096894165250301 15.980380744597744 13.165211413356964
31.020351303378945 4.2422100840493755 14.71425334416358 12.063887875165989
33.37115600766677 4.340746882376478 15.96639222743079 13.064016897859482
31.668432076240187 4.075961942879783 15.081706394300683 12.510763739059723
28.17235384956268 3.5064467430971913 13.352161933980046 11.31374517248544
24.043273873915822 3.0103849950016706 11.196925195563772 9.835963683350386
19.795548944503864 2.5645474137744095 8.97322350520213 8.257778025527323
15.776571725166606 2.1639379506573513 6.904592444897009 6.70804132961225
12.15876212337295 1.8190553926446507 5.085932693853352 5.253774036874952
8.95149313569223 1.5241335174595643 3.5141095562872424 3.9132500619454236
6.156904396474043 1.2736531051407731 2.1915330661347956 2.691718225198473
3.853642532223024 1.0512092250535776 1.17916104072471 1.6232722664447385
2.0862032381244786 0.8271472408657766 0.4663093099925857 0.7927466872661166
1.0024689582870663 0.6161197009371805 0.11839354100542812 0.2679557163444576
0.5006777789951892 0.4424465865493189 0.00839067765850476 0.04984051478736583
0.3350096200127465 0.3355536504812039 -0.001203811552931067 0.0006597810844736051
0.27059419434263127 0.27229317711837936 -0.0005212984266770073 -0.001177684349071145
0.2473675321068206 0.2464110189258481 7.808161108358388e-05 0.0008784315698889054
0.22793263212119877 0.22847472653266915 -7.97311294609588e-05 -0.0004623632820093309
0.16667433486322109 0.1667400470966591 -4.126220579639997e-06 -6.158601285838026e-05
0.2726603538549677 0.2726396147248585 1.3476233008971399e-06 1.9391506808273514e-05
0.1690718803476067 0.1690718803476067 0.0 0.0
0.14775666593458908 0.14776097016633966 -1.4328105404036436e-07 -4.160950696500454e-06
0.2178518237246616 0.21826039749778103 -5.5067540815627436e-05 -0.0003535062323037883
0.25327792864996723 0.2540108022196038 -0.00015982391518805576 -0.0005730496544486422
0.296069750621914 0.29693646437404075 -0.0004965631510930082 -0.0003701506010337519
0.40107988946266615 0.3873019365007716 -0.0006505195476597901 0.014428472509554553
0.7601653942292281 0.5667179586586876 0.05222046941954801 0.14122696615099212
1.7162544584479753 0.8086034137733891 0.31799384436234324 0.5896572003122434
3.563067727458167 1.0899986714277807 1.0168365005957498 1.456232555434633
6.379419132131662 1.363627198319519 2.2927394303899877 2.723052503422156
9.865229995423084 1.6254550973403168 3.950380766827223 4.289394131255545
14.049483270695166 1.9226078784051475 6.069190953803342 6.0576844384866835
18.87249090418067 2.2742210407079897 8.603094908534997 7.995174954937674
24.332051393964036 2.6874971277027697 11.536482573508605 10.10807169275266
30.45711194251907 3.158719300072643 14.911452460162524 12.38694018228389
36.99482855852475 3.67067632986425 18.55606044287311 14.76809178578739
43.6645982075623 4.215652180490965 22.360418697045652 17.088527330025673
49.283209595006376 4.640213424885577 25.578526421473526 19.064469748647273
52.104162319045535 4.7494493443859085 27.28459511462497 20.070117860034657
48.60694376119665 4.216254912473539 25.442098051764606 18.94859079695851
54.45854421926883 12.112667952654474 24.131385689512665 18.214490577101696
48.60694376120149 4.216254912474382 25.442098051767115 18.94859079695997
52.10416231903799 4.749449344386228 27.28459511462001 20.070117860031772
49.28320959497714 4.64021342487699 25.578526421460552 19.064469748639606
43.66459820752388 4.215652180488803 22.360418697023153 17.088527330011914
36.994828558493126 3.6706763298691056 18.556060442850818 14.768091785773217
30.457111942487558 3.158719300074703 14.911452460142392 12.386940182270452
24.332051393923138 2.687497127693814 11.536482573489788 10.10807169273953
18.87249090414539 2.274221040703822 8.60309490851714 7.995174954924437
14.049483270666286 1.9226078784045402 6.069190953787596 6.0576844384741495
9.865229995395076 1.6254550973386368 3.950380766813115 4.289394131243327
6.379419132112863 1.3636271983190953 2.2927394303805837 2.723052503413185
3.5630677274452327 1.0899986714262562 1.0168365005903244 1.4562325554286526
1.7162544584410317 0.8086034137721213 0.3179938443599761 0.5896572003089344
0.7601653942258707 0.5667179586573581 0.052220469418833106 0.14122696614967922
0.4010798894614162 0.38730193649971345 -0.0006505195477396666 0.014428472509442413
0.29606975062146423 0.2969364643733007 -0.0004965631510514802 -0.00037015060078497903
0.2532779286496411 0.2540108022191373 -0.00015982391517032886 -0.0005730496543259113
0.21785182372450723 0.21826039749765683 -5.506754081963969e-05 -0.00035350623232995986
0.14775666593433076 0.1477609701660713 -1.432810533475878e-07 -4.1609506871892085e-06
0.16907188034724177 0.16907188034724177 0.0 0.0
0.0991284140170664 0.0991284140170664 0.0 0.0
0.12422945127420394 0.12422522520047656 2.3276924337965782e-07 3.99330448403657e-06
0.20190501716648404 0.2021185355683055 -2.5942249626551102e-05 -0.0001875761521949362
0.25569997189997806 0.2561008981181827 -0.0001382116513157053 -0.00026271456688894545
0.32498992513560476 0.3287265373672116 -0.0013558143413946056 -0.002380797890212249
0.5176781123203621 0.46976244896054753 0.00941988681007109 0.03849577654974348
1.1463346115917907 0.6990993723195236 0.14153812327484677 0.3056971159974199
2.6389616560535245 1.009647933004854 0.6322571749226549 0.997056548126016
5.3383220461228955 1.341937339168487 1.7869871906348087 2.209397516319598
9.018271846601454 1.64284505657948 3.477116994962191 3.898309795059783
13.81985586505263 1.9587046533980266 5.9245030028711945 5.936648208783411
19.484571721834666 2.3134490284896776 8.932491682816405 8.238631010528586
26.008479035639716 2.7308337871809893 12.5004617036377 10.777183544821048
33.44606403853206 3.2218091875473154 16.667197441656164 13.557057409328538
41.779867425761026 3.776635623908255 21.42387569393332 16.579356107919455
50.95949997105791 4.367075114994013 26.815271060501363 19.77715379556253
59.96491679701692 4.874340690356499 32.1345724084955 22.956003698164952
67.77928204199769 5.113583895455904 37.02421667241702 25.64148147412474
71.43895495420169 4.8154325281615815 39.60879535092825 27.014727075111875
66.97750173640804 4.296723954971648 37.06415452327212 25.616623258164278
72.65331350075667 15.080647867587475 33.73742930182681 23.835236331342383
66.97750173640193 4.296723954965433 37.06415452327226 25.61662325816425
71.43895495417821 4.815432528154628 39.60879535091748 27.014727075106098
67.77928204195271 5.113583895442948 37.024216672396356 25.6414814741134
59.96491679697243 4.874340690358346 32.13457240846602 22.95600369814807
50.959499971001826 4.36707511498554 26.81527106047145 19.777153795544855
41.77986742570935 3.776635623900697 21.423875693906144 16.57935610790251
33.44606403848861 3.221809187547327 16.667197441629884 13.55705740931139
26.008479035592497 2.7308337871779456 12.500461703611553 10.777183544802998
19.484571721789692 2.313449028482482 8.93249168279476 8.238631010512458
13.819855865018452 1.9587046533971757 5.924503002852817 5.9366482087684584
9.018271846572125 1.6428450565749335 3.477116994949131 3.8983097950480596
5.3383220461046 1.341937339166859 1.7869871906264094 2.209397516311334
2.6389616560426963 1.009647933002452 0.6322571749188406 0.9970565481214033
1.1463346115867332 0.6990993723180997 0.14153812327341 0.3056971159952231
0.5176781123184818 0.46976244895946995 0.009419886809831173 0.03849577654918072
0.3249899251349331 0.32872653736624785 -0.0013558143413411388 -0.0023807978899736035
0.2556999718996433 0.2561008981176082 -0.00013821165129691658 -0.0002627145666680797
0.2019050171662914 0.2021185355681424 -2.5942249629722627e-05 -0.00018757615222130783
0.12422945127400246 0.12422522520027508 2.3276924336996675e-07 3.9933044839934034e-06
0.09912841401691723 0.09912841401691723 0.0 0.0
0.05465707210281132 0.05465707210281132 0.0 0.0
0.09869385229162735 0.09869385229162735 0.0 0.0
0.18149503471362005 0.181524360610399 -3.49568066042755e-06 -2.5830216118473288e-05
0.2556031152224599 0.25691579082991384 -0.0002374276876485071 -0.0010752479198054595
0.3622686396265487 0.36172387990188626 -0.0015596477785147337 0.002104407503177182
0.6939188533224914 0.5624791956475812 0.03494548403778367 0.09649417363712641
1.6591769474694136 0.8480617788931778 0.2858723775962462 0.5252427909799902
3.7785704390441897 1.2117246538741444 1.091999270253209 1.4748465149168342
7.132899567935215 1.5648912774553976 2.537646812346365 3.030361478133454
11.943421335052728 1.9240347516190153 4.911326503007989 5.1080600804257195
17.978598038161177 2.301778188393902 8.075237482863612 7.601582366903676
25.170194492541636 2.723980110757382 12.009266563852844 10.436947817931406
33.494748976643805 3.2144800441830474 16.70205720445787 13.578211728002882
43.03525322381702 3.7906978045697617 22.21602878782249 17.028526631424782
53.72535299141795 4.452171395749983 28.4821905413951 20.790991054272872
65.34736769750474 5.0983832415532895 35.449222072243394 24.799762383708046
77.18733394580421 5.53752000817689 42.86050548193044 28.789308455696897
86.81555569272568 5.470476721979519 49.168673962445425 32.17640500830073
90.95948996835064 4.790737084153008 52.30179299884168 33.86695988535594
86.02075013713477 4.514872101115798 49.29094858704235 32.21492944897662
92.50380608073694 18.06515815408267 44.67608687118449 29.76256105546976
86.02075013712425 4.514872101110345 49.2909485870391 32.21492944897482
90.95948996832657 4.7907370841551 52.30179299882437 33.86695988534709
86.81555569268481 5.470476721982749 49.16867396241656 32.17640500828553
77.18733394575536 5.537520008182608 42.860505481894975 28.78930845567779
65.3473676974506 5.098383241557581 35.44922207220594 24.799762383687067
53.72535299135253 4.452171395744754 28.48219054135716 20.790991054250604
43.03525322375736 3.7906978045623854 22.216028787790165 17.028526631404816
33.494748976592575 3.2144800441863284 16.70205720442492 13.578211727981339
25.170194492488292 2.723980110754403 12.009266563823184 10.4369478179107
17.97859803811687 2.3017781883908164 8.075237482840162 7.601582366885894
11.943421335019535 1.924034751618521 4.911326502990182 5.1080600804108265
7.132899567913469 1.5648912774544403 2.5376468123358737 3.030361478123153
3.7785704390291452 1.2117246538710957 1.0919992702474328 1.4748465149106162
1.6591769474621791 0.848061778891211 0.28587237759405437 0.5252427909769156
0.6939188533198097 0.5624791956465426 0.03494548403720676 0.09649417363606005
0.3622686396258291 0.36172387990106897 -0.0015596477785105199 0.0021044075032707462
0.25560311522203927 0.2569157908294379 -0.0002374276876420356 -0.0010752479197565416
0.181495034713282 0.18152436061008465 -3.4956806626270604e-06 -2.583021614000276e-05
0.09869385229140731 0.09869385229140731 0.0 0.0
0.054657072102636324 0.054657072102636324 0.0 0.0
0.028251023265235105 0.028251023265235105 0.0 0.0
0.07411854401390618 0.07411854401390618 0.0 0.0
0.15905125253596047 0.15904443577229255 3.960330448053176e-07 6.420730623111643e-06
0.2553640752579715 0.2565178698498191 -0.0002211869114603936 -0.0009326076803871248
0.4215418164071955 0.4141143362075957 0.00029925847824457345 0.007128221721355134
0.9315112345050559 0.6533514538191146 0.08047757808616678 0.19768220259977448
2.320959366360499 1.004953710044176 0.5174398878297076 0.798565768486615
4.951364269537318 1.3888302363705929 1.5415145245083324 2.0210195086583918
9.164314192016043 1.789001540557634 3.490648864404176 3.8846637870542335
14.973861285349052 2.211921726502407 6.429320606266697 6.33261895257995
22.314573427287975 2.6635302485836565 10.373019781903944 9.278023396800371
31.102977456164282 3.163131457784536 15.294623061630112 12.64522293674964
41.33702574512807 3.7369300313729132 21.206822565292267 16.39327314846288
52.89124910561847 4.404467071555247 27.971230411672803 20.51555162239044
66.03910745587685 5.154603987957541 35.880549732737805 25.0039537351815
80.35092870741336 5.8714065918731375 44.6899915658554 29.789530549684823
94.49967394541251 6.2042168630541275 53.72186668763326 34.57359039472512
106.03582334014838 5.773706508768761 61.655461603055684 38.60665522832398
111.12281538960367 4.784056149064487 65.71516183967607 40.62359740086313
105.9409333861905 4.786163148974587 62.26052386596658 38.89424637124931
113.5865514285212 21.034670683713063 56.52606094624166 36.025819798566474
105.94093338616882 4.786163148965768 62.26052386595792 38.89424637124504
111.12281538956361 4.784056149059972 65.71516183965235 40.62359740085131
106.03582334009386 5.7737065087686394 61.655461603019376 38.60665522830579
94.4996739453359 6.2042168630438015 53.721866687589454 34.573590394702634
80.35092870734012 5.8714065918687135 44.68999156581052 29.789530549660867
66.03910745581295 5.1546039879639025 35.880549732692664 25.003953735156376
52.891249105544354 4.404467071547373 27.971230411631048 20.51555162236592
41.33702574505902 3.7369300313678893 21.20682256525283 16.39327314843829
31.102977456106473 3.163131457785002 15.294623061595155 12.645222936726299
22.31457342723646 2.663530248581851 10.37301978187509 9.27802339677952
14.97386128530927 2.2119217265012723 6.429320606245161 6.332618952562843
9.164314191988403 1.789001540555315 3.490648864390992 3.8846637870420935
4.951364269519229 1.3888302363682656 1.5415145245006217 2.0210195086503444
2.32095936635081 1.004953710041995 0.5174398878263355 0.798565768482476
0.9315112345014422 0.6533514538179358 0.08047757808525062 0.19768220259825597
0.4215418164064655 0.41411433620674176 0.0002992584782598182 0.0071282217214637495
0.25536407525753474 0.25651786984931596 -0.00022118691145808127 -0.0009326076803231732
0.15905125253577895 0.15904443577211191 3.960330447626668e-07 6.4207306222634735e-06
0.07411854401365069 0.07411854401365069 0.0 0.0
0.02825102326519144 0.02825102326519144 0.0 0.0
0.013839223010520579 0.013839223010520579 0.0 0.0
0.052896820883034656 0.052896820883034656 0.0 0.0
0.13740377423044 0.1374012719057683 1.22441077168008e-07 2.379883594554421e-06
0.25903760608002796 0.2606473752686123 -0.0003097196413590456 -0.0013000495472255734
0.5103214495395701 0.47478118474828784 0.007602100570495789 0.027938164220786665
1.2624874592948578 0.7721375780286006 0.16534060270238288 0.3250092785638743
3.0459420470342984 1.1468568227178715 0.7650158228711338 1.134069401445292
6.271189222457944 1.5552115132091466 2.1151286111232905 2.6008490981255075
11.269134316629398 2.0141862776047192 4.49800704043682 4.756940998587861
18.129712238805375 2.510670970872239 8.050952575449417 7.5680886924837125
26.78817844796366 3.044775204559806 12.782579390171799 10.960823853232078
37.23057995312367 3.6368418509309306 18.73306760384606 14.860670498346696
49.30016142800012 4.302440628723287 25.777527900097596 19.220192899179246
63.22965295356829 5.055427657736153 34.163775345477106 24.010449950355007
78.6737990599055 5.882774538745171 43.57760953618109 29.213414984979256
95.33900233732979 6.63479669168148 53.976278084563816 34.727927561084535
112.00272312600197 6.881854600939295 64.89647526312186 40.224393261940854
125.53700006605636 6.122590797739617 74.49444903333963 44.91996023497708
131.86667308237617 4.818079421157034 79.64384051538529 47.40475314583385
127.03666147764909 5.047883955143347 76.2435444272435 45.74523309526225
136.45100533706196 23.944314175286436 69.85447409163962 42.652217070135876
127.03666147762559 5.047883955140863 76.24354442722932 45.74523309525547
131.8666730823376 4.818079421163102 79.64384051535502 47.40475314581943
125.53700006599719 6.12259079774506 74.49444903329595 44.919960234956164
112.00272312593299 6.881854600947412 64.89647526307036 40.2243932619152
95.3390023372435 6.63479669167841 53.97627808450878 34.72792756105626
78.67379905981498 5.882774538735423 43.57760953612852 29.213414984951044
63.22965295348784 5.055427657736118 34.163775345425734 24.010449950325995
49.300161427923435 4.302440628721693 25.777527900050565 19.220192899151154
37.23057995304825 3.6368418509243656 18.73306760380411 14.860670498319777
26.788178447904002 3.044775204555278 12.782579390139237 10.9608238532095
18.12971223875902 2.5106709708706028 8.050952575423963 7.568088692464446
11.269134316595153 2.014186277600938 4.498007040420424 4.756940998573791
6.271189222435748 1.5552115132061202 2.1151286111139282 2.600849098115698
3.0459420470220855 1.1468568227163318 0.7650158228662184 1.1340694014395358
1.2624874592899231 0.7721375780269806 0.1653406027010495 0.3250092785618931
0.5103214495382525 0.4747811847470894 0.0076021005704402025 0.02793816422072275
0.2590376060795543 0.260647375267952 -0.0003097196413483353 -0.0013000495470492067
0.1374037742302292 0.13740127190556067 1.2244107697319608e-07 2.3798835915387224e-06
0.052896820882848174 0.052896820882848174 0.0 0.0
0.013839223010454775 0.013839223010454775 0.0 0.0
0.006686690831086668 0.006686690831086668 0.0 0.0
0.03652554416586874 0.03652554416586874 0.0 0.0
0.11972720680402103 0.11972720680402103 0.0 0.0
0.2733636712863775 0.27627061891865856 -0.0006173893246763597 -0.002289558307604655
0.6387530017437935 0.5455706683059103 0.023201159652028805 0.0699811737858545
1.6787692482687557 0.8918261335416866 0.2895081127842236 0.49743500194284584
3.845018745711232 1.2687988199602662 1.0650099483155115 1.5112099774354517
7.6756481932551175 1.7205643355546094 2.7514695299672605 3.20361432773325
13.450164176157333 2.2406749605854808 5.568461149809163 5.64102806576269
21.369558869098977 2.8193757319639623 9.740763754880014 8.809419382255006
31.41630604725909 3.450423806240319 15.319443240593571 12.64643900042519
43.49406245077584 4.142233358721727 22.271303902991527 17.080525189062595
57.69914613309798 4.916043118343514 30.7323796976558 22.05072331709863
73.67230478641306 5.761495065068203 40.388107211128485 27.522702510216362
91.50595663434586 6.608349489129992 51.48075719988148 33.41684994533438
110.53526565020708 7.320176047155452 63.62406769452883 39.59102190852277
129.43656285596566 7.558337371717851 76.15424489848297 45.723980585764814
145.17886878477034 6.659128085689652 87.44465674759758 51.075083951483094
153.23830247167993 4.868062826618138 94.206199225805 54.16404041925681
149.5746693511105 5.23877100254324 91.45844182714711 52.87745652142008
161.31772007981934 26.679079032514366 84.80551863203341 49.83312241527151
149.5746693510805 5.238771002540137 91.45844182712854 52.87745652141182
153.2383024716244 4.868062826615779 94.2061992257687 54.164040419239925
145.17886878468823 6.659128085684685 87.44465674754507 51.075083951458474
129.43656285586806 7.5583373717083155 76.15424489842341 45.72398058573637
110.53526565012459 7.3201760471658615 63.624067694466774 39.59102190849195
91.505956634246 6.608349489124904 51.48075719981915 33.41684994530195
73.67230478632143 5.761495065067832 40.38810721106948 27.522702510184146
57.69914613300656 4.91604311833761 30.732379697601505 22.050723317067447
43.49406245069718 4.142233358722218 22.27130390294254 17.080525189032425
31.416306047187412 3.4504238062319796 15.319443240555614 12.64643900039982
21.369558869047697 2.819375731962467 9.74076375485127 8.809419382233955
13.450164176118964 2.240674960582141 5.568461149789984 5.64102806574684
7.675648193229501 1.720564335551259 2.751469529955866 3.203614327722377
3.845018745696902 1.2687988199587732 1.06500994830975 1.5112099774283816
1.6787692482621552 0.8918261335399214 0.2895081127822087 0.49743500194002543
0.6387530017420469 0.5455706683048416 0.023201159651778533 0.06998117378542686
0.27336367128583866 0.2762706189179817 -0.0006173893246558845 -0.0022895583074873157
0.11972720680392467 0.11972720680392467 0.0 0.0
0.03652554416574244 0.03652554416574244 0.0 0.0
0.006686690831076214 0.006686690831076214 0.0 0.0
0.0031741005638073173 0.0031741005638073173 0.0 0.0
0.025310172947895213 0.025310172947895213 0.0 0.0
0.11034983652718258 0.11034983652718258 0.0 0.0
0.30924396044490454 0.3107355711724343 -0.000805671993091318 -0.0006859387344385886
0.8317360679664193 0.6397872786033314 0.05905117171116486 0.13289761765192268
2.1499886004329922 0.9977121891117433 0.4371385937335458 0.7151378175877038
4.743037447292227 1.3913355618128 1.4405356944666234 1.9111661910128024
9.132045762661727 1.881794208788511 3.4277391264824324 3.822512427390785
15.707906065151548 2.4684126394302845 6.707931794962256 6.5315616307590085
24.679432492489934 3.1394498816381846 11.48852835329932 10.05145425755244
36.11737283491513 3.8762559566797536 17.908145098300373 14.332971779935
50.02677940860047 4.686988289248365 26.039021775905397 19.30076934344671
66.09789651652468 5.577402958231523 35.62804425453647 24.892449303756724
84.47493245763063 6.501496603537955 46.939495827772994 31.033940026319662
104.65182332909527 7.359290243767136 59.677809413345216 37.614723671982944
125.81672910508719 7.95079683158229 73.45088253000867 44.4150497434962
146.58192884023728 8.051877224492504 87.47691242697572 51.05313918876903
164.59090351261895 7.376924126283777 100.29103909941404 56.92294028692109
175.00449744851898 5.1512644031945545 109.01508404050236 60.83814900482206
173.77616751423048 5.155113490756125 108.18989549223957 60.43115853123475
188.59070883214196 28.366364777333306 102.36115367131208 57.863190383496615
173.77616751419254 5.155113490751203 108.18989549221689 60.43115853122454
175.004497448447 5.15126440318858 109.01508404045721 60.83814900480124
164.5909035125352 7.376924126289552 100.2910390993525 56.92294028689317
146.58192884013172 8.051877224492895 87.47691242690327 51.053139188735486
125.8167291049673 7.950796831569047 73.45088252993695 44.415049743461395
104.6518233289839 7.359290243762353 59.67780941327435 37.614723671947196
84.47493245751855 6.501496603529733 46.93949582770498 31.03394002628381
66.0978965164238 5.577402958229567 35.62804425447298 24.892449303721218
50.02677940850196 4.686988289235486 26.039021775851765 19.300769343414714
36.117372834840175 3.8762559566759274 17.908145098257076 14.332971779907174
24.679432492428976 3.1394498816341194 11.488528353265982 10.051454257528876
15.707906065106316 2.468412639424422 6.707931794940302 6.531561630741587
9.13204576263221 1.8817942087856148 3.427739126468522 3.82251242737807
4.743037447274595 1.3913355618098393 1.440535694459659 1.9111661910050963
2.1499886004247553 0.9977121891100796 0.4371385937306909 0.7151378175839854
0.8317360679635499 0.6397872786016517 0.059051171710711337 0.13289761765118696
0.3092439604442618 0.31073557117171186 -0.000805671993087432 -0.0006859387343624303
0.11034983652701728 0.11034983652701728 0.0 0.0
0.025310172947836662 0.025310172947836662 0.0 0.0
0.0031741005638220585 0.0031741005638220585 0.0 0.0
0.0010024657846303526 0.0010024657846303526 0.0 0.0
0.01859079253158984 0.01859079253158984 0.0 0.0
0.11618299450158398 0.11618299450158398 0.0 0.0
0.38592046823178777 0.375148886200676 0.001703650148711133 0.009067931882400706
1.1072252639394669 0.7869500917768142 0.10903634067703478 0.21123883148561817
2.7429776217505717 1.2453380252552786 0.5902663589672454 0.9073732375280453
5.784883618688887 1.7924035423753537 1.7569818875447158 2.2354981887688172
10.804130619647907 2.522418759066084 3.979954688470396 4.301757172111428
18.263752110678514 3.4723131285813036 7.58081849454687 7.2106204875503455
28.51830278267644 4.666419196615387 12.858924187739587 10.99295939832145
41.680968061738504 6.110385738598048 19.962311072556975 15.608271250583512
57.58753376346924 7.795787984208117 28.80812758492749 20.98361819433363
76.24109282484532 9.683053305920007 39.51963514885697 27.038404370068356
97.35833050753664 11.684003829389987 51.99099092684463 33.68333575130204
120.2857690964529 13.514608238640243 66.00542639431573 40.76573446349686
143.79546054104907 14.724973140868178 81.05847600477938 48.012011395401544
165.98997770041967 14.857164196989633 96.11899283548507 55.013820667944934
184.75953159548894 13.900841235397033 109.7123077049946 61.14638265509735
197.72880522434036 12.460567149768643 119.70635810530332 65.56187996926846
193.52076040033683 5.28811415562834 121.71353072083595 66.51911552387247
266.7866953245334 82.73754257083665 118.91801079751787 65.13114195617896
193.5207604002974 5.288114155625806 121.71353072081007 66.51911552386146
197.72880522428335 12.46056714978696 119.70635810525042 65.56187996924594
184.75953159537704 13.900841235383862 109.71230770492699 61.14638265506635
165.98997770030502 14.857164196994388 96.11899283540343 55.01382066790726
143.79546054092782 14.724973140867968 81.05847600469679 48.012011395362926
120.2857690963238 13.514608238627257 66.00542639423821 40.76573446345838
97.35833050741188 11.684003829381163 51.99099092676825 33.683335751262504
76.24109282473725 9.683053305921216 39.519635148786264 27.03840437002979
57.58753376335554 7.795787984188051 28.808127584868323 20.98361819429914
41.6809680616441 6.110385738578667 19.96231107251087 15.608271250554573
28.51830278260654 4.6664191966082775 12.858924187702318 10.992959398295953
18.263752110627564 3.472313128573915 7.580818494522222 7.210620487531434
10.804130619615215 2.522418759064501 3.9799546884538506 4.301757172096863
5.78488361866877 1.7924035423716012 1.7569818875367544 2.2354981887604164
2.74297762174039 1.2453380252525685 0.5902663589640879 0.9073732375237334
1.1072252639355167 0.7869500917744179 0.1090363406764312 0.21123883148466768
0.3859204682308942 0.37514888620000875 0.0017036501486550623 0.009067931882230054
0.11618299450119617 0.11618299450119617 0.0 0.0
0.018590792531493906 0.018590792531493906 0.0 0.0
0.0010024657846404205 0.0010024657846404205 0.0 0.0
CELL_DATA 800
SCALARS Stress float 6
LOOKUP_TABLE default
168.47656080549496 -520.8829251386727 -181.85022143537677 -110.10217766383853 0.0 0.0
403.0599245474458 -76.19365598787854 115.83375069977563 55.13434631819335 0.0 0.0
414.5773982469964 8.61940825334326 126.76352752490556 -2.849936000869049 0.0 0.0
473.54600124293637 -14.82719366551892 148.04338069031039 -15.287415023731349 0.0 0.0
550.8813355554909 -21.10017001358465 206.09717544079473 -11.67075312324293 0.0 0.0
625.3589193986929 -16.942118532626512 278.08674293429743 -10.292817858121197 0.0 0.0
697.4474391676608 -10.919639129360121 333.7251274720465 -10.994596052378169 0.0 0.0
770.3821253906904 3.1419332207739075 382.26299277701924 -12.780057988097635 0.0 0.0
846.1976012818147 25.57885419591821 432.7356420130857 -14.556140549876952 0.0 0.0
924.5324499022727 55.29147494998408 487.3468168366163 -15.727200217303732 0.0 0.0
1003.5434379202134 89.84928679929459 544.5359768433271 -16.199435577829085 0.0 0.0
1081.8157095527006 127.9059647362692 603.0028190869482 -16.1530876775966 0.0 0.0
1159.4567803766859 168.38813157158137 662.275307149303 -15.958578389663732 0.0 0.0
1237.311412429649 211.87317949314695 723.0898599294461 -15.645572157368838 0.0 0.0
1315.926864519405 258.94649456363743 786.0394514295792 -15.075247661219867 0.0 0.0
1394.5631975765434 309.03843086028667 850.4860146152566 -14.052984477379267 0.0 0.0
1470.815120559477 360.2504223311239 914.2887087256684 -12.452074466298148 0.0 0.0
1542.1733299495804 410.738135626904 975.2586201583676 -10.564059657000593 0.0 0.0
1608.1681338576554 460.927695054625 1033.314184533988 -9.99191447758453 0.0 0.0
1704.260338282235 548.3348171564215 1124.5491671225946 -16.072312380653983 0.0 0.0
1704.2603382813763 548.3348171555789 1124.5491671220047 16.07231238068541 0.0 0.0
1608.1681338577794 460.92769505478947 1033.31418453413 9.991914477615087 0.0 0.0
1542.1733299506661 410.73813562808573 975.2586201591118 10.56405965710838 0.0 0.0
1470.8151205583365 360.25042233007315 914.2887087248469 12.452074466158269 0.0 0.0
1394.5631975751635 309.03843085903486 850.4860146142125 14.052984477374562 0.0 0.0
1315.9268645184497 258.9464945628152 786.0394514288548 15.075247661272176 0.0 0.0
1237.3114124291164 211.87317949278975 723.0898599290792 15.645572157383164 0.0 0.0
1159.4567803759112 168.38813157099986 662.2753071488075 15.958578389847062 0.0 0.0
1081.815709552059 127.90596473585731 603.0028190865012 16.153087677682727 0.0 0.0
1003.5434379195208 89.84928679885437 544.5359768428555 16.199435577971304 0.0 0.0
924.5324499019224 55.291474949888084 487.3468168363711 15.72720021722281 0.0 0.0
846.1976012806228 25.578854194978902 432.7356420123229 14.556140549881077 0.0 0.0
770.3821253901034 3.1419332204601176 382.2629927766259 12.780057988015608 0.0 0.0
697.4474391682004 -10.919639128515087 333.7251274723497 10.994596052395144 0.0 0.0
625.3589193987513 -16.942118532246113 278.08674293425963 10.292817857957116 0.0 0.0
550.8813355554328 -21.10017001334755 206.0971754406794 11.670753123380354 0.0 0.0
473.54600124265517 -14.827193665557848 148.0433806901761 15.287415023722655 0.0 0.0
414.57739824697626 8.619408253548423 126.76352752496514 2.8499360009107386 0.0 0.0
403.05992454755096 -76.19365598763632 115.83375069983629 -55.13434631820401 0.0 0.0
168.4765608060811 -520.8829251382116 -181.85022143486435 110.10217766328546 0.0 0.0
67.83196914522205 -548.1814576696961 -243.12236927005034 -159.3013140163344 0.0 0.0
273.90675425731683 -67.56306684990133 62.10260749169857 9.149625541488025 0.0 0.0
363.3973942142022 32.65363943256769 118.82056754255407 -9.71733142347205 0.0 0.0
438.2006108715981 -13.091031738874898 131.6272897499669 -35.574644170873164 0.0 0.0
523.0944810272767 -21.304259167678584 183.4153468552909 -33.367109883933416 0.0 0.0
601.9168726381706 -17.73025763033049 258.1358121634156 -30.476999144790895 0.0 0.0
677.6518438228649 -11.24819843338409 320.3925290062804 -31.559911529475148 0.0 0.0
751.5602206837566 2.622695038537927 371.50733580777717 -34.258750583960804 0.0 0.0
826.0070165735683 23.67740051278342 421.23061638133964 -36.93491772427849 0.0 0.0
901.1500010636596 50.684175726517324 473.0967527684197 -38.3437585936178 0.0 0.0
975.5935757483421 81.4418057196829 526.1906112072936 -38.44012218179848 0.0 0.0
1048.8811326356008 114.74077510494385 579.8181562922232 -37.8279832137932 0.0 0.0
1121.2999777580324 150.86147420522047 634.3212854884775 -36.97377344568066 0.0 0.0
1193.7085834747036 189.63996277030225 690.0872585894983 -35.9413533769673 0.0 0.0
1266.311551887643 231.18695783515057 747.2920173336474 -34.483636016209935 0.0 0.0
1338.6323924543838 275.29208228507866 805.6031619512918 -32.20748840894803 0.0 0.0
1409.647149003847 321.3663680780336 864.2110109358047 -29.00864562013819 0.0 0.0
1478.7254669375732 369.5746500357992 922.8564660141666 -25.741180588844358 0.0 0.0
1552.3711997830535 427.6762678690953 988.5819611159476 -24.07570755194329 0.0 0.0
1607.3364632248492 473.78257748558013 1038.9938337928122 -23.951646124532903 0.0 0.0
1607.336463225253 473.7825774859914 1038.993833793141 23.951646124465412 0.0 0.0
1552.3711997818534 427.6762678679423 988.5819611150805 24.07570755210872 0.0 0.0
1478.725466936958 369.5746500352792 922.8564660137604 25.741180589109653 0.0 0.0
1409.647149003028 321.3663680773063 864.2110109351108 29.008645620021532 0.0 0.0
1338.6323924531273 275.2920822839504 805.603161950351 32.20748840907411 0.0 0.0
1266.3115518860677 231.1869578337139 747.2920173325044 34.483636016187134 0.0 0.0
1193.708583473602 189.63996276936376 690.0872585886168 35.941353377027596 0.0 0.0
1121.29997775778 150.86147420517585 634.3212854881276 36.97377344575898 0.0 0.0
1048.8811326353277 114.74077510490773 579.8181562919325 37.827983213788556 0.0 0.0
975.5935757476939 81.4418057192745 526.1906112068218 38.44012218181808 0.0 0.0
901.1500010633233 50.684175726419 473.09675276819746 38.34375859355668 0.0 0.0
826.0070165738437 23.67740051334721 421.23061638151245 36.93491772426157 0.0 0.0
751.5602206843741 2.622695039436266 371.50733580813846 34.25875058389795 0.0 0.0
677.6518438223502 -11.248198433621425 320.39252900591964 31.55991152941496 0.0 0.0
601.916872637901 -17.73025763031955 258.13581216314014 30.476999144703896 0.0 0.0
523.0944810272626 -21.30425916730971 183.41534685525522 33.36710988410021 0.0 0.0
438.2006108713191 -13.091031738880753 131.62728974986294 35.57464417081589 0.0 0.0
363.3973942141151 32.65363943237198 118.8205675424726 9.717331423440381 0.0 0.0
273.906754257396 -67.56306684962219 62.1026074918086 -9.149625541628074 0.0 0.0
67.83196914543862 -548.1814576694595 -243.12236926977317 159.3013140161296 0.0 0.0
14.331697237841468 -557.1436411684065 -268.0372465508533 -174.48994815768665 0.0 0.0
154.05832092053444 -56.581908142158696 29.24292383351272 -45.663455362187335 0.0 0.0
295.30502873474364 36.504307109188176 99.54280075317955 -33.94410759860894 0.0 0.0
392.65527762841407 -4.050796836005107 117.63611750533721 -55.76409706560756 0.0 0.0
486.4367528036122 -20.084217812021734 160.21481016943548 -57.195715298249056 0.0 0.0
574.9127522213489 -19.837999055481987 233.5549570061085 -52.33480408814344 0.0 0.0
653.7801417444923 -10.738477766384975 303.98399064786133 -52.48098044324958 0.0 0.0
728.3323295665298 2.1950840765456405 358.0536067925189 -55.61344467610349 0.0 0.0
801.686116437693 21.81635928587066 407.5404477645817 -58.77655488195841 0.0 0.0
873.5558808566095 45.803560898561074 456.55129912808934 -60.166431878843895 0.0 0.0
943.6266031934159 72.61965910807422 505.5894653213704 -59.863865992094695 0.0 0.0
1011.9272118191628 101.77487893547192 554.6983399762461 -58.711017757269026 0.0 0.0
1079.3601124857778 133.0822761213983 604.3323954388107 -57.33895346534999 0.0 0.0
1146.1274568587687 166.8743353660821 654.8176815044436 -55.632142441534434 0.0 0.0
1212.5320241715935 202.6897039474856 706.088204631884 -53.335665507396854 0.0 0.0
1278.6653880593396 240.72880245715913 758.2855686881464 -50.06772126042028 0.0 0.0
1344.8024799888335 281.84116217829074 811.956686375175 -45.80473672639489 0.0 0.0
1412.7706579678363 328.7909730455596 869.3794509653998 -41.36571343750491 0.0 0.0
1476.938033709356 377.0282132776501 925.5159109427275 -36.772407896250215 0.0 0.0
1522.7004352284314 412.9937067862253 966.2994518818381 -30.613764468105884 0.0 0.0
1522.700435228763 412.99370678657607 966.2994518819863 30.61376446810552 0.0 0.0
1476.9380337089942 377.02821327734716 925.5159109423014 36.77240789638702 0.0 0.0
1412.770657967857 328.7909730456784 869.3794509653035 41.36571343765492 0.0 0.0
1344.8024799887023 281.8411621782484 811.9566863749984 45.804736726354406 0.0 0.0
1278.6653880592125 240.72880245716073 758.2855686879502 50.067721260434034 0.0 0.0
1212.5320241725103 202.68970394858093 706.0882046323836 53.33566550751032 0.0 0.0
1146.1274568593467 166.87433536688525 654.8176815048564 55.63214244178265 0.0 0.0
1079.3601124859877 133.0822761218148 604.3323954389946 57.33895346537867 0.0 0.0
1011.9272118199312 101.77487893647111 554.6983399767649 58.71101775727339 0.0 0.0
943.6266031930813 72.61965910794825 505.5894653211175 59.86386599204762 0.0 0.0
873.5558808560609 45.80356089830042 456.55129912772014 60.166431878950014 0.0 0.0
801.6861164375626 21.816359286112913 407.54044776451184 58.77655488234346 0.0 0.0
728.332329566305 2.1950840766422175 358.0536067924025 55.613444676219856 0.0 0.0
653.7801417439064 -10.738477766688447 303.9839906474316 52.480980443223004 0.0 0.0
574.9127522210418 -19.837999055433137 233.5549570058256 52.334804088241015 0.0 0.0
486.436752803142 -20.08421781218294 160.214810169158 57.19571529830008 0.0 0.0
392.6552776279655 -4.050796836259535 117.63611750514158 55.76409706556881 0.0 0.0
295.3050287348969 36.50430710942464 99.54280075329645 33.94410759869861 0.0 0.0
154.05832092070415 -56.58190814180534 29.242923833669657 45.66345536200799 0.0 0.0
14.331697238019103 -557.1436411681926 -268.0372465506136 174.48994815749217 0.0 0.0
-6.06049079961457 -545.9482641964651 -265.4140552371105 -176.53754899872777 0.0 0.0
88.68052514098908 -53.2118288385065 10.640608890744776 -92.07391386994574 0.0 0.0
230.86415736873124 33.10582397873313 79.19099440423929 -66.57563947326955 0.0 0.0
339.223585034008 4.96012461917526 103.35402335011143 -77.7250365850096 0.0 0.0
440.0642925791057 -18.014010662037958 136.88764085562605 -83.44732033589038 0.0 0.0
538.0457578540386 -20.144892699811017 205.35610776077624 -76.04063895424586 0.0 0.0
623.2309297190532 -11.440590607818823 281.4816977089939 -74.1032990279002 0.0 0.0
700.500116592199 2.36035948204087 341.68184781506574 -76.93460490427935 0.0 0.0
772.4597039259745 19.785903120891113 391.0288357678709 -80.04873426744219 0.0 0.0
841.2781100164209 40.70399790801045 437.45103908060923 -81.20596860803181 0.0 0.0
907.1749819250167 63.68471599523764 482.6397620738726 -80.47894842226239 0.0 0.0
970.8314477594589 88.56289229092249 527.3512863159538 -78.8754537492725 0.0 0.0
1032.9328527877447 115.25963066656006 572.0536263991194 -76.9751883219214 0.0 0.0
1094.3220871776487 143.87516926836577 617.3002326151146 -74.68888910397663 0.0 0.0
1154.643201544931 173.77585096283164 662.6066147989388 -71.68898019514944 0.0 0.0
1214.3430941662732 205.74281358243024 708.5677251353832 -67.68683185728882 0.0 0.0
1275.6186103636003 241.79216554724835 757.2690377387668 -62.73323024532722 0.0 0.0
1338.246840907314 282.83336884584753 809.0809492969681 -56.92301856243935 0.0 0.0
1396.6219454300508 324.18737186892565 858.9008899945603 -49.158099225611 0.0 0.0
1439.1867419422754 355.27107154983673 895.6557442144264 -37.6311644618247 0.0 0.0
1439.1867419430741 355.2710715506621 895.6557442150141 37.63116446189366 0.0 0.0
1396.621945430963 324.1873718698998 858.9008899952482 49.15809922575593 0.0 0.0
1338.2468409068356 282.83336884548055 809.0809492967326 56.92301856262354 0.0 0.0
1275.6186103631069 241.7921655468365 757.2690377384009 62.73323024525136 0.0 0.0
1214.3430941663908 205.7428135826351 708.5677251354379 67.68683185721835 0.0 0.0
1154.6432015454347 173.77585096353562 662.6066147993333 71.68898019532348 0.0 0.0
1094.3220871777864 143.87516926867158 617.3002326151567 74.68888910403325 0.0 0.0
1032.9328527873226 115.25963066633372 572.0536263987544 76.97518832193978 0.0 0.0
970.8314477587438 88.56289229037063 527.3512863154585 78.87545374918624 0.0 0.0
907.174981924989 63.68471599545481 482.6397620738706 80.47894842225986 0.0 0.0
841.2781100156495 40.703997907447274 437.4510390801174 81.2059686079588 0.0 0.0
772.459703925015 19.785903120150095 391.02883576724327 80.04873426736923 0.0 0.0
700.5001165907637 2.3603594807697448 341.6818478140867 76.93460490407418 0.0 0.0
623.230929718205 -11.440590608416969 281.4816977083719 74.10329902782229 0.0 0.0
538.0457578540365 -20.144892699342357 205.3561077606985 76.04063895431116 0.0 0.0
440.0642925788313 -18.014010661881162 136.88764085552867 83.44732033591734 0.0 0.0
339.22358503384737 4.960124619050502 103.35402335003606 77.72503658488999 0.0 0.0
230.86415736859192 33.10582397842942 79.19099440410639 66.5756394730902 0.0 0.0
88.68052514104298 -53.21182883828819 10.640608890826439 92.07391386959559 0.0 0.0
-6.060490799473342 -545.9482641962765 -265.4140552368754 176.53754899851086 0.0 0.0
-10.853710520744272 -522.935243733297 -247.57278424243242 -173.9093350314441 0.0 0.0
52.47359340553357 -51.0719744733981 0.42048567964064 -128.22857815826004 0.0 0.0
175.66501453971617 26.708834837547116 60.71215481317898 -99.48401046178539 0.0 0.0
282.4101589928214 10.806163588676394 87.97977532703787 -101.11869825163357 0.0 0.0
382.82455404266415 -13.442998559460662 114.84791817797883 -110.11504869848943 0.0 0.0
490.19359295223524 -19.93995793766997 174.06043210047045 -102.90612767600479 0.0 0.0
585.38424371294 -12.45974041305767 252.81102068276022 -97.29847664953067 0.0 0.0
666.3509490986759 2.0550163394227567 320.31682882251386 -98.26670024487068 0.0 0.0
737.7297216381638 17.84176234211828 371.2424708530341 -100.77677348043852 0.0 0.0
803.6633650116231 35.41964267446007 415.4019408680025 -101.51628816126038 0.0 0.0
865.706357669441 54.63992347736976 457.0333398403801 -100.30398076688112 0.0 0.0
924.5885422662876 75.23485859272049 497.317690814034 -98.2613501047779 0.0 0.0
981.5586613646004 97.21852879448235 537.1638383642087 -95.97598273110682 0.0 0.0
1037.186641336421 120.70866484027113 577.0031908241141 -93.10582793735524 0.0 0.0
1091.69305599239 145.0648382660338 616.6660516375281 -89.48514300159833 0.0 0.0
1145.533820025842 170.8059400608437 656.6214385294429 -85.04930213910687 0.0 0.0
1199.9750953247071 199.99240535782508 698.4975790068997 -79.58455652721263 0.0 0.0
1256.3571522755726 233.9745702307263 743.6651701338059 -72.56371565122971 0.0 0.0
1310.6588029336522 269.45260604333106 788.5092423506335 -61.960348104497925 0.0 0.0
1353.4694319548341 298.2371662059353 824.2190724723957 -45.60859915379461 0.0 0.0
1353.4694319539726 298.23716620507855 824.2190724717963 45.608599153761915 0.0 0.0
1310.6588029330405 269.4526060427496 788.5092423502944 61.960348104519966 0.0 0.0
1256.3571522741777 233.97457022941018 743.6651701329581 72.56371565133809 0.0 0.0
1199.9750953238806 199.99240535709583 698.4975790062693 79.58455652729808 0.0 0.0
1145.5338200259666 170.80594006111988 656.6214385293854 85.0493021392277 0.0 0.0
1091.693055993152 145.06483826706113 616.6660516380279 89.48514300187249 0.0 0.0
1037.1866413373837 120.70866484142192 577.0031908247774 93.10582793739363 0.0 0.0
981.558661364898 97.21852879493008 537.1638383643941 95.97598273103833 0.0 0.0
924.588542266685 75.23485859335219 497.31769081423886 98.2613501048317 0.0 0.0
865.7063576687135 54.63992347686997 457.0333398398308 100.30398076688851 0.0 0.0
803.6633650101184 35.41964267315092 415.40194086697306 101.51628816120083 0.0 0.0
737.729721637659 17.841762341856665 371.24247085272583 100.7767734803905 0.0 0.0
666.3509490985862 2.0550163396119245 320.31682882242853 98.266700244814 0.0 0.0
585.3842437124595 -12.459740413310428 252.81102068234176 97.29847664935821 0.0 0.0
490.1935929516988 -19.939957937878173 174.0604321001113 102.90612767604918 0.0 0.0
382.824554042111 -13.442998559833537 114.84791817769741 110.11504869844237 0.0 0.0
282.410158992546 10.806163588290435 87.9797753268458 101.11869825158377 0.0 0.0
175.6650145395555 26.708834837307453 60.71215481305887 99.48401046151638 0.0 0.0
52.47359340560189 -51.071974473124804 0.42048567974312734 128.22857815810633 0.0 0.0
-10.853710520672678 -522.93524373303 -247.5727842421894 173.90933503136185 0.0 0.0
-8.598790376783072 -491.9718470459544 -220.86403568618482 -170.065481420367 0.0 0.0
31.15553076085099 -48.495488543398466 -5.201987334764241 -155.21429481057947 0.0 0.0
128.86049302618542 19.677907926109807 44.56152028568857 -128.43576986978698 0.0 0.0
225.1465085443386 13.076779023193353 71.46300981167603 -124.70192096038389 0.0 0.0
317.54634471157874 -6.794295870553239 94.6005840893192 -134.7564346145882 0.0 0.0
426.1548812672061 -18.940684619136903 140.49319415738938 -132.70491951118382 0.0 0.0
533.6002404038478 -12.459597389671577 216.84992922662101 -123.05374357019272 0.0 0.0
622.1547276511003 0.49465262894917217 290.66119944628 -120.38090740279453 0.0 0.0
695.8878040506692 15.561180072967982 346.54982803480226 -121.22259986680268 0.0 0.0
759.6058394606865 30.118713756277725 389.70486147000184 -121.10368268358391 0.0 0.0
817.7440742869185 45.414241360773914 427.91412902531636 -119.3608168651729 0.0 0.0
872.1261664585224 61.86897211445474 464.06846726239144 -116.90094048322752 0.0 0.0
923.7339222649233 79.18976056832004 499.00505975811916 -114.22501148751846 0.0 0.0
973.713285890964 97.35025112597519 533.4071631840168 -111.01324132284958 0.0 0.0
1022.8380380958961 116.46282341892177 567.7875822474462 -106.88015244798835 0.0 0.0
1070.2782194889649 136.3258187203914 601.6616689520233 -101.89656284796968 0.0 0.0
1117.2622484432695 157.42960545406402 635.8286439380263 -96.18694869358994 0.0 0.0
1166.2112029200816 182.72018539705334 672.9477055129814 -88.50490546372586 0.0 0.0
1216.899977619805 212.34083784791824 713.0293689856713 -75.73965273479364 0.0 0.0
1262.6169386114043 240.39580401335184 749.7749129683747 -55.20251837907154 0.0 0.0
1262.6169386116908 240.39580401368005 749.7749129686733 55.202518379205635 0.0 0.0
1216.8999776201074 212.3408378482943 713.029368985866 75.73965273495 0.0 0.0
1166.211202919734 182.72018539685854 672.9477055126958 88.50490546396034 0.0 0.0
1117.2622484418619 157.4296054527607 635.8286439370552 96.18694869372447 0.0 0.0
1070.2782194891622 136.32581872069824 601.6616689521225 101.8965628479589 0.0 0.0
1022.838038095367 116.46282341857926 567.7875822470535 106.8801524480994 0.0 0.0
973.7132858904773 97.35025112565881 533.4071631836281 111.01324132289045 0.0 0.0
923.733922264775 79.18976056838201 499.00505975798023 114.22501148762838 0.0 0.0
872.1261664585317 61.86897211472902 464.06846726231583 116.90094048333523 0.0 0.0
817.7440742869907 45.41424136122643 427.9141290253813 119.360816865404 0.0 0.0
759.6058394597433 30.118713755533904 389.7048614693647 121.10368268350898 0.0 0.0
695.8878040491836 15.56118007159634 346.54982803377345 121.22259986665293 0.0 0.0
622.1547276503725 0.49465262848065095 290.6611994457492 120.38090740275689 0.0 0.0
533.6002404035808 -12.459597389557885 216.84992922636457 123.05374357021618 0.0 0.0
426.15488126715337 -18.94068461865991 140.49319415740246 132.70491951119263 0.0 0.0
317.54634471147256 -6.794295870328899 94.60058408935362 134.75643461446128 0.0 0.0
225.14650854435516 13.076779023645463 71.46300981181803 124.70192096022873 0.0 0.0
128.86049302622013 19.67790792619788 44.56152028572539 128.435769869582 0.0 0.0
31.15553076091345 -48.4954885430179 -5.201987334631335 155.21429481046843 0.0 0.0
-8.598790376613664 -491.9718470456307 -220.86403568587954 170.06548142020583 0.0 0.0
-3.087264769296027 -454.66827809350684 -188.7850817963763 -166.46611394564667 0.0 0.0
16.696307558521855 -46.06813008498867 -8.811486394301276 -174.20422794874395 0.0 0.0
87.87262562260238 13.172805976052313 30.313629479596408 -151.70621422082417 0.0 0.0
168.17788156869682 14.04046086043125 54.66237915105124 -146.48843691426882 0.0 0.0
248.07175810796343 -0.7805509895764993 74.83569650590537 -156.2427570445607 0.0 0.0
347.7740612039563 -15.004274070544932 107.82848933467349 -162.81636538633379 0.0 0.0
463.234449610653 -12.705944843450439 173.35536982874044 -152.68364486406682 0.0 0.0
563.7358805405499 -0.8240797083164288 250.77588152878093 -144.31077159436956 0.0 0.0
642.4576590838939 12.257807625401535 312.9825704657733 -141.8758917513032 0.0 0.0
706.3857442825055 24.628443331496563 358.2735764282638 -140.18661928748784 0.0 0.0
760.9539630478571 36.014753755188416 393.86453849849164 -137.67474953259 0.0 0.0
810.9897596274918 48.554013686520435 426.3048627619774 -134.7857872763639 0.0 0.0
857.244626500607 61.18570332451169 456.42482220861893 -131.77810818035684 0.0 0.0
901.1863798555476 74.12402616674156 485.3118151082261 -128.34693322439168 0.0 0.0
944.3359287136068 87.72139770363553 513.9737812144612 -123.92477287343601 0.0 0.0
986.9703213553848 102.38573529839223 542.8997824886706 -118.39569993193506 0.0 0.0
1026.0263664390084 115.52163403264325 569.2435842480039 -112.24687842283747 0.0 0.0
1065.2407009097067 130.04985130255716 596.1618503625875 -104.62596845262777 0.0 0.0
1111.5967061563238 151.78480210540818 630.0720693818992 -91.06131575698355 0.0 0.0
1162.8896719943964 180.14314725982592 669.6434403348073 -67.38619600916175 0.0 0.0
1162.8896719935333 180.14314725895372 669.643440334114 67.38619600918176 0.0 0.0
1111.5967061560837 151.78480210526538 630.072069381705 91.06131575717086 0.0 0.0
1065.240700908994 130.04985130208007 596.1618503621282 104.62596845301837 0.0 0.0
1026.0263664387987 115.52163403262466 569.2435842478658 112.24687842303493 0.0 0.0
986.9703213554064 102.3857352985442 542.899782488673 118.39569993203817 0.0 0.0
944.3359287143849 87.72139770468158 513.9737812150163 123.92477287365458 0.0 0.0
901.186379855544 74.12402616701794 485.3118151082548 128.34693322452762 0.0 0.0
857.2446265000598 61.18570332401612 456.424822208229 131.77810818024972 0.0 0.0
810.9897596272828 48.55401368647088 426.30486276180955 134.7857872762944 0.0 0.0
760.9539630476833 36.01475375528864 393.86453849835857 137.6747495326603 0.0 0.0
706.3857442821057 24.628443331276856 358.273576427966 140.18661928740232 0.0 0.0
642.4576590842753 12.257807626218451 312.98257046603453 141.87589175143125 0.0 0.0
563.7358805402888 -0.8240797082555673 250.77588152854415 144.31077159436157 0.0 0.0
463.2344496102818 -12.705944843384273 173.35536982847609 152.68364486405846 0.0 0.0
347.7740612033733 -15.004274071137752 107.82848933426706 162.8163653860607 0.0 0.0
248.07175810767612 -0.780550989870294 74.83569650573713 156.2427570442315 0.0 0.0
168.17788156832526 14.040460859958701 54.66237915079899 146.4884369140151 0.0 0.0
87.87262562255114 13.17280597593275 30.313629479545163 151.70621422063627 0.0 0.0
16.696307558485735 -46.06813008490446 -8.811486394286904 174.2042279485204 0.0 0.0
-3.0872647692519664 -454.66827809322467 -188.7850817961394 166.46611394559213 0.0 0.0
2.20839874038073 -412.4422874368121 -155.65933303031437 -163.95749041566927 0.0 0.0
3.49945879870006 -44.45447641585148 -12.286089129497295 -185.3968885581357 0.0 0.0
50.437877987476256 7.97296143966629 17.522848756895222 -169.25800911476279 0.0 0.0
112.32144574448678 15.105670759645854 38.229930441827946 -164.62288482839145 0.0 0.0
176.45755570398663 3.0730605059535065 54.24186413560804 -175.0523397665519 0.0 0.0
254.57037722509548 -7.992016686123381 77.193465945437 -187.52063328280187 0.0 0.0
365.1874285206864 -11.097331149802912 124.54517451996446 -185.7971540307139 0.0 0.0
480.7525831870696 -2.3385641990197694 196.81225966541217 -172.4526927303943 0.0 0.0
570.4856886017437 8.459278145452975 264.9756580053273 -163.893143173241 0.0 0.0
636.8422936675786 18.425082308142528 315.251116473003 -159.1356941732027 0.0 0.0
689.9549185835709 26.374791742028478 351.19172012046886 -155.52017307838915 0.0 0.0
735.4621411266594 35.101877307804884 380.6560449293121 -151.9948956651425 0.0 0.0
776.3279450872618 43.47505875140965 406.5150463171722 -148.57637168917103 0.0 0.0
814.0221369726535 51.19686004143554 429.94950889069963 -145.06660942788267 0.0 0.0
850.7480350550344 58.99137120963526 452.62644929264377 -140.74071648664642 0.0 0.0
888.1013581066563 68.14621360350668 476.15571766058207 -134.7559783097229 0.0 0.0
923.0212942971339 76.09212216558619 497.9671851776273 -127.70370563067024 0.0 0.0
950.6171350125061 78.05879373802858 513.024639935963 -120.37415863739842 0.0 0.0
987.0122995944113 86.49450411712093 535.1989170084352 -108.09692792081486 0.0 0.0
1045.869806658646 114.95717546322803 578.3374012225008 -83.58335530384136 0.0 0.0
1045.8698066591292 114.95717546370656 578.3374012228633 83.58335530386634 0.0 0.0
987.0122995949434 86.49450411776553 535.1989170087738 108.09692792104289 0.0 0.0
950.6171350116682 78.05879373739987 513.0246399354074 120.37415863768877 0.0 0.0
923.0212942967713 76.09212216537708 497.967185177292 127.70370563086385 0.0 0.0
888.10135810599 68.146213602979 476.1557176599998 134.75597830978384 0.0 0.0
850.7480350549502 58.99137120954927 452.62644929254157 140.74071648651002 0.0 0.0
814.0221369729084 51.196860041815626 429.94950889086283 145.06660942792573 0.0 0.0
776.3279450879664 43.475058752554276 406.51504631768074 148.57637168953303 0.0 0.0
735.4621411263486 35.10187730786967 380.65604492911683 151.99489566529581 0.0 0.0
689.9549185829596 26.374791741492857 351.19172012001627 155.52017307826884 0.0 0.0
636.8422936670243 18.425082307574016 315.25111647251333 159.13569417298672 0.0 0.0
570.4856886012815 8.459278145293858 264.97565800499217 163.89314317323968 0.0 0.0
480.7525831869851 -2.338564198591463 196.812259665332 172.4526927304803 0.0 0.0
365.187428520335 -11.097331149572641 124.54517451982203 185.7971540307301 0.0 0.0
254.5703772250349 -7.992016685663598 77.19346594553741 187.52063328258797 0.0 0.0
176.45755570380118 3.0730605057846203 54.24186413550438 175.05233976640875 0.0 0.0
112.32144574427754 15.10567075935081 38.22993044167997 164.62288482825554 0.0 0.0
50.4378779874558 7.972961439878498 17.52284875695326 169.25800911457415 0.0 0.0
3.4994587987610055 -44.454476415559085 -12.28608912939266 185.39688855787912 0.0 0.0
2.2083987403755785 -412.44228743662524 -155.6593330301285 163.9574904155 0.0 0.0
3.6376005986233153 -366.0436456895777 -125.69976647941456 -160.92149350147076 0.0 0.0
-12.402428475600438 -44.9004779279136 -17.1908882760669 -190.95426215076975 0.0 0.0
15.210756249459012 4.868439942764517 6.023694378726853 -181.33631718480498 0.0 0.0
57.95052492544784 16.24094585253414 22.26726399103512 -178.35796605854125 0.0 0.0
102.64951400799288 6.81868534860946 33.08884653895036 -189.36915967432606 0.0 0.0
153.75853491556612 -2.322736189455096 46.844742657585805 -205.66730006108298 0.0 0.0
234.4596534102118 -4.993519825201534 75.06573588575954 -214.55102952129363 0.0 0.0
349.3717247793088 -2.328545313865094 126.60581989783586 -206.4531606564991 0.0 0.0
457.63100056897486 4.902517679939166 191.50419253663733 -190.61658111451828 0.0 0.0
533.2647226693306 11.104155460695189 246.70887138436996 -179.45570435041293 0.0 0.0
587.0536873328064 16.934658660332566 287.2111562120359 -173.16307001353167 0.0 0.0
628.6877700924335 21.37065813037615 316.2051013105311 -168.74039552275627 0.0 0.0
664.1296158942746 25.842187745331003 339.57881531074815 -164.7523744781304 0.0 0.0
695.3092912655325 28.944530644808452 358.64393878435345 -161.03456241764295 0.0 0.0
724.5416051760512 30.756820800576662 375.19826876167207 -156.92873274407435 0.0 0.0
755.0286508627355 32.91627095274953 391.9938806514911 -151.36014592861446 0.0 0.0
788.9711199601342 36.95111449505927 411.25385306590914 -143.1788397726091 0.0 0.0
814.9299972146755 33.8109175594918 423.3484418881908 -134.50182547348962 0.0 0.0
829.9115270952426 16.470917587961367 422.1796850562662 -125.78051341577147 0.0 0.0
894.1367365264642 38.65338106532542 464.0340696406206 -106.273140199923 0.0 0.0
894.1367365265592 38.6533810655481 464.0340696407691 106.27314020029456 0.0 0.0
829.911527095941 16.470917588887232 422.17968505678084 125.78051341609009 0.0 0.0
814.9299972156441 33.810917560808434 423.348441888872 134.50182547387539 0.0 0.0
788.9711199608457 36.95111449616286 411.25385306648445 143.1788397729335 0.0 0.0
755.0286508628747 32.91627095311557 391.99388065173036 151.360145928772 0.0 0.0
724.5416051760169 30.756820800685034 375.1982687616696 156.92873274409902 0.0 0.0
695.3092912646721 28.944530644127525 358.6439387838618 161.0345624176465 0.0 0.0
664.1296158939017 25.842187744758462 339.57881531041704 164.75237447790886 0.0 0.0
628.6877700922001 21.370658130137457 316.20510131030966 168.7403955227301 0.0 0.0
587.0536873330319 16.934658660742485 287.2111562121499 173.16307001343765 0.0 0.0
533.264722668929 11.104155460393088 246.7088713840321 179.45570435030604 0.0 0.0
457.6310005684951 4.902517679695805 191.50419253629178 190.61658111449094 0.0 0.0
349.37172477888424 -2.3285453138602996 126.60581989761727 206.45316065654958 0.0 0.0
234.45965340963704 -4.99351982556414 75.06573588544795 214.55102952117952 0.0 0.0
153.7585349149519 -2.3227361904349326 46.84474265711206 205.6673000608591 0.0 0.0
102.64951400792839 6.818685348534688 33.0888465389092 189.36915967406406 0.0 0.0
57.95052492554481 16.240945852925893 22.267263991184766 178.35796605830475 0.0 0.0
15.210756249463206 4.86843994288819 6.023694378765521 181.33631718455334 0.0 0.0
-12.402428475723013 -44.90047792793935 -17.19088827611287 190.9542621505871 0.0 0.0
3.637600598635828 -366.04364568927986 -125.69976647924162 160.921493501362 0.0 0.0
-0.20594745881075482 -316.24088067754747 -100.63489148482344 -154.99270866052288 0.0 0.0
-31.435336481831595 -47.88367653728292 -23.79608374580183 -193.15839899032775 0.0 0.0
-18.554993403227314 3.9087909970398687 -4.395177600377853 -188.6001979816062 0.0 0.0
5.102504130251853 17.300997352067988 6.728809924984029 -187.22238063039583 0.0 0.0
28.24158278059231 10.962831977406125 11.844528854978963 -197.8528265256863 0.0 0.0
49.55513991685122 2.608908569244744 16.099372224785782 -215.96200119528189 0.0 0.0
78.52130699765081 -0.690999761950736 24.836859688025477 -231.14493917590957 0.0 0.0
131.3681169310179 0.8351500857399152 43.61957145530379 -234.40057883849917 0.0 0.0
212.16987232151064 4.556005848155731 75.20993307240016 -222.0815257129187 0.0 0.0
292.3237137848555 6.912232297245019 113.16302998131833 -205.7132936348296 0.0 0.0
356.97088967801733 8.497487017005625 151.59106234054872 -193.2823397188768 0.0 0.0
399.8361219096778 8.742831305749021 181.80016610387923 -185.39294852442748 0.0 0.0
429.51836963723593 9.186735788932225 205.11341260800612 -179.77591769593474 0.0 0.0
453.2182709958024 7.423236073293793 222.68597275623398 -175.312767935469 0.0 0.0
475.87280451370617 3.354036706919203 236.4742334732898 -171.21620453689627 0.0 0.0
503.293603932449 -2.351143634645524 249.5452308313715 -166.70282752506887 0.0 0.0
540.3840305848372 -6.278595390014033 266.52165265403937 -159.6912592138774 0.0 0.0
587.1653229730078 -6.151958425672973 289.97191874144823 -148.43609341496688 0.0 0.0
608.6110252282136 -34.96872014732969 287.65725906569935 -138.0772272096111 0.0 0.0
642.7459592952519 -71.176055993978 283.47887974851403 -135.20527822134534 0.0 0.0
642.7459592946777 -71.1760559945161 283.4788797481692 135.20527822157567 0.0 0.0
608.6110252282301 -34.968720147308204 287.6572590656824 138.07722721005223 0.0 0.0
587.165322973079 -6.151958425338023 289.9719187415721 148.4360934153118 0.0 0.0
540.3840305851811 -6.2785953894345425 266.52165265426817 159.6912592140632 0.0 0.0
503.293603932352 -2.3511436343926277 249.54523083129905 166.70282752515664 0.0 0.0
475.8728045143384 3.3540367078696534 236.47423347374826 171.2162045369139 0.0 0.0
453.2182709955159 7.423236072999828 222.68597275605123 175.31276793546596 0.0 0.0
429.51836963707615 9.1867357888962 205.1134126079112 179.7759176961668 0.0 0.0
399.8361219101723 8.742831306258878 181.80016610411008 185.39294852450763 0.0 0.0
356.9708896787425 8.497487018590341 151.5910623411532 193.28233971895423 0.0 0.0
292.32371378494213 6.912232297783596 113.1630299814148 205.71329363482442 0.0 0.0
212.16987232135867 4.556005848211683 75.20993307234349 222.08152571298484 0.0 0.0
131.36811693083536 0.8351500856638854 43.61957145521543 234.40057883852333 0.0 0.0
78.5213069977117 -0.690999761605525 24.836859688146703 231.14493917577295 0.0 0.0
49.555139916811505 2.6089085693257186 16.09937222480004 215.9620011950692 0.0 0.0
28.24158278081656 10.9628319778439 11.844528855177355 197.85282652547633 0.0 0.0
5.102504130447988 17.300997352490718 6.728809925170082 187.2223806302702 0.0 0.0
-18.554993403212602 3.908790997185836 -4.395177600330367 188.6001979814322 0.0 0.0
-31.43533648179045 -47.88367653695893 -23.796083745695128 193.15839899023683 0.0 0.0
-0.2059474587935739 -316.24088067710426 -100.63489148465763 154.9927086604356 0.0 0.0
-11.921568956657387 -265.78910728112714 -83.95329022134848 -144.91193829830092 0.0 0.0
-50.316229034119246 -50.6183254486652 -30.284892659831982 -193.0876127714152 0.0 0.0
-51.288481792045836 3.835837599929992 -14.253692289221654 -191.66920970945984 0.0 0.0
-46.1548673731141 18.23535943536358 -8.40809086985286 -190.96773755022068 0.0 0.0
-45.274427130449084 15.08552422555938 -9.167612240235567 -200.0254746749573 0.0 0.0
-55.695396503456756 7.450895805561407 -14.968645996253967 -216.9494541365903 0.0 0.0
-81.18041538830875 2.63934222655838 -25.113651494537592 -231.28221954791047 0.0 0.0
-132.27806362575626 -0.4335872316293088 -43.81042905314929 -234.55716937566746 0.0 0.0
-212.04454690731703 -4.3337236990621335 -75.10493801065618 -222.18717453323222 0.0 0.0
-292.084059794447 -6.631633911264963 -112.98478443079146 -205.69048246022604 0.0 0.0
-357.1806019388241 -7.113100432853415 -151.07896211541265 -193.13548050967992 0.0 0.0
-401.50557947832004 -7.06697117921378 -181.82100289417878 -184.91991384780297 0.0 0.0
-433.9733303210443 -9.292728150573808 -207.0292079402679 -179.32020792786798 0.0 0.0
-459.38076664086367 -14.475142233570153 -228.71474743415484 -175.85991489727888 0.0 0.0
-476.63161277904686 -23.1725231751077 -247.33759682654903 -174.39495285312546 0.0 0.0
-482.6831433883469 -34.50226587760528 -262.019695946306 -174.45431315030316 0.0 0.0
-468.5293952267178 -45.92954477997185 -269.25502147888693 -174.71449421637664 0.0 0.0
-404.9532627483881 -40.11078782087685 -253.1578715004029 -174.54374080719037 0.0 0.0
-222.54087163477652 -37.66797259250626 -192.1390540348113 -177.48653914903517 0.0 0.0
-16.90447997167348 -175.74313427786493 -69.5000106165679 -166.92727461741765 0.0 0.0
-16.90447997131122 -175.7431342771295 -69.50001061630832 166.92727461785395 0.0 0.0
-222.54087163499344 -37.66797259279832 -192.13905403506578 177.48653914955503 0.0 0.0
-404.95326274800925 -40.11078782048969 -253.15787150012784 174.54374080757805 0.0 0.0
-468.5293952268999 -45.92954477988502 -269.2550214789019 174.71449421641816 0.0 0.0
-482.68314338848074 -34.502265878113064 -262.01969594644254 174.45431315026826 0.0 0.0
-476.63161277912366 -23.1725231753571 -247.337596826555 174.3949528530713 0.0 0.0
-459.3807666405574 -14.475142233561257 -228.71474743398514 175.85991489734656 0.0 0.0
-433.973330320873 -9.292728150585333 -207.02920794012346 179.3202079279156 0.0 0.0
-401.5055794780152 -7.066971179542847 -181.82100289407146 184.91991384777572 0.0 0.0
-357.1806019384859 -7.113100433246132 -151.07896211527492 193.13548050961032 0.0 0.0
-292.0840597941043 -6.631633911855211 -112.98478443071025 205.69048246021168 0.0 0.0
-212.04454690751652 -4.333723700720483 -75.10493801114373 222.18717453333582 0.0 0.0
-132.27806362539673 -0.4335872317909413 -43.8104290530697 234.5571693756617 0.0 0.0
-81.1804153883269 2.6393422258490817 -25.113651494739962 231.28221954770535 0.0 0.0
-55.69539650385336 7.450895804376053 -14.968645996725945 216.94945413632888 0.0 0.0
-45.27442713062828 15.085524224799272 -9.1676122405175 200.0254746747774 0.0 0.0
-46.15486737319859 18.235359434904463 -8.408090870017014 190.9677375499899 0.0 0.0
-51.2884817920456 3.8358375999637295 -14.25369228921398 191.66920970920074 0.0 0.0
-50.31622903409387 -50.61832544857041 -30.284892659799493 193.08761277119032 0.0 0.0
-11.92156895673827 -265.7891072808362 -83.95329022130096 144.91193829812914 0.0 0.0
-23.4251278704674 -217.35577440970317 -72.23111306608281 -131.90918208252123 0.0 0.0
-66.40573813418101 -50.62581234371628 -35.11763488541491 -189.5314661914058 0.0 0.0
-82.84101066171596 3.6562177318973954 -23.793541955859727 -190.88233826491773 0.0 0.0
-95.7934084998328 18.999128057425118 -23.11804054447582 -189.73068282136796 0.0 0.0
-117.09774579703769 18.352682856314434 -30.010811118928977 -195.62917863840514 0.0 0.0
-158.8687174714801 11.894026310732954 -45.72989006981837 -208.0235515682839 0.0 0.0
-236.0158874096922 6.8321398011298395 -75.21403417267251 -215.49693641479917 0.0 0.0
-349.076294024454 2.6538798786375786 -126.55277562713121 -206.9329360731755 0.0 0.0
-457.2448158368958 -4.7360367991143875 -191.3124997406028 -190.78724603967046 0.0 0.0
-532.9128343080088 -10.708750955603051 -246.40540782495617 -179.41971659659606 0.0 0.0
-586.6064898284135 -15.877907445921906 -286.5706422656322 -172.87963324467304 0.0 0.0
-628.7241459731857 -19.88044245886313 -315.53106474546695 -167.9494964065164 0.0 0.0
-666.0021732593743 -25.858432249297266 -340.3566416718265 -163.70653989322008 0.0 0.0
-700.7979349872317 -34.857963962175916 -363.96720020463465 -161.223275735171 0.0 0.0
-733.7555981596197 -47.713533539204604 -387.9643760420581 -161.09893153667514 0.0 0.0
-762.9148560971109 -63.413795994669215 -411.3436679738837 -163.29621679689967 0.0 0.0
-783.2834933217848 -78.76642766098374 -430.284554409771 -168.22621915888553 0.0 0.0
-791.7202591761757 -91.8067442645496 -442.0296145292827 -176.00367802455247 0.0 0.0
-825.6020156676831 -145.73575301715138 -487.16067238284086 -185.20856419669727 0.0 0.0
-836.0637229157494 -235.66141206547957 -539.1833675321502 -204.34323267670078 0.0 0.0
-836.0637229159827 -235.66141206585803 -539.1833675324328 204.34323267701723 0.0 0.0
-825.6020156682936 -145.7357530178572 -487.16067238331794 185.20856419701946 0.0 0.0
-791.7202591771138 -91.80674426605407 -442.0296145300446 176.0036780249389 0.0 0.0
-783.2834933218178 -78.76642766137934 -430.2845544098411 168.22621915905935 0.0 0.0
-762.9148560964526 -63.413795993929085 -411.3436679734389 163.2962167967799 0.0 0.0
-733.7555981590947 -47.7135335387737 -387.9643760417199 161.0989315366408 0.0 0.0
-700.7979349876389 -34.857963962756614 -363.96720020487913 161.2232757352695 0.0 0.0
-666.002173259892 -25.858432250371195 -340.3566416722168 163.70653989350154 0.0 0.0
-628.7241459726192 -19.880442458691604 -315.5310647451219 167.94949640662344 0.0 0.0
-586.6064898274398 -15.877907445085462 -286.5706422649443 172.87963324456877 0.0 0.0
-532.9128343080098 -10.708750956138076 -246.40540782492064 179.41971659662804 0.0 0.0
-457.2448158361589 -4.736036798527383 -191.31249974002597 190.78724603955771 0.0 0.0
-349.0762940234432 2.653879879221636 -126.55277562653347 206.9329360732583 0.0 0.0
-236.0158874091619 6.832139800968271 -75.21403417251383 215.49693641476574 0.0 0.0
-158.86871747121785 11.894026310671547 -45.72989006975552 208.0235515680946 0.0 0.0
-117.09774579688059 18.35268285623205 -30.010811118906567 195.62917863829114 0.0 0.0
-95.79340849983446 18.999128057140414 -23.118040544564156 189.73068282118763 0.0 0.0
-82.84101066151501 3.65621773213674 -23.793541955731015 190.88233826473584 0.0 0.0
-66.40573813411777 -50.625812343582645 -35.11763488536197 189.5314661912345 0.0 0.0
-23.42512787040151 -217.35577440949464 -72.23111306600248 131.90918208232932 0.0 0.0
-28.202349935524587 -171.9087801352379 -60.03333902122874 -117.19866438493807 0.0 0.0
-79.66982017719715 -48.13011714592244 -38.33720872602211 -182.02341731364265 0.0 0.0
-112.81384073133317 3.351378268545039 -32.8708167771708 -186.03513120236596 0.0 0.0
-143.70723641834618 19.228945827636416 -37.47828164864809 -183.41382635433465 0.0 0.0
-186.6820904236052 20.36165453408822 -50.635569783824 -185.27594313306423 0.0 0.0
-256.83907911489337 16.47497788277219 -76.00392581662825 -190.9850346978106 0.0 0.0
-364.43342075823386 12.666590653213326 -124.24218230280349 -187.1770901250556 0.0 0.0
-479.9452317180112 2.680226969621998 -196.44188236522535 -173.0472572669884 0.0 0.0
-570.2292047030896 -8.351797352450404 -264.8174240244732 -163.9597790429062 0.0 0.0
-636.5913626658423 -18.136294053953264 -315.0276850443365 -159.11425408220921 0.0 0.0
-689.6093374568895 -25.61219232985127 -350.6905945990583 -155.23797787387304 0.0 0.0
-735.337889339165 -33.881260472300525 -379.9948406053761 -151.04707520949927 0.0 0.0
-777.5504030266752 -43.23352063841938 -406.89067231204615 -147.04955524721328 0.0 0.0
-818.5430712925863 -55.61610634930949 -434.160738685306 -144.48723817606464 0.0 0.0
-859.512331142693 -72.49246897494572 -463.49253155185386 -144.468506583634 0.0 0.0
-898.3022176352839 -92.76091152497281 -493.47160067376717 -147.4890294702201 0.0 0.0
-932.4433434443213 -114.33119727739822 -521.7624914504141 -153.2003562148898 0.0 0.0
-970.6576972781257 -147.36403969445945 -557.7752906679018 -159.4842230398441 0.0 0.0
-1014.069550385832 -196.78829812763337 -604.4423845561917 -165.05726714373625 0.0 0.0
-1114.0561295040234 -333.22480375069597 -721.9799450068876 -171.4944249561425 0.0 0.0
-1114.056129504852 -333.2248037518526 -721.9799450075105 171.49442495655825 0.0 0.0
-1014.0695503855306 -196.78829812748847 -604.4423845558977 165.05726714397215 0.0 0.0
-970.6576972769501 -147.364039693599 -557.7752906670811 159.48422304023526 0.0 0.0
-932.4433434440825 -114.33119727733862 -521.7624914501904 153.20035621504317 0.0 0.0
-898.3022176353297 -92.76091152511779 -493.47160067371567 147.489029470198 0.0 0.0
-859.512331143261 -72.49246897574768 -463.49253155223147 144.46850658367936 0.0 0.0
-818.5430712922198 -55.616106349031384 -434.16073868499933 144.48723817596115 0.0 0.0
-777.5504030248055 -43.23352063638414 -406.8906723107 147.04955524691417 0.0 0.0
-735.3378893386575 -33.88126047207763 -379.99484060502266 151.04707520959275 0.0 0.0
-689.6093374567156 -25.61219232990085 -350.6905945989285 155.23797787374642 0.0 0.0
-636.5913626660907 -18.13629405434309 -315.02768504446374 159.1142540820237 0.0 0.0
-570.2292047033377 -8.351797353226534 -264.8174240246417 163.95977904301134 0.0 0.0
-479.94523171753514 2.6802269694242753 -196.44188236492104 173.04725726718965 0.0 0.0
-364.4334207573389 12.666590653720199 -124.24218230226234 187.17709012499728 0.0 0.0
-256.83907911429253 16.474977883178354 -76.00392581630298 190.98503469760072 0.0 0.0
-186.68209042337543 20.36165453414555 -50.6355697837364 185.27594313288242 0.0 0.0
-143.7072364181587 19.22894582776704 -37.47828164855681 183.41382635422224 0.0 0.0
-112.81384073113423 3.351378268723942 -32.870816777062934 186.0351312021591 0.0 0.0
-79.66982017717255 -48.13011714601025 -38.337208726042164 182.02341731350577 0.0 0.0
-28.202349935394892 -171.9087801349566 -60.03333902110545 117.19866438476727 0.0 0.0
-29.910068567598678 -130.4418109642918 -48.10556385956714 -101.76596294354692 0.0 0.0
-90.63503740711158 -43.379560536016854 -40.20385235166285 -170.06216234659502 0.0 0.0
-140.9499307103722 2.9158378725248397 -41.43098338204779 -176.9713064634013 0.0 0.0
-189.71069054023357 18.425747065954244 -51.59100449301988 -172.27239150858296 0.0 0.0
-252.74657988426253 21.844840914486614 -70.56520857833374 -169.6327363510448 0.0 0.0
-345.8962805073983 21.52271028692281 -106.55479860206351 -166.87942995142552 0.0 0.0
-461.3246883034003 14.399316704288172 -172.30070722665357 -154.37999666442562 0.0 0.0
-563.2547139507086 0.98350523122879 -250.4598771516186 -144.59524411665973 0.0 0.0
-642.371315387174 -12.245336104004608 -312.94279478985436 -141.89020876139597 0.0 0.0
-706.2405408260357 -24.449475554557495 -358.1363084993077 -140.1762545558913 0.0 0.0
-760.8164151596736 -35.572264954939925 -393.5920909646926 -137.39903775196206 0.0 0.0
-810.9822400161834 -47.75463503531756 -425.90526293237167 -133.78034540294544 0.0 0.0
-857.8427502280279 -60.647175634738005 -456.4019991359966 -129.96813391833854 0.0 0.0
-903.6632986156587 -76.35342058627887 -487.51952783095766 -127.23292291423728 0.0 0.0
-950.0736496362952 -96.63200164639915 -521.099050651694 -127.17403844585093 0.0 0.0
-997.5884842250898 -122.63520030057327 -558.1010200619294 -130.3844367875706 0.0 0.0
-1047.114539509002 -156.02651119284903 -599.8041904003474 -135.72282693541487 0.0 0.0
-1100.8131038387244 -199.9905722452953 -648.8049648473091 -140.53867020256948 0.0 0.0
-1172.7530559260342 -272.01841884205567 -720.6324203449176 -141.4622509541723 0.0 0.0
-1269.9729506059525 -396.0143466893341 -831.1789664925416 -142.2071045581902 0.0 0.0
-1269.9729506057752 -396.01434668920535 -831.178966492468 142.2071045582812 0.0 0.0
-1172.7530559250872 -272.0184188410229 -720.6324203443235 141.46225095410438 0.0 0.0
-1100.8131038371712 -199.99057224384939 -648.8049648463546 140.53867020267177 0.0 0.0
-1047.1145395088815 -156.02651119284795 -599.8041904001892 135.72282693547973 0.0 0.0
-997.5884842251531 -122.6352003008987 -558.1010200619818 130.38443678779362 0.0 0.0
-950.0736496351094 -96.63200164527676 -521.099050650866 127.17403844575645 0.0 0.0
-903.6632986149812 -76.35342058562058 -487.519527830514 127.2329229140533 0.0 0.0
-857.8427502278349 -60.6471756346062 -456.4019991358519 129.96813391810232 0.0 0.0
-810.9822400148726 -47.75463503404619 -425.9052629314759 133.78034540272313 0.0 0.0
-760.8164151588905 -35.572264954276406 -393.592090964141 137.39903775182557 0.0 0.0
-706.2405408252444 -24.449475553899877 -358.1363084987572 140.17625455565792 0.0 0.0
-642.3713153864765 -12.245336103421876 -312.9427947893248 141.89020876115572 0.0 0.0
-563.254713950296 0.9835052314089392 -250.45987715121856 144.5952441164991 0.0 0.0
-461.324688303141 14.399316704055492 -172.3007072264512 154.37999666441937 0.0 0.0
-345.89628050697615 21.522710286875537 -106.5547986018763 166.87942995129998 0.0 0.0
-252.7465798839872 21.844840914429536 -70.56520857826735 169.632736350827 0.0 0.0
-189.71069054000233 18.42574706596001 -51.59100449295853 172.2723915084648 0.0 0.0
-140.94993071022665 2.9158378726343286 -41.43098338197667 176.97130646324294 0.0 0.0
-90.63503740703962 -43.3795605360353 -40.20385235164697 170.0621623464691 0.0 0.0
-29.91006856759968 -130.44181096433684 -48.10556385958095 101.76596294346153 0.0 0.0
-30.846420905439736 -93.6469048914402 -37.34799773906397 -85.90390743099186 0.0 0.0
-100.23968185569565 -36.89267332679165 -41.13970655474619 -153.96357370892707 0.0 0.0
-167.27043135251773 2.473998469203761 -49.44634441144567 -163.4216319189305 0.0 0.0
-234.04107891625455 16.84860341811859 -65.33580456467436 -156.81645058858044 0.0 0.0
-315.55452821017053 23.708243525127738 -90.01032309715657 -149.58459898442592 0.0 0.0
-422.65302470451047 23.98368076880478 -138.76204202744935 -137.4079903540517 0.0 0.0
-531.9353147187265 13.869387379956123 -215.59818468883384 -123.99413420808983 0.0 0.0
-622.0599980975114 -0.5686618635491243 -290.5854214567923 -120.43294869453574 0.0 0.0
-695.8963791480871 -15.598181764819373 -346.5861528383905 -121.23633019969421 0.0 0.0
-759.5919981086638 -30.041800862769676 -389.66651414691137 -121.0900553324699 0.0 0.0
-817.8505021307097 -45.30267613298332 -427.90755997538497 -119.08344005852004 0.0 0.0
-872.3206082937457 -61.57147237584647 -464.0189896165093 -115.94537405065738 0.0 0.0
-923.6252552285923 -78.38896069013924 -498.5533824243156 -112.44494942669888 0.0 0.0
-973.4471072148134 -96.926431097881 -533.0083295342175 -109.6720657235212 0.0 0.0
-1025.1539747809245 -120.68836298658408 -570.877121387794 -109.24748761765241 0.0 0.0
-1081.6740675627607 -153.77887475324482 -615.7933925357822 -111.941329030786 0.0 0.0
-1144.9508309196035 -198.20893658465982 -669.7698352298144 -116.67987068300185 0.0 0.0
-1217.5208590157608 -258.5765689280558 -736.2670384618898 -120.03535429965616 0.0 0.0
-1300.8725579257643 -341.1213254007859 -819.1867310831387 -119.85200083512578 0.0 0.0
-1386.0809643401358 -450.9213914472133 -916.795781000579 -121.56874276128329 0.0 0.0
-1386.0809643402386 -450.9213914474576 -916.7957810006801 121.5687427615521 0.0 0.0
-1300.872557926195 -341.1213254013668 -819.1867310834625 119.85200083537106 0.0 0.0
-1217.5208590157665 -258.57656892817954 -736.2670384620142 120.03535429977732 0.0 0.0
-1144.950830919695 -198.20893658488149 -669.7698352298977 116.67987068309208 0.0 0.0
-1081.6740675631452 -153.77887475380817 -615.7933925360337 111.94132903090967 0.0 0.0
-1025.1539747814343 -120.68836298734043 -570.8771213881331 109.24748761781908 0.0 0.0
-973.4471072135962 -96.92643109679096 -533.00832953335 109.67206572347114 0.0 0.0
-923.6252552290072 -78.38896069078604 -498.55338242457674 112.44494942677872 0.0 0.0
-872.3206082936758 -61.571472376131325 -464.01898961647987 115.94537405086642 0.0 0.0
-817.8505021307963 -45.30267613342482 -427.9075599754241 119.08344005864001 0.0 0.0
-759.5919981086685 -30.041800863048714 -389.6665141468734 121.09005533241395 0.0 0.0
-695.8963791485362 -15.598181765738005 -346.58615283868244 121.2363301998931 0.0 0.0
-622.0599980966372 -0.5686618630017968 -290.58542145619515 120.43294869452819 0.0 0.0
-531.935314718077 13.86938738023597 -215.5981846883128 123.99413420806144 0.0 0.0
-422.6530247040046 23.983680768864915 -138.762042027134 137.40799035397896 0.0 0.0
-315.554528209896 23.70824352489402 -90.01032309712797 149.58459898428734 0.0 0.0
-234.0410789159747 16.848603418136847 -65.33580456459084 156.81645058849602 0.0 0.0
-167.27043135232452 2.473998469334664 -49.446344411353486 163.42163191880508 0.0 0.0
-100.23968185560813 -36.892673326729735 -41.139706554701355 153.9635737088203 0.0 0.0
-30.846420905422587 -93.64690489142865 -37.347997739055366 85.90390743085524 0.0 0.0
-31.635181282380067 -62.071610433933174 -28.112037514893967 -69.60021676943873 0.0 0.0
-108.96810730016435 -29.24309394606817 -41.463360373869754 -134.1536430602974 0.0 0.0
-192.02141921986208 1.9273372919180494 -57.02603747256272 -145.46391121109673 0.0 0.0
-275.6326352631861 14.738186481189787 -78.53931330353726 -137.0313206285787 0.0 0.0
-373.70912716031256 25.541502512931938 -109.77690869039782 -125.10346290160737 0.0 0.0
-485.5703442075741 23.781478910982898 -171.7003034065584 -107.04433848533787 0.0 0.0
-584.49732579609 13.221006189176812 -251.93602778807804 -97.55277528461184 0.0 0.0
-666.4263467660519 -2.202271899062737 -320.39752960753265 -98.213049851635 0.0 0.0
-737.8091053478419 -17.91578649831787 -371.3270845447718 -100.79766511226288 0.0 0.0
-803.7612312547487 -35.44587972994978 -415.45813912697326 -101.48257141235948 0.0 0.0
-866.0103326588387 -54.80296959653117 -457.25219731265736 -100.02181641232595 0.0 0.0
-924.9112955846077 -75.35192051596229 -497.54035868828566 -97.45699683401831 0.0 0.0
-980.8475703405268 -96.29568121938175 -536.3833596015915 -94.53703330696426 0.0 0.0
-1034.6453634604447 -118.19708529427578 -574.4803690039745 -91.76891012909877 0.0 0.0
-1090.8097140906336 -145.15916996617625 -616.1172813392998 -90.62237705632137 0.0 0.0
-1155.875858998397 -184.56412213231255 -668.3593122388792 -92.35961545927371 0.0 0.0
-1232.6276936426157 -241.05494394475488 -735.0022960106578 -96.15872483731115 0.0 0.0
-1320.1073913698629 -315.5505699036313 -816.0191539112869 -99.38821391878778 0.0 0.0
-1409.4278180464798 -404.31553141037904 -905.1152740846652 -101.01186201116731 0.0 0.0
-1487.58607261297 -505.84734168348325 -995.1309937255419 -106.23807292732498 0.0 0.0
-1487.5860726126116 -505.847341683167 -995.1309937252411 106.23807292748685 0.0 0.0
-1409.427818046265 -404.3155314103088 -905.1152740844402 101.01186201148117 0.0 0.0
-1320.1073913697396 -315.55056990365046 -816.0191539109815 99.38821391896587 0.0 0.0
-1232.6276936412412 -241.05494394349097 -735.0022960095586 96.15872483739801 0.0 0.0
-1155.875858997419 -184.56412213142414 -668.3593122381058 92.35961545922098 0.0 0.0
-1090.8097140905795 -145.15916996629716 -616.1172813391511 90.62237705641158 0.0 0.0
-1034.6453634605916 -118.19708529464708 -574.4803690040811 91.76891012918334 0.0 0.0
-980.8475703391148 -96.29568121808646 -536.3833596006772 94.53703330679002 0.0 0.0
-924.9112955843923 -75.35192051592131 -497.54035868817493 97.45699683392482 0.0 0.0
-866.0103326595387 -54.80296959750336 -457.2521973130839 100.02181641232943 0.0 0.0
-803.7612312553248 -35.44587973083162 -415.4581391273383 101.48257141233543 0.0 0.0
-737.8091053478734 -17.915786498590712 -371.3270845447795 100.79766511211628 0.0 0.0
-666.4263467654577 -2.202271898734736 -320.39752960709365 98.21304985154526 0.0 0.0
-584.4973257956627 13.221006189233421 -251.9360277877022 97.55277528461674 0.0 0.0
-485.5703442072074 23.781478910820105 -171.70030340630404 107.0443384854146 0.0 0.0
-373.7091271601612 25.541502512411206 -109.77690869046558 125.10346290162684 0.0 0.0
-275.63263526301 14.738186480913228 -78.53931330357558 137.03132062850574 0.0 0.0
-192.02141921977272 1.9273372917813067 -57.026037472577784 145.4639112109638 0.0 0.0
-108.96810730003038 -29.24309394596195 -41.46336037379769 134.15364306009673 0.0 0.0
-31.635181282393145 -62.071610433885404 -28.11203751488356 69.60021676926365 0.0 0.0
-32.192761341350334 -36.20329516774668 -20.518816952729104 -52.8039612441599 0.0 0.0
-116.72069867934906 -20.990849878279494 -41.31346456728855 -111.03121119142833 0.0 0.0
-215.45482370708254 1.1819472278685579 -64.28110245967507 -123.07508972817755 0.0 0.0
-316.24959877428887 13.027115972085165 -91.32882851809201 -113.63817350378076 0.0 0.0
-428.09966243085046 26.018161779720998 -131.12267743711843 -96.9511598520029 0.0 0.0
-534.9319393846586 22.800383691027385 -203.01096002500543 -78.64131854090301 0.0 0.0
-623.0607247743285 11.560930706915954 -281.22298451149635 -73.91773731926652 0.0 0.0
-700.6380990383807 -2.49234151040946 -341.8172399417814 -76.85948157310891 0.0 0.0
-772.592706855926 -19.88349808912119 -391.14302462145434 -80.06559511126073 0.0 0.0
-841.4745813625575 -40.83418194298855 -437.6019656776493 -81.1497115708338 0.0 0.0
-907.5652017743731 -64.01406275971195 -482.9840498835799 -80.20632842183744 0.0 0.0
-971.1000556152189 -88.85848396930791 -527.6383505933354 -78.28302444378755 0.0 0.0
-1031.9351097896147 -114.43207249930933 -571.1796773094392 -76.02806981719974 0.0 0.0
-1090.9400503274228 -140.76729612803487 -614.0842586173619 -73.58737464495071 0.0 0.0
-1151.1888005086485 -170.83312105053741 -659.3102326477751 -71.61306261584991 0.0 0.0
-1221.2252580281324 -214.30706412495465 -715.9854473215942 -71.69117544893491 0.0 0.0
-1309.582768405467 -280.91484418257585 -793.4127741916741 -74.65350699778688 0.0 0.0
-1409.7469244505755 -367.41987557715635 -886.7961229624144 -78.99968623676654 0.0 0.0
-1507.5593948417518 -464.8093482291003 -984.4914732761565 -84.03512995903444 0.0 0.0
-1584.4409816531916 -564.2480809580779 -1072.8473728506149 -93.91772639232894 0.0 0.0
-1584.4409816529405 -564.2480809578873 -1072.8473728505096 93.91772639246139 0.0 0.0
-1507.5593948427236 -464.8093482301552 -984.4914732767838 84.03512995915942 0.0 0.0
-1409.7469244511358 -367.4198755778622 -886.7961229628261 78.99968623702583 0.0 0.0
-1309.5827684059866 -280.9148441832459 -793.4127741921116 74.65350699792059 0.0 0.0
-1221.2252580283287 -214.30706412529167 -715.985447321653 71.69117544893192 0.0 0.0
-1151.188800507572 -170.83312104956516 -659.3102326469843 71.61306261578018 0.0 0.0
-1090.9400503268591 -140.76729612765158 -614.084258616914 73.5873746450037 0.0 0.0
-1031.9351097894776 -114.43207249943087 -571.1796773093132 76.02806981738422 0.0 0.0
-971.1000556141421 -88.85848396846598 -527.6383505925971 78.2830244437987 0.0 0.0
-907.5652017731444 -64.0140627586565 -482.98404988272864 80.20632842166782 0.0 0.0
-841.474581362412 -40.83418194315135 -437.6019656775253 81.1497115709137 0.0 0.0
-772.5927068559477 -19.88349808949775 -391.14302462150994 80.0655951113278 0.0 0.0
-700.6380990378601 -2.4923415102196955 -341.817239941422 76.85948157312576 0.0 0.0
-623.0607247738261 11.560930707085014 -281.2229845110914 73.91773731926736 0.0 0.0
-534.9319393841257 22.800383691157272 -203.0109600245956 78.64131854093887 0.0 0.0
-428.0996624301469 26.018161780038817 -131.12267743677276 96.951159852135 0.0 0.0
-316.2495987735879 13.027115972786657 -91.32882851769736 113.63817350379435 0.0 0.0
-215.4548237067778 1.1819472282877652 -64.28110245945876 123.07508972811422 0.0 0.0
-116.72069867915984 -20.990849878161804 -41.31346456719648 111.03121119124474 0.0 0.0
-32.19276134123344 -36.20329516771946 -20.518816952685867 52.80396124415989 0.0 0.0
-31.90772514712166 -16.50222359201399 -14.522984621740694 -35.63560584800392 0.0 0.0
-122.6855750371232 -12.614110467746583 -40.589905651460924 -84.82267780057784 0.0 0.0
-237.99212981070372 0.01690091829309104 -71.3925686677232 -96.20316444783126 0.0 0.0
-356.71969915431805 12.73172513897585 -103.83482523167399 -86.53794519197913 0.0 0.0
-475.44579997765044 25.13338573117902 -153.98919350562846 -67.14862171270988 0.0 0.0
-573.4334056372495 20.614530187711267 -232.17011542971534 -53.44079173369928 0.0 0.0
-653.9732426293716 10.56399132636676 -304.15307020443913 -52.20573055197517 0.0 0.0
-728.5165476831489 -2.3124912814959373 -358.2073006777389 -55.53233242595303 0.0 0.0
-801.8519190284526 -21.92904068322929 -407.67146603510514 -58.78501806119937 0.0 0.0
-873.8146859625916 -46.01744432838447 -456.77464210542007 -60.09742794384696 0.0 0.0
-943.9787241235309 -72.99265351232378 -505.9417111551188 -59.633665099295925 0.0 0.0
-1011.999244511601 -102.029407346113 -554.8670154309549 -58.33719864136449 0.0 0.0
-1078.3713944792964 -132.4813027210016 -603.5602449700199 -56.8369575043552 0.0 0.0
-1143.3383656844276 -164.5931401740412 -652.3037373244392 -54.919408656127096 0.0 0.0
-1208.7078944171803 -199.39137800073388 -702.4832291396818 -52.52193922811421 0.0 0.0
-1280.771455619189 -243.8228785903112 -760.6583380596783 -50.79923555723277 0.0 0.0
-1371.3338409283006 -311.6695388192237 -839.7074447346643 -52.35316470933516 0.0 0.0
-1487.0334180858445 -412.79082589887315 -948.1311423593816 -58.21987049268618 0.0 0.0
-1598.7871043629214 -523.3883441550665 -1059.4484805838038 -67.72173504447433 0.0 0.0
-1685.0198587227146 -630.6977644244807 -1156.4261449220157 -83.20317102260744 0.0 0.0
-1685.0198587230655 -630.6977644248817 -1156.426144922284 83.20317102272146 0.0 0.0
-1598.7871043623468 -523.3883441545061 -1059.4484805834536 67.7217350443623 0.0 0.0
-1487.0334180850587 -412.79082589817585 -948.1311423587777 58.219870492795216 0.0 0.0
-1371.3338409263565 -311.6695388173619 -839.7074447331038 52.353164709317326 0.0 0.0
-1280.7714556191124 -243.82287859035682 -760.6583380594282 50.7992355571739 0.0 0.0
-1208.7078944171747 -199.39137800089586 -702.4832291395426 52.52193922820824 0.0 0.0
-1143.3383656842714 -164.5931401740364 -652.3037373242605 54.91940865600618 0.0 0.0
-1078.3713944786691 -132.48130272056312 -603.5602449695728 56.83695750435005 0.0 0.0
-1011.99924451189 -102.02940734665327 -554.8670154311701 58.3371986413753 0.0 0.0
-943.9787241228986 -72.99265351194187 -505.9417111547128 59.63366509922274 0.0 0.0
-873.8146859620967 -46.0174443281496 -456.7746421050443 60.0974279438079 0.0 0.0
-801.851919028237 -21.929040683299405 -407.67146603490954 58.785018061174625 0.0 0.0
-728.5165476828101 -2.3124912814497094 -358.2073006775022 55.532332425849745 0.0 0.0
-653.9732426294574 10.56399132590218 -304.15307020441196 52.20573055195219 0.0 0.0
-573.43340563703 20.614530187551775 -232.17011542944906 53.44079173367925 0.0 0.0
-475.44579997716886 25.13338573131665 -153.9891935053493 67.1486217127339 0.0 0.0
-356.7196991541351 12.731725138563398 -103.8348252317532 86.53794519183512 0.0 0.0
-237.99212981056493 0.01690091830377405 -71.39256866767835 96.203164447669 0.0 0.0
-122.68557503694946 -12.614110467672123 -40.58990565138646 84.82267780045828 0.0 0.0
-31.907725146998555 -16.502223591940265 -14.522984621681644 35.63560584789289 0.0 0.0
-29.46664531815724 -3.3544599110603714 -9.846331568765283 -18.611628389214168 0.0 0.0
-125.1456714274901 -4.732557357861586 -38.963468635605494 -55.49245158867984 0.0 0.0
-260.0650048694611 -1.3569862017606216 -78.42659732136651 -64.34207847285143 0.0 0.0
-398.5085801646988 13.722040649269672 -117.00580773480021 -55.83536884265421 0.0 0.0
-514.3837981727919 23.788147656223884 -177.44728345850336 -38.74412330276564 0.0 0.0
-601.7675214665701 17.311670189861026 -257.8109467332897 -30.75317633052162 0.0 0.0
-678.1080382563088 10.878827954815876 -320.8575296738943 -31.334926255905255 0.0 0.0
-751.7012099778835 -2.716081392935891 -371.6242750324366 -34.18142477697207 0.0 0.0
-826.1883808845391 -23.797240915286523 -421.369501282883 -36.93602155326983 0.0 0.0
-901.4331914920496 -50.95424123060448 -473.36335844536836 -38.280773057720694 0.0 0.0
-975.8170937089365 -81.7567407148739 -526.4559370033984 -38.28639164081185 0.0 0.0
-1048.7329969355305 -114.85833784397812 -579.8055402215385 -37.64109353864688 0.0 0.0
-1120.5008591828077 -150.5333168176025 -633.7608974157467 -36.76056962654192 0.0 0.0
-1192.2438428037053 -188.8321840325569 -688.945873494619 -35.54155273509549 0.0 0.0
-1264.6398534932828 -230.35493007404474 -746.0100983550033 -33.5587246896699 0.0 0.0
-1338.938619236989 -276.88303113669934 -806.4342822605835 -30.844202843594307 0.0 0.0
-1422.5546074920571 -337.19770655264983 -878.253944457694 -29.910455155453203 0.0 0.0
-1532.621346316926 -431.26666084037976 -980.1369975824194 -35.694097077072925 0.0 0.0
-1691.3412491416693 -586.5779026139215 -1137.3056163191022 -50.33590267689046 0.0 0.0
-1798.6510965997452 -712.5754218197053 -1254.2365981994392 -73.10306167619324 0.0 0.0
-1798.651096599572 -712.575421819545 -1254.236598199314 73.10306167621098 0.0 0.0
-1691.341249141058 -586.5779026133549 -1137.305616318556 50.33590267686435 0.0 0.0
-1532.6213463170845 -431.26666084062583 -980.1369975824939 35.694097077156236 0.0 0.0
-1422.55460749233 -337.1977065530432 -878.2539444579137 29.910455155516097 0.0 0.0
-1338.9386192354777 -276.88303113528724 -806.4342822594419 30.844202843475237 0.0 0.0
-1264.639853490982 -230.3549300718901 -746.0100983532676 33.5587246897638 0.0 0.0
-1192.243842803188 -188.83218403223532 -688.9458734941541 35.54155273521785 0.0 0.0
-1120.5008591814794 -150.5333168164932 -633.7608974147489 36.760569626669046 0.0 0.0
-1048.7329969336583 -114.85833784231806 -579.8055402201323 37.64109353863996 0.0 0.0
-975.8170937087446 -81.75674071495534 -526.4559370031886 38.28639164083722 0.0 0.0
-901.4331914918719 -50.95424123068028 -473.36335844522563 38.280773057644936 0.0 0.0
-826.1883808835211 -23.79724091456299 -421.369501282196 36.93602155333134 0.0 0.0
-751.7012099771899 -2.716081392557477 -371.6242750319714 34.18142477707164 0.0 0.0
-678.1080382553839 10.878827955431646 -320.85752967323924 31.334926255946133 0.0 0.0
-601.7675214662795 17.311670189771945 -257.8109467330044 30.753176330600184 0.0 0.0
-514.3837981726597 23.78814765594018 -177.44728345837785 38.74412330285095 0.0 0.0
-398.50858016416845 13.722040649550825 -117.00580773457602 55.83536884253482 0.0 0.0
-260.0650048692032 -1.356986201747668 -78.42659732128524 64.342078472813 0.0 0.0
-125.14567142728606 -4.732557357810746 -38.96346863552904 55.49245158870547 0.0 0.0
-29.466645318246847 -3.3544599111555806 -9.846331568820727 18.61162838925687 0.0 0.0
-22.35391571707968 2.971818426315086 -5.814629187229378 -3.017135112099317 0.0 0.0
-120.95864214134656 1.7854351169551705 -35.75196210731741 -22.46280863038574 0.0 0.0
-282.9041213647606 -2.333747605974615 -85.57136069122053 -26.43587824134276 0.0 0.0
-438.60527429733156 15.878639631609818 -131.64070159865577 -22.43482166954218 0.0 0.0
-546.9295528753462 21.378874238349354 -201.50802073464928 -13.147835587362696 0.0 0.0
-626.3167900005869 15.576165330336835 -278.9843982793453 -10.26565397186753 0.0 0.0
-697.9354207096518 10.514682456142566 -334.2103653564938 -10.876305119792757 0.0 0.0
-770.5597971316222 -3.1885154646803784 -382.37757954511704 -12.728852261427505 0.0 0.0
-846.390017644752 -25.710696292333324 -432.8850523128446 -14.544100083500293 0.0 0.0
-924.7994287442701 -55.57638762776401 -487.6161405820113 -15.694229624002318 0.0 0.0
-1003.6262571168692 -90.07047752997454 -544.6885355484837 -16.144427367806998 0.0 0.0
-1081.5118517830497 -127.90148976808985 -602.8465778168672 -16.10061702058934 0.0 0.0
-1158.9679671240456 -168.38716665983657 -662.0160384240107 -15.86719218172857 0.0 0.0
-1237.2930645177726 -212.5971329481203 -723.4124929147792 -15.343286618982498 0.0 0.0
-1317.2276946323418 -261.44933029670216 -787.8953059695496 -14.25229567855066 0.0 0.0
-1397.8308365763348 -314.4356849149933 -854.7475848323708 -12.297892317597537 0.0 0.0
-1477.0756751141644 -370.4889429344659 -922.3859736929231 -9.86022774266743 0.0 0.0
-1561.126454187953 -437.5140525460994 -997.7481921146169 -11.404151463024995 0.0 0.0
-1685.029774885301 -554.3221893375542 -1117.8169842123382 -27.347775780214423 0.0 0.0
-2002.176131267353 -884.2594312961293 -1441.850550068786 -60.56386482567367 0.0 0.0
-2002.1761312675796 -884.2594312963836 -1441.8505500689491 60.56386482572337 0.0 0.0
-1685.0297748855382 -554.3221893378422 -1117.8169842123355 27.347775780229732 0.0 0.0
-1561.1264541878272 -437.5140525460655 -997.7481921143984 11.404151463101158 0.0 0.0
-1477.0756751136773 -370.4889429340868 -922.3859736925442 9.860227742683911 0.0 0.0
-1397.8308365766618 -314.43568491545057 -854.7475848326377 12.297892317495789 0.0 0.0
-1317.227694632343 -261.4493302968614 -787.8953059696172 14.252295678619614 0.0 0.0
-1237.2930645167744 -212.59713294730494 -723.4124929141046 15.343286618930541 0.0 0.0
-1158.9679671246174 -168.38716666062433 -662.0160384243623 15.867192181879256 0.0 0.0
-1081.5118517816788 -127.90148976694383 -602.8465778159319 16.10061702056571 0.0 0.0
-1003.6262571154692 -90.07047752881847 -544.6885355475221 16.144427367928312 0.0 0.0
-924.7994287431737 -55.57638762695237 -487.61614058125815 15.694229623957543 0.0 0.0
-846.3900176448432 -25.710696292709358 -432.8850523129075 14.544100083496184 0.0 0.0
-770.5597971319804 -3.188515465361249 -382.3775795453338 12.728852261443844 0.0 0.0
-697.9354207096385 10.514682455829217 -334.2103653564898 10.876305119633038 0.0 0.0
-626.3167900001338 15.576165330458288 -278.98439827899176 10.26565397187168 0.0 0.0
-546.9295528746331 21.37887423881842 -201.50802073414323 13.14783558736035 0.0 0.0
-438.60527429711027 15.878639631429648 -131.6407015986117 22.434821669476165 0.0 0.0
-282.9041213644374 -2.3337476059581412 -85.57136069111866 26.435878241257363 0.0 0.0
-120.95864214116614 1.7854351168494862 -35.751962107295 22.462808630321693 0.0 0.0
-22.353915717085485 2.9718184262454965 -5.814629187251995 3.017135112188989 0.0 0.0
SCALARS Strain float 6
LOOKUP_TABLE default
0.012598145910321601 -0.013666659081858712 0.0 -0.007598943620397258 0.0 0.0
0.0025788228387834296 -0.0016934228002647433 0.0 0.0012766953012163795 0.0 0.0
0.001865073090056523 -0.0007651524220060324 0.0 -3.6489722759991405e-05 0.0 0.0
0.0024176084006815243 -0.0012040840241460682 0.0 -0.00023420328450224348 0.0 0.0
0.003908483803444978 -0.002436727121479576 0.0 -0.00030627041572606206 0.0 0.0
0.00697752302752128 -0.005204515939920551 0.0 -0.00048190348598653454 0.0 0.0
0.01198816861768049 -0.009947662762659792 0.0 -0.000784682383955071 0.0 0.0
0.019281344971854887 -0.016969770869077916 0.0 -0.0012576839603346546 0.0 0.0
0.029029701272583076 -0.02642067707760143 0.0 -0.0019185489058922145 0.0 0.0
0.041198104811241504 -0.03826376332786374 0.0 -0.002709687362968616 0.0 0.0
0.05561765829241099 -0.052341800889285306 0.0 -0.0035305128457459034 0.0 0.0
0.0720806303767777 -0.06845518139002582 0.0 -0.0043296084493876785 0.0 0.0
0.09037651564556204 -0.08639627520736681 0.0 -0.005113484996680073 0.0 0.0
0.11025907301049659 -0.10591452410679203 0.0 -0.005873048516503165 0.0 0.0
0.1313273359536402 -0.1266055103326149 0.0 -0.006568535781324991 0.0 0.0
0.1528917486529084 -0.14778357336680426 0.0 -0.0070581496820447676 0.0 0.0
0.17391950131893055 -0.168428792815698 0.0 -0.007099592239758479 0.0 0.0
0.19307455094758508 -0.18721821077611533 0.0 -0.006479482236887102 0.0 0.0
0.20876673681666222 -0.20256191678976965 0.0 -0.005558922035218683 0.0 0.0
0.21864242226776798 -0.21188813362264547 0.0 -0.006599485774433145 0.0 0.0
0.21864242226775366 -0.2118881336226357 0.0 0.006599485774442693 0.0 0.0
0.2087667368166161 -0.20256191678972257 0.0 0.005558922035242442 0.0 0.0
0.19307455094751028 -0.1872182107760345 0.0 0.006479482236902645 0.0 0.0
0.1739195013188344 -0.16842879281560785 0.0 0.007099592239762975 0.0 0.0
0.15289174865280464 -0.1477835733667079 0.0 0.007058149682035775 0.0 0.0
0.1313273359535339 -0.12660551033251366 0.0 0.006568535781323104 0.0 0.0
0.110259073010391 -0.105914524106689 0.0 0.0058730485165037205 0.0 0.0
0.09037651564545701 -0.08639627520726556 0.0 0.0051134849966810725 0.0 0.0
0.07208063037667745 -0.06845518138992857 0.0 0.00432960844938135 0.0 0.0
0.055617658292321626 -0.05234180088919915 0.0 0.0035305128457416846 0.0 0.0
0.04119810481116726 -0.03826376332779091 0.0 0.0027096873629568474 0.0 0.0
0.029029701272523967 -0.026420677077548138 0.0 0.0019185489058896055 0.0 0.0
0.01928134497181233 -0.016969770869037948 0.0 0.0012576839603299361 0.0 0.0
0.011988168617651895 -0.009947662762627818 0.0 0.0007846823839532946 0.0 0.0
0.0069775230275036515 -0.005204515939902121 0.0 0.0004819034859824822 0.0 0.0
0.003908483803437335 -0.0024367271214718045 0.0 0.00030627041572700575 0.0 0.0
0.002417608400679394 -0.001204084024144847 0.0 0.00023420328450196592 0.0 0.0
0.001865073090056124 -0.0007651524220051442 0.0 3.648972276054652e-05 0.0 0.0
0.002578822838781636 -0.0016934228002621343 0.0 -0.0012766953012144366 0.0 0.0
0.012598145910310499 -0.013666659081844494 0.0 0.0075989436203590666 0.0 0.0
0.00901129080472203 -0.010458234520311083 0.0 -0.009234547607045174 0.0 0.0
0.0013861820889913903 -0.0008492894991931621 0.0 0.00012443028604081086 0.0 0.0
0.0015898798467659028 -0.0005601366443872546 0.0 -0.00012635791827758647 0.0 0.0
0.0021085481812099793 -0.000995074443444599 0.0 -0.000495981962112757 0.0 0.0
0.0033005612415542285 -0.0019301501041244506 0.0 -0.0006805675812062151 0.0 0.0
0.0059340815136038755 -0.004249436659261363 0.0 -0.0011100949127734183 0.0 0.0
0.01040742820537894 -0.008433835856587413 0.0 -0.001869190082306127 0.0 0.0
0.01700567433393438 -0.014754293830874232 0.0 -0.0029862255485478273 0.0 0.0
0.025839320113806373 -0.023297490046870983 0.0 -0.004467095706951252 0.0 0.0
0.03682396098796471 -0.033974099128847524 0.0 -0.006176222802688425 0.0 0.0
0.049775927836786346 -0.04660947585143571 0.0 -0.007922355793474611 0.0 0.0
0.06451821020104323 -0.061031330072977674 0.0 -0.00959694333525607 0.0 0.0
0.08090328398970076 -0.0770903185147973 0.0 -0.011255689340635366 0.0 0.0
0.09873601624227805 -0.09458914463260903 0.0 -0.012905146096765685 0.0 0.0
0.11767379403576433 -0.11318421298165138 0.0 -0.014423535175164315 0.0 0.0
0.13713372595443118 -0.13229467068104972 0.0 -0.015530883745978108 0.0 0.0
0.1562256296137866 -0.15103518055775123 0.0 -0.015766609997504566 0.0 0.0
0.17372289734443316 -0.16818058417845805 0.0 -0.014813714055633254 0.0 0.0
0.18792620763231632 -0.1819889487747801 0.0 -0.012984368771745025 0.0 0.0
0.19649505444285462 -0.19025482869384813 0.0 -0.010091586385732598 0.0 0.0
0.1964950544428408 -0.19025482869383215 0.0 0.010091586385755802 0.0 0.0
0.18792620763227433 -0.18198894877474459 0.0 0.012984368771790877 0.0 0.0
0.17372289734436663 -0.16818058417839454 0.0 0.014813714055665672 0.0 0.0
0.15622562961370373 -0.15103518055767262 0.0 0.015766609997516334 0.0 0.0
0.13713372595433893 -0.132294670680964 0.0 0.015530883745970447 0.0 0.0
0.11767379403566891 -0.11318421298156434 0.0 0.014423535175158708 0.0 0.0
0.09873601624218253 -0.09458914463251933 0.0 0.012905146096763742 0.0 0.0
0.08090328398960756 -0.07709031851470538 0.0 0.011255689340630592 0.0 0.0
0.06451821020095366 -0.0610313300728893 0.0 0.009596943335243524 0.0 0.0
0.04977592783670559 -0.046609475851357995 0.0 0.007922355793464009 0.0 0.0
0.03682396098789814 -0.03397409912878224 0.0 0.006176222802672271 0.0 0.0
0.025839320113752895 -0.023297490046815472 0.0 0.004467095706943591 0.0 0.0
0.01700567433389616 -0.014754293830832266 0.0 0.002986225548539223 0.0 0.0
0.010407428205353175 -0.008433835856563876 0.0 0.0018691900823006313 0.0 0.0
0.005934081513589262 -0.004249436659247818 0.0 0.001110094912769255 0.0 0.0
0.0033005612415484276 -0.0019301501041180114 0.0 0.0006805675812069922 0.0 0.0
0.002108548181208203 -0.0009950744434435999 0.0 0.0004959819621117578 0.0 0.0
0.0015898798467659514 -0.0005601366443880318 0.0 0.0001263579182771979 0.0 0.0
0.0013861820889912169 -0.0008492894991920519 0.0 -0.00012443028604264272 0.0 0.0
0.00901129080470825 -0.010458234520295841 0.0 0.009234547607016697 0.0 0.0
0.00670758393107844 -0.008329282312041275 0.0 -0.008582496687542518 0.0 0.0
0.0008113000810656412 -0.0005578614078418642 0.0 -0.0005936249197084353 0.0 0.0
0.001272454481880167 -0.0004097502086859439 0.0 -0.0004412733987819162 0.0 0.0
0.0018170561195640852 -0.0008045749229685928 0.0 -0.0007406526798113822 0.0 0.0
0.002759557947711197 -0.0015064232573891445 0.0 -0.0009970129529754401 0.0 0.0
0.004933789665488769 -0.0033565302451448176 0.0 -0.001573083983241741 0.0 0.0
0.008840037194901257 -0.0069459858856493195 0.0 -0.0026703859006557695 0.0 0.0
0.014703659913343152 -0.012526497872471953 0.0 -0.004310379506451967 0.0 0.0
0.02258639934372577 -0.02012431349674948 0.0 -0.0064346580776245554 0.0 0.0
0.0323637180868994 -0.02961189660513286 0.0 -0.008849664555804493 0.0 0.0
0.04384253876503959 -0.040798867309793874 0.0 -0.011315176096655277 0.0 0.0
0.056866577983044134 -0.053529777121582356 0.0 -0.01369215831250209 0.0 0.0
0.0713267521828785 -0.06769320261478651 0.0 -0.016025304013681463 0.0 0.0
0.08708729182050713 -0.08315165287304849 0.0 -0.01835948217035599 0.0 0.0
0.10388297340648595 -0.099640353540984 0.0 -0.02054687952583295 0.0 0.0
0.12124541661566175 -0.11669005709725244 0.0 -0.022186344801845503 0.0 0.0
0.1384271378072149 -0.1335499371501303 0.0 -0.022722183674406704 0.0 0.0
0.15428851132688148 -0.1490666291629239 0.0 -0.021699413876738904 0.0 0.0
0.16717542189829054 -0.16161645758243104 0.0 -0.01863121599229156 0.0 0.0
0.17520197836445656 -0.16939799117666343 0.0 -0.01254754414311976 0.0 0.0
0.17520197836444396 -0.16939799117664922 0.0 0.01254754414315995 0.0 0.0
0.16717542189825269 -0.1616164575823955 0.0 0.018631215992352956 0.0 0.0
0.15428851132682223 -0.1490666291628644 0.0 0.02169941387678076 0.0 0.0
0.13842713780714352 -0.1335499371500597 0.0 0.022722183674423913 0.0 0.0
0.12124541661558033 -0.11669005709717162 0.0 0.022186344801835345 0.0 0.0
0.10388297340640165 -0.09964035354089473 0.0 0.020546879525827233 0.0 0.0
0.0870872918204223 -0.08315165287296011 0.0 0.01835948217035399 0.0 0.0
0.07132675218279622 -0.06769320261470257 0.0 0.016025304013674302 0.0 0.0
0.05686657798296563 -0.05352977712149931 0.0 0.013692158312483826 0.0 0.0
0.043842538764968464 -0.04079886730972415 0.0 0.011315176096638346 0.0 0.0
0.03236371808684019 -0.029611896605076016 0.0 0.008849664555786174 0.0 0.0
0.022586399343678343 -0.020124313496701962 0.0 0.006434658077617672 0.0 0.0
0.014703659913308909 -0.012526497872438203 0.0 0.004310379506442696 0.0 0.0
0.008840037194878858 -0.0069459858856295575 0.0 0.0026703859006490527 0.0 0.0
0.004933789665477029 -0.0033565302451341594 0.0 0.0015730839832389099 0.0 0.0
0.0027595579477067145 -0.00150642325738648 0.0 0.000997012952974663 0.0 0.0
0.0018170561195628432 -0.0008045749229691479 0.0 0.0007406526798110491 0.0 0.0
0.0012724544818804029 -0.00040975020868516676 0.0 0.0004412733987830819 0.0 0.0
0.0008113000810657245 -0.0005578614078405875 0.0 0.0005936249197061039 0.0 0.0
0.006707583931065242 -0.008329282312026818 0.0 0.008582496687518149 0.0 0.0
0.005086656413386417 -0.0067215020338528 0.0 -0.00730556087283446 0.0 0.0
0.000507259455626588 -0.0004150408452401333 0.0 -0.0011969608803092946 0.0 0.0
0.0009858755592691976 -0.0002995536077657901 0.0 -0.0008654833131525042 0.0 0.0
0.0015358682805008406 -0.000640792814494251 0.0 -0.001012691401224175 0.0 0.0
0.002282628525034733 -0.0011647526794893448 0.0 -0.0012818043816954505 0.0 0.0
0.004011757013215933 -0.002565243067385925 0.0 -0.0018992743898600395 0.0 0.0
0.007300744887954763 -0.005514200814314307 0.0 -0.0031987323439469084 0.0 0.0
0.012402991085007906 -0.010313906437229292 0.0 -0.005224426081387956 0.0 0.0
0.019303805096145807 -0.016937256210516338 0.0 -0.007812419743164878 0.0 0.0
0.02785442151049866 -0.02521555521648855 0.0 -0.010734617754560694 0.0 0.0
0.03785188206677938 -0.03494488314679112 0.0 -0.013710016587796137 0.0 0.0
0.04915421777005555 -0.04598072651732288 0.0 -0.016597823768894293 0.0 0.0
0.061686195154577475 -0.058245702934870636 0.0 -0.01944717014437386 0.0 0.0
0.07536218720275817 -0.0716511922246359 0.0 -0.02225926108568488 0.0 0.0
0.08999568589606738 -0.08601363456145394 0.0 -0.024896449981613167 0.0 0.0
0.10524064425894364 -0.10098333699317541 0.0 -0.02698927044520477 0.0 0.0
0.12049314748579915 -0.1159437878584999 0.0 -0.027909378932510664 0.0 0.0
0.13475477164501032 -0.12989444932691008 0.0 -0.026896537669416354 0.0 0.0
0.1465900531257823 -0.14143063271119516 0.0 -0.022880982160845775 0.0 0.0
0.15439520209337473 -0.14901497497796168 0.0 -0.014545560874055563 0.0 0.0
0.15439520209336313 -0.1490149749779457 0.0 0.014545560874107633 0.0 0.0
0.14659005312574838 -0.14143063271115608 0.0 0.022880982160915497 0.0 0.0
0.1347547716449577 -0.12989444932685945 0.0 0.026896537669466314 0.0 0.0
0.12049314748573756 -0.11594378785844084 0.0 0.02790937893253098 0.0 0.0
0.1052406442588733 -0.10098333699310436 0.0 0.026989270445193725 0.0 0.0
0.08999568589599372 -0.08601363456137712 0.0 0.02489644998160445 0.0 0.0
0.07536218720268453 -0.07165119222456129 0.0 0.02225926108567655 0.0 0.0
0.06168619515450574 -0.058245702934800914 0.0 0.01944717014436237 0.0 0.0
0.04915421776998807 -0.04598072651725893 0.0 0.016597823768873532 0.0 0.0
0.03785188206671847 -0.03494488314672983 0.0 0.013710016587774265 0.0 0.0
0.027854421510446592 -0.025215555216440144 0.0 0.010734617754535991 0.0 0.0
0.019303805096105187 -0.016937256210480367 0.0 0.007812419743149279 0.0 0.0
0.012402991084977888 -0.010313906437206644 0.0 0.005224426081373357 0.0 0.0
0.007300744887935973 -0.005514200814299652 0.0 0.0031987323439385262 0.0 0.0
0.004011757013206496 -0.002565243067375711 0.0 0.0018992743898559872 0.0 0.0
0.002282628525031416 -0.0011647526794864582 0.0 0.0012818043816943958 0.0 0.0
0.001535868280500563 -0.000640792814494695 0.0 0.0010126914012228427 0.0 0.0
0.000985875559269156 -0.0002995536077669003 0.0 0.0008654833131501727 0.0 0.0
0.0005072594556264076 -0.0004150408452392451 0.0 0.0011969608803047427 0.0 0.0
0.005086656413374857 -0.00672150203384011 0.0 0.0073055608728140875 0.0 0.0
0.003846998919944708 -0.005409722396937655 0.0 -0.005990544387741326 0.0 0.0
0.00033834520021830405 -0.0003347009909947518 0.0 -0.0016669715160573806 0.0 0.0
0.0007471935882224917 -0.00022102157984160709 0.0 -0.0012932921360032101 0.0 0.0
0.0012641865094711185 -0.000501794313654047 0.0 -0.001315004148091714 0.0 0.0
0.0018627524043927368 -0.000894293457070372 0.0 -0.0015492299681017507 0.0 0.0
0.003185036579263542 -0.0018964084450334706 0.0 -0.0021494697757495906 0.0 0.0
0.005832790298235496 -0.00418131925027021 0.0 -0.003476310889193812 0.0 0.0
0.010124885341833784 -0.008147439753312558 0.0 -0.005688002796239544 0.0 0.0
0.016024095378023157 -0.013770467468356529 0.0 -0.008593564185684022 0.0 0.0
0.023330950484357113 -0.020821980587248934 0.0 -0.011827694906586361 0.0 0.0
0.03183939518508064 -0.029084635943106285 0.0 -0.01511640733904046 0.0 0.0
0.041416020314189686 -0.0384217381308436 0.0 -0.018312731106130298 0.0 0.0
0.05201587109146519 -0.04878398903441861 0.0 -0.021468604694907023 0.0 0.0
0.06360315721387108 -0.06013336021986948 0.0 -0.02459803439637559 0.0 0.0
0.07606100943544884 -0.07235416154365693 0.0 -0.027524103776738806 0.0 0.0
0.08914605038975101 -0.08520012799251875 0.0 -0.029899168214718552 0.0 0.0
0.10241678453653841 -0.09821985437715952 0.0 -0.031168384662187187 0.0 0.0
0.11511104515293841 -0.11064305136765817 0.0 -0.03036062754605917 0.0 0.0
0.1260587192117516 -0.12132147790909631 0.0 -0.025925514986501197 0.0 0.0
0.1338491687079321 -0.12889731736666565 0.0 -0.01622981360682252 0.0 0.0
0.1338491687079212 -0.12889731736665944 0.0 0.01622981360687603 0.0 0.0
0.12605871921172185 -0.12132147790906966 0.0 0.025925514986571918 0.0 0.0
0.11511104515289308 -0.11064305136761998 0.0 0.030360627546112906 0.0 0.0
0.10241678453648562 -0.09821985437711112 0.0 0.031168384662212834 0.0 0.0
0.08914605038969167 -0.0852001279924588 0.0 0.029899168214711502 0.0 0.0
0.07606100943538499 -0.07235416154358854 0.0 0.027524103776730535 0.0 0.0
0.06360315721380916 -0.06013336021980198 0.0 0.024598034396365098 0.0 0.0
0.052015871091404015 -0.048783989034355546 0.0 0.0214686046948942 0.0 0.0
0.04141602031413355 -0.03842173813078498 0.0 0.018312731106109648 0.0 0.0
0.03183939518502915 -0.029084635943058323 0.0 0.015116407339016869 0.0 0.0
0.023330950484312996 -0.02082198058721252 0.0 0.011827694906559771 0.0 0.0
0.0160240953779886 -0.01377046746832411 0.0 0.008593564185666591 0.0 0.0
0.010124885341808942 -0.008147439753287689 0.0 0.0056880027962242785 0.0 0.0
0.005832790298220092 -0.0041813192502571095 0.0 0.0034763108891828765 0.0 0.0
0.0031850365792566726 -0.0018964084450288077 0.0 0.002149469775745705 0.0 0.0
0.0018627524043907662 -0.0008942934570708161 0.0 0.001549229968100807 0.0 0.0
0.0012641865094707438 -0.0005017943136553793 0.0 0.00131500414809127 0.0 0.0
0.000747193588222228 -0.00022102157984238424 0.0 0.001293292135999713 0.0 0.0
0.000338345200218082 -0.0003347009909936416 0.0 0.0016669715160553822 0.0 0.0
0.003846998919935174 -0.0054097223969269605 0.0 0.005990544387726948 0.0 0.0
0.0028668260165469195 -0.004309695362764765 0.0 -0.004834980816179335 0.0 0.0
0.00023632386762149904 -0.0002814077578561225 0.0 -0.002017785832537533 0.0 0.0
0.0005479433228132297 -0.00016174348033726194 0.0 -0.0016696650083072306 0.0 0.0
0.0009988357477140886 -0.00037946315295567246 0.0 -0.0016209206510848784 0.0 0.0
0.0014900226970305797 -0.0006793174311698902 0.0 -0.0018111025477683396 0.0 0.0
0.002450719352371525 -0.001355304570760607 0.0 -0.0023533692364910985 0.0 0.0
0.004479888999255707 -0.0030039078547741127 0.0 -0.0036116748219620076 0.0 0.0
0.00791489765719701 -0.006088276497744349 0.0 -0.005778242697349889 0.0 0.0
0.012776050260086963 -0.010660052635770079 0.0 -0.008749762706533493 0.0 0.0
0.018828136973647616 -0.01646927814427368 0.0 -0.012117357625869574 0.0 0.0
0.025839568219120007 -0.023257423329773985 0.0 -0.01551785963282254 0.0 0.0
0.033689251980245596 -0.030893124768574864 0.0 -0.018826679104207267 0.0 0.0
0.04235589493644666 -0.03935203745126392 0.0 -0.022097209349346003 0.0 0.0
0.05184817399359515 -0.04863923259319325 0.0 -0.025329188567915162 0.0 0.0
0.062118560236598855 -0.05870438334907435 0.0 -0.02837325659266643 0.0 0.0
0.07300508236412986 -0.06938855094980712 0.0 -0.030909841182035103 0.0 0.0
0.08422317123554596 -0.08040213023987519 0.0 -0.03242419115346862 0.0 0.0
0.09531089443371932 -0.09126713624605909 0.0 -0.03197844938712846 0.0 0.0
0.10543863110270085 -0.101154090733794 0.0 -0.027750688760815656 0.0 0.0
0.11336234581172552 -0.10885677050053921 0.0 -0.01764103860201227 0.0 0.0
0.11336234581171578 -0.10885677050052767 0.0 0.017641038602068893 0.0 0.0
0.10543863110267587 -0.10115409073376735 0.0 0.02775068876088982 0.0 0.0
0.09531089443368124 -0.09126713624602267 0.0 0.031978449387184416 0.0 0.0
0.08422317123550171 -0.08040213023983833 0.0 0.0324241911534936 0.0 0.0
0.07300508236408093 -0.06938855094975693 0.0 0.030909841182024667 0.0 0.0
0.0621185602365453 -0.05870438334902328 0.0 0.028373256592654883 0.0 0.0
0.0518481739935448 -0.04863923259314529 0.0 0.02532918856790345 0.0 0.0
0.042355894936397326 -0.03935203745121507 0.0 0.022097209349335234 0.0 0.0
0.033689251980200285 -0.030893124768529123 0.0 0.01882667910418878 0.0 0.0
0.025839568219077652 -0.023257423329730464 0.0 0.01551785963280139 0.0 0.0
0.018828136973611437 -0.01646927814424215 0.0 0.012117357625841207 0.0 0.0
0.012776050260058763 -0.01066005263574965 0.0 0.008749762706514952 0.0 0.0
0.007914897657177344 -0.00608827649772814 0.0 0.005778242697336122 0.0 0.0
0.004479888999244008 -0.0030039078547632325 0.0 0.0036116748219535144 0.0 0.0
0.002450719352366848 -0.001355304570755056 0.0 0.002353369236486713 0.0 0.0
0.0014900226970295527 -0.0006793174311685579 0.0 0.0018111025477663967 0.0 0.0
0.0009988357477133114 -0.00037946315295367405 0.0 0.0016209206510829355 0.0 0.0
0.0005479433228132158 -0.00016174348033692887 0.0 0.001669665008304566 0.0 0.0
0.00023632386762104107 -0.00028140775785451266 0.0 0.00201778583253609 0.0 0.0
0.0028668260165396475 -0.004309695362755895 0.0 0.0048349808161667895 0.0 0.0
0.0020863849256331918 -0.003379466174951551 0.0 -0.003875757306534555 0.0 0.0
0.00016579292535141843 -0.00024215954319295463 0.0 -0.0022645433133466897 0.0 0.0
0.00037413347492953886 -0.0001114153527730366 0.0 -0.001972180784870714 0.0 0.0
0.0007377676933201238 -0.0002640062501597651 0.0 -0.0019040989976786271 0.0 0.0
0.0011449228132513478 -0.000500669006002763 0.0 -0.0020715928634440495 0.0 0.0
0.001809947587029126 -0.0009287510340929561 0.0 -0.0025145385709086643 0.0 0.0
0.003253247671868187 -0.002005479922676301 0.0 -0.003603919653092924 0.0 0.0
0.0058344374733066 -0.004207062108584569 0.0 -0.005570098397737144 0.0 0.0
0.00960882394861598 -0.007673427874265837 0.0 -0.00833076427685503 0.0 0.0
0.014379176387727455 -0.012200600859642918 0.0 -0.011570766195345195 0.0 0.0
0.019886033808794237 -0.01750436729819116 0.0 -0.014900732344525602 0.0 0.0
0.02601099977125218 -0.0234393024991002 0.0 -0.01812616777606113 0.0 0.0
0.03274681527348536 -0.029997104969417876 0.0 -0.021299654128275503 0.0 0.0
0.0401399391488686 -0.03721869470660755 0.0 -0.024450109244652296 0.0 0.0
0.04820571127598253 -0.04511364906071913 0.0 -0.027434355780338926 0.0 0.0
0.056864966354506746 -0.053600454676221876 0.0 -0.02993780210998309 0.0 0.0
0.06595204524402656 -0.06253046207458723 0.0 -0.03158241662130035 0.0 0.0
0.075313706152949 -0.0717308013477993 0.0 -0.031648269125983175 0.0 0.0
0.08456974298943687 -0.08078283583414958 0.0 -0.02825880364878053 0.0 0.0
0.09272043466790275 -0.08869508214872468 0.0 -0.018763627282720408 0.0 0.0
0.09272043466789526 -0.08869508214872202 0.0 0.0187636272827737 0.0 0.0
0.08456974298941694 -0.08078283583413093 0.0 0.02825880364885347 0.0 0.0
0.07531370615291821 -0.07173080134777177 0.0 0.03164826912604091 0.0 0.0
0.0659520452439907 -0.06253046207455215 0.0 0.03158241662132566 0.0 0.0
0.056864966354468055 -0.053600454676182796 0.0 0.029937802109974876 0.0 0.0
0.04820571127594023 -0.045113649060672056 0.0 0.027434355780324604 0.0 0.0
0.040139939148829656 -0.03721869470656802 0.0 0.02445010924464175 0.0 0.0
0.032746815273448304 -0.02999710496938368 0.0 0.02129965412826318 0.0 0.0
0.026010999771217125 -0.023439302499066006 0.0 0.01812616777604048 0.0 0.0
0.019886033808761416 -0.01750436729815874 0.0 0.014900732344502177 0.0 0.0
0.014379176387699422 -0.012200600859616717 0.0 0.011570766195317272 0.0 0.0
0.00960882394859447 -0.007673427874241412 0.0 0.008330764276838654 0.0 0.0
0.005834437473292181 -0.004207062108571025 0.0 0.005570098397724266 0.0 0.0
0.0032532476718597214 -0.0020054799226689735 0.0 0.003603919653084875 0.0 0.0
0.0018099475870261839 -0.0009287510340931782 0.0 0.0025145385709021695 0.0 0.0
0.0011449228132507372 -0.0005006690060036512 0.0 0.002071592863440108 0.0 0.0
0.0007377676933193744 -0.0002640062501612084 0.0 0.0019040989976754075 0.0 0.0
0.00037413347492953886 -0.00011141535277348069 0.0 0.0019721807848682715 0.0 0.0
0.00016579292535109924 -0.00024215954319251054 0.0 0.002264543313343914 0.0 0.0
0.00208638492562771 -0.0033794661749449433 0.0 0.0038757573065263395 0.0 0.0
0.001476240503856946 -0.002608026947310438 0.0 -0.0031167558515172167 0.0 0.0
0.00010263347225492048 -0.00020911568574821793 0.0 -0.0024107943615825356 0.0 0.0
0.00021393858475038385 -6.207120838230828e-05 0.0 -0.0022002253714555886 0.0 0.0
0.00048165798770433144 -0.0001503438938124102 0.0 -0.0021405329888236624 0.0 0.0
0.0008054131039848256 -0.00033786814329372916 0.0 -0.0023125580634614784 0.0 0.0
0.0012513555671241905 -0.0006038119141553722 0.0 -0.0026890555330791877 0.0 0.0
0.0021671121077975197 -0.0012098415640158233 0.0 -0.0035238075589398288 0.0 0.0
0.003919081303128236 -0.002568628745821311 0.0 -0.005110305222192746 0.0 0.0
0.006590311149325401 -0.00490246989982035 0.0 -0.007432193388526076 0.0 0.0
0.01003377983480791 -0.008092742849910461 0.0 -0.010238913767910085 0.0 0.0
0.014017000086086168 -0.011881957225194029 0.0 -0.013221683253749394 0.0 0.0
0.018416524403668505 -0.016114084276940943 0.0 -0.016161067861288236 0.0 0.0
0.023228569073735522 -0.02077593297342384 0.0 -0.019054148492537504 0.0 0.0
0.028519060218022224 -0.025928723206212645 0.0 -0.02191407823046676 0.0 0.0
0.03436194622432753 -0.031637214513212886 0.0 -0.02466177541662773 0.0 0.0
0.04076875166768107 -0.03790394508893957 0.0 -0.027007270285281826 0.0 0.0
0.047669041579983445 -0.04467488037670275 0.0 -0.028562679441069716 0.0 0.0
0.055109363783377247 -0.05202596264600423 0.0 -0.029066970296420358 0.0 0.0
0.06327558131292635 -0.06005816987148638 0.0 -0.02714663066790901 0.0 0.0
0.07166668316527045 -0.06818835439858173 0.0 -0.019516257366990142 0.0 0.0
0.071666683165266 -0.06818835439857462 0.0 0.019516257367035994 0.0 0.0
0.06327558131291247 -0.0600581698714695 0.0 0.027146630667976512 0.0 0.0
0.055109363783353654 -0.05202596264598469 0.0 0.029066970296471872 0.0 0.0
0.0476690415799563 -0.04467488037667744 0.0 0.028562679441088257 0.0 0.0
0.04076875166765265 -0.0379039450889147 0.0 0.027007270285271057 0.0 0.0
0.034361946224297196 -0.03163721451318313 0.0 0.024661775416610077 0.0 0.0
0.02851906021799494 -0.02592872320618378 0.0 0.02191407823045688 0.0 0.0
0.02322856907371093 -0.02077593297339453 0.0 0.019054148492532175 0.0 0.0
0.018416524403643636 -0.016114084276916962 0.0 0.016161067861273026 0.0 0.0
0.014017000086063436 -0.011881957225174489 0.0 0.013221683253727856 0.0 0.0
0.010033779834788259 -0.00809274284989403 0.0 0.010238913767885216 0.0 0.0
0.006590311149310607 -0.004902469899807471 0.0 0.007432193388511421 0.0 0.0
0.003919081303118771 -0.002568628745811319 0.0 0.005110305222183031 0.0 0.0
0.0021671121077921074 -0.0012098415640109383 0.0 0.0035238075589336115 0.0 0.0
0.0012513555671225252 -0.0006038119141527076 0.0 0.0026890555330748023 0.0 0.0
0.0008054131039843537 -0.00033786814329417325 0.0 0.002312558063459813 0.0 0.0
0.0004816579877040261 -0.0001503438938134094 0.0 0.002140532988822441 0.0 0.0
0.00021393858474988425 -6.207120838130908e-05 0.0 0.002200225371453257 0.0 0.0
0.00010263347225467068 -0.0002091156857470522 0.0 0.002410794361580204 0.0 0.0
0.001476240503852977 -0.0026080269473057333 0.0 0.0031167558515096117 0.0 0.0
0.0010221925218977523 -0.0019984041450384904 0.0 -0.002553679025183997 0.0 0.0
3.112835040258721e-05 -0.0001801159397617491 0.0 -0.0024826996064059026 0.0 0.0
5.9715503397062e-05 -7.509722255161222e-06 0.0 -0.002357589358369161 0.0 0.0
0.0002321559021808972 -3.9238432642862975e-05 0.0 -0.002321009100107241 0.0 0.0
0.0004589566176326221 -0.0001738425258415166 0.0 -0.0025044029415862146 0.0 0.0
0.0007379083905220962 -0.00034134730775470246 0.0 -0.002875302787371914 0.0 0.0
0.0012307721650679504 -0.0006217084261264105 0.0 -0.0034645943465263507 0.0 0.0
0.0022001849631902437 -0.0012528869644636842 0.0 -0.004511375394594508 0.0 0.0
0.0037788398443310556 -0.0024707644227599523 0.0 -0.0061428094768465336 0.0 0.0
0.005860227895443659 -0.004278072396414867 0.0 -0.008223268794457783 0.0 0.0
0.008286171156952182 -0.006503772152541831 0.0 -0.010555252506098123 0.0 0.0
0.010941381601767858 -0.009008854542701172 0.0 -0.012957417496959223 0.0 0.0
0.013832907003608008 -0.011773805765707301 0.0 -0.015391902919527745 0.0 0.0
0.017025216213977235 -0.014859420692587832 0.0 -0.017806799469475276 0.0 0.0
0.020620502929643347 -0.01835950954016674 0.0 -0.020160511782313928 0.0 0.0
0.024732682757028557 -0.02237280515209461 0.0 -0.022282579607944553 0.0 0.0
0.029429009328317907 -0.02695465715327572 0.0 -0.02375127563554258 0.0 0.0
0.03480872138158311 -0.0322645426682584 0.0 -0.0243335571870551 0.0 0.0
0.041414197597335 -0.03887707333785606 0.0 -0.023924212997644134 0.0 0.0
0.04983857648176657 -0.047044928107301764 0.0 -0.01962218514163816 0.0 0.0
0.049838576481764846 -0.0470449281072991 0.0 0.019622185141683346 0.0 0.0
0.04141419759732687 -0.038877073337843626 0.0 0.023924212997706418 0.0 0.0
0.03480872138156685 -0.032264542668236196 0.0 0.024333557187098065 0.0 0.0
0.02942900932830006 -0.02695465715325307 0.0 0.023751275635554903 0.0 0.0
0.024732682757011404 -0.02237280515207596 0.0 0.022282579607931896 0.0 0.0
0.020620502929625723 -0.018359509540148977 0.0 0.020160511782300272 0.0 0.0
0.017025216213962052 -0.01485942069257673 0.0 0.017806799469467394 0.0 0.0
0.01383290700359524 -0.011773805765697087 0.0 0.015391902919519973 0.0 0.0
0.010941381601754036 -0.009008854542688738 0.0 0.012957417496944346 0.0 0.0
0.00828617115693947 -0.00650377215252762 0.0 0.010555252506079027 0.0 0.0
0.005860227895432252 -0.004278072396405541 0.0 0.008223268794438465 0.0 0.0
0.0037788398443231452 -0.002470764422754179 0.0 0.0061428094768359864 0.0 0.0
0.0022001849631854142 -0.0012528869644601315 0.0 0.004511375394588735 0.0 0.0
0.0012307721650652304 -0.0006217084261261885 0.0 0.0034645943465217433 0.0 0.0
0.0007379083905212913 -0.0003413473077580331 0.0 0.0028753027873690273 0.0 0.0
0.0004589566176324833 -0.00017384252584173865 0.0 0.002504402941582884 0.0 0.0
0.00023215590218061966 -3.923843264130866e-05 0.0 0.0023210091001049094 0.0 0.0
5.971550339683995e-05 -7.5097222546061104e-06 0.0 0.00235758935836633 0.0 0.0
3.112835040208761e-05 -0.0001801159397616381 0.0 0.0024826996064039597 0.0 0.0
0.0010221925218953654 -0.001998404145035137 0.0 0.002553679025179445 0.0 0.0
0.0006985934572610875 -0.001532756896503451 0.0 -0.0021517357445980934 0.0 0.0
-4.9657740165520714e-05 -0.00015657245336431203 0.0 -0.002511891841771474 0.0 0.0
-9.217596853547394e-05 5.409320852234334e-05 0.0 -0.002455518292539205 0.0 0.0
-1.063815531449075e-05 6.890277812909851e-05 0.0 -0.002443230134114238 0.0 0.0
0.00010828813917876379 -6.190251952808978e-06 0.0 -0.0026204345233847848 0.0 0.0
0.00023050926489268098 -9.398242347091745e-05 0.0 -0.0030136543092403323 0.0 0.0
0.000395101340084858 -0.00018976700623740683 0.0 -0.0035409188492928068 0.0 0.0
0.0006956075721662458 -0.0003439618952221224 0.0 -0.004126283726361979 0.0 0.0
0.001215722520790441 -0.0006318508983063076 0.0 -0.004909197172320079 0.0 0.0
0.0019126621891408513 -0.0010878642370140135 0.0 -0.006057693983156254 0.0 0.0
0.0027299081878418008 -0.0016957893097706567 0.0 -0.00759602658818781 0.0 0.0
0.0036085891577067875 -0.0024278309190681746 0.0 -0.009391422653013626 0.0 0.0
0.004561088925761209 -0.0032734518896928577 0.0 -0.011361808822980768 0.0 0.0
0.005639482015960151 -0.004272827056309492 0.0 -0.013473346213489723 0.0 0.0
0.006961004048768066 -0.005529601899380232 0.0 -0.015691915822499958 0.0 0.0
0.00872834065570438 -0.007227365273446029 0.0 -0.017858046828517216 0.0 0.0
0.011203677502915566 -0.009602423327217835 0.0 -0.01953207905458665 0.0 0.0
0.014593082608392899 -0.012851112041815327 0.0 -0.020060682845312483 0.0 0.0
0.019249450878072477 -0.017526851749779304 0.0 -0.019769018126924665 0.0 0.0
0.026787544140098263 -0.025077446573998685 0.0 -0.019009432217882427 0.0 0.0
0.0267875441400989 -0.025077446574002238 0.0 0.019009432217916067 0.0 0.0
0.019249450878068952 -0.01752685174977575 0.0 0.019769018126975846 0.0 0.0
0.014593082608385072 -0.012851112041806445 0.0 0.020060682845339795 0.0 0.0
0.0112036775029081 -0.009602423327208065 0.0 0.019532079054588758 0.0 0.0
0.008728340655700106 -0.007227365273441588 0.0 0.017858046828503782 0.0 0.0
0.006961004048763264 -0.00552960189937135 0.0 0.015691915822486413 0.0 0.0
0.005639482015956848 -0.004272827056307715 0.0 0.013473346213479842 0.0 0.0
0.004561088925759738 -0.0032734518896919695 0.0 0.011361808822976216 0.0 0.0
0.003608589157705261 -0.002427830919064178 0.0 0.009391422653003967 0.0 0.0
0.0027299081878391918 -0.001695789309762219 0.0 0.007596026588175819 0.0 0.0
0.0019126621891382978 -0.0010878642370100167 0.0 0.006057693983145485 0.0 0.0
0.0012157225207888034 -0.0006318508983049753 0.0 0.004909197172314528 0.0 0.0
0.0006956075721653299 -0.00034396189522190035 0.0 0.004126283726359814 0.0 0.0
0.0003951013400843584 -0.00018976700623585252 0.0 0.0035409188492893096 0.0 0.0
0.0002305092648923479 -9.398242347047336e-05 0.0 0.003013654309236946 0.0 0.0
0.00010828813917893032 -6.190251951254666e-06 0.0 0.0026204345233819537 0.0 0.0
-1.0638155314435238e-05 6.890277813065282e-05 0.0 0.0024432301341132945 0.0 0.0
-9.217596853572374e-05 5.409320852300947e-05 0.0 0.0024555182925377617 0.0 0.0
-4.96577401659648e-05 -0.00015657245336292425 0.0 0.0025118918417710856 0.0 0.0
0.0006985934572598662 -0.0015327568965009773 0.0 0.0021517357445963725 0.0 0.0
0.0004722076004552711 -0.0011955355333735374 0.0 -0.0018984513221145805 0.0 0.0
-0.00013027452257718952 -0.0001321643717080434 0.0 -0.0025112568588011586 0.0 0.0
-0.000241419853567848 0.00011800718060517301 0.0 -0.002499043801031109 0.0 0.0
-0.0002468693527018784 0.0001742141550866716 0.0 -0.0024989599068129253 0.0 0.0
-0.00023929513589812657 0.000160582105607876 0.0 -0.002658553243811146 0.0 0.0
-0.0002812968205011257 0.000154870527112827 0.0 -0.003032542990837106 0.0 0.0
-0.00041345155892968943 0.00020614210961711343 0.0 -0.003551152308969796 0.0 0.0
-0.0007015088337846143 0.0003484646739635444 0.0 -0.004133602851715101 0.0 0.0
-0.0012156085518546245 0.0006326421346205535 0.0 -0.004912120914210116 0.0 0.0
-0.0019115849519301398 0.0010881839956571326 0.0 -0.006056666739749139 0.0 0.0
-0.0027382056900298046 0.0017074603610556238 0.0 -0.0075978942396202065 0.0 0.0
-0.003652629400198587 0.002471842293095161 0.0 -0.009401680441912696 0.0 0.0
-0.004653381230893927 0.0033527906980701516 0.0 -0.011372580784723696 0.0 0.0
-0.005704062155408446 0.004298920842791265 0.0 -0.013477970982705978 0.0 0.0
-0.006669464459300001 0.005175180993738593 0.0 -0.015707942075172676 0.0 0.0
-0.007283188964737397 0.005724778754312876 0.0 -0.01801195966277669 0.0 0.0
-0.007136827768378096 0.0055693998454069416 0.0 -0.020357808978209713 0.0 0.0
-0.0058595385741253 0.004463094729985961 0.0 -0.02281755978328892 0.0 0.0
-0.0031283096004215416 0.0022236138038973507 0.0 -0.025061835173432856 0.0 0.0
0.0036474397213796805 -0.004171734971111896 0.0 -0.023979741302558533 0.0 0.0
0.003647439721379736 -0.004171734971109231 0.0 0.02397974130257796 0.0 0.0
-0.00312830960042218 0.0022236138038964626 0.0 0.02506183517345517 0.0 0.0
-0.0058595385741223305 0.004463094729985073 0.0 0.022817559783293806 0.0 0.0
-0.0071368277683721 0.005569399845400724 0.0 0.020357808978201275 0.0 0.0
-0.007283188964727849 0.005724778754301774 0.0 0.018011959662759702 0.0 0.0
-0.006669464459291785 0.005175180993729711 0.0 0.0157079420751578 0.0 0.0
-0.005704062155400369 0.00429892084278416 0.0 0.013477970982695653 0.0 0.0
-0.0046533812308835465 0.0033527906980603817 0.0 0.011372580784714148 0.0 0.0
-0.0036526294001882065 0.002471842293084947 0.0 0.00940168044189671 0.0 0.0
-0.0027382056900216445 0.0017074603610476302 0.0 0.007597894239603997 0.0 0.0
-0.0019115849519233674 0.0010881839956500272 0.0 0.006056666739737149 0.0 0.0
-0.0012156085518504334 0.0006326421346116717 0.0 0.004912120914204343 0.0 0.0
-0.0007015088337820607 0.000348464673961546 0.0 0.004133602851711327 0.0 0.0
-0.0004134515589282184 0.00020614210961378276 0.0 0.0035511523089648 0.0 0.0
-0.0002812968205005706 0.00015487052710816407 0.0 0.003032542990832554 0.0 0.0
-0.00023929513589746043 0.00016058210560476738 0.0 0.00265855324380887 0.0 0.0
-0.00024686935270140653 0.00017421415508478422 0.0 0.002498959906810372 0.0 0.0
-0.00024141985356798679 0.00011800718060539506 0.0 0.002499043801028611 0.0 0.0
-0.0001302745225772728 -0.00013216437170765483 0.0 0.002511256858798938 0.0 0.0
0.0004722076004545772 -0.0011955355333723282 0.0 0.0018984513221129706 0.0 0.0
0.00031722184033194933 -0.0009432458710244562 0.0 -0.0017147361199595368 0.0 0.0
-0.0002035065836122063 -0.00010079178711441816 0.0 -0.0024656796441339113 0.0 0.0
-0.00038512034459398103 0.0001791636748226244 0.0 -0.002490271089614582 0.0 0.0
-0.00047548053246770916 0.0002756558904939421 0.0 -0.0024844639519867595 0.0 0.0
-0.0005795632589286337 0.00032205151080932914 0.0 -0.002612712306018783 0.0 0.0
-0.0007872406010059063 0.0004018314385447752 0.0 -0.002933306093714172 0.0 0.0
-0.0012485253431817056 0.0006397297796192358 0.0 -0.0034970980445571676 0.0 0.0
-0.0022038388068436887 0.001257888427297793 0.0 -0.004529519650592728 0.0 0.0
-0.0037768732751990164 0.00247028657044579 0.0 -0.006146839254702163 0.0 0.0
-0.005859520799197743 0.004279466813020605 0.0 -0.008223161565058312 0.0 0.0
-0.008297336688545737 0.0065192266094658 0.0 -0.010555447198381085 0.0 0.0
-0.01098376718928401 0.009055495882928977 0.0 -0.012943807931137141 0.0 0.0
-0.013915981363677554 0.011851546869316554 0.0 -0.015342337845336451 0.0 0.0
-0.017073818202904045 0.014874572004595965 0.0 -0.01774439987176657 0.0 0.0
-0.02031878105525539 0.017979914039773615 0.0 -0.020228757800962005 0.0 0.0
-0.023331925559660016 0.02085658091952869 0.0 -0.022864307709115184 0.0 0.0
-0.02562807530861727 0.023043406357832197 0.0 -0.025739210621255837 0.0 0.0
-0.02664616503966241 0.02399505180372241 0.0 -0.0287603966740424 0.0 0.0
-0.02534151354059183 0.02242451665845646 0.0 -0.0301468306816981 0.0 0.0
-0.01850781720487993 0.015286000199853156 0.0 -0.02797796793411922 0.0 0.0
-0.018507817204880816 0.015286000199852268 0.0 0.027977967934157633 0.0 0.0
-0.025341513540589194 0.022424516658450244 0.0 0.030146830681747505 0.0 0.0
-0.02664616503964931 0.02399505180370287 0.0 0.028760396674073152 0.0 0.0
-0.025628075308597842 0.02304340635781177 0.0 0.025739210621255615 0.0 0.0
-0.02333192555963723 0.020856580919509593 0.0 0.022864307709097198 0.0 0.0
-0.02031878105523413 0.017979914039754963 0.0 0.02022875780094502 0.0 0.0
-0.01707381820288431 0.01487457200457376 0.0 0.017744399871753025 0.0 0.0
-0.013915981363655766 0.011851546869290797 0.0 0.015342337845326903 0.0 0.0
-0.010983767189262306 0.009055495882909437 0.0 0.012943807931119933 0.0 0.0
-0.008297336688526086 0.006519226609451145 0.0 0.010555447198358547 0.0 0.0
-0.0058595207991818665 0.0042794668130037294 0.0 0.008223161565037218 0.0 0.0
-0.0037768732751885525 0.0024702865704391286 0.0 0.006146839254688619 0.0 0.0
-0.002203838806837083 0.0012578884272955726 0.0 0.00452951965058751 0.0 0.0
-0.0012485253431779864 0.0006397297796165713 0.0 0.0034970980445532818 0.0 0.0
-0.0007872406010044908 0.00040183143854388703 0.0 0.0029333060937109523 0.0 0.0
-0.0005795632589277733 0.000322051510808663 0.0 0.002612712306017395 0.0 0.0
-0.0004754805324672373 0.0002756558904927209 0.0 0.0024844639519849276 0.0 0.0
-0.0003851203445936202 0.00017916367482340156 0.0 0.0024902710896129165 0.0 0.0
-0.0002035065836122063 -0.00010079178711391856 0.0 0.0024656796441325235 0.0 0.0
0.00031722184033186607 -0.0009432458710236635 0.0 0.0017147361199570943 0.0 0.0
0.00020690142905707698 -0.0007271903672410596 0.0 -0.001523582637004195 0.0 0.0
-0.0002686271471839252 -6.36471449143583e-05 0.0 -0.0023659906089957272 0.0 0.0
-0.0005206885443466147 0.00023602198586669676 0.0 -0.0024236103119378294 0.0 0.0
-0.0006950939190747962 0.00037118077459608045 0.0 -0.002401548517436458 0.0 0.0
-0.0009084351410780789 0.00047452312973139676 0.0 -0.002483485442896949 0.0 0.0
-0.001297884377037123 0.0006651483229396238 0.0 -0.0027862775029104947 0.0 0.0
-0.0021814055180741643 0.0012293874932585158 0.0 -0.0035726165801102105 0.0 0.0
-0.003917582678693604 0.0025701689044663745 0.0 -0.00512721560719781 0.0 0.0
-0.006586824244066231 0.004900027391906203 0.0 -0.0074310141794624585 0.0 0.0
-0.010035327718421305 0.008095817034893038 0.0 -0.010239194403706131 0.0 0.0
-0.014029182740517482 0.01189735849174589 0.0 -0.013217699919943926 0.0 0.0
-0.018448646093479515 0.01615021811264583 0.0 -0.016115016610600108 0.0 0.0
-0.023284223363172207 0.020828874171217926 0.0 -0.01891026148248187 0.0 0.0
-0.028535420675460277 0.025918780842805855 0.0 -0.021706197083126266 0.0 0.0
-0.034072196761554846 0.03128120209821583 0.0 -0.024727538484176637 0.0 0.0
-0.0395331021014132 0.036564032641745126 0.0 -0.028266024986784877 0.0 0.0
-0.04431372691432467 0.0411766528499804 0.0 -0.03247965513702733 0.0 0.0
-0.04745018511274526 0.044098591057464276 0.0 -0.036584183896573474 0.0 0.0
-0.04707789763808817 0.04344729717194884 0.0 -0.03863085935528476 0.0 0.0
-0.039402110172532534 0.03506358841600932 0.0 -0.034713586606708424 0.0 0.0
-0.039402110172531535 0.0350635884160031 0.0 0.03471358660675872 0.0 0.0
-0.04707789763808046 0.04344729717194262 0.0 0.03863085935534527 0.0 0.0
-0.047450185112724474 0.04409859105744918 0.0 0.036584183896617106 0.0 0.0
-0.04431372691429472 0.041176652849951534 0.0 0.03247965513703488 0.0 0.0
-0.03953310210137881 0.03656403264171049 0.0 0.028266024986769223 0.0 0.0
-0.03407219676152101 0.03128120209817853 0.0 0.02472753848415732 0.0 0.0
-0.028535420675428164 0.025918780842775657 0.0 0.021706197083105172 0.0 0.0
-0.023284223363138623 0.020828874171194833 0.0 0.01891026148246555 0.0 0.0
-0.018448646093447152 0.016150218112615633 0.0 0.016115016610581012 0.0 0.0
-0.014029182740487672 0.011897358491716581 0.0 0.013217699919915282 0.0 0.0
-0.010035327718396186 0.008095817034866393 0.0 0.010239194403677265 0.0 0.0
-0.0065868242440486335 0.004900027391886219 0.0 0.007431014179447026 0.0 0.0
-0.003917582678682002 0.0025701689044559384 0.0 0.005127215607189761 0.0 0.0
-0.002181405518068058 0.0012293874932562954 0.0 0.0035726165801038268 0.0 0.0
-0.0012978843770346804 0.0006651483229398458 0.0 0.0027862775029062203 0.0 0.0
-0.0009084351410771074 0.0004745231297311747 0.0 0.002483485442894451 0.0 0.0
-0.0006950939190743105 0.0003711807745964135 0.0 0.0024015485174355145 0.0 0.0
-0.0005206885443461984 0.00023602198586725187 0.0 0.0024236103119359975 0.0 0.0
-0.00026862714718364766 -6.364714491480239e-05 0.0 0.002365990608994062 0.0 0.0
0.0002069014290571186 -0.0007271903672400326 0.0 0.0015235826370019745 0.0 0.0
0.00011827071939779499 -0.0005351856061807103 0.0 -0.0013229575182661102 0.0 0.0
-0.00032779154333403837 -2.0645357255544283e-05 0.0 -0.0022107318507092466 0.0 0.0
-0.0006475367581344205 0.00028860660569463015 0.0 -0.0023030881709886764 0.0 0.0
-0.0009046288889275611 0.0004588769929929626 0.0 -0.002258484310645681 0.0 0.0
-0.0012255095027823015 0.0006225756076860822 0.0 -0.0022929073365048347 0.0 0.0
-0.0018507353692678585 0.0009888786316227804 0.0 -0.002638822888385739 0.0 0.0
-0.0032586854140607413 0.0020202332564092096 0.0 -0.003652760115127107 0.0 0.0
-0.005827992876400012 0.004202530704657814 0.0 -0.005574656479279294 0.0 0.0
-0.009606184906421983 0.007671066013859917 0.0 -0.00832641171323345 0.0 0.0
-0.014383806758200418 0.012206154108440614 0.0 -0.011572130428327276 0.0 0.0
-0.019896723950795808 0.0175167624086372 0.0 -0.01489241518173312 0.0 0.0
-0.026023308454131755 0.023454024178164 0.0 -0.018051710550297972 0.0 0.0
-0.03275259611453593 0.03000281226453838 0.0 -0.021070151894768685 0.0 0.0
-0.04010158541163289 0.03716651291756712 0.0 -0.024094634400778525 0.0 0.0
-0.04796085163489286 0.04482524223102402 0.0 -0.02745395595296707 0.0 0.0
-0.055940655021254865 0.052584005612079654 0.0 -0.031612165769149825 0.0 0.0
-0.06320573977507374 0.05959984929286932 0.0 -0.03667511693936709 0.0 0.0
-0.06823966138122672 0.06434044409936401 0.0 -0.04164942328541843 0.0 0.0
-0.06842512868544653 0.06409432089522049 0.0 -0.0438990600795609 0.0 0.0
-0.05897556359899214 0.0539812310714165 0.0 -0.040137181179679904 0.0 0.0
-0.058975563598988756 0.05398123107141384 0.0 0.04013718117972942 0.0 0.0
-0.06842512868543338 0.0640943208952125 0.0 0.043899060079624186 0.0 0.0
-0.06823966138119836 0.06434044409934359 0.0 0.04164942328546617 0.0 0.0
-0.06320573977503499 0.05959984929283113 0.0 0.03667511693937764 0.0 0.0
-0.055940655021209984 0.05258400561203391 0.0 0.031612165769139056 0.0 0.0
-0.04796085163484792 0.044825242230985385 0.0 0.02745395595294886 0.0 0.0
-0.04010158541158848 0.03716651291752626 0.0 0.024094634400757098 0.0 0.0
-0.032752596114490995 0.030002812264494416 0.0 0.021070151894748035 0.0 0.0
-0.026023308454088387 0.023454024178127586 0.0 0.018051710550273214 0.0 0.0
-0.01989672395075673 0.017516762408602116 0.0 0.014892415181704255 0.0 0.0
-0.014383806758166223 0.012206154108410416 0.0 0.011572130428295968 0.0 0.0
-0.009606184906397489 0.007671066013839045 0.0 0.008326411713212356 0.0 0.0
-0.005827992876383151 0.004202530704642937 0.0 0.005574656479262974 0.0 0.0
-0.0032586854140516236 0.00202023325640055 0.0 0.0036527601151177813 0.0 0.0
-0.0018507353692636258 0.0009888786316196718 0.0 0.0026388228883800213 0.0 0.0
-0.0012255095027808444 0.000622575607685194 0.0 0.0022929073365016706 0.0 0.0
-0.0009046288889267423 0.00045887699299274054 0.0 0.0022584843106448482 0.0 0.0
-0.0006475367581341013 0.0002886066056949632 0.0 0.002303088170987233 0.0 0.0
-0.00032779154333367755 -2.0645357255766328e-05 0.0 0.0022107318507076368 0.0 0.0
0.00011827071939787825 -0.0005351856061809133 0.0 0.001322957518265 0.0 0.0
4.226024941855755e-05 -0.0003659428964904454 0.0 -0.0011167507966028944 0.0 0.0
-0.00038414983945617154 2.760571598170447e-05 0.0 -0.002001526458216052 0.0 0.0
-0.0007661001900306497 0.00033761463544113024 0.0 -0.002125207174152821 0.0 0.0
-0.0011022259689497105 0.0005371694088240897 0.0 -0.002050062061946578 0.0 0.0
-0.001542892509384275 0.000779179293819876 0.0 -0.0020583008552909066 0.0 0.0
-0.002478907783924178 0.0014040450119978676 0.0 -0.0024719574645478137 0.0 0.0
-0.004476240415702659 0.0030089121916474504 0.0 -0.003641408714052552 0.0 0.0
-0.007906970685160858 0.00608054252232515 0.0 -0.005774354788287861 0.0 0.0
-0.012776061125490679 0.010659899697988084 0.0 -0.008744189940529723 0.0 0.0
-0.01883539085310368 0.01647679022686699 0.0 -0.01211800618333203 0.0 0.0
-0.025845903111205798 0.023263781634727643 0.0 -0.015502606873364022 0.0 0.0
-0.033674503126153416 0.03087868098558122 0.0 -0.01873234819582703 0.0 0.0
-0.04229571661838219 0.03929458142169606 0.0 -0.021820507198155092 0.0 0.0
-0.05173582767448301 0.048529063938789196 0.0 -0.024885035583570025 0.0 0.0
-0.06192512639933301 0.0584916874810224 0.0 -0.028286196755157533 0.0 0.0
-0.07242766543854606 0.06872517276884249 0.0 -0.032542127920331065 0.0 0.0
-0.08212258342047832 0.07809672421501013 0.0 -0.037830271985 0.0 0.0
-0.08890188670867635 0.08447715777586495 0.0 -0.04317583374170264 0.0 0.0
-0.0892982034832035 0.0843758422543841 0.0 -0.04617327111436631 0.0 0.0
-0.07807251896976095 0.07256492269618509 0.0 -0.044890978504750434 0.0 0.0
-0.07807251896975567 0.07256492269617887 0.0 0.04489097850480561 0.0 0.0
-0.08929820348318396 0.0843758422543619 0.0 0.04617327111443259 0.0 0.0
-0.08890188670864055 0.08447715777582854 0.0 0.043175833741750935 0.0 0.0
-0.08212258342043072 0.07809672421496172 0.0 0.03783027198501254 0.0 0.0
-0.07242766543849119 0.0687251727687852 0.0 0.03254212792032163 0.0 0.0
-0.06192512639927758 0.05849168748096378 0.0 0.0282861967551436 0.0 0.0
-0.051735827674426485 0.048529063938739014 0.0 0.024885035583550208 0.0 0.0
-0.04229571661832619 0.03929458142163744 0.0 0.02182050719813794 0.0 0.0
-0.03367450312609874 0.030878680985526152 0.0 0.01873234819580616 0.0 0.0
-0.025845903111157212 0.023263781634677905 0.0 0.015502606873335878 0.0 0.0
-0.01883539085306153 0.016476790226824356 0.0 0.01211800618330161 0.0 0.0
-0.012776061125458912 0.010659899697953001 0.0 0.008744189940511626 0.0 0.0
-0.007906970685138834 0.006080542522307164 0.0 0.005774354788274205 0.0 0.0
-0.004476240415689767 0.0030089121916374584 0.0 0.0036414087140431706 0.0 0.0
-0.0024789077839179746 0.0014040450119934267 0.0 0.002471957464541985 0.0 0.0
-0.0015428925093821377 0.0007791792938178776 0.0 0.002058300855288353 0.0 0.0
-0.0011022259689486141 0.0005371694088237566 0.0 0.0020500620619458565 0.0 0.0
-0.0007661001900301501 0.0003376146354414633 0.0 0.0021252071741516554 0.0 0.0
-0.000384149839455894 2.7605715981815493e-05 0.0 0.002001526458214664 0.0 0.0
4.226024941861306e-05 -0.00036594289649042634 0.0 0.001116750796601118 0.0 0.0
-2.2900434488659638e-05 -0.00022073722397375484 0.0 -0.0009048028180027035 0.0 0.0
-0.0004387808550209149 7.943173178071028e-05 0.0 -0.0017439973597838665 0.0 0.0
-0.0008774027432909004 0.00038316250448988676 0.0 -0.0018908740311936456 0.0 0.0
-0.0012894114293233172 0.0006105439051522499 0.0 -0.0017941669997702525 0.0 0.0
-0.001881467455449426 0.0009655783887738689 0.0 -0.0018016265994355574 0.0 0.0
-0.003194462798169151 0.0019274844607628516 0.0 -0.0022581280969825035 0.0 0.0
-0.005825019152262578 0.004178594457472595 0.0 -0.0034916382601660745 0.0 0.0
-0.010119130310526081 0.008141078013980785 0.0 -0.005677048560661924 0.0 0.0
-0.01602745174320147 0.01377334779041961 0.0 -0.00858882748263401 0.0 0.0
-0.023339273206608724 0.020829942706385385 0.0 -0.011827071841835957 0.0 0.0
-0.03183803323704992 0.029081902237913848 0.0 -0.015093306831468256 0.0 0.0
-0.041371031069976805 0.038375423920399054 0.0 -0.018209777932322146 0.0 0.0
-0.051887893551546466 0.048660840329223465 0.0 -0.021200383494497488 0.0 0.0
-0.063405498089326 0.0599508524538086 0.0 -0.02415403080143186 0.0 0.0
-0.0758715285121738 0.07216735618138159 0.0 -0.02727289730109128 0.0 0.0
-0.088824314693251 0.0848067161065118 0.0 -0.031042695475554716 0.0 0.0
-0.10087941980962123 0.09646204994242513 0.0 -0.03592235272354671 0.0 0.0
-0.10931992496033385 0.10441657072996424 0.0 -0.041451276411545446 0.0 0.0
-0.10996338018535692 0.10452566293827381 0.0 -0.04617008903857012 0.0 0.0
-0.09726219677021522 0.09128506795417124 0.0 -0.04932895642792878 0.0 0.0
-0.09726219677020714 0.09128506795416502 0.0 0.049328956427982296 0.0 0.0
-0.109963380185331 0.10452566293824894 0.0 0.04617008903863851 0.0 0.0
-0.10931992496029128 0.1044165707299225 0.0 0.041451276411594074 0.0 0.0
-0.10087941980956446 0.09646204994237584 0.0 0.03592235272355965 0.0 0.0
-0.08882431469318665 0.08480671610645274 0.0 0.031042695475547444 0.0 0.0
-0.07587152851210709 0.07216735618131498 0.0 0.0272728973010819 0.0 0.0
-0.06340549808925844 0.05995085245373977 0.0 0.024154030801415316 0.0 0.0
-0.051887893551479325 0.04866084032916351 0.0 0.021200383494478947 0.0 0.0
-0.041371031069911204 0.03837542392033422 0.0 0.018209777932299998 0.0 0.0
-0.031838033236991484 0.02908190223785123 0.0 0.015093306831438336 0.0 0.0
-0.023339273206559097 0.020829942706332094 0.0 0.011827071841806702 0.0 0.0
-0.01602745174316257 0.013773347790380086 0.0 0.008588827482612582 0.0 0.0
-0.010119130310498714 0.008141078013956138 0.0 0.005677048560646714 0.0 0.0
-0.005825019152245536 0.004178594457457274 0.0 0.00349163826015636 0.0 0.0
-0.0031944627981606855 0.0019274844607553021 0.0 0.002258128096978007 0.0 0.0
-0.0018814674554465255 0.0009655783887700942 0.0 0.0018016265994343361 0.0 0.0
-0.0012894114293221515 0.0006105439051508066 0.0 0.0017941669997696419 0.0 0.0
-0.0008774027432902481 0.0003831625044891096 0.0 0.0018908740311919803 0.0 0.0
-0.00043878085502051245 7.943173178093232e-05 0.0 0.0017439973597812575 0.0 0.0
-2.2900434488812293e-05 -0.00022073722397351198 0.0 0.0009048028180004275 0.0 0.0
-7.588063852603799e-05 -0.00010194910839761429 0.0 -0.0006864514961740786 0.0 0.0
-0.0004901470217283932 0.0001320969954785589 0.0 -0.0014434057454885685 0.0 0.0
-0.0009826063508502347 0.0004254983929724565 0.0 -0.001599936571952787 0.0 0.0
-0.0014728045715944327 0.000683701948953841 0.0 -0.00148950879869153 0.0 0.0
-0.0022605207388937676 0.0011941123827172717 0.0 -0.0015027172361535834 0.0 0.0
-0.004003656518475451 0.0025733714870381785 0.0 -0.001978254532042978 0.0 0.0
-0.007293917089600976 0.00550847153244316 0.0 -0.003198762333040339 0.0 0.0
-0.012402422243777522 0.01031252688279638 0.0 -0.005211073123909726 0.0 0.0
-0.019310403969600487 0.016943165510467484 0.0 -0.007808854619936301 0.0 0.0
-0.02786156517097771 0.025221743713011335 0.0 -0.010731854261671447 0.0 0.0
-0.03783935619288903 0.03493022956405367 0.0 -0.013679881754763312 0.0 0.0
-0.049080124288319926 0.04590493050796418 0.0 -0.016499326621217003 0.0 0.0
-0.06150284727800087 0.058067753558804114 0.0 -0.019232954607635522 0.0 0.0
-0.07507822611495724 0.07138664290481156 0.0 -0.021900759944598946 0.0 0.0
-0.08971891694419681 0.0857562526357829 0.0 -0.024510196346813506 0.0 0.0
-0.1049572927349122 0.10065425719596277 0.0 -0.027312046183319172 0.0 0.0
-0.11927409268783412 0.11450627191427465 0.0 -0.031069187070798643 0.0 0.0
-0.12947063845440854 0.12414271260842824 0.0 -0.03657653953630302 0.0 0.0
-0.13072176817393327 0.12480804774123921 0.0 -0.043983707192004506 0.0 0.0
-0.11698587899029572 0.11054280611937184 0.0 -0.0534389820329666 0.0 0.0
-0.1169858789902847 0.11054280611936207 0.0 0.053438982033017 0.0 0.0
-0.13072176817390208 0.1248080477412028 0.0 0.043983707192064014 0.0 0.0
-0.1294706384543587 0.12414271260837495 0.0 0.036576539536346875 0.0 0.0
-0.11927409268776804 0.11450627191420537 0.0 0.031069187070809412 0.0 0.0
-0.10495729273483832 0.10065425719588772 0.0 0.027312046183313343 0.0 0.0
-0.08971891694411877 0.08575625263571052 0.0 0.024510196346803348 0.0 0.0
-0.07507822611487901 0.07138664290473606 0.0 0.021900759944584458 0.0 0.0
-0.06150284727792285 0.0580677535587264 0.0 0.019232954607621866 0.0 0.0
-0.049080124288243945 0.04590493050789357 0.0 0.016499326621198795 0.0 0.0
-0.037839356192820583 0.0349302295639915 0.0 0.013679881754735446 0.0 0.0
-0.027861565170920685 0.025221743712954492 0.0 0.010731854261647689 0.0 0.0
-0.01931040396955521 0.0169431655104213 0.0 0.0078088546199204245 0.0 0.0
-0.012402422243744299 0.010312526882765294 0.0 0.005211073123896737 0.0 0.0
-0.007293917089580174 0.005508471532424508 0.0 0.003198762333031402 0.0 0.0
-0.0040036565184644254 0.0025733714870292967 0.0 0.0019782545320382594 0.0 0.0
-0.0022605207388899234 0.0011941123827161615 0.0 0.0015027172361541385 0.0 0.0
-0.0014728045715931698 0.0006837019489561724 0.0 0.0014895087986924738 0.0 0.0
-0.0009826063508496866 0.0004254983929737888 0.0 0.0015999365719520098 0.0 0.0
-0.0004901470217277618 0.00013209699547872544 0.0 0.0014434057454861815 0.0 0.0
-7.588063852555921e-05 -0.00010194910839771837 0.0 0.0006864514961740786 0.0 0.0
-0.00011300081341497625 -1.2865053306776453e-05 0.0 -0.0004632628760240509 0.0 0.0
-0.0005336218510068047 0.00018184266869414323 0.0 -0.001102694811407512 0.0 0.0
-0.0010828971474293736 0.00046416155230910583 0.0 -0.0012506411378218063 0.0 0.0
-0.0016629003614556104 0.0007672547629615778 0.0 -0.0011402998862068414 0.0 0.0
-0.0026965541449140984 0.001487950929409898 0.0 -0.0011608666845878135 0.0 0.0
-0.004914618355519207 0.003344640373760699 0.0 -0.0016238444694945398 0.0 0.0
-0.00883916443116195 0.006944039788147061 0.0 -0.0026624424421792803 0.0 0.0
-0.014709799290829106 0.012531726611544336 0.0 -0.004297580194425887 0.0 0.0
-0.02259553388400659 0.020132629032513005 0.0 -0.0064323788509373925 0.0 0.0
-0.03236720263154386 0.029613989086751058 0.0 -0.00884458193901061 0.0 0.0
-0.04381643386991729 0.040770607692335314 0.0 -0.01128274219015557 0.0 0.0
-0.056767559313351645 0.0534297679787743 0.0 -0.01361094150616593 0.0 0.0
-0.07110587922497902 0.06747705334063836 0.0 -0.01588281906963951 0.0 0.0
-0.08672740650813227 0.08280693602176648 0.0 -0.018129165430056604 0.0 0.0
-0.10342855092952138 0.09920738592640621 0.0 -0.02014362201277231 0.0 0.0
-0.12068351561647184 0.11611301027193344 0.0 -0.0216983782861484 0.0 0.0
-0.13706437989878698 0.13201895824982257 0.0 -0.023589396233730242 0.0 0.0
-0.14930264665260987 0.14360673587992157 0.0 -0.028482564921280984 0.0 0.0
-0.15182947884345294 0.14546623098524947 0.0 -0.039146218793169596 0.0 0.0
-0.13772523098244055 0.1307809434463021 0.0 -0.05688159012648142 0.0 0.0
-0.13772523098242748 0.130780943446287 0.0 0.056881590126520276 0.0 0.0
-0.15182947884341633 0.14546623098521572 0.0 0.03914621879321878 0.0 0.0
-0.1493026466525515 0.1436067358798674 0.0 0.028482564921318176 0.0 0.0
-0.13706437989871137 0.13201895824975773 0.0 0.023589396233738014 0.0 0.0
-0.12068351561638777 0.11611301027184995 0.0 0.021698378286144626 0.0 0.0
-0.103428550929433 0.09920738592631784 0.0 0.020143622012769258 0.0 0.0
-0.08672740650804238 0.08280693602167721 0.0 0.018129165430043892 0.0 0.0
-0.07110587922489024 0.06747705334055265 0.0 0.01588281906962785 0.0 0.0
-0.056767559313265374 0.05342976797868593 0.0 0.013610941506152718 0.0 0.0
-0.043816433869839376 0.04077060769226026 0.0 0.011282742190132922 0.0 0.0
-0.03236720263147902 0.02961398908668844 0.0 0.00884458193898885 0.0 0.0
-0.022595533883955715 0.020132629032462823 0.0 0.0064323788509227375 0.0 0.0
-0.014709799290790554 0.012531726611507032 0.0 0.004297580194412898 0.0 0.0
-0.008839164431137234 0.006944039788121303 0.0 0.0026624424421710646 0.0 0.0
-0.004914618355505232 0.003344640373747376 0.0 0.0016238444694890442 0.0 0.0
-0.0026965541449094146 0.0014879509294070115 0.0 0.0011608666845866478 0.0 0.0
-0.0016629003614541185 0.0007672547629594684 0.0 0.001140299886205065 0.0 0.0
-0.001082897147428763 0.0004641615523088838 0.0 0.0012506411378196969 0.0 0.0
-0.0005336218510061594 0.00018184266869414323 0.0 0.0011026948114059576 0.0 0.0
-0.00011300081341455992 -1.2865053306681043e-05 0.0 0.00046326287602260763 0.0 0.0
-0.00012753203937104773 4.2197165775081924e-05 0.0 -0.0002419511690597842 0.0 0.0
-0.0005601843181472499 0.00022250092330533544 0.0 -0.000721401870652838 0.0 0.0
-0.001180649649062615 0.0005009524722774383 0.0 -0.0008364470201470686 0.0 0.0
-0.0018765244734038067 0.0008729397789033477 0.0 -0.0007486907615327221 0.0 0.0
-0.0032056182501163932 0.0018695323821662502 0.0 -0.0007814193564832372 0.0 0.0
-0.0059115705010279185 0.004227036905007919 0.0 -0.001134319824056207 0.0 0.0
-0.01041573125768086 0.008439557777730089 0.0 -0.0018587183498849358 0.0 0.0
-0.01701855346959319 0.014766470336786686 0.0 -0.0029771836039687583 0.0 0.0
-0.025849784613912463 0.023307074367747038 0.0 -0.0044649124062206 0.0 0.0
-0.036821987294051395 0.03397048571171535 0.0 -0.006170113061741644 0.0 0.0
-0.0497355917088928 0.04656753216603837 0.0 -0.007895406100978053 0.0 0.0
-0.06439924238996203 0.060912448639959926 0.0 -0.009543015612402006 0.0 0.0
-0.08065837649416846 0.07684878634733616 0.0 -0.011179696930305405 0.0 0.0
-0.09831221893576059 0.09417217513509879 0.0 -0.012782613854086966 0.0 0.0
-0.116990767686588 0.11250875792274329 0.0 -0.014098925112952743 0.0 0.0
-0.13600139975911615 0.1311568878938476 0.0 -0.014661162725289723 0.0 0.0
-0.15403253935394157 0.14875652683693685 0.0 -0.014536484390675009 0.0 0.0
-0.168392247945573 0.1625041979360935 0.0 -0.016921622096189082 0.0 0.0
-0.17350908671977996 0.1666786371836304 0.0 -0.030011052689644102 0.0 0.0
-0.16018925434546036 0.15265832811222246 0.0 -0.05884202270040395 0.0 0.0
-0.16018925434544434 0.15265832811220736 0.0 0.05884202270042993 0.0 0.0
-0.17350908671973822 0.16667863718359222 0.0 0.030011052689683293 0.0 0.0
-0.1683922479455059 0.16250419793602555 0.0 0.016921622096216782 0.0 0.0
-0.15403253935385552 0.14875652683684892 0.0 0.014536484390679838 0.0 0.0
-0.13600139975902095 0.13115688789376057 0.0 0.014661162725284171 0.0 0.0
-0.11699076768648851 0.11250875792265624 0.0 0.014098925112953686 0.0 0.0
-0.09831221893565985 0.09417217513500065 0.0 0.012782613854082997 0.0 0.0
-0.08065837649406923 0.07684878634724379 0.0 0.011179696930300353 0.0 0.0
-0.06439924238986514 0.060912448639872885 0.0 0.009543015612394123 0.0 0.0
-0.04973559170880645 0.04656753216595266 0.0 0.007895406100962954 0.0 0.0
-0.03682198729397895 0.033970485711643406 0.0 0.00617011306172488 0.0 0.0
-0.025849784613855637 0.02330707436769508 0.0 0.004464912406213217 0.0 0.0
-0.01701855346955016 0.014766470336746718 0.0 0.0029771836039627075 0.0 0.0
-0.010415731257651828 0.008439557777705442 0.0 0.0018587183498800508 0.0 0.0
-0.0059115705010114004 0.004227036904992376 0.0 0.0011343198240537644 0.0 0.0
-0.003205618250109562 0.0018695323821593668 0.0 0.0007814193564826266 0.0 0.0
-0.0018765244734022905 0.0008729397789039028 0.0 0.0007486907615313343 0.0 0.0
-0.0011806496490614667 0.0005009524722769942 0.0 0.000836447020146569 0.0 0.0
-0.0005601843181464207 0.0002225009233051689 0.0 0.0007214018706531711 0.0 0.0
-0.00012753203937126978 4.219716577482345e-05 0.0 0.0002419511690603393 0.0 0.0
-0.00010750536244402698 5.7111909488039014e-05 0.0 -3.922275645729112e-05 0.0 0.0
-0.0005538434202211895 0.0002439930819577718 0.0 -0.0002920165121950147 0.0 0.0
-0.0012826629443780102 0.0005410444850540985 0.0 -0.00034366641713745594 0.0 0.0
-0.0021372387387695313 0.0010285040662407763 0.0 -0.00032089158474668533 0.0 0.0
-0.0037930446756624936 0.0023389272769192004 0.0 -0.0003386613527094906 0.0 0.0
-0.006960708142133676 0.005181258096234487 0.0 -0.0004810061454213477 0.0 0.0
-0.01200667372631209 0.00996341151909208 0.0 -0.0007805316065684353 0.0 0.0
-0.01929943311200133 0.01698718132771848 0.0 -0.0012523190523542338 0.0 0.0
-0.029040400915114617 0.02643042938261475 0.0 -0.0019154173811971598 0.0 0.0
-0.04119005615849819 0.0382540722445901 0.0 -0.002705267263051203 0.0 0.0
-0.05556427229673533 0.05228750175634467 0.0 -0.0035175287611193262 0.0 0.0
-0.07194537961138103 0.06832085977264502 0.0 -0.004309209651983559 0.0 0.0
-0.09011156169202561 0.08613281934760986 0.0 -0.005086689233963826 0.0 0.0
-0.10977103885867867 0.1054244334779173 0.0 -0.005802695056766449 0.0 0.0
-0.13039663342815327 0.12566348876635614 0.0 -0.0063058006967273705 0.0 0.0
-0.1510491304787293 0.14591510226608184 0.0 -0.006251309323116572 0.0 0.0
-0.17028233995689573 0.16474243877341266 0.0 -0.005221741916643263 0.0 0.0
-0.186005376698134 0.18001259930043645 0.0 -0.004196941790901798 0.0 0.0
-0.19453744632758987 0.18782310843071937 0.0 -0.012571955076186025 0.0 0.0
-0.1864080299302627 0.17775145770499812 0.0 -0.05420320935803191 0.0 0.0
-0.1864080299302437 0.1777514577049777 0.0 0.05420320935804113 0.0 0.0
-0.194537446327543 0.1878231084306714 0.0 0.012571955076206898 0.0 0.0
-0.18600537669805764 0.18001259930036095 0.0 0.004196941790915398 0.0 0.0
-0.17028233995679778 0.16474243877331718 0.0 0.00522174191664232 0.0 0.0
-0.15104913047862267 0.14591510226597304 0.0 0.006251309323111076 0.0 0.0
-0.13039663342804236 0.12566348876624467 0.0 0.006305800696728925 0.0 0.0
-0.10977103885856714 0.10542443347781072 0.0 0.005802695056762758 0.0 0.0
-0.0901115616919163 0.08613281934749706 0.0 0.005086689233962632 0.0 0.0
-0.07194537961127334 0.0683208597725442 0.0 0.004309209651980117 0.0 0.0
-0.055564272296640356 0.05228750175625674 0.0 0.0035175287611136086 0.0 0.0
-0.04119005615841869 0.038254072244515935 0.0 0.002705267263043709 0.0 0.0
-0.02904040091505173 0.026430429382550802 0.0 0.001915417381193385 0.0 0.0
-0.019299433111954103 0.016987181327668743 0.0 0.0012523190523511252 0.0 0.0
-0.012006673726279149 0.009963411519058551 0.0 0.0007805316065639945 0.0 0.0
-0.006960708142114504 0.005181258096217167 0.0 0.0004810061454199599 0.0 0.0
-0.003793044675654009 0.0023389272769140934 0.0 0.00033866135270876896 0.0 0.0
-0.002137238738767363 0.0010285040662387779 0.0 0.0003208915847456306 0.0 0.0
-0.0012826629443765721 0.0005410444850535434 0.0 0.0003436664171363457 0.0 0.0
-0.0005538434202201625 0.00024399308195693914 0.0 0.000292016512194182 0.0 0.0
-0.00010750536244391769 5.71119094877337e-05 0.0 3.922275645845685e-05 0.0 0.0
SCALARS Statev float 8
LOOKUP_TABLE default
0.0 0.013807703807013877 0.010701663386433052 -0.011082304947110171 0.0003806415606771172 -0.006167615310767358 0.0 0.0
0.0 0.000868664821254741 0.0006229833581140457 -0.0005341140074545184 -8.886935065952726e-05 0.0005599487990798659 0.0 0.0
0.0 3.343915011552487e-05 -4.73949751108581e-06 3.761925385104232e-06 9.775721259815475e-07 5.594452513062216e-07 0.0 0.0
0.0 0.00033439979862965783 0.00024970267500402926 -0.00019756398291860352 -5.213869208542573e-05 -3.5466889193736e-05 0.0 0.0
0.0 0.0017428785432376352 0.001431572633808339 -0.0011957585049172247 -0.00023581412889111446 -0.000154550625123904 0.0 0.0
0.0 0.004697505092522867 0.004242445367130321 -0.003764636853757933 -0.0004778085133723876 -0.00034809685383095895 0.0 0.0
0.0 0.01011334925508529 0.008985139654356216 -0.008346305717053432 -0.0006388339373027817 -0.0006417526352741547 0.0 0.0
0.0 0.018192926959830612 0.016007541733898126 -0.01525651285793022 -0.0007510288759679002 -0.0010915432064893854 0.0 0.0
0.0 0.029133188222055444 0.025486185010487508 -0.024630171483638667 -0.0008560135268488292 -0.001729319078743814 0.0 0.0
0.0 0.042898610241817854 0.037389399999410045 -0.036422401802505326 -0.0009669981969046965 -0.0025052337601436676 0.0 0.0
0.0 0.05932166204018497 0.05155151899827386 -0.05046892820113647 -0.001082590797137374 -0.003319920183234125 0.0 0.0
0.0 0.07787995370328174 0.06776791500474902 -0.06656748342074768 -0.0012004315840012869 -0.004119618309578923 0.0 0.0
0.0 0.09863567860702169 0.08582522690175995 -0.08450561773393574 -0.0013196091678241138 -0.004906023477614444 0.0 0.0
0.0 0.12129911607110253 0.10547496050748223 -0.10403328809571913 -0.001441672411763037 -0.005669656078457371 0.0 0.0
0.0 0.1453421975723589 0.12631518055003302 -0.12474729333150963 -0.001567887218523332 -0.006372557561729133 0.0 0.0
0.0 0.17000502370317172 0.14765821933323897 -0.145961191702818 -0.0016970276304210385 -0.006875460883838838 0.0 0.0
0.0 0.19406776558488753 0.16847723441271834 -0.1666523891834259 -0.0018248452292924412 -0.006937715271696602 0.0 0.0
0.0 0.2159763894686109 0.18744267943151507 -0.18549575352908793 -0.0019469259024271117 -0.006342149461346095 0.0 0.0
0.0 0.23390519444270258 0.20296725896675685 -0.20090433178745531 -0.0020629271793015194 -0.005429027147010084 0.0 0.0
0.0 0.24491010034722252 0.21263044655277533 -0.21038659345032035 -0.002243853102454989 -0.006390545713484643 0.0 0.0
0.0 0.24491010034720895 0.21263044655276314 -0.21038659345030852 -0.0022438531024545905 0.006390545713493782 0.0 0.0
0.0 0.23390519444264912 0.20296725896671056 -0.20090433178740863 -0.002062927179301797 0.005429027147033446 0.0 0.0
0.0 0.21597638946852124 0.18744267943143775 -0.18549575352901027 -0.0019469259024274318 0.0063421494613602365 0.0 0.0
0.0 0.19406776558478028 0.1684772344126251 -0.16665238918333344 -0.0018248452292916205 0.006937715271702918 0.0 0.0
0.0 0.17000502370305648 0.1476582193331387 -0.14596119170271898 -0.0016970276304197661 0.006875460883829905 0.0 0.0
0.0 0.14534219757223948 0.12631518054992916 -0.12474729333140677 -0.0015678872185223766 0.0063725575617265655 0.0 0.0
0.0 0.12129911607098257 0.10547496050737823 -0.10403328809561566 -0.0014416724117625368 0.005669656078457739 0.0 0.0
0.0 0.0986356786069031 0.08582522690165717 -0.08450561773383349 -0.0013196091678236719 0.004906023477613061 0.0 0.0
0.0 0.07787995370316836 0.06776791500465068 -0.06656748342065001 -0.0012004315840006318 0.004119618309571475 0.0 0.0
0.0 0.05932166204008467 0.051551518998186587 -0.050468928201049854 -0.0010825907971367147 0.0033199201832280574 0.0 0.0
0.0 0.04289861024173355 0.037389399999337034 -0.03642240180243291 -0.0009669981969041396 0.002505233760132951 0.0 0.0
0.0 0.02913318822199195 0.025486185010431806 -0.024630171483583613 -0.0008560135268482122 0.0017293190787411516 0.0 0.0
0.0 0.01819292695978475 0.016007541733857444 -0.015256512857890155 -0.0007510288759672844 0.0010915432064857332 0.0 0.0
0.0 0.010113349255052096 0.008985139654326645 -0.008346305717024417 -0.0006388339373022208 0.0006417526352721578 0.0 0.0
0.0 0.004697505092503789 0.004242445367112916 -0.0037646368537413745 -0.0004778085133715406 0.0003480968538290397 0.0 0.0
0.0 0.0017428785432290388 0.0014315726338011685 -0.0011957585049108986 -0.00023581412889026924 0.00015455062512306116 0.0 0.0
0.0 0.00033439979862755393 0.0002497026750030454 -0.00019756398291781077 -5.21386920852346e-05 3.546688919357142e-05 0.0 0.0
0.0 3.343915011503328e-05 -4.739497510986827e-06 3.7619253850256613e-06 9.775721259612102e-07 -5.59445251293099e-07 0.0 0.0
0.0 0.0008686648212515816 0.0006229833581121812 -0.0005341140074528719 -8.886935065930973e-05 -0.0005599487990777845 0.0 0.0
0.0 0.013807703806994939 0.010701663386420479 -0.01108230494709661 0.00038064156067612616 0.0061676153107363555 0.0 0.0
0.0 0.010305631991494424 0.007485175218586301 -0.007980262832149844 0.0004950876135635409 -0.007163630524832826 0.0 0.0
0.0 1.1622092295861226e-05 8.457628667502108e-06 -7.4601223201324146e-06 -9.975063473696958e-07 5.485154001466462e-06 0.0 0.0
0.0 5.912469158992311e-07 1.0418615757432165e-07 -7.789891495872863e-08 -2.628724261559574e-08 -3.2609772449816707e-08 0.0 0.0
0.0 0.0001349795660667562 9.53495138686269e-05 -7.487743381787715e-05 -2.047208005074996e-05 -3.351158789140592e-05 0.0 0.0
0.0 0.0011776518685371305 0.0009282554679492633 -0.0007638640664622065 -0.00016439140148705742 -0.00024679515271508066 0.0 0.0
0.0 0.0036338431226502505 0.0032851054822126496 -0.002870706343907331 -0.0004143991383053176 -0.0007138939238911367 0.0 0.0
0.0 0.008429094109593032 0.007482885482123959 -0.006880528305176774 -0.0006023571769471808 -0.00145891123242295 0.0 0.0
0.0 0.015722909340044902 0.013809068276785068 -0.01308280597132962 -0.0007262623054554443 -0.002540861790956337 0.0 0.0
0.0 0.02562480975641941 0.022376647056279717 -0.02154502060000254 -0.000831626456277171 -0.003986941776535632 0.0 0.0
0.0 0.03803891451231291 0.03310388237538882 -0.03216614987673199 -0.0009377324986568334 -0.005677753940971393 0.0 0.0
0.0 0.05275453180417782 0.0458094085834351 -0.04476400859960067 -0.0010453999838344308 -0.007422634205111231 0.0 0.0
0.0 0.06960882061360184 0.060315642934960986 -0.059161985015110656 -0.0011536579198502988 -0.009105179553476757 0.0 0.0
0.0 0.08813600419711748 0.07647455824045114 -0.07521119399095365 -0.001263364249497509 -0.010775030285841519 0.0 0.0
0.0 0.10840554838440673 0.09408706415694423 -0.09271165068336425 -0.0013754134735799828 -0.012437908502865112 0.0 0.0
0.0 0.13001719855963742 0.11280995473907932 -0.1113197424169952 -0.0014902123220840472 -0.013975247906953585 0.0 0.0
0.0 0.1522221139231021 0.13206190685851382 -0.13045477776086659 -0.0016071290976472667 -0.015112186396661783 0.0 0.0
0.0 0.17400518163105805 0.1509557599372881 -0.14923122515823192 -0.0017245347790562026 -0.01538949760444277 0.0 0.0
0.0 0.19396637698353858 0.16826791668382027 -0.16642608452920946 -0.0018418321546107754 -0.014479078707978276 0.0 0.0
0.0 0.21011471118297753 0.1822887389768786 -0.1803159003727771 -0.0019728386041015147 -0.012671384573569764 0.0 0.0
0.0 0.2198019727917005 0.19072753674364795 -0.18865424613574955 -0.002073290607898418 -0.009780214986113669 0.0 0.0
0.0 0.2198019727916835 0.19072753674363324 -0.1886542461357345 -0.002073290607898839 0.009780214986137752 0.0 0.0
0.0 0.21011471118293382 0.1822887389768396 -0.1803159003727389 -0.001972838604100709 0.012671384573613463 0.0 0.0
0.0 0.19396637698346453 0.1682679166837554 -0.16642608452914487 -0.001841832154610447 0.014479078708007246 0.0 0.0
0.0 0.17400518163096534 0.15095575993720722 -0.14923122515815196 -0.0017245347790550531 0.015389497604456053 0.0 0.0
0.0 0.15222211392299934 0.13206190685842475 -0.13045477776077857 -0.001607129097646139 0.015112186396652485 0.0 0.0
0.0 0.13001719855953237 0.1128099547389879 -0.11131974241690505 -0.00149021232208285 0.013975247906948277 0.0 0.0
0.0 0.10840554838430026 0.09408706415685149 -0.09271165068327283 -0.0013754134735786362 0.012437908502862385 0.0 0.0
0.0 0.08813600419701123 0.0764745582403586 -0.0752111939908624 -0.0012633642494962046 0.010775030285835726 0.0 0.0
0.0 0.06960882061349978 0.060315642934872286 -0.059161985015022955 -0.0011536579198493091 0.009105179553464272 0.0 0.0
0.0 0.05275453180408704 0.04580940858335626 -0.04476400859952259 -0.0010453999838336567 0.007422634205100373 0.0 0.0
0.0 0.03803891451223755 0.03310388237532345 -0.032166149876667056 -0.0009377324986563742 0.005677753940956034 0.0 0.0
0.0 0.025624809756358183 0.022376647056225968 -0.021545020599949172 -0.0008316264562767763 0.0039869417765281915 0.0 0.0
0.0 0.015722909339999938 0.01380906827674565 -0.01308280597129068 -0.0007262623054549767 0.00254086179094855 0.0 0.0
0.0 0.008429094109566087 0.007482885482099871 -0.006880528305153365 -0.0006023571769465053 0.0014589112324182368 0.0 0.0
0.0 0.0036338431226348032 0.003285105482198988 -0.002870706343894659 -0.0004143991383043287 0.0007138939238881043 0.0 0.0
0.0 0.0011776518685303469 0.0009282554679440327 -0.0007638640664576861 -0.00016439140148634683 0.0002467951527136895 0.0 0.0
0.0 0.0001349795660654516 9.534951386808055e-05 -7.487743381742313e-05 -2.0472080050657295e-05 3.351158789115121e-05 0.0 0.0
0.0 5.912469159666274e-07 1.0418615764253081e-07 -7.789891501016573e-08 -2.6287242632367e-08 3.260977247292743e-08 0.0 0.0
0.0 1.1622092295497772e-05 8.457628667516281e-06 -7.46012232013396e-06 -9.97506347382318e-07 -5.4851540014777705e-06 0.0 0.0
0.0 0.010305631991472919 0.007485175218572207 -0.007980262832135047 0.0004950876135628347 0.007163630524807013 0.0 0.0
0.0 0.00784462823653098 0.0053981541133103425 -0.00592412243016876 0.000525968316858419 -0.006314127361492591 0.0 0.0
0.0 0.0 0.0 0.0 0.0 0.0 0.0 0.0
0.0 0.0 0.0 0.0 0.0 0.0 0.0 0.0
0.0 3.0159733409601232e-05 2.4157712426013083e-05 -1.888384608794042e-05 -5.273866338072688e-06 -1.5719417958483886e-05 0.0 0.0
0.0 0.0006743015390258326 0.0005375700722292564 -0.00043602482386946443 -0.0001015452483597918 -0.0002534686540982024 0.0 0.0
0.0 0.002823440519903576 0.0023798013413079645 -0.0020446386860262216 -0.00033516265528174256 -0.0008927315300958762 0.0 0.0
0.0 0.006806351982657137 0.006011004755501009 -0.0054556472982288644 -0.0005553574572721459 -0.0019881331548935247 0.0 0.0
0.0 0.013277237174610025 0.0116023713018141 -0.01090789438831611 -0.0006944769134979818 -0.0035874047256626213 0.0 0.0
0.0 0.022136563549301567 0.019222003972112982 -0.018419555446875423 -0.0008024485252375635 -0.005670562864159096 0.0 0.0
0.0 0.03320814425874752 0.028749470972656323 -0.027845753639648613 -0.0009037173330076909 -0.008067500941379521 0.0 0.0
0.0 0.04628882247913686 0.03999171943571667 -0.038988141502562065 -0.0010035779331546172 -0.010536945838758046 0.0 0.0
0.0 0.06110429417629386 0.05279165175231589 -0.051688713188566604 -0.0011029385637492783 -0.012928915081657593 0.0 0.0
0.0 0.07769508712332847 0.06703607362778992 -0.06583307523350662 -0.0012029983942832903 -0.015279897618631914 0.0 0.0
0.0 0.09556826065213483 0.08258919256151907 -0.08128460684233409 -0.001304585719184942 -0.017636264318616042 0.0 0.0
0.0 0.1146898808873402 0.09918348014849702 -0.09777587171751621 -0.0014076084309808017 -0.019853515874236793 0.0 0.0
0.0 0.1345019266588975 0.11635061123208301 -0.11483827467441701 -0.0015123365576659841 -0.02153546442546004 0.0 0.0
0.0 0.15405728508851815 0.13334382218010093 -0.13172400421147576 -0.0016198179686251887 -0.02212672209696357 0.0 0.0
0.0 0.1720320848439793 0.14902191367305873 -0.14728735886475183 -0.001734554808306905 -0.021161659602051342 0.0 0.0
0.0 0.1865602787427291 0.16174454791607434 -0.15989791773184114 -0.0018466301842331285 -0.018153174689640308 0.0 0.0
0.0 0.19550532540347992 0.1696574159263165 -0.16772945987992915 -0.001927956046387206 -0.012149565205034383 0.0 0.0
0.0 0.19550532540346519 0.16965741592630298 -0.16772945987991597 -0.0019279560463869245 0.012149565205074578 0.0 0.0
0.0 0.186560278742689 0.16174454791603718 -0.1598979177318053 -0.0018466301842319948 0.018153174689699927 0.0 0.0
0.0 0.1720320848439128 0.1490219136729994 -0.14728735886469305 -0.0017345548083062146 0.021161659602091244 0.0 0.0
0.0 0.1540572850884373 0.13334382218002988 -0.13172400421140537 -0.0016198179686245655 0.022126722096981306 0.0 0.0
0.0 0.13450192665880392 0.11635061123200194 -0.11483827467433667 -0.0015123365576651918 0.0215354644254497 0.0 0.0
0.0 0.11468988088724054 0.09918348014841055 -0.0977758717174303 -0.0014076084309802808 0.0198535158742296 0.0 0.0
0.0 0.09556826065203575 0.08258919256143318 -0.08128460684224824 -0.0013045857191849352 0.017636264318610817 0.0 0.0
0.0 0.07769508712323324 0.0670360736277075 -0.06583307523342417 -0.0012029983942832695 0.015279897618624378 0.0 0.0
0.0 0.06110429417620067 0.052791651752235824 -0.05168871318848662 -0.0011029385637492213 0.012928915081639273 0.0 0.0
0.0 0.04628882247905621 0.03999171943564665 -0.03898814150249259 -0.0010035779331540437 0.010536945838741728 0.0 0.0
0.0 0.033208144258681314 0.028749470972598917 -0.027845753639591846 -0.0009037173330070593 0.008067500941359825 0.0 0.0
0.0 0.02213656354924818 0.019222003972066467 -0.018419555446829414 -0.0008024485252370462 0.0056705628641472074 0.0 0.0
0.0 0.013277237174571986 0.011602371301780951 -0.010907894388283353 -0.0006944769134975916 0.0035874047256518387 0.0 0.0
0.0 0.0068063519826339 0.006011004755480441 -0.005455647298209108 -0.0005553574572713313 0.0019881331548871535 0.0 0.0
0.0 0.0028234405198909115 0.002379801341297408 -0.0020446386860166928 -0.00033516265528071485 0.0008927315300917767 0.0 0.0
0.0 0.0006743015390219053 0.0005375700722264669 -0.00043602482386711534 -0.00010154524835935147 0.0002534686540967619 0.0 0.0
0.0 3.015973340936712e-05 2.4157712426338727e-05 -1.8883846088189668e-05 -5.273866338149083e-06 1.5719417958654485e-05 0.0 0.0
0.0 0.0 0.0 0.0 0.0 0.0 0.0 0.0
0.0 0.0 0.0 0.0 0.0 0.0 0.0 0.0
0.0 0.00784462823651144 0.005398154113296937 -0.005924122430154747 0.0005259683168578077 0.006314127361470749 0.0 0.0
0.0 0.005905100495773329 0.0038999153882341275 -0.004398972531925562 0.0004990571436914333 -0.0050105727358509995 0.0 0.0
0.0 0.0 0.0 0.0 0.0 0.0 0.0 0.0
0.0 0.0 0.0 0.0 0.0 0.0 0.0 0.0
0.0 5.133057880013431e-06 2.2215772847303705e-06 -1.7270250139480835e-06 -4.945522707822711e-07 -2.2659256190500974e-06 0.0 0.0
0.0 0.0003359040281778756 0.00026061750742958656 -0.0002092547260270575 -5.136278140252886e-05 -0.00019698921732887552 0.0 0.0
0.0 0.001957545454863752 0.0015993450465371878 -0.0013494158054646477 -0.00024992924107254016 -0.0009107460834548432 0.0 0.0
0.0 0.005311941741356679 0.00458965190001126 -0.0040999289201331425 -0.0004897229798781183 -0.0022353894565842057 0.0 0.0
0.0 0.010885965904987773 0.00941655381299257 -0.0087624352880286 -0.000654118524963969 -0.004224276217632324 0.0 0.0
0.0 0.018669317056590487 0.016057728684849077 -0.015290952916580027 -0.000766775768269056 -0.00677178619768813 0.0 0.0
0.0 0.028381971422448596 0.024365263515899488 -0.023500981482383058 -0.0008642820335163998 -0.00967894016265628 0.0 0.0
0.0 0.03980153891782313 0.03413549387425796 -0.033178584610768974 -0.0009569092634889816 -0.012663790258306724 0.0 0.0
0.0 0.052738664322147036 0.04522393179916857 -0.04417626687766437 -0.001047664921504197 -0.01557244287015375 0.0 0.0
0.0 0.06708142533975835 0.057552500776237275 -0.05641452136942314 -0.0011379794068141398 -0.01844649269618888 0.0 0.0
0.0 0.0827687007555288 0.07103233986969515 -0.06980313459128859 -0.0012292052784065519 -0.02128830552733318 0.0 0.0
0.0 0.09953894757828777 0.08547704358698538 -0.0841566390917523 -0.0013204044952330502 -0.023964493239076224 0.0 0.0
0.0 0.11675904038175253 0.10054039459618899 -0.09912768483213508 -0.0014127097640538604 -0.026109341631060018 0.0 0.0
0.0 0.13409477565115574 0.11561364623891017 -0.1141034172140826 -0.001510229024827561 -0.02709384693932141 0.0 0.0
0.0 0.15018477618317938 0.129701408917688 -0.12808762448583288 -0.001613784431855099 -0.026156538428104642 0.0 0.0
0.0 0.16337736770912367 0.1413815757914273 -0.13966828531740288 -0.0017132904740243368 -0.02224192687091283 0.0 0.0
0.0 0.17189711733733104 0.14907565860730976 -0.1472890666064758 -0.0017865920008339634 -0.014056355736051842 0.0 0.0
0.0 0.17189711733731644 0.14907565860729627 -0.14728906660646188 -0.001786592000834466 0.014056355736103015 0.0 0.0
0.0 0.16337736770908495 0.14138157579139127 -0.13966828531736625 -0.0017132904740249475 0.02224192687098067 0.0 0.0
0.0 0.15018477618312306 0.12970140891763682 -0.12808762448578148 -0.0016137844318551892 0.026156538428152208 0.0 0.0
0.0 0.13409477565108802 0.11561364623884987 -0.11410341721402276 -0.0015102290248270901 0.027093846939342713 0.0 0.0
0.0 0.11675904038167079 0.10054039459611847 -0.0991276848320648 -0.0014127097640536505 0.026109341631049887 0.0 0.0
0.0 0.09953894757820123 0.08547704358691084 -0.08415663909167764 -0.001320404495233212 0.023964493239065247 0.0 0.0
0.0 0.08276870075544382 0.07103233986962135 -0.06980313459121523 -0.0012292052784060965 0.02128830552732412 0.0 0.0
0.0 0.06708142533967731 0.05755250077616676 -0.056414521369353474 -0.0011379794068132878 0.018446492696177152 0.0 0.0
0.0 0.052738664322071284 0.0452239317991031 -0.044176266877599485 -0.0010476649215036217 0.015572442870134111 0.0 0.0
0.0 0.03980153891775287 0.03413549387419751 -0.033178584610708814 -0.000956909263488688 0.012663790258284888 0.0 0.0
0.0 0.028381971422390184 0.024365263515849694 -0.02350098148233373 -0.0008642820335159416 0.009678940162632526 0.0 0.0
0.0 0.018669317056546647 0.0160577286848112 -0.01529095291654273 -0.000766775768268469 0.006771786197673479 0.0 0.0
0.0 0.010885965904957565 0.009416553812966355 -0.008762435288003217 -0.0006541185249631339 0.004224276217620392 0.0 0.0
0.0 0.005311941741337565 0.00458965189999488 -0.004099928920117702 -0.0004897229798771777 0.0022353894565768366 0.0 0.0
0.0 0.0019575454548523617 0.0015993450465283474 -0.0013494158054568966 -0.0002499292410714513 0.0009107460834499421 0.0 0.0
0.0 0.00033590402817468767 0.0002606175074277306 -0.00020925472602551252 -5.136278140221818e-05 0.00019698921732747026 0.0 0.0
0.0 5.1330578796860325e-06 2.2215772849561607e-06 -1.7270250141225327e-06 -4.945522708336167e-07 2.2659256192728467e-06 0.0 0.0
0.0 0.0 0.0 0.0 0.0 0.0 0.0 0.0
0.0 0.0 0.0 0.0 0.0 0.0 0.0 0.0
0.0 0.00590510049575584 0.0038999153882224966 -0.004398972531913251 0.0004990571436907527 0.005010572735833447 0.0 0.0
0.0 0.004310715719714874 0.0027455054305848352 -0.003182685920415935 0.0004371804898311003 -0.0037297230323325515 0.0 0.0
0.0 0.0 0.0 0.0 0.0 0.0 0.0 0.0
0.0 0.0 0.0 0.0 0.0 0.0 0.0 0.0
0.0 7.71703421541898e-07 3.1462288058283534e-07 -2.402301176400952e-07 -7.439276294274025e-08 -4.6107082047751863e-07 0.0 0.0
0.0 0.00014270267240479786 0.00010073701360719314 -8.056975594210425e-05 -2.0167257665088923e-05 -0.00011773433502138796 0.0 0.0
0.0 0.0012263999950400861 0.0009652493257465664 -0.0008003276177660622 -0.00016492170798050436 -0.0008116901159615284 0.0 0.0
0.0 0.004012867711665009 0.00326639600007535 -0.0028617276516113713 -0.00040466834846397757 -0.0022114306927499133 0.0 0.0
0.0 0.008618799934493802 0.007276688364083309 -0.006677713168127887 -0.0005989751959554217 -0.004410535693056225 0.0 0.0
0.0 0.015246111663499148 0.012919073119625066 -0.012196217991330322 -0.0007228551282947476 -0.007283466130438321 0.0 0.0
0.0 0.023594062062330848 0.01998886603461269 -0.019170480841801795 -0.0008183851928108882 -0.010507983160489976 0.0 0.0
0.0 0.03336026799348905 0.028278373291710054 -0.0273737260142284 -0.0009046472774816848 -0.013812455589071005 0.0 0.0
0.0 0.04435329511505197 0.037651906426968376 -0.036665053074186715 -0.0009868533527816583 -0.017035333554768183 0.0 0.0
0.0 0.05659033896743703 0.04805965133538022 -0.0469919979287978 -0.0010676534065824194 -0.020220916919402636 0.0 0.0
0.0 0.06982355478929114 0.059463791790685554 -0.058315618795830026 -0.0011481729948555333 -0.02338765863318997 0.0 0.0
0.0 0.08413217837900586 0.07174514049034224 -0.07051694707354221 -0.001228193416800004 -0.02636079691771803 0.0 0.0
0.0 0.09919896310354814 0.08465952235750723 -0.08335092480499005 -0.001308597552517186 -0.02879352728691016 0.0 0.0
0.0 0.11412387365331263 0.09776464403646196 -0.09637210739245124 -0.0013925366440107007 -0.030133785427333422 0.0 0.0
0.0 0.12831076441493316 0.11029571900210734 -0.10881289073519773 -0.0014828282669095817 -0.029417299242593186 0.0 0.0
0.0 0.14036198072212508 0.12109236796967428 -0.11951998887138654 -0.001572379098287693 -0.025120030461142723 0.0 0.0
0.0 0.14868230279519629 0.12876550590617541 -0.1271219704410545 -0.001643535465120826 -0.01563690181782319 0.0 0.0
0.0 0.14868230279518843 0.12876550590616667 -0.12712197044104617 -0.0016435354651204047 0.015636901817877125 0.0 0.0
0.0 0.14036198072209696 0.12109236796964622 -0.11951998887135842 -0.0015723790982877862 0.02512003046121316 0.0 0.0
0.0 0.12831076441488937 0.11029571900206574 -0.10881289073515633 -0.0014828282669094098 0.02941729924264551 0.0 0.0
0.0 0.11412387365325706 0.09776464403641126 -0.09637210739240136 -0.001392536644009882 0.030133785427357958 0.0 0.0
0.0 0.09919896310347974 0.08465952235744759 -0.08335092480493136 -0.0013085975525162978 0.028793527286901544 0.0 0.0
0.0 0.08413217837893028 0.07174514049027686 -0.07051694707347707 -0.001228193416799819 0.026360796917706195 0.0 0.0
0.0 0.06982355478921701 0.05946379179062154 -0.058315618795765856 -0.0011481729948556794 0.02338765863317898 0.0 0.0
0.0 0.05659033896736606 0.04805965133531852 -0.04699199792873626 -0.0010676534065822284 0.0202209169193907 0.0 0.0
0.0 0.044353295114985675 0.03765190642691151 -0.03666505307413036 -0.000986853352781139 0.017035333554746835 0.0 0.0
0.0 0.03336026799343116 0.028278373291660636 -0.027373726014179856 -0.0009046472774807791 0.013812455589047316 0.0 0.0
0.0 0.02359406206228285 0.01998886603457259 -0.019170480841762635 -0.0008183851928099615 0.010507983160464161 0.0 0.0
0.0 0.015246111663460427 0.01291907311959218 -0.012196217991297817 -0.0007228551282943559 0.0072834661304215145 0.0 0.0
0.0 0.008618799934464638 0.007276688364059073 -0.006677713168104226 -0.0005989751959548456 0.004410535693041696 0.0 0.0
0.0 0.0040128677116476955 0.003266396000061341 -0.0028617276515983557 -0.0004046683484629854 0.0022114306927412198 0.0 0.0
0.0 0.0012263999950330028 0.0009652493257415279 -0.0008003276177617016 -0.00016492170797982548 0.0008116901159570656 0.0 0.0
0.0 0.00014270267240370049 0.00010073701360700668 -8.056975594193579e-05 -2.0167257665070844e-05 0.00011773433502105613 0.0 0.0
0.0 7.717034213892289e-07 3.146228807183408e-07 -2.4023011774391794e-07 -7.439276297442083e-08 4.6107082068095064e-07 0.0 0.0
0.0 0.0 0.0 0.0 0.0 0.0 0.0 0.0
0.0 0.0 0.0 0.0 0.0 0.0 0.0 0.0
0.0 0.004310715719700799 0.002745505430575708 -0.003182685920406103 0.000437180489830393 0.003729723032319244 0.0 0.0
0.0 0.00297867012586434 0.0018405661443326262 -0.0021940303666294447 0.00035346422229681795 -0.002624129557714564 0.0 0.0
0.0 0.0 0.0 0.0 0.0 0.0 0.0 0.0
0.0 0.0 0.0 0.0 0.0 0.0 0.0 0.0
0.0 1.2459832782016668e-06 -8.711175530045244e-08 6.722946238267231e-08 1.9882292917777628e-08 2.0432140011233723e-07 0.0 0.0
0.0 6.204485278181847e-05 3.400040580083503e-05 -2.7125558615777172e-05 -6.874847185057859e-06 -5.926889777869317e-05 0.0 0.0
0.0 0.0006706682519341496 0.0005022737103428727 -0.0004106290345280293 -9.164467581484313e-05 -0.0006282052828457088 0.0 0.0
0.0 0.002697082694351952 0.002118473294991892 -0.0018159346133800518 -0.00030253868161184084 -0.0020119761555495025 0.0 0.0
0.0 0.006470115415795121 0.005240857797054351 -0.004721525870243024 -0.0005193319268113261 -0.00421329090111356 0.0 0.0
0.0 0.011940495949879124 0.009839777751995273 -0.009174202088006712 -0.0006655756639885557 -0.007173868908265058 0.0 0.0
0.0 0.01886477615159905 0.015659843139183602 -0.014895905661659036 -0.000763937477524563 -0.010543009750982983 0.0 0.0
0.0 0.026947439184523192 0.02246084040326455 -0.021616007231609505 -0.0008448331716550436 -0.013966169013575292 0.0 0.0
0.0 0.036024138514409505 0.03011752730701825 -0.029198177678565765 -0.0009193496284524917 -0.01730696687792531 0.0 0.0
0.0 0.046048799080590175 0.03860451755561171 -0.03761387778107096 -0.0009906397745407312 -0.020612284200008265 0.0 0.0
0.0 0.05702664319987216 0.047925743685605315 -0.04686530317521065 -0.0010604405103946755 -0.023886016430718117 0.0 0.0
0.0 0.06891387190324945 0.05803074565461893 -0.05690075903565395 -0.001129986618965005 -0.02698381461084258 0.0 0.0
0.0 0.08124546235218943 0.06876067249819366 -0.0675622702107476 -0.0011984022874460829 -0.029585185865011496 0.0 0.0
0.0 0.09408525484576975 0.07982674736741774 -0.07855964192857358 -0.0012671054388441317 -0.031173760820451948 0.0 0.0
0.0 0.10651502697399583 0.09076334025548397 -0.08942199881039475 -0.001341341445089205 -0.030827885616100024 0.0 0.0
0.0 0.1173500349547423 0.10074218652485221 -0.09932090090312538 -0.0014212856217267718 -0.026766073275263338 0.0 0.0
0.0 0.12562469604119647 0.10853451719414109 -0.1070401617432363 -0.0014943554509047406 -0.01692340586308434 0.0 0.0
0.0 0.1256246960411867 0.10853451719413086 -0.10704016174322552 -0.0014943554509053115 0.01692340586313922 0.0 0.0
0.0 0.11735003495471834 0.10074218652482657 -0.09932090090309986 -0.001421285621726728 0.02676607327533547 0.0 0.0
0.0 0.10651502697395884 0.0907633402554469 -0.08942199881035832 -0.0013413414450885906 0.03082788561615293 0.0 0.0
0.0 0.09408525484572636 0.07982674736737713 -0.07855964192853375 -0.0012671054388433424 0.03117376082047518 0.0 0.0
0.0 0.08124546235213215 0.06876067249814435 -0.0675622702106985 -0.0011984022874458214 0.029585185865001203 0.0 0.0
0.0 0.06891387190318932 0.058030745654566916 -0.05690075903560255 -0.0011299866189643485 0.02698381461082959 0.0 0.0
0.0 0.057026643199815895 0.04792574368555634 -0.04686530317516242 -0.0010604405103939363 0.023886016430705873 0.0 0.0
0.0 0.04604879908053401 0.038604517555562996 -0.03761387778102285 -0.000990639774540166 0.020612284199996063 0.0 0.0
0.0 0.03602413851435652 0.030117527306973195 -0.029198177678521498 -0.0009193496284516882 0.017306966877905425 0.0 0.0
0.0 0.026947439184473017 0.02246084040322261 -0.021616007231568035 -0.0008448331716545813 0.013966169013551136 0.0 0.0
0.0 0.018864776151557898 0.015659843139150066 -0.014895905661626158 -0.0007639374775239078 0.010543009750955592 0.0 0.0
0.0 0.01194049594984999 0.0098397777519709 -0.009174202087983196 -0.0006655756639876972 0.007173868908248464 0.0 0.0
0.0 0.00647011541577343 0.005240857797036827 -0.004721525870226361 -0.0005193319268104666 0.004213290901100283 0.0 0.0
0.0 0.0026970826943383507 0.002118473294981314 -0.0018159346133705251 -0.00030253868161078857 0.002011976155540704 0.0 0.0
0.0 0.0006706682519284216 0.0005022737103391951 -0.0004106290345249227 -9.164467581427233e-05 0.000628205282841209 0.0 0.0
0.0 6.204485278071602e-05 3.400040580072675e-05 -2.7125558615674194e-05 -6.874847185052556e-06 5.926889777840003e-05 0.0 0.0
0.0 1.245983277765114e-06 -8.711175526903953e-08 6.722946235833695e-08 1.9882292910690027e-08 -2.0432140003799813e-07 0.0 0.0
0.0 0.0 0.0 0.0 0.0 0.0 0.0 0.0
0.0 0.0 0.0 0.0 0.0 0.0 0.0 0.0
0.0 0.0029786701258528395 0.001840566144325451 -0.0021940303666214815 0.00035346422229603114 0.0026241295577041136 0.0 0.0
0.0 0.0019268466221907296 0.0011366412096448471 -0.0013939333043325249 0.00025729209468767735 -0.0017116978252411487 0.0 0.0
0.0 5.610935232125803e-07 -8.037160125762508e-09 8.338978319598262e-09 -3.018181938355691e-10 1.1164998698213293e-07 0.0 0.0
0.0 0.0 0.0 0.0 0.0 0.0 0.0 0.0
0.0 1.343535810957597e-06 -6.745450613659108e-08 5.1836617700734505e-08 1.5617888435866596e-08 2.5068220686766373e-07 0.0 0.0
0.0 3.3332646163980604e-05 1.5646740986023793e-05 -1.2405069134077292e-05 -3.241671851946504e-06 -4.043702186476016e-05 0.0 0.0
0.0 0.0003564447899850289 0.0002103136039055373 -0.0001703258379322869 -3.9987765973250493e-05 -0.00039792582088632515 0.0 0.0
0.0 0.0016386531096137034 0.001178049561292857 -0.0009870654692999588 -0.0001909840919928985 -0.0016190322698600554 0.0 0.0
0.0 0.004434680517790881 0.0033906857733345475 -0.002981174066938991 -0.0004095117063955545 -0.00369405836701034 0.0 0.0
0.0 0.008740437106446855 0.0068843962203332726 -0.006301556568068344 -0.0005828396522649232 -0.006486377684088088 0.0 0.0
0.0 0.014223093792305925 0.011421600695954567 -0.010726754095234247 -0.0006948466007203163 -0.009748340144607853 0.0 0.0
0.0 0.020613085379323045 0.01672608293193547 -0.01595221331464758 -0.0007738696172878899 -0.013110960600601932 0.0 0.0
0.0 0.02774998257733792 0.022668339287787467 -0.0218261306339486 -0.0008422086538388687 -0.016373952541468402 0.0 0.0
0.0 0.03562842616957214 0.02923700792928202 -0.028332529312976595 -0.0009044786163054165 -0.019586538721930866 0.0 0.0
0.0 0.04421972064679899 0.03647316101150331 -0.035509567544995596 -0.000963593466507697 -0.022781599112735206 0.0 0.0
0.0 0.05358911987507375 0.044386574400791634 -0.0433647914843452 -0.0010217829164464423 -0.025823333732984257 0.0 0.0
0.0 0.06356007998559011 0.052898043024410424 -0.05181757819694775 -0.0010804648274626875 -0.028398658010867935 0.0 0.0
0.0 0.07384967793428868 0.06184906123925249 -0.060715165318719934 -0.0011338959205325432 -0.030123207201803455 0.0 0.0
0.0 0.08429329959952488 0.07107682020089819 -0.06988894677740365 -0.0011878734234945418 -0.030288131536099015 0.0 0.0
0.0 0.09433659467380683 0.08018454476588621 -0.07892925668136928 -0.0012552880845168987 -0.027075006543939743 0.0 0.0
0.0 0.10273931444092718 0.08818066618932272 -0.08684699821653 -0.0013336679727927031 -0.017887606734601304 0.0 0.0
0.0 0.10273931444092411 0.08818066618931719 -0.0868469982165253 -0.0013336679727918399 0.017887606734654334 0.0 0.0
0.0 0.09433659467379171 0.08018454476586698 -0.07892925668135058 -0.001255288084516501 0.02707500654401025 0.0 0.0
0.0 0.08429329959949868 0.07107682020086956 -0.06988894677737548 -0.0011878734234940303 0.030288131536151668 0.0 0.0
0.0 0.07384967793425226 0.06184906123921745 -0.060715165318685274 -0.0011338959205321945 0.030123207201826204 0.0 0.0
0.0 0.0635600799855454 0.05289804302437185 -0.051817578196909395 -0.0010804648274624399 0.028398658010858377 0.0 0.0
0.0 0.05358911987502197 0.04438657440074785 -0.04336479148430136 -0.0010217829164464822 0.025823333732967094 0.0 0.0
0.0 0.04421972064675419 0.03647316101146485 -0.03550956754495742 -0.000963593466507431 0.02278159911272289 0.0 0.0
0.0 0.035628426169530804 0.029237007929246373 -0.028332529312941328 -0.000904478616305031 0.019586538721919934 0.0 0.0
0.0 0.02774998257729675 0.022668339287753133 -0.021826130633914722 -0.0008422086538384173 0.016373952541448654 0.0 0.0
0.0 0.020613085379283587 0.01672608293190347 -0.01595221331461612 -0.0007738696172873353 0.013110960600577592 0.0 0.0
0.0 0.014223093792271439 0.011421600695927757 -0.010726754095207994 -0.000694846600719756 0.009748340144581043 0.0 0.0
0.0 0.008740437106419103 0.006884396220311472 -0.00630155656804704 -0.0005828396522644323 0.006486377684070047 0.0 0.0
0.0 0.004434680517773336 0.00339068577332117 -0.0029811740669264974 -0.0004095117063946711 0.003694058366997565 0.0 0.0
0.0 0.0016386531096041076 0.00117804956128595 -0.0009870654692939154 -0.0001909840919920342 0.001619032269852115 0.0 0.0
0.0 0.00035644478998171067 0.0002103136039040111 -0.0001703258379310289 -3.998776597298205e-05 0.00039792582088338046 0.0 0.0
0.0 3.333264616303283e-05 1.5646740986156733e-05 -1.240506913417982e-05 -3.2416718519769253e-06 4.0437021865098456e-05 0.0 0.0
0.0 1.343535810551308e-06 -6.74545061154224e-08 5.1836617684484416e-08 1.561788843093987e-08 -2.5068220678900275e-07 0.0 0.0
0.0 0.0 0.0 0.0 0.0 0.0 0.0 0.0
0.0 5.610935225658215e-07 -8.037160116491167e-09 8.3389783100577e-09 -3.018181935663175e-10 -1.1164998685127716e-07 0.0 0.0
0.0 0.0019268466221821212 0.001136641209639924 -0.001393933304326907 0.00025729209468698216 0.0017116978252336417 0.0 0.0
0.0 0.0011108848709278048 0.0006130460794543527 -0.000775991911561278 0.00016294583210692493 -0.000985308476113516 0.0 0.0
0.0 1.1970336074766316e-06 2.5329943397033245e-08 -2.324916515637934e-08 -2.0807782406552535e-09 -6.348103267716805e-07 0.0 0.0
0.0 6.305102464673167e-07 -7.0898921551877894e-09 5.074535917472657e-09 2.0153562377156586e-09 1.2874703632778445e-07 0.0 0.0
0.0 1.232101924835063e-06 5.416078410821942e-08 -4.5183331167392965e-08 -8.97745294082429e-09 -4.354860545731957e-07 0.0 0.0
0.0 2.7103688309351682e-05 9.097712427234749e-06 -7.184316064104728e-06 -1.913396363130036e-06 -3.6877646496303614e-05 0.0 0.0
0.0 0.00019079126841845556 8.230585488768348e-05 -6.620606596895663e-05 -1.6099788918726854e-05 -0.00025128730040276326 0.0 0.0
0.0 0.0008808605110626238 0.0005113467302493296 -0.0004197560037058325 -9.159072654349696e-05 -0.001108444556540548 0.0 0.0
0.0 0.0026582450632557145 0.0018070289303924764 -0.0015405886605474896 -0.0002664402698449862 -0.00286842021669762 0.0 0.0
0.0 0.0057228498297947515 0.004148035110542852 -0.003691574270637008 -0.000456460839905842 -0.005301582527273943 0.0 0.0
0.0 0.00966206589440093 0.007350082664641736 -0.006756728146240301 -0.0005933545184014334 -0.008170149743658449 0.0 0.0
0.0 0.014436116817279247 0.011133575260962059 -0.010452111225848111 -0.0006814640351139455 -0.011199921003730335 0.0 0.0
0.0 0.01959963531982872 0.015362850581390884 -0.01461541638439601 -0.0007474341969948643 -0.014185134217641384 0.0 0.0
0.0 0.02528714809307361 0.020021914505902086 -0.019219043780074236 -0.000802870725827854 -0.01712265566057828 0.0 0.0
0.0 0.031556072866396244 0.025170669086557157 -0.024318750037624792 -0.0008519190489323649 -0.020028212307904285 0.0 0.0
0.0 0.03848435230210242 0.030875632779805783 -0.029977109642739544 -0.0008985231370662143 -0.022832146102301325 0.0 0.0
0.0 0.04591199336946961 0.03714469777404392 -0.03619829054330625 -0.000946407230737666 -0.025255442567255426 0.0 0.0
0.0 0.053826263471915166 0.043915024069512594 -0.042923858268318536 -0.0009911658011940564 -0.026902531267871004 0.0 0.0
0.0 0.062079776221961466 0.0512429032588257 -0.050220793952271664 -0.0010221093065540133 -0.02750210623413418 0.0 0.0
0.0 0.07078188055965136 0.05927305994664263 -0.05820732556716772 -0.0010657343794748776 -0.025741370604938415 0.0 0.0
0.0 0.07924209419945585 0.06747727599700581 -0.06632682946407614 -0.0011504465329296935 -0.018429673748040203 0.0 0.0
0.0 0.07924209419945266 0.06747727599700021 -0.06632682946407017 -0.0011504465329300626 0.018429673748085733 0.0 0.0
0.0 0.07078188055964167 0.05927305994662756 -0.05820732556715275 -0.0010657343794748054 0.025741370605002957 0.0 0.0
0.0 0.06207977622194458 0.05124290325880452 -0.05022079395225108 -0.0010221093065534345 0.027502106234181915 0.0 0.0
0.0 0.05382626347188857 0.04391502406948645 -0.04292385826829323 -0.0009911658011932379 0.026902531267887025 0.0 0.0
0.0 0.04591199336943805 0.03714469777401717 -0.036198290543280616 -0.0009464072307365456 0.025255442567243866 0.0 0.0
0.0 0.03848435230206587 0.030875632779775584 -0.02997710964270964 -0.0008985231370659591 0.02283214610228545 0.0 0.0
0.0 0.03155607286636332 0.025170669086529415 -0.0243187500375972 -0.0008519190489322283 0.020028212307893846 0.0 0.0
0.0 0.0252871480930434 0.02002191450587645 -0.01921904378004883 -0.0008028707258276231 0.017122655660568246 0.0 0.0
0.0 0.01959963531979959 0.015362850581367373 -0.014615416384373112 -0.0007474341969942569 0.014185134217624181 0.0 0.0
0.0 0.014436116817252011 0.0111335752609409 -0.010452111225827489 -0.0006814640351134029 0.01119992100371036 0.0 0.0
0.0 0.00966206589437575 0.007350082664623269 -0.006756728146222594 -0.0005933545184006692 0.00817014974363639 0.0 0.0
0.0 0.00572284982977684 0.004148035110529629 -0.00369157427062453 -0.00045646083990509833 0.005301582527259305 0.0 0.0
0.0 0.0026582450632438547 0.0018070289303839559 -0.001540588660539886 -0.00026644026984406956 0.0028684202166867874 0.0 0.0
0.0 0.0008808605110564487 0.0005113467302458063 -0.0004197560037028396 -9.15907265429667e-05 0.0011084445565341208 0.0 0.0
0.0 0.00019079126841639382 8.230585488716138e-05 -6.62060659685312e-05 -1.609978891863018e-05 0.0002512873004011587 0.0 0.0
0.0 2.7103688308683617e-05 9.09771242728127e-06 -7.184316064138041e-06 -1.913396363143217e-06 3.687764649649913e-05 0.0 0.0
0.0 1.2321019245658572e-06 5.416078418460191e-08 -4.518333122721828e-08 -8.977452957386603e-09 4.3548605511931817e-07 0.0 0.0
0.0 6.305102458760242e-07 -7.089892147158693e-09 5.074535912009278e-09 2.015356235150372e-09 -1.2874703620679312e-07 0.0 0.0
0.0 1.1970336069437295e-06 2.5329943438031403e-08 -2.3249165204211797e-08 -2.0807782338196526e-09 6.348103277753118e-07 0.0 0.0
0.0 0.0011108848709211077 0.0006130460794509685 -0.0007759919115572363 0.00016294583210626806 0.0009853084761081118 0.0 0.0
0.0 0.0004906837376093208 0.0002663894006511474 -0.0003512791654117888 8.488976476064142e-05 -0.0004616996096648773 0.0 0.0
0.0 2.494160237044873e-06 3.4434746186535735e-09 -3.525249682098384e-09 8.17750634450257e-11 -2.9419844589565306e-07 0.0 0.0
0.0 1.0346682731580572e-06 -7.63679960075315e-11 -2.4602670501904075e-10 3.223947010262247e-10 -2.1723496669645723e-07 0.0 0.0
0.0 2.9328743775864924e-06 1.655923190118907e-07 -1.1647853080925084e-07 -4.911378820263665e-08 -2.3555413462046173e-06 0.0 0.0
0.0 2.8751360425313757e-05 5.570345423997369e-06 -4.328411764149068e-06 -1.2419336598483058e-06 -4.2603865819976016e-05 0.0 0.0
0.0 0.0001420485499119317 3.589872564646161e-05 -2.8828710447699083e-05 -7.070015198762531e-06 -0.00020162788657783517 0.0 0.0
0.0 0.00045978128216933703 0.00016358222210772827 -0.00013245274305644585 -3.112947905128229e-05 -0.0006754309627495335 0.0 0.0
0.0 0.0012924401134505078 0.0006397422511696557 -0.0005272779208786417 -0.00011246433029101372 -0.0018274843060600194 0.0 0.0
0.0 0.0030107987464172447 0.0017852949068110457 -0.0015215742215012296 -0.0002637206853098156 -0.0036647939223577956 0.0 0.0
0.0 0.005452579737444136 0.0035806238223646046 -0.0031636327826377922 -0.00041699103972681154 -0.005890344637902415 0.0 0.0
0.0 0.008378911605815852 0.0058071214425967025 -0.005277048180526231 -0.0005300732620704713 -0.008304132595922211 0.0 0.0
0.0 0.011715683544427992 0.008304306390467052 -0.007698368526248606 -0.0006059378642184414 -0.010763792355163391 0.0 0.0
0.0 0.01532238240962494 0.011060390428720753 -0.010397454057626423 -0.0006629363710943328 -0.01325012205131205 0.0 0.0
0.0 0.019300103218923812 0.014130052461793316 -0.013423213500737045 -0.0007068389610562558 -0.015713350158045918 0.0 0.0
0.0 0.023722923387316963 0.01760672753810646 -0.01686368383326304 -0.0007430437048434187 -0.01812043825664096 0.0 0.0
0.0 0.028645972300464582 0.02159490473012124 -0.020816852709587018 -0.0007780520205342282 -0.020314897710872568 0.0 0.0
0.0 0.034086418662622776 0.026156461179858686 -0.025339075266211947 -0.0008173859136467561 -0.02188995071849866 0.0 0.0
0.0 0.04011153958232621 0.031419810434681256 -0.03057617959740156 -0.0008436308372797031 -0.022585033455899736 0.0 0.0
0.0 0.047318859584413606 0.03792261586582513 -0.0370812911075686 -0.0008413247582565254 -0.022289066323239102 0.0 0.0
0.0 0.05569803299767012 0.046121923975193165 -0.04520093880337777 -0.0009209851718154185 -0.018240634319039162 0.0 0.0
0.0 0.0556980329976724 0.04612192397519153 -0.04520093880337585 -0.0009209851718156848 0.018240634319079515 0.0 0.0
0.0 0.04731885958441098 0.03792261586581566 -0.03708129110755898 -0.0008413247582566623 0.022289066323297246 0.0 0.0
0.0 0.04011153958231226 0.031419810434663145 -0.030576179597383464 -0.0008436308372796817 0.022585033455937684 0.0 0.0
0.0 0.034086418662603 0.0261564611798398 -0.02533907526619289 -0.0008173859136469095 0.021889950718506766 0.0 0.0
0.0 0.02864597230044171 0.021594904730104298 -0.02081685270956963 -0.0007780520205346667 0.02031489771085786 0.0 0.0
0.0 0.023722923387294183 0.01760672753808917 -0.016863683833245872 -0.0007430437048432953 0.018120438256626986 0.0 0.0
0.0 0.019300103218907714 0.014130052461780677 -0.013423213500724566 -0.0007068389610561098 0.01571335015803799 0.0 0.0
0.0 0.015322382409610216 0.011060390428708496 -0.010397454057614403 -0.0006629363710940949 0.013250122051307158 0.0 0.0
0.0 0.011715683544409463 0.008304306390453705 -0.00769836852623566 -0.000605937864218042 0.010763792355148854 0.0 0.0
0.0 0.008378911605796662 0.00580712144258365 -0.00527704818051356 -0.0005300732620700879 0.008304132595904337 0.0 0.0
0.0 0.005452579737427486 0.003580623822354245 -0.003163632782628065 -0.00041699103972617766 0.005890344637884487 0.0 0.0
0.0 0.0030107987464074743 0.001785294906804651 -0.0015215742214954777 -0.0002637206853091726 0.003664793922347604 0.0 0.0
0.0 0.0012924401134449559 0.0006397422511666281 -0.0005272779208760777 -0.00011246433029055042 0.00182748430605359 0.0 0.0
0.0 0.000459781282166588 0.00016358222210687096 -0.00013245274305574034 -3.1129479051130524e-05 0.0006754309627464098 0.0 0.0
0.0 0.00014204854991078776 3.5898725646547503e-05 -2.882871044776258e-05 -7.070015198784905e-06 0.00020162788657785883 0.0 0.0
0.0 2.8751360424777924e-05 5.570345424007076e-06 -4.328411764155699e-06 -1.2419336598513796e-06 4.2603865820051415e-05 0.0 0.0
0.0 2.932874377465787e-06 1.655923190615876e-07 -1.1647853084378223e-07 -4.91137882178027e-08 2.3555413469474296e-06 0.0 0.0
0.0 1.0346682729093455e-06 -7.636799550339035e-11 -2.4602670397827833e-10 3.223946994821345e-10 2.172349671363439e-07 0.0 0.0
0.0 2.4941602365038118e-06 3.4434746243767286e-09 -3.5252496951982748e-09 8.177507082122518e-11 2.9419844632731635e-07 0.0 0.0
0.0 0.0004906837376052039 0.0002663894006494041 -0.0003512791654096464 8.48897647602421e-05 0.00046169960966173883 0.0 0.0
0.0 0.00014405374946206554 7.430953631158493e-05 -0.00010281375153116482 2.8504215219579907e-05 -0.00013683053201129564 0.0 0.0
0.0 3.103194708320994e-06 -6.981809898708428e-10 -1.201019347533035e-09 1.899200337405124e-09 -8.326548972134136e-07 0.0 0.0
0.0 3.976580825458653e-06 -1.3058142434435772e-07 1.2399703173625626e-07 6.5843926081020875e-09 -3.7157187783247317e-06 0.0 0.0
0.0 6.553607808779896e-06 -1.0596505017198933e-07 1.447624516123705e-07 -3.87974014403805e-08 -9.339185919092574e-06 0.0 0.0
0.0 3.4133976587240864e-05 1.2912665243798718e-06 -8.752443864827231e-07 -4.160221378971557e-07 -4.83477785508626e-05 0.0 0.0
0.0 0.00013500128944818525 1.0795986499470695e-05 -8.545198104685688e-06 -2.2507883947849905e-06 -0.0002061482937016675 0.0 0.0
0.0 0.000331675660888943 3.871359498571598e-05 -3.1274757399138726e-05 -7.438837586577261e-06 -0.0005360346400059825 0.0 0.0
0.0 0.0006887278355207832 0.00010544906982272181 -8.565611307133945e-05 -1.979295675138222e-05 -0.00107907620146149 0.0 0.0
0.0 0.0012525875560946895 0.0002745220675637216 -0.00022356121945622007 -5.09608481075013e-05 -0.0020221373380521356 0.0 0.0
0.0 0.002218337771612221 0.000631156513634419 -0.0005141952828509779 -0.00011696123078344102 -0.0033834211659034682 0.0 0.0
0.0 0.003385639053283275 0.0011851865634880455 -0.0009754338168278357 -0.00020975274666020936 -0.005083356171842411 0.0 0.0
0.0 0.004900651979633932 0.0018952230442728407 -0.0015990906435765842 -0.000296132400696256 -0.006981314322196069 0.0 0.0
0.0 0.0066312286665392494 0.002734947300170437 -0.0023674378952696557 -0.0003675094049007785 -0.009024721892933615 0.0 0.0
0.0 0.008606570384887064 0.0037185544742254304 -0.003296086871047906 -0.0004224676031775253 -0.011194280230328625 0.0 0.0
0.0 0.010838115133026493 0.004941382431469848 -0.004477851525934335 -0.000463530905535511 -0.013466105163520306 0.0 0.0
0.0 0.013457583834334336 0.006582663766837225 -0.006086351303127071 -0.0004963124637101524 -0.015690910070691323 0.0 0.0
0.0 0.016497581093532273 0.008892121935887417 -0.00836067182540945 -0.0005314501104779621 -0.017456092684806242 0.0 0.0
0.0 0.020034286721826073 0.012082985934001523 -0.011504646387115278 -0.0005783395468862392 -0.018131013630917913 0.0 0.0
0.0 0.02483399318205605 0.016585428560308965 -0.016007605722601785 -0.000577822837707171 -0.017974014173199722 0.0 0.0
0.0 0.032301783400974074 0.023892268579253806 -0.023332229035463146 -0.0005600395437906594 -0.01725176360100494 0.0 0.0
0.0 0.03230178340098059 0.023892268579255995 -0.023332229035465384 -0.0005600395437906035 0.017251763601035582 0.0 0.0
0.0 0.024833993182060157 0.016585428560305364 -0.01600760572259834 -0.0005778228377070294 0.017974014173245168 0.0 0.0
0.0 0.020034286721821823 0.012082985933994029 -0.01150464638710778 -0.0005783395468862492 0.01813101363094074 0.0 0.0
0.0 0.01649758109352159 0.008892121935879444 -0.008360671825401718 -0.000531450110477721 0.017456092684805937 0.0 0.0
0.0 0.013457583834324266 0.006582663766833706 -0.0060863513031241484 -0.0004963124637095563 0.015690910070676745 0.0 0.0
0.0 0.010838115133013877 0.004941382431463999 -0.004477851525928569 -0.00046353090553542933 0.013466105163506532 0.0 0.0
0.0 0.008606570384879289 0.003718554474222845 -0.0032960868710453636 -0.0004224676031774827 0.011194280230318786 0.0 0.0
0.0 0.0066312286665340826 0.0027349473001695677 -0.0023674378952689696 -0.00036750940490059756 0.009024721892926049 0.0 0.0
0.0 0.004900651979625354 0.0018952230442699529 -0.0015990906435740487 -0.00029613240069590387 0.0069813143221853675 0.0 0.0
0.0 0.0033856390532740217 0.0011851865634850947 -0.0009754338168253273 -0.0002097527466597668 0.005083356171829414 0.0 0.0
0.0 0.002218337771604486 0.0006311565136323845 -0.0005141952828493993 -0.00011696123078298545 0.003383421165892767 0.0 0.0
0.0 0.0012525875560908477 0.00027452206756284255 -0.00022356121945548053 -5.096084810736185e-05 0.002022137338045725 0.0 0.0
0.0 0.0006887278355192713 0.0001054490698224721 -8.565611307114363e-05 -1.9792956751328343e-05 0.001079076201459011 0.0 0.0
0.0 0.0003316756608870033 3.8713594985611534e-05 -3.1274757399037286e-05 -7.438837586574225e-06 0.0005360346400042606 0.0 0.0
0.0 0.00013500128944679243 1.0795986499479017e-05 -8.545198104684641e-06 -2.250788394794375e-06 0.0002061482937010464 0.0 0.0
0.0 3.4133976586618166e-05 1.2912665243793824e-06 -8.752443864832954e-07 -4.160221378960907e-07 4.834777855076163e-05 0.0 0.0
0.0 6.553607808595802e-06 -1.0596505018398407e-07 1.4476245162633632e-07 -3.879740144235233e-08 9.33918591978147e-06 0.0 0.0
0.0 3.976580824808388e-06 -1.3058142437753132e-07 1.2399703176584164e-07 6.584392611688984e-09 3.715718779143487e-06 0.0 0.0
0.0 3.103194708021298e-06 -6.981809936318937e-10 -1.201019357965303e-09 1.8992003515997317e-09 8.326548980066322e-07 0.0 0.0
0.0 0.00014405374946048656 7.430953631119135e-05 -0.00010281375153063287 2.8504215219441444e-05 0.00013683053201070952 0.0 0.0
0.0 1.6350098019337914e-05 7.201848984844626e-06 -1.0402285734910223e-05 3.200436750065587e-06 -1.4596124236668285e-05 0.0 0.0
0.0 2.784048789938309e-06 -4.820456933909816e-08 2.5572994355828163e-08 2.263157498327487e-08 -1.1178927727607766e-06 0.0 0.0
0.0 6.160927623189746e-06 -6.042266415563444e-07 5.147314836218202e-07 8.94951579345251e-08 -7.344074808131073e-06 0.0 0.0
0.0 1.163407283338748e-05 -1.3541129880417778e-06 1.1929205454032535e-06 1.6119244263852588e-07 -1.6379318660056716e-05 0.0 0.0
0.0 4.224880611322603e-05 -4.0461322678953904e-06 3.491425424052125e-06 5.547068438432727e-07 -5.8222073036700907e-05 0.0 0.0
0.0 0.00014362882691249136 -1.409646326988074e-05 1.161998433545391e-05 2.476478934426818e-06 -0.0002122000870614322 0.0 0.0
0.0 0.0003367217006829538 -4.1260945890114466e-05 3.3504298160052024e-05 7.756647730062403e-06 -0.0005444834548469599 0.0 0.0
0.0 0.0006912989537390302 -0.00010648454008300083 8.649987110333264e-05 1.9984668979668143e-05 -0.0010843596498314244 0.0 0.0
0.0 0.0012521220632640143 -0.00027454380988261673 0.00022358652573890438 5.0957284143712255e-05 -0.002023687645278097 0.0 0.0
0.0 0.002217216517654218 -0.0006305892804709891 0.0005137388988755996 0.00011685038159538942 -0.0033826904677662 0.0 0.0
0.0 0.0034001367795057852 -0.0011895907741580833 0.0009806365171385358 0.00020895425701954705 -0.005087132992994368 0.0 0.0
0.0 0.004928688613096365 -0.0019284334639170756 0.0016321872754324817 0.0002962461884845931 -0.006997721561891258 0.0 0.0
0.0 0.006690276798418549 -0.002807997483424968 0.002437750531431052 0.0003702469519939125 -0.009041418081661411 0.0 0.0
0.0 0.008641357856580949 -0.003771943156705715 0.0033391532828465883 0.00043278987385912356 -0.011191792089041351 0.0 0.0
0.0 0.01062275672905858 -0.004692071575407251 0.004205089795205738 0.00048698178020151363 -0.013440807688082045 0.0 0.0
0.0 0.012480586478296734 -0.00531455619053153 0.004780235824698923 0.0005343203658326019 -0.015744053591822748 0.0 0.0
0.0 0.013877847783791012 -0.005266957641632795 0.004692370944248393 0.0005745866973844002 -0.018086520553396816 0.0 0.0
0.0 0.01469275464672115 -0.00427467524936528 0.0036764819677171587 0.0005981932816481174 -0.020548491152795445 0.0 0.0
0.0 0.014922998117695891 -0.002360315782188634 0.0017899337783555003 0.0005703820038331319 -0.0227545101644954 0.0 0.0
0.0 0.014758525214849454 0.003364097403896399 -0.0034226260356049333 5.852863170853202e-05 -0.021809686732532103 0.0 0.0
0.0 0.01475852521485406 0.0033640974038961356 -0.0034226260356050127 5.852863170888059e-05 0.02180968673254586 0.0 0.0
0.0 0.014922998117699617 -0.002360315782189009 0.0017899337783553652 0.0005703820038336412 0.022754510164510956 0.0 0.0
0.0 0.014692754646716068 -0.004274675249363211 0.0036764819677153164 0.0005981932816478911 0.020548491152795292 0.0 0.0
0.0 0.013877847783777975 -0.005266957641625781 0.004692370944241447 0.0005745866973843324 0.018086520553387837 0.0 0.0
0.0 0.012480586478280532 -0.005314556190522278 0.004780235824689954 0.0005343203658323221 0.015744053591806216 0.0 0.0
0.0 0.010622756729043711 -0.004692071575399035 0.004205089795197978 0.0004869817802010542 0.013440807688067873 0.0 0.0
0.0 0.00864135785656901 -0.003771943156698901 0.0033391532828401524 0.0004327898738587479 0.011191792089030147 0.0 0.0
0.0 0.006690276798404055 -0.002807997483415244 0.0024377505314218135 0.0003702469519934298 0.009041418081651246 0.0 0.0
0.0 0.004928688613080544 -0.0019284334639085518 0.0016321872754245315 0.0002962461884840203 0.006997721561875625 0.0 0.0
0.0 0.0034001367794930207 -0.0011895907741519963 0.0009806365171332197 0.00020895425701877661 0.005087132992979063 0.0 0.0
0.0 0.0022172165176433407 -0.000630589280466694 0.0005137388988720815 0.00011685038159461202 0.0033826904677543967 0.0 0.0
0.0 0.0012521220632589242 -0.00027454380988064695 0.0002235865257372838 5.0957284143363156e-05 0.002023687645270978 0.0 0.0
0.0 0.0006912989537364359 -0.00010648454008236805 8.649987110280114e-05 1.9984668979566987e-05 0.0010843596498277246 0.0 0.0
0.0 0.00033672170068074964 -4.126094588992019e-05 3.350429815993707e-05 7.756647729983116e-06 0.0005444834548446302 0.0 0.0
0.0 0.00014362882691070297 -1.4096463269828612e-05 1.1619984335414856e-05 2.4764789344137755e-06 0.00021220008706027878 0.0 0.0
0.0 4.224880611191366e-05 -4.046132267896321e-06 3.4914254240523382e-06 5.547068438439764e-07 5.8222073036763756e-05 0.0 0.0
0.0 1.163407283302916e-05 -1.354112988082379e-06 1.1929205454384924e-06 1.6119244264388561e-07 1.637931866050346e-05 0.0 0.0
0.0 6.160927622673384e-06 -6.042266416341272e-07 5.147314836870425e-07 8.949515794708535e-08 7.344074809000906e-06 0.0 0.0
0.0 2.7840487894634073e-06 -4.8204569358249235e-08 2.5572994357209227e-08 2.2631575001044902e-08 1.1178927734640439e-06 0.0 0.0
0.0 1.635009801886331e-05 7.20184898506287e-06 -1.0402285735206042e-05 3.2004367501431714e-06 1.4596124237291423e-05 0.0 0.0
0.0 5.791226492451869e-07 -3.285152939261594e-08 4.863961923435166e-08 -1.578808984173702e-08 8.324711323925464e-08 0.0 0.0
0.0 1.9053142676194242e-06 -9.306378499798821e-08 5.2215074769339054e-08 4.0848710228647635e-08 -1.7705836456360899e-06 0.0 0.0
0.0 7.361763938395938e-06 -1.1212776213447483e-06 9.30757236773931e-07 1.9052038457081318e-07 -8.80069217065186e-06 0.0 0.0
0.0 1.6263597724660508e-05 -2.691858699121254e-06 2.293076640353645e-06 3.987820587676215e-07 -1.796507530897604e-05 0.0 0.0
0.0 4.9405329481303466e-05 -1.1561722337367028e-05 9.625261153806996e-06 1.936461183560031e-06 -6.953298371951595e-05 0.0 0.0
0.0 0.00015941383768265869 -4.3650809287133974e-05 3.546339567916276e-05 8.187413607971197e-06 -0.00022899992332648162 0.0 0.0
0.0 0.00047950619187957027 -0.00017101874769055885 0.0001387241982400397 3.2294549450519194e-05 -0.0006956378711647786 0.0 0.0
0.0 0.0013017466072093825 -0.0006443056803441593 0.0005311754234272275 0.00011313025691693155 -0.0018393914816414467 0.0 0.0
0.0 0.0030096092433858812 -0.0017847220008241126 0.0015211307810751138 0.0002635912197489986 -0.0036666050561864473 0.0 0.0
0.0 0.005452007574882107 -0.0035806278658285376 0.003164033204599173 0.0004165946612293631 -0.005890705249302563 0.0 0.0
0.0 0.008390527469165545 -0.005817977063971001 0.0052888504485543416 0.0005291266154166582 -0.008308011966200334 0.0 0.0
0.0 0.011752093360529126 -0.008343263720224576 0.007738515279145313 0.0006047484410792614 -0.010760464477852429 0.0 0.0
0.0 0.015384850179893191 -0.011135293108262369 0.010471300808166238 0.0006639923000961253 -0.01321415282672459 0.0 0.0
0.0 0.01931778675508784 -0.014168066274218103 0.013451714121619045 0.0007163521525990624 -0.015648497287209347 0.0 0.0
0.0 0.023419644711514816 -0.017303519928829187 0.01653590174616712 0.0007676181826620543 -0.01813447169098523 0.0 0.0
0.0 0.02737123451666737 -0.02022948747512729 0.019412262113395543 0.0008172253617317484 -0.02074145689075549 0.0 0.0
0.0 0.030744178503416552 -0.022475234315114476 0.021616886424539784 0.0008583478905747021 -0.023552269772190323 0.0 0.0
0.0 0.03290340037943504 -0.023488318281972283 0.022603460714486972 0.0008848575674853258 -0.026472348859723216 0.0 0.0
0.0 0.03217102700490515 -0.022162848100353405 0.02118405139146643 0.0009787967088869531 -0.027739119347141034 0.0 0.0
0.0 0.025785948774135738 -0.015489765759697623 0.014401436624508705 0.0010883291351889079 -0.025321505909322112 0.0 0.0
0.0 0.025785948774145813 -0.015489765759698342 0.014401436624508934 0.0010883291351894036 0.02532150590935641 0.0 0.0
0.0 0.03217102700491155 -0.02216284810034949 0.021184051391462115 0.0009787967088873634 0.02773911934718625 0.0 0.0
0.0 0.03290340037942507 -0.02348831828195789 0.022603460714472407 0.0008848575674854718 0.026472348859748945 0.0 0.0
0.0 0.030744178503395028 -0.022475234315095585 0.021616886424521177 0.0008583478905744098 0.023552269772187842 0.0 0.0
0.0 0.027371234516640412 -0.020229487475106018 0.0194122621133744 0.0008172253617316223 0.020741456890739057 0.0 0.0
0.0 0.023419644711489204 -0.017303519928809397 0.01653590174614761 0.0007676181826617969 0.018134471690968688 0.0 0.0
0.0 0.01931778675506175 -0.014168066274197571 0.013451714121598768 0.0007163521525988025 0.01564849728719452 0.0 0.0
0.0 0.015384850179866315 -0.011135293108240189 0.01047130080814449 0.0006639923000956896 0.013214152826711383 0.0 0.0
0.0 0.011752093360503167 -0.00834326372020493 0.0077385152791262825 0.0006047484410786434 0.010760464477833829 0.0 0.0
0.0 0.008390527469141356 -0.005817977063953933 0.005288850448537997 0.000529126615415934 0.008308011966179155 0.0 0.0
0.0 0.00545200757485986 -0.0035806278658134056 0.0031640332045850244 0.00041659466122838146 0.005890705249281054 0.0 0.0
0.0 0.0030096092433736024 -0.001784722000815588 0.0015211307810674881 0.00026359121974810044 0.003666605056174368 0.0 0.0
0.0 0.0013017466072038633 -0.0006443056803408344 0.0005311754234244995 0.0001131302569163351 0.0018393914816351522 0.0 0.0
0.0 0.00047950619187631344 -0.0001710187476894951 0.0001387241982392164 3.229454945027874e-05 0.0006956378711613274 0.0 0.0
0.0 0.00015941383768098568 -4.3650809287027465e-05 3.5463395679069285e-05 8.187413607958185e-06 0.00022899992332572265 0.0 0.0
0.0 4.940532948037441e-05 -1.1561722337382081e-05 9.625261153822041e-06 1.9364611835600246e-06 6.953298371961027e-05 0.0 0.0
0.0 1.626359772401127e-05 -2.6918586992006246e-06 2.2930766404208963e-06 3.9878205877973007e-07 1.796507530948837e-05 0.0 0.0
0.0 7.361763937748753e-06 -1.1212776214364737e-06 9.307572368488078e-07 1.9052038458766545e-07 8.800692171350737e-06 0.0 0.0
0.0 1.9053142673775814e-06 -9.306378503436015e-08 5.2215074775082116e-08 4.084871025927838e-08 1.7705836464749373e-06 0.0 0.0
0.0 5.791226488939735e-07 -3.285152937202806e-08 4.863961920387383e-08 -1.57880898318369e-08 -8.324711318699175e-08 0.0 0.0
0.0 0.0 0.0 0.0 0.0 0.0 0.0 0.0
0.0 1.546319917433396e-06 2.096489414379388e-08 -7.102539574969584e-09 -1.3862354568826943e-08 3.138160816275471e-07 0.0 0.0
0.0 6.631665806061821e-06 -8.984984528874762e-07 7.381082612156348e-07 1.603901916718371e-07 -5.153606307071783e-06 0.0 0.0
0.0 1.8898763101033827e-05 -3.931740714582767e-06 3.257768357406953e-06 6.739723571758226e-07 -1.7168774830107477e-05 0.0 0.0
0.0 5.870745359949978e-05 -2.0435561834656395e-05 1.6738366749811867e-05 3.6971950848445464e-06 -7.48981821671137e-05 0.0 0.0
0.0 0.00023120239375945024 -0.00010298240336343996 8.350892612848036e-05 1.9473477234959543e-05 -0.0003034720518389571 0.0 0.0
0.0 0.0009117821633557251 -0.0005266018017573796 0.00043304113540089303 9.356066635648653e-05 -0.0011393144084844875 0.0 0.0
0.0 0.0026635343494983074 -0.0018084990031969528 0.0015421870984934098 0.0002663119047035429 -0.002877601262726961 0.0 0.0
0.0 0.005718356600551111 -0.004145432052616168 0.003689216435577111 0.0004562156170390562 -0.005299537051904678 0.0 0.0
0.0 0.009663619232101288 -0.007352116873739528 0.0067590699335975364 0.0005930469401419896 -0.00817070910063741 0.0 0.0
0.0 0.014448456571728862 -0.0111455902336264 0.010464969555311227 0.0006806206783151803 -0.011199606207583576 0.0 0.0
0.0 0.01962264972734719 -0.015392770798400205 0.014646625320090522 0.0007461454783096826 -0.014151404632876617 0.0 0.0
0.0 0.025308589170290215 -0.020071657637464532 0.019268380161401942 0.0008032774760625889 -0.0169986172642681 0.0 0.0
0.0 0.031514450162077774 -0.02517737058654927 0.024317805659585565 0.0008595649269636865 -0.019827862986837426 0.0 0.0
0.0 0.03816757912086792 -0.030578612606631576 0.029659157149048737 0.0009194554575828113 -0.022849447898589396 0.0 0.0
0.0 0.04482549207974128 -0.035920939781534884 0.03494017647190641 0.0009807633096284509 -0.026348667603672018 0.0 0.0
0.0 0.05096114222936558 -0.04060565073019478 0.039567000084025285 0.0010386506461694915 -0.030488050506233762 0.0 0.0
0.0 0.055102190748330546 -0.04365460562189818 0.042542761774017536 0.0011118438478806309 -0.034510888997055504 0.0 0.0
0.0 0.055237351724584965 -0.04320939591018475 0.04200347076017397 0.00120592515001076 -0.036485114882416195 0.0 0.0
0.0 0.04612814298129628 -0.03541463664814879 0.03397565832299643 0.001438978325152359 -0.03248415908227857 0.0 0.0
0.0 0.04612814298130355 -0.035414636648146314 0.03397565832299382 0.0014389783251524961 0.03248415908232346 0.0 0.0
0.0 0.05523735172458957 -0.04320939591017789 0.04200347076016792 0.0012059251500099596 0.036485114882473635 0.0 0.0
0.0 0.05510219074831944 -0.04365460562188074 0.042542761774001125 0.001111843847879582 0.03451088899709405 0.0 0.0
0.0 0.050961142229334566 -0.0406056507301656 0.03956700008399682 0.0010386506461688202 0.030488050506239317 0.0 0.0
0.0 0.04482549207970051 -0.03592093978150041 0.0349401764718725 0.000980763309627907 0.026348667603656648 0.0 0.0
0.0 0.03816757912082554 -0.030578612606596674 0.02965915714901403 0.0009194554575826445 0.022849447898569485 0.0 0.0
0.0 0.03151445016203975 -0.02517737058651811 0.024317805659554985 0.0008595649269631201 0.019827862986817678 0.0 0.0
0.0 0.025308589170256107 -0.020071657637435222 0.019268380161373496 0.0008032774760617157 0.016998617264255667 0.0 0.0
0.0 0.01962264972730977 -0.015392770798369515 0.014646625320060502 0.000746145478309011 0.014151404632856307 0.0 0.0
0.0 0.014448456571691555 -0.011145590233597338 0.01046496955528262 0.0006806206783147179 0.011199606207556577 0.0 0.0
0.0 0.009663619232067343 -0.007352116873713943 0.006759069933572277 0.0005930469401416679 0.008170709100610957 0.0 0.0
0.0 0.005718356600528544 -0.0041454320525987475 0.0036892164355603833 0.00045621561703836197 0.005299537051887879 0.0 0.0
0.0 0.002663534349485608 -0.001808499003187572 0.001542187098485133 0.0002663119047024391 0.0028776012627162954 0.0 0.0
0.0 0.0009117821633498439 -0.0005266018017541762 0.0004330411353982924 9.356066635588355e-05 0.001139314408478862 0.0 0.0
0.0 0.00023120239375716266 -0.00010298240336290458 8.350892612806082e-05 1.9473477234843713e-05 0.0003034720518374108 0.0 0.0
0.0 5.870745359825552e-05 -2.0435561834616438e-05 1.6738366749779205e-05 3.697195084837196e-06 7.489818216697919e-05 0.0 0.0
0.0 1.889876310031476e-05 -3.931740714701701e-06 3.2577683575050902e-06 6.73972357196598e-07 1.7168774830625258e-05 0.0 0.0
0.0 6.631665805662028e-06 -8.984984530357018e-07 7.381082613364314e-07 1.6039019169927665e-07 5.15360630792912e-06 0.0 0.0
0.0 1.5463199168796422e-06 2.0964894136532813e-08 -7.10253957316928e-09 -1.3862354563367244e-08 -3.138160815128601e-07 0.0 0.0
0.0 0.0 0.0 0.0 0.0 0.0 0.0 0.0
0.0 0.0 0.0 0.0 0.0 0.0 0.0 0.0
0.0 3.8538157917848767e-07 8.524370000021943e-09 -5.889213621647465e-09 -2.6351563783748637e-09 7.625979648851619e-08 0.0 0.0
0.0 3.891371869064898e-06 -5.598228468440551e-07 4.560451933760378e-07 1.0377765346801234e-07 -2.461186964459179e-06 0.0 0.0
0.0 1.8300859675711048e-05 -5.823322366991773e-06 4.7957151133112395e-06 1.027607253680526e-06 -1.8943221034102196e-05 0.0 0.0
0.0 7.695580856534207e-05 -3.485715485675964e-05 2.8383720419754762e-05 6.473434437004903e-06 -8.768176394125195e-05 0.0 0.0
0.0 0.00040852509448998904 -0.00024880209920357836 0.00020258846152397387 4.621363767960444e-05 -0.0004693902990172072 0.0 0.0
0.0 0.001669940593027018 -0.0011889140583272878 0.0009977985795926881 0.00019111547873459987 -0.001645820158489574 0.0 0.0
0.0 0.004431427536350842 -0.003385933864527054 0.00297704129184818 0.00040889257267887345 -0.003694918305762717 0.0 0.0
0.0 0.008736113642163396 -0.006882110525826901 0.006299321529114398 0.0005827889967125041 -0.006481838999335302 0.0 0.0
0.0 0.014225864245476037 -0.011426482730151037 0.010731836212225388 0.0006946465179256488 -0.00974983911910069 0.0 0.0
0.0 0.02062324285827661 -0.01673638840887689 0.01596301097422535 0.0007733774346515426 -0.013106227690957614 0.0 0.0
0.0 0.027748455652168654 -0.02267888710100237 0.021837466098917756 0.0008414210020846072 -0.01631256606005968 0.0 0.0
0.0 0.03558922262452727 -0.029238956125551892 0.028334681018666034 0.0009042751068858346 -0.019380566153830284 0.0 0.0
0.0 0.04410671939783641 -0.036429078341180456 0.03546150578082859 0.000967572560351882 -0.022440606402893443 0.0 0.0
0.0 0.05331051177688637 -0.044137079965158525 0.043101643188824035 0.0010354367763344289 -0.025800693453171007 0.0 0.0
0.0 0.06279494786678937 -0.05197381693067317 0.050863647357151986 0.0011101695735211523 -0.029917168090911408 0.0 0.0
0.0 0.07155731709157817 -0.05910391312991852 0.05790960375396955 0.0011943093759489598 -0.034910720189206705 0.0 0.0
0.0 0.07784255318717816 -0.06400878916767201 0.06271596985756143 0.0012928193101105162 -0.039822420572785025 0.0 0.0
0.0 0.07827543649928154 -0.06405033966459682 0.06261433477502434 0.0014360048895724537 -0.04206005081715666 0.0 0.0
0.0 0.06709535202057207 -0.054466488815735195 0.052809574929215425 0.001656913886519779 -0.038288488820423426 0.0 0.0
0.0 0.06709535202057776 -0.054466488815732385 0.0528095749292125 0.0016569138865198698 0.03828848882047176 0.0 0.0
0.0 0.07827543649928032 -0.06405033966458597 0.06261433477501349 0.0014360048895724526 0.04206005081722083 0.0 0.0
0.0 0.0778425531871588 -0.06400878916764781 0.06271596985753755 0.001292819310110242 0.03982242057283143 0.0 0.0
0.0 0.071557317091537 -0.059103913129880135 0.05790960375393176 0.001194309375948352 0.0349107201892164 0.0 0.0
0.0 0.06279494786673748 -0.05197381693062854 0.0508636473571077 0.0011101695735208313 0.029917168090897738 0.0 0.0
0.0 0.05331051177683713 -0.044137079965116593 0.043101643188782804 0.0010354367763337514 0.025800693453154028 0.0 0.0
0.0 0.04410671939778576 -0.036429078341137774 0.03546150578078612 0.0009675725603516675 0.022440606402874406 0.0 0.0
0.0 0.03558922262447511 -0.02923895612550751 0.028334681018621917 0.0009042751068855981 0.019380566153812704 0.0 0.0
0.0 0.027748455652121008 -0.022678887100962306 0.021837466098878294 0.0008414210020840012 0.016312566060037816 0.0 0.0
0.0 0.020623242858231243 -0.0167363884088399 0.01596301097418895 0.0007733774346509546 0.013106227690930523 0.0 0.0
0.0 0.014225864245435685 -0.011426482730118988 0.010731836212193913 0.0006946465179250702 0.009749839119072415 0.0 0.0
0.0 0.008736113642134787 -0.006882110525804226 0.006299321529092453 0.0005827889967117767 0.006481838999317332 0.0 0.0
0.0 0.00443142753633075 -0.003385933864511385 0.002977041291833621 0.0004088925726777625 0.0036949183057484857 0.0 0.0
0.0 0.0016699405930159822 -0.0011889140583195125 0.0009977985795858843 0.000191115478733628 0.0016458201584803296 0.0 0.0
0.0 0.00040852509448528523 -0.00024880209920124624 0.00020258846152201553 4.6213637679230633e-05 0.00046939029901312186 0.0 0.0
0.0 7.695580856409456e-05 -3.485715485666487e-05 2.838372041966452e-05 6.473434437000294e-06 8.768176394091937e-05 0.0 0.0
0.0 1.830085967516589e-05 -5.823322367228435e-06 4.795715113499223e-06 1.0276072537292063e-06 1.894322103480561e-05 0.0 0.0
0.0 3.8913718685721264e-06 -5.598228469815339e-07 4.5604519348663503e-07 1.0377765349489703e-07 2.461186965074888e-06 0.0 0.0
0.0 3.8538157904294466e-07 8.52436999717895e-09 -5.889213619678072e-09 -2.6351563774992616e-09 -7.62597964614563e-08 0.0 0.0
0.0 0.0 0.0 0.0 0.0 0.0 0.0 0.0
0.0 0.0 0.0 0.0 0.0 0.0 0.0 0.0
0.0 0.0 0.0 0.0 0.0 0.0 0.0 0.0
0.0 1.6406981854529364e-06 -2.06552181423783e-07 1.6947944916633791e-07 3.7072732257448595e-08 -7.259592067246917e-07 0.0 0.0
0.0 1.7340733472966266e-05 -4.751376088271369e-06 3.861066512103412e-06 8.903095761679679e-07 -1.1448204295032435e-05 0.0 0.0
0.0 0.0001241922022319865 -6.457298769146548e-05 5.229079923324676e-05 1.2282188458218712e-05 -0.00011370106849336965 0.0 0.0
0.0 0.0007399336417218621 -0.0005378102022895925 0.0004420040080559041 9.580619423368839e-05 -0.0006856535899451417 0.0 0.0
0.0 0.0027122170327949307 -0.0021191570380723426 0.0018182650056363292 0.0003008920324360136 -0.0020294849693473843 0.0 0.0
0.0 0.006462571120855627 -0.005233401819653813 0.00471441770231144 0.0005189841173423707 -0.004208726455258896 0.0 0.0
0.0 0.011939104800647748 -0.009839855731655058 0.009174166808832464 0.0006656889228225926 -0.007168117647933699 0.0 0.0
0.0 0.018872747084043257 -0.01566699333507488 0.014903111462797474 0.0007638818722774068 -0.010543835464009922 0.0 0.0
0.0 0.026951247892926033 -0.0224664659547148 0.021621657922233417 0.0008448080324813855 -0.013954522152603264 0.0 0.0
0.0 0.03599157257113903 -0.030101285777673216 0.02918202895059507 0.0009192568270781586 -0.017225058333168487 0.0 0.0
0.0 0.0459392322554604 -0.03854300385691091 0.0375532582686674 0.0009897455882434806 -0.020358722855608004 0.0 0.0
0.0 0.056838154777127885 -0.04781349427935709 0.04675401293915506 0.001059481340202046 -0.02345929872916425 0.0 0.0
0.0 0.0686819375327298 -0.05783670475198995 0.05670108265170225 0.0011356221002877072 -0.026865979416128054 0.0 0.0
0.0 0.08078508316111895 -0.06817365350166579 0.06694786595246091 0.0012257875492049032 -0.03108689064293085 0.0 0.0
0.0 0.09233390620787565 -0.07769979742360202 0.0763656878987093 0.001334109524892678 -0.03631343366612098 0.0 0.0
0.0 0.10050104895000872 -0.08430654782468247 0.08283935877428876 0.0014671890503937246 -0.04161537413580711 0.0 0.0
0.0 0.10109376713946147 -0.08453430277830057 0.08290135994787468 0.001632942830425868 -0.044615195103509676 0.0 0.0
0.0 0.08822510584941681 -0.07319368990673196 0.07136521453541009 0.0018284753713218728 -0.04331058484885375 0.0 0.0
0.0 0.08822510584941927 -0.07319368990672667 0.07136521453540479 0.0018284753713218567 0.04331058484890543 0.0 0.0
0.0 0.10109376713944744 -0.08453430277828024 0.08290135994785425 0.001632942830425971 0.044615195103572765 0.0 0.0
0.0 0.10050104894997458 -0.084306547824647 0.08283935877425276 0.0014671890503941522 0.04161537413585383 0.0 0.0
0.0 0.09233390620782334 -0.07769979742355441 0.07636568789866174 0.0013341095248926244 0.03631343366613235 0.0 0.0
0.0 0.08078508316105479 -0.06817365350161023 0.06694786595240548 0.0012257875492047384 0.031086890642919803 0.0 0.0
0.0 0.06868193753266424 -0.05783670475193362 0.05670108265164614 0.0011356221002875038 0.02686597941611195 0.0 0.0
0.0 0.05683815477706578 -0.04781349427930372 0.04675401293910256 0.0010594813402011692 0.023459298729145085 0.0 0.0
0.0 0.045939232255394424 -0.038543003856854205 0.037553258268610994 0.0009897455882431944 0.020358722855589817 0.0 0.0
0.0 0.03599157257107564 -0.030101285777619273 0.029182028950541575 0.000919256827077689 0.017225058333144895 0.0 0.0
0.0 0.02695124789286807 -0.022466465954666504 0.0216216579221857 0.0008448080324807892 0.013954522152573558 0.0 0.0
0.0 0.018872747083992822 -0.01566699333503307 0.014903111462756288 0.0007638818722767918 0.010543835463980229 0.0 0.0
0.0 0.011939104800608868 -0.009839855731622863 0.009174166808800864 0.0006656889228220009 0.0071681176479130165 0.0 0.0
0.0 0.006462571120831833 -0.005233401819634443 0.0047144177022929255 0.0005189841173415173 0.004208726455245338 0.0 0.0
0.0 0.0027122170327808716 -0.0021191570380614966 0.0018182650056266939 0.00030089203243480265 0.0020294849693383715 0.0 0.0
0.0 0.0007399336417153043 -0.0005378102022853548 0.0004420040080523942 9.580619423296051e-05 0.0006856535899402586 0.0 0.0
0.0 0.00012419220223019642 -6.457298769100893e-05 5.229079923287179e-05 1.228218845813704e-05 0.00011370106849261752 0.0 0.0
0.0 1.734073347237149e-05 -4.7513760884216145e-06 3.861066512224103e-06 8.903095761975213e-07 1.1448204295408183e-05 0.0 0.0
0.0 1.6406981853831328e-06 -2.0655218155565375e-07 1.6947944927299657e-07 3.707273228265493e-08 7.259592071892499e-07 0.0 0.0
0.0 0.0 0.0 0.0 0.0 0.0 0.0 0.0
0.0 0.0 0.0 0.0 0.0 0.0 0.0 0.0
0.0 0.0 0.0 0.0 0.0 0.0 0.0 0.0
0.0 0.0 0.0 0.0 0.0 0.0 0.0 0.0
0.0 9.159772724021529e-07 5.630253744311479e-08 -4.536700834069255e-08 -1.0935529102421052e-08 1.5681455061216043e-07 0.0 0.0
0.0 1.4452057139175337e-05 -6.949943240907882e-06 5.595049896216015e-06 1.3548933446919085e-06 -1.2759831598729505e-05 0.0 0.0
0.0 0.00020568486796613026 -0.0001392749289140619 0.00011264182243314372 2.6633106480918227e-05 -0.0001752815817146614 0.0 0.0
0.0 0.0012623237897811251 -0.0009884893138746432 0.0008226710947867384 0.00016581821908790513 -0.0008665516966731111 0.0 0.0
0.0 0.004015150591665779 -0.00326060505568048 0.0028578393961504593 0.0004027656595300207 -0.0022234521814661207 0.0 0.0
0.0 0.008611690842140474 -0.007270898278955715 0.006671853558915722 0.0005990447200399916 -0.0044002789125906685 0.0 0.0
0.0 0.015248944515355856 -0.012922270523026896 0.012199222438072279 0.0007230480849546196 -0.007278457836174592 0.0 0.0
0.0 0.023602843375085024 -0.019996823078620364 0.019178343049462553 0.0008184800291578186 -0.010507798413475284 0.0 0.0
0.0 0.03335428901226278 -0.028276064324119516 0.027371023290939257 0.0009050410331802324 -0.01379302321810802 0.0 0.0
0.0 0.044287880162029954 -0.037605813010860134 0.03661850604156953 0.0009873069692905734 -0.01694283697347991 0.0 0.0
0.0 0.056415081687265396 -0.04793267426107529 0.046866472340407195 0.0010662019206680944 -0.01997140206150695 0.0 0.0
0.0 0.06955684201999832 -0.05927128745347115 0.05812814928158335 0.0011431381718877917 -0.022961034969753574 0.0 0.0
0.0 0.0838939825019984 -0.07155939461867884 0.07033276153806758 0.0012266330806112843 -0.026094806399359103 0.0 0.0
0.0 0.09892011750184257 -0.0843243205498158 0.08299318396031745 0.0013311365894983318 -0.02984202047458416 0.0 0.0
0.0 0.11275330279379742 -0.09618036720134127 0.09471587967766901 0.0014644875236722332 -0.03467228930066167 0.0 0.0
0.0 0.1225884269048018 -0.10441674258920691 0.10279013376156068 0.0016266088276461936 -0.0401592296306012 0.0 0.0
0.0 0.12362214774305841 -0.10488038730336709 0.10307542595712899 0.0018049613462380383 -0.04485693483242494 0.0 0.0
0.0 0.10982519843485164 -0.09207573391026391 0.0900902290630809 0.001985504847183031 -0.047947861479873566 0.0 0.0
0.0 0.10982519843485095 -0.0920757339102567 0.09009022906307407 0.0019855048471825384 0.04794786147992497 0.0 0.0
0.0 0.12362214774303762 -0.1048803873033418 0.10307542595710442 0.0018049613462373408 0.04485693483248925 0.0 0.0
0.0 0.12258842690475927 -0.10441674258916453 0.10279013376151967 0.0016266088276448228 0.04015922963064752 0.0 0.0
0.0 0.11275330279373853 -0.09618036720128782 0.0947158796776171 0.0014644875236706945 0.034672289300673474 0.0 0.0
0.0 0.09892011750177179 -0.08432432054975385 0.08299318396025657 0.0013311365894972643 0.029842020474577572 0.0 0.0
0.0 0.08389398250192194 -0.07155939461861235 0.07033276153800187 0.0012266330806104404 0.02609480639934855 0.0 0.0
0.0 0.06955684201991987 -0.05927128745340357 0.05812814928151599 0.0011431381718875475 0.022961034969735932 0.0 0.0
0.0 0.0564150816871923 -0.047932674261011894 0.04686647234034426 0.0010662019206675844 0.019971402061490676 0.0 0.0
0.0 0.044287880161954764 -0.03760581301079539 0.036618506041504975 0.0009873069692904043 0.016942836973458976 0.0 0.0
0.0 0.03335428901219202 -0.02827606432405967 0.027371023290879815 0.0009050410331798565 0.013793023218078054 0.0 0.0
0.0 0.023602843375024725 -0.019996823078569727 0.019178343049412256 0.0008184800291574572 0.010507798413446342 0.0 0.0
0.0 0.01524894451531039 -0.012922270522988258 0.012199222438034061 0.0007230480849542014 0.007278457836155071 0.0 0.0
0.0 0.008611690842110295 -0.0072708982789301685 0.006671853558890985 0.0005990447200391799 0.004400278912576625 0.0 0.0
0.0 0.004015150591646617 -0.003260605055664926 0.00285783939613606 0.0004027656595288672 0.0022234521814563425 0.0 0.0
0.0 0.0012623237897719847 -0.0009884893138678743 0.0008226710947809346 0.00016581821908693943 0.0008665516966676174 0.0 0.0
0.0 0.00020568486796340314 -0.0001392749289128012 0.00011264182243209811 2.663310648070301e-05 0.00017528158171318704 0.0 0.0
0.0 1.4452057138843915e-05 -6.949943241094997e-06 5.595049896362139e-06 1.3548933447328365e-06 1.2759831599067448e-05 0.0 0.0
0.0 9.159772720464821e-07 5.630253742091469e-08 -4.5367008322703315e-08 -1.0935529098212496e-08 -1.5681455054918204e-07 0.0 0.0
0.0 0.0 0.0 0.0 0.0 0.0 0.0 0.0
0.0 0.0 0.0 0.0 0.0 0.0 0.0 0.0
0.0 0.0 0.0 0.0 0.0 0.0 0.0 0.0
0.0 0.0 0.0 0.0 0.0 0.0 0.0 0.0
0.0 2.633745482838499e-07 1.9034837468267232e-08 -1.5232417022672714e-08 -3.80242044559584e-09 3.959451352121644e-08 0.0 0.0
0.0 1.4954690483464357e-05 -9.009146541998421e-06 7.1987281548438825e-06 1.810418387154558e-06 -1.2212543142380165e-05 0.0 0.0
0.0 0.000366570135530083 -0.00027767920022561156 0.00022518806401671356 5.249113620889807e-05 -0.00024235215807754556 0.0 0.0
0.0 0.0019760338337203986 -0.0015993126860531252 0.0013524552194685458 0.0002468574665845804 -0.0009559173910112387 0.0 0.0
0.0 0.005306949175738833 -0.004583106546436204 0.004094241314979843 0.0004888652314563632 -0.0022378317478898746 0.0 0.0
0.0 0.010884981498654718 -0.009415696120763905 0.008761305581878185 0.000654390538885722 -0.00421189986345931 0.0 0.0
0.0 0.018676499649860567 -0.016063980219386723 0.015296979403697019 0.0007670008156897011 -0.0067680018834899115 0.0 0.0
0.0 0.02838908213873736 -0.02437184648559588 0.023507299802165968 0.0008645466834299275 -0.00967690801125061 0.0 0.0
0.0 0.03978257173239469 -0.0341220273529821 0.0331644760003653 0.0009575513526167722 -0.012637199485279426 0.0 0.0
0.0 0.05264345333661089 -0.0451493692620878 0.04410111531849789 0.0010482539435898866 -0.015481647303447765 0.0 0.0
0.0 0.0668558260953811 -0.05737158935376592 0.05623524174065207 0.00113634761311381 -0.018244589700011925 0.0 0.0
0.0 0.08242357766983624 -0.07075580319543821 0.06953294292203456 0.0012228602734036232 -0.020944124074214584 0.0 0.0
0.0 0.09919816980023177 -0.08520818797220105 0.08389466969130095 0.001313518280900097 -0.023579226532807456 0.0 0.0
0.0 0.1164335647153134 -0.10024660521194136 0.09881997645856296 0.00142662875337834 -0.02638006090248302 0.0 0.0
0.0 0.13282537747514583 -0.11433767027336816 0.11275635282129182 0.0015813174520763066 -0.03009869147982741 0.0 0.0
0.0 0.14461304537870906 -0.12430322782996502 0.12253499741519454 0.0017682304147704745 -0.03554954361522506 0.0 0.0
0.0 0.1464443152350374 -0.1253579224319824 0.12339401818020786 0.0019639042517745047 -0.04289125050253706 0.0 0.0
0.0 0.13200947803423296 -0.1115193172627428 0.10937811399240653 0.00214120327033617 -0.052218051589866324 0.0 0.0
0.0 0.1320094780342278 -0.11151931726273259 0.10937811399239633 0.0021412032703363075 0.052218051589915 0.0 0.0
0.0 0.14644431523500462 -0.12535792243194885 0.12339401818017431 0.0019639042517746014 0.042891250502594944 0.0 0.0
0.0 0.14461304537865366 -0.12430322782991404 0.12253499741514332 0.0017682304147706343 0.035549543615265536 0.0 0.0
0.0 0.13282537747506934 -0.11433767027330113 0.11275635282122445 0.0015813174520767092 0.030098691479836445 0.0 0.0
0.0 0.116433564715228 -0.1002466052118671 0.09881997645848921 0.0014266287533778353 0.02638006090247723 0.0 0.0
0.0 0.0991981698001451 -0.08520818797212573 0.08389466969122651 0.0013135182808992163 0.023579226532798203 0.0 0.0
0.0 0.08242357766974753 -0.07075580319536157 0.06953294292195866 0.001222860273402804 0.020944124074199412 0.0 0.0
0.0 0.06685582609529174 -0.05737158935368858 0.05623524174057536 0.0011363476131132037 0.018244589699995872 0.0 0.0
0.0 0.052643453336526855 -0.04514936926201483 0.044101115318425796 0.0010482539435890741 0.015481647303429413 0.0 0.0
0.0 0.039782571732319055 -0.03412202735291694 0.03316447600030097 0.0009575513526159424 0.012637199485253764 0.0 0.0
0.0 0.028389082138671834 -0.02437184648553964 0.023507299802110342 0.0008645466834292818 0.00967690801122581 0.0 0.0
0.0 0.018676499649808824 -0.016063980219341984 0.0152969794036526 0.0007670008156893818 0.006768001883473164 0.0 0.0
0.0 0.010884981498618489 -0.00941569612073246 0.00876130558184747 0.0006543905388849904 0.004211899863446102 0.0 0.0
0.0 0.00530694917571645 -0.004583106546417052 0.004094241314961707 0.0004888652314553456 0.0022378317478809265 0.0 0.0
0.0 0.001976033833708509 -0.0015993126860439542 0.0013524552194604284 0.00024685746658352525 0.0009559173910060541 0.0 0.0
0.0 0.0003665701355272923 -0.00027767920022428975 0.00022518806401558794 5.249113620870163e-05 0.0002423521580763836 0.0 0.0
0.0 1.4954690483473628e-05 -9.009146542596262e-06 7.198728155311322e-06 1.8104183872849497e-06 1.2212543143147338e-05 0.0 0.0
0.0 2.633745479801639e-07 1.90348374459991e-08 -1.5232417004860948e-08 -3.802420441135515e-09 -3.959451347502403e-08 0.0 0.0
0.0 0.0 0.0 0.0 0.0 0.0 0.0 0.0
0.0 0.0 0.0 0.0 0.0 0.0 0.0 0.0
0.0 0.0 0.0 0.0 0.0 0.0 0.0 0.0
0.0 0.0 0.0 0.0 0.0 0.0 0.0 0.0
0.0 0.0 0.0 0.0 0.0 0.0 0.0 0.0
0.0 2.261231557407794e-05 -1.595651582306732e-05 1.2764350687710574e-05 3.1921651353567385e-06 -1.5306598711112726e-05 0.0 0.0
0.0 0.0006479021603820764 -0.0005126088566875202 0.00041813151052908474 9.447734615843519e-05 -0.00028793460232258504 0.0 0.0
0.0 0.002810904669747339 -0.002364784705195965 0.0020331624412216953 0.0003316222639742693 -0.0009291141769564491 0.0 0.0
0.0 0.0068041964979452816 -0.006009681836332201 0.00545403036226451 0.0005556514740676887 -0.001983767945003603 0.0 0.0
0.0 0.013284541448218874 -0.011607996240352213 0.010913203295410484 0.0006947929449417271 -0.0035756598728884977 0.0 0.0
0.0 0.022146823464129408 -0.019230675048941832 0.018427989158333817 0.0008026858906080032 -0.0056681736161418 0.0 0.0
0.0 0.03321099699663842 -0.028752317331381602 0.027848192316290963 0.0009041250150906363 -0.0080633153757406 0.0 0.0
0.0 0.04625514177796586 -0.03996494179630081 0.038960690306978955 0.001004251489321812 -0.010507504543864723 0.0 0.0
0.0 0.06098481374225194 -0.05269290772495924 0.05158961562559103 0.0011032920993682038 -0.012852557923828192 0.0 0.0
0.0 0.077436186112387 -0.06681808457411906 0.0656165623950694 0.0012015221790496527 -0.015143938622082891 0.0 0.0
0.0 0.09514991483206776 -0.08223605999595784 0.08093643856812338 0.0012996214278344932 -0.017415213117526952 0.0 0.0
0.0 0.11415100305438301 -0.0987378233681461 0.09733755613107459 0.0014002672370715384 -0.019460836802806827 0.0 0.0
0.0 0.13380602613768797 -0.11578638016335087 0.11426997997436669 0.0015164001889841417 -0.021037988223904375 0.0 0.0
0.0 0.15243105582067004 -0.1319347761694763 0.13026074401542426 0.001674032154052035 -0.022908805092508883 0.0 0.0
0.0 0.16640613876243782 -0.14390886251456803 0.14201794316874808 0.001890919345819832 -0.027725706604876065 0.0 0.0
0.0 0.169727739479696 -0.14620979855874663 0.1440958193286047 0.0021139792301420376 -0.03826583623759143 0.0 0.0
0.0 0.15549217404849697 -0.1319808175528467 0.1296722632629574 0.0023085542898892853 -0.05579994890318753 0.0 0.0
0.0 0.15549217404848553 -0.1319808175528329 0.12967226326294337 0.002308554289889501 0.0557999489032249 0.0 0.0
0.0 0.1697277394796594 -0.14620979855871152 0.14409581932856955 0.002113979230141988 0.03826583623764207 0.0 0.0
0.0 0.16640613876237537 -0.14390886251451163 0.1420179431686925 0.001890919345819037 0.02772570660491184 0.0 0.0
0.0 0.15243105582058958 -0.13193477616940527 0.13026074401535537 0.0016740321540499419 0.022908805092516887 0.0 0.0
0.0 0.13380602613759157 -0.11578638016326688 0.11426997997428393 0.0015164001889829372 0.021037988223901363 0.0 0.0
0.0 0.11415100305428161 -0.09873782336805778 0.09733755613098724 0.0014002672370706077 0.01946083680280255 0.0 0.0
0.0 0.09514991483196457 -0.08223605999586847 0.08093643856803459 0.0012996214278338414 0.017415213117515812 0.0 0.0
0.0 0.07743618611228684 -0.0668180845740321 0.0656165623949831 0.0012015221790490156 0.0151439386220713 0.0 0.0
0.0 0.06098481374215174 -0.05269290772487266 0.051589615625504605 0.0011032920993680362 0.01285255792381484 0.0 0.0
0.0 0.04625514177787827 -0.03996494179622486 0.03896069030690356 0.0010042514893213034 0.010507504543843027 0.0 0.0
0.0 0.03321099699656548 -0.02875231733131833 0.027848192316228478 0.000904125015089852 0.008063315375719346 0.0 0.0
0.0 0.02214682346407218 -0.01923067504889184 0.0184279891582846 0.0008026858906072434 0.005668173616127467 0.0 0.0
0.0 0.013284541448176299 -0.01160799624031493 0.010913203295373812 0.0006947929449411215 0.0035756598728768517 0.0 0.0
0.0 0.006804196497917499 -0.006009681836307712 0.005454030362240988 0.0005556514740667273 0.001983767944995686 0.0 0.0
0.0 0.0028109046697317756 -0.002364784705182928 0.002033162441209899 0.0003316222639730282 0.000929114176951214 0.0 0.0
0.0 0.0006479021603777087 -0.000512608856684619 0.00041813151052665093 9.447734615796817e-05 0.00028793460232110716 0.0 0.0
0.0 2.2612315573415225e-05 -1.5956515823227286e-05 1.2764350687818855e-05 3.192165135408445e-06 1.530659871120829e-05 0.0 0.0
0.0 0.0 0.0 0.0 0.0 0.0 0.0 0.0
0.0 0.0 0.0 0.0 0.0 0.0 0.0 0.0
0.0 0.0 0.0 0.0 0.0 0.0 0.0 0.0
0.0 0.0 0.0 0.0 0.0 0.0 0.0 0.0
0.0 0.0 0.0 0.0 0.0 0.0 0.0 0.0
0.0 0.0 0.0 0.0 0.0 0.0 0.0 0.0
0.0 5.17695822557529e-05 -3.890722320860828e-05 3.105799380775087e-05 7.849229400857445e-06 -2.283096657821725e-05 0.0 0.0
0.0 0.001079257663580187 -0.0008641879629558528 0.000712845021438188 0.000151342941517665 -0.0002777457535472839 0.0 0.0
0.0 0.0036130611717822 -0.0032634818085102105 0.0028511108517588245 0.00041237095675138483 -0.0007345285317594258 0.0 0.0
0.0 0.00843591776326779 -0.007490159118977935 0.0068867152860607045 0.0006034438329172325 -0.0014513643085581674 0.0 0.0
0.0 0.01572954804735461 -0.013821557954341831 0.013095062516235885 0.0007264954381059541 -0.0025328250818681215 0.0 0.0
0.0 0.025637024981930545 -0.022386592822787023 0.021554723749072337 0.0008318690737146766 -0.003984744126028093 0.0 0.0
0.0 0.03803565398237136 -0.03310129773610511 0.03216306209296224 0.0009382356431428612 -0.005672463011991276 0.0 0.0
0.0 0.05270607185340519 -0.04576882525692552 0.04472290632354424 0.0010459189333812764 -0.007397683009647499 0.0 0.0
0.0 0.06947022644905154 -0.06019757322238265 0.05904393252344421 0.0011536406989384302 -0.009053681396399596 0.0 0.0
0.0 0.08785426970000579 -0.07623231351960444 0.07497006029652635 0.001262253223078119 -0.01070180952516036 0.0 0.0
0.0 0.10791763745623822 -0.09366766680803282 0.09229455148081409 0.0013731153272187025 -0.012320573668530725 0.0 0.0
0.0 0.12921782516715813 -0.11213211596176516 0.11064455764534109 0.0014875583164240256 -0.013662661691987033 0.0 0.0
0.0 0.15086447293223276 -0.13093168263302712 0.12932324369728476 0.0016084389357423846 -0.014260188088322998 0.0 0.0
0.0 0.17134726846748347 -0.1487429437929968 0.14699130254177548 0.0017516412512214102 -0.014147648473654118 0.0 0.0
0.0 0.18765414499440455 -0.16284624670162257 0.16089139372444639 0.001954852977176139 -0.016457598834187133 0.0 0.0
0.0 0.193765673038498 -0.16763820575247115 0.16536855639850886 0.002269649353962126 -0.029356685954844527 0.0 0.0
0.0 0.1808672051015698 -0.15414621689249036 0.1516418736791222 0.002504343213368021 -0.05789168289861345 0.0 0.0
0.0 0.18086720510155468 -0.15414621689247476 0.15164187367910675 0.0025043432133678954 0.05789168289863919 0.0 0.0
0.0 0.1937656730384541 -0.1676382057524308 0.1653685563984696 0.002269649353961162 0.029356685954884058 0.0 0.0
0.0 0.1876541449943276 -0.16284624670155518 0.16089139372437933 0.001954852977175904 0.01645759883421375 0.0 0.0
0.0 0.17134726846738363 -0.1487429437929103 0.14699130254168877 0.0017516412512215088 0.014147648473658129 0.0 0.0
0.0 0.1508644729321277 -0.13093168263293567 0.1293232436971946 0.001608438935741062 0.014260188088318993 0.0 0.0
0.0 0.129217825167051 -0.11213211596167134 0.11064455764524933 0.0014875583164220309 0.013662661691986757 0.0 0.0
0.0 0.10791763745612391 -0.09366766680793348 0.0922945514807158 0.0013731153272176356 0.012320573668525164 0.0 0.0
0.0 0.08785426969989588 -0.07623231351950871 0.07497006029643191 0.0012622532230767856 0.010701809525153656 0.0 0.0
0.0 0.06947022644894628 -0.06019757322229051 0.05904393252335379 0.0011536406989366965 0.009053681396391804 0.0 0.0
0.0 0.05270607185330663 -0.04576882525683994 0.04472290632345954 0.0010459189333803932 0.00739768300963207 0.0 0.0
0.0 0.03803565398228886 -0.03310129773603345 0.03216306209289116 0.0009382356431423003 0.005672463011975496 0.0 0.0
0.0 0.02563702498186951 -0.02238659282273317 0.02155472374901932 0.0008318690737138542 0.00398474412601991 0.0 0.0
0.0 0.015729548047308348 -0.013821557954301004 0.013095062516195763 0.0007264954381052363 0.002532825081860776 0.0 0.0
0.0 0.008435917763238435 -0.007490159118951619 0.006886715286035349 0.000603443832916268 0.0014513643085527512 0.0 0.0
0.0 0.0036130611717650734 -0.0032634818084948513 0.0028511108517445907 0.0004123709567502607 0.0007345285317559621 0.0 0.0
0.0 0.0010792576635725148 -0.0008641879629499199 0.0007128450214331097 0.00015134294151681002 0.00027774575354556425 0.0 0.0
0.0 5.1769582255185464e-05 -3.89072232089858e-05 3.105799380803203e-05 7.849229400953717e-06 2.2830966578381553e-05 0.0 0.0
0.0 0.0 0.0 0.0 0.0 0.0 0.0 0.0
0.0 0.0 0.0 0.0 0.0 0.0 0.0 0.0
0.0 0.0 0.0 0.0 0.0 0.0 0.0 0.0
0.0 0.0 0.0 0.0 0.0 0.0 0.0 0.0
0.0 0.0 0.0 0.0 0.0 0.0 0.0 0.0
0.0 0.0 0.0 0.0 0.0 0.0 0.0 0.0
0.0 0.00014132287281569733 -0.00011785546023344255 9.374190423874631e-05 2.4113555994696326e-05 -2.923890304263696e-05 0.0 0.0
0.0 0.001666844904734813 -0.001328590631030212 0.0011093765453124606 0.00021921408571775103 -0.0001677394900737756 0.0 0.0
0.0 0.004677055047051169 -0.004224236541554254 0.0037454254871629043 0.00047881105439135155 -0.0003475526437870698 0.0 0.0
0.0 0.010124372240016638 -0.009002540147114357 0.008362619427712149 0.0006399207194022054 -0.0006391396400111294 0.0 0.0
0.0 0.01821491448922718 -0.016024983268857915 0.015273717840026775 0.0007512654288311313 -0.0010868439729556762 0.0 0.0
0.0 0.029145905962419123 -0.025496344449798626 0.024640070259140022 0.0008562741906585956 -0.001726344080111656 0.0 0.0
0.0 0.04288874963503039 -0.0373808478070915 0.036413330828739494 0.0009675169783520057 -0.0025012422779391733 0.0 0.0
0.0 0.05925965974938687 -0.051498279530768666 0.05041538195499651 0.001082897575772153 -0.0033076512053378353 0.0 0.0
0.0 0.07772470182510094 -0.06763394245384322 0.06643382957708559 0.0012001128767576267 -0.0040999016307158975 0.0 0.0
0.0 0.09833163723827926 -0.08556232666403116 0.08424327917258695 0.0013190474914442313 -0.004880415735601355 0.0 0.0
0.0 0.12073453537064824 -0.10498858797488415 0.10354636080650909 0.001442227168375057 -0.005603232330719677 0.0 0.0
0.0 0.1442520570798611 -0.12538451190939093 0.12381305091693681 0.0015714609924541818 -0.006120520852906212 0.0 0.0
0.0 0.16782416186928337 -0.1458137512004687 0.14410841305854374 0.0017053381419248619 -0.006091436722987804 0.0 0.0
0.0 0.18975662324601084 -0.164836273956266 0.16299569101487438 0.001840582941391671 -0.005093558955988587 0.0 0.0
0.0 0.2076129924198918 -0.1803526377941853 0.1783618575937131 0.0019907802004720063 -0.004048687821882474 0.0 0.0
0.0 0.21736251033615075 -0.18862050621348822 0.18639044923876066 0.0022300569747274084 -0.01221643399104324 0.0 0.0
0.0 0.20980775770357965 -0.17988631424597332 0.17700671483947458 0.0028795994064987076 -0.05341587911529815 0.0 0.0
0.0 0.20980775770355783 -0.17988631424595378 0.1770067148394548 0.0028795994064988017 0.05341587911530672 0.0 0.0
0.0 0.2173625103360965 -0.18862050621344056 0.1863904492387138 0.0022300569747266074 0.012216433991063912 0.0 0.0
0.0 0.2076129924198044 -0.1803526377941092 0.17836185759363793 0.0019907802004711533 0.004048687821895084 0.0 0.0
0.0 0.18975662324589934 -0.16483627395616934 0.1629956910147783 0.0018405829413910752 0.005093558955987429 0.0 0.0
0.0 0.16782416186915927 -0.1458137512003615 0.14410841305843636 0.001705338141925021 0.006091436722983631 0.0 0.0
0.0 0.14425205707973324 -0.12538451190928035 0.12381305091682603 0.00157146099245428 0.00612052085290687 0.0 0.0
0.0 0.12073453537052281 -0.10498858797477538 0.10354636080640092 0.0014422271683744037 0.00560323233071666 0.0 0.0
0.0 0.09833163723815165 -0.08556232666392069 0.08424327917247672 0.0013190474914439485 0.004880415735598202 0.0 0.0
0.0 0.07772470182498115 -0.06763394245373927 0.0664338295769825 0.0012001128767567257 0.004099901630712763 0.0 0.0
0.0 0.05925965974928217 -0.051498279530677524 0.050415381954906344 0.0010828975757711788 0.0033076512053305408 0.0 0.0
0.0 0.04288874963494252 -0.03738084780701514 0.03641333082866405 0.0009675169783511015 0.002501242277932261 0.0 0.0
0.0 0.02914590596234741 -0.02549634444973594 0.02464007025907772 0.0008562741906582091 0.0017263440801079347 0.0 0.0
0.0 0.018214914489173225 -0.016024983268810244 0.015273717839979578 0.0007512654288306566 0.0010868439729523553 0.0 0.0
0.0 0.010124372239980087 -0.009002540147081947 0.008362619427680212 0.0006399207194017352 0.0006391396400087649 0.0 0.0
0.0 0.0046770550470319056 -0.004224236541536635 0.0037454254871461877 0.0004788110543904459 0.0003475526437856281 0.0 0.0
0.0 0.0016668449047265864 -0.0013285906310238303 0.0011093765453068368 0.0002192140857169942 0.0001677394900730844 0.0 0.0
0.0 0.0001413228728140096 -0.00011785546023258464 9.374190423804663e-05 2.411355599453789e-05 2.9238903042440468e-05 0.0 0.0
0.0 0.0 0.0 0.0 0.0 0.0 0.0 0.0
0.0 0.0 0.0 0.0 0.0 0.0 0.0 0.0
0.0 0.0 0.0 0.0 0.0 0.0 0.0 0.0