# vtk DataFile Version 3.0
Some data
ASCII
DATASET UNSTRUCTURED_GRID
POINTS 861 float
0.0 0.0 0.0
0.4 0.0 0.0
0.8 0.0 0.0
1.2000000000000002 0.0 0.0
1.6 0.0 0.0
2.0 0.0 0.0
2.4000000000000004 0.0 0.0
2.8000000000000003 0.0 0.0
3.2 0.0 0.0
3.6 0.0 0.0
4.0 0.0 0.0
4.4 0.0 0.0
4.800000000000001 0.0 0.0
5.2 0.0 0.0
5.6000000000000005 0.0 0.0
6.0 0.0 0.0
6.4 0.0 0.0
6.800000000000001 0.0 0.0
7.2 0.0 0.0
7.6000000000000005 0.0 0.0
8.0 0.0 0.0
8.4 0.0 0.0
8.8 0.0 0.0
9.200000000000001 0.0 0.0
9.600000000000001 0.0 0.0
10.0 0.0 0.0
10.4 0.0 0.0
10.8 0.0 0.0
11.200000000000001 0.0 0.0
11.600000000000001 0.0 0.0
12.0 0.0 0.0
12.4 0.0 0.0
12.8 0.0 0.0
13.200000000000001 0.0 0.0
13.600000000000001 0.0 0.0
14.0 0.0 0.0
14.4 0.0 0.0
14.8 0.0 0.0
15.200000000000001 0.0 0.0
15.600000000000001 0.0 0.0
16.0 0.0 0.0
0.0 0.1 0.0
0.4 0.1 0.0
0.8 0.1 0.0
1.2000000000000002 0.1 0.0
1.6 0.1 0.0
2.0 0.1 0.0
2.4000000000000004 0.1 0.0
2.8000000000000003 0.1 0.0
3.2 0.1 0.0
3.6 0.1 0.0
4.0 0.1 0.0
4.4 0.1 0.0
4.800000000000001 0.1 0.0
5.2 0.1 0.0
5.6000000000000005 0.1 0.0
6.0 0.1 0.0
6.4 0.1 0.0
6.800000000000001 0.1 0.0
7.2 0.1 0.0
7.6000000000000005 0.1 0.0
8.0 0.1 0.0
8.4 0.1 0.0
8.8 0.1 0.0
9.200000000000001 0.1 0.0
9.600000000000001 0.1 0.0
10.0 0.1 0.0
10.4 0.1 0.0
10.8 0.1 0.0
11.200000000000001 0.1 0.0
11.600000000000001 0.1 0.0
12.0 0.1 0.0
12.4 0.1 0.0
12.8 0.1 0.0
13.200000000000001 0.1 0.0
13.600000000000001 0.1 0.0
14.0 0.1 0.0
14.4 0.1 0.0
14.8 0.1 0.0
15.200000000000001 0.1 0.0
15.600000000000001 0.1 0.0
16.0 0.1 0.0
0.0 0.2 0.0
0.4 0.2 0.0
0.8 0.2 0.0
1.2000000000000002 0.2 0.0
1.6 0.2 0.0
2.0 0.2 0.0
2.4000000000000004 0.2 0.0
2.8000000000000003 0.2 0.0
3.2 0.2 0.0
3.6 0.2 0.0
4.0 0.2 0.0
4.4 0.2 0.0
4.800000000000001 0.2 0.0
5.2 0.2 0.0
5.6000000000000005 0.2 0.0
6.0 0.2 0.0
6.4 0.2 0.0
6.800000000000001 0.2 0.0
7.2 0.2 0.0
7.6000000000000005 0.2 0.0
8.0 0.2 0.0
8.4 0.2 0.0
8.8 0.2 0.0
9.200000000000001 0.2 0.0
9.600000000000001 0.2 0.0
10.0 0.2 0.0
10.4 0.2 0.0
10.8 0.2 0.0
11.200000000000001 0.2 0.0
11.600000000000001 0.2 0.0
12.0 0.2 0.0
12.4 0.2 0.0
12.8 0.2 0.0
13.200000000000001 0.2 0.0
13.600000000000001 0.2 0.0
14.0 0.2 0.0
14.4 0.2 0.0
14.8 0.2 0.0
15.200000000000001 0.2 0.0
15.600000000000001 0.2 0.0
16.0 0.2 0.0
0.0 0.30000000000000004 0.0
0.4 0.30000000000000004 0.0
0.8 0.30000000000000004 0.0
1.2000000000000002 0.30000000000000004 0.0
1.6 0.30000000000000004 0.0
2.0 0.30000000000000004 0.0
2.4000000000000004 0.30000000000000004 0.0
2.8000000000000003 0.30000000000000004 0.0
3.2 0.30000000000000004 0.0
3.6 0.30000000000000004 0.0
4.0 0.30000000000000004 0.0
4.4 0.30000000000000004 0.0
4.800000000000001 0.30000000000000004 0.0
5.2 0.30000000000000004 0.0
5.6000000000000005 0.30000000000000004 0.0
6.0 0.30000000000000004 0.0
6.4 0.30000000000000004 0.0
6.800000000000001 0.30000000000000004 0.0
7.2 0.30000000000000004 0.0
7.6000000000000005 0.30000000000000004 0.0
8.0 0.30000000000000004 0.0
8.4 0.30000000000000004 0.0
8.8 0.30000000000000004 0.0
9.200000000000001 0.30000000000000004 0.0
9.600000000000001 0.30000000000000004 0.0
10.0 0.30000000000000004 0.0
10.4 0.30000000000000004 0.0
10.8 0.30000000000000004 0.0
11.200000000000001 0.30000000000000004 0.0
11.600000000000001 0.30000000000000004 0.0
12.0 0.30000000000000004 0.0
12.4 0.30000000000000004 0.0
12.8 0.30000000000000004 0.0
13.200000000000001 0.30000000000000004 0.0
13.600000000000001 0.30000000000000004 0.0
14.0 0.30000000000000004 0.0
14.4 0.30000000000000004 0.0
14.8 0.30000000000000004 0.0
15.200000000000001 0.30000000000000004 0.0
15.600000000000001 0.30000000000000004 0.0
16.0 0.30000000000000004 0.0
0.0 0.4 0.0
0.4 0.4 0.0
0.8 0.4 0.0
1.2000000000000002 0.4 0.0
1.6 0.4 0.0
2.0 0.4 0.0
2.4000000000000004 0.4 0.0
2.8000000000000003 0.4 0.0
3.2 0.4 0.0
3.6 0.4 0.0
4.0 0.4 0.0
4.4 0.4 0.0
4.800000000000001 0.4 0.0
5.2 0.4 0.0
5.6000000000000005 0.4 0.0
6.0 0.4 0.0
6.4 0.4 0.0
6.800000000000001 0.4 0.0
7.2 0.4 0.0
7.6000000000000005 0.4 0.0
8.0 0.4 0.0
8.4 0.4 0.0
8.8 0.4 0.0
9.200000000000001 0.4 0.0
9.600000000000001 0.4 0.0
10.0 0.4 0.0
10.4 0.4 0.0
10.8 0.4 0.0
11.200000000000001 0.4 0.0
11.600000000000001 0.4 0.0
12.0 0.4 0.0
12.4 0.4 0.0
12.8 0.4 0.0
13.200000000000001 0.4 0.0
13.600000000000001 0.4 0.0
14.0 0.4 0.0
14.4 0.4 0.0
14.8 0.4 0.0
15.200000000000001 0.4 0.0
15.600000000000001 0.4 0.0
16.0 0.4 0.0
0.0 0.5 0.0
0.4 0.5 0.0
0.8 0.5 0.0
1.2000000000000002 0.5 0.0
1.6 0.5 0.0
2.0 0.5 0.0
2.4000000000000004 0.5 0.0
2.8000000000000003 0.5 0.0
3.2 0.5 0.0
3.6 0.5 0.0
4.0 0.5 0.0
4.4 0.5 0.0
4.800000000000001 0.5 0.0
5.2 0.5 0.0
5.6000000000000005 0.5 0.0
6.0 0.5 0.0
6.4 0.5 0.0
6.800000000000001 0.5 0.0
7.2 0.5 0.0
7.6000000000000005 0.5 0.0
8.0 0.5 0.0
8.4 0.5 0.0
8.8 0.5 0.0
9.200000000000001 0.5 0.0
9.600000000000001 0.5 0.0
10.0 0.5 0.0
10.4 0.5 0.0
10.8 0.5 0.0
11.200000000000001 0.5 0.0
11.600000000000001 0.5 0.0
12.0 0.5 0.0
12.4 0.5 0.0
12.8 0.5 0.0
13.200000000000001 0.5 0.0
13.600000000000001 0.5 0.0
14.0 0.5 0.0
14.4 0.5 0.0
14.8 0.5 0.0
15.200000000000001 0.5 0.0
15.600000000000001 0.5 0.0
16.0 0.5 0.0
0.0 0.6000000000000001 0.0
0.4 0.6000000000000001 0.0
0.8 0.6000000000000001 0.0
1.2000000000000002 0.6000000000000001 0.0
1.6 0.6000000000000001 0.0
2.0 0.6000000000000001 0.0
2.4000000000000004 0.6000000000000001 0.0
2.8000000000000003 0.6000000000000001 0.0
3.2 0.6000000000000001 0.0
3.6 0.6000000000000001 0.0
4.0 0.6000000000000001 0.0
4.4 0.6000000000000001 0.0
4.800000000000001 0.6000000000000001 0.0
5.2 0.6000000000000001 0.0
5.6000000000000005 0.6000000000000001 0.0
6.0 0.6000000000000001 0.0
6.4 0.6000000000000001 0.0
6.800000000000001 0.6000000000000001 0.0
7.2 0.6000000000000001 0.0
7.6000000000000005 0.6000000000000001 0.0
8.0 0.6000000000000001 0.0
8.4 0.6000000000000001 0.0
8.8 0.6000000000000001 0.0
9.200000000000001 0.6000000000000001 0.0
9.600000000000001 0.6000000000000001 0.0
10.0 0.6000000000000001 0.0
10.4 0.6000000000000001 0.0
10.8 0.6000000000000001 0.0
11.200000000000001 0.6000000000000001 0.0
11.600000000000001 0.6000000000000001 0.0
12.0 0.6000000000000001 0.0
12.4 0.6000000000000001 0.0
12.8 0.6000000000000001 0.0
13.200000000000001 0.6000000000000001 0.0
13.600000000000001 0.6000000000000001 0.0
14.0 0.6000000000000001 0.0
14.4 0.6000000000000001 0.0
14.8 0.6000000000000001 0.0
15.200000000000001 0.6000000000000001 0.0
15.600000000000001 0.6000000000000001 0.0
16.0 0.6000000000000001 0.0
0.0 0.7000000000000001 0.0
0.4 0.7000000000000001 0.0
0.8 0.7000000000000001 0.0
1.2000000000000002 0.7000000000000001 0.0
1.6 0.7000000000000001 0.0
2.0 0.7000000000000001 0.0
2.4000000000000004 0.7000000000000001 0.0
2.8000000000000003 0.7000000000000001 0.0
3.2 0.7000000000000001 0.0
3.6 0.7000000000000001 0.0
4.0 0.7000000000000001 0.0
4.4 0.7000000000000001 0.0
4.800000000000001 0.7000000000000001 0.0
5.2 0.7000000000000001 0.0
5.6000000000000005 0.7000000000000001 0.0
6.0 0.7000000000000001 0.0
6.4 0.7000000000000001 0.0
6.800000000000001 0.7000000000000001 0.0
7.2 0.7000000000000001 0.0
7.6000000000000005 0.7000000000000001 0.0
8.0 0.7000000000000001 0.0
8.4 0.7000000000000001 0.0
8.8 0.7000000000000001 0.0
9.200000000000001 0.7000000000000001 0.0
9.600000000000001 0.7000000000000001 0.0
10.0 0.7000000000000001 0.0
10.4 0.7000000000000001 0.0
10.8 0.7000000000000001 0.0
11.200000000000001 0.7000000000000001 0.0
11.600000000000001 0.7000000000000001 0.0
12.0 0.7000000000000001 0.0
12.4 0.7000000000000001 0.0
12.8 0.7000000000000001 0.0
13.200000000000001 0.7000000000000001 0.0
13.600000000000001 0.7000000000000001 0.0
14.0 0.7000000000000001 0.0
14.4 0.7000000000000001 0.0
14.8 0.7000000000000001 0.0
15.200000000000001 0.7000000000000001 0.0
15.600000000000001 0.7000000000000001 0.0
16.0 0.7000000000000001 0.0
0.0 0.8 0.0
0.4 0.8 0.0
0.8 0.8 0.0
1.2000000000000002 0.8 0.0
1.6 0.8 0.0
2.0 0.8 0.0
2.4000000000000004 0.8 0.0
2.8000000000000003 0.8 0.0
3.2 0.8 0.0
3.6 0.8 0.0
4.0 0.8 0.0
4.4 0.8 0.0
4.800000000000001 0.8 0.0
5.2 0.8 0.0
5.6000000000000005 0.8 0.0
6.0 0.8 0.0
6.4 0.8 0.0
6.800000000000001 0.8 0.0
7.2 0.8 0.0
7.6000000000000005 0.8 0.0
8.0 0.8 0.0
8.4 0.8 0.0
8.8 0.8 0.0
9.200000000000001 0.8 0.0
9.600000000000001 0.8 0.0
10.0 0.8 0.0
10.4 0.8 0.0
10.8 0.8 0.0
11.200000000000001 0.8 0.0
11.600000000000001 0.8 0.0
12.0 0.8 0.0
12.4 0.8 0.0
12.8 0.8 0.0
13.200000000000001 0.8 0.0
13.600000000000001 0.8 0.0
14.0 0.8 0.0
14.4 0.8 0.0
14.8 0.8 0.0
15.200000000000001 0.8 0.0
15.600000000000001 0.8 0.0
16.0 0.8 0.0
0.0 0.9 0.0
0.4 0.9 0.0
0.8 0.9 0.0
1.2000000000000002 0.9 0.0
1.6 0.9 0.0
2.0 0.9 0.0
2.4000000000000004 0.9 0.0
2.8000000000000003 0.9 0.0
3.2 0.9 0.0
3.6 0.9 0.0
4.0 0.9 0.0
4.4 0.9 0.0
4.800000000000001 0.9 0.0
5.2 0.9 0.0
5.6000000000000005 0.9 0.0
6.0 0.9 0.0
6.4 0.9 0.0
6.800000000000001 0.9 0.0
7.2 0.9 0.0
7.6000000000000005 0.9 0.0
8.0 0.9 0.0
8.4 0.9 0.0
8.8 0.9 0.0
9.200000000000001 0.9 0.0
9.600000000000001 0.9 0.0
10.0 0.9 0.0
10.4 0.9 0.0
10.8 0.9 0.0
11.200000000000001 0.9 0.0
11.600000000000001 0.9 0.0
12.0 0.9 0.0
12.4 0.9 0.0
12.8 0.9 0.0
13.200000000000001 0.9 0.0
13.600000000000001 0.9 0.0
14.0 0.9 0.0
14.4 0.9 0.0
14.8 0.9 0.0
15.200000000000001 0.9 0.0
15.600000000000001 0.9 0.0
16.0 0.9 0.0
0.0 1.0 0.0
0.4 1.0 0.0
0.8 1.0 0.0
1.2000000000000002 1.0 0.0
1.6 1.0 0.0
2.0 1.0 0.0
2.4000000000000004 1.0 0.0
2.8000000000000003 1.0 0.0
3.2 1.0 0.0
3.6 1.0 0.0
4.0 1.0 0.0
4.4 1.0 0.0
4.800000000000001 1.0 0.0
5.2 1.0 0.0
5.6000000000000005 1.0 0.0
6.0 1.0 0.0
6.4 1.0 0.0
6.800000000000001 1.0 0.0
7.2 1.0 0.0
7.6000000000000005 1.0 0.0
8.0 1.0 0.0
8.4 1.0 0.0
8.8 1.0 0.0
9.200000000000001 1.0 0.0
9.600000000000001 1.0 0.0
10.0 1.0 0.0
10.4 1.0 0.0
10.8 1.0 0.0
11.200000000000001 1.0 0.0
11.600000000000001 1.0 0.0
12.0 1.0 0.0
12.4 1.0 0.0
12.8 1.0 0.0
13.200000000000001 1.0 0.0
13.600000000000001 1.0 0.0
14.0 1.0 0.0
14.4 1.0 0.0
14.8 1.0 0.0
15.200000000000001 1.0 0.0
15.600000000000001 1.0 0.0
16.0 1.0 0.0
0.0 1.1 0.0
0.4 1.1 0.0
0.8 1.1 0.0
1.2000000000000002 1.1 0.0
1.6 1.1 0.0
2.0 1.1 0.0
2.4000000000000004 1.1 0.0
2.8000000000000003 1.1 0.0
3.2 1.1 0.0
3.6 1.1 0.0
4.0 1.1 0.0
4.4 1.1 0.0
4.800000000000001 1.1 0.0
5.2 1.1 0.0
5.6000000000000005 1.1 0.0
6.0 1.1 0.0
6.4 1.1 0.0
6.800000000000001 1.1 0.0
7.2 1.1 0.0
7.6000000000000005 1.1 0.0
8.0 1.1 0.0
8.4 1.1 0.0
8.8 1.1 0.0
9.200000000000001 1.1 0.0
9.600000000000001 1.1 0.0
10.0 1.1 0.0
10.4 1.1 0.0
10.8 1.1 0.0
11.200000000000001 1.1 0.0
11.600000000000001 1.1 0.0
12.0 1.1 0.0
12.4 1.1 0.0
12.8 1.1 0.0
13.200000000000001 1.1 0.0
13.600000000000001 1.1 0.0
14.0 1.1 0.0
14.4 1.1 0.0
14.8 1.1 0.0
15.200000000000001 1.1 0.0
15.600000000000001 1.1 0.0
16.0 1.1 0.0
0.0 1.2000000000000002 0.0
0.4 1.2000000000000002 0.0
0.8 1.2000000000000002 0.0
1.2000000000000002 1.2000000000000002 0.0
1.6 1.2000000000000002 0.0
2.0 1.2000000000000002 0.0
2.4000000000000004 1.2000000000000002 0.0
2.8000000000000003 1.2000000000000002 0.0
3.2 1.2000000000000002 0.0
3.6 1.2000000000000002 0.0
4.0 1.2000000000000002 0.0
4.4 1.2000000000000002 0.0
4.800000000000001 1.2000000000000002 0.0
5.2 1.2000000000000002 0.0
5.6000000000000005 1.2000000000000002 0.0
6.0 1.2000000000000002 0.0
6.4 1.2000000000000002 0.0
6.800000000000001 1.2000000000000002 0.0
7.2 1.2000000000000002 0.0
7.6000000000000005 1.2000000000000002 0.0
8.0 1.2000000000000002 0.0
8.4 1.2000000000000002 0.0
8.8 1.2000000000000002 0.0
9.200000000000001 1.2000000000000002 0.0
9.600000000000001 1.2000000000000002 0.0
10.0 1.2000000000000002 0.0
10.4 1.2000000000000002 0.0
10.8 1.2000000000000002 0.0
11.200000000000001 1.2000000000000002 0.0
11.600000000000001 1.2000000000000002 0.0
12.0 1.2000000000000002 0.0
12.4 1.2000000000000002 0.0
12.8 1.2000000000000002 0.0
13.200000000000001 1.2000000000000002 0.0
13.600000000000001 1.2000000000000002 0.0
14.0 1.2000000000000002 0.0
14.4 1.2000000000000002 0.0
14.8 1.2000000000000002 0.0
15.200000000000001 1.2000000000000002 0.0
15.600000000000001 1.2000000000000002 0.0
16.0 1.2000000000000002 0.0
0.0 1.3 0.0
0.4 1.3 0.0
0.8 1.3 0.0
1.2000000000000002 1.3 0.0
1.6 1.3 0.0
2.0 1.3 0.0
2.4000000000000004 1.3 0.0
2.8000000000000003 1.3 0.0
3.2 1.3 0.0
3.6 1.3 0.0
4.0 1.3 0.0
4.4 1.3 0.0
4.800000000000001 1.3 0.0
5.2 1.3 0.0
5.6000000000000005 1.3 0.0
6.0 1.3 0.0
6.4 1.3 0.0
6.800000000000001 1.3 0.0
7.2 1.3 0.0
7.6000000000000005 1.3 0.0
8.0 1.3 0.0
8.4 1.3 0.0
8.8 1.3 0.0
9.200000000000001 1.3 0.0
9.600000000000001 1.3 0.0
10.0 1.3 0.0
10.4 1.3 0.0
10.8 1.3 0.0
11.200000000000001 1.3 0.0
11.600000000000001 1.3 0.0
12.0 1.3 0.0
12.4 1.3 0.0
12.8 1.3 0.0
13.200000000000001 1.3 0.0
13.600000000000001 1.3 0.0
14.0 1.3 0.0
14.4 1.3 0.0
14.8 1.3 0.0
15.200000000000001 1.3 0.0
15.600000000000001 1.3 0.0
16.0 1.3 0.0
0.0 1.4000000000000001 0.0
0.4 1.4000000000000001 0.0
0.8 1.4000000000000001 0.0
1.2000000000000002 1.4000000000000001 0.0
1.6 1.4000000000000001 0.0
2.0 1.4000000000000001 0.0
2.4000000000000004 1.4000000000000001 0.0
2.8000000000000003 1.4000000000000001 0.0
3.2 1.4000000000000001 0.0
3.6 1.4000000000000001 0.0
4.0 1.4000000000000001 0.0
4.4 1.4000000000000001 0.0
4.800000000000001 1.4000000000000001 0.0
5.2 1.4000000000000001 0.0
5.6000000000000005 1.4000000000000001 0.0
6.0 1.4000000000000001 0.0
6.4 1.4000000000000001 0.0
6.800000000000001 1.4000000000000001 0.0
7.2 1.4000000000000001 0.0
7.6000000000000005 1.4000000000000001 0.0
8.0 1.4000000000000001 0.0
8.4 1.4000000000000001 0.0
8.8 1.4000000000000001 0.0
9.200000000000001 1.4000000000000001 0.0
9.600000000000001 1.4000000000000001 0.0
10.0 1.4000000000000001 0.0
10.4 1.4000000000000001 0.0
10.8 1.4000000000000001 0.0
11.200000000000001 1.4000000000000001 0.0
11.600000000000001 1.4000000000000001 0.0
12.0 1.4000000000000001 0.0
12.4 1.4000000000000001 0.0
12.8 1.4000000000000001 0.0
13.200000000000001 1.4000000000000001 0.0
13.600000000000001 1.4000000000000001 0.0
14.0 1.4000000000000001 0.0
14.4 1.4000000000000001 0.0
14.8 1.4000000000000001 0.0
15.200000000000001 1.4000000000000001 0.0
15.600000000000001 1.4000000000000001 0.0
16.0 1.4000000000000001 0.0
0.0 1.5 0.0
0.4 1.5 0.0
0.8 1.5 0.0
1.2000000000000002 1.5 0.0
1.6 1.5 0.0
2.0 1.5 0.0
2.4000000000000004 1.5 0.0
2.8000000000000003 1.5 0.0
3.2 1.5 0.0
3.6 1.5 0.0
4.0 1.5 0.0
4.4 1.5 0.0
4.800000000000001 1.5 0.0
5.2 1.5 0.0
5.6000000000000005 1.5 0.0
6.0 1.5 0.0
6.4 1.5 0.0
6.800000000000001 1.5 0.0
7.2 1.5 0.0
7.6000000000000005 1.5 0.0
8.0 1.5 0.0
8.4 1.5 0.0
8.8 1.5 0.0
9.200000000000001 1.5 0.0
9.600000000000001 1.5 0.0
10.0 1.5 0.0
10.4 1.5 0.0
10.8 1.5 0.0
11.200000000000001 1.5 0.0
11.600000000000001 1.5 0.0
12.0 1.5 0.0
12.4 1.5 0.0
12.8 1.5 0.0
13.200000000000001 1.5 0.0
13.600000000000001 1.5 0.0
14.0 1.5 0.0
14.4 1.5 0.0
14.8 1.5 0.0
15.200000000000001 1.5 0.0
15.600000000000001 1.5 0.0
16.0 1.5 0.0
0.0 1.6 0.0
0.4 1.6 0.0
0.8 1.6 0.0
1.2000000000000002 1.6 0.0
1.6 1.6 0.0
2.0 1.6 0.0
2.4000000000000004 1.6 0.0
2.8000000000000003 1.6 0.0
3.2 1.6 0.0
3.6 1.6 0.0
4.0 1.6 0.0
4.4 1.6 0.0
4.800000000000001 1.6 0.0
5.2 1.6 0.0
5.6000000000000005 1.6 0.0
6.0 1.6 0.0
6.4 1.6 0.0
6.800000000000001 1.6 0.0
7.2 1.6 0.0
7.6000000000000005 1.6 0.0
8.0 1.6 0.0
8.4 1.6 0.0
8.8 1.6 0.0
9.200000000000001 1.6 0.0
9.600000000000001 1.6 0.0
10.0 1.6 0.0
10.4 1.6 0.0
10.8 1.6 0.0
11.200000000000001 1.6 0.0
11.600000000000001 1.6 0.0
12.0 1.6 0.0
12.4 1.6 0.0
12.8 1.6 0.0
13.200000000000001 1.6 0.0
13.600000000000001 1.6 0.0
14.0 1.6 0.0
14.4 1.6 0.0
14.8 1.6 0.0
15.200000000000001 1.6 0.0
15.600000000000001 1.6 0.0
16.0 1.6 0.0
0.0 1.7000000000000002 0.0
0.4 1.7000000000000002 0.0
0.8 1.7000000000000002 0.0
1.2000000000000002 1.7000000000000002 0.0
1.6 1.7000000000000002 0.0
2.0 1.7000000000000002 0.0
2.4000000000000004 1.7000000000000002 0.0
2.8000000000000003 1.7000000000000002 0.0
3.2 1.7000000000000002 0.0
3.6 1.7000000000000002 0.0
4.0 1.7000000000000002 0.0
4.4 1.7000000000000002 0.0
4.800000000000001 1.7000000000000002 0.0
5.2 1.7000000000000002 0.0
5.6000000000000005 1.7000000000000002 0.0
6.0 1.7000000000000002 0.0
6.4 1.7000000000000002 0.0
6.800000000000001 1.7000000000000002 0.0
7.2 1.7000000000000002 0.0
7.6000000000000005 1.7000000000000002 0.0
8.0 1.7000000000000002 0.0
8.4 1.7000000000000002 0.0
8.8 1.7000000000000002 0.0
9.200000000000001 1.7000000000000002 0.0
9.600000000000001 1.7000000000000002 0.0
10.0 1.7000000000000002 0.0
10.4 1.7000000000000002 0.0
10.8 1.7000000000000002 0.0
11.200000000000001 1.7000000000000002 0.0
11.600000000000001 1.7000000000000002 0.0
12.0 1.7000000000000002 0.0
12.4 1.7000000000000002 0.0
12.8 1.7000000000000002 0.0
13.200000000000001 1.7000000000000002 0.0
13.600000000000001 1.7000000000000002 0.0
14.0 1.7000000000000002 0.0
14.4 1.7000000000000002 0.0
14.8 1.7000000000000002 0.0
15.200000000000001 1.7000000000000002 0.0
15.600000000000001 1.7000000000000002 0.0
16.0 1.7000000000000002 0.0
0.0 1.8 0.0
0.4 1.8 0.0
0.8 1.8 0.0
1.2000000000000002 1.8 0.0
1.6 1.8 0.0
2.0 1.8 0.0
2.4000000000000004 1.8 0.0
2.8000000000000003 1.8 0.0
3.2 1.8 0.0
3.6 1.8 0.0
4.0 1.8 0.0
4.4 1.8 0.0
4.800000000000001 1.8 0.0
5.2 1.8 0.0
5.6000000000000005 1.8 0.0
6.0 1.8 0.0
6.4 1.8 0.0
6.800000000000001 1.8 0.0
7.2 1.8 0.0
7.6000000000000005 1.8 0.0
8.0 1.8 0.0
8.4 1.8 0.0
8.8 1.8 0.0
9.200000000000001 1.8 0.0
9.600000000000001 1.8 0.0
10.0 1.8 0.0
10.4 1.8 0.0
10.8 1.8 0.0
11.200000000000001 1.8 0.0
11.600000000000001 1.8 0.0
12.0 1.8 0.0
12.4 1.8 0.0
12.8 1.8 0.0
13.200000000000001 1.8 0.0
13.600000000000001 1.8 0.0
14.0 1.8 0.0
14.4 1.8 0.0
14.8 1.8 0.0
15.200000000000001 1.8 0.0
15.600000000000001 1.8 0.0
16.0 1.8 0.0
0.0 1.9000000000000001 0.0
0.4 1.9000000000000001 0.0
0.8 1.9000000000000001 0.0
1.2000000000000002 1.9000000000000001 0.0
1.6 1.9000000000000001 0.0
2.0 1.9000000000000001 0.0
2.4000000000000004 1.9000000000000001 0.0
2.8000000000000003 1.9000000000000001 0.0
3.2 1.9000000000000001 0.0
3.6 1.9000000000000001 0.0
4.0 1.9000000000000001 0.0
4.4 1.9000000000000001 0.0
4.800000000000001 1.9000000000000001 0.0
5.2 1.9000000000000001 0.0
5.6000000000000005 1.9000000000000001 0.0
6.0 1.9000000000000001 0.0
6.4 1.9000000000000001 0.0
6.800000000000001 1.9000000000000001 0.0
7.2 1.9000000000000001 0.0
7.6000000000000005 1.9000000000000001 0.0
8.0 1.9000000000000001 0.0
8.4 1.9000000000000001 0.0
8.8 1.9000000000000001 0.0
9.200000000000001 1.9000000000000001 0.0
9.600000000000001 1.9000000000000001 0.0
10.0 1.9000000000000001 0.0
10.4 1.9000000000000001 0.0
10.8 1.9000000000000001 0.0
11.200000000000001 1.9000000000000001 0.0
11.600000000000001 1.9000000000000001 0.0
12.0 1.9000000000000001 0.0
12.4 1.9000000000000001 0.0
12.8 1.9000000000000001 0.0
13.200000000000001 1.9000000000000001 0.0
13.600000000000001 1.9000000000000001 0.0
14.0 1.9000000000000001 0.0
14.4 1.9000000000000001 0.0
14.8 1.9000000000000001 0.0
15.200000000000001 1.9000000000000001 0.0
15.600000000000001 1.9000000000000001 0.0
16.0 1.9000000000000001 0.0
0.0 2.0 0.0
0.4 2.0 0.0
0.8 2.0 0.0
1.2000000000000002 2.0 0.0
1.6 2.0 0.0
2.0 2.0 0.0
2.4000000000000004 2.0 0.0
2.8000000000000003 2.0 0.0
3.2 2.0 0.0
3.6 2.0 0.0
4.0 2.0 0.0
4.4 2.0 0.0
4.800000000000001 2.0 0.0
5.2 2.0 0.0
5.6000000000000005 2.0 0.0
6.0 2.0 0.0
6.4 2.0 0.0
6.800000000000001 2.0 0.0
7.2 2.0 0.0
7.6000000000000005 2.0 0.0
8.0 2.0 0.0
8.4 2.0 0.0
8.8 2.0 0.0
9.200000000000001 2.0 0.0
9.600000000000001 2.0 0.0
10.0 2.0 0.0
10.4 2.0 0.0
10.8 2.0 0.0
11.200000000000001 2.0 0.0
11.600000000000001 2.0 0.0
12.0 2.0 0.0
12.4 2.0 0.0
12.8 2.0 0.0
13.200000000000001 2.0 0.0
13.600000000000001 2.0 0.0
14.0 2.0 0.0
14.4 2.0 0.0
14.8 2.0 0.0
15.200000000000001 2.0 0.0
15.600000000000001 2.0 0.0
16.0 2.0 0.0
CELLS 800 4000
4 0 1 42 41
4 1 2 43 42
4 2 3 44 43
4 3 4 45 44
4 4 5 46 45
4 5 6 47 46
4 6 7 48 47
4 7 8 49 48
4 8 9 50 49
4 9 10 51 50
4 10 11 52 51
4 11 12 53 52
4 12 13 54 53
4 13 14 55 54
4 14 15 56 55
4 15 16 57 56
4 16 17 58 57
4 17 18 59 58
4 18 19 60 59
4 19 20 61 60
4 20 21 62 61
4 21 22 63 62
4 22 23 64 63
4 23 24 65 64
4 24 25 66 65
4 25 26 67 66
4 26 27 68 67
4 27 28 69 68
4 28 29 70 69
4 29 30 71 70
4 30 31 72 71
4 31 32 73 72
4 32 33 74 73
4 33 34 75 74
4 34 35 76 75
4 35 36 77 76
4 36 37 78 77
4 37 38 79 78
4 38 39 80 79
4 39 40 81 80
4 41 42 83 82
4 42 43 84 83
4 43 44 85 84
4 44 45 86 85
4 45 46 87 86
4 46 47 88 87
4 47 48 89 88
4 48 49 90 89
4 49 50 91 90
4 50 51 92 91
4 51 52 93 92
4 52 53 94 93
4 53 54 95 94
4 54 55 96 95
4 55 56 97 96
4 56 57 98 97
4 57 58 99 98
4 58 59 100 99
4 59 60 101 100
4 60 61 102 101
4 61 62 103 102
4 62 63 104 103
4 63 64 105 104
4 64 65 106 105
4 65 66 107 106
4 66 67 108 107
4 67 68 109 108
4 68 69 110 109
4 69 70 111 110
4 70 71 112 111
4 71 72 113 112
4 72 73 114 113
4 73 74 115 114
4 74 75 116 115
4 75 76 117 116
4 76 77 118 117
4 77 78 119 118
4 78 79 120 119
4 79 80 121 120
4 80 81 122 121
4 82 83 124 123
4 83 84 125 124
4 84 85 126 125
4 85 86 127 126
4 86 87 128 127
4 87 88 129 128
4 88 89 130 129
4 89 90 131 130
4 90 91 132 131
4 91 92 133 132
4 92 93 134 133
4 93 94 135 134
4 94 95 136 135
4 95 96 137 136
4 96 97 138 137
4 97 98 139 138
4 98 99 140 139
4 99 100 141 140
4 100 101 142 141
4 101 102 143 142
4 102 103 144 143
4 103 104 145 144
4 104 105 146 145
4 105 106 147 146
4 106 107 148 147
4 107 108 149 148
4 108 109 150 149
4 109 110 151 150
4 110 111 152 151
4 111 112 153 152
4 112 113 154 153
4 113 114 155 154
4 114 115 156 155
4 115 116 157 156
4 116 117 158 157
4 117 118 159 158
4 118 119 160 159
4 119 120 161 160
4 120 121 162 161
4 121 122 163 162
4 123 124 165 164
4 124 125 166 165
4 125 126 167 166
4 126 127 168 167
4 127 128 169 168
4 128 129 170 169
4 129 130 171 170
4 130 131 172 171
4 131 132 173 172
4 132 133 174 173
4 133 134 175 174
4 134 135 176 175
4 135 136 177 176
4 136 137 178 177
4 137 138 179 178
4 138 139 180 179
4 139 140 181 180
4 140 141 182 181
4 141 142 183 182
4 142 143 184 183
4 143 144 185 184
4 144 145 186 185
4 145 146 187 186
4 146 147 188 187
4 147 148 189 188
4 148 149 190 189
4 149 150 191 190
4 150 151 192 191
4 151 152 193 192
4 152 153 194 193
4 153 154 195 194
4 154 155 196 195
4 155 156 197 196
4 156 157 198 197
4 157 158 199 198
4 158 159 200 199
4 159 160 201 200
4 160 161 202 201
4 161 162 203 202
4 162 163 204 203
4 164 165 206 205
4 165 166 207 206
4 166 167 208 207
4 167 168 209 208
4 168 169 210 209
4 169 170 211 210
4 170 171 212 211
4 171 172 213 212
4 172 173 214 213
4 173 174 215 214
4 174 175 216 215
4 175 176 217 216
4 176 177 218 217
4 177 178 219 218
4 178 179 220 219
4 179 180 221 220
4 180 181 222 221
4 181 182 223 222
4 182 183 224 223
4 183 184 225 224
4 184 185 226 225
4 185 186 227 226
4 186 187 228 227
4 187 188 229 228
4 188 189 230 229
4 189 190 231 230
4 190 191 232 231
4 191 192 233 232
4 192 193 234 233
4 193 194 235 234
4 194 195 236 235
4 195 196 237 236
4 196 197 238 237
4 197 198 239 238
4 198 199 240 239
4 199 200 241 240
4 200 201 242 241
4 201 202 243 242
4 202 203 244 243
4 203 204 245 244
4 205 206 247 246
4 206 207 248 247
4 207 208 249 248
4 208 209 250 249
4 209 210 251 250
4 210 211 252 251
4 211 212 253 252
4 212 213 254 253
4 213 214 255 254
4 214 215 256 255
4 215 216 257 256
4 216 217 258 257
4 217 218 259 258
4 218 219 260 259
4 219 220 261 260
4 220 221 262 261
4 221 222 263 262
4 222 223 264 263
4 223 224 265 264
4 224 225 266 265
4 225 226 267 266
4 226 227 268 267
4 227 228 269 268
4 228 229 270 269
4 229 230 271 270
4 230 231 272 271
4 231 232 273 272
4 232 233 274 273
4 233 234 275 274
4 234 235 276 275
4 235 236 277 276
4 236 237 278 277
4 237 238 279 278
4 238 239 280 279
4 239 240 281 280
4 240 241 282 281
4 241 242 283 282
4 242 243 284 283
4 243 244 285 284
4 244 245 286 285
4 246 247 288 287
4 247 248 289 288
4 248 249 290 289
4 249 250 291 290
4 250 251 292 291
4 251 252 293 292
4 252 253 294 293
4 253 254 295 294
4 254 255 296 295
4 255 256 297 296
4 256 257 298 297
4 257 258 299 298
4 258 259 300 299
4 259 260 301 300
4 260 261 302 301
4 261 262 303 302
4 262 263 304 303
4 263 264 305 304
4 264 265 306 305
4 265 266 307 306
4 266 267 308 307
4 267 268 309 308
4 268 269 310 309
4 269 270 311 310
4 270 271 312 311
4 271 272 313 312
4 272 273 314 313
4 273 274 315 314
4 274 275 316 315
4 275 276 317 316
4 276 277 318 317
4 277 278 319 318
4 278 279 320 319
4 279 280 321 320
4 280 281 322 321
4 281 282 323 322
4 282 283 324 323
4 283 284 325 324
4 284 285 326 325
4 285 286 327 326
4 287 288 329 328
4 288 289 330 329
4 289 290 331 330
4 290 291 332 331
4 291 292 333 332
4 292 293 334 333
4 293 294 335 334
4 294 295 336 335
4 295 296 337 336
4 296 297 338 337
4 297 298 339 338
4 298 299 340 339
4 299 300 341 340
4 300 301 342 341
4 301 302 343 342
4 302 303 344 343
4 303 304 345 344
4 304 305 346 345
4 305 306 347 346
4 306 307 348 347
4 307 308 349 348
4 308 309 350 349
4 309 310 351 350
4 310 311 352 351
4 311 312 353 352
4 312 313 354 353
4 313 314 355 354
4 314 315 356 355
4 315 316 357 356
4 316 317 358 357
4 317 318 359 358
4 318 319 360 359
4 319 320 361 360
4 320 321 362 361
4 321 322 363 362
4 322 323 364 363
4 323 324 365 364
4 324 325 366 365
4 325 326 367 366
4 326 327 368 367
4 328 329 370 369
4 329 330 371 370
4 330 331 372 371
4 331 332 373 372
4 332 333 374 373
4 333 334 375 374
4 334 335 376 375
4 335 336 377 376
4 336 337 378 377
4 337 338 379 378
4 338 339 380 379
4 339 340 381 380
4 340 341 382 381
4 341 342 383 382
4 342 343 384 383
4 343 344 385 384
4 344 345 386 385
4 345 346 387 386
4 346 347 388 387
4 347 348 389 388
4 348 349 390 389
4 349 350 391 390
4 350 351 392 391
4 351 352 393 392
4 352 353 394 393
4 353 354 395 394
4 354 355 396 395
4 355 356 397 396
4 356 357 398 397
4 357 358 399 398
4 358 359 400 399
4 359 360 401 400
4 360 361 402 401
4 361 362 403 402
4 362 363 404 403
4 363 364 405 404
4 364 365 406 405
4 365 366 407 406
4 366 367 408 407
4 367 368 409 408
4 369 370 411 410
4 370 371 412 411
4 371 372 413 412
4 372 373 414 413
4 373 374 415 414
4 374 375 416 415
4 375 376 417 416
4 376 377 418 417
4 377 378 419 418
4 378 379 420 419
4 379 380 421 420
4 380 381 422 421
4 381 382 423 422
4 382 383 424 423
4 383 384 425 424
4 384 385 426 425
4 385 386 427 426
4 386 387 428 427
4 387 388 429 428
4 388 389 430 429
4 389 390 431 430
4 390 391 432 431
4 391 392 433 432
4 392 393 434 433
4 393 394 435 434
4 394 395 436 435
4 395 396 437 436
4 396 397 438 437
4 397 398 439 438
4 398 399 440 439
4 399 400 441 440
4 400 401 442 441
4 401 402 443 442
4 402 403 444 443
4 403 404 445 444
4 404 405 446 445
4 405 406 447 446
4 406 407 448 447
4 407 408 449 448
4 408 409 450 449
4 410 411 452 451
4 411 412 453 452
4 412 413 454 453
4 413 414 455 454
4 414 415 456 455
4 415 416 457 456
4 416 417 458 457
4 417 418 459 458
4 418 419 460 459
4 419 420 461 460
4 420 421 462 461
4 421 422 463 462
4 422 423 464 463
4 423 424 465 464
4 424 425 466 465
4 425 426 467 466
4 426 427 468 467
4 427 428 469 468
4 428 429 470 469
4 429 430 471 470
4 430 431 472 471
4 431 432 473 472
4 432 433 474 473
4 433 434 475 474
4 434 435 476 475
4 435 436 477 476
4 436 437 478 477
4 437 438 479 478
4 438 439 480 479
4 439 440 481 480
4 440 441 482 481
4 441 442 483 482
4 442 443 484 483
4 443 444 485 484
4 444 445 486 485
4 445 446 487 486
4 446 447 488 487
4 447 448 489 488
4 448 449 490 489
4 449 450 491 490
4 451 452 493 492
4 452 453 494 493
4 453 454 495 494
4 454 455 496 495
4 455 456 497 496
4 456 457 498 497
4 457 458 499 498
4 458 459 500 499
4 459 460 501 500
4 460 461 502 501
4 461 462 503 502
4 462 463 504 503
4 463 464 505 504
4 464 465 506 505
4 465 466 507 506
4 466 467 508 507
4 467 468 509 508
4 468 469 510 509
4 469 470 511 510
4 470 471 512 511
4 471 472 513 512
4 472 473 514 513
4 473 474 515 514
4 474 475 516 515
4 475 476 517 516
4 476 477 518 517
4 477 478 519 518
4 478 479 520 519
4 479 480 521 520
4 480 481 522 521
4 481 482 523 522
4 482 483 524 523
4 483 484 525 524
4 484 485 526 525
4 485 486 527 526
4 486 487 528 527
4 487 488 529 528
4 488 489 530 529
4 489 490 531 530
4 490 491 532 531
4 492 493 534 533
4 493 494 535 534
4 494 495 536 535
4 495 496 537 536
4 496 497 538 537
4 497 498 539 538
4 498 499 540 539
4 499 500 541 540
4 500 501 542 541
4 501 502 543 542
4 502 503 544 543
4 503 504 545 544
4 504 505 546 545
4 505 506 547 546
4 506 507 548 547
4 507 508 549 548
4 508 509 550 549
4 509 510 551 550
4 510 511 552 551
4 511 512 553 552
4 512 513 554 553
4 513 514 555 554
4 514 515 556 555
4 515 516 557 556
4 516 517 558 557
4 517 518 559 558
4 518 519 560 559
4 519 520 561 560
4 520 521 562 561
4 521 522 563 562
4 522 523 564 563
4 523 524 565 564
4 524 525 566 565
4 525 526 567 566
4 526 527 568 567
4 527 528 569 568
4 528 529 570 569
4 529 530 571 570
4 530 531 572 571
4 531 532 573 572
4 533 534 575 574
4 534 535 576 575
4 535 536 577 576
4 536 537 578 577
4 537 538 579 578
4 538 539 580 579
4 539 540 581 580
4 540 541 582 581
4 541 542 583 582
4 542 543 584 583
4 543 544 585 584
4 544 545 586 585
4 545 546 587 586
4 546 547 588 587
4 547 548 589 588
4 548 549 590 589
4 549 550 591 590
4 550 551 592 591
4 551 552 593 592
4 552 553 594 593
4 553 554 595 594
4 554 555 596 595
4 555 556 597 596
4 556 557 598 597
4 557 558 599 598
4 558 559 600 599
4 559 560 601 600
4 560 561 602 601
4 561 562 603 602
4 562 563 604 603
4 563 564 605 604
4 564 565 606 605
4 565 566 607 606
4 566 567 608 607
4 567 568 609 608
4 568 569 610 609
4 569 570 611 610
4 570 571 612 611
4 571 572 613 612
4 572 573 614 613
4 574 575 616 615
4 575 576 617 616
4 576 577 618 617
4 577 578 619 618
4 578 579 620 619
4 579 580 621 620
4 580 581 622 621
4 581 582 623 622
4 582 583 624 623
4 583 584 625 624
4 584 585 626 625
4 585 586 627 626
4 586 587 628 627
4 587 588 629 628
4 588 589 630 629
4 589 590 631 630
4 590 591 632 631
4 591 592 633 632
4 592 593 634 633
4 593 594 635 634
4 594 595 636 635
4 595 596 637 636
4 596 597 638 637
4 597 598 639 638
4 598 599 640 639
4 599 600 641 640
4 600 601 642 641
4 601 602 643 642
4 602 603 644 643
4 603 604 645 644
4 604 605 646 645
4 605 606 647 646
4 606 607 648 647
4 607 608 649 648
4 608 609 650 649
4 609 610 651 650
4 610 611 652 651
4 611 612 653 652
4 612 613 654 653
4 613 614 655 654
4 615 616 657 656
4 616 617 658 657
4 617 618 659 658
4 618 619 660 659
4 619 620 661 660
4 620 621 662 661
4 621 622 663 662
4 622 623 664 663
4 623 624 665 664
4 624 625 666 665
4 625 626 667 666
4 626 627 668 667
4 627 628 669 668
4 628 629 670 669
4 629 630 671 670
4 630 631 672 671
4 631 632 673 672
4 632 633 674 673
4 633 634 675 674
4 634 635 676 675
4 635 636 677 676
4 636 637 678 677
4 637 638 679 678
4 638 639 680 679
4 639 640 681 680
4 640 641 682 681
4 641 642 683 682
4 642 643 684 683
4 643 644 685 684
4 644 645 686 685
4 645 646 687 686
4 646 647 688 687
4 647 648 689 688
4 648 649 690 689
4 649 650 691 690
4 650 651 692 691
4 651 652 693 692
4 652 653 694 693
4 653 654 695 694
4 654 655 696 695
4 656 657 698 697
4 657 658 699 698
4 658 659 700 699
4 659 660 701 700
4 660 661 702 701
4 661 662 703 702
4 662 663 704 703
4 663 664 705 704
4 664 665 706 705
4 665 666 707 706
4 666 667 708 707
4 667 668 709 708
4 668 669 710 709
4 669 670 711 710
4 670 671 712 711
4 671 672 713 712
4 672 673 714 713
4 673 674 715 714
4 674 675 716 715
4 675 676 717 716
4 676 677 718 717
4 677 678 719 718
4 678 679 720 719
4 679 680 721 720
4 680 681 722 721
4 681 682 723 722
4 682 683 724 723
4 683 684 725 724
4 684 685 726 725
4 685 686 727 726
4 686 687 728 727
4 687 688 729 728
4 688 689 730 729
4 689 690 731 730
4 690 691 732 731
4 691 692 733 732
4 692 693 734 733
4 693 694 735 734
4 694 695 736 735
4 695 696 737 736
4 697 698 739 738
4 698 699 740 739
4 699 700 741 740
4 700 701 742 741
4 701 702 743 742
4 702 703 744 743
4 703 704 745 744
4 704 705 746 745
4 705 706 747 746
4 706 707 748 747
4 707 708 749 748
4 708 709 750 749
4 709 710 751 750
4 710 711 752 751
4 711 712 753 752
4 712 713 754 753
4 713 714 755 754
4 714 715 756 755
4 715 716 757 756
4 716 717 758 757
4 717 718 759 758
4 718 719 760 759
4 719 720 761 760
4 720 721 762 761
4 721 722 763 762
4 722 723 764 763
4 723 724 765 764
4 724 725 766 765
4 725 726 767 766
4 726 727 768 767
4 727 728 769 768
4 728 729 770 769
4 729 730 771 770
4 730 731 772 771
4 731 732 773 772
4 732 733 774 773
4 733 734 775 774
4 734 735 776 775
4 735 736 777 776
4 736 737 778 777
4 738 739 780 779
4 739 740 781 780
4 740 741 782 781
4 741 742 783 782
4 742 743 784 783
4 743 744 785 784
4 744 745 786 785
4 745 746 787 786
4 746 747 788 787
4 747 748 789 788
4 748 749 790 789
4 749 750 791 790
4 750 751 792 791
4 751 752 793 792
4 752 753 794 793
4 753 754 795 794
4 754 755 796 795
4 755 756 797 796
4 756 757 798 797
4 757 758 799 798
4 758 759 800 799
4 759 760 801 800
4 760 761 802 801
4 761 762 803 802
4 762 763 804 803
4 763 764 805 804
4 764 765 806 805
4 765 766 807 806
4 766 767 808 807
4 767 768 809 808
4 768 769 810 809
4 769 770 811 810
4 770 771 812 811
4 771 772 813 812
4 772 773 814 813
4 773 774 815 814
4 774 775 816 815
4 775 776 817 816
4 776 777 818 817
4 777 778 819 818
4 779 780 821 820
4 780 781 822 821
4 781 782 823 822
4 782 783 824 823
4 783 784 825 824
4 784 785 826 825
4 785 786 827 826
4 786 787 828 827
4 787 788 829 828
4 788 789 830 829
4 789 790 831 830
4 790 791 832 831
4 791 792 833 832
4 792 793 834 833
4 793 794 835 834
4 794 795 836 835
4 795 796 837 836
4 796 797 838 837
4 797 798 839 838
4 798 799 840 839
4 799 800 841 840
4 800 801 842 841
4 801 802 843 842
4 802 803 844 843
4 803 804 845 844
4 804 805 846 845
4 805 806 847 846
4 806 807 848 847
4 807 808 849 848
4 808 809 850 849
4 809 810 851 850
4 810 811 852 851
4 811 812 853 852
4 812 813 854 853
4 813 814 855 854
4 814 815 856 855
4 815 816 857 856
4 816 817 858 857
4 817 818 859 858
4 818 819 860 859
CELL_TYPES 800
9
9
9
9
9
9
9
9
9
9
9
9
9
9
9
9
9
9
9
9
9
9
9
9
9
9
9
9
9
9
9
9
9
9
9
9
9
9
9
9
9
9
9
9
9
9
9
9
9
9
9
9
9
9
9
9
9
9
9
9
9
9
9
9
9
9
9
9
9
9
9
9
9
9
9
9
9
9
9
9
9
9
9
9
9
9
9
9
9
9
9
9
9
9
9
9
9
9
9
9
9
9
9
9
9
9
9
9
9
9
9
9
9
9
9
9
9
9
9
9
9
9
9
9
9
9
9
9
9
9
9
9
9
9
9
9
9
9
9
9
9
9
9
9
9
9
9
9
9
9
9
9
9
9
9
9
9
9
9
9
9
9
9
9
9
9
9
9
9
9
9
9
9
9
9
9
9
9
9
9
9
9
9
9
9
9
9
9
9
9
9
9
9
9
9
9
9
9
9
9
9
9
9
9
9
9
9
9
9
9
9
9
9
9
9
9
9
9
9
9
9
9
9
9
9
9
9
9
9
9
9
9
9
9
9
9
9
9
9
9
9
9
9
9
9
9
9
9
9
9
9
9
9
9
9
9
9
9
9
9
9
9
9
9
9
9
9
9
9
9
9
9
9
9
9
9
9
9
9
9
9
9
9
9
9
9
9
9
9
9
9
9
9
9
9
9
9
9
9
9
9
9
9
9
9
9
9
9
9
9
9
9
9
9
9
9
9
9
9
9
9
9
9
9
9
9
9
9
9
9
9
9
9
9
9
9
9
9
9
9
9
9
9
9
9
9
9
9
9
9
9
9
9
9
9
9
9
9
9
9
9
9
9
9
9
9
9
9
9
9
9
9
9
9
9
9
9
9
9
9
9
9
9
9
9
9
9
9
9
9
9
9
9
9
9
9
9
9
9
9
9
9
9
9
9
9
9
9
9
9
9
9
9
9
9
9
9
9
9
9
9
9
9
9
9
9
9
9
9
9
9
9
9
9
9
9
9
9
9
9
9
9
9
9
9
9
9
9
9
9
9
9
9
9
9
9
9
9
9
9
9
9
9
9
9
9
9
9
9
9
9
9
9
9
9
9
9
9
9
9
9
9
9
9
9
9
9
9
9
9
9
9
9
9
9
9
9
9
9
9
9
9
9
9
9
9
9
9
9
9
9
9
9
9
9
9
9
9
9
9
9
9
9
9
9
9
9
9
9
9
9
9
9
9
9
9
9
9
9
9
9
9
9
9
9
9
9
9
9
9
9
9
9
9
9
9
9
9
9
9
9
9
9
9
9
9
9
9
9
9
9
9
9
9
9
9
9
9
9
9
9
9
9
9
9
9
9
9
9
9
9
9
9
9
9
9
9
9
9
9
9
9
9
9
9
9
9
9
9
9
9
9
9
9
9
9
9
9
9
9
9
9
9
9
9
9
9
9
9
9
9
9
9
9
9
9
9
9
9
9
9
9
9
9
9
9
9
9
9
9
9
9
9
9
9
9
9
9
9
9
9
9
9
9
9
9
9
9
9
9
9
9
9
9
9
9
9
9
9
9
9
9
9
9
9
9
9
9
9
9
9
9
9
9
9
9
9
9
9
9
9
9
9
9
9
9
9
9
9
9
9
9
9
9
9
9
9
9
9
9
9
9
9
9
9
9
9
9
9
9
9
9
9
9
9
9
9
9
9
9
9
9
9
9
9
9
9
9
9
9
9
9
9
9
9
9
9
9
9
9
9
9
9
9
9
9
9
9
9
9
9
9
9
9
9
9
9
9
9
9
9
9
9
9
9
9
9
9
9
9
9
9
9
9
9
9
9
9
9
9
POINT_DATA 861
SCALARS Disp float 2
LOOKUP_TABLE default
0.0 0.0
0.004256562407768071 -0.131182480941174
0.005263555083128048 -0.2552925024889688
0.00597979021169766 -0.3787259916728062
0.006837983859389406 -0.5018692720056104
0.008030845780636443 -0.6244987815379222
0.009868490368981502 -0.7463335613457486
0.012660519763456462 -0.8670523853015913
0.016752294233900643 -0.9862591411376582
0.022512593496230453 -1.1034431491565042
0.030326761633786017 -1.2179193722612311
0.04062471463291546 -1.328777939634845
0.05390784682926384 -1.434867487115877
0.07074068104794135 -1.5348255860130566
0.09174479493688777 -1.6271103342078665
0.11752199093659257 -1.7100251615908841
0.1485164301380584 -1.781748850281912
0.18484233497866637 -1.8403898166008588
0.2261289789210325 -1.8841144048508531
0.2714468097775686 -1.9113696435340992
0.31925928731742725 -1.921099975583499
0.36707176485728443 -1.9113696435340497
0.4123895957138137 -1.8841144048507517
0.4536762396561675 -1.8403898166007113
0.4900021444967597 -1.7817488502817276
0.5209965836982089 -1.7100251615906739
0.5467737796978975 -1.6271103342076352
0.5677778935868273 -1.5348255860128108
0.5846107278054871 -1.434867487115624
0.5978938600018185 -1.3287779396345931
0.6081918130009326 -1.217919372260987
0.6160059811384754 -1.1034431491562728
0.6217662804007948 -0.9862591411374431
0.6258580548712311 -0.867052385301396
0.6286500842657003 -0.7463335613455748
0.6304877288540416 -0.6244987815377734
0.6316805907752869 -0.5018692720054873
0.6325387844229781 -0.37872599167271054
0.6332550195515475 -0.25529250248889984
0.6342620122269066 -0.13118248094113372
0.6385185746346719 0.0
0.03273732722774693 -0.0018679213798159322
0.03559816333336143 -0.13131059799639028
0.036151412772300856 -0.2553560532334312
0.03679716218436267 -0.3788045895890288
0.037564810769229656 -0.5019715001743114
0.038600924139857266 -0.6246868545051542
0.040202993851383546 -0.7466824544549974
0.04266772455884515 -0.8676409050195838
0.04631789234136105 -0.9871742204460233
0.051485187432786295 -1.1047722259689257
0.058509477190941274 -1.2197546808254578
0.0677620282308068 -1.331226084937279
0.07968004061849043 -1.4380547939492616
0.094784038882947 -1.5388959313851087
0.11364745684177179 -1.6322167405223018
0.13683471783373688 -1.7163030533451955
0.16476824019413425 -1.789276486435314
0.19757113172749988 -1.8491473979933366
0.23493102318227482 -1.8939540102074848
0.2760004072581197 -1.9220025376180634
0.3192592873174213 -1.932046890499025
0.36251816737672105 -1.922002537618013
0.4035875514525596 -1.8939540102073809
0.4409474429073239 -1.8491473979931863
0.4737503344406761 -1.7892764864351256
0.5016838568010586 -1.7163030533449817
0.524871117793009 -1.6322167405220667
0.5437345357518187 -1.538895931384859
0.5588385340162596 -1.4380547939490045
0.570756546403928 -1.3312260849370234
0.5800090974437797 -1.2197546808252102
0.5870333872019231 -1.1047722259686918
0.592200682293339 -0.9871742204458063
0.5958508500758476 -0.867640905019387
0.598315580783304 -0.7466824544548225
0.599917650494827 -0.6246868545050049
0.6009537638654533 -0.5019715001741881
0.6017214124503198 -0.37880458958893315
0.6023671618623815 -0.25535605323336225
0.602920411301321 -0.1313105979963498
0.6057812474069314 -0.0018679213798137493
0.06469411498156508 -0.0033245029710562975
0.06674081439410713 -0.13136828696407243
0.06706287950974564 -0.25539504698201154
0.06759118077728309 -0.37887612073472343
0.06827453445043126 -0.5020580332328639
0.06917082533345358 -0.62483708995977
0.07053699299099322 -0.7469710651213765
0.0726733332267091 -0.8681425677542071
0.07587447132958854 -0.9879692239924354
0.08043873157869193 -1.105938933556419
0.08666224000278709 -1.2213737137627665
0.09486371030627341 -1.3333889597426272
0.10541884202480627 -1.4408729210258966
0.1187869677579514 -1.5425019578216248
0.13549810859964215 -1.636752100331088
0.1560719580665589 -1.7218947294556208
0.18091191213021968 -1.7960014264625488
0.21016564558843037 -1.8569954390032921
0.243588184836899 -1.9027977035217702
0.2804074700223856 -1.9315658118163026
0.31925928731741565 -1.9419017763166992
0.3581111046124436 -1.931565811816251
0.39493038979792444 -1.9027977035216646
0.4283529290463839 -1.856995439003139
0.457606662504583 -1.7960014264623574
0.4824466165682307 -1.7218947294554034
0.5030204660351342 -1.6367521003308498
0.5197316068768115 -1.5425019578213714
0.5330997326099428 -1.4408729210256364
0.5436548643284622 -1.3333889597423683
0.5518563346319362 -1.2213737137625162
0.558079843056021 -1.105938933556183
0.5626441033051159 -0.9879692239922163
0.5658452414079889 -0.8681425677540089
0.5679815816437002 -0.7469710651212007
0.5693477493012372 -0.6248370899596205
0.5702440401842584 -0.5020580332327406
0.5709273938574062 -0.3788761207346278
0.5714556951249437 -0.25539504698194265
0.5717777602405824 -0.13136828696403174
0.5738244596531203 -0.003324502971051876
0.09624440226639229 -0.004484935033241701
0.09775847551939165 -0.13140716016596948
0.09795576758332036 -0.2554169794861405
0.09836876628334519 -0.37893543470215557
0.0989614286182142 -0.5021336709250779
0.09973640475753638 -0.6249550834957343
0.10087834423034031 -0.7472003011080285
0.1026849618780305 -0.8685585122393592
0.10543340662246563 -0.9886435953903019
0.10938799878335471 -1.1069422902586676
0.11480454066699468 -1.2227756074267788
0.12195114120804104 -1.335267683017347
0.1311458490695366 -1.4433241352423694
0.14278515585346283 -1.5456435158378694
0.15733699113748867 -1.6407140599547292
0.17528254696452095 -1.726795315960253
0.19700730085897472 -1.8019175787813744
0.2226850255356239 -1.8639294612672506
0.25214397816957734 -1.910642217461467
0.2847305960678952 -1.9400757606380914
0.31925928731741027 -1.950702291094561
0.353787978566923 -1.9400757606380392
0.3863745964652358 -1.9106422174613595
0.41583354909918113 -1.863929461267095
0.4415112737758201 -1.8019175787811803
0.46323602767026256 -1.7267953159600327
0.481181583497283 -1.6407140599544878
0.49573341878129706 -1.5456435158376134
0.5073727255652114 -1.4433241352421058
0.5165674334266952 -1.3352676830170855
0.5237140339677308 -1.2227756074265257
0.5291305758513616 -1.1069422902584296
0.5330851680122431 -0.9886435953900814
0.5358336127566726 -0.8685585122391597
0.5376402304043589 -0.747200301107852
0.5387821698771608 -0.6249550834955845
0.5395571460164822 -0.5021336709249545
0.5401498083513508 -0.37893543470205987
0.5405628070513757 -0.25541697948607167
0.5407600991153045 -0.13140716016592857
0.5422741723683003 -0.004484935033235272
0.12755852913401752 -0.005414181644751867
0.12868628671079024 -0.1314415820149984
0.1288145621111662 -0.2554291822977018
0.12912808632155395 -0.3789812995801533
0.12962485333925258 -0.5021995196898555
0.13028793554532142 -0.6250498667146182
0.1312323618640066 -0.7473751132621387
0.13271071721557928 -0.868889971420158
0.13500636973176675 -0.9891983934982851
0.13834850750948416 -1.1077824520773447
0.14295509819384453 -1.2239611289030865
0.14904789156863088 -1.3368636150098387
0.1568865534982556 -1.4454111789392183
0.1668036469601555 -1.548323703788319
0.17920702993308546 -1.6441027825958394
0.19452104053142066 -1.7310024328411127
0.21311413818797442 -1.8070204833958605
0.23518951872820584 -1.8699430617503388
0.2606569428119291 -1.9174849193152825
0.2890108872852042 -1.9475431875978109
0.31925928731740494 -1.9584698060075443
0.3495076873496036 -1.9475431875977578
0.3778616318228739 -1.9174849193151735
0.40332905590659 -1.8699430617501813
0.4254044364468127 -1.807020483395664
0.4439975341033566 -1.7310024328408897
0.45931154470168156 -1.6441027825955954
0.47171492767460144 -1.5483237037880602
0.4816320211364912 -1.4454111789389525
0.48947068306610586 -1.3368636150095747
0.495563476440883 -1.2239611289028314
0.5001700671252356 -1.107782452077105
0.5035122049029465 -0.989198393498063
0.505807857419129 -0.8688899714199574
0.5072862127706985 -0.7473751132619617
0.5082306390893822 -0.6250498667144682
0.5088937212954505 -0.5021995196897321
0.5093904883131489 -0.37898129958005766
0.5097040125235366 -0.255429182297633
0.5098322879239126 -0.13144158201495726
0.5109600455006824 -0.0054141816447437095
0.15871560373211535 -0.006153856120403835
0.15955002281424266 -0.1314755409323132
0.15963691830284196 -0.25543666077038024
0.15986681456732926 -0.3790146311805759
0.16026561247119275 -0.5022548576742576
0.16082012592237663 -0.6251270618078995
0.1615895791999098 -0.7475056713775052
0.16276599205932266 -0.8691391207260537
0.1646058512692342 -0.9896356677723125
0.16733646977998587 -1.1084611802730222
0.17113400178102214 -1.2249318272928944
0.17617612607945965 -1.3381795866778137
0.18266788062488618 -1.447137882448374
0.19087722517460315 -1.5505465706541073
0.2011417231946818 -1.6469224119275985
0.21383699730901393 -1.734517405926951
0.22929873483163976 -1.811307109725203
0.2477460789182474 -1.8750296800629935
0.2691862161531238 -1.9233209147253398
0.2932845364080705 -1.9539713663813432
0.3192592873173995 -1.9652158514469682
0.34523403822672677 -1.9539713663812892
0.369332358481669 -1.9233209147252295
0.3907724957165394 -1.8750296800628339
0.40921983980313953 -1.8113071097250044
0.42468157732575706 -1.7345174059267257
0.4373768514400806 -1.6469224119273524
0.4476413494601508 -1.5505465706538462
0.4558506940098593 -1.4471378824481063
0.4623424485552775 -1.3381795866775477
0.4673845728537073 -1.2249318272926377
0.47118210485473705 -1.1084611802727806
0.4739127233654834 -0.9896356677720894
0.47575258257539094 -0.8691391207258525
0.4769289954348014 -0.7475056713773279
0.4776984487123335 -0.6251270618077496
0.478252962163517 -0.502254857674134
0.47865176006738025 -0.37901463118048023
0.4788816563318675 -0.25543666077031146
0.4789685518204668 -0.13147554093227193
0.4798029709025918 -0.006153856120394238
0.1897587105170186 -0.006736333815860182
0.19036801857006522 -0.13150973535009816
0.19042625722929343 -0.25544201741472555
0.19058417036391836 -0.37903694175778296
0.1908863339532465 -0.5022986319922375
0.1913298629096269 -0.6251900389690089
0.191939023964045 -0.7476027899283303
0.19284446236818972 -0.8693170854158678
0.194250924896253 -0.9899582515693932
0.19636948851025757 -1.1089815684841702
0.19936292640076075 -1.2256910554995624
0.20336093856963297 -1.339219480212367
0.20851721050752994 -1.4485095178325502
0.21503609934682388 -1.5523186367234842
0.22318669732808047 -1.6491784322399001
0.23327851991747237 -1.7373450392115846
0.24561704558082947 -1.8147784873395996
0.2604285398551814 -1.87918361124751
0.27779996981518273 -1.9281414863551853
0.2975896955431674 -1.959355421061424
0.31925928731739395 -1.9709433881713005
0.34092887909161906 -1.9593554210613688
0.3607186048195999 -1.9281414863550737
0.3780900347795962 -1.8791836112473488
0.3929015290539419 -1.8147784873393995
0.4052400547172923 -1.7373450392113572
0.4153318773066771 -1.6491784322396523
0.4234824752879269 -1.5523186367232216
0.43000136412721424 -1.4485095178322807
0.43515763606510466 -1.3392194802120991
0.43915564823397085 -1.2256910554993043
0.4421490861244686 -1.1089815684839275
0.444267649738469 -0.9899582515691693
0.4456741122665293 -0.8693170854156659
0.44657955067067234 -0.7476027899281529
0.4471887117250898 -0.625190038968859
0.44763224068146984 -0.5022986319921139
0.44793440427079784 -0.37903694175768726
0.44809231740542266 -0.2554420174146568
0.4481505560646508 -0.13150973535005678
0.4487598641176957 -0.0067363338158494
0.2207174329540921 -0.007187070432336352
0.2211533496894147 -0.13154509434357045
0.22118793486432853 -0.25544587815906455
0.22128117674584524 -0.3790496976835304
0.221489682835207 -0.5023301538648476
0.2218178141023335 -0.6252396182067845
0.2222773183726191 -0.7476730441890752
0.22293665669583854 -0.8694377382338956
0.22394513881190198 -0.9901768386171235
0.22547202475931785 -1.1093486108090314
0.22766594169554377 -1.2262438744380066
0.23062851725122782 -1.3399889406625212
0.23446409277827726 -1.4495331119760115
0.23931511178574208 -1.5536484640039572
0.24537911041889143 -1.6508804964150794
0.25289852248484257 -1.7394926911034738
0.26213246339945323 -1.817438556594642
0.27330363311922673 -1.8824026020150237
0.28656871398970585 -1.9319351230720558
0.30197060710147605 -1.9636813534757778
0.3192592873173882 -1.9756462550661167
0.33654796753329924 -1.9636813534757223
0.3519498606450666 -1.9319351230719428
0.3652149415155415 -1.882402602014861
0.37638611123530996 -1.8174385565944409
0.38562005214991557 -1.739492691103245
0.39313946421586127 -1.65088049641483
0.39920346284900565 -1.5536484640036932
0.4040544818564657 -1.4495331119757406
0.40789005738351036 -1.339988940662252
0.4108526329391899 -1.2262438744377475
0.41304654987541173 -1.1093486108087878
0.4145734358228247 -0.9901768386168989
0.41558191793888605 -0.8694377382336933
0.41624125626210445 -0.7476730441888977
0.41670076053238964 -0.6252396182066345
0.41702889179951597 -0.5023301538647241
0.4172373978888776 -0.3790496976834347
0.4173306397703942 -0.2554458781589958
0.4173652249453079 -0.131545094343529
0.4178011416806294 -0.007187070432324661
0.2516080891117172 -0.007531336546626331
0.25191799091839423 -0.13158213292634813
0.25192660648134696 -0.2554477612277099
0.2519604027772582 -0.37905401534419875
0.2520785716885177 -0.5023494745035854
0.25228874966274195 -0.6252743685422723
0.2525955515496213 -0.7477230478357434
0.2530334696125697 -0.8695140098324661
0.2536815484001679 -0.9903085112955573
0.254655490886738 -1.1095752750588441
0.2560713718089374 -1.2265988202281228
0.25801205093629775 -1.340496786356545
0.26054186773175414 -1.4502186325760633
0.26374958165924234 -1.5545479425741722
0.26776147055567523 -1.6520415908911341
0.27274604094648436 -1.7409725082623422
0.27890377719669757 -1.819296041749027
0.2864491564148094 -1.8846878808684258
0.2955740622322623 -1.9346895412353096
0.3064801155061346 -1.9669262465817607
0.3192592873173821 -1.9793088815538706
0.3320384591286291 -1.9669262465817043
0.3429445124024993 -1.9346895412351959
0.3520694182199492 -1.884687880868262
0.35961479743805735 -1.819296041748825
0.3657725336882672 -1.7409725082621121
0.3707571040790728 -1.6520415908908836
0.37476899297550237 -1.5545479425739073
0.37797670690298774 -1.4502186325757918
0.3805065236984411 -1.3404967863562751
0.3824472028257986 -1.2265988202278628
0.3838630837479954 -1.1095752750585999
0.3848370262345638 -0.9903085112953325
0.3854851050221608 -0.8695140098322637
0.3859230230851085 -0.7477230478355659
0.38622982497198766 -0.6252743685421223
0.3864400029462118 -0.5023494745034619
0.3865581718574712 -0.37905401534410293
0.3865919681533824 -0.25544776122764107
0.38660058371633504 -0.13158213292630666
0.3869104855230114 -0.007531336546613976
0.2824414613309727 -0.00779598990918259
0.2826645774151147 -0.13162131527587767
0.28264736035934207 -0.2554467565073558
0.2826252639652037 -0.3790507643944311
0.28265638141119576 -0.5023568357452097
0.28274794225433175 -0.6252933235799193
0.282897658815643 -0.7477530589415428
0.2831171906595487 -0.8695583700915228
0.2834383872295195 -0.9903761952257633
0.2839131032989129 -1.1096857105969689
0.284595479493276 -1.2267759342888938
0.2855440347288847 -1.3407600234843973
0.28678862492167545 -1.4505828807189844
0.2883758318658661 -1.5550356626799378
0.290369828348075 -1.6526820629005565
0.29285944783720125 -1.7418044706609581
0.29597601647759875 -1.82036640614065
0.2999062618998817 -1.886050572617002
0.30489444531012366 -1.936399434918367
0.3112001410625117 -1.969058259772345
0.31925928731737585 -1.9819017992837709
0.3273184335722399 -1.9690582597722885
0.3336241293246267 -1.936399434918253
0.3386123127348668 -1.8860505726168377
0.3425425581571478 -1.8203664061404472
0.3456591267975437 -1.7418044706607274
0.3481487462866683 -1.6526820629003054
0.35014274276887586 -1.5550356626796726
0.3517299497130655 -1.4505828807187124
0.35297453990585503 -1.340760023484127
0.3539230951414625 -1.2267759342886335
0.3546054713358245 -1.1096857105967244
0.35508018740521735 -0.9903761952255381
0.35540138397518767 -0.8695583700913204
0.3556209158190931 -0.7477530589413652
0.3557706323804043 -0.6252933235797694
0.35586219322354024 -0.5023568357450863
0.35589331066953234 -0.3790507643943353
0.3558712142753939 -0.25544675650728693
0.3558539972196213 -0.1316213152758362
0.3560771133037629 -0.007795989909169799
0.3132329073912054 -0.008001587395418175
0.3133950412793406 -0.1316616503914472
0.3133544687043859 -0.2554426005928529
0.3132798453410153 -0.37904047903568333
0.31322697793531845 -0.5023525620495609
0.31320068356454434 -0.6252962689196848
0.3131911469709464 -0.747762188567221
0.313189006987828 -0.8695731159162674
0.3131888978038407 -0.9903980097732898
0.3131892595084072 -1.1097188006250183
0.31318951164327075 -1.2268240873472211
0.31318976137734184 -1.3408288363462582
0.31318840750268573 -1.4506773884923898
0.3131837719286823 -1.5551626836669572
0.3131760308881553 -1.652850884217494
0.31317930435180713 -1.7420345114197289
0.31325849521536875 -1.8206908406700513
0.31357900793593096 -1.886524834141949
0.31443476714203034 -1.9370973091609573
0.316177812251166 -1.9700615159862844
0.31925928731736936 -1.9833875323628691
0.32234076238357295 -1.9700615159862283
0.32408380749270815 -1.937097309160843
0.3249395666988069 -1.8865248341417844
0.32526007941936924 -1.8206908406698483
0.3253392702829313 -1.7420345114194984
0.32534254374658345 -1.6528508842172427
0.3253348027060569 -1.555162683666692
0.3253301671320542 -1.4506773884921178
0.3253288132573989 -1.3408288363459877
0.3253290629914705 -1.2268240873469607
0.3253293151263345 -1.1097188006247738
0.32532967683090136 -0.9903980097730647
0.3253295676469142 -0.8695731159160651
0.32532742766379585 -0.7477621885670435
0.3253178910701981 -0.6252962689195348
0.32529159669942415 -0.5023525620494376
0.32523872929372744 -0.3790404790355875
0.32516410593035683 -0.255442600592784
0.3251235333554021 -0.13166165039140573
0.32528566724353714 -0.00800158739540513
0.34399429280653154 -0.00816358797733356
0.3441140859971289 -0.13170055797124544
0.3440520546151678 -0.2554355878538702
0.34392842430804543 -0.3790235200707989
0.3437946530494321 -0.5023371114821228
0.34365266336481676 -0.6252833151152938
0.3434850135993742 -0.7477501779388867
0.3432606533574587 -0.8695578656701693
0.34293942235351144 -0.9903763246618307
0.3424654181531687 -1.1096858038504016
0.341783843783149 -1.2267761323684843
0.34083557814617915 -1.3407597749143583
0.3395882998136084 -1.4505816876132935
0.3379919492460284 -1.5550331311588135
0.33598197138167923 -1.6526796688047452
0.33349925347150516 -1.7418168015818638
0.330533903225633 -1.8204403558399833
0.32719474198727505 -1.8862832873747903
0.32376984151375005 -1.9369380658755628
0.32074765422092044 -1.970043884680036
0.31925928731736314 -1.9838803190385612
0.31777092041380534 -1.9700438846799795
0.3147487331209755 -1.9369380658754487
0.31132383264745167 -1.886283287374626
0.3079846714090963 -1.8204403558397806
0.3050193211632268 -1.7418168015816335
0.3025366032530549 -1.6526796688044942
0.3005266253887079 -1.5550331311585486
0.2989302748211305 -1.4505816876130218
0.29768299648856245 -1.3407597749140883
0.2967347308515951 -1.2267761323682242
0.29605315648157726 -1.1096858038501574
0.2955791522812359 -0.9903763246616057
0.2952579212772893 -0.869557865669967
0.2950335610353743 -0.7477501779387091
0.2948659112699321 -0.6252833151151438
0.2947239215853171 -0.5023371114819993
0.2945901503267039 -0.3790235200707031
0.2944665200195816 -0.2554355878538014
0.2944044886376206 -0.131700557971204
0.29452428182821777 -0.008163587977320296
0.37474132097890667 -0.00828872059629234
0.37482665927573844 -0.1317363253785744
0.3747448509482763 -0.2554257683611161
0.3745753560757399 -0.37900029562856935
0.3743639723271175 -0.5023110678594996
0.3741094255276197 -0.6252548104830359
0.373786079823756 -0.7477173551666815
0.3733443093611869 -0.8695130353500051
0.3726961690855577 -0.9903087654249644
0.3717232791551368 -1.1095755704873453
0.37030810189314883 -1.2265990841612535
0.3683673451187616 -1.3404962431220682
0.3658355150158732 -1.4502161118566095
0.36262013241803004 -1.55454211844656
0.3585927218841631 -1.652036129765661
0.3536096902021148 -1.7409971430556506
0.3475798761010393 -1.8194428556807236
0.34055764547466344 -1.8851496284948206
0.3328416264215422 -1.935768542420293
0.3252239443478475 -1.969089013337635
0.31925928731735687 -1.9835254720290514
0.3132946302868659 -1.9690890133375785
0.30567694821317176 -1.9357685424201796
0.29796092916005285 -1.885149628494657
0.2909386985336814 -1.8194428556805216
0.2849088844326104 -1.7409971430554207
0.27992585275056625 -1.6520361297654105
0.2758984422167032 -1.554542118446296
0.2726830596188644 -1.4502161118563386
0.27015122951598053 -1.3404962431217988
0.2682104727415976 -1.226599084160994
0.26679529547961317 -1.1095755704871015
0.2658224055491948 -0.9903087654247396
0.2651742652735669 -0.8695130353498027
0.2647324948109987 -0.7477173551665038
0.26440914910713553 -0.6252548104828859
0.26415460230763826 -0.5023110678593763
0.263943218559016 -0.37900029562847365
0.2637737236864798 -0.25542576836104725
0.26369191535901776 -0.13173632537853294
0.2637772536558494 -0.008288720596278915
0.40548392107876835 -0.008382182940304761
0.40553884535547036 -0.13176739589789926
0.40543776140799975 -0.25541310635643866
0.40522515142661675 -0.37897123168027047
0.4049396316106732 -0.5022749986259754
0.4045762786449668 -0.6252116554633678
0.40410362633308594 -0.7476645347284248
0.40344064896149806 -0.8694363484109796
0.40243292292722044 -0.9901773609122926
0.4009071789214965 -1.1093491615536426
0.39871356365853006 -1.2262441173346912
0.39575054751045086 -1.3399881265231903
0.3919140725071915 -1.4495296823907944
0.3870594324643743 -1.553640098511628
0.3809853698500029 -1.6508719832635388
0.3734622435199065 -1.7395253409163987
0.3643082487945608 -1.8176428285656359
0.35352082972681936 -1.883056478126387
0.3414931887641961 -1.9335317098023599
0.3293235596707842 -1.9670442135520207
0.3192592873173506 -1.9823283568384236
0.3091950149639173 -1.9670442135519641
0.29702538587050653 -1.9335317098022464
0.28499774490788693 -1.8830564781262242
0.2742103258401513 -1.8176428285654351
0.2650563311148122 -1.7395253409161706
0.2575332047847215 -1.6508719832632894
0.2514591421703557 -1.5536400985113652
0.2466045021275447 -1.4495296823905248
0.2427680271242916 -1.339988126522922
0.23980501097621856 -1.226244117334433
0.2376113957132571 -1.1093491615533997
0.2360856517075369 -0.9901773609120683
0.23507792567326155 -0.8694363484107773
0.2344149483016751 -0.7476645347282475
0.23394229598979494 -0.6252116554632179
0.23357894302408905 -0.502274998625852
0.23329342320814583 -0.3789712316801748
0.23308081322676302 -0.2554131063563698
0.23297972927929253 -0.13176739589785783
0.2330346535559945 -0.008382182940291192
0.43622883800558687 -0.00844867569374544
0.4362563958310324 -0.13179260403226387
0.43613583653263377 -0.25539742258830966
0.435882393484019 -0.3789367122589696
0.4355260248888772 -0.502229703525324
0.4350600262882256 -0.6251549809901394
0.4344400762525382 -0.7475915233840588
0.4335331237198302 -0.8693155472794466
0.43212782698541025 -0.9899591598525522
0.43001013111465086 -1.1089823071231824
0.4270163988469962 -1.2256911418138658
0.4230177171653384 -1.3392184370627016
0.4178618139862329 -1.4485058848654835
0.4113456077022007 -1.552309648195744
0.40319672920469257 -1.6491683920840559
0.39309965961095555 -1.737379871248955
0.3807748827757084 -1.8150134722733178
0.3661798587091468 -1.879982216716413
0.34982781463006085 -1.930213410026431
0.3331956181081129 -1.9639446306686614
0.3192592873173447 -1.98032546469711
0.30532295652657704 -1.9639446306686048
0.2886907600046312 -1.9302134100263184
0.2723387159255499 -1.8799822167162514
0.2577436918589956 -1.8150134722731186
0.24541891502375643 -1.7373798712487287
0.23532184543002677 -1.649168392083808
0.22717296693252623 -1.5523096481954828
0.22065676064850182 -1.448505884865216
0.21550085746940434 -1.3392184370624352
0.2115021757877542 -1.225691141813609
0.20850844352010603 -1.1089823071229405
0.20639074764935159 -0.9899591598523285
0.20498545091493503 -0.8693155472792449
0.2040784983822291 -0.7475915233838815
0.20345854834654267 -0.6251549809899897
0.20299254974589162 -0.5022297035252007
0.20263618115075022 -0.37893671225887404
0.2023827381021357 -0.25539742258824083
0.20226217880373726 -0.1317926040322224
0.2022897366291827 -0.0084486756937318
0.46698105285911806 -0.008492658013845055
0.4669843332815174 -0.1318112509669689
0.46684412721293606 -0.25537845548839994
0.46655175520518793 -0.3788971432077622
0.46612809441832503 -0.5021758982748508
0.46556554656586685 -0.6250865420097624
0.46478928879062703 -0.7474921110108211
0.4636123760024665 -0.8691377124348224
0.4617739123986508 -0.9896369740762543
0.45904341710638213 -1.1084619471428816
0.455245148607891 -1.224931669011941
0.45020218767070297 -1.3381783616826635
0.44371219061857314 -1.4471348808894242
0.43551271305971256 -1.5505396879764515
0.4252656874065725 -1.6469140376742164
0.41256997162726117 -1.734548675843509
0.3970645260570006 -1.8115442821170349
0.37867056350755146 -1.875919554357767
0.3580209292267 -1.9258171608501224
0.33700129438787013 -1.9598155081913806
0.319259287317339 -1.9775356499402192
0.30151728024680835 -1.9598155081913244
0.28049764540798167 -1.9258171608500108
0.259848011127136 -1.8759195543576068
0.2414540485776953 -1.8115442821168377
0.22594860300744427 -1.7345486758432842
0.21325288722814192 -1.6469140376739706
0.20300586157501121 -1.5505396879761923
0.19480638401616018 -1.4471348808891586
0.18831638696404004 -1.3381783616823988
0.18327342602686106 -1.2249316690116858
0.17947515752837795 -1.1084619471426411
0.17674466223611532 -0.9896369740760317
0.17490619863230406 -0.869137712434621
0.17372928584414646 -0.7474921110106441
0.172953028068908 -0.6250865420096128
0.1723904802164504 -0.5021758982747275
0.17196681942958794 -0.37889714320766665
0.17167444742184015 -0.2553784554883311
0.1715342413532589 -0.13181125096692742
0.17153752177565826 -0.00849265801383137
0.49774423195045997 -0.008518519017379487
0.49772690034085826 -0.13182307850224873
0.4975676233650866 -0.2553559979607791
0.4972379446181091 -0.37885283965583977
0.4967504910866402 -0.5021146657166518
0.4960921360674104 -0.6250048315777722
0.49514689986270793 -0.7473599261953301
0.4936696704572826 -0.8688889240228169
0.4913743187778597 -0.9891998956732233
0.48803147897364146 -1.1077830827990551
0.4834238051027967 -1.2239606736798088
0.4773303687709301 -1.3368623203034158
0.4694951548018452 -1.4454096532397869
0.4595942090231544 -1.5483216696216855
0.4472226750814824 -1.6441001455752313
0.4319233459668214 -1.7310282334388538
0.4132643226040532 -1.8072380248679736
0.39112641618768046 -1.8708750624816568
0.36624700427667073 -1.9203526925037127
0.34086371180650277 -1.954659902978752
0.3192592873173331 -1.973947873785662
0.29765486282816483 -1.9546599029786964
0.2722715703580007 -1.9203526925036019
0.24739215844699802 -1.8708750624814985
0.2252542520306349 -1.8072380248677788
0.20659522866787752 -1.7310282334386315
0.19129589955322746 -1.6441001455749877
0.1789243656115663 -1.5483216696214284
0.16902341983288674 -1.445409653239524
0.16118820586381327 -1.3368623203031536
0.15509476953195722 -1.2239606736795556
0.15048709566112164 -1.1077830827988164
0.1471442558569106 -0.9891998956730021
0.14484890417749324 -0.8688889240226165
0.14337167477207158 -0.7473599261951533
0.14242643856737097 -0.6250048315776227
0.14176808354814183 -0.5021146657165286
0.1412806300166735 -0.37885283965574423
0.14095095126969628 -0.2553559979607103
0.14079167429392478 -0.1318230785022072
0.14077434268432318 -0.00851851901736578
0.5285207462789312 -0.008530703041896626
0.5284875660108469 -0.13182824285230405
0.5283112270245848 -0.25533002729209475
0.5279460613190317 -0.37880401480957404
0.5273968030594505 -0.5020470631779097
0.526639838648225 -0.6249074667344394
0.5255039932401241 -0.7471848360185072
0.5236979134782568 -0.8685575971210867
0.5209480214414919 -0.9886449628001772
0.5169919081135889 -1.1069426540266982
0.5115741263273367 -1.2227748628220645
0.5044275062369078 -1.3352665624805153
0.4952383829548457 -1.4433248819694238
0.4836193978463432 -1.545648225642753
0.46910793961529806 -1.6407208966394642
0.4511995493041531 -1.7268201440244053
0.429444870704387 -1.8021101601584484
0.40369031738879135 -1.8648719178144895
0.3746829092445332 -1.9138299305116495
0.3448999368384511 -1.948457389535299
0.3192592873173274 -1.9695229392517442
0.29361863779620534 -1.9484573895352446
0.2638356653901279 -1.9138299305115403
0.23482825724587808 -1.8648719178143334
0.2090737039302935 -1.802110160158256
0.18731902533053954 -1.7268201440241857
0.16941063501940715 -1.6407208966392235
0.1548991767883746 -1.5456482256424988
0.14328019167988498 -1.4433248819691638
0.13409106839783594 -1.3352665624802558
0.12694444830741913 -1.222774862821814
0.12152666652117726 -1.1069426540264617
0.11757055319328262 -0.9886449627999575
0.11482066115652417 -0.8685575971208874
0.11301458139466139 -0.747184836018331
0.11187873598656295 -0.62490746673429
0.11112177157533837 -0.5020470631777866
0.11057251331575756 -0.3788040148094785
0.11020734761020479 -0.255330027292026
0.11003100862394292 -0.13182824285226258
0.10999782835585874 -0.008530703041882902
0.5593114017529783 -0.008533768190827134
0.5592689472955666 -0.13182737476798645
0.5590801000049996 -0.25530077787119737
0.5586812575564591 -0.37875093563066026
0.5580704864794478 -0.5019729676012695
0.557205555873382 -0.6247901659707992
0.5558499987552932 -0.7469560917238053
0.553712059000434 -0.8681411729018521
0.5505074123514169 -0.9879701177769223
0.545941016571338 -1.1059389385182925
0.5397162609471672 -1.2213727527723222
0.5315158219438025 -1.33338839870487
0.5209686648705829 -1.4408766395414248
0.5076229165442758 -1.542514184003905
0.4909543064519166 -1.6367706872091456
0.47043928103516225 -1.7219282325239906
0.4456590937601188 -1.7961889969430769
0.4164823657907603 -1.8579522593777948
0.3835152152226255 -1.90626164453604
0.3492646890735581 -1.9411633548281462
0.31925928731732167 -1.9641857493147077
0.28925388556108683 -1.9411633548280924
0.2550033594120252 -1.906261644535933
0.22203620884390005 -1.8579522593776412
0.19285948087455412 -1.796188996942888
0.16807929359952437 -1.7219282325237741
0.14756426818278406 -1.6367706872089078
0.13089565809043907 -1.5425141840036538
0.11754990976414667 -1.440876639541168
0.10700275269094185 -1.3333883987046136
0.09880231368759054 -1.2213727527720748
0.09257755806343118 -1.1059389385180582
0.08801116228336182 -0.9879701177767044
0.08480651563435217 -0.868141172901654
0.08266857587949812 -0.74695609172363
0.08131301876141224 -0.62479016597065
0.08044808815534758 -0.5019729676011464
0.07983731707833681 -0.3787509356305647
0.07943847462979674 -0.25530077787112854
0.07924962733922986 -0.13182737476794498
0.07920717288181826 -0.008533768190813406
0.5901147688916817 -0.008532366815255465
0.5900727433566557 -0.1318217652293823
0.5898801095323281 -0.25526891992427914
0.5894492415332321 -0.3786936261141904
0.5887726830544145 -0.501891210993502
0.5877799248522617 -0.6246437926618447
0.5861893942009 -0.7466679083263803
0.5837196281601218 -0.8676382598788829
0.5800643739725608 -0.9871743654786791
0.5748943892415647 -1.1047718049765327
0.5678689888709325 -1.2197536349138896
0.5586187841563052 -1.3312265603446174
0.5467110683576649 -1.4380620479655366
0.5316300907167291 -1.5389156229202134
0.5128080113058872 -1.6322479002689219
0.4896980967915796 -1.716356596338765
0.46193394696126167 -1.789499723077674
0.42951796861448327 -1.8501859902559141
0.3929964144764068 -1.8976888087758395
0.35422357838046603 -1.9327014041855735
0.3192592873173157 -1.9577995610334098
0.28429499625416726 -1.932701404185521
0.24552216015823308 -1.8976888087757344
0.2090006060201678 -1.8501859902557634
0.17658462767340352 -1.789499723077488
0.14882047784310115 -1.7163565963385519
0.1257105633288092 -1.6322479002686878
0.10688848391798317 -1.5389156229199659
0.09180750627706372 -1.438062047965284
0.07989979047843992 -1.331226560344365
0.07064958576382722 -1.219753634913645
0.0636241853932076 -1.104771804976301
0.05845420066222205 -0.9871743654784632
0.05479894647466923 -0.8676382598786864
0.05232918043389703 -0.746667908326206
0.05073864978253896 -0.6246437926616959
0.04974589158038767 -0.501891210993379
0.049069333101570675 -0.37869362611409485
0.04863846510247504 -0.25526891992421036
0.04844583127814769 -0.13182176522934086
0.04840380574312174 -0.008532366815241735
0.6209258338732668 -0.008531082265257292
0.6208997387698083 -0.13181386126322278
0.6207187724212639 -0.25523565444428425
0.6202563502961559 -0.3786317984350085
0.6195016724033982 -0.5017977510431677
0.6183585302569732 -0.6244625093934728
0.6165282098079073 -0.7463181206006139
0.6137284870192634 -0.8670481025608935
0.6096304313559737 -0.9862582793084809
0.6038668320436723 -1.1034422491244502
0.5960518613069739 -1.2179184165900592
0.5857575539698664 -1.32877992596761
0.5724866648482521 -1.4348787141389525
0.555677254556076 -1.5348524164930977
0.5347141125929529 -1.6271545753686076
0.5090342986781894 -1.7101101005539812
0.47831867061772027 -1.7820555001804042
0.44272597228086424 -1.8416284268708227
0.4030730126854302 -1.888270792874693
0.360705929037131 -1.9230047110803647
0.3192592873173094 -1.9500000000000006
0.2778126455974898 -1.9230047110803132
0.23544556194919802 -1.8882707928745903
0.19579260235377718 -1.841628426870675
0.16019990401693715 -1.7820555001802223
0.1294842759564853 -1.710110100553772
0.10380446204173906 -1.6271545753683774
0.08284132007863401 -1.5348524164928543
0.06603190978647593 -1.4348787141387038
0.05276102066487945 -1.3287799259673614
0.0424667133277882 -1.2179184165898183
0.03465174259110343 -1.1034422491242213
0.02888814327881337 -0.9862582793082673
0.024790087615532776 -0.8670481025606986
0.02199036482689537 -0.7463181206004407
0.020160044377833686 -0.6244625093933245
0.01901690223141077 -0.5017977510430449
0.01826222433865366 -0.37863179843491307
0.01779980221354603 -0.25523565444421553
0.017618835865001847 -0.1318138612631813
0.01759274076154339 -0.008531082265243567
SCALARS Stress float 6
LOOKUP_TABLE default
-976.4623372483961 -1755.3693284425076 -1287.0722236786378 -6.564275067564925 0.0 0.0
1162.4355435004077 672.0167928161305 814.684314557028 -24.961936870768106 0.0 0.0
504.8395104730469 78.71263813881104 175.7115065322129 -34.50387364448206 0.0 0.0
439.23234120735526 15.37211158313984 136.42395125976714 -3.935186984323713 0.0 0.0
540.3757101136554 43.482196892742024 186.91098007537676 -0.5851446200263966 0.0 0.0
617.1726911805974 73.05310978877695 263.47593136569856 0.11712368185057809 0.0 0.0
707.9764266698455 93.94408347364148 347.160182874826 -0.37420096275206305 0.0 0.0
795.7030938662117 131.19656534542597 432.87916640027566 -0.9925727895889264 0.0 0.0
887.4879373216272 179.20411136456912 515.4574924721001 -1.7954923338496367 0.0 0.0
991.0486964941729 243.17431294718986 604.4350533797699 -2.7620596569413385 0.0 0.0
1110.5405827809384 325.8173788085928 707.1749277055335 -3.806902551815744 0.0 0.0
1245.325214796067 426.83966164318355 825.2868585639684 -4.844188981608674 0.0 0.0
1391.580402806801 539.8789648105216 954.4854748517799 -5.502221864865657 0.0 0.0
1544.9043291547107 660.5706353906036 1090.8907424581641 -6.065042622548443 0.0 0.0
1697.7086327616032 781.4910068782503 1227.087468591461 -6.5118471180009685 0.0 0.0
1842.0390647242198 895.2780821016655 1355.4960823501224 -6.826001710340364 0.0 0.0
1970.9815265999705 996.1724609573147 1469.8802717287783 -6.831182025127145 0.0 0.0
2077.534538051895 1078.4361648132767 1563.9653241051838 -6.307331729861669 0.0 0.0
2157.1921988203553 1138.7654213532508 1633.8123459829635 -5.181036185863194 0.0 0.0
2201.0872969425286 1169.6557394212496 1671.2292915612902 -4.517268306504594 0.0 0.0
2198.8638617644797 1164.359939406204 1667.7985460218392 3.4715341712399095e-11 0.0 0.0
2201.0872969431557 1169.6557394219012 1671.2292915617038 4.517268306488372 0.0 0.0
2157.192198820324 1138.7654213532658 1633.812345982818 5.18103618585117 0.0 0.0
2077.534538050774 1078.4361648121956 1563.9653241043377 6.307331729793177 0.0 0.0
1970.9815266000319 996.1724609574767 1469.8802717286528 6.831182025148019 0.0 0.0
1842.039064723164 895.2780821006883 1355.496082349278 6.826001710293228 0.0 0.0
1697.7086327606444 781.4910068773968 1227.0874685905926 6.5118471180143285 0.0 0.0
1544.904329154393 660.5706353904329 1090.89074245784 6.065042622520034 0.0 0.0
1391.5804028063483 539.8789648102154 954.4854748513263 5.502221864882268 0.0 0.0
1245.3252147950952 426.8396616423928 825.2868585631545 4.844188981491888 0.0 0.0
1110.5405827808038 325.8173788086704 707.1749277052535 3.806902551747262 0.0 0.0
991.0486964931813 243.17431294640534 604.4350533789977 2.7620596569238582 0.0 0.0
887.4879373208065 179.20411136395217 515.4574924714339 1.7954923338377995 0.0 0.0
795.7030938655978 131.19656534503036 432.8791663997667 0.9925727894876388 0.0 0.0
707.9764266698166 93.94408347393326 347.16018287462657 0.37420096277183923 0.0 0.0
617.1726911801401 73.05310978855941 263.4759313652795 -0.11712368191206401 0.0 0.0
540.3757101132923 43.48219689261971 186.9109800751489 0.5851446199192463 0.0 0.0
439.2323412070663 15.37211158299097 136.42395125964345 3.935186984343673 0.0 0.0
504.83951047262667 78.71263813846096 175.71150653197878 34.50387364428815 0.0 0.0
1162.4355435000346 672.0167928157082 814.6843145564942 24.96193687075303 0.0 0.0
-976.4623372458766 -1755.3693284399558 -1287.0722236761387 6.564275067036089 0.0 0.0
-1244.292491469428 -1991.1629795439121 -1499.7568246092712 -4.7537375427796 0.0 0.0
784.479862522055 378.83723011507016 505.97131546293735 -38.517765254253504 0.0 0.0
347.8364951598585 31.94836901668274 113.22818509234563 -27.42004416368734 0.0 0.0
388.8516151247545 1.909443818249147 117.29003434453638 -16.488081650374642 0.0 0.0
481.98658655378665 17.682051477792882 155.7795160186289 -14.980429026730844 0.0 0.0
565.2913908670057 23.491683728474342 214.3102971308667 -18.09140429148911 0.0 0.0
632.1405346167502 32.51694978555398 283.33333839564216 -20.346814328750643 0.0 0.0
699.780108471253 47.4754561701471 349.0998600547758 -21.22667876721933 0.0 0.0
763.8780779134833 67.01534091907293 404.81374043803487 -21.38619784917441 0.0 0.0
829.7477266554612 93.49920249391884 457.0326020510403 -21.36350831958871 0.0 0.0
899.3805863838958 126.97404395141666 510.8171145888458 -21.12095627150965 0.0 0.0
972.0964786499381 165.0271487109962 566.9282454014788 -20.777668401904013 0.0 0.0
1045.0082361748998 206.11687958961076 624.0467667751284 -20.207161185528932 0.0 0.0
1115.740310258235 244.47091244910118 678.4943954228107 -19.590790705973617 0.0 0.0
1177.741561076256 274.930030241015 724.5874448721715 -19.06931695194807 0.0 0.0
1225.9885984740254 292.9835017597847 757.5978331514943 -18.450299429018017 0.0 0.0
1257.3642697660084 296.5002634819472 774.9536987615741 -17.420616982336313 0.0 0.0
1272.4617172147027 287.3078330173634 777.9138112726398 -15.654543529345942 0.0 0.0
1272.8928422383979 268.34567601928006 768.8120110868366 -13.082837370442128 0.0 0.0
1247.4617837663184 229.8526279879646 737.4299672039402 -10.461134692115026 0.0 0.0
1200.0651508591545 179.50119807544175 689.5318921906971 6.898304150126933e-11 0.0 0.0
1247.4617837664928 229.8526279881553 737.4299672040418 10.461134692159927 0.0 0.0
1272.8928422386812 268.34567601959645 768.8120110870511 13.082837370433523 0.0 0.0
1272.461717214463 287.30783301719066 777.9138112724866 15.654543529345787 0.0 0.0
1257.364269766029 296.5002634820517 774.9536987615317 17.420616982425955 0.0 0.0
1225.98859847376 292.98350175961167 757.5978331512902 18.450299429039536 0.0 0.0
1177.7415610756466 274.93003024051353 724.5874448716633 19.06931695200598 0.0 0.0
1115.7403102583787 244.47091244939014 678.4943954228355 19.590790705956536 0.0 0.0
1045.00823617407 206.1168795889257 624.0467667745246 20.207161185584518 0.0 0.0
972.0964786496612 165.02714871089808 566.9282454012581 20.777668401893813 0.0 0.0
899.3805863837854 126.97404395150319 510.81711458868995 21.120956271467463 0.0 0.0
829.747726654977 93.49920249363488 457.0326020506776 21.36350831955113 0.0 0.0
763.8780779130615 67.01534091886941 404.8137404376827 21.386197849155177 0.0 0.0
699.7801084710759 47.4754561702334 349.0998600545537 21.226678767234013 0.0 0.0
632.1405346165359 32.51694978562007 283.3333383953708 20.346814328755517 0.0 0.0
565.2913908665291 23.491683728265578 214.31029713048449 18.09140429154475 0.0 0.0
481.9865865534092 17.682051477752854 155.77951601845515 14.98042902664857 0.0 0.0
388.8516151244108 1.9094438180260846 117.29003434437612 16.488081650360527 0.0 0.0
347.83649515966766 31.9483690164753 113.22818509222985 27.420044163562224 0.0 0.0
784.4798625215673 378.8372301146165 505.97131546236886 38.517765254246015 0.0 0.0
-1244.2924914675432 -1991.1629795419176 -1499.7568246072585 4.753737542289096 0.0 0.0
-1014.6442952331797 -1727.3018685960544 -1242.2137040576124 -44.483801386236365 0.0 0.0
586.3909027138958 285.13302269224556 367.5484807586441 -102.23872405989448 0.0 0.0
251.03144359278417 40.63272823501577 87.4991858838631 -27.924511214245978 0.0 0.0
332.2186536803329 -1.3305428772725743 99.28344430884118 -36.17728379843541 0.0 0.0
434.49133132195675 11.912470648602866 135.44716871963928 -36.819048175191604 0.0 0.0
533.9025904900506 20.089416737922882 189.47210417308912 -35.956976042856176 0.0 0.0
603.9450866740873 31.0810325772006 259.4246814558908 -38.620699253301034 0.0 0.0
673.8780789207914 41.824739725717066 326.20309353694387 -40.19530596296806 0.0 0.0
737.1683995596708 59.20815658537896 383.5600531479702 -40.73540187025603 0.0 0.0
800.4054648558277 82.18462853057031 434.60460300703136 -40.80732335675128 0.0 0.0
866.0932261806288 111.77177141890223 485.43020383625316 -40.417610374977315 0.0 0.0
934.15269070142 146.66100644056888 538.0673664500421 -39.49322372323188 0.0 0.0
1003.8794557703137 183.25353519693186 591.5496835624708 -38.365982062991826 0.0 0.0
1069.9321789552191 218.46442839557483 642.1838700203847 -37.19050588858457 0.0 0.0
1128.652391447112 245.98351133815711 685.18445902513 -36.12875099587078 0.0 0.0
1174.6881909320207 262.1396064372423 716.1428715984233 -34.89406390775113 0.0 0.0
1206.1791264145322 265.93146840252166 733.7132412011761 -32.919880592858235 0.0 0.0
1222.2193364138957 257.6420084865558 737.650911989551 -29.75975063089693 0.0 0.0
1219.625125789754 235.44528286584978 725.5517276096051 -25.329979622069743 0.0 0.0
1202.9952290252245 205.66435378985506 702.721917438629 -19.506219754341593 0.0 0.0
1142.2287568265272 142.14335754421427 641.8980155749789 3.085087740828385e-11 0.0 0.0
1202.99522902468 205.6643537893204 702.7219174382097 19.506219754359805 0.0 0.0
1219.6251257904285 235.44528286658422 725.5517276100923 25.329979622121343 0.0 0.0
1222.2193364139052 257.6420084866238 737.6509119895909 29.759750630949082 0.0 0.0
1206.1791264140586 265.931468402108 733.713241200752 32.91988059288877 0.0 0.0
1174.688190931741 262.1396064370645 716.1428715981849 34.89406390777646 0.0 0.0
1128.6523914468457 245.98351133800733 685.1844590248745 36.12875099595261 0.0 0.0
1069.9321789546393 218.4644283950982 642.1838700198847 37.19050588854033 0.0 0.0
1003.8794557695613 183.25353519634334 591.5496835618975 38.365982062997084 0.0 0.0
934.1526907010119 146.6610064403326 538.0673664497608 39.49322372327556 0.0 0.0
866.0932261803507 111.77177141881168 485.43020383599776 40.417610374936174 0.0 0.0
800.4054648554473 82.1846285304014 434.6046030067417 40.807323356754544 0.0 0.0
737.1683995593069 59.20815658522647 383.56005314764974 40.73540187025083 0.0 0.0
673.8780789207423 41.824739725968556 326.2030935367926 40.19530596302457 0.0 0.0
603.9450866737841 31.081032577179265 259.42468145555273 38.62069925325488 0.0 0.0
533.902590489546 20.089416737682278 189.47210417272498 35.956976042870664 0.0 0.0
434.4913313215401 11.912470648589437 135.44716871950425 36.81904817514466 0.0 0.0
332.21865368010936 -1.3305428775262664 99.28344430869777 36.17728379839744 0.0 0.0
251.03144359276467 40.632728234812355 87.49918588379629 27.92451121417126 0.0 0.0
586.3909027134694 285.13302269197425 367.54848075818 102.23872405977647 0.0 0.0
-1014.6442952313885 -1727.3018685941895 -1242.2137040556725 44.48380138587087 0.0 0.0
-816.0499903776326 -1497.3566806497545 -1018.1984469622724 -58.76130121485305 0.0 0.0
437.0411511277893 191.369549762753 257.95499487449257 -142.71652209449678 0.0 0.0
185.69286343233327 42.07131983343971 68.32925497973189 -50.14847408690916 0.0 0.0
277.7575342814508 3.4648282744087258 84.3686706781296 -54.71473008892118 0.0 0.0
381.40238486702077 4.605189833518532 115.05032918991758 -60.33160534480238 0.0 0.0
487.1869293286961 15.965205079064862 162.9782360510648 -55.966062125743605 0.0 0.0
575.1819034143564 26.49832824124431 231.04761674748173 -58.44827334048781 0.0 0.0
642.7654669318425 36.50628805992234 299.1330752096687 -59.534178738328265 0.0 0.0
706.4043407405806 51.40587177925939 358.6640886833133 -59.93966816919323 0.0 0.0
767.3592321925344 71.25199450973034 409.55124881355016 -59.836581778859625 0.0 0.0
828.8533788663699 96.87991152919585 457.692874233216 -59.04482903990497 0.0 0.0
892.8688993195792 127.15430603370783 506.65637820704757 -57.62934240574364 0.0 0.0
957.9466723922642 160.92701936023548 556.7406783316201 -55.86357246613798 0.0 0.0
1020.5133288467495 191.25847355436255 603.3270733335366 -54.31439068231392 0.0 0.0
1075.382301948951 215.81648141137833 642.964999171981 -52.80098076726658 0.0 0.0
1120.1381625086328 231.48984596119692 673.0571037300255 -50.973081235018604 0.0 0.0
1152.1843747810865 235.62251881188627 691.0998800663658 -48.27366485818515 0.0 0.0
1168.6135039379824 227.41510947567934 695.3378380968383 -44.081179609175976 0.0 0.0
1168.2300872527883 206.97590170094497 685.2361099346216 -37.83633971625721 0.0 0.0
1156.125841426428 181.0215498639865 666.4813723349185 -27.979107195209323 0.0 0.0
1069.253887348203 91.28728096396864 580.2486664673831 5.1317172733433836e-11 0.0 0.0
1156.1258414260185 181.02154986361424 666.4813723346194 27.9791071953062 0.0 0.0
1168.2300872532048 206.97590170141265 685.2361099348491 37.83633971641975 0.0 0.0
1168.6135039375922 227.41510947534556 695.3378380965971 44.08117960922155 0.0 0.0
1152.1843747807159 235.62251881158522 691.0998800660341 48.273664858250854 0.0 0.0
1120.1381625082618 231.4898459609289 673.0571037297561 50.97308123504638 0.0 0.0
1075.3823019489535 215.81648141149776 642.9649991719397 52.80098076732425 0.0 0.0
1020.5133288461411 191.25847355389652 603.3270733330851 54.31439068234975 0.0 0.0
957.9466723918657 160.92701935996 556.7406783312965 55.863572466146735 0.0 0.0
892.8688993188733 127.15430603316676 506.6563782065369 57.62934240569306 0.0 0.0
828.8533788660059 96.87991152898806 457.6928742329378 59.04482903986704 0.0 0.0
767.3592321923054 71.25199450974279 409.5512488133405 59.83658177887824 0.0 0.0
706.4043407402381 51.40587177913477 358.6640886829965 59.93966816915499 0.0 0.0
642.7654669317478 36.506288060120035 299.1330752094753 59.534178738380376 0.0 0.0
575.1819034140788 26.49832824125469 231.04761674718162 58.44827334040321 0.0 0.0
487.1869293282584 15.965205078953947 162.97823605079918 55.96606212561427 0.0 0.0
381.40238486669733 4.60518983358621 115.05032918985239 60.33160534471092 0.0 0.0
277.75753428131827 3.464828274270666 84.36867067804833 54.714730088906194 0.0 0.0
185.69286343223192 42.07131983314046 68.32925497961168 50.14847408680899 0.0 0.0
437.0411511273344 191.36954976258033 257.95499487409774 142.71652209434492 0.0 0.0
-816.0499903761083 -1497.3566806481515 -1018.1984469605687 58.7613012145782 0.0 0.0
-645.0230743454945 -1295.2465600650062 -822.3361125289362 -60.56670160058536 0.0 0.0
328.1490074073381 110.7940468996122 175.12564055156676 -170.97232703986955 0.0 0.0
137.3279742533896 37.22706122987166 52.366510644978355 -78.37641221811666 0.0 0.0
227.0009293679564 10.260659975875033 71.1792321593413 -74.81968348365369 0.0 0.0
320.3916403046523 4.1728222140600835 97.37442938661641 -81.82364022047133 0.0 0.0
435.38650634282294 4.625880698628302 134.73466051693816 -82.50679891573655 0.0 0.0
533.1049525234316 20.047288615644195 197.66062908008692 -78.52179684816014 0.0 0.0
605.8530452134415 33.0095326678063 268.371122732691 -78.91275986126112 0.0 0.0
670.2896384006614 43.9744759116368 329.17386435170135 -79.03552944863691 0.0 0.0
729.4492003526443 60.57210665960913 380.7089459003316 -78.42312191102037 0.0 0.0
787.6557852166147 81.908287028119 427.00129943265483 -77.11224658417169 0.0 0.0
847.1296461436524 107.7336868338918 472.5370811129687 -75.09190573947173 0.0 0.0
908.02402969034 136.44696227962788 518.5081127210219 -72.9221600108613 0.0 0.0
966.0833900745686 164.57043954053057 562.0069015590853 -70.90583138678706 0.0 0.0
1018.0463558955579 185.81522238108886 598.6294715900094 -69.01747107768676 0.0 0.0
1060.9530443004821 199.13150010710513 626.6331981528427 -66.80297179027986 0.0 0.0
1093.6826758731481 204.57640750983987 645.7124300359445 -63.5350113409366 0.0 0.0
1112.7007201382369 198.61598442064044 652.3891960550217 -58.560357537713244 0.0 0.0
1115.698511510703 180.67872902226657 645.234947909232 -50.519122100669705 0.0 0.0
1105.2173078114736 154.88004205240026 627.3536079294812 -36.810391078417396 0.0 0.0
985.4241230997433 32.003132717401996 509.17190341475333 5.3232085406307306e-11 0.0 0.0
1105.217307811491 154.8800420524728 627.3536079295544 36.81039107855298 0.0 0.0
1115.6985115104485 180.67872902204113 645.2349479090227 50.51912210079161 0.0 0.0
1112.7007201384922 198.61598442100865 652.3891960551823 58.560357537825425 0.0 0.0
1093.682675873256 204.57640751001026 645.7124300359586 63.535011341023385 0.0 0.0
1060.953044300614 199.13150010735157 626.6331981529572 66.80297179029891 0.0 0.0
1018.0463558951265 185.81522238079017 598.6294715896735 69.01747107777042 0.0 0.0
966.0833900748319 164.5704395409507 562.0069015592472 70.90583138689236 0.0 0.0
908.024029689643 136.44696227903788 518.5081127205443 72.92216001083023 0.0 0.0
847.1296461432415 107.73368683364355 472.53708111266695 75.09190573942112 0.0 0.0
787.6557852156611 81.90828702728656 427.00129943197527 77.11224658410612 0.0 0.0
729.4492003526487 60.57210665988603 380.70894590026535 78.42312191103102 0.0 0.0
670.289638400306 43.9744759115064 329.1738643513768 79.03552944862341 0.0 0.0
605.8530452129664 33.00953266757993 268.3711227322593 78.91275986122005 0.0 0.0
533.1049525230136 20.047288615518852 197.66062907974228 78.52179684808335 0.0 0.0
435.38650634231755 4.625880698453704 134.73466051670587 82.5067989157221 0.0 0.0
320.39164030460444 4.172822214300335 97.37442938667563 81.82364022035898 0.0 0.0
227.00092936785742 10.260659975727808 71.17923215926699 74.8196834835507 0.0 0.0
137.3279742532795 37.227061229604516 52.366510644865194 78.37641221802014 0.0 0.0
328.1490074069662 110.79404689950726 175.12564055127214 170.97232703973737 0.0 0.0
-645.0230743441098 -1295.2465600635044 -822.3361125274002 60.56670160037332 0.0 0.0
-495.781790188028 -1115.8580196570597 -650.7167652665487 -62.56818701414204 0.0 0.0
242.62228361126336 49.51408525649744 113.30190008694761 -184.9907358853791 0.0 0.0
99.2077340058353 28.413076086302404 38.28624302764131 -105.0297861301799 0.0 0.0
179.47863279957363 15.774019782190425 58.575758563398466 -95.5636228344857 0.0 0.0
263.7890267359883 3.9612661956450923 80.28854801821383 -102.63209286403224 0.0 0.0
365.5393387374572 1.426460050982651 110.08277068264911 -105.74488244806871 0.0 0.0
470.8119656870615 13.938730929443855 162.22397349568945 -100.92058831680872 0.0 0.0
562.6660680135398 24.88316708643057 229.83581895316811 -100.00163025971709 0.0 0.0
625.0351057640738 37.98458810405977 293.88370377605935 -97.36322597949311 0.0 0.0
685.7984151902674 49.90221106278289 346.60242655135943 -96.68827235251962 0.0 0.0
740.9367831914086 66.99925448095095 392.0326583093169 -94.6383583978591 0.0 0.0
796.0760629442125 88.2258198159722 434.70938833475884 -91.94238192864309 0.0 0.0
852.3467065842849 112.80533863705509 477.18765591303054 -89.27995781889204 0.0 0.0
906.2962448577574 135.9305354222709 516.5924879300843 -87.00306075033416 0.0 0.0
955.0032902470324 155.02677413267892 550.7034094746062 -84.84634548431092 0.0 0.0
996.2563832627238 167.70151703963563 577.6584466172538 -82.1786811713971 0.0 0.0
1029.426190895759 172.2203085769741 596.5196469503987 -78.62323821423082 0.0 0.0
1052.030998466586 169.6236031096923 606.6474814221432 -73.12500954708696 0.0 0.0
1060.026493674458 155.943046250921 604.14879145779 -63.589462516800445 0.0 0.0
1050.3804286357763 128.69251246033588 586.0128775440124 -46.513899962080835 0.0 0.0
890.244268024837 -34.7141256381075 428.953084882981 1.907451974147989e-11 0.0 0.0
1050.3804286359775 128.6925124606024 586.0128775441954 46.51389996221777 0.0 0.0
1060.026493673925 155.9430462504489 604.1487914574759 63.58946251696001 0.0 0.0
1052.0309984674523 169.6236031106816 606.64748142272 73.1250095472937 0.0 0.0
1029.4261908957208 172.22030857699275 596.5196469502765 78.6232382142595 0.0 0.0
996.2563832625407 167.70151703955653 577.6584466171229 82.17868117144769 0.0 0.0
955.0032902466218 155.02677413241008 550.7034094742428 84.84634548438594 0.0 0.0
906.2962448573883 135.93053542198618 516.5924879297938 87.00306075036445 0.0 0.0
852.346706584082 112.80533863698716 477.1876559129066 89.27995781886787 0.0 0.0
796.0760629437668 88.22581981565503 434.7093883344365 91.94238192856862 0.0 0.0
740.9367831903893 66.99925448007704 392.0326583085625 94.63835839780991 0.0 0.0
685.7984151898945 49.90221106255727 346.6024265510354 96.68827235242989 0.0 0.0
625.0351057635247 37.98458810369295 293.8837037755941 97.36322597941651 0.0 0.0
562.6660680131104 24.88316708629514 229.83581895277797 100.00163025964918 0.0 0.0
470.81196568660425 13.938730929275314 162.22397349537806 100.9205883167732 0.0 0.0
365.5393387368422 1.4264600506262437 110.08277068237038 105.7448824479813 0.0 0.0
263.78902673582655 3.9612661957381814 80.28854801819188 102.63209286392181 0.0 0.0
179.4786327994377 15.77401978211302 58.57575856333456 95.56362283430411 0.0 0.0
99.20773400572146 28.413076086128896 38.2862430275551 105.0297861299973 0.0 0.0
242.6222836108346 49.51408525635796 113.3019000866654 184.99073588520912 0.0 0.0
-495.78179018698023 -1115.8580196558046 -650.7167652652751 62.568187014034095 0.0 0.0
-369.33268593113235 -949.9478230343051 -502.120204557532 -65.67289339680175 0.0 0.0
175.86169722716411 0.423226555278136 67.04824324619015 -192.08143015124116 0.0 0.0
67.42566792117417 18.76771626917944 25.85801525710608 -127.22501555177493 0.0 0.0
134.60283808733337 19.152311977459984 46.126545019437984 -115.30440994691945 0.0 0.0
207.48606473084476 6.213706391879913 64.1175934702892 -120.81151555022082 0.0 0.0
291.60668377581516 -1.5080847803583242 86.44166054063466 -128.25088422364536 0.0 0.0
399.6909198138901 3.1353587510516023 125.36635411185068 -128.1877667491698 0.0 0.0
493.8046936882798 18.91541354231423 185.6742057949707 -120.4566179329471 0.0 0.0
574.5560194616681 26.859147431295234 248.7990598717483 -118.90655987811914 0.0 0.0
631.6193789700079 40.068072242797655 304.73714908134616 -114.03907391372478 0.0 0.0
686.9418752021296 52.0864613711369 350.51008775656976 -111.58781429483976 0.0 0.0
738.2546991145126 68.45618136908782 391.3317244781724 -108.29549865424207 0.0 0.0
789.826611196513 88.3766252941483 430.6984301601353 -105.14702606806284 0.0 0.0
839.1901539879028 107.68991466724815 466.8158195648201 -102.52654562872623 0.0 0.0
884.3648135677234 123.79526265647286 498.14156172841786 -100.11007942932491 0.0 0.0
923.9723494620757 133.73252852149554 523.0498386784925 -97.55823275668055 0.0 0.0
956.9650167224404 140.2453018852914 542.9349688625787 -93.36557528915095 0.0 0.0
984.2971135344786 140.7849942138809 556.9406586460065 -87.54120565394375 0.0 0.0
998.8891908360483 131.4193167812656 559.8929305851644 -77.32465129566388 0.0 0.0
991.0932677487215 103.50300425107912 542.5094307957946 -57.66363680700123 0.0 0.0
781.583360453234 -109.1061073238819 338.5034167820074 2.9460878181453154e-11 0.0 0.0
991.0932677484944 103.50300425090502 542.5094307956174 57.663636807108034 0.0 0.0
998.8891908360258 131.41931678137726 559.8929305851805 77.32465129591948 0.0 0.0
984.2971135347832 140.7849942143123 556.9406586462424 87.54120565414993 0.0 0.0
956.9650167217687 140.24530188465394 542.9349688620265 93.36557528919805 0.0 0.0
923.9723494617258 133.73252852121206 523.049838678268 97.55823275669204 0.0 0.0
884.3648135678685 123.79526265675807 498.1415617284676 100.11007942936459 0.0 0.0
839.1901539870898 107.68991466654086 466.8158195642058 102.52654562874739 0.0 0.0
789.8266111963873 88.37662529416194 430.69843015998896 105.14702606810062 0.0 0.0
738.2546991144177 68.45618136917969 391.33172447809704 108.29549865423304 0.0 0.0
686.9418752012089 52.08646137032437 350.5100877558622 111.58781429476613 0.0 0.0
631.6193789696099 40.06807224258765 304.73714908101965 114.0390739136343 0.0 0.0
574.5560194613608 26.859147431308394 248.7990598714471 118.90655987810432 0.0 0.0
493.8046936879454 18.915413542310617 185.6742057947044 120.4566179329454 0.0 0.0
399.69091981342547 3.1353587509198215 125.36635411160356 128.18776674907744 0.0 0.0
291.60668377548836 -1.5080847803437822 86.44166054055486 128.25088422350848 0.0 0.0
207.48606473060812 6.213706391616076 64.11759347013913 120.811515550096 0.0 0.0
134.6028380872992 19.152311977526004 46.12654501944756 115.30440994677349 0.0 0.0
67.42566792110574 18.76771626909773 25.858015257061044 127.22501555156188 0.0 0.0
175.8616972268172 0.42322655518071883 67.04824324598607 192.08143015104156 0.0 0.0
-369.3326859303268 -949.9478230331954 -502.1202045565031 65.67289339682554 0.0 0.0
-257.56212539995374 -810.6555345446283 -374.3932478175476 -79.91343063399069 0.0 0.0
117.64834694295457 -35.647534547653834 31.068940877586037 -189.96829140501592 0.0 0.0
39.70513407664574 10.70436364081916 15.122880090890218 -144.54164806192352 0.0 0.0
91.69965188267639 20.53766793232928 33.67119594450169 -132.6294281176607 0.0 0.0
151.27622528592636 8.949933630257874 48.06591051915536 -136.6409246268198 0.0 0.0
217.14495037362877 -0.4958985770849813 64.79922592752838 -145.9394553656062 0.0 0.0
308.9149520061036 -1.9846099385382296 91.70151034045288 -153.12525004702388 0.0 0.0
406.863835104628 6.997370315350359 136.21552763631186 -144.71665579966654 0.0 0.0
495.58093988202336 19.083162147203076 194.2916222348715 -137.72052259974046 0.0 0.0
566.1010510934574 25.738237900001398 249.39607659773972 -133.92034963399053 0.0 0.0
619.9945172267657 36.27670879086672 297.1247600250218 -127.90943422762504 0.0 0.0
668.8746763873905 48.69855072273821 338.0058391527912 -123.79792559167944 0.0 0.0
716.8320092000531 63.8363463708873 375.6663697184483 -120.37268191658721 0.0 0.0
761.2124647459631 78.55069656999505 408.8582373479934 -117.42914705945881 0.0 0.0
802.8983157802334 91.10506931810676 437.7316737544097 -114.92660120373564 0.0 0.0
840.0282963989674 100.46090907118621 461.68378048757194 -112.32639969216682 0.0 0.0
873.0945469542379 105.18208049848957 481.03149546890734 -108.22383843849673 0.0 0.0
904.0309287370764 109.3554443741507 498.59619350691776 -101.75929733637552 0.0 0.0
927.8029867923407 108.50645368284586 510.4120981202522 -91.34219513188913 0.0 0.0
925.5581437902147 82.09392225396894 496.8924629156259 -70.94566498824331 0.0 0.0
653.6788865252262 -191.5479622305794 234.98588916974978 2.957634137601417e-11 0.0 0.0
925.5581437902429 82.09392225414464 496.8924629156851 70.94566498842737 0.0 0.0
927.8029867924591 108.50645368307468 510.4120981203456 91.34219513217344 0.0 0.0
904.0309287369957 109.35544437415663 498.5961935068581 101.75929733652728 0.0 0.0
873.0945469534612 105.18208049772343 481.0314954682828 108.22383843848529 0.0 0.0
840.0282963987273 100.46090907102928 461.68378048742414 112.32639969216903 0.0 0.0
802.8983157804648 91.10506931853348 437.7316737545649 114.92660120386319 0.0 0.0
761.2124647456118 78.55069656978996 408.85823734770804 117.42914705953524 0.0 0.0
716.8320091993934 63.8363463702952 375.6663697179501 120.37268191657809 0.0 0.0
668.8746763872776 48.698550722809244 338.0058391527094 123.79792559172556 0.0 0.0
619.9945172264978 36.27670879085826 297.12476002473835 127.90943422764308 0.0 0.0
566.1010510932135 25.738237899976305 249.39607659750789 133.92034963393118 0.0 0.0
495.580939881688 19.083162147202458 194.29162223461924 137.72052259977178 0.0 0.0
406.86383510406495 6.997370315068856 136.21552763597558 144.71665579966944 0.0 0.0
308.914952005632 -1.984609938768899 91.70151034023925 153.12525004688774 0.0 0.0
217.1449503734588 -0.49589857695246753 64.79922592753245 145.93945536536424 0.0 0.0
151.276225285766 8.949933630022642 48.06591051903375 136.64092462666216 0.0 0.0
91.69965188269289 20.537667932520876 33.67119594456413 132.62942811747752 0.0 0.0
39.70513407653195 10.704363640728907 15.122880090828925 144.54164806173137 0.0 0.0
117.64834694262683 -35.64753454775865 31.068940877416928 189.96829140479747 0.0 0.0
-257.56212539929487 -810.6555345436225 -374.3932478167397 79.9134306340841 0.0 0.0
-181.70148306334463 -673.5103379985492 -279.70961270750416 -91.23729051498727 0.0 0.0
67.39757462306682 -63.05387736394973 4.177327991445188 -181.84281781839508 0.0 0.0
13.767115846813041 4.933045651358558 5.611379563594374 -157.17379499316658 0.0 0.0
50.526008010149916 20.48254258152216 21.30292663838244 -146.6658087252005 0.0 0.0
95.1092241561852 11.439252765750089 31.963625600076575 -149.39107182415893 0.0 0.0
143.04066418628236 2.2343272329197665 43.573988933558155 -159.0905914744313 0.0 0.0
206.5543156783942 -1.977364160700797 60.83613595565074 -172.5077862249382 0.0 0.0
294.360210131975 -4.498548848789234 87.30672624074415 -175.58354911235824 0.0 0.0
385.34632048926807 2.0887560687563687 127.93669819764648 -162.67216030234133 0.0 0.0
464.0154643049805 10.836131304062008 176.0385650286096 -151.64259213510203 0.0 0.0
525.4760262392521 19.308041916875297 222.91633560044434 -142.9430988981993 0.0 0.0
576.3219396643302 26.81511812044598 263.21583928511404 -137.86812724306841 0.0 0.0
621.9981444828082 38.489262872601245 301.04743705306396 -134.30658578881147 0.0 0.0
662.351712114311 48.67986228232619 333.2235006022274 -131.37684316945973 0.0 0.0
699.9743109282433 57.86332328100482 361.03320662418844 -128.98069416629494 0.0 0.0
734.852316373901 65.11345320463012 384.52698735038115 -126.75385911320629 0.0 0.0
768.3448215045049 70.78974036598385 405.6887408127101 -122.91902901279434 0.0 0.0
799.9573377998937 74.78218542906448 424.26211905270674 -115.97431857434438 0.0 0.0
833.7255106977187 80.44079666579363 444.403508936834 -105.37995644632544 0.0 0.0
848.7615151916561 66.08733883805377 446.1510827532188 -87.35428666371631 0.0 0.0
498.3697194016956 -279.38025603345915 116.1147565555058 8.359535286217579e-11 0.0 0.0
848.7615151916299 66.08733883815754 446.1510827532993 87.35428666396531 0.0 0.0
833.7255106974272 80.44079666559013 444.4035089366118 105.37995644654293 0.0 0.0
799.9573377999756 74.78218542923094 424.26211905275096 115.9743185745447 0.0 0.0
768.3448215040899 70.78974036567564 405.68874081233923 122.9190290128449 0.0 0.0
734.8523163736588 65.11345320441319 384.5269873501843 126.75385911321922 0.0 0.0
699.9743109281941 57.863323281092356 361.0332066241582 128.9806941663318 0.0 0.0
662.3517121139658 48.679862282064526 333.2235006019617 131.37684316948722 0.0 0.0
621.9981444822326 38.48926287212356 301.0474370526439 134.3065857888574 0.0 0.0
576.3219396640809 26.815118120385062 263.21583928488775 137.86812724307057 0.0 0.0
525.4760262392192 19.308041917067825 222.91633560036794 142.94309889823552 0.0 0.0
464.01546430454346 10.83613130380743 176.03856502826116 151.6425921350032 0.0 0.0
385.3463204888373 2.088756068739655 127.9366981974319 162.6721603023857 0.0 0.0
294.36021013136366 -4.498548849182719 87.30672624043247 175.58354911237276 0.0 0.0
206.55431567795924 -1.9773641608760246 60.836135955491486 172.50778622468218 0.0 0.0
143.0406641860732 2.234327232643837 43.57398893341278 159.0905914742396 0.0 0.0
95.10922415611812 11.439252765738209 31.96362560005303 149.39107182393025 0.0 0.0
50.526008010138604 20.482542581596917 21.302926638401335 146.66580872498852 0.0 0.0
13.767115846809308 4.933045651419555 5.611379563611482 157.1737949929933 0.0 0.0
67.3975746227788 -63.05387736398054 4.177327991324228 181.84281781808514 0.0 0.0
-181.70148306283326 -673.510337997673 -279.7096127069183 91.23729051506868 0.0 0.0
-126.55988375085572 -560.5191106462496 -209.65302240502234 -107.13835201931407 0.0 0.0
24.38025637491854 -78.69393629302512 -15.793090098733447 -168.3942406265534 0.0 0.0
-10.253297098947554 1.2766524185727823 -2.6926743715717256 -165.20060340889574 0.0 0.0
10.84408781399894 19.524192874527685 9.110648008664045 -156.95653354688278 0.0 0.0
39.50098938205603 13.540605735072782 15.913470649308124 -158.55162259464004 0.0 0.0
68.66558235624696 5.2406013485181395 22.14125054338907 -168.62604360270052 0.0 0.0
102.26828878927076 0.09781805504497809 30.56231772206877 -182.97824373207393 0.0 0.0
147.73500145238955 -1.4937238983205043 43.948771615381645 -188.9857737022334 0.0 0.0
214.7932577424191 -4.366235950506717 63.27218347922865 -187.2090559996071 0.0 0.0
289.4264674644264 -11.293064644321255 86.23534659234822 -177.74118321054726 0.0 0.0
360.9977860767587 -16.41378167665011 111.58034158707073 -169.6112096544633 0.0 0.0
417.2395877593552 -15.490018232916777 138.84134893953978 -158.14833563568337 0.0 0.0
460.63272810527747 -6.0012792775434285 168.3519709697566 -150.85980951075084 0.0 0.0
498.4702466669346 5.669270481019218 197.25989238913726 -145.91813856417087 0.0 0.0
532.8106664617792 19.717763393842365 226.49823632920106 -143.50050174419985 0.0 0.0
565.9284814424858 28.643262047872323 254.28794399517417 -144.67642538588711 0.0 0.0
600.4157512506487 34.64699591107436 282.19873945304505 -143.57980261360237 0.0 0.0
636.1846064207829 37.41332402073137 308.03690607795363 -136.47598531773275 0.0 0.0
672.8745593231172 36.13781152947996 330.2422916729637 -123.49944541080811 0.0 0.0
725.5444151315486 48.51019085198264 365.7981372400108 -108.45328702378646 0.0 0.0
283.15753916063983 -373.4056927247162 -32.446050352132474 3.399236447876319e-11 0.0 0.0
725.5444151310895 48.5101908516109 365.7981372397452 108.4532870239344 0.0 0.0
672.8745593226057 36.13781152896242 330.24229167262746 123.49944541109858 0.0 0.0
636.1846064208003 37.41332402076361 308.0369060779827 136.47598531796928 0.0 0.0
600.4157512505575 34.64699591117237 282.19873945294887 143.57980261373416 0.0 0.0
565.9284814423073 28.64326204766545 254.28794399504426 144.6764253858936 0.0 0.0
532.8106664616251 19.71776339373457 226.4982363291025 143.50050174418936 0.0 0.0
498.4702466665428 5.669270480649541 197.25989238885464 145.91813856415445 0.0 0.0
460.63272810511364 -6.001279277680286 168.35197096962023 150.8598095108324 0.0 0.0
417.23958775960546 -15.490018232267284 138.84134893975906 158.1483356357174 0.0 0.0
360.99778607627945 -16.413781677195303 111.58034158672451 169.61120965438715 0.0 0.0
289.4264674641598 -11.293064644203808 86.23534659229036 177.741183210477 0.0 0.0
214.79325774232396 -4.366235950172721 63.27218347929288 187.20905599961807 0.0 0.0
147.735001452102 -1.493723898554868 43.94877161522284 188.98577370216734 0.0 0.0
102.2682887892482 0.09781805526523701 30.562317722129457 182.97824373181908 0.0 0.0
68.66558235615636 5.240601348373326 22.141250543319053 168.62604360249006 0.0 0.0
39.500989381943974 13.540605734730402 15.913470649171924 158.55162259443622 0.0 0.0
10.844087813979504 19.524192874401 9.11064800862017 156.95653354672214 0.0 0.0
-10.253297098882726 1.2766524187160864 -2.6926743715095385 165.2006034087578 0.0 0.0
24.380256374758392 -78.69393629309225 -15.79309009880971 168.39424062632628 0.0 0.0
-126.55988375062917 -560.519110645522 -209.65302240468657 107.13835201928167 0.0 0.0
-103.36002574143916 -447.4374704009257 -165.53031406606993 -106.28555155619954 0.0 0.0
-4.753721275704326 -89.22221102945882 -28.154985376558137 -158.00231123703497 0.0 0.0
-32.325978429308094 -1.5811673351073092 -10.168681974819869 -169.29586532950066 0.0 0.0
-27.191201055216915 18.289934488285684 -2.669655019538401 -163.2234143412852 0.0 0.0
-15.264608133405401 15.13700773708774 -0.03785218056293305 -163.72099070219213 0.0 0.0
-6.292018731069049 8.312067317879839 0.6067602443375848 -172.67817266871882 0.0 0.0
-2.256070789670222 2.186600967465968 -0.025883985406377263 -187.19107599708525 0.0 0.0
-0.4240903777054008 0.3116754308101397 -0.0322611107575943 -193.58663697424606 0.0 0.0
0.0138922661901546 -0.14160679556933964 -0.03805027757811352 -191.93255789404944 0.0 0.0
0.1301499155694259 -0.018889836517211656 0.039255983273127626 -181.52820582090501 0.0 0.0
0.3089731423685862 -0.3546012534641392 -0.13590278060754812 -174.92954607688625 0.0 0.0
-0.40349589034390476 0.3088730389556833 0.025960082906035353 -171.2614885115578 0.0 0.0
-1.6385811566986064 0.9550989565303709 -0.07715898436111956 -170.42707216769296 0.0 0.0
-2.777704456634879 1.5082255033734278 -0.13710231791336724 -167.81484033103715 0.0 0.0
1.5833344327236176 0.8706092034821964 0.7390603458616098 -162.6479124089114 0.0 0.0
13.91883322632782 4.135082921431355 2.6589860955111035 -154.10187869572053 0.0 0.0
46.41869309441533 11.119646735372704 7.402151914891618 -147.7225284734037 0.0 0.0
129.19511028528547 8.62663039885399 15.561319008614781 -142.9926379261873 0.0 0.0
295.91533777020913 -53.116037279536116 34.876003541750826 -139.12097276892302 0.0 0.0
444.32919690648725 -36.28898342906051 143.22262688167595 -147.63817193290936 0.0 0.0
-236.7131566754896 -538.2055720576416 -319.53682548801225 -2.3568702545162523e-11 0.0 0.0
444.32919690656865 -36.28898342895981 143.2226268816804 147.63817193293465 0.0 0.0
295.9153377698281 -53.11603727991363 34.87600354149774 139.1209727695654 0.0 0.0
129.19511028516942 8.626630398073956 15.561319008427105 142.99263792665005 0.0 0.0
46.4186930946963 11.119646735774062 7.402151915094876 147.72252847355878 0.0 0.0
13.91883322665339 4.135082921667085 2.6589860957086344 154.10187869568196 0.0 0.0
1.5833344327226655 0.8706092030081045 0.73906034572002 162.64791240895084 0.0 0.0
-2.7777044563830913 1.5082255034219898 -0.1371023178211317 167.81484033108813 0.0 0.0
-1.6385811564318047 0.9550989562003913 -0.07715898438654634 170.42707216785413 0.0 0.0
-0.40349588981246143 0.30887303936733446 0.025960083189591643 171.2614885115622 0.0 0.0
0.308973142356912 -0.35460125399344555 -0.13590278076344298 174.9295460768629 0.0 0.0
0.13014991554375044 -0.01888983704854219 0.039255983105910275 181.52820582080284 0.0 0.0
0.0138922663044454 -0.14160679559919442 -0.038050277550114586 191.93255789410975 0.0 0.0
-0.42409037752031686 0.31167543107251516 -0.032261110621568 193.58663697414372 0.0 0.0
-2.2560707894442356 2.1866009678007243 -0.025883985237992402 187.19107599687558 0.0 0.0
-6.292018730873148 8.312067318085024 0.6067602444576847 172.67817266850386 0.0 0.0
-15.26460813336939 15.137007737005836 -0.03785218057681927 163.72099070202933 0.0 0.0
-27.191201055282104 18.289934488109857 -2.6696550196110023 163.22341434110683 0.0 0.0
-32.32597842935924 -1.581167335231548 -10.168681974872745 169.2958653293626 0.0 0.0
-4.753721275766968 -89.22221102953176 -28.15498537659541 158.00231123689068 0.0 0.0
-103.36002574131597 -447.4374704002582 -165.53031406586106 106.28555155605875 0.0 0.0
-85.01221275439707 -351.98783865610005 -131.09146252813602 -100.03855221647603 0.0 0.0
-23.644287769496813 -92.19038442176641 -34.751665229179366 -148.6076913275009 0.0 0.0
-52.769397136791525 -4.120788163775656 -17.06779103444387 -169.35387447691377 0.0 0.0
-63.4493180748672 16.973161157060318 -13.941303881874063 -165.35870894361895 0.0 0.0
-68.88143058409543 16.099385609847534 -15.83306939056996 -164.64759383659992 0.0 0.0
-80.24621550861524 11.11348656877346 -20.7458357243249 -170.98883368265118 0.0 0.0
-106.92408845654037 4.49593636498477 -30.49460115852665 -184.99990204049882 0.0 0.0
-148.69052788102044 1.9914292811984744 -44.094014408890665 -189.22164723554525 0.0 0.0
-214.62488861052674 4.047509559991894 -63.33375281730028 -187.1744653574359 0.0 0.0
-289.19543395562584 11.213183686036675 -86.17901202399389 -177.70913083019164 0.0 0.0
-361.9601811829656 17.044329676623637 -111.22618794335641 -169.87690378175512 0.0 0.0
-417.1153686470729 15.406298503275462 -139.02285034405577 -158.0834665942686 0.0 0.0
-461.29073360195326 6.094119819962742 -168.87985936108518 -150.3444607816005 0.0 0.0
-499.4302815336777 -5.247358569430446 -197.86457885964217 -145.2479517392515 0.0 0.0
-531.4325138408209 -15.715208010508306 -223.90100764241657 -143.49007120817132 0.0 0.0
-554.7403360917708 -17.13411744708592 -239.74723379545264 -146.12379377475676 0.0 0.0
-565.7063553976957 -12.563517319046525 -242.08733160802876 -152.11920710035128 0.0 0.0
-563.7647341902652 -0.42368292767015703 -225.33603498683178 -163.2141834650072 0.0 0.0
-550.5704841988464 31.45254096075363 -188.39505907394766 -169.32633231310263 0.0 0.0
-337.96648120308294 44.52087474811718 -94.39414466280947 -112.23180609133699 0.0 0.0
-742.4162367573982 -740.9326573312778 -721.958900814106 -1.1572609537324752e-10 0.0 0.0
-337.96648120347925 44.52087474770598 -94.39414466304686 112.23180609188854 0.0 0.0
-550.5704841985546 31.452540960842427 -188.39505907382295 169.32633231349297 0.0 0.0
-563.7647341909485 -0.4236829286552819 -225.33603498726922 163.21418346530623 0.0 0.0
-565.7063553970133 -12.563517318212767 -242.0873316075165 152.1192071003708 0.0 0.0
-554.7403360908348 -17.134117446047114 -239.74723379478527 146.12379377463836 0.0 0.0
-531.4325138406781 -15.715208010574319 -223.90100764226386 143.49007120820022 0.0 0.0
-499.430281533605 -5.247358569519669 -197.8645788595876 145.24795173926628 0.0 0.0
-461.2907336017215 6.094119819930679 -168.87985936092403 150.34446078171524 0.0 0.0
-417.1153686467037 15.406298503272172 -139.02285034383013 158.0834665943174 0.0 0.0
-361.96018118226596 17.044329676650662 -111.22618794309909 169.87690378174318 0.0 0.0
-289.1954339553204 11.213183685299018 -86.1790120240988 177.70913083012655 0.0 0.0
-214.62488861001242 4.047509559921519 -63.33375281716814 187.17446535748698 0.0 0.0
-148.6905278805476 1.9914292815657917 -44.09401440863358 189.2216472354729 0.0 0.0
-106.92408845610461 4.495936365447657 -30.49460115825942 184.99990204029868 0.0 0.0
-80.24621550831861 11.113486569064147 -20.745835724151302 170.98883368233362 0.0 0.0
-68.88143058390577 16.099385609984253 -15.833069390471886 164.64759383645682 0.0 0.0
-63.44931807490054 16.973161156776385 -13.941303881969727 165.3587089433655 0.0 0.0
-52.76939713680798 -4.120788163889688 -17.067791034483367 169.35387447674208 0.0 0.0
-23.644287769515405 -92.1903844217095 -34.751665229166846 148.60769132737906 0.0 0.0
-85.01221275432063 -351.98783865567043 -131.09146252798914 100.03855221635257 0.0 0.0
-68.67324038509184 -269.64563375976377 -101.49566224345668 -90.06696880933343 0.0 0.0
-37.37225378340178 -89.46506123039677 -38.05127076476654 -138.269236384944 0.0 0.0
-71.60032651641261 -5.984541656008359 -23.275888247672164 -165.4883618660729 0.0 0.0
-98.00517879414008 15.446485282632317 -24.7694683916733 -163.2887945341749 0.0 0.0
-120.97506666332356 16.418276220318834 -31.36766176325146 -161.06726764935453 0.0 0.0
-153.92702945854964 13.750173085769632 -41.85682841314335 -166.30922237377357 0.0 0.0
-208.72459435992792 5.445415713111132 -60.810399219035816 -171.59175315689868 0.0 0.0
-294.72333102290634 4.748544437902508 -87.42627681506723 -175.8300520773399 0.0 0.0
-385.32242612728936 -2.3972865185522565 -128.01479229003695 -162.66803911339656 0.0 0.0
-463.9754276077494 -10.93722954356074 -176.0235962069919 -151.5913747076817 0.0 0.0
-525.3620846445642 -19.21417433870332 -222.8449292687283 -142.8874797837826 0.0 0.0
-576.3197354371677 -26.696445486635596 -263.22963945325637 -137.74522622196443 0.0 0.0
-622.3984655021987 -38.31432251513062 -301.2820936919296 -133.75759455141508 0.0 0.0
-662.873297919835 -47.97680029629501 -333.31399113869384 -130.4248037416557 0.0 0.0
-698.4212602454436 -54.91741115246534 -358.97386053363147 -128.49115111153313 0.0 0.0
-724.3528650440699 -55.35546502553872 -374.6686207203656 -129.02831109528157 0.0 0.0
-736.8987267235058 -48.20626293863684 -378.6047791263259 -133.1963604647452 0.0 0.0
-734.7295891233068 -37.057635466920104 -372.5957040865211 -141.6112476943047 0.0 0.0
-707.9751866430225 -11.455160801932891 -348.2426738080463 -151.3197292530711 0.0 0.0
-674.8255300073756 8.07907513226747 -323.03766520191857 -152.34907849168437 0.0 0.0
-1424.25063516088 -995.1728599877497 -1156.4922926215665 2.993161274389422e-11 0.0 0.0
-674.8255300077603 8.079075131621977 -323.0376652022212 152.34907849201664 0.0 0.0
-707.9751866423317 -11.455160801356996 -348.2426738075638 151.31972925326386 0.0 0.0
-734.7295891234555 -37.05763546735003 -372.5957040866322 141.61124769459025 0.0 0.0
-736.8987267232496 -48.20626293847041 -378.60477912621235 133.19636046487128 0.0 0.0
-724.3528650439566 -55.35546502543976 -374.6686207202894 129.02831109530737 0.0 0.0
-698.4212602449829 -54.91741115210377 -358.97386053329024 128.4911511115077 0.0 0.0
-662.8732979198045 -47.9768002964756 -333.3139911386428 130.42480374168872 0.0 0.0
-622.398465502181 -38.314322515347605 -301.2820936918792 133.75759455146448 0.0 0.0
-576.3197354368714 -26.69644548664484 -263.2296394530126 137.74522622197188 0.0 0.0
-525.3620846442843 -19.214174338747302 -222.84492926851584 142.88747978381832 0.0 0.0
-463.9754276072385 -10.937229543448478 -176.02359620662017 151.59137470763804 0.0 0.0
-385.3224261268028 -2.3972865186114105 -128.01479228980617 162.6680391135352 0.0 0.0
-294.7233310222064 4.7485444382570385 -87.4262768147302 175.8300520772766 0.0 0.0
-208.72459435945262 5.445415713182817 -60.81039921887804 171.59175315674776 0.0 0.0
-153.92702945818266 13.750173085919094 -41.85682841299013 166.30922237352976 0.0 0.0
-120.97506666322673 16.418276220189416 -31.367661763262298 161.06726764919802 0.0 0.0
-98.0051787940976 15.446485282512858 -24.769468391696964 163.28879453399708 0.0 0.0
-71.6003265163178 -5.984541655967357 -23.275888247631485 165.48836186591564 0.0 0.0
-37.37225378340218 -89.46506123035046 -38.0512707647527 138.26923638480963 0.0 0.0
-68.67324038499983 -269.64563375940185 -101.49566224332047 90.0669688092209 0.0 0.0
-55.313523827362786 -199.48062829208715 -76.43824563583499 -78.8805585065605 0.0 0.0
-48.00295863716711 -82.41737094277214 -39.126098873981775 -126.15165336133691 0.0 0.0
-89.2126614450388 -7.089853193452694 -28.891758878842822 -157.6719586569878 0.0 0.0
-130.9683415442675 13.756546113988932 -35.16090389940469 -157.1193758903438 0.0 0.0
-171.6191496586081 16.094732176415118 -46.610235609763606 -153.4141695548229 0.0 0.0
-223.69904878075707 13.768096140478617 -62.9986136106653 -152.37628676563838 0.0 0.0
-311.4126321615555 7.098471654637212 -90.87493510425875 -157.05707425254576 0.0 0.0
-407.0844327030288 -7.054377470291421 -136.3306420964414 -145.16859816004657 0.0 0.0
-495.64726293996284 -19.387497784708348 -194.37008324581797 -137.6810858396901 0.0 0.0
-566.1559755511983 -25.838228820753315 -249.4469281523815 -133.87085200346212 0.0 0.0
-619.8449305622113 -36.15407576483798 -297.03975710731106 -127.85104228129327 0.0 0.0
-668.7674325848188 -48.502778822382425 -337.8966097631506 -123.65670470315578 0.0 0.0
-717.0015760179054 -63.66688125842363 -375.71096870706606 -119.80899415584437 0.0 0.0
-761.8287598161504 -78.3129192775417 -409.1218546089529 -116.24365152950763 0.0 0.0
-802.472512387289 -89.56353430806423 -436.8628395845775 -113.96432144843105 0.0 0.0
-832.4363940677001 -93.1086339056728 -454.4761149393979 -114.38109930545608 0.0 0.0
-846.9441483114015 -84.81855617489816 -458.16239767800556 -118.797927624907 0.0 0.0
-837.5679945505863 -60.87494545774938 -442.4401329513796 -126.64080910643219 0.0 0.0
-803.9431789293506 -23.075121483436078 -408.4444999540591 -134.32975956541478 0.0 0.0
-728.8115184183612 39.205944227062815 -345.6261576520957 -139.61754048960688 0.0 0.0
-1853.9335673331548 -1228.7184695376911 -1497.6700750679497 8.15170153600775e-11 0.0 0.0
-728.811518418466 39.20594422683155 -345.62615765223234 139.61754048981757 0.0 0.0
-803.9431789289958 -23.075121483152756 -408.44449995384275 134.32975956555887 0.0 0.0
-837.567994549712 -60.87494545696043 -442.44013295074984 126.64080910657898 0.0 0.0
-846.9441483115509 -84.8185561751765 -458.16239767813823 118.79792762498248 0.0 0.0
-832.4363940680408 -93.10863390622677 -454.47611493961733 114.3810993055534 0.0 0.0
-802.4725123871906 -89.56353430805709 -436.86283958443573 113.96432144846428 0.0 0.0
-761.8287598159282 -78.31291927751786 -409.1218546088195 116.24365152954931 0.0 0.0
-717.0015760177555 -63.66688125846936 -375.7109687069286 119.80899415590676 0.0 0.0
-668.7674325846052 -48.50277882242619 -337.89660976296307 123.65670470318423 0.0 0.0
-619.8449305621762 -36.15407576511309 -297.0397571072542 127.85104228127811 0.0 0.0
-566.155975550772 -25.83822882062223 -249.44692815201347 133.87085200340707 0.0 0.0
-495.6472629394609 -19.387497784617693 -194.37008324543245 137.68108583970377 0.0 0.0
-407.08443270255214 -7.054377470265577 -136.33064209617555 145.1685981601318 0.0 0.0
-311.41263216105807 7.0984716544117195 -90.8749351041753 157.05707425245848 0.0 0.0
-223.69904878045304 13.768096140246797 -62.99861361065567 152.37628676544514 0.0 0.0
-171.61914965835376 16.094732176477656 -46.61023560966756 153.41416955464078 0.0 0.0
-130.9683415442266 13.756546113740825 -35.1609038994676 157.11937589022355 0.0 0.0
-89.21266144494494 -7.089853193433927 -28.89175887880873 157.67195865683988 0.0 0.0
-48.00295863715736 -82.41737094280336 -39.12609887398821 126.15165336120745 0.0 0.0
-55.31352382724678 -199.4806282917619 -76.43824563570259 78.88055850645493 0.0 0.0
-45.18708299262737 -140.76707242574489 -55.78624662551167 -67.2432265036154 0.0 0.0
-56.59957401478296 -72.44934388503336 -38.71467536994489 -112.1918452284454 0.0 0.0
-105.87319791366987 -7.298914217916913 -33.95218465493433 -146.0193260699561 0.0 0.0
-162.45660819430452 11.76044105500818 -45.2149289377807 -146.68417684874078 0.0 0.0
-219.66997137588592 14.861029198969232 -61.4196773823339 -140.9266756248781 0.0 0.0
-297.37288105183023 15.047011768325783 -83.6083944150428 -138.5710456357 0.0 0.0
-396.9273037958073 -1.338683654589194 -124.98882378760985 -128.53165756348076 0.0 0.0
-493.74260965722016 -19.1400564571708 -185.68318544756215 -120.76791575717708 0.0 0.0
-574.751648733354 -27.19133792720253 -248.96030148070764 -118.82990024297122 0.0 0.0
-631.6721125641205 -40.127055483945085 -304.8073915581926 -113.99124941321281 0.0 0.0
-686.8169217576731 -51.9158537418619 -350.405135945253 -111.56023512404082 0.0 0.0
-737.9927992166904 -68.13654510396404 -391.07409233901 -108.15918559440955 0.0 0.0
-789.6292273546655 -87.99950266732374 -430.4359310142712 -104.62088490456789 0.0 0.0
-839.7609711052839 -107.73479780878027 -467.15588160660127 -101.30491199519903 0.0 0.0
-885.6155758571151 -124.22222182592728 -499.0157860390966 -98.90484416962471 0.0 0.0
-921.0731466212454 -130.6773333751475 -520.2408558944492 -99.14147106431265 0.0 0.0
-934.6587817202818 -121.10632367703518 -522.7443367308564 -102.5601348126725 0.0 0.0
-917.3168222940604 -85.26532731580969 -497.0260198697247 -109.23549559886823 0.0 0.0
-863.4379004689683 -24.039891776347332 -441.30020280718804 -116.54517751659206 0.0 0.0
-757.5237459547945 70.35869837162066 -346.40112126334026 -123.33132050391644 0.0 0.0
-2187.2263944555966 -1462.555225257845 -1788.8646232361875 1.47434064956542e-10 0.0 0.0
-757.5237459547172 70.35869837164458 -346.4011212632439 123.3313205040777 0.0 0.0
-863.4379004690567 -24.03989177659045 -441.3002028072463 116.54517751679343 0.0 0.0
-917.3168222936773 -85.26532731551828 -497.0260198694229 109.23549559905372 0.0 0.0
-934.6587817199993 -121.10632367680273 -522.7443367306553 102.56013481267324 0.0 0.0
-921.0731466207872 -130.67733337479314 -520.2408558940922 99.14147106430076 0.0 0.0
-885.6155758569125 -124.22222182584503 -499.015786038849 98.90484416965928 0.0 0.0
-839.7609711052473 -107.73479780891952 -467.1558816065935 101.30491199525599 0.0 0.0
-789.6292273542555 -87.99950266706432 -430.435931013949 104.62088490456215 0.0 0.0
-737.9927992163776 -68.13654510385946 -391.0740923387411 108.159185594413 0.0 0.0
-686.8169217573154 -51.91585374163061 -350.40513594498134 111.56023512388805 0.0 0.0
-631.6721125637224 -40.12705548384082 -304.80739155786097 113.99124941315962 0.0 0.0
-574.7516487327814 -27.191337926889805 -248.96030148019605 118.82990024292127 0.0 0.0
-493.7426096567679 -19.14005645712753 -185.68318544721163 120.76791575714297 0.0 0.0
-396.92730379519116 -1.3386836543957785 -124.98882378729536 128.53165756343276 0.0 0.0
-297.37288105142324 15.047011768164744 -83.60839441498347 138.5710456355693 0.0 0.0
-219.6699713756147 14.861029198949689 -61.419677382263075 140.9266756247059 0.0 0.0
-162.45660819419194 11.760441054871531 -45.214928937788294 146.68417684859477 0.0 0.0
-105.87319791350902 -7.2989142178497435 -33.95218465486567 146.01932606982132 0.0 0.0
-56.59957401471648 -72.44934388497771 -38.71467536990825 112.1918452283106 0.0 0.0
-45.187082992606406 -140.76707242560335 -55.78624662546292 67.24322650352849 0.0 0.0
-38.08624855851767 -93.0735830459955 -39.34794948135395 -55.34712757261822 0.0 0.0
-63.66217130249384 -60.772216255866425 -37.33031626750809 -96.51725338957164 0.0 0.0
-121.67924763422948 -6.628009680889278 -38.492471564213815 -130.64670581160456 0.0 0.0
-192.5693409044897 9.619381493787913 -54.889029396885014 -132.21885582685562 0.0 0.0
-265.18632153550584 12.346570873105309 -75.94612723258322 -123.94278632504597 0.0 0.0
-365.91604655106875 10.798076369615536 -106.26201621169045 -116.94253979679912 0.0 0.0
-469.2024995101022 -11.37919720059381 -161.15693359304348 -103.1065218256121 0.0 0.0
-562.7962007210006 -25.309601728662376 -229.94630096122586 -100.10675203800879 0.0 0.0
-625.2154538736066 -38.194956947872015 -294.0284509088941 -97.28439765027794 0.0 0.0
-685.8385350276426 -49.91817405749252 -346.6598498211997 -96.66093034963812 0.0 0.0
-740.8176988803498 -66.84659270696815 -391.93377057001413 -94.60899822917018 0.0 0.0
-795.6844533064259 -87.79428236744755 -434.32810943480575 -91.80424054950393 0.0 0.0
-851.7029371717036 -112.10147933564487 -476.538151120273 -88.81485629689634 0.0 0.0
-906.4897647665424 -135.9289988254613 -516.6993087614796 -85.9427682788551 0.0 0.0
-957.8482199803223 -157.4378158526383 -553.3110873881988 -83.69532747390377 0.0 0.0
-998.1045739569997 -169.1187803500991 -579.4079639224894 -83.06725167640711 0.0 0.0
-1012.1820821261972 -156.002766638099 -580.3267126941089 -85.39668339797731 0.0 0.0
-983.6749416630622 -107.81678757845631 -542.8707028052855 -90.75207190092378 0.0 0.0
-906.1479333931215 -22.28300110838576 -463.06845850378215 -97.90314971552235 0.0 0.0
-773.464765428388 99.37727899629385 -340.119482144841 -108.21220412143221 0.0 0.0
-2482.7387405416584 -1693.2808104465535 -2057.5120085561316 5.843148187523184e-11 0.0 0.0
-773.4647654282953 99.37727899630951 -340.11948214468214 108.21220412159757 0.0 0.0
-906.1479333925508 -22.28300110789128 -463.0684585034049 97.9031497156779 0.0 0.0
-983.6749416630037 -107.81678757850322 -542.870702805237 90.75207190105749 0.0 0.0
-1012.1820821258955 -156.00276663788262 -580.3267126938983 85.39668339804406 0.0 0.0
-998.104573956507 -169.11878034966995 -579.4079639220835 83.06725167639158 0.0 0.0
-957.848219979395 -157.43781585184004 -553.3110873874759 83.69532747392687 0.0 0.0
-906.4897647663271 -135.92899882540297 -516.699308761272 85.94276827892251 0.0 0.0
-851.7029371715164 -112.10147933565533 -476.5381511201695 88.81485629696974 0.0 0.0
-795.6844533059088 -87.79428236712803 -434.32810943441655 91.80424054952006 0.0 0.0
-740.8176988796488 -66.84659270646202 -391.93377056951545 94.6089982291212 0.0 0.0
-685.8385350273963 -49.91817405751763 -346.65984982096904 96.66093034963612 0.0 0.0
-625.2154538733535 -38.194956947901694 -294.02845090858165 97.28439765025169 0.0 0.0
-562.7962007207541 -25.30960172876742 -229.94630096093172 100.1067520379793 0.0 0.0
-469.202499509412 -11.379197200224626 -161.15693359257847 103.10652182554622 0.0 0.0
-365.91604655051043 10.798076369648332 -106.26201621151307 116.94253979671137 0.0 0.0
-265.18632153524266 12.346570873009432 -75.94612723253624 123.94278632488654 0.0 0.0
-192.56934090412057 9.61938149412842 -54.889029396672086 132.21885582675614 0.0 0.0
-121.67924763416781 -6.628009680972131 -38.492471564220054 130.6467058114863 0.0 0.0
-63.66217130245505 -60.77221625576871 -37.33031626746712 96.51725338943524 0.0 0.0
-38.0862485585124 -93.07358304594518 -39.347949481337274 55.34712757257035 0.0 0.0
-33.61456110787639 -56.21396360839887 -26.948557414882572 -43.302431777538686 0.0 0.0
-69.23859238633408 -48.346083918467805 -35.27540289144055 -79.28346404635002 0.0 0.0
-136.6130626721312 -5.3306572932488 -42.58311598961399 -111.66941413427065 0.0 0.0
-221.24564569784047 7.491300707737391 -64.13233356874879 -113.58120143891841 0.0 0.0
-312.81324314191056 9.395397054173435 -90.62475574632224 -104.5096003238305 0.0 0.0
-420.8283173011966 -1.7031621802777828 -132.02484716854752 -88.01142072215391 0.0 0.0
-531.6067228398205 -17.927214020105097 -196.31958868524248 -80.26890485994686 0.0 0.0
-605.9074847997962 -33.25963507373985 -268.4077738170436 -78.80986518749735 0.0 0.0
-670.4536750501225 -44.08353614406204 -329.3042758890588 -78.96838023524666 0.0 0.0
-729.4928257661239 -60.5817348731727 -380.763695815673 -78.41912109055316 0.0 0.0
-787.5315523113719 -81.75570357098309 -426.8911461223736 -77.08463230431758 0.0 0.0
-846.634538217672 -107.21517213664964 -472.0587223694708 -74.94532311767297 0.0 0.0
-907.0437657274254 -135.49164510401408 -517.5671315275565 -72.52978961226214 0.0 0.0
-965.7041650606135 -164.2656995320474 -561.6741263874561 -70.15093328727401 0.0 0.0
-1021.0579090576306 -188.785456958687 -601.5934573113582 -68.16848976827431 0.0 0.0
-1066.4512797660027 -204.20797728335634 -631.9814935856781 -66.96570028258958 0.0 0.0
-1083.2851668711987 -193.86355496354 -635.6274936614885 -67.38602108587254 0.0 0.0
-1045.1117637960472 -134.04462745832126 -587.5762051665376 -71.26806974843525 0.0 0.0
-942.5715461591872 -21.80687234123009 -481.73597355321044 -79.53713689410593 0.0 0.0
-777.5922054324107 131.37063128834325 -325.8048852383239 -94.84283529089551 0.0 0.0
-2751.5716048491986 -1914.846329602486 -2307.33595582198 6.284750497798086e-12 0.0 0.0
-777.5922054327059 131.37063128790388 -325.80488523850613 94.84283529116182 0.0 0.0
-942.5715461587946 -21.806872340884254 -481.73597355293424 79.53713689425152 0.0 0.0
-1045.1117637958055 -134.04462745815758 -587.5762051663723 71.26806974855404 0.0 0.0
-1083.2851668710957 -193.86355496350757 -635.6274936613798 67.38602108591672 0.0 0.0
-1066.4512797655434 -204.20797728299425 -631.9814935852652 66.96570028257044 0.0 0.0
-1021.0579090569377 -188.785456958093 -601.5934573108774 68.16848976830391 0.0 0.0
-965.7041650604921 -164.26569953206575 -561.6741263872641 70.15093328730018 0.0 0.0
-907.0437657271099 -135.49164510389426 -517.567131527371 72.52978961231403 0.0 0.0
-846.6345382174409 -107.21517213664443 -472.05872236928326 74.94532311776071 0.0 0.0
-787.5315523105129 -81.7557035702977 -426.8911461217705 77.08463230426985 0.0 0.0
-729.4928257663232 -60.58173487364187 -380.76369581572857 78.41912109053995 0.0 0.0
-670.4536750497322 -44.08353614394866 -329.3042758886843 78.9683802352363 0.0 0.0
-605.907484799843 -33.259635074219936 -268.40777381692413 78.80986518753541 0.0 0.0
-531.6067228391397 -17.92721401974644 -196.319588684719 80.26890485992222 0.0 0.0
-420.82831730060695 -1.7031621801229544 -132.02484716827902 88.01142072206827 0.0 0.0
-312.81324314157126 9.395397054105235 -90.62475574624717 104.50960032376591 0.0 0.0
-221.24564569745658 7.491300708098907 -64.13233356852422 113.58120143880875 0.0 0.0
-136.61306267209602 -5.330657293438786 -42.583115989660435 111.66941413415061 0.0 0.0
-69.23859238622198 -48.3460839184437 -35.27540289139971 79.28346404627742 0.0 0.0
-33.614561107723716 -56.21396360829478 -26.948557414805553 43.30243177750665 0.0 0.0
-31.13047281499278 -30.09896466538985 -18.368831244114787 -31.384654878965762 0.0 0.0
-72.98990236914054 -36.00255786997859 -32.697738071735735 -60.68619532359057 0.0 0.0
-150.3794119098913 -3.7669022670895944 -46.24389425309426 -89.02551900173229 0.0 0.0
-248.93657079962634 5.281498274317416 -73.09984273506913 -90.74325286027644 0.0 0.0
-361.13759567227925 4.937947867695508 -105.94423299381509 -80.32515929450335 0.0 0.0
-478.86185909367487 -9.372695047534195 -158.10756550476415 -63.482252095810644 0.0 0.0
-573.4212863603209 -25.652203036984986 -230.043563020946 -59.193220915647906 0.0 0.0
-642.6944335966457 -36.37413696516549 -299.03600117116974 -59.37550541247519 0.0 0.0
-706.5578409390363 -51.466783159303105 -358.7839880665033 -59.892704836089166 0.0 0.0
-767.4247171493995 -71.28014165819174 -409.6188856329194 -59.8495815405065 0.0 0.0
-828.6973327292035 -96.70365656275453 -457.54791491804104 -59.016858543239806 0.0 0.0
-892.3119638840042 -126.5988337913698 -506.12481376672946 -57.480438784303345 0.0 0.0
-956.8660485035208 -159.9351745676023 -555.7322751265596 -55.558482379960786 0.0 0.0
-1019.6302395469886 -190.60169728461423 -602.5811059334094 -53.88714709189258 0.0 0.0
-1076.787657044746 -217.46683341027875 -644.504933199364 -52.35406648883135 0.0 0.0
-1125.0945181171223 -236.33029296851865 -677.9909710766643 -50.724671004599976 0.0 0.0
-1149.656236252939 -232.47257222798126 -688.5713263774323 -49.338514015736784 0.0 0.0
-1110.384369681963 -170.11294978319705 -638.7208332888215 -51.14480278436191 0.0 0.0
-981.2090078787771 -29.713332365659127 -505.4455845362895 -60.94820702942172 0.0 0.0
-768.9649130320663 171.4273971302238 -300.85581208784356 -82.05229849439709 0.0 0.0
-2993.9714927865543 -2117.5293492809174 -2533.9998819502 1.5909051853668643e-11 0.0 0.0
-768.9649130322383 171.42739712998994 -300.8558120879269 82.05229849449009 0.0 0.0
-981.2090078791797 -29.713332366116987 -505.44558453655696 60.94820702952856 0.0 0.0
-1110.3843696818872 -170.1129497831995 -638.7208332887236 51.144802784464936 0.0 0.0
-1149.656236253356 -232.47257222848623 -688.5713263777188 49.338514015801614 0.0 0.0
-1125.0945181162501 -236.3302929677379 -677.9909710759434 50.72467100459712 0.0 0.0
-1076.787657044381 -217.46683341002532 -644.5049331991295 52.35406648883274 0.0 0.0
-1019.6302395467758 -190.60169728454213 -602.5811059331646 53.88714709191808 0.0 0.0
-956.8660485033118 -159.93517456757306 -555.7322751264409 55.55848237998189 0.0 0.0
-892.3119638834288 -126.59883379100191 -506.1248137663173 57.48043878436209 0.0 0.0
-828.6973327290738 -96.7036565628103 -457.5479149179335 59.01685854318391 0.0 0.0
-767.4247171491484 -71.28014165819492 -409.61888563270384 59.84958154049063 0.0 0.0
-706.557840938603 -51.466783159123395 -358.7839880661342 59.892704836103604 0.0 0.0
-642.6944335963642 -36.3741369652166 -299.03600117085364 59.37550541250754 0.0 0.0
-573.4212863598802 -25.652203036871878 -230.04356302052958 59.19322091562492 0.0 0.0
-478.86185909317265 -9.372695047386417 -158.10756550446155 63.48225209573393 0.0 0.0
-361.13759567193426 4.937947867615717 -105.94423299374425 80.32515929441797 0.0 0.0
-248.9365707992994 5.281498274651187 -73.09984273487133 90.74325286016102 0.0 0.0
-150.37941190970804 -3.7669022671119556 -46.24389425304601 89.0255190016553 0.0 0.0
-72.98990236901578 -36.00255786997901 -32.697738071698424 60.68619532345932 0.0 0.0
-31.13047281491146 -30.098964665318817 -18.368831244069078 31.384654878924724 0.0 0.0
-29.5349848110206 -14.48617300564569 -13.206347344999884 -20.300259934310706 0.0 0.0
-74.1048442687327 -24.64095202536741 -29.623738888230033 -40.99041318608196 0.0 0.0
-162.52594999827753 -2.503024927149805 -49.50869247762817 -62.31065689429591 0.0 0.0
-276.1010173555254 2.9923343383979457 -81.92803199357729 -63.41444199734568 0.0 0.0
-403.5826162255343 -5.12910116689677 -123.97137351131248 -51.842733121812984 0.0 0.0
-526.2096601544444 -17.123738495380316 -185.28624745960082 -40.3265171336101 0.0 0.0
-602.4133164689656 -30.233047040938622 -258.4699517652348 -38.835830909939 0.0 0.0
-673.6231626787614 -41.26926305216051 -325.8809711821719 -40.07099009675746 0.0 0.0
-737.3679105469618 -59.312184604649055 -383.72811928803617 -40.70838014394712 0.0 0.0
-800.4728578289158 -82.20988032858759 -434.6642640850557 -40.824421103736974 0.0 0.0
-865.8866856017835 -111.55553161575844 -485.2346545542144 -40.39138836361296 0.0 0.0
-933.5829417679114 -146.1252162608091 -537.5340500920977 -39.36388345384145 0.0 0.0
-1002.9038217969985 -182.40836842485487 -590.6686747641883 -38.16188300634397 0.0 0.0
-1068.742177574773 -217.5494419585583 -641.175585783843 -37.017873348027045 0.0 0.0
-1127.5963162479418 -245.30205543895846 -684.3828951537175 -36.00667063662575 0.0 0.0
-1173.7205630175092 -261.4913015197934 -715.4268537358539 -34.60226425478178 0.0 0.0
-1203.1342325177438 -262.9837331218048 -730.8613601750793 -32.28616806183893 0.0 0.0
-1190.823353830667 -226.91294712586975 -707.3688885374164 -31.224754349681746 0.0 0.0
-1041.5367446558218 -63.811086589348335 -552.895777480719 -40.38827273407368 0.0 0.0
-740.6390957756839 228.33328784081334 -257.6857585664625 -68.45957389277649 0.0 0.0
-3194.699738204704 -2282.7644484315765 -2720.8424628215407 4.817479748453479e-11 0.0 0.0
-740.6390957758954 228.3332878405672 -257.6857585665738 68.4595738928635 0.0 0.0
-1041.5367446562332 -63.811086589823475 -552.8957774810247 40.38827273417791 0.0 0.0
-1190.8233538306179 -226.91294712587185 -707.3688885373377 31.224754349737374 0.0 0.0
-1203.1342325182168 -262.98373312237214 -730.8613601754869 32.28616806183426 0.0 0.0
-1173.720563016551 -261.49130151894474 -715.4268537350777 34.60226425488199 0.0 0.0
-1127.596316247261 -245.3020554383761 -684.38289515324 36.00667063665193 0.0 0.0
-1068.7421775743392 -217.54944195826644 -641.1755857834944 37.01787334806 0.0 0.0
-1002.9038217972084 -182.40836842526016 -590.6686747643847 38.16188300643549 0.0 0.0
-933.5829417675511 -146.125216260629 -537.5340500918219 39.36388345387386 0.0 0.0
-865.8866856018046 -111.55553161599359 -485.2346545542007 40.39138836353929 0.0 0.0
-800.4728578283529 -82.20988032824931 -434.66426408461757 40.82442110374387 0.0 0.0
-737.3679105463118 -59.3121846042445 -383.72811928752697 40.708380143958415 0.0 0.0
-673.623162678455 -41.269263052113295 -325.88097118183276 40.07099009673483 0.0 0.0
-602.4133164688867 -30.23304704124846 -258.46995176503 38.83583090990679 0.0 0.0
-526.2096601539853 -17.123738495235788 -185.28624745925651 40.32651713356878 0.0 0.0
-403.58261622513317 -5.129101166973744 -123.9713735112085 51.842733121771026 0.0 0.0
-276.10101735521556 2.9923343385235914 -81.92803199344912 63.41444199731282 0.0 0.0
-162.52594999814278 -2.5030249271045606 -49.50869247757418 62.31065689422998 0.0 0.0
-74.1048442686809 -24.640952025329305 -29.62373888820306 40.99041318602801 0.0 0.0
-29.53498481097236 -14.486173005607808 -13.206347344974054 20.300259934239254 0.0 0.0
-26.736845361750404 -8.50708145189913 -10.573178044094858 -11.641187221145492 0.0 0.0
-71.17564703421445 -15.653843494190074 -26.048847158521358 -20.51800115923398 0.0 0.0
-172.26113658693114 -2.2619959954031157 -52.35693977470029 -30.49723266833395 0.0 0.0
-304.05022082874035 0.7262220557645165 -90.97456079332251 -30.97163510856391 0.0 0.0
-450.65620428978343 -11.854693734406885 -142.7706323276914 -23.296525721113046 0.0 0.0
-559.4621190578891 -24.1949231185038 -211.75704795393307 -19.595871982047825 0.0 0.0
-630.0787554332264 -30.783139567478333 -281.89572960814803 -20.497824856889785 0.0 0.0
-699.4861694531322 -47.07388451235548 -348.9017363495868 -21.179481151024355 0.0 0.0
-764.1286305539214 -67.07905580138969 -404.9704666396309 -21.37112620289492 0.0 0.0
-829.805307071653 -93.51111693803276 -457.0757799018471 -21.372592844996543 0.0 0.0
-899.1227234477234 -126.71797926514886 -510.57201991649225 -21.101370057225832 0.0 0.0
-971.5480386522446 -164.54306692782956 -566.4273720620802 -20.69746232803678 0.0 0.0
-1044.2349509310677 -205.50047361814825 -623.3844690049582 -20.109960446311135 0.0 0.0
-1114.3483863812053 -243.3436904270486 -677.2998035347108 -19.565269527512598 0.0 0.0
-1174.1559223500947 -271.7466451453072 -721.314034378487 -19.089553438395484 0.0 0.0
-1217.0523112114956 -284.72843899855445 -749.179540157306 -18.23109787697084 0.0 0.0
-1239.9867873428407 -280.4307444442595 -758.420672215867 -16.456913926485395 0.0 0.0
-1250.7144917611943 -267.9976838113979 -757.6643600307445 -13.982585925220464 0.0 0.0
-1193.5281070953363 -194.60932457728248 -693.7273112196569 -17.677451064203215 0.0 0.0
-727.6878712791896 268.980970517222 -230.3882042163784 -47.68353832649505 0.0 0.0
-3224.970803839917 -2277.872707104761 -2738.147031223662 -9.540812584418745e-12 0.0 0.0
-727.6878712792445 268.98097051712307 -230.38820421636606 47.683538326553844 0.0 0.0
-1193.528107095364 -194.6093245773605 -693.7273112196644 17.67745106426306 0.0 0.0
-1250.7144917609505 -267.99768381121265 -757.6643600305189 13.982585925274083 0.0 0.0
-1239.9867873431003 -280.430744444595 -758.4206722160849 16.45691392646746 0.0 0.0
-1217.0523112106573 -284.7284389978187 -749.1795401565989 18.231097877048676 0.0 0.0
-1174.155922349649 -271.7466451449612 -721.3140343780952 19.089553438343962 0.0 0.0
-1114.3483863808724 -243.34369042684344 -677.2998035344068 19.565269527484777 0.0 0.0
-1044.2349509308178 -205.50047361807873 -623.3844690047463 20.10996044632095 0.0 0.0
-971.5480386523178 -164.5430669281086 -566.4273720620693 20.69746232809784 0.0 0.0
-899.1227234472761 -126.71797926489734 -510.5720199161667 21.10137005717848 0.0 0.0
-829.8053070714678 -93.51111693809712 -457.0757799016579 21.37259284502325 0.0 0.0
-764.1286305532179 -67.07905580090394 -404.970466639089 21.371126202880767 0.0 0.0
-699.486169452862 -47.07388451235214 -348.90173634928703 21.179481150947133 0.0 0.0
-630.0787554330171 -30.783139567611233 -281.8957296078571 20.497824856857576 0.0 0.0
-559.4621190573946 -24.194923118324162 -211.75704795353482 19.595871981997398 0.0 0.0
-450.65620428941185 -11.854693734518838 -142.77063232756853 23.296525721196865 0.0 0.0
-304.0502208285389 0.7262220555085319 -90.97456079335821 30.971635108605415 0.0 0.0
-172.2611365867695 -2.261995995423409 -52.35693977465787 30.497232668271998 0.0 0.0
-71.17564703405955 -15.653843494025937 -26.048847158425637 20.518001159291607 0.0 0.0
-26.736845361788404 -8.507081451932342 -10.573178044116226 11.641187221087675 0.0 0.0
-16.08183886837822 -4.069029848686437 -6.045260615119398 -7.407513773946976 0.0 0.0
-60.56418154770105 -8.58472360944646 -20.74467154714425 -8.52008401972201 0.0 0.0
-178.1417209466154 -3.235506790567836 -54.413168321154984 -10.445582720988781 0.0 0.0
-338.21692315990356 -9.129236274596824 -104.2029558218226 -10.079591579778242 0.0 0.0
-508.44544858334785 -37.61963831297702 -172.77268592130577 -3.999980262750622 0.0 0.0
-622.5424367717726 -69.21281660454531 -260.2425269459654 -0.738702357052933 0.0 0.0
-706.3187940206158 -92.4328689040486 -346.08673181204387 -0.3639409256778059 0.0 0.0
-796.0301915516122 -131.16443945859854 -433.1303115007443 -0.9813995667790891 0.0 0.0
-887.8705302556824 -179.4542256526085 -515.778752845577 -1.7983144246343432 0.0 0.0
-991.1247875994293 -243.20324894517023 -604.498983667422 -2.7712284827298053 0.0 0.0
-1110.0886217134348 -325.3756199296017 -706.7429353341045 -3.801627974558018 0.0 0.0
-1244.4874851073907 -426.08417470053223 -824.5042418555305 -4.808580931750994 0.0 0.0
-1390.679943059271 -539.1399968847578 -953.6980607542384 -5.477474133684563 0.0 0.0
-1543.2350629872865 -659.1435938929465 -1089.4343671021604 -6.128994433391991 0.0 0.0
-1690.406783869305 -774.6010301215046 -1220.2151081174702 -6.650172716646118 0.0 0.0
-1815.380554683021 -869.5284988902445 -1329.7632570282337 -6.821707351726065 0.0 0.0
-1897.8048591423624 -925.130413167685 -1398.6542396687444 -6.326146995623109 0.0 0.0
-1915.1034874932332 -920.3811113569716 -1405.2346833739125 -4.549704490785135 0.0 0.0
-1900.489977300313 -889.3460875810921 -1382.61145671848 -5.42348238315544 0.0 0.0
-1812.8732991093912 -797.6797244797569 -1289.5598054420366 -34.65849668227965 0.0 0.0
-4768.000935641429 -3792.492647625296 -4250.0033994635105 -2.873434823413845e-11 0.0 0.0
-1812.8732991087868 -797.6797244791805 -1289.559805441502 34.658496682299514 0.0 0.0
-1900.4899773000407 -889.3460875808612 -1382.6114567181776 5.423482383175507 0.0 0.0
-1915.1034874921427 -920.381111355932 -1405.234683372959 4.549704490804714 0.0 0.0
-1897.804859142614 -925.1304131680265 -1398.6542396688003 6.3261469955853755 0.0 0.0
-1815.3805546819226 -869.5284988892383 -1329.7632570272383 6.821707351752359 0.0 0.0
-1690.4067838683986 -774.6010301207176 -1220.2151081165894 6.65017271659103 0.0 0.0
-1543.2350629865591 -659.1435938923612 -1089.4343671014294 6.12899443346457 0.0 0.0
-1390.6799430582091 -539.1399968838546 -953.698060753309 5.477474133683515 0.0 0.0
-1244.487485106888 -426.0841747002369 -824.5042418549995 4.808580931851413 0.0 0.0
-1110.0886217127468 -325.3756199291212 -706.7429353334978 3.8016279745880013 0.0 0.0
-991.1247875991091 -243.20324894509162 -604.4989836670791 2.7712284827989535 0.0 0.0
-887.8705302549329 -179.45422565210282 -515.7787528449694 1.7983144246139773 0.0 0.0
-796.0301915510975 -131.16443945833862 -433.13031150026205 0.981399566792124 0.0 0.0
-706.318794020155 -92.43286890389749 -346.0867318115858 0.3639409256328925 0.0 0.0
-622.5424367711224 -69.21281660415674 -260.24252694540814 0.7387023570227669 0.0 0.0
-508.44544858289476 -37.61963831301014 -172.77268592109436 3.9999802627542635 0.0 0.0
-338.2169231598098 -9.129236274886946 -104.20295582187426 10.079591579870804 0.0 0.0
-178.1417209465154 -3.2355067907058874 -54.413168321166374 10.445582720965035 0.0 0.0
-60.56418154750696 -8.584723609154167 -20.744671546998344 8.520084019678103 0.0 0.0
-16.081838868388672 -4.0690298487306045 -6.045260615135781 7.407513773903855 0.0 0.0
SCALARS Strain float 6
LOOKUP_TABLE default
0.01064140601942019 -0.018679213798159254 0.0 -0.0005829300754656649 0.0 0.0
0.006579443853910065 -0.0012811705521629324 0.0 -0.005699618855277399 0.0 0.0
0.0021540347549119858 -0.0006355074446238438 0.0 -0.0005508115228120183 0.0 0.0
0.001968035970326696 -0.0007859791622261713 0.0 -4.7242169151723755e-05 0.0 0.0
0.002563819461173482 -0.0010222816870099334 0.0 5.228176700752918e-05 0.0 0.0
0.003788133136990123 -0.001880729672319976 0.0 0.00012042191703554265 0.0 0.0
0.005787092478525029 -0.0034889310924884004 0.0 0.0001530301194338061 0.0 0.0
0.008604754831148937 -0.005885197179925111 0.0 0.0001650732139995751 0.0 0.0
0.0123150921659675 -0.00915079308365091 0.0 0.0001675262559630298 0.0 0.0
0.016968084249856737 -0.013290768124214467 0.0 0.00015065046109208878 0.0 0.0
0.02264015142085627 -0.01835308564226613 0.0 0.00015866747362678452 0.0 0.0
0.02947635649434728 -0.02448145302434085 0.0 0.0001879924106060625 0.0 0.0
0.03764495801878237 -0.03187306833384414 0.0 0.00016237991950137482 0.0 0.0
0.047296185134529975 -0.04070345372052304 0.0 0.0001300194850695196 0.0 0.0
0.05847663736081417 -0.05106406314435151 0.0 2.7149576555387817e-05 0.0 0.0
0.07096454400146335 -0.06277891754311128 0.0 -0.0001708761211141282 0.0 0.0
0.08415043005259217 -0.0752763615340201 0.0 -0.00043771820170982454 0.0 0.0
0.09701568597871763 -0.08757581392477673 0.0 -0.0006689757228412687 0.0 0.0
0.10825559349862776 -0.0983960535663147 0.0 -0.0007043410541273023 0.0 0.0
0.11641288549549364 -0.10632894083964362 0.0 -0.0006959886102960613 0.0 0.0
0.11953119384964503 -0.10946914915526004 0.0 2.3227947343329447e-15 0.0 0.0
0.11641288549548298 -0.10632894083962932 0.0 0.0006959886103000352 0.0 0.0
0.108255593498604 -0.09839605356629114 0.0 0.0007043410541313589 0.0 0.0
0.09701568597868272 -0.08757581392474804 0.0 0.0006689757228434626 0.0 0.0
0.08415043005255188 -0.07527636153397962 0.0 0.00043771820171063704 0.0 0.0
0.0709645440014225 -0.06277891754307618 0.0 0.0001708761211129347 0.0 0.0
0.05847663736077295 -0.05106406314431569 0.0 -2.714957655624e-05 0.0 0.0
0.047296185134486954 -0.040703453720481605 0.0 -0.00013001948507137444 0.0 0.0
0.037644958018739245 -0.03187306833380345 0.0 -0.0001623799195015472 0.0 0.0
0.029476356494306993 -0.024481453024305735 0.0 -0.00018799241060868453 0.0 0.0
0.022640151420820986 -0.018353085642231527 0.0 -0.00015866747362907295 0.0 0.0
0.01696808424982777 -0.01329076812419061 0.0 -0.0001506504610931577 0.0 0.0
0.01231509216594475 -0.00915079308363235 0.0 -0.00016752625596359123 0.0 0.0
0.008604754831131795 -0.0058851971799110045 0.0 -0.0001650732140011386 0.0 0.0
0.00578709247851311 -0.0034889310924763545 0.0 -0.0001530301194335228 0.0 0.0
0.0037881331369833847 -0.0018807296723154267 0.0 -0.00012042191703594186 0.0 0.0
0.002563819461170752 -0.001022281687008628 0.0 -5.228176700854994e-05 0.0 0.0
0.0019680359703258257 -0.0007859791622264242 0.0 4.724216915200971e-05 0.0 0.0
0.0021540347549106505 -0.0006355074446245169 0.0 0.0005508115228089009 0.0 0.0
0.006579443853905612 -0.0012811705521611275 0.0 0.0056996188552688315 0.0 0.0
0.010641406019413484 -0.018679213798137445 0.0 0.0005829300754313994 0.0 0.0
0.007152090264036251 -0.01662251485528149 0.0 -0.00013611663361044377 0.0 0.0
0.004267606930692399 -0.0009290301144922698 0.0 -0.0044389048853238295 0.0 0.0
0.0014987485637515487 -0.0005127224652137745 0.0 -0.0003708673577102306 0.0 0.0
0.0017667474961609972 -0.000750645309585917 0.0 -0.0002123558481730219 0.0 0.0
0.00225470244436824 -0.0009438061362678234 0.0 -0.00017007818994737296 0.0 0.0
0.00329772885269237 -0.0016915421092396782 0.0 -0.00018879508677165687 0.0 0.0
0.00508350052373485 -0.0031875188781389555 0.0 -0.00035005003297822526 0.0 0.0
0.0076436231124718795 -0.005450912263079525 0.0 -0.0005506401725192583 0.0 0.0
0.011021828592426423 -0.008550414273885238 0.0 -0.000803265708237948 0.0 0.0
0.015239481061975271 -0.012478921999574425 0.0 -0.001094885061985835 0.0 0.0
0.02034605099752563 -0.01727170750767732 0.0 -0.0013899318654362457 0.0 0.0
0.026463204284436458 -0.02305510053891161 0.0 -0.0016801630379648133 0.0 0.0
0.033777513315175256 -0.030027169550095975 0.0 -0.0020323320820750473 0.0 0.0
0.04245927027910175 -0.03838185904284143 0.0 -0.0024709996662500983 0.0 0.0
0.05256334868848745 -0.04820883061610856 0.0 -0.002992334136336873 0.0 0.0
0.06390097919045311 -0.05934783932368248 0.0 -0.003574846741433433 0.0 0.0
0.07592051736720364 -0.07126288090318453 0.0 -0.004078020849369769 0.0 0.0
0.08770347873517566 -0.08302811201216631 0.0 -0.004230351666393443 0.0 0.0
0.09803659441327471 -0.09341649335458563 0.0 -0.0037728949515761145 0.0 0.0
0.1054103301689333 -0.10098084141101682 0.0 -0.002812799140340055 0.0 0.0
0.10814720014825185 -0.10400900366600131 0.0 5.0862092315639984e-15 0.0 0.0
0.10541033016892276 -0.1009808414110054 0.0 0.002812799140351044 0.0 0.0
0.09803659441325363 -0.09341649335456284 0.0 0.0037728949515871287 0.0 0.0
0.08770347873514567 -0.0830281120121374 0.0 0.004230351666400983 0.0 0.0
0.0759205173671684 -0.07126288090314917 0.0 0.004078020849372348 0.0 0.0
0.06390097919041615 -0.05934783932364676 0.0 0.0035748467414321995 0.0 0.0
0.05256334868845012 -0.048208830616074484 0.0 0.0029923341363366908 0.0 0.0
0.0424592702790633 -0.03838185904280208 0.0 0.0024709996662485786 0.0 0.0
0.033777513315136655 -0.03002716955006162 0.0 0.002032332082073809 0.0 0.0
0.02646320428440018 -0.02305510053887652 0.0 0.0016801630379620059 0.0 0.0
0.020346050997493842 -0.017271707507645884 0.0 0.0013899318654322047 0.0 0.0
0.015239481061949122 -0.012478921999550537 0.0 0.0010948850619826402 0.0 0.0
0.011021828592405575 -0.008550414273866346 0.0 0.0008032657082357693 0.0 0.0
0.007643623112456213 -0.005450912263064486 0.0 0.0005506401725178843 0.0 0.0
0.0050835005237243065 -0.0031875188781292506 0.0 0.00035005003297736473 0.0 0.0
0.0032977288526864043 -0.001691542109235845 0.0 0.0001887950867723116 0.0 0.0
0.00225470244436585 -0.0009438061362666158 0.0 0.0001700781899466213 0.0 0.0
0.001766747496160056 -0.0007506453095864299 0.0 0.00021235584817282463 0.0 0.0
0.001498748563751225 -0.0005127224652144793 0.0 0.00037086735770850836 0.0 0.0
0.004267606930687287 -0.0009290301144901794 0.0 0.004438904885314415 0.0 0.0
0.007152090264025916 -0.016622514855259375 0.0 0.00013611663358427644 0.0 0.0
0.00511674853135512 -0.013085068267128814 0.0 -0.0025740847893136135 0.0 0.0
0.0029609556602256874 -0.00048281084789611526 0.0 -0.004286619083542955 0.0 0.0
0.0010629579789699342 -0.0003046312635466078 0.0 -0.00036301815821621384 0.0 0.0
0.001514568675857029 -0.0006542255656332258 0.0 -0.0004707123186529906 0.0 0.0
0.0019745556952131117 -0.0008108537538327141 0.0 -0.0004681222863856914 0.0 0.0
0.0028280731757024473 -0.0013411449529003214 0.0 -0.000463886772245048 0.0 0.0
0.004378134866569405 -0.002589233265155049 0.0 -0.0007550953482624158 0.0 0.0
0.006671847923244137 -0.004588036098877233 0.0 -0.0011615119928969264 0.0 0.0
0.009706747939978526 -0.00734687472139248 0.0 -0.0016678858472418097 0.0 0.0
0.013484710841498212 -0.010850321448711352 0.0 -0.0022415554600718154 0.0 0.0
0.018031223409476882 -0.015104633006605299 0.0 -0.002837215352493374 0.0 0.0
0.023445752527523945 -0.02020799040033988 0.0 -0.003428444192741224 0.0 0.0
0.029904071814597477 -0.026346706465538043 0.0 -0.004062205343516353 0.0 0.0
0.03759908321854489 -0.033737922263802525 0.0 -0.0048433892789110315 0.0 0.0
0.046606237885759426 -0.042486597162138665 0.0 -0.005793293063910836 0.0 0.0
0.05676725441322192 -0.0524613130752865 0.0 -0.0068225120104055985 0.0 0.0
0.06761710940233925 -0.0632054617303028 0.0 -0.007680583610386767 0.0 0.0
0.07834534088334909 -0.0739103163695691 0.0 -0.007925877283406376 0.0 0.0
0.08780228054244392 -0.0834410362699135 0.0 -0.007148191079750448 0.0 0.0
0.09458887810064591 -0.09036611510013844 0.0 -0.0052291469447837465 0.0 0.0
0.09712954323757274 -0.09327700297768121 0.0 8.661040634683204e-15 0.0 0.0
0.09458887810063592 -0.09036611510013151 0.0 0.005229146944803155 0.0 0.0
0.08780228054242527 -0.08344103626989116 0.0 0.007148191079771509 0.0 0.0
0.0783453408833232 -0.07391031636954291 0.0 0.007925877283419688 0.0 0.0
0.06761710940230856 -0.06320546173027478 0.0 0.007680583610389554 0.0 0.0
0.056767254413189014 -0.05246131307525503 0.0 0.006822512010404002 0.0 0.0
0.046606237885726036 -0.0424865971621066 0.0 0.005793293063910547 0.0 0.0
0.03759908321851089 -0.03373792226377165 0.0 0.004843389278908476 0.0 0.0
0.02990407181456351 -0.026346706465507894 0.0 0.004062205343512585 0.0 0.0
0.02344575252749177 -0.02020799040030955 0.0 0.003428444192736765 0.0 0.0
0.018031223409448318 -0.015104633006577991 0.0 0.002837215352487275 0.0 0.0
0.013484710841474701 -0.010850321448689521 0.0 0.002241555460067153 0.0 0.0
0.009706747939959874 -0.007346874721375511 0.0 0.0016678858472383082 0.0 0.0
0.006671847923230161 -0.0045880360988631505 0.0 0.0011615119928946403 0.0 0.0
0.004378134866560398 -0.0025892332651473652 0.0 0.0007550953482603413 0.0 0.0
0.0028280731756978182 -0.0013411449528979112 0.0 0.0004638867722449889 0.0 0.0
0.0019745556952112026 -0.0008108537538319339 0.0 0.00046812228638533403 0.0 0.0
0.0015145686758564951 -0.0006542255656339334 0.0 0.0004707123186524691 0.0 0.0
0.001062957978970243 -0.00030463126354749603 0.0 0.0003630181582152428 0.0 0.0
0.0029609556602209915 -0.0004828108478937431 0.0 0.0042866190835315525 0.0 0.0
0.005116748531345125 -0.013085068267107624 0.0 0.002574084789295352 0.0 0.0
0.0037851831324984125 -0.010448393368477735 0.0 -0.0029834920695573615 0.0 0.0
0.002139206646160087 -0.00036647525463001684 0.0 -0.003937693982708078 0.0 0.0
0.000762863454941909 -0.00017067657845089914 0.0 -0.0006519301631298191 0.0 0.0
0.001257076293617302 -0.0005258942271493236 0.0 -0.0007113365773173637 0.0 0.0
0.0017095480927390037 -0.0007074322849580895 0.0 -0.0007729665478667506 0.0 0.0
0.0023961445151576334 -0.0010638837742399816 0.0 -0.0007477366693489632 0.0 0.0
0.003685696400617643 -0.002020240703811475 0.0 -0.001027441564464256 0.0 0.0
0.005693827990156629 -0.0037370183297537624 0.0 -0.0016171979084909074 0.0 0.0
0.008378796131655243 -0.006145847529248939 0.0 -0.0023202305132445002 0.0 0.0
0.01171391755566131 -0.009217592604629673 0.0 -0.0031161353916352606 0.0 0.0
0.0157039280308579 -0.01293707570160034 0.0 -0.003942449993062293 0.0 0.0
0.020426635503177387 -0.017373276336056703 0.0 -0.004764753457700886 0.0 0.0
0.02604251830677723 -0.022691289566608992 0.0 -0.005631233658406127 0.0 0.0
0.03273892758494013 -0.029108729833470834 0.0 -0.006654009879429442 0.0 0.0
0.040621738888822735 -0.0367534113237581 0.0 -0.007895143485763263 0.0 0.0
0.04958788715185758 -0.04553851692745786 0.0 -0.009258986208997918 0.0 0.0
0.059253098213878586 -0.055095284666559906 0.0 -0.010406551344973137 0.0 0.0
0.06892084663825324 -0.06473811373523226 0.0 -0.010786432651238383 0.0 0.0
0.07755696316533905 -0.07343607896756221 0.0 -0.009839084338400843 0.0 0.0
0.0838941364347913 -0.07988687890754072 0.0 -0.007058005727274586 0.0 0.0
0.08632172812378493 -0.08284014845422584 0.0 1.1547186817839616e-14 0.0 0.0
0.08389413643478183 -0.07988687890753332 0.0 0.007058005727301914 0.0 0.0
0.07755696316532269 -0.07343607896754371 0.0 0.00983908433842813 0.0 0.0
0.06892084663823042 -0.06473811373521132 0.0 0.010786432651254615 0.0 0.0
0.059253098213851774 -0.05509528466653512 0.0 0.01040655134497682 0.0 0.0
0.04958788715182869 -0.04553851692743079 0.0 0.009258986208995153 0.0 0.0
0.04062173888879311 -0.03675341132372835 0.0 0.007895143485761216 0.0 0.0
0.03273892758491047 -0.029108729833444216 0.0 0.006654009879427462 0.0 0.0
0.02604251830674775 -0.022691289566581507 0.0 0.005631233658401445 0.0 0.0
0.02042663550314932 -0.01737327633603216 0.0 0.004764753457693588 0.0 0.0
0.015703928030833203 -0.012937075701577335 0.0 0.003942449993054632 0.0 0.0
0.011713917555640609 -0.00921759260460983 0.0 0.0031161353916286283 0.0 0.0
0.00837879613163882 -0.006145847529234076 0.0 0.002320230513239498 0.0 0.0
0.00569382799014488 -0.0037370183297421936 0.0 0.0016171979084878556 0.0 0.0
0.0036856964006102234 -0.002020240703805193 0.0 0.0010274415644611588 0.0 0.0
0.0023961445151540286 -0.001063883774238005 0.0 0.0007477366693470294 0.0 0.0
0.001709548092737637 -0.0007074322849573649 0.0 0.0007729665478657393 0.0 0.0
0.0012570762936169669 -0.0005258942271496925 0.0 0.0007113365773171671 0.0 0.0
0.0007628634549420312 -0.00017067657845206305 0.0 0.0006519301631285169 0.0 0.0
0.0021392066461556683 -0.00036647525462764336 0.0 0.00393769398269773 0.0 0.0
0.0037851831324895125 -0.010448393368459173 0.0 0.0029834920695437465 0.0 0.0
0.0028193939419317807 -0.008344605435810653 0.0 -0.002712493597001174 0.0 0.0
0.0015700412214358643 -0.00034190383171883005 0.0 -0.003561014341932242 0.0 0.0
0.0005522495134546731 -9.840642119819367e-05 0.0 -0.0010188933588355172 0.0 0.0
0.0010128640351079856 -0.00039598239210163964 0.0 -0.0009726803202718356 0.0 0.0
0.001449811529709333 -0.0006059337458986753 0.0 -0.001064789653188121 0.0 0.0
0.002009385655942517 -0.0008598915608257374 0.0 -0.0010508861411524925 0.0 0.0
0.0030284770878223235 -0.0015268513473839977 0.0 -0.0012439560340772214 0.0 0.0
0.004717509834700195 -0.002903042433472317 0.0 -0.001873949388722449 0.0 0.0
0.007047237867381128 -0.004960361910053127 0.0 -0.002753377587640318 0.0 0.0
0.009935910577597271 -0.0075944500717720995 0.0 -0.003711064272845988 0.0 0.0
0.013374230073933405 -0.010781099330578626 0.0 -0.004704148095480302 0.0 0.0
0.017414319130513837 -0.014559518302332812 0.0 -0.00568763818807188 0.0 0.0
0.022194694239405822 -0.01906873603002383 0.0 -0.0067149531963524856 0.0 0.0
0.02790059554353736 -0.024515274081188986 0.0 -0.007904157965075122 0.0 0.0
0.03464674196408149 -0.03104175986434818 0.0 -0.009324751030026834 0.0 0.0
0.04238388531861121 -0.03861044983349035 0.0 -0.010874874277561277 0.0 0.0
0.050835597745981405 -0.04694765471914352 0.0 -0.012218616273207156 0.0 0.0
0.05942850577994328 -0.05550109397871549 0.0 -0.012775277986159534 0.0 0.0
0.06727671069624792 -0.06339348631936355 0.0 -0.01178896739160844 0.0 0.0
0.073252930631845 -0.06947802871625826 0.0 -0.008461406664450746 0.0 0.0
0.0756210000804994 -0.07256780176203564 0.0 1.3043385815869613e-14 0.0 0.0
0.07325293063183612 -0.06947802871624903 0.0 0.00846140666448222 0.0 0.0
0.067276710696233 -0.06339348631934998 0.0 0.011788967391636661 0.0 0.0
0.059428505779923535 -0.05550109397869418 0.0 0.01277527798617828 0.0 0.0
0.050835597745958264 -0.04694765471911982 0.0 0.012218616273212163 0.0 0.0
0.04238388531858614 -0.03861044983346427 0.0 0.010874874277558103 0.0 0.0
0.034646741964056045 -0.031041759864324864 0.0 0.009324751030024598 0.0 0.0
0.027900595543511996 -0.024515274081161928 0.0 0.00790415796507282 0.0 0.0
0.022194694239380492 -0.019068736030002042 0.0 0.0067149531963464435 0.0 0.0
0.017414319130489703 -0.014559518302310604 0.0 0.005687638188063118 0.0 0.0
0.01337423007391208 -0.010781099330562238 0.0 0.004704148095470761 0.0 0.0
0.009935910577579248 -0.0075944500717536455 0.0 0.003711064272837952 0.0 0.0
0.007047237867366747 -0.004960361910040363 0.0 0.0027533775876346033 0.0 0.0
0.004717509834690072 -0.0029030424334644594 0.0 0.0018739493887179404 0.0 0.0
0.0030284770878164537 -0.0015268513473799046 0.0 0.001243956034074478 0.0 0.0
0.0020093856559401145 -0.0008598915608251594 0.0 0.001050886141152412 0.0 0.0
0.001449811529708684 -0.0006059337458975229 0.0 0.001064789653186719 0.0 0.0
0.0010128640351078123 -0.0003959823921021075 0.0 0.0009726803202704819 0.0 0.0
0.000552249513454693 -9.840642119919441e-05 0.0 0.0010188933588342617 0.0 0.0
0.0015700412214323931 -0.00034190383171690066 0.0 0.003561014341923972 0.0 0.0
0.0028193939419247495 -0.008344605435794782 0.0 0.002712493596991177 0.0 0.0
0.002086047705318346 -0.00661076085554162 0.0 -0.0023033051147683136 0.0 0.0
0.001151643213408326 -0.00034076667549890935 0.0 -0.003194846516095907 0.0 0.0
0.0003959896913582611 -6.417558511870287e-05 0.0 -0.001365387219692339 0.0 0.0
0.0007858677104384975 -0.00027821088814817255 0.0 -0.0012423259180247058 0.0 0.0
0.0011916391938092382 -0.0004955615119095439 0.0 -0.0013331352141850521 0.0 0.0
0.0016549584108962996 -0.0007008612719541215 0.0 -0.0013538803075321462 0.0 0.0
0.002432332671182502 -0.0011383833309581125 0.0 -0.0014817631475008617 0.0 0.0
0.0037703400866554515 -0.0021355699785491765 0.0 -0.001993769730457051 0.0 0.0
0.005713097150828999 -0.003799290355540611 0.0 -0.002929798611279207 0.0 0.0
0.008160188139734913 -0.00599558203412609 0.0 -0.0040152943968603545 0.0 0.0
0.011049570374342201 -0.008649632982378851 0.0 -0.005108866971408128 0.0 0.0
0.014417348554830046 -0.011779326012640152 0.0 -0.006192333939339248 0.0 0.0
0.018376373868929364 -0.01549169446666062 0.0 -0.007305444923995274 0.0 0.0
0.023092303212244515 -0.019974664675824292 0.0 -0.008568399915689046 0.0 0.0
0.028699715168013493 -0.025378248220304867 0.0 -0.01006520711608022 0.0 0.0
0.03519626454619745 -0.03171303185235822 0.0 -0.011693475316746948 0.0 0.0
0.042386352011541784 -0.0387900197186955 0.0 -0.01312580570577769 0.0 0.0
0.04985935165185504 -0.046202747485858196 0.0 -0.013822150615293086 0.0 0.0
0.05692307186227891 -0.053282835199512546 0.0 -0.01296197288166902 0.0 0.0
0.06259133895534465 -0.05906116731806439 0.0 -0.009474629612219915 0.0 0.0
0.06493687727332041 -0.06236791081878097 0.0 1.3122749414895551e-14 0.0 0.0
0.06259133895533686 -0.059061167318055344 0.0 0.009474629612250592 0.0 0.0
0.05692307186226574 -0.05328283519950201 0.0 0.012961972881699185 0.0 0.0
0.049859351651838156 -0.04620274748583642 0.0 0.013822150615312268 0.0 0.0
0.042386352011522105 -0.038790019718676134 0.0 0.013125805705781101 0.0 0.0
0.0351962645461763 -0.03171303185233786 0.0 0.011693475316743612 0.0 0.0
0.02869971516799212 -0.025378248220285567 0.0 0.010065207116076846 0.0 0.0
0.0230923032122234 -0.01997466467580507 0.0 0.008568399915685133 0.0 0.0
0.01837637386890843 -0.015491694466640466 0.0 0.007305444923988828 0.0 0.0
0.014417348554810094 -0.011779326012622366 0.0 0.00619233393933002 0.0 0.0
0.011049570374324427 -0.008649632982366371 0.0 0.005108866971398458 0.0 0.0
0.008160188139720118 -0.005995582034113138 0.0 0.004015294396850636 0.0 0.0
0.005713097150817368 -0.003799290355531745 0.0 0.0029297986112725113 0.0 0.0
0.0037703400866474666 -0.0021355699785431 0.0 0.0019937697304525594 0.0 0.0
0.0024323326711783223 -0.001138383330955807 0.0 0.0014817631474991287 0.0 0.0
0.0016549584108945185 -0.0007008612719548407 0.0 0.0013538803075315315 0.0 0.0
0.0011916391938082882 -0.0004955615119087746 0.0 0.0013331352141835499 0.0 0.0
0.0007858677104380319 -0.00027821088814826124 0.0 0.0012423259180223485 0.0 0.0
0.00039598969135808126 -6.417558511927037e-05 0.0 0.001365387219689965 0.0 0.0
0.001151643213405204 -0.0003407666754974875 0.0 0.003194846516088582 0.0 0.0
0.0020860477053122966 -0.006610760855528419 0.0 0.002303305114761497 0.0 0.0
0.001523270132616605 -0.005166071559662545 0.0 -0.001924357725711198 0.0 0.0
0.0008344333903435888 -0.000347767056286324 0.0 -0.0028654701227218415 0.0 0.0
0.0002701897423164425 -4.608694342152313e-05 0.0 -0.0016539252021730744 0.0 0.0
0.0005750959049413199 -0.00017533251477285707 0.0 -0.0014989573293099528 0.0 0.0
0.0009321156821356341 -0.00037648095294960643 0.0 -0.0015710196939615032 0.0 0.0
0.0013158625134981148 -0.0005627819944259314 0.0 -0.001641756520331725 0.0 0.0
0.001893249323203563 -0.0008368640578499783 0.0 -0.001720112195026944 0.0 0.0
0.00288987616526004 -0.0014930875392089105 0.0 -0.0020910038687490854 0.0 0.0
0.004406282677584832 -0.0027058542240554063 0.0 -0.0028841661220387516 0.0 0.0
0.006390001880634696 -0.004437152680046393 0.0 -0.003988230016051626 0.0 0.0
0.008739312574219265 -0.006560235725559589 0.0 -0.005137690087637958 0.0 0.0
0.011442855133461516 -0.009046769923537966 0.0 -0.006261122057394114 0.0 0.0
0.014593950971488641 -0.011976147638187051 0.0 -0.007392884871941551 0.0 0.0
0.018336858525688126 -0.015509466749248173 0.0 -0.008646709953492395 0.0 0.0
0.022803025713310623 -0.019790422437405388 0.0 -0.010096066989077945 0.0 0.0
0.028037935315936294 -0.024876425882612168 0.0 -0.011692442995481745 0.0 0.0
0.033937524922136246 -0.03065723434719564 0.0 -0.013129572205839256 0.0 0.0
0.04022865529294153 -0.03686460976015276 0.0 -0.013915977764585481 0.0 0.0
0.046451444609982497 -0.04307104173357754 0.0 -0.013302273084482072 0.0 0.0
0.051824146877764155 -0.04854993547217296 0.0 -0.010072023803116574 0.0 0.0
0.05417397943556464 -0.052152018095741964 0.0 1.2081047967571479e-14 0.0 0.0
0.051824146877757354 -0.048549935472167266 0.0 0.010072023803144967 0.0 0.0
0.04645144460997142 -0.04307104173356627 0.0 0.013302273084513472 0.0 0.0
0.040228655292927476 -0.03686460976013679 0.0 0.0139159777646033 0.0 0.0
0.03393752492212011 -0.030657234347183197 0.0 0.01312957220584211 0.0 0.0
0.028037935315918985 -0.02487642588259657 0.0 0.011692442995476995 0.0 0.0
0.022803025713293172 -0.019790422437386972 0.0 0.010096066989072637 0.0 0.0
0.01833685852567146 -0.015509466749235784 0.0 0.00864670995348923 0.0 0.0
0.014593950971472244 -0.01197614763817116 0.0 0.007392884871936059 0.0 0.0
0.01144285513344571 -0.009046769923522328 0.0 0.006261122057385346 0.0 0.0
0.008739312574204912 -0.006560235725550116 0.0 0.0051376900876278055 0.0 0.0
0.0063900018806226635 -0.004437152680036229 0.0 0.003988230016042176 0.0 0.0
0.004406282677575828 -0.002705854224047595 0.0 0.002884166122033133 0.0 0.0
0.0028898761652540986 -0.0014930875392041771 0.0 0.0020910038687456866 0.0 0.0
0.0018932493232005103 -0.0008368640578486123 0.0 0.0017201121950248211 0.0 0.0
0.0013158625134968753 -0.0005627819944254766 0.0 0.0016417565203302625 0.0 0.0
0.0009321156821350766 -0.00037648095295034987 0.0 0.0015710196939599014 0.0 0.0
0.0005750959049410358 -0.00017533251477249015 0.0 0.001498957329308055 0.0 0.0
0.0002701897423162907 -4.608694342176148e-05 0.0 0.0016539252021703045 0.0 0.0
0.0008344333903412694 -0.00034776705628530163 0.0 0.0028654701227156876 0.0 0.0
0.0015232701326120953 -0.005166071559652147 0.0 0.0019243577257076299 0.0 0.0
0.0010897918383064884 -0.0039750136538307486 0.0 -0.0016481668045920002 0.0 0.0
0.0005881273877955636 -0.00036198788124978997 0.0 -0.002573647916765222 0.0 0.0
0.00015978382053822657 -2.871906492151627e-05 0.0 -0.0018790079146821562 0.0 0.0
0.00037718496359813545 -8.536793207912066e-05 0.0 -0.0017241825655295888 0.0 0.0
0.0006707966956103246 -0.0002542125567396453 0.0 -0.0017762119777114268 0.0 0.0
0.0009845444217651163 -0.0004216478663169722 0.0 -0.0018841791397090583 0.0 0.0
0.0013985532418813124 -0.0006012895370652757 0.0 -0.0019650121060069696 0.0 0.0
0.002084775549103568 -0.0009846220829909874 0.0 -0.002184706813160389 0.0 0.0
0.0031692100793490694 -0.0017512986308208735 0.0 -0.002735473199345279 0.0 0.0
0.004651003604552198 -0.0029685328733698012 0.0 -0.0036537828937019115 0.0 0.0
0.006445615614887448 -0.004538823642802137 0.0 -0.004758185275978608 0.0 0.0
0.00849768885341684 -0.0063865307208910045 0.0 -0.005855985089181687 0.0 0.0
0.01085824316814284 -0.008545573717564056 0.0 -0.006951118055674216 0.0 0.0
0.013643772050767741 -0.011146529253439837 0.0 -0.008116818986742463 0.0 0.0
0.016979263373875633 -0.01431579325617013 0.0 -0.009431417736422124 0.0 0.0
0.02094169122570223 -0.018137345253786758 0.0 -0.010859970079393252 0.0 0.0
0.02550638829298015 -0.02258777204713687 0.0 -0.012203730560096876 0.0 0.0
0.030545313237815813 -0.027521348104579513 0.0 -0.013017625298627364 0.0 0.0
0.035833717477811736 -0.032740274400620877 0.0 -0.01272797724054496 0.0 0.0
0.04086321665960298 -0.03785412760168335 0.0 -0.010186815177740604 0.0 0.0
0.04322170053977905 -0.04182746691285024 0.0 9.796850830579018e-15 0.0 0.0
0.040863216659598044 -0.03785412760167788 0.0 0.010186815177767063 0.0 0.0
0.03583371747780291 -0.03274027440061114 0.0 0.012727977240574017 0.0 0.0
0.030545313237804253 -0.027521348104568265 0.0 0.01301762529864206 0.0 0.0
0.025506388292967537 -0.022587772047128588 0.0 0.012203730560097584 0.0 0.0
0.020941691225689056 -0.01813734525377471 0.0 0.010859970079387968 0.0 0.0
0.016979263373862574 -0.014315793256155458 0.0 0.009431417736418255 0.0 0.0
0.013643772050755603 -0.011146529253429379 0.0 0.00811681898673951 0.0 0.0
0.010858243168130988 -0.008545573717555714 0.0 0.006951118055669345 0.0 0.0
0.008497688853405344 -0.006386530720879746 0.0 0.0058559850891742515 0.0 0.0
0.0064456156148767 -0.004538823642792508 0.0 0.0047581852759696315 0.0 0.0
0.004651003604543454 -0.0029685328733620583 0.0 0.003653782893693871 0.0 0.0
0.0031692100793428864 -0.0017512986308158664 0.0 0.0027354731993416885 0.0 0.0
0.002084775549099668 -0.0009846220829894494 0.0 0.002184706813158332 0.0 0.0
0.0013985532418795427 -0.0006012895370653382 0.0 0.0019650121060050497 0.0 0.0
0.000984544421764438 -0.0004216478663163601 0.0 0.0018841791397069619 0.0 0.0
0.0006707966956099833 -0.0002542125567403386 0.0 0.0017762119777091547 0.0 0.0
0.0003771849635978371 -8.53679320782811e-05 0.0 0.0017241825655272074 0.0 0.0
0.00015978382053788757 -2.8719064921707933e-05 0.0 0.0018790079146797471 0.0 0.0
0.000588127387793947 -0.0003619878812493771 0.0 0.0025736479167606215 0.0 0.0
0.0010897918383035953 -0.0039750136538229085 0.0 0.0016481668045902455 0.0 0.0
0.0007747545166924569 -0.0030445973842312527 0.0 -0.0015068490649014655 0.0 0.0
0.0003981467120371416 -0.00038110466153601716 0.0 -0.0023393922228544806 0.0 0.0
5.301482357995074e-05 -4.3917414564187784e-06 0.0 -0.0020427255472454803 0.0 0.0
0.00018995650896346344 -5.333554503354337e-06 0.0 -0.0019067054980521849 0.0 0.0
0.0004104336068547327 -0.00013340940181070897 0.0 -0.0019419486176480453 0.0 0.0
0.0006462248263795301 -0.0002685268656740094 0.0 -0.002066325905206173 0.0 0.0
0.0009308999372846607 -0.000400073762337972 0.0 -0.0021978493976228452 0.0 0.0
0.001357496063183224 -0.000603159288135364 0.0 -0.0023291595062164923 0.0 0.0
0.0020275265927104684 -0.0009967830431991264 0.0 -0.002610339444885154 0.0 0.0
0.002987279260961895 -0.0016854989396865908 0.0 -0.003157493467732176 0.0 0.0
0.004195700061949705 -0.0026602992544365613 0.0 -0.004004200133464761 0.0 0.0
0.0055881199035209776 -0.0038554141093811965 0.0 -0.004947178046641517 0.0 0.0
0.007171913403680764 -0.0052488437148638135 0.0 -0.005941284555043 0.0 0.0
0.009024503529901352 -0.006935993379903614 0.0 -0.006975097493218716 0.0 0.0
0.011245574109052523 -0.009007832427385655 0.0 -0.00807711746429517 0.0 0.0
0.013927883301277935 -0.011558897787420114 0.0 -0.009263436810572566 0.0 0.0
0.017128894335406236 -0.014639247730039832 0.0 -0.010426450366877173 0.0 0.0
0.02083785629445583 -0.018239853009892507 0.0 -0.011228730454578078 0.0 0.0
0.02503869886415646 -0.02232155923155574 0.0 -0.01116930053957987 0.0 0.0
0.029606531356399936 -0.026884531482834057 0.0 -0.00962650559302283 0.0 0.0
0.0319479295281182 -0.03127772108827075 0.0 9.210080614829863e-15 0.0 0.0
0.02960653135639635 -0.02688453148283018 0.0 0.009626505593046276 0.0 0.0
0.025038698864150073 -0.022321559231550797 0.0 0.011169300539603508 0.0 0.0
0.02083785629444763 -0.018239853009883702 0.0 0.01122873045458995 0.0 0.0
0.0171288943353976 -0.014639247730033392 0.0 0.010426450366876583 0.0 0.0
0.013927883301269364 -0.011558897787412837 0.0 0.0092634368105673 0.0 0.0
0.011245574109044027 -0.009007832427377134 0.0 0.008077117464291468 0.0 0.0
0.009024503529893752 -0.006935993379897772 0.0 0.006975097493216389 0.0 0.0
0.007171913403673487 -0.005248843714859487 0.0 0.005941284555040061 0.0 0.0
0.005588119903513606 -0.0038554141093748986 0.0 0.004947178046634738 0.0 0.0
0.004195700061942862 -0.0026602992544295526 0.0 0.004004200133457522 0.0 0.0
0.002987279260956507 -0.001685498939683282 0.0 0.0031574934677260982 0.0 0.0
0.002027526592706791 -0.000996783043196773 0.0 0.0026103394448836062 0.0 0.0
0.001357496063180905 -0.000603159288135678 0.0 0.002329159506215655 0.0 0.0
0.0009308999372835507 -0.00040007376233840126 0.0 0.0021978493976208486 0.0 0.0
0.0006462248263791182 -0.00026852686567485835 0.0 0.0020663259052037704 0.0 0.0
0.00041043360685444927 -0.0001334094018106304 0.0 0.001941948617645099 0.0 0.0
0.00018995650896326454 -5.333554502990797e-06 0.0 0.0019067054980494093 0.0 0.0
5.301482357981448e-05 -4.391741456133791e-06 0.0 0.0020427255472432785 0.0 0.0
0.000398146712036226 -0.000381104661535981 0.0 0.0023393922228509014 0.0 0.0
0.0007747545166908294 -0.0030445973842256795 0.0 0.0015068490649001501 0.0 0.0
0.0005577902103549801 -0.002351254243959236 0.0 -0.0014392220192969776 0.0 0.0
0.0002573737854617151 -0.0003975873254953952 0.0 -0.0021782064429848604 0.0 0.0
-4.914181238874145e-05 2.5803174284848445e-05 0.0 -0.002147500282997106 0.0 0.0
1.1276314817071018e-05 6.76815425773103e-05 0.0 -0.0020403862285321827 0.0 0.0
0.00015334786140997525 -1.5437729877101342e-05 0.0 -0.0020611677478564057 0.0 0.0
0.0003015967555590044 -0.00010950188706269609 0.0 -0.0021856094864044456 0.0 0.0
0.0004615605065212051 -0.00019570365738843604 0.0 -0.0023533310328792928 0.0 0.0
0.0006759105173455518 -0.00029553041900665024 0.0 -0.0025012334789839634 0.0 0.0
0.0009948907992052291 -0.0004474923886629468 0.0 -0.0026224286134437463 0.0 0.0
0.0014463653296957607 -0.000717627830870854 0.0 -0.002830830720567357 0.0 0.0
0.0020386642874647538 -0.0011263355954903946 0.0 -0.0032521919376188786 0.0 0.0
0.002741431785499278 -0.0016602499485673208 0.0 -0.0038701308323934955 0.0 0.0
0.003539746421226728 -0.0022937795816317446 0.0 -0.004611850139767821 0.0 0.0
0.004476504282999414 -0.0030737054639252332 0.0 -0.005453026379765229 0.0 0.0
0.005604519964168971 -0.004046466631799322 0.0 -0.006388208313875623 0.0 0.0
0.007007735161904712 -0.005310015786933646 0.0 -0.007439112023501998 0.0 0.0
0.00880851757835053 -0.006973994605120997 0.0 -0.008534037351699053 0.0 0.0
0.011148036040656135 -0.009184766367617194 0.0 -0.009392028366538031 0.0 0.0
0.014117348953287508 -0.012038839628236398 0.0 -0.00945608439533831 0.0 0.0
0.01795605250906517 -0.015676347022618074 0.0 -0.008389471731597806 0.0 0.0
0.02014786563716027 -0.020393254044992697 0.0 7.131881890609648e-15 0.0 0.0
0.017956052509063576 -0.015676347022618678 0.0 0.008389471731615987 0.0 0.0
0.01411734895328355 -0.01203883962823516 0.0 0.009456084395357606 0.0 0.0
0.011148036040651219 -0.009184766367612134 0.0 0.009392028366546184 0.0 0.0
0.008808517578345974 -0.006973994605116617 0.0 0.008534037351696817 0.0 0.0
0.007007735161900626 -0.00531001578693059 0.0 0.007439112023497641 0.0 0.0
0.005604519964165227 -0.004046466631796303 0.0 0.0063882083138714785 0.0 0.0
0.0044765042829964415 -0.0030737054639243485 0.0 0.005453026379763473 0.0 0.0
0.003539746421223936 -0.002293779581629828 0.0 0.0046118501397643535 0.0 0.0
0.0027414317854962916 -0.0016602499485620969 0.0 0.0038701308323876244 0.0 0.0
0.002038664287461878 -0.00112633559549026 0.0 0.003252191937613274 0.0 0.0
0.0014463653296935895 -0.0007176278308690964 0.0 0.002830830720564669 0.0 0.0
0.000994890799203945 -0.00044749238866105654 0.0 0.0026224286134423477 0.0 0.0
0.0006759105173446467 -0.00029553041900710664 0.0 0.0025012334789823337 0.0 0.0
0.0004615605065207103 -0.0001957036573874245 0.0 0.0023533310328762826 0.0 0.0
0.00030159675555888375 -0.00010950188706318627 0.0 0.002185609486401876 0.0 0.0
0.0001533478614101331 -1.5437729878440504e-05 0.0 0.0020611677478538414 0.0 0.0
1.1276314817226577e-05 6.768154257677483e-05 0.0 0.002040386228530125 0.0 0.0
-4.9141812388725514e-05 2.5803174285373158e-05 0.0 0.002147500282995396 0.0 0.0
0.0002573737854612358 -0.00039758732549552314 0.0 0.0021782064429821243 0.0 0.0
0.00055779021035401 -0.002351254243955686 0.0 0.0014392220192958958 0.0 0.0
0.00040533472033795414 -0.001837990340754824 0.0 -0.001386000112278233 0.0 0.0
0.0001519516414755534 -0.00039621347683899605 0.0 -0.0020537235867225953 0.0 0.0
-0.0001439949229066901 5.584326742821953e-05 0.0 -0.002200064526166835 0.0 0.0
-0.0001593634613342504 0.00013622161816131118 0.0 -0.002121650106676443 0.0 0.0
-9.895222058866013e-05 9.862131543489892e-05 0.0 -0.0021283791638203897 0.0 0.0
-4.4788705465086575e-05 5.004232312738334e-05 0.0 -0.002238427594649919 0.0 0.0
-1.4595720895441817e-05 1.440501328022053e-05 0.0 -0.002409284827071934 0.0 0.0
-2.8114588821143925e-06 2.5221067668086786e-06 0.0 -0.0025774630180359723 0.0 0.0
3.1565072401796364e-07 -6.471803379325304e-07 0.0 -0.0026769302659789664 0.0 0.0
7.672992875374491e-07 -4.6626716288662007e-07 0.0 -0.002771022696135334 0.0 0.0
6.273361682848655e-07 -9.903979516911202e-07 0.0 -0.002945723202184755 0.0 0.0
-1.3801757313047693e-06 1.2428501943404792e-06 0.0 -0.0033589093449885167 0.0 0.0
-7.486810824429749e-06 5.965528455371261e-06 0.0 -0.003918934691208974 0.0 0.0
-1.5470768162946188e-05 1.2657605620596408e-05 0.0 -0.004636282755568322 0.0 0.0
-5.584471093941085e-06 1.19704790580752e-05 0.0 -0.00552906952294406 0.0 0.0
0.00010308040901672291 -6.165460453018282e-05 0.0 -0.006600917394177313 0.0 0.0
0.0004996294801547733 -0.00036974849666541353 0.0 -0.007823469662603959 0.0 0.0
0.0014703399083270579 -0.001163573788941549 0.0 -0.009065685176665516 0.0 0.0
0.003248505394043805 -0.002693154785978957 0.0 -0.010043871287287185 0.0 0.0
0.006030650219173759 -0.004928124538455553 0.0 -0.010125213210345858 0.0 0.0
0.007703687665508729 -0.00989259877395101 0.0 7.0078491620773065e-15 0.0 0.0
0.0060306502191734435 -0.004928124538454864 0.0 0.010125213210359935 0.0 0.0
0.0032485053940424597 -0.002693154785979635 0.0 0.010043871287299035 0.0 0.0
0.0014703399083264264 -0.0011635737889430847 0.0 0.00906568517666729 0.0 0.0
0.000499629480155501 -0.0003697484966643709 0.0 0.007823469662600023 0.0 0.0
0.00010308040901777524 -6.165460452971694e-05 0.0 0.006600917394172906 0.0 0.0
-5.584471092991215e-06 1.197047905589243e-05 0.0 0.005529069522940744 0.0 0.0
-1.547076816155689e-05 1.2657605619992751e-05 0.0 0.004636282755566554 0.0 0.0
-7.486810822535594e-06 5.965528453299418e-06 0.0 0.003918934691205713 0.0 0.0
-1.3801757296641546e-06 1.2428501951531565e-06 0.0 0.0033589093449838733 0.0 0.0
6.273361694882486e-07 -9.903979542882045e-07 0.0 0.0029457232021811836 0.0 0.0
7.672992885234225e-07 -4.6626716532122993e-07 0.0 0.0027710226961333074 0.0 0.0
3.1565072460016665e-07 -6.471803382899715e-07 0.0 0.002676930265978375 0.0 0.0
-2.8114588817964095e-06 2.522106767657697e-06 0.0 0.0025774630180339904 0.0 0.0
-1.459572089506944e-05 1.4405013281306463e-05 0.0 0.0024092848270695867 0.0 0.0
-4.4788705464599334e-05 5.004232312793845e-05 0.0 0.0022384275946472857 0.0 0.0
-9.89522205883423e-05 9.862131543446153e-05 0.0 0.0021283791638183696 0.0 0.0
-0.00015936346133421352 0.00013622161816064703 0.0 0.002121650106674236 0.0 0.0
-0.00014399492290667948 5.584326742775241e-05 0.0 0.002200064526165114 0.0 0.0
0.00015195164147536257 -0.0003962134768391509 0.0 0.0020537235867206507 0.0 0.0
0.00040533472033754816 -0.001837990340752419 0.0 0.001386000112276958 0.0 0.0
0.00029948297649345375 -0.0014356660043707203 0.0 -0.0013003570462732914 0.0 0.0
7.220226079540846e-05 -0.00037337493563629364 0.0 -0.001931909863681675 0.0 0.0
-0.00023207711135425136 8.416115868422919e-05 0.0 -0.002201791404990062 0.0 0.0
-0.00032175195716966943 0.0002009170355703075 0.0 -0.002149350861692778 0.0 0.0
-0.0003447011790359008 0.00020747095030626507 0.0 -0.0021397718466235637 0.0 0.0
-0.00038704931257226894 0.00020729218324393563 0.0 -0.002222623255578109 0.0 0.0
-0.0004900125091975102 0.00022416700269734544 0.0 -0.0023685239295463457 0.0 0.0
-0.0006819890573285145 0.00030040283131108953 0.0 -0.002506171536885462 0.0 0.0
-0.0009940440053625087 0.0004462217416268382 0.0 -0.002623566316705494 0.0 0.0
-0.001444473212953025 0.0007161506883658588 0.0 -0.002829661399668713 0.0 0.0
-0.0020373000087369484 0.0011250159298375512 0.0 -0.00324951258055484 0.0 0.0
-0.0027444299619257127 0.0016629661209500062 0.0 -0.0038690253489123104 0.0 0.0
-0.0035545361251884226 0.0023063831789022706 0.0 -0.004606157739632154 0.0 0.0
-0.00450791053991143 0.003102826101985932 0.0 -0.005440674042576242 0.0 0.0
-0.005615869718153957 0.004073772259166466 0.0 -0.0063961330487744515 0.0 0.0
-0.006810085195057805 0.0051868418203891865 0.0 -0.007548929542509092 0.0 0.0
-0.007880639355287718 0.006239924946638176 0.0 -0.008976202812805433 0.0 0.0
-0.008455077139853703 0.00687602823564416 0.0 -0.010728949850811766 0.0 0.0
-0.008058859707943277 0.006643833703319203 0.0 -0.01266645023399774 0.0 0.0
-0.005638192745483633 0.004862513243248084 0.0 -0.013447155970340175 0.0 0.0
-0.0037209172588938857 -0.0006896983309116784 0.0 8.062561035471205e-15 0.0 0.0
-0.005638192745484534 0.004862513243246895 0.0 0.013447155970355212 0.0 0.0
-0.008058859707942003 0.006643833703318938 0.0 0.012666450234010772 0.0 0.0
-0.008455077139848973 0.006876028235635228 0.0 0.010728949850814906 0.0 0.0
-0.007880639355281152 0.0062399249466356665 0.0 0.008976202812801426 0.0 0.0
-0.0068100851950517825 0.005186841820388445 0.0 0.007548929542503555 0.0 0.0
-0.005615869718148651 0.004073772259161617 0.0 0.006396133048769707 0.0 0.0
-0.004507910539905572 0.003102826101980147 0.0 0.005440674042572043 0.0 0.0
-0.0035545361251818454 0.002306383178896416 0.0 0.004606157739627065 0.0 0.0
-0.0027444299619192414 0.0016629661209447183 0.0 0.003869025348905662 0.0 0.0
-0.0020373000087314714 0.0011250159298340418 0.0 0.003249512580549712 0.0 0.0
-0.001444473212948998 0.0007161506883607568 0.0 0.00282966139966547 0.0 0.0
-0.0009940440053599893 0.0004462217416254708 0.0 0.0026235663167055454 0.0 0.0
-0.0006819890573270084 0.0003004028313117774 0.0 0.002506171536883565 0.0 0.0
-0.0004900125091964714 0.00022416700269863862 0.0 0.0023685239295440606 0.0 0.0
-0.00038704931257157993 0.00020729218324476824 0.0 0.0022226232555747037 0.0 0.0
-0.000344701179035297 0.0002074709503065101 0.0 0.0021397718466216638 0.0 0.0
-0.0003217519571692801 0.0002009170355690923 0.0 0.0021493508616896016 0.0 0.0
-0.00023207711135410196 8.416115868373974e-05 0.0 0.002201791404987886 0.0 0.0
7.220226079520588e-05 -0.00037337493563598936 0.0 0.0019319098636800345 0.0 0.0
0.000299482976493017 -0.0014356660043689778 0.0 0.0013003570462717779 0.0 0.0
0.0002133457420793714 -0.0010929748148559963 0.0 -0.0011708705945213346 0.0 0.0
4.41246171206223e-06 -0.0003341896332691925 0.0 -0.0017975129143220948 0.0 0.0
-0.0003141289999981342 0.00011240748715794801 0.0 -0.0021514288483340765 0.0 0.0
-0.0004760982764484699 0.0002614419526421078 0.0 -0.002122988780122843 0.0 0.0
-0.000582413185150112 0.0003105642807375995 0.0 -0.0020932507618773217 0.0 0.0
-0.0007223656292018615 0.0003582982596300146 0.0 -0.0021397827332271515 0.0 0.0
-0.0009563952080410081 0.00042821605230930287 0.0 -0.0022297174151528825 0.0 0.0
-0.0013623884227478864 0.0006075862959477435 0.0 -0.002339284802657092 0.0 0.0
-0.002026287757562696 0.0009948187476909384 0.0 -0.002610666053129942 0.0 0.0
-0.0029850839905110377 0.0016832114837944333 0.0 -0.0031540945787222165 0.0 0.0
-0.004194917545468949 0.002660075168964955 0.0 -0.004002241416497834 0.0 0.0
-0.005590733596594595 0.003858241955840478 0.0 -0.004946437797836014 0.0 0.0
-0.00718401587591447 0.005260026112495946 0.0 -0.005928480687699477 0.0 0.0
-0.009053491414637637 0.006965163235927992 0.0 -0.006937606294584675 0.0 0.0
-0.01126305276989414 0.009038427706031062 0.0 -0.008051788419744589 0.0 0.0
-0.013766057228904744 0.011457303327324796 0.0 -0.009443457151821821 0.0 0.0
-0.01631505590931412 0.013987636371737167 0.0 -0.011318878954322644 0.0 0.0
-0.01842281209937138 0.016134046242017887 0.0 -0.013776669726740066 0.0 0.0
-0.019167126408519888 0.017031780366013882 0.0 -0.016307494801288378 0.0 0.0
-0.01697792388023164 0.014998355640077576 0.0 -0.01681663476162906 0.0 0.0
-0.014911642576227051 0.007759811000686654 0.0 8.272028895195405e-15 0.0 0.0
-0.016977923880231373 0.014998355640074647 0.0 0.016816634761649504 0.0 0.0
-0.01916712640851637 0.017031780366013858 0.0 0.01630749480130725 0.0 0.0
-0.01842281209936299 0.01613404624200812 0.0 0.013776669726748444 0.0 0.0
-0.01631505590930296 0.013987636371727095 0.0 0.011318878954320518 0.0 0.0
-0.013766057228893847 0.011457303327314467 0.0 0.009443457151815708 0.0 0.0
-0.011263052769884058 0.009038427706023302 0.0 0.008051788419738552 0.0 0.0
-0.009053491414627348 0.006965163235917494 0.0 0.006937606294579289 0.0 0.0
-0.007184015875903336 0.00526002611248452 0.0 0.0059284806876928175 0.0 0.0
-0.005590733596583546 0.003858241955830486 0.0 0.004946437797827017 0.0 0.0
-0.00419491754545916 0.0026600751689560627 0.0 0.004002241416489227 0.0 0.0
-0.0029850839905035077 0.0016832114837888928 0.0 0.0031540945787164568 0.0 0.0
-0.0020262877575578054 0.0009948187476873645 0.0 0.002610666053128392 0.0 0.0
-0.0013623884227449898 0.0006075862959476301 0.0 0.0023392848026550957 0.0 0.0
-0.0009563952080391235 0.00042821605230882755 0.0 0.0022297174151512584 0.0 0.0
-0.0007223656292005183 0.00035829825963001064 0.0 0.0021397827332240824 0.0 0.0
-0.0005824131851494513 0.0003105642807368521 0.0 0.002093250761875471 0.0 0.0
-0.0004760982764480579 0.0002614419526414944 0.0 0.0021229887801206414 0.0 0.0
-0.0003141289999977794 0.000112407487157946 0.0 0.002151428848332039 0.0 0.0
4.4124617119707135e-06 -0.00033418963326898145 0.0 0.001797512914320335 0.0 0.0
0.00021334574207908428 -0.001092974814854529 0.0 0.0011708705945198716 0.0 0.0
0.0001373106917550691 -0.000799775487265639 0.0 -0.0010254472605852865 0.0 0.0
-5.7699588460704736e-05 -0.0002813932684471374 0.0 -0.0016399714936973797 0.0 0.0
-0.00039211741106701895 0.00014172886403235026 0.0 -0.0020498668061766415 0.0 0.0
-0.0006226622466582355 0.0003179168479988689 0.0 -0.0020421782955247813 0.0 0.0
-0.0008110909770624636 0.0004068216708785501 0.0 -0.001990266920073071 0.0 0.0
-0.001045006596984167 0.0004991474644822794 0.0 -0.0019839163250319767 0.0 0.0
-0.0014195371043360554 0.0006291589131137005 0.0 -0.002010884040603053 0.0 0.0
-0.0020883792573319275 0.0009874403527924038 0.0 -0.0021969609366178254 0.0 0.0
-0.003166837550001925 0.0017480278620609457 0.0 -0.0027327269290654734 0.0 0.0
-0.00464919908586294 0.0029663168208142734 0.0 -0.0036491857304283403 0.0 0.0
-0.0064457892638070296 0.004539711736938311 0.0 -0.00475722144269745 0.0 0.0
-0.008499363939173216 0.00638903029683251 0.0 -0.005855096087244079 0.0 0.0
-0.010863893807595747 0.008551134955628956 0.0 -0.006933470133748316 0.0 0.0
-0.01366087832148578 0.011162351254080492 0.0 -0.008050499670077448 0.0 0.0
-0.016996486180584792 0.014338688408024929 0.0 -0.00933651640331552 0.0 0.0
-0.020846401319302668 0.01808635903347713 0.0 -0.011013709583417575 0.0 0.0
-0.024926767241358932 0.022146917037030322 0.0 -0.013438888139139528 0.0 0.0
-0.0285188250379559 0.025837058892036458 0.0 -0.01675003537348792 0.0 0.0
-0.030246587570043976 0.027775661969310278 0.0 -0.02005372823944898 0.0 0.0
-0.027792376808556896 0.02572191334487012 0.0 -0.021137439993752942 0.0 0.0
-0.025160680883583662 0.01600003665970607 0.0 9.580010396081917e-15 0.0 0.0
-0.027792376808555112 0.025721913344867373 0.0 0.02113743999377671 0.0 0.0
-0.030246587570038008 0.027775661969305997 0.0 0.02005372823947193 0.0 0.0
-0.02851882503794404 0.025837058892029183 0.0 0.01675003537349926 0.0 0.0
-0.02492676724134347 0.022146917037013752 0.0 0.013438888139137881 0.0 0.0
-0.020846401319287302 0.018086359033459523 0.0 0.011013709583411975 0.0 0.0
-0.016996486180570612 0.014338688408011238 0.0 0.009336516403309 0.0 0.0
-0.01366087832147105 0.011162351254066524 0.0 0.008050499670071714 0.0 0.0
-0.010863893807580148 0.008551134955613847 0.0 0.0069334701337411785 0.0 0.0
-0.008499363939157685 0.0063890302968176915 0.0 0.005855096087233804 0.0 0.0
-0.006445789263793129 0.0045397117369240444 0.0 0.004757221442686226 0.0 0.0
-0.004649199085852079 0.0029663168208052624 0.0 0.003649185730419441 0.0 0.0
-0.0031668375499944753 0.0017480278620554514 0.0 0.002732726929061313 0.0 0.0
-0.002088379257327273 0.0009874403527892859 0.0 0.0021969609366160893 0.0 0.0
-0.0014195371043333048 0.0006291589131116617 0.0 0.002010884040601866 0.0 0.0
-0.0010450065969826157 0.0004991474644808916 0.0 0.0019839163250302953 0.0 0.0
-0.0008110909770614078 0.00040682167087832016 0.0 0.001990266920070672 0.0 0.0
-0.0006226622466575834 0.0003179168479976766 0.0 0.002042178295523328 0.0 0.0
-0.0003921174110666213 0.00014172886403224601 0.0 0.0020498668061746782 0.0 0.0
-5.769958846059959e-05 -0.00028139326844729836 0.0 0.0016399714936956961 0.0 0.0
0.00013731069175496264 -0.0007997754872643853 0.0 0.0010254472605839143 0.0 0.0
6.88945636137479e-05 -0.0005523753677015159 0.0 -0.0008741619445470003 0.0 0.0
-0.00011625184119144741 -0.00021927534534807506 0.0 -0.0014584939879697903 0.0 0.0
-0.0004675029337667713 0.0001732543401937289 0.0 -0.0018983062587005872 0.0 0.0
-0.000762264554695655 0.0003704423625415008 0.0 -0.0019073322784114249 0.0 0.0
-0.0010279589947417274 0.0004955017556232261 0.0 -0.0018305218757029718 0.0 0.0
-0.0013574357954236735 0.0006255672680265782 0.0 -0.0017559352189177471 0.0 0.0
-0.0019086282104941363 0.0008621185880181245 0.0 -0.0017723955739277848 0.0 0.0
-0.0028903115839099894 0.001493179880786082 0.0 -0.002100910380774157 0.0 0.0
-0.0044037407564742085 0.0027019341801916793 0.0 -0.0028785024475176924 0.0 0.0
-0.006389285173017481 0.004436072053804966 0.0 -0.00398378652721361 0.0 0.0
-0.008740517436640519 0.006562241613750943 0.0 -0.00513723767759445 0.0 0.0
-0.011443231075954121 0.00904882420263479 0.0 -0.006260228013260977 0.0 0.0
-0.014590136828922122 0.011974007506849599 0.0 -0.0073734233593941954 0.0 0.0
-0.01833135597692543 0.015502052675884104 0.0 -0.008561731046523706 0.0 0.0
-0.022807435114056508 0.019789727946612226 0.0 -0.009936191033665736 0.0 0.0
-0.028027308036230256 0.024883325364448552 0.0 -0.011767709699803749 0.0 0.0
-0.033649751127260936 0.03049273224300455 0.0 -0.01447154552212335 0.0 0.0
-0.03868383518205948 0.03568461884310033 0.0 -0.01825125328773078 0.0 0.0
-0.04123030075129241 0.038572744761187355 0.0 -0.022314315127790786 0.0 0.0
-0.03821065914089521 0.03614352680320219 0.0 -0.024251394752919 0.0 0.0
-0.03484082697691979 0.023963534491020518 0.0 1.287598500043785e-14 0.0 0.0
-0.03821065914089183 0.036143526803199204 0.0 0.024251394752944293 0.0 0.0
-0.041230300751283845 0.03857274476117808 0.0 0.022314315127817484 0.0 0.0
-0.03868383518204447 0.035684618843087185 0.0 0.018251253287745454 0.0 0.0
-0.03364975112724192 0.030492732242986993 0.0 0.014471545522122788 0.0 0.0
-0.028027308036211104 0.02488332536443176 0.0 0.011767709699798233 0.0 0.0
-0.022807435114037784 0.019789727946594577 0.0 0.00993619103365896 0.0 0.0
-0.018331355976906216 0.015502052675864682 0.0 0.008561731046517534 0.0 0.0
-0.014590136828902398 0.011974007506831854 0.0 0.007373423359386446 0.0 0.0
-0.011443231075934543 0.009048824202616592 0.0 0.006260228013250596 0.0 0.0
-0.008740517436622913 0.006562241613735056 0.0 0.005137237677580841 0.0 0.0
-0.006389285173003249 0.004436072053792399 0.0 0.00398378652720395 0.0 0.0
-0.0044037407564637395 0.0027019341801840053 0.0 0.0028785024475110376 0.0 0.0
-0.0028903115839031086 0.0014931798807808936 0.0 0.002100910380770033 0.0 0.0
-0.0019086282104904227 0.0008621185880166582 0.0 0.0017723955739261553 0.0 0.0
-0.0013574357954218208 0.0006255672680253368 0.0 0.00175593521891654 0.0 0.0
-0.0010279589947405586 0.0004955017556227021 0.0 0.0018305218757009838 0.0 0.0
-0.0007622645546948849 0.0003704423625406675 0.0 0.0019073322784095804 0.0 0.0
-0.0004675029337661643 0.0001732543401937154 0.0 0.0018983062586988082 0.0 0.0
-0.00011625184119125348 -0.00021927534534795147 0.0 0.0014584939879680378 0.0 0.0
6.889456361356728e-05 -0.0005523753677009126 0.0 0.0008741619445458704 0.0 0.0
8.201055998435767e-06 -0.0003492166181701701 0.0 -0.0007195126584440368 0.0 0.0
-0.00017115705772740745 -0.0001523723499243293 0.0 -0.0012547242940644315 0.0 0.0
-0.0005407225954117914 0.0002071231376531261 0.0 -0.0016984311387275234 0.0 0.0
-0.0008950409932638288 0.0004193630156486552 0.0 -0.0017190478126128026 0.0 0.0
-0.0012327607991513825 0.0005751890433614151 0.0 -0.001614417513685561 0.0 0.0
-0.0016735070346225022 0.0007507470618362146 0.0 -0.0014847170240388276 0.0 0.0
-0.002441463204250422 0.001157985943642943 0.0 -0.0015298449804762066 0.0 0.0
-0.0037692204899702833 0.002133116283148506 0.0 -0.0019983451445296763 0.0 0.0
-0.0057111986201054685 0.0037963208966447226 0.0 -0.002922834422826901 0.0 0.0
-0.008160954738449765 0.0059961216206370965 0.0 -0.004011629374654855 0.0 0.0
-0.011051536794598983 0.008652340670284316 0.0 -0.005108486895724713 0.0 0.0
-0.014416197486647332 0.011780583796429973 0.0 -0.0061907568188953885 0.0 0.0
-0.018361843263737958 0.015481158128482702 0.0 -0.007284953789173464 0.0 0.0
-0.023058129015000775 0.019939892870293813 0.0 -0.008480939376221722 0.0 0.0
-0.028678426790564336 0.025341232544121982 0.0 -0.009881505449872903 0.0 0.0
-0.03525145168696492 0.031758189050505745 0.0 -0.011669373774194086 0.0 0.0
-0.04237426014963709 0.03887723702672029 0.0 -0.014266399001098131 0.0 0.0
-0.04880449603787575 0.04553577117378211 0.0 -0.018108311023691034 0.0 0.0
-0.05208658639960166 0.0493035876135911 0.0 -0.022773994058967587 0.0 0.0
-0.048452052386701305 0.046423638449547444 0.0 -0.02630764287067149 0.0 0.0
-0.04435501767632731 0.031887954557238626 0.0 1.1626116735996561e-14 0.0 0.0
-0.04845205238669667 0.04642363844954333 0.0 0.026307642870699168 0.0 0.0
-0.052086586399590476 0.04930358761358279 0.0 0.022773994058994856 0.0 0.0
-0.04880449603785794 0.04553577117376445 0.0 0.01810831102370696 0.0 0.0
-0.04237426014961462 0.03887723702669924 0.0 0.014266399001099973 0.0 0.0
-0.035251451686941715 0.03175818905048522 0.0 0.01166937377418958 0.0 0.0
-0.02867842679054127 0.025341232544103847 0.0 0.009881505449868292 0.0 0.0
-0.023058129014977228 0.019939892870271227 0.0 0.008480939376216103 0.0 0.0
-0.01836184326371402 0.015481158128459332 0.0 0.007284953789167227 0.0 0.0
-0.014416197486623913 0.011780583796408992 0.0 0.006190756818886236 0.0 0.0
-0.011051536794577614 0.008652340670266361 0.0 0.005108486895713071 0.0 0.0
-0.008160954738432136 0.005996121620620369 0.0 0.004011629374645621 0.0 0.0
-0.0057111986200923835 0.003796320896632706 0.0 0.002922834422819844 0.0 0.0
-0.003769220489961099 0.0021331162831401927 0.0 0.0019983451445247484 0.0 0.0
-0.002441463204245095 0.0011579859436406644 0.0 0.0015298449804736765 0.0 0.0
-0.001673507034620108 0.0007507470618353579 0.0 0.0014847170240380309 0.0 0.0
-0.0012327607991500671 0.0005751890433605282 0.0 0.0016144175136836188 0.0 0.0
-0.0008950409932628111 0.00041936301564948254 0.0 0.0017190478126115156 0.0 0.0
-0.0005407225954113464 0.00020712313765262633 0.0 0.0016984311387259771 0.0 0.0
-0.00017115705772742152 -0.00015237234992396026 0.0 0.001254724294062658 0.0 0.0
8.201055998361608e-06 -0.00034921661816995133 0.0 0.0007195126584434148 0.0 0.0
-4.3329024004459815e-05 -0.00019022514025785592 0.0 -0.0005629316131080028 0.0 0.0
-0.00022076073171680772 -8.495942667567714e-05 0.0 -0.0010306850326025504 0.0 0.0
-0.0006111946534363619 0.0002421409815263737 0.0 -0.0014517023837455182 0.0 0.0
-0.0010214153480579376 0.00046564199094023366 0.0 -0.0014768041256226795 0.0 0.0
-0.0014322606883733697 0.0006441754847052507 0.0 -0.0013464466967891392 0.0 0.0
-0.0020044890299153587 0.0008953763766153143 0.0 -0.001185115186558069 0.0 0.0
-0.0030280820126597973 0.0015363749615694613 0.0 -0.0012815933088203577 0.0 0.0
-0.004715726356060337 0.0029005765686791773 0.0 -0.001872274468415737 0.0 0.0
-0.007047739354551493 0.004960056380385009 0.0 -0.0027471532560927802 0.0 0.0
-0.009938142093828777 0.007596465580918832 0.0 -0.003708517472198184 0.0 0.0
-0.013376387753389197 0.010784030949379731 0.0 -0.004704158283222681 0.0 0.0
-0.01741081287618928 0.01455899601074169 0.0 -0.005684631618947974 0.0 0.0
-0.022170199684719654 0.019049994600001664 0.0 -0.006693224966474777 0.0 0.0
-0.027840599650453705 0.024457311668493468 0.0 -0.007829691486152755 0.0 0.0
-0.034588578820416306 0.030965705173760974 0.0 -0.00917194372783329 0.0 0.0
-0.042447940596786526 0.03864265909551642 0.0 -0.010774460731468247 0.0 0.0
-0.05099616222392615 0.047170609792933686 0.0 -0.012906813066571817 0.0 0.0
-0.05877164790922805 0.05523818271638628 0.0 -0.01629456513847425 0.0 0.0
-0.06282838047647209 0.059936151692364784 0.0 -0.021421150532203097 0.0 0.0
-0.05873464619917204 0.05679059328040727 0.0 -0.027500764349531758 0.0 0.0
-0.054011061222922416 0.040063553442375076 0.0 1.074661193367632e-14 0.0 0.0
-0.05873464619916542 0.05679059328039879 0.0 0.027500764349560454 0.0 0.0
-0.06282838047645853 0.05993615169235328 0.0 0.02142115053222959 0.0 0.0
-0.05877164790920725 0.05523818271636653 0.0 0.016294565138489918 0.0 0.0
-0.05099616222390066 0.04717060979290874 0.0 0.012906813066574723 0.0 0.0
-0.042447940596759375 0.038642659095491735 0.0 0.010774460731465398 0.0 0.0
-0.034588578820389015 0.030965705173737187 0.0 0.009171943727829835 0.0 0.0
-0.0278405996504259 0.02445731166846626 0.0 0.007829691486147 0.0 0.0
-0.0221701996846913 0.019049994599974553 0.0 0.0066932249664683925 0.0 0.0
-0.01741081287616193 0.014558996010715187 0.0 0.005684631618940437 0.0 0.0
-0.013376387753364551 0.01078403094935939 0.0 0.004704158283212385 0.0 0.0
-0.009938142093808265 0.007596465580896872 0.0 0.003708517472188853 0.0 0.0
-0.007047739354535508 0.004960056380370776 0.0 0.002747153256086518 0.0 0.0
-0.0047157263560487425 0.002900576568666769 0.0 0.0018722744684113142 0.0 0.0
-0.0030280820126528064 0.0015363749615655948 0.0 0.0012815933088180793 0.0 0.0
-0.0020044890299121833 0.0008953763766141646 0.0 0.0011851151865569175 0.0 0.0
-0.001432260688371828 0.0006441754847044017 0.0 0.001346446696788463 0.0 0.0
-0.0010214153480568758 0.00046564199094111186 0.0 0.001476804125621221 0.0 0.0
-0.0006111946534358313 0.00024214098152544069 0.0 0.001451702383743958 0.0 0.0
-0.00022076073171634487 -8.495942667578602e-05 0.0 0.0010306850326016067 0.0 0.0
-4.332902400396811e-05 -0.00019022514025768004 0.0 0.0005629316131075864 0.0 0.0
-8.295067021070696e-05 -7.624586723828794e-05 0.0 -0.0004080005134265549 0.0 0.0
-0.00026189906793313135 -2.148132868857852e-05 0.0 -0.0007889205392066776 0.0 0.0
-0.0006768808647691808 0.00027610044790903033 0.0 -0.0011573317470225197 0.0 0.0
-0.0011430299564178434 0.0005095201258970871 0.0 -0.0011797301655189557 0.0 0.0
-0.001632778338508277 0.0007084905769114793 0.0 -0.0010293379420443438 0.0 0.0
-0.0023660122741577905 0.0010733280348658436 0.0 -0.0008551170208890678 0.0 0.0
-0.0036774064624601702 0.0020191723576236664 0.0 -0.0010471685203829483 0.0 0.0
-0.005694964748290315 0.003738755604824353 0.0 -0.0016132157613309957 0.0 0.0
-0.00838250670583475 0.00614888948150506 0.0 -0.002315853264228916 0.0 0.0
-0.01171736889269393 0.009220721403812913 0.0 -0.0031146870388759165 0.0 0.0
-0.01570550234585137 0.012939604537431362 0.0 -0.003942606345419366 0.0 0.0
-0.020419679215613752 0.017369607992729547 0.0 -0.004760258069836755 0.0 0.0
-0.026010135488205764 0.02266506849181038 0.0 -0.005609528609109243 0.0 0.0
-0.032663054174434616 0.029037428088904603 0.0 -0.006601480731943333 0.0 0.0
-0.04052481067773768 0.036647291830428856 0.0 -0.007806741124895164 0.0 0.0
-0.049578836138638775 0.045500004574314225 0.0 -0.00915690405702622 0.0 0.0
-0.05938653989420212 0.05524513962448535 0.0 -0.01059086145727684 0.0 0.0
-0.06845245182481727 0.06461401551930929 0.0 -0.01286996492610218 0.0 0.0
-0.07348797568792528 0.07045523983836388 0.0 -0.018140784921238065 0.0 0.0
-0.06927952740900724 0.06748274075302794 0.0 -0.02761137458984173 0.0 0.0
-0.06410162380280725 0.048810622354771904 0.0 1.0520230520061347e-14 0.0 0.0
-0.06927952740899926 0.0674827407530189 0.0 0.027611374589864728 0.0 0.0
-0.07348797568790907 0.07045523983834535 0.0 0.018140784921261286 0.0 0.0
-0.06845245182479305 0.0646140155192854 0.0 0.012869964926115496 0.0 0.0
-0.0593865398941732 0.055245139624454015 0.0 0.01059086145728082 0.0 0.0
-0.049578836138607994 0.045500004574288114 0.0 0.009156904057025149 0.0 0.0
-0.04052481067770616 0.03664729183039908 0.0 0.007806741124891674 0.0 0.0
-0.03266305417440275 0.029037428088873767 0.0 0.006601480731938834 0.0 0.0
-0.0260101354881734 0.022665068491778746 0.0 0.005609528609103766 0.0 0.0
-0.020419679215582364 0.017369607992700865 0.0 0.004760258069830752 0.0 0.0
-0.015705502345823383 0.012939604537403743 0.0 0.003942606345409856 0.0 0.0
-0.01171736889267064 0.009220721403790546 0.0 0.003114687038868439 0.0 0.0
-0.008382506705816334 0.00614888948148861 0.0 0.002315853264223951 0.0 0.0
-0.005694964748276525 0.003738755604811659 0.0 0.0016132157613272403 0.0 0.0
-0.003677406462451548 0.0020191723576169856 0.0 0.0010471685203804826 0.0 0.0
-0.002366012274153797 0.0010733280348637561 0.0 0.0008551170208877198 0.0 0.0
-0.0016327783385067618 0.0007084905769106358 0.0 0.0010293379420434237 0.0 0.0
-0.001143029956417012 0.0005095201258979726 0.0 0.001179730165517462 0.0 0.0
-0.0006768808647683036 0.00027610044790857133 0.0 0.0011573317470215188 0.0 0.0
-0.0002618990679325628 -2.1481328688823683e-05 0.0 0.0007889205392049713 0.0 0.0
-8.29506702104755e-05 -7.624586723812326e-05 0.0 0.0004080005134260216 0.0 0.0
-0.00010613614352913465 -8.31886679419773e-06 0.0 -0.0002639033791460392 0.0 0.0
-0.00028912718497326747 3.238811460860702e-05 0.0 -0.0005328753714190655 0.0 0.0
-0.0007346121738842207 0.0003055368390781095 0.0 -0.0008100385396258468 0.0 0.0
-0.001262016906939667 0.0005519434769182575 0.0 -0.0008243360915881287 0.0 0.0
-0.0018446271038462833 0.0007792609220387959 0.0 -0.0006696379503536184 0.0 0.0
-0.0027756096551932938 0.0013183703629744425 0.0 -0.0005284741329862136 0.0 0.0
-0.004366871091185117 0.0025846384606348386 0.0 -0.0007617538599367015 0.0 0.0
-0.006678233004845334 0.004596686211019149 0.0 -0.001158959157071309 0.0 0.0
-0.009713803036370077 0.0073529866074907805 0.0 -0.00166544436520616 0.0 0.0
-0.013488939255312152 0.010854245250827036 0.0 -0.0022408881043698087 0.0 0.0
-0.018031493284419223 0.0151061395408757 0.0 -0.002837512515242913 0.0 0.0
-0.023434495095730305 0.02020001067948867 0.0 -0.003423468864391008 0.0 0.0
-0.029866131749408324 0.02631417001943624 0.0 -0.004043804609697371 0.0 0.0
-0.037517948023332845 0.033663013612698446 0.0 -0.004814095232721668 0.0 0.0
-0.04647954438639199 0.0423649818527108 0.0 -0.005767202197162175 0.0 0.0
-0.05661901586474721 0.05231773842820087 0.0 -0.006780149730281719 0.0 0.0
-0.06744614405550231 0.06305218540387314 0.0 -0.007584652282881844 0.0 0.0
-0.07767984817186657 0.07342963779287869 0.0 -0.008452553362745195 0.0 0.0
-0.08402209589650272 0.08070560867905094 0.0 -0.012446343153570873 0.0 0.0
-0.08031990988162989 0.0787799267486271 0.0 -0.025786923263260042 0.0 0.0
-0.07501350439058917 0.058616891091673465 0.0 8.612034696486859e-15 0.0 0.0
-0.08031990988162056 0.07877992674861678 0.0 0.02578692326327794 0.0 0.0
-0.08402209589648355 0.08070560867902944 0.0 0.012446343153589993 0.0 0.0
-0.07767984817183883 0.0734296377928512 0.0 0.008452553362755364 0.0 0.0
-0.0674461440554696 0.06305218540383747 0.0 0.007584652282884234 0.0 0.0
-0.05661901586471255 0.05231773842817146 0.0 0.006780149730283324 0.0 0.0
-0.04647954438635655 0.04236498185267879 0.0 0.005767202197160801 0.0 0.0
-0.03751794802329676 0.033663013612664536 0.0 0.004814095232718432 0.0 0.0
-0.029866131749371562 0.026314170019397842 0.0 0.0040438046096948335 0.0 0.0
-0.023434495095695167 0.02020001067945514 0.0 0.0034234688643870123 0.0 0.0
-0.018031493284388352 0.015106139540844353 0.0 0.002837512515234986 0.0 0.0
-0.01348893925528588 0.010854245250803439 0.0 0.002240888104364682 0.0 0.0
-0.009713803036348768 0.007352986607472604 0.0 0.0016654443652023248 0.0 0.0
-0.0066782330048296154 0.004596686211004813 0.0 0.0011589591570678828 0.0 0.0
-0.00436687109117492 0.0025846384606245873 0.0 0.0007617538599342084 0.0 0.0
-0.0027756096551881815 0.0013183703629712257 0.0 0.0005284741329853432 0.0 0.0
-0.0018446271038442688 0.0007792609220376383 0.0 0.0006696379503532435 0.0 0.0
-0.001262016906938546 0.0005519434769182636 0.0 0.0008243360915877225 0.0 0.0
-0.0007346121738836957 0.00030553683907805256 0.0 0.0008100385396249899 0.0 0.0
-0.0002891271849731059 3.238811460867937e-05 0.0 0.0005328753714183641 0.0 0.0
-0.00010613614352898907 -8.318866794119407e-06 0.0 0.00026390337914511034 0.0 0.0
-0.00010506383756476103 1.3429627849272235e-05 0.0 -0.0001513354338748914 0.0 0.0
-0.00029332419919200526 6.756752381815336e-05 0.0 -0.0002667340150700418 0.0 0.0
-0.0007793772792795008 0.0003256171345654315 0.0 -0.0003964640246883414 0.0 0.0
-0.0013842830973918566 0.0005956859782592593 0.0 -0.00040240013804372844 0.0 0.0
-0.0020866458512129203 0.000876082790509156 0.0 -0.00028177856481565437 0.0 0.0
-0.003229111066893081 0.0016382828866324292 0.0 -0.00020599974814207217 0.0 0.0
-0.005075370865174905 0.0031898556159571973 0.0 -0.0003520287582261905 0.0 0.0
-0.007656275285424008 0.005465351704793855 0.0 -0.0005509313462262934 0.0 0.0
-0.011031548648196398 0.008559192342206515 0.0 -0.0008018363492775122 0.0 0.0
-0.015244231377035396 0.012483446969212322 0.0 -0.0010950094323404732 0.0 0.0
-0.020344506356574355 0.017271680911315618 0.0 -0.001390442411072345 0.0 0.0
-0.026447400641584455 0.023042363686300145 0.0 -0.0016768561842383796 0.0 0.0
-0.033735866799470195 0.02998962701236184 0.0 -0.0020213283311489114 0.0 0.0
-0.04237882131472221 0.03830883755403626 0.0 -0.00246062532023142 0.0 0.0
-0.05241499240643692 0.04808055920268916 0.0 -0.0030021860680083884 0.0 0.0
-0.06359258043078195 0.05909065985004727 0.0 -0.00358969029580364 0.0 0.0
-0.07522516022137028 0.07066748381336431 0.0 -0.003988858108428568 0.0 0.0
-0.08617191560606846 0.08161916253486186 0.0 -0.0040183246721871594 0.0 0.0
-0.0941179877925215 0.08995425830673688 0.0 -0.005355280098050324 0.0 0.0
-0.09217140894886403 0.09079321873890733 0.0 -0.017932240504098248 0.0 0.0
-0.08741072765787362 0.07092874657353686 0.0 3.834606243646732e-15 0.0 0.0
-0.09217140894885315 0.09079321873889618 0.0 0.017932240504108868 0.0 0.0
-0.09411798779249934 0.08995425830671436 0.0 0.005355280098061489 0.0 0.0
-0.086171915606037 0.0816191625348317 0.0 0.0040183246721937575 0.0 0.0
-0.07522516022133333 0.07066748381332583 0.0 0.0039888581084294465 0.0 0.0
-0.06359258043074294 0.0590906598500128 0.0 0.0035896902958049374 0.0 0.0
-0.05241499240639745 0.04808055920265206 0.0 0.0030021860680068454 0.0 0.0
-0.0423788213146819 0.03830883755399761 0.0 0.0024606253202293354 0.0 0.0
-0.033735866799429116 0.029989627012321822 0.0 0.002021328331147411 0.0 0.0
-0.026447400641545653 0.023042363686260656 0.0 0.0016768561842365397 0.0 0.0
-0.020344506356540434 0.017271680911283747 0.0 0.001390442411068245 0.0 0.0
-0.015244231377006458 0.01248344696918401 0.0 0.001095009432338107 0.0 0.0
-0.011031548648172969 0.008559192342186548 0.0 0.000801836349275286 0.0 0.0
-0.007656275285406266 0.005465351704777261 0.0 0.0005509313462234844 0.0 0.0
-0.005075370865162844 0.003189855615945872 0.0 0.00035202875822473115 0.0 0.0
-0.0032291110668867203 0.0016382828866282131 0.0 0.0002059997481413818 0.0 0.0
-0.0020866458512103624 0.0008760827905073636 0.0 0.0002817785648170006 0.0 0.0
-0.0013842830973907875 0.0005956859782580105 0.0 0.00040240013804428273 0.0 0.0
-0.0007793772792787257 0.0003256171345650239 0.0 0.0003964640246875361 0.0 0.0
-0.00029332419919162026 6.756752381859803e-05 0.0 0.00026673401507079094 0.0 0.0
-0.00010506383756486918 1.3429627849195224e-05 0.0 0.00015133543387413982 0.0 0.0
-6.523775864618239e-05 1.2845499981814248e-05 0.0 -9.629767906131067e-05 0.0 0.0
-0.0002588268150036192 7.903966159503565e-05 0.0 -0.00011076109225638614 0.0 0.0
-0.000804235592065493 0.00033265479994881643 0.0 -0.00013579257537285418 0.0 0.0
-0.0015213750223320578 0.0006182767918194118 0.0 -0.00013153311936401447 0.0 0.0
-0.002372275048978385 0.0009345995033431236 0.0 1.5047917563451021e-06 0.0 0.0
-0.0037168282443635816 0.0018128326837190132 0.0 0.00013559210030842023 0.0 0.0
-0.005787554047137104 0.003497877257663689 0.0 0.00015616461079869925 0.0 0.0
-0.008622223064916956 0.00590157317989504 0.0 0.00016339020658282237 0.0 0.0
-0.012327068719488906 0.00916086170198117 0.0 0.0001678906296842279 0.0 0.0
-0.016973212561249854 0.013295558520825809 0.0 0.00014925641910473373 0.0 0.0
-0.022636597592257498 0.018352183238303205 0.0 0.0001566283064655049 0.0 0.0
-0.029456495573402276 0.02446634377007537 0.0 0.00018732619949793014 0.0 0.0
-0.037600374267238015 0.031833338265841456 0.0 0.0001653517490118328 0.0 0.0
-0.047215690319124134 0.04063206427115932 0.0 0.000126811856400298 0.0 0.0
-0.058303694847358346 0.0509332490031417 0.0 -1.1092205446074956e-05 0.0 0.0
-0.07049430246904072 0.06246495784783771 0.0 -0.00026413714864640704 0.0 0.0
-0.08288540799665631 0.07444222897269864 0.0 -0.0005506713314655434 0.0 0.0
-0.09405707241536249 0.08557563385091405 0.0 -0.000689079204050683 0.0 0.0
-0.10252505405466648 0.09418015901146672 0.0 -0.0009543731716932652 0.0 0.0
-0.10476715671015116 0.09696693105208887 0.0 -0.0123380023399847 0.0 0.0
-0.10361660429955157 0.07799561033409108 0.0 1.1379786002407855e-15 0.0 0.0
-0.10476715671013903 0.09696693105208005 0.0 0.012338002339988604 0.0 0.0
-0.10252505405464075 0.09418015901144267 0.0 0.0009543731716968613 0.0 0.0
-0.09405707241532603 0.08557563385088401 0.0 0.0006890792040539582 0.0 0.0
-0.08288540799661483 0.07444222897265575 0.0 0.0005506713314645997 0.0 0.0
-0.0704943024689976 0.062464957847800866 0.0 0.0002641371486465597 0.0 0.0
-0.058303694847314014 0.05093324900310261 0.0 1.1092205444701922e-05 0.0 0.0
-0.047215690319078955 0.04063206427111825 0.0 -0.00012681185639989035 0.0 0.0
-0.03760037426719324 0.03183333826580251 0.0 -0.00016535174901228036 0.0 0.0
-0.029456495573359665 0.0244663437700354 0.0 -0.00018732619949842844 0.0 0.0
-0.02263659759222004 0.018352183238269315 0.0 -0.00015662830646625452 0.0 0.0
-0.016973212561218504 0.013295558520795952 0.0 -0.00014925641910466412 0.0 0.0
-0.012327068719463296 0.009160861701959292 0.0 -0.0001678906296846748 0.0 0.0
-0.008622223064897478 0.005901573179878084 0.0 -0.00016339020658275396 0.0 0.0
-0.005787554047123863 0.0034978772576525867 0.0 -0.00015616461079919614 0.0 0.0
-0.003716828244355758 0.0018128326837143828 0.0 -0.00013559210030842067 0.0 0.0
-0.0023722750489750333 0.0009345995033410361 0.0 -1.5047917558127588e-06 0.0 0.0
-0.0015213750223309291 0.0006182767918177871 0.0 0.00013153311936520829 0.0 0.0
-0.0008042355920647686 0.0003326547999479932 0.0 0.00013579257537254546 0.0 0.0
-0.00025882681500330614 7.90396615959871e-05 0.0 0.00011076109225581539 0.0 0.0
-6.523775864614378e-05 1.2845499981633653e-05 0.0 9.629767906075011e-05 0.0 0.0
SCALARS Statev float 8
LOOKUP_TABLE default
0.0 0.013877548537048442 0.010960055377480455 -0.013297668997337269 0.0023376136198568335 -0.0004975944995873208 0.0 0.0
0.0 0.004215135335032251 0.0029973177974677665 -0.0016755747291574339 -0.001321743068310332 -0.005375113675957413 0.0 0.0
0.0 -2.4924685173151584e-05 1.1473419553286891e-05 -8.24410981000931e-06 -3.2293097432777582e-06 -0.00010226116543375153 0.0 0.0
0.0 8.231729616459645e-05 -4.3164144572029534e-07 6.44718558813253e-07 -2.1307711309304637e-07 3.9152616444845425e-06 0.0 0.0
0.0 0.0005051370920040541 0.00020753067605738294 -0.00014876263619009527 -5.8768039867287996e-05 5.988864706787232e-05 0.0 0.0
0.0 0.001144692971158608 0.001207063242818848 -0.0009250222874444174 -0.00028204095537443126 0.00011889930917148518 0.0 0.0
0.0 0.003134423774636929 0.002908866744698504 -0.002375946595539601 -0.0005329201491589001 0.00015789473194958292 0.0 0.0
0.0 0.005958062235797967 0.005472352959436428 -0.00469830661625251 -0.0007740463431839218 0.00017797666026423114 0.0 0.0
0.0 0.00983231266062937 0.008919644885114368 -0.007942395495783166 -0.0009772493893312059 0.0001908676563030751 0.0 0.0
0.0 0.014836742472790227 0.013284254816876314 -0.0121134140641395 -0.0011708407527368059 0.00018655723663232637 0.0 0.0
0.0 0.021039729638246924 0.018636936966722778 -0.01725559927057939 -0.0013813376961433707 0.0002081572068003893 0.0 0.0
0.0 0.028279742246779614 0.02512792020067766 -0.02350973322251671 -0.0016181869781609654 0.0002509668673669756 0.0 0.0
0.0 0.03711355830835458 0.0329286026642418 -0.031053364341408863 -0.0018752383228329158 0.00023390880374462783 0.0 0.0
0.0 0.047662673792562824 0.04219885555552957 -0.04005261429005675 -0.002146241265472851 0.00020886503916264906 0.0 0.0
0.0 0.06000320675559838 0.053000961910210705 -0.05058432402671317 -0.0024166378834975244 0.00011180358908939982 0.0 0.0
0.0 0.07394286278092972 0.06513050992451994 -0.06245900523300811 -0.002671504691511784 -8.213809887970243e-05 0.0 0.0
0.0 0.08876060362829286 0.07799460151862146 -0.07509593114131355 -0.002898670377307963 -0.00034891283538317176 0.0 0.0
0.0 0.1032877203302092 0.09059161552183578 -0.0875057449556075 -0.0030858705662281626 -0.0005869804103530677 0.0 0.0
0.0 0.11602494385258937 0.10162849915553035 -0.098403373855876 -0.0032251252996544104 -0.0006369875837110798 0.0 0.0
0.0 0.12510094249804257 0.10966877655725482 -0.10636874465399415 -0.0033000319032607823 -0.0006372641223115027 0.0 0.0
0.0 0.128606198961686 0.11278511226896472 -0.10949095524061155 -0.003294157028353172 1.870031907102998e-15 0.0 0.0
0.0 0.12510094249802825 0.10966877655724266 -0.10636874465398154 -0.003300031903260933 0.0006372641223156878 0.0 0.0
0.0 0.11602494385256196 0.10162849915550648 -0.09840337385585277 -0.0032251252996537048 0.0006369875837152934 0.0 0.0
0.0 0.10328772033017251 0.09059161552180364 -0.08750574495557634 -0.0030858705662272358 0.0005869804103561522 0.0 0.0
0.0 0.08876060362824623 0.07799460151858092 -0.075095931141274 -0.002898670377307003 0.0003489128353837143 0.0 0.0
0.0 0.07394286278088633 0.06513050992448162 -0.062459005232970974 -0.002671504691510611 8.213809887912347e-05 0.0 0.0
0.0 0.060003206755554206 0.053000961910171736 -0.05058432402667582 -0.002416637883495903 -0.00011180358909042504 0.0 0.0
0.0 0.047662673792514494 0.0421988555554874 -0.04005261429001543 -0.002146241265471961 -0.00020886503916413474 0.0 0.0
0.0 0.03711355830830655 0.03292860266419982 -0.031053364341368024 -0.0018752383228317854 -0.00023390880374501597 0.0 0.0
0.0 0.028279742246736784 0.025127920200639836 -0.023509733222480324 -0.0016181869781595405 -0.0002509668673680793 0.0 0.0
0.0 0.021039729638207383 0.01863693696668785 -0.01725559927054579 -0.0013813376961420573 -0.00020815720680178733 0.0 0.0
0.0 0.014836742472760268 0.013284254816849968 -0.012113414064114368 -0.0011708407527356085 -0.00018655723663316799 0.0 0.0
0.0 0.009832312660606557 0.008919644885093796 -0.007942395495763751 -0.0009772493893300317 -0.00019086765630348267 0.0 0.0
0.0 0.005958062235781363 0.005472352959421002 -0.004698306616238108 -0.000774046343182891 -0.00017797666026447796 0.0 0.0
0.0 0.0031344237746251617 0.0029088667446868673 -0.002375946595529357 -0.0005329201491575085 -0.00015789473194955666 0.0 0.0
0.0 0.0011446929711537593 0.0012070632428134434 -0.0009250222874400951 -0.0002820409553733487 -0.00011889930917108502 0.0 0.0
0.0 0.0005051370920013904 0.00020753067605594166 -0.00014876263618906474 -5.876803986687625e-05 -5.9888647067500126e-05 0.0 0.0
0.0 8.231729616390952e-05 -4.3164144555331265e-07 6.447185586851402e-07 -2.1307711313134255e-07 -3.9152616444580845e-06 0.0 0.0
0.0 -2.4924685173512285e-05 1.1473419553176777e-05 -8.244109809913535e-06 -3.2293097432627496e-06 0.00010226116543315507 0.0 0.0
0.0 0.004215135335024494 0.002997317797463739 -0.0016755747291548751 -0.001321743068308858 0.0053751136759490415 0.0 0.0
0.0 0.013877548537031239 0.010960055377468726 -0.01329766899732069 0.002337613619851944 0.0004975944995599306 0.0 0.0
0.0 0.01110047723013449 0.008137173015153617 -0.010782773931679975 0.0026456009165263445 -7.4318045554309e-05 0.0 0.0
0.0 0.002349883865657409 0.0016724204364491344 -0.000887539498090133 -0.0007848809383589991 -0.0039381739370185345 0.0 0.0
0.0 -7.410499244334762e-06 -2.266908088420158e-05 1.913271008111799e-05 3.5363708030836223e-06 -1.4406783582295287e-05 0.0 0.0
0.0 9.727213093758812e-06 1.2886377814030026e-06 -9.800544732262756e-07 -3.085833081767764e-07 1.9892132818485595e-06 0.0 0.0
0.0 0.0002049430598662975 0.0001049618628439402 -7.556723979816497e-05 -2.939462304577526e-05 2.4667387400127947e-05 0.0 0.0
0.0 0.0010395709512017442 0.0008279748696463532 -0.0006395979958852413 -0.00018837687376111373 4.639316901770177e-05 0.0 0.0
0.0 0.0025773412269873438 0.0023965732829228934 -0.0019768928175481373 -0.00041968046537475454 -8.554144670446694e-05 0.0 0.0
0.0 0.005197408746219043 0.004739585544452997 -0.004114969591141217 -0.0006246159533117795 -0.00027469334854540685 0.0 0.0
0.0 0.008805379733815321 0.007910181824894669 -0.007132453250953327 -0.0007777285739413407 -0.0005252451361986808 0.0 0.0
0.0 0.01338879420467676 0.011916540135515402 -0.011016247518984269 -0.0009002926165311317 -0.0008171594538311819 0.0 0.0
0.0 0.019029319369311064 0.016805834803416547 -0.01579128117597529 -0.0010145536274412611 -0.00111535943390662 0.0 0.0
0.0 0.025967730380838328 0.022700654982355475 -0.021571699196389457 -0.0011289557859659924 -0.001410053348740061 0.0 0.0
0.0 0.03384341288639639 0.029797717603847865 -0.02855417144361898 -0.001243546160228877 -0.0017696389866631722 0.0 0.0
0.0 0.04359235192551696 0.03826501668961843 -0.03691286154656537 -0.001352155143053049 -0.00221631938707244 0.0 0.0
0.0 0.054998290832909205 0.04817391709577595 -0.04672998725839099 -0.0014439298373849514 -0.0027444330159615486 0.0 0.0
0.0 0.06789172463193786 0.05934690820044987 -0.05783737718504314 -0.0015095310154067559 -0.0033349928488562008 0.0 0.0
0.0 0.08167411364370611 0.07124087696173889 -0.0696969052678029 -0.001543971693935938 -0.003851552828599397 0.0 0.0
0.0 0.0952802480524542 0.08293900261553715 -0.0813890878845221 -0.0015499147310151001 -0.004026842600511947 0.0 0.0
0.0 0.10724977925897196 0.0932278667327419 -0.09169566445469417 -0.0015322022780476661 -0.003602818065760368 0.0 0.0
0.0 0.1159069787950508 0.10062394514288953 -0.09915276692450124 -0.001471178218388276 -0.002676804389342561 0.0 0.0
0.0 0.11939025608091067 0.10345042402935531 -0.10207211409180374 -0.0013783099375515918 4.188923513614995e-15 0.0 0.0
0.0 0.11590697879503851 0.10062394514287859 -0.09915276692449038 -0.0014711782183882381 0.0026768043893529623 0.0 0.0
0.0 0.10724977925894674 0.09322786673272021 -0.09169566445467223 -0.0015322022780478392 0.003602818065771493 0.0 0.0
0.0 0.09528024805242048 0.08293900261550788 -0.08138908788449294 -0.0015499147310149518 0.004026842600519489 0.0 0.0
0.0 0.08167411364366522 0.07124087696170363 -0.06969690526776809 -0.001543971693935538 0.0038515528286008115 0.0 0.0
0.0 0.0678917246318963 0.059346908200413696 -0.05783737718500724 -0.0015095310154063935 0.0033349928488546855 0.0 0.0
0.0 0.05499829083286831 0.04817391709574016 -0.046729987258356094 -0.0014439298373840766 0.002744433015960612 0.0 0.0
0.0 0.04359235192547249 0.03826501668957975 -0.036912861546527204 -0.001352155143052524 0.002216319387071144 0.0 0.0
0.0 0.03384341288635457 0.02979771760381146 -0.028554171443583343 -0.0012435461602281303 0.0017696389866612098 0.0 0.0
0.0 0.025967730380798113 0.02270065498232011 -0.021571699196354627 -0.0011289557859654516 0.0014100533487373865 0.0 0.0
0.0 0.01902931936927517 0.016805834803385204 -0.015791281175944687 -0.001014553627440517 0.0011153594339031276 0.0 0.0
0.0 0.01338879420464922 0.011916540135490705 -0.01101624751896023 -0.0009002926165304706 0.0008171594538284755 0.0 0.0
0.0 0.008805379733794028 0.007910181824875098 -0.0071324532509345765 -0.0007777285739405175 0.0005252451361967519 0.0 0.0
0.0 0.005197408746202966 0.004739585544438015 -0.004114969591127208 -0.0006246159533108046 0.0002746933485438421 0.0 0.0
0.0 0.0025773412269772355 0.0023965732829131126 -0.001976892817539491 -0.0004196804653736202 8.554144670354304e-05 0.0 0.0
0.0 0.0010395709511965133 0.0008279748696418836 -0.0006395979958816526 -0.0001883768737602307 -4.6393169017770226e-05 0.0 0.0
0.0 0.00020494305986451115 0.00010496186284311625 -7.556723979758365e-05 -2.9394623045532887e-05 -2.466738739981015e-05 0.0 0.0
0.0 9.727213093263795e-06 1.2886377816060338e-06 -9.800544733803452e-07 -3.085833082255309e-07 -1.9892132818622255e-06 0.0 0.0
0.0 -7.410499244340951e-06 -2.266908088405574e-05 1.9132710080990436e-05 3.536370803065181e-06 1.440678358219942e-05 0.0 0.0
0.0 0.0023498838656498882 0.0016724204364449294 -0.0008875394980873577 -0.0007848809383575692 0.003938173937009218 0.0 0.0
0.0 0.011100477230116387 0.008137173015139868 -0.010782773931661984 0.002645600916522105 7.431804553451781e-05 0.0 0.0
0.0 0.008007140137866041 0.005735696648540519 -0.007833845923084733 0.0020981492745442113 -0.001995795371292541 0.0 0.0
0.0 0.00162244362731285 0.0010080234018325425 -0.00047756688614853326 -0.000530456515684009 -0.0029575156707643264 0.0 0.0
0.0 1.2634912319597936e-08 -1.3678156687548327e-09 1.0394932843731892e-09 3.2832238438154863e-10 4.875689838480855e-10 0.0 0.0
0.0 2.4169222286052714e-06 4.0475960271728044e-07 -3.197042631018489e-07 -8.505533961555684e-08 -4.0762927333010405e-07 0.0 0.0
0.0 5.5708991582768975e-05 2.3138497655690878e-05 -1.5508357013334228e-05 -7.63014064235686e-06 1.052533989179938e-05 0.0 0.0
0.0 0.000680811012352645 0.00047290250461871225 -0.00035652999459522645 -0.00011637251002348554 3.5539163120821332e-06 0.0 0.0
0.0 0.0018673405833188445 0.0017941680042486054 -0.0014495837758460848 -0.0003445842284025214 -0.00025302625796950237 0.0 0.0
0.0 0.004220609097577517 0.003854499278534171 -0.003297038038819215 -0.0005574612397149562 -0.0006389730153783424 0.0 0.0
0.0 0.007406527168621612 0.006685058256780194 -0.005961822825257913 -0.0007232354315222766 -0.0011383256229284809 0.0 0.0
0.0 0.011541821479559424 0.010257867364525476 -0.009408729489569913 -0.0008491378749555601 -0.0017110602564340486 0.0 0.0
0.0 0.016574039913066135 0.014596560241456462 -0.013636206718674486 -0.0009603535227819689 -0.002311786417618669 0.0 0.0
0.0 0.022504076755805534 0.019802081633352762 -0.018732965346815535 -0.0010691162865372266 -0.0029150322843392103 0.0 0.0
0.0 0.029882887649956707 0.026046879363885007 -0.024869830432523523 -0.001177048931361486 -0.0035634475766974576 0.0 0.0
0.0 0.03824919139025021 0.033540394771392736 -0.03226207033231699 -0.0012783244390757332 -0.004359912702359432 0.0 0.0
0.0 0.048430871101572105 0.042359727884068804 -0.04099575944312108 -0.0013639684409477463 -0.0053236193009645145 0.0 0.0
0.0 0.05998161871859335 0.052361237175615305 -0.050935764513677054 -0.001425472661938223 -0.006368889179604833 0.0 0.0
0.0 0.07238879828622241 0.06308568083467216 -0.061625280520891834 -0.001460400313780301 -0.0072526251626796115 0.0 0.0
0.0 0.08470861677448543 0.07372718358199375 -0.0722587210393967 -0.0014684625425970782 -0.007539000525204718 0.0 0.0
0.0 0.09564436470889505 0.08314565042920834 -0.08170049740414372 -0.00144515302506462 -0.006818901344663539 0.0 0.0
0.0 0.10356419782142023 0.08993648136236253 -0.08853586114939192 -0.0014006202129705266 -0.0049755660879773084 0.0 0.0
0.0 0.10684469517739778 0.09259446151311888 -0.09131152960680006 -0.0012829319063187826 8.262054235208538e-15 0.0 0.0
0.0 0.10356419782141131 0.08993648136235383 -0.08853586114938379 -0.0014006202129700478 0.004975566087996479 0.0 0.0
0.0 0.09564436470887185 0.08314565042918816 -0.08170049740412332 -0.0014451530250649421 0.006818901344683931 0.0 0.0
0.0 0.08470861677445576 0.07372718358196802 -0.07225872103937081 -0.001468462542597161 0.007539000525217352 0.0 0.0
0.0 0.07238879828618831 0.06308568083464257 -0.06162528052086309 -0.0014604003137795095 0.007252625162682004 0.0 0.0
0.0 0.05998161871855655 0.05236123717558319 -0.05093576451364546 -0.001425472661937717 0.006368889179602905 0.0 0.0
0.0 0.04843087110153467 0.04235972788403614 -0.04099575944308906 -0.0013639684409470925 0.005323619300963162 0.0 0.0
0.0 0.03824919139021302 0.033540394771360164 -0.03226207033228534 -0.0012783244390748181 0.004359912702357454 0.0 0.0
0.0 0.02988288764992024 0.026046879363853064 -0.024869830432492426 -0.0011770489313606307 0.0035634475766936234 0.0 0.0
0.0 0.02250407675576986 0.019802081633321846 -0.018732965346785056 -0.001069116286536787 0.0029150322843341818 0.0 0.0
0.0 0.016574039913035188 0.014596560241428788 -0.013636206718647532 -0.0009603535227812454 0.0023117864176131044 0.0 0.0
0.0 0.011541821479534742 0.010257867364503178 -0.009408729489548247 -0.0008491378749549361 0.0017110602564293443 0.0 0.0
0.0 0.007406527168602294 0.0066850582567626535 -0.005961822825241207 -0.0007232354315214485 0.0011383256229250474 0.0 0.0
0.0 0.004220609097562522 0.0038544992785205894 -0.0032970380388066913 -0.0005574612397138966 0.0006389730153753207 0.0 0.0
0.0 0.0018673405833107169 0.001794168004240575 -0.0014495837758392554 -0.00034458422840131874 0.00025302625796802785 0.0 0.0
0.0 0.0006808110123487452 0.00047290250461569887 -0.00035652999459291623 -0.00011637251002278228 -3.5539163123299166e-06 0.0 0.0
0.0 5.5708991581881596e-05 2.313849765564211e-05 -1.5508357013314797e-05 -7.630140642327284e-06 -1.0525339891546527e-05 0.0 0.0
0.0 2.416922228285255e-06 4.047596027059304e-07 -3.1970426309154546e-07 -8.505533961436279e-08 4.0762927330237945e-07 0.0 0.0
0.0 1.2634912310065045e-08 -1.367815667713223e-09 1.0394932835817643e-09 3.283223841315191e-10 -4.875689834762404e-10 0.0 0.0
0.0 0.0016224436273067624 0.0010080234018288755 -0.0004775668861461403 -0.0005304565156827347 0.002957515670754459 0.0 0.0
0.0 0.008007140137847993 0.0057356966485272755 -0.007833845923067267 0.0020981492745399967 0.0019957953712790304 0.0 0.0
0.0 0.0058888344627023356 0.004092100392968535 -0.005712982621238818 0.001620882228270282 -0.002219595153764272 0.0 0.0
0.0 0.001078842493559818 0.0006279877074770091 -0.00028082878444035913 -0.00034715892303665007 -0.00208237919547962 0.0 0.0
0.0 0.0 0.0 0.0 0.0 0.0 0.0 0.0
0.0 -2.842914710435329e-07 3.887063885540293e-08 -2.906108199662305e-08 -9.809556858783492e-09 -4.508616138815143e-08 0.0 0.0
0.0 5.496839686075483e-06 -1.7980553060945826e-05 1.4220836959725234e-05 3.7597161012208423e-06 1.1344321615680617e-05 0.0 0.0
0.0 0.0003062789779937586 0.00022862503020934754 -0.00016846205156566436 -6.016297864368274e-05 -2.0177861714296178e-05 0.0 0.0
0.0 0.001418197168837618 0.0011961058010289494 -0.0009433880647749399 -0.00025271773625400775 -0.00026761401103791456 0.0 0.0
0.0 0.0032732644357458293 0.0029834597004018025 -0.0025067019568411073 -0.00047675774356069627 -0.0008432535848926398 0.0 0.0
0.0 0.0060790104700173524 0.0054618793686462015 -0.004805274244009395 -0.0006566051246368067 -0.0015410148270449885 0.0 0.0
0.0 0.009706681819349089 0.008598326259683554 -0.007808486855669197 -0.0007898394040143546 -0.0023382598285100857 0.0 0.0
0.0 0.014058285844796228 0.012391520315169668 -0.01149165587959694 -0.0008998644355727312 -0.003174867215543527 0.0 0.0
0.0 0.019351119127547736 0.016913007032940627 -0.015909759949935303 -0.0010032470830053084 -0.0040155720064262174 0.0 0.0
0.0 0.0254687984685719 0.02232928649135369 -0.021223893637324336 -0.0011053928540293513 -0.004905007216346332 0.0 0.0
0.0 0.033211692904522985 0.02882823926103823 -0.027629261597972216 -0.0011989776630660144 -0.005947922800559363 0.0 0.0
0.0 0.04201515345093279 0.03653299959995302 -0.03525497277913361 -0.0012780268208194114 -0.007208730735788799 0.0 0.0
0.0 0.05202115931383284 0.04534401676385124 -0.04400617325790586 -0.0013378435059453826 -0.008596336152942674 0.0 0.0
0.0 0.06313749752214406 0.054882259938290524 -0.053508470878348154 -0.0013737890599423701 -0.00977899370181673 0.0 0.0
0.0 0.07423334814910187 0.06446190853992209 -0.06307926226955843 -0.0013826462703636993 -0.010213377316319099 0.0 0.0
0.0 0.0841630866836703 0.07305413074652847 -0.07169075918028582 -0.0013633715662425081 -0.009347211922089496 0.0 0.0
0.0 0.0914559140611694 0.0793847616109575 -0.07805807583621863 -0.0013266857747389707 -0.006694277333736861 0.0 0.0
0.0 0.09468482016570694 0.08198276260819093 -0.0808223310283223 -0.001160431579868658 1.087975196045754e-14 0.0 0.0
0.0 0.09145591406116094 0.07938476161094908 -0.07805807583621041 -0.00132668577473865 0.0066942773337629324 0.0 0.0
0.0 0.08416308668365098 0.07305413074651107 -0.0716907591802687 -0.0013633715662423195 0.009347211922114677 0.0 0.0
0.0 0.07423334814907723 0.06446190853990037 -0.0630792622695368 -0.0013826462703635796 0.010213377316334732 0.0 0.0
0.0 0.06313749752211407 0.05488225993826462 -0.053508470878322924 -0.001373789059941718 0.00977899370181956 0.0 0.0
0.0 0.05202115931380091 0.04534401676382341 -0.04400617325787842 -0.001337843505944995 0.008596336152939551 0.0 0.0
0.0 0.04201515345089882 0.03653299959992351 -0.035254972779104485 -0.0012780268208190217 0.007208730735786003 0.0 0.0
0.0 0.03321169290449122 0.028828239261010236 -0.027629261597944856 -0.0011989776630653682 0.0059479228005569155 0.0 0.0
0.0 0.025468798468539028 0.022329286491325307 -0.02122389363729656 -0.0011053928540287448 0.004905007216341536 0.0 0.0
0.0 0.019351119127518447 0.016913007032914505 -0.015909759949909886 -0.001003247083004625 0.004015572006419579 0.0 0.0
0.0 0.014058285844769538 0.012391520315146062 -0.011491655879573863 -0.0008998644355721978 0.003174867215536362 0.0 0.0
0.0 0.009706681819326735 0.008598326259663707 -0.007808486855650075 -0.00078983940401363 0.002338259828503211 0.0 0.0
0.0 0.006079010470000197 0.005461879368630825 -0.0048052742439949 -0.0006566051246359236 0.0015410148270404832 0.0 0.0
0.0 0.003273264435734196 0.0029834597003905337 -0.0025067019568309596 -0.000476757743559575 0.0008432535848889102 0.0 0.0
0.0 0.0014181971688297138 0.0011961058010224851 -0.0009433880647695765 -0.00025271773625290815 0.0002676140110359172 0.0 0.0
0.0 0.00030627897799066225 0.0002286250302073661 -0.00016846205156418839 -6.016297864317771e-05 2.0177861714043633e-05 0.0 0.0
0.0 5.496839685431202e-06 -1.7980553060691757e-05 1.4220836959528445e-05 3.7597161011632775e-06 -1.1344321615502922e-05 0.0 0.0
0.0 -2.842914708965883e-07 3.887063885468802e-08 -2.9061081996154825e-08 -9.80955685852074e-09 4.5086161386170155e-08 0.0 0.0
0.0 0.0 0.0 0.0 0.0 0.0 0.0 0.0
0.0 0.0010788424935545373 0.000627987707474013 -0.00028082878443839695 -0.0003471589230356165 0.0020823791954712456 0.0 0.0
0.0 0.005888834462687453 0.004092100392956975 -0.005712982621223428 0.0016208822282664534 0.00221959515375423 0.0 0.0
0.0 0.004133700898005851 0.0028681353047683407 -0.004069411415797269 0.00120127611102893 -0.0019251264761935647 0.0 0.0
0.0 0.0008653362777817698 0.00035817571557594173 -0.00014096209427853356 -0.0002172136212974084 -0.0013383740904139379 0.0 0.0
0.0 0.0 0.0 0.0 0.0 0.0 0.0 0.0
0.0 -2.1175026786527247e-07 1.9226471027512064e-08 -1.544969006812908e-08 -3.77678095938152e-09 -2.443498433731356e-08 0.0 0.0
0.0 -6.228854496026557e-06 1.7420558708631732e-07 -1.4875243207265561e-07 -2.5453155013663677e-08 -1.0823303219933958e-06 0.0 0.0
0.0 0.00010973209993821031 4.149393605175161e-05 -2.783921402923737e-05 -1.3654722022514082e-05 2.1702244752082703e-05 0.0 0.0
0.0 0.0009713879652228234 0.0006895142017487618 -0.0005309394180569409 -0.00015857478369182086 -0.00022317267505113936 0.0 0.0
0.0 0.002379977960168674 0.0021403155917337343 -0.0017567538448921495 -0.0003835617468415835 -0.000848083510526054 0.0 0.0
0.0 0.004783136625298833 0.004255512185772828 -0.0036810390354827657 -0.0005744731502900593 -0.0017259157048080378 0.0 0.0
0.0 0.007876094794536014 0.006950586154673959 -0.006232073385690683 -0.0007185127689832783 -0.0026915636880027226 0.0 0.0
0.0 0.011648315780713117 0.01019931552754149 -0.009368655138745316 -0.0008306603887961736 -0.0037016888898860688 0.0 0.0
0.0 0.0161477129107531 0.01404907705171586 -0.013118686645617335 -0.0009303904060985271 -0.004711443413458747 0.0 0.0
0.0 0.02158236043845574 0.018637006703455097 -0.01761117262780493 -0.001025834075650159 -0.0057669651162112895 0.0 0.0
0.0 0.027782380111364104 0.024160044604813947 -0.023045990841441155 -0.0011140537633727776 -0.006982382157046891 0.0 0.0
0.0 0.035520268967289687 0.030733177225560356 -0.029545822235025263 -0.0011873549905350765 -0.008427523906016907 0.0 0.0
0.0 0.04441717169239632 0.03831776714449872 -0.03707472797034588 -0.0012430391741528328 -0.010006435644287638 0.0 0.0
0.0 0.053917518632628524 0.04664261762293435 -0.04536144409782909 -0.0012811735251052408 -0.011392661125774984 0.0 0.0
0.0 0.06373469454717155 0.05514150994996561 -0.0538465390265288 -0.0012949709234367922 -0.012013993338169264 0.0 0.0
0.0 0.07272274635073304 0.06293708865409167 -0.06165547977534498 -0.0012816088787467074 -0.01113221880429973 0.0 0.0
0.0 0.07956264935678263 0.06890019456776048 -0.06765357255290882 -0.0012466220148515956 -0.00798287158043132 0.0 0.0
0.0 0.0828376252238436 0.07150564201919893 -0.0704859233858509 -0.0010197186333480489 1.2352098510692855e-14 0.0 0.0
0.0 0.07956264935677393 0.06890019456775173 -0.06765357255289983 -0.0012466220148518257 0.007982871580461036 0.0 0.0
0.0 0.07272274635071783 0.06293708865407738 -0.06165547977533097 -0.001281608878746379 0.011132218804326374 0.0 0.0
0.0 0.06373469454714899 0.055141509949945364 -0.05384653902650871 -0.001294970923436662 0.012013993338186549 0.0 0.0
0.0 0.05391751863260137 0.04664261762291093 -0.045361444097806056 -0.001281173525104894 0.01139266112577886 0.0 0.0
0.0 0.04441717169236724 0.03831776714447353 -0.03707472797032067 -0.001243039174152837 0.010006435644284216 0.0 0.0
0.0 0.03552026896726196 0.030733177225536115 -0.029545822235001608 -0.0011873549905344924 0.008427523906013583 0.0 0.0
0.0 0.027782380111334496 0.02416004460478813 -0.023045990841415565 -0.0011140537633725631 0.006982382157043219 0.0 0.0
0.0 0.021582360438429118 0.018637006703431665 -0.017611172627781953 -0.0010258340756497005 0.00576696511620565 0.0 0.0
0.0 0.016147712910727134 0.014049077051692964 -0.013118686645594964 -0.0009303904060980078 0.004711443413450643 0.0 0.0
0.0 0.0116483157806916 0.010199315527522668 -0.009368655138727219 -0.0008306603887954545 0.00370168888987738 0.0 0.0
0.0 0.007876094794515742 0.00695058615465623 -0.006232073385673705 -0.0007185127689825248 0.0026915636879945495 0.0 0.0
0.0 0.004783136625284122 0.004255512185759542 -0.003681039035470372 -0.000574473150289165 0.001725915704802499 0.0 0.0
0.0 0.0023799779601591307 0.0021403155917249983 -0.0017567538448845215 -0.0003835617468404773 0.0008480835105220794 0.0 0.0
0.0 0.0009713879652167572 0.000689514201744278 -0.0005309394180533652 -0.00015857478369091306 0.00022317267504939415 0.0 0.0
0.0 0.00010973209993667341 4.1493936051265535e-05 -2.7839214028892722e-05 -1.3654722022372405e-05 -2.1702244751975163e-05 0.0 0.0
0.0 -6.228854496696803e-06 1.7420558712566083e-07 -1.4875243210453351e-07 -2.545315502119347e-08 1.0823303220520164e-06 0.0 0.0
0.0 -2.117502677458955e-07 1.9226471016883667e-08 -1.5449690059872236e-08 -3.776780957015529e-09 2.4434984322558555e-08 0.0 0.0
0.0 0.0 0.0 0.0 0.0 0.0 0.0 0.0
0.0 0.0008653362777767603 0.00035817571557373126 -0.00014096209427707975 -0.00021721362129665072 0.0013383740904073863 0.0 0.0
0.0 0.004133700897993753 0.0028681353047589416 -0.004069411415784525 0.00120127611102558 0.0019251264761863238 0.0 0.0
0.0 0.0028831390735780476 0.0019150944788730738 -0.0027512185904381863 0.0008361241115651119 -0.001489918683584467 0.0 0.0
0.0 0.0004232281810992779 0.00018275577336717658 -5.445082623408e-05 -0.0001283049471330969 -0.0007899669495859779 0.0 0.0
0.0 0.0 0.0 0.0 0.0 0.0 0.0 0.0
0.0 9.284367499638105e-09 -7.860409871244372e-10 5.99985333389106e-10 1.8605565373520125e-10 1.1788236078775784e-09 0.0 0.0
0.0 -2.4079842936061784e-06 -9.312185499145605e-07 7.485192435338139e-07 1.8269930638075667e-07 1.0819930473672238e-06 0.0 0.0
0.0 -5.303768169711454e-06 -5.474436690538688e-06 5.439591921124553e-06 3.484476941402031e-08 2.0803164292747146e-05 0.0 0.0
0.0 0.0003969706856580637 0.0003425168993848944 -0.0002585230768312055 -8.399382255368899e-05 -0.00016979549938234853 0.0 0.0
0.0 0.0018158236449391065 0.0013390882256471514 -0.0010712329835312674 -0.00026785524211588523 -0.0006937485370807284 0.0 0.0
0.0 0.003408253180830971 0.003085724059828809 -0.0026108350817507097 -0.00047488897807809695 -0.0016640766735457962 0.0 0.0
0.0 0.006125838362219993 0.005325953020204791 -0.0046964918268275644 -0.0006294611933772223 -0.0027583468562775984 0.0 0.0
0.0 0.009263186417756582 0.00803343432757056 -0.0072851750925325195 -0.000748259235038046 -0.003878568312235958 0.0 0.0
0.0 0.012978320199327868 0.01122137105233508 -0.010374276934801557 -0.0008470941175335169 -0.004997082974266888 0.0 0.0
0.0 0.01739711568863928 0.014999629827833066 -0.014061419616099923 -0.0009382102117331431 -0.006144805472349676 0.0 0.0
0.0 0.022791549304988612 0.019539606522984265 -0.018519984253753882 -0.0010196222692303797 -0.0074373601259347015 0.0 0.0
0.0 0.02910003018831942 0.024983293992189258 -0.0238948220413858 -0.0010884719508034645 -0.008962204624784177 0.0 0.0
0.0 0.03637153474007803 0.03133302257536918 -0.030190667192736442 -0.00114235538263273 -0.010625152461518789 0.0 0.0
0.0 0.04487698592265042 0.038392330990354044 -0.03721220250481115 -0.001180128485542893 -0.01210370360899269 0.0 0.0
0.0 0.05331961392300554 0.04576360328631986 -0.04456284778157356 -0.001200755504746299 -0.012871525491180954 0.0 0.0
0.0 0.06118021307832594 0.05276307715046969 -0.0515662875030688 -0.0011967896474008829 -0.012135309868950615 0.0 0.0
0.0 0.06768555797533736 0.058411494897172296 -0.057250039921096396 -0.0011614549760758939 -0.008869948912712863 0.0 0.0
0.0 0.07110018584228862 0.06107701437206354 -0.06021554416122869 -0.000861470210834811 1.2872949234354891e-14 0.0 0.0
0.0 0.06768555797532985 0.05841149489716415 -0.0572500399210881 -0.0011614549760761072 0.008869948912741761 0.0 0.0
0.0 0.06118021307831413 0.052763077150458 -0.05156628750305715 -0.0011967896474008178 0.012135309868978704 0.0 0.0
0.0 0.05331961392298447 0.045763603286301 -0.044562847781554574 -0.0012007555047463985 0.012871525491197449 0.0 0.0
0.0 0.04487698592262766 0.03839233099033441 -0.0372122025047921 -0.0011801284855423129 0.012103703608995724 0.0 0.0
0.0 0.036371534740054313 0.031333022575348604 -0.03019066719271615 -0.0011423553826324685 0.01062515246151479 0.0 0.0
0.0 0.029100030188296426 0.024983293992168996 -0.02389482204136632 -0.0010884719508026668 0.008962204624779826 0.0 0.0
0.0 0.022791549304965908 0.019539606522964124 -0.01851998425373423 -0.0010196222692299074 0.007437360125930395 0.0 0.0
0.0 0.017397115688615704 0.014999629827812859 -0.014061419616079922 -0.0009382102117329291 0.006144805472343545 0.0 0.0
0.0 0.01297832019930624 0.011221371052316397 -0.010374276934783341 -0.0008470941175330502 0.004997082974258628 0.0 0.0
0.0 0.009263186417738947 0.00803343432755544 -0.007285175092518329 -0.000748259235037113 0.0038785683122269307 0.0 0.0
0.0 0.0061258383622043895 0.005325953020191033 -0.004696491826814531 -0.0006294611933764995 0.002758346856269048 0.0 0.0
0.0 0.003408253180820181 0.003085724059818675 -0.0026108350817415312 -0.00047488897807714404 0.0016640766735400965 0.0 0.0
0.0 0.0018158236449305589 0.0013390882256405232 -0.0010712329835257425 -0.0002678552421147813 0.0006937485370771204 0.0 0.0
0.0 0.0003969706856543728 0.00034251689938228106 -0.00025852307682921 -8.399382255307099e-05 0.00016979549938107722 0.0 0.0
0.0 -5.303768170169557e-06 -5.474436690197741e-06 5.439591920846934e-06 3.484476935078982e-08 -2.0803164292225082e-05 0.0 0.0
0.0 -2.4079842936908775e-06 -9.312185499497104e-07 7.485192435620674e-07 1.8269930638762836e-07 -1.0819930474340759e-06 0.0 0.0
0.0 9.284367478450311e-09 -7.860409853173938e-10 5.99985332009828e-10 1.8605565330757216e-10 -1.1788236051675036e-09 0.0 0.0
0.0 0.0 0.0 0.0 0.0 0.0 0.0 0.0
0.0 0.0004232281810952639 0.00018275577336556592 -5.445082623302738e-05 -0.00012830494713253826 0.0007899669495808635 0.0 0.0
0.0 0.0028831390735683713 0.0019150944788655787 -0.002751218590427777 0.0008361241115621972 0.0014899186835790543 0.0 0.0
0.0 0.0017507814427038598 0.0011918315208845104 -0.0017235117802240152 0.0005316802593395046 -0.001070610111552775 0.0 0.0
0.0 0.0002041848546276474 5.633210890997057e-05 1.4481721647316922e-05 -7.08138305572875e-05 -0.00036841153075570606 0.0 0.0
0.0 0.0 0.0 0.0 0.0 0.0 0.0 0.0
0.0 0.0 0.0 0.0 0.0 0.0 0.0 0.0
0.0 -2.20136809645224e-06 1.8230827466406622e-07 -1.43997607305099e-07 -3.8310667358956034e-08 -4.699918086328855e-07 0.0 0.0
0.0 -1.605855342290374e-05 -1.4770541740546604e-05 1.1830945950534853e-05 2.9395957900118364e-06 2.5504974575665247e-05 0.0 0.0
0.0 0.0001430854492483375 8.754729342846609e-05 -6.495494071662535e-05 -2.2592352711840823e-05 -5.367122728773644e-05 0.0 0.0
0.0 0.0008668280525067121 0.0007277371258245685 -0.0005684462576956061 -0.00015929086812896244 -0.000525067835620773 0.0 0.0
0.0 0.002627801157207184 0.0019469898912310563 -0.0016051173422117586 -0.0003418725490192969 -0.0013383808436232038 0.0 0.0
0.0 0.004297090568681361 0.0037491128177708716 -0.003232958249183352 -0.000516154568587522 -0.002505722055173204 0.0 0.0
0.0 0.006951554606771037 0.005908498021900176 -0.005264490087977225 -0.000644007933922949 -0.003687048501805041 0.0 0.0
0.0 0.00993086757107745 0.008441263496659844 -0.0076946711949943776 -0.0007465923016654613 -0.004853280574888968 0.0 0.0
0.0 0.013424031263900679 0.011423430498687498 -0.010587243202622823 -0.0008361872960646846 -0.006025973533056733 0.0 0.0
0.0 0.017635983013770198 0.01500266635709671 -0.014088907362255328 -0.000913758994841374 -0.007313864860318955 0.0 0.0
0.0 0.022664674363844974 0.019314106882049344 -0.01833563918774354 -0.000978467694305795 -0.00879463595649672 0.0 0.0
0.0 0.028893391521154117 0.024403247119425903 -0.023374555243008792 -0.0010286918764171058 -0.010424185969644898 0.0 0.0
0.0 0.035297647893479674 0.03017747024464584 -0.02910861087824455 -0.0010688593664012948 -0.011915819727080291 0.0 0.0
0.0 0.0426740136865892 0.03635375820455896 -0.03525667807295144 -0.0010970801316074921 -0.01277794209108421 0.0 0.0
0.0 0.04987786441286659 0.0424939670268519 -0.04138996513535205 -0.0011040018914998523 -0.012297052617638438 0.0 0.0
0.0 0.055894528958189374 0.04783769919159086 -0.04676704644561157 -0.001070652745979273 -0.009322396524625558 0.0 0.0
0.0 0.05956472326505445 0.05061015859748566 -0.049926357393269685 -0.000683801204216009 1.1696806717642616e-14 0.0 0.0
0.0 0.055894528958184635 0.04783769919158465 -0.046767046445605615 -0.0010706527459789876 0.009322396524652561 0.0 0.0
0.0 0.04987786441285632 0.042493967026841134 -0.04138996513534136 -0.0011040018914997972 0.012297052617666518 0.0 0.0
0.0 0.042674013686573226 0.0363537582045444 -0.03525667807293681 -0.0010970801316075687 0.012777942091099349 0.0 0.0
0.0 0.03529764789346281 0.030177470244631282 -0.029108610878230783 -0.0010688593664004984 0.011915819727082534 0.0 0.0
0.0 0.028893391521135053 0.02440324711940958 -0.023374555242992645 -0.0010286918764169344 0.010424185969640001 0.0 0.0
0.0 0.022664674363824952 0.019314106882031678 -0.01833563918772626 -0.0009784676943053986 0.008794635956490899 0.0 0.0
0.0 0.01763598301375399 0.015002666357082133 -0.014088907362241544 -0.0009137589948405834 0.007313864860315514 0.0 0.0
0.0 0.01342403126388192 0.011423430498671535 -0.010587243202607408 -0.0008361872960641215 0.00602597353305075 0.0 0.0
0.0 0.009930867571059165 0.008441263496644537 -0.007694671194979454 -0.0007465923016650899 0.004853280574880315 0.0 0.0
0.0 0.006951554606756824 0.005908498021888147 -0.005264490087966133 -0.000644007933922011 0.0036870485017958445 0.0 0.0
0.0 0.004297090568668608 0.0037491128177600257 -0.0032329582491732226 -0.0005161545685868023 0.0025057220551649296 0.0 0.0
0.0 0.0026278011571966783 0.0019469898912231557 -0.001605117342204925 -0.0003418725490182313 0.0013383808436177762 0.0 0.0
0.0 0.000866828052500679 0.0007277371258198943 -0.0005684462576917556 -0.00015929086812813793 0.0005250678356173965 0.0 0.0
0.0 0.00014308544924572785 8.75472934271675e-05 -6.495494071566791e-05 -2.259235271149968e-05 5.367122728681527e-05 0.0 0.0
0.0 -1.6058553423517924e-05 -1.4770541740249686e-05 1.1830945950307184e-05 2.939595789942425e-06 -2.5504974575346885e-05 0.0 0.0
0.0 -2.2013680962724525e-06 1.8230827466858283e-07 -1.4399760730923796e-07 -3.831066735934162e-08 4.6999180865356833e-07 0.0 0.0
0.0 0.0 0.0 0.0 0.0 0.0 0.0 0.0
0.0 0.0 0.0 0.0 0.0 0.0 0.0 0.0
0.0 0.0002041848546246821 5.6332108908933706e-05 1.4481721647999678e-05 -7.081383055693348e-05 0.0003684115307521473 0.0 0.0
0.0 0.0017507814426969172 0.0011918315208791818 -0.001723511780216414 0.0005316802593372327 0.0010706101115488984 0.0 0.0
0.0 0.0013238174042044864 0.0006000292917629934 -0.0008696690409338586 0.00026963974917086544 -0.0006092922063501208 0.0 0.0
0.0 -2.3807458386155812e-05 -6.982237424310894e-06 3.932572321928998e-05 -3.2343485794979146e-05 -0.00010406012850001464 0.0 0.0
0.0 1.683476983325989e-07 -9.842474380911868e-10 1.1381256918532304e-09 -1.5387825376230337e-10 3.35101228491758e-08 0.0 0.0
0.0 0.0 0.0 0.0 0.0 0.0 0.0 0.0
0.0 -7.674759996941198e-07 -6.066459518748707e-08 5.097881668794708e-08 9.685778499545915e-09 1.2004243723107798e-07 0.0 0.0
0.0 -7.381324858473903e-06 -4.725339077362065e-06 3.7478910201884057e-06 9.774480571736256e-07 1.3033780043823302e-05 0.0 0.0
0.0 -3.349161296669812e-06 -1.1446167546333644e-05 9.55820614725001e-06 1.8879613990835168e-06 2.56161446043414e-05 0.0 0.0
0.0 0.0003264807801934979 0.0002652757205079212 -0.00020498989045632953 -6.028583005159176e-05 -0.00030339028776472395 0.0 0.0
0.0 0.0012880037604354152 0.0010113675565120652 -0.0008119055983815465 -0.00019946195813051794 -0.0009451064055486531 0.0 0.0
0.0 0.0030267145864140447 0.002233199820831522 -0.0018739783713330118 -0.0003592214494985101 -0.0019128183484600336 0.0 0.0
0.0 0.004729769395579916 0.003845745231977453 -0.0033445282708787897 -0.0005012169610986608 -0.003095362631019482 0.0 0.0
0.0 0.0069166893668670265 0.0057333720562931815 -0.005119702701194424 -0.0006136693550987637 -0.004246612056489854 0.0 0.0
0.0 0.009564004733220246 0.007933337196276577 -0.007226007881040742 -0.0007073293152358304 -0.005386273190758581 0.0 0.0
0.0 0.012684390230878414 0.01056882312791491 -0.009784176683148876 -0.00078464644476603 -0.006590240074969498 0.0 0.0
0.0 0.016556913722238574 0.013758026909583236 -0.0129103736184587 -0.0008476532911245388 -0.00793737192077356 0.0 0.0
0.0 0.02105999159474152 0.01758476677804553 -0.016687081683812884 -0.0008976850942326292 -0.009399726883395082 0.0 0.0
0.0 0.026484612520812238 0.02202023592216005 -0.0210824933859946 -0.0009377425361654462 -0.01079682066039642 0.0 0.0
0.0 0.03217471578933467 0.026937086050952033 -0.025964184643084278 -0.0009729014078677491 -0.01169475443325448 0.0 0.0
0.0 0.03796837821511597 0.03212308037155469 -0.031125484041666224 -0.0009975963298884817 -0.011540528703830401 0.0 0.0
0.0 0.043746435566883915 0.0371039055184063 -0.036130921302894435 -0.0009729842155118547 -0.009264521532893435 0.0 0.0
0.0 0.04782048795602774 0.04001846299756166 -0.039536729938154866 -0.000481733059406779 9.414344304126132e-15 0.0 0.0
0.0 0.04374643556688124 0.037103905518401564 -0.03613092130288972 -0.0009729842155118435 0.009264521532917508 0.0 0.0
0.0 0.03796837821510809 0.03212308037154575 -0.03112548404165732 -0.000997596329888426 0.011540528703855763 0.0 0.0
0.0 0.03217471578932243 0.026937086050940806 -0.025964184643073273 -0.0009729014078675626 0.011694754433267205 0.0 0.0
0.0 0.026484612520799755 0.022020235922149245 -0.021082493385984592 -0.000937742536164638 0.010796820660397275 0.0 0.0
0.0 0.021059991594726515 0.017584766778033098 -0.016687081683800634 -0.000897685094232486 0.009399726883389768 0.0 0.0
0.0 0.016556913722223055 0.013758026909569902 -0.012910373618445579 -0.000847653291124328 0.007937371920768033 0.0 0.0
0.0 0.012684390230865542 0.010568823127903793 -0.009784176683138354 -0.0007846464447654377 0.006590240074965548 0.0 0.0
0.0 0.00956400473320818 0.00793333719626639 -0.007226007881031175 -0.0007073293152352177 0.005386273190753829 0.0 0.0
0.0 0.006916689366853914 0.005733372056282231 -0.005119702701183812 -0.0006136693550984168 0.0042466120564818195 0.0 0.0
0.0 0.004729769395567788 0.0038457452319676047 -0.003344528270869945 -0.0005012169610976581 0.0030953626310102726 0.0 0.0
0.0 0.003026714586403758 0.0022331998208236135 -0.0018739783713258586 -0.00035922144949775484 0.0019128183484527646 0.0 0.0
0.0 0.0012880037604289254 0.0010113675565071793 -0.0008119055983774181 -0.00019946195812976065 0.0009451064055446549 0.0 0.0
0.0 0.0003264807801904968 0.0002652757205059103 -0.00020498989045473313 -6.02858300511773e-05 0.0003033902877626299 0.0 0.0
0.0 -3.3491612972055746e-06 -1.1446167546411305e-05 9.55820614731299e-06 1.8879613990982605e-06 -2.5616144604490935e-05 0.0 0.0
0.0 -7.381324859201038e-06 -4.725339076986206e-06 3.747891019889055e-06 9.774480570971942e-07 -1.303378004277326e-05 0.0 0.0
0.0 -7.674759996419676e-07 -6.066459526182128e-08 5.0978816747677124e-08 9.685778514139017e-09 -1.200424374527306e-07 0.0 0.0
0.0 0.0 0.0 0.0 0.0 0.0 0.0 0.0
0.0 1.6834769789144244e-07 -9.84247435487633e-10 1.1381256888423935e-09 -1.5387825335482658e-10 -3.351012276057265e-08 0.0 0.0
0.0 -2.380745838749363e-05 -6.982237424699793e-06 3.932572321948195e-05 -3.2343485794782384e-05 0.00010406012849825433 0.0 0.0
0.0 0.0013238174041980788 0.0006000292917595269 -0.0008696690409288484 0.0002696397491693228 0.000609292206347152 0.0 0.0
0.0 0.0004959467665177817 0.0002534320059501002 -0.0003691623378947798 0.00011573033194468028 -0.0003207642882066314 0.0 0.0
0.0 -5.2118721827730513e-05 -2.7155985136949315e-05 4.152707920549952e-05 -1.4371094068550269e-05 2.4564408784655964e-05 0.0 0.0
0.0 2.460681027693135e-06 -4.117831685075156e-09 1.0773402399554574e-08 -6.6555707144781685e-09 5.337876656849256e-07 0.0 0.0
0.0 -2.4363969988976666e-07 4.67274257071459e-09 -2.865438166614223e-09 -1.807304404100963e-09 -4.998462457855251e-08 0.0 0.0
0.0 6.233628489086471e-07 -8.196377453290556e-09 3.608994933244982e-09 4.587382520045591e-09 1.3531606602111735e-07 0.0 0.0
0.0 -1.0581838887108454e-05 -2.6602030216486017e-07 2.2347784115253532e-07 4.2542461012330076e-08 1.851783961433608e-06 0.0 0.0
0.0 -7.810495158660878e-06 -1.3583483414885724e-05 1.089873591659932e-05 2.6847474982863696e-06 4.4751823301351436e-05 0.0 0.0
0.0 9.670785547838429e-05 9.90727861128114e-06 -8.166139332338982e-06 -1.7411392789421115e-06 -4.657336775583482e-05 0.0 0.0
0.0 0.00047328108134533984 0.00029583317166373267 -0.00023730229551253653 -5.853087615119601e-05 -0.0004956013609547166 0.0 0.0
0.0 0.00140792366079135 0.0009475139839359995 -0.0007795985522065156 -0.00016791543172948423 -0.0011861397699758501 0.0 0.0
0.0 0.00252678173136619 0.0019316564970294247 -0.0016342509212613932 -0.00029740557576803074 -0.0021459398477881694 0.0 0.0
0.0 0.004068689852901902 0.0031415566413076656 -0.00273018303155926 -0.0004113736097484055 -0.0031548923924816256 0.0 0.0
0.0 0.00583114454763474 0.0045712277311552195 -0.004056721656923012 -0.000514506074232206 -0.004195298939788452 0.0 0.0
0.0 0.007921683864950449 0.006285600013656628 -0.005686029872240438 -0.0005995701414161814 -0.00526719853201574 0.0 0.0
0.0 0.010511172732207629 0.008374047349269097 -0.007705637767462031 -0.0006684095818070702 -0.006400368440133336 0.0 0.0
0.0 0.013696411044042865 0.010928082380240945 -0.010205396097856837 -0.0007226862823841093 -0.0076156366421008806 0.0 0.0
0.0 0.017475163250570504 0.014001887949651749 -0.013232146088393924 -0.0007697418612578173 -0.008828502989710846 0.0 0.0
0.0 0.021633523620516223 0.017586636062179015 -0.016777434751758927 -0.000809201310420096 -0.009721064313111599 0.0 0.0
0.0 0.02632573336513171 0.021657337769071805 -0.020806569685432878 -0.000850768083638902 -0.009799361105777641 0.0 0.0
0.0 0.03166421655926905 0.026131081412828567 -0.025272599280107014 -0.0008584821327215294 -0.008490899866394515 0.0 0.0
0.0 0.035951886885773825 0.029211182681892794 -0.028959093094167655 -0.0002520895877251746 8.124577399737376e-15 0.0 0.0
0.0 0.03166421655926842 0.02613108141282538 -0.02527259928010358 -0.0008584821327218155 0.008490899866414728 0.0 0.0
0.0 0.026325733365127772 0.021657337769066233 -0.02080656968542769 -0.0008507680836385326 0.009799361105798451 0.0 0.0
0.0 0.021633523620506766 0.01758663606217073 -0.01677743475175077 -0.0008092013104199457 0.00972106431312087 0.0 0.0
0.0 0.017475163250561074 0.014001887949644177 -0.013232146088387128 -0.0007697418612570481 0.008828502989709601 0.0 0.0
0.0 0.013696411044032866 0.010928082380232965 -0.010205396097849135 -0.0007226862823838139 0.007615636642095449 0.0 0.0
0.0 0.010511172732197831 0.008374047349260935 -0.007705637767454066 -0.0006684095818068614 0.006400368440129155 0.0 0.0
0.0 0.007921683864942517 0.006285600013649961 -0.005686029872234203 -0.0005995701414157627 0.005267198532013057 0.0 0.0
0.0 0.005831144547628025 0.004571227731149475 -0.004056721656917789 -0.0005145060742316852 0.004195298939784916 0.0 0.0
0.0 0.004068689852892807 0.0031415566413011105 -0.002730183031553371 -0.0004113736097477403 0.0031548923924748203 0.0 0.0
0.0 0.002526781731357887 0.001931656497022921 -0.0016342509212555116 -0.0002974055757674092 0.0021459398477804608 0.0 0.0
0.0 0.0014079236607852088 0.0009475139839318922 -0.000779598552203112 -0.00016791543172877944 0.0011861397699710564 0.0 0.0
0.0 0.00047328108134236273 0.00029583317166186193 -0.0002373022955110676 -5.8530876150794314e-05 0.0004956013609525926 0.0 0.0
0.0 9.67078554771623e-05 9.90727861096173e-06 -8.166139332070481e-06 -1.7411392788911567e-06 4.657336775480979e-05 0.0 0.0
0.0 -7.810495159559126e-06 -1.3583483414322158e-05 1.089873591615484e-05 2.6847474981673754e-06 -4.47518233000196e-05 0.0 0.0
0.0 -1.0581838887618846e-05 -2.660203021630698e-07 2.2347784115141756e-07 4.2542461011618026e-08 -1.8517839613446661e-06 0.0 0.0
0.0 6.23362848792628e-07 -8.196377454568047e-09 3.6089949352570515e-09 4.587382519321487e-09 -1.3531606599445892e-07 0.0 0.0
0.0 -2.436396997976858e-07 4.67274256891026e-09 -2.865438165498191e-09 -1.8073044034137032e-09 4.9984624558949425e-08 0.0 0.0
0.0 2.460681027502763e-06 -4.117831685514943e-09 1.0773402399628777e-08 -6.655570714112477e-09 -5.337876656339691e-07 0.0 0.0
0.0 -5.211872182802128e-05 -2.715598513665251e-05 4.152707920507628e-05 -1.4371094068423746e-05 -2.4564408784205844e-05 0.0 0.0
0.0 0.0004959467665134805 0.0002534320059481092 -0.00036916233789194167 0.00011573033194383236 0.000320764288204257 0.0 0.0
0.0 0.0001357695828056975 3.5331429532351017e-05 -5.297804996180441e-05 1.7646620429453496e-05 -4.642344304589441e-05 0.0 0.0
0.0 -1.583948120171516e-05 -6.258036000515476e-06 8.76310538400812e-06 -2.5050693834926386e-06 1.091868516033323e-05 0.0 0.0
0.0 5.349852057421339e-07 6.401764979369936e-10 9.549862055818769e-10 -1.5951627035180371e-09 1.0756131853937915e-07 0.0 0.0
0.0 2.436080776126386e-07 8.137071863921834e-09 -7.318061333627642e-09 -8.19010530296412e-10 4.870757729381507e-08 0.0 0.0
0.0 1.3594309053105892e-07 2.4029076266449467e-08 -1.9068505419017562e-08 -4.96057084742354e-09 3.3458739142496685e-09 0.0 0.0
0.0 -9.879102253706136e-07 -6.583783843695459e-07 5.053555441672289e-07 1.5302284020229125e-07 6.529080430661541e-06 0.0 0.0
0.0 -4.1802347738334805e-06 -3.7907337594781193e-06 3.0531621033483784e-06 7.375716561297613e-07 2.5386135637668425e-05 0.0 0.0
0.0 4.565270905673815e-05 9.180816591955174e-07 -5.361399133908818e-07 -3.8194174580464326e-07 -4.441842085492922e-05 0.0 0.0
0.0 0.00012886519152307733 9.283431786216537e-06 -8.563047077941655e-06 -7.203847082748543e-07 -0.00018871088544885397 0.0 0.0
0.0 0.00036293893862327626 0.00011164641529566915 -9.766978656408584e-05 -1.3976628731583428e-05 -0.000520195338830242 0.0 0.0
0.0 0.0009400849319382691 0.00037642519694659055 -0.00033539949561139996 -4.1025701335190614e-05 -0.0010472462121108555 0.0 0.0
0.0 0.001526431788955572 0.0008402608427624362 -0.0007486784523543945 -9.158239040804112e-05 -0.0018142024691296115 0.0 0.0
0.0 0.0024493765836074207 0.0014801088182386601 -0.0013202961366314768 -0.0001598126816071819 -0.0026506726161280615 0.0 0.0
0.0 0.0036180885125525813 0.0022885467939699755 -0.0020584566077462224 -0.00023009018622375564 -0.0035560905784310084 0.0 0.0
0.0 0.005033323625912074 0.00330979063144464 -0.0030060920945820637 -0.00030369853686257277 -0.004522701791201026 0.0 0.0
0.0 0.006792580125969555 0.004602489563756854 -0.004222907459016518 -0.00037958210474033365 -0.00555831849348547 0.0 0.0
0.0 0.009067733208789609 0.0062817074251434665 -0.00582330784862083 -0.00045839957652264073 -0.0066674999177222215 0.0 0.0
0.0 0.011995384928136453 0.008485288353700248 -0.007955500718972743 -0.0005297876347274975 -0.007617840557407503 0.0 0.0
0.0 0.015384339970464704 0.011302546311475583 -0.010714853409389678 -0.0005876929020859228 -0.007850591604997804 0.0 0.0
0.0 0.01940410102892776 0.014949792925545415 -0.014281884148320647 -0.0006679087772247573 -0.006979579000288578 0.0 0.0
0.0 0.024774112546485694 0.018123300326741795 -0.018150158348156354 2.6858021414547388e-05 6.690394765973551e-15 0.0 0.0
0.0 0.019404101028931326 0.014949792925545161 -0.014281884148320484 -0.0006679087772246754 0.006979579000304837 0.0 0.0
0.0 0.015384339970463432 0.011302546311472905 -0.01071485340938712 -0.0005876929020857856 0.007850591605013325 0.0 0.0
0.0 0.011995384928129947 0.008485288353695336 -0.007955500718967775 -0.0005297876347275678 0.007617840557412582 0.0 0.0
0.0 0.009067733208782326 0.006281707425139367 -0.005823307848617218 -0.00045839957652214964 0.0066674999177182715 0.0 0.0
0.0 0.0067925801259642975 0.004602489563753152 -0.00422290745901289 -0.00037958210474026204 0.005558318493481022 0.0 0.0
0.0 0.005033323625907646 0.0033097906314413575 -0.003006092094578884 -0.00030369853686247297 0.004522701791197016 0.0 0.0
0.0 0.003618088512549204 0.0022885467939679845 -0.0020584566077445003 -0.00023009018622348492 0.0035560905784294645 0.0 0.0
0.0 0.0024493765836032235 0.001480108818236278 -0.0013202961366293258 -0.00015981268160695133 0.0026506726161235313 0.0 0.0
0.0 0.0015264317889501287 0.000840260842759502 -0.0007486784523517138 -9.15823904077881e-05 0.0018142024691232977 0.0 0.0
0.0 0.0009400849319344275 0.00037642519694477424 -0.00033539949560977756 -4.102570133499622e-05 0.0010472462121062407 0.0 0.0
0.0 0.0003629389386208832 0.00011164641529491985 -9.766978656340214e-05 -1.3976628731517714e-05 0.0005201953388284681 0.0 0.0
0.0 0.00012886519152205492 9.28343178600534e-06 -8.563047077767753e-06 -7.203847082375633e-07 0.00018871088544731305 0.0 0.0
0.0 4.5652709055554386e-05 9.180816591385492e-07 -5.361399133450692e-07 -3.819417457934962e-07 4.441842085415816e-05 0.0 0.0
0.0 -4.1802347741358e-06 -3.7907337594386014e-06 3.0531621033157825e-06 7.37571656122831e-07 -2.538613563736548e-05 0.0 0.0
0.0 -9.879102257895165e-07 -6.583783843594527e-07 5.053555441602082e-07 1.530228401992456e-07 -6.52908043049452e-06 0.0 0.0
0.0 1.3594309011922446e-07 2.4029076266739186e-08 -1.906850541868594e-08 -4.960570848056445e-09 -3.3458738293035996e-09 0.0 0.0
0.0 2.436080774645492e-07 8.137071860818163e-09 -7.3180613307116555e-09 -8.190105301053078e-10 -4.870757726290399e-08 0.0 0.0
0.0 5.349852053347855e-07 6.401764979348632e-10 9.54986204320233e-10 -1.5951627022593786e-09 -1.0756131845488952e-07 0.0 0.0
0.0 -1.583948120218441e-05 -6.258036000409008e-06 8.763105383861369e-06 -2.505069383452354e-06 -1.0918685160118133e-05 0.0 0.0
0.0 0.0001357695828038388 3.533142953184301e-05 -5.297804996104963e-05 1.7646620429206498e-05 4.642344304523423e-05 0.0 0.0
0.0 2.4272682420709744e-06 2.6831723446564997e-06 -4.138498461459006e-06 1.4553261168024616e-06 -4.287942047638859e-06 0.0 0.0
0.0 -1.6255530055116126e-06 -3.4554675495045117e-07 5.34518329904514e-07 -1.889715749540506e-07 3.0645935885936845e-07 0.0 0.0
0.0 3.6187657992177032e-06 1.0195274959671077e-08 7.11349756412122e-09 -1.7308772523796264e-08 7.81723116672718e-07 0.0 0.0
0.0 1.2405663355666563e-06 2.296314495505155e-08 -1.9338392250235115e-08 -3.624752704813151e-09 2.542797602654144e-07 0.0 0.0
0.0 7.821947515459587e-08 1.9553413154148733e-08 -1.741372149231297e-08 -2.139691661835925e-09 -6.284691891100786e-09 0.0 0.0
0.0 -2.2198156139963883e-06 4.962953358481164e-08 -4.5901192113055125e-08 -3.728341471753357e-09 6.388650043425109e-06 0.0 0.0
0.0 1.8043220648174336e-09 -7.429147400133785e-08 4.9076280275811416e-08 2.521519372551595e-08 2.419916089017396e-05 0.0 0.0
0.0 3.608765962071303e-05 -2.7188551350855155e-07 2.792023800634868e-07 -7.316866554928026e-09 -6.0836737370773e-05 0.0 0.0
0.0 0.00015505665016249745 -2.3296216653944258e-08 2.4616622832187947e-08 -1.3204061782161605e-09 -0.0001818070133563239 0.0 0.0
0.0 0.00024467116510750597 1.4709892982411525e-07 -1.1770913203680211e-07 -2.938979778731365e-08 -0.00041115602046356853 0.0 0.0
0.0 0.00048359624875051333 -1.653285594665648e-06 1.0422138582711793e-06 6.110717363944298e-07 -0.0006716391031852326 0.0 0.0
0.0 0.0006168983063773146 1.1395534032073508e-06 -8.678187115948536e-07 -2.717346916124887e-07 -0.0011325099943382654 0.0 0.0
0.0 0.0008657946535370268 2.023004917316924e-06 -1.3835765388702103e-06 -6.394283784466629e-07 -0.001703382753028966 0.0 0.0
0.0 0.0012009691582792188 4.744388984183779e-07 7.442679419069617e-07 -1.2187068403252718e-06 -0.00245468983126484 0.0 0.0
0.0 0.0016821223605476823 -1.1086638933543167e-05 1.1101025208542326e-05 -1.4386274999471133e-08 -0.00341464666162821 0.0 0.0
0.0 0.002426925301061916 4.367734641049718e-05 -5.746329015458084e-05 1.3785943744083374e-05 -0.004597592971132947 0.0 0.0
0.0 0.003417732548924984 0.0002953187126580934 -0.00034461546282831684 4.929675017022406e-05 -0.00590307679244971 0.0 0.0
0.0 0.004673357921865373 0.000860646281011834 -0.0009895722969949692 0.00012892601598313522 -0.00720678088362508 0.0 0.0
0.0 0.006579872598834645 0.0017415686545860813 -0.0019313875876133366 0.0001898189330272553 -0.008235298641291184 0.0 0.0
0.0 0.009687932564407482 0.003969404699820245 -0.003865351885628005 -0.00010405281419223995 -0.008205916975218037 0.0 0.0
0.0 0.01676277397046384 0.0076006398525676954 -0.008035945886908058 0.00043530603434036497 7.315328898194196e-15 0.0 0.0
0.0 0.009687932564411505 0.003969404699819681 -0.003865351885627692 -0.0001040528141919885 0.008205916975231787 0.0 0.0
0.0 0.006579872598833795 0.0017415686545856968 -0.0019313875876130777 0.0001898189330273827 0.008235298641294686 0.0 0.0
0.0 0.004673357921860256 0.0008606462810103311 -0.0009895722969930601 0.00012892601598272943 0.00720678088362084 0.0 0.0
0.0 0.003417732548920278 0.0002953187126583229 -0.0003446154628285545 4.929675017023112e-05 0.005903076792443761 0.0 0.0
0.0 0.0024269253010600652 4.367734641057188e-05 -5.74632901545092e-05 1.3785943743937495e-05 0.00459759297112904 0.0 0.0
0.0 0.0016821223605450139 -1.1086638933512321e-05 1.110102520851617e-05 -1.4386275004051887e-08 0.0034146466616243832 0.0 0.0
0.0 0.0012009691582779178 4.744388987596305e-07 7.442679415763749e-07 -1.2187068403360122e-06 0.002454689831262408 0.0 0.0
0.0 0.0008657946535343931 2.023004917344341e-06 -1.3835765389300515e-06 -6.394283784143367e-07 0.0017033827530236094 0.0 0.0
0.0 0.0006168983063751377 1.1395534032333852e-06 -8.678187116177303e-07 -2.717346916156549e-07 0.0011325099943335637 0.0 0.0
0.0 0.0004835962487481807 -1.6532855944316818e-06 1.0422138580692687e-06 6.110717363624047e-07 0.0006716391031819651 0.0 0.0
0.0 0.00024467116510748114 1.4709892989076237e-07 -1.1770913210397524e-07 -2.9389797786765102e-08 0.00041115602046287063 0.0 0.0
0.0 0.00015505665016147 -2.3296216645982148e-08 2.4616622837533572e-08 -1.3204061915603176e-09 0.00018180701335494787 0.0 0.0
0.0 3.608765961993632e-05 -2.718855135183877e-07 2.792023800822689e-07 -7.316866563865388e-09 6.083673737012211e-05 0.0 0.0
0.0 1.8043216609504303e-09 -7.429147400416858e-08 4.9076280279484945e-08 2.521519372469131e-08 -2.4199160889795444e-05 0.0 0.0
0.0 -2.219815614558607e-06 4.96295335804853e-08 -4.590119210987114e-08 -3.728341470620475e-09 -6.3886500432642655e-06 0.0 0.0
0.0 7.821947466927294e-08 1.955341314824257e-08 -1.741372148698716e-08 -2.13969166125215e-09 6.284691988554587e-09 0.0 0.0
0.0 1.2405663350389034e-06 2.2963144945294832e-08 -1.9338392241929008e-08 -3.624752703366745e-09 -2.542797601527055e-07 0.0 0.0
0.0 3.618765798929172e-06 1.0195274960301875e-08 7.113497562151617e-09 -1.7308772522443827e-08 -7.817231166001966e-07 0.0 0.0
0.0 -1.6255530054391432e-06 -3.455467549933607e-07 5.345183299643029e-07 -1.8897157497095977e-07 -3.064593589280043e-07 0.0 0.0
0.0 2.4272682412092175e-06 2.6831723449490026e-06 -4.13849846189302e-06 1.4553261169441242e-06 4.28794204819436e-06 0.0 0.0
0.0 1.2392568618169737e-06 -7.491151091484791e-08 1.1767598598030642e-07 -4.2764475065472074e-08 1.441325408975938e-07 0.0 0.0
0.0 -1.3628788572763406e-07 1.0625166473877707e-08 -1.694302547588922e-08 6.3178590020116326e-09 -9.876424162515783e-09 0.0 0.0
0.0 -8.826497244967562e-07 -1.2994467622963783e-08 9.317246254383222e-09 3.677221368580728e-09 -1.9103679018332728e-07 0.0 0.0
0.0 1.490317100255079e-06 4.241911744592017e-08 -3.470315010590186e-08 -7.71596734001991e-09 3.1235457426870176e-07 0.0 0.0
0.0 -1.4486227107604761e-06 1.0544821349273215e-07 -9.772770497071867e-08 -7.720508522011439e-09 6.468732522354332e-07 0.0 0.0
0.0 -3.05700945949224e-06 -2.6675876251984233e-07 2.366735506580723e-07 3.008521186180269e-08 2.315822963556511e-07 0.0 0.0
0.0 7.094336747259743e-06 5.609935894879053e-06 -4.440713550178929e-06 -1.1692223447002067e-06 3.64747969801392e-05 0.0 0.0
0.0 5.104030344481175e-05 -1.6902956149509073e-06 1.2688714702305254e-06 4.21424144720407e-07 -4.6290122823373046e-05 0.0 0.0
0.0 0.00012979507470531478 -9.848927195837423e-06 9.046231685138117e-06 8.026955106991283e-07 -0.00019029826705882708 0.0 0.0
0.0 0.00036095407480110663 -0.00011094478568183157 9.70231009662459e-05 1.392168471558568e-05 -0.0005194426988762208 0.0 0.0
0.0 0.0009427411035662954 -0.0003687718902222189 0.0003300147277649501 3.875716245726911e-05 -0.0010411128313920239 0.0 0.0
0.0 0.0015384393075163526 -0.0008442779464515186 0.000751727299946936 9.255064650458264e-05 -0.0018139402831868195 0.0 0.0
0.0 0.002465045507233328 -0.0014922610664903403 0.0013306566903578993 0.0001616043761324404 -0.0026516797494713466 0.0 0.0
0.0 0.0036529487570446445 -0.002315427038386653 0.002083120604243104 0.00023230643414354836 -0.003552450669965975 0.0 0.0
0.0 0.005032609037948517 -0.0033181314724292413 0.00301934801699415 0.00029878345543508944 -0.004530762123068225 0.0 0.0
0.0 0.00659568175592485 -0.004421705541462761 0.004080781052793781 0.00034092448866897854 -0.005649320223437253 0.0 0.0
0.0 0.008133229311352788 -0.005434083851689851 0.00509105200272482 0.0003430318489650303 -0.006998653120500867 0.0 0.0
0.0 0.009473109759557482 -0.005974893045774128 0.005694495496516864 0.00028039754925725626 -0.008607165465766672 0.0 0.0
0.0 0.009712796683899756 -0.005541421064118833 0.005378122683606242 0.00016329838051259903 -0.010465207913927407 0.0 0.0
0.0 0.008237921935631184 -0.0040231702443402585 0.00399136793070866 3.1802313631598575e-05 -0.01198814249115279 0.0 0.0
0.0 0.015878423116615668 -0.002203173412324972 0.0008184022493874554 0.0013847711629375173 9.57003573609505e-15 0.0 0.0
0.0 0.008237921935635231 -0.00402317024434015 0.003991367930708575 3.180231363157459e-05 0.011988142491160661 0.0 0.0
0.0 0.009712796683900491 -0.005541421064118698 0.00537812268360616 0.00016329838051254612 0.010465207913935366 0.0 0.0
0.0 0.009473109759549 -0.005974893045768117 0.005694495496511177 0.0002803975492569402 0.008607165465765926 0.0 0.0
0.0 0.00813322931134577 -0.005434083851684675 0.005091052002719934 0.00034303184896474317 0.006998653120496607 0.0 0.0
0.0 0.006595681755919684 -0.004421705541458853 0.004080781052790248 0.0003409244886686034 0.005649320223433256 0.0 0.0
0.0 0.005032609037943064 -0.0033181314724245164 0.0030193480169900767 0.0002987834554344407 0.004530762123063104 0.0 0.0
0.0 0.0036529487570378045 -0.002315427038381207 0.0020831206042379565 0.00023230643414325118 0.0035524506699615797 0.0 0.0
0.0 0.002465045507225225 -0.001492261066484728 0.0013306566903527944 0.0001616043761319335 0.002651679749464766 0.0 0.0
0.0 0.001538439307508478 -0.0008442779464465596 0.000751727299942556 9.255064650400338e-05 0.001813940283179537 0.0 0.0
0.0 0.0009427411035608224 -0.00036877189021981377 0.0003300147277627408 3.8757162457072685e-05 0.0010411128313870504 0.0 0.0
0.0 0.00036095407479721576 -0.00011094478568059476 9.702310096513278e-05 1.3921684715461895e-05 0.0005194426988738244 0.0 0.0
0.0 0.00012979507470462637 -9.848927195796664e-06 9.046231685092228e-06 8.026955107044485e-07 0.00019029826705821478 0.0 0.0
0.0 5.104030344365473e-05 -1.690295614871702e-06 1.2688714701765622e-06 4.214241446951428e-07 4.629012282241732e-05 0.0 0.0
0.0 7.094336746816055e-06 5.6099358948341295e-06 -4.440713550145782e-06 -1.1692223446883321e-06 -3.647479697982276e-05 0.0 0.0
0.0 -3.057009459739412e-06 -2.6675876261750623e-07 2.366735507426555e-07 3.008521187485313e-08 -2.3158229563339406e-07 0.0 0.0
0.0 -1.448622711365407e-06 1.0544821350039715e-07 -9.772770497760245e-08 -7.720508522798624e-09 -6.468732522744958e-07 0.0 0.0
0.0 1.4903170996868914e-06 4.241911743258753e-08 -3.470315009501489e-08 -7.715967337572316e-09 -3.123545741501756e-07 0.0 0.0
0.0 -8.826497247984758e-07 -1.2994467621539304e-08 9.317246251181477e-09 3.677221370354842e-09 1.9103679023936508e-07 0.0 0.0
0.0 -1.3628788540593235e-07 1.0625166468409186e-08 -1.6943025465290117e-08 6.317858996884805e-09 9.876424105919832e-09 0.0 0.0
0.0 1.2392568610875138e-06 -7.491151086901853e-08 1.1767598590977797e-07 -4.276447504077999e-08 -1.441325408055337e-07 0.0 0.0
0.0 0.0 0.0 0.0 0.0 0.0 0.0 0.0
0.0 -6.422239837672116e-08 -7.673636738658928e-10 3.860605389357296e-10 3.81303134929867e-10 -1.284131782217668e-08 0.0 0.0
0.0 -3.7874344330713723e-07 -1.8012271592059652e-08 1.5873291862660503e-08 2.138979729398885e-09 -8.014407512813873e-08 0.0 0.0
0.0 -9.073015980962664e-07 -5.68571413310864e-08 4.755545022616241e-08 9.301691104915119e-09 -2.3445117856962518e-07 0.0 0.0
0.0 7.5011655144718426e-06 3.806985210713322e-08 -4.1193003857268204e-08 3.1231517501837222e-09 6.23717564286459e-07 0.0 0.0
0.0 6.2192200418385625e-06 5.109535099826416e-06 -4.128392606373087e-06 -9.811424934533095e-07 2.2237157631904455e-05 0.0 0.0
0.0 -5.4189260501960485e-06 4.180288499744432e-06 -3.313516624698252e-06 -8.667718750461e-07 9.753758868005389e-07 0.0 0.0
0.0 0.00010567580159287395 -1.2788366199101272e-05 1.0619162001270784e-05 2.169204197830332e-06 -5.349412565167275e-05 0.0 0.0
0.0 0.0004722265684594737 -0.00029529374513913287 0.00023679935265771037 5.84943924814225e-05 -0.0004959815446557859 0.0 0.0
0.0 0.0014041349786808222 -0.0009456480910981203 0.0007778990957901248 0.00016774899530799467 -0.001183406707522355 0.0 0.0
0.0 0.0025252904797475905 -0.0019311957776572736 0.0016338355197885327 0.0002973602578687399 -0.00214470417930866 0.0 0.0
0.0 0.0040720213559311096 -0.0031440240468185963 0.0027324001209380207 0.0004116239258805772 -0.003155749856950474 0.0 0.0
0.0 0.005842949051712627 -0.004581418172714065 0.004066076886280407 0.0005153412864336535 -0.004189631958531081 0.0 0.0
0.0 0.007946376911054251 -0.006311061112190946 0.0057107663038216735 0.0006002948083692748 -0.005242083845943151 0.0 0.0
0.0 0.010521729486615455 -0.008391783376196072 0.007726922080624777 0.0006648612955712944 -0.006381403455294658 0.0 0.0
0.0 0.01353630547346452 -0.010789329032303245 0.010085548423805837 0.000703780608497415 -0.007766089107583162 0.0 0.0
0.0 0.016690293303563135 -0.013270778838794026 0.012555412427655604 0.0007153664111384152 -0.009587326268280958 0.0 0.0
0.0 0.01928793845352655 -0.015363644163085007 0.01465834647953775 0.0007052976835472651 -0.0119357235067141 0.0 0.0
0.0 0.020824346079276683 -0.016166797227219743 0.01550472937934694 0.0006620678478727984 -0.01434033832099845 0.0 0.0
0.0 0.01929630801353266 -0.014076234115299234 0.013461165471602296 0.0006150686436969305 -0.014836096741237164 0.0 0.0
0.0 0.019767803447837927 -0.011017887129336624 0.008864560908951736 0.0021533262203848867 7.883017155707606e-15 0.0 0.0
0.0 0.019296308013536167 -0.014076234115298465 0.013461165471601562 0.0006150686436968986 0.014836096741253286 0.0 0.0
0.0 0.02082434607927796 -0.01616679722721809 0.015504729379345794 0.0006620678478722861 0.014340338321014817 0.0 0.0
0.0 0.019287938453517076 -0.015363644163076685 0.014658346479529738 0.0007052976835469528 0.01193572350671877 0.0 0.0
0.0 0.016690293303550218 -0.013270778838783737 0.012555412427645248 0.0007153664111384817 0.009587326268277189 0.0 0.0
0.0 0.01353630547345154 -0.010789329032292653 0.010085548423795299 0.0007037806084973519 0.0077660891075767135 0.0 0.0
0.0 0.01052172948660467 -0.008391783376187234 0.007726922080616412 0.0006648612955708211 0.006381403455288951 0.0 0.0
0.0 0.007946376911043081 -0.006311061112181002 0.005710766303812199 0.0006002948083687941 0.005242083845937338 0.0 0.0
0.0 0.005842949051699268 -0.004581418172703271 0.004066076886270167 0.0005153412864331037 0.0041896319585237795 0.0 0.0
0.0 0.004072021355918219 -0.003144024046808675 0.0027324001209288844 0.0004116239258797885 0.003155749856941381 0.0 0.0
0.0 0.00252529047973656 -0.0019311957776486305 0.001633835519780599 0.00029736025786803166 0.0021447041792995907 0.0 0.0
0.0 0.0014041349786728702 -0.0009456480910924178 0.0007778990957853471 0.00016774899530707066 0.0011834067075171613 0.0 0.0
0.0 0.00047222656845517515 -0.00029529374513641727 0.0002367993526555076 5.849439248090952e-05 0.0004959815446524344 0.0 0.0
0.0 0.00010567580159153949 -1.2788366198666904e-05 1.0619162000940011e-05 2.1692041977268587e-06 5.349412565050016e-05 0.0 0.0
0.0 -5.4189260516738525e-06 4.1802884995969815e-06 -3.3135166245825514e-06 -8.667718750144448e-07 -9.75375886463836e-07 0.0 0.0
0.0 6.219220040985958e-06 5.109535099788518e-06 -4.128392606343979e-06 -9.811424934446215e-07 -2.2237157631804823e-05 0.0 0.0
0.0 7.501165513974493e-06 3.8069852072969005e-08 -4.119300382852799e-08 3.1231517555570246e-09 -6.237175641027966e-07 0.0 0.0
0.0 -9.073015986570772e-07 -5.6857141346010775e-08 4.755545023829637e-08 9.301691107725905e-09 2.3445117868003778e-07 0.0 0.0
0.0 -3.7874344334963774e-07 -1.8012271588564516e-08 1.5873291858862447e-08 2.138979729702004e-09 8.014407513526805e-08 0.0 0.0
0.0 -6.422239831149007e-08 -7.673636730775991e-10 3.8606053854000237e-10 3.8130313453729685e-10 1.284131780894419e-08 0.0 0.0
0.0 0.0 0.0 0.0 0.0 0.0 0.0 0.0
0.0 0.0 0.0 0.0 0.0 0.0 0.0 0.0
0.0 0.0 0.0 0.0 0.0 0.0 0.0 0.0
0.0 -6.673786689358188e-07 -2.6521950268112564e-08 2.1499513791296284e-08 5.022436476819881e-09 -1.3134363579990852e-07 0.0 0.0
0.0 1.8682322036662964e-06 7.292438497842065e-08 -5.975073658410082e-08 -1.3173648394326133e-08 3.735910496881116e-07 0.0 0.0
0.0 -7.762496114024722e-07 1.231516080554471e-06 -9.960679060830407e-07 -2.3544817447147355e-07 4.117284139626372e-06 0.0 0.0
0.0 -1.306389747235914e-05 -3.5712928566136414e-07 2.6049019275256985e-07 9.663909290885226e-08 -3.0245970786775374e-06 0.0 0.0
0.0 3.935060187786319e-05 1.1861361297290283e-05 -9.764796058206817e-06 -2.0965652390836786e-06 3.0857924680041866e-05 0.0 0.0
0.0 0.00033890733111865653 -0.00026803462316688225 0.00020758962794465563 6.044499522222679e-05 -0.00030976916053721947 0.0 0.0
0.0 0.0012851235128659927 -0.0010092376068478997 0.0008099393317058162 0.00019929827514208293 -0.0009428728131495019 0.0 0.0
0.0 0.0030241592111603524 -0.0022313469435666492 0.0018721036093626705 0.00035924333420398017 -0.001908864654383332 0.0 0.0
0.0 0.004725549632942738 -0.0038463553603041967 0.003345155084258214 0.000501200276045982 -0.0030951578930406365 0.0 0.0
0.0 0.006919541722683271 -0.005735125859127421 0.005121548127422467 0.0006135777317049519 -0.004247558926103053 0.0 0.0
0.0 0.009568875881894921 -0.007937952702454454 0.007230400544833616 0.0007075521576208371 -0.005375953209722341 0.0 0.0
0.0 0.01269349950403773 -0.010582886683234767 0.009797489928830547 0.0007853967544042265 -0.006539332200193847 0.0 0.0
0.0 0.016555485290337284 -0.01377376317948731 0.01292750305160745 0.0008462601278798577 -0.007854980224485917 0.0 0.0
0.0 0.020955842163489856 -0.01750559647223177 0.016621533439494844 0.000884063032736931 -0.009526755292446645 0.0 0.0
0.0 0.025974237606993883 -0.021506517930581278 0.020613349998920706 0.0008931679316605782 -0.011894515080015737 0.0 0.0
0.0 0.03041209498367057 -0.02508595768281665 0.024221421428072258 0.0008645362547443939 -0.01510370485510431 0.0 0.0
0.0 0.032948651901302466 -0.02687415110755347 0.026072456058402346 0.0008016950491511162 -0.01830744136509859 0.0 0.0
0.0 0.03079269334303486 -0.024607949536602648 0.02391422710962911 0.000693722426973531 -0.019322411967388046 0.0 0.0
0.0 0.028181755286179704 -0.019980595863826348 0.01711622354379286 0.002864372320033478 8.526165884426007e-15 0.0 0.0
0.0 0.03079269334303743 -0.024607949536600882 0.023914227109627165 0.0006937224269737097 0.019322411967409078 0.0 0.0
0.0 0.032948651901300335 -0.026874151107548528 0.026072456058397503 0.0008016950491509902 0.018307441365119664 0.0 0.0
0.0 0.030412094983660758 -0.025085957682807043 0.024221421428063293 0.0008645362547437412 0.01510370485511373 0.0 0.0
0.0 0.025974237606975172 -0.021506517930565686 0.0206133499989051 0.0008931679316606003 0.011894515080013109 0.0 0.0
0.0 0.020955842163471152 -0.01750559647221587 0.016621533439479173 0.0008840630327366863 0.009526755292439782 0.0 0.0
0.0 0.01655548529032065 -0.013773763179473396 0.012927503051594083 0.0008462601278793074 0.007854980224478966 0.0 0.0
0.0 0.012693499504021405 -0.010582886683220915 0.009797489928816992 0.0007853967544039284 0.0065393322001875715 0.0 0.0
0.0 0.009568875881877 -0.00793795270243947 0.007230400544819164 0.0007075521576203064 0.005375953209714388 0.0 0.0
0.0 0.006919541722665057 -0.005735125859112743 0.005121548127408468 0.0006135777317042685 0.00424755892609241 0.0 0.0
0.0 0.0047255496329260795 -0.0038463553602908 0.0033451550842454637 0.0005012002760453372 0.0030951578930296098 0.0 0.0
0.0 0.003024159211148248 -0.0022313469435571716 0.0018721036093541947 0.0003592433342029761 0.001908864654375149 0.0 0.0
0.0 0.0012851235128583936 -0.0010092376068422451 0.0008099393317012001 0.00019929827514104435 0.0009428728131451634 0.0 0.0
0.0 0.00033890733111474115 -0.00026803462316417326 0.00020758962794252208 6.044499522165109e-05 0.00030976916053437593 0.0 0.0
0.0 3.9350601876754674e-05 1.186136129734001e-05 -9.76479605824683e-06 -2.096565239093037e-06 -3.085792468009389e-05 0.0 0.0
0.0 -1.3063897473215926e-05 -3.5712928596368407e-07 2.604901929945095e-07 9.663909296918739e-08 3.024597079508739e-06 0.0 0.0
0.0 -7.762496118691356e-07 1.2315160805765432e-06 -9.960679061001808e-07 -2.3544817447635076e-07 -4.1172841396574235e-06 0.0 0.0
0.0 1.8682322031391885e-06 7.292438495947189e-08 -5.975073656882235e-08 -1.3173648390657147e-08 -3.73591049577993e-07 0.0 0.0
0.0 -6.673786687448563e-07 -2.6521950260483167e-08 2.1499513785132376e-08 5.022436475351499e-09 1.3134363576041204e-07 0.0 0.0
0.0 0.0 0.0 0.0 0.0 0.0 0.0 0.0
0.0 0.0 0.0 0.0 0.0 0.0 0.0 0.0
0.0 0.0 0.0 0.0 0.0 0.0 0.0 0.0
0.0 0.0 0.0 0.0 0.0 0.0 0.0 0.0
0.0 -2.95889627028445e-07 -1.3592507698731995e-08 1.083743040721265e-08 2.7550772915178707e-09 -5.501979115714737e-08 0.0 0.0
0.0 -2.112291098398292e-06 -1.6324554829102846e-07 1.3285156833206997e-07 3.0393979958964755e-08 -4.379793777943576e-07 0.0 0.0
0.0 9.347037232355747e-06 5.528898626551539e-07 -4.3786350894979186e-07 -1.1502635370535767e-07 1.5249074204434948e-06 0.0 0.0
0.0 3.0410863357621946e-06 2.6586535865402462e-05 -2.1139704015360032e-05 -5.446831850042506e-06 4.548837434635253e-05 0.0 0.0
0.0 0.0001599386202533108 -0.00011348295267839927 8.593781491594474e-05 2.754513776245473e-05 -0.0001014840256025346 0.0 0.0
0.0 0.0008752390990533545 -0.0007288333984809872 0.0005697414704147624 0.00015909192806622412 -0.0005309274759308543 0.0 0.0
0.0 0.002623734465966912 -0.0019442099719193025 0.001602322944506599 0.000341887027412703 -0.0013337137443590664 0.0 0.0
0.0 0.0042945480478068215 -0.003748326280760086 0.0032319880750412214 0.0005163382057188649 -0.002501900284841843 0.0 0.0
0.0 0.006953849418695665 -0.005909914312382825 0.005265987795905862 0.0006439265164769622 -0.0036869546209819196 0.0 0.0
0.0 0.009932355174912016 -0.00844208303603513 0.007695906590821058 0.0007461764452140683 -0.004854158600533652 0.0 0.0
0.0 0.013419966615918488 -0.011419643842671183 0.01058390728263281 0.0008357365600383718 -0.006013351855634812 0.0 0.0
0.0 0.017621074293442014 -0.01499488714052208 0.014080351385860177 0.0009145357546619097 -0.007244767190586119 0.0 0.0
0.0 0.02264188319317827 -0.01931421424656847 0.018333892012897545 0.00098032223367092 -0.008650428059460612 0.0 0.0
0.0 0.028859758882390497 -0.02439831958702842 0.02337474102755075 0.001023578559477657 -0.010478870575967685 0.0 0.0
0.0 0.03509115998809189 -0.02994223320927136 0.028912159183713017 0.0010300740255583067 -0.013138263769558607 0.0 0.0
0.0 0.04143308124653569 -0.03497068809136748 0.03398943121643368 0.0009812568749338183 -0.016831191844945487 0.0 0.0
0.0 0.045157199749075505 -0.037611121390822864 0.03673583706515486 0.0008752843256679663 -0.020799227820075098 0.0 0.0
0.0 0.042432055416713285 -0.034837104045458825 0.034135846010516877 0.0007012580349419397 -0.022648087586368094 0.0 0.0
0.0 0.03727985320322515 -0.02878182477738287 0.02531217409077207 0.0034696506866107764 1.0966921815125374e-14 0.0 0.0
0.0 0.04243205541671417 -0.03483710404545563 0.034135846010514025 0.0007012580349416112 0.022648087586391287 0.0 0.0
0.0 0.04515719974906923 -0.03761112139081434 0.03673583706514659 0.0008752843256677606 0.020799227820099166 0.0 0.0
0.0 0.04143308124652093 -0.03497068809135349 0.033989431216420125 0.0009812568749333203 0.016831191844957752 0.0 0.0
0.0 0.0350911599880708 -0.029942233209253103 0.02891215918369503 0.0010300740255580732 0.013138263769558033 0.0 0.0
0.0 0.028859758882369836 -0.024398319587010497 0.023374741027533404 0.0010235785594770906 0.010478870575962322 0.0 0.0
0.0 0.022641883193157387 -0.019314214246550263 0.018333892012880153 0.0009803222336701085 0.008650428059453385 0.0 0.0
0.0 0.017621074293420143 -0.014994887140503252 0.01408035138584152 0.000914535754661717 0.007244767190579203 0.0 0.0
0.0 0.013419966615896797 -0.011419643842652644 0.010583907282614867 0.0008357365600377665 0.006013351855627137 0.0 0.0
0.0 0.009932355174890387 -0.008442083036016556 0.007695906590803209 0.0007461764452133498 0.004854158600523227 0.0 0.0
0.0 0.006953849418676142 -0.005909914312366251 0.005265987795889764 0.0006439265164764882 0.0036869546209702952 0.0 0.0
0.0 0.00429454804779201 -0.00374832628074719 0.0032319880750292275 0.0005163382057179599 0.002501900284832875 0.0 0.0
0.0 0.002623734465955216 -0.0019442099719104594 0.0016023229444989877 0.00034188702741147297 0.0013337137443530606 0.0 0.0
0.0 0.0008752390990464108 -0.0007288333984757771 0.0005697414704105622 0.000159091928065215 0.0005309274759271749 0.0 0.0
0.0 0.00015993862025052147 -0.00011348295267700374 8.593781491490719e-05 2.7545137762096464e-05 0.00010148402560153013 0.0 0.0
0.0 3.041086335113714e-06 2.6586535865067583e-05 -2.113970401509724e-05 -5.446831849970387e-06 -4.5488374345861e-05 0.0 0.0
0.0 9.347037231026266e-06 5.528898625449211e-07 -4.378635088628773e-07 -1.1502635368202365e-07 -1.5249074201928948e-06 0.0 0.0
0.0 -2.1122910987118115e-06 -1.6324554830016535e-07 1.3285156833938794e-07 3.039397996078572e-08 4.3797937784828425e-07 0.0 0.0
0.0 -2.9588962689353585e-07 -1.3592507692400482e-08 1.0837430402124616e-08 2.755077290274585e-09 5.50197911312241e-08 0.0 0.0
0.0 0.0 0.0 0.0 0.0 0.0 0.0 0.0
0.0 0.0 0.0 0.0 0.0 0.0 0.0 0.0
0.0 0.0 0.0 0.0 0.0 0.0 0.0 0.0
0.0 0.0 0.0 0.0 0.0 0.0 0.0 0.0
0.0 -1.336041538324973e-07 -7.0791082984345225e-09 5.607259907490537e-09 1.4718483909442396e-09 -2.3963176664436898e-08 0.0 0.0
0.0 -1.150862233485828e-06 -9.876059602605095e-08 7.855272765354809e-08 2.0207868372501855e-08 -2.0268686367933702e-07 0.0 0.0
0.0 -6.0211850105745015e-06 -2.228526013070198e-06 1.7575158437549356e-06 4.710101693152607e-07 -3.1612914599632553e-06 0.0 0.0
0.0 4.628230689861121e-05 1.2877288369729565e-05 -1.1510414156001648e-05 -1.3668742137277169e-06 3.5535993319561246e-05 0.0 0.0
0.0 0.00043413314571070225 -0.0003542549028903672 0.0002693427799911937 8.49121228991736e-05 -0.00018946019674324866 0.0 0.0
0.0 0.0018193724129324815 -0.0013381233404001134 0.0010705505392684782 0.00026757280113163504 -0.0006969573680355617 0.0 0.0
0.0 0.003405824098980964 -0.0030834564625225836 0.002608429824210331 0.00047502663831225237 -0.0016581372533732868 0.0 0.0
0.0 0.006125501883408084 -0.005326629099129589 0.004696964913651297 0.0006296641854782962 -0.0027550372801095585 0.0 0.0
0.0 0.009265428830675602 -0.008035618845112705 0.00728744642964361 0.0007481724154690933 -0.0038785699187455012 0.0 0.0
0.0 0.01297822939124284 -0.011220958807818584 0.010374536364155366 0.0008464224436632191 -0.004997301691751838 0.0 0.0
0.0 0.017382260020397805 -0.014986288023563315 0.014049303892722959 0.0009369841308403428 -0.0061303606573138115 0.0 0.0
0.0 0.022746963547533083 -0.01950462265254847 0.018484754254129085 0.0010198683984193931 -0.00736368338859661 0.0 0.0
0.0 0.029047421968278028 -0.02495530904552397 0.02386168266233239 0.001093626383191554 -0.008793466192712153 0.0 0.0
0.0 0.036399436561033525 -0.031383718933588794 0.030237514145437003 0.0011462047881517997 -0.010589499502400792 0.0 0.0
0.0 0.04493375300357617 -0.03841784395800443 0.03726848766768034 0.0011493562903241003 -0.013156242116924424 0.0 0.0
0.0 0.05255225910672773 -0.04486215256513606 0.04378503664497187 0.0010771159201641502 -0.016928534088979028 0.0 0.0
0.0 0.05678123700374228 -0.048283873922054306 0.04736117803128767 0.0009226958907666506 -0.021501253112665798 0.0 0.0
0.0 0.05374474480987381 -0.0449458418642822 0.04425637568320613 0.0006894661810760639 -0.02490088421709287 0.0 0.0
0.0 0.04715056166045402 -0.037567513202123044 0.03354398248582471 0.004023530716298341 1.0864573130042743e-14 0.0 0.0
0.0 0.053744744809873304 -0.04494584186427775 0.044256375683202315 0.0006894661810754321 0.0249008842171184 0.0 0.0
0.0 0.05678123700373434 -0.04828387392204467 0.04736117803127832 0.0009226958907663613 0.021501253112691042 0.0 0.0
0.0 0.052552259106708854 -0.04486215256511853 0.04378503664495461 0.0010771159201639258 0.01692853408899321 0.0 0.0
0.0 0.044933753003551236 -0.03841784395798282 0.037268487667658945 0.0011493562903238247 0.013156242116925402 0.0 0.0
0.0 0.03639943656100829 -0.0313837189335668 0.03023751414541568 0.0011462047881511516 0.010589499502396488 0.0 0.0
0.0 0.029047421968254414 -0.024955309045503266 0.02386168266231274 0.0010936263831905265 0.008793466192707242 0.0 0.0
0.0 0.02274696354750728 -0.019504622652525602 0.018484754254106842 0.001019868398418766 0.0073636833885901126 0.0 0.0
0.0 0.017382260020371135 -0.014986288023540172 0.014049303892700078 0.0009369841308400908 0.006130360657306618 0.0 0.0
0.0 0.012978229391217495 -0.011220958807796685 0.01037453636413414 0.0008464224436625278 0.004997301691742475 0.0 0.0
0.0 0.009265428830653049 -0.008035618845093335 0.007287446429624925 0.0007481724154684117 0.0038785699187344966 0.0 0.0
0.0 0.006125501883388668 -0.005326629099112883 0.004696964913635409 0.0006296641854774744 0.002755037280100351 0.0 0.0
0.0 0.0034058240989682364 -0.0030834564625103404 0.0026084298241993136 0.0004750266383110257 0.0016581372533665713 0.0 0.0
0.0 0.0018193724129218411 -0.0013381233403918775 0.0010705505392615002 0.0002675728011303767 0.0006969573680310176 0.0 0.0
0.0 0.0004341331457064071 -0.000354254902887239 0.0002693427799888019 8.491212289843766e-05 0.00018946019674157582 0.0 0.0
0.0 4.628230689740746e-05 1.2877288369646452e-05 -1.1510414155919078e-05 -1.3668742137275904e-06 -3.553599331921721e-05 0.0 0.0
0.0 -6.021185011525811e-06 -2.2285260131442884e-06 1.7575158438127369e-06 4.7101016933152405e-07 3.1612914600935917e-06 0.0 0.0
0.0 -1.1508622335227065e-06 -9.876059602363591e-08 7.855272765149146e-08 2.02078683721454e-08 2.02686863685958e-07 0.0 0.0
0.0 -1.3360415377959937e-07 -7.079108295548217e-09 5.6072599052097004e-09 1.4718483903391005e-09 2.396317665472527e-08 0.0 0.0
0.0 0.0 0.0 0.0 0.0 0.0 0.0 0.0
0.0 0.0 0.0 0.0 0.0 0.0 0.0 0.0
0.0 0.0 0.0 0.0 0.0 0.0 0.0 0.0
0.0 0.0 0.0 0.0 0.0 0.0 0.0 0.0
0.0 0.0 0.0 0.0 0.0 0.0 0.0 0.0
0.0 -1.6735117385773643e-06 -1.486688602520987e-07 1.1851850166267913e-07 3.015035858939777e-08 -2.485069167399896e-07 0.0 0.0
0.0 6.275759031127294e-06 9.961489297960164e-06 -7.958498897965727e-06 -2.0029903999943906e-06 1.2178107420657374e-05 0.0 0.0
0.0 9.274387019951172e-05 -0.0001009394574326134 7.461244081208692e-05 2.632701662052613e-05 -4.096671717006808e-05 0.0 0.0
0.0 0.0010003671787785471 -0.0006914186025187167 0.0005341215643823926 0.0001572970381363244 -0.00023809754564104845 0.0 0.0
0.0 0.002379056945874425 -0.002138690045397532 0.0017554018561226172 0.0003832881892749145 -0.0008477462209782717 0.0 0.0
0.0 0.00478343372214525 -0.004255552697350562 0.003680837134696548 0.0005747155626540172 -0.0017205643130345737 0.0 0.0
0.0 0.007878090649053291 -0.006952696111031423 0.006233989472912 0.0007187066381194203 -0.002689068898020993 0.0 0.0
0.0 0.011651028719169457 -0.01020170026637237 0.00937117541958403 0.0008305248467883354 -0.0037020580632665537 0.0 0.0
0.0 0.016145247368388654 -0.014046551026860098 0.013117031980544223 0.0009295190463158722 -0.004710342418418224 0.0 0.0
0.0 0.02155695775324015 -0.018614569021029884 0.017590536479639266 0.001024032541390624 -0.00575033770151537 0.0 0.0
0.0 0.027711955140475975 -0.024100988564029893 0.022987572728981602 0.0011134158350482892 -0.006917729353418191 0.0 0.0
0.0 0.03543393333821649 -0.030668857646533224 0.029475655409000927 0.001193202237532315 -0.008285753360845721 0.0 0.0
0.0 0.04444943260111341 -0.03836996840426006 0.03711604982190567 0.0012539185823543515 -0.009903906627794582 0.0 0.0
0.0 0.05411838443387576 -0.04682397296250771 0.04556155857695235 0.001262414385555336 -0.01203079479245547 0.0 0.0
0.0 0.06329130021959536 -0.0546285203391851 0.053459373900233996 0.0011691464389511363 -0.015368080231744588 0.0 0.0
0.0 0.06861105681940642 -0.0588708370145178 0.05790872477450233 0.0009621122400154268 -0.020387167752579722 0.0 0.0
0.0 0.06506945900416933 -0.05513833655293498 0.05447864448795947 0.0006596920649755186 -0.02626780749075012 0.0 0.0
0.0 0.05706349155178808 -0.04658647662681311 0.04204942374938074 0.004537052877432375 1.0667682015519375e-14 0.0 0.0
0.0 0.06506945900416479 -0.055138336552927804 0.05447864448795244 0.0006596920649753278 0.026267807490775345 0.0 0.0
0.0 0.06861105681939457 -0.058870837014505316 0.057908724774490106 0.0009621122400151541 0.020387167752604317 0.0 0.0
0.0 0.06329130021957297 -0.05462852033916503 0.053459373900214074 0.001169146438950917 0.015368080231758712 0.0 0.0
0.0 0.054118384433847005 -0.04682397296248251 0.045561558576927556 0.0012624143855549943 0.012030794792457805 0.0 0.0
0.0 0.044449432601083874 -0.038369968404234046 0.03711604982188049 0.0012539185823535193 0.009903906627791982 0.0 0.0
0.0 0.03543393333818724 -0.03066885764650779 0.029475655408975933 0.0011932022375318407 0.00828575336084188 0.0 0.0
0.0 0.02771195514044451 -0.02410098856400244 0.022987572728954953 0.0011134158350474851 0.006917729353412098 0.0 0.0
0.0 0.02155695775320917 -0.01861456902100265 0.0175905364796123 0.00102403254139035 0.0057503377015083075 0.0 0.0
0.0 0.016145247368358377 -0.014046551026833614 0.013117031980518326 0.0009295190463152882 0.004710342418409549 0.0 0.0
0.0 0.01165102871914405 -0.01020170026635009 0.009371175419562453 0.0008305248467876364 0.003702058063256877 0.0 0.0
0.0 0.007878090649029794 -0.006952696111010702 0.006233989472892004 0.0007187066381186956 0.0026890688980118326 0.0 0.0
0.0 0.0047834337221291925 -0.004255552697335796 0.0036808371346828956 0.0005747155626529002 0.0017205643130284456 0.0 0.0
0.0 0.0023790569458618117 -0.002138690045386244 0.0017554018561127171 0.00038328818927352656 0.0008477462209733537 0.0 0.0
0.0 0.0010003671787717709 -0.0006914186025138054 0.0005341215643785388 0.00015729703813526554 0.00023809754563909082 0.0 0.0
0.0 9.274387019755859e-05 -0.00010093945743175142 7.46124408114506e-05 2.6327016620300507e-05 4.096671717003002e-05 0.0 0.0
0.0 6.275759030008478e-06 9.961489297815015e-06 -7.95849889785196e-06 -2.00299039996293e-06 -1.2178107420494094e-05 0.0 0.0
0.0 -1.6735117383526066e-06 -1.4866886023067133e-07 1.1851850164602343e-07 3.0150358584646966e-08 2.4850691670752575e-07 0.0 0.0
0.0 0.0 0.0 0.0 0.0 0.0 0.0 0.0
0.0 0.0 0.0 0.0 0.0 0.0 0.0 0.0
0.0 0.0 0.0 0.0 0.0 0.0 0.0 0.0
0.0 0.0 0.0 0.0 0.0 0.0 0.0 0.0
0.0 0.0 0.0 0.0 0.0 0.0 0.0 0.0
0.0 0.0 0.0 0.0 0.0 0.0 0.0 0.0
0.0 -7.271368565975625e-07 -7.461911083902623e-08 5.801422345676086e-08 1.6604887382274303e-08 -6.78783353621826e-08 0.0 0.0
0.0 4.359904806365774e-06 2.140021216393985e-05 -1.682190542613971e-05 -4.57830673779993e-06 1.4889128784199965e-05 0.0 0.0
0.0 0.00032095341480044715 -0.00022292336951786244 0.0001647373732058557 5.8185996312006894e-05 -2.9847743643529778e-05 0.0 0.0
0.0 0.0014206801277415139 -0.0011938436797454626 0.0009422360987366906 0.0002516075810087712 -0.0002776566484795255 0.0 0.0
0.0 0.0032763586319443567 -0.00298460778751159 0.0025080306374984564 0.00047657715001313223 -0.0008413341909688185 0.0 0.0
0.0 0.006083008347776478 -0.005465093657978277 0.004808210653793265 0.0006568830041850074 -0.0015372481013597571 0.0 0.0
0.0 0.009710447381454166 -0.008601593847883601 0.007811556707930393 0.0007900371399532107 -0.0023366424788493316 0.0 0.0
0.0 0.014060690437348292 -0.01239339303942655 0.01149375494877427 0.0008996380906522691 -0.00317538718435725 0.0 0.0
0.0 0.01934490704811808 -0.016907204867530876 0.01590494699521029 0.0010022578723205863 -0.004013012365640812 0.0 0.0
0.0 0.02543448749849523 -0.022299306420229398 0.021195846879203274 0.0011034595410261137 -0.004887268338169753 0.0 0.0
0.0 0.03312607104171048 -0.028754677181526706 0.02755711955710708 0.0011975576244196429 -0.005900947819748727 0.0 0.0
0.0 0.04189673522893768 -0.0364338300424284 0.035152687112114084 0.001281142930314283 -0.007126138260540356 0.0 0.0
0.0 0.05198662911475778 -0.04532484544412094 0.04397702780536614 0.0013478176387548605 -0.008497483333966419 0.0 0.0
0.0 0.06327076844994917 -0.05501982456084553 0.053650161141679684 0.001369663419165782 -0.009949460775072262 0.0 0.0
0.0 0.0738599860176557 -0.06411378065101549 0.06284092246376911 0.001272858187246367 -0.012205082489905471 0.0 0.0
0.0 0.08026247801159114 -0.06938466902388433 0.06837382461156959 0.0010108444123147933 -0.017348458229855587 0.0 0.0
0.0 0.07682469675885739 -0.06562884546628335 0.06502087267969694 0.0006079727865864538 -0.026544694709414566 0.0 0.0
0.0 0.06802779754113963 -0.056109060185721156 0.051106312039071365 0.005002748146649794 1.0319002596848037e-14 0.0 0.0
0.0 0.0768246967588506 -0.06562884546627497 0.06502087267968869 0.0006079727865862619 0.026544694709436354 0.0 0.0
0.0 0.08026247801157269 -0.0693846690238672 0.06837382461155234 0.0010108444123148397 0.017348458229877413 0.0 0.0
0.0 0.07385998601762848 -0.06411378065099149 0.06284092246374548 0.0012728581872459876 0.01220508248991745 0.0 0.0
0.0 0.06327076844991476 -0.05501982456081572 0.053650161141649846 0.001369663419165831 0.0099494607750754 0.0 0.0
0.0 0.051986629114725166 -0.045324845444092265 0.04397702780533851 0.0013478176387537355 0.008497483333965387 0.0 0.0
0.0 0.041896735228902485 -0.036433830042397995 0.03515268711208394 0.001281142930314039 0.007126138260536846 0.0 0.0
0.0 0.03312607104167482 -0.028754677181495415 0.027557119557076574 0.0011975576244188464 0.0059009478197439 0.0 0.0
0.0 0.02543448749845871 -0.022299306420197857 0.021195846879171983 0.001103459541025878 0.004887268338164003 0.0 0.0
0.0 0.019344907048084718 -0.0169072048675012 0.01590494699518125 0.0010022578723199401 0.004013012365634044 0.0 0.0
0.0 0.014060690437317084 -0.012393393039399132 0.011493754948747287 0.0008996380906518418 0.0031753871843484644 0.0 0.0
0.0 0.00971044738142882 -0.008601593847861248 0.007811556707908742 0.0007900371399525047 0.0023366424788420605 0.0 0.0
0.0 0.006083008347757755 -0.0054650936579612045 0.004808210653777121 0.0006568830041840814 0.0015372481013546037 0.0 0.0
0.0 0.003276358631930898 -0.0029846077874988108 0.002508030637486915 0.0004765771500118973 0.0008413341909646419 0.0 0.0
0.0 0.0014206801277329402 -0.0011938436797382494 0.0009422360987307306 0.0002516075810075197 0.0002776566484773585 0.0 0.0
0.0 0.0003209534147969942 -0.00022292336951570575 0.0001647373732042368 5.81859963114693e-05 2.984774364317855e-05 0.0 0.0
0.0 4.359904805567507e-06 2.140021216371713e-05 -1.6821905425960617e-05 -4.578306737756658e-06 -1.4889128784009982e-05 0.0 0.0
0.0 -7.271368566768848e-07 -7.461911084530711e-08 5.801422346080834e-08 1.6604887384503704e-08 6.787833536890457e-08 0.0 0.0
0.0 0.0 0.0 0.0 0.0 0.0 0.0 0.0
0.0 0.0 0.0 0.0 0.0 0.0 0.0 0.0
0.0 0.0 0.0 0.0 0.0 0.0 0.0 0.0
0.0 0.0 0.0 0.0 0.0 0.0 0.0 0.0
0.0 0.0 0.0 0.0 0.0 0.0 0.0 0.0
0.0 0.0 0.0 0.0 0.0 0.0 0.0 0.0
0.0 7.187229598705419e-07 8.463335519122874e-08 -6.176879738647556e-08 -2.286455780476825e-08 5.165437736512387e-08 0.0 0.0
0.0 2.0177183811909887e-05 -2.0364734735925465e-05 1.3575443268009652e-05 6.789291467915815e-06 4.317580229950122e-06 0.0 0.0
0.0 0.0006478458142157947 -0.0004481763333535436 0.0003367451940302763 0.00011143113932326737 -4.229410249282214e-06 0.0 0.0
0.0 0.0018604178583235458 -0.00178785900704955 0.0014444787934882325 0.00034338021356131794 -0.00025688805810749444 0.0 0.0
0.0 0.004237012824395139 -0.003860842542803025 0.0033037763254885515 0.000557066217314476 -0.0006380362858134622 0.0 0.0
0.0 0.007413099933355624 -0.0066915239394742965 0.00596790348576153 0.0007236204537127654 -0.0011362354233348474 0.0 0.0
0.0 0.011546936405617074 -0.010261886182788036 0.009412588969599019 0.0008492972131890235 -0.0017101706300212288 0.0 0.0
0.0 0.01657533299256968 -0.014597245135665265 0.013637235188720495 0.0009600099469447603 -0.0023124244665159457 0.0 0.0
0.0 0.02249305268076384 -0.01979206928642011 0.018723961273002708 0.001068108013417408 -0.0029117383794910684 0.0 0.0
0.0 0.029842153850001184 -0.026011228205206897 0.024835853116718723 0.0011753750884881623 -0.0035477001306149 0.0 0.0
0.0 0.03815971586576193 -0.03346232467707258 0.032185884177453314 0.0012764404996192188 -0.004332862879197318 0.0 0.0
0.0 0.048290413194900385 -0.0422360902310413 0.0408735233128031 0.001362566918238237 -0.005299115478886041 0.0 0.0
0.0 0.059815511790212564 -0.05221579028254314 0.0507914738106698 0.001424316471873316 -0.006330320294969555 0.0 0.0
0.0 0.07218591014962876 -0.06292124053285893 0.061466110680442915 0.0014551298524160745 -0.00716493209807794 0.0 0.0
0.0 0.0839680928292126 -0.07312715415620817 0.0717169141649559 0.001410239991252277 -0.008046631556199333 0.0 0.0
0.0 0.09180104300812755 -0.07973947246932873 0.07863301532879285 0.001106457140535839 -0.011921295608027918 0.0 0.0
0.0 0.08915451447930368 -0.07666074310883995 0.07614077302790981 0.0005199700809300079 -0.024896948802653945 0.0 0.0
0.0 0.08008964420365276 -0.06654541606644535 0.061157400032291975 0.005388016034153285 7.992738415563139e-15 0.0 0.0
0.0 0.08915451447929416 -0.07666074310883012 0.07614077302790026 0.0005199700809298768 0.024896948802670713 0.0 0.0
0.0 0.09180104300810506 -0.07973947246930868 0.07863301532877268 0.0011064571405360382 0.011921295608045678 0.0 0.0
0.0 0.08396809282918077 -0.07312715415618057 0.07171691416492862 0.001410239991251955 0.008046631556208775 0.0 0.0
0.0 0.07218591014958967 -0.06292124053282531 0.06146611068040877 0.0014551298524165515 0.00716493209808039 0.0 0.0
0.0 0.05981551179017589 -0.05221579028251083 0.05079147381063874 0.001424316471872144 0.006330320294969856 0.0 0.0
0.0 0.04829041319486162 -0.042236090231007654 0.040873523312769916 0.0013625669182377443 0.0052991154788843255 0.0 0.0
0.0 0.03815971586572185 -0.033462324677037705 0.032185884177419126 0.0012764404996185644 0.004332862879193652 0.0 0.0
0.0 0.029842153849958683 -0.02601122820516998 0.02483585311668176 0.0011753750884882202 0.0035477001306111716 0.0 0.0
0.0 0.022493052680724615 -0.01979206928638609 0.018723961272969224 0.0010681080134168394 0.002911738379486651 0.0 0.0
0.0 0.016575332992535323 -0.01459724513563462 0.013637235188690316 0.000960009946944306 0.002312424466508975 0.0 0.0
0.0 0.011546936405589908 -0.010261886182763417 0.009412588969575232 0.0008492972131881851 0.001710170630016012 0.0 0.0
0.0 0.0074130999333345445 -0.006691523939454868 0.005967903485743069 0.0007236204537118007 0.001136235423330865 0.0 0.0
0.0 0.004237012824379406 -0.0038608425427882603 0.003303776325474947 0.0005570662173133117 0.00063803628581033 0.0 0.0
0.0 0.0018604178583134714 -0.0017878590070399022 0.0014444787934799537 0.00034338021355994735 0.00025688805810541993 0.0 0.0
0.0 0.0006478458142112505 -0.00044817633334999306 0.00033674519402754165 0.00011143113932245072 4.22941024894911e-06 0.0 0.0
0.0 2.0177183810829032e-05 -2.036473473587671e-05 1.3575443267994773e-05 6.789291467881848e-06 -4.317580229779851e-06 0.0 0.0
0.0 7.187229594391122e-07 8.463335514353968e-08 -6.176879735139436e-08 -2.2864557792165992e-08 -5.165437734438602e-08 0.0 0.0
0.0 0.0 0.0 0.0 0.0 0.0 0.0 0.0
0.0 0.0 0.0 0.0 0.0 0.0 0.0 0.0
0.0 0.0 0.0 0.0 0.0 0.0 0.0 0.0
0.0 0.0 0.0 0.0 0.0 0.0 0.0 0.0
0.0 0.0 0.0 0.0 0.0 0.0 0.0 0.0
0.0 0.0 0.0 0.0 0.0 0.0 0.0 0.0
0.0 -1.319415218018457e-06 5.954986455086642e-07 -4.823044526574263e-07 -1.1319419285123664e-07 2.311183676024013e-07 0.0 0.0
0.0 0.0001377048895972502 -6.530281885714989e-05 4.521600425497826e-05 2.008681460217147e-05 2.1076269558815115e-05 0.0 0.0
0.0 0.0009429807623017657 -0.0007857284282122908 0.0006024287517072148 0.00018329967650507588 4.874658762454949e-05 0.0 0.0
0.0 0.002566476866983046 -0.002393995391772211 0.0019758095862325276 0.00041818580553968325 -8.555703508662324e-05 0.0 0.0
0.0 0.005200638470033552 -0.004752807869451259 0.0041281392686515535 0.0006246686007997026 -0.00027559809126297694 0.0 0.0
0.0 0.008821594987598519 -0.007918979779088321 0.007140938975423133 0.0007780408036651876 -0.0005240117086398781 0.0 0.0
0.0 0.01339475975065502 -0.01192108518693695 0.011020680923442236 0.0009004042634947072 -0.0008171657253555183 0.0 0.0
0.0 0.019028788065470655 -0.016804827738108204 0.01579072869259504 0.0010140990455131537 -0.0011161246003284092 0.0 0.0
0.0 0.025951599134734177 -0.022686116106808096 0.021558115904867812 0.00112800020194029 -0.0014077891739739017 0.0 0.0
0.0 0.0337978865587212 -0.029758019458749507 0.028515700250548545 0.0012423192082009669 -0.0017598988453468667 0.0 0.0
0.0 0.04350479643145955 -0.03818804462375882 0.036838083721297626 0.0013499609024611727 -0.002206276816373757 0.0 0.0
0.0 0.05484213422461956 -0.04803380381397212 0.04659608749332282 0.001437716320649332 -0.0027540218733092476 0.0 0.0
0.0 0.06756839975572346 -0.05905818084345825 0.057564954267986836 0.001493226575471456 -0.0033526860234030192 0.0 0.0
0.0 0.08091284623421338 -0.07058350340964627 0.06907202634624755 0.0015114770633986854 -0.003774918227384258 0.0 0.0
0.0 0.09350559485784674 -0.08145683621302571 0.07994658267623093 0.0015102535367948343 -0.0038365510551592926 0.0 0.0
0.0 0.10278789059271089 -0.08948285221074022 0.08809642180215081 0.001386430408589359 -0.005125473234215682 0.0 0.0
0.0 0.10229666569756503 -0.08847508044301683 0.08801119977307788 0.0004638806699389404 -0.01731235450585381 0.0 0.0
0.0 0.09425720232448931 -0.07880990324616668 0.0733734333564653 0.005436469889701289 3.95516952522712e-15 0.0 0.0
0.0 0.10229666569755341 -0.08847508044300581 0.08801119977306712 0.00046388066993864754 0.01731235450586367 0.0 0.0
0.0 0.10278789059268546 -0.08948285221071807 0.08809642180212866 0.0013864304085892361 0.005125473234226068 0.0 0.0
0.0 0.09350559485781121 -0.08145683621299485 0.07994658267620054 0.0015102535367943497 0.0038365510551651933 0.0 0.0
0.0 0.08091284623417007 -0.07058350340960887 0.06907202634621003 0.0015114770633988823 0.0037749182273853687 0.0 0.0
0.0 0.0675683997556813 -0.059058180843421286 0.05756495426795101 0.0014932265754702806 0.0033526860234033055 0.0 0.0
0.0 0.05484213422457561 -0.0480338038139338 0.04659608749328525 0.0014377163206485616 0.002754021873308373 0.0 0.0
0.0 0.043504796431414264 -0.03818804462371942 0.03683808372125891 0.0013499609024604604 0.0022062768163720325 0.0 0.0
0.0 0.03379788655867502 -0.02975801945870927 0.028515700250508872 0.0012423192082003864 0.0017598988453452382 0.0 0.0
0.0 0.025951599134689963 -0.02268611610676934 0.02155811590482962 0.0011280002019397077 0.0014077891739712675 0.0 0.0
0.0 0.01902878806543331 -0.016804827738075647 0.015790728692563066 0.0010140990455125743 0.0011161246003249248 0.0 0.0
0.0 0.013394759750623465 -0.011921085186908752 0.011020680923414808 0.0009004042634939414 0.0008171657253528044 0.0 0.0
0.0 0.008821594987575223 -0.007918979779066871 0.007140938975402607 0.0007780408036642623 0.0005240117086378359 0.0 0.0
0.0 0.005200638470015558 -0.004752807869434414 0.004128139268635797 0.0006246686007986143 0.0002755980912611715 0.0 0.0
0.0 0.0025664768669714432 -0.00239399539176096 0.001975809586222617 0.0004181858055383425 8.555703508558274e-05 0.0 0.0
0.0 0.000942980762296159 -0.0007857284282075356 0.0006024287517034397 0.00018329967650409593 -4.874658762458431e-05 0.0 0.0
0.0 0.000137704889595453 -6.53028188564338e-05 4.521600425448718e-05 2.0086814601946614e-05 -2.10762695585586e-05 0.0 0.0
0.0 -1.3194152181348074e-06 5.954986451320425e-07 -4.823044523777703e-07 -1.1319419275421358e-07 -2.3111836758768183e-07 0.0 0.0
0.0 0.0 0.0 0.0 0.0 0.0 0.0 0.0
0.0 0.0 0.0 0.0 0.0 0.0 0.0 0.0
0.0 0.0 0.0 0.0 0.0 0.0 0.0 0.0
0.0 0.0 0.0 0.0 0.0 0.0 0.0 0.0
0.0 0.0 0.0 0.0 0.0 0.0 0.0 0.0
0.0 0.0 0.0 0.0 0.0 0.0 0.0 0.0
0.0 1.990175034996418e-06 -2.886946771689919e-07 2.931547198066483e-07 -4.4600426375314925e-09 -4.984288268973312e-07 0.0 0.0
0.0 0.00029973738671422 -0.0001456362924130689 0.00010087049315102818 4.476579926204138e-05 5.350453517210331e-05 0.0 0.0
0.0 0.001302951171881351 -0.0010982990758304843 0.0008347193211651327 0.00026357975466535 0.0001451952309501083 0.0 0.0
0.0 0.0031204701731754186 -0.0029137394781081636 0.0023814333134349426 0.0005323061646732227 0.00016089584283251064 0.0 0.0
0.0 0.005982612727066047 -0.005488514233597907 0.004713654622609498 0.0007748596109884058 0.0001761484009509507 0.0 0.0
0.0 0.009846286092823701 -0.008930565535957771 0.007952658905592325 0.0009779066303654484 0.0001912687172044746 0.0 0.0
0.0 0.014843202220136175 -0.0132891419721716 0.012118139108651383 0.0011710028635202121 0.00018528238938022136 0.0 0.0
0.0 0.021037517435902903 -0.01863433231658588 0.017253814002379905 0.001380518314205968 0.00020604947013475885 0.0 0.0
0.0 0.028259677325297532 -0.025109940772699416 0.02349327705313365 0.0016166637195657676 0.00024983775161069224 0.0 0.0
0.0 0.0370652945150483 -0.032886231638400154 0.03101247124454498 0.00187376039385515 0.00023655891274973256 0.0 0.0
0.0 0.0475761030372503 -0.042122381945680354 0.03997877809548987 0.0021436038501904536 0.0002064887840343933 0.0 0.0
0.0 0.05982775000269557 -0.05284388513537029 0.05044032131576906 0.002403563819601137 7.53600398703232e-05 0.0 0.0
0.0 0.07348429251607264 -0.06471633732950333 0.062094884624722055 0.002621452704781271 -0.00017545495307396807 0.0 0.0
0.0 0.08752785495348149 -0.07688206068019914 0.07412319239032039 0.0027588682898786513 -0.0004684314205224433 0.0 0.0
0.0 0.10037164885697486 -0.08796997866999262 0.08519703215139818 0.0027729465185942544 -0.0006299330456704744 0.0 0.0
0.0 0.11007302478204199 -0.09643054048461427 0.09370223729834398 0.002728303186270293 -0.0008838679007122452 0.0 0.0
0.0 0.1123673327268099 -0.0988336495094869 0.09630168001766051 0.0025319694918264604 -0.011887441883115066 0.0 0.0
0.0 0.10829927569040909 -0.09184034369197763 0.08343106706956015 0.008409276622417469 1.4988010832439613e-15 0.0 0.0
0.0 0.11236733272679802 -0.09883364950947612 0.09630168001765055 0.0025319694918255597 0.011887441883118709 0.0 0.0
0.0 0.11007302478201315 -0.0964305404845891 0.09370223729831964 0.0027283031862695368 0.0008838679007155811 0.0 0.0
0.0 0.10037164885693653 -0.08796997866995866 0.08519703215136602 0.0027729465185926828 0.0006299330456734972 0.0 0.0
0.0 0.08752785495343318 -0.076882060680157 0.07412319239027877 0.0027588682898780394 0.00046843142052199055 0.0 0.0
0.0 0.07348429251602673 -0.0647163373294627 0.06209488462468331 0.0026214527047794508 0.00017545495307377985 0.0 0.0
0.0 0.05982775000264784 -0.05284388513532798 0.05044032131572871 0.002403563819599275 -7.536003987098066e-05 0.0 0.0
0.0 0.04757610303720088 -0.04212238194563685 0.03997877809544807 0.0021436038501887675 -0.00020648878403493106 0.0 0.0
0.0 0.037065294515000534 -0.03288623163835794 0.0310124712445045 0.0018737603938534506 -0.00023655891275016667 0.0 0.0
0.0 0.028259677325250462 -0.02510994077265808 0.023493277053093748 0.0016166637195643102 -0.0002498377516124959 0.0 0.0
0.0 0.021037517435862556 -0.018634332316550234 0.017253814002345554 0.0013805183142046869 -0.00020604947013589834 0.0 0.0
0.0 0.014843202220101378 -0.013289141972141216 0.012118139108622125 0.0011710028635190945 -0.00018528238938105013 0.0 0.0
0.0 0.009846286092797474 -0.00893056553593424 0.00795265890556995 0.000977906630364293 -0.00019126871720465664 0.0 0.0
0.0 0.00598261272704668 -0.005488514233579895 0.004713654622592738 0.0007748596109871564 -0.00017614840095105154 0.0 0.0
0.0 0.0031204701731632253 -0.002913739478096313 0.0023814333134244627 0.0005323061646718506 -0.0001608958428324238 0.0 0.0
0.0 0.0013029511718752917 -0.001098299075824493 0.0008347193211603711 0.0002635797546641223 -0.00014519523094971655 0.0 0.0
0.0 0.0002997373867118494 -0.00014563629241171682 0.00010087049315010317 4.476579926161488e-05 -5.350453517161818e-05 0.0 0.0
0.0 1.9901750346254837e-06 -2.886946770222619e-07 2.9315471969585606e-07 -4.460042673608796e-09 4.984288268877957e-07 0.0 0.0
0.0 0.0 0.0 0.0 0.0 0.0 0.0 0.0
0.0 0.0 0.0 0.0 0.0 0.0 0.0 0.0
0.0 0.0 0.0 0.0 0.0 0.0 0.0 0.0
SCALARS Wm float 4
LOOKUP_TABLE default
9.705065180008347 1.910409752148928 3.745681049488611 4.048974378370799
4.275678679041805 2.1491270464984 0.9126253170139852 1.2139263155294222
0.49440009766505144 0.5000302015889393 -0.004851178780438161 -0.00077892514344988
0.43022945229201504 0.42941548380111333 0.0004673510861546827 0.0003466174047471089
0.7364636635132152 0.636474706010838 0.03546195041215319 0.0645270070902238
1.393017105117445 0.8319731706184109 0.1810633484389546 0.37998058606007906
2.638544779219849 1.1165237350501636 0.5915362044011249 0.930484839768561
4.539493395534939 1.4319089205205826 1.3241606058740767 1.7834238691402762
7.222545116123261 1.7988856161556313 2.477254561377909 2.946404938589719
10.818081182901178 2.2490627195788195 4.1392821526351105 4.429736310687254
15.472531393016727 2.8256882322715295 6.394539630044546 6.252303530700648
21.29599557740457 3.5632077693289324 9.269734377920452 8.4630534301552
28.61631255013009 4.468220771078436 13.024165328746191 11.123926450305461
37.64296925914379 5.547316948416709 17.80178670629343 14.29386560443365
48.452495634233756 6.725824743874266 23.739057169207065 17.987613721152425
60.81543509091222 7.854466678994772 30.828125610978503 22.13284280093894
74.00776819122065 8.733071867714052 38.72250360457939 26.552192718927223
86.8640941980353 9.187019192108243 46.79029001962096 30.88678498630604
97.99750087552098 9.205906989899582 54.102094494004795 34.689499391616614
105.74491249604641 8.829842976222443 59.43833553995205 37.476733979871945
108.38186978735567 8.250745033266826 61.5290892005052 38.60203555358362
105.74491249604155 8.829842976229866 59.438335539943616 37.47673397986805
97.99750087549981 9.205906989902388 54.1020944939888 34.689499391608564
86.86409419799813 9.187019192103067 46.790290019600185 30.88678498629487
74.00776819118248 8.733071867715104 38.72250360455398 26.552192718913354
60.81543509086755 7.854466678985892 30.82812561095585 22.13284280092585
48.452495634192374 6.725824743868023 23.739057169185223 17.987613721139102
37.642969259105456 5.547316948415429 17.801786706270864 14.293865604419159
28.616312550092477 4.468220771076365 13.024165328725097 11.123926450291023
21.29599557736921 3.5632077693240705 9.269734377902864 8.463053430142281
15.472531392988015 2.8256882322698287 6.394539630029469 6.252303530688714
10.818081182877576 2.249062719574565 4.139282152624694 4.429736310678323
7.222545116105926 1.798885616152432 2.4772545613707178 2.9464049385827766
4.539493395522776 1.4319089205182227 1.3241606058694564 1.7834238691350959
2.63854477921255 1.116523735049486 0.5915362043983075 0.9304848397647576
1.3930171051134228 0.8319731706170483 0.18106334843824892 0.37998058605812585
0.736463663511714 0.6364747060100313 0.035461950411902574 0.06452700708978001
0.43022945229161086 0.4294154838006508 0.0004673510861666239 0.00034661740479352055
0.4944000976643489 0.500030201588234 -0.0048511787804235325 -0.0007789251434615128
4.275678679037964 2.149127046498967 0.912625317011941 1.213926315527054
9.705065179986049 1.9104097521376673 3.745681049482708 4.0489743783656795
11.209618430573478 5.102599579188244 2.837428767606856 3.269590083778382
1.5079879631510062 0.3446464386149139 0.4567473794138517 0.7065941451222405
0.22298340234718506 0.23391516795780737 -0.0024903979770748226 -0.008441367633547489
0.3454932672416494 0.3450615283424494 4.209866023097577e-05 0.0003896402389690853
0.5690111779413235 0.5236303204652676 0.012642991897339214 0.03273786557871702
1.126113365688058 0.7355716291630768 0.13082312426109718 0.25971861226388365
2.174189734875704 0.9426194737538347 0.46225033430747586 0.7693199268143938
3.8496554606162956 1.1832840691721613 1.1138509279079714 1.5525204635361627
6.221046934039776 1.4364247710837832 2.1554131939107295 2.629208969045264
9.356913726860144 1.7162631876507892 3.639726283124789 4.000924256084566
13.368511885432413 2.039867009307216 5.6476702172296145 5.680974658895584
18.450964746321247 2.4280247594888067 8.31574793584852 7.707192050983911
24.652439246061785 2.892703030182728 11.609072309591044 10.150663906288017
32.42087090452314 3.4270283457218533 15.924485709893279 13.069356848908015
41.7763063660763 3.996112729171856 21.28577368338867 16.494419953515774
52.55862670124156 4.507885027473206 27.6911226711545 20.359619002613833
64.2022161011903 4.8413814163887485 34.89715406836709 24.463680616434452
75.72588436237281 4.907276745424323 42.30869399319069 28.509913623757814
85.80674249761931 4.681523758159958 49.04581527078239 32.079403468676965
92.90632218042003 4.2166555347375425 54.03824046959473 34.65142617608772
95.50271053297726 3.7487872761147405 56.0735606741824 35.68036258268014
92.90632218040821 4.216655534736544 54.0382404695876 34.65142617608404
85.80674249760058 4.681523758163223 49.04581527076796 32.07940346866943
75.72588436234606 4.9072767454264055 42.3086939931719 28.509913623747757
64.20221610115377 4.84138141638637 34.897154068345316 24.46368061642208
52.558626701206975 4.5078850274722715 27.691122671133304 20.359619002601413
41.77630636604074 3.9961127291684018 21.28577368336884 16.494419953503503
32.420870904490265 3.4270283457226194 15.924485709872942 13.069356848894692
24.652439246026912 2.8927030301783976 11.60907230957308 10.150663906275433
18.45096474629143 2.42802475948738 8.315747935832336 7.707192050971719
13.36851188540693 2.039867009305884 5.647670217216271 5.680974658884779
9.356913726840292 1.7162631876487857 3.6397262831153805 4.000924256076121
6.221046934025064 1.4364247710823186 2.155413193904155 2.6292089690385883
3.849655460605917 1.1832840691711453 1.1138509279036513 1.552520463531121
2.1741897348692434 0.9426194737528362 0.4622503343052427 0.7693199268111637
1.1261133656845779 0.7355716291618624 0.13082312426022058 0.25971861226249443
0.5690111779401162 0.5236303204644469 0.012642991897202468 0.03273786557846714
0.34549326724128016 0.3450615283420104 4.20986602405848e-05 0.00038964023902916817
0.22298340234711247 0.23391516795765546 -0.0024903979770516758 -0.008441367633491289
1.5079879631466682 0.3446464386146173 0.456747379411994 0.7065941451200575
11.209618430551885 5.102599579178002 2.8374287676009833 3.2695900837728895
8.251677159905643 3.9831148267426513 1.8895089196415917 2.379053413521401
0.8991249839077956 0.11954168542987297 0.29258335858166595 0.48699993989625684
0.13991447764119364 0.139914914098852 -1.80369121587346e-08 -4.1842074621861334e-07
0.2618043463732539 0.26162309750471757 4.7042775083778526e-05 0.00013420609345256892
0.4446487141651411 0.43621289170625155 0.0014832634104036738 0.0069525590484860594
0.8793011954914578 0.6607265285595292 0.07115791289946742 0.14741675403246127
1.7511436271104053 0.8623961924230186 0.3148156837699927 0.5739317509173939
3.2145837223191776 1.097269331320926 0.8565939018392793 1.2607204891589718
5.294081448900031 1.335736313034685 1.7364263560719035 2.2219187797934423
8.05911646080143 1.5905494405585212 3.0215968636993753 3.4469701565435376
11.565234829189333 1.8777834396666435 4.747902247521798 4.939549142000885
15.914528239627991 2.213519037904304 6.967696405518015 6.733312796205676
21.419292522967986 2.620734554447319 9.91527538020187 8.883282588318787
28.090241870332832 3.0941015506567897 13.524567066008313 11.47157325366772
36.27789032132477 3.596972306411644 18.160814067708667 14.520103947204442
45.77185276214388 4.065059094563935 23.721402148672087 17.98539151890786
56.10642890837361 4.40267527854631 29.990549352215787 21.71320427761151
66.41303493340615 4.511428793902433 36.506457637567294 25.39514850193643
75.47687355797578 4.3315539712005275 42.49764427829722 28.64767530847802
81.90515172367506 3.9648092044270964 46.95267869324334 30.987663826004635
84.21038292547463 3.4274865304236912 48.81440910036949 31.96848729468145
81.90515172366398 3.9648092044239482 46.952678693238255 30.98766382600175
75.47687355796113 4.331553971205801 42.49764427828428 28.647675308471023
66.41303493338138 4.511428793902555 36.50645763755139 25.395148501927455
56.10642890834306 4.402675278543765 29.990549352198066 21.713204277601236
45.77185276211108 4.065059094560363 23.72140214865388 17.985391518896808
36.277890321294706 3.5969723064103483 18.16081406769113 14.520103947193228
28.090241870301785 3.0941015506533627 13.524567065991857 11.47157325365656
21.4192925229399 2.620734554445426 9.9152753801867 8.883282588307782
15.914528239600967 2.213519037901821 6.96769640550419 6.733312796194964
11.565234829167274 1.877783439665347 4.747902247510613 4.939549141991316
8.059116460783832 1.590549440556729 3.021596863691235 3.446970156535868
5.2940814488868835 1.33573631303323 1.7364263560662172 2.221918779787438
3.2145837223099183 1.0972693313200257 0.8565939018354951 1.260720489154398
1.751143627105109 0.8623961924220437 0.3148156837683904 0.5739317509146747
0.8793011954888905 0.6607265285584436 0.07115791289893202 0.1474167540315147
0.44464871416425084 0.43621289170539856 0.0014832634103789696 0.0069525590484731834
0.26180434637304556 0.26162309750451646 4.7042775082193056e-05 0.00013420609344687008
0.1399144776411513 0.13991491409880932 -1.8036912141597065e-08 -4.184207459031903e-07
0.8991249839045625 0.11954168543002781 0.2925833585802195 0.4869999398943152
8.251677159885766 3.983114826733759 1.8895089196361525 2.379053413515857
6.128628497225155 3.0895809383530652 1.2852637424864637 1.7537838163856274
0.57799452156577 0.07261407748138958 0.17486100027271678 0.3305194438116632
0.09892743460372594 0.09892743460372594 0.0 0.0
0.1972594215811982 0.19724449633216926 1.6429883961885627e-06 1.328226063276147e-05
0.35065225069435724 0.35854177394325554 -0.001869323230350905 -0.006020200018547391
0.6618624014038449 0.5638091657687985 0.02677246934374102 0.07128076629130538
1.3771173564520192 0.7921214676925261 0.20161226450028472 0.3833836242592084
2.6034696154593084 1.0052408045432197 0.6210673156309255 0.9771614952851628
4.404857799405127 1.2305599116809134 1.3533093845466087 1.8209885031776039
6.793816890575007 1.4629161837386937 2.4316059606883877 2.899294746147927
9.790202675065713 1.7144068230474308 3.867400940474109 4.208394911544174
13.539445726812955 2.0078936966123333 5.7613555793959215 5.770196450804698
18.134365306986613 2.3560788639023666 8.13720842438951 7.6410780186947385
23.967194903496402 2.7649046165664544 11.317242406750381 9.88504788017957
30.96136315330811 3.2110304140785404 15.193937410757846 12.556395328471726
39.119833579842776 3.6392903067611035 19.862126434257586 15.618416838824084
48.19506074982915 3.9772794153249227 25.288223251584125 18.92955808292011
57.335514149816284 4.128480828399736 30.951510684024544 22.255522637392
65.45997884652692 4.023515302752064 36.197553007133706 25.238910536641164
71.31430809871519 3.728077384555369 40.15435286209031 27.43187785206953
73.42053523075592 3.088513120357179 41.949013286191715 28.383008824206982
71.31430809870861 3.7280773845558755 40.154352862085695 27.431877852067014
65.45997884651021 4.023515302751575 36.197553007123304 25.238910536635352
57.33551414979487 4.128480828398527 30.951510684011662 22.255522637384676
48.19506074980403 3.97727941532381 25.288223251569118 18.9295580829111
39.11983357981718 3.6392903067603743 19.862126434242334 15.618416838814506
30.96136315328151 3.2110304140774915 15.193937410742475 12.556395328461532
23.967194903472624 2.7649046165658615 11.317242406736813 9.885047880169957
18.134365306961506 2.3560788639002506 8.137208424376393 7.641078018684867
13.53944572679076 2.0078936966101937 5.7613555793849205 5.770196450795652
9.790202675045942 1.7144068230451517 3.8674009404648704 4.20839491153592
6.7938168905602625 1.4629161837378413 2.4316059606813454 2.8992947461410736
4.4048577993939215 1.2305599116797519 1.3533093845418322 1.820988503172336
2.6034696154519734 1.0052408045424541 0.621067315628219 0.9771614952812999
1.37711735644748 0.7921214676915227 0.20161226449884032 0.3833836242571168
0.6618624014018805 0.5638091657677733 0.026772469343422964 0.07128076629068443
0.35065225069378486 0.3585417739425741 -0.001869323230326522 -0.0060202000184626445
0.19725942158106885 0.1972444963320396 1.6429883964398376e-06 1.328226063281777e-05
0.09892743460363522 0.09892743460363522 0.0 0.0
0.5779945215631326 0.07261407748147539 0.17486100027156554 0.33051944381009146
6.128628497209295 3.0895809383462756 1.2852637424822788 1.7537838163807429
4.475618445900459 2.3741385579508614 0.8365927774826984 1.264887110466898
0.42553106812725144 0.10730691308430787 0.11659526235592639 0.2016288926870174
0.08970941416335727 0.08970941416335727 0.0 0.0
0.15551662055218268 0.1555091917336644 4.1024249203392503e-07 7.018576026238409e-06
0.279609704167763 0.27950819029028307 1.546403811149359e-05 8.604983936847796e-05
0.4986611889965465 0.4855945593482453 0.002145191453434909 0.010921438194866084
1.038911082807703 0.7004977687610119 0.11652344818827633 0.22188986585841558
2.0262365543269634 0.9083338933758276 0.4128106127747958 0.7050920481763399
3.545520929596833 1.118639369987822 0.9986210650291008 1.4282604945799113
5.561982994854828 1.3303160371725011 1.8716355397933158 2.3600314178890116
8.095121872249482 1.553174925362964 3.0551551879051706 3.486791758981347
11.220000406532177 1.8040058479843915 4.594295826174112 4.821698732373677
15.109198156660302 2.1022804805463213 6.595237674741402 6.411680001372581
19.842046668909482 2.450188898002591 9.064551502512431 8.32730626839446
25.75827331412648 2.831928927975464 12.316482345857613 10.609862040293411
32.75158533639357 3.2228683806531166 16.2784998457229 13.25021711001755
40.47267539865204 3.5630996092879434 20.755767981379847 16.153807807984258
48.4487277996241 3.76024906145161 25.584335899122127 19.104142839050358
55.702545826638314 3.736858251602567 30.167036517203695 21.798651057832053
61.100835420244714 3.502082416471357 33.75025702311638 23.848495980656967
63.07100455720739 2.7460027834642524 35.494197150692735 24.830804623050405
61.100835420238205 3.5020824164720445 33.75025702311179 23.84849598065437
55.70254582662445 3.7368582516011952 30.167036517195758 21.7986510578275
48.448727799610694 3.760249061456339 25.584335899110783 19.10414283904357
40.47267539863263 3.563099609289749 20.755767981366755 16.153807807976115
32.7515853363714 3.2228683806530043 16.27849984570954 13.250217110008853
25.758273314103015 2.8319289279723856 12.316482345845566 10.609862040285059
19.84204666888922 2.4501888980033786 9.064551502500317 8.327306268385522
15.1091981566403 2.1022804805447985 6.5952376747311225 6.411680001364375
11.220000406513341 1.8040058479828887 4.5942958261648 4.821698732365654
8.095121872232387 1.5531749253596396 3.0551551878980647 3.486791758974684
5.561982994842082 1.3303160371719507 1.8716355397872866 2.360031417882846
3.5455209295871675 1.1186393699866164 0.9986210650252829 1.4282604945752673
2.0262365543204517 0.9083338933743599 0.4128106127727015 0.7050920481733896
1.0389110828042132 0.7004977687599278 0.11652344818734021 0.22188986585694562
0.4986611889953506 0.48559455934725215 0.00214519145337357 0.010921438194724775
0.2796097041674285 0.27950819028993423 1.5464038111598512e-05 8.604983938259304e-05
0.15551662055201293 0.15550919173349884 4.1024249179030226e-07 7.018576022264267e-06
0.08970941416322784 0.08970941416322784 0.0 0.0
0.4255310681252321 0.1073069130843821 0.11659526235502066 0.2016288926858296
4.475618445887718 2.374138557945271 0.836592777479554 1.2648871104628916
3.2030698497146193 1.8145969106345992 0.5240213115620111 0.86445162751801
0.30296064758918545 0.14323428408325764 0.04741742016550971 0.11230894334041769
0.10032737666166286 0.10032737666166286 0.0 0.0
0.1342314639990465 0.13423178346172676 -1.2239768657509634e-08 -3.072229116306911e-07
0.22907721509654444 0.22949694907969992 -6.565556062953899e-05 -0.0003540784225259086
0.3799067722701155 0.3860608302312228 -0.0027501768816359045 -0.0034038810794713922
0.7356737970887832 0.5837662942891468 0.039918621740600915 0.11198888105903546
1.5249110298919657 0.810274029650435 0.2671720945948415 0.44746490564668917
2.705939504227181 0.9941082295821863 0.6652104061691524 1.0466208684758425
4.384540007590038 1.1927553991141857 1.3611922754885892 1.8305923329872633
6.456901588580339 1.3885596043446193 2.292194353171943 2.776147631063775
8.988184760332285 1.602475207935595 3.4969613808994833 3.8887481714972103
12.100234884658926 1.8525079858850406 5.043409663756938 5.204317235016946
15.994119835895283 2.1433061014423873 7.063863444444291 6.786950290008604
20.75059041411955 2.474109476237016 9.588792917018795 8.687688020863742
26.419448630736444 2.815816466290163 12.697111432349967 10.906520732096316
32.99806146799237 3.1441646741629 16.486627455954046 13.367269337875426
39.79355006780998 3.396053225687116 20.457834933537736 15.939661908585125
46.138183062388684 3.4615669249012377 24.313399942191626 18.363216195295834
51.15874441761976 3.287495559473841 27.582510355957073 20.288738502188863
53.05025131903996 2.4058925329425387 29.333053083522675 21.31130570257475
51.15874441761557 3.287495559475767 27.582510355953232 20.28873850218656
46.1381830623755 3.461566924897466 24.313399942185733 18.363216195292313
39.79355006779626 3.396053225689822 20.457834933527586 15.939661908578861
32.99806146797363 3.144164674161406 16.48662745594359 13.367269337868631
26.41944863071659 2.8158164662878384 12.697111432339602 10.906520732089168
20.750590414102945 2.474109476236838 9.58879291700927 8.687688020856836
15.994119835876626 2.1433061014395887 7.063863444435403 6.7869502900016325
12.100234884642592 1.852507985884405 5.043409663748381 5.2043172350098095
8.988184760316493 1.6024752079337432 3.496961380892173 3.8887481714905756
6.4569015885669545 1.3885596043421065 2.292194353166474 2.7761476310583735
4.384540007578989 1.1927553991123743 1.3611922754842385 1.8305923329823754
2.705939504219581 0.9941082295807776 0.6652104061664839 1.0466208684723195
1.5249110298869992 0.8102740296493505 0.2671720945932076 0.44746490564444097
0.7356737970864492 0.5837662942881376 0.03991862174014683 0.11198888105816494
0.3799067722693807 0.38606083023031595 -0.002750176881601028 -0.0034038810793342563
0.22907721509609943 0.22949694907927223 -6.565556063122071e-05 -0.0003540784225416236
0.13423146399873634 0.13423178346141587 -1.2239768622387086e-08 -3.0722291093115194e-07
0.1003273766613845 0.1003273766613845 0.0 0.0
0.30296064758742375 0.14323428408304473 0.047417420164883636 0.1123089433394957
3.2030698497052703 1.8145969106307553 0.5240213115597266 0.8644516275147884
2.2050948454615447 1.3657293189876434 0.2891259198171159 0.5502396066567855
0.23743561958491424 0.18156293441591517 0.013281441810390765 0.04259124335860839
0.12021017385563074 0.12021017385563074 0.0 0.0
0.12916012457812714 0.12916012457812714 0.0 0.0
0.1942968631654422 0.1941957680137611 9.342228743062812e-06 9.175292293801601e-05
0.2994151475728843 0.3077615076694622 -0.001878221971947606 -0.006468138124630234
0.5215333045715635 0.4872355184989721 0.005534268438988093 0.028763517633603384
1.0315629409314089 0.6693051367530117 0.11081262655924709 0.25144517761914975
1.9911383049814533 0.8782837418966738 0.4354090649411028 0.6774454981436759
3.2363399455054367 1.0411256121435983 0.8830076142519463 1.3122067191098918
4.8921806972001765 1.2182187767285162 1.594999515303385 2.0789624051682765
6.870219532241454 1.4001919248655148 2.4983814902791024 2.9716461170968387
9.270015566214685 1.6069890792021915 3.6440477188413958 4.018978768171101
12.248559631292942 1.8461770636414623 5.1273282360892365 5.275054331562245
15.933843730169263 2.1187446184974834 7.0225872458978245 6.792511865773952
20.495319326374386 2.4244866195513066 9.488088197842691 8.582744508980387
25.572454026312755 2.7297360331727867 12.228553647618769 10.61416434552121
31.263169947207974 3.0125113937751387 15.491858042616004 12.75880051081683
36.8806157011595 3.1808717759331633 18.816339670609054 14.883404254617279
41.50148135978402 3.087195007437041 21.702750589997024 16.71153576234997
43.38338465058013 2.0761115880956527 23.499997740217633 17.80727532226685
41.50148135977777 3.0871950074344987 21.702750589994693 16.71153576234858
36.88061570115452 3.180871775936132 18.816339670604176 14.8834042546142
31.26316994719539 3.0125113937746257 15.491858042608706 12.758800510812058
25.572454026298214 2.7297360331705716 12.22855364761145 10.614164345516187
20.495319326360384 2.424486619550904 9.48808819783481 8.58274450897467
15.933843730155656 2.118744618497807 7.022587245890029 6.792511865767816
12.248559631280191 1.8461770636396 5.127328236083314 5.275054331557278
9.270015566201412 1.6069890792009975 3.644047718834992 4.018978768165421
6.87021953223014 1.4001919248655004 2.498381490273339 2.9716461170913027
4.892180697189386 1.2182187767262471 1.5949995152992917 2.0789624051638476
3.2363399454972837 1.0411256121426127 0.883007614248663 1.3122067191060078
1.9911383049756433 0.878283741895882 0.4354090649388707 0.6774454981408906
1.0315629409277778 0.6693051367520215 0.11081262655824194 0.25144517761751467
0.5215333045699598 0.4872355184980211 0.0055342684387830725 0.02876351763315587
0.2994151475723557 0.3077615076687898 -0.0018782219719081876 -0.00646813812452587
0.19429686316508477 0.19419576801339905 9.34222874316441e-06 9.175292294252645e-05
0.12916012457787446 0.12916012457787446 0.0 0.0
0.12021017385527219 0.12021017385527219 0.0 0.0
0.23743561958361886 0.181562934415599 0.013281441810024188 0.042591243357995585
2.2050948454548776 1.3657293189847997 0.2891259198156599 0.5502396066544186
1.5074676886703477 1.0632741315931336 0.15889837260865708 0.28529518446855745
0.1879630778362151 0.19223016819868127 -0.007553187355924551 0.003286096993458329
0.14229042482752377 0.14229623524274096 -2.3757776738740996e-07 -5.5728374497752275e-06
0.13518559101282562 0.13518559101282562 0.0 0.0
0.1736435336151925 0.17367692425465753 -3.832422895630834e-06 -2.9558216569366435e-05
0.24648311171486528 0.24995635336467434 -0.0007508062170111741 -0.002722435432797901
0.3718532420936832 0.3816626707691213 -0.004282562337565078 -0.005526866337873067
0.6669553951736992 0.5354453506785793 0.030173531582401093 0.10133651291271893
1.265181942384753 0.7112962569280595 0.1829308075398324 0.3709548779168613
2.231476835084022 0.8879095745105189 0.5309838218857471 0.8125834386877547
3.4052782119413223 1.033913394609723 0.9754244226582445 1.395940394673356
4.850032859329914 1.1863868715848647 1.588169647528219 2.0754763402168295
6.598487708419528 1.357403064926348 2.3810536562091573 2.8600309872840226
8.739376057379515 1.54850912086195 3.3933221958124253 3.7975447407051366
11.437052696308964 1.772939830172313 4.730974474924443 4.933138391212212
14.72390010988977 2.0306818595714144 6.396604676458285 6.296613573860073
18.692731896640776 2.3131054948526484 8.5145003493605 7.8651260524276285
23.067340704902037 2.610364295615091 10.858089206901344 9.598887202385603
27.646357631681187 2.8659977154816247 13.388056458109826 11.392303458089735
31.96082211135552 2.8895428085314263 15.979413958430444 13.091865344393637
33.91769630645548 1.757678845759466 17.87034293964507 14.289674521050951
31.960822111357633 2.889542808535529 15.979413958429216 13.091865344392884
27.64635763167299 2.865997715479342 13.388056458106274 11.39230345808738
23.067340704893038 2.610364295614983 10.858089206896144 9.59888720238191
18.692731896629887 2.3131054948505962 8.514500349355439 7.865126052423855
14.723900109878175 2.030681859570016 6.396604676452563 6.296613573855592
11.437052696298633 1.7729398301722672 4.730974474918851 4.933138391207518
8.739376057370565 1.5485091208611816 3.393322195808116 3.7975447407012664
6.598487708409805 1.357403064924082 2.381053656205369 2.8600309872803544
4.850032859320686 1.1863868715835812 1.58816964752439 2.0754763402127145
3.405278211934345 1.0339133946096457 0.9754244226550975 1.3959403946696003
2.2314768350775704 0.887909574509332 0.5309838218833861 0.8125834386848522
1.2651819423808968 0.7112962569271565 0.1829308075386512 0.3709548779150889
0.6669553951715947 0.535445350677606 0.030173531582033036 0.10133651291195533
0.37185324209271625 0.38166267076818955 -0.004282562337559682 -0.005526866337913731
0.24648311171439033 0.2499563533639573 -0.000750806216983561 -0.002722435432583543
0.17364353361482893 0.17367692425434245 -3.832422899662862e-06 -2.9558216613845595e-05
0.1351855910124961 0.1351855910124961 0.0 0.0
0.14229042482717166 0.14229623524237342 -2.3757776660358785e-07 -5.5728374351892456e-06
0.18796307783543253 0.1922301681982706 -0.007553187356022824 0.0032860969931846964
1.50746768866562 1.0632741315910084 0.1588983726076159 0.28529518446699587
0.9706988976490053 0.7927197975264906 0.05099551783443691 0.12698358228807788
0.1692108592567058 0.1886649188953164 -0.006538213173422357 -0.012915846465188174
0.16216576827194787 0.1622585908941396 -7.822639585496173e-06 -8.499998260625417e-05
0.14769206697439788 0.14768329999051769 5.897935051999962e-07 8.177190374985282e-06
0.1654864500444201 0.16551014053634475 -1.9461531036676694e-06 -2.1744338820966167e-05
0.21131610417555935 0.21183792998560935 -0.00015426898908817193 -0.0003675568209618203
0.28446917743181654 0.29668071156498854 -0.003427766439685644 -0.008783767693486284
0.42529154501102545 0.41575514078274217 0.00051069170397056 0.00902571252431277
0.7223431955542539 0.5420645196421447 0.047244008289198385 0.13303466762291083
1.2665159430088497 0.6833786785648818 0.19973425107388942 0.3834030133700794
2.0163507423841605 0.8113835689203123 0.44688161140161436 0.7580855620622341
2.9644117347572347 0.9426590959919597 0.8100880189962327 1.2116646197690408
4.101196156058277 1.0809043677294448 1.2784793821637845 1.7418124061650477
5.483123011817201 1.2301637598999224 1.880062715845515 2.3728965360717633
7.22201881499019 1.4061643561087456 2.6777723619571647 3.1380820969242817
9.414198943112723 1.6182997560520382 3.7256151010142053 4.0702840860464775
12.113527974698384 1.8760480362073448 5.051219047472806 5.186260891018229
15.237345425918557 2.1500743793141712 6.619849694929275 6.4674213516751164
18.821148037247017 2.467281069890657 8.465161261759999 7.888705705596361
22.754016724913352 2.681590938390441 10.646304961606885 9.426120824916024
24.799088281868773 1.4750390926018844 12.507792963887676 10.816256225379213
22.75401672490961 2.681590938387202 10.646304961606573 9.426120824915838
18.82114803724428 2.4672810698907446 8.465161261758386 7.888705705595154
15.237345425912281 2.150074379314298 6.619849694925638 6.46742135167234
12.113527974691578 1.8760480362068384 5.051219047469369 5.1862608910153725
9.414198943105607 1.6182997560513372 3.725615101010774 4.070284086043492
7.222018814983116 1.406164356107704 2.6777723619540357 3.1380820969213725
5.483123011811109 1.2301637598985506 1.8800627158431498 2.3728965360694114
4.101196156053518 1.0809043677288117 1.2784793821618852 1.7418124061628228
2.964411734752075 0.9426590959916819 0.8100880189939669 1.2116646197664267
2.0163507423787173 0.8113835689194641 0.44688161139967675 0.7580855620595761
1.2665159430053057 0.6833786785640338 0.19973425107278914 0.38340301336848287
0.7223431955525964 0.5420645196415773 0.04724400828883694 0.13303466762218205
0.4252915450099753 0.41575514078198567 0.0005106917038844409 0.009025712524105351
0.2844691774312541 0.2966807115640777 -0.0034277664396250647 -0.008783767693198514
0.2113161041750895 0.21183792998512524 -0.00015426898908688875 -0.0003675568209488561
0.16548645004394646 0.16551014053586663 -1.946153103291718e-06 -2.174433881687147e-05
0.1476920669739598 0.1476832999900831 5.897935049128192e-07 8.177190371824514e-06
0.1621657682716155 0.16225859089379824 -7.822639584174224e-06 -8.499998259859527e-05
0.16921085925622142 0.1886649188946245 -0.006538213173371703 -0.01291584646503139
0.970698897645913 0.7927197975249054 0.05099551783390929 0.12698358228709872
0.634852283705395 0.6100716012735907 0.006346781074915992 0.01843390135688806
0.16413365788797604 0.1686147460819248 -0.0010409856918722842 -0.0034401025020764455
0.17734798411899594 0.17736620587166002 -9.360311742304601e-07 -1.728572148978798e-05
0.16292674935978207 0.16293526187595944 -4.624563956504184e-07 -8.050059781740452e-06
0.16729116903168015 0.1672909735675914 1.7247569551195297e-06 -1.5292928663885773e-06
0.19362542271828498 0.19504546804130848 -0.00027375683324663987 -0.0011462884897768702
0.23665839695443666 0.24289404042557347 -0.001734745949313888 -0.004500897521823019
0.2961619370750662 0.2874013749387468 0.0012352907455122374 0.007525271390807194
0.38785873402671744 0.3481512167159741 0.009150538521121996 0.030556978789621433
0.5632421417135342 0.4285765816845012 0.036295422126401924 0.09837013790263087
0.8905988950599708 0.5359643258147029 0.12287052248961242 0.23176404675565537
1.3168829659325236 0.6271637784966386 0.24140344734192934 0.4483157400939558
1.877342383157134 0.7155907641444337 0.43450839279876086 0.7272432262139399
2.589726522018654 0.8137951820989384 0.7043902288500713 1.0715411110696438
3.4921763797860184 0.9315886392592123 1.064006230984824 1.496581509541982
4.66849730125192 1.0897209099184555 1.5505946207974808 2.0281817705359826
6.231108532629065 1.3039999993283493 2.222852020221439 2.704256513079277
8.271797157971442 1.5702518256283287 3.1528175252583286 3.5487278070847883
10.687640637604035 1.8366701646164454 4.300294662752655 4.550675810234936
13.842269108404677 2.29026978845717 5.765572920285668 5.786426399661842
16.502494625033098 1.2597966476074987 7.842336812790322 7.400361164635272
13.84226910840764 2.2902697884577536 5.765572920287 5.786426399662879
10.687640637600337 1.8366701646135692 4.30029466275218 4.550675810234589
8.271797157966523 1.5702518256275404 3.1528175252561432 3.5487278070828405
6.23110853262442 1.3039999993280427 2.2228520202191873 2.704256513077189
4.668497301248088 1.0897209099177825 1.5505946207959658 2.028181770534341
3.4921763797829892 0.9315886392588185 1.064006230983622 1.4965815095405497
2.589726522016458 0.8137951820983506 0.7043902288493138 1.0715411110687927
1.8773423831543392 0.7155907641439843 0.4345083927977446 0.7272432262126098
1.3168829659298478 0.6271637784966714 0.24140344734082383 0.44831574009235253
0.8905988950575957 0.5359643258140916 0.12287052248892599 0.23176404675457823
0.5632421417123862 0.42857658168397555 0.036295422126198136 0.0983701379022125
0.3878587340260223 0.34815121671566135 0.009150538521003237 0.030556978789357758
0.29616193707458915 0.2874013749384633 0.0012352907454553025 0.007525271390670572
0.23665839695381913 0.24289404042488752 -0.001734745949296735 -0.0045008975217717415
0.19362542271789024 0.19504546804087974 -0.00027375683323989115 -0.0011462884897496216
0.16729116903123617 0.16729097356713277 1.7247569561690236e-06 -1.5292928527816401e-06
0.16292674935945398 0.16293526187562593 -4.624563952485292e-07 -8.05005977674842e-06
0.17734798411870956 0.17736620587135907 -9.360311732457195e-07 -1.7285721476226596e-05
0.16413365788765766 0.1686147460815275 -0.0010409856918524969 -0.003440102502017255
0.6348522837036839 0.6100716012722529 0.0063467810748058925 0.01843390135662507
0.4213038776102981 0.4197516019812894 0.0001119753017857025 0.0014403003272230764
0.1613326553907614 0.16149201206012317 -1.1014350140431406e-05 -0.00014834231922140363
0.18721176249853666 0.1873476532554843 -1.1143274495061744e-05 -0.00012474748245261706
0.17797451048552074 0.1780191153567797 -3.0090264717618683e-06 -4.159584478721377e-05
0.17642224942586268 0.17642179313033615 1.2746668436716983e-06 -8.183713171120655e-07
0.19247849109446727 0.1938544119016771 -0.0002691895031679236 -0.0011067313040419532
0.22231381937530154 0.22792959412091726 -0.0014935277339943025 -0.0041222470116213765
0.2575197212876205 0.2452023219207862 0.0017728436338288209 0.010544555733005582
0.28905999511484265 0.2452855264559029 0.01211664996638253 0.03165781869255716
0.32038234303932306 0.2214509739332673 0.02779790312237433 0.0711334659836814
0.37875567250704245 0.20319165373090053 0.059544615172653685 0.11601940360348822
0.47042211586983623 0.19153602152632954 0.09457639937909605 0.18430969496441046
0.613997469243153 0.20642715622258767 0.1483046785146211 0.2592656345059445
0.8195468696928232 0.2431776604653277 0.22261658673367943 0.3537526224938164
1.1147531405904452 0.28286911584627217 0.3347333502279321 0.497150674516241
1.5150707366604006 0.28985978361924025 0.49806669323707675 0.7271442598040831
2.062559470455147 0.29892434896736164 0.744266383099349 1.0193687383884367
2.8144295247171844 0.32472389310398897 1.0936653891166879 1.396040242496506
4.041492187854351 0.47912204084313875 1.618361521309716 1.9440086257014964
6.542047881037218 1.2439942151296304 2.4229246298082066 2.8751290360993806
10.755789443161772 1.0754417383678412 4.693824445130026 4.986523259663905
6.542047881041418 1.2439942151312013 2.4229246298096583 2.875129036100563
4.041492187855311 0.47912204084472904 1.618361521309409 1.9440086257011722
2.8144295247123265 0.3247238931016239 1.093665389115388 1.3960402424953158
2.0625594704529533 0.29892434896759 0.7442663830981759 1.0193687383871857
1.5150707366600566 0.28985978362017745 0.49806669323653363 0.7271442598033452
1.114753140588749 0.2828691158456633 0.3347333502273756 0.49715067451571027
0.8195468696926927 0.2431776604656048 0.22261658673351026 0.3537526224935782
0.6139974692417559 0.20642715622255803 0.14830467851403434 0.2592656345051635
0.4704221158684081 0.1915360215260728 0.09457639937866194 0.18430969496367397
0.37875567250613007 0.20319165373091203 0.059544615172275425 0.11601940360294245
0.3203823430388561 0.22145097393297714 0.027797903122321818 0.07113346598355726
0.28905999511454633 0.2452855264559647 0.012116649966264752 0.03165781869231683
0.2575197212871896 0.24520232192052216 0.0017728436337767514 0.010544555732890714
0.22231381937484768 0.22792959412038205 -0.0014935277339759461 -0.00412224701155845
0.19247849109402734 0.19385441190120606 -0.00026918950316240256 -0.001106731304016383
0.1764222494255648 0.1764217931300213 1.2746668447383521e-06 -8.183713012188865e-07
0.1779745104851253 0.17801911535636444 -3.009026470089872e-06 -4.1595844769073125e-05
0.18721176249825233 0.18734765325518726 -1.1143274493439908e-05 -0.00012474748244152296
0.16133265539057073 0.161492012059955 -1.1014350142144921e-05 -0.00014834231924215846
0.42130387760927834 0.4197516019800982 0.00011197530179583379 0.001440300327384119
0.2821460412652204 0.28218946997361566 -2.4699665670363174e-06 -4.095874182818501e-05
0.1529436220680946 0.15293944310895005 -2.872041084427645e-08 4.2076795554158026e-06
0.19095577834095637 0.19092220309788502 3.0357384811359583e-06 3.053950459020256e-05
0.19077694880211515 0.19083276522830173 -4.477284794431172e-06 -5.13391413922115e-05
0.19058207652297618 0.19072378542756038 -1.857400996131115e-05 -0.00012313489462290015
0.20666650668960554 0.20680505801253365 -0.00010390130214310954 -3.465002078502008e-05
0.24306528247667727 0.25159724449593096 -0.0020965365026434863 -0.006435425516610218
0.2981827727660525 0.288724177959108 0.0015348566061407177 0.007923738200803658
0.3879938977310431 0.3477616798799884 0.009329021674825523 0.03090319617622904
0.5623941054635648 0.4281286410346343 0.03613545363125249 0.09813001079767815
0.889464462966854 0.538367351774604 0.12168570511053986 0.22941140608171032
1.3207217438503598 0.6278065751835873 0.24399687870245426 0.44891828996431815
1.885961792770528 0.7173961106387312 0.43733158615068823 0.7312340959811088
2.607143212361647 0.8168025145267628 0.7111183785895805 1.079222319245304
3.489081226364835 0.9282739235209541 1.06471085908973 1.4960964437541515
4.5165348964540915 1.0540526401522439 1.4974182341697584 1.9650640221320885
5.569627915976629 1.1839151560070855 1.954392586796703 2.4313201731728418
6.454862160012176 1.2985531093320652 2.3796643860864934 2.7766446645936185
6.775981841956726 1.3597825576863758 2.5424856044527258 2.8737136798176266
5.456216335087254 0.6873620529745053 2.2909055829732416 2.4779486991395063
10.877744357293006 1.9595782794536882 4.229811914385214 4.688354163454104
5.456216335087472 0.68736205297207 2.2909055829746796 2.4779486991407174
6.775981841956733 1.3597825576858675 2.5424856044529416 2.8737136798179264
6.454862160006877 1.2985531093320801 2.379664386083774 2.7766446645910214
5.569627915970992 1.1839151560058616 1.9543925867945084 2.4313201731706267
4.5165348964498335 1.0540526401510524 1.4974182341682916 1.9650640221304894
3.4890812263619857 0.92827392352159 1.0647108590881786 1.4960964437522168
2.607143212356653 0.8168025145255265 0.7111183785878514 1.0792223192432755
1.8859617927657628 0.7173961106381892 0.43733158614887047 0.7312340959787029
1.3207217438457768 0.6278065751827095 0.24399687870094972 0.4489182899621172
0.8894644629636791 0.5383673517735641 0.1216857051096551 0.2294114060804603
0.562394105461954 0.428128641033918 0.0361354536309634 0.09813001079707258
0.3879938977304127 0.3477616798794942 0.009329021674781729 0.03090319617613669
0.2981827727653658 0.2887241779586621 0.0015348566060671546 0.0079237382006364
0.24306528247611886 0.2515972444952976 -0.0020965365026224194 -0.006435425516556224
0.20666650668899247 0.20680505801177604 -0.00010390130212527528 -3.4650020658298736e-05
0.19058207652261497 0.19072378542720972 -1.8574009963231536e-05 -0.00012313489463147557
0.19077694880153223 0.19083276522769788 -4.477284792821856e-06 -5.1339141372841755e-05
0.19095577834059962 0.19092220309751878 3.0357384811983143e-06 3.053950459965208e-05
0.152943622067874 0.15293944310874075 -2.872041148456467e-08 4.207679544785706e-06
0.28214604126455445 0.2821894699729228 -2.4699665649585164e-06 -4.095874180351584e-05
0.1817664245035348 0.1817664245035348 0.0 0.0
0.13898181121184594 0.13897957775935021 1.0780301602207152e-07 2.125649479689325e-06
0.18791374887555146 0.18789887077436357 1.4859508359212948e-06 1.3392150351924643e-05
0.20005351140623406 0.20000797776781698 6.741537791692081e-06 3.8792100625377955e-05
0.20807582145753423 0.208152574452725 5.0697363838413674e-06 -8.182273157461572e-05
0.23581940194393444 0.24086034289712807 -0.0009320217547068836 -0.004108919198486746
0.29510871790722776 0.2975091019458642 -0.0016186406190669977 -0.0007817434195694549
0.4288580823330822 0.41700840416515467 0.0012977278152661803 0.010551950352661368
0.7218987630077843 0.5417624478987612 0.047184926388055784 0.13295138872096732
1.2648709953870774 0.6831621168530402 0.19907225256659503 0.38263662596744197
2.015661278009962 0.8112289873088593 0.44657978861592995 0.7578525020851721
2.9664207715184894 0.942871488020316 0.8109034703640097 1.212645813134164
4.108689149640249 1.0819227318295597 1.2816592462257532 1.745107171584934
5.498387870178799 1.2315031240949845 1.88726111174038 2.3796236343434334
7.221227382014049 1.4008261254617196 2.680891737020723 3.1395095195316056
9.273232628339107 1.5815276765311919 3.671430675987573 4.020274275820342
11.491200631339353 1.7624043682025663 4.773029066552746 4.95576719658404
13.503488701947454 1.9484253139517036 5.75534157594256 5.7997218120531935
14.607256067503876 2.0063771150410994 6.348364219091778 6.252514733371003
13.528149143043372 2.01833847260844 5.822053493416909 5.6877571770180255
16.218977970542415 4.38200064323973 5.8967162164581355 5.94026111084454
13.528149143047907 2.018338472610546 5.822053493418319 5.687757177019047
14.607256067505196 2.006377115041507 6.348364219092271 6.252514733371411
13.503488701944786 1.948425313955394 5.755341575939004 5.7997218120503895
11.491200631327091 1.7624043681988433 4.773029066548061 4.9557671965801875
9.27323262832665 1.581527676527114 3.671430675983106 4.02027427581643
7.221227382005502 1.400826125459908 2.6808917370172525 3.139509519528344
5.498387870172474 1.2315031240955387 1.887261111737002 2.3796236343399317
4.108689149631794 1.081922731828851 1.2816592462220404 1.745107171580903
2.9664207715106885 0.9428714880195569 0.8109034703607771 1.2126458131303552
2.0156612780026966 0.8112289873075156 0.4465797886134053 0.7578525020817753
1.2648709953826303 0.6831621168521105 0.19907225256515926 0.3826366259653613
0.721898763005234 0.5417624478978694 0.047184926387482215 0.13295138871988205
0.42885808233176137 0.4170084041641777 0.0012977278151733822 0.010551950352410392
0.2951087179064258 0.2975091019449889 -0.001618640619058608 -0.0007817434195045402
0.235819401943205 0.24086034289636876 -0.0009320217546942487 -0.004108919198469555
0.2080758214571398 0.20815257445229507 5.069736387872765e-06 -8.182273154321441e-05
0.2000535114058291 0.2000079777673926 6.74153779291067e-06 3.879210064361902e-05
0.18791374887518864 0.18789887077399983 1.485950835800389e-06 1.3392150353024234e-05
0.1389818112116015 0.1389795777591081 1.078030158836325e-07 2.1256494775240985e-06
0.18176642450307634 0.18176642450307634 0.0 0.0
0.11182435051343687 0.11182435051343687 0.0 0.0
0.12004833610318025 0.12004833610318025 0.0 0.0
0.1784969832173605 0.1784727206458688 1.7498561801295798e-06 2.2512715311568723e-05
0.20532898429866997 0.20539851508286744 -5.218320297586886e-06 -6.431246389986003e-05
0.22829904207294793 0.22926058604783162 -0.00015389740548719282 -0.0008076465693964819
0.2756937168886362 0.27561339167865806 -0.00034792941204366733 0.0004282546220217082
0.3877044609569471 0.39741341147252895 -0.0036064201299967204 -0.00610253038558512
0.6709600042531335 0.5366286536043986 0.031504138282921125 0.10282721236581385
1.2637963771997993 0.7112290963351997 0.18238095046894698 0.37018633039565246
2.23014676281914 0.8879673998385501 0.5306311422597839 0.8115482207208059
3.404439835984828 1.0336494947817974 0.9739928021331103 1.3967975390699212
4.851429567712058 1.186227340706333 1.5889729579167193 2.0762292690890067
6.601860416365416 1.3577356834258165 2.3826268932703805 2.8614978396692217
8.746048416717793 1.5494416793109056 3.396439257970351 3.800167479436537
11.431259656677353 1.768582225391691 4.730403760821291 4.932273670464372
14.618851955159586 1.9979221176117008 6.356707672148625 6.264222165399256
18.242183921986083 2.2214541018517666 8.309749826938585 7.7109799931957355
21.56194533992543 2.363353176969306 10.124807419218723 9.073784743737397
23.41703141107934 2.3412848237259793 11.222474525604161 9.8532720617492
21.693814594667977 2.0998818454278534 10.364987731174859 9.228945018065259
24.359773474435816 6.723498632581868 9.214253586639257 8.422021255214696
21.693814594669693 2.0998818454276664 10.36498773117598 9.228945018066051
23.417031411072852 2.3412848237210717 11.22247452560321 9.85327206174857
21.561945339917266 2.363353176968187 10.124807419214621 9.073784743734462
18.24218392197373 2.221454101852467 8.309749826931075 7.710979993190183
14.618851955148887 1.9979221176137658 6.35670767214151 6.264222165393616
11.431259656665553 1.7685822253908423 4.7304037608153235 4.932273670459389
8.746048416706111 1.5494416793095904 3.396439257964866 3.800167479431655
6.601860416354325 1.3577356834257261 2.382626893264769 2.86149783966383
4.851429567700255 1.1862273407052248 1.5889729579114706 2.076229269083561
3.4044398359752055 1.0336494947814872 0.9739928021287731 1.3967975390649452
2.2301467628116907 0.8879673998372904 0.5306311422570233 0.8115482207173756
1.2637963771954246 0.7112290963341819 0.18238095046759698 0.3701863303936462
0.6709600042507001 0.5366286536034808 0.031504138282430566 0.10282721236478869
0.38770446095584943 0.3974134114714518 -0.0036064201299945 -0.006102530385607973
0.275693716887969 0.27561339167779475 -0.00034792941201627 0.000428254622190651
0.22829904207238738 0.22926058604728142 -0.00015389740548796564 -0.0008076465694060592
0.2053289842983345 0.20539851508251178 -5.218320295818337e-06 -6.431246388149186e-05
0.1784969832170173 0.17847272064553288 1.749856179479478e-06 2.2512715304933934e-05
0.12004833610298012 0.12004833610298012 0.0 0.0
0.11182435051311283 0.11182435051311283 0.0 0.0
0.06526696246312573 0.06526696246312573 0.0 0.0
0.09848935299779507 0.09848935299779507 0.0 0.0
0.16384501541905686 0.16383457459360792 6.169848764971448e-07 9.823840572470336e-06
0.20700181663478273 0.2069092957759624 1.1433964402413846e-05 8.108689441796222e-05
0.2504154461745528 0.2507414593839975 -2.6763999418050252e-05 -0.0002992492100265738
0.32925623898444273 0.34388079841453767 -0.0031616033170108284 -0.011462956113084061
0.5347110476236585 0.484696885617445 0.009524400972106892 0.040489761034106314
1.0341198315978477 0.6698233033515583 0.11191620271426962 0.25238032553201983
1.9893202845833038 0.8784990027026036 0.4344967080992273 0.6763245737814737
3.2353968926499483 1.0412973865482584 0.8823231107863336 1.3117763953153558
4.893004115436128 1.2180261929004987 1.5957280936850022 2.079249828850628
6.870461080507927 1.3995131769873062 2.4988656626119314 2.972082240908689
9.266204046560272 1.6057966264900752 3.6427223920018648 4.017685028068332
12.238050606771417 1.8456645195665085 5.1219913539112225 5.270394733293688
15.918114031896689 2.118742646938761 7.013770916976432 6.785600467981496
20.462686495158238 2.415180905049289 9.47430469008711 8.573200900021837
25.346639491097033 2.6559552684975074 12.138443806617737 10.552240415981796
30.04409209058333 2.725058632088452 14.931327092111296 12.387706366383576
32.607596204475826 2.516722455712169 16.629873457738725 13.46100029102494
30.27000125302328 2.168436158967911 15.421677792592083 12.679887301463285
33.23840783658138 8.974339803365671 13.086929216264917 11.177138816950782
30.270001253024407 2.168436158968344 15.421677792592531 12.679887301463529
32.6075962044729 2.516722455714029 16.6298734577358 13.461000291023067
30.04409209056767 2.7250586320838974 14.931327092104578 12.387706366379195
25.346639491081838 2.655955268497812 12.138443806608601 10.55224041597542
20.462686495142396 2.4151809050481834 9.474304690078586 8.573200900015623
15.918114031881199 2.118742646937802 7.013770916968297 6.785600467975095
12.238050606756605 1.8456645195662693 5.121991353903244 5.270394733287093
9.266204046545118 1.6057966264888424 3.642722391994483 4.017685028061791
6.8704610804936275 1.399513176986546 2.4988656626050725 2.972082240902008
4.89300411542308 1.21802619289917 1.595728093679364 2.0792498288445445
3.2353968926403196 1.041297386547036 0.8823231107825086 1.3117763953107755
1.989320284576082 0.8784990027009515 0.4344967080967413 0.6763245737783891
1.0341198315938323 0.6698233033504942 0.11191620271314176 0.25238032553019685
0.534711047621817 0.4846968856163077 0.009524400971881201 0.04048976103362801
0.32925623898369905 0.34388079841360797 -0.0031616033169573348 -0.011462956112951637
0.2504154461739807 0.25074145938336817 -2.6763999412099154e-05 -0.00029924920997532545
0.20700181663440143 0.20690929577557163 1.143396440262814e-05 8.108689442716989e-05
0.16384501541873472 0.16383457459329068 6.169848761276928e-07 9.823840567913113e-06
0.09848935299756065 0.09848935299756065 0.0 0.0
0.06526696246297332 0.06526696246297332 0.0 0.0
0.035873471736434626 0.035873471736434626 0.0 0.0
0.07673433996785121 0.07673433996785121 0.0 0.0
0.14572715292676816 0.14572243924163955 2.7264122338958563e-07 4.441043905202767e-06
0.2062468879728824 0.20620039295672946 5.023327296910349e-06 4.1471688856069486e-05
0.27423023591647927 0.2731928864493452 0.0002006756259424693 0.0008366738411915745
0.40496344029470066 0.41469699777864244 -0.003167709474241557 -0.0065658480097000324
0.7473584140253009 0.586480792304779 0.043665148580766436 0.11721247313975537
1.5256321126070402 0.8107262271539926 0.26738086128366156 0.44752502416938617
2.704805506573154 0.9945839658904245 0.6646207845928827 1.045600756089847
4.384666012725979 1.1929206488803978 1.3611145698070588 1.8306307940385222
6.458115117609092 1.3883533027056716 2.2929003597162056 2.776861455187215
8.986869549682398 1.601179864830299 3.496950016325275 3.8887396685268216
12.086704655233607 1.8488589407642397 5.038053193347112 5.19979252112226
15.95948387760818 2.1393899807626253 7.046626501821806 6.773467395023745
20.721234328485398 2.4818123056427606 9.567355095517684 8.672066927324954
26.462035438445447 2.83753118841722 12.709131535169039 10.915372714859194
32.995670716509686 3.09842542979258 16.512274013044255 13.384971273672845
38.85453571168259 3.0577926300661504 20.088364306615333 15.708378775001119
41.8127587506847 2.608472913735048 22.152793953222762 17.051491883726886
39.04016901489911 2.255590339817549 20.706508523789807 16.078070151291744
42.925907465979385 11.321499759074795 17.546387275656556 14.058020431248048
39.0401690148959 2.2555903398147437 20.706508523789555 16.078070151291605
41.812758750678114 2.6084729137347136 22.152793953218907 17.051491883724474
38.85453571167075 3.057792630069021 20.088364306606266 15.70837877499546
32.99567071648788 3.098425429789668 16.51227401303277 13.384971273665444
26.462035438423953 2.837531188414365 12.709131535158011 10.915372714851586
20.72123432846735 2.481812305641595 9.567355095507919 8.67206692731783
15.9594838775892 2.139389980761621 7.046626501811719 6.773467395015862
12.086704655214646 1.8488589407631304 5.038053193337404 5.199792521114108
8.986869549664046 1.6011798648282523 3.496950016316705 3.8887396685190927
6.4581151175934295 1.3883533027039334 2.292900359709199 2.7768614551802973
4.384666012713296 1.1929206488789867 1.3611145698016562 1.8306307940326527
2.704805506564629 0.9945839658892912 0.6646207845897301 1.0456007560856078
1.5256321126011414 0.8107262271529557 0.2673808612816 0.447525024166585
0.7473584140223535 0.5864807923034264 0.0436651485802242 0.11721247313870298
0.4049634402936496 0.41469699777752655 -0.0031677094742266695 -0.006565848009650297
0.27423023591586243 0.2731928864486978 0.0002006756259433274 0.0008366738412212311
0.2062468879725191 0.2062003929563657 5.0233272966949e-06 4.147168885674738e-05
0.14572715292649227 0.14572243924136558 2.726412232514537e-07 4.441043903424872e-06
0.07673433996765677 0.07673433996765677 0.0 0.0
0.035873471736381043 0.035873471736381043 0.0 0.0
0.018518358172948543 0.018518358172948543 0.0 0.0
0.05676567581945026 0.05676567581945026 0.0 0.0
0.1263337108368224 0.1263337108368224 0.0 0.0
0.2047194635047178 0.20465557746243457 5.6619831816180165e-06 5.822405910155784e-05
0.30431065283253583 0.3089484321436152 -0.0008788210854820458 -0.003758958225597338
0.5083965407416714 0.46919434201066856 0.006949217911839219 0.03225298081916373
1.0444200559158165 0.7020230595953942 0.11888209754188259 0.22351489877853986
2.0262153521934043 0.9088434331747558 0.4124173800904674 0.7049545389281815
3.545825504878018 1.1191230691496536 0.9987572105685456 1.4279452251598175
5.563302937334407 1.3304808504153962 1.8722306879525568 2.360591398966452
8.096549634960773 1.5528827887588044 3.05605473216924 3.487612114032732
11.21637352800826 1.8020069624123654 4.5934272761421875 4.820939289453706
15.08556970596057 2.0960499583439054 6.585514122982545 6.404005624634119
19.78413305800515 2.442106212500793 9.035895016122014 8.306131829382341
25.706086311507576 2.8427514735423 12.279209646331221 10.584125191634062
32.826574290784144 3.2718986210168355 16.293811093368454 13.260864576398848
40.620230383042475 3.552846422449764 20.852449607365955 16.214934353226752
47.70009933727906 3.3696801679320574 25.359763131412052 18.970656037934962
51.29026337237552 2.676213800153425 28.04980546909826 20.564244103123848
48.12541333100047 2.331108709259278 26.28187779836991 19.512426823371293
53.175334478031715 13.763370076044968 22.289430735829534 17.122533666157203
48.12541333099591 2.3311087092583405 26.281877798367617 19.512426823369932
51.29026337236236 2.6762138001499673 28.049805469092142 20.564244103120256
47.70009933725927 3.3696801679301336 25.35976313140081 18.97065603792833
40.62023038302008 3.5528464224499268 20.85244960735206 16.214934353218073
32.82657429076041 3.271898621015575 16.293811093354876 13.26086457638996
25.7060863114811 2.842751473537339 12.2792096463185 10.58412519162526
19.784133057981972 2.442106212499936 9.03589501610918 8.306131829372857
15.085569705938122 2.0960499583428773 6.585514122970605 6.404005624624635
11.216373527986722 1.8020069624109676 4.593427276131349 4.820939289444408
8.09654963494194 1.552882788756182 3.056054732160855 3.487612114024901
5.563302937319586 1.3304808504148253 1.8722306879455377 2.3605913989592224
3.5458255048675937 1.1191230691485308 0.998757210564389 1.4279452251546736
2.0262153521862567 0.9088434331741945 0.4124173800876601 0.7049545389244022
1.0444200559117758 0.7020230595939742 0.11888209754085499 0.22351489877694608
0.5083965407400725 0.46919434200948396 0.006949217911694898 0.03225298081889389
0.30431065283195124 0.30894843214296674 -0.000878821085468648 -0.0037589582255468904
0.20471946350430342 0.20465557746202914 5.661983180797035e-06 5.8224059093480506e-05
0.12633371083657138 0.12633371083657138 0.0 0.0
0.056765675819336 0.056765675819336 0.0 0.0
0.01851835817290649 0.01851835817290649 0.0 0.0
0.009107566907468327 0.009107566907468327 0.0 0.0
0.040032218680456456 0.040032218680456456 0.0 0.0
0.10789614664762479 0.10789614664762479 0.0 0.0
0.205223447149751 0.2051972182197717 1.8944649569218257e-06 2.4334465022325518e-05
0.34539361502493443 0.35475457105001923 -0.0021572010796288847 -0.007203754945455904
0.6577792405685571 0.5610954283521874 0.02677889837178645 0.06990491384458342
1.3763371451267616 0.7912575362593036 0.20165306831220062 0.3834265405552576
2.6051810492868017 1.005657353861962 0.6218817331154213 0.9776419623094169
4.407287752328338 1.2309616499949712 1.3543847716899595 1.8219413306434065
6.7961534538443935 1.4630762780938813 2.43276574732016 2.900311428430351
9.79117819616875 1.7138854050077306 3.868223658984951 4.209069132176065
13.532426209042576 2.0050979195004563 5.759034259950423 5.768294029591698
18.102504408128283 2.348228198125203 8.123514726756705 7.630761483246378
23.894013349411498 2.7538433748538207 11.280748224742986 9.8594217498147
30.87678975854782 3.215106744873178 15.140592715695043 12.521090297979587
39.14122224836173 3.686913144707706 19.846202428278037 15.608106675375996
48.32311395266517 3.997267664205745 25.355981001370356 18.969865287089057
56.61515305665806 3.7170898091131166 30.75534827221924 22.1427149753257
60.93207577817954 2.7580616189342617 34.102211907639415 24.071802251605888
57.70886948896646 2.356112779505846 32.32282874434554 23.029927965115068
64.40730545922223 16.255081285019003 27.7633904279378 20.38883374626543
57.70886948896306 2.3561127795079373 32.322828744342004 23.029927965113107
60.93207577816372 2.758061618933738 34.10221190762959 24.071802251600406
56.615153056636835 3.717089809114182 30.755348272205076 22.142714975317567
48.32311395263619 3.9972676642043568 25.35598100135308 18.96986528707875
39.14122224833444 3.6869131447056454 19.84620242826249 15.608106675366276
30.876789758520243 3.215106744872093 15.140592715679139 12.521090297969021
23.894013349384963 2.7538433748532865 11.280748224727734 9.859421749803941
18.102504408100963 2.3482281981234325 8.123514726742146 7.630761483235391
13.532426209018404 2.0050979194991427 5.759034259937886 5.768294029581377
9.791178196146662 1.7138854050060228 3.868223658974157 4.209069132166481
6.796153453827954 1.4630762780931303 2.4327657473121964 2.900311428422629
4.407287752315703 1.230961649993425 1.354384771684704 1.8219413306375727
2.605181049278234 1.0056573538609201 0.621881733112378 0.9776419623049354
1.3763371451214717 0.791257536257932 0.20165306831061747 0.3834265405529229
0.6577792405664492 0.5610954283511135 0.026778898371431492 0.06990491384390392
0.3453936150242721 0.35475457104925323 -0.00215720107960208 -0.007203754945379054
0.20522344714940452 0.20519721821942316 1.8944649567165648e-06 2.4334465024698837e-05
0.10789614664739872 0.10789614664739872 0.0 0.0
0.04003221868031898 0.04003221868031898 0.0 0.0
0.009107566907441156 0.009107566907441156 0.0 0.0
0.00445722862640782 0.00445722862640782 0.0 0.0
0.027322028185133376 0.027322028185133376 0.0 0.0
0.09281195695824397 0.09281195695824397 0.0 0.0
0.2115465497114909 0.2115745091374825 -2.1449399111980753e-06 -2.5814486080462045e-05
0.40475881196645686 0.39815140594517906 0.0006592740841936651 0.0059481319370841244
0.8582608387918906 0.6516697771520114 0.06691238579692793 0.1396786758429512
1.7478214952742812 0.8617199897385565 0.31298709029906674 0.5731144152366584
3.2208202903069885 1.0974401048261808 0.8606792536571071 1.262700931823701
5.298512378724732 1.3360312289666727 1.7384366456278029 2.2240445041302577
8.062194787342664 1.590673435902245 3.023220414673615 3.4483009367668043
11.565017453672937 1.8768471881425717 4.7483367178757065 4.939833547654659
15.903312764127145 2.20995437408867 6.963411721373736 6.729946668664743
21.381914305995057 2.612598483569816 9.898311050886688 8.871004771538555
28.01191382570733 3.0821748860677745 13.485020914468613 11.444718025170944
36.16094947852404 3.5878198543667073 18.095138690091453 14.477990934065865
45.63951308450072 4.063929114002221 23.640054465493176 17.93552950500533
55.92035441747552 4.381689484084403 29.890057933353468 21.64860700003765
65.45536909575488 4.1747899070243415 36.099211767139685 25.18136742159086
70.7649901537632 2.9067013674121895 40.368577733068236 27.48971105328278
67.88624247393113 2.257641156048802 38.93816668506001 26.690434632822306
76.69494576629212 18.650879641389263 34.02750800814366 24.016558116759203
67.88624247392038 2.257641156046123 38.93816668505484 26.690434632819443
70.76499015374733 2.9067013674155375 40.368577733055815 27.489711053275975
65.45536909572809 4.174789907024144 36.09921176712257 25.181367421581353
55.920354417448536 4.381689484089395 29.8900579333332 21.64860700002595
45.639513084467694 4.063929113998328 23.640054465475043 17.93552950499432
36.16094947849024 3.5878198543626985 18.09513869007327 14.477990934054255
28.011913825675585 3.0821748860657934 13.485020914450885 11.444718025158906
21.38191430596463 2.612598483569909 9.898311050869001 8.871004771525723
15.90331276409784 2.2099543740863568 6.963411721358538 6.729946668652951
11.565017453649832 1.8768471881425342 4.748336717863286 4.939833547644012
8.062194787322978 1.5906734358999581 3.023220414664654 3.4483009367583657
5.298512378709836 1.336031228964617 1.7384366456216016 2.2240445041236185
3.2208202902966026 1.0974401048248223 0.8606792536530692 1.2627009318187106
1.747821495268209 0.8617199897377474 0.31298709029716487 0.5731144152332959
0.8582608387890311 0.6516697771508875 0.06691238579631087 0.1396786758418326
0.40475881196552815 0.398151405944281 0.0006592740841788122 0.005948131937068246
0.21154654971113526 0.2115745091371117 -2.1449399102669095e-06 -2.581448606613111e-05
0.09281195695808951 0.09281195695808951 0.0 0.0
0.02732202818507034 0.02732202818507034 0.0 0.0
0.004457228626387384 0.004457228626387384 0.0 0.0
0.002115844587467546 0.002115844587467546 0.0 0.0
0.018573545537825628 0.018573545537825628 0.0 0.0
0.08419647891993134 0.08419647891993134 0.0 0.0
0.22995916974847042 0.23019291057684207 -3.8377923935502855e-05 -0.0001953629044361796
0.4992730250385302 0.4718297130840785 0.007337831665281814 0.02010548028916987
1.0912451802589704 0.7250635627822968 0.1199331566661059 0.24624846081056762
2.170186492657712 0.9412410871501761 0.46019316083689554 0.7687522446706413
3.8549876986688854 1.1827004053025036 1.1151107643543348 1.5571765290120456
6.228905382591213 1.4367921548028488 2.1598902103107873 2.6322230174775734
9.360433532674984 1.7162719413143717 3.641692622920223 4.002468968440383
13.36650850502313 2.0383883729124594 5.647431064967425 5.680689067143247
18.435292752459926 2.4238160507280795 8.30922106395562 7.7022556377762275
24.611813006997703 2.8852864894111487 11.589530113857919 10.136996403728642
32.34312930466888 3.415541577169818 15.884505188481574 13.043082539017497
41.628617245477194 3.970797956060131 21.2105802078061 16.447239081610967
52.2218976582099 4.431985416843095 27.526612603670934 20.263299637695866
63.37817313451343 4.646711592047342 34.489725890063795 24.241735652402284
73.86711675405968 4.5531173264936555 41.32795385435062 27.986045573215367
80.74493181783575 3.4932321199044 46.504878170297026 30.746821527634296
78.69302947238155 1.899408911597754 46.228770537656274 30.564850023127576
89.96220141965668 19.997586120574546 41.74804138993503 28.216573909147094
78.69302947237324 1.8994089115994894 46.22877053764966 30.564850023124052
80.7449318178148 3.4932321199054974 46.50487817028262 30.74682152762669
73.8671167540298 4.553117326494014 41.32795385433099 27.986045573204777
63.37817313447903 4.6467115920491215 34.4897258900407 24.241735652389192
52.22189765817138 4.4319854168386765 27.52661260364945 20.263299637683257
41.62861724544081 3.970797956058194 21.21058020778481 16.447239081597818
32.3431293046326 3.415541577167759 15.884505188460892 13.04308253900393
24.611813006963832 2.8852864894109214 11.589530113838109 10.1369964037148
18.43529275242812 2.4238160507274724 8.309221063937827 7.702255637762818
13.366508504995826 2.038388372910238 5.647431064953568 5.680689067132025
9.360433532653131 1.7162719413129626 3.6416926229094444 4.002468968430722
6.228905382574287 1.4367921548004443 2.1598902103035815 2.63222301747026
3.8549876986570597 1.1827004053011887 1.115110764349512 1.5571765290063595
2.170186492650468 0.9412410871492092 0.4601931608343491 0.7687522446669102
1.091245180255302 0.7250635627810096 0.11993315666519405 0.24624846080909857
0.49927302503731436 0.4718297130831926 0.007337831665170003 0.020105480288952038
0.22995916974813152 0.23019291057637623 -3.8377923924796176e-05 -0.00019536290432005924
0.08419647891978141 0.08419647891978141 0.0 0.0
0.018573545537794153 0.018573545537794153 0.0 0.0
0.002115844587459836 0.002115844587459836 0.0 0.0
0.0005567737139909052 0.0005567737139909052 0.0 0.0
0.013239925904756427 0.013239925904756427 0.0 0.0
0.08639882077383712 0.08639882077383712 0.0 0.0
0.2714390771270004 0.2713056532530344 3.507277340619376e-05 9.835110055980841e-05
0.6403990393012314 0.5741410343645973 0.02136146160524219 0.04489654333139199
1.379743531000012 0.8544244594807102 0.181554499113773 0.34376457240552866
2.6356613478280595 1.1142820425832547 0.5887112350181589 0.9326680702266463
4.552146385008544 1.4325985203170812 1.3305852667958695 1.7889625978955923
7.231075084233949 1.7994113194836125 2.4815462305585814 2.9501175341917607
10.82159675069828 2.2487361536251496 4.141453532879911 4.431407064193219
15.467766120109141 2.822638191921611 6.393629236436931 6.251498691750598
21.274912903034767 3.5564369331054753 9.261471342380581 8.457004627548717
28.571861125050134 4.4594685067168065 13.002951613082146 11.109441005251185
37.559227246825856 5.529987579166722 17.761357425174914 14.267882242484214
48.23360552671893 6.645491200620272 23.651355295132046 17.936759030966616
60.136699603408765 7.549223819177875 30.589245040214255 21.99823074401664
72.14700277899773 7.907705764952252 38.051944556998805 26.187352457046696
82.68138763115947 7.515776400537918 45.14609406172032 30.019517168901277
90.44670008539329 6.8705759969330575 50.658452334260446 32.9176717541998
87.57068628408499 1.9168156137213797 51.97394027329399 33.679930397069576
129.62700859179984 47.7106030579401 49.623632150233384 32.29277338362632
87.57068628406998 1.9168156137167998 51.97394027328709 33.67993039706607
90.44670008536892 6.870575996933804 50.65845233424392 32.91767175419116
82.68138763111855 7.515776400530502 45.146094061698726 30.01951716888937
72.14700277896151 7.90770576495672 38.051944556972515 26.187352457032247
60.13669960336341 7.549223819170177 30.589245040190352 21.998230744002853
48.233605526677174 6.645491200616589 23.65135529510839 17.936759030952174
37.559227246781944 5.529987579160782 17.761357425151814 14.26788224246937
28.57186112500951 4.459468506711542 13.002951613061175 11.109441005236784
21.274912902998313 3.55643693310244 9.261471342361274 8.4570046275346
15.46776612007756 2.822638191917564 6.393629236421564 6.25149869173843
10.821596750673761 2.2487361536230788 4.141453532867815 4.431407064182865
7.231075084214977 1.7994113194808938 2.4815462305503067 2.9501175341837786
4.552146384994803 1.4325985203147789 1.3305852667904792 1.788962597889544
2.6356613478197812 1.114282042581701 0.5887112350153271 0.9326680702227528
1.3797435309953432 0.8544244594790327 0.1815544991127637 0.3437645724035472
0.6403990392994041 0.5741410343634064 0.02136146160501673 0.044896543330980886
0.27143907712663795 0.27130565325272316 3.507277340206099e-05 9.835110051271972e-05
0.0863988207737117 0.0863988207737117 0.0 0.0
0.013239925904715653 0.013239925904715653 0.0 0.0
0.0005567737139837486 0.0005567737139837486 0.0 0.0
CELL_DATA 800
SCALARS Stress float 6
LOOKUP_TABLE default
144.49982257867643 -502.0526842456934 -184.16915504941483 -105.25546661210355 0.0 0.0
393.05439153902546 -16.532816030005165 119.46024673149952 61.14688730834317 0.0 0.0
377.08273540284404 4.505627817953947 114.28032296133469 -5.918896024471045 0.0 0.0
438.9704798272545 -5.924581659649765 131.04028487253734 -12.566041629468089 0.0 0.0
510.0703326912271 -11.329788485079487 168.6161733828381 -10.934657743754912 0.0 0.0
577.3955699389425 -2.09300321743679 232.10367949604063 -9.256640125288264 0.0 0.0
642.0094177943738 6.611504187160076 293.32207362542204 -9.237260095702464 0.0 0.0
706.3141075032596 23.65179670875144 349.75043799411077 -10.06747762857493 0.0 0.0
771.1898985290711 46.76741908353982 401.3988515178749 -11.119332531878142 0.0 0.0
837.0111571968755 74.65395476558787 451.4076312365074 -11.872693282713037 0.0 0.0
903.5169652921169 105.5865657547869 501.32682667343965 -12.215832207172824 0.0 0.0
970.4695321685693 139.40310015858114 552.2123931466332 -12.153531614859837 0.0 0.0
1038.1771483241182 174.40545735167862 603.8071826910077 -11.975664975986167 0.0 0.0
1107.2516742373784 211.21091114070305 656.8656032607008 -11.782000503603879 0.0 0.0
1178.4167730981494 251.14216603712305 712.4815087919778 -11.503388187033645 0.0 0.0
1251.147925030522 294.45486986249693 770.5534119890905 -10.977431020269261 0.0 0.0
1323.0779079498534 340.03142414314595 829.3445369416556 -10.01333489288253 0.0 0.0
1390.2951142536087 385.25769852894757 885.5649376572344 -8.486412087899101 0.0 0.0
1448.379363698075 426.9830991173183 935.3982684330851 -6.898844206829682 0.0 0.0
1506.0686091839088 475.8270409440229 988.1803506220472 -7.589330528939376 0.0 0.0
1506.0686091840903 475.8270409442198 988.1803506221586 7.589330528984677 0.0 0.0
1448.3793636984128 426.98309911768763 935.398268433282 6.898844206837555 0.0 0.0
1390.295114253471 385.2576985288607 885.5649376570915 8.486412087891562 0.0 0.0
1323.0779079493084 340.0314241426672 829.3445369412339 10.013334892867348 0.0 0.0
1251.1479250300497 294.4548698621145 770.553411988702 10.977431020311013 0.0 0.0
1178.4167730977595 251.14216603682726 712.4815087916417 11.503388187025124 0.0 0.0
1107.2516742371754 211.21091114062202 656.8656032605114 11.782000503577152 0.0 0.0
1038.1771483240198 174.4054573517306 603.8071826909165 11.975664976038624 0.0 0.0
970.4695321680966 139.40310015827885 552.2123931462266 12.15353161479502 0.0 0.0
903.5169652917 105.5865657545576 501.32682667308467 12.215832207087066 0.0 0.0
837.0111571964487 74.65395476535612 451.40763123614767 11.872693282640729 0.0 0.0
771.1898985285115 46.76741908318284 401.3988515174512 11.119332531855992 0.0 0.0
706.3141075026688 23.651796708374754 349.7504379936735 10.067477628502733 0.0 0.0
642.0094177942664 6.611504187313983 293.32207362525344 9.237260095666926 0.0 0.0
577.3955699386761 -2.0930032174316224 232.10367949577085 9.25664012531331 0.0 0.0
510.07033269104033 -11.329788484992278 168.61617338269818 10.934657743651442 0.0 0.0
438.9704798269847 -5.924581659626247 131.04028487246617 12.566041629381738 0.0 0.0
377.0827354026178 4.505627817774168 114.28032296121597 5.918896024419073 0.0 0.0
393.05439153888665 -16.53281603007831 119.46024673140455 -61.146887308354266 0.0 0.0
144.4998225792519 -502.0526842451646 -184.16915504888084 105.25546661172297 0.0 0.0
50.54639229245436 -531.2544315452957 -237.7586592056433 -145.80482695071007 0.0 0.0
238.79852340841114 -3.90251882775969 70.46880137419544 13.870763248258626 0.0 0.0
331.35041809345427 20.549527436146583 105.56949353255234 -10.353047909630236 0.0 0.0
397.0613091003269 -3.445507945187191 118.10009948655807 -32.04391066862599 0.0 0.0
479.52142595567375 -12.876385189001525 149.18633484335055 -31.38454584427449 0.0 0.0
551.8321971509397 -3.8031785309742574 210.0040345588865 -27.684579728644913 0.0 0.0
621.0132942425264 4.595838783275145 274.37670395441296 -27.969395545944526 0.0 0.0
686.3089831198413 20.54762792507193 333.54386473873024 -29.22365274595129 0.0 0.0
750.004755324394 41.998191636598094 385.94130610573984 -30.745735323977645 0.0 0.0
813.2768734032238 67.54624309241595 434.6994354051394 -31.665474618659346 0.0 0.0
876.2874610606366 95.64955552741093 482.05696636404514 -31.702643906123843 0.0 0.0
939.2004824353006 125.02721203893545 528.9826669534388 -31.084183846416625 0.0 0.0
1002.156480072983 156.1537102929467 576.3835252582496 -30.244495165285592 0.0 0.0
1066.5264416904774 188.95457319952132 625.152622175779 -29.464341704844863 0.0 0.0
1132.7462208498828 224.30670725498206 676.0513106665541 -28.5825640988017 0.0 0.0
1200.206303606096 262.64381257478357 729.0323047047772 -27.18511434741474 0.0 0.0
1267.0118940327293 303.17118608323165 782.7549466431469 -24.911469617825077 0.0 0.0
1330.3322741080624 344.34818412927865 835.0029206868642 -21.67428083638692 0.0 0.0
1389.726619569159 387.27543617247886 885.997451278868 -18.060451484382245 0.0 0.0
1431.400547393589 419.5933459129981 922.7919133673563 -13.139951930156213 0.0 0.0
1431.4005473935388 419.5933459129626 922.7919133673672 13.139951930205854 0.0 0.0
1389.7266195692098 387.27543617255844 885.9974512789482 18.060451484386498 0.0 0.0
1330.3322741079794 344.3481841292423 835.0029206867587 21.674280836405153 0.0 0.0
1267.0118940323248 303.17118608289593 782.7549466427447 24.911469617897687 0.0 0.0
1200.2063036058676 262.64381257464254 729.0323047045401 27.18511434744852 0.0 0.0
1132.74622084969 224.30670725489577 676.051310666368 28.582564098869845 0.0 0.0
1066.526441690561 188.9545731997414 625.1526221757365 29.46434170491092 0.0 0.0
1002.1564800721171 156.15371029221552 576.3835252575333 30.24449516531358 0.0 0.0
939.2004824345606 125.02721203836258 528.9826669528649 31.084183846444034 0.0 0.0
876.2874610604591 95.64955552743318 482.0569663638549 31.70264390614537 0.0 0.0
813.2768734027461 67.5462430921331 434.6994354047705 31.665474618624692 0.0 0.0
750.0047553242742 41.99819163670329 385.94130610561723 30.745735324001593 0.0 0.0
686.3089831198155 20.54762792531367 333.5438647386127 29.22365274601769 0.0 0.0
621.0132942422899 4.5958387833156 274.37670395414887 27.96939554603526 0.0 0.0
551.8321971505019 -3.8031785311453774 210.00403455852722 27.684579728726202 0.0 0.0
479.5214259553792 -12.876385188958665 149.1863348432033 31.384545844313816 0.0 0.0
397.0613090999984 -3.445507945324653 118.10009948642534 32.04391066858983 0.0 0.0
331.3504180932921 20.549527435932102 105.56949353243972 10.353047909653508 0.0 0.0
238.7985234086204 -3.902518827456524 70.46880137434914 -13.8707632483547 0.0 0.0
50.54639229280683 -531.2544315449434 -237.7586592052607 145.8048269504383 0.0 0.0
7.384414161253773 -530.790685932107 -249.37397247190535 -159.60850876488766 0.0 0.0
139.70345118549488 -6.946549520515971 39.82707049949368 -37.92139833397323 0.0 0.0
269.910678567473 26.39416822008603 88.89145403626769 -30.54179328650631 0.0 0.0
351.6101909217346 2.3461125340861355 106.17455243984213 -50.223175513377285 0.0 0.0
438.9449012169497 -10.308121839152925 131.82703914231135 -53.75104481208187 0.0 0.0
523.7321260032422 -8.605981973060445 184.36700589413783 -48.65343806799558 0.0 0.0
595.5320653036312 3.5837241963596593 252.28170811842472 -46.996534199582996 0.0 0.0
661.738685086809 17.387651891846158 313.573235046493 -48.368929627621284 0.0 0.0
725.0575156752532 37.264775595262236 367.6402146863493 -50.025116168572 0.0 0.0
785.9823743545926 60.30552149942241 415.6176308280539 -50.8775778524897 0.0 0.0
845.5193945963954 85.06975098369273 460.41278542270373 -50.570427957233484 0.0 0.0
904.0418701051457 110.9582898087364 503.80584962244586 -49.370897197403465 0.0 0.0
962.9333288212291 137.63788708390206 547.1435254711549 -48.04991392707755 0.0 0.0
1022.5623122603401 166.38267868770697 591.6209879104825 -46.74949169455277 0.0 0.0
1083.5869406634974 197.04355579568667 637.6324915762192 -45.3077172828434 0.0 0.0
1145.6742336839357 230.09892610252876 685.3222553908848 -43.18298414551491 0.0 0.0
1207.3991425018557 265.4107528583087 733.914981967652 -39.883041613509235 0.0 0.0
1267.915365676772 303.48045600896324 783.1960956901339 -35.24474467032753 0.0 0.0
1322.4648711362152 340.9672595151292 829.1003930118784 -28.77424184729146 0.0 0.0
1359.0476853820785 367.2306728015718 860.3804830301647 -18.226715409874515 0.0 0.0
1359.047685381787 367.23067280129357 860.3804830299682 18.226715409950657 0.0 0.0
1322.4648711364407 340.9672595153926 829.1003930119896 28.774241847400077 0.0 0.0
1267.915365676892 303.48045600915043 783.1960956901498 35.24474467043486 0.0 0.0
1207.3991425013455 265.4107528578668 733.9149819672602 39.88304161357092 0.0 0.0
1145.6742336833015 230.0989261019614 685.3222553903447 43.182984145472524 0.0 0.0
1083.5869406629843 197.04355579527743 637.6324915757617 45.30771728289794 0.0 0.0
1022.5623122597301 166.38267868720638 591.6209879100136 46.749491694549334 0.0 0.0
962.9333288205573 137.63788708336796 547.1435254706388 48.049913927094806 0.0 0.0
904.0418701047205 110.95828980847075 503.80584962209537 49.3708971973971 0.0 0.0
845.5193945957665 85.06975098324165 460.4127854222136 50.57042795721537 0.0 0.0
785.9823743543053 60.305521499317365 415.61763082780305 50.87757785243003 0.0 0.0
725.0575156747612 37.26477559497987 367.6402146859649 50.025116168561034 0.0 0.0
661.7386850862802 17.387651891522673 313.5732350460421 48.36892962754328 0.0 0.0
595.5320653036091 3.583724196652952 252.28170811828454 46.99653419958292 0.0 0.0
523.7321260029258 -8.605981973091055 184.36700589387243 48.65343806788536 0.0 0.0
438.9449012165006 -10.308121839341096 131.8270391420898 53.75104481196013 0.0 0.0
351.6101909214488 2.3461125339816657 106.17455243973278 50.22317551333958 0.0 0.0
269.9106785674323 26.39416821994659 88.89145403621366 30.5417932864508 0.0 0.0
139.70345118566104 -6.946549520304472 39.82707049960696 37.921398333761864 0.0 0.0
7.384414161469394 -530.7906859318089 -249.37397247157662 159.608508764693 0.0 0.0
-7.690734806181283 -512.9850441284701 -237.35110380552618 -162.30447805674294 0.0 0.0
82.6671309159148 -15.807120365877688 20.05800316501113 -81.826608259294 0.0 0.0
211.00231241249188 26.618914595445986 71.28636810238135 -57.51098406230807 0.0 0.0
302.21211479599503 6.724272306189754 92.67285131403658 -69.77187997516684 0.0 0.0
388.8054512943105 -6.877027226237563 115.2780826475686 -77.06319911609175 0.0 0.0
482.33900820428255 -10.619592190270108 158.27077118133374 -71.83819438020231 0.0 0.0
562.4197130226412 0.6475947388395795 224.36247950549875 -67.03141174952006 0.0 0.0
632.3021831357956 14.880378503794308 289.73500429464207 -67.73590567993999 0.0 0.0
695.3031078398201 32.34398313425014 345.40930400397207 -68.96545611391079 0.0 0.0
754.223513859835 52.76152399908881 393.26457967883846 -69.54351738939259 0.0 0.0
810.5524778469264 74.32074253048339 436.11430501983114 -68.82537660244522 0.0 0.0
865.4207092940828 96.52743092442996 476.46875588011864 -67.12839964920447 0.0 0.0
919.6151037196626 119.26936928752491 515.7865623872135 -65.3294227228435 0.0 0.0
974.9673399564638 143.65528246549815 556.112309275367 -63.66298917660669 0.0 0.0
1030.9940161803504 169.38391784167942 597.2522769071104 -61.74103773683562 0.0 0.0
1087.1531503388076 197.10221388036592 639.3481167955856 -58.993031038166926 0.0 0.0
1144.0784789336155 227.3293642884002 683.0201733926809 -54.97525716161316 0.0 0.0
1200.246590699619 260.3505386351089 727.6324769534765 -49.00220307151033 0.0 0.0
1250.8439253091692 292.6710207950502 769.0145023042907 -39.54164085233839 0.0 0.0
1285.4633918660509 315.33286384557834 797.5311136038786 -23.64993624428122 0.0 0.0
1285.4633918661616 315.3328638457157 797.5311136039945 23.64993624438424 0.0 0.0
1250.8439253090244 292.67102079495464 769.0145023041196 39.54164085251059 0.0 0.0
1200.2465906993536 260.3505386348926 727.6324769532579 49.00220307155377 0.0 0.0
1144.0784789331349 227.3293642879969 683.0201733923005 54.97525716173212 0.0 0.0
1087.1531503384347 197.10221388007562 639.3481167952822 58.99303103817739 0.0 0.0
1030.9940161802942 169.38391784174127 597.2522769070624 61.741037736906115 0.0 0.0
974.9673399567143 143.65528246589912 556.1123092755361 63.662989176708166 0.0 0.0
919.6151037194979 119.26936928751766 515.7865623870438 65.32942272291776 0.0 0.0
865.4207092931572 96.52743092361574 476.46875587943293 67.12839964908717 0.0 0.0
810.5524778460616 74.32074252978819 436.11430501922507 68.82537660245178 0.0 0.0
754.2235138596176 52.76152399906036 393.2645796786336 69.54351738934797 0.0 0.0
695.3031078397579 32.34398313448354 345.40930400386594 68.96545611401295 0.0 0.0
632.3021831357325 14.880378504022573 289.7350042944973 67.735905679977 0.0 0.0
562.4197130222879 0.6475947387883991 224.36247950518177 67.0314117495085 0.0 0.0
482.3390082039179 -10.619592190292193 158.270771181103 71.83819438013968 0.0 0.0
388.8054512941138 -6.877027225987797 115.27808264758505 77.06319911597566 0.0 0.0
302.21211479588106 6.724272306244017 92.67285131402 69.77187997510676 0.0 0.0
211.00231241244066 26.618914595326423 71.2863681023301 57.510984062261095 0.0 0.0
82.66713091598525 -15.807120365755988 20.05800316506878 81.82660825911466 0.0 0.0
-7.69073480599566 -512.9850441281022 -237.3511038051814 162.30447805660694 0.0 0.0
-9.505420662194126 -485.1536930573452 -213.0639568848688 -160.79480321491565 0.0 0.0
48.50709340903663 -24.746839081027854 7.128076298402632 -115.8029750247856 0.0 0.0
159.33761764006653 23.4413162402547 54.833680164096364 -85.16826373488949 0.0 0.0
250.23741383306134 9.804425907398954 78.01227417447697 -90.4330895778267 0.0 0.0
333.1843889500507 -2.690016996698475 99.17021962116948 -99.02212035179011 0.0 0.0
429.5062160689745 -10.6977762822024 132.9832862301058 -97.49352418317937 0.0 0.0
521.2306541577065 -3.401669764734616 192.13259431717916 -89.84030750231256 0.0 0.0
596.3370628884227 12.00546399825224 260.29335211732945 -87.20905002612876 0.0 0.0
659.7406987898746 27.46192302736273 318.26388421410985 -87.72760065069662 0.0 0.0
717.2613714890138 44.970448057857894 366.7783951129906 -87.74395226273198 0.0 0.0
770.8746200626662 63.310205476016506 408.46357576915966 -86.54274535859092 0.0 0.0
821.9183425380011 81.83494788553764 446.06906365667777 -84.34239938059831 0.0 0.0
872.2169170094561 100.79373592361748 482.0871669676774 -82.21201491087247 0.0 0.0
922.3960016412208 120.85781359181578 517.9313115287399 -80.14871466303738 0.0 0.0
973.291273496083 141.7723206161771 554.2333073112882 -77.85118599803569 0.0 0.0
1024.8127995151178 164.07779770064968 591.3828518193106 -74.73547352072765 0.0 0.0
1075.846909476288 188.49547324798726 629.248904056805 -70.12296201260199 0.0 0.0
1126.8445211850853 215.52649177447648 668.320504384798 -62.99206548989066 0.0 0.0
1174.1158824079448 242.64189037248525 705.4721983847425 -50.79182779083215 0.0 0.0
1208.6095896971137 262.6830545089083 732.6161368599701 -29.833642217008755 0.0 0.0
1208.6095896967272 262.68305450853364 732.6161368597344 29.833642217083955 0.0 0.0
1174.1158824076415 242.64189037224594 705.4721983845533 50.79182779102271 0.0 0.0
1126.8445211857195 215.52649177519453 668.3205043852258 62.99206549003158 0.0 0.0
1075.8469094768618 188.49547324868607 629.2489040571843 70.12296201277157 0.0 0.0
1024.8127995152086 164.07779770080666 591.3828518193235 74.73547352069463 0.0 0.0
973.2912734959516 141.77232061617363 554.2333073111583 77.85118599812535 0.0 0.0
922.3960016409537 120.85781359170733 517.9313115285097 80.14871466317243 0.0 0.0
872.2169170091933 100.79373592349933 482.08716696751065 82.21201491089968 0.0 0.0
821.918342537536 81.83494788519887 446.06906365632767 84.34239938053268 0.0 0.0
770.8746200620019 63.310205475505555 408.46357576866893 86.54274535854938 0.0 0.0
717.2613714885812 44.97044805757065 366.7783951126096 87.74395226259261 0.0 0.0
659.7406987895814 27.461923027293338 318.26388421383064 87.72760065066868 0.0 0.0
596.3370628876306 12.005463997648036 260.29335211670974 87.20905002602966 0.0 0.0
521.230654157178 -3.4016697649814347 192.1325943167681 89.84030750228675 0.0 0.0
429.50621606840224 -10.69777628249986 132.9832862297993 97.49352418314396 0.0 0.0
333.1843889497302 -2.6900169967700016 99.17021962106182 99.02212035171968 0.0 0.0
250.2374138329098 9.804425907336485 78.0122741744134 90.43308957766287 0.0 0.0
159.3376176400094 23.441316240157022 54.83368016404992 85.16826373472509 0.0 0.0
48.507093409063586 -24.746839080918704 7.128076298443464 115.80297502461264 0.0 0.0
-9.505420662108236 -485.15369305706037 -213.06395688457644 160.79480321478812 0.0 0.0
-5.539868547665641 -450.7594315864177 -183.05152348543663 -157.76849785020988 0.0 0.0
26.025302366802304 -32.30900462331762 -1.8851106769545944 -140.7753051537111 0.0 0.0
114.55091995943351 18.689711243668267 39.972189360930535 -110.20344818180251 0.0 0.0
197.7746014470307 12.139779535611746 62.974314294792734 -110.53919361203376 0.0 0.0
274.43579882820825 0.13371284998399746 82.3282953261132 -119.53713962962432 0.0 0.0
361.2576786149216 -8.477937219746448 108.61493623797602 -122.72625269327202 0.0 0.0
461.6069788394716 -5.5891368226544165 157.43109610871022 -115.88637408339065 0.0 0.0
547.804540321049 7.197120799161958 222.5782078770941 -108.71792952898502 0.0 0.0
616.5829416108372 22.291113242274506 284.43475254764286 -106.58531161407566 0.0 0.0
673.6486086856742 37.08784414609462 334.5786848413303 -105.58678743151009 0.0 0.0
724.6585733065408 51.87491176544829 375.74745394378743 -103.75777231788335 0.0 0.0
772.558075103516 66.9462647001579 411.68991545019287 -101.1375553694923 0.0 0.0
818.7686081165008 82.31561285635905 444.80801327643417 -98.62301363459765 0.0 0.0
864.4587595546735 98.01047461369598 476.74981246981963 -96.34555530437152 0.0 0.0
910.336665718366 114.08339065067779 508.3813911210757 -93.8041769618068 0.0 0.0
955.9878922886596 131.42396386601726 540.2253875098843 -90.2668917787919 0.0 0.0
1001.707964183384 149.46367713504114 572.3303369977101 -85.30152023596159 0.0 0.0
1046.8597690679844 169.2081801267226 604.9045116987561 -77.3461042162069 0.0 0.0
1090.4865878881196 190.57325433073177 637.4031222986189 -62.87135072758047 0.0 0.0
1126.314621757993 208.34863587586747 664.0724085557202 -37.229887590068614 0.0 0.0
1126.3146217580409 208.34863587593122 664.0724085557531 37.22988759012031 0.0 0.0
1090.4865878877142 190.57325433038838 637.4031222983796 62.87135072774382 0.0 0.0
1046.8597690682072 169.20818012702685 604.904511698886 77.34610421635179 0.0 0.0
1001.7079641833182 149.46367713510648 572.3303369976051 85.30152023612803 0.0 0.0
955.9878922880674 131.42396386551428 540.2253875093763 90.26689177885156 0.0 0.0
910.3366657180791 114.08339065048229 508.38139112078903 93.80417696181428 0.0 0.0
864.4587595541066 98.0104746132541 476.7498124694114 96.34555530442768 0.0 0.0
818.7686081158588 82.3156128557933 444.80801327595503 98.6230136345538 0.0 0.0
772.5580751031177 66.9462646998938 411.6899154498941 101.13755536944953 0.0 0.0
724.6585733058826 51.874911764920355 375.7474539432768 103.75777231782605 0.0 0.0
673.6486086846294 37.087844145171736 334.5786848405709 105.58678743141476 0.0 0.0
616.5829416102918 22.291113241884474 284.434752547184 106.58531161397929 0.0 0.0
547.8045403207217 7.197120799130094 222.57820787677986 108.71792952895451 0.0 0.0
461.6069788391767 -5.589136822526946 157.43109610852744 115.8863740833967 0.0 0.0
361.25767861442336 -8.477937219958513 108.61493623775317 122.72625269310794 0.0 0.0
274.43579882791715 0.13371284979329978 82.32829532597047 119.53713962952875 0.0 0.0
197.77460144691247 12.139779535609875 62.9743142947567 110.53919361186509 0.0 0.0
114.55091995943461 18.689711243741925 39.972189360952946 110.20344818163173 0.0 0.0
26.02530236683086 -32.30900462318338 -1.8851106769057544 140.77530515345916 0.0 0.0
-5.5398685476272505 -450.75943158610244 -183.0515234851633 157.76849785012053 0.0 0.0
0.09712211884971111 -411.0092180980175 -151.0614361612543 -154.06610018755694 0.0 0.0
8.612018522091702 -39.40774789850793 -9.238718812924866 -158.17604447915244 0.0 0.0
74.9367823055065 13.855686827170569 26.637740739803117 -131.1545961226115 0.0 0.0
146.31510435276647 14.049552021899547 48.1093969123998 -128.9159000213574 0.0 0.0
212.91296220481956 2.117269260856866 64.50463226178947 -138.05303099050968 0.0 0.0
288.0123001686461 -5.197220671059038 85.5170021408926 -145.55948562343582 0.0 0.0
384.2272576393509 -5.664532886271509 122.15503291777833 -143.19768023832466 0.0 0.0
480.24277628621326 2.755552335419602 178.2424095624263 -133.6611093786344 0.0 0.0
558.640745708874 15.733481131505293 239.9583175683476 -126.78994699956472 0.0 0.0
619.8736553641268 28.975870412983454 293.5940826649477 -123.4150935634861 0.0 0.0
669.2939390041054 40.08517714365843 335.2897402034781 -120.63548629821283 0.0 0.0
714.584372327356 51.865563985545556 370.8182452398153 -117.55846811395841 0.0 0.0
757.1064071779184 63.550385248037294 401.98205196298704 -114.73882016815062 0.0 0.0
798.2218449679949 75.38036916747483 430.7920307380851 -112.22100223560275 0.0 0.0
838.4576293103595 86.5371233406246 457.7367392671354 -109.5723682787238 0.0 0.0
879.5818766114039 98.83670347838459 485.0701638111663 -105.88873639005259 0.0 0.0
919.3440382618884 110.85005055027649 511.32085112517177 -100.3736009420708 0.0 0.0
957.481420886384 122.3690250998016 536.4001121038307 -91.96261026833848 0.0 0.0
997.0660476405027 135.77977162495228 562.9931275209898 -76.18660577886527 0.0 0.0
1035.8444141130599 151.14768215861312 589.9296246397505 -46.53092372824494 0.0 0.0
1035.8444141130008 151.14768215857455 589.9296246397249 46.53092372832886 0.0 0.0
997.0660476403311 135.77977162487383 562.9931275208498 76.18660577914373 0.0 0.0
957.481420886478 122.36902510008628 536.4001121039211 91.96261026864228 0.0 0.0
919.344038261704 110.85005055021935 511.32085112506314 100.37360094221235 0.0 0.0
879.5818766109834 98.83670347800094 485.07016381084554 105.88873639002676 0.0 0.0
838.4576293101213 86.53712334047033 457.73673926696415 109.57236827873199 0.0 0.0
798.2218449678493 75.38036916748663 430.79203073797936 112.22100223569804 0.0 0.0
757.1064071776049 63.550385247896685 401.982051962714 114.73882016823124 0.0 0.0
714.584372327218 51.865563985562254 370.8182452396422 117.55846811396944 0.0 0.0
669.293939003898 40.08517714367335 335.28974020330486 120.63548629822667 0.0 0.0
619.8736553637711 28.97587041281197 293.59408266461776 123.41509356341513 0.0 0.0
558.6407457088484 15.733481131771892 239.95831756825197 126.78994699953789 0.0 0.0
480.2427762858494 2.755552335455505 178.2424095621683 133.66110937866478 0.0 0.0
384.22725763894437 -5.664532886279495 122.15503291758559 143.19768023825932 0.0 0.0
288.01230016841885 -5.197220670992271 85.51700214083786 145.5594856232741 0.0 0.0
212.91296220463028 2.1172692607822707 64.50463226171681 138.0530309903516 0.0 0.0
146.31510435262743 14.049552021742361 48.109396912310935 128.91590002117806 0.0 0.0
74.93678230539227 13.85568682706061 26.637740739735865 131.15459612244285 0.0 0.0
8.612018522047403 -39.407747898490314 -9.238718812932873 158.17604447895815 0.0 0.0
0.09712211886601096 -411.0092180976546 -151.06143616101178 154.0661001874945 0.0 0.0
2.6866532210471306 -367.54420681438194 -122.26760032603346 -150.13713453127457 0.0 0.0
-7.9160078917695165 -46.16374894170873 -16.223910557421945 -168.5745287769843 0.0 0.0
39.17588895342929 9.97567843752698 14.745470217286881 -147.93106223356304 0.0 0.0
96.30122170556524 15.295798965983213 33.47910620146453 -144.56305786627087 0.0 0.0
149.98843626874012 4.8366094487317834 46.44079456276141 -153.4164956347409 0.0 0.0
207.95286046115416 -2.755513899432268 61.85904627664564 -164.30605294265519 0.0 0.0
285.965105092609 -3.444724061522279 87.57674722715034 -168.40077028256442 0.0 0.0
385.38341592184327 0.5132040686450514 129.5932522875123 -161.81633962242768 0.0 0.0
475.5349755449432 8.50864215664022 183.13183292319584 -150.7944630845383 0.0 0.0
544.9243410083255 19.818600043903054 237.35562064140146 -142.3325194680999 0.0 0.0
598.2380475024087 27.883805358044235 281.4336136923955 -137.92477854334265 0.0 0.0
641.3517691539585 36.17051824609343 317.43217897718966 -133.8221621898981 0.0 0.0
680.8819298365778 44.794626700534664 348.53360214160784 -130.63627827662697 0.0 0.0
717.8170572813506 52.64345890052721 375.53657413292694 -127.92939361110027 0.0 0.0
753.4383184343037 59.626071606737014 399.6455581267871 -125.30386048293848 0.0 0.0
788.5191583171458 66.13296228271615 421.8903242820378 -121.5982446475694 0.0 0.0
824.2641574375727 72.85045107403889 443.8184581993186 -115.63602149023033 0.0 0.0
856.0467173843248 76.40689672896433 462.04552420454667 -106.57737829629795 0.0 0.0
887.2920869810538 78.04273566928917 478.853495284702 -90.65255956692056 0.0 0.0
929.3491926079606 89.0309856391485 505.2283543854699 -58.65926649097013 0.0 0.0
929.3491926083402 89.03098563957661 505.22835438573804 58.659266491118835 0.0 0.0
887.2920869812066 78.04273566962542 478.8534952848641 90.6525595672386 0.0 0.0
856.0467173840278 76.40689672875808 462.0455242043225 106.57737829647863 0.0 0.0
824.264157437095 72.85045107363172 443.8184581989132 115.63602149028075 0.0 0.0
788.5191583167028 66.13296228231432 421.89032428164455 121.59824464755917 0.0 0.0
753.4383184341336 59.626071606652346 399.64555812661695 125.30386048297362 0.0 0.0
717.8170572811941 52.64345890054102 375.53657413282946 127.9293936111857 0.0 0.0
680.8819298360887 44.79462670016605 348.5336021412734 130.63627827666812 0.0 0.0
641.3517691533019 36.170518245515986 317.43217897668956 133.8221621898706 0.0 0.0
598.2380475021968 27.883805358006832 281.43361369214523 137.92477854334663 0.0 0.0
544.924341007969 19.818600043827292 237.35562064109786 142.33251946806834 0.0 0.0
475.53497554450416 8.50864215651157 183.13183292288946 150.79446308458844 0.0 0.0
385.38341592103075 0.513204068137723 129.5932522870557 161.81633962248193 0.0 0.0
285.96510509206456 -3.4447240618306267 87.57674722688597 168.40077028243252 0.0 0.0
207.95286046087352 -2.755513899669932 61.85904627649091 164.3060529424593 0.0 0.0
149.98843626866335 4.836609448727663 46.440794562738205 153.41649563451918 0.0 0.0
96.30122170555457 15.295798966100639 33.479106201496556 144.5630578660531 0.0 0.0
39.17588895348427 9.975678437733547 14.745470217365341 147.93106223331108 0.0 0.0
-7.916007891822039 -46.16374894168821 -16.223910557431584 168.57452877680984 0.0 0.0
2.6866532210402276 -367.5442068140072 -122.26760032584185 150.1371345311756 0.0 0.0
-3.4335636589586933 -321.49796132647424 -101.52157346724378 -143.57193878674872 0.0 0.0
-24.919645809298313 -52.63515899123217 -23.265201150641076 -175.19368923680474 0.0 0.0
6.3926612438041985 7.416272534988105 4.142680133637691 -160.36555190400532 0.0 0.0
47.87192530844706 15.99681112531593 19.15950720662846 -156.83437481063478 0.0 0.0
86.37487280811803 8.085999227685106 28.33519063589943 -164.7979881380327 0.0 0.0
125.06015537408932 0.18822740829085016 37.660288720636 -178.21456460108976 0.0 0.0
174.16524693464055 -1.97347231253791 52.786005021470444 -187.52114579597958 0.0 0.0
246.39042317898728 0.9838523852742131 78.31234975998775 -187.31760649771525 0.0 0.0
340.20730997408356 4.578226209976551 115.32739046641694 -179.47918690956257 0.0 0.0
424.2173731060453 9.30270217966302 159.01662532652423 -166.19798552622916 0.0 0.0
486.9232438874829 15.89333641050304 202.07692499898266 -156.7520535312093 0.0 0.0
532.6735857830695 19.90925611995215 237.70834881770747 -151.1231988754629 0.0 0.0
571.5472969963921 25.54284710046047 269.8147789856126 -147.00548586765373 0.0 0.0
605.6080326248474 30.060124625293973 297.52991643098426 -143.72252913423543 0.0 0.0
636.4628824090231 32.93416519842465 320.88560725596085 -140.8940229144701 0.0 0.0
666.0372163966806 34.02478326989571 340.56158136808017 -137.42479702055627 0.0 0.0
697.2049702217514 33.98602076201702 358.4340587648317 -131.41931329666468 0.0 0.0
729.9597629608302 33.360724983295896 375.896700280906 -121.13474012873117 0.0 0.0
751.7611341125076 19.398591330104395 381.41623186677845 -105.50291472858152 0.0 0.0
793.2650781023865 17.324884575996705 401.03152743096524 -74.85915719799328 0.0 0.0
793.2650781020269 17.32488457569167 401.03152743072474 74.8591571981971 0.0 0.0
751.7611341119294 19.398591329619364 381.4162318664001 105.50291472886623 0.0 0.0
729.9597629605366 33.36072498316227 375.8967002806996 121.1347401289739 0.0 0.0
697.204970221671 33.98602076208036 358.43405876478175 131.41931329677593 0.0 0.0
666.0372163967388 34.02478327015794 340.56158136810444 137.42479702068974 0.0 0.0
636.4628824088107 32.934165198266214 320.8856072557885 140.89402291444716 0.0 0.0
605.6080326244206 30.060124624896055 297.5299164306782 143.72252913423418 0.0 0.0
571.5472969961083 25.542847100254846 269.8147789853882 147.0054858677326 0.0 0.0
532.673585782957 19.909256120020224 237.70834881756463 151.12319887548318 0.0 0.0
486.9232438874138 15.89333641068444 202.07692499890496 156.75205353118838 0.0 0.0
424.2173731055696 9.30270217935622 159.0166253261823 166.1979855261288 0.0 0.0
340.20730997378496 4.5782262100508095 115.3273904662874 179.47918690957275 0.0 0.0
246.39042317855552 0.9838523850807874 78.31234975978032 187.3176064977274 0.0 0.0
174.16524693434042 -1.9734723127238105 52.78600502131807 187.52114579582866 0.0 0.0
125.06015537390945 0.18822740809158844 37.66028872052244 178.2145646008726 0.0 0.0
86.37487280801669 8.08599922749767 28.335190635813472 164.79798813784456 0.0 0.0
47.87192530840817 15.996811125263754 19.159507206601553 156.8343748104345 0.0 0.0
6.392661243782847 7.416272534966755 4.14268013362488 160.36555190381318 0.0 0.0
-24.919645809279377 -52.63515899114394 -23.265201150609457 175.1936892366181 0.0 0.0
-3.4335636589967624 -321.4979613261267 -101.52157346711606 143.57193878658438 0.0 0.0
-12.687916428186163 -274.8346659265233 -86.52768948480048 -134.00048733720584 0.0 0.0
-40.321232011264826 -57.039487953672705 -29.20580190615202 -178.50669660741062 0.0 0.0
-24.219761874272898 5.491440380986134 -5.618343823079206 -168.7752336361772 0.0 0.0
1.0792206339839594 16.4624261983652 5.262264343835745 -165.15510798483373 0.0 0.0
22.733925545546775 11.200158689080446 10.178350699953109 -171.9067718699597 0.0 0.0
40.09399899524632 4.053390245924501 13.277676970337506 -185.46360372554423 0.0 0.0
58.1146016460313 0.21853313954380216 17.848152149284246 -197.74003311458827 0.0 0.0
83.18848889875785 0.08299868777525088 26.00719797475254 -203.9806512967454 0.0 0.0
119.16011725085505 1.789584809061191 38.71246772503858 -199.5116914454589 0.0 0.0
165.1475159382731 3.2254323130642195 55.16204157356962 -190.6671451264767 0.0 0.0
218.94607982729826 5.783481896543595 75.85874385561311 -178.81575417187912 0.0 0.0
266.0327444619937 6.089010333421779 96.59935587357474 -170.84401332578182 0.0 0.0
307.28588386753586 8.340915191070323 119.65840624648676 -165.17940797037085 0.0 0.0
347.8270688351238 9.714842272635934 144.2619800512081 -161.10207165918692 0.0 0.0
385.3409535399239 7.520938284473203 168.0410143913044 -157.03245217062917 0.0 0.0
419.0930193935802 2.7438612056850076 189.32458894483113 -152.95950804134918 0.0 0.0
455.88170785481685 -5.051792147724697 209.15378770107458 -147.28329264385624 0.0 0.0
501.89510369047616 -12.64266742218274 232.87228010240236 -137.6174561560434 0.0 0.0
549.3455979712842 -26.597512911593398 254.88881206864386 -118.82209314277603 0.0 0.0
573.4277982208708 -77.58269089612055 244.5699857478252 -93.38405587056879 0.0 0.0
573.4277982207311 -77.5826908962647 244.56998574774963 93.38405587073203 0.0 0.0
549.3455979707867 -26.597512912070215 254.8888120683397 118.82209314321199 0.0 0.0
501.8951036901452 -12.642667422630055 232.87228010215904 137.61745615630076 0.0 0.0
455.88170785455935 -5.05179214815098 209.15378770083623 147.28329264390166 0.0 0.0
419.0930193936305 2.7438612057807887 189.32458894485137 152.9595080413602 0.0 0.0
385.3409535396537 7.520938284072358 168.0410143910733 157.03245217062934 0.0 0.0
347.82706883506785 9.7148422726588 144.26198005116512 161.10207165927238 0.0 0.0
307.2858838674654 8.340915190937757 119.65840624639804 165.1794079704727 0.0 0.0
266.03274446201243 6.089010333378511 96.59935587353675 170.8440133257621 0.0 0.0
218.9460798274304 5.783481896896532 75.85874385573176 178.8157541718778 0.0 0.0
165.14751593810658 3.2254323129808373 55.16204157348645 190.66714512640493 0.0 0.0
119.16011725083247 1.7895848090786828 38.71246772502974 199.51169144549385 0.0 0.0
83.1884888987302 0.08299868786028775 26.00719797476455 203.98065129668115 0.0 0.0
58.114601646063726 0.21853313968943766 17.84815214933516 197.74003311439552 0.0 0.0
40.09399899534844 4.053390246137392 13.277676970431887 185.4636037252855 0.0 0.0
22.733925545557156 11.200158688963153 10.178350699921241 171.9067718697646 0.0 0.0
1.0792206338893413 16.462426198043456 5.262264343710875 165.15510798468222 0.0 0.0
-24.2197618742465 5.491440381045223 -5.61834382305367 168.77523363601625 0.0 0.0
-40.321232011281396 -57.03948795370361 -29.20580190616699 178.5066966072687 0.0 0.0
-12.687916428261765 -274.83466592628685 -86.52768948476005 134.00048733703625 0.0 0.0
-21.012623090046596 -229.81536718652353 -75.23798979968649 -122.64426003018485 0.0 0.0
-52.932090160477586 -57.73444388697156 -33.19804106373916 -177.86175393104017 0.0 0.0
-52.89304842135542 3.6778082645042516 -14.764044233450527 -173.20342423793272 0.0 0.0
-44.11719869335419 16.712650984782528 -8.220786678853264 -169.31586723115296 0.0 0.0
-40.26553513872168 13.980234846977552 -7.881304754104763 -174.27418186381172 0.0 0.0
-45.10111852477648 7.945792040695364 -11.17506610297816 -186.46272454054807 0.0 0.0
-59.153349999784794 2.953819833085096 -17.210924398473423 -197.83163665933236 0.0 0.0
-83.06010111300694 0.38797957174574194 -25.827102025068882 -204.0738653361634 0.0 0.0
-118.85246655815938 -1.8412269976697893 -38.62815111486228 -199.50972101218386 0.0 0.0
-164.94137745578075 -3.369930716574265 -55.13570541615881 -190.64099516707418 0.0 0.0
-219.27831346259296 -5.182992177535901 -75.50760707977537 -178.91233730797725 0.0 0.0
-266.681892500447 -5.266605169889761 -96.54085435582778 -170.62048072787763 0.0 0.0
-309.82222717007926 -7.351281253749505 -120.30936196627431 -164.76828828333416 0.0 0.0
-352.76028416515453 -9.913731394122713 -146.48049775628397 -160.72524162246626 0.0 0.0
-389.55747706721525 -14.874543742209099 -172.9076317327374 -157.9052366285346 0.0 0.0
-412.62642350566176 -24.596396119970606 -196.14012448637584 -157.38819228041416 0.0 0.0
-411.31246363950686 -35.86267412658711 -209.40119278965392 -159.1343726460698 0.0 0.0
-359.4492607795571 -41.80259459593624 -202.4863053827113 -161.6821091913806 0.0 0.0
-191.2277271801356 -36.63182700425165 -129.41783151703763 -162.2405139681602 0.0 0.0
30.957615182794072 -165.25752667403833 -57.89591046366869 -122.43383900605863 0.0 0.0
30.95761518275725 -165.25752667396415 -57.89591046369176 122.43383900640009 0.0 0.0
-191.22772718013107 -36.631827004019726 -129.41783151699636 162.2405139686481 0.0 0.0
-359.4492607799367 -41.802594596705944 -202.48630538298383 161.6821091916678 0.0 0.0
-411.3124636391889 -35.862674126518385 -209.4011927894582 159.1343726461836 0.0 0.0
-412.6264235050671 -24.596396119291185 -196.14012448594357 157.388192280361 0.0 0.0
-389.5574770668617 -14.87454374202467 -172.90763173248448 157.90523662853906 0.0 0.0
-352.76028416511247 -9.913731394654825 -146.48049775634223 160.72524162254285 0.0 0.0
-309.82222716948627 -7.351281253481723 -120.30936196593471 164.76828828346495 0.0 0.0
-266.6818924999075 -5.266605169924631 -96.5408543556109 170.620480727903 0.0 0.0
-219.27831346220708 -5.18299217804039 -75.50760707977471 178.91233730799664 0.0 0.0
-164.94137745556026 -3.369930717226435 -55.135705416275286 190.6409951669848 0.0 0.0
-118.85246655800474 -1.8412269982185254 -38.62815111496779 199.50972101227597 0.0 0.0
-83.06010111282113 0.387979571754161 -25.82710202500639 204.0738653361434 0.0 0.0
-59.153349999471615 2.953819833424618 -17.210924398272645 197.83163665921592 0.0 0.0
-45.10111852453789 7.945792040942333 -11.175066102832293 186.46272454030455 0.0 0.0
-40.26553513839803 13.980234847406791 -7.8813047538792596 174.27418186361632 0.0 0.0
-44.117198693266744 16.71265098481805 -8.220786678816633 169.31586723098061 0.0 0.0
-52.89304842141226 3.6778082642945096 -14.764044233530884 173.2034242377052 0.0 0.0
-52.93209016055043 -57.73444388714889 -33.198041063815104 177.86175393093419 0.0 0.0
-21.012623090049832 -229.81536718629752 -75.23798979962298 122.64426003001695 0.0 0.0
-23.79230305044107 -187.00991700815877 -63.24066601757994 -110.20855502453327 0.0 0.0
-63.3780404148842 -55.67576615376524 -35.71579825795505 -173.3698904825918 0.0 0.0
-79.58858051337013 2.208306106641682 -23.21312542061242 -173.43576577402632 0.0 0.0
-87.75869117857857 16.560652393172134 -21.353678605174245 -169.2431552956277 0.0 0.0
-101.97383475983051 16.229556690902303 -25.720387299268438 -171.65062957726124 0.0 0.0
-129.0993938833921 11.143871653705379 -35.59813492909963 -180.59478259290586 0.0 0.0
-175.05480222762728 5.0153344494762555 -52.15949160137596 -188.42148865280657 0.0 0.0
-246.20185621885872 -0.5507885197047244 -78.13051242047723 -187.48939668921926 0.0 0.0
-339.8862029084977 -4.688361725572756 -115.25276728703406 -179.4749484305465 0.0 0.0
-424.04850348120254 -9.289107016431881 -158.92823378950004 -166.15158034103828 0.0 0.0
-486.7207638995593 -15.574950520578067 -201.8932938756924 -156.64518589679938 0.0 0.0
-532.5918471454098 -19.159820290151316 -237.4222322906873 -150.7737149088105 0.0 0.0
-571.845979808086 -24.45894328888499 -269.5571329479559 -146.21029976077017 0.0 0.0
-607.6518771787531 -30.61058436865609 -298.725908993091 -142.91133695232458 0.0 0.0
-642.0162031910571 -39.62883999988982 -326.4545387053105 -141.8461665635348 0.0 0.0
-673.8893870124137 -52.41337561508044 -352.7782405324508 -143.88935719342916 0.0 0.0
-700.8188107662768 -69.5787261566604 -377.5747804621639 -150.15279836638427 0.0 0.0
-717.7619663088333 -89.21066923064674 -398.14623051575313 -160.64200113089976 0.0 0.0
-753.0654365724054 -143.84512963533422 -442.0207936927301 -170.30334336726008 0.0 0.0
-724.1941390165639 -205.25482035542544 -454.39511963084436 -177.7067210577402 0.0 0.0
-724.1941390170108 -205.25482035605688 -454.3951196311882 177.70672105807867 0.0 0.0
-753.0654365728814 -143.84512963624002 -442.02079369313765 170.303343367715 0.0 0.0
-717.7619663090322 -89.21066923110627 -398.14623051589797 160.64200113121765 0.0 0.0
-700.818810765755 -69.57872615644517 -377.57478046188146 150.15279836659113 0.0 0.0
-673.8893870117332 -52.413375614430294 -352.7782405319591 143.88935719338718 0.0 0.0
-642.0162031902588 -39.62883999895871 -326.4545387047161 141.8461665633832 0.0 0.0
-607.6518771785624 -30.610584368532592 -298.72590899289935 142.91133695229573 0.0 0.0
-571.8459798081108 -24.458943289256574 -269.5571329479751 146.21029976088013 0.0 0.0
-532.591847145202 -19.159820290247012 -237.42223229050143 150.773714908832 0.0 0.0
-486.7207638989905 -15.57495052038789 -201.89329387529958 156.64518589679912 0.0 0.0
-424.0485034806243 -9.289107016243829 -158.92823378910066 166.15158034098062 0.0 0.0
-339.8862029076457 -4.6883617252397105 -115.25276728661613 179.47494843063913 0.0 0.0
-246.201856218298 -0.5507885194831639 -78.13051242021868 187.48939668919118 0.0 0.0
-175.05480222711518 5.015334449863388 -52.159491601095574 188.42148865265807 0.0 0.0
-129.0993938829352 11.143871654202382 -35.5981349288115 180.59478259260297 0.0 0.0
-101.97383475958198 16.229556690996745 -25.7203872991673 171.650629577006 0.0 0.0
-87.75869117858615 16.560652392982647 -21.353678605233938 169.24315529544452 0.0 0.0
-79.588580513351 2.208306106452105 -23.213125420664024 173.43576577380927 0.0 0.0
-63.3780404148191 -55.67576615366458 -35.715798257905675 173.36989048241807 0.0 0.0
-23.792303050417317 -187.0099170079183 -63.24066601750067 110.2085550244073 0.0 0.0
-24.64213198609398 -147.41021407895602 -51.61570381951499 -97.4685597598305 0.0 0.0
-72.17058174509506 -51.159386294509595 -36.998990411881394 -164.88146954418477 0.0 0.0
-104.53278147051287 1.0684727016390632 -31.03634249004368 -169.44375347388385 0.0 0.0
-129.69815341440705 16.05004196839308 -34.08366184959921 -164.793090787161 0.0 0.0
-162.09305768442718 17.41243023387716 -43.44609282059501 -164.21884781506938 0.0 0.0
-210.8452859642371 13.051901744810447 -59.766730809022334 -168.3052219779009 0.0 0.0
-286.0624238468997 6.264098186860086 -86.90062748287765 -169.4268900912608 0.0 0.0
-385.0176842534816 -0.2567152050946895 -129.413414990161 -162.09676282754424 0.0 0.0
-475.4362546204538 -8.593471729976873 -183.08286780401437 -150.7416266678614 0.0 0.0
-544.8964338497016 -19.819637471754127 -237.3398561124682 -142.2658590889688 0.0 0.0
-598.1379103722527 -27.67473148862052 -281.3368710802015 -137.8277142393666 0.0 0.0
-641.1583999227777 -35.55499268054625 -317.11213700694486 -133.46228571532083 0.0 0.0
-680.8179388884599 -43.78740374297333 -348.03530591393525 -129.71323144624805 0.0 0.0
-719.1100829659799 -52.772607722743416 -376.1219343252686 -126.70405321965261 0.0 0.0
-757.9212069953355 -64.53713894101446 -404.0188082191755 -125.65970355227367 0.0 0.0
-796.6567015389576 -80.76410549738253 -432.886573627303 -127.96995559823424 0.0 0.0
-833.5830532288227 -101.7580838210153 -462.74621297004654 -134.73851975546137 0.0 0.0
-875.8591864636314 -136.90648285091046 -502.0643746086455 -143.28671141241676 0.0 0.0
-921.7169837626205 -189.6864311089047 -551.5850557019419 -151.66302150443147 0.0 0.0
-983.6549220845532 -297.63700294454384 -632.0014993178626 -161.5092330204427 0.0 0.0
-983.6549220848578 -297.6370029449876 -632.0014993182051 161.50923302062859 0.0 0.0
-921.7169837620211 -189.68643110839628 -551.585055701599 151.66302150458426 0.0 0.0
-875.8591864630278 -136.90648285040444 -502.06437460823867 143.28671141258943 0.0 0.0
-833.5830532283601 -101.75808382065848 -462.74621296971003 134.73851975554572 0.0 0.0
-796.6567015394888 -80.76410549809111 -432.8865736276717 127.96995559832521 0.0 0.0
-757.9212069958187 -64.53713894174551 -404.0188082195337 125.65970355243039 0.0 0.0
-719.1100829658076 -52.772607722696925 -376.12193432512623 126.70405321964884 0.0 0.0
-680.8179388882365 -43.78740374292178 -348.035305913731 129.71323144629554 0.0 0.0
-641.1583999225063 -35.55499268049893 -317.11213700672147 133.46228571531213 0.0 0.0
-598.137910372128 -27.674731488819013 -281.3368710800505 137.82771423939346 0.0 0.0
-544.8964338496022 -19.819637472083315 -237.33985611235664 142.26585908897053 0.0 0.0
-475.43625462002746 -8.593471730037095 -183.08286780373524 150.7416266679546 0.0 0.0
-385.0176842530148 -0.2567152051954409 -129.41341498995814 162.09676282761382 0.0 0.0
-286.06242384624545 6.264098187075504 -86.90062748259889 169.42689009117709 0.0 0.0
-210.84528596399412 13.051901744529303 -59.766730809032694 168.30522197779726 0.0 0.0
-162.09305768421672 17.412430233711433 -43.446092820584205 164.2188478148954 0.0 0.0
-129.69815341428327 16.05004196837951 -34.083661849567164 164.79309078698876 0.0 0.0
-104.53278147038675 1.0684727016523463 -31.03634249000268 169.44375347373946 0.0 0.0
-72.17058174503609 -51.15938629449652 -36.99899041185977 164.88146954404814 0.0 0.0
-24.6421319860837 -147.41021407882886 -51.61570381947375 97.46855975969811 0.0 0.0
-25.145958588005353 -111.54704577427515 -41.00790130868415 -84.54535447984715 0.0 0.0
-80.08630364959215 -44.78903808671453 -37.462602520892 -152.69486671162576 0.0 0.0
-127.8928144486915 0.3713051362188091 -38.25366086130508 -161.19444093419727 0.0 0.0
-170.0166317199165 14.89727088831176 -46.524591215990114 -156.05286168005753 0.0 0.0
-220.23380686107558 17.605133284874487 -60.79212069832728 -151.98165909413046 0.0 0.0
-288.6747042604343 13.650847742741707 -83.63806672644445 -150.21293108827246 0.0 0.0
-383.61765747840286 8.2424136275489 -121.29975658624974 -144.80976944849078 0.0 0.0
-479.9551644032692 -2.6195745842002047 -178.05901326520103 -133.80741058170332 0.0 0.0
-558.6849792380258 -15.844200706750257 -239.98201735560536 -126.6913627934977 0.0 0.0
-619.8865060741896 -29.002626455331693 -293.6281958949088 -123.35198402065703 0.0 0.0
-669.2323230737403 -39.94001511516427 -335.22635211166994 -120.56272536485108 0.0 0.0
-714.451799286649 -51.465332974369275 -370.6017672188847 -117.22628254677137 0.0 0.0
-756.9389405701846 -62.72361496993927 -401.49679575323785 -113.77093713984786 0.0 0.0
-798.6488652259374 -74.89661700954554 -430.68897427144157 -110.73365896967965 0.0 0.0
-840.885061088481 -89.03430521039351 -460.0509687809835 -109.47074062304915 0.0 0.0
-885.5842242950987 -108.77071087380658 -492.81239079768596 -111.60990397295548 0.0 0.0
-934.5429982206266 -138.22560409999977 -532.2141008884464 -117.42114988137929 0.0 0.0
-990.516013714222 -182.62390088160285 -582.7602717155388 -124.89496562574087 0.0 0.0
-1056.463892723362 -250.4056983348918 -649.5647703201989 -131.26992316540048 0.0 0.0
-1134.8797840923557 -365.63848116641316 -743.6711381847671 -141.06699079352333 0.0 0.0
-1134.8797840923637 -365.6384811666019 -743.6711381848506 141.06699079378689 0.0 0.0
-1056.4638927238955 -250.4056983355601 -649.5647703205609 131.26992316559168 0.0 0.0
-990.5160137137007 -182.62390088121498 -582.7602717151835 124.89496562592713 0.0 0.0
-934.5429982203441 -138.22560409984013 -532.2141008882329 117.42114988147875 0.0 0.0
-885.5842242947012 -108.77071087348747 -492.81239079733666 111.60990397293934 0.0 0.0
-840.8850610881789 -89.03430521019492 -460.05096878073186 109.47074062305035 0.0 0.0
-798.6488652260089 -74.89661700974256 -430.68897427145475 110.73365896969484 0.0 0.0
-756.9389405701587 -62.72361497014927 -401.49679575323773 113.77093713995023 0.0 0.0
-714.4517992864038 -51.46533297431545 -370.6017672186692 117.22628254678415 0.0 0.0
-669.2323230733501 -39.94001511500859 -335.2263521113734 120.56272536481276 0.0 0.0
-619.886506073721 -29.002626455039525 -293.6281958945033 123.35198402052148 0.0 0.0
-558.6849792375166 -15.844200706581569 -239.98201735519694 126.69136279351102 0.0 0.0
-479.9551644028219 -2.61957458418548 -178.05901326486853 133.80741058176224 0.0 0.0
-383.61765747798677 8.242413627319843 -121.29975658610365 144.80976944848675 0.0 0.0
-288.67470426009913 13.650847742582016 -83.638066726384 150.2129310881474 0.0 0.0
-220.23380686082783 17.605133284717915 -60.79212069830392 151.98165909395925 0.0 0.0
-170.01663171985328 14.897270888003902 -46.524591216064664 156.0528616798813 0.0 0.0
-127.8928144486524 0.371305136012158 -38.25366086135611 161.19444093406423 0.0 0.0
-80.08630364947419 -44.789038086645675 -37.46260252083595 152.69486671147416 0.0 0.0
-25.145958587996617 -111.54704577418715 -41.00790130865512 84.54535447974254 0.0 0.0
-25.7540059010533 -79.86078802864711 -31.68443817891012 -71.33769957472117 0.0 0.0
-87.57286473092358 -37.17939784655793 -37.42567877324445 -137.2221686853444 0.0 0.0
-149.9217908369435 0.07927953694976075 -44.95152113398347 -148.79412829554101 0.0 0.0
-208.7176733130187 13.254477055414991 -58.619413293745836 -142.98753832380072 0.0 0.0
-276.0006503613482 16.511679529852298 -77.7419852363825 -135.5312139268961 0.0 0.0
-361.0459544402675 15.024738481429077 -106.98028183404624 -128.14979730745384 0.0 0.0
-460.26641083268527 7.477648233353074 -156.50901828914118 -117.06480364145331 0.0 0.0
-547.6866601825639 -7.162108080525073 -222.44989082872885 -108.71856238969673 0.0 0.0
-616.7454377073227 -22.453031849575805 -284.55661583948427 -106.45899267643024 0.0 0.0
-673.6917396686356 -37.10097360563923 -334.6258100028043 -105.55121443031248 0.0 0.0
-724.6412458714016 -51.79298490330733 -375.7219510957706 -103.6924635339341 0.0 0.0
-772.562029588915 -66.78986618808234 -411.63735850122634 -100.8392803110048 0.0 0.0
-818.621408711691 -81.78735019982373 -444.48315451685096 -97.72182263575914 0.0 0.0
-863.8842414025976 -96.87910400034764 -475.890175922151 -94.86014914881991 0.0 0.0
-910.0076778143657 -113.6413562481914 -507.9672858781139 -93.35992559119158 0.0 0.0
-960.2131012181776 -137.5076409412104 -545.2043569606348 -94.56874602719431 0.0 0.0
-1020.0157089852038 -174.7834978206959 -593.6861408784996 -99.26875709512139 0.0 0.0
-1090.5359304226802 -231.0584121224873 -657.175795028307 -105.63760075051357 0.0 0.0
-1170.374561522119 -311.34150945535436 -737.2493955356922 -111.8007744192087 0.0 0.0
-1247.2911107374966 -423.8949521651393 -830.4320149804403 -125.7968360628087 0.0 0.0
-1247.2911107376567 -423.89495216544725 -830.4320149805623 125.796836063039 0.0 0.0
-1170.3745615219693 -311.34150945525096 -737.2493955355551 111.80077441933196 0.0 0.0
-1090.5359304227195 -231.05841212266344 -657.1757950282872 105.63760075073014 0.0 0.0
-1020.0157089846274 -174.78349782022156 -593.6861408780383 99.26875709520317 0.0 0.0
-960.2131012174963 -137.50764094059778 -545.2043569601094 94.56874602717451 0.0 0.0
-910.0076778140484 -113.64135624798449 -507.96728587781 93.3599255912435 0.0 0.0
-863.8842414022781 -96.8791040001728 -475.89017592189566 94.86014914886755 0.0 0.0
-818.6214087113663 -81.78735019966982 -444.4831545165671 97.72182263580902 0.0 0.0
-772.5620295882071 -66.78986618755786 -411.63735850070316 100.83928031100712 0.0 0.0
-724.641245870939 -51.79298490302581 -375.72195109543276 103.69246353385444 0.0 0.0
-673.6917396682306 -37.10097360542039 -334.62581000246473 105.55121443020505 0.0 0.0
-616.74543770676 -22.453031849279 -284.5566158390282 106.45899267640722 0.0 0.0
-547.6866601821231 -7.162108080388103 -222.44989082833578 108.71856238964426 0.0 0.0
-460.2664108319382 7.477648233811081 -156.50901828863255 117.06480364136422 0.0 0.0
-361.045954439732 15.024738481484384 -106.98028183384949 128.14979730736945 0.0 0.0
-276.0006503610449 16.51167952976844 -77.74198523632086 135.53121392676678 0.0 0.0
-208.7176733127206 13.254477055547703 -58.61941329361807 142.98753832360944 0.0 0.0
-149.92179083672582 0.07927953707681601 -44.95152113388063 148.79412829543656 0.0 0.0
-87.57286473082964 -37.17939784648108 -37.42567877319321 137.22216868519712 0.0 0.0
-25.75400590103722 -79.86078802855977 -31.68443817887909 71.3376995746187 0.0 0.0
-26.472152701338352 -52.76118501952479 -23.77000131625894 -57.70844569830979 0.0 0.0
-94.65487511433739 -28.885064784088197 -37.06198196952767 -118.83376288425131 0.0 0.0
-170.82799656538094 0.15182514588491358 -51.202851425848806 -132.38338020540434 0.0 0.0
-245.77834385796334 10.688733252183573 -70.51656304814466 -125.63901867900142 0.0 0.0
-327.44908414000776 15.571068480010227 -93.82880367202696 -115.23042641448605 0.0 0.0
-425.2260894899528 15.171180345403277 -131.14070961627908 -102.99619171660993 0.0 0.0
-519.9463141892679 4.774253898613885 -191.23374195928568 -90.70542050170626 0.0 0.0
-596.4857632055813 -12.138456270246145 -260.34329495673694 -86.97996578504019 0.0 0.0
-659.9287562520905 -27.62183224377787 -318.42697966426573 -87.63304314190955 0.0 0.0
-717.290088859436 -44.96781783039263 -366.8068842482635 -87.72822233567621 0.0 0.0
-770.900437478072 -63.282623844706386 -408.4734533871413 -86.47458217649019 0.0 0.0
-822.0430802516507 -81.88016890558319 -446.1610668897092 -84.07408535239503 0.0 0.0
-872.1216735284979 -100.57663289954523 -481.9512685332856 -81.4875541819525 0.0 0.0
-921.0143301300278 -119.30306223748656 -516.5062200125332 -78.93383966350929 0.0 0.0
-970.6180535619396 -138.93512550802768 -551.5136205628468 -77.12163539597105 0.0 0.0
-1026.5584496265155 -166.25798232929614 -593.2275168964869 -77.1710183146247 0.0 0.0
-1094.9959321401664 -210.96911368278842 -649.5802448875576 -80.23092112082406 0.0 0.0
-1178.6770487150973 -279.1737058404 -725.4025590577971 -86.05772074477103 0.0 0.0
-1268.0853760043804 -368.62369153385816 -814.9366029890136 -94.15126906000327 0.0 0.0
-1344.7060011434428 -480.12676023949643 -908.2335454656834 -114.16626886419701 0.0 0.0
-1344.7060011435228 -480.12676023963144 -908.2335454657157 114.16626886433926 0.0 0.0
-1268.0853760042044 -368.62369153381786 -814.9366029888937 94.15126906027791 0.0 0.0
-1178.6770487143983 -279.17370583977083 -725.4025590573056 86.05772074489195 0.0 0.0
-1094.9959321395863 -210.96911368228893 -649.5802448871435 80.23092112088943 0.0 0.0
-1026.5584496264007 -166.25798232927772 -593.2275168963587 77.17101831465027 0.0 0.0
-970.6180535612552 -138.93512550742884 -551.5136205623178 77.12163539597094 0.0 0.0
-921.0143301291265 -119.3030622366941 -516.5062200118531 78.9338396635196 0.0 0.0
-872.1216735281187 -100.57663289932238 -481.9512685330099 81.48755418199102 0.0 0.0
-822.0430802513002 -81.88016890544633 -446.16106688946456 84.07408535247095 0.0 0.0
-770.9004374775209 -63.2826238443761 -408.4734533866885 86.4745821765143 0.0 0.0
-717.2900888588351 -44.9678178300123 -366.8068842477786 87.72822233562414 0.0 0.0
-659.928756252136 -27.62183224410727 -318.42697966417154 87.6330431418904 0.0 0.0
-596.4857632056368 -12.138456270694704 -260.34329495663115 86.97996578508258 0.0 0.0
-519.9463141888582 4.77425389861483 -191.23374195894397 90.70542050171126 0.0 0.0
-425.2260894893812 15.171180345574466 -131.14070961598068 102.99619171654716 0.0 0.0
-327.44908413966306 15.571068479994407 -93.82880367193262 115.23042641435666 0.0 0.0
-245.77834385763342 10.688733252268557 -70.5165630480218 125.63901867888637 0.0 0.0
-170.82799656518745 0.1518251459556379 -51.20285142576954 132.3833802052976 0.0 0.0
-94.65487511428668 -28.885064784133572 -37.06198196952607 118.833762884104 0.0 0.0
-26.47215270125515 -52.76118501943386 -23.7700013162067 57.70844569825 0.0 0.0
-27.007867243833196 -30.638948129165485 -17.294044611899604 -43.594163599746366 0.0 0.0
-100.9440341676796 -20.397642523405185 -36.40250300732543 -97.84870965136412 0.0 0.0
-190.69062443815798 0.4683202408127869 -57.06669125920355 -111.91805489016865 0.0 0.0
-281.76146457740373 7.233629264687065 -82.34857157418841 -104.563095206754 0.0 0.0
-377.56158372973835 15.059988044632837 -109.65459316229187 -91.8757462979717 0.0 0.0
-478.1444593054688 14.416045665720127 -155.8100439730074 -76.58704074806067 0.0 0.0
-561.9299091547883 -0.17692281744453098 -223.91870120268374 -67.1567374430252 0.0 0.0
-632.6012113943435 -15.077531014302245 -289.94914326775745 -67.45753761391121 0.0 0.0
-695.4534231483876 -32.446715736891385 -345.54145518296764 -68.90990436880934 0.0 0.0
-754.2567257025012 -52.76325882192925 -393.2907259085845 -69.54128804203727 0.0 0.0
-810.6134222010915 -74.3425507996928 -436.15758932230375 -68.74761821478735 0.0 0.0
-865.583606866139 -96.67781762709495 -476.62662431417687 -66.89245616431857 0.0 0.0
-919.4868453317645 -119.21220890957602 -515.7196270156387 -64.83638805863026 0.0 0.0
-973.3525033148488 -142.16560482859 -554.6197130556163 -62.86918686701795 0.0 0.0
-1027.2753297135837 -165.62493665033188 -593.5784992256988 -60.922712999485675 0.0 0.0
-1085.6594713254754 -195.34349410261314 -637.6754512213724 -59.48355363246385 0.0 0.0
-1160.6627359088166 -244.9373638652442 -699.6637909745714 -60.66846046773146 0.0 0.0
-1255.5648053380255 -323.06062907599176 -785.8704520524568 -66.42235780719083 0.0 0.0
-1356.1367429068557 -423.23147500832425 -886.3587409514746 -77.812964748785 0.0 0.0
-1436.9704236713396 -538.3963367626948 -984.184552572425 -104.34321548298328 0.0 0.0
-1436.9704236715422 -538.3963367629244 -984.1845525726295 104.34321548305701 0.0 0.0
-1356.1367429072657 -423.23147500882067 -886.3587409517224 77.81296474896634 0.0 0.0
-1255.5648053378936 -323.0606290759275 -785.8704520522783 66.42235780728808 0.0 0.0
-1160.6627359086053 -244.9373638651304 -699.6637909742982 60.66846046784599 0.0 0.0
-1085.6594713249517 -195.34349410217533 -637.675451220898 59.48355363246076 0.0 0.0
-1027.2753297132253 -165.62493665008438 -593.5784992253999 60.92271299952432 0.0 0.0
-973.3525033150152 -142.16560482889946 -554.6197130557027 62.869186867070205 0.0 0.0
-919.48684533135 -119.21220890930739 -515.7196270152592 64.83638805863235 0.0 0.0
-865.5836068658112 -96.67781762696987 -476.62662431390964 66.89245616437573 0.0 0.0
-810.6134222006773 -74.34255079950059 -436.15758932201936 68.74761821481152 0.0 0.0
-754.2567257023062 -52.76325882195882 -393.290725908411 69.54128804199532 0.0 0.0
-695.4534231482644 -32.44671573703249 -345.5414551828148 68.90990436882106 0.0 0.0
-632.6012113939021 -15.077531014146317 -289.94914326735426 67.4575376138946 0.0 0.0
-561.9299091545105 -0.1769228175553259 -223.9187012023907 67.15673744306991 0.0 0.0
-478.1444593049358 14.416045665871698 -155.81004397267705 76.58704074801874 0.0 0.0
-377.5615837292734 15.059988044736006 -109.6545931621226 91.87574629793744 0.0 0.0
-281.76146457711155 7.233629264729003 -82.34857157409054 104.56309520665857 0.0 0.0
-190.69062443792515 0.46832024097357516 -57.06669125908546 111.9180548899957 0.0 0.0
-100.94403416761824 -20.397642523567985 -36.40250300735586 97.84870965128512 0.0 0.0
-27.00786724376834 -30.638948129190304 -17.294044611887593 43.59416359974209 0.0 0.0
-26.72153143396185 -13.866441617756447 -12.176391915515488 -29.13455312496794 0.0 0.0
-105.52374400117209 -12.128302137877878 -35.29561384171498 -74.43946946762809 0.0 0.0
-209.62085965965443 0.6334775207696293 -62.696214641665435 -87.29503899739512 0.0 0.0
-317.07364440369133 3.92331830913255 -93.93112039076566 -79.79002538690885 0.0 0.0
-424.9455466534869 15.394292830991347 -125.64228128313403 -65.99014240959772 0.0 0.0
-520.436062792728 10.558828688319132 -182.13669890861036 -51.58304615050064 0.0 0.0
-595.7978414674304 -3.8261316558969227 -252.46693998971568 -46.757157827870685 0.0 0.0
-662.0453723966701 -17.539575609253177 -313.82862438408546 -48.135423541785585 0.0 0.0
-725.1503278607978 -37.29930540155024 -367.71723007499804 -50.00014926865288 0.0 0.0
-786.0358731151139 -60.32843526854873 -415.65767776098875 -50.88022615816754 0.0 0.0
-845.6035255749194 -85.13726058031408 -460.48658399703254 -50.49037826171179 0.0 0.0
-904.1355153873842 -111.09812956144013 -503.9260679912169 -49.18309016551783 0.0 0.0
-962.6818204613978 -137.56076604467114 -547.0056431314871 -47.770544904809356 0.0 0.0
-1021.1868247320267 -165.2885192560574 -590.4396852223866 -46.355865890677336 0.0 0.0
-1080.5007783083443 -194.1378233514617 -634.6939014449714 -44.66241158072258 0.0 0.0
-1142.5925073836597 -226.8424834022062 -682.1693915043743 -42.269916377124936 0.0 0.0
-1215.1625239262894 -273.37453682445323 -741.4596121798877 -41.040421393245815 0.0 0.0
-1319.1318861609768 -359.2812796897647 -835.8249986337491 -46.22907141063904 0.0 0.0
-1437.0159262125637 -475.2946600498892 -952.8243038003284 -61.589887044689135 0.0 0.0
-1532.5535062742465 -603.24912614428 -1064.917805458849 -95.04889458359177 0.0 0.0
-1532.5535062739316 -603.2491261439972 -1064.917805458591 95.04889458365457 0.0 0.0
-1437.0159262127308 -475.2946600500958 -952.8243038003711 61.58988704476243 0.0 0.0
-1319.1318861614068 -359.28127969026457 -835.8249986340184 46.229071410742876 0.0 0.0
-1215.1625239262678 -273.3745368245084 -741.4596121798645 41.04042139327575 0.0 0.0
-1142.5925073837373 -226.84248340237878 -682.169391504392 42.26991637715719 0.0 0.0
-1080.5007783072913 -194.1378233505077 -634.6939014442103 44.66241158074865 0.0 0.0
-1021.1868247314756 -165.2885192556223 -590.4396852219559 46.355865890680235 0.0 0.0
-962.6818204611251 -137.56076604455828 -547.0056431312782 47.77054490484394 0.0 0.0
-904.1355153870178 -111.09812956127867 -503.92606799097285 49.183090165608846 0.0 0.0
-845.6035255745 -85.13726058010053 -460.4865839966976 50.49037826168997 0.0 0.0
-786.0358731147537 -60.32843526839171 -415.65767776068554 50.880226158118674 0.0 0.0
-725.1503278601948 -37.29930540118175 -367.71723007455756 50.00014926865751 0.0 0.0
-662.0453723963506 -17.53957560921728 -313.82862438378663 48.13542354182816 0.0 0.0
-595.7978414670106 -3.826131655809304 -252.4669399893232 46.7571578278921 0.0 0.0
-520.4360627924287 10.558828688265827 -182.13669890835268 51.583046150459744 0.0 0.0
-424.9455466530965 15.394292830993397 -125.64228128299224 65.99014240949114 0.0 0.0
-317.073644403392 3.9233183092260964 -93.93112039065028 79.79002538676593 0.0 0.0
-209.62085965941264 0.63347752088545 -62.69621464155815 87.2950389973332 0.0 0.0
-105.52374400099436 -12.128302137740704 -35.29561384162051 74.43946946753415 0.0 0.0
-26.72153143390534 -13.866441617713548 -12.176391915485665 29.134553124801407 0.0 0.0
-24.386008507371262 -2.746845211079593 -8.139856115535254 -14.8415569342919 0.0 0.0
-106.76721048051988 -4.584314906655013 -33.40545761615247 -48.58994658054104 0.0 0.0
-227.78671023061906 0.3633476902793831 -68.22700876210189 -57.970185862375835 0.0 0.0
-353.143457258874 1.6384807193793867 -105.41068525988668 -51.85911608122746 0.0 0.0
-465.3462554427575 16.641055003379343 -142.02551289204115 -39.578565105262214 0.0 0.0
-550.3278512945898 4.0425248123452775 -208.62776347530664 -28.745974284643804 0.0 0.0
-621.7712583357662 -5.239108736689033 -275.06470421527206 -27.681032975173295 0.0 0.0
-686.4439478638526 -20.61200549912776 -333.7187664669592 -29.086444330225312 0.0 0.0
-750.0616029389 -41.98438679876621 -385.9772296761529 -30.731776697981413 0.0 0.0
-813.3569412785105 -67.59907765361572 -434.76297733818114 -31.666417901784964 0.0 0.0
-876.3715578149101 -95.74525569633902 -482.14496352061815 -31.639183482132495 0.0 0.0
-939.155261398953 -125.07358631259964 -528.9918568492608 -30.96356084610971 0.0 0.0
-1001.7532996807896 -155.95992572209465 -576.1088551751529 -30.12443570320162 0.0 0.0
-1065.5824385605588 -188.32498344644588 -624.4034577063599 -29.320485937924477 0.0 0.0
-1131.3566325535216 -223.29179545042714 -674.8812152858696 -28.172525793131264 0.0 0.0
-1198.6695255929967 -261.54318270065977 -727.7228559860699 -25.91268188278342 0.0 0.0
-1267.812923831585 -304.8739315211245 -783.8971240224344 -22.742289790025193 0.0 0.0
-1353.0847781134066 -370.7824597464232 -858.810998318329 -24.853610121903973 0.0 0.0
-1512.4458912045998 -525.024708332813 -1015.1647966590439 -43.2022335635556 0.0 0.0
-1642.058485625851 -683.4517889447993 -1160.2004278694008 -85.08178346057299 0.0 0.0
-1642.0584856260036 -683.451788944988 -1160.2004278695258 85.08178346066373 0.0 0.0
-1512.4458912051098 -525.0247083333791 -1015.1647966593757 43.2022335636817 0.0 0.0
-1353.0847781132786 -370.7824597463598 -858.8109983181762 24.853610122025785 0.0 0.0
-1267.812923831648 -304.87393152126117 -783.8971240224658 22.742289790030775 0.0 0.0
-1198.6695255921504 -261.54318269989477 -727.7228559853827 25.91268188281571 0.0 0.0
-1131.3566325528932 -223.29179544991825 -674.8812152853789 28.172525793245725 0.0 0.0
-1065.5824385602589 -188.32498344626782 -624.4034577061092 29.320485937915468 0.0 0.0
-1001.7532996806453 -155.95992572209687 -576.1088551750322 30.124435703175905 0.0 0.0
-939.1552613990007 -125.07358631285032 -528.9918568492706 30.96356084617599 0.0 0.0
-876.3715578147703 -95.7452556964044 -482.1449635204735 31.639183482109875 0.0 0.0
-813.3569412780737 -67.59907765338644 -434.7629773378325 31.666417901700623 0.0 0.0
-750.0616029383963 -41.98438679850089 -385.97722967576306 30.731776698004275 0.0 0.0
-686.4439478634447 -20.61200549898603 -333.71876646658217 29.086444330176505 0.0 0.0
-621.7712583356589 -5.239108736879892 -275.0647042150402 27.681032975056578 0.0 0.0
-550.3278512943025 4.042524812276866 -208.62776347502486 28.745974284684934 0.0 0.0
-465.3462554425049 16.641055003227443 -142.02551289194042 39.57856510535081 0.0 0.0
-353.14345725863717 1.6384807191810928 -105.41068525988004 51.859116081231676 0.0 0.0
-227.78671023045402 0.3633476902891264 -68.22700876204945 57.9701858623246 0.0 0.0
-106.76721048037663 -4.584314906624121 -33.40545761610022 48.5899465805325 0.0 0.0
-24.386008507370725 -2.746845211080127 -8.139856115535254 14.84155693433033 0.0 0.0
-17.6241478605147 2.544064277006419 -4.524025075052484 -1.916907032732353 0.0 0.0
-101.97922385826195 1.5357679666775947 -30.133036767475303 -19.837948808035456 0.0 0.0
-245.7650461204411 -0.8298997913538422 -73.97848377353847 -22.861882038013228 0.0 0.0
-392.07500553109617 2.6038461689677455 -116.83249908179552 -21.059296106342824 0.0 0.0
-501.389513949072 14.609825495492437 -161.29998264203948 -13.815186850085354 0.0 0.0
-578.1071116052576 0.22609727382593547 -232.4734380899871 -9.044166918132637 0.0 0.0
-642.5721761582429 -7.059872568169482 -293.9358602727467 -9.163358139473186 0.0 0.0
-706.5545202123243 -23.692315293520707 -349.9631008067903 -10.00776664020605 0.0 0.0
-771.2349992884566 -46.73275314649237 -401.41721892399346 -11.104654151773167 0.0 0.0
-837.0981240556773 -74.71955209606813 -451.47882614782986 -11.870269262791386 0.0 0.0
-903.5845658320382 -105.69088453407778 -501.41282987376184 -12.18960530415798 0.0 0.0
-970.2793515145545 -139.3330469141799 -552.0951677509785 -12.114435538841727 0.0 0.0
-1037.651762107176 -174.08566662365394 -603.404395213843 -11.951495953406777 0.0 0.0
-1106.799280394956 -211.0540469688046 -656.5817127895147 -11.71765540539283 0.0 0.0
-1178.8197607132245 -252.05959868381336 -713.1491960273154 -11.1764482922658 0.0 0.0
-1252.8874340248894 -297.34124815350447 -772.8357944296631 -9.949973022301883 0.0 0.0
-1324.6752681846306 -344.157015256593 -832.1249379266208 -7.380127257929463 0.0 0.0
-1390.746816221675 -391.0145247751704 -888.3615268518963 -5.005086555258502 0.0 0.0
-1481.029659463532 -471.82689209818534 -972.8207726990738 -18.084686117781075 0.0 0.0
-1834.4339464923937 -844.7266653690633 -1337.0370309511625 -68.24990008056277 0.0 0.0
-1834.4339464923717 -844.7266653690378 -1337.0370309511454 68.24990008052293 0.0 0.0
-1481.0296594634224 -471.8268920981085 -972.8207726989388 18.08468611780676 0.0 0.0
-1390.7468162212194 -391.01452477476585 -888.3615268514709 5.005086555303073 0.0 0.0
-1324.6752681846006 -344.15701525663656 -832.1249379264952 7.3801272579153165 0.0 0.0
-1252.8874340244924 -297.3412481531922 -772.8357944293433 9.949973022280835 0.0 0.0
-1178.8197607128284 -252.0595986835247 -713.1491960269125 11.176448292254875 0.0 0.0
-1106.7992803941256 -211.05404696809072 -656.5817127888029 11.717655405384992 0.0 0.0
-1037.6517621068178 -174.0856666234506 -603.4043952134657 11.951495953440027 0.0 0.0
-970.2793515139001 -139.33304691370657 -552.0951677503964 12.114435538872552 0.0 0.0
-903.5845658315782 -105.69088453382491 -501.4128298733512 12.189605304227502 0.0 0.0
-837.0981240554506 -74.71955209606676 -451.47882614761943 11.870269262826907 0.0 0.0
-771.2349992881464 -46.732753146426525 -401.4172189237462 11.10465415182119 0.0 0.0
-706.5545202117861 -23.692315293225565 -349.96310080636863 10.007766640174005 0.0 0.0
-642.5721761579521 -7.059872568164682 -293.935860272462 9.163358139414566 0.0 0.0
-578.1071116048286 0.22609727397698975 -232.4734380896058 9.044166918132216 0.0 0.0
-501.3895139487129 14.60982549552722 -161.29998264180676 13.815186850064276 0.0 0.0
-392.0750055309059 2.6038461685267826 -116.83249908188651 21.059296106337356 0.0 0.0
-245.7650461203812 -0.8298997916209636 -73.97848377360063 22.861882038047387 0.0 0.0
-101.97922385805663 1.5357679668021973 -30.133036767376325 19.837948808005564 0.0 0.0
-17.6241478604758 2.5440642770989594 -4.5240250750130535 1.9169070327003275 0.0 0.0
SCALARS Strain float 6
LOOKUP_TABLE default
0.008896748141728215 -0.009980192175161079 0.0 -0.005386806180483983 0.0 0.0
0.0019503026428742444 -0.0009583389983932045 0.0 0.0009529470927861494 0.0 0.0
0.0017024806757892866 -0.000710743303425021 0.0 -7.63836151045083e-05 0.0 0.0
0.0020323027906984058 -0.0009041304246181214 0.0 -0.0001667442350821169 0.0 0.0
0.002786219114843315 -0.0014515056796653436 0.0 -0.00019655348363781244 0.0 0.0
0.004299642874839173 -0.00268483038240408 0.0 -0.00026506548897256565 0.0 0.0
0.0065709501274207 -0.004687064136206787 0.0 -0.0003880517615829082 0.0 0.0
0.009677427816200103 -0.007517995131787858 0.0 -0.0005610745638877368 0.0 0.0
0.01365949294219381 -0.011220780603932834 0.0 -0.0007865567071041746 0.0 0.0
0.01854807236963819 -0.015821926883240245 0.0 -0.0010467999830185704 0.0 0.0
0.024438130048743702 -0.021417269333303013 0.0 -0.00131231858156039 0.0 0.0
0.03150143073004001 -0.02817726067909243 0.0 -0.0016002836806787712 0.0 0.0
0.03992104060391759 -0.036288261027183966 0.0 -0.0019212872951219762 0.0 0.0
0.04983441480971409 -0.04588375843243653 0.0 -0.002276847965555731 0.0 0.0
0.061205571239587475 -0.05692149034373295 0.0 -0.002674481247248006 0.0 0.0
0.07365995195232891 -0.06902763953856472 0.0 -0.003048717460331918 0.0 0.0
0.08641099546746682 -0.08142608772939752 0.0 -0.0032368133216647277 0.0 0.0
0.09830816924642637 -0.09298593374554676 0.0 -0.0030097955297990753 0.0 0.0
0.10798401866547605 -0.10236249720297907 0.0 -0.002351498908313987 0.0 0.0
0.11383919699895081 -0.10789904499745084 0.0 -0.0019503687602256403 0.0 0.0
0.11383919699894604 -0.10789904499744507 0.0 0.0019503687602298037 0.0 0.0
0.10798401866545966 -0.10236249720296087 0.0 0.002351498908324978 0.0 0.0
0.09830816924639788 -0.092985933745519 0.0 0.0030097955298048484 0.0 0.0
0.08641099546743043 -0.081426087729364 0.0 0.003236813321669252 0.0 0.0
0.0736599519522898 -0.06902763953852808 0.0 0.0030487174603281986 0.0 0.0
0.061205571239548784 -0.05692149034369631 0.0 0.002674481247247895 0.0 0.0
0.04983441480967429 -0.04588375843239767 0.0 0.002276847965554496 0.0 0.0
0.039921040603875996 -0.036288261027142665 0.0 0.0019212872951226978 0.0 0.0
0.03150143072999989 -0.028177260679054683 0.0 0.0016002836806751075 0.0 0.0
0.02443813004870729 -0.021417269333268596 0.0 0.0013123185815575589 0.0 0.0
0.01854807236960751 -0.0158219268832116 0.0 0.0010467999830136021 0.0 0.0
0.013659492942169366 -0.011220780603911074 0.0 0.0007865567071028701 0.0 0.0
0.009677427816180972 -0.007517995131771538 0.0 0.0005610745638853221 0.0 0.0
0.0065709501274070214 -0.004687064136193353 0.0 0.0003880517615817147 0.0 0.0
0.0042996428748303395 -0.0026848303823963082 0.0 0.00026506548897206605 0.0 0.0
0.0027862191148393944 -0.001451505679661902 0.0 0.00019655348363611935 0.0 0.0
0.0020323027906971602 -0.0009041304246175108 0.0 0.00016674423508095115 0.0 0.0
0.0017024806757886812 -0.0007107433034254651 0.0 7.638361510384217e-05 0.0 0.0
0.0019503026428731862 -0.0009583389983927604 0.0 -0.0009529470927853723 0.0 0.0
0.008896748141719674 -0.009980192175149265 0.0 0.005386806180457893 0.0 0.0
0.0061344193976956875 -0.007571352794612657 0.0 -0.006360881689168818 0.0 0.0
0.0010941431932224022 -0.0004834135813127083 0.0 0.00018031992222736215 0.0 0.0
0.0014675633494990806 -0.0005526244713747741 0.0 -0.00013458598356075324 0.0 0.0
0.0018137528225189471 -0.0007903210212355516 0.0 -0.0004173174836687721 0.0 0.0
0.0024155053170624094 -0.0011838425658423635 0.0 -0.00046988944819659206 0.0 0.0
0.0037102967113324045 -0.0021942306049747007 0.0 -0.0006424672232818174 0.0 0.0
0.005751338678971849 -0.003951367005011419 0.0 -0.0009644024594030187 0.0 0.0
0.00856413235674416 -0.006483331405176873 0.0 -0.0013890263003774883 0.0 0.0
0.012164444175660784 -0.009808555669527319 0.0 -0.0019090281879416693 0.0 0.0
0.0165597477278127 -0.013928702624011136 0.0 -0.0024900090398425057 0.0 0.0
0.0218175266791898 -0.0189095387132856 0.0 -0.0030860881780399307 0.0 0.0
0.028091430132770594 -0.024905009409915246 0.0 -0.003688420460152969 0.0 0.0
0.03559015499700213 -0.03212076756575377 0.0 -0.004379066382868196 0.0 0.0
0.04446819850064449 -0.04070693122651292 0.0 -0.005195786393947105 0.0 0.0
0.054701388073602385 -0.050635179596059565 0.0 -0.006096717480821245 0.0 0.0
0.06596684553007262 -0.06158308068830132 0.0 -0.00694560177677056 0.0 0.0
0.07757078123947025 -0.07286490518595201 0.0 -0.00739022613837742 0.0 0.0
0.08847803837905446 -0.08345867162120602 0.0 -0.007002718338009584 0.0 0.0
0.09736083657666418 -0.0920348375626232 0.0 -0.005699672536938427 0.0 0.0
0.10263837169291501 -0.09709080007956716 0.0 -0.003440082905396491 0.0 0.0
0.10263837169290958 -0.09709080007956183 0.0 0.003440082905409203 0.0 0.0
0.09736083657664908 -0.09203483756260766 0.0 0.005699672536960354 0.0 0.0
0.0884780383790298 -0.08345867162118181 0.0 0.007002718338024738 0.0 0.0
0.07757078123943908 -0.07286490518592315 0.0 0.007390226138386691 0.0 0.0
0.0659668455300379 -0.06158308068826779 0.0 0.006945601776767285 0.0 0.0
0.05470138807356728 -0.05063517959602537 0.0 0.00609671748082119 0.0 0.0
0.044468198500608846 -0.04070693122647673 0.0 0.00519578639394741 0.0 0.0
0.0355901549969653 -0.032120767565721575 0.0 0.004379066382867058 0.0 0.0
0.02809143013273485 -0.024905009409883272 0.0 0.0036884204601487225 0.0 0.0
0.021817526679157123 -0.018909538713253626 0.0 0.0030860881780360727 0.0 0.0
0.016559747727785123 -0.013928702623985822 0.0 0.0024900090398359276 0.0 0.0
0.01216444417563875 -0.009808555669505559 0.0 0.0019090281879391435 0.0 0.0
0.008564132356726706 -0.006483331405159221 0.0 0.001389026300375018 0.0 0.0
0.0057513386789597165 -0.003951367005000206 0.0 0.0009644024594021583 0.0 0.0
0.0037102967113250285 -0.0021942306049692606 0.0 0.0006424672232814566 0.0 0.0
0.00241550531705928 -0.001183842565840032 0.0 0.0004698894481966198 0.0 0.0
0.0018137528225178612 -0.0007903210212356626 0.0 0.00041731748366835575 0.0 0.0
0.0014675633494987683 -0.0005526244713754402 0.0 0.00013458598356105855 0.0 0.0
0.001094143193222763 -0.00048341358131173684 0.0 -0.00018031992222861115 0.0 0.0
0.006134419397685553 -0.007571352794600347 0.0 0.006360881689147141 0.0 0.0
0.004450965831926765 -0.005996526320412282 0.0 -0.005867769356621422 0.0 0.0
0.000649196474459008 -0.0003040285301300627 0.0 -0.000492978178341652 0.0 0.0
0.0011766249594528343 -0.00040623235780518074 0.0 -0.00039704331272458204 0.0 0.0
0.0015950200100214862 -0.0006747582982301603 0.0 -0.0006527875321034049 0.0 0.0
0.0020890837779306247 -0.0009681561408904082 0.0 -0.000738218662624579 0.0 0.0
0.00313513391292947 -0.0017361476130808295 0.0 -0.0009393376502261908 0.0 0.0
0.004928697354257591 -0.0032259023590207603 0.0 -0.0013972427518594566 0.0 0.0
0.007436978559143187 -0.005451579415092889 0.0 -0.0020368545154712814 0.0 0.0
0.01064856551249059 -0.00838864050057686 0.0 -0.0027944930527374068 0.0 0.0
0.014550062884668927 -0.01202625183130479 0.0 -0.0036272823737219517 0.0 0.0
0.01918508855566584 -0.016403084693660253 0.0 -0.004485494133160184 0.0 0.0
0.024687299475035507 -0.02164968745596285 0.0 -0.005353327152874676 0.0 0.0
0.031259290646339206 -0.027963861163586623 0.0 -0.006309546037826769 0.0 0.0
0.0390787201571458 -0.03551758819942874 0.0 -0.00746550511611474 0.0 0.0
0.04814925661743636 -0.04431273064136554 0.0 -0.008782499233527974 0.0 0.0
0.05820588494764312 -0.05408369411728842 0.0 -0.010006311651476418 0.0 0.0
0.06866432266857472 -0.06425087291391907 0.0 -0.010683525403531291 0.0 0.0
0.07860186485302761 -0.07389268101827584 0.0 -0.010267909491509186 0.0 0.0
0.08675737885475539 -0.08177231380742889 0.0 -0.008357467448005862 0.0 0.0
0.0917256356806818 -0.08655231799825414 0.0 -0.004587488468561829 0.0 0.0
0.09172563568067581 -0.0865523179982497 0.0 0.004587488468582701 0.0 0.0
0.0867573788547419 -0.08177231380741423 0.0 0.008357467448036615 0.0 0.0
0.07860186485300608 -0.07389268101825364 0.0 0.010267909491531169 0.0 0.0
0.06866432266854758 -0.06425087291389464 0.0 0.010683525403541672 0.0 0.0
0.058205884947612765 -0.05408369411726155 0.0 0.010006311651472144 0.0 0.0
0.048149256617404934 -0.044312730641336895 0.0 0.008782499233527252 0.0 0.0
0.03907872015711422 -0.03551758819940032 0.0 0.007465505116112603 0.0 0.0
0.031259290646307114 -0.02796386116355798 0.0 0.006309546037824798 0.0 0.0
0.024687299475004115 -0.02164968745593354 0.0 0.005353327152867682 0.0 0.0
0.019185088555636942 -0.016403084693634495 0.0 0.004485494133153689 0.0 0.0
0.014550062884644555 -0.012026251831281698 0.0 0.003627282373712848 0.0 0.0
0.010648565512470731 -0.008388640500559319 0.0 0.002794493052732494 0.0 0.0
0.007436978559127921 -0.005451579415080232 0.0 0.0020368545154661744 0.0 0.0
0.004928697354247086 -0.003225902359009991 0.0 0.0013972427518564867 0.0 0.0
0.0031351339129235822 -0.0017361476130761666 0.0 0.0009393376502228046 0.0 0.0
0.002089083777928241 -0.0009681561408897421 0.0 0.0007382186626225806 0.0 0.0
0.0015950200100205425 -0.0006747582982302158 0.0 0.0006527875321030163 0.0 0.0
0.001176624959452921 -0.00040623235780573586 0.0 0.0003970433127238604 0.0 0.0
0.0006491964744593515 -0.0003040285301294243 0.0 0.0004929781783389042 0.0 0.0
0.004450965831917314 -0.005996526320401145 0.0 0.005867769356603547 0.0 0.0
0.0033022885372150992 -0.004818342302695455 0.0 -0.004977341583598749 0.0 0.0
0.00040695933038087384 -0.00023312330295077732 0.0 -0.0010637459073708222 0.0 0.0
0.0009081536380157185 -0.0002903384477950799 0.0 -0.0007476427928100049 0.0 0.0
0.0013617866907095627 -0.0005585682138771197 0.0 -0.0009068466195449598 0.0 0.0
0.0017975729317387668 -0.0008031599183074833 0.0 -0.001014921950156511 0.0 0.0
0.002607957239361372 -0.0013479768649706791 0.0 -0.001185338092511451 0.0 0.0
0.004106216249078587 -0.002531356674544627 0.0 -0.001692471755612296 0.0 0.0
0.006305121575778241 -0.0044312864439097766 0.0 -0.0024982893020877583 0.0 0.0
0.009120912423258139 -0.0069747996333020534 0.0 -0.0034360826321286897 0.0 0.0
0.012528915710000435 -0.010128416474924906 0.0 -0.004459661227420003 0.0 0.0
0.016549242394790872 -0.013907267343996388 0.0 -0.005506662684452129 0.0 0.0
0.021291712238900355 -0.018414878446703087 0.0 -0.006567746246458173 0.0 0.0
0.026945500307282683 -0.023836158236493876 0.0 -0.007743904128692747 0.0 0.0
0.033694022821194804 -0.03034455295780014 0.0 -0.009119379144028189 0.0 0.0
0.04157445803170942 -0.037979197609851134 0.0 -0.010683471001013883 0.0 0.0
0.05039731443875935 -0.04655010747672983 0.0 -0.012198737240339375 0.0 0.0
0.05969138152110064 -0.05558252548787124 0.0 -0.013111423442534215 0.0 0.0
0.06865797089709588 -0.06428151168451945 0.0 -0.012730978024282247 0.0 0.0
0.07617570296449111 -0.07155064406767409 0.0 -0.010398485025637505 0.0 0.0
0.08097136410214517 -0.07617470936351411 0.0 -0.005539979996235289 0.0 0.0
0.08097136410213919 -0.07617470936350745 0.0 0.005539979996261657 0.0 0.0
0.07617570296447877 -0.07155064406766254 0.0 0.01039848502567342 0.0 0.0
0.06865797089707694 -0.06428151168450191 0.0 0.012730978024306117 0.0 0.0
0.05969138152107702 -0.05558252548785014 0.0 0.013111423442547454 0.0 0.0
0.05039731443873299 -0.046550107476705405 0.0 0.012198737240336044 0.0 0.0
0.041574458031681805 -0.0379791976098236 0.0 0.01068347100101158 0.0 0.0
0.033694022821167346 -0.030344552957771054 0.0 0.009119379144026551 0.0 0.0
0.026945500307255135 -0.02383615823646701 0.0 0.007743904128690415 0.0 0.0
0.02129171223887308 -0.01841487844668066 0.0 0.006567746246448958 0.0 0.0
0.01654924239476588 -0.013907267343975738 0.0 0.00550666268444483 0.0 0.0
0.012528915709979327 -0.0101284164749047 0.0 0.004459661227409761 0.0 0.0
0.009120912423240507 -0.00697479963328429 0.0 0.0034360826321239157 0.0 0.0
0.006305121575765071 -0.004431286443896565 0.0 0.0024982893020827346 0.0 0.0
0.004106216249069816 -0.0025313566745372995 0.0 0.0016924717556087154 0.0 0.0
0.0026079572393568062 -0.0013479768649673485 0.0 0.0011853380925087587 0.0 0.0
0.0017975729317373512 -0.000803159918305929 0.0 0.001014921950154929 0.0 0.0
0.001361786690708966 -0.0005585682138766757 0.0 0.0009068466195442104 0.0 0.0
0.0009081536380157185 -0.000290338447795524 0.0 0.0007476427928093943 0.0 0.0
0.0004069593303809571 -0.000233123302950361 0.0 0.0010637459073684907 0.0 0.0
0.0033022885372071265 -0.004818342302685685 0.0 0.00497734158358526 0.0 0.0
0.0024527208236250694 -0.0038681669648338857 0.0 -0.0040823029699437186 0.0 0.0
0.000268963611219121 -0.00020718694996629816 0.0 -0.0015054386753222126 0.0 0.0
0.0006792755935938061 -0.0002040503655049708 0.0 -0.0011071874285535632 0.0 0.0
0.0011194561519526913 -0.00044334792412281665 0.0 -0.0011756213656525516 0.0 0.0
0.0015219945715659045 -0.000662665388416861 0.0 -0.0012884414030285285 0.0 0.0
0.0021423494952729147 -0.0010387660432391588 0.0 -0.0014327815816156109 0.0 0.0
0.0033184602637319066 -0.001898537106311604 0.0 -0.0018729234849770016 0.0 0.0
0.005169389657623737 -0.0034321178996157276 0.0 -0.002732429499428257 0.0 0.0
0.007590945360586375 -0.0055800123485236774 0.0 -0.0038247448098654713 0.0 0.0
0.010505153356745796 -0.00824713292742607 0.0 -0.004977325518620845 0.0 0.0
0.01391864709152981 -0.011433350288914124 0.0 -0.006152116374557398 0.0 0.0
0.01791302059381407 -0.015213375885653635 0.0 -0.00733451643762803 0.0 0.0
0.022658047514521114 -0.019747851874719613 0.0 -0.008626989613151337 0.0 0.0
0.028334851241260763 -0.025212480987737207 0.0 -0.010152292721045092 0.0 0.0
0.03501160589083422 -0.03167301208798712 0.0 -0.011865055109834405 0.0 0.0
0.042568543973974464 -0.0390079970759043 0.0 -0.013506925834956607 0.0 0.0
0.05065340578354874 -0.04686622320998657 0.0 -0.014600651696801081 0.0 0.0
0.05863445164824958 -0.054613068613560856 0.0 -0.014362197627931172 0.0 0.0
0.06556533091027726 -0.06132087096794692 0.0 -0.011871287602859937 0.0 0.0
0.07027893867691243 -0.06587112111478044 0.0 -0.006345633729893829 0.0 0.0
0.07027893867690738 -0.06587112111477733 0.0 0.006345633729920974 0.0 0.0
0.06556533091026559 -0.0613208709679367 0.0 0.011871287602896408 0.0 0.0
0.05863445164823318 -0.05461306861354087 0.0 0.014362197627957318 0.0 0.0
0.05065340578352848 -0.04686622320996303 0.0 0.01460065169681457 0.0 0.0
0.04256854397395188 -0.03900799707588121 0.0 0.013506925834952777 0.0 0.0
0.03501160589081061 -0.031673012087964025 0.0 0.011865055109831824 0.0 0.0
0.028334851241237566 -0.025212480987715225 0.0 0.010152292721043621 0.0 0.0
0.02265804751449782 -0.01974785187469741 0.0 0.008626989613147562 0.0 0.0
0.017913020593791115 -0.015213375885632985 0.0 0.007334516437618843 0.0 0.0
0.01391864709150871 -0.01143335028889636 0.0 0.006152116374547323 0.0 0.0
0.010505153356727831 -0.008247132927410306 0.0 0.004977325518608133 0.0 0.0
0.0075909453605715466 -0.005580012348510133 0.0 0.0038247448098581716 0.0 0.0
0.0051693896576126 -0.003432117899608622 0.0 0.002732429499421679 0.0 0.0
0.0033184602637249816 -0.0018985371063070522 0.0 0.0018729234849734766 0.0 0.0
0.0021423494952697852 -0.0010387660432383816 0.0 0.001432781581614001 0.0 0.0
0.0015219945715647942 -0.0006626653884167499 0.0 0.0012884414030278901 0.0 0.0
0.0011194561519521362 -0.00044334792412281665 0.0 0.0011756213656504422 0.0 0.0
0.0006792755935937367 -0.00020405036550530387 0.0 0.001107187428551426 0.0 0.0
0.0002689636112190308 -0.00020718694996585407 0.0 0.0015054386753199644 0.0 0.0
0.002452720823618526 -0.003868166964826017 0.0 0.004082302969933033 0.0 0.0
0.0018046589189674653 -0.0030833605662065056 0.0 -0.003313345229055492 0.0 0.0
0.00018141768478441983 -0.00019775531065135965 0.0 -0.0018300789669982442 0.0 0.0
0.00048476174889026946 -0.00013833610776220473 0.0 -0.0014326448263634328 0.0 0.0
0.0008762018664895468 -0.0003304244759346764 0.0 -0.001437009516956439 0.0 0.0
0.00124755300945531 -0.000533757395446699 0.0 -0.0015522215414969787 0.0 0.0
0.0017232679149391042 -0.0008004785596728015 0.0 -0.0016932919042315642 0.0 0.0
0.002602314079446978 -0.0013754162031959227 0.0 -0.0020451056800964706 0.0 0.0
0.004057902172468514 -0.0025027424344739035 0.0 -0.0028044218203009397 0.0 0.0
0.006061477655945308 -0.0042148600411437975 0.0 -0.003920574982905628 0.0 0.0
0.008488712364424306 -0.006398082089078105 0.0 -0.005165450794029275 0.0 0.0
0.01130017058413716 -0.008995608706105607 0.0 -0.00640154457259523 0.0 0.0
0.0145600331041544 -0.012057644593646666 0.0 -0.007639704874344594 0.0 0.0
0.018410291736263608 -0.015718507267765025 0.0 -0.00898123859651162 0.0 0.0
0.023018870001669037 -0.020140431908392653 0.0 -0.010525304459287399 0.0 0.0
0.028483870879655072 -0.025418267984674836 0.0 -0.012269517504511412 0.0 0.0
0.03475032898247867 -0.031495054495149555 0.0 -0.013979773119592753 0.0 0.0
0.041573547951199344 -0.03812654399456705 0.0 -0.01515575937650726 0.0 0.0
0.048514458993597215 -0.044872514071810254 0.0 -0.01508031421756284 0.0 0.0
0.054860057478664195 -0.05102313154962923 0.0 -0.01273591896702364 0.0 0.0
0.05955542835444462 -0.05555795702206545 0.0 -0.007014769543920496 0.0 0.0
0.05955542835444044 -0.05555795702206101 0.0 0.007014769543946697 0.0 0.0
0.054860057478653745 -0.05102313154962079 0.0 0.012735918967059112 0.0 0.0
0.04851445899358339 -0.044872514071795155 0.0 0.01508031421758943 0.0 0.0
0.04157354795118226 -0.03812654399455018 0.0 0.015155759376519085 0.0 0.0
0.034750328982459944 -0.03149505449513401 0.0 0.013979773119589978 0.0 0.0
0.02848387087963533 -0.02541826798465663 0.0 0.012269517504506278 0.0 0.0
0.023018870001649983 -0.020140431908376444 0.0 0.01052530445928429 0.0 0.0
0.01841029173624492 -0.015718507267749704 0.0 0.008981238596507346 0.0 0.0
0.014560033104135825 -0.012057644593630013 0.0 0.007639704874335851 0.0 0.0
0.01130017058412 -0.00899560870609184 0.0 0.006401544572585405 0.0 0.0
0.008488712364409304 -0.0063980820890685575 0.0 0.005165450794017923 0.0 0.0
0.006061477655933414 -0.004214860041134694 0.0 0.003920574982897496 0.0 0.0
0.004057902172459729 -0.002502742434466465 0.0 0.0028044218202949167 0.0 0.0
0.0026023140794418365 -0.0013754162031914818 0.0 0.00204510568009314 0.0 0.0
0.0017232679149370156 -0.0008004785596725794 0.0 0.0016932919042290107 0.0 0.0
0.001247553009454394 -0.000533757395447032 0.0 0.001552221541495813 0.0 0.0
0.0008762018664890125 -0.00033042447593445434 0.0 0.0014370095169542463 0.0 0.0
0.0004847617488901307 -0.00013833610776187166 0.0 0.0014326448263612124 0.0 0.0
0.000181417684784288 -0.00019775531065080454 0.0 0.001830078966994969 0.0 0.0
0.0018046589189621987 -0.0030833605661999847 0.0 0.0033133452290474985 0.0 0.0
0.0013065309854615459 -0.0024304780497423906 0.0 -0.0026940140247252164 0.0 0.0
0.00011602979267760771 -0.0001960986890562899 0.0 -0.002056288578228982 0.0 0.0
0.000313943770177072 -8.308335043211157e-05 0.0 -0.0017050097495939498 0.0 0.0
0.0006383370983623834 -0.00022138899178825167 0.0 -0.0016759067002776462 0.0 0.0
0.0009645752793835741 -0.00040550555192864213 0.0 -0.0017945887750499268 0.0 0.0
0.0013358316558796518 -0.0005991674926026924 0.0 -0.0019264931706111377 0.0 0.0
0.0019559709092051916 -0.000954535393863476 0.0 -0.0021962932343324304 0.0 0.0
0.003018680805158401 -0.0016961993287902821 0.0 -0.0027932919544524926 0.0 0.0
0.0045568119517755135 -0.0029281468629580587 0.0 -0.003760110559809543 0.0 0.0
0.006484193533411391 -0.004599306316527274 0.0 -0.004978180586242997 0.0 0.0
0.008700734655695326 -0.006611396942992842 0.0 -0.006238893789758976 0.0 0.0
0.011239809331183022 -0.008965272968077587 0.0 -0.007470456405381354 0.0 0.0
0.014212384808448442 -0.01176710711967055 0.0 -0.008776115100271875 0.0 0.0
0.01776824576800741 -0.015159457278260291 0.0 -0.010257657260777153 0.0 0.0
0.022014043319178847 -0.019248580335342602 0.0 -0.011911423784193187 0.0 0.0
0.02696558322245969 -0.02403860573465777 0.0 -0.0135470400940092 0.0 0.0
0.03247832999265669 -0.02939530011278202 0.0 -0.014758906247019421 0.0 0.0
0.0382956385381006 -0.035063137421920576 0.0 -0.014893808013041965 0.0 0.0
0.043989523549693585 -0.04059784565612068 0.0 -0.012951927723291734 0.0 0.0
0.04869783998767352 -0.04514399654585066 0.0 -0.007536528083755378 0.0 0.0
0.04869783998767016 -0.04514399654584755 0.0 0.007536528083779026 0.0 0.0
0.043989523549685244 -0.04059784565611313 0.0 0.01295192772332765 0.0 0.0
0.03829563853808911 -0.03506313742190814 0.0 0.014893808013068999 0.0 0.0
0.03247832999264266 -0.029395300112768696 0.0 0.014758906247028691 0.0 0.0
0.026965583222445008 -0.024038605734645335 0.0 0.01354704009400498 0.0 0.0
0.022014043319163054 -0.019248580335327947 0.0 0.011911423784187136 0.0 0.0
0.017768245767992713 -0.01515945727824608 0.0 0.010257657260773823 0.0 0.0
0.014212384808434328 -0.011767107119657894 0.0 0.008776115100269155 0.0 0.0
0.011239809331168887 -0.008965272968064042 0.0 0.007470456405373249 0.0 0.0
0.008700734655682163 -0.006611396942980408 0.0 0.0062388937897491226 0.0 0.0
0.006484193533399463 -0.00459930631651706 0.0 0.0049781805862313955 0.0 0.0
0.004556811951766701 -0.002928146862948955 0.0 0.003760110559802299 0.0 0.0
0.0030186808051520103 -0.001696199328785064 0.0 0.0027932919544478574 0.0 0.0
0.001955970909201757 -0.0009545353938612555 0.0 0.0021962932343292663 0.0 0.0
0.0013358316558783334 -0.0005991674926018042 0.0 0.0019264931706086674 0.0 0.0
0.000964575279383012 -0.00040550555192875315 0.0 0.0017945887750483447 0.0 0.0
0.0006383370983620573 -0.00022138899178869575 0.0 0.0016759067002753147 0.0 0.0
0.00031394377017676667 -8.308335043238912e-05 0.0 0.001705009749591757 0.0 0.0
0.00011602979267737179 -0.00019609868905612338 0.0 0.002056288578226456 0.0 0.0
0.0013065309854578544 -0.0024304780497374553 0.0 0.0026940140247199706 0.0 0.0
0.0009322731774994708 -0.0019065234853382074 0.0 -0.00223453843067134 0.0 0.0
5.400092233323606e-05 -0.0001946082571150365 0.0 -0.0021914509160800844 0.0 0.0
0.00015879772178492568 -3.100364656843935e-05 0.0 -0.0019231038090363195 0.0 0.0
0.00040834375077665463 -0.00011819149703062859 0.0 -0.0018793197522615213 0.0 0.0
0.000672886551688387 -0.0002703548711279202 0.0 -0.001993825907183888 0.0 0.0
0.0009578826964562609 -0.00042376991077952564 0.0 -0.0021567879076484775 0.0 0.0
0.001371570482709722 -0.0006313762261932476 0.0 -0.0023693395832621866 0.0 0.0
0.0020707011295770655 -0.001039721385021064 0.0 -0.002750889782913518 0.0 0.0
0.003126035542482475 -0.0017916846412329157 0.0 -0.0034487913655630864 0.0 0.0
0.004512247323031612 -0.002908050199644352 0.0 -0.00445402979374887 0.0 0.0
0.006129068353805542 -0.004313957420699843 0.0 -0.005608971448852529 0.0 0.0
0.007956740403132281 -0.005966831470377798 0.0 -0.00677597872352681 0.0 0.0
0.010073416168691326 -0.007924995851333883 0.0 -0.007994603397682543 0.0 0.0
0.012594859411977771 -0.010302865231348157 0.0 -0.009322950858685064 0.0 0.0
0.0156299780709504 -0.013204558174614744 0.0 -0.0107794970823753 0.0 0.0
0.019239596456029795 -0.016686511566265994 0.0 -0.012242587427885698 0.0 0.0
0.0233956861723566 -0.020713820038934738 0.0 -0.013360670210590397 0.0 0.0
0.027987483359915064 -0.025198485083279376 0.0 -0.013663369089199628 0.0 0.0
0.03288493298205314 -0.029996556346183034 0.0 -0.012404386451641658 0.0 0.0
0.03758481503394977 -0.03453759796868461 0.0 -0.007886878679798981 0.0 0.0
0.03758481503394749 -0.03453759796868017 0.0 0.00788687867981952 0.0 0.0
0.03288493298204688 -0.029996556346175485 0.0 0.012404386451672578 0.0 0.0
0.027987483359906043 -0.025198485083271827 0.0 0.013663369089221777 0.0 0.0
0.023395686172345803 -0.020713820038926523 0.0 0.013360670210596393 0.0 0.0
0.01923959645601933 -0.016686511566258 0.0 0.012242587427881313 0.0 0.0
0.01562997807093912 -0.013204558174604308 0.0 0.010779497082369971 0.0 0.0
0.012594859411967516 -0.010302865231338387 0.0 0.009322950858682566 0.0 0.0
0.010073416168681834 -0.007924995851326777 0.0 0.007994603397679934 0.0 0.0
0.007956740403122595 -0.005966831470371581 0.0 0.0067759787235203706 0.0 0.0
0.006129068353796327 -0.004313957420691628 0.0 0.005608971448844535 0.0 0.0
0.004512247323023258 -0.0029080501996374686 0.0 0.004454029793739489 0.0 0.0
0.0031260355424767294 -0.001791684641228919 0.0 0.003448791365558812 0.0 0.0
0.0020707011295729577 -0.001039721385020509 0.0 0.0027508897829119916 0.0 0.0
0.0013715704827075986 -0.0006313762261933586 0.0 0.002369339583259633 0.0 0.0
0.0009578826964554699 -0.00042376991078008075 0.0 0.0021567879076460073 0.0 0.0
0.0006728865516880678 -0.0002703548711278092 0.0 0.0019938259071811126 0.0 0.0
0.0004083437507763771 -0.00011819149703007348 0.0 0.0018793197522586902 0.0 0.0
0.00015879772178477303 -3.100364656760668e-05 0.0 0.0019231038090330443 0.0 0.0
5.40009223329585e-05 -0.0001946082571148422 0.0 0.002191450916077864 0.0 0.0
0.0009322731774972087 -0.0019065234853348264 0.0 0.0022345384306679816 0.0 0.0
0.0006662723635237205 -0.0015191785604290742 0.0 -0.0019453586031414616 0.0 0.0
-1.0751866024866219e-05 -0.00019088814587747693 0.0 -0.002277135042472206 0.0 0.0
1.46248772160823e-05 2.1278350608777696e-05 0.0 -0.002084752174752069 0.0 0.0
0.00018660794656448487 -2.0551459283701945e-05 0.0 -0.0020385585845888454 0.0 0.0
0.0003771735217002331 -0.00013158139635682797 0.0 -0.0021417157704063383 0.0 0.0
0.0005706480602382796 -0.00024483071723224725 0.0 -0.002329019030811008 0.0 0.0
0.0008218123835675717 -0.00037185682428042544 0.0 -0.0025661998683753073 0.0 0.0
0.0012115941969611937 -0.000560220946312695 0.0 -0.0028126088650116676 0.0 0.0
0.0018108231949544862 -0.0008905973416535318 0.0 -0.003148092710483441 0.0 0.0
0.002622821395703176 -0.0014377479944787108 0.0 -0.003733610593937342 0.0 0.0
0.003611542953711272 -0.002201755943117334 0.0 -0.004572111770279774 0.0 0.0
0.004718008735308948 -0.0031374263538674896 0.0 -0.005537174405091105 0.0 0.0
0.005993651089598526 -0.004259841243433593 0.0 -0.006612577966102318 0.0 0.0
0.007507356723302244 -0.0056409605759399906 0.0 -0.007752020676858928 0.0 0.0
0.009342737349919222 -0.007362172040192405 0.0 -0.008957832998928883 0.0 0.0
0.011592881113263342 -0.009511633951194032 0.0 -0.010178605349879966 0.0 0.0
0.014344530800493402 -0.012165280700996206 0.0 -0.011198283164821077 0.0 0.0
0.01764136153461862 -0.01536292715816856 0.0 -0.011550710520642993 0.0 0.0
0.02151468628282538 -0.019209534368206604 0.0 -0.010917369579343361 0.0 0.0
0.026047897582639715 -0.023624654602421025 0.0 -0.007932590322565491 0.0 0.0
0.026047897582638785 -0.023624654602421913 0.0 0.007932590322583422 0.0 0.0
0.021514686282821174 -0.019209534368205272 0.0 0.010917369579370728 0.0 0.0
0.017641361534612474 -0.015362927158163675 0.0 0.0115507105206617 0.0 0.0
0.014344530800486394 -0.012165280700989323 0.0 0.011198283164824407 0.0 0.0
0.011592881113257153 -0.009511633951187148 0.0 0.010178605349875636 0.0 0.0
0.00934273734991281 -0.007362172040187076 0.0 0.00895783299892311 0.0 0.0
0.0075073567232964294 -0.005640960575936438 0.0 0.007752020676855986 0.0 0.0
0.005993651089593766 -0.004259841243430262 0.0 0.006612577966101818 0.0 0.0
0.004718008735303689 -0.0031374263538626046 0.0 0.005537174405085721 0.0 0.0
0.0036115429537062343 -0.002201755943112227 0.0 0.00457211177027228 0.0 0.0
0.0026228213956984853 -0.0014377479944762683 0.0 0.0037336105939297926 0.0 0.0
0.001810823194951558 -0.0008905973416513113 0.0 0.0031480927104803325 0.0 0.0
0.0012115941969591953 -0.000560220946312362 0.0 0.002812608865010252 0.0 0.0
0.000821812383566406 -0.00037185682428053646 0.0 0.002566199868372504 0.0 0.0
0.0005706480602378494 -0.00024483071723280236 0.0 0.002329019030808205 0.0 0.0
0.00037717352170014984 -0.0001315813963574941 0.0 0.002141715770404007 0.0 0.0
0.00018660794656441548 -2.055145928386848e-05 0.0 0.0020385585845863474 0.0 0.0
1.4624877216026788e-05 2.1278350608722185e-05 0.0 0.002084752174749571 0.0 0.0
-1.0751866024949486e-05 -0.0001908881458771161 0.0 0.002277135042469902 0.0 0.0
0.000666272363522416 -0.0015191785604268954 0.0 0.0019453586031388248 0.0 0.0
0.0004815624653464745 -0.0012296630090254945 0.0 -0.0017471858311122468 0.0 0.0
-7.223703840918139e-05 -0.00018089600533299777 0.0 -0.002320128244756414 0.0 0.0
-0.00012089969688622304 7.220636625349108e-05 0.0 -0.002193909308105313 0.0 0.0
-2.7187449630969307e-05 7.279527198333913e-05 0.0 -0.0021468034561488714 0.0 0.0
8.158309045226686e-05 6.6417794168938116e-06 0.0 -0.0022335542093652183 0.0 0.0
0.00017522495964167328 -6.037482721865661e-05 0.0 -0.0024259214338692714 0.0 0.0
0.00027173982598413526 -0.00011937725211441652 0.0 -0.0026937757058696776 0.0 0.0
0.00040135923247934524 -0.0001828018613567739 0.0 -0.002941764226076088 0.0 0.0
0.0005938472174498999 -0.0002745228778799902 0.0 -0.0031545488595898785 0.0 0.0
0.000853285411533386 -0.000406215431883572 0.0 -0.003393446220214591 0.0 0.0
0.0011860062120996606 -0.0005848296009407505 0.0 -0.003787253750915931 0.0 0.0
0.0015540453976683466 -0.000816603176330366 0.0 -0.004361715578561298 0.0 0.0
0.001978214212733989 -0.0011076438021238033 0.0 -0.005133983200268144 0.0 0.0
0.0024828193021025208 -0.0014792115197845845 0.0 -0.006097537949462051 0.0 0.0
0.0031161161909725454 -0.001994310378541142 0.0 -0.007252248429864827 0.0 0.0
0.003994699379948896 -0.002772376440860702 0.0 -0.00851115465063812 0.0 0.0
0.005313447678556404 -0.003993480271740069 0.0 -0.009621576066215332 0.0 0.0
0.0073049282704267665 -0.0058606788376853736 0.0 -0.010086332310686785 0.0 0.0
0.01006092607690455 -0.00850565228264788 0.0 -0.009438824496325993 0.0 0.0
0.01392577665133439 -0.012444946465189233 0.0 -0.007823588916774038 0.0 0.0
0.013925776651334557 -0.012444946465190121 0.0 0.00782358891678675 0.0 0.0
0.01006092607690244 -0.008505652282648324 0.0 0.009438824496348586 0.0 0.0
0.007304928270423616 -0.005860678837684263 0.0 0.010086332310699997 0.0 0.0
0.005313447678554115 -0.0039934802717396245 0.0 0.009621576066215665 0.0 0.0
0.003994699379947453 -0.0027723764408589258 0.0 0.008511154650632624 0.0 0.0
0.0031161161909709634 -0.001994310378541364 0.0 0.007252248429860664 0.0 0.0
0.002482819302101258 -0.0014792115197834743 0.0 0.006097537949459497 0.0 0.0
0.0019782142127336283 -0.0011076438021240254 0.0 0.0051339832002672 0.0 0.0
0.0015540453976677776 -0.000816603176329922 0.0 0.004361715578556358 0.0 0.0
0.0011860062120988696 -0.0005848296009387521 0.0 0.003787253750910935 0.0 0.0
0.0008532854115324978 -0.00040621543188334996 0.0 0.0033934462202100946 0.0 0.0
0.0005938472174496501 -0.00027452287787976815 0.0 0.0031545488595889903 0.0 0.0
0.0004013592324789289 -0.0001828018613562188 0.0 0.0029417642260736454 0.0 0.0
0.0002717398259839271 -0.00011937725211375039 0.0 0.0026937757058660694 0.0 0.0
0.00017522495964171492 -6.0374827217879456e-05 0.0 0.002425921433865774 0.0 0.0
8.158309045254442e-05 6.6417794163387e-06 0.0 0.0022335542093628036 0.0 0.0
-2.7187449630775018e-05 7.279527198206237e-05 0.0 0.0021468034561470117 0.0 0.0
-0.00012089969688622304 7.220636625371313e-05 0.0 0.0021939093081033145 0.0 0.0
-7.223703840919526e-05 -0.0001808960053331088 0.0 0.0023201282447546934 0.0 0.0
0.00048156246534576674 -0.0012296630090243843 0.0 0.0017471858311102206 0.0 0.0
0.0003524088484156973 -0.0010045408085682106 0.0 -0.001594140571854058 0.0 0.0
-0.0001282549461447402 -0.00015947420407763646 0.0 -0.0023118219621872937 0.0 0.0
-0.0002478170881162062 0.00011985851933560276 0.0 -0.002251438935638894 0.0 0.0
-0.00023329833038772396 0.0001620476616128741 0.0 -0.0022008226257831665 0.0 0.0
-0.0002103550692368339 0.0001420218591451361 0.0 -0.002264113557188696 0.0 0.0
-0.0002214829488005332 0.00012482216362641463 0.0 -0.002436745945410046 0.0 0.0
-0.0002831252812924012 0.00013630437216205493 0.0 -0.0026957038601186367 0.0 0.0
-0.000401675234918214 0.00018467678778555374 0.0 -0.0029433364643474957 0.0 0.0
-0.0005920531197202844 0.0002734094303789014 0.0 -0.003154421578213329 0.0 0.0
-0.0008516527939451818 0.00040475876676815403 0.0 -0.003392065127158339 0.0 0.0
-0.0011850198786234473 0.0005850820531836387 0.0 -0.0037847448875606426 0.0 0.0
-0.0015607902590335648 0.0008238115549812353 0.0 -0.004359535657533886 0.0 0.0
-0.0020012326769793115 0.0011262669361991051 0.0 -0.005130575258765591 0.0 0.0
-0.0025221486310951086 0.0015038396044639857 0.0 -0.006097833691236065 0.0 0.0
-0.0030993055581527845 0.00194462625306846 0.0 -0.007271501908082845 0.0 0.0
-0.003607699227888228 0.0023409733396642096 0.0 -0.00862306873574098 0.0 0.0
-0.0037733106472446903 0.0024601579861331935 0.0 -0.010140445950339194 0.0 0.0
-0.0032114265842819734 0.0020039502627655637 0.0 -0.01178002478440704 0.0 0.0
-0.0015989277296174914 0.0008843729582146409 0.0 -0.01306295032987953 0.0 0.0
0.001991385203307633 -0.002375776847217459 0.0 -0.011103853570146038 0.0 0.0
0.0019913852033072166 -0.002375776847217015 0.0 0.011103853570159139 0.0 0.0
-0.0015989277296182686 0.0008843729582159732 0.0 0.01306295032989424 0.0 0.0
-0.0032114265842812656 0.002003950262762011 0.0 0.011780024784412368 0.0 0.0
-0.003773310647241304 0.002460157986130973 0.0 0.010140445950335863 0.0 0.0
-0.00360769922788437 0.0023409733396637655 0.0 0.008623068735734207 0.0 0.0
-0.003099305558149648 0.0019446262530669056 0.0 0.007271501908078459 0.0 0.0
-0.002522148631091986 0.0015038396044597668 0.0 0.006097833691232457 0.0 0.0
-0.0020012326769751343 0.0011262669361973288 0.0 0.005130575258763981 0.0 0.0
-0.001560790259029235 0.0008238115549783487 0.0 0.004359535657529001 0.0 0.0
-0.0011850198786196864 0.0005850820531796419 0.0 0.003784744887555924 0.0 0.0
-0.0008516527939422813 0.00040475876676415723 0.0 0.003392065127153454 0.0 0.0
-0.000592053119718175 0.0002734094303757928 0.0 0.0031544215782126073 0.0 0.0
-0.00040167523491725643 0.00018467678778510965 0.0 0.0029433364643462467 0.0 0.0
-0.00028312528129158243 0.0001363043721629431 0.0 0.0026957038601162775 0.0 0.0
-0.00022148294879993646 0.00012482216362708076 0.0 0.002436745945406993 0.0 0.0
-0.0002103550692362094 0.00014202185914646837 0.0 0.002264113557186309 0.0 0.0
-0.00023329833038740477 0.0001620476616128741 0.0 0.0022008226257810293 0.0 0.0
-0.0002478170881160674 0.0001198585193347701 0.0 0.002251438935636063 0.0 0.0
-0.00012825494614472632 -0.0001594742040783026 0.0 0.0023118219621860447 0.0 0.0
0.000352408848415281 -0.0010045408085672218 0.0 0.0015941405718519486 0.0 0.0
0.00025641435928640266 -0.0008045001314387623 0.0 -0.0014327112153189325 0.0 0.0
-0.0001797996367789434 -0.00012973957287426563 0.0 -0.0022537430228679878 0.0 0.0
-0.00036640647457346354 0.00016521967491878176 0.0 -0.0022544338514625673 0.0 0.0
-0.0004314437590446779 0.0002463403242635165 0.0 -0.0021991993259182774 0.0 0.0
-0.0004956706051413018 0.0002727412744049085 0.0 -0.0022320256184423237 0.0 0.0
-0.0006137443366328321 0.00030663702231525924 0.0 -0.0023726174481245588 0.0 0.0
-0.0008326633806057249 0.00038826546184667077 0.0 -0.00258059875270808 0.0 0.0
-0.0012117140994706982 0.0005619477851526167 0.0 -0.002815722654403524 0.0 0.0
-0.0018086176634544843 0.000888962999612275 0.0 -0.0031473166436176148 0.0 0.0
-0.0026209395400095536 0.001436407851435284 0.0 -0.0037317071801483137 0.0 0.0
-0.003611278014196362 0.0022028999976047015 0.0 -0.004570876470448626 0.0 0.0
-0.004723885544323972 0.003145537744871474 0.0 -0.005532315917609332 0.0 0.0
-0.006014666456778922 0.004282942344689067 0.0 -0.00659482079800594 0.0 0.0
-0.007546735497770157 0.005672758756689156 0.0 -0.0077310178338634294 0.0 0.0
-0.009332186990277977 0.007315987826485459 0.0 -0.009016746418417876 0.0 0.0
-0.011243955433684602 0.009085793427364708 0.0 -0.010554535573910284 0.0 0.0
-0.012951739830917214 0.010655795196147011 0.0 -0.012392748622156224 0.0 0.0
-0.01392614940830783 0.011515911676197366 0.0 -0.014418673556903516 0.0 0.0
-0.01329983670815535 0.010621973988354405 0.0 -0.015292486978673026 0.0 0.0
-0.009316279917559914 0.006548591759554245 0.0 -0.012959665677823029 0.0 0.0
-0.009316279917560982 0.006548591759552469 0.0 0.01295966567783996 0.0 0.0
-0.013299836708154933 0.010621973988350408 0.0 0.015292486978696396 0.0 0.0
-0.013926149408303445 0.01151591167619137 0.0 0.014418673556918948 0.0 0.0
-0.012951739830908512 0.01065579519614035 0.0 0.012392748622157113 0.0 0.0
-0.011243955433675623 0.009085793427359379 0.0 0.010554535573903567 0.0 0.0
-0.009332186990269997 0.007315987826482129 0.0 0.009016746418411381 0.0 0.0
-0.007546735497762705 0.0056727587566827165 0.0 0.007731017833857878 0.0 0.0
-0.006014666456770207 0.004282942344679519 0.0 0.00659482079800211 0.0 0.0
-0.0047238855443149375 0.003145537744863036 0.0 0.005532315917601505 0.0 0.0
-0.003611278014187841 0.002202899997598484 0.0 0.004570876470440133 0.0 0.0
-0.0026209395400027813 0.0014364078514308432 0.0 0.00373170718014032 0.0 0.0
-0.0018086176634497242 0.0008889629996107207 0.0 0.0031473166436158384 0.0 0.0
-0.0012117140994680614 0.0005619477851520616 0.0 0.002815722654401609 0.0 0.0
-0.0008326633806039208 0.0003882654618472259 0.0 0.0025805987527050545 0.0 0.0
-0.0006137443366316803 0.0003066370223165915 0.0 0.0023726174481203954 0.0 0.0
-0.0004956706051404136 0.0002727412744049085 0.0 0.0022320256184394094 0.0 0.0
-0.0004314437590443587 0.0002463403242626838 0.0 0.0021991993259160014 0.0 0.0
-0.00036640647457301945 0.00016521967491789358 0.0 0.002254433851459847 0.0 0.0
-0.00017979963677884625 -0.00012973957287393256 0.0 0.002253743022865795 0.0 0.0
0.00025641435928604184 -0.0008045001314377145 0.0 0.001432711215317295 0.0 0.0
0.00017532821691723655 -0.0006226643166863666 0.0 -0.0012670912768777964 0.0 0.0
-0.00022861534366588887 -9.204257323708331e-05 0.0 -0.002143459104074402 0.0 0.0
-0.00047763106739928674 0.00020862976488145168 0.0 -0.002202286686104782 0.0 0.0
-0.0006211294557074282 0.00032566590911620175 0.0 -0.002140900798631079 0.0 0.0
-0.00077237470650518 0.0003961212659628899 0.0 -0.002137937321646577 0.0 0.0
-0.0009949975196808514 0.0004798772896239534 0.0 -0.0022222818024924818 0.0 0.0
-0.0013809347926962284 0.0006475368864103936 0.0 -0.002389936784142538 0.0 0.0
-0.002069832887383591 0.001040457258486116 0.0 -0.0027554610104708888 0.0 0.0
-0.003123292420181001 0.0017890672318721101 0.0 -0.00344498908955132 0.0 0.0
-0.0045109906561929675 0.002906878801325119 0.0 -0.004451279159991606 0.0 0.0
-0.006129716153082998 0.004315417127200849 0.0 -0.005608139401289514 0.0 0.0
-0.007960381382684775 0.005972730323464237 0.0 -0.00676798133764378 0.0 0.0
-0.010087528300825432 0.007942247003734693 0.0 -0.007956240700167316 0.0 0.0
-0.012626841435297964 0.010330832185269978 0.0 -0.009247630027844345 0.0 0.0
-0.015632697515180927 0.013179743206869876 0.0 -0.010791957260404494 0.0 0.0
-0.018979761033026496 0.01635914627169921 0.0 -0.012799370286321665 0.0 0.0
-0.022262062117646572 0.019465887417606798 0.0 -0.015442743240172696 0.0 0.0
-0.024679575019680697 0.021649914931834324 0.0 -0.018293949027757328 0.0 0.0
-0.024734138958883142 0.02140816201773621 0.0 -0.019785330005800683 0.0 0.0
-0.02003616172990537 0.01620957488121144 0.0 -0.0166526758576222 0.0 0.0
-0.020036161729905327 0.01620957488120922 0.0 0.016652675857640742 0.0 0.0
-0.024734138958881144 0.021408162017737098 0.0 0.019785330005826662 0.0 0.0
-0.02467957501967323 0.021649914931829883 0.0 0.018293949027775425 0.0 0.0
-0.02226206211763382 0.01946588741759636 0.0 0.01544274324017525 0.0 0.0
-0.018979761033012618 0.016359146271682112 0.0 0.012799370286315559 0.0 0.0
-0.015632697515168534 0.013179743206854333 0.0 0.010791957260399165 0.0 0.0
-0.01262684143528614 0.010330832185258876 0.0 0.009247630027837461 0.0 0.0
-0.010087528300812262 0.00794224700372248 0.0 0.00795624070016232 0.0 0.0
-0.007960381382671258 0.0059727303234518025 0.0 0.0067679813376345654 0.0 0.0
-0.006129716153069967 0.0043154171271879704 0.0 0.005608139401278578 0.0 0.0
-0.004510990656182323 0.002906878801314239 0.0 0.004451279159980948 0.0 0.0
-0.003123292420173271 0.0017890672318656708 0.0 0.0034449890895464907 0.0 0.0
-0.002069832887379011 0.0010404572584826743 0.0 0.0027554610104683075 0.0 0.0
-0.0013809347926932655 0.0006475368864097275 0.0 0.002389936784140345 0.0 0.0
-0.0009949975196791722 0.000479877289622177 0.0 0.0022222818024910385 0.0 0.0
-0.0007723747065039588 0.00039612126596177966 0.0 0.0021379373216445507 0.0 0.0
-0.0006211294557068661 0.0003256659091159242 0.0 0.0021409007986289696 0.0 0.0
-0.0004776310673987594 0.00020862976488128515 0.0 0.0022022866861030332 0.0 0.0
-0.000228615343665646 -9.204257323713882e-05 0.0 0.002143459104072626 0.0 0.0
0.00017532821691703532 -0.000622664316685808 0.0 0.0012670912768760756 0.0 0.0
0.00010310262768441214 -0.0004585044390263415 0.0 -0.001099089608238013 0.0 0.0
-0.000277054057336551 -4.762183117784646e-05 0.0 -0.001985033267251135 0.0 0.0
-0.0005825662874972132 0.0002510159471496576 0.0 -0.002095182832932585 0.0 0.0
-0.0008023605138566536 0.00039907260976146386 0.0 -0.002027771087042496 0.0 0.0
-0.0010366894579475067 0.0005098478693984498 0.0 -0.001976713270445879 0.0 0.0
-0.0013657529344602987 0.0006484290879720245 0.0 -0.0020107892601642363 0.0 0.0
-0.001962412380369885 0.0009690623794956776 0.0 -0.0022251735835056574 0.0 0.0
-0.003016278460872046 0.0016950109563667048 0.0 -0.002793887260412714 0.0 0.0
-0.004554299845604112 0.0029252774510033497 0.0 -0.003754403633253911 0.0 0.0
-0.0064841844132763615 0.004599149756427501 0.0 -0.0049758011815626 0.0 0.0
-0.008702122287171224 0.006613324906570073 0.0 -0.006239106329899213 0.0 0.0
-0.011240472727956127 0.00896743492899632 0.0 -0.007461698918337034 0.0 0.0
-0.014213557908561728 0.011771239205975004 0.0 -0.00872314072952829 0.0 0.0
-0.017778676389849465 0.015170207476835618 0.0 -0.01012561283769814 0.0 0.0
-0.022025244904791838 0.01924530423463211 0.0 -0.011837168793504882 0.0 0.0
-0.026848464450741058 0.023874129798807875 0.0 -0.014168610481016197 0.0 0.0
-0.03172805391787881 0.02851808851146065 0.0 -0.017349677687432674 0.0 0.0
-0.03547460630213657 0.03196280592951384 0.0 -0.020914756991527617 0.0 0.0
-0.036002282019199805 0.03208941329644288 0.0 -0.02302123397389705 0.0 0.0
-0.03000075393025231 0.02551237512336524 0.0 -0.020220929456950643 0.0 0.0
-0.030000753930251103 0.025512375123363462 0.0 0.020220929456974845 0.0 0.0
-0.03600228201919581 0.032089413296435776 0.0 0.02302123397392647 0.0 0.0
-0.035474606302126066 0.031962805929505844 0.0 0.020914756991549932 0.0 0.0
-0.03172805391786239 0.02851808851144555 0.0 0.017349677687438114 0.0 0.0
-0.026848464450722948 0.023874129798791888 0.0 0.014168610481010202 0.0 0.0
-0.022025244904775455 0.019245304234617233 0.0 0.011837168793499192 0.0 0.0
-0.017778676389832937 0.01517020747681852 0.0 0.010125612837690201 0.0 0.0
-0.014213557908544332 0.01177123920595724 0.0 0.008723140729522821 0.0 0.0
-0.011240472727938225 0.008967434928979445 0.0 0.0074616989183275695 0.0 0.0
-0.008702122287153995 0.00661332490655453 0.0 0.006239106329886723 0.0 0.0
-0.00648418441326204 0.00459914975641551 0.0 0.004975801181549139 0.0 0.0
-0.004554299845593281 0.00292527745099469 0.0 0.003754403633246639 0.0 0.0
-0.003016278460864906 0.0016950109563611537 0.0 0.0027938872604084952 0.0 0.0
-0.001962412380365444 0.0009690623794919029 0.0 0.0022251735835024655 0.0 0.0
-0.0013657529344582725 0.0006484290879704702 0.0 0.0020107892601621824 0.0 0.0
-0.0010366894579461675 0.0005098478693973396 0.0 0.0019767132704439083 0.0 0.0
-0.0008023605138557932 0.00039907260975996506 0.0 0.002027771087040303 0.0 0.0
-0.0005825662874966511 0.0002510159471486584 0.0 0.0020951828329309474 0.0 0.0
-0.0002770540573361485 -4.7621831177763196e-05 0.0 0.0019850332672491644 0.0 0.0
0.0001031026276842803 -0.00045850443902595815 0.0 0.001099089608236653 0.0 0.0
3.854780980606931e-05 -0.00031314627402329043 0.0 -0.0009273900944713753 0.0 0.0
-0.00032595670872491433 1.6008260234623428e-06 0.0 -0.0017838881929094774 0.0 0.0
-0.0006822688204535937 0.0002926807555856392 0.0 -0.0019342097301711658 0.0 0.0
-0.0009750367275058874 0.00046687150840318825 0.0 -0.0018575266637197996 0.0 0.0
-0.0012856830663872526 0.0006112211542514956 0.0 -0.0017569524642133405 0.0 0.0
-0.0017452597636589406 0.0008392567680731711 0.0 -0.0017789751650713614 0.0 0.0
-0.002604831651085604 0.0013862360893086567 0.0 -0.002069707545610755 0.0 0.0
-0.004054700422794655 0.002500103104611018 0.0 -0.00280190428878746 0.0 0.0
-0.0060602389537850465 0.004212728782992281 0.0 -0.0039132933967122585 0.0 0.0
-0.008490000957682209 0.006399163911128047 0.0 -0.005163016936548359 0.0 0.0
-0.011302053273557267 0.00899774090981631 0.0 -0.00640138356815062 0.0 0.0
-0.014557375289044175 0.012055396780487726 0.0 -0.007630723073404011 0.0 0.0
-0.01839460480361592 0.015704820976759182 0.0 -0.008923303072348565 0.0 0.0
-0.022994880188310293 0.0201215731456601 0.0 -0.010361049185637128 0.0 0.0
-0.028490981716310537 0.025427749076429196 0.0 -0.01211129557681162 0.0 0.0
-0.03478777800688464 0.03150192780864458 0.0 -0.014486732634371391 0.0 0.0
-0.041236233270013384 0.03765926257464458 0.0 -0.017778280456299422 0.0 0.0
-0.0462520979499218 0.04229455767477486 0.0 -0.02174190277774768 0.0 0.0
-0.04706478920097222 0.04262685826794588 0.0 -0.02466800559737853 0.0 0.0
-0.039597922326624305 0.03459468617085815 0.0 -0.023597838322851283 0.0 0.0
-0.03959792232662282 0.03459468617085548 0.0 0.023597838322877818 0.0 0.0
-0.04706478920096566 0.042626858267940104 0.0 0.02466800559740895 0.0 0.0
-0.04625209794990866 0.04229455767476131 0.0 0.021741902777771605 0.0 0.0
-0.04123623326999373 0.03765926257462793 0.0 0.01777828045630625 0.0 0.0
-0.034787778006862786 0.03150192780862637 0.0 0.014486732634367033 0.0 0.0
-0.028490981716290005 0.025427749076410322 0.0 0.012111295576807513 0.0 0.0
-0.022994880188289032 0.020121573145640337 0.0 0.010361049185629911 0.0 0.0
-0.0183946048035944 0.015704820976739198 0.0 0.00892330307234318 0.0 0.0
-0.014557375289022012 0.012055396780469074 0.0 0.00763072307339549 0.0 0.0
-0.011302053273536457 0.008997740909797658 0.0 0.006401383568137742 0.0 0.0
-0.00849000095766407 0.006399163911111838 0.0 0.005163016936534814 0.0 0.0
-0.0060602389537713144 0.004212728782981179 0.0 0.003913293396704487 0.0 0.0
-0.004054700422784829 0.0025001031046031352 0.0 0.0028019042887809653 0.0 0.0
-0.0026048316510794006 0.0013862360893058812 0.0 0.0020697075456059533 0.0 0.0
-0.0017452597636561443 0.0008392567680719498 0.0 0.0017789751650695573 0.0 0.0
-0.0012856830663858024 0.0006112211542506074 0.0 0.0017569524642118417 0.0 0.0
-0.0009750367275048258 0.00046687150840324376 0.0 0.0018575266637174126 0.0 0.0
-0.0006822688204528651 0.00029268075558580575 0.0 0.0019342097301698613 0.0 0.0
-0.0003259567087246368 1.6008260236288763e-06 0.0 0.0017838881929075623 0.0 0.0
3.8547809805972166e-05 -0.0003131462740229244 0.0 0.0009273900944700431 0.0 0.0
-1.7563984003016175e-05 -0.00018844269407122805 0.0 -0.0007502097940780272 0.0 0.0
-0.0003743538054412632 5.3149961705356574e-05 0.0 -0.001544838917495267 0.0 0.0
-0.0007775634434069589 0.00033380539771626916 0.0 -0.0017209839426702567 0.0 0.0
-0.0011388928979147728 0.0005276805506069238 0.0 -0.0016327960036943145 0.0 0.0
-0.001526128589609932 0.0007147149509458828 0.0 -0.0015060811457471013 0.0 0.0
-0.002151867474927932 0.001069476237406275 0.0 -0.0015298266551483086 0.0 0.0
-0.0033176777419823 0.0019048661374824194 0.0 -0.0018937214298753446 0.0 0.0
-0.005167269104048328 0.003429334075183199 0.0 -0.00272428744467354 0.0 0.0
-0.007591668870608609 0.0055797137342883385 0.0 -0.0038178590082326713 0.0 0.0
-0.010507427961669896 0.008249298379793712 0.0 -0.004975549126441214 0.0 0.0
-0.013920496586318276 0.011435183556898432 0.0 -0.006151236142247218 0.0 0.0
-0.01790651377651832 0.015206345144424427 0.0 -0.007324088761418823 0.0 0.0
-0.022625529171939274 0.019716230022016612 0.0 -0.008573728602587871 0.0 0.0
-0.0282731994935152 0.025159552268755103 0.0 -0.00999861387238038 0.0 0.0
-0.03499380611746543 0.0316716725181998 0.0 -0.011651597468793629 0.0 0.0
-0.042705586166285975 0.03913349826858137 0.0 -0.013740892695243034 0.0 0.0
-0.05066483620727724 0.04675374562585621 0.0 -0.016737141182110837 0.0 0.0
-0.056911307739826555 0.05254480111259996 0.0 -0.02080940699251549 0.0 0.0
-0.05800365913624719 0.05310036779519267 0.0 -0.02493948492735465 0.0 0.0
-0.049183039449626154 0.04371690683592888 0.0 -0.02694805360155278 0.0 0.0
-0.049183039449623545 0.04371690683592577 0.0 0.026948053601578315 0.0 0.0
-0.05800365913623852 0.05310036779518468 0.0 0.024939484927388622 0.0 0.0
-0.0569113077398105 0.052544801112587525 0.0 0.02080940699253986 0.0 0.0
-0.05066483620725471 0.046753745625836673 0.0 0.016737141182119136 0.0 0.0
-0.042705586166260585 0.0391334982685565 0.0 0.013740892695240842 0.0 0.0
-0.03499380611744049 0.031671672518178484 0.0 0.011651597468790575 0.0 0.0
-0.028273199493489796 0.025159552268734453 0.0 0.00999861387237519 0.0 0.0
-0.022625529171913322 0.01971623002199241 0.0 0.008573728602582265 0.0 0.0
-0.017906513776491988 0.015206345144399558 0.0 0.007324088761411746 0.0 0.0
-0.013920496586293844 0.011435183556876671 0.0 0.0061512361422365325 0.0 0.0
-0.010507427961648316 0.00824929837977506 0.0 0.00497554912642964 0.0 0.0
-0.0075916688705920735 0.005579713734271241 0.0 0.0038178590082243447 0.0 0.0
-0.005167269104035803 0.0034293340751698764 0.0 0.0027242874446677112 0.0 0.0
-0.003317677741974022 0.001904866137475647 0.0 0.0018937214298709315 0.0 0.0
-0.002151867474923852 0.0010694762374042766 0.0 0.0015298266551456996 0.0 0.0
-0.0015261285896084192 0.0007147149509452166 0.0 0.001506081145745547 0.0 0.0
-0.0011388928979134752 0.0005276805506067017 0.0 0.001632796003692899 0.0 0.0
-0.0007775634434062165 0.00033380539771621365 0.0 0.001720983942668869 0.0 0.0
-0.000374353805440944 5.314996170505126e-05 0.0 0.001544838917493352 0.0 0.0
-1.7563984002814947e-05 -0.0001884426940709765 0.0 0.0007502097940772501 0.0 0.0
-6.313984710756837e-05 -8.674187286222823e-05 0.0 -0.0005667241267967027 0.0 0.0
-0.0004195199525423021 0.0001040315931454816 0.0 -0.0012720332254677336 0.0 0.0
-0.0008685555656632038 0.0003739775747501062 0.0 -0.0014549347135721924 0.0 0.0
-0.0012958897388126445 0.0005821369250388342 0.0 -0.001358949667771614 0.0 0.0
-0.0017691492880690662 0.0008248369103742714 0.0 -0.0012181390039393836 0.0 0.0
-0.002601352016004088 0.001362275100778576 0.0 -0.0012666000858789217 0.0 0.0
-0.004104136459115892 0.002532085392766059 0.0 -0.0017005166706315633 0.0 0.0
-0.0063065546452347465 0.004431298873881939 0.0 -0.0024881932388401418 0.0 0.0
-0.009123691415151458 0.006976808227014963 0.0 -0.0034304389225435217 0.0 0.0
-0.012531819571371255 0.010131198150505227 0.0 -0.004458497772713066 0.0 0.0
-0.01655007052786933 0.013907843403223152 0.0 -0.005504389399983767 0.0 0.0
-0.0212804215639337 0.018402645466318868 0.0 -0.006555237436709216 0.0 0.0
-0.02689991360899166 0.023791076246477694 0.0 -0.007702115188089387 0.0 0.0
-0.0336037402158966 0.03026346457349849 0.0 -0.009011666902799476 0.0 0.0
-0.041509649282257394 0.037936691751078166 0.0 -0.010476829704968105 0.0 0.0
-0.05051712745316789 0.04667977061986894 0.0 -0.012091002265626094 0.0 0.0
-0.05986557466496037 0.05565504688346312 0.0 -0.014276247579931733 0.0 0.0
-0.06735852506908489 0.06262953329615195 0.0 -0.01804552255415348 0.0 0.0
-0.06895783109531244 0.06362637717757913 0.0 -0.02380768687430712 0.0 0.0
-0.05905634251286687 0.053137239886853926 0.0 -0.030260775494481196 0.0 0.0
-0.05905634251286279 0.0531372398868486 0.0 0.030260775494505177 0.0 0.0
-0.06895783109530187 0.06362637717756625 0.0 0.02380768687433743 0.0 0.0
-0.06735852506906576 0.06262953329613352 0.0 0.01804552255417477 0.0 0.0
-0.05986557466493455 0.055655046883438475 0.0 0.01427624757993981 0.0 0.0
-0.05051712745313928 0.046679770619843186 0.0 0.012091002265625733 0.0 0.0
-0.04150964928222806 0.03793669175105063 0.0 0.0104768297049663 0.0 0.0
-0.0336037402158671 0.030263464573467846 0.0 0.009011666902794924 0.0 0.0
-0.026899913608961552 0.023791076246449716 0.0 0.007702115188083392 0.0 0.0
-0.021280421563903154 0.01840264546628978 0.0 0.006555237436702777 0.0 0.0
-0.016550070527841132 0.013907843403196729 0.0 0.005504389399973886 0.0 0.0
-0.012531819571346824 0.010131198150481469 0.0 0.004458497772702574 0.0 0.0
-0.009123691415132092 0.0069768082269958676 0.0 0.0034304389225366383 0.0 0.0
-0.006306554645219755 0.00443129887386895 0.0 0.0024881932388345906 0.0 0.0
-0.004104136459105536 0.0025320853927566223 0.0 0.0017005166706277886 0.0 0.0
-0.002601352015998839 0.0013622751007753564 0.0 0.0012666000858764237 0.0 0.0
-0.0017691492880671476 0.0008248369103738273 0.0 0.0012181390039389395 0.0 0.0
-0.0012958897388114475 0.0005821369250385011 0.0 0.0013589496677704482 0.0 0.0
-0.0008685555656624579 0.00037397757475038373 0.0 0.0014549347135699442 0.0 0.0
-0.0004195199525417054 0.00010403159314462118 0.0 0.0012720332254667066 0.0 0.0
-6.31398471072249e-05 -8.674187286246762e-05 0.0 0.0005667241267966472 0.0 0.0
-9.454340686990137e-05 -1.0985323064566233e-05 0.0 -0.00037874919062458323 0.0 0.0
-0.00045648284603647116 0.0001505875260749412 0.0 -0.0009677131030791652 0.0 0.0
-0.0009550101926169285 0.0004116429990558279 0.0 -0.0011348355069661364 0.0 0.0
-0.0014500366707406176 0.0006358737777699686 0.0 -0.0010369521365574674 0.0 0.0
-0.002027368771613941 0.0009569817014026816 0.0 -0.0008999991818020581 0.0 0.0
-0.0031142531577371124 0.0017302252917110739 0.0 -0.0009955050947115518 0.0 0.0
-0.004930024395908145 0.003225842569682058 0.0 -0.0013965476640514507 0.0 0.0
-0.007443173357227523 0.005456346212447505 0.0 -0.002027706032190213 0.0 0.0
-0.010653136384977363 0.008392802658302667 0.0 -0.0027906431214930194 0.0 0.0
-0.0145531717630287 0.012029127790739391 0.0 -0.003626313423846561 0.0 0.0
-0.019183823867241878 0.01640136912693735 0.0 -0.004481930355121455 0.0 0.0
-0.02467035044410218 0.021632031018222087 0.0 -0.005340212293669044 0.0 0.0
-0.031205916793511895 0.02791142033423677 0.0 -0.006282107101412526 0.0 0.0
-0.038975085404255566 0.035421255345834624 0.0 -0.007412040079683713 0.0 0.0
-0.0480292696598741 0.044210604653664554 0.0 -0.008640498036594835 0.0 0.0
-0.058168582343511854 0.054065373578931375 0.0 -0.00966870175770701 0.0 0.0
-0.06866410160619257 0.0642041082603313 0.0 -0.010624917824945068 0.0 0.0
-0.07746819839049127 0.07243972206152227 0.0 -0.01346247541895046 0.0 0.0
-0.0800418731939367 0.07431160341381116 0.0 -0.020926170578697834 0.0 0.0
-0.06955756409670043 0.06315612322094566 0.0 -0.033286169078252326 0.0 0.0
-0.06955756409669601 0.063156123220943 0.0 0.03328616907827253 0.0 0.0
-0.08004187319392381 0.07431160341379739 0.0 0.02092617057872309 0.0 0.0
-0.07746819839046883 0.0724397220614974 0.0 0.013462475418969388 0.0 0.0
-0.06866410160616307 0.06420410826030176 0.0 0.010624917824951285 0.0 0.0
-0.058168582343479734 0.054065373578898734 0.0 0.009668701757707593 0.0 0.0
-0.04802926965984081 0.0442106046536368 0.0 0.00864049803659414 0.0 0.0
-0.03897508540422188 0.03542125534580376 0.0 0.00741204007968016 0.0 0.0
-0.031205916793477607 0.027911420334203685 0.0 0.006282107101407933 0.0 0.0
-0.024670350444067325 0.02163203101818878 0.0 0.005340212293665825 0.0 0.0
-0.019183823867210195 0.016401369126907595 0.0 0.004481930355113128 0.0 0.0
-0.01455317176300152 0.012029127790713856 0.0 0.0036263134238374017 0.0 0.0
-0.010653136384954996 0.008392802658283127 0.0 0.0027906431214879124 0.0 0.0
-0.0074431733572101165 0.005456346212431407 0.0 0.0020277060321861606 0.0 0.0
-0.004930024395896019 0.003225842569671733 0.0 0.0013965476640483143 0.0 0.0
-0.003114253157730444 0.0017302252917054117 0.0 0.000995505094708693 0.0 0.0
-0.00202736877161154 0.0009569817014013493 0.0 0.000899999181800254 0.0 0.0
-0.00145003667073949 0.0006358737777698575 0.0 0.0010369521365556633 0.0 0.0
-0.0009550101926160542 0.0004116429990558834 0.0 0.0011348355069653315 0.0 0.0
-0.0004564828460359299 0.00015058752607521875 0.0 0.000967713103077944 0.0 0.0
-9.45434068697279e-05 -1.0985323064481231e-05 0.0 0.0003787491906224183 0.0 0.0
-0.00010559999054693403 3.50545708789618e-05 0.0 -0.0001929402401457947 0.0 0.0
-0.00047685139361838824 0.00018733742761173344 0.0 -0.0006316693055470335 0.0 0.0
-0.0010371380595453616 0.00044583731694047835 0.0 -0.0007536124162108859 0.0 0.0
-0.0016091619447860805 0.0006953306211873178 0.0 -0.0006736183037031607 0.0 0.0
-0.0023221110102731035 0.0011406495836102648 0.0 -0.0005793972781084344 0.0 0.0
-0.003682609711813306 0.0021727835318982036 0.0 -0.0006687296494947703 0.0 0.0
-0.005759632244546731 0.003955482101971275 0.0 -0.0009594678867140827 0.0 0.0
-0.008574876045722601 0.0064933266060627215 0.0 -0.00138365918942418 0.0 0.0
-0.012170475638843825 0.009814429200016184 0.0 -0.0019061538421761837 0.0 0.0
-0.016562694993503713 0.013931257000963093 0.0 -0.002489052269273151 0.0 0.0
-0.02181330464748993 0.018904781093426193 0.0 -0.0030822635227547024 0.0 0.0
-0.028068591089824874 0.024882149680703236 0.0 -0.0036778320739190296 0.0 0.0
-0.035533407459053645 0.032065763297897565 0.0 -0.004366010973770373 0.0 0.0
-0.04436336187900139 0.04060674011957466 0.0 -0.005181580560318255 0.0 0.0
-0.054531174913827474 0.05047211562724785 0.0 -0.006020198678921007 0.0 0.0
-0.06568042138170165 0.06130455025314219 0.0 -0.00658651915969255 0.0 0.0
-0.07699088289517092 0.07227771493642066 0.0 -0.006509631891868761 0.0 0.0
-0.08686088088276413 0.08169552441040784 0.0 -0.0071812442101919505 0.0 0.0
-0.09127920280626009 0.08517393201386714 0.0 -0.01519243932385339 0.0 0.0
-0.08121211602423381 0.07424069461935368 0.0 -0.035356242633487855 0.0 0.0
-0.08121211602422897 0.0742406946193479 0.0 0.035356242633502566 0.0 0.0
-0.09127920280624471 0.08517393201384893 0.0 0.01519243932387404 0.0 0.0
-0.08686088088273813 0.08169552441038253 0.0 0.007181244210207466 0.0 0.0
-0.07699088289513767 0.0722777149363869 0.0 0.006509631891871731 0.0 0.0
-0.06568042138166527 0.061304550253110435 0.0 0.006586519159693771 0.0 0.0
-0.05453117491379025 0.050472115627213876 0.0 0.0060201986789227 0.0 0.0
-0.044363361878963746 0.040606740119538465 0.0 0.005181580560316257 0.0 0.0
-0.035533407459014926 0.03206576329785937 0.0 0.004366010973766557 0.0 0.0
-0.028068591089785745 0.02488214968066349 0.0 0.003677832073917614 0.0 0.0
-0.02181330464745508 0.018904781093391776 0.0 0.003082263522748263 0.0 0.0
-0.0165626949934737 0.013931257000935116 0.0 0.002489052269266323 0.0 0.0
-0.012170475638818633 0.009814429199993313 0.0 0.0019061538421730195 0.0 0.0
-0.008574876045703094 0.006493326606045069 0.0 0.0013836591894202943 0.0 0.0
-0.005759632244532778 0.003955482101957619 0.0 0.0009594678867098638 0.0 0.0
-0.0036826097118049777 0.002172783531890876 0.0 0.0006687296494935213 0.0 0.0
-0.0023221110102699255 0.0011406495836074892 0.0 0.0005793972781089896 0.0 0.0
-0.0016091619447847136 0.000695330621186041 0.0 0.0006736183037032717 0.0 0.0
-0.0010371380595446296 0.0004458373169402008 0.0 0.0007536124162102198 0.0 0.0
-0.0004768513936177967 0.00018733742761159466 0.0 0.0006316693055469225 0.0 0.0
-0.00010559999054693056 3.505457087895833e-05 0.0 0.0001929402401462943 0.0 0.0
-8.515079810550441e-05 4.594258078838287e-05 0.0 -2.4919791425520588e-05 0.0 0.0
-0.0004670002160901132 0.00020584723077199385 0.0 -0.00025789333450446095 0.0 0.0
-0.0011166126552548672 0.0004754657958842001 0.0 -0.000297204466494172 0.0 0.0
-0.0017890454644690634 0.0007764381475812154 0.0 -0.000273931299800384 0.0 0.0
-0.0026698754357222243 0.0013737160935309856 0.0 -0.0002337012548334072 0.0 0.0
-0.004276063875534419 0.0026553549706915813 0.0 -0.00026255353100038126 0.0 0.0
-0.00658686103677758 0.00469972521877926 0.0 -0.0003870445602321415 0.0 0.0
-0.009691637313563373 0.007531217440938098 0.0 -0.0005582717214565047 0.0 0.0
-0.013666980054121952 0.011228210111404069 0.0 -0.0007842607146748004 0.0 0.0
-0.018550463884163315 0.01582387087956416 0.0 -0.001045920562960878 0.0 0.0
-0.02443064006466847 0.021409263504188702 0.0 -0.0013098322623334435 0.0 0.0
-0.031473256150318235 0.02814984101795881 0.0 -0.001596013219584469 0.0 0.0
-0.03986298491639001 0.036232701268500644 0.0 -0.0019202949863568186 0.0 0.0
-0.04973152671745634 0.045782656637149755 0.0 -0.002276719648209302 0.0 0.0
-0.06098716053633893 0.05669910342549023 0.0 -0.0026187607006425417 0.0 0.0
-0.07309972236348378 0.06845359341026769 0.0 -0.002756030241321983 0.0 0.0
-0.08501084585454284 0.0800089314118071 0.0 -0.002360355721625018 0.0 0.0
-0.09521814216688812 0.0898778964311906 0.0 -0.0012584712777222729 0.0 0.0
-0.10142489968029993 0.09557354503177828 0.0 -0.004388397690815005 0.0 0.0
-0.09551366597871531 0.08748127069309009 0.0 -0.03270505392604722 0.0 0.0
-0.09551366597870992 0.08748127069308476 0.0 0.0327050539260515 0.0 0.0
-0.10142489968028236 0.09557354503176141 0.0 0.004388397690823859 0.0 0.0
-0.0952181421668578 0.08987789643116284 0.0 0.001258471277729739 0.0 0.0
-0.0850108458545053 0.08000893141176979 0.0 0.0023603557216246296 0.0 0.0
-0.07309972236344289 0.06845359341022883 0.0 0.0027560302413215387 0.0 0.0
-0.06098716053629767 0.05669910342545115 0.0 0.002618760700642181 0.0 0.0
-0.049731526717413814 0.045782656637111785 0.0 0.0022767196482088303 0.0 0.0
-0.03986298491634706 0.036232701268459566 0.0 0.0019202949863557917 0.0 0.0
-0.03147325615027531 0.028149841017919286 0.0 0.001596013219584358 0.0 0.0
-0.024430640064630017 0.02140926350415251 0.0 0.001309832262331112 0.0 0.0
-0.01855046388413046 0.015823870879532187 0.0 0.0010459205629588242 0.0 0.0
-0.013666980054094509 0.011228210111377868 0.0 0.0007842607146743008 0.0 0.0
-0.009691637313541761 0.0075312174409190025 0.0 0.0005582717214548116 0.0 0.0
-0.006586861036761984 0.0046997252187648275 0.0 0.00038704456023036515 0.0 0.0
-0.004276063875524725 0.0026553549706838098 0.0 0.00026255353099957635 0.0 0.0
-0.0026698754357177504 0.001373716093527766 0.0 0.00023370125483276882 0.0 0.0
-0.0017890454644676375 0.000776438147579106 0.0 0.00027393129980035624 0.0 0.0
-0.0011166126552540736 0.00047546579588286786 0.0 0.00029720446649461607 0.0 0.0
-0.00046700021608942193 0.00020584723077216038 0.0 0.00025789333450407237 0.0 0.0
-8.515079810550788e-05 4.594258078872808e-05 0.0 2.4919791425104254e-05 0.0 0.0
SCALARS Statev float 8
LOOKUP_TABLE default
0.0 0.009398884018677701 0.0071449162698921705 -0.0075294327526387195 0.0003845164827465487 -0.004018485114526637 0.0 0.0
0.0 0.00025833224613365665 0.00013942183123135846 -0.00010690296083739116 -3.2518870393967285e-05 0.00015803755777768825 0.0 0.0
0.0 3.342380937738801e-05 -4.754075056001044e-06 3.773145031477424e-06 9.809300245235895e-07 5.62033213615258e-07 0.0 0.0
0.0 9.550191122581509e-05 2.5123946381464477e-05 -1.9491369270184916e-05 -5.632577111279656e-06 -3.385693899031743e-06 0.0 0.0
0.0 0.0006961039653489069 0.00047179702873381707 -0.0003768269781288485 -9.497005060496913e-05 -5.440293296899857e-05 0.0 0.0
0.0 0.0019032482048601594 0.0017576810395623663 -0.0014601164921644214 -0.00029756454739794473 -0.0001447291673438182 0.0 0.0
0.0 0.004186008635641228 0.003810803405167704 -0.0033171244200128932 -0.0004936789851548099 -0.0002679673803387762 0.0 0.0
0.0 0.007463472156837752 0.0067059606307380976 -0.00605215729708556 -0.0006538033336525375 -0.0004301973547162627 0.0 0.0
0.0 0.011786750414612268 0.010475792855450576 -0.009695734574280114 -0.0007800582811704583 -0.0006420053841897587 0.0 0.0
0.0 0.01719122166775671 0.015152108962656957 -0.01426256847441811 -0.0008895404882388424 -0.0008924549703433009 0.0 0.0
0.0 0.02380593911787654 0.020830915310925457 -0.019837936474128612 -0.0009929788367968428 -0.0011535127628671434 0.0 0.0
0.0 0.03154360405548957 0.02768650630915499 -0.02659025329191253 -0.0010962530172424407 -0.0014422877696855935 0.0 0.0
0.0 0.04091789382283232 0.035897473822361026 -0.03469731181741967 -0.0012001620049413438 -0.001765603650434156 0.0 0.0
0.0 0.052083979110952604 0.04560027121012931 -0.044293637071892926 -0.0013066341382363823 -0.0021236819590088806 0.0 0.0
0.0 0.06493676399753212 0.05675892288634038 -0.05534085375108337 -0.001418069135256981 -0.0025249372008165688 0.0 0.0
0.0 0.07908287668142452 0.06900172474995368 -0.0674673618823478 -0.0015343628676059247 -0.0029060108570684176 0.0 0.0
0.0 0.09359055358141505 0.08154966986934475 -0.07989761118277598 -0.0016520586865687793 -0.0031066399680572546 0.0 0.0
0.0 0.10712555672567471 0.0932629276294376 -0.09149843216032522 -0.0017644954691123373 -0.0028994721726563867 0.0 0.0
0.0 0.11812240034308574 0.10278569389831128 -0.10092174625036893 -0.0018639476479423362 -0.0022618139336252016 0.0 0.0
0.0 0.12456660508081925 0.10850486504038037 -0.10653680676246202 -0.001968058277918338 -0.0018517074633494289 0.0 0.0
0.0 0.1245666050808132 0.10850486504037515 -0.1065368067624568 -0.0019680582779183285 0.0018517074633530028 0.0 0.0
0.0 0.11812240034306587 0.10278569389829406 -0.10092174625035177 -0.0018639476479422603 0.00226181393363609 0.0 0.0
0.0 0.10712555672564228 0.09326292762940945 -0.09149843216029746 -0.0017644954691119598 0.002899472172662258 0.0 0.0
0.0 0.09359055358137489 0.08154966986930974 -0.07989761118274151 -0.001652058686568206 0.0031066399680619765 0.0 0.0
0.0 0.0790828766813811 0.06900172474991578 -0.06746736188231053 -0.0015343628676052637 0.0029060108570641554 0.0 0.0
0.0 0.06493676399748893 0.05675892288630269 -0.055340853751046346 -0.0014180691352563282 0.0025249372008165688 0.0 0.0
0.0 0.05208397911090754 0.04560027121009011 -0.044293637071854255 -0.0013066341382358617 0.002123681959007993 0.0 0.0
0.0 0.040917893822784906 0.035897473822319864 -0.034697311817378916 -0.0012001620049409576 0.0017656036504341958 0.0 0.0
0.0 0.0315436040554452 0.027686506309116166 -0.026590253291874595 -0.0010962530172415705 0.0014422877696827724 0.0 0.0
0.0 0.023805939117836628 0.020830915310890253 -0.01983793647409421 -0.0009929788367960375 0.001153512762865427 0.0 0.0
0.0 0.017191221667723074 0.015152108962627522 -0.014262568474389488 -0.0008895404882380314 0.0008924549703392727 0.0 0.0
0.0 0.01178675041458687 0.01047579285542776 -0.009695734574258045 -0.0007800582811697146 0.0006420053841887422 0.0 0.0
0.0 0.007463472156818891 0.006705960630720701 -0.006052157297068898 -0.0006538033336518022 0.0004301973547147865 0.0 0.0
0.0 0.0041860086356272546 0.003810803405154541 -0.0033171244200006435 -0.0004936789851538968 0.0002679673803380447 0.0 0.0
0.0 0.0019032482048521784 0.0017576810395544674 -0.0014601164921574797 -0.0002975645473969875 0.000144729167342993 0.0 0.0
0.0 0.0006961039653449415 0.00047179702873075154 -0.0003768269781263328 -9.497005060441879e-05 5.440293296865062e-05 0.0 0.0
0.0 9.550191122479738e-05 2.512394638149655e-05 -1.949136927020332e-05 -5.632577111293229e-06 3.385693898988553e-06 0.0 0.0
0.0 3.342380937687491e-05 -4.754075055922566e-06 3.7731450314146314e-06 9.80930024507978e-07 -5.620332136057866e-07 0.0 0.0
0.0 0.000258332246132224 0.0001394218312307422 -0.00010690296083693207 -3.25188703938103e-05 -0.0001580375577767667 0.0 0.0
0.0 0.009398884018663164 0.007144916269882347 -0.007529432752627886 0.00038451648274553517 0.004018485114505494 0.0 0.0
0.0 0.006636879983838162 0.004728167800107007 -0.005195899037255962 0.00046773123714895486 -0.004465418938809587 0.0 0.0
0.0 0.0 0.0 0.0 0.0 0.0 0.0 0.0
0.0 9.430826945183483e-08 -1.020951514236367e-08 7.758883502814768e-09 2.450631639548195e-09 3.6392644398315674e-09 0.0 0.0
0.0 3.283545335406709e-05 4.281643293689253e-07 -3.513686292882696e-07 -7.679570008088923e-08 -7.466449766342523e-07 0.0 0.0
0.0 0.0004080194428622264 0.00022236311176556414 -0.00017639899869881958 -4.5964113066744615e-05 -6.189035222102369e-05 0.0 0.0
0.0 0.0013626852655483125 0.0012604370096195743 -0.0010324603647550903 -0.00022797664486448444 -0.0002825676868094335 0.0 0.0
0.0 0.0033672447936543204 0.003064731021865749 -0.002631261201632386 -0.00043346982023336264 -0.0006008003173057399 0.0 0.0
0.0 0.0063046876007649974 0.0056637246801406575 -0.005056290273014375 -0.0006074344071262816 -0.0010091188146801216 0.0 0.0
0.0 0.010180560439209509 0.009056329645652322 -0.00831462753556511 -0.0007417021100872111 -0.0015093336287299599 0.0 0.0
0.0 0.015003732603119976 0.013246731878542911 -0.01239446937626067 -0.0008522625022822376 -0.002078357869799934 0.0 0.0
0.0 0.020850228586821402 0.018302649156723798 -0.017350269849785632 -0.0009523793069381547 -0.0026739538072603204 0.0 0.0
0.0 0.02793782802118591 0.02437644253908265 -0.023327870746026814 -0.00104857179305584 -0.003284326070149553 0.0 0.0
0.0 0.03621265835895702 0.03167817844996401 -0.030533726109221657 -0.0011444523407423538 -0.003985887945719484 0.0 0.0
0.0 0.046144801861729375 0.04035672708525505 -0.03911418549671115 -0.0012425415885438972 -0.004812749951784122 0.0 0.0
0.0 0.05770534290982995 0.05038819399623527 -0.04904351683505982 -0.001344677161175473 -0.005725144147536823 0.0 0.0
0.0 0.0704530513396364 0.06145332818796148 -0.060002441838708925 -0.0014508863492525667 -0.006592195290254169 0.0 0.0
0.0 0.08360646277601815 0.07286461096839618 -0.07130611085535436 -0.0015585001130417938 -0.007066377033345695 0.0 0.0
0.0 0.09598736677761566 0.08359540366573837 -0.08193240974966003 -0.0016629939160783102 -0.006720952687136554 0.0 0.0
0.0 0.10604117680120452 0.0923221128099954 -0.09055762863721356 -0.0017644841727818832 -0.005464886667641458 0.0 0.0
0.0 0.11198212277126961 0.09749494684486759 -0.09565747811799073 -0.0018374687268769014 -0.00326926353030446 0.0 0.0
0.0 0.11198212277126357 0.09749494684486239 -0.09565747811798529 -0.001837468726877084 0.003269263530316527 0.0 0.0
0.0 0.10604117680118726 0.09232211280998029 -0.09055762863719823 -0.001764484172782089 0.0054648866676633295 0.0 0.0
0.0 0.09598736677758793 0.08359540366571391 -0.08193240974963592 -0.0016629939160779613 0.006720952687151472 0.0 0.0
0.0 0.08360646277598394 0.07286461096836593 -0.07130611085532503 -0.001558500113040893 0.0070663770333540205 0.0 0.0
0.0 0.07045305133959713 0.061453328187927335 -0.0600024418386754 -0.0014508863492519362 0.006592195290250454 0.0 0.0
0.0 0.05770534290979027 0.050388193996200724 -0.04904351683502576 -0.0013446771611749623 0.0057251441475358825 0.0 0.0
0.0 0.04614480186168833 0.04035672708521926 -0.03911418549667599 -0.001242541588543229 0.0048127499517835685 0.0 0.0
0.0 0.03621265835891761 0.03167817844992934 -0.030533726109188176 -0.001144452340741168 0.003985887945717982 0.0 0.0
0.0 0.027937828021147516 0.02437644253904889 -0.023327870745993944 -0.0010485717930549393 0.0032843260701449504 0.0 0.0
0.0 0.020850228586784876 0.018302649156691757 -0.01735026984975432 -0.0009523793069374361 0.0026739538072561827 0.0 0.0
0.0 0.015003732603090446 0.013246731878516748 -0.012394469376235211 -0.0008522625022815341 0.0020783578697938067 0.0 0.0
0.0 0.010180560439185821 0.00905632964563086 -0.008314627535544237 -0.00074170211008662 0.0015093336287271227 0.0 0.0
0.0 0.0063046876007461835 0.005663724680123518 -0.005056290272998146 -0.0006074344071253699 0.001009118814676788 0.0 0.0
0.0 0.0033672447936424587 0.0030647310218544638 -0.002631261201622126 -0.00043346982023233623 0.0006008003173036999 0.0 0.0
0.0 0.0013626852655417778 0.001260437009613592 -0.0010324603647499902 -0.00022797664486360152 0.0002825676868080159 0.0 0.0
0.0 0.0004080194428592748 0.0002223631117637508 -0.00017639899869736512 -4.596411306638578e-05 6.189035222054019e-05 0.0 0.0
0.0 3.283545335352721e-05 4.2816432952013e-07 -3.5136862940385065e-07 -7.679570011613904e-08 7.466449766879532e-07 0.0 0.0
0.0 9.430826938068039e-08 -1.0209515134588993e-08 7.758883496907494e-09 2.4506316376819497e-09 -3.6392644370560787e-09 0.0 0.0
0.0 0.0 0.0 0.0 0.0 0.0 0.0 0.0
0.0 0.00663687998382187 0.004728167800096213 -0.005195899037244311 0.0004677312371480989 0.004465418938791443 0.0 0.0
0.0 0.004837238296728398 0.0032437967735144775 -0.003705557228217725 0.00046176045470324746 -0.003792858742677882 0.0 0.0
0.0 0.0 0.0 0.0 0.0 0.0 0.0 0.0
0.0 0.0 0.0 0.0 0.0 0.0 0.0 0.0
0.0 2.8511453230889925e-06 -2.499471262944352e-07 1.8825414177401778e-07 6.169298452039647e-08 1.1374957049981333e-07 0.0 0.0
0.0 0.00016494040455029978 7.663764780061394e-05 -6.0457621155752106e-05 -1.618002664486175e-05 -3.945508006751462e-05 0.0 0.0
0.0 0.0010245747831862696 0.0007801148187948741 -0.000630969005369457 -0.00014914581342541638 -0.0003068429553422481 0.0 0.0
0.0 0.002580454657183634 0.0023348351762116125 -0.001972100319869475 -0.0003627348563421376 -0.0007862878072648777 0.0 0.0
0.0 0.005164076476880841 0.0046247264641166505 -0.004075549794352167 -0.0005491766697644822 -0.001408058430312205 0.0 0.0
0.0 0.008608491025471898 0.007630635419536742 -0.006935917783010769 -0.0006947176365259735 -0.0021441665425459707 0.0 0.0
0.0 0.012872943807346743 0.01133403574138718 -0.010525379431027933 -0.0008086563103592472 -0.0029658738616395856 0.0 0.0
0.0 0.018031242390368768 0.015775715387293457 -0.014869535178550069 -0.0009061802087433871 -0.0038280785697161488 0.0 0.0
0.0 0.024146114446593488 0.02108923633365655 -0.020092707325415148 -0.0009965290082414064 -0.004711505489308432 0.0 0.0
0.0 0.0316130267370032 0.027471796121065647 -0.02638693531756756 -0.001084860803498078 -0.00568489715677476 0.0 0.0
0.0 0.040303370613594416 0.035102914095741386 -0.03392822664261104 -0.0011746874531303425 -0.006857761724085553 0.0 0.0
0.0 0.05049715797579987 0.04398333598517673 -0.0427161192719844 -0.0012672167131923206 -0.00819349890885101 0.0 0.0
0.0 0.061881703366230854 0.05385064555146357 -0.05248769401418883 -0.0013629515372747276 -0.009444932857584725 0.0 0.0
0.0 0.0737075500019977 0.06412631555830438 -0.06266595549150634 -0.0014603600667980133 -0.01016504586255567 0.0 0.0
0.0 0.08490032318444579 0.07389230285219239 -0.07233341610627031 -0.001558886745922066 -0.009809727810794928 0.0 0.0
0.0 0.09404604177862456 0.08190015597786483 -0.08024980220878239 -0.0016503537690823757 -0.007983402303991072 0.0 0.0
0.0 0.09957214991997332 0.08677181398751901 -0.08505932910964364 -0.001712484877875348 -0.0043505411682334605 0.0 0.0
0.0 0.09957214991996773 0.08677181398751377 -0.08505932910963854 -0.001712484877875221 0.004350541168253343 0.0 0.0
0.0 0.09404604177860927 0.08190015597785077 -0.08024980220876855 -0.0016503537690821988 0.007983402304020414 0.0 0.0
0.0 0.0849003231844216 0.07389230285217058 -0.07233341610624883 -0.0015588867459216864 0.009809727810815516 0.0 0.0
0.0 0.07370755000196856 0.06412631555827854 -0.06266595549148107 -0.0014603600667974833 0.01016504586256525 0.0 0.0
0.0 0.061881703366197874 0.05385064555143471 -0.05248769401416089 -0.001362951537273829 0.009444932857581002 0.0 0.0
0.0 0.050497157975765566 0.043983335985146574 -0.042716119271955164 -0.0012672167131914161 0.00819349890884958 0.0 0.0
0.0 0.04030337061356017 0.035102914095711396 -0.03392822664258173 -0.0011746874531296642 0.006857761724083462 0.0 0.0
0.0 0.03161302673696877 0.027471796121035334 -0.026386935317538024 -0.0010848608034973062 0.005684897156772566 0.0 0.0
0.0 0.024146114446558807 0.02108923633362636 -0.02009270732538567 -0.0009965290082406906 0.004711505489301519 0.0 0.0
0.0 0.018031242390338265 0.01577571538726629 -0.014869535178523734 -0.0009061802087425556 0.003828078569709889 0.0 0.0
0.0 0.012872943807320347 0.01133403574136371 -0.010525379431005122 -0.0008086563103585815 0.0029658738616312576 0.0 0.0
0.0 0.008608491025451413 0.007630635419518342 -0.006935917782993129 -0.0006947176365252133 0.0021441665425412006 0.0 0.0
0.0 0.005164076476865861 0.004624726464102867 -0.004075549794339363 -0.0005491766697635063 0.0014080584303081119 0.0 0.0
0.0 0.0025804546571727574 0.002334835176201446 -0.0019721003198604156 -0.00036273485634102974 0.0007862878072619088 0.0 0.0
0.0 0.001024574783180356 0.0007801148187901244 -0.0006309690053655138 -0.00014914581342460995 0.00030684295534029487 0.0 0.0
0.0 0.0001649404045486761 7.66376477998611e-05 -6.045762115515106e-05 -1.61800266447099e-05 3.945508006709891e-05 0.0 0.0
0.0 2.851145322680888e-06 -2.499471261298385e-07 1.882541416480994e-07 6.169298448171922e-08 -1.137495703981604e-07 0.0 0.0
0.0 0.0 0.0 0.0 0.0 0.0 0.0 0.0
0.0 0.0 0.0 0.0 0.0 0.0 0.0 0.0
0.0 0.004837238296714419 0.0032437967735048884 -0.0037055572282072625 0.00046176045470237403 0.003792858742662538 0.0 0.0
0.0 0.0034713030040895857 0.0022152379893450114 -0.0026209798399706658 0.00040574185062565394 -0.002867383368861091 0.0 0.0
0.0 0.0 0.0 0.0 0.0 0.0 0.0 0.0
0.0 0.0 0.0 0.0 0.0 0.0 0.0 0.0
0.0 1.7764958665315978e-06 -1.7819784007305854e-07 1.3787375697884427e-07 4.03240830942293e-08 1.8782013220909485e-07 0.0 0.0
0.0 5.420237708577081e-05 1.614725839921072e-05 -1.2649481263476962e-05 -3.497777135733655e-06 -1.310036164731825e-05 0.0 0.0
0.0 0.0006100099745844573 0.0004177389668265542 -0.00033396423494090415 -8.377473188565008e-05 -0.00025144156556882103 0.0 0.0
0.0 0.0018833869876102563 0.0016316327953318883 -0.001354421359446615 -0.00027721143588527284 -0.0008210634028685353 0.0 0.0
0.0 0.004059567738250727 0.003600533734296917 -0.0031226325552830914 -0.00047790117901382555 -0.0016177225282485385 0.0 0.0
0.0 0.007059651814492304 0.006211026814766371 -0.005575450931207615 -0.000635575883558755 -0.002539531702647849 0.0 0.0
0.0 0.010765072167799775 0.009426837296218151 -0.00867099195461234 -0.0007558453416058069 -0.0035555955013578996 0.0 0.0
0.0 0.015221566478537571 0.013262132576881712 -0.012408870882348669 -0.0008532616945330414 -0.004611932788620341 0.0 0.0
0.0 0.02053360376930911 0.017824102972636764 -0.016884681403563934 -0.0009394215690728243 -0.005695077051018515 0.0 0.0
0.0 0.026891993363552837 0.02330000868619648 -0.022279402583771184 -0.0010206061024252869 -0.0068946216332957805 0.0 0.0
0.0 0.034545184061916485 0.029868837509023784 -0.028766209896279888 -0.0011026276127438924 -0.008291760284732302 0.0 0.0
0.0 0.04349918808906517 0.03756944224293085 -0.03638374775942834 -0.0011856944835025073 -0.009880837510435019 0.0 0.0
0.0 0.05331398319157117 0.04621622418307923 -0.044945866645430065 -0.001270357537649168 -0.011431827836843204 0.0 0.0
0.0 0.06381507988237745 0.055336513432954176 -0.0539785243308238 -0.001357989102130381 -0.012396745099433244 0.0 0.0
0.0 0.07387668361096214 0.06413871246698065 -0.06269144577621535 -0.0014472666907652907 -0.012093949384352612 0.0 0.0
0.0 0.08222216375799765 0.07151401162259427 -0.06998421153022914 -0.0015298000923651244 -0.009884443694557106 0.0 0.0
0.0 0.08746207939527584 0.0762133431089891 -0.07462688192453712 -0.0015864611844519495 -0.0052325308250596335 0.0 0.0
0.0 0.08746207939526908 0.07621334310898295 -0.07462688192453079 -0.0015864611844521568 0.005232530825084661 0.0 0.0
0.0 0.08222216375798541 0.07151401162258227 -0.0699842115302176 -0.00152980009236463 0.009884443694590784 0.0 0.0
0.0 0.0738766836109425 0.0641387124669624 -0.06269144577619745 -0.0014472666907649207 0.012093949384375918 0.0 0.0
0.0 0.06381507988235272 0.055336513432931785 -0.05397852433080197 -0.0013579891021298055 0.012396745099444936 0.0 0.0
0.0 0.05331398319154197 0.04621622418305385 -0.0449458666454052 -0.0012703575376486454 0.011431827836839738 0.0 0.0
0.0 0.043499188089033636 0.03756944224290354 -0.03638374775940127 -0.0011856944835022594 0.009880837510431801 0.0 0.0
0.0 0.03454518406188445 0.029868837508995928 -0.028766209896252174 -0.0011026276127437606 0.008291760284729345 0.0 0.0
0.0 0.02689199336352223 0.023300008686169486 -0.022279402583744785 -0.0010206061024246962 0.0068946216332924845 0.0 0.0
0.0 0.02053360376928097 0.017824102972611864 -0.016884681403539853 -0.0009394215690720056 0.005695077051010824 0.0 0.0
0.0 0.015221566478512184 0.013262132576859088 -0.012408870882326749 -0.0008532616945323505 0.004611932788612956 0.0 0.0
0.0 0.01076507216777649 0.009426837296197779 -0.008670991954592627 -0.000755845341605151 0.0035555955013482376 0.0 0.0
0.0 0.007059651814473117 0.006211026814749241 -0.005575450931191272 -0.0006355758835579677 0.002539531702641747 0.0 0.0
0.0 0.004059567738236625 0.0036005337342841885 -0.0031226325552713334 -0.0004779011790128538 0.0016177225282430338 0.0 0.0
0.0 0.0018833869876016456 0.0016316327953243323 -0.0013544213594400374 -0.0002772114358842946 0.0008210634028651049 0.0 0.0
0.0 0.0006100099745796989 0.0004177389668234326 -0.00033396423493835617 -8.377473188507636e-05 0.0002514415655669429 0.0 0.0
0.0 5.4202377084695365e-05 1.6147258399178126e-05 -1.264948126344191e-05 -3.497777135736308e-06 1.3100361647245243e-05 0.0 0.0
0.0 1.7764958662467406e-06 -1.7819784004332652e-07 1.3787375695581053e-07 4.032408308752122e-08 -1.8782013217738892e-07 0.0 0.0
0.0 0.0 0.0 0.0 0.0 0.0 0.0 0.0
0.0 0.0 0.0 0.0 0.0 0.0 0.0 0.0
0.0 0.0034713030040775415 0.0022152379893371796 -0.0026209798399619406 0.00040574185062476034 0.0028673833688493693 0.0 0.0
0.0 0.0023842602873169905 0.001452921452022719 -0.0017762525658677536 0.000323331113845035 -0.0019919705281498156 0.0 0.0
0.0 0.0 0.0 0.0 0.0 0.0 0.0 0.0
0.0 0.0 0.0 0.0 0.0 0.0 0.0 0.0
0.0 6.929946244958124e-08 -5.867089801559984e-09 4.478351496008589e-09 1.388738305550426e-09 8.798859195521545e-09 0.0 0.0
0.0 1.690345411742122e-05 7.929307523576031e-07 -6.833905765384363e-07 -1.0954017581919048e-07 -1.1538384552570748e-06 0.0 0.0
0.0 0.00029464074929230413 0.00017824667984989737 -0.00014154290837952653 -3.6703771470370975e-05 -0.00016536576723427898 0.0 0.0
0.0 0.001334962812793379 0.000995403379772041 -0.0008114838847756028 -0.00018391949499643804 -0.0007049994874469383 0.0 0.0
0.0 0.003045221871609288 0.002596152567354996 -0.0022071995970983607 -0.00038895297025663483 -0.0015987118490885834 0.0 0.0
0.0 0.0055460439775195805 0.00481083057749921 -0.004250315089154515 -0.0005605154883446934 -0.0026842860014064155 0.0 0.0
0.0 0.008702827041210944 0.007536469764057 -0.006845925517812354 -0.0006905442462446458 -0.0038366541392053292 0.0 0.0
0.0 0.012480194146243146 0.010771934663084242 -0.009980894022546467 -0.0007910406405377745 -0.005027060684895716 0.0 0.0
0.0 0.016939213074567652 0.014595284898437387 -0.013720569515789306 -0.0008747153826480811 -0.006238065245680251 0.0 0.0
0.0 0.02233919180965204 0.019171284283810777 -0.018220364428372 -0.000950919855438777 -0.007558233419309994 0.0 0.0
0.0 0.028690417192421554 0.024681054920735492 -0.023656279085941343 -0.0010247758347941445 -0.009110359430425607 0.0 0.0
0.0 0.0362920468579759 0.031189157965245004 -0.03009058681985695 -0.0010985711453880514 -0.010852989691859941 0.0 0.0
0.0 0.044977354917455616 0.03857767095067882 -0.03740409258740591 -0.0011735783632729024 -0.012535364679187148 0.0 0.0
0.0 0.05396308227006502 0.04650078780212448 -0.04525105685592687 -0.0012497309461976126 -0.013689053190637256 0.0 0.0
0.0 0.06281807959811123 0.05432599953656307 -0.05299795353407842 -0.0013280460024846473 -0.013543300776562593 0.0 0.0
0.0 0.07043476110459465 0.061116922631373374 -0.059714698298620306 -0.0014022243327530678 -0.01121099384157912 0.0 0.0
0.0 0.07549526956884306 0.06572883951548017 -0.06427269779748936 -0.0014561417179908174 -0.005957796381072716 0.0 0.0
0.0 0.0754952695688391 0.06572883951547615 -0.06427269779748532 -0.001456141717990781 0.005957796381098883 0.0 0.0
0.0 0.07043476110458412 0.06111692263136258 -0.059714698298609634 -0.0014022243327529358 0.011210993841613111 0.0 0.0
0.0 0.06281807959809232 0.05432599953654521 -0.05299795353406042 -0.0013280460024847588 0.013543300776586907 0.0 0.0
0.0 0.05396308227004126 0.046500787802102976 -0.04525105685590539 -0.0012497309461976 0.01368905319064854 0.0 0.0
0.0 0.04497735491742945 0.038577670950656034 -0.03740409258738344 -0.0011735783632725945 0.012535364679183748 0.0 0.0
0.0 0.036292046857949435 0.031189157965221845 -0.03009058681983423 -0.0010985711453876039 0.010852989691856194 0.0 0.0
0.0 0.028690417192396137 0.024681054920713125 -0.023656279085919565 -0.0010247758347935578 0.00911035943042238 0.0 0.0
0.0 0.022339191809626683 0.019171284283788368 -0.018220364428349848 -0.000950919855438515 0.007558233419305866 0.0 0.0
0.0 0.016939213074542922 0.014595284898415726 -0.013720569515768185 -0.0008747153826475362 0.006238065245671918 0.0 0.0
0.0 0.012480194146221061 0.010771934663064961 -0.009980894022527881 -0.0007910406405370835 0.005027060684886181 0.0 0.0
0.0 0.008702827041191203 0.007536469764040195 -0.006845925517796373 -0.0006905442462438202 0.0038366541391944295 0.0 0.0
0.0 0.005546043977503857 0.0048108305774853255 -0.004250315089141481 -0.0005605154883438413 0.0026842860013994788 0.0 0.0
0.0 0.003045221871598793 0.0025961525673459827 -0.0022071995970903515 -0.00038895297025563086 0.0015987118490832937 0.0 0.0
0.0 0.0013349628127866538 0.000995403379766771 -0.0008114838847712259 -0.00018391949499554547 0.000704999487443749 0.0 0.0
0.0 0.0002946407492899069 0.0001782466798487232 -0.00014154290837858013 -3.670377147014307e-05 0.00016536576723312946 0.0 0.0
0.0 1.6903454116883746e-05 7.929307525809077e-07 -6.833905767119667e-07 -1.0954017586886984e-07 1.1538384555340995e-06 0.0 0.0
0.0 6.92994622914334e-08 -5.86708978807203e-09 4.478351485713519e-09 1.3887383023585593e-09 -8.798859175293273e-09 0.0 0.0
0.0 0.0 0.0 0.0 0.0 0.0 0.0 0.0
0.0 0.0 0.0 0.0 0.0 0.0 0.0 0.0
0.0 0.0023842602873071586 0.001452921452016612 -0.001776252565860742 0.0003233311138441294 0.001991970528140787 0.0 0.0
0.0 0.0015003946474034086 0.0008816418290980121 -0.0011124504963240705 0.00023080866722605825 -0.0012623547570027632 0.0 0.0
0.0 0.0 0.0 0.0 0.0 0.0 0.0 0.0
0.0 0.0 0.0 0.0 0.0 0.0 0.0 0.0
0.0 0.0 0.0 0.0 0.0 0.0 0.0 0.0
0.0 1.0042081989473157e-05 -9.329724215854319e-07 7.201815348631364e-07 2.1279088672229382e-07 1.7612736881375419e-06 0.0 0.0
0.0 0.0001102318580318388 6.71850203918402e-05 -5.327995129472274e-05 -1.3905069097117432e-05 -9.785061921902792e-05 0.0 0.0
0.0 0.0007388781611636479 0.0005220421241787037 -0.000418913406660378 -0.00010312871751832554 -0.000538582817012392 0.0 0.0
0.0 0.002108054635844603 0.001663542463877653 -0.0013831539161724988 -0.0002803885477051542 -0.0013910887364241343 0.0 0.0
0.0 0.00412382974207117 0.0034386517465759972 -0.00297478906611745 -0.0004638626804585469 -0.0025349659319226442 0.0 0.0
0.0 0.006697391890737092 0.0056779691144770725 -0.005071180369518072 -0.0006067887449589983 -0.003792822557419644 0.0 0.0
0.0 0.009780873532519682 0.00831831126616831 -0.0076043742240573566 -0.000713937042110954 -0.005052693532462746 0.0 0.0
0.0 0.013428952834999076 0.011415196998862346 -0.010616003931316892 -0.0007991930675454538 -0.006324916654541194 0.0 0.0
0.0 0.01777992241747279 0.015107134134880294 -0.014234720399957417 -0.0008724137349228812 -0.00769913941926185 0.0 0.0
0.0 0.023030178815470585 0.019558716634520943 -0.018618671423424393 -0.0009400452110965439 -0.00927281224033057 0.0 0.0
0.0 0.029319509792774208 0.024865884723720873 -0.023860607852669066 -0.0010052768710518132 -0.011050063204007926 0.0 0.0
0.0 0.03631006206222711 0.030977863548099227 -0.029907854394781823 -0.0010700091533174068 -0.012806303526468459 0.0 0.0
0.0 0.044112637784628254 0.037647699151481556 -0.036512804928470616 -0.0011348942230109133 -0.01404683961343976 0.0 0.0
0.0 0.051872591133955974 0.04444132918599551 -0.043240908551293755 -0.0012004206347017204 -0.01407481486275215 0.0 0.0
0.0 0.058601870459930386 0.05064958910416763 -0.04938416325600278 -0.0012654258481648178 -0.011918591407565095 0.0 0.0
0.0 0.06354681806099904 0.055232486812302035 -0.053914119655974216 -0.0013183671563278105 -0.006530781005249604 0.0 0.0
0.0 0.063546818060995 0.05523248681229776 -0.053914119655969976 -0.0013183671563278077 0.006530781005275133 0.0 0.0
0.0 0.058601870459922066 0.05064958910415833 -0.049384163255993596 -0.001265425848164744 0.011918591407598442 0.0 0.0
0.0 0.051872591133941943 0.044441329185981225 -0.04324090855127965 -0.0012004206347015786 0.014074814862776857 0.0 0.0
0.0 0.04411263778461022 0.037647699151464736 -0.03651280492845432 -0.0011348942230103886 0.01404683961344942 0.0 0.0
0.0 0.0363100620622074 0.030977863548081942 -0.02990785439476542 -0.0010700091533165095 0.012806303526464908 0.0 0.0
0.0 0.029319509792752496 0.02486588472370184 -0.023860607852650737 -0.001005276871051103 0.011050063204002692 0.0 0.0
0.0 0.023030178815450875 0.019558716634503447 -0.018618671423407437 -0.0009400452110960162 0.00927281224032673 0.0 0.0
0.0 0.017779922417453527 0.01510713413486325 -0.014234720399940951 -0.0008724137349222973 0.007699139419258146 0.0 0.0
0.0 0.013428952834978714 0.011415196998844917 -0.010616003931299963 -0.0007991930675449535 0.0063249166545330075 0.0 0.0
0.0 0.00978087353250169 0.008318311266152883 -0.0076043742240427025 -0.00071393704211018 0.005052693532453666 0.0 0.0
0.0 0.006697391890722592 0.00567796911446477 -0.005071180369506616 -0.0006067887449581527 0.0037928225574095312 0.0 0.0
0.0 0.004123829742059177 0.0034386517465655585 -0.0029747890661079024 -0.0004638626804576561 0.002534965931915765 0.0 0.0
0.0 0.002108054635835274 0.0016635424638699855 -0.0013831539161658633 -0.00028038854770412176 0.0013910887364185077 0.0 0.0
0.0 0.0007388781611583867 0.0005220421241749539 -0.0004189134066572911 -0.0001031287175176627 0.0005385828170089828 0.0 0.0
0.0 0.00011023185803053431 6.718502039159077e-05 -5.327995129452215e-05 -1.3905069097068663e-05 9.785061921860743e-05 0.0 0.0
0.0 1.0042081989081814e-05 -9.329724215460563e-07 7.201815348328094e-07 2.127908867132563e-07 -1.7612736880608109e-06 0.0 0.0
0.0 0.0 0.0 0.0 0.0 0.0 0.0 0.0
0.0 0.0 0.0 0.0 0.0 0.0 0.0 0.0
0.0 0.0 0.0 0.0 0.0 0.0 0.0 0.0
0.0 0.0015003946473956405 0.0008816418290934363 -0.0011124504963186583 0.00023080866722522206 0.0012623547569959317 0.0 0.0
0.0 0.0008469766032745618 0.00046293939347838973 -0.0006018784303159099 0.00013893903683752 -0.0006911547222869761 0.0 0.0
0.0 0.0 0.0 0.0 0.0 0.0 0.0 0.0
0.0 0.0 0.0 0.0 0.0 0.0 0.0 0.0
0.0 0.0 0.0 0.0 0.0 0.0 0.0 0.0
0.0 3.4956884180663735e-06 -5.667935655431548e-08 3.4493466987012354e-08 2.2185889567298813e-08 1.0062782669939052e-07 0.0 0.0
0.0 6.061268727518346e-05 1.6249827241171712e-05 -1.2887435783089277e-05 -3.3623914580824713e-06 -3.4219857506472024e-05 0.0 0.0
0.0 0.0003437479424483671 0.0002095703710556974 -0.00016663929359642468 -4.2931077459272685e-05 -0.00033472339123420973 0.0 0.0
0.0 0.001241695061387898 0.0008889638665741036 -0.0007222493116944209 -0.0001667145548796823 -0.0010556975325302454 0.0 0.0
0.0 0.002770158849226854 0.002147145921280923 -0.001808915673699753 -0.00033823024758116924 -0.0021118412488152017 0.0 0.0
0.0 0.004763102872290659 0.0038686801862076532 -0.00337398406154858 -0.000494696124659073 -0.0033737843699176784 0.0 0.0
0.0 0.007163193493840328 0.005917327336695504 -0.0053049473098997595 -0.0006123800267957455 -0.00467063246788221 0.0 0.0
0.0 0.009989837739535143 0.008300913183384283 -0.007596496861654558 -0.0007044163217297246 -0.005942196319899895 0.0 0.0
0.0 0.013371297967068102 0.011125151428375387 -0.010346226357199378 -0.0007789250711760021 -0.007284510438085917 0.0 0.0
0.0 0.017406317635429748 0.014536395143025774 -0.013692838310538545 -0.000843556832487221 -0.008798784231714317 0.0 0.0
0.0 0.022288124084502522 0.01863816596653869 -0.017736974399179484 -0.0009011915673592011 -0.010486982996569777 0.0 0.0
0.0 0.0279577456652859 0.023443534140336994 -0.022485811191415836 -0.0009577229489211488 -0.012170486520938516 0.0 0.0
0.0 0.03414331320164378 0.028814866153860422 -0.02780355303145281 -0.0010113131224076116 -0.0134540494347725 0.0 0.0
0.0 0.040591580957458406 0.03449638513947413 -0.03343416024793426 -0.0010622248915398752 -0.013698294079553565 0.0 0.0
0.0 0.0468073408044556 0.04005235266020998 -0.0389366557515032 -0.0011156969087067674 -0.011961501848166486 0.0 0.0
0.0 0.051734529306604174 0.04463023387730577 -0.04346107389851451 -0.001169159978791243 -0.006931626075288193 0.0 0.0
0.0 0.05173452930660141 0.044630233877302604 -0.04346107389851134 -0.0011691599787912624 0.0069316260753107505 0.0 0.0
0.0 0.046807340804449496 0.04005235266020218 -0.03893665575149573 -0.0011156969087064421 0.011961501848198781 0.0 0.0
0.0 0.04059158095744812 0.034496385139462724 -0.03343416024792298 -0.0010622248915397588 0.013698294079576649 0.0 0.0
0.0 0.034143313201629784 0.02881486615384707 -0.02780355303143964 -0.0010113131224074316 0.01345404943477993 0.0 0.0
0.0 0.027957745665270217 0.02344353414032336 -0.022485811191402597 -0.0009577229489207514 0.012170486520934633 0.0 0.0
0.0 0.022288124084484884 0.0186381659665236 -0.01773697439916467 -0.0009011915673589342 0.01048698299656362 0.0 0.0
0.0 0.01740631763541354 0.014536395143011666 -0.013692838310524771 -0.0008435568324868932 0.008798784231709749 0.0 0.0
0.0 0.013371297967053282 0.01112515142836222 -0.010346226357186898 -0.0007789250711753182 0.00728451043808215 0.0 0.0
0.0 0.00998983773951911 0.008300913183370603 -0.007596496861641563 -0.0007044163217290405 0.0059421963198916464 0.0 0.0
0.0 0.0071631934938252385 0.00591732733668314 -0.005304947309887969 -0.0006123800267951675 0.004670632467872176 0.0 0.0
0.0 0.004763102872277019 0.003868680186196752 -0.003373984061538537 -0.0004946961246582146 0.0033737843699069986 0.0 0.0
0.0 0.0027701588492161453 0.0021471459212724945 -0.001808915673692164 -0.0003382302475803295 0.002111841248808306 0.0 0.0
0.0 0.0012416950613811453 0.000888963866569199 -0.0007222493116903152 -0.00016671455487888426 0.0010556975325252155 0.0 0.0
0.0 0.0003437479424454133 0.00020957037105399413 -0.0001666392935950632 -4.2931077458930735e-05 0.00033472339123189523 0.0 0.0
0.0 6.061268727395901e-05 1.6249827241007527e-05 -1.288743578295786e-05 -3.36239145804959e-06 3.4219857506103856e-05 0.0 0.0
0.0 3.4956884178037107e-06 -5.667935639092063e-08 3.449346685610963e-08 2.218588953480471e-08 -1.006278262260423e-07 0.0 0.0
0.0 0.0 0.0 0.0 0.0 0.0 0.0 0.0
0.0 0.0 0.0 0.0 0.0 0.0 0.0 0.0
0.0 0.0 0.0 0.0 0.0 0.0 0.0 0.0
0.0 0.0008469766032690656 0.0004629393934755248 -0.0006018784303124009 0.00013893903683687614 0.000691154722282542 0.0 0.0
0.0 0.0003923110154814576 0.00018412220068361203 -0.00024817387192377686 6.405167124016516e-05 -0.0002827556817647707 0.0 0.0
0.0 9.021725963171627e-08 -5.274566123778698e-10 6.099197200343717e-10 -8.24631076566411e-11 1.7958020711408732e-08 0.0 0.0
0.0 0.0 0.0 0.0 0.0 0.0 0.0 0.0
0.0 0.0 0.0 0.0 0.0 0.0 0.0 0.0
0.0 2.941446764786285e-06 -1.3952363807393717e-07 1.0592787567314353e-07 3.3595762400780106e-08 5.885360677433528e-07 0.0 0.0
0.0 3.393225829758942e-05 6.7736927163099856e-06 -5.274481175664601e-06 -1.499211540645379e-06 -2.080921939396002e-05 0.0 0.0
0.0 0.0001587179292889812 6.7942991995119e-05 -5.383982740599728e-05 -1.4103164589121748e-05 -0.0001801295695888492 0.0 0.0
0.0 0.0005794218713167975 0.0003389437345020851 -0.000269822403050256 -6.912133145182905e-05 -0.000647277367821958 0.0 0.0
0.0 0.0015563902767674067 0.0010358213773775126 -0.0008462276393139082 -0.00018959373806360413 -0.0014884633454640885 0.0 0.0
0.0 0.0028811960166438793 0.0021733869490179413 -0.0018337232573892768 -0.0003396636916286645 -0.0026037070406635717 0.0 0.0
0.0 0.004687372154308044 0.0036018542448691578 -0.0031338689556978582 -0.0004679852891712982 -0.0038159493277890744 0.0 0.0
0.0 0.006671464273902034 0.005280385603197414 -0.004709508139411543 -0.0005708774637858708 -0.005036290615058134 0.0 0.0
0.0 0.00905028468053911 0.007258998862771652 -0.006604845686869277 -0.0006541531759023708 -0.006296331780086393 0.0 0.0
0.0 0.01194908763005946 0.009648044175121199 -0.008926052078729377 -0.0007219920963918184 -0.00765986874174076 0.0 0.0
0.0 0.015509191087595513 0.01255169392337917 -0.011773062717806794 -0.0007786312055723746 -0.0091505468960971 0.0 0.0
0.0 0.01966265139185785 0.016029035594291197 -0.015201562153780799 -0.0008274734405103962 -0.010661810247467296 0.0 0.0
0.0 0.024424738162970205 0.020049368749078773 -0.019175948370849596 -0.0008734203782291759 -0.011857401931217404 0.0 0.0
0.0 0.02943536475967707 0.024514928404393704 -0.02360338120454089 -0.0009115471998528001 -0.012277863171347755 0.0 0.0
0.0 0.034609569690286474 0.029283816893578854 -0.028337551651130846 -0.0009462652424479958 -0.011225903177271691 0.0 0.0
0.0 0.03938431534714046 0.033829458080946895 -0.0328308865763902 -0.0009985715045566861 -0.007124308215416369 0.0 0.0
0.0 0.039384315347137905 0.03382945808094376 -0.032830886576386935 -0.0009985715045568151 0.007124308215434975 0.0 0.0
0.0 0.03460956969028217 0.02928381689357258 -0.028337551651124507 -0.0009462652424480727 0.011225903177298477 0.0 0.0
0.0 0.029435364759670655 0.024514928404385523 -0.02360338120453309 -0.000911547199852434 0.012277863171367556 0.0 0.0
0.0 0.024424738162960473 0.020049368749069145 -0.01917594837084067 -0.000873420378228476 0.011857401931222743 0.0 0.0
0.0 0.019662651391846774 0.016029035594281756 -0.015201562153772052 -0.0008274734405096973 0.010661810247463044 0.0 0.0
0.0 0.015509191087582537 0.012551693923368353 -0.011773062717796445 -0.0007786312055719059 0.009150546896091315 0.0 0.0
0.0 0.011949087630048197 0.0096480441751116 -0.008926052078720057 -0.0007219920963915449 0.007659868741737152 0.0 0.0
0.0 0.009050284680529826 0.007258998862763549 -0.006604845686861564 -0.0006541531759019849 0.006296331780083248 0.0 0.0
0.0 0.006671464273892334 0.005280385603189393 -0.004709508139404173 -0.000570877463785221 0.005036290615052052 0.0 0.0
0.0 0.0046873721542973 0.003601854244860571 -0.0031338689556901487 -0.000467985289170421 0.0038159493277810292 0.0 0.0
0.0 0.002881196016634025 0.0021733869490108007 -0.0018337232573830047 -0.00033966369162779505 0.0026037070406546006 0.0 0.0
0.0 0.0015563902767614835 0.0010358213773733103 -0.0008462276393103865 -0.00018959373806292387 0.0014884633454591621 0.0 0.0
0.0 0.0005794218713142907 0.0003389437345005938 -0.00026982240304906783 -6.912133145152584e-05 0.0006472773678197262 0.0 0.0
0.0 0.00015871792928762456 6.794299199485869e-05 -5.383982740577981e-05 -1.4103164589078922e-05 0.00018012956958801028 0.0 0.0
0.0 3.393225829687094e-05 6.7736927163337194e-06 -5.274481175684491e-06 -1.4992115406492058e-06 2.0809219394036508e-05 0.0 0.0
0.0 2.9414467642801842e-06 -1.3952363805020315e-07 1.0592787565476392e-07 3.359576239544616e-08 -5.885360676368125e-07 0.0 0.0
0.0 0.0 0.0 0.0 0.0 0.0 0.0 0.0
0.0 0.0 0.0 0.0 0.0 0.0 0.0 0.0
0.0 9.021725939530122e-08 -5.274566109826295e-10 6.099197184208691e-10 -8.246310743827494e-11 -1.7958020663926448e-08 0.0 0.0
0.0 0.0003923110154780418 0.00018412220068223407 -0.0002481738719219928 6.40516712397589e-05 0.00028275568176269864 0.0 0.0
0.0 0.0001101859440394771 4.8910879627937036e-05 -6.912145948600655e-05 2.021057985806956e-05 -7.892339891372813e-05 0.0 0.0
0.0 1.8030073051673429e-06 -4.177191184509683e-09 1.0378638774830307e-08 -6.201447590320216e-09 3.8291760625588695e-07 0.0 0.0
0.0 0.0 0.0 0.0 0.0 0.0 0.0 0.0
0.0 1.3942118126280809e-06 -1.7202479833820512e-08 1.1633862331670308e-08 5.568617502153395e-09 2.882879494068393e-07 0.0 0.0
0.0 3.0628381032312882e-06 -6.90575449801798e-08 5.370267077264668e-08 1.5354874207528902e-08 6.580753880870616e-07 0.0 0.0
0.0 2.660040008841124e-05 2.1200575612232922e-06 -1.6911881316135443e-06 -4.2886942960975244e-07 -1.2229690996840882e-05 0.0 0.0
0.0 0.0001106709492161695 2.72049479577678e-05 -2.1562584783569456e-05 -5.642363174198304e-06 -0.00012842497302757274 0.0 0.0
0.0 0.00025899060174079593 9.858638428415012e-05 -7.808604883060353e-05 -2.0500335453546556e-05 -0.00037747998054136946 0.0 0.0
0.0 0.000636272288225769 0.0002896450700986585 -0.0002301864220426638 -5.945864805599466e-05 -0.0008148632806591274 0.0 0.0
0.0 0.00131926021481782 0.0007542135214322306 -0.0006094105077281718 -0.00014480301370405893 -0.001573036782096363 0.0 0.0
0.0 0.002292502361410543 0.001503882126388086 -0.0012477223718401508 -0.0002561597545479346 -0.0025343350743740533 0.0 0.0
0.0 0.0035630971739473395 0.0024410672138000904 -0.002081399732566085 -0.00035966748123400494 -0.0035725728197100876 0.0 0.0
0.0 0.005038889817802038 0.0035789510437456745 -0.0031255123649628885 -0.0004534386787827841 -0.00470150664982282 0.0 0.0
0.0 0.006831787170642789 0.004970701621762425 -0.004436554275482714 -0.0005341473462797094 -0.005883627798113867 0.0 0.0
0.0 0.009018638939514784 0.006691152596555686 -0.006090820131687052 -0.0006003324648686326 -0.007126210701040772 0.0 0.0
0.0 0.011674589917425909 0.008824574578236903 -0.00817185967089637 -0.0006527149073405366 -0.008392082988612734 0.0 0.0
0.0 0.014883190183673435 0.011447136068674918 -0.010751752261326417 -0.0006953838073485062 -0.009489832091964434 0.0 0.0
0.0 0.018534694291271633 0.014605448857710772 -0.013870946088222437 -0.000734502769488341 -0.009975958898969487 0.0 0.0
0.0 0.022680987085053637 0.018357102847058167 -0.017606761275888196 -0.0007503415711699745 -0.0095458316878718 0.0 0.0
0.0 0.027153566033654868 0.022709106810138227 -0.02191983411700098 -0.0007892726931372515 -0.0069594212789915785 0.0 0.0
0.0 0.0271535660336564 0.022709106810138272 -0.02191983411700124 -0.0007892726931370462 0.00695942127900686 0.0 0.0
0.0 0.022680987085053977 0.018357102847055558 -0.017606761275885875 -0.0007503415711696775 0.009545831687895467 0.0 0.0
0.0 0.018534694291268576 0.014605448857705582 -0.013870946088217633 -0.0007345027694879495 0.00997595889898504 0.0 0.0
0.0 0.014883190183666462 0.011447136068668332 -0.010751752261320045 -0.0006953838073482819 0.00948983209196632 0.0 0.0
0.0 0.01167458991741762 0.008824574578230854 -0.008171859670890673 -0.0006527149073401773 0.008392082988606669 0.0 0.0
0.0 0.009018638939507006 0.006691152596549839 -0.006090820131681508 -0.0006003324648683273 0.007126210701035297 0.0 0.0
0.0 0.006831787170637 0.004970701621757688 -0.004436554275478269 -0.0005341473462794164 0.005883627798110942 0.0 0.0
0.0 0.005038889817797592 0.003578951043741688 -0.003125512364959292 -0.00045343867878239614 0.004701506649821293 0.0 0.0
0.0 0.003563097173940626 0.002441067213795281 -0.0020813997325619233 -0.00035966748123335735 0.0035725728197044393 0.0 0.0
0.0 0.002292502361403543 0.0015038821263835497 -0.0012477223718361712 -0.0002561597545473776 0.002534335074366831 0.0 0.0
0.0 0.0013192602148120501 0.0007542135214289446 -0.0006094105077254216 -0.0001448030137035227 0.0015730367820901178 0.0 0.0
0.0 0.0006362722882229824 0.00028964507009714044 -0.00023018642204145694 -5.945864805568343e-05 0.0008148632806558866 0.0 0.0
0.0 0.00025899060173926623 9.858638428370946e-05 -7.80860488302622e-05 -2.0500335453447237e-05 0.0003774799805397958 0.0 0.0
0.0 0.00011067094921502792 2.7204947957595158e-05 -2.1562584783429703e-05 -5.642363174165436e-06 0.00012842497302673127 0.0 0.0
0.0 2.6600400087860983e-05 2.120057561223195e-06 -1.6911881316125211e-06 -4.288694296106616e-07 1.2229690996861368e-05 0.0 0.0
0.0 3.062838102718457e-06 -6.905754496692381e-08 5.3702670762761436e-08 1.535487420416051e-08 -6.580753879724068e-07 0.0 0.0
0.0 1.3942118121365584e-06 -1.7202479827439693e-08 1.1633862327329383e-08 5.568617500112952e-09 -2.8828794930130727e-07 0.0 0.0
0.0 0.0 0.0 0.0 0.0 0.0 0.0 0.0
0.0 1.8030073045943297e-06 -4.1771911826671024e-09 1.0378638770354691e-08 -6.201447587687759e-09 -3.8291760613307903e-07 0.0 0.0
0.0 0.00011018594403774156 4.8910879627535786e-05 -6.912145948543091e-05 2.021057985789509e-05 7.892339891322787e-05 0.0 0.0
0.0 1.4108046751424463e-05 2.9585143704197768e-06 -4.313088262357989e-06 1.3545738919382194e-06 -5.17949572857115e-06 0.0 0.0
0.0 2.1979396482406107e-06 1.1868574056845524e-09 1.0883559240507842e-08 -1.207041664619258e-08 4.588111399241068e-07 0.0 0.0
0.0 8.28283976103979e-07 8.757322001854407e-09 -7.994197467743662e-09 -7.631245341108108e-10 1.6872916499049268e-07 0.0 0.0
0.0 1.0341171999299922e-06 3.4830124123105497e-09 -4.631541757330647e-09 1.1485293450206947e-09 2.129476539670559e-07 0.0 0.0
0.0 5.455561020512527e-06 -1.877319191668789e-08 9.400339741409076e-09 9.372852175272426e-09 1.2338249442580408e-06 0.0 0.0
0.0 2.3105214902688042e-05 7.515654898347374e-07 -5.842644999034029e-07 -1.6730098993132417e-07 -1.4894585437196266e-05 0.0 0.0
0.0 8.797785566707519e-05 8.266845687220819e-06 -6.525787119162225e-06 -1.7410585680585952e-06 -0.00012315527538003028 0.0 0.0
0.0 0.00022017704524807092 2.4552082979347695e-05 -1.9423324485384587e-05 -5.128758493963083e-06 -0.0002900157592183975 0.0 0.0
0.0 0.0003665607397734656 5.879970999677427e-05 -4.666192446145573e-05 -1.2137785535318568e-05 -0.0005608968707989132 0.0 0.0
0.0 0.0006324886933655368 0.00011512904267197121 -9.187825718112907e-05 -2.325078549084214e-05 -0.0009147733335703942 0.0 0.0
0.0 0.0008854462062391393 0.00021373915159140426 -0.00017153977489910144 -4.2199376692302785e-05 -0.0014626489466815023 0.0 0.0
0.0 0.001336807311666415 0.00037791422466887305 -0.00030310007749412244 -7.481414717475053e-05 -0.0021407434053261347 0.0 0.0
0.0 0.0019443729343708532 0.0006337837755526457 -0.0005089319429081212 -0.00012485183264452458 -0.0029866508966533223 0.0 0.0
0.0 0.0027362866019273453 0.0009746491914126678 -0.0007896521578182664 -0.00018499703359440106 -0.004003211017892621 0.0 0.0
0.0 0.00371430344183623 0.0014527543522865926 -0.0012018421180666659 -0.00025091223421992666 -0.0052108265516466485 0.0 0.0
0.0 0.00502036754978622 0.0021873369582067694 -0.0018734693343815103 -0.00031386762382525784 -0.00652268104610058 0.0 0.0
0.0 0.006679231680282167 0.003340192132612345 -0.002970668067667608 -0.00036952406494473447 -0.0077068932618452 0.0 0.0
0.0 0.008780913871758788 0.0051257971709947146 -0.004695314424885143 -0.0004304827461095717 -0.008297305380658222 0.0 0.0
0.0 0.011436847919217112 0.007656635035783704 -0.007166313103030021 -0.0004903219327536833 -0.007894137285469904 0.0 0.0
0.0 0.015113409024828143 0.011309118602507592 -0.010830036334755586 -0.00047908226775200083 -0.006609596190456644 0.0 0.0
0.0 0.01511340902482998 0.011309118602508128 -0.010830036334756075 -0.00047908226775204886 0.006609596190467234 0.0 0.0
0.0 0.011436847919219442 0.007656635035782911 -0.0071663131030292836 -0.0004903219327536236 0.00789413728548683 0.0 0.0
0.0 0.008780913871758075 0.005125797170992183 -0.004695314424882657 -0.00043048274610952246 0.008297305380668087 0.0 0.0
0.0 0.0066792316802794256 0.003340192132610346 -0.0029706680676657763 -0.0003695240649445686 0.007706893261844943 0.0 0.0
0.0 0.005020367549782337 0.0021873369582052484 -0.001873469334380107 -0.00031386762382514 0.006522681046094941 0.0 0.0
0.0 0.0037143034418332865 0.0014527543522854132 -0.0012018421180656355 -0.00025091223421977736 0.0052108265516424826 0.0 0.0
0.0 0.002736286601924597 0.0009746491914116547 -0.0007896521578174189 -0.00018499703359423593 0.0040032110178889555 0.0 0.0
0.0 0.0019443729343693343 0.0006337837755523048 -0.0005089319429079191 -0.00012485183264438545 0.002986650896651055 0.0 0.0
0.0 0.0013368073116634244 0.0003779142246680884 -0.00030310007749349084 -7.481414717459749e-05 0.0021407434053214505 0.0 0.0
0.0 0.0008854462062362763 0.00021373915159066012 -0.0001715397748984916 -4.21993766921685e-05 0.0014626489466765236 0.0 0.0
0.0 0.0006324886933628829 0.00011512904267166582 -9.187825718086468e-05 -2.3250785490801125e-05 0.0009147733335668302 0.0 0.0
0.0 0.0003665607397725177 5.879970999665028e-05 -4.6661924461368276e-05 -1.2137785535281952e-05 0.0005608968707975701 0.0 0.0
0.0 0.00022017704524696557 2.4552082979215175e-05 -1.942332448527813e-05 -5.128758493937037e-06 0.0002900157592167903 0.0 0.0
0.0 8.797785566608699e-05 8.266845687145282e-06 -6.5257871190992424e-06 -1.7410585680460295e-06 0.00012315527537892787 0.0 0.0
0.0 2.3105214902085307e-05 7.515654898266298e-07 -5.842644998959304e-07 -1.6730098993070356e-07 1.4894585437062389e-05 0.0 0.0
0.0 5.4555610200182124e-06 -1.87731919147807e-08 9.400339740515117e-09 9.372852174262189e-09 -1.2338249441362645e-06 0.0 0.0
0.0 1.0341171994111593e-06 3.4830124097744975e-09 -4.63154175459075e-09 1.1485293448161685e-09 -2.1294765385734702e-07 0.0 0.0
0.0 8.282839756553083e-07 8.757321996808003e-09 -7.99419746324245e-09 -7.631245335657651e-10 -1.687291648967851e-07 0.0 0.0
0.0 2.1979396476663126e-06 1.1868574058352821e-09 1.0883559236708018e-08 -1.2070416642541689e-08 -4.588111397997392e-07 0.0 0.0
0.0 1.4108046750901359e-05 2.9585143705052233e-06 -4.313088262482652e-06 1.3545738919773788e-06 5.179495728749616e-06 0.0 0.0
0.0 1.746363269014452e-06 -1.080716133846742e-07 1.601080298073669e-07 -5.203641642269867e-08 2.3480853834527648e-07 0.0 0.0
0.0 1.7796170291698353e-06 6.777231581667589e-09 2.818520896233413e-09 -9.595752477896557e-09 3.8083891622846305e-07 0.0 0.0
0.0 1.006612653282911e-06 1.8800037151531995e-08 -1.6160969127413305e-08 -2.6390680241173787e-09 2.0557945423080885e-07 0.0 0.0
0.0 1.3830639415008088e-06 2.5459537940910303e-08 -2.257136934973081e-08 -2.8881685911793595e-09 2.8364822182210734e-07 0.0 0.0
0.0 6.329568723119171e-06 1.2100159608371412e-07 -9.95749289913299e-08 -2.1426667092374816e-08 1.450807040856032e-06 0.0 0.0
0.0 2.6477403209854696e-05 -8.21267270074999e-07 6.789264813058591e-07 1.4234078876913354e-07 -1.2730526382921018e-05 0.0 0.0
0.0 8.98443854832893e-05 -8.744188141559738e-06 6.988861399242131e-06 1.7553267423175918e-06 -0.00012389258354731614 0.0 0.0
0.0 0.0002204845781623947 -2.453341303316395e-05 1.9406085219711296e-05 5.127327813452607e-06 -0.00029037621497737115 0.0 0.0
0.0 0.00036628709593586854 -5.849485409828557e-05 4.63946388577179e-05 1.2100215240567653e-05 -0.0005607952050549385 0.0 0.0
0.0 0.0006313936024449796 -0.0001147043608653774 9.1492796043116e-05 2.3211564822261494e-05 -0.0009137321899863747 0.0 0.0
0.0 0.0008900610141836645 -0.00020966421019644923 0.0001688181332577657 4.0846076938683474e-05 -0.0014588845025569387 0.0 0.0
0.0 0.0013385839597017165 -0.00038009198581990573 0.00030531046054627184 7.478152527363374e-05 -0.002141469408071477 0.0 0.0
0.0 0.001951763836579774 -0.0006436125059589512 0.0005178259587633225 0.00012578654719562854 -0.0029885875110822464 0.0 0.0
0.0 0.00274895151657532 -0.0009929385539949457 0.0008045470885524414 0.00018839146544250398 -0.004008405550144004 0.0 0.0
0.0 0.0037025130287743338 -0.0014331914360291276 0.0011753013085795763 0.00025789012744955046 -0.005218733831911895 0.0 0.0
0.0 0.004814452009722995 -0.001875671891269439 0.0015508054982760063 0.00032486639299343086 -0.006577022236095595 0.0 0.0
0.0 0.005845736706079009 -0.0020846441294215174 0.001708400872122388 0.0003762432572991287 -0.008071699105940288 0.0 0.0
0.0 0.006631164468518513 -0.0017806136303521588 0.0013700598865018423 0.00041055374385031644 -0.009678157364919091 0.0 0.0
0.0 0.006961199715492705 -0.0008918635814987472 0.0005865637551901394 0.00030529982630860724 -0.010953823648293448 0.0 0.0
0.0 0.006497996779197837 0.001501866971687102 -0.0015898966567685791 8.802968508147716e-05 -0.009512213663067277 0.0 0.0
0.0 0.006497996779201364 0.0015018669716869463 -0.001589896656768596 8.802968508164852e-05 0.009512213663075938 0.0 0.0
0.0 0.006961199715496605 -0.0008918635814991373 0.0005865637551903808 0.00030529982630875556 0.010953823648301816 0.0 0.0
0.0 0.006631164468517234 -0.0017806136303511163 0.00137005988650116 0.00041055374384995507 0.009678157364920687 0.0 0.0
0.0 0.0058457367060743325 -0.0020846441294193243 0.0017084008721205944 0.00037624325729873013 0.008071699105935477 0.0 0.0
0.0 0.004814452009718149 -0.0018756718912668864 0.0015508054982737054 0.00032486639299318063 0.006577022236089514 0.0 0.0
0.0 0.003702513028770156 -0.0014331914360271036 0.0011753013085780096 0.00025789012744909304 0.0052187338319074515 0.0 0.0
0.0 0.002748951516570921 -0.0009929385539929193 0.000804547088550859 0.00018839146544206035 0.004008405550139401 0.0 0.0
0.0 0.0019517638365764733 -0.0006436125059568278 0.0005178259587616059 0.00012578654719522172 0.002988587511078936 0.0 0.0
0.0 0.0013385839596976234 -0.0003800919858180008 0.0003053104605446943 7.478152527330643e-05 0.002141469408066262 0.0 0.0
0.0 0.0008900610141803323 -0.00020966421019537367 0.00016881813325687124 4.08460769385024e-05 0.001458884502551968 0.0 0.0
0.0 0.0006313936024416839 -0.00011470436086473254 9.14927960425361e-05 2.3211564822196425e-05 0.0009137321899826518 0.0 0.0
0.0 0.00036628709593453546 -5.849485409793077e-05 4.639463885742669e-05 1.2100215240504068e-05 0.0005607952050530195 0.0 0.0
0.0 0.00022048457816150192 -2.4533413033029152e-05 1.94060852195976e-05 5.127327813431541e-06 0.0002903762149763827 0.0 0.0
0.0 8.984438548244798e-05 -8.744188141496365e-06 6.9888613992036356e-06 1.7553267422927219e-06 0.00012389258354647084 0.0 0.0
0.0 2.647740320927697e-05 -8.212672700819547e-07 6.78926481313824e-07 1.423407887681424e-07 1.2730526383033761e-05 0.0 0.0
0.0 6.329568722502479e-06 1.210015960720766e-07 -9.957492898152986e-08 -2.142666709055061e-08 -1.4508070407032778e-06 0.0 0.0
0.0 1.38306394101384e-06 2.5459537931086613e-08 -2.257136934122153e-08 -2.8881685898646692e-09 -2.8364822171881803e-07 0.0 0.0
0.0 1.0066126526757192e-06 1.8800037139368483e-08 -1.616096911716342e-08 -2.639068022204588e-09 -2.0557945410441137e-07 0.0 0.0
0.0 1.7796170285604457e-06 6.777231579867834e-09 2.8185208935578717e-09 -9.595752473420792e-09 -3.808389160997736e-07 0.0 0.0
0.0 1.7463632684856744e-06 -1.0807161335057875e-07 1.601080297566021e-07 -5.2036416406020456e-08 -2.3480853827189452e-07 0.0 0.0
0.0 0.0 0.0 0.0 0.0 0.0 0.0 0.0
0.0 3.276462985221994e-07 3.2186778971512715e-09 -1.5001146982919518e-09 -1.7185631988585876e-09 6.55534057056826e-08 0.0 0.0
0.0 1.1358547083526696e-06 2.9199022431040485e-08 -2.4414515400477513e-08 -4.784507030563987e-09 2.311035997749412e-07 0.0 0.0
0.0 4.433390297608247e-06 1.6015753021184142e-07 -1.3149237797340506e-07 -2.8665152238422848e-08 9.6169292488308e-07 0.0 0.0
0.0 6.681418996329818e-06 -3.7677254698420536e-08 5.2157861748537185e-08 -1.4480607050108824e-08 -5.674339379276197e-07 0.0 0.0
0.0 3.2739854575423954e-05 -4.928762128962838e-06 3.8713708279947335e-06 1.0573913009680657e-06 -2.488527441678247e-05 0.0 0.0
0.0 0.0001170717086559876 -2.8105605195437942e-05 2.2367348855784668e-05 5.738256339653266e-06 -0.00013111940022159446 0.0 0.0
0.0 0.00026029762251128204 -9.872676978667742e-05 7.820317479213635e-05 2.0523594994541033e-05 -0.00037836049744367366 0.0 0.0
0.0 0.0006341798162942455 -0.00028909834243090584 0.00022969635294684118 5.9401989484064626e-05 -0.0008141423140205101 0.0 0.0
0.0 0.001316785801008323 -0.0007530230338124387 0.0006083882806113896 0.00014463475320104872 -0.0015717366357148163 0.0 0.0
0.0 0.002292127226781361 -0.0015038765612929708 0.0012478536635447141 0.000256022897748256 -0.0025344890537902344 0.0 0.0
0.0 0.0035672791256972664 -0.0024457993874681797 0.0020863157271680845 0.00035948366030009483 -0.003572257623794795 0.0 0.0
0.0 0.005054516097695192 -0.0035964606720937536 0.003143132391999429 0.00045332828009432314 -0.0046940869011159285 0.0 0.0
0.0 0.0068628595853466355 -0.005002480851919013 0.00446624499927467 0.0005362358526443416 -0.00587317045348321 0.0 0.0
0.0 0.009015602390059538 -0.006671231042380491 0.006061425913640358 0.0006098051287401321 -0.007172746253091923 0.0 0.0
0.0 0.011401419701506273 -0.00848229592284383 0.007807858864122813 0.000674437058721013 -0.008683973930395704 0.0 0.0
0.0 0.01372985263798436 -0.010118376037014066 0.009386098440087653 0.0007322775969264136 -0.010440762243393228 0.0 0.0
0.0 0.015409424089620228 -0.011068374926383264 0.01028810272711372 0.0007802721992695458 -0.012330327542201818 0.0 0.0
0.0 0.01511496328729076 -0.010413308410285418 0.009548570291133374 0.0008647381191520412 -0.013078543514898644 0.0 0.0
0.0 0.011193505416575577 -0.006684784132456499 0.005806981973360261 0.0008778021590962378 -0.010649478304072408 0.0 0.0
0.0 0.011193505416579451 -0.006684784132456796 0.005806981973360455 0.00087780215909634 0.010649478304084938 0.0 0.0
0.0 0.015114963287294232 -0.010413308410284594 0.009548570291132579 0.0008647381191520065 0.0130785435149161 0.0 0.0
0.0 0.01540942408961782 -0.01106837492637879 0.010288102727109507 0.0007802721992692821 0.01233032754221312 0.0 0.0
0.0 0.013729852637976433 -0.010118376037007227 0.009386098440081122 0.0007322775969261074 0.010440762243391428 0.0 0.0
0.0 0.01140141970149722 -0.00848229592283654 0.007807858864115991 0.0006744370587205507 0.008683973930389534 0.0 0.0
0.0 0.009015602390051843 -0.006671231042374215 0.00606142591363446 0.0006098051287397543 0.007172746253087399 0.0 0.0
0.0 0.006862859585337841 -0.005002480851912041 0.004466244999268187 0.0005362358526438545 0.005873170453478033 0.0 0.0
0.0 0.0050545160976854225 -0.0035964606720855 0.0031431323919916734 0.0004533282800938246 0.004694086901110669 0.0 0.0
0.0 0.003567279125686265 -0.00244579938746005 0.0020863157271607162 0.0003594836602993337 0.0035722576237866887 0.0 0.0
0.0 0.002292127226771719 -0.0015038765612864194 0.0012478536635389885 0.00025602289774743044 0.0025344890537817443 0.0 0.0
0.0 0.0013167858010008121 -0.0007530230338076767 0.0006083882806074749 0.00014463475320020133 0.0015717366357075719 0.0 0.0
0.0 0.0006341798162914322 -0.00028909834242927916 0.00022969635294552647 5.940198948375261e-05 0.0008141423140175295 0.0 0.0
0.0 0.00026029762250982027 -9.872676978612408e-05 7.820317479170239e-05 2.0523594994421693e-05 0.00037836049744212374 0.0 0.0
0.0 0.0001170717086545912 -2.8105605195193055e-05 2.2367348855592818e-05 5.738256339600176e-06 0.00013111940022049955 0.0 0.0
0.0 3.273985457467349e-05 -4.928762128917723e-06 3.871370827959517e-06 1.0573913009582077e-06 2.488527441655689e-05 0.0 0.0
0.0 6.6814189959628855e-06 -3.7677254759558474e-08 5.215786180086439e-08 -1.4480607041322892e-08 5.674339383316724e-07 0.0 0.0
0.0 4.433390297146278e-06 1.6015753019507324e-07 -1.3149237795953612e-07 -2.8665152235533242e-08 -9.61692924777465e-07 0.0 0.0
0.0 1.1358547078605477e-06 2.919902241766033e-08 -2.441451538947173e-08 -4.7845070281886985e-09 -2.3110359967327132e-07 0.0 0.0
0.0 3.276462981955824e-07 3.218677893892744e-09 -1.500114696772239e-09 -1.7185631971203247e-09 -6.555340563942545e-08 0.0 0.0
0.0 0.0 0.0 0.0 0.0 0.0 0.0 0.0
0.0 0.0 0.0 0.0 0.0 0.0 0.0 0.0
0.0 0.0 0.0 0.0 0.0 0.0 0.0 0.0
0.0 2.3595770756542535e-06 8.103527067074457e-08 -6.628456757845172e-08 -1.4750703092293867e-08 4.821090557083344e-07 0.0 0.0
0.0 6.5906872819304125e-06 3.108815427979235e-07 -2.5702362177301864e-07 -5.385792102489637e-08 1.4093816020137892e-06 0.0 0.0
0.0 1.0732426329024543e-05 -9.599119631208174e-07 7.503890359707923e-07 2.095229271500347e-07 -3.0923000506747795e-06 0.0 0.0
0.0 4.7022405997860166e-05 -1.0843333455983745e-05 8.699755740012011e-06 2.1435777159717148e-06 -3.431391677977011e-05 0.0 0.0
0.0 0.00017094634643683064 -7.15774674057561e-05 5.677181848142722e-05 1.4805648924328879e-05 -0.0001873872129561474 0.0 0.0
0.0 0.0005809495172031022 -0.0003392496614090664 0.0002700941856461257 6.915547576294064e-05 -0.0006482030937128135 0.0 0.0
0.0 0.0015519405242673035 -0.0010336256563797186 0.0008442559068852923 0.00018936974949442602 -0.0014853479428691221 0.0 0.0
0.0 0.0028785616429204204 -0.0021722477273207934 0.001832622553740635 0.0003396251735801576 -0.002601822991835012 0.0 0.0
0.0 0.004687898173730345 -0.0036025440050749674 0.0031345786124652706 0.00046796539260969783 -0.003816379116177748 0.0 0.0
0.0 0.006674402253324541 -0.005283590077602124 0.004713099481472385 0.0005704905961297386 -0.005032971623344609 0.0 0.0
0.0 0.009056869522253165 -0.0072711726708684955 0.006617904155245967 0.0006532685156225265 -0.006269968691366092 0.0 0.0
0.0 0.011963597093223309 -0.009674632833540081 0.008951847197946821 0.000722785635593258 -0.0076004773359888604 0.0 0.0
0.0 0.0155042746972655 -0.012545925400944532 0.011759518878753181 0.0007864065221913528 -0.009158381114224937 0.0 0.0
0.0 0.01947545898857743 -0.015766953544018737 0.014918651886436731 0.0008483016575820049 -0.011135760863544621 0.0 0.0
0.0 0.023571799332622247 -0.01894090329668905 0.01803018393741357 0.0009107193592754761 -0.013691142483351699 0.0 0.0
0.0 0.026591031254896657 -0.02125873537355187 0.020267562004480464 0.000991173369071415 -0.016431221779395908 0.0 0.0
0.0 0.026992791294841223 -0.02123746127028631 0.02014664111408389 0.0010908201562024216 -0.017813710726243073 0.0 0.0
0.0 0.02125524336772577 -0.016512344872876214 0.015274275263830536 0.0012380696090456673 -0.014553055828356445 0.0 0.0
0.0 0.021255243367728598 -0.01651234487287583 0.015274275263829566 0.0012380696090462584 0.01455305582837257 0.0 0.0
0.0 0.02699279129484594 -0.021237461270286032 0.02014664111408365 0.0010908201562023691 0.017813710726267067 0.0 0.0
0.0 0.026591031254893458 -0.02125873537354606 0.020267562004475007 0.0009911733690710456 0.01643122177941176 0.0 0.0
0.0 0.02357179933260988 -0.01894090329667757 0.01803018393740255 0.0009107193592750226 0.013691142483353156 0.0 0.0
0.0 0.01947545898855952 -0.015766953544003818 0.014918651886421826 0.0008483016575819887 0.011135760863537332 0.0 0.0
0.0 0.015504274697249559 -0.012545925400931359 0.011759518878740032 0.0007864065221913229 0.00915838111421757 0.0 0.0
0.0 0.01196359709320981 -0.009674632833528837 0.00895184719793596 0.0007227856355928746 0.0076004773359820265 0.0 0.0
0.0 0.009056869522238853 -0.0072711726708560576 0.006617904155234138 0.0006532685156219177 0.006269968691360478 0.0 0.0
0.0 0.006674402253309184 -0.0052835900775895575 0.004713099481460456 0.0005704905961290994 0.005032971623335508 0.0 0.0
0.0 0.004687898173714825 -0.003602544005062631 0.0031345786124537976 0.0004679653926088321 0.003816379116166463 0.0 0.0
0.0 0.002878561642907283 -0.0021722477273109714 0.001832622553731717 0.00033962517357925495 0.002601822991824331 0.0 0.0
0.0 0.0015519405242595255 -0.0010336256563737917 0.0008442559068802123 0.00018936974949357945 0.0014853479428630812 0.0 0.0
0.0 0.0005809495171992067 -0.0003392496614066676 0.00027009418564419215 6.915547576247549e-05 0.0006482030937093276 0.0 0.0
0.0 0.0001709463464349195 -7.157746740532295e-05 5.677181848108344e-05 1.4805648924239486e-05 0.00018738721295504307 0.0 0.0
0.0 4.702240599657018e-05 -1.0843333455956687e-05 8.699755739990347e-06 2.143577715966291e-06 3.431391677967421e-05 0.0 0.0
0.0 1.0732426328635555e-05 -9.599119631843707e-07 7.503890360211774e-07 2.0952292716315e-07 3.092300050910292e-06 0.0 0.0
0.0 6.590687281374371e-06 3.1088154276881837e-07 -2.570236217490074e-07 -5.385792101982278e-08 -1.4093816018841068e-06 0.0 0.0
0.0 2.3595770750547986e-06 8.103527064889636e-08 -6.628456756069521e-08 -1.4750703088195763e-08 -4.821090555798598e-07 0.0 0.0
0.0 0.0 0.0 0.0 0.0 0.0 0.0 0.0
0.0 0.0 0.0 0.0 0.0 0.0 0.0 0.0
0.0 0.0 0.0 0.0 0.0 0.0 0.0 0.0
0.0 0.0 0.0 0.0 0.0 0.0 0.0 0.0
0.0 1.762862297087584e-06 7.425115861487428e-08 -6.029149643128876e-08 -1.3959662183589334e-08 3.448992119798501e-07 0.0 0.0
0.0 4.567888438468323e-06 2.816642514112822e-07 -2.2557908395482e-07 -5.6085167456466286e-08 9.161147982519621e-07 0.0 0.0
0.0 1.4189671503657247e-05 -3.0090476230795573e-07 2.8331163497317543e-07 1.7593127334811678e-08 -9.517022221828735e-07 0.0 0.0
0.0 7.20909743072484e-05 -2.736024163368138e-05 2.1705692777997915e-05 5.654548855683466e-06 -5.802115601669458e-05 0.0 0.0
0.0 0.0003629566758456413 -0.0002139101074159219 0.00017047419026095428 4.34359171549678e-05 -0.0003426465806752772 0.0 0.0
0.0 0.0012412129164102417 -0.0008875205206298018 0.0007210875627850006 0.0001664329578448012 -0.0010543909228505706 0.0 0.0
0.0 0.0027655068507094257 -0.002144614276507516 0.0018064979596466542 0.0003381163168608628 -0.0021074159169384406 0.0 0.0
0.0 0.004759736095482089 -0.0038686981164307737 0.0033738908357505114 0.0004948072806802624 -0.0033722253892940588 0.0 0.0
0.0 0.007164958735134974 -0.005918710222642773 0.005306336969367779 0.0006123732532749928 -0.00467179090015615 0.0 0.0
0.0 0.00998958488150336 -0.008301314381812764 0.007597181244109867 0.0007041331377028962 -0.005937757245229006 0.0 0.0
0.0 0.013363830411690114 -0.011125193821795568 0.010347203676339567 0.0007779901454560035 -0.007244118546710266 0.0 0.0
0.0 0.017393684248319496 -0.01454381045064126 0.013700683802637278 0.0008431266480039836 -0.008686075271092305 0.0 0.0
0.0 0.02228133046305044 -0.018644447510336497 0.017739071715879882 0.0009053757944566058 -0.010414049165405243 0.0 0.0
0.0 0.0279129685658899 -0.023322917981772804 0.02235038843053773 0.0009725295512350721 -0.012717681729367778 0.0 0.0
0.0 0.033662970118488046 -0.028060998484258342 0.027009080883297037 0.0010519176009612923 -0.01582320273897474 0.0 0.0
0.0 0.03823011495199399 -0.031670102492461175 0.030516011005777208 0.001154091486683957 -0.019291122438392986 0.0 0.0
0.0 0.03901164705028985 -0.03206991825856563 0.030782398793551997 0.0012875194650136135 -0.021314724972746845 0.0 0.0
0.0 0.03179018734255487 -0.0259903194388173 0.02452274114578162 0.0014675782930356823 -0.01838705857663484 0.0 0.0
0.0 0.031790187342557855 -0.025990319438816467 0.024522741145780652 0.001467578293035805 0.018387058576655617 0.0 0.0
0.0 0.039011647050288756 -0.03206991825856051 0.03078239879354689 0.0012875194650136213 0.02131472497277378 0.0 0.0
0.0 0.03823011495198733 -0.03167010249245216 0.03051601100576859 0.0011540914866835445 0.01929112243841288 0.0 0.0
0.0 0.033662970118471365 -0.028060998484242778 0.027009080883281883 0.0010519176009608886 0.01582320273897889 0.0 0.0
0.0 0.027912968565870184 -0.023322917981755675 0.02235038843052127 0.0009725295512344001 0.01271768172936199 0.0 0.0
0.0 0.022281330463032437 -0.018644447510320954 0.01773907171586484 0.0009053757944560991 0.010414049165399538 0.0 0.0
0.0 0.01739368424829989 -0.014543810450624688 0.013700683802621037 0.0008431266480036465 0.008686075271084169 0.0 0.0
0.0 0.013363830411670266 -0.011125193821778618 0.010347203676322893 0.0007779901454557269 0.007244118546703468 0.0 0.0
0.0 0.009989584881483356 -0.008301314381795682 0.007597181244093414 0.0007041331377022671 0.005937757245219375 0.0 0.0
0.0 0.007164958735115625 -0.005918710222626817 0.005306336969352487 0.0006123732532743291 0.0046717909001441574 0.0 0.0
0.0 0.004759736095465948 -0.0038686981164177485 0.0033738908357383714 0.0004948072806793757 0.0033722253892823593 0.0 0.0
0.0 0.0027655068506977905 -0.002144614276498365 0.0018064979596385277 0.0003381163168598374 0.0021074159169309956 0.0 0.0
0.0 0.0012412129164031422 -0.0008875205206243777 0.0007210875627805457 0.0001664329578438319 0.0010543909228455859 0.0 0.0
0.0 0.0003629566758417181 -0.00021391010741368617 0.00017047419025916817 4.3435917154517995e-05 0.0003426465806721378 0.0 0.0
0.0 7.209097430567761e-05 -2.7360241633479748e-05 2.17056927778354e-05 5.654548855644391e-06 5.802115601626597e-05 0.0 0.0
0.0 1.4189671503040922e-05 -3.0090476240723043e-07 2.833116350524789e-07 1.7593127354711036e-08 9.517022224382156e-07 0.0 0.0
0.0 4.567888437996252e-06 2.8166425138205025e-07 -2.255790839313278e-07 -5.6085167450732297e-08 -9.161147981532237e-07 0.0 0.0
0.0 1.7628622966370727e-06 7.425115859493936e-08 -6.029149641515662e-08 -1.3959662179784548e-08 -3.4489921188806817e-07 0.0 0.0
0.0 0.0 0.0 0.0 0.0 0.0 0.0 0.0
0.0 0.0 0.0 0.0 0.0 0.0 0.0 0.0
0.0 0.0 0.0 0.0 0.0 0.0 0.0 0.0
0.0 0.0 0.0 0.0 0.0 0.0 0.0 0.0
0.0 6.301117771691601e-07 3.177133557320747e-08 -2.5610055499987776e-08 -6.161280073216576e-09 1.139376708674144e-07 0.0 0.0
0.0 6.9346823109825144e-06 5.042347017098303e-07 -4.065067840334973e-07 -9.772791767633461e-08 1.3113344896096305e-06 0.0 0.0
0.0 2.5212619995950892e-05 2.4747268596932223e-06 -1.951196794361913e-06 -5.235300653313059e-07 4.953316836308696e-06 0.0 0.0
0.0 0.0001434612192655894 -7.796330648652858e-05 6.209372125455505e-05 1.5869585231973536e-05 -0.00011302780007446169 0.0 0.0
0.0 0.0007560490681908294 -0.0005270466520058597 0.00042368470445915184 0.00010336194754670774 -0.0005478650982718618 0.0 0.0
0.0 0.0021058483993265393 -0.001660685120245716 0.001380708818496704 0.000279976301749011 -0.0013885629777214026 0.0 0.0
0.0 0.004120464184719235 -0.003437026236782023 0.0029730408619199496 0.00046398537486207355 -0.0025293264919186657 0.0 0.0
0.0 0.006698136637928998 -0.005679132434751696 0.005072192454649084 0.0006069399801026094 -0.003790851148954297 0.0 0.0
0.0 0.00978290036061087 -0.008320119448198876 0.007606161038882089 0.0007139584093167899 -0.005053381542209477 0.0 0.0
0.0 0.013424816498530962 -0.011412205978133562 0.010613047029292924 0.0007991589488406357 -0.006319812429360948 0.0 0.0
0.0 0.017754877375159798 -0.015090903517132475 0.014219100882915489 0.0008718026342169829 -0.007652919378083696 0.0 0.0
0.0 0.022982735878685174 -0.019534612901181053 0.018596307039674714 0.0009383058615063376 -0.009127867246702469 0.0 0.0
0.0 0.029307343918167725 -0.024873356290428167 0.023868993412131435 0.0010043628782967341 -0.01089761654412613 0.0 0.0
0.0 0.03640376339089872 -0.031010780497646516 0.029931339826082416 0.0010794406715640922 -0.013257338936017866 0.0 0.0
0.0 0.04399969004570503 -0.03728885918313616 0.0361126272889525 0.0011762318941836488 -0.016487786614062843 0.0 0.0
0.0 0.04997168030024149 -0.04213176960853459 0.04082828214721081 0.0013034874613237842 -0.020368613967991 0.0 0.0
0.0 0.051013662250974236 -0.0427858027508482 0.04132212987963593 0.0014636728712122517 -0.023214595529928817 0.0 0.0
0.0 0.04234787063278519 -0.0352429572236552 0.03359757624310694 0.0016453809805482475 -0.02196247945403477 0.0 0.0
0.0 0.0423478706327875 -0.03524295722365355 0.03359757624310539 0.0016453809805481558 0.021962479454058312 0.0 0.0
0.0 0.05101366225097166 -0.04278580275084202 0.04132212987963007 0.001463672871211945 0.023214595529957634 0.0 0.0
0.0 0.04997168030022962 -0.04213176960852149 0.04082828214719812 0.0013034874613233618 0.020368613968012116 0.0 0.0
0.0 0.04399969004568557 -0.03728885918311799 0.03611262728893504 0.0011762318941829178 0.01648778661406861 0.0 0.0
0.0 0.036403763390875796 -0.031010780497626365 0.029931339826062955 0.0010794406715634059 0.013257338936013763 0.0 0.0
0.0 0.029307343918145327 -0.024873356290408453 0.02386899341211246 0.0010043628782960012 0.010897616544121348 0.0 0.0
0.0 0.02298273587866175 -0.019534612901160743 0.018596307039654942 0.000938305861505802 0.009127867246694633 0.0 0.0
0.0 0.01775487737513644 -0.015090903517111925 0.014219100882895647 0.0008718026342162816 0.007652919378077664 0.0 0.0
0.0 0.013424816498507856 -0.011412205978113368 0.010613047029273499 0.0007991589488398683 0.006319812429352397 0.0 0.0
0.0 0.00978290036058796 -0.00832011944817945 0.00760616103886323 0.0007139584093162169 0.005053381542197635 0.0 0.0
0.0 0.006698136637909189 -0.005679132434734745 0.005072192454632897 0.0006069399801018473 0.003790851148942149 0.0 0.0
0.0 0.004120464184705148 -0.0034370262367699753 0.002973040861908891 0.0004639853748610829 0.0025293264919111933 0.0 0.0
0.0 0.0021058483993163304 -0.0016606851202372996 0.0013807088184893874 0.0002799763017479123 0.00138856297771559 0.0 0.0
0.0 0.0007560490681851706 -0.000527046652001942 0.0004236847044559698 0.00010336194754597224 0.0005478650982682182 0.0 0.0
0.0 0.0001434612192637482 -7.796330648603172e-05 6.209372125415569e-05 1.586958523187606e-05 0.00011302780007375454 0.0 0.0
0.0 2.5212619994963567e-05 2.474726859593644e-06 -1.951196794283381e-06 -5.235300653103639e-07 -4.9533168361263605e-06 0.0 0.0
0.0 6.934682310505462e-06 5.042347016716486e-07 -4.0650678400268413e-07 -9.772791766897146e-08 -1.3113344895102354e-06 0.0 0.0
0.0 6.301117768796378e-07 3.177133555832444e-08 -2.5610055487985994e-08 -6.161280070339225e-09 -1.1393767081387647e-07 0.0 0.0
0.0 0.0 0.0 0.0 0.0 0.0 0.0 0.0
0.0 0.0 0.0 0.0 0.0 0.0 0.0 0.0
0.0 0.0 0.0 0.0 0.0 0.0 0.0 0.0
0.0 0.0 0.0 0.0 0.0 0.0 0.0 0.0
0.0 0.0 0.0 0.0 0.0 0.0 0.0 0.0
0.0 3.2006597007079794e-06 2.5707668110242285e-07 -2.054760131561159e-07 -5.160066794626825e-08 5.112391327039601e-07 0.0 0.0
0.0 3.406412814877327e-05 -6.269771697918251e-06 4.94277682777962e-06 1.3269948701386474e-06 -8.085602358782802e-06 0.0 0.0
0.0 0.00032137184489444535 -0.00019969132138448182 0.00015907013701991083 4.062118436457122e-05 -0.00019087616283237972 0.0 0.0
0.0 0.0013451206825086449 -0.0009976354031269673 0.0008142247837665196 0.00018341061936044738 -0.0007145509633531631 0.0 0.0
0.0 0.003042399015020793 -0.002593562914860895 0.0022047827692909527 0.0003887801455699435 -0.0015935478894680173 0.0 0.0
0.0 0.005545356827772261 -0.0048110983072102214 0.004250289291632694 0.0005608090155775263 -0.0026786294473878473 0.0 0.0
0.0 0.00870498117397428 -0.0075386395704907 0.006847992009284126 0.0006906475612065747 -0.0038350822360774237 0.0 0.0
0.0 0.012482017879686357 -0.010773628514775688 0.009982535839824143 0.000791092674951539 -0.0050270665739528455 0.0 0.0
0.0 0.016930315089136484 -0.014588360228953004 0.013713439768240302 0.000874920460712695 -0.0062311256518376885 0.0 0.0
0.0 0.022297026490304517 -0.01913871265644603 0.01818800377342166 0.0009507088830243636 -0.007514390398222488 0.0 0.0
0.0 0.028608585736190205 -0.02462184176624009 0.023599786754728697 0.0010220550115113943 -0.008972473956754759 0.0 0.0
0.0 0.03625789873381618 -0.031176388968762042 0.030083150634552757 0.0010932383342092834 -0.010649016208646004 0.0 0.0
0.0 0.04514600378163898 -0.03871202216699207 0.03753510923044334 0.0011769129365487175 -0.012737669457152913 0.0 0.0
0.0 0.05411795262868744 -0.04648068058443193 0.04519172692872857 0.001288953655703356 -0.015694139207540127 0.0 0.0
0.0 0.0612888975773381 -0.052524786893598366 0.05108455023014262 0.0014402366634557397 -0.019690656622833466 0.0 0.0
0.0 0.06274227765850204 -0.0534385726980096 0.05181895328437187 0.0016196194136377112 -0.023715518429574606 0.0 0.0
0.0 0.053137799046221 -0.04454204990246671 0.04273813131721267 0.0018039185852540083 -0.02546389210631822 0.0 0.0
0.0 0.053137799046221644 -0.044542049902463944 0.042738131317210076 0.0018039185852538478 0.025463892106341906 0.0 0.0
0.0 0.06274227765849683 -0.05343857269800156 0.05181895328436412 0.0016196194136374356 0.02371551842960501 0.0 0.0
0.0 0.06128889757732442 -0.05252478689358413 0.051084550230128825 0.001440236663455275 0.01969065662285626 0.0 0.0
0.0 0.05411795262866442 -0.04648068058441093 0.04519172692870802 0.0012889536557029054 0.015694139207547572 0.0 0.0
0.0 0.045146003781610336 -0.038712022166967036 0.03753510923041875 0.0011769129365482762 0.012737669457150389 0.0 0.0
0.0 0.036257898733789845 -0.03117638896873883 0.030083150634530268 0.001093238334208563 0.010649016208642954 0.0 0.0
0.0 0.028608585736164024 -0.024621841766216984 0.023599786754706455 0.0010220550115105347 0.008972473956749435 0.0 0.0
0.0 0.02229702649027643 -0.01913871265642123 0.018188003773397327 0.0009507088830238879 0.007514390398216381 0.0 0.0
0.0 0.016930315089107816 -0.014588360228927854 0.013713439768215643 0.000874920460712203 0.006231125651829624 0.0 0.0
0.0 0.012482017879660131 -0.010773628514752838 0.009982535839802239 0.0007910926749505974 0.0050270665739418465 0.0 0.0
0.0 0.008704981173951411 -0.007538639570470827 0.006847992009265202 0.0006906475612056221 0.0038350822360665266 0.0 0.0
0.0 0.00554535682775372 -0.004811098307193811 0.004250289291617315 0.0005608090155764929 0.0026786294473797696 0.0 0.0
0.0 0.0030423990150068455 -0.0025935629148486072 0.002204782769279948 0.00038878014556865877 0.0015935478894616374 0.0 0.0
0.0 0.0013451206825001321 -0.0009976354031202249 0.0008142247837608698 0.00018341061935935504 0.0007145509633486851 0.0 0.0
0.0 0.00032137184489105576 -0.00019969132138255484 0.00015907013701836137 4.062118436419333e-05 0.00019087616283058656 0.0 0.0
0.0 3.4064128147769785e-05 -6.269771698011384e-06 4.942776827851178e-06 1.3269948701602258e-06 8.085602358910406e-06 0.0 0.0
0.0 3.200659700236418e-06 2.5707668106207243e-07 -2.0547601312382118e-07 -5.1600667938269986e-08 -5.112391326237518e-07 0.0 0.0
0.0 0.0 0.0 0.0 0.0 0.0 0.0 0.0
0.0 0.0 0.0 0.0 0.0 0.0 0.0 0.0
0.0 0.0 0.0 0.0 0.0 0.0 0.0 0.0
0.0 0.0 0.0 0.0 0.0 0.0 0.0 0.0
0.0 0.0 0.0 0.0 0.0 0.0 0.0 0.0
0.0 0.0 0.0 0.0 0.0 0.0 0.0 0.0
0.0 2.6798462832332297e-06 2.4517061012221553e-07 -1.962755119892907e-07 -4.889509813290659e-08 3.705699161879226e-07 0.0 0.0
0.0 6.683987243058859e-05 -2.3233277096863e-05 1.8712704813061968e-05 4.5205722838011745e-06 -2.3754302065751254e-05 0.0 0.0
0.0 0.0006293697771782834 -0.00042272071693767483 0.0003392631175322611 8.345759940541419e-05 -0.00027096855615413296 0.0 0.0
0.0 0.0018849567665497474 -0.0016306303493721433 0.0013541970913170738 0.0002764332580550697 -0.0008274790838722357 0.0 0.0
0.0 0.0040606662038534065 -0.003601088599686118 0.003122860996960299 0.0004782276027258186 -0.001611245249859296 0.0 0.0
0.0 0.007062218232198023 -0.006213406555789308 0.005577549488202388 0.00063585706758692 -0.0025346101657490005 0.0 0.0
0.0 0.010768224622403276 -0.00942961691995452 0.008673693267198246 0.0007559236527562771 -0.003554461028166581 0.0 0.0
0.0 0.015222112056979289 -0.01326275362704687 0.012409399639936524 0.0008533539871103425 -0.004610670363191531 0.0 0.0
0.0 0.020519153596254332 -0.017812460192514912 0.016872719207683868 0.0009397409848310338 -0.005685635506573075 0.0 0.0
0.0 0.026837166564513404 -0.02325487713622066 0.02223432758250447 0.0010205495537161829 -0.006859242143327194 0.0 0.0
0.0 0.03443896675957842 -0.029782155676148662 0.028682334273085742 0.001099821403062924 -0.008194367473528242 0.0 0.0
0.0 0.04341963036390492 -0.03751207778750352 0.036333535690920904 0.0011785420965826205 -0.00968483443597479 0.0 0.0
0.0 0.05344373215066058 -0.04633835851452649 0.04507148570656174 0.00126687280796473 -0.011317716068404064 0.0 0.0
0.0 0.06403685085019689 -0.05547916271767601 0.05408924391246426 0.0013899188052117666 -0.013487557593851226 0.0 0.0
0.0 0.07257664002841556 -0.06274409766408745 0.06118268355544619 0.0015614141086412584 -0.01718203190266 0.0 0.0
0.0 0.07462285619237594 -0.06414153270471785 0.06237879132683326 0.001762741377884603 -0.022796118332572914 0.0 0.0
0.0 0.06417427117558724 -0.05415536172851285 0.05219748910630176 0.001957872622211074 -0.028904313693202413 0.0 0.0
0.0 0.06417427117558552 -0.054155361728508405 0.05219748910629696 0.001957872622211448 0.028904313693225436 0.0 0.0
0.0 0.07462285619236564 -0.06414153270470636 0.06237879132682187 0.0017627413778844828 0.022796118332600868 0.0 0.0
0.0 0.07257664002839576 -0.0627440976640686 0.0611826835554279 0.0015614141086406608 0.017182031902680025 0.0 0.0
0.0 0.06403685085016864 -0.05547916271765066 0.05408924391243978 0.0013899188052108873 0.013487557593857813 0.0 0.0
0.0 0.05344373215062964 -0.046338358514499134 0.04507148570653528 0.0012668728079637996 0.011317716068403743 0.0 0.0
0.0 0.04341963036387251 -0.037512077787475166 0.03633353569089312 0.0011785420965820356 0.009684834435972484 0.0 0.0
0.0 0.034438966759544054 -0.02978215567611893 0.028682334273056265 0.0010998214030626422 0.00819436747352301 0.0 0.0
0.0 0.02683716656448034 -0.023254877136191655 0.022234327582476336 0.0010205495537153105 0.006859242143321171 0.0 0.0
0.0 0.02051915359622091 -0.01781246019248542 0.016872719207655047 0.0009397409848303766 0.005685635506565892 0.0 0.0
0.0 0.01522211205694872 -0.013262753627020025 0.012409399639910187 0.0008533539871098303 0.0046106703631813364 0.0 0.0
0.0 0.010768224622376386 -0.009429616919930847 0.008673693267175188 0.0007559236527556577 0.003554461028156635 0.0 0.0
0.0 0.007062218232177106 -0.00621340655577054 0.005577549488184411 0.0006358570675861291 0.0025346101657419645 0.0 0.0
0.0 0.004060666203838526 -0.0036010885996724954 0.0031228609969477968 0.00047822760272469894 0.0016112452498539607 0.0 0.0
0.0 0.0018849567665392445 -0.0016306303493629024 0.0013541970913090473 0.00027643325805385484 0.0008274790838678797 0.0 0.0
0.0 0.0006293697771732523 -0.0004227207169343679 0.00033926311752957876 8.345759940478921e-05 0.0002709685561521801 0.0 0.0
0.0 6.683987242937519e-05 -2.3233277096860396e-05 1.8712704813053366e-05 4.5205722838069445e-06 2.3754302065752826e-05 0.0 0.0
0.0 2.679846282662512e-06 2.4517061006807896e-07 -1.9627551194701278e-07 -4.889509812105357e-08 -3.705699161132095e-07 0.0 0.0
0.0 0.0 0.0 0.0 0.0 0.0 0.0 0.0
0.0 0.0 0.0 0.0 0.0 0.0 0.0 0.0
0.0 0.0 0.0 0.0 0.0 0.0 0.0 0.0
0.0 0.0 0.0 0.0 0.0 0.0 0.0 0.0
0.0 0.0 0.0 0.0 0.0 0.0 0.0 0.0
0.0 0.0 0.0 0.0 0.0 0.0 0.0 0.0
0.0 3.1285138629805582e-06 3.198481553894005e-07 -2.499609673796126e-07 -6.988718800979791e-08 3.1819347234759094e-07 0.0 0.0
0.0 0.00015047972088914945 -6.801302102472049e-05 5.412849534279354e-05 1.3884525681926846e-05 -4.212733047728779e-05 0.0 0.0
0.0 0.001015131958581949 -0.0007694396491039094 0.0006235720057174708 0.0001458676433864386 -0.0003249254947550434 0.0 0.0
0.0 0.0025809893416459118 -0.002335474796039411 0.0019725760557758234 0.00036289874026358736 -0.0007887046122891319 0.0 0.0
0.0 0.005171135394210576 -0.0046299987952341795 0.004080233095322638 0.0005497656999115425 -0.0014019455261470005 0.0 0.0
0.0 0.008613624767354899 -0.007634909548888196 0.006939997848406725 0.0006949117004814685 -0.002140641181000532 0.0 0.0
0.0 0.012876560884902763 -0.011336971566997435 0.010528229640767982 0.0008087419262294501 -0.0029648704837903833 0.0 0.0
0.0 0.018029399618591735 -0.0157742420062333 0.014867920265480991 0.0009063217407523129 -0.0038255554377192016 0.0 0.0
0.0 0.024125639697705495 -0.021072209163494244 0.020075429290961386 0.0009967798725328478 -0.004700832121517312 0.0 0.0
0.0 0.03155147923539251 -0.027419357304969142 0.026334692969070796 0.0010846643358983325 -0.005661090017650004 0.0 0.0
0.0 0.04018690918353582 -0.035002743587313104 0.03383025817718329 0.0011724854101298073 -0.006809413823104907 0.0 0.0
0.0 0.050361089697891576 -0.04387001335552703 0.042608501750791894 0.0012615116047351486 -0.008059886686045441 0.0 0.0
0.0 0.06182315728439061 -0.05381913761895342 0.05246244314761035 0.0013566944713430725 -0.009119192844804386 0.0 0.0
0.0 0.07366136480215481 -0.06411054021006764 0.0626360477402943 0.0014744924697733248 -0.010091392346832873 0.0 0.0
0.0 0.08357242285139654 -0.07266519837717164 0.07100369313277902 0.0016615052443926335 -0.012861497490612153 0.0 0.0
0.0 0.08668150455428181 -0.07499897200864922 0.07310331636904127 0.0018956556396079627 -0.020125502047116876 0.0 0.0
0.0 0.07603999391158842 -0.06439704696273389 0.06227616188406742 0.002120885078666456 -0.03205053344866563 0.0 0.0
0.0 0.0760399939115872 -0.06439704696273024 0.06227616188406419 0.0021208850786660627 0.032050533448685026 0.0 0.0
0.0 0.0866815045542684 -0.07499897200863587 0.07310331636902821 0.0018956556396076162 0.02012550204714118 0.0 0.0
0.0 0.0835724228513704 -0.07266519837714822 0.07100369313275559 0.0016615052443925853 0.01286149749062973 0.0 0.0
0.0 0.07366136480212127 -0.06411054021003829 0.0626360477402651 0.0014744924697731585 0.010091392346838701 0.0 0.0
0.0 0.06182315728435363 -0.05381913761892121 0.05246244314757843 0.0013566944713427863 0.009119192844804551 0.0 0.0
0.0 0.050361089697856666 -0.04387001335549643 0.042608501750762084 0.0012615116047343528 0.00805988668604441 0.0 0.0
0.0 0.04018690918349891 -0.035002743587280866 0.033830258177151726 0.001172485410129133 0.0068094138231013165 0.0 0.0
0.0 0.03155147923535425 -0.027419357304935735 0.02633469296903787 0.0010846643358978663 0.005661090017644961 0.0 0.0
0.0 0.024125639697666883 -0.021072209163460615 0.020075429290928187 0.0009967798725324195 0.004700832121512909 0.0 0.0
0.0 0.01802939961855751 -0.015774242006202893 0.014867920265451301 0.0009063217407515873 0.0038255554377111594 0.0 0.0
0.0 0.012876560884873468 -0.011336971566971367 0.010528229640742657 0.0008087419262287098 0.002964870483781859 0.0 0.0
0.0 0.00861362476733211 -0.007634909548867631 0.006939997848386907 0.0006949117004807232 0.002140641180995365 0.0 0.0
0.0 0.005171135394192811 -0.004629998795217869 0.004080233095307287 0.0005497656999105813 0.0014019455261423943 0.0 0.0
0.0 0.0025809893416343975 -0.002335474796028665 0.001972576055766279 0.0003628987402623865 0.000788704612285717 0.0 0.0
0.0 0.0010151319585751674 -0.0007694396490984303 0.0006235720057129104 0.0001458676433855193 0.00032492549475271633 0.0 0.0
0.0 0.00015047972088728213 -6.801302102405558e-05 5.412849534224925e-05 1.3884525681806464e-05 4.2127330476869034e-05 0.0 0.0
0.0 3.12851386246432e-06 3.1984815533367717e-07 -2.4996096733628395e-07 -6.988718799738491e-08 -3.181934722935766e-07 0.0 0.0
0.0 0.0 0.0 0.0 0.0 0.0 0.0 0.0
0.0 0.0 0.0 0.0 0.0 0.0 0.0 0.0
0.0 0.0 0.0 0.0 0.0 0.0 0.0 0.0
0.0 0.0 0.0 0.0 0.0 0.0 0.0 0.0
0.0 0.0 0.0 0.0 0.0 0.0 0.0 0.0
0.0 0.0 0.0 0.0 0.0 0.0 0.0 0.0
0.0 7.480929744594875e-06 8.970346975284954e-07 -6.929961877200582e-07 -2.0403850980840786e-07 5.50205352796341e-07 0.0 0.0
0.0 0.00033440127894346854 -0.00018345641989230853 0.00014638665609117017 3.70697638011386e-05 -6.48759317400257e-05 0.0 0.0
0.0 0.0013412059502391515 -0.0012378483133347995 0.0010141374856816327 0.0002237108276531666 -0.0002950319837944009 0.0 0.0
0.0 0.0033731700487996544 -0.003071231672295841 0.0026364237018281626 0.0004348079704676774 -0.0005996144580368299 0.0 0.0
0.0 0.006308868223368878 -0.00567415246435247 0.0050661425620621425 0.0006080099022903259 -0.001005535413131251 0.0 0.0
0.0 0.010188059614285283 -0.009062110048861705 0.008320292885087436 0.0007418171637742653 -0.0015066407451024254 0.0 0.0
0.0 0.015007260356016421 -0.013249453369598855 0.012397072511306135 0.0008523808582927167 -0.0020773888365499464 0.0 0.0
0.0 0.02084512890293553 -0.018298282187240812 0.017345732589904597 0.0009525495973362172 -0.00267095413748698 0.0 0.0
0.0 0.027911466030321734 -0.0243539129475729 0.023305296934893912 0.001048616012678975 -0.0032753057829196033 0.0 0.0
0.0 0.036148691775378335 -0.03162274413199557 0.030478769694224125 0.0011439744377714387 -0.003974393309628752 0.0 0.0
0.0 0.04602790615684526 -0.04025454234792781 0.03901338619240651 0.0012411561555212922 -0.004800414243125236 0.0 0.0
0.0 0.057510972808079444 -0.05022165126716431 0.0488792178327409 0.0013424334344234253 -0.0056539558436103 0.0 0.0
0.0 0.07010788269377156 -0.06117097281176676 0.059722677594276886 0.0014482952174898656 -0.0062496542952163656 0.0 0.0
0.0 0.08287402706957937 -0.07228497485932833 0.07072451952224525 0.0015604553370831076 -0.006213982124598434 0.0 0.0
0.0 0.09398779368184629 -0.08193984717929423 0.08023159304449234 0.0017082541348019007 -0.006858147278607199 0.0 0.0
0.0 0.0990172138576067 -0.08602725760772487 0.08400763952373573 0.002019618083989101 -0.014630810287527168 0.0 0.0
0.0 0.08913141281479814 -0.07576730192132586 0.0734545651938348 0.0023127367274910285 -0.03425017944850041 0.0 0.0
0.0 0.08913141281479395 -0.07576730192132071 0.07345456519382954 0.002312736727491142 0.03425017944851394 0.0 0.0
0.0 0.09901721385758842 -0.0860272576077083 0.08400763952371909 0.002019618083989145 0.014630810287546179 0.0 0.0
0.0 0.09398779368181724 -0.08193984717926855 0.08023159304446714 0.001708254134801423 0.006858147278621131 0.0 0.0
0.0 0.08287402706954103 -0.07228497485929503 0.07072451952221204 0.0015604553370829658 0.006213982124601331 0.0 0.0
0.0 0.07010788269373248 -0.06117097281173244 0.059722677594243614 0.0014482952174888458 0.006249654295217167 0.0 0.0
0.0 0.05751097280803874 -0.05022165126712873 0.04887921783270606 0.0013424334344226778 0.005653955843610506 0.0 0.0
0.0 0.04602790615680297 -0.04025454234789102 0.039013386192370256 0.0012411561555207562 0.004800414243123356 0.0 0.0
0.0 0.036148691775334404 -0.0316227441319574 0.030478769694186343 0.0011439744377710484 0.00397439330962527 0.0 0.0
0.0 0.02791146603027728 -0.02435391294753392 0.023305296934855335 0.0010486160126785765 0.003275305782917326 0.0 0.0
0.0 0.0208451289028964 -0.018298282187206544 0.017345732589870932 0.0009525495973356053 0.0026709541374808346 0.0 0.0
0.0 0.015007260355984006 -0.013249453369570159 0.012397072511278188 0.0008523808582919725 0.002077388836544215 0.0 0.0
0.0 0.01018805961425927 -0.009062110048838048 0.008320292885064579 0.0007418171637734697 0.001506640745098964 0.0 0.0
0.0 0.0063088682233490385 -0.005674152464334224 0.005066142562044959 0.0006080099022892646 0.0010055354131279998 0.0 0.0
0.0 0.0033731700487854115 -0.003071231672282364 0.00263642370181597 0.00043480797046639285 0.0005996144580341283 0.0 0.0
0.0 0.0013412059502315014 -0.0012378483133275871 0.001014137485675501 0.00022371082765208598 0.0002950319837926172 0.0 0.0
0.0 0.00033440127894035336 -0.0001834564198904703 0.00014638665608968402 3.706976380078606e-05 6.487593173942893e-05 0.0 0.0
0.0 7.48092974373735e-06 8.970346974239649e-07 -6.929961876401887e-07 -2.040385097838224e-07 -5.502053527401145e-07 0.0 0.0
0.0 0.0 0.0 0.0 0.0 0.0 0.0 0.0
0.0 0.0 0.0 0.0 0.0 0.0 0.0 0.0
0.0 0.0 0.0 0.0 0.0 0.0 0.0 0.0
0.0 0.0 0.0 0.0 0.0 0.0 0.0 0.0
0.0 0.0 0.0 0.0 0.0 0.0 0.0 0.0
0.0 0.0 0.0 0.0 0.0 0.0 0.0 0.0
0.0 1.516187084483872e-05 -1.3416182824108203e-08 5.765981703923258e-08 -4.424363421497789e-08 -1.6045041792725588e-07 0.0 0.0
0.0 0.0006366090681090896 -0.00038296310169668433 0.0003066327211668562 7.633038052982808e-05 -5.4103825782297584e-05 0.0 0.0
0.0 0.0018774009935661284 -0.0017338993287323726 0.0014383536597795846 0.000295545668952788 -0.00014497936106465696 0.0 0.0
0.0 0.004193545768950921 -0.00382549375524774 0.0033302625269736232 0.0004952312282741152 -0.00026792090441899005 0.0 0.0
0.0 0.007480554954242283 -0.006719347836652218 0.0060649025858770305 0.0006544452507751843 -0.00042817075513382604 0.0 0.0
0.0 0.011796293924171215 -0.010483030015785398 0.009702895549817856 0.0007801344659675442 -0.0006399002107017492 0.0 0.0
0.0 0.017194237641047144 -0.015154270831250774 0.014264603214739241 0.0008896676165115311 -0.00089160706254459 0.0 0.0
0.0 0.023797280788304242 -0.020823372807120037 0.019830221833300393 0.0009931509738196355 -0.0011513673933793898 0.0 0.0
0.0 0.03151175361846897 -0.027659001714743198 0.02656294447363141 0.0010960572411117908 -0.0014385255575795268 0.0 0.0
0.0 0.04085310954611025 -0.03584096119861037 0.034641545365637384 0.0011994158329729709 -0.0017649255389625307 0.0 0.0
0.0 0.051967728359994136 -0.04549898395511904 0.044192855382217074 0.0013061285729019326 -0.002124390127939195 0.0 0.0
0.0 0.06468028540057176 -0.0565408749248395 0.05512144798379848 0.0014194269410410202 -0.0024734668728430866 0.0 0.0
0.0 0.07840801262362489 -0.06844055075723408 0.06690171480835339 0.001538835948880725 -0.0026266805920320585 0.0 0.0
0.0 0.09191334104836624 -0.0801518924433945 0.07849451617892318 0.0016573762644712684 -0.002264414067271935 0.0 0.0
0.0 0.10343974997561775 -0.09018347216322034 0.0884143065404561 0.0017691656227642135 -0.001193405152503912 0.0 0.0
0.0 0.11044135593760791 -0.09618672288017815 0.0942519038440253 0.0019348190361527934 -0.00415329677128385 0.0 0.0
0.0 0.1045950408973883 -0.08961414179073368 0.08694769755377006 0.0026664442369636276 -0.031817805224999905 0.0 0.0
0.0 0.10459504089738271 -0.08961414179072834 0.08694769755376468 0.002666444236963613 0.0318178052250047 0.0 0.0
0.0 0.1104413559375882 -0.09618672288016081 0.0942519038440084 0.0019348190361523979 0.004153296771292371 0.0 0.0
0.0 0.10343974997558433 -0.09018347216319106 0.08841430654042765 0.0017691656227633772 0.0011934051525107992 0.0 0.0
0.0 0.09191334104832326 -0.08015189244335699 0.07849451617888634 0.0016573762644706207 0.0022644140672717305 0.0 0.0
0.0 0.07840801262357919 -0.06844055075719424 0.06690171480831404 0.0015388359488801896 0.002626680592031888 0.0 0.0
0.0 0.0646802854005257 -0.05654087492479919 0.055121447983759154 0.0014194269410400333 0.0024734668728428675 0.0 0.0
0.0 0.051967728359947965 -0.04549898395507853 0.04419285538217785 0.0013061285729006901 0.0021243901279388256 0.0 0.0
0.0 0.04085310954606222 -0.03584096119856835 0.03464154536559639 0.001199415832971926 0.0017649255389610714 0.0 0.0
0.0 0.031511753618422025 -0.02765900171470196 0.026562944473591376 0.0010960572411105724 0.0014385255575790148 0.0 0.0
0.0 0.023797280788262057 -0.02082337280708289 0.01983022183326424 0.0009931509738186517 0.0011513673933761545 0.0 0.0
0.0 0.017194237641010433 -0.015154270831218737 0.014264603214707915 0.000889667616510821 0.0008916070625420744 0.0 0.0
0.0 0.011796293924141698 -0.010483030015759034 0.009702895549792163 0.0007801344659668721 0.0006399002107006253 0.0 0.0
0.0 0.007480554954220595 -0.006719347836632223 0.006064902585857898 0.0006544452507743258 0.0004281707551325496 0.0 0.0
0.0 0.0041935457689352956 -0.003825493755233164 0.0033302625269600304 0.000495231228273135 0.0002679209044179758 0.0 0.0
0.0 0.001877400993557693 -0.0017338993287240255 0.0014383536597722736 0.00029554566895175177 0.00014497936106385752 0.0 0.0
0.0 0.0006366090681046114 -0.00038296310169360547 0.00030663272116435045 7.633038052925541e-05 5.410382578193325e-05 0.0 0.0
0.0 1.5161870844417451e-05 -1.3416183147488865e-08 5.765981728354695e-08 -4.424363413606836e-08 1.604504179706066e-07 0.0 0.0
0.0 0.0 0.0 0.0 0.0 0.0 0.0 0.0
0.0 0.0 0.0 0.0 0.0 0.0 0.0 0.0
0.0 0.0 0.0 0.0 0.0 0.0 0.0 0.0