# vtk DataFile Version 3.0
Some data
ASCII
DATASET UNSTRUCTURED_GRID
POINTS 861 float
0.0 0.0 0.0
0.4 0.0 0.0
0.8 0.0 0.0
1.2000000000000002 0.0 0.0
1.6 0.0 0.0
2.0 0.0 0.0
2.4000000000000004 0.0 0.0
2.8000000000000003 0.0 0.0
3.2 0.0 0.0
3.6 0.0 0.0
4.0 0.0 0.0
4.4 0.0 0.0
4.800000000000001 0.0 0.0
5.2 0.0 0.0
5.6000000000000005 0.0 0.0
6.0 0.0 0.0
6.4 0.0 0.0
6.800000000000001 0.0 0.0
7.2 0.0 0.0
7.6000000000000005 0.0 0.0
8.0 0.0 0.0
8.4 0.0 0.0
8.8 0.0 0.0
9.200000000000001 0.0 0.0
9.600000000000001 0.0 0.0
10.0 0.0 0.0
10.4 0.0 0.0
10.8 0.0 0.0
11.200000000000001 0.0 0.0
11.600000000000001 0.0 0.0
12.0 0.0 0.0
12.4 0.0 0.0
12.8 0.0 0.0
13.200000000000001 0.0 0.0
13.600000000000001 0.0 0.0
14.0 0.0 0.0
14.4 0.0 0.0
14.8 0.0 0.0
15.200000000000001 0.0 0.0
15.600000000000001 0.0 0.0
16.0 0.0 0.0
0.0 0.1 0.0
0.4 0.1 0.0
0.8 0.1 0.0
1.2000000000000002 0.1 0.0
1.6 0.1 0.0
2.0 0.1 0.0
2.4000000000000004 0.1 0.0
2.8000000000000003 0.1 0.0
3.2 0.1 0.0
3.6 0.1 0.0
4.0 0.1 0.0
4.4 0.1 0.0
4.800000000000001 0.1 0.0
5.2 0.1 0.0
5.6000000000000005 0.1 0.0
6.0 0.1 0.0
6.4 0.1 0.0
6.800000000000001 0.1 0.0
7.2 0.1 0.0
7.6000000000000005 0.1 0.0
8.0 0.1 0.0
8.4 0.1 0.0
8.8 0.1 0.0
9.200000000000001 0.1 0.0
9.600000000000001 0.1 0.0
10.0 0.1 0.0
10.4 0.1 0.0
10.8 0.1 0.0
11.200000000000001 0.1 0.0
11.600000000000001 0.1 0.0
12.0 0.1 0.0
12.4 0.1 0.0
12.8 0.1 0.0
13.200000000000001 0.1 0.0
13.600000000000001 0.1 0.0
14.0 0.1 0.0
14.4 0.1 0.0
14.8 0.1 0.0
15.200000000000001 0.1 0.0
15.600000000000001 0.1 0.0
16.0 0.1 0.0
0.0 0.2 0.0
0.4 0.2 0.0
0.8 0.2 0.0
1.2000000000000002 0.2 0.0
1.6 0.2 0.0
2.0 0.2 0.0
2.4000000000000004 0.2 0.0
2.8000000000000003 0.2 0.0
3.2 0.2 0.0
3.6 0.2 0.0
4.0 0.2 0.0
4.4 0.2 0.0
4.800000000000001 0.2 0.0
5.2 0.2 0.0
5.6000000000000005 0.2 0.0
6.0 0.2 0.0
6.4 0.2 0.0
6.800000000000001 0.2 0.0
7.2 0.2 0.0
7.6000000000000005 0.2 0.0
8.0 0.2 0.0
8.4 0.2 0.0
8.8 0.2 0.0
9.200000000000001 0.2 0.0
9.600000000000001 0.2 0.0
10.0 0.2 0.0
10.4 0.2 0.0
10.8 0.2 0.0
11.200000000000001 0.2 0.0
11.600000000000001 0.2 0.0
12.0 0.2 0.0
12.4 0.2 0.0
12.8 0.2 0.0
13.200000000000001 0.2 0.0
13.600000000000001 0.2 0.0
14.0 0.2 0.0
14.4 0.2 0.0
14.8 0.2 0.0
15.200000000000001 0.2 0.0
15.600000000000001 0.2 0.0
16.0 0.2 0.0
0.0 0.30000000000000004 0.0
0.4 0.30000000000000004 0.0
0.8 0.30000000000000004 0.0
1.2000000000000002 0.30000000000000004 0.0
1.6 0.30000000000000004 0.0
2.0 0.30000000000000004 0.0
2.4000000000000004 0.30000000000000004 0.0
2.8000000000000003 0.30000000000000004 0.0
3.2 0.30000000000000004 0.0
3.6 0.30000000000000004 0.0
4.0 0.30000000000000004 0.0
4.4 0.30000000000000004 0.0
4.800000000000001 0.30000000000000004 0.0
5.2 0.30000000000000004 0.0
5.6000000000000005 0.30000000000000004 0.0
6.0 0.30000000000000004 0.0
6.4 0.30000000000000004 0.0
6.800000000000001 0.30000000000000004 0.0
7.2 0.30000000000000004 0.0
7.6000000000000005 0.30000000000000004 0.0
8.0 0.30000000000000004 0.0
8.4 0.30000000000000004 0.0
8.8 0.30000000000000004 0.0
9.200000000000001 0.30000000000000004 0.0
9.600000000000001 0.30000000000000004 0.0
10.0 0.30000000000000004 0.0
10.4 0.30000000000000004 0.0
10.8 0.30000000000000004 0.0
11.200000000000001 0.30000000000000004 0.0
11.600000000000001 0.30000000000000004 0.0
12.0 0.30000000000000004 0.0
12.4 0.30000000000000004 0.0
12.8 0.30000000000000004 0.0
13.200000000000001 0.30000000000000004 0.0
13.600000000000001 0.30000000000000004 0.0
14.0 0.30000000000000004 0.0
14.4 0.30000000000000004 0.0
14.8 0.30000000000000004 0.0
15.200000000000001 0.30000000000000004 0.0
15.600000000000001 0.30000000000000004 0.0
16.0 0.30000000000000004 0.0
0.0 0.4 0.0
0.4 0.4 0.0
0.8 0.4 0.0
1.2000000000000002 0.4 0.0
1.6 0.4 0.0
2.0 0.4 0.0
2.4000000000000004 0.4 0.0
2.8000000000000003 0.4 0.0
3.2 0.4 0.0
3.6 0.4 0.0
4.0 0.4 0.0
4.4 0.4 0.0
4.800000000000001 0.4 0.0
5.2 0.4 0.0
5.6000000000000005 0.4 0.0
6.0 0.4 0.0
6.4 0.4 0.0
6.800000000000001 0.4 0.0
7.2 0.4 0.0
7.6000000000000005 0.4 0.0
8.0 0.4 0.0
8.4 0.4 0.0
8.8 0.4 0.0
9.200000000000001 0.4 0.0
9.600000000000001 0.4 0.0
10.0 0.4 0.0
10.4 0.4 0.0
10.8 0.4 0.0
11.200000000000001 0.4 0.0
11.600000000000001 0.4 0.0
12.0 0.4 0.0
12.4 0.4 0.0
12.8 0.4 0.0
13.200000000000001 0.4 0.0
13.600000000000001 0.4 0.0
14.0 0.4 0.0
14.4 0.4 0.0
14.8 0.4 0.0
15.200000000000001 0.4 0.0
15.600000000000001 0.4 0.0
16.0 0.4 0.0
0.0 0.5 0.0
0.4 0.5 0.0
0.8 0.5 0.0
1.2000000000000002 0.5 0.0
1.6 0.5 0.0
2.0 0.5 0.0
2.4000000000000004 0.5 0.0
2.8000000000000003 0.5 0.0
3.2 0.5 0.0
3.6 0.5 0.0
4.0 0.5 0.0
4.4 0.5 0.0
4.800000000000001 0.5 0.0
5.2 0.5 0.0
5.6000000000000005 0.5 0.0
6.0 0.5 0.0
6.4 0.5 0.0
6.800000000000001 0.5 0.0
7.2 0.5 0.0
7.6000000000000005 0.5 0.0
8.0 0.5 0.0
8.4 0.5 0.0
8.8 0.5 0.0
9.200000000000001 0.5 0.0
9.600000000000001 0.5 0.0
10.0 0.5 0.0
10.4 0.5 0.0
10.8 0.5 0.0
11.200000000000001 0.5 0.0
11.600000000000001 0.5 0.0
12.0 0.5 0.0
12.4 0.5 0.0
12.8 0.5 0.0
13.200000000000001 0.5 0.0
13.600000000000001 0.5 0.0
14.0 0.5 0.0
14.4 0.5 0.0
14.8 0.5 0.0
15.200000000000001 0.5 0.0
15.600000000000001 0.5 0.0
16.0 0.5 0.0
0.0 0.6000000000000001 0.0
0.4 0.6000000000000001 0.0
0.8 0.6000000000000001 0.0
1.2000000000000002 0.6000000000000001 0.0
1.6 0.6000000000000001 0.0
2.0 0.6000000000000001 0.0
2.4000000000000004 0.6000000000000001 0.0
2.8000000000000003 0.6000000000000001 0.0
3.2 0.6000000000000001 0.0
3.6 0.6000000000000001 0.0
4.0 0.6000000000000001 0.0
4.4 0.6000000000000001 0.0
4.800000000000001 0.6000000000000001 0.0
5.2 0.6000000000000001 0.0
5.6000000000000005 0.6000000000000001 0.0
6.0 0.6000000000000001 0.0
6.4 0.6000000000000001 0.0
6.800000000000001 0.6000000000000001 0.0
7.2 0.6000000000000001 0.0
7.6000000000000005 0.6000000000000001 0.0
8.0 0.6000000000000001 0.0
8.4 0.6000000000000001 0.0
8.8 0.6000000000000001 0.0
9.200000000000001 0.6000000000000001 0.0
9.600000000000001 0.6000000000000001 0.0
10.0 0.6000000000000001 0.0
10.4 0.6000000000000001 0.0
10.8 0.6000000000000001 0.0
11.200000000000001 0.6000000000000001 0.0
11.600000000000001 0.6000000000000001 0.0
12.0 0.6000000000000001 0.0
12.4 0.6000000000000001 0.0
12.8 0.6000000000000001 0.0
13.200000000000001 0.6000000000000001 0.0
13.600000000000001 0.6000000000000001 0.0
14.0 0.6000000000000001 0.0
14.4 0.6000000000000001 0.0
14.8 0.6000000000000001 0.0
15.200000000000001 0.6000000000000001 0.0
15.600000000000001 0.6000000000000001 0.0
16.0 0.6000000000000001 0.0
0.0 0.7000000000000001 0.0
0.4 0.7000000000000001 0.0
0.8 0.7000000000000001 0.0
1.2000000000000002 0.7000000000000001 0.0
1.6 0.7000000000000001 0.0
2.0 0.7000000000000001 0.0
2.4000000000000004 0.7000000000000001 0.0
2.8000000000000003 0.7000000000000001 0.0
3.2 0.7000000000000001 0.0
3.6 0.7000000000000001 0.0
4.0 0.7000000000000001 0.0
4.4 0.7000000000000001 0.0
4.800000000000001 0.7000000000000001 0.0
5.2 0.7000000000000001 0.0
5.6000000000000005 0.7000000000000001 0.0
6.0 0.7000000000000001 0.0
6.4 0.7000000000000001 0.0
6.800000000000001 0.7000000000000001 0.0
7.2 0.7000000000000001 0.0
7.6000000000000005 0.7000000000000001 0.0
8.0 0.7000000000000001 0.0
8.4 0.7000000000000001 0.0
8.8 0.7000000000000001 0.0
9.200000000000001 0.7000000000000001 0.0
9.600000000000001 0.7000000000000001 0.0
10.0 0.7000000000000001 0.0
10.4 0.7000000000000001 0.0
10.8 0.7000000000000001 0.0
11.200000000000001 0.7000000000000001 0.0
11.600000000000001 0.7000000000000001 0.0
12.0 0.7000000000000001 0.0
12.4 0.7000000000000001 0.0
12.8 0.7000000000000001 0.0
13.200000000000001 0.7000000000000001 0.0
13.600000000000001 0.7000000000000001 0.0
14.0 0.7000000000000001 0.0
14.4 0.7000000000000001 0.0
14.8 0.7000000000000001 0.0
15.200000000000001 0.7000000000000001 0.0
15.600000000000001 0.7000000000000001 0.0
16.0 0.7000000000000001 0.0
0.0 0.8 0.0
0.4 0.8 0.0
0.8 0.8 0.0
1.2000000000000002 0.8 0.0
1.6 0.8 0.0
2.0 0.8 0.0
2.4000000000000004 0.8 0.0
2.8000000000000003 0.8 0.0
3.2 0.8 0.0
3.6 0.8 0.0
4.0 0.8 0.0
4.4 0.8 0.0
4.800000000000001 0.8 0.0
5.2 0.8 0.0
5.6000000000000005 0.8 0.0
6.0 0.8 0.0
6.4 0.8 0.0
6.800000000000001 0.8 0.0
7.2 0.8 0.0
7.6000000000000005 0.8 0.0
8.0 0.8 0.0
8.4 0.8 0.0
8.8 0.8 0.0
9.200000000000001 0.8 0.0
9.600000000000001 0.8 0.0
10.0 0.8 0.0
10.4 0.8 0.0
10.8 0.8 0.0
11.200000000000001 0.8 0.0
11.600000000000001 0.8 0.0
12.0 0.8 0.0
12.4 0.8 0.0
12.8 0.8 0.0
13.200000000000001 0.8 0.0
13.600000000000001 0.8 0.0
14.0 0.8 0.0
14.4 0.8 0.0
14.8 0.8 0.0
15.200000000000001 0.8 0.0
15.600000000000001 0.8 0.0
16.0 0.8 0.0
0.0 0.9 0.0
0.4 0.9 0.0
0.8 0.9 0.0
1.2000000000000002 0.9 0.0
1.6 0.9 0.0
2.0 0.9 0.0
2.4000000000000004 0.9 0.0
2.8000000000000003 0.9 0.0
3.2 0.9 0.0
3.6 0.9 0.0
4.0 0.9 0.0
4.4 0.9 0.0
4.800000000000001 0.9 0.0
5.2 0.9 0.0
5.6000000000000005 0.9 0.0
6.0 0.9 0.0
6.4 0.9 0.0
6.800000000000001 0.9 0.0
7.2 0.9 0.0
7.6000000000000005 0.9 0.0
8.0 0.9 0.0
8.4 0.9 0.0
8.8 0.9 0.0
9.200000000000001 0.9 0.0
9.600000000000001 0.9 0.0
10.0 0.9 0.0
10.4 0.9 0.0
10.8 0.9 0.0
11.200000000000001 0.9 0.0
11.600000000000001 0.9 0.0
12.0 0.9 0.0
12.4 0.9 0.0
12.8 0.9 0.0
13.200000000000001 0.9 0.0
13.600000000000001 0.9 0.0
14.0 0.9 0.0
14.4 0.9 0.0
14.8 0.9 0.0
15.200000000000001 0.9 0.0
15.600000000000001 0.9 0.0
16.0 0.9 0.0
0.0 1.0 0.0
0.4 1.0 0.0
0.8 1.0 0.0
1.2000000000000002 1.0 0.0
1.6 1.0 0.0
2.0 1.0 0.0
2.4000000000000004 1.0 0.0
2.8000000000000003 1.0 0.0
3.2 1.0 0.0
3.6 1.0 0.0
4.0 1.0 0.0
4.4 1.0 0.0
4.800000000000001 1.0 0.0
5.2 1.0 0.0
5.6000000000000005 1.0 0.0
6.0 1.0 0.0
6.4 1.0 0.0
6.800000000000001 1.0 0.0
7.2 1.0 0.0
7.6000000000000005 1.0 0.0
8.0 1.0 0.0
8.4 1.0 0.0
8.8 1.0 0.0
9.200000000000001 1.0 0.0
9.600000000000001 1.0 0.0
10.0 1.0 0.0
10.4 1.0 0.0
10.8 1.0 0.0
11.200000000000001 1.0 0.0
11.600000000000001 1.0 0.0
12.0 1.0 0.0
12.4 1.0 0.0
12.8 1.0 0.0
13.200000000000001 1.0 0.0
13.600000000000001 1.0 0.0
14.0 1.0 0.0
14.4 1.0 0.0
14.8 1.0 0.0
15.200000000000001 1.0 0.0
15.600000000000001 1.0 0.0
16.0 1.0 0.0
0.0 1.1 0.0
0.4 1.1 0.0
0.8 1.1 0.0
1.2000000000000002 1.1 0.0
1.6 1.1 0.0
2.0 1.1 0.0
2.4000000000000004 1.1 0.0
2.8000000000000003 1.1 0.0
3.2 1.1 0.0
3.6 1.1 0.0
4.0 1.1 0.0
4.4 1.1 0.0
4.800000000000001 1.1 0.0
5.2 1.1 0.0
5.6000000000000005 1.1 0.0
6.0 1.1 0.0
6.4 1.1 0.0
6.800000000000001 1.1 0.0
7.2 1.1 0.0
7.6000000000000005 1.1 0.0
8.0 1.1 0.0
8.4 1.1 0.0
8.8 1.1 0.0
9.200000000000001 1.1 0.0
9.600000000000001 1.1 0.0
10.0 1.1 0.0
10.4 1.1 0.0
10.8 1.1 0.0
11.200000000000001 1.1 0.0
11.600000000000001 1.1 0.0
12.0 1.1 0.0
12.4 1.1 0.0
12.8 1.1 0.0
13.200000000000001 1.1 0.0
13.600000000000001 1.1 0.0
14.0 1.1 0.0
14.4 1.1 0.0
14.8 1.1 0.0
15.200000000000001 1.1 0.0
15.600000000000001 1.1 0.0
16.0 1.1 0.0
0.0 1.2000000000000002 0.0
0.4 1.2000000000000002 0.0
0.8 1.2000000000000002 0.0
1.2000000000000002 1.2000000000000002 0.0
1.6 1.2000000000000002 0.0
2.0 1.2000000000000002 0.0
2.4000000000000004 1.2000000000000002 0.0
2.8000000000000003 1.2000000000000002 0.0
3.2 1.2000000000000002 0.0
3.6 1.2000000000000002 0.0
4.0 1.2000000000000002 0.0
4.4 1.2000000000000002 0.0
4.800000000000001 1.2000000000000002 0.0
5.2 1.2000000000000002 0.0
5.6000000000000005 1.2000000000000002 0.0
6.0 1.2000000000000002 0.0
6.4 1.2000000000000002 0.0
6.800000000000001 1.2000000000000002 0.0
7.2 1.2000000000000002 0.0
7.6000000000000005 1.2000000000000002 0.0
8.0 1.2000000000000002 0.0
8.4 1.2000000000000002 0.0
8.8 1.2000000000000002 0.0
9.200000000000001 1.2000000000000002 0.0
9.600000000000001 1.2000000000000002 0.0
10.0 1.2000000000000002 0.0
10.4 1.2000000000000002 0.0
10.8 1.2000000000000002 0.0
11.200000000000001 1.2000000000000002 0.0
11.600000000000001 1.2000000000000002 0.0
12.0 1.2000000000000002 0.0
12.4 1.2000000000000002 0.0
12.8 1.2000000000000002 0.0
13.200000000000001 1.2000000000000002 0.0
13.600000000000001 1.2000000000000002 0.0
14.0 1.2000000000000002 0.0
14.4 1.2000000000000002 0.0
14.8 1.2000000000000002 0.0
15.200000000000001 1.2000000000000002 0.0
15.600000000000001 1.2000000000000002 0.0
16.0 1.2000000000000002 0.0
0.0 1.3 0.0
0.4 1.3 0.0
0.8 1.3 0.0
1.2000000000000002 1.3 0.0
1.6 1.3 0.0
2.0 1.3 0.0
2.4000000000000004 1.3 0.0
2.8000000000000003 1.3 0.0
3.2 1.3 0.0
3.6 1.3 0.0
4.0 1.3 0.0
4.4 1.3 0.0
4.800000000000001 1.3 0.0
5.2 1.3 0.0
5.6000000000000005 1.3 0.0
6.0 1.3 0.0
6.4 1.3 0.0
6.800000000000001 1.3 0.0
7.2 1.3 0.0
7.6000000000000005 1.3 0.0
8.0 1.3 0.0
8.4 1.3 0.0
8.8 1.3 0.0
9.200000000000001 1.3 0.0
9.600000000000001 1.3 0.0
10.0 1.3 0.0
10.4 1.3 0.0
10.8 1.3 0.0
11.200000000000001 1.3 0.0
11.600000000000001 1.3 0.0
12.0 1.3 0.0
12.4 1.3 0.0
12.8 1.3 0.0
13.200000000000001 1.3 0.0
13.600000000000001 1.3 0.0
14.0 1.3 0.0
14.4 1.3 0.0
14.8 1.3 0.0
15.200000000000001 1.3 0.0
15.600000000000001 1.3 0.0
16.0 1.3 0.0
0.0 1.4000000000000001 0.0
0.4 1.4000000000000001 0.0
0.8 1.4000000000000001 0.0
1.2000000000000002 1.4000000000000001 0.0
1.6 1.4000000000000001 0.0
2.0 1.4000000000000001 0.0
2.4000000000000004 1.4000000000000001 0.0
2.8000000000000003 1.4000000000000001 0.0
3.2 1.4000000000000001 0.0
3.6 1.4000000000000001 0.0
4.0 1.4000000000000001 0.0
4.4 1.4000000000000001 0.0
4.800000000000001 1.4000000000000001 0.0
5.2 1.4000000000000001 0.0
5.6000000000000005 1.4000000000000001 0.0
6.0 1.4000000000000001 0.0
6.4 1.4000000000000001 0.0
6.800000000000001 1.4000000000000001 0.0
7.2 1.4000000000000001 0.0
7.6000000000000005 1.4000000000000001 0.0
8.0 1.4000000000000001 0.0
8.4 1.4000000000000001 0.0
8.8 1.4000000000000001 0.0
9.200000000000001 1.4000000000000001 0.0
9.600000000000001 1.4000000000000001 0.0
10.0 1.4000000000000001 0.0
10.4 1.4000000000000001 0.0
10.8 1.4000000000000001 0.0
11.200000000000001 1.4000000000000001 0.0
11.600000000000001 1.4000000000000001 0.0
12.0 1.4000000000000001 0.0
12.4 1.4000000000000001 0.0
12.8 1.4000000000000001 0.0
13.200000000000001 1.4000000000000001 0.0
13.600000000000001 1.4000000000000001 0.0
14.0 1.4000000000000001 0.0
14.4 1.4000000000000001 0.0
14.8 1.4000000000000001 0.0
15.200000000000001 1.4000000000000001 0.0
15.600000000000001 1.4000000000000001 0.0
16.0 1.4000000000000001 0.0
0.0 1.5 0.0
0.4 1.5 0.0
0.8 1.5 0.0
1.2000000000000002 1.5 0.0
1.6 1.5 0.0
2.0 1.5 0.0
2.4000000000000004 1.5 0.0
2.8000000000000003 1.5 0.0
3.2 1.5 0.0
3.6 1.5 0.0
4.0 1.5 0.0
4.4 1.5 0.0
4.800000000000001 1.5 0.0
5.2 1.5 0.0
5.6000000000000005 1.5 0.0
6.0 1.5 0.0
6.4 1.5 0.0
6.800000000000001 1.5 0.0
7.2 1.5 0.0
7.6000000000000005 1.5 0.0
8.0 1.5 0.0
8.4 1.5 0.0
8.8 1.5 0.0
9.200000000000001 1.5 0.0
9.600000000000001 1.5 0.0
10.0 1.5 0.0
10.4 1.5 0.0
10.8 1.5 0.0
11.200000000000001 1.5 0.0
11.600000000000001 1.5 0.0
12.0 1.5 0.0
12.4 1.5 0.0
12.8 1.5 0.0
13.200000000000001 1.5 0.0
13.600000000000001 1.5 0.0
14.0 1.5 0.0
14.4 1.5 0.0
14.8 1.5 0.0
15.200000000000001 1.5 0.0
15.600000000000001 1.5 0.0
16.0 1.5 0.0
0.0 1.6 0.0
0.4 1.6 0.0
0.8 1.6 0.0
1.2000000000000002 1.6 0.0
1.6 1.6 0.0
2.0 1.6 0.0
2.4000000000000004 1.6 0.0
2.8000000000000003 1.6 0.0
3.2 1.6 0.0
3.6 1.6 0.0
4.0 1.6 0.0
4.4 1.6 0.0
4.800000000000001 1.6 0.0
5.2 1.6 0.0
5.6000000000000005 1.6 0.0
6.0 1.6 0.0
6.4 1.6 0.0
6.800000000000001 1.6 0.0
7.2 1.6 0.0
7.6000000000000005 1.6 0.0
8.0 1.6 0.0
8.4 1.6 0.0
8.8 1.6 0.0
9.200000000000001 1.6 0.0
9.600000000000001 1.6 0.0
10.0 1.6 0.0
10.4 1.6 0.0
10.8 1.6 0.0
11.200000000000001 1.6 0.0
11.600000000000001 1.6 0.0
12.0 1.6 0.0
12.4 1.6 0.0
12.8 1.6 0.0
13.200000000000001 1.6 0.0
13.600000000000001 1.6 0.0
14.0 1.6 0.0
14.4 1.6 0.0
14.8 1.6 0.0
15.200000000000001 1.6 0.0
15.600000000000001 1.6 0.0
16.0 1.6 0.0
0.0 1.7000000000000002 0.0
0.4 1.7000000000000002 0.0
0.8 1.7000000000000002 0.0
1.2000000000000002 1.7000000000000002 0.0
1.6 1.7000000000000002 0.0
2.0 1.7000000000000002 0.0
2.4000000000000004 1.7000000000000002 0.0
2.8000000000000003 1.7000000000000002 0.0
3.2 1.7000000000000002 0.0
3.6 1.7000000000000002 0.0
4.0 1.7000000000000002 0.0
4.4 1.7000000000000002 0.0
4.800000000000001 1.7000000000000002 0.0
5.2 1.7000000000000002 0.0
5.6000000000000005 1.7000000000000002 0.0
6.0 1.7000000000000002 0.0
6.4 1.7000000000000002 0.0
6.800000000000001 1.7000000000000002 0.0
7.2 1.7000000000000002 0.0
7.6000000000000005 1.7000000000000002 0.0
8.0 1.7000000000000002 0.0
8.4 1.7000000000000002 0.0
8.8 1.7000000000000002 0.0
9.200000000000001 1.7000000000000002 0.0
9.600000000000001 1.7000000000000002 0.0
10.0 1.7000000000000002 0.0
10.4 1.7000000000000002 0.0
10.8 1.7000000000000002 0.0
11.200000000000001 1.7000000000000002 0.0
11.600000000000001 1.7000000000000002 0.0
12.0 1.7000000000000002 0.0
12.4 1.7000000000000002 0.0
12.8 1.7000000000000002 0.0
13.200000000000001 1.7000000000000002 0.0
13.600000000000001 1.7000000000000002 0.0
14.0 1.7000000000000002 0.0
14.4 1.7000000000000002 0.0
14.8 1.7000000000000002 0.0
15.200000000000001 1.7000000000000002 0.0
15.600000000000001 1.7000000000000002 0.0
16.0 1.7000000000000002 0.0
0.0 1.8 0.0
0.4 1.8 0.0
0.8 1.8 0.0
1.2000000000000002 1.8 0.0
1.6 1.8 0.0
2.0 1.8 0.0
2.4000000000000004 1.8 0.0
2.8000000000000003 1.8 0.0
3.2 1.8 0.0
3.6 1.8 0.0
4.0 1.8 0.0
4.4 1.8 0.0
4.800000000000001 1.8 0.0
5.2 1.8 0.0
5.6000000000000005 1.8 0.0
6.0 1.8 0.0
6.4 1.8 0.0
6.800000000000001 1.8 0.0
7.2 1.8 0.0
7.6000000000000005 1.8 0.0
8.0 1.8 0.0
8.4 1.8 0.0
8.8 1.8 0.0
9.200000000000001 1.8 0.0
9.600000000000001 1.8 0.0
10.0 1.8 0.0
10.4 1.8 0.0
10.8 1.8 0.0
11.200000000000001 1.8 0.0
11.600000000000001 1.8 0.0
12.0 1.8 0.0
12.4 1.8 0.0
12.8 1.8 0.0
13.200000000000001 1.8 0.0
13.600000000000001 1.8 0.0
14.0 1.8 0.0
14.4 1.8 0.0
14.8 1.8 0.0
15.200000000000001 1.8 0.0
15.600000000000001 1.8 0.0
16.0 1.8 0.0
0.0 1.9000000000000001 0.0
0.4 1.9000000000000001 0.0
0.8 1.9000000000000001 0.0
1.2000000000000002 1.9000000000000001 0.0
1.6 1.9000000000000001 0.0
2.0 1.9000000000000001 0.0
2.4000000000000004 1.9000000000000001 0.0
2.8000000000000003 1.9000000000000001 0.0
3.2 1.9000000000000001 0.0
3.6 1.9000000000000001 0.0
4.0 1.9000000000000001 0.0
4.4 1.9000000000000001 0.0
4.800000000000001 1.9000000000000001 0.0
5.2 1.9000000000000001 0.0
5.6000000000000005 1.9000000000000001 0.0
6.0 1.9000000000000001 0.0
6.4 1.9000000000000001 0.0
6.800000000000001 1.9000000000000001 0.0
7.2 1.9000000000000001 0.0
7.6000000000000005 1.9000000000000001 0.0
8.0 1.9000000000000001 0.0
8.4 1.9000000000000001 0.0
8.8 1.9000000000000001 0.0
9.200000000000001 1.9000000000000001 0.0
9.600000000000001 1.9000000000000001 0.0
10.0 1.9000000000000001 0.0
10.4 1.9000000000000001 0.0
10.8 1.9000000000000001 0.0
11.200000000000001 1.9000000000000001 0.0
11.600000000000001 1.9000000000000001 0.0
12.0 1.9000000000000001 0.0
12.4 1.9000000000000001 0.0
12.8 1.9000000000000001 0.0
13.200000000000001 1.9000000000000001 0.0
13.600000000000001 1.9000000000000001 0.0
14.0 1.9000000000000001 0.0
14.4 1.9000000000000001 0.0
14.8 1.9000000000000001 0.0
15.200000000000001 1.9000000000000001 0.0
15.600000000000001 1.9000000000000001 0.0
16.0 1.9000000000000001 0.0
0.0 2.0 0.0
0.4 2.0 0.0
0.8 2.0 0.0
1.2000000000000002 2.0 0.0
1.6 2.0 0.0
2.0 2.0 0.0
2.4000000000000004 2.0 0.0
2.8000000000000003 2.0 0.0
3.2 2.0 0.0
3.6 2.0 0.0
4.0 2.0 0.0
4.4 2.0 0.0
4.800000000000001 2.0 0.0
5.2 2.0 0.0
5.6000000000000005 2.0 0.0
6.0 2.0 0.0
6.4 2.0 0.0
6.800000000000001 2.0 0.0
7.2 2.0 0.0
7.6000000000000005 2.0 0.0
8.0 2.0 0.0
8.4 2.0 0.0
8.8 2.0 0.0
9.200000000000001 2.0 0.0
9.600000000000001 2.0 0.0
10.0 2.0 0.0
10.4 2.0 0.0
10.8 2.0 0.0
11.200000000000001 2.0 0.0
11.600000000000001 2.0 0.0
12.0 2.0 0.0
12.4 2.0 0.0
12.8 2.0 0.0
13.200000000000001 2.0 0.0
13.600000000000001 2.0 0.0
14.0 2.0 0.0
14.4 2.0 0.0
14.8 2.0 0.0
15.200000000000001 2.0 0.0
15.600000000000001 2.0 0.0
16.0 2.0 0.0
CELLS 800 4000
4 0 1 42 41
4 1 2 43 42
4 2 3 44 43
4 3 4 45 44
4 4 5 46 45
4 5 6 47 46
4 6 7 48 47
4 7 8 49 48
4 8 9 50 49
4 9 10 51 50
4 10 11 52 51
4 11 12 53 52
4 12 13 54 53
4 13 14 55 54
4 14 15 56 55
4 15 16 57 56
4 16 17 58 57
4 17 18 59 58
4 18 19 60 59
4 19 20 61 60
4 20 21 62 61
4 21 22 63 62
4 22 23 64 63
4 23 24 65 64
4 24 25 66 65
4 25 26 67 66
4 26 27 68 67
4 27 28 69 68
4 28 29 70 69
4 29 30 71 70
4 30 31 72 71
4 31 32 73 72
4 32 33 74 73
4 33 34 75 74
4 34 35 76 75
4 35 36 77 76
4 36 37 78 77
4 37 38 79 78
4 38 39 80 79
4 39 40 81 80
4 41 42 83 82
4 42 43 84 83
4 43 44 85 84
4 44 45 86 85
4 45 46 87 86
4 46 47 88 87
4 47 48 89 88
4 48 49 90 89
4 49 50 91 90
4 50 51 92 91
4 51 52 93 92
4 52 53 94 93
4 53 54 95 94
4 54 55 96 95
4 55 56 97 96
4 56 57 98 97
4 57 58 99 98
4 58 59 100 99
4 59 60 101 100
4 60 61 102 101
4 61 62 103 102
4 62 63 104 103
4 63 64 105 104
4 64 65 106 105
4 65 66 107 106
4 66 67 108 107
4 67 68 109 108
4 68 69 110 109
4 69 70 111 110
4 70 71 112 111
4 71 72 113 112
4 72 73 114 113
4 73 74 115 114
4 74 75 116 115
4 75 76 117 116
4 76 77 118 117
4 77 78 119 118
4 78 79 120 119
4 79 80 121 120
4 80 81 122 121
4 82 83 124 123
4 83 84 125 124
4 84 85 126 125
4 85 86 127 126
4 86 87 128 127
4 87 88 129 128
4 88 89 130 129
4 89 90 131 130
4 90 91 132 131
4 91 92 133 132
4 92 93 134 133
4 93 94 135 134
4 94 95 136 135
4 95 96 137 136
4 96 97 138 137
4 97 98 139 138
4 98 99 140 139
4 99 100 141 140
4 100 101 142 141
4 101 102 143 142
4 102 103 144 143
4 103 104 145 144
4 104 105 146 145
4 105 106 147 146
4 106 107 148 147
4 107 108 149 148
4 108 109 150 149
4 109 110 151 150
4 110 111 152 151
4 111 112 153 152
4 112 113 154 153
4 113 114 155 154
4 114 115 156 155
4 115 116 157 156
4 116 117 158 157
4 117 118 159 158
4 118 119 160 159
4 119 120 161 160
4 120 121 162 161
4 121 122 163 162
4 123 124 165 164
4 124 125 166 165
4 125 126 167 166
4 126 127 168 167
4 127 128 169 168
4 128 129 170 169
4 129 130 171 170
4 130 131 172 171
4 131 132 173 172
4 132 133 174 173
4 133 134 175 174
4 134 135 176 175
4 135 136 177 176
4 136 137 178 177
4 137 138 179 178
4 138 139 180 179
4 139 140 181 180
4 140 141 182 181
4 141 142 183 182
4 142 143 184 183
4 143 144 185 184
4 144 145 186 185
4 145 146 187 186
4 146 147 188 187
4 147 148 189 188
4 148 149 190 189
4 149 150 191 190
4 150 151 192 191
4 151 152 193 192
4 152 153 194 193
4 153 154 195 194
4 154 155 196 195
4 155 156 197 196
4 156 157 198 197
4 157 158 199 198
4 158 159 200 199
4 159 160 201 200
4 160 161 202 201
4 161 162 203 202
4 162 163 204 203
4 164 165 206 205
4 165 166 207 206
4 166 167 208 207
4 167 168 209 208
4 168 169 210 209
4 169 170 211 210
4 170 171 212 211
4 171 172 213 212
4 172 173 214 213
4 173 174 215 214
4 174 175 216 215
4 175 176 217 216
4 176 177 218 217
4 177 178 219 218
4 178 179 220 219
4 179 180 221 220
4 180 181 222 221
4 181 182 223 222
4 182 183 224 223
4 183 184 225 224
4 184 185 226 225
4 185 186 227 226
4 186 187 228 227
4 187 188 229 228
4 188 189 230 229
4 189 190 231 230
4 190 191 232 231
4 191 192 233 232
4 192 193 234 233
4 193 194 235 234
4 194 195 236 235
4 195 196 237 236
4 196 197 238 237
4 197 198 239 238
4 198 199 240 239
4 199 200 241 240
4 200 201 242 241
4 201 202 243 242
4 202 203 244 243
4 203 204 245 244
4 205 206 247 246
4 206 207 248 247
4 207 208 249 248
4 208 209 250 249
4 209 210 251 250
4 210 211 252 251
4 211 212 253 252
4 212 213 254 253
4 213 214 255 254
4 214 215 256 255
4 215 216 257 256
4 216 217 258 257
4 217 218 259 258
4 218 219 260 259
4 219 220 261 260
4 220 221 262 261
4 221 222 263 262
4 222 223 264 263
4 223 224 265 264
4 224 225 266 265
4 225 226 267 266
4 226 227 268 267
4 227 228 269 268
4 228 229 270 269
4 229 230 271 270
4 230 231 272 271
4 231 232 273 272
4 232 233 274 273
4 233 234 275 274
4 234 235 276 275
4 235 236 277 276
4 236 237 278 277
4 237 238 279 278
4 238 239 280 279
4 239 240 281 280
4 240 241 282 281
4 241 242 283 282
4 242 243 284 283
4 243 244 285 284
4 244 245 286 285
4 246 247 288 287
4 247 248 289 288
4 248 249 290 289
4 249 250 291 290
4 250 251 292 291
4 251 252 293 292
4 252 253 294 293
4 253 254 295 294
4 254 255 296 295
4 255 256 297 296
4 256 257 298 297
4 257 258 299 298
4 258 259 300 299
4 259 260 301 300
4 260 261 302 301
4 261 262 303 302
4 262 263 304 303
4 263 264 305 304
4 264 265 306 305
4 265 266 307 306
4 266 267 308 307
4 267 268 309 308
4 268 269 310 309
4 269 270 311 310
4 270 271 312 311
4 271 272 313 312
4 272 273 314 313
4 273 274 315 314
4 274 275 316 315
4 275 276 317 316
4 276 277 318 317
4 277 278 319 318
4 278 279 320 319
4 279 280 321 320
4 280 281 322 321
4 281 282 323 322
4 282 283 324 323
4 283 284 325 324
4 284 285 326 325
4 285 286 327 326
4 287 288 329 328
4 288 289 330 329
4 289 290 331 330
4 290 291 332 331
4 291 292 333 332
4 292 293 334 333
4 293 294 335 334
4 294 295 336 335
4 295 296 337 336
4 296 297 338 337
4 297 298 339 338
4 298 299 340 339
4 299 300 341 340
4 300 301 342 341
4 301 302 343 342
4 302 303 344 343
4 303 304 345 344
4 304 305 346 345
4 305 306 347 346
4 306 307 348 347
4 307 308 349 348
4 308 309 350 349
4 309 310 351 350
4 310 311 352 351
4 311 312 353 352
4 312 313 354 353
4 313 314 355 354
4 314 315 356 355
4 315 316 357 356
4 316 317 358 357
4 317 318 359 358
4 318 319 360 359
4 319 320 361 360
4 320 321 362 361
4 321 322 363 362
4 322 323 364 363
4 323 324 365 364
4 324 325 366 365
4 325 326 367 366
4 326 327 368 367
4 328 329 370 369
4 329 330 371 370
4 330 331 372 371
4 331 332 373 372
4 332 333 374 373
4 333 334 375 374
4 334 335 376 375
4 335 336 377 376
4 336 337 378 377
4 337 338 379 378
4 338 339 380 379
4 339 340 381 380
4 340 341 382 381
4 341 342 383 382
4 342 343 384 383
4 343 344 385 384
4 344 345 386 385
4 345 346 387 386
4 346 347 388 387
4 347 348 389 388
4 348 349 390 389
4 349 350 391 390
4 350 351 392 391
4 351 352 393 392
4 352 353 394 393
4 353 354 395 394
4 354 355 396 395
4 355 356 397 396
4 356 357 398 397
4 357 358 399 398
4 358 359 400 399
4 359 360 401 400
4 360 361 402 401
4 361 362 403 402
4 362 363 404 403
4 363 364 405 404
4 364 365 406 405
4 365 366 407 406
4 366 367 408 407
4 367 368 409 408
4 369 370 411 410
4 370 371 412 411
4 371 372 413 412
4 372 373 414 413
4 373 374 415 414
4 374 375 416 415
4 375 376 417 416
4 376 377 418 417
4 377 378 419 418
4 378 379 420 419
4 379 380 421 420
4 380 381 422 421
4 381 382 423 422
4 382 383 424 423
4 383 384 425 424
4 384 385 426 425
4 385 386 427 426
4 386 387 428 427
4 387 388 429 428
4 388 389 430 429
4 389 390 431 430
4 390 391 432 431
4 391 392 433 432
4 392 393 434 433
4 393 394 435 434
4 394 395 436 435
4 395 396 437 436
4 396 397 438 437
4 397 398 439 438
4 398 399 440 439
4 399 400 441 440
4 400 401 442 441
4 401 402 443 442
4 402 403 444 443
4 403 404 445 444
4 404 405 446 445
4 405 406 447 446
4 406 407 448 447
4 407 408 449 448
4 408 409 450 449
4 410 411 452 451
4 411 412 453 452
4 412 413 454 453
4 413 414 455 454
4 414 415 456 455
4 415 416 457 456
4 416 417 458 457
4 417 418 459 458
4 418 419 460 459
4 419 420 461 460
4 420 421 462 461
4 421 422 463 462
4 422 423 464 463
4 423 424 465 464
4 424 425 466 465
4 425 426 467 466
4 426 427 468 467
4 427 428 469 468
4 428 429 470 469
4 429 430 471 470
4 430 431 472 471
4 431 432 473 472
4 432 433 474 473
4 433 434 475 474
4 434 435 476 475
4 435 436 477 476
4 436 437 478 477
4 437 438 479 478
4 438 439 480 479
4 439 440 481 480
4 440 441 482 481
4 441 442 483 482
4 442 443 484 483
4 443 444 485 484
4 444 445 486 485
4 445 446 487 486
4 446 447 488 487
4 447 448 489 488
4 448 449 490 489
4 449 450 491 490
4 451 452 493 492
4 452 453 494 493
4 453 454 495 494
4 454 455 496 495
4 455 456 497 496
4 456 457 498 497
4 457 458 499 498
4 458 459 500 499
4 459 460 501 500
4 460 461 502 501
4 461 462 503 502
4 462 463 504 503
4 463 464 505 504
4 464 465 506 505
4 465 466 507 506
4 466 467 508 507
4 467 468 509 508
4 468 469 510 509
4 469 470 511 510
4 470 471 512 511
4 471 472 513 512
4 472 473 514 513
4 473 474 515 514
4 474 475 516 515
4 475 476 517 516
4 476 477 518 517
4 477 478 519 518
4 478 479 520 519
4 479 480 521 520
4 480 481 522 521
4 481 482 523 522
4 482 483 524 523
4 483 484 525 524
4 484 485 526 525
4 485 486 527 526
4 486 487 528 527
4 487 488 529 528
4 488 489 530 529
4 489 490 531 530
4 490 491 532 531
4 492 493 534 533
4 493 494 535 534
4 494 495 536 535
4 495 496 537 536
4 496 497 538 537
4 497 498 539 538
4 498 499 540 539
4 499 500 541 540
4 500 501 542 541
4 501 502 543 542
4 502 503 544 543
4 503 504 545 544
4 504 505 546 545
4 505 506 547 546
4 506 507 548 547
4 507 508 549 548
4 508 509 550 549
4 509 510 551 550
4 510 511 552 551
4 511 512 553 552
4 512 513 554 553
4 513 514 555 554
4 514 515 556 555
4 515 516 557 556
4 516 517 558 557
4 517 518 559 558
4 518 519 560 559
4 519 520 561 560
4 520 521 562 561
4 521 522 563 562
4 522 523 564 563
4 523 524 565 564
4 524 525 566 565
4 525 526 567 566
4 526 527 568 567
4 527 528 569 568
4 528 529 570 569
4 529 530 571 570
4 530 531 572 571
4 531 532 573 572
4 533 534 575 574
4 534 535 576 575
4 535 536 577 576
4 536 537 578 577
4 537 538 579 578
4 538 539 580 579
4 539 540 581 580
4 540 541 582 581
4 541 542 583 582
4 542 543 584 583
4 543 544 585 584
4 544 545 586 585
4 545 546 587 586
4 546 547 588 587
4 547 548 589 588
4 548 549 590 589
4 549 550 591 590
4 550 551 592 591
4 551 552 593 592
4 552 553 594 593
4 553 554 595 594
4 554 555 596 595
4 555 556 597 596
4 556 557 598 597
4 557 558 599 598
4 558 559 600 599
4 559 560 601 600
4 560 561 602 601
4 561 562 603 602
4 562 563 604 603
4 563 564 605 604
4 564 565 606 605
4 565 566 607 606
4 566 567 608 607
4 567 568 609 608
4 568 569 610 609
4 569 570 611 610
4 570 571 612 611
4 571 572 613 612
4 572 573 614 613
4 574 575 616 615
4 575 576 617 616
4 576 577 618 617
4 577 578 619 618
4 578 579 620 619
4 579 580 621 620
4 580 581 622 621
4 581 582 623 622
4 582 583 624 623
4 583 584 625 624
4 584 585 626 625
4 585 586 627 626
4 586 587 628 627
4 587 588 629 628
4 588 589 630 629
4 589 590 631 630
4 590 591 632 631
4 591 592 633 632
4 592 593 634 633
4 593 594 635 634
4 594 595 636 635
4 595 596 637 636
4 596 597 638 637
4 597 598 639 638
4 598 599 640 639
4 599 600 641 640
4 600 601 642 641
4 601 602 643 642
4 602 603 644 643
4 603 604 645 644
4 604 605 646 645
4 605 606 647 646
4 606 607 648 647
4 607 608 649 648
4 608 609 650 649
4 609 610 651 650
4 610 611 652 651
4 611 612 653 652
4 612 613 654 653
4 613 614 655 654
4 615 616 657 656
4 616 617 658 657
4 617 618 659 658
4 618 619 660 659
4 619 620 661 660
4 620 621 662 661
4 621 622 663 662
4 622 623 664 663
4 623 624 665 664
4 624 625 666 665
4 625 626 667 666
4 626 627 668 667
4 627 628 669 668
4 628 629 670 669
4 629 630 671 670
4 630 631 672 671
4 631 632 673 672
4 632 633 674 673
4 633 634 675 674
4 634 635 676 675
4 635 636 677 676
4 636 637 678 677
4 637 638 679 678
4 638 639 680 679
4 639 640 681 680
4 640 641 682 681
4 641 642 683 682
4 642 643 684 683
4 643 644 685 684
4 644 645 686 685
4 645 646 687 686
4 646 647 688 687
4 647 648 689 688
4 648 649 690 689
4 649 650 691 690
4 650 651 692 691
4 651 652 693 692
4 652 653 694 693
4 653 654 695 694
4 654 655 696 695
4 656 657 698 697
4 657 658 699 698
4 658 659 700 699
4 659 660 701 700
4 660 661 702 701
4 661 662 703 702
4 662 663 704 703
4 663 664 705 704
4 664 665 706 705
4 665 666 707 706
4 666 667 708 707
4 667 668 709 708
4 668 669 710 709
4 669 670 711 710
4 670 671 712 711
4 671 672 713 712
4 672 673 714 713
4 673 674 715 714
4 674 675 716 715
4 675 676 717 716
4 676 677 718 717
4 677 678 719 718
4 678 679 720 719
4 679 680 721 720
4 680 681 722 721
4 681 682 723 722
4 682 683 724 723
4 683 684 725 724
4 684 685 726 725
4 685 686 727 726
4 686 687 728 727
4 687 688 729 728
4 688 689 730 729
4 689 690 731 730
4 690 691 732 731
4 691 692 733 732
4 692 693 734 733
4 693 694 735 734
4 694 695 736 735
4 695 696 737 736
4 697 698 739 738
4 698 699 740 739
4 699 700 741 740
4 700 701 742 741
4 701 702 743 742
4 702 703 744 743
4 703 704 745 744
4 704 705 746 745
4 705 706 747 746
4 706 707 748 747
4 707 708 749 748
4 708 709 750 749
4 709 710 751 750
4 710 711 752 751
4 711 712 753 752
4 712 713 754 753
4 713 714 755 754
4 714 715 756 755
4 715 716 757 756
4 716 717 758 757
4 717 718 759 758
4 718 719 760 759
4 719 720 761 760
4 720 721 762 761
4 721 722 763 762
4 722 723 764 763
4 723 724 765 764
4 724 725 766 765
4 725 726 767 766
4 726 727 768 767
4 727 728 769 768
4 728 729 770 769
4 729 730 771 770
4 730 731 772 771
4 731 732 773 772
4 732 733 774 773
4 733 734 775 774
4 734 735 776 775
4 735 736 777 776
4 736 737 778 777
4 738 739 780 779
4 739 740 781 780
4 740 741 782 781
4 741 742 783 782
4 742 743 784 783
4 743 744 785 784
4 744 745 786 785
4 745 746 787 786
4 746 747 788 787
4 747 748 789 788
4 748 749 790 789
4 749 750 791 790
4 750 751 792 791
4 751 752 793 792
4 752 753 794 793
4 753 754 795 794
4 754 755 796 795
4 755 756 797 796
4 756 757 798 797
4 757 758 799 798
4 758 759 800 799
4 759 760 801 800
4 760 761 802 801
4 761 762 803 802
4 762 763 804 803
4 763 764 805 804
4 764 765 806 805
4 765 766 807 806
4 766 767 808 807
4 767 768 809 808
4 768 769 810 809
4 769 770 811 810
4 770 771 812 811
4 771 772 813 812
4 772 773 814 813
4 773 774 815 814
4 774 775 816 815
4 775 776 817 816
4 776 777 818 817
4 777 778 819 818
4 779 780 821 820
4 780 781 822 821
4 781 782 823 822
4 782 783 824 823
4 783 784 825 824
4 784 785 826 825
4 785 786 827 826
4 786 787 828 827
4 787 788 829 828
4 788 789 830 829
4 789 790 831 830
4 790 791 832 831
4 791 792 833 832
4 792 793 834 833
4 793 794 835 834
4 794 795 836 835
4 795 796 837 836
4 796 797 838 837
4 797 798 839 838
4 798 799 840 839
4 799 800 841 840
4 800 801 842 841
4 801 802 843 842
4 802 803 844 843
4 803 804 845 844
4 804 805 846 845
4 805 806 847 846
4 806 807 848 847
4 807 808 849 848
4 808 809 850 849
4 809 810 851 850
4 810 811 852 851
4 811 812 853 852
4 812 813 854 853
4 813 814 855 854
4 814 815 856 855
4 815 816 857 856
4 816 817 858 857
4 817 818 859 858
4 818 819 860 859
CELL_TYPES 800
9
9
9
9
9
9
9
9
9
9
9
9
9
9
9
9
9
9
9
9
9
9
9
9
9
9
9
9
9
9
9
9
9
9
9
9
9
9
9
9
9
9
9
9
9
9
9
9
9
9
9
9
9
9
9
9
9
9
9
9
9
9
9
9
9
9
9
9
9
9
9
9
9
9
9
9
9
9
9
9
9
9
9
9
9
9
9
9
9
9
9
9
9
9
9
9
9
9
9
9
9
9
9
9
9
9
9
9
9
9
9
9
9
9
9
9
9
9
9
9
9
9
9
9
9
9
9
9
9
9
9
9
9
9
9
9
9
9
9
9
9
9
9
9
9
9
9
9
9
9
9
9
9
9
9
9
9
9
9
9
9
9
9
9
9
9
9
9
9
9
9
9
9
9
9
9
9
9
9
9
9
9
9
9
9
9
9
9
9
9
9
9
9
9
9
9
9
9
9
9
9
9
9
9
9
9
9
9
9
9
9
9
9
9
9
9
9
9
9
9
9
9
9
9
9
9
9
9
9
9
9
9
9
9
9
9
9
9
9
9
9
9
9
9
9
9
9
9
9
9
9
9
9
9
9
9
9
9
9
9
9
9
9
9
9
9
9
9
9
9
9
9
9
9
9
9
9
9
9
9
9
9
9
9
9
9
9
9
9
9
9
9
9
9
9
9
9
9
9
9
9
9
9
9
9
9
9
9
9
9
9
9
9
9
9
9
9
9
9
9
9
9
9
9
9
9
9
9
9
9
9
9
9
9
9
9
9
9
9
9
9
9
9
9
9
9
9
9
9
9
9
9
9
9
9
9
9
9
9
9
9
9
9
9
9
9
9
9
9
9
9
9
9
9
9
9
9
9
9
9
9
9
9
9
9
9
9
9
9
9
9
9
9
9
9
9
9
9
9
9
9
9
9
9
9
9
9
9
9
9
9
9
9
9
9
9
9
9
9
9
9
9
9
9
9
9
9
9
9
9
9
9
9
9
9
9
9
9
9
9
9
9
9
9
9
9
9
9
9
9
9
9
9
9
9
9
9
9
9
9
9
9
9
9
9
9
9
9
9
9
9
9
9
9
9
9
9
9
9
9
9
9
9
9
9
9
9
9
9
9
9
9
9
9
9
9
9
9
9
9
9
9
9
9
9
9
9
9
9
9
9
9
9
9
9
9
9
9
9
9
9
9
9
9
9
9
9
9
9
9
9
9
9
9
9
9
9
9
9
9
9
9
9
9
9
9
9
9
9
9
9
9
9
9
9
9
9
9
9
9
9
9
9
9
9
9
9
9
9
9
9
9
9
9
9
9
9
9
9
9
9
9
9
9
9
9
9
9
9
9
9
9
9
9
9
9
9
9
9
9
9
9
9
9
9
9
9
9
9
9
9
9
9
9
9
9
9
9
9
9
9
9
9
9
9
9
9
9
9
9
9
9
9
9
9
9
9
9
9
9
9
9
9
9
9
9
9
9
9
9
9
9
9
9
9
9
9
9
9
9
9
9
9
9
9
9
9
9
9
9
9
9
9
9
9
9
9
9
9
9
9
9
9
9
9
9
9
9
9
9
9
9
9
9
9
9
9
9
9
9
9
9
9
9
9
9
9
9
9
9
9
9
9
9
9
9
9
9
9
9
9
9
9
9
9
9
9
9
9
9
9
9
9
9
9
9
9
9
9
9
9
9
9
9
9
9
9
9
9
9
9
9
9
9
9
9
9
9
9
9
9
9
9
9
9
9
9
9
9
9
9
9
9
9
9
9
9
9
9
9
9
9
9
9
9
9
9
9
9
9
9
9
9
9
9
9
9
9
9
9
POINT_DATA 861
SCALARS Disp float 2
LOOKUP_TABLE default
0.0 0.0
-4.3965178719851394e-13 9.547362900264034e-12
-8.634759574022155e-13 1.742261890314012e-11
-1.2123774206784788e-12 2.514455310631547e-11
-1.6263379531977762e-12 3.268163517589073e-11
-2.13645767743742e-12 4.004196973994567e-11
-2.754255157277896e-12 4.71565009263486e-11
-3.4715841312760176e-12 5.398392843858346e-11
-4.279882004354363e-12 6.049338807656568e-11
-5.183548035248009e-12 6.667422169925885e-11
-6.195932655828074e-12 7.247447086911052e-11
-7.300937632237492e-12 7.779465960311427e-11
-8.484379865336678e-12 8.26330115444307e-11
-9.730050098966103e-12 8.696332542967866e-11
-1.1041279002199644e-11 9.07984798459438e-11
-1.241406977214865e-11 9.406431189518116e-11
-1.3851808589038228e-11 9.677414425368625e-11
-1.5330070546326624e-11 9.881517826215713e-11
-1.6817880421626796e-11 1.0024336916103493e-10
-1.8307688698371294e-11 1.0104184156034535e-10
-1.980138275570198e-11 1.0125145166739458e-10
-2.1301627128877954e-11 1.0083844870223402e-10
-2.2789325981875663e-11 9.979839177276517e-11
-2.4243718144134618e-11 9.813128087898804e-11
-2.5655921831457817e-11 9.587708404978912e-11
-2.7036817229486587e-11 9.305267667514272e-11
-2.8361535342469324e-11 8.964384790033364e-11
-2.962607936751738e-11 8.572875742629549e-11
-3.081734867294017e-11 8.128209216806681e-11
-3.1925573296121e-11 7.638867316472897e-11
-3.295341777231897e-11 7.103029275867812e-11
-3.3895330986410954e-11 6.530020968398276e-11
-3.475575383049545e-11 5.91886539780262e-11
-3.5521585672881884e-11 5.2736481848114636e-11
-3.618816357686683e-11 4.5990322661282335e-11
-3.675104665035178e-11 3.8994807383119223e-11
-3.722022690055837e-11 3.1806113298671335e-11
-3.761591038653478e-11 2.4446000779221322e-11
-3.796318814863753e-11 1.6923795698176036e-11
-3.8398173529685664e-11 9.253819932553142e-12
-3.895550548804749e-11 0.0
-2.2692681067582043e-12 3.76443667904347e-13
-2.587777214735354e-12 9.50750589367999e-12
-2.7939595081960533e-12 1.747257893924825e-11
-3.116729097030202e-12 2.5178525930869e-11
-3.4824365613417285e-12 3.2728930676739765e-11
-3.940126003243449e-12 4.009881315880648e-11
-4.491268468242993e-12 4.722444657545566e-11
-5.132866354173871e-12 5.406119996109737e-11
-5.860645302391276e-12 6.058042956169629e-11
-6.676270647432148e-12 6.677325359305541e-11
-7.5806583232918e-12 7.257972001184498e-11
-8.566203302251552e-12 7.791145506530484e-11
-9.626133223861189e-12 8.275691243397887e-11
-1.0747402967581365e-11 8.709566401421398e-11
-1.1925127552103731e-11 9.093437114415792e-11
-1.315858533246228e-11 9.420908497759228e-11
-1.4443890528070824e-11 9.692335822819587e-11
-1.576194730290581e-11 9.896528041508645e-11
-1.7095991289295398e-11 1.0039435949238396e-10
-1.8433143900153937e-11 1.0119283189169437e-10
-1.9776957849160226e-11 1.014051065340027e-10
-2.112099384277144e-11 1.0099032721200274e-10
-2.245204022699454e-11 9.994849392569449e-11
-2.37556641025094e-11 9.827605396139916e-11
-2.5024204930446103e-11 9.602008077536084e-11
-2.6259883156853903e-11 9.319034433019624e-11
-2.7449820194647145e-11 8.977707466328866e-11
-2.8585356304233756e-11 8.58531024050535e-11
-2.965361289852808e-11 8.139933171946723e-11
-3.064837272859222e-11 7.649569866430284e-11
-3.1572300329685277e-11 7.113332145536333e-11
-3.2420954809708746e-11 6.539124797200202e-11
-3.318989527656413e-11 5.927169866026816e-11
-3.38771233288071e-11 5.2809312478530046e-11
-3.447597762828991e-11 4.6053383329081043e-11
-3.498312750593868e-11 3.904676582067168e-11
-3.540723270134549e-11 3.1850300175051416e-11
-3.575717499870734e-11 2.4480195648379777e-11
-3.607980580966341e-11 1.697209039974723e-11
-3.6318281715352896e-11 9.22678600190352e-12
-3.6665115388245795e-11 3.4630631695620195e-13
-4.403366560268296e-12 7.007935898251105e-13
-4.649752805008234e-12 9.484191210162862e-12
-4.751060656005279e-12 1.7497447934999855e-11
-5.003802927561196e-12 2.5211388532397905e-11
-5.3265170052441135e-12 3.277023097325582e-11
-5.728639784763345e-12 4.015010546254416e-11
-6.214972980700395e-12 4.728395452957557e-11
-6.7815197901666124e-12 5.412958969941428e-11
-7.42883532467431e-12 6.065903335183975e-11
-8.153644426300843e-12 6.686118325660573e-11
-8.952116825611256e-12 7.26720905674938e-11
-9.822198610009991e-12 7.801448376199005e-11
-1.0759393376247317e-11 8.286837882565123e-11
-1.175604058545332e-11 8.72146799224538e-11
-1.2800538407020667e-11 9.105516340923714e-11
-1.3894441153183834e-11 9.43387590268685e-11
-1.5029533173560594e-11 9.705392045589178e-11
-1.6193268947972683e-11 9.909850717804147e-11
-1.7372991933939375e-11 1.0052936261217837e-10
-1.8560264436473517e-11 1.0132694683306909e-10
-1.975153374189631e-11 1.0154455054589562e-10
-2.0941914868899403e-11 1.0112621851021686e-10
-2.2119417408816844e-11 1.0007994433181011e-10
-2.3274049354427007e-11 9.840395165383597e-11
-2.4398039144557515e-11 9.614531393253856e-11
-2.549094268999852e-11 9.331202477369516e-11
-2.6547430920231818e-11 8.989875510678758e-11
-2.755418115896191e-11 8.596590106435542e-11
-2.850075730975732e-11 8.150324859457214e-11
-2.938271848051954e-11 7.659162193363045e-11
-3.0203173295717534e-11 7.122524792180229e-11
-3.095723677404294e-11 6.547518083266368e-11
-3.1637581443533236e-11 5.934497337989342e-11
-3.224642775023767e-11 5.2875037681587855e-11
-3.2777558445218347e-11 4.61080063018926e-11
-3.322786490400631e-11 3.909406132152071e-11
-3.360334233093454e-11 3.1887381624073896e-11
-3.391287251020003e-11 2.451350233911853e-11
-3.417133243033277e-11 1.6998402685430847e-11
-3.429856398895481e-11 9.206690965157804e-12
-3.4547253946470846e-11 6.438842514722154e-13
-6.446676525939665e-12 9.767048281261737e-13
-6.6501804063534564e-12 9.479639295761899e-12
-6.699640842100507e-12 1.7507550964523944e-11
-6.883493774978433e-12 2.523892206340861e-11
-7.157330284002228e-12 3.2805758110043826e-11
-7.504830090709902e-12 4.019407029431932e-11
-7.925826661647761e-12 4.7335912967128024e-11
-8.418987729186256e-12 5.418998583195389e-11
-8.985312494047548e-12 6.073097580383546e-11
-9.618417173840044e-12 6.693534615465069e-11
-1.0312750653440617e-11 7.275557933894561e-11
-1.1068146399395573e-11 7.810285751475021e-11
-1.1885381567822151e-11 8.29674107194478e-11
-1.2755796419128274e-11 8.731859679755871e-11
-1.366917690148739e-11 9.116174481960115e-11
-1.4622747457337937e-11 9.445066950775072e-11
-1.5609957770834626e-11 9.71684954720331e-11
-1.6622370146990306e-11 9.921397037260249e-11
-1.764999257858335e-11 1.0064749034199849e-10
-1.8687162928188172e-11 1.014477390981483e-10
-1.972766394686687e-11 1.0166534281097483e-10
-2.0763279984237215e-11 1.0124523441845668e-10
-2.1790347304317947e-11 1.0019807206163023e-10
-2.2796431409233264e-11 9.851763849155759e-11
-2.3776980384582203e-11 9.625278352132227e-11
-2.4730884007340137e-11 9.341949436247887e-11
-2.5652591162383942e-11 9.000444833873189e-11
-2.6530999619467366e-11 8.606182433368303e-11
-2.7357227594393407e-11 8.15978395962702e-11
-2.812794441808819e-11 7.667289025903301e-11
-2.8844704402786192e-11 7.13087366932541e-11
-2.9503732790203685e-11 6.554712328465939e-11
-3.0097258019168294e-11 5.940892222611183e-11
-3.062794462493912e-11 5.2933657457288064e-11
-3.109090762620781e-11 4.615463566892686e-11
-3.1484370666134964e-11 3.913580570724662e-11
-3.181122032458461e-11 3.1919578091788026e-11
-3.20745652260257e-11 2.454036973631446e-11
-3.2266411764680925e-11 1.7010726161004186e-11
-3.2333469235368284e-11 9.20030718276621e-12
-3.253086688914664e-11 8.983092047998298e-13
-8.428702180651726e-12 1.2106288194146941e-12
-8.604172929693732e-12 9.490519481403226e-12
-8.627987213571942e-12 1.7509882432875656e-11
-8.754663660681672e-12 2.5258684033246936e-11
-8.976819287909166e-12 3.283595617631363e-11
-9.26914101029297e-12 4.023092969873687e-11
-9.626355268466114e-12 4.738076597732288e-11
-1.0046852239042892e-11 5.424283244792605e-11
-1.0530742944325766e-11 6.079359238242432e-11
-1.1072365246889149e-11 6.70010713577085e-11
-1.1663559007502045e-11 7.282219272042312e-11
-1.2306489161062473e-11 7.817790859121487e-11
-1.3003598198224608e-11 8.305311993694886e-11
-1.3748557847748089e-11 8.740830281794842e-11
-1.4531265080108824e-11 9.125589173208937e-11
-1.53449475348566e-11 9.454570459865863e-11
-1.6186829654429857e-11 9.726708327661981e-11
-1.7049472944563604e-11 9.93134463556089e-11
-1.7925994022505165e-11 1.00749630860264e-10
-1.8814727553717603e-11 1.0155254415167292e-10
-1.970301699572019e-11 1.0176570697240095e-10
-2.0587309634834128e-11 1.0134737493672219e-10
-2.1463719690473226e-11 1.0029932440147604e-10
-2.2322366177718322e-11 9.86135617608852e-11
-2.3160584561310316e-11 9.634781861223018e-11
-2.397726461822458e-11 9.351186491812769e-11
-2.4764412742683817e-11 9.00968188943807e-11
-2.5515145551935348e-11 8.614531310513485e-11
-2.6222801707831422e-11 8.167777565404322e-11
-2.688249622906369e-11 7.674616497865827e-11
-2.7494895249446927e-11 7.137801460999071e-11
-2.8059332635166356e-11 6.561062804166795e-11
-2.8567814780444678e-11 5.946221293129383e-11
-2.9020785774491742e-11 5.298428362721097e-11
-2.941447085902382e-11 4.6195491876233064e-11
-2.975153456930002e-11 3.917177693324447e-11
-3.0027980102431684e-11 3.1946889578193804e-11
-3.024358541381389e-11 2.4559465572338013e-11
-3.037725626597876e-11 1.7014278874682986e-11
-3.041278340276676e-11 9.207579143577505e-12
-3.057865072264576e-11 1.1147957557078314e-12
-1.03684838492768e-11 1.4085052568724166e-12
-1.0522860360850927e-11 9.512668430744498e-12
-1.0534184635702104e-11 1.7508994254455956e-11
-1.0615452961104666e-11 2.527245079875229e-11
-1.0786482818048171e-11 3.285971494904061e-11
-1.102340441150318e-11 4.026157185421653e-11
-1.1317502490726383e-11 4.7418069470950286e-11
-1.1666112520458682e-11 5.4287241368911054e-11
-1.2067569166163139e-11 6.084599490918663e-11
-1.2516543357321552e-11 6.705658250893975e-11
-1.3005485577366471e-11 7.287859205007408e-11
-1.3538392629186546e-11 7.824407788348253e-11
-1.4116041668899015e-11 8.312284194289532e-11
-1.473499100512754e-11 8.748646251888204e-11
-1.5387136009792357e-11 9.133405143302298e-11
-1.6063150809486615e-11 9.462386429959224e-11
-1.6759593712833976e-11 9.735146022649133e-11
-1.7474577340692576e-11 9.939693512706071e-11
-1.8202328533334367e-11 1.0083756052381432e-10
-1.8940515822407633e-11 1.0164136199364293e-10
-1.9678370044573512e-11 1.0185008392227246e-10
-2.0412560530758128e-11 1.014344164218528e-10
-2.113953456728268e-11 1.0038281317292785e-10
-2.185140957067233e-11 9.869438599707792e-11
-2.2548851674741854e-11 9.64286428484229e-11
-2.3228086121207525e-11 9.35918009759007e-11
-2.3882007482711742e-11 9.017320223847491e-11
-2.450639691176093e-11 8.622080827080936e-11
-2.509548124862704e-11 8.174394494631088e-11
-2.564415346739679e-11 7.680966973566683e-11
-2.6154411969514513e-11 7.143707847490077e-11
-2.662248199669648e-11 6.566391874684996e-11
-2.704703128131314e-11 5.950928638753794e-11
-2.742139848521674e-11 5.3024251656097476e-11
-2.7747804054456537e-11 4.623101901302107e-11
-2.8027358212057152e-11 3.92004206872798e-11
-2.8253399619870834e-11 3.196842790487153e-11
-2.8421265341194157e-11 2.4571455981003965e-11
-2.850830682632477e-11 1.701361274086821e-11
-2.8526958573138472e-11 9.225176178517813e-12
-2.8670621432524968e-11 1.2986209330101417e-12
-1.2278622563144381e-11 1.575413410837001e-12
-1.241495795056835e-11 9.542200363199527e-12
-1.2419842931876701e-11 1.750688483070917e-11
-1.246525105358387e-11 2.528000031531974e-11
-1.2587597630897562e-11 3.2877256472829686e-11
-1.2768675006213925e-11 4.0285774716153355e-11
-1.300104468526797e-11 4.745048798326934e-11
-1.3278267374516872e-11 5.432276850569906e-11
-1.359679036028183e-11 6.088907156254209e-11
-1.395339399579143e-11 6.710054734071491e-11
-1.4341194898292997e-11 7.292655368473788e-11
-1.476452293758257e-11 7.829648041024484e-11
-1.5222934024450296e-11 8.318057354017583e-11
-1.5716761225803566e-11 8.754774682984134e-11
-1.6238232980470002e-11 9.139800027924139e-11
-1.6777690348135366e-11 9.468958950265005e-11
-1.7330581414398694e-11 9.741629725112944e-11
-1.789790537998215e-11 9.946710122221702e-11
-1.8477774865743868e-11 1.0090595026213123e-10
-1.9065415912677963e-11 1.0171330444563864e-10
-1.965350104882191e-11 1.0191580912533027e-10
-2.0238477560496904e-11 1.0150635887384851e-10
-2.0817680912443848e-11 1.0044942655440536e-10
-2.138356158809529e-11 9.876188755697513e-11
-2.194133763566697e-11 9.64979207651595e-11
-2.248157215944957e-11 9.36548616436994e-11
-2.300493129325787e-11 9.023537472785392e-11
-2.350364347591949e-11 8.628120440334897e-11
-2.3972601681521155e-11 8.179812382991258e-11
-2.4412472043877642e-11 7.686118408400944e-11
-2.481792549247075e-11 7.148237557430548e-11
-2.5192514740979277e-11 6.570788357862511e-11
-2.553202094190965e-11 5.954836623800475e-11
-2.5830004801719042e-11 5.305400563315743e-11
-2.6088686766456703e-11 4.626077299008102e-11
-2.631095341598666e-11 3.922329128158708e-11
-2.648659069848236e-11 3.198419307182121e-11
-2.6607827052771427e-11 2.4578117319151715e-11
-2.6658897311904184e-11 1.70112812725165e-11
-2.6666890917681485e-11 9.249101484698485e-12
-2.6794122476303528e-11 1.4545864512882645e-12
-1.416744499493916e-11 1.715738662255717e-12
-1.4286904992388827e-11 9.575507053938281e-12
-1.4287571126203602e-11 1.7504997451567306e-11
-1.4303891404665592e-11 2.5282886895183765e-11
-1.4380940882574578e-11 3.288858074768086e-11
-1.4508394485801546e-11 4.030331623994243e-11
-1.4678147586266732e-11 4.7476245157440644e-11
-1.488364986812485e-11 5.4351190215129463e-11
-1.5120127372370007e-11 6.092149007486114e-11
-1.538458249683572e-11 6.713429812066352e-11
-1.5671353104096397e-11 7.296252491073574e-11
-1.598476906394808e-11 7.83351161715018e-11
-1.6325274465600614e-11 8.322542655037068e-11
-1.669497873280079e-11 8.759748482134455e-11
-1.7085222125956534e-11 9.1449514627584e-11
-1.748934330692009e-11 9.474021567257296e-11
-1.7899570714519086e-11 9.746248252895384e-11
-1.8319790129339708e-11 9.951950374897933e-11
-1.875199995282628e-11 1.0096012914573294e-10
-1.9190093958343368e-11 1.0176925968607975e-10
-1.962885409767523e-11 1.0196998800893198e-10
-2.006528276865538e-11 1.0156320229270932e-10
-2.0496271346814865e-11 1.0050005272432827e-10
-2.0919155296894587e-11 9.881429008373743e-11
-2.1335821998036408e-11 9.654943511350211e-11
-2.173972113439504e-11 9.370282327836321e-11
-2.213162986208772e-11 9.028688907619653e-11
-2.2503998664546998e-11 8.632117243223547e-11
-2.2856161407958098e-11 8.184297684010744e-11
-2.3185231512456994e-11 7.689848757763684e-11
-2.3487656264364887e-11 7.151967906793288e-11
-2.37680986003852e-11 6.574163435857372e-11
-2.4021895583814512e-11 5.95790083934844e-11
-2.424460632255432e-11 5.3076654182859784e-11
-2.443623081660462e-11 4.6282089272153826e-11
-2.4600099735039294e-11 3.924038871616631e-11
-2.472666515984656e-11 3.199396303443791e-11
-2.4805046905385097e-11 2.4580337765200966e-11
-2.4826141142852975e-11 1.7008838781862323e-11
-2.482858363350715e-11 9.277190127221502e-12
-2.4938717757549966e-11 1.5860091018282674e-12
-1.6041501460506424e-11 1.832922702504902e-12
-1.614419709028425e-11 9.60986845655043e-12
-1.6140533354302988e-11 1.750388722854268e-11
-1.6132761793130612e-11 2.528222076136899e-11
-1.616795586301123e-11 3.289435390740891e-11
-1.624300693947589e-11 4.031464051479361e-11
-1.6350476528259605e-11 4.7494896904254347e-11
-1.64843694250294e-11 5.4370730140362866e-11
-1.6639134514662146e-11 6.094458271377334e-11
-1.6811219083479045e-11 6.715872302720527e-11
-1.6998624730035772e-11 7.298650572806764e-11
-1.7201906565844638e-11 7.83617615240928e-11
-1.7424617304584444e-11 8.325828915189959e-11
-1.766986557072414e-11 8.763301195813256e-11
-1.7929990825393816e-11 9.14877062996311e-11
-1.8198220708143253e-11 9.477751916620036e-11
-1.846689468010254e-11 9.749712148732215e-11
-1.8741230789487417e-11 9.955680724260674e-11
-1.9025447883791458e-11 1.0099920899619974e-10
-1.931543813782355e-11 1.0180745135812685e-10
-1.9605650436460564e-11 1.0200817968097908e-10
-1.9892532066023705e-11 1.0160050578633673e-10
-2.017652711572282e-11 1.0053824439637538e-10
-2.045630331792836e-11 9.884892904210574e-11
-2.0732526806455098e-11 9.658940314238862e-11
-2.1001200778414386e-11 9.373835041515122e-11
-2.1260992966176673e-11 9.032241621298454e-11
-2.1508794745273008e-11 8.635314685534468e-11
-2.174282975886399e-11 8.187495126321664e-11
-2.196087756090037e-11 7.692602110864755e-11
-2.216204997296245e-11 7.154632442052389e-11
-2.234745721807485e-11 6.576517108669577e-11
-2.2516655207027725e-11 5.960076876476705e-11
-2.2662760557068395e-11 5.3093085483624236e-11
-2.2788215758851038e-11 4.629585603765918e-11
-2.2893242856980578e-11 3.925282321404211e-11
-2.2971624602519114e-11 3.199951414956104e-11
-2.3010926497590845e-11 2.4579893675991116e-11
-2.300715173930712e-11 1.7006396291208148e-11
-2.300404311483817e-11 9.306722059676531e-12
-2.3099966384165782e-11 1.6960183257808126e-12
-1.7904788762734825e-11 1.9296925168887924e-12
-1.79910530917482e-11 9.643341680742878e-12
-1.7982504374458586e-11 1.7503776206240218e-11
-1.7953416531213406e-11 2.5278446003085264e-11
-1.7950196884441993e-11 3.289546413043354e-11
-1.797340054565666e-11 4.0319747540706885e-11
-1.8019696845783528e-11 4.75033345992415e-11
-1.8081980357465e-11 5.438360872744852e-11
-1.815481098788041e-11 6.095701721164914e-11
-1.823519113486327e-11 6.717293388192047e-11
-1.832245466459881e-11 7.300027249357299e-11
-1.841693464399441e-11 7.83777487356474e-11
-1.85224058313338e-11 8.327738498792314e-11
-1.8642754007203166e-11 8.765699277546446e-11
-1.877220601187446e-11 9.15125752953827e-11
-1.8905210730224553e-11 9.479972362669287e-11
-1.903255331114906e-11 9.751222052045705e-11
-1.916189429351789e-11 9.957812352467954e-11
-1.929967297087387e-11 1.0102141345669224e-10
-1.944122640651358e-11 1.0183498488913756e-10
-1.958200268603605e-11 1.0203216049831099e-10
-1.9719559318787105e-11 1.0162093388998983e-10
-1.9859003330680025e-11 1.0055956067844818e-10
-1.9994894628894144e-11 9.887024532417854e-11
-2.013023081559595e-11 9.661249578130082e-11
-2.026434575697067e-11 9.376055487564372e-11
-2.039324265012965e-11 9.034639703031644e-11
-2.051547820514088e-11 8.637446313741748e-11
-2.063116344430682e-11 8.189360301003035e-11
-2.073841098848561e-11 7.694467285546125e-11
-2.0838775149911726e-11 7.155875891839969e-11
-2.09303685494433e-11 6.577849376299127e-11
-2.1013635276290188e-11 5.96136473518527e-11
-2.1084245460656348e-11 5.310152317861139e-11
-2.114308728096148e-11 4.630340555422663e-11
-2.1191270960230213e-11 3.925770819535046e-11
-2.1221246981895092e-11 3.199995823877089e-11
-2.1223689472549268e-11 2.457523073928769e-11
-2.1198820476797664e-11 1.7004397889763823e-11
-2.1191048915625288e-11 9.335976436375404e-12
-2.1272095196422924e-11 1.787237025041577e-12
-1.9761414726815474e-11 2.0082963070322535e-12
-1.9831247755064396e-11 9.674594458886077e-12
-1.9816592811139344e-11 1.7503776206240218e-11
-1.9768187087265687e-11 2.5272006709542438e-11
-1.9728441102984107e-11 3.289146732754489e-11
-1.970212881730049e-11 4.0318859362287185e-11
-1.968747387337544e-11 4.750733140213015e-11
-1.9678036977666125e-11 5.438760553033717e-11
-1.9669155193469123e-11 6.09601258361181e-11
-1.965794194092041e-11 6.717693068480912e-11
-1.9644397220019982e-11 7.300338111804194e-11
-1.963107454372448e-11 7.838085736011635e-11
-1.961963924657084e-11 8.328404632607089e-11
-1.9614643242960028e-11 8.766765091650086e-11
-1.9613199953028015e-11 9.15214570795797e-11
-1.9610646440071378e-11 9.480949358930957e-11
-1.9598545009102963e-11 9.751222052045705e-11
-1.9583223931363136e-11 9.958700530887654e-11
-1.9574453169468597e-11 1.0102763070563014e-10
-1.956701467520361e-11 1.0184475485175426e-10
-1.9558021868704145e-11 1.0203660139040949e-10
-1.9547918839180056e-11 1.0162892749576713e-10
-1.9541146478729843e-11 1.0056844246264518e-10
-1.9534929229791942e-11 9.887557439469674e-11
-1.9529711181576204e-11 9.662137756549782e-11
-1.9527934824736803e-11 9.377032483826042e-11
-1.9526602557107253e-11 9.035172610083464e-11
-1.9523493932638303e-11 8.638423310003418e-11
-1.9520607352774277e-11 8.18993761697584e-11
-1.951716566139794e-11 7.695177828281885e-11
-1.9516388505280702e-11 7.156542025654744e-11
-1.9514834193046227e-11 6.578337874429963e-11
-1.951239170239205e-11 5.96180882439512e-11
-1.9506729564966463e-11 5.310152317861139e-11
-1.94995131153064e-11 4.630296146501678e-11
-1.9491297464924173e-11 3.9257042061535685e-11
-1.947442207494987e-11 3.199618348048716e-11
-1.944178151802589e-11 2.4567015088905464e-11
-1.9398815886972898e-11 1.7002843577529347e-11
-1.9384938099165083e-11 9.363398945083645e-12
-1.9451218413735205e-11 1.8617607455695406e-12
-2.1614043888007473e-11 2.071010030135767e-12
-2.166822277160918e-11 9.702239012199243e-12
-2.1646462400326527e-11 1.750344313933283e-11
-2.1579182885034243e-11 2.5263124925345437e-11
-2.1504797942384357e-11 3.2883473721767587e-11
-2.1430190955129547e-11 4.0312642113349284e-11
-2.1353918633337798e-11 4.750200233161195e-11
-2.1273316441750012e-11 5.438360872744852e-11
-2.1183388376755374e-11 6.095435267639004e-11
-2.108035968007016e-11 6.716849298982197e-11
-2.0965895686231306e-11 7.299494342305479e-11
-2.0845325465757014e-11 7.83750842003883e-11
-2.0717316751017734e-11 8.327738498792314e-11
-2.0586643501019353e-11 8.766587455966146e-11
-2.045541513950866e-11 9.15161280090615e-11
-2.031419477077634e-11 9.480149998353227e-11
-2.0163537506334706e-11 9.750422691467975e-11
-2.0005552769930546e-11 9.957634716784014e-11
-1.9847901100433774e-11 1.0101874892143314e-10
-1.9691359653961626e-11 1.0183498488913756e-10
-1.953437411827963e-11 1.0202594324937309e-10
-1.9377055515690245e-11 1.0162004571157013e-10
-1.9223511671384585e-11 1.0056044885686788e-10
-1.9074186674572502e-11 9.886846896733914e-11
-1.8928303369136756e-11 9.661160760288112e-11
-1.8790524691780774e-11 9.376499576774222e-11
-1.8659074285665156e-11 9.034462067347704e-11
-1.85303994371111e-11 8.637623949425688e-11
-1.8409718194334346e-11 8.189271483161065e-11
-1.8296808512729967e-11 7.69451169446711e-11
-1.8193557771439828e-11 7.156275572128834e-11
-1.809830063592699e-11 6.577760558457157e-11
-1.801003790546929e-11 5.9612759173433e-11
-1.792932469157904e-11 5.3093973662043936e-11
-1.785604997195378e-11 4.629674421607888e-11
-1.779154601422306e-11 3.925060276799286e-11
-1.7729484547146512e-11 3.1988411919314785e-11
-1.7664203433298553e-11 2.4557467170893688e-11
-1.760358525615402e-11 1.7000623131480097e-11
-1.758282408559353e-11 9.388156918532786e-12
-1.7634671500843524e-11 1.921504622082182e-12
-2.3465007714662534e-11 2.119485142948463e-12
-2.350541983275889e-11 9.726219829531146e-12
-2.347455563267431e-11 1.7501999849400818e-11
-2.3389512548988023e-11 2.5252022695099186e-11
-2.3281820915599383e-11 3.2872371491521335e-11
-2.315903024907584e-11 4.029887534784393e-11
-2.302136259402232e-11 4.7491344190575546e-11
-2.28694840842536e-11 5.4370730140362866e-11
-2.26991758722761e-11 6.093969773246499e-11
-2.2504442753756848e-11 6.715117351063782e-11
-2.2290169710004193e-11 7.297851212229034e-11
-2.2060797633116636e-11 7.83546560967352e-11
-2.1815882433884326e-11 8.325873324110944e-11
-2.1560753182825465e-11 8.764811099126746e-11
-2.1297408281384378e-11 9.14965880838281e-11
-2.101940843601824e-11 9.478018370145946e-11
-2.0729418181986148e-11 9.748113427576754e-11
-2.0426882407775793e-11 9.954881363682944e-11
-2.0121682098306337e-11 1.0099210356884214e-10
-1.981592667732457e-11 1.0180833953654655e-10
-1.9510282278645263e-11 1.0199840971836238e-10
-1.9206414236805358e-11 1.0159606489423822e-10
-1.8906209930946716e-11 1.0053735621795568e-10
-1.86124449186309e-11 9.884537632842694e-11
-1.832656248978992e-11 9.659029132080832e-11
-1.8053114558824745e-11 9.374367948566942e-11
-1.779021374659351e-11 9.032508074824364e-11
-1.753652778546666e-11 8.635492321218408e-11
-1.72982739243821e-11 8.187672762005604e-11
-1.7075230118734908e-11 7.692690928706725e-11
-1.686961681457433e-11 7.154854486657314e-11
-1.6679768677363427e-11 6.576250655143667e-11
-1.6506351840916977e-11 5.959810422950795e-11
-1.6349921416747293e-11 5.3079762807328734e-11
-1.6211143538669148e-11 4.6283421539783376e-11
-1.6090462295892394e-11 3.923927849314168e-11
-1.5985102130855466e-11 3.1975977421438984e-11
-1.588773557159584e-11 2.4545476762227736e-11
-1.5810797115989317e-11 1.699806961852346e-11
-1.5781931317349063e-11 9.40991728981544e-12
-1.5820011967093706e-11 1.9679119445115134e-12
-2.5317303808947145e-11 2.1555118800975492e-12
-2.5343727116933223e-11 9.745926288218243e-12
-2.5303981132651643e-11 1.7499668381049105e-11
-2.5201618569781203e-11 2.523892206340861e-11
-2.506062024565381e-11 3.285660632457166e-11
-2.489075612288616e-11 4.028066769024008e-11
-2.4693136424502882e-11 4.7471360176132293e-11
-2.44688713735286e-11 5.4350302036709763e-11
-2.4216628702333765e-11 6.091616100434294e-11
-2.393174547421495e-11 6.712275180120741e-11
-2.3617774402850955e-11 7.294875814523039e-11
-2.3278712291130432e-11 7.83244580304654e-11
-2.2917445718917406e-11 8.322631472879038e-11
-2.2536417176866053e-11 8.761702474657795e-11
-2.2140511646284722e-11 9.14646136607189e-11
-2.1726176413494613e-11 9.474288020783206e-11
-2.1295853969149903e-11 9.744294260372044e-11
-2.0847434889503802e-11 9.950973378636263e-11
-2.0395685140783826e-11 1.0095124736153593e-10
-1.994004961147766e-11 1.0176659515082065e-10
-1.948585737210351e-11 1.0196021804631528e-10
-1.9035883980222934e-11 1.0155343233009262e-10
-1.858779796748422e-11 1.0049738818906917e-10
-1.814959293966467e-11 9.880540829954043e-11
-1.772415547662831e-11 9.655387600560061e-11
-1.731370602442439e-11 9.371081688414051e-11
-1.691957685068246e-11 9.028955361145563e-11
-1.6540546710075432e-11 8.632294878907487e-11
-1.6184054096868294e-11 8.184697364299609e-11
-1.585109821178321e-11 7.689848757763684e-11
-1.554256723323988e-11 7.152323178161168e-11
-1.5258239116633376e-11 6.573674937726537e-11
-1.4999668174198177e-11 5.95745675013859e-11
-1.4767409517446595e-11 5.305844652525593e-11
-1.4563017458613103e-11 4.6264769792969673e-11
-1.4387824265327254e-11 3.9223069236982155e-11
-1.4238277223910245e-11 3.195999020988438e-11
-1.4111156687590665e-11 2.453148795211746e-11
-1.4016898752799989e-11 1.6994738949449584e-11
-1.3980150370684896e-11 9.427902902814367e-12
-1.40050193664365e-11 2.0027451919091277e-12
-2.717293057230563e-11 2.180811087271195e-12
-2.7186919382415908e-11 9.761802477470383e-12
-2.7136959346307776e-11 1.7495671578160454e-11
-2.701616708122856e-11 2.5223378941063856e-11
-2.684319433399196e-11 3.283728844394318e-11
-2.662736697800483e-11 4.025735300672295e-11
-2.6370239325501643e-11 4.744338255591174e-11
-2.60726995549021e-11 5.432188032727936e-11
-2.5738300379885004e-11 6.088285431360418e-11
-2.536348908677155e-11 6.708500421837016e-11
-2.4948043630956818e-11 7.290745784871433e-11
-2.4500845796637805e-11 7.828182546631979e-11
-2.4022117628419437e-11 8.317879718333643e-11
-2.3515411839980516e-11 8.757083946875355e-11
-2.2986279546444166e-11 9.141487566921569e-11
-2.2434720747810388e-11 9.469491857316825e-11
-2.1862733845523508e-11 9.738787554169903e-11
-2.1269874750373674e-11 9.945111401066242e-11
-2.0669799205563777e-11 1.0089618029951453e-10
-2.0064172545630754e-11 1.0170886355354014e-10
-1.9462542688586382e-11 1.0190781551955297e-10
-1.8864798612128197e-11 1.0149747708965151e-10
-1.8267165557972476e-11 1.0044143294862806e-10
-1.7685963804581206e-11 9.875478212961752e-11
-1.711941699511499e-11 9.64996971219989e-11
-1.657218806627725e-11 9.366374342789641e-11
-1.6045498263395075e-11 9.024070379837212e-11
-1.554223416633249e-11 8.627853986808987e-11
-1.5066836667188e-11 8.180434107885048e-11
-1.4623524613455174e-11 7.686073999479959e-11
-1.4211520849016779e-11 7.148415193114488e-11
-1.3832157641502363e-11 6.570211041889706e-11
-1.3488543615380877e-11 5.9541704899857e-11
-1.3179901614535083e-11 5.302913663740583e-11
-1.2910450486458558e-11 4.623901261879837e-11
-1.268063432036115e-11 3.920108682109458e-11
-1.2488343692496073e-11 3.194133846307068e-11
-1.2331691223721464e-11 2.4515278695957932e-11
-1.2220890965863873e-11 1.6989853968141233e-11
-1.2174927732644392e-11 9.4421692686808e-12
-1.2187917342032506e-11 2.027406020843614e-12
-2.903388640618232e-11 2.197200754672224e-12
-2.9036772986046344e-11 9.773404308077716e-12
-2.897571071969196e-11 1.7489010240012703e-11
-2.8837376930823666e-11 2.520628150648463e-11
-2.8632651805082787e-11 3.281308558200635e-11
-2.8370417126666325e-11 4.022826516347777e-11
-2.805333743083338e-11 4.7409631775963135e-11
-2.7683633163633203e-11 5.4284132744442104e-11
-2.7266633395583995e-11 6.084288628471768e-11
-2.680033972524143e-11 6.703793076212605e-11
-2.6283863974185806e-11 7.285283487590277e-11
-2.5728086328058453e-11 7.822809067192793e-11
-2.5131452474624894e-11 8.311884514000667e-11
-2.4499069439798404e-11 8.751221969305334e-11
-2.3834934026467636e-11 9.135181500141698e-11
-2.314615166199019e-11 9.463008154853014e-11
-2.2431390078736513e-11 9.731859762496242e-11
-2.1693535856570634e-11 9.937739520182731e-11
-2.0945245537973278e-11 1.0082512602593852e-10
-2.019018285892571e-11 1.0163336838786563e-10
-1.9439339027371716e-11 1.0184475485175426e-10
-1.8690493597262048e-11 1.014228701023967e-10
-1.7946422126158268e-11 1.0037215503189145e-10
-1.7220003201146028e-11 9.868816874814001e-11
-1.6511569889132716e-11 9.64321955621017e-11
-1.5827006372148844e-11 9.36015709385174e-11
-1.5167644917823964e-11 9.017675495215371e-11
-1.4539702775095975e-11 8.622169644922906e-11
-1.3944623233896891e-11 8.174838583840938e-11
-1.3389622743886775e-11 7.681100200329638e-11
-1.2875367438880403e-11 7.143352576122197e-11
-1.2400858118155611e-11 6.565903376554161e-11
-1.1971534874533063e-11 5.950040460334094e-11
-1.1586842596500446e-11 5.299360950061782e-11
-1.1252554443785812e-11 4.6207482284899015e-11
-1.0967449171062071e-11 3.917688395915775e-11
-1.0732303934446463e-11 3.191713560113385e-11
-1.0547340778543912e-11 2.4498181261378704e-11
-1.042010921992187e-11 1.6982970585388557e-11
-1.0363876423724605e-11 9.452938432019664e-12
-1.03667074924374e-11 2.043545888064102e-12
-3.090083744439198e-11 2.20630458347415e-12
-3.089417610624423e-11 9.781064846947629e-12
-3.0824232055692846e-11 1.748046152272309e-11
-3.0666802430801e-11 2.5185853402831526e-11
-3.043076901576569e-11 3.278399773876117e-11
-3.012190497031497e-11 4.019407029431932e-11
-2.9744207097337494e-11 4.736699921181753e-11
-2.930189424432683e-11 5.42388356450374e-11
-2.880273797245536e-11 6.079137193637507e-11
-2.8243629657254132e-11 6.698197552168494e-11
-2.762878814621672e-11 7.278933011889421e-11
-2.6961322063812077e-11 7.816236546887012e-11
-2.6245450257533776e-11 8.304690268801096e-11
-2.548783406552957e-11 8.743672452737883e-11
-2.4688917577009306e-11 9.127187894364397e-11
-2.3860469156034014e-11 9.455192184759653e-11
-2.3004265159443094e-11 9.723066796141211e-11
-2.2118973319606994e-11 9.92903537166967e-11
-2.1219692669660617e-11 1.007336436487094e-10
-2.0317636462152677e-11 1.0154543872431532e-10
-1.9415358210039813e-11 1.0175682518820395e-10
-1.8514745292463886e-11 1.0133494043884639e-10
-1.7624124382109585e-11 1.0028511354676084e-10
-1.6750822950939437e-11 9.86055681551079e-11
-1.590050313637903e-11 9.635137132590899e-11
-1.50766066298047e-11 9.352252305916409e-11
-1.428523965785189e-11 9.01021479648989e-11
-1.3531176179526483e-11 8.615064217565305e-11
-1.2816747663180195e-11 8.167910792167277e-11
-1.214928158077555e-11 7.675016178154692e-11
-1.1532330645991351e-11 7.137401780710206e-11
-1.0963341345870958e-11 6.56039667035202e-11
-1.0447143150571492e-11 5.945066661183773e-11
-9.987066729166827e-12 5.2950532847262366e-11
-9.586997862243152e-12 4.617062288048146e-11
-9.24665899404431e-12 3.9145353625258394e-11
-8.968326081770783e-12 3.1890934337752697e-11
-8.75549632795014e-12 2.447908542535515e-11
-8.612166535471033e-12 1.697386675658663e-11
-8.546496843564455e-12 9.459877325923571e-12
-8.540168572324092e-12 2.0529272726221848e-12
-3.2774449820749396e-11 2.210134852909107e-12
-3.2760683055244044e-11 9.784950627533817e-12
-3.268163517589073e-11 1.74694703147793e-11
-3.2509106517863984e-11 2.5162982808524248e-11
-3.224021050129977e-11 3.275091309262734e-11
-3.188360686579017e-11 4.015410226543281e-11
-3.1445068771063234e-11 4.731770530952417e-11
-3.093036937684701e-11 5.418376858301599e-11
-3.0347058199708954e-11 6.073008762541576e-11
-2.969646750727861e-11 6.691447396178773e-11
-2.8980373656395386e-11 7.27164994884788e-11
-2.8202329360738077e-11 7.808509394635621e-11
-2.7366775512405184e-11 8.296074938130005e-11
-2.648037344954446e-11 8.734968304224822e-11
-2.5549562465698727e-11 9.117684385273606e-11
-2.4579893675991116e-11 9.445955129194772e-11
-2.357958273080385e-11 9.71338565136648e-11
-2.254596509487783e-11 9.918643684159179e-11
-2.1495916158187356e-11 1.0063150313044389e-10
-2.0444201886959945e-11 1.014415218492104e-10
-1.939093330349806e-11 1.0165202013467933e-10
-1.8337775742338636e-11 1.0123279992058087e-10
-1.729860699128949e-11 1.0018474938533473e-10
-1.627875612086882e-11 9.850520399368179e-11
-1.528532855843423e-11 9.625633623500107e-11
-1.4322210084571907e-11 9.343015250351527e-11
-1.3397505327361614e-11 9.001510647976829e-11
-1.2515655178901852e-11 8.606537704736184e-11
-1.1682099732013285e-11 8.159828368548006e-11
-1.0901834990306725e-11 7.667599888350196e-11
-1.0181022691568842e-11 7.13078485148344e-11
-9.517442389750386e-12 6.554135012493134e-11
-8.914535776227694e-12 5.939382319297692e-11
-8.37813152188005e-12 5.289990667733946e-11
-7.911893362688716e-12 4.6127546227126004e-11
-7.516265387863541e-12 3.910760604242114e-11
-7.194800311083327e-12 3.186273467292722e-11
-6.953382314378587e-12 2.445776914328235e-11
-6.794953488764577e-12 1.6963319637852692e-11
-6.7210126353245414e-12 9.463041461543753e-12
-6.7079120036339646e-12 2.0572987757816463e-12
-3.4654945579859486e-11 2.2105373087555336e-12
-3.463607178844086e-11 9.785172672138742e-12
-3.455324915080382e-11 1.745714683920596e-11
-3.436473328122247e-11 2.513744767895787e-11
-3.406386284154905e-11 3.271405368820979e-11
-3.365863143756087e-11 4.0108361076818255e-11
-3.3157032675035225e-11 4.7261750069083064e-11
-3.256950265040359e-11 5.412070791521728e-11
-3.190181452339402e-11 6.065814517342005e-11
-3.115974145373457e-11 6.683764652848367e-11
-3.034106299537598e-11 7.262901391413834e-11
-2.945133026344138e-11 7.79927233907074e-11
-2.8495872328448968e-11 8.285905295224438e-11
-2.748090643933665e-11 8.7246654345563e-11
-2.6415758469511275e-11 9.107026244237204e-11
-2.5305091355676268e-11 9.43503053463246e-11
-2.415867506044833e-11 9.701928149752348e-11
-2.2975177316197914e-11 9.906386821967317e-11
-2.1774360092763345e-11 1.0051071086536467e-10
-2.0571655490186913e-11 1.0132517047622969e-10
-1.9366175330048918e-11 1.0152678697750162e-10
-1.8159918013793686e-11 1.0111378401234106e-10
-1.6970091998302905e-11 1.0006662165551461e-10
-1.5802248398699703e-11 9.839151715596017e-11
-1.466526899918108e-11 9.614531393253856e-11
-1.3562706513425837e-11 9.332090655789216e-11
-1.25018884133965e-11 8.991118960466338e-11
-1.149169648329007e-11 8.596767742119482e-11
-1.0538070416288292e-11 8.150369268378199e-11
-9.645950704850748e-12 7.659162193363045e-11
-8.820721930646869e-12 7.122702427864169e-11
-8.06171795986188e-12 6.546807540530608e-11
-7.371658838906114e-12 5.932765390070927e-11
-6.758538173556872e-12 5.284217508005895e-11
-6.226297255551572e-12 4.60778082356228e-11
-5.7745475068315955e-12 3.906497347827553e-11
-5.4093951540323815e-12 3.183031616060816e-11
-5.138889314082462e-12 2.443489854897507e-11
-4.966166367026403e-12 1.6950774117674428e-11
-4.886729909614473e-12 9.46331901729991e-12
-4.869687986186477e-12 2.0581869542013465e-12
-3.654054836488285e-11 2.2093993301552928e-12
-3.6523006841093775e-11 9.783063248391954e-12
-3.643996215885181e-11 1.744338007370061e-11
-3.623679134534541e-11 2.510969210334224e-11
-3.590283625953816e-11 3.267319748090358e-11
-3.54480889086517e-11 4.005706877308057e-11
-3.488276334451257e-11 4.7196913044444955e-11
-3.421996019881135e-11 5.405009773085112e-11
-3.3469005344954894e-11 6.057732093722734e-11
-3.2633673541226926e-11 6.675060504335306e-11
-3.1713076609207747e-11 7.252953793113193e-11
-3.0710323173366305e-11 7.788836242639263e-11
-2.9634295017899603e-11 8.274492202531292e-11
-2.8491431436350467e-11 8.712941479416259e-11
-2.7290836257520823e-11 9.094591746361402e-11
-2.6037172418114096e-11 9.422773672440599e-11
-2.4738433523907588e-11 9.688516655614876e-11
-2.34070540727771e-11 9.892531238619995e-11
-2.205435833957381e-11 1.0037304321031115e-10
-2.069866500420403e-11 1.0119016735643527e-10
-1.9338752821340677e-11 1.013882311440284e-10
-1.7981283129131498e-11 1.0097878089254664e-10
-1.663758020242767e-11 9.993339489255959e-11
-1.5321299784432085e-11 9.825917857142485e-11
-1.4040657525526967e-11 9.602008077536084e-11
-1.279620853722463e-11 9.320011429281294e-11
-1.1598166871351623e-11 8.979217369642356e-11
-1.0458856003481287e-11 8.58548787618929e-11
-9.385048294063836e-12 8.139799945183768e-11
-8.380740545987919e-12 7.649259003983389e-11
-7.450262629049575e-12 7.113865052588153e-11
-6.594946810878355e-12 6.538503072306412e-11
-5.81712455982597e-12 5.925127055661505e-11
-5.1270376832945885e-12 5.277600578779129e-11
-4.5280723615093166e-12 4.602096481676199e-11
-4.019978794289614e-12 3.901723388821665e-11
-3.6098068978418496e-12 3.179367880079553e-11
-3.3095748364075916e-12 2.4409807508618542e-11
-3.123529213056031e-12 1.6937118374471538e-11
-3.042982532619476e-12 9.461265104704353e-12
-3.0261071426451736e-12 2.05746530923534e-12
-3.842881568516532e-11 2.2089829965210583e-12
-3.842060003478309e-11 9.77978809046931e-12
-3.834510486910858e-11 1.7429058196682945e-11
-3.81288334239116e-11 2.5079494037072436e-11
-3.7760905513550824e-11 3.2628344470708726e-11
-3.72533115466922e-11 3.9998893086590215e-11
-3.6623148957914964e-11 4.7126302860078795e-11
-3.5884406557329385e-11 5.397016167307811e-11
-3.504840861978664e-11 6.048761491683763e-11
-3.4119596037385236e-11 6.665201723876635e-11
-3.309863494393994e-11 7.241984789629896e-11
-3.198019626893256e-11 7.777067878578237e-11
-3.0783153803781715e-11 8.26188006897155e-11
-2.9511282306771136e-11 8.699618803120757e-11
-2.8173019472887972e-11 9.08082498085605e-11
-2.67761368633046e-11 9.407941092831607e-11
-2.532152265644072e-11 9.673861711689824e-11
-2.3841151275405537e-11 9.877165751959183e-11
-2.233679907703845e-11 1.0021938834370303e-10
-2.082489736210391e-11 1.0103740066824685e-10
-1.9312662580261986e-11 1.0123279992058087e-10
-1.7800760865327447e-11 1.0082601420435822e-10
-1.6299739336034236e-11 9.978240456121057e-11
-1.4834800055041342e-11 9.811262913217433e-11
-1.3412382315891591e-11 9.587619587136942e-11
-1.202171695524612e-11 9.305889392408062e-11
-1.0685285989353588e-11 8.965983511188824e-11
-9.415523916089796e-12 8.572875742629549e-11
-8.220812919290665e-12 8.127853945438801e-11
-7.105538379903464e-12 7.638334409421077e-11
-6.068201496844949e-12 7.103784227524557e-11
-5.1160464753507995e-12 6.52926601674153e-11
-4.248906781967321e-12 5.916733769595339e-11
-3.4814651161951815e-12 5.270228697895618e-11
-2.8166913246252534e-12 4.595879232738298e-11
-2.2506441155201173e-12 3.8964387272244494e-11
-1.7934542739794779e-12 3.175304463809425e-11
-1.4623857680362562e-12 2.4382051933002913e-11
-1.2640027913235485e-12 1.692312956436126e-11
-1.189402742962642e-12 9.457878924479246e-12
-1.1799380916777125e-12 2.057104486752337e-12
SCALARS Stress float 6
LOOKUP_TABLE default
1.3843860619832407e-07 8.866795518967487e-07 3.0753544742852176e-07 9.044047562138809e-08 0.0 0.0
-3.365817240304106e-07 -2.3184712696697356e-07 -1.7052865529921526e-07 2.2847642581288515e-08 0.0 0.0
-2.024057003733002e-07 2.3056977000738707e-08 -5.380461701176844e-08 1.4742480740454816e-08 0.0 0.0
-2.1753298948481525e-07 -1.8562875595619336e-08 -7.082875952413037e-08 2.3271982631569366e-09 0.0 0.0
-2.5641681619884364e-07 -5.946765515928808e-09 -7.870907451443175e-08 4.675746969094652e-09 0.0 0.0
-3.139989603798785e-07 -9.640392117075349e-09 -9.709180574908613e-08 4.376840770156019e-09 0.0 0.0
-3.709225768413755e-07 -9.635721707697885e-09 -1.1416748956472202e-07 4.408866434328408e-09 0.0 0.0
-4.242726629423871e-07 -1.2003619252449502e-08 -1.3088288465845096e-07 4.4835929840635515e-09 0.0 0.0
-4.757092156090994e-07 -1.2575410798160235e-08 -1.4648538792217788e-07 4.2487381134698105e-09 0.0 0.0
-5.305571687114528e-07 -9.729129894857095e-09 -1.6208588958189303e-07 3.779028372281546e-09 0.0 0.0
-5.91141718908621e-07 -2.2029653742241907e-08 -1.839514117952589e-07 4.0992850140004544e-09 0.0 0.0
-6.353865083647415e-07 -1.5615180089137998e-08 -1.9530050653616388e-07 3.5014726161254413e-09 0.0 0.0
-6.745272075934606e-07 -1.6773441609990677e-08 -2.0739019476103546e-07 3.330669073875855e-09 0.0 0.0
-7.077965350573723e-07 -1.2487340221709607e-08 -2.1608516258372463e-07 2.5620531337515386e-09 0.0 0.0
-7.464781997662882e-07 -2.125703459406261e-08 -2.3032057030810526e-07 2.9036602182513456e-09 0.0 0.0
-7.788054389424594e-07 -1.5591160841004086e-08 -2.3831897993503912e-07 1.8788389647516493e-09 0.0 0.0
-8.091764437987715e-07 -1.884710336510055e-08 -2.484070641491617e-07 1.3664283380012742e-09 0.0 0.0
-8.25002459510413e-07 -2.3677641044446678e-08 -2.54604030166458e-07 1.3664283379981475e-09 0.0 0.0
-8.278634188430665e-07 -2.2951725989803028e-08 -2.5524454344986096e-07 1.7080354225362372e-10 0.0 0.0
-8.298436724110521e-07 -2.3800406090409152e-08 -2.560932235504385e-07 4.270088556255807e-10 0.0 0.0
-8.302813564880689e-07 -1.8131863531989494e-08 -2.545239660060175e-07 -7.686159401258236e-10 0.0 0.0
-8.30313382152242e-07 -2.2049669782359566e-08 -2.5570891558038056e-07 -7.68615940122993e-10 0.0 0.0
-8.169319921390916e-07 -2.0218869313865334e-08 -2.5114525843588715e-07 -8.540177112495236e-10 0.0 0.0
-7.976738927503835e-07 -2.367764104438546e-08 -2.464054601384308e-07 -1.6226336513757922e-09 0.0 0.0
-7.749890472953182e-07 -1.7859645386532042e-08 -2.37854607804555e-07 -2.391249591503705e-09 0.0 0.0
-7.516957142209804e-07 -1.9589031251833888e-08 -2.313854236418443e-07 -1.7080354225008305e-09 0.0 0.0
-7.176631084276379e-07 -1.4763831183215382e-08 -2.1972808188325604e-07 -2.9036602182483884e-09 0.0 0.0
-6.830006645722844e-07 -1.942890293093809e-08 -2.1072887025096666e-07 -3.4587717305648594e-09 0.0 0.0
-6.385917435872737e-07 -1.6012832085925946e-08 -1.9638137270195994e-07 -2.9036602182505118e-09 0.0 0.0
-5.953784473980205e-07 -1.9941313557684325e-08 -1.8459592828671144e-07 -3.287968188315378e-09 0.0 0.0
-5.440199572877227e-07 -6.71471425471348e-09 -1.652204014627309e-07 -3.800378815067429e-09 0.0 0.0
-5.015112257102331e-07 -1.4849232954343274e-08 -1.5490813759937292e-07 -4.483592984062421e-09 0.0 0.0
-4.514764630523643e-07 -1.0974127589537989e-08 -1.387351771925707e-07 -3.544173501687839e-09 0.0 0.0
-3.9802562954950124e-07 -1.0515093069750442e-08 -1.2256221678577552e-07 -4.09928501399871e-09 0.0 0.0
-3.4099859688079694e-07 -7.547381523203998e-09 -1.0456379352120031e-07 -4.2487381134720075e-09 0.0 0.0
-2.8737695983566524e-07 -8.967185968117526e-09 -8.890324374113487e-08 -3.9284814717565244e-09 0.0 0.0
-2.400750538538054e-07 -5.775294772342841e-09 -7.375510458784446e-08 -4.312789441814139e-09 0.0 0.0
-2.1057941715149118e-07 -1.509476304633092e-08 -6.770225405934662e-08 -1.1956247957535934e-09 0.0 0.0
-2.0753697905516857e-07 1.7197781660305754e-08 -5.7101759218458827e-08 -1.2030974507235877e-08 0.0 0.0
-3.651459476663835e-07 -2.1590635262542478e-07 -1.7431569008754252e-07 -2.7371267645567325e-08 0.0 0.0
2.4456932205923086e-08 7.715943268930925e-07 2.388153777297047e-07 -1.7742217951231354e-08 0.0 0.0
1.899228637606361e-07 8.514983590019324e-07 3.1242636682877065e-07 6.237098177674079e-08 0.0 0.0
-2.1302404284995165e-07 -1.6071545803588144e-07 -1.1212185026574993e-07 2.4589538471637086e-08 0.0 0.0
-1.3484205739169057e-07 2.4440252172496268e-08 -3.312054156575829e-08 1.1603965651610677e-08 0.0 0.0
-1.931401086072338e-07 -9.328809092728474e-09 -6.074067530998869e-08 8.716318265446514e-09 0.0 0.0
-2.2599176803421797e-07 5.044042107016009e-10 -6.76462091470549e-08 1.1497213437704453e-08 0.0 0.0
-2.7712474409264173e-07 6.27169256722863e-11 -8.311860815009082e-08 1.2191102828094072e-08 0.0 0.0
-3.2787207777833037e-07 -4.5770011711656476e-10 -9.849893336863408e-08 1.1491875827008046e-08 0.0 0.0
-3.768126302436615e-07 -1.4238076529769932e-09 -1.1347093136899156e-07 1.1176956795985685e-08 0.0 0.0
-4.238503244961119e-07 3.7763595668550134e-10 -1.2704180656182795e-07 1.1176956795986233e-08 0.0 0.0
-4.709880989490882e-07 3.600218414001985e-09 -1.402163641605259e-07 1.1433162109361242e-08 0.0 0.0
-5.220236636123395e-07 -6.559923544558672e-09 -1.5857507614706944e-07 1.0910076261219861e-08 0.0 0.0
-5.615593460325079e-07 8.967185968326467e-10 -1.6819878823070259e-07 8.860433754218843e-09 0.0 0.0
-5.982687635895241e-07 2.244465297402167e-09 -1.7880728948763661e-07 8.091817814095687e-09 0.0 0.0
-6.286878069421384e-07 6.776096777667917e-09 -1.8657351304934104e-07 7.066996560595205e-09 0.0 0.0
-6.633689324349182e-07 -2.2311212706311633e-09 -1.9968001611166486e-07 7.34455231675282e-09 0.0 0.0
-6.893257332462246e-07 6.164940353099233e-09 -2.049482378679376e-07 6.490534605501233e-09 0.0 0.0
-7.147220849345228e-07 1.1369110781178965e-09 -2.1407555215692146e-07 4.3554903273733536e-09 0.0 0.0
-7.290749200942377e-07 -1.1102230246492771e-09 -2.1905554293566608e-07 1.7507363080601974e-09 0.0 0.0
-7.3396417149112e-07 -2.775557561233088e-10 -2.2027251817417303e-07 6.832141690012567e-10 0.0 0.0
-7.377645503062031e-07 -2.8823097754802008e-09 -2.2219405802450507e-07 4.2700885563903065e-11 0.0 0.0
-7.354693777072104e-07 6.885517796964669e-09 -2.1857515797307364e-07 -2.989061989406792e-10 0.0 0.0
-7.342470648579869e-07 1.5532447123354435e-09 -2.1980814604369542e-07 -1.708035422500129e-09 0.0 0.0
-7.242337071935908e-07 -9.874579786607573e-10 -2.1756634955167552e-07 -3.33066907387543e-09 0.0 0.0
-7.083222897108484e-07 -3.928481471746889e-09 -2.1367523135477856e-07 -4.782499183002669e-09 0.0 0.0
-6.88018018625877e-07 -1.0675221390308521e-10 -2.0643743125193405e-07 -5.209508038626948e-09 0.0 0.0
-6.666889262874126e-07 -7.259150545753351e-10 -2.0022445240259635e-07 -5.7219186653757974e-09 0.0 0.0
-6.355493054909391e-07 7.739535508223791e-09 -1.883429309948146e-07 -7.771561172376627e-09 0.0 0.0
-6.048473687715115e-07 1.3771035593790598e-09 -1.8104107956363969e-07 -8.668279769193516e-09 0.0 0.0
-5.666941275213948e-07 1.6012832089257576e-10 -1.699601997601507e-07 -8.753681540315972e-09 0.0 0.0
-5.286262880424354e-07 -3.5334982802964885e-09 -1.5964793589681954e-07 -9.095288624814516e-09 0.0 0.0
-4.840679139579652e-07 6.778765583035264e-09 -1.4318674451247896e-07 -9.94930633606592e-09 0.0 0.0
-4.4343802134522524e-07 2.231121270665142e-09 -1.3236207002236804e-07 -1.0504417848374654e-08 0.0 0.0
-3.9987244285008085e-07 4.0565841285751587e-10 -1.1984003533116703e-07 -1.0504417848374307e-08 0.0 0.0
-3.5288011828854164e-07 1.0248212535156183e-09 -1.0555658911050785e-07 -1.1315734674064663e-08 0.0 0.0
-3.0431853618259934e-07 -1.0995478032511516e-09 -9.162542519575513e-08 -1.1550589544661338e-08 0.0 0.0
-2.561412620466929e-07 -7.045646117805171e-10 -7.705374799754202e-08 -1.0611170062284713e-08 0.0 0.0
-2.1361118002643718e-07 -2.241796492032449e-09 -6.475589295554092e-08 -9.52229748043951e-09 0.0 0.0
-1.8740351151244985e-07 -6.1382522996105165e-09 -5.806252914361812e-08 -6.3517567274218916e-09 0.0 0.0
-1.4579149853178398e-07 1.950362948067722e-08 -3.788636071533203e-08 -8.267958967041414e-09 0.0 0.0
-2.2416897398176477e-07 -1.4786249148156672e-07 -1.1160943963899947e-07 -2.1860184602654056e-08 0.0 0.0
1.3802594217144066e-07 7.667190867242604e-07 2.714235086687103e-07 -1.2303192652707328e-08 0.0 0.0
1.8046762001455705e-07 7.369709143159383e-07 2.7523156029914864e-07 8.241938114900655e-08 0.0 0.0
-1.330893194796143e-07 -8.766091485180265e-08 -6.622507029942509e-08 5.26001517983018e-08 0.0 0.0
-9.89753151231957e-08 -3.987195189403628e-09 -3.088875309377981e-08 1.0045383328579255e-08 0.0 0.0
-1.5881927183637147e-07 -1.6960257984339625e-09 -4.8154589290441643e-08 1.978118523683131e-08 0.0 0.0
-1.9961196157530061e-07 -1.1222326486821344e-09 -6.022025826719482e-08 2.2994426875410024e-08 0.0 0.0
-2.4404356740576396e-07 8.807057647459261e-11 -7.318664904878684e-08 2.4510308312878338e-08 0.0 0.0
-2.900270835458925e-07 -1.8067812203729334e-09 -8.755015942987967e-08 2.3197256081831848e-08 0.0 0.0
-3.342118248816812e-07 -1.7107042278236559e-09 -1.0077675873285145e-07 2.217243482833161e-08 0.0 0.0
-3.749191128495026e-07 4.755811129513724e-09 -1.1104899051599668e-07 2.239661447753571e-08 0.0 0.0
-4.1912787343343653e-07 -1.5025374107449257e-09 -1.2618912325325442e-07 2.3506837502161667e-08 0.0 0.0
-4.600753538825285e-07 -3.923143861062616e-09 -1.3919954932307733e-07 2.1627998537409625e-08 0.0 0.0
-4.977935798609451e-07 -3.00774362678256e-09 -1.502403970463182e-07 1.8126525921283195e-08 0.0 0.0
-5.293708847344297e-07 4.443560903849715e-09 -1.5747819714917405e-07 1.5692575444220878e-08 0.0 0.0
-5.583087411190849e-07 5.705905833258973e-09 -1.657808505857478e-07 1.4731805519064506e-08 0.0 0.0
-5.8847691676898e-07 -2.343211095237551e-09 -1.7724603835926524e-07 1.421939489231542e-08 0.0 0.0
-6.107667790326055e-07 3.720314654642234e-09 -1.8211393931338904e-07 1.366428338000215e-08 0.0 0.0
-6.322186364170734e-07 -1.5692575444254785e-09 -1.9013636818844968e-07 9.180690395936097e-09 0.0 0.0
-6.451890304066889e-07 -3.2239168599829752e-09 -1.9452388418000157e-07 3.245267302750949e-09 0.0 0.0
-6.50547991544779e-07 -6.405132834396927e-10 -1.9535655144846552e-07 1.1956247957499178e-09 0.0 0.0
-6.534089508774733e-07 8.540177111170134e-11 -1.959970647319085e-07 -8.540177112376618e-11 0.0 0.0
-6.513806588132475e-07 6.810791247221688e-09 -1.933709602698078e-07 -3.416070845013025e-10 0.0 0.0
-6.498220764901993e-07 1.6226336514113427e-09 -1.9445983285163642e-07 -3.2452673027480283e-09 0.0 0.0
-6.408655657434888e-07 -3.9498319147511135e-10 -1.9237816468048916e-07 -7.259150545626041e-09 0.0 0.0
-6.274681628982384e-07 -3.437421287768759e-09 -1.892716752558022e-07 -9.394194823752432e-09 0.0 0.0
-6.118182883395849e-07 -6.490534605498084e-09 -1.8549264688352484e-07 -9.906605450501159e-09 0.0 0.0
-5.911510597273395e-07 -1.5372318802666117e-09 -1.778064874822819e-07 -1.2554060355377868e-08 0.0 0.0
-5.631819796838831e-07 8.497476226958774e-09 -1.6640535103707727e-07 -1.511611348912917e-08 0.0 0.0
-5.369529607271286e-07 -7.579407187463358e-10 -1.613132704337625e-07 -1.7123055110566627e-08 0.0 0.0
-5.00849361984019e-07 3.4907973947466868e-09 -1.4920756937678164e-07 -1.8147876364064215e-08 0.0 0.0
-4.7070253677688897e-07 -7.013620453629276e-09 -1.433148471691555e-07 -1.8873791418627416e-08 0.0 0.0
-4.286848653834015e-07 9.041912517831641e-09 -1.25892885859671e-07 -1.9813210901000216e-08 0.0 0.0
-3.9280544628948545e-07 2.9463611038294997e-09 -1.1695772555569675e-07 -2.0325621527749375e-08 0.0 0.0
-3.5469490592495226e-07 -1.2169752385207607e-09 -1.067735643490419e-07 -2.2076357835817053e-08 0.0 0.0
-3.1190861859132043e-07 2.967711546603939e-09 -9.268227211341495e-08 -2.310117908931275e-08 0.0 0.0
-2.7187653837647953e-07 -5.252208924198128e-09 -8.31386241902033e-08 -2.3143879974881873e-08 0.0 0.0
-2.2653887313048628e-07 7.579407187322213e-10 -6.773427972352624e-08 -2.1692049865753807e-08 0.0 0.0
-1.9056337704407158e-07 -5.540439901729824e-09 -5.883114508374043e-08 -1.8895141861410974e-08 0.0 0.0
-1.5643469425824506e-07 -9.180690396036307e-10 -4.720582898935462e-08 -1.524421614581433e-08 0.0 0.0
-1.0751015462499864e-07 -3.618900051420881e-09 -3.333871640292586e-08 -5.118768656805601e-09 0.0 0.0
-1.4178829051030103e-07 -8.986401366629256e-08 -6.949569125297808e-08 -3.9929664809631645e-08 0.0 0.0
1.5107573312014726e-07 6.713433228137198e-07 2.467257167801602e-07 -5.659802220909867e-08 0.0 0.0
1.571619437154771e-07 6.276136127896919e-07 2.3543266695155072e-07 8.697369747478229e-08 0.0 0.0
-8.148129606930367e-08 -2.7966411238092044e-08 -3.283431219221871e-08 6.857361900536308e-08 0.0 0.0
-7.134517335890593e-08 -1.691221948810374e-08 -2.6477217854102892e-08 2.4190051671160178e-08 0.0 0.0
-1.2674423476556107e-07 -2.345879900590964e-09 -3.872703439984561e-08 2.834271279211324e-08 0.0 0.0
-1.7118518141473581e-07 -1.1395798834422478e-09 -5.169742838945342e-08 3.403260579331829e-08 0.0 0.0
-2.1199922159645307e-07 -2.0389672856138307e-09 -6.421145666462008e-08 3.539903413131611e-08 0.0 0.0
-2.5179644694070753e-07 -1.526556658860676e-09 -7.599690107987046e-08 3.3690998708816354e-08 0.0 0.0
-2.9122537714697753e-07 -3.6829513795480594e-10 -8.747810168547968e-08 3.208971550022325e-08 0.0 0.0
-3.260239300750839e-07 8.142525115694438e-09 -9.536442148781683e-08 3.247402347028615e-08 0.0 0.0
-3.660293222364579e-07 -3.1465215048957446e-09 -1.1075275312240612e-07 3.362694738047354e-08 0.0 0.0
-4.01292247295039e-07 -7.034970896417465e-09 -1.2249816545743695e-07 3.0936791590034393e-08 0.0 0.0
-4.3496723317176897e-07 -6.8268040792984925e-09 -1.3253821117532017e-07 2.6410497720409766e-08 0.0 0.0
-4.6137773089217985e-07 5.278896977670053e-09 -1.3682965017435293e-07 2.297307643262979e-08 0.0 0.0
-4.886102206596787e-07 3.368032348723951e-09 -1.455726564932864e-07 2.1563947209066694e-08 0.0 0.0
-5.124960285212016e-07 9.394194823669385e-10 -1.5346698271165037e-07 2.011211709994169e-08 0.0 0.0
-5.337557319206271e-07 -1.3397402845166578e-09 -1.6052864166154318e-07 1.9685108244315753e-08 0.0 0.0
-5.499713932129812e-07 -1.4571677197991258e-09 -1.654285682798341e-07 1.2895667439873596e-08 0.0 0.0
-5.625468040111575e-07 -4.894589007621157e-09 -1.702324179056336e-07 5.209508038626433e-09 0.0 0.0
-5.678043505460421e-07 -1.2917017882867643e-09 -1.7072881570029863e-07 2.092343392563874e-09 0.0 0.0
-5.690640266701215e-07 4.024558464281626e-09 -1.6951184046175196e-07 1.1415092453231782e-21 0.0 0.0
-5.711029939557498e-07 -1.729385865307214e-09 -1.7184971394631708e-07 -8.113168256893461e-10 0.0 0.0
-5.665820376967959e-07 2.0816681714213877e-10 -1.6991216126389623e-07 -4.697097411875542e-09 0.0 0.0
-5.576682278356316e-07 2.0763305604815366e-09 -1.6667756918254503e-07 -1.0077408992750838e-08 0.0 0.0
-5.476495325605236e-07 -4.366165548749054e-09 -1.6560470943278183e-07 -1.3322676295501958e-08 0.0 0.0
-5.34188078386954e-07 -6.405132834383642e-09 -1.6217796336640132e-07 -1.426209577787891e-08 0.0 0.0
-5.159227745875962e-07 -1.5052062160959382e-09 -1.552283942411076e-07 -1.8617586105253468e-08 0.0 0.0
-4.91540568931392e-07 6.992270010873101e-09 -1.4536448967615565e-07 -2.1692049865753592e-08 0.0 0.0
-4.7016877570736376e-07 -4.344815105983107e-09 -1.4235407724400406e-07 -2.4083299457253085e-08 0.0 0.0
-4.3674465753332385e-07 4.611695640723631e-09 -1.2963988856778009e-07 -2.6645352591004644e-08 0.0 0.0
-4.114337076161353e-07 -6.501209826888712e-09 -1.2538047523290722e-07 -2.771287473007032e-08 0.0 0.0
-3.7487107435324815e-07 7.2164496600468515e-09 -1.102963874079604e-07 -2.8139883585693308e-08 0.0 0.0
-3.4338984647228024e-07 1.6760097583317376e-09 -1.0251415101418459e-07 -2.9634414580374447e-08 0.0 0.0
-3.1070231857418054e-07 -4.323464663194838e-09 -9.450773497121261e-08 -3.215376682857155e-08 0.0 0.0
-2.7137480297111e-07 3.747002708123421e-09 -8.028834007889596e-08 -3.381910136549863e-08 0.0 0.0
-2.37747855590649e-07 -5.753944329561041e-09 -7.3050539976063e-08 -3.3221288967634546e-08 0.0 0.0
-1.9757699749771742e-07 7.259150545623347e-10 -5.905532473294654e-08 -3.170540753016438e-08 0.0 0.0
-1.6429165720174255e-07 -5.0173540535963885e-09 -5.0792703376601666e-08 -2.82679862423802e-08 0.0 0.0
-1.2667217702117634e-07 -3.779028372286873e-09 -3.913536161803898e-08 -2.2279187042237272e-08 0.0 0.0
-7.797181703713721e-08 -1.59701312003757e-08 -2.8182584471253872e-08 -1.5745951551171464e-08 0.0 0.0
-8.848691010690639e-08 -3.694694123295956e-08 -3.763015540195981e-08 -5.473986648578445e-08 0.0 0.0
1.3881590855434484e-07 5.769777017272644e-07 2.1473808308448279e-07 -7.015221736850782e-08 0.0 0.0
1.3101032011378954e-07 5.306532457039782e-07 1.9849906974533036e-07 8.38992337142819e-08 0.0 0.0
-4.801180820434207e-08 1.571926349769829e-08 -9.687763411993144e-09 7.774363417991129e-08 0.0 0.0
-4.981325181401363e-08 -1.9762503599403302e-08 -2.087272662402508e-08 4.134513244589606e-08 0.0 0.0
-9.805190847290751e-08 -5.177482374460639e-09 -3.0968817254210445e-08 3.8292019128176817e-08 0.0 0.0
-1.4201247015950432e-07 -1.569257544422605e-09 -4.307451831117807e-08 4.38111085871319e-08 0.0 0.0
-1.7965063197750303e-07 -2.8155896417716437e-09 -5.4739866485782404e-08 4.5241588253473574e-08 0.0 0.0
-2.143317574703038e-07 -1.5745951551177667e-09 -6.477190578762647e-08 4.2807637776411154e-08 0.0 0.0
-2.482522734390133e-07 4.8038496259206e-10 -7.433156654292638e-08 4.0800696154974404e-08 0.0 0.0
-2.787673937841274e-07 6.922881071814635e-09 -8.155335381369388e-08 4.127040589616284e-08 0.0 0.0
-3.112921245560116e-07 -1.8414756897672884e-10 -9.34428816374965e-08 4.193226962238065e-08 0.0 0.0
-3.4436129161882636e-07 -1.2404607255899865e-08 -1.0702976966241789e-07 3.9028609404129904e-08 0.0 0.0
-3.6950143799374836e-07 -3.1705407530002824e-09 -1.1180159362402462e-07 3.364829782325538e-08 0.0 0.0
-3.9563971756870914e-07 1.2436632919962333e-09 -1.1831881628301385e-07 2.9591713694816993e-08 0.0 0.0
-4.172730537168064e-07 5.6365168942557345e-09 -1.2349096104676524e-07 2.749937030225432e-08 0.0 0.0
-4.378388677258619e-07 1.7026978117808587e-09 -1.3084085097422433e-07 2.5535129566380086e-08 0.0 0.0
-4.572410826033209e-07 -5.636516894263868e-09 -1.3886327984927544e-07 2.3997897686127132e-08 0.0 0.0
-4.6808176992548626e-07 4.5369690912311895e-10 -1.4028842190490897e-07 1.6269037399312984e-08 0.0 0.0
-4.797391116840695e-07 -4.542306701734756e-09 -1.4528442551574126e-07 7.088347003375322e-09 0.0 0.0
-4.844201962638543e-07 1.2596761240830487e-09 -1.449481560419314e-07 2.86095933268789e-09 0.0 0.0
-4.863310608927591e-07 4.344815106016575e-09 -1.4459587373602274e-07 2.562053133738752e-10 0.0 0.0
-4.8996063616559e-07 -6.970919568091629e-09 -1.4907946672010446e-07 -7.686159401249145e-10 0.0 0.0
-4.834007126210384e-07 7.205774438800269e-10 -1.448040405531475e-07 -6.106226635439922e-09 0.0 0.0
-4.773318492604639e-07 -1.5585823230079683e-09 -1.4366712947504157e-07 -1.2554060355376012e-08 0.0 0.0
-4.690905783469163e-07 -6.810791247232749e-09 -1.4277041087824474e-07 -1.648254182712746e-08 0.0 0.0
-4.5547967107386e-07 -1.953565514482712e-09 -1.3722997097650282e-07 -1.8190577249627887e-08 0.0 0.0
-4.403422071419492e-07 6.298380620531818e-10 -1.319137107239688e-07 -2.3058478203750613e-08 0.0 0.0
-4.201980643778351e-07 5.358961138106549e-09 -1.2445173097191862e-07 -2.7328566760004693e-08 0.0 0.0
-3.990824764671826e-07 3.672276158372219e-09 -1.1862306009264317e-07 -3.0830039376131056e-08 0.0 0.0
-3.7587454516396315e-07 -5.337610695413478e-10 -1.1292249187005138e-07 -3.386180225106953e-08 0.0 0.0
-3.491971669087851e-07 6.511885048249243e-10 -1.0456379352118805e-07 -3.505742704681683e-08 0.0 0.0
-3.2200737802686357e-07 3.0317628749260947e-09 -9.569268454558125e-08 -3.599684652919319e-08 0.0 0.0
-2.9369669089890863e-07 2.47665136264483e-09 -8.736601186087913e-08 -3.757677929500363e-08 0.0 0.0
-2.6566355952713635e-07 -3.5655239444822602e-09 -8.076872504148558e-08 -4.090744836888251e-08 0.0 0.0
-2.3266645020869374e-07 -1.601283208378255e-10 -6.984797355885949e-08 -4.235927847800074e-08 0.0 0.0
-2.0185776127535505e-07 -2.572728355139004e-09 -6.132914688914824e-08 -4.2316577592447734e-08 0.0 0.0
-1.691915838200404e-07 -1.5052062160822105e-09 -5.120903701083678e-08 -4.0437738627696396e-08 0.0 0.0
-1.3741144974014234e-07 -5.209508038622098e-09 -4.278628733362935e-08 -3.6637359812630126e-08 0.0 0.0
-9.96104907959357e-08 -8.529501891113131e-09 -3.244199780611465e-08 -3.071261194083043e-08 0.0 0.0
-5.5276296360662195e-08 -2.0517775512783473e-08 -2.27382215620337e-08 -3.071794955152679e-08 0.0 0.0
-5.342948306008379e-08 4.430216877110948e-09 -1.4699779854891856e-08 -6.475389135153171e-08 0.0 0.0
1.1930760866431948e-07 4.910348303180176e-07 1.8310273169470116e-07 -7.159470665891931e-08 0.0 0.0
1.0654538149182116e-07 4.4652449472979766e-07 1.6592096286648563e-07 7.775430940130219e-08 0.0 0.0
-2.594879439526482e-08 4.567126591444861e-08 5.916741455755134e-09 8.243739558510348e-08 0.0 0.0
-3.289035710452142e-08 -1.7389935645334343e-08 -1.5084087824956727e-08 5.69576437296879e-08 0.0 0.0
-7.26101870936931e-08 -7.69416581729266e-09 -2.4091305873295735e-08 4.888183874767996e-08 0.0 0.0
-1.134642593556222e-07 -3.2425984974046777e-09 -3.5012057355908075e-08 5.2500738799102606e-08 0.0 0.0
-1.4706718748796067e-07 -2.7595447294651172e-09 -4.4948019665227724e-08 5.3867167137102155e-08 0.0 0.0
-1.760717640063061e-07 1.1582615208644156e-09 -5.24740507456325e-08 5.0664600719913805e-08 0.0 0.0
-2.063093285952441e-07 -5.764619550842573e-10 -6.20657371650985e-08 4.829470157119376e-08 0.0 0.0
-2.3111854310706812e-07 5.871371764835147e-09 -6.757415140266987e-08 4.857225732735023e-08 0.0 0.0
-2.582549558820281e-07 -1.366428337981225e-09 -7.788641526600285e-08 4.8892513969068955e-08 0.0 0.0
-2.836833332345063e-07 -6.896193018339108e-09 -8.717385787585363e-08 4.586075109413091e-08 0.0 0.0
-3.0533801982538333e-07 -5.604491229814142e-10 -9.176954068450945e-08 3.96264218020057e-08 0.0 0.0
-3.291704515799776e-07 -1.0141460321301813e-09 -9.905537928363236e-08 3.510012793238174e-08 0.0 0.0
-3.473236655547252e-07 4.3821783808626394e-09 -1.0288244615215875e-07 3.253807479862987e-08 0.0 0.0
-3.6499115695622063e-07 -2.6154292408210736e-10 -1.0957580996409082e-07 2.9762517237067606e-08 0.0 0.0
-3.788742823747428e-07 -4.2594133349024125e-09 -1.1494010871289356e-07 2.754207118781634e-08 0.0 0.0
-3.889143280925969e-07 -2.706168622493902e-09 -1.1748614901452725e-07 1.9044594960875634e-08 0.0 0.0
-3.9688871847141133e-07 -1.2436632920160805e-09 -1.1943971452902823e-07 8.881784197002045e-09 0.0 0.0
-4.0316041103839714e-07 -1.0034708107125178e-09 -1.2124916455473293e-07 3.5868743872518843e-09 0.0 0.0
-4.0399841591756065e-07 3.5174854482208112e-09 -1.2014427914080197e-07 9.394194823746352e-10 0.0 0.0
-4.088022655433459e-07 -1.0253550145694859e-08 -1.2571674470671224e-07 -8.540177112486674e-10 0.0 0.0
-4.000165583388549e-07 3.271955356238538e-09 -1.1902338089478494e-07 -6.9175434611258e-09 0.0 0.0
-3.9763064635804894e-07 -5.465713351985221e-09 -1.209289079130103e-07 -1.4988010832440163e-08 0.0 0.0
-3.887168364968874e-07 -3.5975496086507063e-09 -1.1769431583166143e-07 -1.912999673200468e-08 0.0 0.0
-3.7670721243243064e-07 3.5014726161231323e-09 -1.1196172194489229e-07 -2.1692049865754135e-08 0.0 0.0
-3.661600936984867e-07 2.1350442781999778e-10 -1.0978397678120003e-07 -2.6218343735378504e-08 0.0 0.0
-3.502646890478382e-07 2.145719499532237e-09 -1.0443569086449178e-07 -3.202566417187943e-08 0.0 0.0
-3.299817684056638e-07 7.910339050436004e-09 -9.662142880656834e-08 -3.68508642404433e-08 0.0 0.0
-3.134672009143536e-07 -2.09234339255549e-09 -9.466786329207273e-08 -3.9455618259757235e-08 0.0 0.0
-2.9001373951914755e-07 2.103018613959642e-09 -8.637321627155641e-08 -4.103555102557067e-08 0.0 0.0
-2.690369294865708e-07 -6.191628406606857e-10 -8.089682769816944e-08 -4.2103073164631114e-08 0.0 0.0
-2.4429176630308737e-07 2.1777451637099586e-09 -7.263420634181323e-08 -4.428081832831704e-08 0.0 0.0
-2.191622951495632e-07 7.472654973429417e-10 -6.552450889566607e-08 -4.773959005888079e-08 0.0 0.0
-1.956127567618324e-07 -7.216449660047763e-09 -6.084876192656406e-08 -4.953302725250469e-08 0.0 0.0
-1.6626657315900614e-07 4.803849625804701e-10 -4.9735856458927695e-08 -5.006678832204295e-08 0.0 0.0
-1.4043253739369447e-07 -3.5761991658671355e-09 -4.320262096786846e-08 -4.810254758616713e-08 0.0 0.0
-1.1104365290529756e-07 -6.59728681940969e-09 -3.5292281917412177e-08 -4.4558374084473757e-08 0.0 0.0
-7.50254559333248e-08 -1.1657341758565922e-08 -2.6004839307567224e-08 -3.9594396137833493e-08 0.0 0.0
-3.7299223538851905e-08 -1.92794498314766e-08 -1.6973602011098553e-08 -4.546576790267735e-08 0.0 0.0
-3.066991105527042e-08 3.248469869167617e-08 5.444362909217241e-10 -7.032902572278694e-08 0.0 0.0
9.933693824779951e-08 4.1596934230447736e-07 1.545918841656831e-07 -6.874976015831903e-08 0.0 0.0
8.548583849346217e-08 3.7425591472060456e-07 1.3792252596422002e-07 7.093551173803861e-08 0.0 0.0
-1.1273033788502254e-08 6.422213188600876e-08 1.5884729429251955e-08 8.416277824236285e-08 0.0 0.0
-1.923141133521515e-08 -1.2634124515808779e-08 -9.559660755307179e-09 6.96398067417532e-08 0.0 0.0
-5.0435083460012474e-08 -1.0146797931784162e-08 -1.8174564417538994e-08 5.929017960354008e-08 0.0 0.0
-8.546048484266205e-08 -4.905264228996164e-09 -2.7109724721497464e-08 6.037905218538439e-08 0.0 0.0
-1.1505753614817106e-07 -3.4374212877784233e-09 -3.5548487230784855e-08 6.089146281213346e-08 0.0 0.0
-1.3793453558828773e-07 4.814524847166048e-09 -3.9936003222336506e-08 5.715513532541376e-08 0.0 0.0
-1.6359776781134915e-07 1.6012832086398426e-10 -4.9031291847145544e-08 5.4657133520008485e-08 0.0 0.0
-1.8365117119364268e-07 4.25407572416609e-09 -5.3819128640843014e-08 5.4571731748884206e-08 0.0 0.0
-2.0568482814389437e-07 -2.7488695080810075e-09 -6.253010929559262e-08 5.435822732107109e-08 0.0 0.0
-2.2455328195182672e-07 -4.003208021481783e-09 -6.856694699199256e-08 5.11983617894449e-08 0.0 0.0
-2.442170397533583e-07 -4.622370862133713e-09 -7.465182318464762e-08 4.50494342684447e-08 0.0 0.0
-2.6128138114627253e-07 7.526031080528254e-10 -7.815863341146595e-08 3.983992622981914e-08 0.0 0.0
-2.7763582031672306e-07 3.0157500428419376e-09 -8.238602108216436e-08 3.629575272813271e-08 0.0 0.0
-2.9043007315338204e-07 2.4126000342882975e-09 -8.64052419357281e-08 3.360559693769395e-08 0.0 0.0
-3.0049146931406197e-07 -9.23406650317061e-10 -9.042446278931372e-08 3.014682520713157e-08 0.0 0.0
-3.1294411506620483e-07 -1.2116376278336487e-08 -9.751814740336237e-08 2.092343392562719e-08 0.0 0.0
-3.1536205271118513e-07 -4.643721304762173e-10 -9.474792745249838e-08 1.0461716962816081e-08 0.0 0.0
-3.22199532011886e-07 -3.394720402214382e-09 -9.767827572423014e-08 4.568994755186875e-09 0.0 0.0
-3.2188995059156777e-07 2.5940787979059904e-09 -9.578876153809853e-08 1.1102230246253211e-09 0.0 0.0
-3.2560492763549535e-07 -7.782236393759318e-09 -1.000161492087764e-07 -8.540177112481182e-10 0.0 0.0
-3.1749175937862547e-07 5.455038130601999e-09 -9.361101637440705e-08 -7.429954087874749e-09 0.0 0.0
-3.1772661424920877e-07 -7.333877095343695e-09 -9.751814740336574e-08 -1.6482541827127754e-08 0.0 0.0
-3.0897827031960446e-07 -6.565261155411351e-10 -9.289043893054369e-08 -2.139314366681773e-08 0.0 0.0
-2.9983494319853107e-07 4.238062892066701e-09 -8.867906409193934e-08 -2.4510308312879076e-08 0.0 0.0
-2.938888448839476e-07 -3.949831914531613e-09 -8.935160303954375e-08 -2.9719816351503187e-08 0.0 0.0
-2.783777482033662e-07 5.625841672863059e-09 -8.182557195915097e-08 -3.578334210138219e-08 0.0 0.0
-2.677559029197045e-07 -4.462242541302691e-09 -8.166544363830215e-08 -4.112095279669653e-08 0.0 0.0
-2.487219831801999e-07 2.2311212706592383e-09 -7.394725857286223e-08 -4.449432275613483e-08 0.0 0.0
-2.3324291216379782e-07 -2.359223927327509e-09 -7.068064082733762e-08 -4.615965729307021e-08 0.0 0.0
-2.1486018092913339e-07 -1.3130522310318472e-09 -6.485196994804959e-08 -4.6757469690944965e-08 0.0 0.0
-1.9548465410515175e-07 1.6226336513761179e-09 -5.81586061361327e-08 -4.9661129909195466e-08 0.0 0.0
-1.7431569008753717e-07 1.9108646289289987e-09 -5.172144763758246e-08 -5.32053034108808e-08 0.0 0.0
-1.5710723320584455e-07 -9.746477129627214e-09 -5.0056113100641525e-08 -5.5810057430193545e-08 0.0 0.0
-1.3239409568655286e-07 -6.191628406614445e-10 -3.990397755816429e-08 -5.619436540026181e-08 0.0 0.0
-1.108514989202671e-07 -3.5868743872537152e-09 -3.433151199225624e-08 -5.457173174888738e-08 0.0 0.0
-8.517759147580741e-08 -8.444100119983044e-09 -2.8086507478737136e-08 -5.175347330175784e-08 0.0 0.0
-5.2863696326381884e-08 -1.289566743987544e-08 -1.9727809129877195e-08 -4.884981308350607e-08 0.0 0.0
-2.2631469348131253e-08 -1.494530994688475e-08 -1.1273033788504805e-08 -5.772625966980789e-08 0.0 0.0
-1.550042145918985e-08 5.0515147620444854e-08 1.0504417848376504e-08 -7.338414064451618e-08 0.0 0.0
8.016424063023497e-08 3.501672776526566e-07 1.290994554848675e-07 -6.359763143466574e-08 0.0 0.0
6.815728537112958e-08 3.1218750875015647e-07 1.1410343823638584e-07 6.423280710739857e-08 0.0 0.0
-1.3877787807820884e-09 7.3765779809227e-08 2.1713400308533477e-08 8.387521446615236e-08 0.0 0.0
-7.445966919961565e-09 -6.485196994805145e-09 -4.179349174430015e-09 7.929020687887879e-08 0.0 0.0
-3.014148759643415e-08 -1.0477729794901106e-08 -1.2185765217400577e-08 6.860964787755602e-08 0.0 0.0
-5.895924774042947e-08 -6.479859384108894e-09 -1.963173213736151e-08 6.721119387538419e-08 0.0 0.0
-8.336814145009813e-08 -4.008545632181784e-09 -2.6213006124683968e-08 6.637852660691545e-08 0.0 0.0
-1.0066733771360312e-07 5.657867337042699e-09 -2.8502841112968125e-08 6.251409646350856e-08 0.0 0.0
-1.2107302340179174e-07 8.166544363794583e-10 -3.607691068962368e-08 5.969583801638405e-08 0.0 0.0
-1.3655743202889558e-07 2.4766513626204924e-09 -4.0224234199882516e-08 5.901262384738317e-08 0.0 0.0
-1.5194576366348177e-07 -1.19028718505561e-09 -4.5940815254561205e-08 5.8628315877321004e-08 0.0 0.0
-1.6739814662641589e-07 -5.860696543459479e-09 -5.197765295096261e-08 5.4913338833383566e-08 0.0 0.0
-1.8240750790163834e-07 -6.4371584985559164e-09 -5.665339992005828e-08 4.9362223710256863e-08 0.0 0.0
-1.9417693948480052e-07 2.1830827743837342e-09 -5.759815701312504e-08 4.3811108587130995e-08 0.0 0.0
-2.0656019629792387e-07 5.172144763766607e-09 -6.041641546024718e-08 3.958372091644414e-08 0.0 0.0
-2.155807583730029e-07 6.186290795877643e-09 -6.281834027313757e-08 3.612494918588091e-08 0.0 0.0
-2.2333096910259988e-07 9.12731428902254e-10 -6.672547130210931e-08 3.181215974406625e-08 0.0 0.0
-2.3284792897233726e-07 -1.0974127589548565e-08 -7.314661696856576e-08 2.2503366691439292e-08 0.0 0.0
-2.3512175112853982e-07 -2.1884203850590422e-09 -7.119305145407968e-08 1.1956247957501152e-08 0.0 0.0
-2.390875958751672e-07 1.601283208443685e-11 -7.172147491292483e-08 5.679217779812047e-09 0.0 0.0
-2.4077961846559364e-07 2.66880534737773e-10 -7.215382137925675e-08 9.394194823758581e-10 0.0 0.0
-2.412439905960705e-07 -1.88417657543739e-09 -7.29384501514524e-08 -1.4091292235622648e-09 0.0 0.0
-2.3760374010188139e-07 1.627971262042743e-09 -7.07927306519516e-08 -8.283971799124872e-09 0.0 0.0
-2.3611988432856504e-07 -3.592211997928971e-09 -7.191362889794818e-08 -1.7720867508439617e-08 0.0 0.0
-2.3232484312420367e-07 -3.9178062503594755e-09 -7.087279481236894e-08 -2.322928174600387e-08 0.0 0.0
-2.2337366998816954e-07 4.798512015073463e-09 -6.557254739192881e-08 -2.655995081987775e-08 0.0 0.0
-2.1965335533353043e-07 -2.3912495914990126e-09 -6.661338147750885e-08 -3.2794280112004906e-08 0.0 0.0
-2.06992542764245e-07 6.938893903912827e-09 -6.001609465809965e-08 -3.902860940412966e-08 0.0 0.0
-2.0232747101654787e-07 -7.654133737087334e-09 -6.299448142609057e-08 -4.466512629838199e-08 0.0 0.0
-1.8493753537120845e-07 5.166807153077681e-09 -5.3931218465439236e-08 -4.842280422788474e-08 0.0 0.0
-1.7511633169183489e-07 -3.800378815056979e-09 -5.367501315206755e-08 -4.97038307947586e-08 0.0 0.0
-1.592636279267521e-07 2.0176168428401535e-09 -4.7173803325173576e-08 -5.128376356056841e-08 0.0 0.0
-1.4674159323555696e-07 6.405132833297602e-11 -4.40032625721672e-08 -5.388851757988136e-08 0.0 0.0
-1.3013094875173974e-07 1.8147876364005014e-09 -3.849484833460177e-08 -5.803050347944399e-08 0.0 0.0
-1.1689367422735709e-07 -7.15239833171224e-09 -3.7213821767720796e-08 -6.037905218538052e-08 0.0 0.0
-9.939698636812497e-08 -4.0459089070487594e-09 -3.103286858255212e-08 -6.099821502604203e-08 0.0 0.0
-8.07046737131344e-08 -2.1350442781200353e-09 -2.4851915397376325e-08 -5.9354230931887944e-08 0.0 0.0
-6.013352209339692e-08 -8.93516030395094e-09 -2.0720604719204363e-08 -5.7710246837727805e-08 0.0 0.0
-3.245267302750286e-08 -1.1956247957498207e-08 -1.332267629550032e-08 -5.745404152434999e-08 0.0 0.0
-1.0739272718971897e-08 -9.970656778848195e-09 -6.212978849346028e-09 -6.693897572991817e-08 0.0 0.0
-4.643721304923381e-09 6.132914688914801e-08 1.7005627675267385e-08 -7.417677583277089e-08 0.0 0.0
6.515888256303763e-08 2.93234987573773e-07 1.0751816104104319e-07 -5.82440079072642e-08 0.0 0.0
5.4312857630161333e-08 2.583910649547671e-07 9.381117677547854e-08 5.8126580471960717e-08 0.0 0.0
5.807320436501974e-09 7.703239755476065e-08 2.4851915397378786e-08 8.215116621156679e-08 0.0 0.0
3.1438526995410393e-09 5.337610695807382e-12 9.447570930710549e-10 8.582877998063683e-08 0.0 0.0
-1.179078202594689e-08 -9.933293503978558e-09 -6.517222658977635e-09 7.618905506490202e-08 0.0 0.0
-3.313054958581121e-08 -6.634650094278269e-09 -1.1929559904026846e-08 7.263420634182382e-08 0.0 0.0
-5.194562728678709e-08 -4.2060372279041406e-09 -1.6845499354407366e-08 7.120372667547859e-08 0.0 0.0
-6.559923544540249e-08 1.654659315541846e-09 -1.9183372838958192e-08 6.633582572135248e-08 0.0 0.0
-7.844152677832297e-08 2.0069416214386915e-09 -2.293037554706528e-08 6.311190886138448e-08 0.0 0.0
-8.950105613901209e-08 6.832141690017222e-10 -2.664535259100312e-08 6.242869469238273e-08 0.0 0.0
-9.869242175634392e-08 1.6012832085827527e-10 -2.9559688030645693e-08 6.148927521001052e-08 0.0 0.0
-1.0970391262077262e-07 -5.535102291037906e-09 -3.4571704473543164e-08 5.756079373825847e-08 0.0 0.0
-1.1876717558141983e-07 -4.051246517755277e-09 -3.684552662975254e-08 5.222318304294497e-08 0.0 0.0
-1.2751018190034012e-07 2.449963309144292e-09 -3.7518065577358756e-08 4.6415862606443124e-08 0.0 0.0
-1.357461152031981e-07 7.216449660085373e-09 -3.85588996629338e-08 4.2145774050196324e-08 0.0 0.0
-1.414306705937171e-07 8.684292601272959e-09 -3.982391339773325e-08 3.81318908073192e-08 0.0 0.0
-1.4635728526549935e-07 2.6688053476358713e-09 -4.310654397535905e-08 3.326398985319468e-08 0.0 0.0
-1.5404878227742847e-07 -1.1363773170303193e-08 -4.962376663431948e-08 2.378439325831585e-08 0.0 0.0
-1.5415553449133742e-07 -1.649321704840174e-09 -4.6741456858853273e-08 1.2852966554313445e-08 0.0 0.0
-1.578865243673743e-07 -3.202566417386011e-10 -4.746203430273388e-08 5.764619550936601e-09 0.0 0.0
-1.573420880764516e-07 4.793174404373768e-09 -4.576467410162335e-08 4.2700885562405786e-10 0.0 0.0
-1.583455588871578e-07 4.5903451980848876e-10 -4.7365957310204805e-08 -1.8788389647521456e-09 0.0 0.0
-1.5881526862836128e-07 -4.622370862166904e-09 -4.903129184715848e-08 -8.369373570249742e-09 0.0 0.0
-1.5539919778333848e-07 -1.206300017111699e-09 -4.6981649340135034e-08 -1.947160381650159e-08 0.0 0.0
-1.5483341104965149e-07 -4.867900954134582e-09 -4.7910393601135835e-08 -2.4211402113942286e-08 0.0 0.0
-1.4699779854892477e-07 6.298380620476881e-09 -4.2209825378534365e-08 -2.7712874730063138e-08 0.0 0.0
-1.4454249762908748e-07 1.494530994678191e-09 -4.291438999032278e-08 -3.5142828817943e-08 0.0 0.0
-1.364933807005435e-07 6.896193018361427e-09 -3.8879156304654633e-08 -4.150526076675716e-08 0.0 0.0
-1.31411975318607e-07 2.2417964920444204e-09 -3.875105364796878e-08 -4.7440683859947344e-08 0.0 0.0
-1.2293584953445843e-07 2.9463611038036462e-09 -3.5996846529196445e-08 -5.0685951162696284e-08 0.0 0.0
-1.1443837330750546e-07 1.7080354225253275e-09 -3.381910136549405e-08 -5.205237950069571e-08 0.0 0.0
-1.0755285551056385e-07 -3.1491903102387077e-09 -3.321061374624077e-08 -5.4358227321071577e-08 0.0 0.0
-9.807325891568652e-08 -1.5265566588618977e-09 -2.987994467236453e-08 -5.717648576819325e-08 0.0 0.0
-8.612768617957398e-08 1.1529239101900801e-09 -2.5492428680815177e-08 -6.144657432444456e-08 0.0 0.0
-7.704307277615305e-08 -5.6898930012077555e-09 -2.4819889733208244e-08 -6.379512303038209e-08 0.0 0.0
-6.526830358228993e-08 -4.547644312405755e-09 -2.0944784368408706e-08 -6.42007814432317e-08 0.0 0.0
-5.1732122858976584e-08 -3.1385150888452152e-09 -1.6461191384346536e-08 -6.356026815979466e-08 0.0 0.0
-3.61462996286639e-08 -8.903134639788787e-09 -1.3514830280535806e-08 -6.262084867741597e-08 0.0 0.0
-1.4902609061314864e-08 -1.1998948843064683e-08 -8.070467371313868e-09 -6.420078144322667e-08 0.0 0.0
-2.455300919823955e-10 -4.985328389418593e-09 -1.569257544420297e-09 -7.345086077820105e-08 0.0 0.0
2.6794805690458027e-09 6.574868854486675e-08 2.0528450734173773e-08 -7.30999128749905e-08 0.0 0.0
5.152929365255206e-08 2.4321356894264337e-07 8.842285877855862e-08 -5.335742531570509e-08 0.0 0.0
4.311455039139127e-08 2.1119591118680568e-07 7.62931384734591e-08 5.2658198314613326e-08 0.0 0.0
1.1187632017374587e-08 7.592217453013467e-08 2.6132941964252782e-08 7.94116375221961e-08 0.0 0.0
1.2602098851633995e-08 5.2788969776642564e-09 5.364298748789478e-09 8.950639374970868e-08 0.0 0.0
4.979990778727255e-09 -9.089951014118919e-09 -1.232988070617499e-09 8.172949496663593e-08 0.0 0.0
-8.390724013034962e-09 -6.768090361661873e-09 -4.54764431240905e-09 7.686159401250991e-08 0.0 0.0
-2.0955459589797497e-08 -4.344815105978567e-09 -7.59008240873282e-09 7.417143822207232e-08 0.0 0.0
-2.936753404561624e-08 1.078197360447484e-09 -8.486801005550626e-09 6.883382752675956e-08 0.0 0.0
-3.573530360511767e-08 3.2292544706739876e-09 -9.751814740333109e-09 6.528965402507298e-08 0.0 0.0
-4.259413334859938e-08 -1.1742743529704023e-09 -1.3130522310470935e-08 6.435023454269477e-08 0.0 0.0
-4.591412720108558e-08 3.309318631032473e-10 -1.3674958601394703e-08 6.311190886138626e-08 0.0 0.0
-5.1427879049333244e-08 -3.4961350054083314e-09 -1.6477204216422478e-08 5.978123978750608e-08 0.0 0.0
-5.627442956069161e-08 -3.1331774781569904e-09 -1.7822282111654582e-08 5.388851757988263e-08 0.0 0.0
-6.113699290411667e-08 2.103018613957835e-09 -1.7710192287047653e-08 4.7995795372256454e-08 0.0 0.0
-6.408335400792864e-08 1.0600494840897956e-08 -1.604485775010921e-08 4.385380947269729e-08 0.0 0.0
-6.885517796954144e-08 7.579407187345168e-09 -1.8382731234658884e-08 3.941291737419231e-08 0.0 0.0
-6.917009700058044e-08 5.49240140544128e-09 -1.9103308678541757e-08 3.3648297823256167e-08 0.0 0.0
-7.767291083819577e-08 -1.6696046254934462e-08 -2.8310687127939073e-08 2.4211402113939464e-08 0.0 0.0
-7.247407802096315e-08 2.1243690567341004e-09 -2.110491268926871e-08 1.357888160887777e-08 0.0 0.0
-7.760885950986696e-08 -2.0282920642495406e-09 -2.389114547223495e-08 5.8500213220624095e-09 0.0 0.0
-7.34935616637662e-08 9.4956094269669e-09 -1.9199385671039792e-08 4.2700885562441933e-10 0.0 0.0
-7.727259003604725e-08 -1.8841765754385668e-09 -2.3747029983445744e-08 -2.263146934811397e-09 0.0 0.0
-7.682423073764109e-08 -1.6920225904096995e-09 -2.355487599841523e-08 -9.052587739251311e-09 0.0 0.0
-7.523896036111474e-08 9.39419482424235e-10 -2.228986226360716e-08 -2.0112117099941433e-08 0.0 0.0
-7.590616169806907e-08 -3.250604913491398e-09 -2.374702998346814e-08 -2.515082159631707e-08 0.0 0.0
-7.223388553967364e-08 4.179349174431137e-09 -2.0416360909572756e-08 -2.869499509800614e-08 0.0 0.0
-7.006681559738202e-08 5.108093435405367e-09 -1.948761664859299e-08 -3.586874387250564e-08 0.0 0.0
-6.760617706682879e-08 3.2345920813810333e-09 -1.931147549563432e-08 -4.3127894418131065e-08 0.0 0.0
-6.21351261041313e-08 7.531368691111296e-09 -1.6381127223906007e-08 -4.919142016800646e-08 0.0 0.0
-6.093416369770312e-08 7.259150545458014e-10 -1.8062474592947202e-08 -5.200967861513263e-08 0.0 0.0
-5.500941582588389e-08 4.72912307607902e-09 -1.5084087824941464e-08 -5.3845816694322104e-08 0.0 0.0
-5.358427377025714e-08 -1.9802535679781527e-09 -1.6669358201470595e-08 -5.610896362913572e-08 0.0 0.0
-4.834274006744885e-08 -7.099022224687885e-10 -1.4715792686975293e-08 -5.9098025618506173e-08 0.0 0.0
-4.1793491744302796e-08 1.1208982460150801e-09 -1.2201778049486318e-08 -6.345351594588236e-08 0.0 0.0
-3.8697677541021834e-08 -7.312526652580624e-09 -1.3803061258080736e-08 -6.597286819406969e-08 0.0 0.0
-3.191891195797153e-08 -5.871371764840073e-09 -1.1337085116843485e-08 -6.625042395023276e-08 0.0 0.0
-2.3869795029441858e-08 -5.5938160086901225e-09 -8.839083311439594e-09 -6.689093723366867e-08 0.0 0.0
-1.2831616111531902e-08 -9.159339953156833e-09 -6.597286819406621e-09 -6.669878324863493e-08 0.0 0.0
1.174274352938393e-10 -1.410196745702587e-08 -4.19536200651961e-09 -6.913273372569598e-08 0.0 0.0
8.935160303954322e-09 -7.472654973398486e-11 2.658130126266101e-09 -7.749143207455279e-08 0.0 0.0
8.038441707140493e-09 6.572733810208516e-08 2.2129733942767696e-08 -7.122507711826245e-08 0.0 0.0
4.1070245495087567e-08 1.9973606102396967e-07 7.224189195571718e-08 -4.831605201397926e-08 0.0 0.0
3.452633478263449e-08 1.700909712221996e-07 6.138519180145023e-08 4.765151948241096e-08 0.0 0.0
1.5409682077369457e-08 7.132649172147027e-08 2.6020852139651928e-08 7.565395959269515e-08 0.0 0.0
2.103018613953484e-08 8.646929326408444e-09 8.90313463978299e-09 9.053655261390423e-08 0.0 0.0
2.0827356933113295e-08 -7.910339050452488e-09 3.875105364798242e-09 8.506016404051116e-08 0.0 0.0
1.5313605084854858e-08 -6.6132996514906595e-09 2.61009163000926e-09 7.965850201685556e-08 0.0 0.0
9.687763411992965e-09 -3.6562633262902605e-09 1.8094500257108108e-09 7.58367727590102e-08 0.0 0.0
7.339214706055872e-09 1.6813473690254446e-09 2.7061686225243956e-09 7.037105940700929e-08 0.0 0.0
6.164940353087109e-09 2.642117294182864e-09 2.642117294180992e-09 6.610097085076037e-08 0.0 0.0
5.225520870704259e-09 -6.885517797085807e-10 1.361090727298704e-09 6.490534605501067e-08 0.0 0.0
5.7699571616320025e-09 -2.4072624235853245e-09 1.0088084214140036e-09 6.370972125926204e-08 0.0 0.0
5.9674487573616325e-09 -3.2986434096985925e-09 8.006416042989122e-10 6.05925566131942e-08 0.0 0.0
6.7947784151363955e-09 -1.601283207938071e-11 2.0336296749171058e-09 5.452903086331883e-08 0.0 0.0
5.529764680339824e-09 2.3698991487086755e-09 2.3698991487145497e-09 4.8764411312383e-08 0.0 0.0
7.2911762097954005e-09 1.288499221848021e-08 6.0528505284826814e-09 4.440892098500734e-08 0.0 0.0
3.394720402224302e-09 5.3589611381059876e-09 2.6261044620990894e-09 3.932751560306884e-08 0.0 0.0
5.956773535956827e-09 4.504943426814219e-09 3.1385150888313136e-09 3.41180075644426e-08 0.0 0.0
4.617033251452642e-09 -6.805453636508274e-09 -6.565261155166899e-10 2.4382205656189147e-08 0.0 0.0
7.0830093926751545e-09 1.0835349711361401e-09 2.4499633091433876e-09 1.3536180723313675e-08 0.0 0.0
3.917806250352153e-09 -1.2490009027198466e-09 8.006416042896932e-10 6.23432929212451e-09 0.0 0.0
5.529764680352232e-09 2.369899148739276e-09 2.369899148727453e-09 8.113168256868307e-10 0.0 0.0
2.8396088899021897e-09 -5.615166451480325e-09 -8.326672684734405e-10 -2.4339504770642218e-09 0.0 0.0
5.166807153069454e-09 1.2383256813276365e-09 1.9215398503191266e-09 -9.436895709314446e-09 0.0 0.0
4.88391378621507e-09 3.0691261498141194e-09 2.385911980808756e-09 -2.0325621527750652e-08 0.0 0.0
2.8235960578183197e-09 -7.419278866539827e-10 6.245004513493009e-10 -2.540702690968979e-08 0.0 0.0
1.8414756898757436e-09 -1.868163743538869e-10 4.963977946565611e-10 -2.8609593326877746e-08 0.0 0.0
3.608224830027838e-09 6.426483277144921e-09 3.010412432151829e-09 -3.5996846529190986e-08 0.0 0.0
4.697097411879849e-10 -1.7507363080617835e-09 -3.843079700621396e-10 -4.3213296189257614e-08 0.0 0.0
3.0424380963373327e-09 3.2559425241627797e-09 1.8895141861500325e-09 -4.9234121053570584e-08 0.0 0.0
1.617296040679394e-09 -2.828933668541312e-10 4.003208021475788e-10 -5.256479012744417e-08 0.0 0.0
1.6760097583310283e-09 1.206300017147867e-09 8.646929326436691e-10 -5.457173174888583e-08 0.0 0.0
3.0904765925865017e-09 5.716581054681571e-09 2.642117294180425e-09 -5.649327159919663e-08 0.0 0.0
8.32667268467941e-10 -6.19162840658804e-10 6.40513283427413e-11 -5.952503447413239e-08 0.0 0.0
2.2151084385564667e-09 -2.6688053474726574e-11 6.565261155245216e-10 -6.417943100044482e-08 0.0 0.0
-2.1350442781220305e-11 -8.305322241910612e-09 -2.49800180540755e-09 -6.686958679088183e-08 0.0 0.0
1.3504155059159351e-09 -6.741402308176441e-09 -1.6172960406781511e-09 -6.695498856201254e-08 0.0 0.0
4.344815105987576e-09 -5.946098314572787e-09 -4.803849625755637e-10 -6.80652115866368e-08 0.0 0.0
1.0002682443015809e-08 -8.401399234426981e-09 4.803849625766477e-10 -6.951704169576048e-08 0.0 0.0
1.5196177649557472e-08 -1.3007757264477741e-08 6.565261155239176e-10 -7.263420634182048e-08 0.0 0.0
1.695225156831326e-08 3.117164646058857e-09 6.020824864311637e-09 -7.910339050453731e-08 0.0 0.0
1.2468658584251253e-08 6.268490000575739e-08 2.2546067577002593e-08 -6.809456844546148e-08 0.0 0.0
3.285032502430644e-08 1.616255206594335e-07 5.834275370512199e-08 -4.361361699140919e-08 0.0 0.0
2.7680849065892132e-08 1.3404875500209505e-07 4.8518881220396164e-08 4.3085193532570963e-08 0.0 0.0
1.8873791418626655e-08 6.481994428388394e-08 2.510812071075318e-08 7.074469215568071e-08 0.0 0.0
2.8940525189989326e-08 1.0451041741425035e-08 1.1817470079424311e-08 8.933025259676235e-08 0.0 0.0
3.614629962866244e-08 -6.469184162718424e-09 8.903134639783202e-09 8.603160918705879e-08 0.0 0.0
3.912468639664585e-08 -4.216712449298896e-09 1.0472392184204085e-08 8.038441707141772e-08 0.0 0.0
3.924745144264078e-08 -5.140119099581602e-09 1.0232199702917753e-08 7.605027718682308e-08 0.0 0.0
4.357091610584285e-08 1.1048854139301573e-09 1.3402740455931904e-08 7.071266649150853e-08 0.0 0.0
4.765418828775674e-08 1.878838964750373e-09 1.4859908175752136e-08 6.601556907963605e-08 0.0 0.0
5.3151927303929336e-08 3.3093186310883883e-10 1.6044857750111457e-08 6.392322568707377e-08 0.0 0.0
5.833474728907277e-08 -3.30398102041222e-09 1.6509229880598166e-08 6.29411053191363e-08 0.0 0.0
6.475055534485085e-08 4.216712449449436e-10 1.955166797693875e-08 5.995204332975877e-08 0.0 0.0
6.854025893851522e-08 5.817995657847916e-10 2.0736617551290007e-08 5.4187423778819306e-08 0.0 0.0
7.245272757818363e-08 3.234592081362964e-09 2.2706195897863978e-08 4.8636308655696104e-08 0.0 0.0
7.686693162320446e-08 1.1470525384222377e-08 2.650123710222805e-08 4.3683005930443855e-08 0.0 0.0
7.734197897508435e-08 5.817995657881237e-09 2.4947992389889663e-08 3.8345395235132535e-08 0.0 0.0
8.131849894309365e-08 2.642117294172384e-09 2.518818487117981e-08 3.3947204022194234e-08 0.0 0.0
8.593553219455498e-08 2.6688053476830325e-09 2.65813012626714e-08 2.41687012283788e-08 0.0 0.0
8.419013349716859e-08 -5.887384596947495e-09 2.349082467006633e-08 1.3450778952189334e-08 0.0 0.0
8.524164280414993e-08 -2.508677026802403e-09 2.481988973320427e-08 6.704039033312495e-09 0.0 0.0
8.450505252820106e-08 -3.8003788150589315e-09 2.4211402113942637e-08 1.110223024626038e-09 0.0 0.0
8.374177419876564e-08 -6.079538581972554e-09 2.3298670685037926e-08 -2.3058478203736673e-09 0.0 0.0
8.56579764383853e-08 5.978123978684076e-10 2.5876736650876117e-08 -9.56499836600334e-09 0.0 0.0
8.399264190144534e-08 1.8361380791762368e-09 2.5748633994186476e-08 -2.036832241331631e-08 0.0 0.0
8.192698656237344e-08 1.926877461031206e-09 2.5156159207021395e-08 -2.489461628294321e-08 0.0 0.0
7.752879534942015e-08 -9.340818716908885e-10 2.297841404331879e-08 -2.7969080043442615e-08 0.0 0.0
7.523362275042927e-08 2.9623739358728396e-09 2.3458799005890645e-08 -3.5356333245753996e-08 0.0 0.0
7.216983421132698e-08 1.6493217048423757e-09 2.21457467748508e-08 -4.261548379138159e-08 0.0 0.0
6.70083646689654e-08 -3.4907973947277166e-09 1.905527018227132e-08 -4.846550511344453e-08 0.0 0.0
6.55458593384381e-08 3.202566417169166e-09 2.0624527726682184e-08 -5.209508038625796e-08 0.0 0.0
5.8398798617431155e-08 -2.300510209658937e-09 1.682948652233167e-08 -5.4059321122137394e-08 0.0 0.0
5.706973355429411e-08 5.914072650417937e-09 1.8895141861413618e-08 -5.581005743019843e-08 0.0 0.0
4.971984362684143e-08 -1.6279712620739208e-09 1.442756170943025e-08 -5.86283158773176e-08 0.0 0.0
4.533766524599635e-08 -2.5300274695638987e-09 1.2842291332929736e-08 -6.341081506032094e-08 0.0 0.0
3.926880188541742e-08 -7.083009392686496e-09 9.65573774781928e-09 -6.62290735074465e-08 0.0 0.0
3.5094790321685634e-08 -6.431820887852803e-09 8.598890830149848e-09 -6.633582572135599e-08 0.0 0.0
3.234592081360112e-08 -5.657867337026257e-09 8.00641604297246e-09 -6.778765583048219e-08 0.0 0.0
3.1198334514105343e-08 -8.833745700743968e-09 6.709376644008414e-09 -7.075536737707421e-08 0.0 0.0
2.994399600070923e-08 -1.083534971148019e-08 5.7325938867687105e-09 -7.419278866485182e-08 0.0 0.0
2.4633073358867302e-08 5.310922641829738e-09 8.983198800209114e-09 -7.85803046563967e-08 0.0 0.0
1.637578961322036e-08 5.813725569335273e-08 2.2353913591971926e-08 -6.414340212825738e-08 0.0 0.0
2.6343777586716458e-08 1.2793985956131056e-07 4.6285091144408106e-08 -3.927680830146809e-08 0.0 0.0
2.1550603182327774e-08 1.020951485746038e-07 3.7093725527079476e-08 3.850285475064243e-08 0.0 0.0
2.1990956064691252e-08 5.743269108157031e-08 2.3827094143878468e-08 6.543243511117198e-08 0.0 0.0
3.682951379766135e-08 1.1635991315781856e-08 1.4539651534032963e-08 8.612768617957411e-08 0.0 0.0
5.089945559050679e-08 -4.78249918300092e-09 1.3835086922251758e-08 8.467585607044911e-08 0.0 0.0
6.206573716510048e-08 -2.925010661034482e-09 1.7742217951219794e-08 7.918879227566699e-08 0.0 0.0
6.920746027543248e-08 -5.476388573386654e-09 1.911932151061375e-08 7.468384884882361e-08 0.0 0.0
7.976525423075996e-08 5.12410626748065e-10 2.4083299457252414e-08 6.874842575563523e-08 0.0 0.0
8.92128251614671e-08 1.6333088727679055e-09 2.7253840210270505e-08 6.405132834375993e-08 0.0 0.0
1.0081679081307492e-07 1.2383256813095487e-09 3.061653494831535e-08 6.225789115013154e-08 0.0 0.0
1.1125715733310591e-07 -2.5834035765380397e-09 3.260212612697037e-08 6.089146281213397e-08 0.0 0.0
1.226582937783042e-07 1.8147876364208037e-09 3.734192442441752e-08 5.7304588424883105e-08 0.0 0.0
1.304085045078932e-07 2.562053133760412e-10 3.9199412946380785e-08 5.256479012744459e-08 0.0 0.0
1.3882057896371176e-07 3.3733699594481726e-09 4.265818467694798e-08 4.739798297438388e-08 0.0 0.0
1.463039091585334e-07 9.020562075072351e-09 4.659734137008173e-08 4.218847493575604e-08 0.0 0.0
1.5246351190092431e-07 8.732331097525355e-09 4.835875289953492e-08 3.76621810661321e-08 0.0 0.0
1.5733141285506235e-07 3.010412432177145e-09 4.810254758617184e-08 3.236727125637846e-08 0.0 0.0
1.6405146472045688e-07 2.962373935909004e-09 5.01041515969098e-08 2.301577731818806e-08 0.0 0.0
1.6609576961674818e-07 -2.0176168428495254e-09 4.92234458321696e-08 1.3792386036688325e-08 0.0 0.0
1.6666689396116603e-07 -2.7488695080640366e-09 4.917540733593062e-08 6.575936376624809e-09 0.0 0.0
1.6630393643387212e-07 -3.880442975499419e-09 4.8727048037511806e-08 1.1102230246240163e-09 0.0 0.0
1.672059926413808e-07 -5.657867337050153e-10 4.9992061772302756e-08 -1.750736308063286e-09 0.0 0.0
1.6486278154613287e-07 -2.5460403016804105e-09 4.8695022373335715e-08 -9.266092167062427e-09 0.0 0.0
1.6351236604023962e-07 7.79291161547387e-10 4.928749716053611e-08 -1.998401444325436e-08 0.0 0.0
1.586925035823564e-07 -1.2863641775742371e-09 4.7221841821434655e-08 -2.3912495915002595e-08 0.0 0.0
1.549294880421631e-07 2.9570363252029724e-09 4.736595731020983e-08 -2.741396853112759e-08 0.0 0.0
1.492449326516583e-07 4.424879266422826e-09 4.610094357542433e-08 -3.4416913763380687e-08 0.0 0.0
1.4208185909853755e-07 3.789703593529565e-10 4.273824883736715e-08 -4.14198589956306e-08 0.0 0.0
1.3481203333152755e-07 -7.846287722100995e-10 4.020822136779523e-08 -4.701367500431948e-08 0.0 0.0
1.2885525979555403e-07 4.958640335937766e-09 4.014417003944753e-08 -5.0515147620443795e-08 0.0 0.0
1.1735804635785803e-07 -9.447570930577563e-10 3.4923986779440086e-08 -5.2436687470758655e-08 0.0 0.0
1.10285712186567e-07 3.832404479244257e-09 3.423543499974339e-08 -5.388851757988345e-08 0.0 0.0
9.868174653495016e-08 -2.604754019315703e-09 2.8823097754690336e-08 -5.6749476912569045e-08 0.0 0.0
8.89726326801833e-08 -3.837742089915201e-09 2.5540467177080432e-08 -6.166007875225775e-08 0.0 0.0
7.885252280185848e-08 -5.246871313503949e-09 2.2081695446506355e-08 -6.413673011488304e-08 0.0 0.0
6.887119080163059e-08 -5.62050406215677e-09 1.8975206021842143e-08 -6.426483277157412e-08 0.0 0.0
6.018689820035215e-08 -4.462242541282939e-09 1.671739669772077e-08 -6.659203103473108e-08 0.0 0.0
5.182819985149144e-08 -9.020562075080361e-09 1.2842291332923326e-08 -7.009350365085447e-08 0.0 0.0
4.367233070905266e-08 -9.831878900768204e-09 1.0152135542485334e-08 -7.362700193114899e-08 0.0 0.0
3.221248054621518e-08 7.33921470605538e-09 1.1865508575681172e-08 -7.584744798039597e-08 0.0 0.0
1.9829223733089258e-08 5.2175144546687646e-08 2.160131048393307e-08 -5.956373215167734e-08 0.0 0.0
2.1238352956652303e-08 9.83775027253191e-08 3.5884756704591435e-08 -3.5134822401904156e-08 0.0 0.0
1.759543365710044e-08 7.493204774615565e-08 2.775824442097683e-08 3.357090246816943e-08 0.0 0.0
2.501204371823638e-08 4.982125823005137e-08 2.2449990584486323e-08 5.9438298300334856e-08 0.0 0.0
4.4174066114411066e-08 1.1977598400280316e-08 1.6845499354407416e-08 8.109431929389361e-08 0.0 0.0
6.53750557961968e-08 -3.4587717305620044e-09 1.857488521969044e-08 8.176152063080707e-08 0.0 0.0
8.437694987151024e-08 -2.391249591504392e-09 2.459571008400176e-08 7.656268781357136e-08 0.0 0.0
9.971724300984087e-08 -2.892984996863183e-09 2.904727740389331e-08 7.128912844660032e-08 0.0 0.0
1.1431027065082634e-07 -3.7149770439414354e-09 3.317858808206547e-08 6.481994428388365e-08 0.0 0.0
1.3218059125873446e-07 2.967711546590354e-09 4.0544490841597464e-08 6.076336015544543e-08 0.0 0.0
1.4796924369547374e-07 9.500947037665322e-10 4.467580151977208e-08 5.9226128275192314e-08 0.0 0.0
1.6336291294076236e-07 -2.7008310118195544e-09 4.819862457868285e-08 5.734728931044534e-08 0.0 0.0
1.7877793262882393e-07 -1.4625053305133971e-09 5.3194628189493176e-08 5.4827937062254066e-08 0.0 0.0
1.9366986646874735e-07 2.9677115465959623e-09 5.8991273404603e-08 4.974653168031739e-08 0.0 0.0
2.0369389935454242e-07 -5.444362909266177e-10 6.094483891908475e-08 4.4964032497320845e-08 0.0 0.0
2.1688847299335402e-07 8.038441707130066e-09 6.747807441014523e-08 4.035233685656938e-08 0.0 0.0
2.2553540231976888e-07 6.8641673541779725e-09 6.971987090218404e-08 3.561253855913047e-08 0.0 0.0
2.3506837502160049e-07 7.045646117825087e-09 7.263420634182771e-08 3.048843229162836e-08 0.0 0.0
2.4192720476507633e-07 1.2009624064535332e-09 7.293845015145893e-08 2.246066580587861e-08 0.0 0.0
2.4657626368067946e-07 -1.6866849797445053e-09 7.346687361028047e-08 1.3109171867691525e-08 0.0 0.0
2.500296978005645e-07 1.7453986973840142e-09 7.553252894938457e-08 6.191628406563302e-09 0.0 0.0
2.48802047340634e-07 -2.6848181797466747e-09 7.383516874826618e-08 1.5372318802510032e-09 0.0 0.0
2.520206265899106e-07 8.454775341375691e-09 7.814262057938587e-08 -2.1350442781263434e-09 0.0 0.0
2.4535395083147406e-07 -3.1865535850801493e-09 7.265021917391814e-08 -9.266092167062674e-09 0.0 0.0
2.4293067557580927e-07 -1.2970393989229316e-09 7.24900908530659e-08 -1.8446782563003255e-08 0.0 0.0
2.3838303126338027e-07 2.610091629996333e-09 7.2297936868013e-08 -2.2844973775939313e-08 0.0 0.0
2.2904221254658673e-07 -1.3931163914768645e-09 6.829472884653297e-08 -2.5577830451940343e-08 0.0 0.0
2.2465469655504023e-07 8.438762509293487e-09 6.992803771930014e-08 -3.2751579226445625e-08 0.0 0.0
2.1151883663387204e-07 -2.070992949783978e-09 6.28343531052264e-08 -3.932751560306788e-08 0.0 0.0
2.034643820946486e-07 3.261280134841527e-09 6.201769866884704e-08 -4.475052806950544e-08 0.0 0.0
1.902644708451425e-07 1.996266400061093e-09 5.767822117356107e-08 -4.795309448669633e-08 0.0 0.0
1.7771041048975474e-07 3.4480965091597843e-09 5.434755209967437e-08 -4.970383079475725e-08 0.0 0.0
1.623701173514354e-07 -1.1742743529566538e-09 4.8358752899543627e-08 -5.089945559050731e-08 0.0 0.0
1.4786249148155558e-07 -2.9997372107946766e-09 4.3458826281228276e-08 -5.367501315206731e-08 0.0 0.0
1.32644963389237e-07 -5.1294438781773335e-09 3.825465585331792e-08 -5.837211056394312e-08 0.0 0.0
1.1774235432790808e-07 -5.172144763772727e-09 3.3771062869240614e-08 -6.05498557276317e-08 0.0 0.0
1.0212450543343237e-07 -5.033366885670363e-09 2.91273415643286e-08 -6.082741148379273e-08 0.0 0.0
8.725392203628458e-08 -4.574332365885604e-09 2.4803876901119702e-08 -6.398727701541713e-08 0.0 0.0
7.31252665257922e-08 -6.725389476093624e-09 1.991996311490957e-08 -6.774495494491478e-08 0.0 0.0
5.7080408775681085e-08 -8.721655876140324e-09 1.4507625869862233e-08 -7.125710278242996e-08 0.0 0.0
3.9348866045852766e-08 7.835612500727115e-09 1.4155343563973955e-08 -7.153465853858279e-08 0.0 0.0
2.2604781294651458e-08 4.5129498428873024e-08 2.0320283917057343e-08 -5.422879026170892e-08 0.0 0.0
1.7584758435708637e-08 7.291443090332545e-08 2.7149756801710223e-08 -3.095547322747443e-08 0.0 0.0
1.4635728526549322e-08 5.20844051648674e-08 2.0016040107425015e-08 2.8428114563235258e-08 0.0 0.0
2.7958404822050975e-08 4.217779971436516e-08 2.1040861360924847e-08 5.218048215738108e-08 0.0 0.0
5.131578922474198e-08 1.0280238199174095e-08 1.8478808227174823e-08 7.448635725309479e-08 0.0 0.0
8.003213476552709e-08 -1.5692575444211292e-09 2.35388631663318e-08 7.678686746277415e-08 0.0 0.0
1.0573806787415474e-07 -2.5086770267992902e-09 3.0968817254206633e-08 7.171613730222765e-08 0.0 0.0
1.2893532395598234e-07 -2.327198263166168e-09 3.7982437707844846e-08 6.610097085075474e-08 0.0 0.0
1.5105438267736794e-07 -3.095814203274413e-09 4.438757054222806e-08 5.997339377253923e-08 0.0 0.0
1.744971688511781e-07 2.0709929497740037e-09 5.297044854028564e-08 5.581005743019414e-08 0.0 0.0
1.9640272314474294e-07 3.650925715586473e-09 6.001609465809884e-08 5.414472289325598e-08 0.0 0.0
2.1701657565004287e-07 -2.0282920643026713e-10 6.504412393308377e-08 5.290639721194287e-08 0.0 0.0
2.349722980290805e-07 -4.707772633265277e-09 6.907935761874458e-08 5.119836178944402e-08 0.0 0.0
2.560131593899949e-07 3.821729257823765e-09 7.795046659434559e-08 4.556184489519268e-08 0.0 0.0
2.696347418844394e-07 -2.5407026909805253e-09 8.01282117580377e-08 4.163336342344243e-08 0.0 0.0
2.8813490055440166e-07 8.315997463299426e-09 8.893526940531031e-08 3.706436866825368e-08 0.0 0.0
2.986179679599948e-07 4.024558464264796e-09 9.079275792727786e-08 3.3306690738754994e-08 0.0 0.0
3.130401920587276e-07 1.0205511649429248e-08 9.69737111124471e-08 2.818258447125307e-08 0.0 0.0
3.2027799216158946e-07 6.191628406878209e-10 9.626914650068319e-08 2.0581826841127936e-08 0.0 0.0
3.251192050622081e-07 -6.09021380339071e-09 9.570869737764522e-08 1.1913547071938721e-08 0.0 0.0
3.3300285605920126e-07 4.120635456777178e-09 1.0113704745479355e-07 5.721918665375453e-09 0.0 0.0
3.2942665689333934e-07 -5.220183260027637e-09 9.726194208999352e-08 1.0675221390622494e-09 0.0 0.0
3.370220769127755e-07 1.755540157688736e-08 1.0637324354689882e-07 -2.4339504770625277e-09 0.0 0.0
3.26966018362802e-07 -3.3466819059642572e-09 9.708580093705131e-08 -8.155869142438402e-09 0.0 0.0
3.244733541680974e-07 1.4411548877458036e-09 9.777435271675293e-08 -1.7037653339438622e-08 0.0 0.0
3.1862333284602344e-07 7.71818506541044e-09 9.790245537343018e-08 -2.147854543794027e-08 0.0 0.0
3.046281176029166e-07 -3.159865531627532e-09 9.044047562138674e-08 -2.3143879974879355e-08 0.0 0.0
2.983884507000982e-07 7.830274890026809e-09 9.186561767703752e-08 -3.001872255044173e-08 0.0 0.0
2.8154295134569016e-07 -3.2933057990039252e-09 8.347489366400588e-08 -3.6295752728128166e-08 0.0 0.0
2.7094245650479996e-07 4.8518881220479865e-09 8.273830338805436e-08 -4.163336342344257e-08 0.0 0.0
2.5230351995676496e-07 -2.0816681711228293e-10 7.562860594189579e-08 -4.423811744275643e-08 0.0 0.0
2.3737422284196428e-07 5.593816008671296e-09 7.28904116551907e-08 -4.560454578075536e-08 0.0 0.0
2.1457194995159217e-07 -6.618637262189467e-09 6.238599380682079e-08 -4.7099076775444325e-08 0.0 0.0
1.9847371609452653e-07 -3.4160708450233724e-10 5.9439632703007267e-08 -4.931952282469062e-08 0.0 0.0
1.767229525111229e-07 -5.759281940250251e-09 5.128910117126178e-08 -5.388851757988012e-08 0.0 0.0
1.5714459648071329e-07 -3.901793418281398e-09 4.597284091872957e-08 -5.581005743019293e-08 0.0 0.0
1.349721616523904e-07 -5.108093435405667e-09 3.895922046509543e-08 -5.636516894250949e-08 0.0 0.0
1.1540981845406572e-07 -1.2917017882620355e-09 3.423543499974112e-08 -5.9247478717978234e-08 0.0 0.0
9.27089601668977e-08 -7.360565148832987e-09 2.56045185054194e-08 -6.364566993091343e-08 0.0 0.0
7.079273065194093e-08 -6.261017345599194e-09 1.9359513991902517e-08 -6.694431334061552e-08 0.0 0.0
4.596750330803814e-08 6.768090361658654e-09 1.5820678100909033e-08 -6.595685536198029e-08 0.0 0.0
2.5540467177074202e-08 3.845748505973222e-08 1.9199385671041933e-08 -4.782232302465883e-08 0.0 0.0
1.479585684740804e-08 5.117701134666179e-08 1.9791860458220953e-08 -2.6565288430577323e-08 0.0 0.0
1.276489597784098e-08 3.348550069704709e-08 1.3875119002466423e-08 2.3151886390920278e-08 0.0 0.0
3.069126149805054e-08 3.432083677086375e-08 1.9503629480674285e-08 4.4498325964152564e-08 0.0 0.0
5.832940967838254e-08 8.283971799125443e-09 1.9984014443252394e-08 6.574868854486962e-08 0.0 0.0
9.380317035943338e-08 -1.0354964748933918e-09 2.7830302165361993e-08 6.937826381768048e-08 0.0 0.0
1.2640529648641038e-07 -4.3875159915431856e-09 3.6605334148460156e-08 6.458508941329109e-08 0.0 0.0
1.584523111010724e-07 -1.6333088727608091e-09 4.704570066849348e-08 5.946098314578985e-08 0.0 0.0
1.8706190442794755e-07 -3.7683531508939e-09 5.4988065383116125e-08 5.384581669431984e-08 0.0 0.0
2.1684577210779596e-07 1.6760097583279413e-09 6.555653455983717e-08 4.966112990919432e-08 0.0 0.0
2.444839202881234e-07 4.2487381134591e-09 7.461979752047478e-08 4.769688917332116e-08 0.0 0.0
2.7130007642137566e-07 3.0531133177060097e-09 8.230595692172448e-08 4.7056375889878896e-08 0.0 0.0
2.927038953095821e-07 -4.3661655487785684e-09 8.650131892824106e-08 4.492133161175786e-08 0.0 0.0
3.189115638235678e-07 5.401662023639653e-09 9.729396775416221e-08 4.0779345712192566e-08 0.0 0.0
3.375184747074361e-07 -2.882309775499098e-10 1.0116907311896587e-07 3.7576779295005474e-08 0.0 0.0
3.589543192598144e-07 6.458508941324349e-09 1.0962384846034166e-07 3.3007784539816795e-08 0.0 0.0
3.728107566248457e-07 2.63677968347509e-09 1.1263426089249627e-07 2.954901280925419e-08 0.0 0.0
3.898484099642922e-07 9.938631114679478e-09 1.1993611232369153e-07 2.5364326024128302e-08 0.0 0.0
3.981644074275923e-07 -2.1136938353315507e-09 1.188152140776783e-07 1.7421961309502996e-08 0.0 0.0
4.0739847393046863e-07 -2.0603177284140394e-09 1.2160144686061635e-07 1.0589819619500786e-08 0.0 0.0
4.1216496028138604e-07 -1.969578346589024e-09 1.2305861458043911e-07 5.42301246643886e-09 0.0 0.0
4.1251190497658585e-07 -2.7969080043542864e-09 1.229144990916695e-07 5.55111512312285e-10 0.0 0.0
4.175933103585264e-07 1.3045120539341491e-08 1.291915292693604e-07 -2.09234339256046e-09 0.0 0.0
4.086528124438723e-07 -3.474784562662626e-09 1.215534083643629e-07 -6.960244346687539e-09 0.0 0.0
4.046923053079622e-07 1.6599969262568816e-09 1.219056906702657e-07 -1.5628524115878724e-08 0.0 0.0
3.9679797908957626e-07 6.0848761926313574e-09 1.2086485658466232e-07 -1.9172697617565295e-08 0.0 0.0
3.8322443509140513e-07 1.2436632920053445e-09 1.1534042951502312e-07 -2.0282920642188764e-08 0.0 0.0
3.7080915261410933e-07 3.7309898760296654e-09 1.1236204274704168e-07 -2.6261044620940035e-08 0.0 0.0
3.5329111431207873e-07 -8.486801005770361e-10 1.057327302634505e-07 -3.2580775684190833e-08 0.0 0.0
3.37806705684987e-07 4.227387670690938e-09 1.026102280067034e-07 -3.693626601157026e-08 0.0 0.0
3.147962659774981e-07 -2.706168622506001e-09 9.362702920649763e-08 -3.9455618259756805e-08 0.0 0.0
2.9605057721553583e-07 5.36429874875669e-09 9.042446278928777e-08 -4.018153331432067e-08 0.0 0.0
2.6921840825020895e-07 -5.647192115645046e-09 7.90713648403692e-08 -4.1846867851258674e-08 0.0 0.0
2.4755304643794685e-07 -1.756073918726769e-09 7.373909175576602e-08 -4.402461301494301e-08 0.0 0.0
2.2142544208436988e-07 -5.145456710293807e-09 6.488399561222281e-08 -4.805984670059806e-08 0.0 0.0
1.9661622757255647e-07 -2.113693835349043e-09 5.8350760121162234e-08 -5.0152190093160785e-08 0.0 0.0
1.6899409222431322e-07 -2.7275190653048342e-09 4.9879971947702517e-08 -5.028029274985355e-08 0.0 0.0
1.4293053919909834e-07 1.0675221390395603e-11 4.288236432614662e-08 -5.331205562479266e-08 0.0 0.0
1.1230332902938757e-07 -7.2591505456325044e-09 3.151325354512652e-08 -5.756079373825829e-08 0.0 0.0
8.41847958864818e-08 -3.6936266011539616e-09 2.4147350785598356e-08 -6.051783006345951e-08 0.0 0.0
5.2519420436534e-08 4.939958698511058e-09 1.7237813740513517e-08 -5.8687029594965075e-08 0.0 0.0
2.818792208194941e-08 3.153994159860654e-08 1.791835910416679e-08 -4.093280201968531e-08 0.0 0.0
1.2818272084794612e-08 3.353887680400045e-08 1.390714466663852e-08 -2.1902885488222317e-08 0.0 0.0
1.1945572736111173e-08 1.9332825938423956e-08 9.383519602360537e-09 1.800642968063878e-08 0.0 0.0
3.244199780611593e-08 2.659197648405146e-08 1.7710192287050214e-08 3.6395832928668464e-08 0.0 0.0
6.524695313951194e-08 6.490534605502338e-09 2.1521246323504286e-08 5.5874108758541075e-08 0.0 0.0
1.0743542807526606e-07 -1.5372318802500736e-09 3.1769458858504796e-08 5.929017960354455e-08 0.0 0.0
1.475102091756771e-07 -5.102755824716259e-09 4.272223600528824e-08 5.5575202559604206e-08 0.0 0.0
1.8826820444508937e-07 -8.113168256791522e-10 5.6237066285823066e-08 5.0984857361636105e-08 0.0 0.0
2.2293064830044626e-07 -5.476388573399227e-09 6.523627791811409e-08 4.594615286525757e-08 0.0 0.0
2.589381700510313e-07 6.832141689897746e-10 7.78864152660063e-08 4.2060372279070344e-08 0.0 0.0
2.9107058643682583e-07 7.89966382912775e-10 8.755816584592161e-08 4.052314039882129e-08 0.0 0.0
3.238541913274332e-07 3.1278398674462662e-09 9.809460935846386e-08 3.975452445869583e-08 0.0 0.0
3.528907935099271e-07 1.4198044449224575e-09 1.0629317938645486e-07 3.791838637950681e-08 0.0 0.0
3.8304829393845304e-07 7.024295675016747e-09 1.1702177688404094e-07 3.467311907675397e-08 0.0 0.0
4.0467629247587136e-07 -2.989061989336304e-10 1.2131321588308135e-07 3.2025664171881286e-08 0.0 0.0
4.300619689427767e-07 5.7005682225895685e-09 1.3072876114960985e-07 2.8823097754693674e-08 0.0 0.0
4.4672598953353794e-07 -8.219920471013918e-10 1.3377119924593098e-07 2.4681111855131926e-08 0.0 0.0
4.685674924987711e-07 1.3418753288020325e-08 1.4459587373603743e-07 2.1521246323504534e-08 0.0 0.0
4.794989192027698e-07 2.4873265840168937e-09 1.4459587373603597e-07 1.4005890464501752e-08 0.0 0.0
4.904089954639871e-07 3.309318631000767e-10 1.472219781981261e-07 8.967185968128132e-09 0.0 0.0
4.945136180886834e-07 -8.380048791730688e-10 1.4810268396285306e-07 5.038704496374995e-09 0.0 0.0
4.965472477635951e-07 1.9855911786403507e-09 1.4955985168267064e-07 6.832141689989108e-10 0.0 0.0
4.955491145635721e-07 5.817995657743004e-10 1.4883927423880401e-07 -1.6226336513734033e-09 0.0 0.0
4.931632025827764e-07 2.4873265840252205e-09 1.486951587500405e-07 -5.850021322061539e-09 0.0 0.0
4.855090688457011e-07 2.1350442781430157e-09 1.4629323393715325e-07 -1.3279975409941767e-08 0.0 0.0
4.7450825320264273e-07 2.3005102096570404e-09 1.4304262902368997e-07 -1.6226336513750262e-08 0.0 0.0
4.619808809007497e-07 4.7397982974318656e-09 1.4001620375945448e-07 -1.712305511056506e-08 0.0 0.0
4.447030350800252e-07 2.215108438558951e-09 1.3407544305557524e-07 -2.211905872137848e-08 0.0 0.0
4.2683805208280573e-07 5.294909809742318e-09 1.2963988856776442e-07 -2.8011780929003997e-08 0.0 0.0
4.0401976636034707e-07 1.371765948697085e-09 1.2161745969271323e-07 -3.14278517740065e-08 0.0 0.0
3.7846328635119026e-07 -2.7488695080783034e-09 1.1271432505293358e-07 -3.3690998708820404e-08 0.0 0.0
3.543693116725342e-07 3.5174854481918918e-09 1.0736603913621782e-07 -3.403260579332052e-08 0.0 0.0
3.266083984462238e-07 1.868163743371966e-09 9.854296865687872e-08 -3.546308545966364e-08 0.0 0.0
2.9731292214499157e-07 -1.902858212877438e-09 8.862301917963429e-08 -3.7470027081099e-08 0.0 0.0
2.670646823346548e-07 -2.6661365422988213e-09 7.931956373770682e-08 -4.090744836888219e-08 0.0 0.0
2.3541265091144064e-07 -2.0789993658298895e-09 7.000009546368324e-08 -4.2807637776413026e-08 0.0 0.0
2.0305872368180122e-07 -8.166544363869748e-10 6.067262077362427e-08 -4.255143246304289e-08 0.0 0.0
1.6823882031092688e-07 -4.0272272696139635e-09 4.926347791239387e-08 -4.5668597109103975e-08 0.0 0.0
1.3390997712401553e-07 -2.3912495915082162e-09 3.945561825975218e-08 -4.963977946641561e-08 0.0 0.0
9.65467022568272e-08 -3.0317628749349443e-09 2.8054481814567682e-08 -5.2041704279305033e-08 0.0 0.0
5.8999279820643024e-08 3.6909577958045358e-09 1.8807071284934267e-08 -4.986395911561395e-08 0.0 0.0
3.0058754630656745e-08 2.3984553659390466e-08 1.6212992487014165e-08 -3.36042625350228e-08 0.0 0.0
1.2193771633443087e-08 2.0338965554492543e-08 9.75982115638069e-09 -1.7184437633567996e-08 0.0 0.0
1.1708049060169806e-08 9.669081774560265e-09 6.413139250419021e-09 1.2807596863403371e-08 0.0 0.0
3.360559693769234e-08 1.8916492304190783e-08 1.5756626772564937e-08 2.805314741189341e-08 0.0 0.0
7.121440189686943e-08 4.8999266182978214e-09 2.2834298554550178e-08 4.441959620639832e-08 0.0 0.0
1.2063000171407984e-07 -1.4945309946871326e-09 3.57406412158178e-08 4.70884015540564e-08 0.0 0.0
1.7015235374519646e-07 -3.9391566931395675e-09 4.986395911561707e-08 4.4110014786071106e-08 0.0 0.0
2.1814814911745045e-07 -6.938893903967695e-10 6.523627791811611e-08 4.0373687299350666e-08 0.0 0.0
2.600804187398343e-07 -4.195362006515309e-09 7.676551701999568e-08 3.638115449925677e-08 0.0 0.0
3.0137217507876804e-07 -6.511885048458219e-10 9.021629597217667e-08 3.287968188313161e-08 0.0 0.0
3.3839384286147223e-07 -1.3771035593814917e-09 1.0110502179062721e-07 3.2153766828570365e-08 0.0 0.0
3.7667518676825646e-07 2.8289336685158275e-09 1.1385123613103164e-07 3.095814203281459e-08 0.0 0.0
4.10344835034286e-07 -3.095814203418748e-10 1.2301057608418328e-07 3.0915441147255124e-08 0.0 0.0
4.4516740721051747e-07 4.3661655487712876e-09 1.3486007182778664e-07 2.7328566760004213e-08 0.0 0.0
4.7112954563251354e-07 -4.515618648249589e-09 1.3998417809527922e-07 2.5278924253005145e-08 0.0 0.0
5.019062089017036e-07 6.234329292142334e-09 1.5244216145815375e-07 2.344278617381716e-08 0.0 0.0
5.232673269043347e-07 2.7008310118154813e-09 1.5779044737484508e-07 1.9471603816502915e-08 0.0 0.0
5.466567369711975e-07 1.2724863897614918e-08 1.6781448026064373e-07 1.716575599613015e-08 0.0 0.0
5.625414664004583e-07 8.79638242588563e-09 1.7140135464790326e-07 1.0504417848378327e-08 0.0 0.0
5.705692328861979e-07 -4.35549032739201e-09 1.6986412276764172e-07 7.00294523224998e-09 0.0 0.0
5.787090891965622e-07 3.037100485645793e-09 1.745238569046624e-07 3.50147261612466e-09 0.0 0.0
5.813298560479529e-07 7.088347003366326e-09 1.7652546091539584e-07 4.270088556241133e-10 0.0 0.0
5.761790617269654e-07 -5.855358932792338e-09 1.71097110838252e-07 -1.1529239101879917e-09 0.0 0.0
5.765580320863495e-07 4.06725934983663e-09 1.7418758743085594e-07 -4.611695640749788e-09 0.0 0.0
5.66886281506437e-07 2.8502841112899986e-09 1.709209696853181e-07 -1.0717922276190796e-08 0.0 0.0
5.540546653949028e-07 2.231121270633115e-09 1.6688573599966081e-07 -1.2895667439875385e-08 0.0 0.0
5.395737275785193e-07 4.809187236473595e-09 1.6331487444449782e-07 -1.2895667439878043e-08 0.0 0.0
5.190079135694804e-07 8.753681540351095e-10 1.5596498451705464e-07 -1.7848970165127842e-08 0.0 0.0
4.978069238876985e-07 3.501472616134627e-09 1.5039251895114993e-07 -2.2247161378066475e-08 0.0 0.0
4.7174337086248194e-07 1.1155606353228118e-09 1.4185767944934142e-07 -2.4894616282941862e-08 0.0 0.0
4.4191146468637365e-07 -3.3733699594416797e-09 1.3156142841807957e-07 -2.6410497720411162e-08 0.0 0.0
4.137048609669914e-07 3.082470176540783e-09 1.2503619934305964e-07 -2.6645352591006113e-08 0.0 0.0
3.8109739722933435e-07 1.7961059989968926e-09 1.1486805096849938e-07 -2.7712874730068184e-08 0.0 0.0
3.4782273215473085e-07 -2.642117294400435e-10 1.0426755612758726e-07 -2.9570363252034613e-08 0.0 0.0
3.124530548822514e-07 -1.270351345474637e-09 9.335481106103303e-08 -3.2644827012536054e-08 0.0 0.0
2.749136388621081e-07 -1.2543385133998763e-09 8.209779010461249e-08 -3.386180225106689e-08 0.0 0.0
2.3650419229863644e-07 -6.351756727385871e-10 7.076070498776937e-08 -3.360559693769673e-08 0.0 0.0
1.9495623064631608e-07 -4.77716157230788e-09 5.705372072220246e-08 -3.618900051422843e-08 0.0 0.0
1.5445977830097138e-07 -4.163336342430761e-10 4.6213033400018495e-08 -3.9818575787039325e-08 0.0 0.0
1.0907140575338019e-07 -1.812118831055118e-09 3.217778607669753e-08 -4.163336342344343e-08 0.0 0.0
6.48786580015308e-08 2.4286128663640467e-09 2.019218126036846e-08 -3.9492981534619276e-08 0.0 0.0
3.127839867453605e-08 1.718710643890944e-08 1.4539651534033651e-08 -2.5668569833765637e-08 0.0 0.0
1.1852164548943697e-08 1.0859368959615555e-08 6.813460052567775e-09 -1.2457983362867599e-08 0.0 0.0
1.2279173404567674e-08 4.45423612523985e-09 5.020022858942258e-09 8.161206753133373e-09 0.0 0.0
3.313588719650455e-08 1.212705149975198e-08 1.3578881608876959e-08 1.8972537216490982e-08 0.0 0.0
7.626378161463538e-08 4.013883242874764e-09 2.4083299457253042e-08 3.066991105527262e-08 0.0 0.0
1.33952678009581e-07 -1.1529239101902162e-09 3.9839926229817245e-08 3.328534029597441e-08 0.0 0.0
1.9279449831471684e-07 -2.7755575615623115e-09 5.700568222594637e-08 3.080868893335034e-08 0.0 0.0
2.4920236814278476e-07 1.7080354224641753e-10 7.481195150550936e-08 2.7862327829534864e-08 0.0 0.0
2.9684588120914906e-07 -5.519089458959825e-09 8.739803752505677e-08 2.5150821596315788e-08 0.0 0.0
3.453113863225944e-07 1.0995478032317985e-09 1.0392328023774785e-07 2.2887674661500225e-08 0.0 0.0
3.8630423646259743e-07 -2.3165230417749067e-09 1.1519631402624677e-07 2.2033656950256462e-08 0.0 0.0
4.307131574476116e-07 4.515618648241623e-09 1.3056863282875599e-07 2.1350442781251182e-08 0.0 0.0
4.6708363672547645e-07 -5.273559366962598e-09 1.3854302320755415e-07 2.1563947209066793e-08 0.0 0.0
5.074786744676081e-07 1.3023770096670465e-09 1.5263431544318253e-07 1.9044594960878482e-08 0.0 0.0
5.386076200426685e-07 -6.341081506035348e-09 1.5967996156098995e-07 1.7678166622876763e-08 0.0 0.0
5.729604824777062e-07 3.5014726161285106e-09 1.7293858652815042e-07 1.605553297150347e-08 0.0 0.0
5.990186978922292e-07 2.9570363252134676e-09 1.8059272026523283e-07 1.3322676295500386e-08 0.0 0.0
6.258562044682607e-07 1.3482804616361262e-08 1.9180170272538664e-07 1.1529239101880104e-08 0.0 0.0
6.406307108728814e-07 1.270351345474644e-09 1.9257031866550685e-07 7.515355859002986e-09 0.0 0.0
6.517649667833188e-07 -7.622108072886158e-09 1.9324285761312976e-07 4.526293869627289e-09 0.0 0.0
6.597660452155827e-07 -1.265013734794956e-09 1.9755030944423638e-07 2.6474549048751716e-09 0.0 0.0
6.654345877740142e-07 8.9725235788339e-09 2.0232213340585444e-07 -1.708035422521108e-10 0.0 0.0
6.59456463795244e-07 -7.2538129349623006e-09 1.9566079525808453e-07 -2.562053133753989e-10 0.0 0.0
6.598247589332403e-07 3.6402504942197114e-09 1.9903950282823796e-07 -3.287968188310847e-09 0.0 0.0
6.484342977094188e-07 1.686684979680609e-09 1.9503629480672983e-07 -7.515355859001722e-09 0.0 0.0
6.337238426331538e-07 1.2383256813179851e-09 1.9048865049434156e-07 -8.796382425876348e-09 0.0 0.0
6.173907539055015e-07 4.9746531680501705e-09 1.867096221220655e-07 -8.83908331144075e-09 0.0 0.0
5.953464217338496e-07 2.3592239273271164e-09 1.7931169369835308e-07 -1.251135946981405e-08 0.0 0.0
5.683594620583441e-07 -1.398454002175075e-09 1.700883024168507e-07 -1.4988010832439593e-08 0.0 0.0
5.394589689485745e-07 -1.2009624064075988e-10 1.6180166181238008e-07 -1.7336559538378542e-08 0.0 0.0
5.056158483349317e-07 -3.400058012931532e-09 1.5066473709660012e-07 -1.8062474592941233e-08 0.0 0.0
4.721410228592757e-07 7.979727989358648e-10 1.4188169869746351e-07 -1.8489483448566182e-08 0.0 0.0
4.3554102632152376e-07 7.285838599231003e-10 1.3088088305443406e-07 -1.9279449831472347e-08 0.0 0.0
3.974811932585823e-07 -1.4304796663544074e-09 1.1881521407766836e-07 -2.013346754272016e-08 0.0 0.0
3.563282147977214e-07 -3.939156693142662e-09 1.057167174313736e-07 -2.2716871119253173e-08 0.0 0.0
3.1397694273576006e-07 -1.5932767925471175e-09 9.371509978296388e-08 -2.360291449467466e-08 0.0 0.0
2.696614299379228e-07 -1.5532447123325596e-09 8.043245556767709e-08 -2.3261307410179355e-08 0.0 0.0
2.2278119520098123e-07 -3.832404479243975e-09 6.568463721652118e-08 -2.5225548146053747e-08 0.0 0.0
1.7408350402229315e-07 -1.2783577615292798e-09 5.1841543878229156e-08 -2.7894353493707832e-08 0.0 0.0
1.2149336024404798e-07 -6.365100754122816e-10 3.625705505059071e-08 -2.9260781831707315e-08 0.0 0.0
6.974522455298472e-08 1.0982134005622786e-09 2.1253031386064103e-08 -2.7488695080859232e-08 0.0 0.0
3.144386460608955e-08 1.1523901491179741e-08 1.289032982918079e-08 -1.7352572370465906e-08 0.0 0.0
1.1566602376743553e-08 5.1401190995864196e-09 5.012016442898992e-09 -7.985065600193831e-09 0.0 0.0
1.0910076261221213e-08 2.967711546595905e-09 4.163336342345136e-09 4.9853283894168735e-09 0.0 0.0
3.074463760500254e-08 7.259150545624698e-09 1.140113644518817e-08 9.218053670802625e-09 0.0 0.0
8.011753653665024e-08 3.4694469519525475e-09 2.5076095046580836e-08 1.5308267474158538e-08 0.0 0.0
1.4732873041203577e-07 -5.444362909232771e-10 4.403528823633374e-08 1.667469581215542e-08 0.0 0.0
2.159810791751568e-07 -1.622633651373374e-09 6.430753365713503e-08 1.5308267474157367e-08 0.0 0.0
2.801391597328201e-07 -2.348548705942408e-10 8.39712914586678e-08 1.3941839136154652e-08 0.0 0.0
3.3516992600149597e-07 -5.1988328172454944e-09 9.899132795527514e-08 1.2361906370347565e-08 0.0 0.0
3.889303409246959e-07 1.2490009026979385e-09 1.1705380254821815e-07 1.1614640872997549e-08 0.0 0.0
4.3546363096643166e-07 -7.686159401387222e-10 1.3040850450788793e-07 1.0974127589562976e-08 0.0 0.0
4.83843734308757e-07 3.3733699594405733e-09 1.4616513128045926e-07 1.0846024932876091e-08 0.0 0.0
5.266086711996056e-07 -4.1633363423452155e-09 1.567336004571781e-07 1.0333614306124898e-08 0.0 0.0
5.714873019257935e-07 9.180690395820316e-10 1.7172161128961263e-07 9.607699251564106e-09 0.0 0.0
6.081353369598224e-07 -3.3840451808240164e-09 1.8142538753369952e-07 8.83908331143522e-09 0.0 0.0
6.441642091531876e-07 8.326672684727051e-10 1.9349906292649815e-07 7.643458515684886e-09 0.0 0.0
6.747914193228932e-07 1.270351345484944e-09 2.0281853120051353e-07 6.6613381477512635e-09 0.0 0.0
7.026964480379948e-07 3.4694469519669454e-09 2.1184976849698857e-07 5.294909809750664e-09 0.0 0.0
7.232142235507718e-07 1.5265566588602557e-09 2.1742223406288966e-07 4.440892098498108e-09 0.0 0.0
7.347114369884842e-07 -6.234329292108888e-09 2.1854313230891255e-07 2.305847820374974e-09 0.0 0.0
7.434064048111402e-07 -1.531894269561129e-09 2.225623531624737e-07 1.4518301091256798e-09 0.0 0.0
7.478846601845231e-07 4.291438999056428e-09 2.256528297550739e-07 2.135044278131179e-10 0.0 0.0
7.448955981951277e-07 -3.821729257869069e-09 2.2232216068117757e-07 2.562053133758315e-10 0.0 0.0
7.430274344517872e-07 2.209770827883776e-09 2.2357116158390127e-07 -1.7507363080605638e-09 0.0 0.0
7.312153019830363e-07 1.0515093069480423e-09 2.1968004338699531e-07 -3.6722761583753866e-09 0.0 0.0
7.130674256189743e-07 -8.700305433579261e-10 2.1365921852268494e-07 -4.184686785122745e-09 0.0 0.0
6.945299036741713e-07 1.921539850337499e-09 2.0893543305735265e-07 -4.568994755187584e-09 0.0 0.0
6.70830912186974e-07 -4.270088556142901e-10 2.0112117099940795e-07 -6.148927520998956e-09 0.0 0.0
6.415968184087308e-07 -1.2436632920253747e-09 1.9210594653501163e-07 -7.579407187343776e-09 0.0 0.0
6.069610626068542e-07 -2.4232752556672217e-09 1.813613362053561e-07 -8.604228440845807e-09 0.0 0.0
5.694696850829644e-07 -3.3626947380648078e-09 1.6983209710346988e-07 -8.967185968125985e-09 0.0 0.0
5.309694991376687e-07 -1.3183898417625243e-09 1.5889533278877188e-07 -9.394194823751354e-09 0.0 0.0
4.918448127410359e-07 2.8983226075659547e-09 1.484229406045806e-07 -9.372844380969596e-09 0.0 0.0
4.4841267451326103e-07 -5.871371764959934e-10 1.343476612010295e-07 -1.0066733771357377e-08 0.0 0.0
4.015177613469149e-07 -4.0926130006375045e-09 1.1922754450388325e-07 -1.1347760338233426e-08 0.0 0.0
3.5311096995112163e-07 -2.389915188825924e-09 1.0521631642868874e-07 -1.1732068308293891e-08 0.0 0.0
3.0390487135370704e-07 -5.417674855660634e-10 9.10089311604423e-08 -1.1571939987441024e-08 0.0 0.0
2.510011429471017e-07 -2.9623739359098745e-09 7.441163070335755e-08 -1.2660812569284474e-08 0.0 0.0
1.9449853052919515e-07 -1.5572479203531724e-09 5.7882384782652605e-08 -1.3813736479469735e-08 0.0 0.0
1.3316271162667555e-07 -1.003470810717582e-09 3.9647772244787385e-08 -1.4475600205686547e-08 0.0 0.0
7.376978301725181e-08 1.2369912786420465e-09 2.2502032288768152e-08 -1.3450778952183195e-08 0.0 0.0
2.9647758607116342e-08 6.728058281439632e-09 1.0912745066566794e-08 -8.686961406622649e-09 0.0 0.0
1.0733935108274926e-08 3.4107332343050602e-09 4.2434005027739955e-09 -4.673078163749467e-09 0.0 0.0
5.049379717768529e-09 1.2490009027054685e-09 1.889514186142199e-09 3.410733234293874e-09 0.0 0.0
2.4392880877582157e-08 3.2559425241397746e-09 8.29464702051658e-09 3.78169717762283e-09 0.0 0.0
8.166544363829288e-08 3.522823058907526e-09 2.5556480009160127e-08 5.631179283553871e-09 0.0 0.0
1.6176162973216124e-07 2.9570363252016236e-09 4.941559981720886e-08 6.0528505284743e-09 0.0 0.0
2.4289331230092595e-07 5.519089458960155e-09 7.452372052796584e-08 5.273559366964845e-09 0.0 0.0
3.1577304873473323e-07 7.472654973439486e-09 9.697371111245179e-08 5.4016620236474956e-09 0.0 0.0
3.792158894592201e-07 7.33387709534742e-09 1.1596492996637027e-07 4.6330460835320705e-09 0.0 0.0
4.377267779012402e-07 1.1913547071924722e-08 1.3489209749194945e-07 4.398191212935813e-09 0.0 0.0
4.904196706853782e-07 1.30237700965578e-08 1.510330322345808e-07 4.483592984059548e-09 0.0 0.0
5.424186740791246e-07 1.578865243673529e-08 1.6746219795475798e-07 4.31278944181029e-09 0.0 0.0
5.934248818835384e-07 1.324794974577272e-08 1.8200184948879338e-07 3.2879681883086847e-09 0.0 0.0
6.434596445413958e-07 1.7123055110549653e-08 1.9817480989558364e-07 3.8430797006228974e-09 0.0 0.0
6.853598884996087e-07 1.6535917934072223e-08 2.1056874193010433e-07 3.330669073871208e-09 0.0 0.0
7.24687404102689e-07 1.7774243615412634e-08 2.2273849431543045e-07 2.946361103808531e-09 0.0 0.0
7.616343453356264e-07 2.3848444586628376e-08 2.3564483697667643e-07 2.476651362628219e-09 0.0 0.0
7.884932023544748e-07 1.1934897514765799e-08 2.4012842996077225e-07 1.793437193622671e-09 0.0 0.0
8.186400275615922e-07 2.8759046426365324e-08 2.5421972219638724e-07 2.6474549048748383e-09 0.0 0.0
8.271802046740793e-07 1.6802798468830745e-08 2.53194900942873e-07 7.686159401214561e-10 0.0 0.0
8.377913747363735e-07 2.1350442781268434e-08 2.577425452552926e-07 5.978123978742744e-10 0.0 0.0
8.414689885054533e-07 2.487860345088866e-08 2.599042775869026e-07 3.4160708449746685e-10 0.0 0.0
8.383945247449239e-07 1.770485467631967e-08 2.5682981382637314e-07 -2.562053133764436e-10 0.0 0.0
8.376952977438683e-07 2.3261307410214345e-08 2.582869815462248e-07 -5.978123978723157e-10 0.0 0.0
8.23940274982024e-07 2.1270378620810146e-08 2.535631960808503e-07 -1.024821253500401e-09 0.0 0.0
8.026111826435342e-07 2.1889541461428036e-08 2.473502172314887e-07 -1.366428337997676e-09 0.0 0.0
7.806896155179104e-07 1.835070557049752e-08 2.397120963265224e-07 -2.6474549048746067e-09 0.0 0.0
7.548262228937716e-07 1.312251589444066e-08 2.3038462163646364e-07 -1.964240735874432e-09 0.0 0.0
7.243858290983857e-07 1.9597037667823674e-08 2.2319486002986278e-07 -2.6047540193099856e-09 0.0 0.0
6.838653575049206e-07 1.5895404650632424e-08 2.099282286466659e-07 -3.3306690738728557e-09 0.0 0.0
6.395605199284789e-07 1.1547920739313292e-08 1.9533253220033763e-07 -3.0317628749350204e-09 0.0 0.0
5.983835222194766e-07 1.6349101559728717e-08 1.8441978713376167e-07 -3.757677929496865e-09 0.0 0.0
5.532233325291232e-07 1.5539119136757786e-08 1.7062873549976432e-07 -3.2879681883098063e-09 0.0 0.0
5.056812340659432e-07 1.3708318668209596e-08 1.5581686582024578e-07 -3.779028372277273e-09 0.0 0.0
4.5325388741391687e-07 9.783840404514306e-09 1.3891131834552934e-07 -4.291438999026888e-09 0.0 0.0
3.969354225649885e-07 8.095821022112484e-09 1.215093730761303e-07 -4.227387670682206e-09 0.0 0.0
3.4248111825141104e-07 1.0134788307737614e-08 1.0578477196774457e-07 -4.504943426842456e-09 0.0 0.0
2.8338175823021944e-07 5.302916225782848e-09 8.66054023368007e-08 -4.910601839685951e-09 0.0 0.0
2.1839367920943794e-07 4.2914389990342595e-09 6.680553546254165e-08 -4.953302725246403e-09 0.0 0.0
1.4615512326040394e-07 1.6366448794494895e-09 4.4337530441956036e-08 -5.038704496370094e-09 0.0 0.0
7.572835254176273e-08 1.7103706271817149e-09 2.3231616950683326e-08 -4.611695640741414e-09 0.0 0.0
2.4383873659533047e-08 3.0080772274770144e-09 8.21758526610302e-09 -3.5948808032907116e-09 0.0 0.0
5.95410473062158e-09 1.758742724104523e-09 2.3138542364178308e-09 -3.09581420328163e-09 0.0 0.0
SCALARS Strain float 6
LOOKUP_TABLE default
-1.0991294679962857e-12 3.764436679043475e-12 0.0 1.1757261830780452e-12 0.0 0.0
-1.07934494675277e-12 -3.985700658404291e-13 0.0 2.970193535567507e-13 0.0 0.0
-9.659070418499566e-13 4.996003610812965e-13 0.0 1.916522496259126e-13 0.0 0.0
-9.535774947444515e-13 3.3972824553532173e-13 0.0 3.0253577421040186e-14 0.0 0.0
-1.1551003209486778e-12 4.729550084902691e-13 0.0 6.078471059823048e-14 0.0 0.0
-1.4098965051001504e-12 5.684341886080703e-13 0.0 5.68989300120282e-14 0.0 0.0
-1.6689080672982478e-12 6.794564910706568e-13 0.0 5.731526364626933e-14 0.0 0.0
-1.9070335588455854e-12 7.727152251390098e-13 0.0 5.828670879282622e-14 0.0 0.0
-2.1399548799649904e-12 8.704148513061146e-13 0.0 5.523359547510755e-14 0.0 0.0
-2.3950633143421397e-12 9.903189379657333e-13 0.0 4.9127368839660104e-14 0.0 0.0
-2.646736996236854e-12 1.0524914273446108e-12 0.0 5.329070518200582e-14 0.0 0.0
-2.8605590118857557e-12 1.1679546219056681e-12 0.0 4.551914400963079e-14 0.0 0.0
-3.0363905834107657e-12 1.2390088954817914e-12 0.0 4.3298697960386135e-14 0.0 0.0
-3.196123921078711e-12 1.3233858453530977e-12 0.0 3.330669073876999e-14 0.0 0.0
-3.3550245914781896e-12 1.3589129821412776e-12 0.0 3.774758283726764e-14 0.0 0.0
-3.513161983548233e-12 1.4477308241112276e-12 0.0 2.442490654177134e-14 0.0 0.0
-3.645000967722465e-12 1.4921397450963974e-12 0.0 1.776356839401644e-14 0.0 0.0
-3.7075897907357095e-12 1.5010215292930735e-12 0.0 1.7763568393975936e-14 0.0 0.0
-3.722022690055838e-12 1.5099033134903765e-12 0.0 2.2204460492971272e-15 0.0 0.0
-3.729377917593992e-12 1.509903313490191e-12 0.0 5.551115123132548e-15 0.0 0.0
-3.742423038133335e-12 1.5365486660811827e-12 0.0 -9.992007221635572e-15 0.0 0.0
-3.734929032717101e-12 1.5187850976871366e-12 0.0 -9.992007221598919e-15 0.0 0.0
-3.677613769070831e-12 1.5010215292931422e-12 0.0 -1.1102230246243866e-14 0.0 0.0
-3.5832448119776935e-12 1.4477308241112946e-12 0.0 -2.109423746788527e-14 0.0 0.0
-3.4913738566899602e-12 1.4299672557171495e-12 0.0 -3.1086244689548155e-14 0.0 0.0
-3.3820168887643847e-12 1.3766765505350673e-12 0.0 -2.220446049251083e-14 0.0 0.0
-3.2365776725384836e-12 1.3322676295502646e-12 0.0 -3.7747582837228993e-14 0.0 0.0
-3.0697666630885635e-12 1.2434497875801862e-12 0.0 -4.496403249734315e-14 0.0 0.0
-2.874367410754539e-12 1.1723955140042206e-12 0.0 -3.7747582837256585e-14 0.0 0.0
-2.67008637422351e-12 1.0702549957386768e-12 0.0 -4.2743586448099905e-14 0.0 0.0
-2.462197112862448e-12 1.0302869668521132e-12 0.0 -4.940492459587653e-14 0.0 0.0
-2.2529200727205916e-12 9.103828801926928e-13 0.0 -5.82867087928115e-14 0.0 0.0
-2.0328183580886596e-12 8.30446822419713e-13 0.0 -4.607425552194199e-14 0.0 0.0
-1.7905121829642176e-12 7.283063041541629e-13 0.0 -5.329070518198327e-14 0.0 0.0
-1.5368262218373786e-12 6.30606677986976e-13 0.0 -5.523359547513606e-14 0.0 0.0
-1.2900791546144487e-12 5.195843755246128e-13 0.0 -5.1070259132834825e-14 0.0 0.0
-1.0810796702287462e-12 4.418687638007606e-13 0.0 -5.6066262743583784e-14 0.0 0.0
-9.287015600989396e-13 3.4194869158460224e-13 0.0 -1.5543122344796702e-14 0.0 0.0
-9.778289289386133e-13 4.829470157119699e-13 0.0 -1.564026685940664e-13 0.0 0.0
-1.2403966742624668e-12 -2.7033930649623486e-13 0.0 -3.5582647939237534e-13 0.0 0.0
-1.393329895904581e-12 3.463063169562022e-12 0.0 -2.306488333660077e-13 0.0 0.0
-7.962727699428744e-13 3.5039679491255535e-12 0.0 8.108227630976303e-13 0.0 0.0
-6.558642517973116e-13 -3.158584505058546e-13 0.0 3.196640001312824e-13 0.0 0.0
-6.611898528685599e-13 3.741451592986547e-13 0.0 1.5085155347093878e-13 0.0 0.0
-8.605963164320936e-13 3.3417713041219146e-13 0.0 1.1331213745080469e-13 0.0 0.0
-1.0292461327665598e-12 4.4297898682541726e-13 0.0 1.494637746901579e-13 0.0 0.0
-1.261039883626581e-12 5.406786129924604e-13 0.0 1.5848433676522292e-13 0.0 0.0
-1.4909254386630258e-12 6.372680161348641e-13 0.0 1.4939438575110453e-13 0.0 0.0
-1.711721042685355e-12 7.283063041540949e-13 0.0 1.4530043834781388e-13 0.0 0.0
-1.9292553665728466e-12 8.282263763703375e-13 0.0 1.45300438347821e-13 0.0 0.0
-2.1500162761256555e-12 9.348077867344313e-13 0.0 1.4863110742169611e-13 0.0 0.0
-2.3624158185242558e-12 9.880984919163205e-13 0.0 1.4183099139585814e-13 0.0 0.0
-2.5568436257117355e-12 1.0991207943789795e-12 0.0 1.1518563880484482e-13 0.0 0.0
-2.7264995816622693e-12 1.1768364061027522e-12 0.0 1.0519363158324391e-13 0.0 0.0
-2.873742910303182e-12 1.2567724638755589e-12 0.0 9.187095528773769e-14 0.0 0.0
-3.0139779561011486e-12 1.2834178164667193e-12 0.0 9.547918011778674e-14 0.0 0.0
-3.1484537199588662e-12 1.3722356584367397e-12 0.0 8.437694987151604e-14 0.0 0.0
-3.254202463054408e-12 1.3988810110277558e-12 0.0 5.6621374255853575e-14 0.0 0.0
-3.3151259515307166e-12 1.4166445794216097e-12 0.0 2.2759572004782482e-14 0.0 0.0
-3.3389957465601575e-12 1.429967255717324e-12 0.0 8.881784197016398e-15 0.0 0.0
-3.35120819983104e-12 1.425526363618662e-12 0.0 5.551115123307915e-16 0.0 0.0
-3.359812428271889e-12 1.4654943925052494e-12 0.0 -3.885780586228778e-15 0.0 0.0
-3.343852972292894e-12 1.4388490399142009e-12 0.0 -2.2204460492501692e-14 0.0 0.0
-3.2933378246724503e-12 1.4077627952245963e-12 0.0 -4.3298697960380575e-14 0.0 0.0
-3.215205879314454e-12 1.3633538742397062e-12 0.0 -6.217248937903468e-14 0.0 0.0
-3.1302738179306297e-12 1.3411494137472018e-12 0.0 -6.772360450215034e-14 0.0 0.0
-3.032019080251305e-12 1.2967404927621366e-12 0.0 -7.43849426498854e-14 0.0 0.0
-2.9068414342248096e-12 1.27453603226975e-12 0.0 -1.0103029524089617e-13 0.0 0.0
-2.7547408798511664e-12 1.185718190299622e-12 0.0 -1.1268763699951575e-13 0.0 0.0
-2.5787705304480876e-12 1.1057821325267811e-12 0.0 -1.1379786002410763e-13 0.0 0.0
-2.3983592889465025e-12 1.0147438445073997e-12 0.0 -1.1823875212258866e-13 0.0 0.0
-2.2157276013956602e-12 9.74775815620843e-13 0.0 -1.2934098236885704e-13 0.0 0.0
-2.0219936835985724e-12 8.748557434047158e-13 0.0 -1.3655743202887053e-13 0.0 0.0
-1.82021064887294e-12 7.815970093361597e-13 0.0 -1.3655743202886598e-13 0.0 0.0
-1.6076029396572208e-12 6.927791673661526e-13 0.0 -1.4710455076284056e-13 0.0 0.0
-1.3825052214144877e-12 5.884182030512761e-13 0.0 -1.5015766408059736e-13 0.0 0.0
-1.164068841319481e-12 4.9626969200745e-13 0.0 -1.3794521080970125e-13 0.0 0.0
-9.675593659608263e-13 4.063416270128049e-13 0.0 -1.2378986724571364e-13 0.0 0.0
-8.407163853974065e-13 3.3750779948604946e-13 0.0 -8.257283745648463e-14 0.0 0.0
-7.013833958069379e-13 3.730349362740602e-13 0.0 -1.0748346657153839e-13 0.0 0.0
-7.316369732279748e-13 -2.3564483697668715e-13 0.0 -2.8418239983450267e-13 0.0 0.0
-8.670841822322531e-13 3.2194212573610758e-12 0.0 -1.5994150448519528e-13 0.0 0.0
-6.159656118498456e-13 3.0013058011091335e-12 0.0 1.0714519549370854e-12 0.0 0.0
-4.3461761967122986e-13 -1.3933298959045437e-13 0.0 6.838019733779235e-13 0.0 0.0
-4.4256265319120363e-13 1.7486012637844524e-13 0.0 1.3058998327153035e-13 0.0 0.0
-7.193204365485441e-13 3.019806626980499e-13 0.0 2.57155408078807e-13 0.0 0.0
-9.060460715026876e-13 3.8413716652033254e-13 0.0 2.989275493803304e-13 0.0 0.0
-1.1105699693203521e-12 4.762856775641992e-13 0.0 3.186340080674184e-13 0.0 0.0
-1.316100006754084e-12 5.573319583617938e-13 0.0 3.015643290638141e-13 0.0 0.0
-1.5173279299673934e-12 6.439293542826809e-13 0.0 2.8824165276831086e-13 0.0 0.0
-1.7151557951677887e-12 7.527312106958176e-13 0.0 2.9115598820796417e-13 0.0 0.0
-1.9041018761711838e-12 8.104628079763119e-13 0.0 3.0558888752810175e-13 0.0 0.0
-2.085692729636434e-12 8.792966355030959e-13 0.0 2.8116398098632534e-13 0.0 0.0
-2.259095688295074e-12 9.57012247226982e-13 0.0 2.3564483697668155e-13 0.0 0.0
-2.4173024693041624e-12 1.0524914273446547e-12 0.0 2.0400348077487138e-13 0.0 0.0
-2.5514312884666923e-12 1.1146639167235443e-12 0.0 1.915134717478386e-13 0.0 0.0
-2.6730007096631466e-12 1.1368683772161803e-12 0.0 1.8485213360010055e-13 0.0 0.0
-2.786243458174908e-12 1.2079226507922032e-12 0.0 1.7763568394002787e-13 0.0 0.0
-2.873534743486055e-12 1.2256862191861575e-12 0.0 1.1934897514716916e-13 0.0 0.0
-2.9293234504734687e-12 1.2434497875801212e-12 0.0 4.218847493576237e-14 0.0 0.0
-2.9587443606260365e-12 1.2656542480726682e-12 0.0 1.5543122344748853e-14 0.0 0.0
-2.9731772599461716e-12 1.2745360322696316e-12 0.0 -1.1102230246088997e-15 0.0 0.0
-2.9770630405323593e-12 1.301181384860692e-12 0.0 -4.440892098516845e-15 0.0 0.0
-2.9598545836506597e-12 1.2745360322698106e-12 0.0 -4.2188474935724394e-14 0.0 0.0
-2.915168106909497e-12 1.247890679678592e-12 0.0 -9.43689570931386e-14 0.0 0.0
-2.8482771696758363e-12 1.2079226507922172e-12 0.0 -1.221245327087817e-13 0.0 0.0
-2.7711166694643903e-12 1.1635137298071744e-12 0.0 -1.2878587085651503e-13 0.0 0.0
-2.686739719592876e-12 1.1457501614130996e-12 0.0 -1.632027846199123e-13 0.0 0.0
-2.5790480862042374e-12 1.1368683772162346e-12 0.0 -1.9650947535867926e-13 0.0 0.0
-2.44165798690688e-12 1.0436096431476053e-12 0.0 -2.2259971643736615e-13 0.0 0.0
-2.285671651947042e-12 9.925393840149342e-13 0.0 -2.359223927328348e-13 0.0 0.0
-2.1280199824502684e-12 8.859579736509206e-13 0.0 -2.453592884421564e-13 0.0 0.0
-1.968147866904249e-12 8.770761894537674e-13 0.0 -2.575717417130028e-13 0.0 0.0
-1.793010184769627e-12 7.79376563286921e-13 0.0 -2.6423307986074187e-13 0.0 0.0
-1.6114887202434173e-12 6.861178292183875e-13 0.0 -2.8699265186562175e-13 0.0 0.0
-1.4249712521063858e-12 6.217248937901231e-13 0.0 -3.0031532816106577e-13 0.0 0.0
-1.2267964422107962e-12 5.062616992290337e-13 0.0 -3.0087043967346443e-13 0.0 0.0
-1.0322298571452405e-12 4.4519943287468e-13 0.0 -2.819966482547995e-13 0.0 0.0
-8.562595077421526e-13 3.46389583683069e-13 0.0 -2.456368441983427e-13 0.0 0.0
-7.099876242477881e-13 3.008704396733814e-13 0.0 -1.981748098955863e-13 0.0 0.0
-4.821143484434733e-13 1.931788062847824e-13 0.0 -6.654399253847284e-14 0.0 0.0
-4.699018951725991e-13 -1.323940956865442e-13 0.0 -5.190856425252116e-13 0.0 0.0
-6.217248937900839e-13 2.7600144392181388e-12 0.0 -7.357742887182825e-13 0.0 0.0
-5.087597010344784e-13 2.5491761479479184e-12 0.0 1.13065806717217e-12 0.0 0.0
-3.162053952010522e-13 3.164135620182322e-14 0.0 8.914570470697202e-13 0.0 0.0
-2.9164171078121955e-13 6.21724893789945e-14 0.0 3.144706717250823e-13 0.0 0.0
-5.721118023771507e-13 2.3647750424515526e-13 0.0 3.684552662974722e-13 0.0 0.0
-7.766703946643358e-13 3.286260152890727e-13 0.0 4.424238753131377e-13 0.0 0.0
-9.606204720569147e-13 4.0412118096354067e-13 0.0 4.601874437071094e-13 0.0 0.0
-1.1426970480954414e-12 4.840572387365638e-13 0.0 4.3798298321461244e-13 0.0 0.0
-1.3243572904997358e-12 5.662137425589117e-13 0.0 4.1716630150290217e-13 0.0 0.0
-1.4992868058172358e-12 6.727951529228236e-13 0.0 4.2216230511372e-13 0.0 0.0
-1.6592976992413371e-12 6.994405055138175e-13 0.0 4.371503159461561e-13 0.0 0.0
-1.8121615319444138e-12 7.505107646466268e-13 0.0 4.021782906704471e-13 0.0 0.0
-1.9657886429769166e-12 8.171241461241415e-13 0.0 3.43336470365327e-13 0.0 0.0
-2.109562524665875e-12 9.237055564881494e-13 0.0 2.9864999362418725e-13 0.0 0.0
-2.22974416708155e-12 9.681144774730676e-13 0.0 2.803313137178669e-13 0.0 0.0
-2.3336887977620827e-12 1.003641614261113e-12 0.0 2.614575222992419e-13 0.0 0.0
-2.425976086684046e-12 1.0347278589506724e-12 0.0 2.5590640717610484e-13 0.0 0.0
-2.499528362065457e-12 1.0658141036402278e-12 0.0 1.676436767183567e-13 0.0 0.0
-2.550043509685906e-12 1.0746958878370808e-12 0.0 6.772360450214365e-14 0.0 0.0
-2.5809909764973327e-12 1.1013412404280775e-12 0.0 2.7200464103330317e-14 0.0 0.0
-2.5970892103544027e-12 1.1279865930192186e-12 0.0 1.4830585018155022e-26 0.0 0.0
-2.595146320061313e-12 1.1057821325265644e-12 0.0 -1.0547118733961479e-14 0.0 0.0
-2.578354196813849e-12 1.1057821325267492e-12 0.0 -6.106226635438201e-14 0.0 0.0
-2.5414392812450635e-12 1.096900348329673e-12 0.0 -1.310063169057609e-13 0.0 0.0
-2.483291350330322e-12 1.0480505352462132e-12 0.0 -1.7319479184152543e-13 0.0 0.0
-2.418065747633593e-12 1.012523398458115e-12 0.0 -1.8540724511242588e-13 0.0 0.0
-2.3445134722521755e-12 9.99200722162576e-13 0.0 -2.4202861936829513e-13 0.0 0.0
-2.2501445151590364e-12 9.903189379656873e-13 0.0 -2.8199664825479673e-13 0.0 0.0
-2.1307955400118377e-12 8.97060203897136e-13 0.0 -3.130828929442901e-13 0.0 0.0
-1.9961809982760347e-12 8.726352973552743e-13 0.0 -3.4638958368306035e-13 0.0 0.0
-1.859346010490983e-12 7.727152251391205e-13 0.0 -3.602673714909142e-13 0.0 0.0
-1.7197354651443703e-12 7.638334409420472e-13 0.0 -3.65818486614013e-13 0.0 0.0
-1.565692020477623e-12 6.772360450213564e-13 0.0 -3.8524738954486783e-13 0.0 0.0
-1.4052647934192915e-12 5.861977570021155e-13 0.0 -4.179989687714301e-13 0.0 0.0
-1.2420620087993913e-12 5.462297281156263e-13 0.0 -4.396483177514821e-13 0.0 0.0
-1.0705325514948092e-12 4.374278717022628e-13 0.0 -4.318767565792491e-13 0.0 0.0
-9.003908729710112e-13 3.8857805861880767e-13 0.0 -4.1217029789213703e-13 0.0 0.0
-7.377431998634156e-13 2.975397705995344e-13 0.0 -3.674838211509425e-13 0.0 0.0
-5.68989300120393e-13 2.298161660973886e-13 0.0 -2.896294315490846e-13 0.0 0.0
-3.236300116782418e-13 7.938094626070812e-14 0.0 -2.046973701652291e-13 0.0 0.0
-3.3056890558215303e-13 4.440892098501459e-15 0.0 -7.116182643151979e-13 0.0 0.0
-4.934941344458969e-13 2.3545575211780804e-12 0.0 -9.119788257906022e-13 0.0 0.0
-4.386768726050155e-13 2.159002143731212e-12 0.0 1.090690038285665e-12 0.0 0.0
-2.491062911502681e-13 1.6514567491299423e-13 0.0 1.010667244338847e-12 0.0 0.0
-1.8811341373492564e-13 7.216449660041575e-15 0.0 5.374867217966489e-13 0.0 0.0
-4.3604009292153114e-13 1.6764367671837382e-13 0.0 4.977962486662986e-13 0.0 0.0
-6.430966870141205e-13 2.6978419498391057e-13 0.0 5.695444116327148e-13 0.0 0.0
-8.119199756961842e-13 3.3750779948606995e-13 0.0 5.881406472951565e-13 0.0 0.0
-9.721390359374027e-13 4.107825191113067e-13 0.0 5.564992910933452e-13 0.0 0.0
-1.1304845948245654e-12 4.8627768478587e-13 0.0 5.304090500146672e-13 0.0 0.0
-1.2818912598078187e-12 5.750955267558054e-13 0.0 5.36515276650117e-13 0.0 0.0
-1.416020078970348e-12 6.061817714453787e-13 0.0 5.451195050909484e-13 0.0 0.0
-1.5426548927166554e-12 6.15063555642367e-13 0.0 5.073719222536889e-13 0.0 0.0
-1.675048988403205e-12 7.061018436616583e-13 0.0 4.3742787170231965e-13 0.0 0.0
-1.8025858583570194e-12 7.771561172375657e-13 0.0 3.846922780326209e-13 0.0 0.0
-1.909583602355268e-12 8.393286066166363e-13 0.0 3.5749181392930616e-13 0.0 0.0
-1.9954871088856448e-12 8.61533067109034e-13 0.0 3.3195668436294114e-13 0.0 0.0
-2.0694557179012962e-12 8.659739592075752e-13 0.0 3.1197266991965263e-13 0.0 0.0
-2.130656762133753e-12 9.148237722912086e-13 0.0 2.114974861910688e-13 0.0 0.0
-2.173955460094134e-12 9.148237722910426e-13 0.0 9.214851104387908e-14 0.0 0.0
-2.2065682614425e-12 9.50350909079094e-13 0.0 3.719247132494257e-14 0.0 0.0
-2.2212787165187868e-12 9.681144774732559e-13 0.0 3.330669073860374e-15 0.0 0.0
-2.215727601395656e-12 9.237055564880836e-13 0.0 -9.992007221623872e-15 0.0 0.0
-2.2008783684412907e-12 9.45910016980679e-13 0.0 -7.938094626071895e-14 0.0 0.0
-2.1688206786052457e-12 9.237055564882185e-13 0.0 -1.6320278461988817e-13 0.0 0.0
-2.121081088546366e-12 8.837375276015784e-13 0.0 -2.1427304375265693e-13 0.0 0.0
-2.068623050632822e-12 8.79296635503131e-13 0.0 -2.364775042451626e-13 0.0 0.0
-2.004785226716873e-12 8.615330671091433e-13 0.0 -2.9976021664875804e-13 0.0 0.0
-1.922351167138458e-12 8.437694987151636e-13 0.0 -3.552713678800609e-13 0.0 0.0
-1.8229862064345074e-12 7.949196856315999e-13 0.0 -4.0079051188970383e-13 0.0 0.0
-1.7091883464104273e-12 7.305267502033153e-13 0.0 -4.4020342926390395e-13 0.0 0.0
-1.590116927019381e-12 6.838973831690845e-13 0.0 -4.557465516086187e-13 0.0 0.0
-1.4710455076283354e-12 6.417089082332977e-13 0.0 -4.679590048795115e-13 0.0 0.0
-1.3411494137471917e-12 5.83977310952906e-13 0.0 -4.884981308350473e-13 0.0 0.0
-1.20181642415673e-12 5.018208071305216e-13 0.0 -5.317968287954726e-13 0.0 0.0
-1.058320098223923e-12 4.529709940471408e-13 0.0 -5.506706202140097e-13 0.0 0.0
-9.134359935103447e-13 3.819167204710601e-13 0.0 -5.501155087018205e-13 0.0 0.0
-7.668865542598233e-13 3.230749001659047e-13 0.0 -5.25690602160053e-13 0.0 0.0
-6.150635556423348e-13 2.4424906541754716e-13 0.0 -4.762856775641914e-13 0.0 0.0
-4.3659520443383675e-13 1.5543122344750987e-13 0.0 -3.9926395523079567e-13 0.0 0.0
-2.114974861910852e-13 1.4432899320126473e-14 0.0 -3.9933334416984827e-13 0.0 0.0
-2.517430708337477e-13 1.243449787580182e-13 0.0 -8.41800587569912e-13 0.0 0.0
-4.146682996974809e-13 2.0015586410515575e-12 0.0 -9.307311865659512e-13 0.0 0.0
-3.8594127893531913e-13 1.823922957111528e-12 0.0 1.0108060222169281e-12 0.0 0.0
-2.071259830316297e-13 2.584044089815076e-13 0.0 1.0716861426063453e-12 0.0 0.0
-1.1574075031717052e-13 -1.4988010832454475e-14 0.0 7.404493684859426e-13 0.0 0.0
-3.153727279325829e-13 1.0658141036401995e-13 0.0 6.354639037198395e-13 0.0 0.0
-5.099393129981421e-13 2.065014825802721e-13 0.0 6.825096043883339e-13 0.0 0.0
-6.637745908477642e-13 2.7422508708245703e-13 0.0 7.00273172782328e-13 0.0 0.0
-8.033851361943785e-13 3.4861002973223004e-13 0.0 6.586398093588795e-13 0.0 0.0
-9.375833442959463e-13 3.9968028886509255e-13 0.0 6.278311204255191e-13 0.0 0.0
-1.0630385460785884e-12 4.773959005887828e-13 0.0 6.314393452555528e-13 0.0 0.0
-1.172395514004165e-12 4.973799150321405e-13 0.0 6.356026815978965e-13 0.0 0.0
-1.277311589831243e-12 5.218048215738446e-13 0.0 5.961897642237018e-13 0.0 0.0
-1.3881951144156805e-12 5.928590951499321e-13 0.0 5.151434834260741e-13 0.0 0.0
-1.4957479699262446e-12 6.372680161347642e-13 0.0 4.563016631209624e-13 0.0 0.0
-1.5888679261166818e-12 6.972200594646392e-13 0.0 4.2299497238218823e-13 0.0 0.0
-1.6601997554488443e-12 7.105427357600571e-13 0.0 3.8691272408187877e-13 0.0 0.0
-1.71557212880202e-12 7.194245199569426e-13 0.0 3.5804692544161243e-13 0.0 0.0
-1.7642831640074527e-12 7.460698725482167e-13 0.0 2.475797344913833e-13 0.0 0.0
-1.8034185256254907e-12 7.682743330405791e-13 0.0 1.154631945610266e-13 0.0 0.0
-1.8324231021438184e-12 7.815970093361329e-13 0.0 4.662936703427452e-14 0.0 0.0
-1.845051889048932e-12 8.038014698286484e-13 0.0 1.2212453270870323e-14 0.0 0.0
-1.8400558854381192e-12 7.50510764646613e-13 0.0 -1.1102230246232746e-14 0.0 0.0
-1.826455653386456e-12 7.949196856316527e-13 0.0 -8.992806499463534e-14 0.0 0.0
-1.798561299892752e-12 7.505107646466629e-13 0.0 -1.9484414082172212e-13 0.0 0.0
-1.7616463843239692e-12 7.416289804495699e-13 0.0 -2.486899575160609e-13 0.0 0.0
-1.720845688169e-12 7.505107646466004e-13 0.0 -2.819966482548037e-13 0.0 0.0
-1.666444759962364e-12 7.149836278586304e-13 0.0 -3.4083846855992053e-13 0.0 0.0
-1.5978884881917513e-12 6.927791673661561e-13 0.0 -4.163336342344327e-13 0.0 0.0
-1.5168422073941203e-12 6.794564910705282e-13 0.0 -4.790612351257629e-13 0.0 0.0
-1.422195694544826e-12 6.017408793468622e-13 0.0 -5.129230373768439e-13 0.0 0.0
-1.323663401109343e-12 5.750955267558544e-13 0.0 -5.334621633324187e-13 0.0 0.0
-1.2229106616246087e-12 5.21804821573807e-13 0.0 -5.473399511402045e-13 0.0 0.0
-1.115774139748282e-12 4.862776847859008e-13 0.0 -5.756506382681216e-13 0.0 0.0
-9.986456106503315e-13 4.307665335545586e-13 0.0 -6.206146707654504e-13 0.0 0.0
-8.759659664292443e-13 3.486100297323559e-13 0.0 -6.439293542825609e-13 0.0 0.0
-7.574496585505098e-13 3.264055692398032e-13 0.0 -6.508682481865585e-13 0.0 0.0
-6.319944567678689e-13 2.5757174171300875e-13 0.0 -6.253331186201727e-13 0.0 0.0
-4.923839114212551e-13 1.8651746813701613e-13 0.0 -5.792588630981588e-13 0.0 0.0
-3.186340080674244e-13 9.325873406850844e-14 0.0 -5.147271497918352e-13 0.0 0.0
-1.3211653993039683e-13 -1.4988010832457328e-14 0.0 -5.910549827348056e-13 0.0 0.0
-2.0289325775024902e-13 2.0761170560490392e-13 0.0 -9.142773343962302e-13 0.0 0.0
-3.591571484662434e-13 1.6989534779021641e-12 0.0 -8.93746882058147e-13 0.0 0.0
-3.408384685599261e-13 1.5361670269164997e-12 0.0 9.22161652594502e-13 0.0 0.0
-1.7652546091540241e-13 3.141931159689194e-13 0.0 1.094116117150717e-12 0.0 0.0
-6.28663787694018e-14 -1.998401444326041e-14 0.0 9.053174876427916e-13 0.0 0.0
-2.0969337377607765e-13 5.21804821574064e-14 0.0 7.70772334846021e-13 0.0 0.0
-3.7927994078756986e-13 1.443289932012585e-13 0.0 7.849276784099969e-13 0.0 0.0
-5.168088179630105e-13 2.087219286295418e-13 0.0 7.91589016557735e-13 0.0 0.0
-6.369904603786831e-13 2.908784324517667e-13 0.0 7.430167592303786e-13 0.0 0.0
-7.446820937673235e-13 3.1974423109206215e-13 0.0 7.105427357601104e-13 0.0 0.0
-8.439082765931985e-13 3.7747582837255913e-13 0.0 7.094325127354944e-13 0.0 0.0
-9.305056725139617e-13 3.885780586188256e-13 0.0 7.066569551739241e-13 0.0 0.0
-1.0139111772389224e-12 4.196643033083202e-13 0.0 6.655787032627838e-13 0.0 0.0
-1.1021739076966197e-12 4.551914400963405e-13 0.0 5.85642645489781e-13 0.0 0.0
-1.1902978602762433e-12 5.12923037376872e-13 0.0 5.179190409876489e-13 0.0 0.0
-1.2691236950246319e-12 5.551115123125409e-13 0.0 4.718447854657253e-13 0.0 0.0
-1.3261614029147503e-12 5.773159728051067e-13 0.0 4.3687276019002116e-13 0.0 0.0
-1.3654355424108638e-12 5.817568649034782e-13 0.0 3.9190872769271035e-13 0.0 0.0
-1.4002687898084759e-12 5.551115123126684e-13 0.0 2.7200464103315356e-13 0.0 0.0
-1.4339918141814638e-12 6.128431095931441e-13 0.0 1.3600232051660907e-13 0.0 0.0
-1.4593881658697638e-12 6.128431095931025e-13 0.0 5.939693181742939e-14 0.0 0.0
-1.4696577288475498e-12 6.394884621840294e-13 0.0 1.4432899320129162e-14 0.0 0.0
-1.4663270597736733e-12 5.995204332976112e-13 0.0 -1.1102230246225527e-14 0.0 0.0
-1.4552248295274195e-12 6.43929354282559e-13 0.0 -9.658940314237177e-14 0.0 0.0
-1.4313550344979794e-12 5.861977570021433e-13 0.0 -2.1427304375266074e-13 0.0 0.0
-1.4045709040288955e-12 5.995204332975167e-13 0.0 -2.781108676686305e-13 0.0 0.0
-1.3725132141928471e-12 6.039613253960393e-13 0.0 -3.18634008067428e-13 0.0 0.0
-1.329492071988625e-12 5.55111512312579e-13 0.0 -3.8635761256954135e-13 0.0 0.0
-1.2775891455873997e-12 5.684341886080911e-13 0.0 -4.651834473179685e-13 0.0 0.0
-1.209587985329115e-12 5.018208071304965e-13 0.0 -5.345723863570548e-13 0.0 0.0
-1.1360357099476953e-12 4.951594689828896e-13 0.0 -5.784261958297527e-13 0.0 0.0
-1.056654763686992e-12 4.4408920985006575e-13 0.0 -6.000755448099129e-13 0.0 0.0
-9.750533713770451e-13 4.130029651606154e-13 0.0 -6.078471059822845e-13 0.0 0.0
-8.92619311798624e-13 3.885780586188073e-13 0.0 -6.45594688819541e-13 0.0 0.0
-7.968625759247058e-13 3.4861002973232445e-13 0.0 -6.916689443414504e-13 0.0 0.0
-6.958322806838197e-13 2.620126338115931e-13 0.0 -7.255307465925161e-13 0.0 0.0
-6.011857678345256e-13 2.553512956637685e-13 0.0 -7.305267502034035e-13 0.0 0.0
-4.973799150320707e-13 1.9984014443251651e-13 0.0 -7.094325127355358e-13 0.0 0.0
-3.7109204598095676e-13 1.276756478319016e-13 0.0 -6.72795152922852e-13 0.0 0.0
-2.1538326677728047e-13 4.4408920985011424e-14 0.0 -6.35047570085579e-13 0.0 0.0
-7.382983113757199e-14 -2.386979502946964e-14 0.0 -7.504413757075024e-13 0.0 0.0
-1.6903145549918135e-13 2.6006974351844423e-13 0.0 -9.539938283787101e-13 0.0 0.0
-3.1807889655511154e-13 1.43694084409063e-12 0.0 -8.267692086506546e-13 0.0 0.0
-2.9864999362416575e-13 1.2875464583395098e-12 0.0 8.350264923961813e-13 0.0 0.0
-1.5015766408055119e-13 3.3834046675450787e-13 0.0 1.0903777880599809e-12 0.0 0.0
-2.12330153459551e-14 -1.4988010832438357e-14 0.0 1.0307726894254242e-12 0.0 0.0
-1.1671219546371827e-13 1.1102230246246581e-14 0.0 8.919254224082285e-13 0.0 0.0
-2.556288514199418e-13 8.548717289614201e-14 0.0 8.737455203799948e-13 0.0 0.0
-3.7150837961519205e-13 1.4432899320126427e-13 0.0 8.629208458899011e-13 0.0 0.0
-4.690692279041275e-13 2.2204460492507044e-13 0.0 8.126832540256112e-13 0.0 0.0
-5.524747326290924e-13 2.398081733190204e-13 0.0 7.760458942129928e-13 0.0 0.0
-6.261657858885848e-13 2.7755575615626965e-13 0.0 7.671641100159811e-13 0.0 0.0
-6.890321646579837e-13 2.9087843245178647e-13 0.0 7.621681064051733e-13 0.0 0.0
-7.502332088904465e-13 2.9976021664877056e-13 0.0 7.138734048339865e-13 0.0 0.0
-8.174017018802705e-13 3.2640556923976543e-13 0.0 6.417089082333393e-13 0.0 0.0
-8.877620860658908e-13 3.885780586188071e-13 0.0 5.695444116327027e-13 0.0 0.0
-9.499345754448988e-13 4.263256414560898e-13 0.0 5.145883719137739e-13 0.0 0.0
-9.929557176491248e-13 4.48530101948599e-13 0.0 4.69624339416452e-13 0.0 0.0
-1.0179357357031892e-12 4.396483177515752e-13 0.0 4.1355807667286117e-13 0.0 0.0
-1.0380585280245151e-12 4.0412118096361186e-13 0.0 2.925437669887109e-13 0.0 0.0
-1.0655365478839912e-12 4.4853010194863423e-13 0.0 1.5543122344751497e-13 0.0 0.0
-1.0878797862545755e-12 4.662936703425605e-13 0.0 7.382983113755659e-14 0.0 0.0
-1.0960676810611896e-12 4.707345624409645e-13 0.0 1.2212453270886214e-14 0.0 0.0
-1.0939860128900185e-12 4.618527782440976e-13 0.0 -1.8318679906309365e-14 0.0 0.0
-1.084271561424544e-12 4.707345624409633e-13 0.0 -1.0769163338862331e-13 0.0 0.0
-1.0673406602990095e-12 4.44089209850125e-13 0.0 -2.3037127760971503e-13 0.0 0.0
-1.0494383140269258e-12 4.3520742565306157e-13 0.0 -3.0198066269805045e-13 0.0 0.0
-1.0257072968755645e-12 4.574118861455148e-13 0.0 -3.4527936065841086e-13 0.0 0.0
-9.947598300641407e-13 4.174438572590639e-13 0.0 -4.2632564145606375e-13 0.0 0.0
-9.553469126899448e-13 4.3520742565308105e-13 0.0 -5.073719222536854e-13 0.0 0.0
-9.056644323379727e-13 3.59712259978521e-13 0.0 -5.806466418789658e-13 0.0 0.0
-8.515410598875001e-13 3.8413716652036005e-13 0.0 -6.294964549625015e-13 0.0 0.0
-7.893685705084878e-13 3.2418512319056873e-13 0.0 -6.461498003318617e-13 0.0 0.0
-7.285838599102603e-13 3.1974423109208926e-13 0.0 -6.666889262873894e-13 0.0 0.0
-6.677991493120337e-13 2.864375403532512e-13 0.0 -7.005507285384576e-13 0.0 0.0
-5.956346527113969e-13 2.620126338115148e-13 0.0 -7.543965452327722e-13 0.0 0.0
-5.17919040987636e-13 1.953992523340557e-13 0.0 -7.849276784099465e-13 0.0 0.0
-4.4436676560622355e-13 1.7541523789077188e-13 0.0 -7.929767953385463e-13 0.0 0.0
-3.6304292905242745e-13 1.4765966227516594e-13 0.0 -7.716050021145433e-13 0.0 0.0
-2.5618396293225174e-13 7.660538869914727e-14 0.0 -7.502332088904614e-13 0.0 0.0
-1.2434497875801657e-13 8.881784197013751e-15 0.0 -7.469025398165498e-13 0.0 0.0
-2.942091015256815e-14 -2.442490654176409e-14 0.0 -8.702066844889362e-13 0.0 0.0
-1.4072076837123998e-13 2.88102874890224e-13 0.0 -9.642980858260215e-13 0.0 0.0
-2.7533531010703625e-13 1.207159372462744e-12 0.0 -7.571721027944346e-13 0.0 0.0
-2.567390744445619e-13 1.069769273165376e-12 0.0 7.556455461354895e-13 0.0 0.0
-1.237898672456993e-13 3.391731340229822e-13 0.0 1.0679651607503686e-12 0.0 0.0
1.4294121442054917e-14 -6.10622663543912e-15 0.0 1.115774139748279e-12 0.0 0.0
-3.4278135885300175e-14 -2.2204460492506e-14 0.0 9.90457715843726e-13 0.0 0.0
-1.378064329315984e-13 3.441691376336575e-14 0.0 9.4424468244371e-13 0.0 0.0
-2.2815083156046815e-13 8.215650382227099e-14 0.0 9.256484467812218e-13 0.0 0.0
-3.01703106941888e-13 1.3544720900425027e-13 0.0 8.623657343775825e-13 0.0 0.0
-3.6082248300317507e-13 1.6209256159527586e-13 0.0 8.204548151979984e-13 0.0 0.0
-4.0856207306205857e-13 1.776356839400315e-13 0.0 8.115730310009757e-13 0.0 0.0
-4.4936276921703847e-13 1.931788062847759e-13 0.0 7.993605777301367e-13 0.0 0.0
-4.883593529569915e-13 1.8873791418628418e-13 0.0 7.482903185973601e-13 0.0 0.0
-5.324907181858377e-13 2.1316282072798224e-13 0.0 6.789013795582848e-13 0.0 0.0
-5.849487560993792e-13 2.5979218776226987e-13 0.0 6.034062138837608e-13 0.0 0.0
-6.317169010117177e-13 2.975397705996247e-13 0.0 5.478950626525521e-13 0.0 0.0
-6.604439217738951e-13 3.1530333899354037e-13 0.0 4.957145804951495e-13 0.0 0.0
-6.711298183859122e-13 2.9753977059946703e-13 0.0 4.3243186809153083e-13 0.0 0.0
-6.787626016802083e-13 2.48689957516106e-13 0.0 3.0919711235810615e-13 0.0 0.0
-6.981915046111471e-13 2.930988785010853e-13 0.0 1.670885652060747e-13 0.0 0.0
-7.177591854201631e-13 3.064215547964693e-13 0.0 7.494005416217588e-14 0.0 0.0
-7.252531908363838e-13 3.286260152889814e-13 0.0 5.551115123112631e-15 0.0 0.0
-7.213674102501948e-13 3.108624468950865e-13 0.0 -2.442490654177783e-14 0.0 0.0
-7.135958490778188e-13 2.8865798640244533e-13 0.0 -1.088018564132467e-13 0.0 0.0
-7.047140648808222e-13 2.975397705996517e-13 0.0 -2.5313084961452075e-13 0.0 0.0
-6.949996134153521e-13 2.7977620220550815e-13 0.0 -3.1474822748124975e-13 0.0 0.0
-6.811218256075376e-13 3.1530333899357313e-13 0.0 -3.602673714908208e-13 0.0 0.0
-6.605826996519708e-13 2.886579864025064e-13 0.0 -4.568567746332589e-13 0.0 0.0
-6.34492458573278e-13 2.9753977059960446e-13 0.0 -5.39568389967843e-13 0.0 0.0
-6.022959908591485e-13 2.664535259100858e-13 0.0 -6.167288901793157e-13 0.0 0.0
-5.651035195342032e-13 2.531308496145006e-13 0.0 -6.589173651150516e-13 0.0 0.0
-5.240252676230744e-13 2.30926389122126e-13 0.0 -6.766809335090444e-13 0.0 0.0
-4.832245714681001e-13 1.9539925233401344e-13 0.0 -7.066569551739305e-13 0.0 0.0
-4.4325654258159304e-13 1.8429702208776715e-13 0.0 -7.432943149865122e-13 0.0 0.0
-3.941291737419325e-13 1.7319479184153427e-13 0.0 -7.988054662177789e-13 0.0 0.0
-3.394506897791412e-13 1.2434497875800317e-13 0.0 -8.293365993949669e-13 0.0 0.0
-2.8810287489022797e-13 1.0658141036401924e-13 0.0 -8.346101587620121e-13 0.0 0.0
-2.2926105458509533e-13 8.65973959207586e-14 0.0 -8.262834860773305e-13 0.0 0.0
-1.471045507628326e-13 2.9976021664855636e-14 0.0 -8.140710328064075e-13 0.0 0.0
-4.440892098500651e-14 -2.5535129566380342e-14 0.0 -8.346101587619467e-13 0.0 0.0
8.604228440846355e-15 -2.220446049248893e-14 0.0 -9.548611901166137e-13 0.0 0.0
-1.1601830607333179e-13 2.939315457695045e-13 0.0 -9.502988673748763e-13 0.0 0.0
-2.398081733190427e-13 1.0061396160665507e-12 0.0 -6.93646529104166e-13 0.0 0.0
-2.156608225334409e-13 8.768680226367532e-13 0.0 6.845565780899733e-13 0.0 0.0
-9.714451465470828e-14 3.2363001167823237e-13 0.0 1.0323512877885494e-12 0.0 0.0
4.704570066848938e-14 -5.551115123139268e-16 0.0 1.1635831187462126e-12 0.0 0.0
4.0384362520740883e-14 -5.107025913275922e-14 0.0 1.0624834345662671e-12 0.0 0.0
-2.4980018054068427e-14 -1.4432899320143358e-14 0.0 9.992007221626288e-13 0.0 0.0
-8.687495167692043e-14 2.1094237467902662e-14 0.0 9.642286968869402e-13 0.0 0.0
-1.357247647604265e-13 6.217248937898774e-14 0.0 8.948397578478744e-13 0.0 0.0
-1.6889267762109972e-13 8.437694987154614e-14 0.0 8.487655023259485e-13 0.0 0.0
-1.9151347174783496e-13 7.77156117237535e-14 0.0 8.36553049055032e-13 0.0 0.0
-2.0955459589799082e-13 9.10382880192367e-14 0.0 8.204548151980216e-13 0.0 0.0
-2.2717938641392013e-13 8.437694987159194e-14 0.0 7.771561172375791e-13 0.0 0.0
-2.4993895841874074e-13 9.547918011773436e-14 0.0 7.005507285384743e-13 0.0 0.0
-2.8227420401094863e-13 1.2878587085653568e-13 0.0 6.239453398393339e-13 0.0 0.0
-3.1225022567582644e-13 1.7319479184154666e-13 0.0 5.700995231450646e-13 0.0 0.0
-3.2807090377673664e-13 1.6875389974302632e-13 0.0 5.123679258645e-13 0.0 0.0
-3.2543412409325164e-13 1.5987211554588974e-13 0.0 4.374278717023303e-13 0.0 0.0
-3.208544541166687e-13 7.549516567453e-14 0.0 3.14748227481213e-13 0.0 0.0
-3.338995746560138e-13 1.5099033134901834e-13 0.0 1.7652546091541092e-13 0.0 0.0
-3.4916514124460805e-13 1.4210854715190518e-13 0.0 7.605027718681127e-14 0.0 0.0
-3.5291214395272184e-13 1.8651746813704357e-13 0.0 5.5511151231175154e-15 0.0 0.0
-3.479161403419098e-13 1.4210854715204667e-13 0.0 -2.942091015254816e-14 0.0 0.0
-3.46250805804968e-13 1.42108547152036e-13 0.0 -1.1768364061026695e-13 0.0 0.0
-3.441691376337995e-13 1.5099033134920408e-13 0.0 -2.614575222992386e-13 0.0 0.0
-3.3903435614490607e-13 1.3322676295484885e-13 0.0 -3.2696068075212213e-13 0.0 0.0
-3.368139100956559e-13 1.5987211554602534e-13 0.0 -3.7303493627407986e-13 0.0 0.0
-3.2876479316712867e-13 1.5987211554598937e-13 0.0 -4.662936703425733e-13 0.0 0.0
-3.13915560212764e-13 1.4654943925059988e-13 0.0 -5.606626274357036e-13 0.0 0.0
-2.974009927214645e-13 1.554312234476125e-13 0.0 -6.394884621840839e-13 0.0 0.0
-2.786659791809136e-13 1.2212453270870454e-13 0.0 -6.761258219967243e-13 0.0 0.0
-2.5951463200612585e-13 1.2878587085663317e-13 0.0 -6.999956170261873e-13 0.0 0.0
-2.399469511971127e-13 9.547918011770088e-14 0.0 -7.294165271787646e-13 0.0 0.0
-2.185751579730782e-13 9.103828801929232e-14 0.0 -7.682743330405809e-13 0.0 0.0
-1.9234613901630726e-13 8.65973959207591e-14 0.0 -8.248957072964709e-13 0.0 0.0
-1.6181500583911715e-13 4.218847493575074e-14 0.0 -8.576472865229062e-13 0.0 0.0
-1.3378187446733237e-13 3.5527136788022175e-14 0.0 -8.61255511353026e-13 0.0 0.0
-9.769962616701471e-14 2.1094237467871572e-14 0.0 -8.695821840376926e-13 0.0 0.0
-4.052314039881433e-14 -1.6653345369376395e-14 0.0 -8.670841822322539e-13 0.0 0.0
2.803313137178744e-14 -6.439293542829073e-14 0.0 -8.987255384340477e-13 0.0 0.0
4.080069615497344e-14 -1.7763568394000574e-14 0.0 -1.0073886169691866e-12 0.0 0.0
-9.159339953157685e-14 2.8338442703556363e-13 0.0 -9.259260025374123e-13 0.0 0.0
-2.0261570199409258e-13 8.287120989436417e-13 0.0 -6.281086761817302e-13 0.0 0.0
-1.7458257062230233e-13 7.065875662348709e-13 0.0 6.194697532713429e-13 0.0 0.0
-6.897260540483608e-14 2.9448665728181944e-13 0.0 9.835014747050373e-13 0.0 0.0
7.882583474838707e-14 -1.6653345369345186e-15 0.0 1.176975183980755e-12 0.0 0.0
1.1018963519404787e-13 -7.660538869912977e-14 0.0 1.1057821325266448e-12 0.0 0.0
8.257283745649641e-14 -5.995204332974949e-14 0.0 1.0355605262191224e-12 0.0 0.0
5.120903701083401e-14 -3.5527136788006966e-14 0.0 9.858780458671323e-13 0.0 0.0
3.011479954295462e-14 -6.661338147743169e-15 0.0 9.14823772291121e-13 0.0 0.0
2.2898349882889783e-14 1.2163446297602781e-26 0.0 8.593126210598849e-13 0.0 0.0
2.5118795932136114e-14 -1.332267629554735e-14 0.0 8.43769498715139e-13 0.0 0.0
3.0947466811417006e-14 -2.2204460492495646e-14 0.0 8.28226376370407e-13 0.0 0.0
3.358424649490771e-14 -2.6645352590983783e-14 0.0 7.877032359715245e-13 0.0 0.0
3.0947466811425387e-14 -1.3322676295477148e-14 0.0 7.088774012231448e-13 0.0 0.0
2.0539125955564273e-14 -3.818086781269697e-26 0.0 6.339373470609789e-13 0.0 0.0
8.049116928532675e-15 4.440892098498392e-14 0.0 5.773159728050953e-13 0.0 0.0
4.996003610813905e-15 1.7763568394044848e-14 0.0 5.11257702839895e-13 0.0 0.0
1.8318679906315802e-14 8.881784196888906e-15 0.0 4.435340983377539e-13 0.0 0.0
3.4278135885300616e-14 -3.996802888644529e-14 0.0 3.169686735304588e-13 0.0 0.0
3.0114799542956456e-14 -8.88178419704712e-15 0.0 1.7597034940307772e-13 0.0 0.0
2.026157019940602e-14 -1.3322676295562012e-14 0.0 8.104628079761874e-14 0.0 0.0
2.053912595556106e-14 7.686976204835627e-26 0.0 1.0547118733928776e-14 0.0 0.0
2.3869795029441554e-14 -3.1086244689544735e-14 0.0 -3.1641356201834884e-14 0.0 0.0
2.1094237467877148e-14 -4.440892098444683e-15 0.0 -1.2267964422108772e-13 0.0 0.0
1.623701173514101e-14 4.440892098534859e-15 0.0 -2.642330798607585e-13 0.0 0.0
1.42941214420486e-14 -8.881784197021345e-15 0.0 -3.302913498259672e-13 0.0 0.0
8.743006318924749e-15 -4.440892098567878e-15 0.0 -3.719247132494107e-13 0.0 0.0
3.885780586194062e-15 2.2204460492455124e-14 0.0 -4.679590048794829e-13 0.0 0.0
5.551115123125808e-15 -8.881784196997685e-15 0.0 -5.61772850460349e-13 0.0 0.0
7.494005416217415e-15 8.88178419708287e-15 0.0 -6.400435736964176e-13 0.0 0.0
7.910339050456796e-15 -4.4408920985111085e-15 0.0 -6.833422716567744e-13 0.0 0.0
5.2735593669678275e-15 2.2204460492772874e-15 0.0 -7.094325127355158e-13 0.0 0.0
2.9143354396395308e-15 1.998401444325747e-14 0.0 -7.344125307895564e-13 0.0 0.0
4.996003610813791e-15 -4.440892098510042e-15 0.0 -7.738254481637214e-13 0.0 0.0
1.0130785099707636e-14 -4.4408920984951136e-15 0.0 -8.343326030057827e-13 0.0 0.0
1.609823385707114e-14 -3.774758283726991e-14 0.0 -8.693046282814636e-13 0.0 0.0
1.9290125052861574e-14 -3.330669073873888e-14 0.0 -8.704148513061629e-13 0.0 0.0
3.136380044566043e-14 -3.552713678798198e-14 0.0 -8.848477506262784e-13 0.0 0.0
6.189493362285456e-14 -5.77315972805236e-14 0.0 -9.037215420448861e-13 0.0 0.0
9.45077349712181e-14 -8.881784197001083e-14 0.0 -9.442446824436664e-13 0.0 0.0
7.105427357601059e-14 -1.887379141864308e-14 0.0 -1.0283440765589852e-12 0.0 0.0
-6.550315845288372e-14 2.609024107869062e-13 0.0 -8.852293897909994e-13 0.0 0.0
-1.6570078642530116e-13 6.713379852030252e-13 0.0 -5.669770208883193e-13 0.0 0.0
-1.354472090042762e-13 5.559441795810431e-13 0.0 5.601075159234226e-13 0.0 0.0
-4.0523140398822404e-14 2.5812685322535006e-13 0.0 9.196809980238495e-13 0.0 0.0
1.1129985821867265e-13 -8.881784196995289e-15 0.0 1.1612932837579105e-12 0.0 0.0
1.7708057242771502e-13 -9.99200722162606e-14 0.0 1.1184109194317644e-12 0.0 0.0
1.8623991238087145e-13 -9.547918011776938e-14 0.0 1.0449974219284304e-12 0.0 0.0
1.8859913630819973e-13 -9.992007221624584e-14 0.0 9.886536034287e-13 0.0 0.0
1.9609314172442125e-13 -7.993605777301137e-14 0.0 9.19264664389611e-13 0.0 0.0
2.1316282072803e-13 -8.437694987151149e-14 0.0 8.582023980352688e-13 0.0 0.0
2.411959520998164e-13 -1.0214051826551703e-13 0.0 8.310019339319592e-13 0.0 0.0
2.71865863155085e-13 -1.2878587085656756e-13 0.0 8.182343691487721e-13 0.0 0.0
2.937927678914289e-13 -1.243449787579598e-13 0.0 7.793765632868643e-13 0.0 0.0
3.1072366901696407e-13 -1.3100631690578392e-13 0.0 7.04436509124651e-13 0.0 0.0
3.233524559220778e-13 -1.2656542480725664e-13 0.0 6.322720125240493e-13 0.0 0.0
3.273770143863467e-13 -9.769962616703695e-14 0.0 5.678790770957702e-13 0.0 0.0
3.405609128037654e-13 -1.243449787580548e-13 0.0 4.98490138056723e-13 0.0 0.0
3.6484704146744e-13 -1.465494392505483e-13 0.0 4.4131365228852497e-13 0.0 0.0
3.858025010572432e-13 -1.5543122344742448e-13 0.0 3.1419311596892435e-13 0.0 0.0
3.945455073761647e-13 -1.9095836023558993e-13 0.0 1.7486012637846132e-13 0.0 0.0
3.927413949611471e-13 -1.776356839400434e-13 0.0 8.715250743306244e-14 0.0 0.0
3.9190872769267975e-13 -1.8207657603851025e-13 0.0 1.443289932013852e-14 0.0 0.0
3.928801728392303e-13 -1.9095836023556815e-13 0.0 -2.997602166485763e-14 0.0 0.0
3.8857805861880994e-13 -1.6431300764455018e-13 0.0 -1.2434497875804348e-13 0.0 0.0
3.785860513971826e-13 -1.5543122344756652e-13 0.0 -2.6478819137311205e-13 0.0 0.0
3.690103778097884e-13 -1.5099033134893627e-13 0.0 -3.236300116782617e-13 0.0 0.0
3.5457747848965907e-13 -1.554312234475629e-13 0.0 -3.635980405647541e-13 0.0 0.0
3.3653635433950133e-13 -1.3322676295511572e-13 0.0 -4.596323321948018e-13 0.0 0.0
3.251565683370951e-13 -1.332267629550548e-13 0.0 -5.540012892879606e-13 0.0 0.0
3.116951141635118e-13 -1.4654943925049378e-13 0.0 -6.300515664747792e-13 0.0 0.0
2.9198865547641354e-13 -1.1324274851183463e-13 0.0 -6.772360450213536e-13 0.0 0.0
2.7020052861814677e-13 -1.2434497875793895e-13 0.0 -7.027711745877862e-13 0.0 0.0
2.481348460037233e-13 -8.437694987147195e-14 0.0 -7.255307465925797e-13 0.0 0.0
2.293998324631727e-13 -1.0436096431477716e-13 0.0 -7.621681064051288e-13 0.0 0.0
2.112199304349331e-13 -9.992007221620868e-14 0.0 -8.243405957841723e-13 0.0 0.0
1.9248491689438793e-13 -1.0880185641328756e-13 0.0 -8.609779555968047e-13 0.0 0.0
1.722233466949826e-13 -9.769962616701723e-14 0.0 -8.623657343776281e-13 0.0 0.0
1.5820678100908632e-13 -8.881784196999166e-14 0.0 -8.812395257962685e-13 0.0 0.0
1.5917822615563005e-13 -1.0103029524089048e-13 0.0 -9.198197759019646e-13 0.0 0.0
1.5737411374061336e-13 -1.076916333886179e-13 0.0 -9.645062526430736e-13 0.0 0.0
1.0172418463127823e-13 -2.3869795029465923e-14 0.0 -1.0215439605331571e-12 0.0 0.0
-3.885780586188516e-14 2.325917236589752e-13 0.0 -8.338642276673459e-13 0.0 0.0
-1.2961853812499579e-13 5.307559947098661e-13 0.0 -5.10598507919085e-13 0.0 0.0
-1.0103029524088611e-13 4.225092498089083e-13 0.0 5.005371117583515e-13 0.0 0.0
-1.1934897514716916e-14 2.1843638009499702e-13 0.0 8.506216564452358e-13 0.0 0.0
1.4488410471358454e-13 -1.887379141863218e-14 0.0 1.1196599203344633e-12 0.0 0.0
2.409183963436577e-13 -1.2101430968414247e-13 0.0 1.1007861289158387e-12 0.0 0.0
2.881028748902244e-13 -1.3433698597965285e-13 0.0 1.029454299583671e-12 0.0 0.0
3.2557290197132175e-13 -1.5987211554600265e-13 0.0 9.70890035034707e-13 0.0 0.0
3.619327060277992e-13 -1.5321077739827827e-13 0.0 8.937295348232581e-13 0.0 0.0
4.0273340218277806e-13 -1.6653345369376692e-13 0.0 8.326672684688787e-13 0.0 0.0
4.563016631209375e-13 -1.9095836023553773e-13 0.0 8.093525849517099e-13 0.0 0.0
5.112577028398814e-13 -2.2870594307280476e-13 0.0 7.915890165577414e-13 0.0 0.0
5.545564008002638e-13 -2.3092638912197864e-13 0.0 7.449596495234804e-13 0.0 0.0
5.928590951498312e-13 -2.5313084961453095e-13 0.0 6.833422716567798e-13 0.0 0.0
6.250555628639647e-13 -2.5535129566374885e-13 0.0 6.161737786669905e-13 0.0 0.0
6.480926906249363e-13 -2.442490654175611e-13 0.0 5.484501741648286e-13 0.0 0.0
6.766809335090313e-13 -2.5757174171306227e-13 0.0 4.896083538597172e-13 0.0 0.0
7.099876242477882e-13 -2.9309887850096565e-13 0.0 4.2077452633292e-13 0.0 0.0
7.406575353030566e-13 -3.0642155479650514e-13 0.0 2.992051051364447e-13 0.0 0.0
7.596701045997608e-13 -3.330669073876243e-13 0.0 1.7930101847694814e-13 0.0 0.0
7.636946630640306e-13 -3.375077994859652e-13 0.0 8.548717289612249e-14 0.0 0.0
7.642497745763421e-13 -3.4194869158457295e-13 0.0 1.4432899320112204e-14 0.0 0.0
7.618905506490077e-13 -3.2862601528905053e-13 0.0 -2.2759572004822714e-14 0.0 0.0
7.550904346231814e-13 -3.33066907387605e-13 0.0 -1.2045919817181156e-13 0.0 0.0
7.424616477180732e-13 -3.153033389934267e-13 0.0 -2.5979218776230683e-13 0.0 0.0
7.245593014459916e-13 -3.153033389935578e-13 0.0 -3.1086244689503373e-13 0.0 0.0
6.991629497576966e-13 -2.886579864025446e-13 0.0 -3.563815909046587e-13 0.0 0.0
6.704359289955208e-13 -2.708944180085098e-13 0.0 -4.474198789239489e-13 0.0 0.0
6.457334666976076e-13 -2.753353101070924e-13 0.0 -5.38458166943198e-13 0.0 0.0
6.149247777642602e-13 -2.6645352591003484e-13 0.0 -6.111777750561534e-13 0.0 0.0
5.766220834146925e-13 -2.287059430728136e-13 0.0 -6.566969190657692e-13 0.0 0.0
5.358213872597168e-13 -2.33146835171236e-13 0.0 -6.816769371198625e-13 0.0 0.0
4.943268017143539e-13 -1.976196983832444e-13 0.0 -7.005507285384848e-13 0.0 0.0
4.540812170716889e-13 -2.0428103653103925e-13 0.0 -7.377431998633976e-13 0.0 0.0
4.123090757701687e-13 -1.9095836023547162e-13 0.0 -8.015810237793509e-13 0.0 0.0
3.690103778097889e-13 -1.7763568394006708e-13 0.0 -8.337774914934794e-13 0.0 0.0
3.2432390106862497e-13 -1.5987211554599298e-13 0.0 -8.354428260304638e-13 0.0 0.0
2.825517597671042e-13 -1.3766765505352413e-13 0.0 -8.65696403451504e-13 0.0 0.0
2.534084053706928e-13 -1.4210854715202403e-13 0.0 -9.112155474611081e-13 0.0 0.0
2.1788126858268763e-13 -1.2989609388114806e-13 0.0 -9.571510251049372e-13 0.0 0.0
1.3225531780847114e-13 -2.942091015256766e-14 0.0 -9.860168237451475e-13 0.0 0.0
-1.151856388048477e-14 1.987299214079048e-13 0.0 -7.743285179718056e-13 0.0 0.0
-9.520162436160433e-14 4.0620284913473026e-13 0.0 -4.567526912247539e-13 0.0 0.0
-6.605826996519654e-14 3.066297216136624e-13 0.0 4.364217320862025e-13 0.0 0.0
1.6653345369375344e-14 1.779132396961728e-13 0.0 7.726978779043534e-13 0.0 0.0
1.776356839400238e-13 -3.164135620182616e-14 0.0 1.0542261508206173e-12 0.0 0.0
3.0420110874729143e-13 -1.4321877017664093e-13 0.0 1.0628997682004917e-12 0.0 0.0
3.885780586188053e-13 -1.7541523789079006e-13 0.0 9.953149415764274e-13 0.0 0.0
4.593547764386592e-13 -2.0761170560491725e-13 0.0 9.26758669805804e-13 0.0 0.0
5.273559366969456e-13 -2.3980817331904497e-13 0.0 8.426592756904876e-13 0.0 0.0
5.956346527113907e-13 -2.442490654175462e-13 0.0 7.899236820207908e-13 0.0 0.0
6.714073741420609e-13 -2.8421709430403614e-13 0.0 7.699396675774997e-13 0.0 0.0
7.48567874353517e-13 -3.3084646133826575e-13 0.0 7.455147610357893e-13 0.0 0.0
8.162914788556504e-13 -3.5527136788004277e-13 0.0 7.127631818093026e-13 0.0 0.0
8.754108549169384e-13 -3.6415315207704584e-13 0.0 6.46704911844126e-13 0.0 0.0
9.27868892830475e-13 -3.996802888650739e-13 0.0 5.84532422465171e-13 0.0 0.0
9.711675907908573e-13 -3.863576125695986e-13 0.0 5.245803791354022e-13 0.0 0.0
1.0128009542143017e-12 -4.0856207306203953e-13 0.0 4.629630012686961e-13 0.0 0.0
1.055822096418524e-12 -4.263256414560171e-13 0.0 3.963496197911687e-13 0.0 0.0
1.0984269049885128e-12 -4.662936703425353e-13 0.0 2.91988655476422e-13 0.0 0.0
1.1252110354575933e-12 -4.884981308351625e-13 0.0 1.7041923427998985e-13 0.0 0.0
1.13423159753267e-12 -4.796163466380038e-13 0.0 8.049116928532289e-14 0.0 0.0
1.1372847108503907e-12 -4.973799150320837e-13 0.0 1.9984014443263092e-14 0.0 0.0
1.130207039068411e-12 -4.529709940470663e-13 0.0 -2.7755575615642532e-14 0.0 0.0
1.1225742557741128e-12 -4.929390229334891e-13 0.0 -1.204591981718148e-13 0.0 0.0
1.1078638006978325e-12 -4.796163466379276e-13 0.0 -2.398081733190424e-13 0.0 0.0
1.079553113569888e-12 -4.529709940471083e-13 0.0 -2.969846590872111e-13 0.0 0.0
1.04485864405035e-12 -4.5297099404706417e-13 0.0 -3.325117958752244e-13 0.0 0.0
1.005723282432311e-12 -3.9968028886504323e-13 0.0 -4.2577052994379307e-13 0.0 0.0
9.664491429361965e-13 -4.2188474935756766e-13 0.0 -5.112577028398826e-13 0.0 0.0
9.194034422677104e-13 -3.819167204710359e-13 0.0 -5.817568649035708e-13 0.0 0.0
8.618106228652794e-13 -3.6193270602775e-13 0.0 -6.233902283270524e-13 0.0 0.0
8.018585795355229e-13 -3.3084646133834486e-13 0.0 -6.461498003318441e-13 0.0 0.0
7.410738689372968e-13 -3.219646771412519e-13 0.0 -6.616929226765951e-13 0.0 0.0
6.786238238021275e-13 -3.019806626981493e-13 0.0 -6.977751709768751e-13 0.0 0.0
6.135369989834742e-13 -2.819966482547192e-13 0.0 -7.588374373312608e-13 0.0 0.0
5.458133944813387e-13 -2.531308496145868e-13 0.0 -7.871481244592123e-13 0.0 0.0
4.744815651491746e-13 -2.2204460492499334e-13 0.0 -7.907563492893055e-13 0.0 0.0
4.0592529337857185e-13 -1.909583602355345e-13 0.0 -8.318346012004226e-13 0.0 0.0
3.4583447217073707e-13 -1.731947918415208e-13 0.0 -8.806844142838923e-13 0.0 0.0
2.7672308888782264e-13 -1.509903313490167e-13 0.0 -9.263423361715897e-13 0.0 0.0
1.6375789613221215e-13 -4.1078251911104513e-14 0.0 -9.29950561001576e-13 0.0 0.0
1.4849232954361743e-14 1.612598943268019e-13 0.0 -7.049742734022159e-13 0.0 0.0
-6.217248937901032e-14 2.9747038166049884e-13 0.0 -4.024211519571675e-13 0.0 0.0
-3.497202527569202e-14 2.0844437287337556e-13 0.0 3.695654893220584e-13 0.0 0.0
4.496403249731991e-14 1.373900992973621e-13 0.0 6.783462680459541e-13 0.0 0.0
2.134403764841866e-13 -5.329070518200474e-14 0.0 9.683226442902323e-13 0.0 0.0
3.672062653947696e-13 -1.6320278461989407e-13 0.0 9.98229277016064e-13 0.0 0.0
4.860001290296626e-13 -2.176037128265386e-13 0.0 9.323097849289599e-13 0.0 0.0
5.911937606128938e-13 -2.620126338115717e-13 0.0 8.59312621059812e-13 0.0 0.0
6.933342788784095e-13 -3.086420008457662e-13 0.0 7.796541190430099e-13 0.0 0.0
7.899236820208011e-13 -3.308464613383256e-13 0.0 7.255307465925242e-13 0.0 0.0
8.865130851631867e-13 -3.6637359812633034e-13 0.0 7.038813976123276e-13 0.0 0.0
9.87820936160234e-13 -4.241051954068414e-13 0.0 6.877831637552574e-13 0.0 0.0
1.0783041126671837e-12 -4.796163466380643e-13 0.0 6.655787032627723e-13 0.0 0.0
1.1574075031717208e-12 -4.818367926873922e-13 0.0 5.923039836375049e-13 0.0 0.0
1.2317924458216116e-12 -5.373479439186185e-13 0.0 5.412337245047516e-13 0.0 0.0
1.2947976024690935e-12 -5.24025267623071e-13 0.0 4.818367926872979e-13 0.0 0.0
1.3508638652126596e-12 -5.639932965095853e-13 0.0 4.3298697960381494e-13 0.0 0.0
1.404432126150824e-12 -5.639932965096161e-13 0.0 3.6637359812629005e-13 0.0 0.0
1.4560574967958912e-12 -6.2172489378997e-13 0.0 2.6756374893466313e-13 0.0 0.0
1.491168299949659e-12 -6.616929226767337e-13 0.0 1.5487611193520348e-13 0.0 0.0
1.5071277559286508e-12 -6.306066779871067e-13 0.0 7.438494264988098e-14 0.0 0.0
1.509070646221748e-12 -6.661338147751378e-13 0.0 1.3877787807809276e-14 0.0 0.0
1.499217416878198e-12 -5.773159728050747e-13 0.0 -3.1641356201812847e-14 0.0 0.0
1.4942214132673797e-12 -6.528111384796015e-13 0.0 -1.0602629885169928e-13 0.0 0.0
1.4735435094337384e-12 -6.261657858885463e-13 0.0 -2.2148949341270214e-13 0.0 0.0
1.4346857035718565e-12 -5.861977570021283e-13 0.0 -2.792210906932235e-13 0.0 0.0
1.3922196728799447e-12 -6.08402217494593e-13 0.0 -3.0087043967343156e-13 0.0 0.0
1.342398414649895e-12 -5.462297281155696e-13 0.0 -3.902433931557425e-13 0.0 0.0
1.2874423749309484e-12 -5.639932965095641e-13 0.0 -4.718447854656663e-13 0.0 0.0
1.2233269952588464e-12 -5.062616992290418e-13 0.0 -5.412337245047534e-13 0.0 0.0
1.1483869410966493e-12 -4.929390229335524e-13 0.0 -5.750955267558335e-13 0.0 0.0
1.0691447727140288e-12 -4.37427871702376e-13 0.0 -5.928590951498198e-13 0.0 0.0
9.892087149410139e-13 -4.485301019485669e-13 0.0 -6.122879980807762e-13 0.0 0.0
9.037215420448756e-13 -3.8857805861881246e-13 0.0 -6.41153796720978e-13 0.0 0.0
8.153200337090973e-13 -3.7081449022482834e-13 0.0 -7.005507285384417e-13 0.0 0.0
7.226164111528944e-13 -3.241851231905713e-13 0.0 -7.255307465925083e-13 0.0 0.0
6.240841177174176e-13 -2.864375403532572e-13 0.0 -7.327471962526234e-13 0.0 0.0
5.276334924531103e-13 -2.3092638912202054e-13 0.0 -7.702172233337172e-13 0.0 0.0
4.361788707996089e-13 -2.1427304375264052e-13 0.0 -8.273937091018747e-13 0.0 0.0
3.3431590829024966e-13 -1.6653345369376116e-13 0.0 -8.702760734280018e-13 0.0 0.0
1.9595436384633914e-13 -5.884182030512752e-14 0.0 -8.574391197057437e-13 0.0 0.0
4.121702978920974e-14 1.25177646026487e-13 0.0 -6.216901993205647e-13 0.0 0.0
-3.247402347028392e-14 2.0400348077486555e-13 0.0 -3.4534874959750527e-13 0.0 0.0
-7.216449660065367e-15 1.274674810147744e-13 0.0 3.0097452308196366e-13 0.0 0.0
7.271960811294561e-14 9.631184738623153e-14 0.0 5.784782375339833e-13 0.0 0.0
2.49245069028346e-13 -7.60502771868252e-14 0.0 8.547329510833051e-13 0.0 0.0
4.288236432614641e-13 -1.8762769116166001e-13 0.0 9.019174296298464e-13 0.0 0.0
5.836997551966765e-13 -2.664535259100218e-13 0.0 8.396061623727841e-13 0.0 0.0
7.241429678117632e-13 -3.1641356201815295e-13 0.0 7.729927808952679e-13 0.0 0.0
8.584799537914049e-13 -3.8191672047106516e-13 0.0 6.999956170261579e-13 0.0 0.0
9.83380044061732e-13 -4.1522341120980996e-13 0.0 6.455946888195263e-13 0.0 0.0
1.1041167979897166e-12 -4.57411886145602e-13 0.0 6.200595592531752e-13 0.0 0.0
1.2284617767477327e-12 -5.151434834261203e-13 0.0 6.117328865684257e-13 0.0 0.0
1.3403167464787166e-12 -5.906386491006277e-13 0.0 5.839773109528521e-13 0.0 0.0
1.4405143744511362e-12 -5.972999872483969e-13 0.0 5.301314942585035e-13 0.0 0.0
1.536271110325057e-12 -6.594724766273528e-13 0.0 4.884981308350712e-13 0.0 0.0
1.6206480601965739e-12 -6.705747068736126e-13 0.0 4.2910119901761846e-13 0.0 0.0
1.6911472222602725e-12 -7.149836278586379e-13 0.0 3.841371665203045e-13 0.0 0.0
1.7544299346639048e-12 -7.149836278585785e-13 0.0 3.297362383136679e-13 0.0 0.0
1.815769756774442e-12 -7.860379014345638e-13 0.0 2.2648549702353888e-13 0.0 0.0
1.85768067595404e-12 -8.03801469828698e-13 0.0 1.3766765505351027e-13 0.0 0.0
1.8791912470561556e-12 -8.12683254025683e-13 0.0 7.049916206370508e-14 0.0 0.0
1.882383138251957e-12 -8.171241461241544e-13 0.0 7.21644966005968e-15 0.0 0.0
1.8746115770795796e-12 -7.549516567451231e-13 0.0 -2.7200464103286068e-14 0.0 0.0
1.8661461265168116e-12 -8.126832540256661e-13 0.0 -9.048317650693795e-14 0.0 0.0
1.8381129951450264e-12 -7.815970093360573e-13 0.0 -2.0317081350642354e-13 0.0 0.0
1.7935652962819412e-12 -7.460698725482013e-13 0.0 -2.4924506902834875e-13 0.0 0.0
1.7412460362464831e-12 -7.416289804496157e-13 0.0 -2.6367796834845393e-13 0.0 0.0
1.6799062141359396e-12 -7.061018436615785e-13 0.0 -3.413935800722204e-13 0.0 0.0
1.6091294963160838e-12 -6.927791673661793e-13 0.0 -4.2355008389448076e-13 0.0 0.0
1.5287771049088444e-12 -6.394884621840811e-13 0.0 -4.801714581504134e-13 0.0 0.0
1.4376000390115028e-12 -6.261657858885237e-13 0.0 -5.129230373768386e-13 0.0 0.0
1.336569743770613e-12 -5.528910662634523e-13 0.0 -5.223599330861687e-13 0.0 0.0
1.2359557821639585e-12 -5.506706202140927e-13 0.0 -5.440092820663629e-13 0.0 0.0
1.1297907054341755e-12 -4.907185768842034e-13 0.0 -5.723199691942589e-13 0.0 0.0
1.0175194020689564e-12 -4.551914400963582e-13 0.0 -6.247780071077744e-13 0.0 0.0
8.987255384340628e-13 -3.9301895071732324e-13 0.0 -6.519784712110903e-13 0.0 0.0
7.7424178179797e-13 -3.4194869158454796e-13 0.0 -6.536438057480961e-13 0.0 0.0
6.503131366741864e-13 -2.786659791809155e-13 0.0 -6.930567231223045e-13 0.0 0.0
5.251354906476971e-13 -2.520206265899337e-13 0.0 -7.482903185973579e-13 0.0 0.0
3.9024339315574257e-13 -1.809663530138901e-13 0.0 -7.867317908249738e-13 0.0 0.0
2.2933044352413314e-13 -7.9936057773016e-14 0.0 -7.629313847345459e-13 0.0 0.0
6.67521593555871e-14 8.854028621385844e-14 0.0 -5.321264262559089e-13 0.0 0.0
-7.07767178198539e-15 1.2760625889285257e-13 0.0 -2.8473751134689e-13 0.0 0.0
1.6653345369379115e-14 6.467049118441224e-14 0.0 2.3408358584830414e-13 0.0 0.0
9.575673587392715e-14 5.77315972805081e-14 0.0 4.7314582807269e-13 0.0 0.0
2.842170943040499e-13 -9.769962616701269e-14 0.0 7.26363413861034e-13 0.0 0.0
4.918287999089484e-13 -2.1649348980190674e-13 0.0 7.707723348460793e-13 0.0 0.0
6.811218256075274e-13 -3.108624468950293e-13 0.0 7.224776332748545e-13 0.0 0.0
8.582023980352313e-13 -3.7081449022476447e-13 0.0 6.628031457012693e-13 0.0 0.0
1.0250134074851594e-12 -4.596323321948368e-13 0.0 5.972999872483486e-13 0.0 0.0
1.176836406102662e-12 -5.018208071306077e-13 0.0 5.467848396279144e-13 0.0 0.0
1.3228307338408779e-12 -5.639932965095576e-13 0.0 5.268008251846768e-13 0.0 0.0
1.4674372827983017e-12 -6.172840016916145e-13 0.0 5.168088179630458e-13 0.0 0.0
1.6028844918025698e-12 -6.816769371199607e-13 0.0 4.929390229335886e-13 0.0 0.0
1.7291723608536789e-12 -7.149836278586574e-13 0.0 4.5075054799780154e-13 0.0 0.0
1.841859997853136e-12 -7.904787935330975e-13 0.0 4.163336342344568e-13 0.0 0.0
1.9456658506555844e-12 -8.12683254025632e-13 0.0 3.7470027081101795e-13 0.0 0.0
2.034206136869446e-12 -8.748557434047106e-13 0.0 3.208544541167151e-13 0.0 0.0
2.105815521957769e-12 -8.526512829121111e-13 0.0 2.7977620220555894e-13 0.0 0.0
2.1768697955337704e-12 -9.237055564881246e-13 0.0 1.820765760385228e-13 0.0 0.0
2.230715612228096e-12 -9.547918011776698e-13 0.0 1.1657341758566577e-13 0.0 0.0
2.2516710718178976e-12 -9.681144774731704e-13 0.0 6.550315845287498e-14 0.0 0.0
2.2554180745260096e-12 -9.59232693276197e-13 0.0 8.881784196985898e-15 0.0 0.0
2.253613962110994e-12 -9.636735853746932e-13 0.0 -2.109423746785422e-14 0.0 0.0
2.2390422849127832e-12 -9.503509090790997e-13 0.0 -7.605027718680006e-14 0.0 0.0
2.204902926905561e-12 -9.370282327835667e-13 0.0 -1.7263968032924294e-13 0.0 0.0
2.1545265571631944e-12 -9.148237722912142e-13 0.0 -2.1094237467875344e-13 0.0 0.0
2.0927704014184197e-12 -8.792966355031472e-13 0.0 -2.225997164373457e-13 0.0 0.0
2.019079348158925e-12 -8.570921750106061e-13 0.0 -2.875477633779203e-13 0.0 0.0
1.9317880628477696e-12 -8.082423619271441e-13 0.0 -3.6415315207705195e-13 0.0 0.0
1.8356149933396202e-12 -7.815970093361052e-13 0.0 -4.0856207306208447e-13 0.0 0.0
1.7273682484386687e-12 -7.505107646465773e-13 0.0 -4.3798298321466525e-13 0.0 0.0
1.605521271486057e-12 -6.750155989721687e-13 0.0 -4.424238753131668e-13 0.0 0.0
1.4824252936307429e-12 -6.283862319377941e-13 0.0 -4.610201109756275e-13 0.0 0.0
1.3564843692748235e-12 -5.884182030513262e-13 0.0 -4.871103520542871e-13 0.0 0.0
1.220343270880162e-12 -5.329070518200369e-13 0.0 -5.317968287954685e-13 0.0 0.0
1.0751816104104238e-12 -4.685141163918353e-13 0.0 -5.564992910933693e-13 0.0 0.0
9.255096689031504e-13 -3.9968028886507317e-13 0.0 -5.531686220195577e-13 0.0 0.0
7.733397255904643e-13 -3.4638958368305096e-13 0.0 -5.936917624183517e-13 0.0 0.0
6.139533326177116e-13 -2.7200464103319263e-13 0.0 -6.453171330634028e-13 0.0 0.0
4.4519943287468686e-13 -2.0206059048176708e-13 0.0 -6.765421556309654e-13 0.0 0.0
2.612493554821069e-13 -9.825473767934329e-14 0.0 -6.482314685029813e-13 0.0 0.0
8.999745393367683e-14 5.051514762044592e-14 0.0 -4.368554129552966e-13 0.0 0.0
1.58206781009056e-14 6.876443858772706e-14 0.0 -2.2339768923638384e-13 0.0 0.0
3.4416913763380105e-14 2.1163626406918088e-14 0.0 1.6649875922424382e-13 0.0 0.0
1.1601830607332815e-13 2.0539125955568002e-14 0.0 3.6469091635461435e-13 0.0 0.0
3.144706717250752e-13 -1.165734175856403e-13 0.0 5.774547506831781e-13 0.0 0.0
5.51780843238703e-13 -2.4202861936828216e-13 0.0 6.121492202027332e-13 0.0 0.0
7.818745650922665e-13 -3.4972025275691825e-13 0.0 5.734301922189245e-13 0.0 0.0
9.939271627956732e-13 -4.2854608750533375e-13 0.0 5.248579348915586e-13 0.0 0.0
1.191546861178951e-12 -5.262457136723217e-13 0.0 4.72955008490338e-13 0.0 0.0
1.3725132141928441e-12 -5.906386491006463e-13 0.0 4.2743586448071097e-13 0.0 0.0
1.5423773369604927e-12 -6.661338147750568e-13 0.0 4.179989687714148e-13 0.0 0.0
1.7083556791419608e-12 -7.21644966006353e-13 0.0 4.0245584642658956e-13 0.0 0.0
1.867672683175668e-12 -8.015810237794135e-13 0.0 4.019007349143166e-13 0.0 0.0
2.016997679987751e-12 -8.482103908135998e-13 0.0 3.5527136788005474e-13 0.0 0.0
2.1524448889920235e-12 -9.392486788329372e-13 0.0 3.286260152890669e-13 0.0 0.0
2.271516308383074e-12 -9.503509090790746e-13 0.0 3.04756220259623e-13 0.0 0.0
2.3755997169416836e-12 -1.0080825063596924e-12 0.0 2.5313084961453796e-13 0.0 0.0
2.4624746686186e-12 -1.0080825063596878e-12 0.0 2.2315482794969208e-13 0.0 0.0
2.542410726391609e-12 -1.0569323194431147e-12 0.0 1.3655743202891813e-13 0.0 0.0
2.604583215770615e-12 -1.1324274851177196e-12 0.0 9.103828801924971e-14 0.0 0.0
2.6272040098973487e-12 -1.1146639167236085e-12 0.0 4.551914400962068e-14 0.0 0.0
2.631228568361623e-12 -1.101341240428192e-12 0.0 5.5511151231135396e-15 0.0 0.0
2.633032680776639e-12 -1.1501910535117884e-12 0.0 -1.4988010832443905e-14 0.0 0.0
2.6154078902607097e-12 -1.1057821325266256e-12 0.0 -5.995204332974721e-14 0.0 0.0
2.5737745268372736e-12 -1.092459456231183e-12 0.0 -1.3933298959048032e-13 0.0 0.0
2.5165980410690744e-12 -1.0702549957386806e-12 0.0 -1.6764367671837996e-13 0.0 0.0
2.445682545371139e-12 -1.0302869668521574e-12 0.0 -1.6764367671841454e-13 0.0 0.0
2.3597790388407682e-12 -1.0080825063596274e-12 0.0 -2.3203661214666186e-13 0.0 0.0
2.258193632087566e-12 -9.547918011775997e-13 0.0 -2.8921309791486413e-13 0.0 0.0
2.1442569941854133e-12 -9.148237722911211e-13 0.0 -3.2363001167824434e-13 0.0 0.0
2.0172752357439123e-12 -8.770761894538886e-13 0.0 -3.433364703653451e-13 0.0 0.0
1.876346300555557e-12 -7.926992395823729e-13 0.0 -3.4638958368307944e-13 0.0 0.0
1.7304907506954273e-12 -7.349676423017662e-13 0.0 -3.602673714908864e-13 0.0 0.0
1.5831086441764335e-12 -6.794564910706774e-13 0.0 -3.8441472227644995e-13 0.0 0.0
1.4241385848379196e-12 -6.150635556422999e-13 0.0 -4.243827511629687e-13 0.0 0.0
1.2533030169237216e-12 -5.417888360170805e-13 0.0 -4.402034292638696e-13 0.0 0.0
1.0773326675206365e-12 -4.640732242933017e-13 0.0 -4.3687276019005746e-13 0.0 0.0
8.963663145067388e-13 -4.0190073491431717e-13 0.0 -4.704570066849696e-13 0.0 0.0
7.036038418561941e-13 -3.0309088572270025e-13 0.0 -5.176414852315112e-13 0.0 0.0
4.998085278984375e-13 -2.2093438190039222e-13 0.0 -5.412337245047644e-13 0.0 0.0
2.904620988175553e-13 -1.154631945610287e-13 0.0 -5.134087599500506e-13 0.0 0.0
1.0880185641326564e-13 1.720845688169263e-14 0.0 -3.3369140783895324e-13 0.0 0.0
3.275157922644349e-14 2.6298407895810573e-14 0.0 -1.6195378371727877e-13 0.0 0.0
4.718447854656523e-14 -3.677613769065649e-15 0.0 1.0609568779073385e-13 0.0 0.0
1.271205363195794e-13 -9.436895709312371e-15 0.0 2.4664298381438274e-13 0.0 0.0
3.391731340229852e-13 -1.3045120539345882e-13 0.0 3.9870884371854403e-13 0.0 0.0
6.117328865684649e-13 -2.6645352591004863e-13 0.0 4.327094238476673e-13 0.0 0.0
8.826273045770083e-13 -3.885780586188064e-13 0.0 4.0051295613355455e-13 0.0 0.0
1.1335377081422903e-12 -4.851674617612093e-13 0.0 3.6221026178395323e-13 0.0 0.0
1.3614109839466002e-12 -6.039613253961082e-13 0.0 3.2696068075210537e-13 0.0 0.0
1.5690226895515025e-12 -6.683542608243543e-13 0.0 2.97539770599503e-13 0.0 0.0
1.7622014958362797e-12 -7.63833440942141e-13 0.0 2.86437540353334e-13 0.0 0.0
1.9509394100225616e-12 -8.193445921733433e-13 0.0 2.775557561562653e-13 0.0 0.0
2.1355139878664947e-12 -9.34807786734359e-13 0.0 2.803313137178683e-13 0.0 0.0
2.306488333658767e-12 -9.836575998178511e-13 0.0 2.475797344914203e-13 0.0 0.0
2.4630297801309106e-12 -1.0791367799356645e-12 0.0 2.298161660973978e-13 0.0 0.0
2.600142323672112e-12 -1.1013412404281428e-12 0.0 2.0872192862954516e-13 0.0 0.0
2.7197688545754776e-12 -1.1546319456101262e-12 0.0 1.7319479184150513e-13 0.0 0.0
2.821354261328682e-12 -1.159072837708665e-12 0.0 1.4988010832444142e-13 0.0 0.0
2.9123925493479354e-12 -1.2434497875802095e-12 0.0 9.769962616703875e-14 0.0 0.0
2.9803937096062287e-12 -1.3056222769591037e-12 0.0 5.884182030515474e-14 0.0 0.0
3.0044022825137534e-12 -1.292299600663704e-12 0.0 3.441691376337724e-14 0.0 0.0
3.010230953393038e-12 -1.2567724638756332e-12 0.0 -2.2204460492774625e-15 0.0 0.0
3.014671845491538e-12 -1.3189449532548047e-12 0.0 -3.33066907388019e-15 0.0 0.0
2.9951041646825152e-12 -1.2700951401711187e-12 0.0 -4.2743586448040973e-14 0.0 0.0
2.9470870188674797e-12 -1.2567724638758204e-12 0.0 -9.769962616702245e-14 0.0 0.0
2.88102874890228e-12 -1.2301271112846533e-12 0.0 -1.1435297153639249e-13 0.0 0.0
2.799427356592336e-12 -1.1812772982011001e-12 0.0 -1.149080830487298e-13 0.0 0.0
2.7042257322307287e-12 -1.1501910535116692e-12 0.0 -1.626476731075826e-13 0.0 0.0
2.5887625376697076e-12 -1.114663916723668e-12 0.0 -1.9484414082171477e-13 0.0 0.0
2.454772496385264e-12 -1.0524914273446363e-12 0.0 -2.2537527399892117e-13 0.0 0.0
2.3071822230491563e-12 -1.001421168211956e-12 0.0 -2.3481216970823606e-13 0.0 0.0
2.1466856070517805e-12 -9.170442183404298e-13 0.0 -2.403632848313603e-13 0.0 0.0
1.980290931236084e-12 -8.459899447643218e-13 0.0 -2.506328478091405e-13 0.0 0.0
1.8113288646759409e-12 -7.815970093361482e-13 0.0 -2.617350780553621e-13 0.0 0.0
1.628974732881261e-12 -7.127631818093559e-13 0.0 -2.953193245502912e-13 0.0 0.0
1.4317019791931752e-12 -6.195044477408215e-13 0.0 -3.0683788843077057e-13 0.0 0.0
1.2299883334065971e-12 -5.329070518200627e-13 0.0 -3.0239699633233164e-13 0.0 0.0
1.0211276268989908e-12 -4.5186077102247355e-13 0.0 -3.279321258986988e-13 0.0 0.0
7.945727409364164e-13 -3.4527936065843e-13 0.0 -3.626265954182018e-13 0.0 0.0
5.540359837574725e-13 -2.3980817331901947e-13 0.0 -3.803901638121951e-13 0.0 0.0
3.1519925558498413e-13 -1.310063169057619e-13 0.0 -3.5735303605116996e-13 0.0 0.0
1.2059797604990702e-13 -8.88178419700682e-15 0.0 -2.2558344081605676e-13 0.0 0.0
4.260480856998966e-14 8.326672684682765e-16 0.0 -1.0380585280251981e-13 0.0 0.0
4.385380947269452e-14 -7.771561172370004e-15 0.0 6.480926906241936e-14 0.0 0.0
1.257327575387934e-13 -2.6922908347162564e-14 0.0 1.198346977204341e-13 0.0 0.0
3.577693696854512e-13 -1.4044321261508392e-13 0.0 1.9900747716406095e-13 0.0 0.0
6.714073741420632e-13 -2.8976820942717075e-13 0.0 2.1677104555802047e-13 0.0 0.0
9.858780458671414e-13 -4.2854608750530467e-13 0.0 1.9900747716404578e-13 0.0 0.0
1.2750911437819913e-12 -5.473399511402034e-13 0.0 1.8124390877001048e-13 0.0 0.0
1.5351608873004356e-12 -6.772360450213845e-13 0.0 1.6070478281451837e-13 0.0 0.0
1.7671974994471054e-12 -7.527312106958816e-13 0.0 1.5099033134896813e-13 0.0 0.0
1.982858321980535e-12 -8.526512829121731e-13 0.0 1.4266365866431866e-13 0.0 0.0
2.194910919683935e-12 -9.281464485866216e-13 0.0 1.4099832412738923e-13 0.0 0.0
2.404187959825779e-12 -1.0458300891969017e-12 0.0 1.343369859796237e-13 0.0 0.0
2.598476989135176e-12 -1.1102230246251994e-12 0.0 1.2490009027033337e-13 0.0 0.0
2.773614671269799e-12 -1.201261312644403e-12 0.0 1.149080830486579e-13 0.0 0.0
2.9293234504734836e-12 -1.2523315717771657e-12 0.0 9.93649607039035e-14 0.0 0.0
3.06782377279547e-12 -1.3100631690576857e-12 0.0 8.65973959207663e-14 0.0 0.0
3.190503417016543e-12 -1.354472090042641e-12 0.0 6.883382752675862e-14 0.0 0.0
3.287647931671235e-12 -1.4033219031261912e-12 0.0 5.773159728047547e-14 0.0 0.0
3.355093980417215e-12 -1.4610535004066394e-12 0.0 2.997602166487465e-14 0.0 0.0
3.385486335716332e-12 -1.4566126083082266e-12 0.0 1.8873791418633896e-14 0.0 0.0
3.39450689779142e-12 -1.4388490399141134e-12 0.0 2.7755575615705528e-15 0.0 0.0
3.3967273438406745e-12 -1.469935284603803e-12 0.0 3.3306690738857816e-15 0.0 0.0
3.376465773641259e-12 -1.4388490399141142e-12 0.0 -2.2759572004787247e-14 0.0 0.0
3.3249791808742665e-12 -1.4210854715203074e-12 0.0 -4.77395900588801e-14 0.0 0.0
3.246153346125881e-12 -1.3944401189292788e-12 0.0 -5.440092820659565e-14 0.0 0.0
3.1563640590093225e-12 -1.3455903058455982e-12 0.0 -5.939693181743864e-14 0.0 0.0
3.0531133177191805e-12 -1.3100631690576447e-12 0.0 -7.993605777298642e-14 0.0 0.0
2.9216906671791748e-12 -1.2567724638757406e-12 0.0 -9.853229343546907e-14 0.0 0.0
2.7663982216097387e-12 -1.1945999744966517e-12 0.0 -1.1185496973099552e-13 0.0 0.0
2.5976443218667137e-12 -1.1257661469699756e-12 0.0 -1.1657341758563785e-13 0.0 0.0
2.4184820812678294e-12 -1.0413891970984734e-12 0.0 -1.2212453270876762e-13 0.0 0.0
2.232242168886961e-12 -9.459100169805952e-13 0.0 -1.2184697695260472e-13 0.0 0.0
2.0414225865295054e-12 -8.770761894539161e-13 0.0 -1.3086753902764592e-13 0.0 0.0
1.834886409479706e-12 -8.015810237793846e-13 0.0 -1.475208843970345e-13 0.0 0.0
1.6113152478958144e-12 -6.994405055138452e-13 0.0 -1.5251688800782062e-13 0.0 0.0
1.3838236112562212e-12 -5.950795411990547e-13 0.0 -1.504352198367333e-13 0.0 0.0
1.147831829584337e-12 -5.029310301552383e-13 0.0 -1.6459056340069821e-13 0.0 0.0
8.880049473525267e-13 -3.863576125695376e-13 0.0 -1.7957857423310652e-13 0.0 0.0
6.07847105982273e-13 -2.642330798607824e-13 0.0 -1.8818280267392508e-13 0.0 0.0
3.3324037973514384e-13 -1.3822276656581972e-13 0.0 -1.7486012637838155e-13 0.0 0.0
1.2177758801357209e-13 -2.7200464103326534e-14 0.0 -1.1293049828609441e-13 0.0 0.0
4.218847493575605e-14 -5.412337245048082e-15 0.0 -6.075001612874309e-14 0.0 0.0
2.053912595557114e-14 -4.163336342338749e-15 0.0 4.4339532045820367e-14 0.0 0.0
1.0463852007092629e-13 -3.275157922644926e-14 0.0 4.9162063309096784e-14 0.0 0.0
3.64708263589363e-13 -1.432187701766419e-13 0.0 7.320533068620036e-14 0.0 0.0
7.302491944471908e-13 -3.0198066269804717e-13 0.0 7.868705687016592e-14 0.0 0.0
1.0944023465242408e-12 -4.4853010194853704e-13 0.0 6.855627177054298e-14 0.0 0.0
1.4221956945448296e-12 -5.817568649035802e-13 0.0 7.022160630741743e-14 0.0 0.0
1.7111312367035243e-12 -7.061018436616486e-13 0.0 6.022959908591694e-14 0.0 0.0
1.9684254226603896e-12 -7.99360577730161e-13 0.0 5.717648576816557e-14 0.0 0.0
2.2060131499301836e-12 -8.970602038971498e-13 0.0 5.828670879277414e-14 0.0 0.0
2.437217094808384e-12 -9.858780458671479e-13 0.0 5.60662627435338e-14 0.0 0.0
2.6742497105658438e-12 -1.0969003483296345e-12 0.0 4.274358644801284e-14 0.0 0.0
2.89435142519778e-12 -1.1768364061027213e-12 0.0 4.9960036108097814e-14 0.0 0.0
3.0861424527017797e-12 -1.261213355974209e-12 0.0 4.329869796032567e-14 0.0 0.0
3.26266791361718e-12 -1.3322676295501162e-12 0.0 3.83026943495109e-14 0.0 0.0
3.4189318043331752e-12 -1.3766765505353127e-12 0.0 3.21964677141669e-14 0.0 0.0
3.564371020559068e-12 -1.4832579608990421e-12 0.0 2.3314683517094865e-14 0.0 0.0
3.668731984873833e-12 -1.465494392505143e-12 0.0 3.4416913763372886e-14 0.0 0.0
3.730904474252841e-12 -1.536548666081275e-12 0.0 9.9920072215789e-15 0.0 0.0
3.770317391627027e-12 -1.5365486660811573e-12 0.0 7.771561172365493e-15 0.0 0.0
3.78017062097058e-12 -1.527666881884091e-12 0.0 4.440892098467153e-15 0.0 0.0
3.7801706209705815e-12 -1.5543122344753476e-12 0.0 -3.3306690738937964e-15 0.0 0.0
3.766154055284683e-12 -1.5276668818840682e-12 0.0 -7.771561172340048e-15 0.0 0.0
3.7074510128576305e-12 -1.5099033134902614e-12 0.0 -1.3322676295505261e-14 0.0 0.0
3.6091962751782973e-12 -1.465494392505395e-12 0.0 -1.776356839396984e-14 0.0 0.0
3.516353874744023e-12 -1.4388490399141623e-12 0.0 -3.441691376336996e-14 0.0 0.0
3.408870408172502e-12 -1.4122036873231498e-12 0.0 -2.5535129566367645e-14 0.0 0.0
3.2577412989453986e-12 -1.3233858453532545e-12 0.0 -3.386180225102976e-14 0.0 0.0
3.0805913375786563e-12 -1.2612133559742178e-12 0.0 -4.3298697960347077e-14 0.0 0.0
2.887481920232918e-12 -1.1945999744966583e-12 0.0 -3.941291737415529e-14 0.0 0.0
2.6907642780571483e-12 -1.0924594562312142e-12 0.0 -4.884981308345923e-14 0.0 0.0
2.486864880690833e-12 -1.0080825063595428e-12 0.0 -4.274358644802753e-14 0.0 0.0
2.274118393597033e-12 -9.237055564882357e-13 0.0 -4.912736883960451e-14 0.0 0.0
2.0432266989445192e-12 -8.393286066165978e-13 0.0 -5.578870698734949e-14 0.0 0.0
1.7902693216775784e-12 -7.371880883511159e-13 0.0 -5.495603971886871e-14 0.0 0.0
1.5385262508438314e-12 -6.217248937900454e-13 0.0 -5.856426454895192e-14 0.0 0.0
1.2790463133072222e-12 -5.284661597216161e-13 0.0 -6.38378239159174e-14 0.0 0.0
9.853229343548258e-13 -4.0634162701279826e-13 0.0 -6.439293542820327e-14 0.0 0.0
6.618143533199116e-13 -2.7755575615629257e-13 0.0 -6.55031584528112e-14 0.0 0.0
3.412287813420161e-13 -1.3988810110276059e-13 0.0 -5.995204332963837e-14 0.0 0.0
1.0508087455729522e-13 -3.3861802251069035e-14 0.0 -4.673345044277925e-14 0.0 0.0
2.3661628212324375e-14 -3.6082248300365045e-15 0.0 -4.024558464266119e-14 0.0 0.0