# vtk DataFile Version 3.0
Some data
ASCII
DATASET UNSTRUCTURED_GRID
POINTS 861 float
0.0 0.0 0.0
0.4 0.0 0.0
0.8 0.0 0.0
1.2000000000000002 0.0 0.0
1.6 0.0 0.0
2.0 0.0 0.0
2.4000000000000004 0.0 0.0
2.8000000000000003 0.0 0.0
3.2 0.0 0.0
3.6 0.0 0.0
4.0 0.0 0.0
4.4 0.0 0.0
4.800000000000001 0.0 0.0
5.2 0.0 0.0
5.6000000000000005 0.0 0.0
6.0 0.0 0.0
6.4 0.0 0.0
6.800000000000001 0.0 0.0
7.2 0.0 0.0
7.6000000000000005 0.0 0.0
8.0 0.0 0.0
8.4 0.0 0.0
8.8 0.0 0.0
9.200000000000001 0.0 0.0
9.600000000000001 0.0 0.0
10.0 0.0 0.0
10.4 0.0 0.0
10.8 0.0 0.0
11.200000000000001 0.0 0.0
11.600000000000001 0.0 0.0
12.0 0.0 0.0
12.4 0.0 0.0
12.8 0.0 0.0
13.200000000000001 0.0 0.0
13.600000000000001 0.0 0.0
14.0 0.0 0.0
14.4 0.0 0.0
14.8 0.0 0.0
15.200000000000001 0.0 0.0
15.600000000000001 0.0 0.0
16.0 0.0 0.0
0.0 0.1 0.0
0.4 0.1 0.0
0.8 0.1 0.0
1.2000000000000002 0.1 0.0
1.6 0.1 0.0
2.0 0.1 0.0
2.4000000000000004 0.1 0.0
2.8000000000000003 0.1 0.0
3.2 0.1 0.0
3.6 0.1 0.0
4.0 0.1 0.0
4.4 0.1 0.0
4.800000000000001 0.1 0.0
5.2 0.1 0.0
5.6000000000000005 0.1 0.0
6.0 0.1 0.0
6.4 0.1 0.0
6.800000000000001 0.1 0.0
7.2 0.1 0.0
7.6000000000000005 0.1 0.0
8.0 0.1 0.0
8.4 0.1 0.0
8.8 0.1 0.0
9.200000000000001 0.1 0.0
9.600000000000001 0.1 0.0
10.0 0.1 0.0
10.4 0.1 0.0
10.8 0.1 0.0
11.200000000000001 0.1 0.0
11.600000000000001 0.1 0.0
12.0 0.1 0.0
12.4 0.1 0.0
12.8 0.1 0.0
13.200000000000001 0.1 0.0
13.600000000000001 0.1 0.0
14.0 0.1 0.0
14.4 0.1 0.0
14.8 0.1 0.0
15.200000000000001 0.1 0.0
15.600000000000001 0.1 0.0
16.0 0.1 0.0
0.0 0.2 0.0
0.4 0.2 0.0
0.8 0.2 0.0
1.2000000000000002 0.2 0.0
1.6 0.2 0.0
2.0 0.2 0.0
2.4000000000000004 0.2 0.0
2.8000000000000003 0.2 0.0
3.2 0.2 0.0
3.6 0.2 0.0
4.0 0.2 0.0
4.4 0.2 0.0
4.800000000000001 0.2 0.0
5.2 0.2 0.0
5.6000000000000005 0.2 0.0
6.0 0.2 0.0
6.4 0.2 0.0
6.800000000000001 0.2 0.0
7.2 0.2 0.0
7.6000000000000005 0.2 0.0
8.0 0.2 0.0
8.4 0.2 0.0
8.8 0.2 0.0
9.200000000000001 0.2 0.0
9.600000000000001 0.2 0.0
10.0 0.2 0.0
10.4 0.2 0.0
10.8 0.2 0.0
11.200000000000001 0.2 0.0
11.600000000000001 0.2 0.0
12.0 0.2 0.0
12.4 0.2 0.0
12.8 0.2 0.0
13.200000000000001 0.2 0.0
13.600000000000001 0.2 0.0
14.0 0.2 0.0
14.4 0.2 0.0
14.8 0.2 0.0
15.200000000000001 0.2 0.0
15.600000000000001 0.2 0.0
16.0 0.2 0.0
0.0 0.30000000000000004 0.0
0.4 0.30000000000000004 0.0
0.8 0.30000000000000004 0.0
1.2000000000000002 0.30000000000000004 0.0
1.6 0.30000000000000004 0.0
2.0 0.30000000000000004 0.0
2.4000000000000004 0.30000000000000004 0.0
2.8000000000000003 0.30000000000000004 0.0
3.2 0.30000000000000004 0.0
3.6 0.30000000000000004 0.0
4.0 0.30000000000000004 0.0
4.4 0.30000000000000004 0.0
4.800000000000001 0.30000000000000004 0.0
5.2 0.30000000000000004 0.0
5.6000000000000005 0.30000000000000004 0.0
6.0 0.30000000000000004 0.0
6.4 0.30000000000000004 0.0
6.800000000000001 0.30000000000000004 0.0
7.2 0.30000000000000004 0.0
7.6000000000000005 0.30000000000000004 0.0
8.0 0.30000000000000004 0.0
8.4 0.30000000000000004 0.0
8.8 0.30000000000000004 0.0
9.200000000000001 0.30000000000000004 0.0
9.600000000000001 0.30000000000000004 0.0
10.0 0.30000000000000004 0.0
10.4 0.30000000000000004 0.0
10.8 0.30000000000000004 0.0
11.200000000000001 0.30000000000000004 0.0
11.600000000000001 0.30000000000000004 0.0
12.0 0.30000000000000004 0.0
12.4 0.30000000000000004 0.0
12.8 0.30000000000000004 0.0
13.200000000000001 0.30000000000000004 0.0
13.600000000000001 0.30000000000000004 0.0
14.0 0.30000000000000004 0.0
14.4 0.30000000000000004 0.0
14.8 0.30000000000000004 0.0
15.200000000000001 0.30000000000000004 0.0
15.600000000000001 0.30000000000000004 0.0
16.0 0.30000000000000004 0.0
0.0 0.4 0.0
0.4 0.4 0.0
0.8 0.4 0.0
1.2000000000000002 0.4 0.0
1.6 0.4 0.0
2.0 0.4 0.0
2.4000000000000004 0.4 0.0
2.8000000000000003 0.4 0.0
3.2 0.4 0.0
3.6 0.4 0.0
4.0 0.4 0.0
4.4 0.4 0.0
4.800000000000001 0.4 0.0
5.2 0.4 0.0
5.6000000000000005 0.4 0.0
6.0 0.4 0.0
6.4 0.4 0.0
6.800000000000001 0.4 0.0
7.2 0.4 0.0
7.6000000000000005 0.4 0.0
8.0 0.4 0.0
8.4 0.4 0.0
8.8 0.4 0.0
9.200000000000001 0.4 0.0
9.600000000000001 0.4 0.0
10.0 0.4 0.0
10.4 0.4 0.0
10.8 0.4 0.0
11.200000000000001 0.4 0.0
11.600000000000001 0.4 0.0
12.0 0.4 0.0
12.4 0.4 0.0
12.8 0.4 0.0
13.200000000000001 0.4 0.0
13.600000000000001 0.4 0.0
14.0 0.4 0.0
14.4 0.4 0.0
14.8 0.4 0.0
15.200000000000001 0.4 0.0
15.600000000000001 0.4 0.0
16.0 0.4 0.0
0.0 0.5 0.0
0.4 0.5 0.0
0.8 0.5 0.0
1.2000000000000002 0.5 0.0
1.6 0.5 0.0
2.0 0.5 0.0
2.4000000000000004 0.5 0.0
2.8000000000000003 0.5 0.0
3.2 0.5 0.0
3.6 0.5 0.0
4.0 0.5 0.0
4.4 0.5 0.0
4.800000000000001 0.5 0.0
5.2 0.5 0.0
5.6000000000000005 0.5 0.0
6.0 0.5 0.0
6.4 0.5 0.0
6.800000000000001 0.5 0.0
7.2 0.5 0.0
7.6000000000000005 0.5 0.0
8.0 0.5 0.0
8.4 0.5 0.0
8.8 0.5 0.0
9.200000000000001 0.5 0.0
9.600000000000001 0.5 0.0
10.0 0.5 0.0
10.4 0.5 0.0
10.8 0.5 0.0
11.200000000000001 0.5 0.0
11.600000000000001 0.5 0.0
12.0 0.5 0.0
12.4 0.5 0.0
12.8 0.5 0.0
13.200000000000001 0.5 0.0
13.600000000000001 0.5 0.0
14.0 0.5 0.0
14.4 0.5 0.0
14.8 0.5 0.0
15.200000000000001 0.5 0.0
15.600000000000001 0.5 0.0
16.0 0.5 0.0
0.0 0.6000000000000001 0.0
0.4 0.6000000000000001 0.0
0.8 0.6000000000000001 0.0
1.2000000000000002 0.6000000000000001 0.0
1.6 0.6000000000000001 0.0
2.0 0.6000000000000001 0.0
2.4000000000000004 0.6000000000000001 0.0
2.8000000000000003 0.6000000000000001 0.0
3.2 0.6000000000000001 0.0
3.6 0.6000000000000001 0.0
4.0 0.6000000000000001 0.0
4.4 0.6000000000000001 0.0
4.800000000000001 0.6000000000000001 0.0
5.2 0.6000000000000001 0.0
5.6000000000000005 0.6000000000000001 0.0
6.0 0.6000000000000001 0.0
6.4 0.6000000000000001 0.0
6.800000000000001 0.6000000000000001 0.0
7.2 0.6000000000000001 0.0
7.6000000000000005 0.6000000000000001 0.0
8.0 0.6000000000000001 0.0
8.4 0.6000000000000001 0.0
8.8 0.6000000000000001 0.0
9.200000000000001 0.6000000000000001 0.0
9.600000000000001 0.6000000000000001 0.0
10.0 0.6000000000000001 0.0
10.4 0.6000000000000001 0.0
10.8 0.6000000000000001 0.0
11.200000000000001 0.6000000000000001 0.0
11.600000000000001 0.6000000000000001 0.0
12.0 0.6000000000000001 0.0
12.4 0.6000000000000001 0.0
12.8 0.6000000000000001 0.0
13.200000000000001 0.6000000000000001 0.0
13.600000000000001 0.6000000000000001 0.0
14.0 0.6000000000000001 0.0
14.4 0.6000000000000001 0.0
14.8 0.6000000000000001 0.0
15.200000000000001 0.6000000000000001 0.0
15.600000000000001 0.6000000000000001 0.0
16.0 0.6000000000000001 0.0
0.0 0.7000000000000001 0.0
0.4 0.7000000000000001 0.0
0.8 0.7000000000000001 0.0
1.2000000000000002 0.7000000000000001 0.0
1.6 0.7000000000000001 0.0
2.0 0.7000000000000001 0.0
2.4000000000000004 0.7000000000000001 0.0
2.8000000000000003 0.7000000000000001 0.0
3.2 0.7000000000000001 0.0
3.6 0.7000000000000001 0.0
4.0 0.7000000000000001 0.0
4.4 0.7000000000000001 0.0
4.800000000000001 0.7000000000000001 0.0
5.2 0.7000000000000001 0.0
5.6000000000000005 0.7000000000000001 0.0
6.0 0.7000000000000001 0.0
6.4 0.7000000000000001 0.0
6.800000000000001 0.7000000000000001 0.0
7.2 0.7000000000000001 0.0
7.6000000000000005 0.7000000000000001 0.0
8.0 0.7000000000000001 0.0
8.4 0.7000000000000001 0.0
8.8 0.7000000000000001 0.0
9.200000000000001 0.7000000000000001 0.0
9.600000000000001 0.7000000000000001 0.0
10.0 0.7000000000000001 0.0
10.4 0.7000000000000001 0.0
10.8 0.7000000000000001 0.0
11.200000000000001 0.7000000000000001 0.0
11.600000000000001 0.7000000000000001 0.0
12.0 0.7000000000000001 0.0
12.4 0.7000000000000001 0.0
12.8 0.7000000000000001 0.0
13.200000000000001 0.7000000000000001 0.0
13.600000000000001 0.7000000000000001 0.0
14.0 0.7000000000000001 0.0
14.4 0.7000000000000001 0.0
14.8 0.7000000000000001 0.0
15.200000000000001 0.7000000000000001 0.0
15.600000000000001 0.7000000000000001 0.0
16.0 0.7000000000000001 0.0
0.0 0.8 0.0
0.4 0.8 0.0
0.8 0.8 0.0
1.2000000000000002 0.8 0.0
1.6 0.8 0.0
2.0 0.8 0.0
2.4000000000000004 0.8 0.0
2.8000000000000003 0.8 0.0
3.2 0.8 0.0
3.6 0.8 0.0
4.0 0.8 0.0
4.4 0.8 0.0
4.800000000000001 0.8 0.0
5.2 0.8 0.0
5.6000000000000005 0.8 0.0
6.0 0.8 0.0
6.4 0.8 0.0
6.800000000000001 0.8 0.0
7.2 0.8 0.0
7.6000000000000005 0.8 0.0
8.0 0.8 0.0
8.4 0.8 0.0
8.8 0.8 0.0
9.200000000000001 0.8 0.0
9.600000000000001 0.8 0.0
10.0 0.8 0.0
10.4 0.8 0.0
10.8 0.8 0.0
11.200000000000001 0.8 0.0
11.600000000000001 0.8 0.0
12.0 0.8 0.0
12.4 0.8 0.0
12.8 0.8 0.0
13.200000000000001 0.8 0.0
13.600000000000001 0.8 0.0
14.0 0.8 0.0
14.4 0.8 0.0
14.8 0.8 0.0
15.200000000000001 0.8 0.0
15.600000000000001 0.8 0.0
16.0 0.8 0.0
0.0 0.9 0.0
0.4 0.9 0.0
0.8 0.9 0.0
1.2000000000000002 0.9 0.0
1.6 0.9 0.0
2.0 0.9 0.0
2.4000000000000004 0.9 0.0
2.8000000000000003 0.9 0.0
3.2 0.9 0.0
3.6 0.9 0.0
4.0 0.9 0.0
4.4 0.9 0.0
4.800000000000001 0.9 0.0
5.2 0.9 0.0
5.6000000000000005 0.9 0.0
6.0 0.9 0.0
6.4 0.9 0.0
6.800000000000001 0.9 0.0
7.2 0.9 0.0
7.6000000000000005 0.9 0.0
8.0 0.9 0.0
8.4 0.9 0.0
8.8 0.9 0.0
9.200000000000001 0.9 0.0
9.600000000000001 0.9 0.0
10.0 0.9 0.0
10.4 0.9 0.0
10.8 0.9 0.0
11.200000000000001 0.9 0.0
11.600000000000001 0.9 0.0
12.0 0.9 0.0
12.4 0.9 0.0
12.8 0.9 0.0
13.200000000000001 0.9 0.0
13.600000000000001 0.9 0.0
14.0 0.9 0.0
14.4 0.9 0.0
14.8 0.9 0.0
15.200000000000001 0.9 0.0
15.600000000000001 0.9 0.0
16.0 0.9 0.0
0.0 1.0 0.0
0.4 1.0 0.0
0.8 1.0 0.0
1.2000000000000002 1.0 0.0
1.6 1.0 0.0
2.0 1.0 0.0
2.4000000000000004 1.0 0.0
2.8000000000000003 1.0 0.0
3.2 1.0 0.0
3.6 1.0 0.0
4.0 1.0 0.0
4.4 1.0 0.0
4.800000000000001 1.0 0.0
5.2 1.0 0.0
5.6000000000000005 1.0 0.0
6.0 1.0 0.0
6.4 1.0 0.0
6.800000000000001 1.0 0.0
7.2 1.0 0.0
7.6000000000000005 1.0 0.0
8.0 1.0 0.0
8.4 1.0 0.0
8.8 1.0 0.0
9.200000000000001 1.0 0.0
9.600000000000001 1.0 0.0
10.0 1.0 0.0
10.4 1.0 0.0
10.8 1.0 0.0
11.200000000000001 1.0 0.0
11.600000000000001 1.0 0.0
12.0 1.0 0.0
12.4 1.0 0.0
12.8 1.0 0.0
13.200000000000001 1.0 0.0
13.600000000000001 1.0 0.0
14.0 1.0 0.0
14.4 1.0 0.0
14.8 1.0 0.0
15.200000000000001 1.0 0.0
15.600000000000001 1.0 0.0
16.0 1.0 0.0
0.0 1.1 0.0
0.4 1.1 0.0
0.8 1.1 0.0
1.2000000000000002 1.1 0.0
1.6 1.1 0.0
2.0 1.1 0.0
2.4000000000000004 1.1 0.0
2.8000000000000003 1.1 0.0
3.2 1.1 0.0
3.6 1.1 0.0
4.0 1.1 0.0
4.4 1.1 0.0
4.800000000000001 1.1 0.0
5.2 1.1 0.0
5.6000000000000005 1.1 0.0
6.0 1.1 0.0
6.4 1.1 0.0
6.800000000000001 1.1 0.0
7.2 1.1 0.0
7.6000000000000005 1.1 0.0
8.0 1.1 0.0
8.4 1.1 0.0
8.8 1.1 0.0
9.200000000000001 1.1 0.0
9.600000000000001 1.1 0.0
10.0 1.1 0.0
10.4 1.1 0.0
10.8 1.1 0.0
11.200000000000001 1.1 0.0
11.600000000000001 1.1 0.0
12.0 1.1 0.0
12.4 1.1 0.0
12.8 1.1 0.0
13.200000000000001 1.1 0.0
13.600000000000001 1.1 0.0
14.0 1.1 0.0
14.4 1.1 0.0
14.8 1.1 0.0
15.200000000000001 1.1 0.0
15.600000000000001 1.1 0.0
16.0 1.1 0.0
0.0 1.2000000000000002 0.0
0.4 1.2000000000000002 0.0
0.8 1.2000000000000002 0.0
1.2000000000000002 1.2000000000000002 0.0
1.6 1.2000000000000002 0.0
2.0 1.2000000000000002 0.0
2.4000000000000004 1.2000000000000002 0.0
2.8000000000000003 1.2000000000000002 0.0
3.2 1.2000000000000002 0.0
3.6 1.2000000000000002 0.0
4.0 1.2000000000000002 0.0
4.4 1.2000000000000002 0.0
4.800000000000001 1.2000000000000002 0.0
5.2 1.2000000000000002 0.0
5.6000000000000005 1.2000000000000002 0.0
6.0 1.2000000000000002 0.0
6.4 1.2000000000000002 0.0
6.800000000000001 1.2000000000000002 0.0
7.2 1.2000000000000002 0.0
7.6000000000000005 1.2000000000000002 0.0
8.0 1.2000000000000002 0.0
8.4 1.2000000000000002 0.0
8.8 1.2000000000000002 0.0
9.200000000000001 1.2000000000000002 0.0
9.600000000000001 1.2000000000000002 0.0
10.0 1.2000000000000002 0.0
10.4 1.2000000000000002 0.0
10.8 1.2000000000000002 0.0
11.200000000000001 1.2000000000000002 0.0
11.600000000000001 1.2000000000000002 0.0
12.0 1.2000000000000002 0.0
12.4 1.2000000000000002 0.0
12.8 1.2000000000000002 0.0
13.200000000000001 1.2000000000000002 0.0
13.600000000000001 1.2000000000000002 0.0
14.0 1.2000000000000002 0.0
14.4 1.2000000000000002 0.0
14.8 1.2000000000000002 0.0
15.200000000000001 1.2000000000000002 0.0
15.600000000000001 1.2000000000000002 0.0
16.0 1.2000000000000002 0.0
0.0 1.3 0.0
0.4 1.3 0.0
0.8 1.3 0.0
1.2000000000000002 1.3 0.0
1.6 1.3 0.0
2.0 1.3 0.0
2.4000000000000004 1.3 0.0
2.8000000000000003 1.3 0.0
3.2 1.3 0.0
3.6 1.3 0.0
4.0 1.3 0.0
4.4 1.3 0.0
4.800000000000001 1.3 0.0
5.2 1.3 0.0
5.6000000000000005 1.3 0.0
6.0 1.3 0.0
6.4 1.3 0.0
6.800000000000001 1.3 0.0
7.2 1.3 0.0
7.6000000000000005 1.3 0.0
8.0 1.3 0.0
8.4 1.3 0.0
8.8 1.3 0.0
9.200000000000001 1.3 0.0
9.600000000000001 1.3 0.0
10.0 1.3 0.0
10.4 1.3 0.0
10.8 1.3 0.0
11.200000000000001 1.3 0.0
11.600000000000001 1.3 0.0
12.0 1.3 0.0
12.4 1.3 0.0
12.8 1.3 0.0
13.200000000000001 1.3 0.0
13.600000000000001 1.3 0.0
14.0 1.3 0.0
14.4 1.3 0.0
14.8 1.3 0.0
15.200000000000001 1.3 0.0
15.600000000000001 1.3 0.0
16.0 1.3 0.0
0.0 1.4000000000000001 0.0
0.4 1.4000000000000001 0.0
0.8 1.4000000000000001 0.0
1.2000000000000002 1.4000000000000001 0.0
1.6 1.4000000000000001 0.0
2.0 1.4000000000000001 0.0
2.4000000000000004 1.4000000000000001 0.0
2.8000000000000003 1.4000000000000001 0.0
3.2 1.4000000000000001 0.0
3.6 1.4000000000000001 0.0
4.0 1.4000000000000001 0.0
4.4 1.4000000000000001 0.0
4.800000000000001 1.4000000000000001 0.0
5.2 1.4000000000000001 0.0
5.6000000000000005 1.4000000000000001 0.0
6.0 1.4000000000000001 0.0
6.4 1.4000000000000001 0.0
6.800000000000001 1.4000000000000001 0.0
7.2 1.4000000000000001 0.0
7.6000000000000005 1.4000000000000001 0.0
8.0 1.4000000000000001 0.0
8.4 1.4000000000000001 0.0
8.8 1.4000000000000001 0.0
9.200000000000001 1.4000000000000001 0.0
9.600000000000001 1.4000000000000001 0.0
10.0 1.4000000000000001 0.0
10.4 1.4000000000000001 0.0
10.8 1.4000000000000001 0.0
11.200000000000001 1.4000000000000001 0.0
11.600000000000001 1.4000000000000001 0.0
12.0 1.4000000000000001 0.0
12.4 1.4000000000000001 0.0
12.8 1.4000000000000001 0.0
13.200000000000001 1.4000000000000001 0.0
13.600000000000001 1.4000000000000001 0.0
14.0 1.4000000000000001 0.0
14.4 1.4000000000000001 0.0
14.8 1.4000000000000001 0.0
15.200000000000001 1.4000000000000001 0.0
15.600000000000001 1.4000000000000001 0.0
16.0 1.4000000000000001 0.0
0.0 1.5 0.0
0.4 1.5 0.0
0.8 1.5 0.0
1.2000000000000002 1.5 0.0
1.6 1.5 0.0
2.0 1.5 0.0
2.4000000000000004 1.5 0.0
2.8000000000000003 1.5 0.0
3.2 1.5 0.0
3.6 1.5 0.0
4.0 1.5 0.0
4.4 1.5 0.0
4.800000000000001 1.5 0.0
5.2 1.5 0.0
5.6000000000000005 1.5 0.0
6.0 1.5 0.0
6.4 1.5 0.0
6.800000000000001 1.5 0.0
7.2 1.5 0.0
7.6000000000000005 1.5 0.0
8.0 1.5 0.0
8.4 1.5 0.0
8.8 1.5 0.0
9.200000000000001 1.5 0.0
9.600000000000001 1.5 0.0
10.0 1.5 0.0
10.4 1.5 0.0
10.8 1.5 0.0
11.200000000000001 1.5 0.0
11.600000000000001 1.5 0.0
12.0 1.5 0.0
12.4 1.5 0.0
12.8 1.5 0.0
13.200000000000001 1.5 0.0
13.600000000000001 1.5 0.0
14.0 1.5 0.0
14.4 1.5 0.0
14.8 1.5 0.0
15.200000000000001 1.5 0.0
15.600000000000001 1.5 0.0
16.0 1.5 0.0
0.0 1.6 0.0
0.4 1.6 0.0
0.8 1.6 0.0
1.2000000000000002 1.6 0.0
1.6 1.6 0.0
2.0 1.6 0.0
2.4000000000000004 1.6 0.0
2.8000000000000003 1.6 0.0
3.2 1.6 0.0
3.6 1.6 0.0
4.0 1.6 0.0
4.4 1.6 0.0
4.800000000000001 1.6 0.0
5.2 1.6 0.0
5.6000000000000005 1.6 0.0
6.0 1.6 0.0
6.4 1.6 0.0
6.800000000000001 1.6 0.0
7.2 1.6 0.0
7.6000000000000005 1.6 0.0
8.0 1.6 0.0
8.4 1.6 0.0
8.8 1.6 0.0
9.200000000000001 1.6 0.0
9.600000000000001 1.6 0.0
10.0 1.6 0.0
10.4 1.6 0.0
10.8 1.6 0.0
11.200000000000001 1.6 0.0
11.600000000000001 1.6 0.0
12.0 1.6 0.0
12.4 1.6 0.0
12.8 1.6 0.0
13.200000000000001 1.6 0.0
13.600000000000001 1.6 0.0
14.0 1.6 0.0
14.4 1.6 0.0
14.8 1.6 0.0
15.200000000000001 1.6 0.0
15.600000000000001 1.6 0.0
16.0 1.6 0.0
0.0 1.7000000000000002 0.0
0.4 1.7000000000000002 0.0
0.8 1.7000000000000002 0.0
1.2000000000000002 1.7000000000000002 0.0
1.6 1.7000000000000002 0.0
2.0 1.7000000000000002 0.0
2.4000000000000004 1.7000000000000002 0.0
2.8000000000000003 1.7000000000000002 0.0
3.2 1.7000000000000002 0.0
3.6 1.7000000000000002 0.0
4.0 1.7000000000000002 0.0
4.4 1.7000000000000002 0.0
4.800000000000001 1.7000000000000002 0.0
5.2 1.7000000000000002 0.0
5.6000000000000005 1.7000000000000002 0.0
6.0 1.7000000000000002 0.0
6.4 1.7000000000000002 0.0
6.800000000000001 1.7000000000000002 0.0
7.2 1.7000000000000002 0.0
7.6000000000000005 1.7000000000000002 0.0
8.0 1.7000000000000002 0.0
8.4 1.7000000000000002 0.0
8.8 1.7000000000000002 0.0
9.200000000000001 1.7000000000000002 0.0
9.600000000000001 1.7000000000000002 0.0
10.0 1.7000000000000002 0.0
10.4 1.7000000000000002 0.0
10.8 1.7000000000000002 0.0
11.200000000000001 1.7000000000000002 0.0
11.600000000000001 1.7000000000000002 0.0
12.0 1.7000000000000002 0.0
12.4 1.7000000000000002 0.0
12.8 1.7000000000000002 0.0
13.200000000000001 1.7000000000000002 0.0
13.600000000000001 1.7000000000000002 0.0
14.0 1.7000000000000002 0.0
14.4 1.7000000000000002 0.0
14.8 1.7000000000000002 0.0
15.200000000000001 1.7000000000000002 0.0
15.600000000000001 1.7000000000000002 0.0
16.0 1.7000000000000002 0.0
0.0 1.8 0.0
0.4 1.8 0.0
0.8 1.8 0.0
1.2000000000000002 1.8 0.0
1.6 1.8 0.0
2.0 1.8 0.0
2.4000000000000004 1.8 0.0
2.8000000000000003 1.8 0.0
3.2 1.8 0.0
3.6 1.8 0.0
4.0 1.8 0.0
4.4 1.8 0.0
4.800000000000001 1.8 0.0
5.2 1.8 0.0
5.6000000000000005 1.8 0.0
6.0 1.8 0.0
6.4 1.8 0.0
6.800000000000001 1.8 0.0
7.2 1.8 0.0
7.6000000000000005 1.8 0.0
8.0 1.8 0.0
8.4 1.8 0.0
8.8 1.8 0.0
9.200000000000001 1.8 0.0
9.600000000000001 1.8 0.0
10.0 1.8 0.0
10.4 1.8 0.0
10.8 1.8 0.0
11.200000000000001 1.8 0.0
11.600000000000001 1.8 0.0
12.0 1.8 0.0
12.4 1.8 0.0
12.8 1.8 0.0
13.200000000000001 1.8 0.0
13.600000000000001 1.8 0.0
14.0 1.8 0.0
14.4 1.8 0.0
14.8 1.8 0.0
15.200000000000001 1.8 0.0
15.600000000000001 1.8 0.0
16.0 1.8 0.0
0.0 1.9000000000000001 0.0
0.4 1.9000000000000001 0.0
0.8 1.9000000000000001 0.0
1.2000000000000002 1.9000000000000001 0.0
1.6 1.9000000000000001 0.0
2.0 1.9000000000000001 0.0
2.4000000000000004 1.9000000000000001 0.0
2.8000000000000003 1.9000000000000001 0.0
3.2 1.9000000000000001 0.0
3.6 1.9000000000000001 0.0
4.0 1.9000000000000001 0.0
4.4 1.9000000000000001 0.0
4.800000000000001 1.9000000000000001 0.0
5.2 1.9000000000000001 0.0
5.6000000000000005 1.9000000000000001 0.0
6.0 1.9000000000000001 0.0
6.4 1.9000000000000001 0.0
6.800000000000001 1.9000000000000001 0.0
7.2 1.9000000000000001 0.0
7.6000000000000005 1.9000000000000001 0.0
8.0 1.9000000000000001 0.0
8.4 1.9000000000000001 0.0
8.8 1.9000000000000001 0.0
9.200000000000001 1.9000000000000001 0.0
9.600000000000001 1.9000000000000001 0.0
10.0 1.9000000000000001 0.0
10.4 1.9000000000000001 0.0
10.8 1.9000000000000001 0.0
11.200000000000001 1.9000000000000001 0.0
11.600000000000001 1.9000000000000001 0.0
12.0 1.9000000000000001 0.0
12.4 1.9000000000000001 0.0
12.8 1.9000000000000001 0.0
13.200000000000001 1.9000000000000001 0.0
13.600000000000001 1.9000000000000001 0.0
14.0 1.9000000000000001 0.0
14.4 1.9000000000000001 0.0
14.8 1.9000000000000001 0.0
15.200000000000001 1.9000000000000001 0.0
15.600000000000001 1.9000000000000001 0.0
16.0 1.9000000000000001 0.0
0.0 2.0 0.0
0.4 2.0 0.0
0.8 2.0 0.0
1.2000000000000002 2.0 0.0
1.6 2.0 0.0
2.0 2.0 0.0
2.4000000000000004 2.0 0.0
2.8000000000000003 2.0 0.0
3.2 2.0 0.0
3.6 2.0 0.0
4.0 2.0 0.0
4.4 2.0 0.0
4.800000000000001 2.0 0.0
5.2 2.0 0.0
5.6000000000000005 2.0 0.0
6.0 2.0 0.0
6.4 2.0 0.0
6.800000000000001 2.0 0.0
7.2 2.0 0.0
7.6000000000000005 2.0 0.0
8.0 2.0 0.0
8.4 2.0 0.0
8.8 2.0 0.0
9.200000000000001 2.0 0.0
9.600000000000001 2.0 0.0
10.0 2.0 0.0
10.4 2.0 0.0
10.8 2.0 0.0
11.200000000000001 2.0 0.0
11.600000000000001 2.0 0.0
12.0 2.0 0.0
12.4 2.0 0.0
12.8 2.0 0.0
13.200000000000001 2.0 0.0
13.600000000000001 2.0 0.0
14.0 2.0 0.0
14.4 2.0 0.0
14.8 2.0 0.0
15.200000000000001 2.0 0.0
15.600000000000001 2.0 0.0
16.0 2.0 0.0
CELLS 800 4000
4 0 1 42 41
4 1 2 43 42
4 2 3 44 43
4 3 4 45 44
4 4 5 46 45
4 5 6 47 46
4 6 7 48 47
4 7 8 49 48
4 8 9 50 49
4 9 10 51 50
4 10 11 52 51
4 11 12 53 52
4 12 13 54 53
4 13 14 55 54
4 14 15 56 55
4 15 16 57 56
4 16 17 58 57
4 17 18 59 58
4 18 19 60 59
4 19 20 61 60
4 20 21 62 61
4 21 22 63 62
4 22 23 64 63
4 23 24 65 64
4 24 25 66 65
4 25 26 67 66
4 26 27 68 67
4 27 28 69 68
4 28 29 70 69
4 29 30 71 70
4 30 31 72 71
4 31 32 73 72
4 32 33 74 73
4 33 34 75 74
4 34 35 76 75
4 35 36 77 76
4 36 37 78 77
4 37 38 79 78
4 38 39 80 79
4 39 40 81 80
4 41 42 83 82
4 42 43 84 83
4 43 44 85 84
4 44 45 86 85
4 45 46 87 86
4 46 47 88 87
4 47 48 89 88
4 48 49 90 89
4 49 50 91 90
4 50 51 92 91
4 51 52 93 92
4 52 53 94 93
4 53 54 95 94
4 54 55 96 95
4 55 56 97 96
4 56 57 98 97
4 57 58 99 98
4 58 59 100 99
4 59 60 101 100
4 60 61 102 101
4 61 62 103 102
4 62 63 104 103
4 63 64 105 104
4 64 65 106 105
4 65 66 107 106
4 66 67 108 107
4 67 68 109 108
4 68 69 110 109
4 69 70 111 110
4 70 71 112 111
4 71 72 113 112
4 72 73 114 113
4 73 74 115 114
4 74 75 116 115
4 75 76 117 116
4 76 77 118 117
4 77 78 119 118
4 78 79 120 119
4 79 80 121 120
4 80 81 122 121
4 82 83 124 123
4 83 84 125 124
4 84 85 126 125
4 85 86 127 126
4 86 87 128 127
4 87 88 129 128
4 88 89 130 129
4 89 90 131 130
4 90 91 132 131
4 91 92 133 132
4 92 93 134 133
4 93 94 135 134
4 94 95 136 135
4 95 96 137 136
4 96 97 138 137
4 97 98 139 138
4 98 99 140 139
4 99 100 141 140
4 100 101 142 141
4 101 102 143 142
4 102 103 144 143
4 103 104 145 144
4 104 105 146 145
4 105 106 147 146
4 106 107 148 147
4 107 108 149 148
4 108 109 150 149
4 109 110 151 150
4 110 111 152 151
4 111 112 153 152
4 112 113 154 153
4 113 114 155 154
4 114 115 156 155
4 115 116 157 156
4 116 117 158 157
4 117 118 159 158
4 118 119 160 159
4 119 120 161 160
4 120 121 162 161
4 121 122 163 162
4 123 124 165 164
4 124 125 166 165
4 125 126 167 166
4 126 127 168 167
4 127 128 169 168
4 128 129 170 169
4 129 130 171 170
4 130 131 172 171
4 131 132 173 172
4 132 133 174 173
4 133 134 175 174
4 134 135 176 175
4 135 136 177 176
4 136 137 178 177
4 137 138 179 178
4 138 139 180 179
4 139 140 181 180
4 140 141 182 181
4 141 142 183 182
4 142 143 184 183
4 143 144 185 184
4 144 145 186 185
4 145 146 187 186
4 146 147 188 187
4 147 148 189 188
4 148 149 190 189
4 149 150 191 190
4 150 151 192 191
4 151 152 193 192
4 152 153 194 193
4 153 154 195 194
4 154 155 196 195
4 155 156 197 196
4 156 157 198 197
4 157 158 199 198
4 158 159 200 199
4 159 160 201 200
4 160 161 202 201
4 161 162 203 202
4 162 163 204 203
4 164 165 206 205
4 165 166 207 206
4 166 167 208 207
4 167 168 209 208
4 168 169 210 209
4 169 170 211 210
4 170 171 212 211
4 171 172 213 212
4 172 173 214 213
4 173 174 215 214
4 174 175 216 215
4 175 176 217 216
4 176 177 218 217
4 177 178 219 218
4 178 179 220 219
4 179 180 221 220
4 180 181 222 221
4 181 182 223 222
4 182 183 224 223
4 183 184 225 224
4 184 185 226 225
4 185 186 227 226
4 186 187 228 227
4 187 188 229 228
4 188 189 230 229
4 189 190 231 230
4 190 191 232 231
4 191 192 233 232
4 192 193 234 233
4 193 194 235 234
4 194 195 236 235
4 195 196 237 236
4 196 197 238 237
4 197 198 239 238
4 198 199 240 239
4 199 200 241 240
4 200 201 242 241
4 201 202 243 242
4 202 203 244 243
4 203 204 245 244
4 205 206 247 246
4 206 207 248 247
4 207 208 249 248
4 208 209 250 249
4 209 210 251 250
4 210 211 252 251
4 211 212 253 252
4 212 213 254 253
4 213 214 255 254
4 214 215 256 255
4 215 216 257 256
4 216 217 258 257
4 217 218 259 258
4 218 219 260 259
4 219 220 261 260
4 220 221 262 261
4 221 222 263 262
4 222 223 264 263
4 223 224 265 264
4 224 225 266 265
4 225 226 267 266
4 226 227 268 267
4 227 228 269 268
4 228 229 270 269
4 229 230 271 270
4 230 231 272 271
4 231 232 273 272
4 232 233 274 273
4 233 234 275 274
4 234 235 276 275
4 235 236 277 276
4 236 237 278 277
4 237 238 279 278
4 238 239 280 279
4 239 240 281 280
4 240 241 282 281
4 241 242 283 282
4 242 243 284 283
4 243 244 285 284
4 244 245 286 285
4 246 247 288 287
4 247 248 289 288
4 248 249 290 289
4 249 250 291 290
4 250 251 292 291
4 251 252 293 292
4 252 253 294 293
4 253 254 295 294
4 254 255 296 295
4 255 256 297 296
4 256 257 298 297
4 257 258 299 298
4 258 259 300 299
4 259 260 301 300
4 260 261 302 301
4 261 262 303 302
4 262 263 304 303
4 263 264 305 304
4 264 265 306 305
4 265 266 307 306
4 266 267 308 307
4 267 268 309 308
4 268 269 310 309
4 269 270 311 310
4 270 271 312 311
4 271 272 313 312
4 272 273 314 313
4 273 274 315 314
4 274 275 316 315
4 275 276 317 316
4 276 277 318 317
4 277 278 319 318
4 278 279 320 319
4 279 280 321 320
4 280 281 322 321
4 281 282 323 322
4 282 283 324 323
4 283 284 325 324
4 284 285 326 325
4 285 286 327 326
4 287 288 329 328
4 288 289 330 329
4 289 290 331 330
4 290 291 332 331
4 291 292 333 332
4 292 293 334 333
4 293 294 335 334
4 294 295 336 335
4 295 296 337 336
4 296 297 338 337
4 297 298 339 338
4 298 299 340 339
4 299 300 341 340
4 300 301 342 341
4 301 302 343 342
4 302 303 344 343
4 303 304 345 344
4 304 305 346 345
4 305 306 347 346
4 306 307 348 347
4 307 308 349 348
4 308 309 350 349
4 309 310 351 350
4 310 311 352 351
4 311 312 353 352
4 312 313 354 353
4 313 314 355 354
4 314 315 356 355
4 315 316 357 356
4 316 317 358 357
4 317 318 359 358
4 318 319 360 359
4 319 320 361 360
4 320 321 362 361
4 321 322 363 362
4 322 323 364 363
4 323 324 365 364
4 324 325 366 365
4 325 326 367 366
4 326 327 368 367
4 328 329 370 369
4 329 330 371 370
4 330 331 372 371
4 331 332 373 372
4 332 333 374 373
4 333 334 375 374
4 334 335 376 375
4 335 336 377 376
4 336 337 378 377
4 337 338 379 378
4 338 339 380 379
4 339 340 381 380
4 340 341 382 381
4 341 342 383 382
4 342 343 384 383
4 343 344 385 384
4 344 345 386 385
4 345 346 387 386
4 346 347 388 387
4 347 348 389 388
4 348 349 390 389
4 349 350 391 390
4 350 351 392 391
4 351 352 393 392
4 352 353 394 393
4 353 354 395 394
4 354 355 396 395
4 355 356 397 396
4 356 357 398 397
4 357 358 399 398
4 358 359 400 399
4 359 360 401 400
4 360 361 402 401
4 361 362 403 402
4 362 363 404 403
4 363 364 405 404
4 364 365 406 405
4 365 366 407 406
4 366 367 408 407
4 367 368 409 408
4 369 370 411 410
4 370 371 412 411
4 371 372 413 412
4 372 373 414 413
4 373 374 415 414
4 374 375 416 415
4 375 376 417 416
4 376 377 418 417
4 377 378 419 418
4 378 379 420 419
4 379 380 421 420
4 380 381 422 421
4 381 382 423 422
4 382 383 424 423
4 383 384 425 424
4 384 385 426 425
4 385 386 427 426
4 386 387 428 427
4 387 388 429 428
4 388 389 430 429
4 389 390 431 430
4 390 391 432 431
4 391 392 433 432
4 392 393 434 433
4 393 394 435 434
4 394 395 436 435
4 395 396 437 436
4 396 397 438 437
4 397 398 439 438
4 398 399 440 439
4 399 400 441 440
4 400 401 442 441
4 401 402 443 442
4 402 403 444 443
4 403 404 445 444
4 404 405 446 445
4 405 406 447 446
4 406 407 448 447
4 407 408 449 448
4 408 409 450 449
4 410 411 452 451
4 411 412 453 452
4 412 413 454 453
4 413 414 455 454
4 414 415 456 455
4 415 416 457 456
4 416 417 458 457
4 417 418 459 458
4 418 419 460 459
4 419 420 461 460
4 420 421 462 461
4 421 422 463 462
4 422 423 464 463
4 423 424 465 464
4 424 425 466 465
4 425 426 467 466
4 426 427 468 467
4 427 428 469 468
4 428 429 470 469
4 429 430 471 470
4 430 431 472 471
4 431 432 473 472
4 432 433 474 473
4 433 434 475 474
4 434 435 476 475
4 435 436 477 476
4 436 437 478 477
4 437 438 479 478
4 438 439 480 479
4 439 440 481 480
4 440 441 482 481
4 441 442 483 482
4 442 443 484 483
4 443 444 485 484
4 444 445 486 485
4 445 446 487 486
4 446 447 488 487
4 447 448 489 488
4 448 449 490 489
4 449 450 491 490
4 451 452 493 492
4 452 453 494 493
4 453 454 495 494
4 454 455 496 495
4 455 456 497 496
4 456 457 498 497
4 457 458 499 498
4 458 459 500 499
4 459 460 501 500
4 460 461 502 501
4 461 462 503 502
4 462 463 504 503
4 463 464 505 504
4 464 465 506 505
4 465 466 507 506
4 466 467 508 507
4 467 468 509 508
4 468 469 510 509
4 469 470 511 510
4 470 471 512 511
4 471 472 513 512
4 472 473 514 513
4 473 474 515 514
4 474 475 516 515
4 475 476 517 516
4 476 477 518 517
4 477 478 519 518
4 478 479 520 519
4 479 480 521 520
4 480 481 522 521
4 481 482 523 522
4 482 483 524 523
4 483 484 525 524
4 484 485 526 525
4 485 486 527 526
4 486 487 528 527
4 487 488 529 528
4 488 489 530 529
4 489 490 531 530
4 490 491 532 531
4 492 493 534 533
4 493 494 535 534
4 494 495 536 535
4 495 496 537 536
4 496 497 538 537
4 497 498 539 538
4 498 499 540 539
4 499 500 541 540
4 500 501 542 541
4 501 502 543 542
4 502 503 544 543
4 503 504 545 544
4 504 505 546 545
4 505 506 547 546
4 506 507 548 547
4 507 508 549 548
4 508 509 550 549
4 509 510 551 550
4 510 511 552 551
4 511 512 553 552
4 512 513 554 553
4 513 514 555 554
4 514 515 556 555
4 515 516 557 556
4 516 517 558 557
4 517 518 559 558
4 518 519 560 559
4 519 520 561 560
4 520 521 562 561
4 521 522 563 562
4 522 523 564 563
4 523 524 565 564
4 524 525 566 565
4 525 526 567 566
4 526 527 568 567
4 527 528 569 568
4 528 529 570 569
4 529 530 571 570
4 530 531 572 571
4 531 532 573 572
4 533 534 575 574
4 534 535 576 575
4 535 536 577 576
4 536 537 578 577
4 537 538 579 578
4 538 539 580 579
4 539 540 581 580
4 540 541 582 581
4 541 542 583 582
4 542 543 584 583
4 543 544 585 584
4 544 545 586 585
4 545 546 587 586
4 546 547 588 587
4 547 548 589 588
4 548 549 590 589
4 549 550 591 590
4 550 551 592 591
4 551 552 593 592
4 552 553 594 593
4 553 554 595 594
4 554 555 596 595
4 555 556 597 596
4 556 557 598 597
4 557 558 599 598
4 558 559 600 599
4 559 560 601 600
4 560 561 602 601
4 561 562 603 602
4 562 563 604 603
4 563 564 605 604
4 564 565 606 605
4 565 566 607 606
4 566 567 608 607
4 567 568 609 608
4 568 569 610 609
4 569 570 611 610
4 570 571 612 611
4 571 572 613 612
4 572 573 614 613
4 574 575 616 615
4 575 576 617 616
4 576 577 618 617
4 577 578 619 618
4 578 579 620 619
4 579 580 621 620
4 580 581 622 621
4 581 582 623 622
4 582 583 624 623
4 583 584 625 624
4 584 585 626 625
4 585 586 627 626
4 586 587 628 627
4 587 588 629 628
4 588 589 630 629
4 589 590 631 630
4 590 591 632 631
4 591 592 633 632
4 592 593 634 633
4 593 594 635 634
4 594 595 636 635
4 595 596 637 636
4 596 597 638 637
4 597 598 639 638
4 598 599 640 639
4 599 600 641 640
4 600 601 642 641
4 601 602 643 642
4 602 603 644 643
4 603 604 645 644
4 604 605 646 645
4 605 606 647 646
4 606 607 648 647
4 607 608 649 648
4 608 609 650 649
4 609 610 651 650
4 610 611 652 651
4 611 612 653 652
4 612 613 654 653
4 613 614 655 654
4 615 616 657 656
4 616 617 658 657
4 617 618 659 658
4 618 619 660 659
4 619 620 661 660
4 620 621 662 661
4 621 622 663 662
4 622 623 664 663
4 623 624 665 664
4 624 625 666 665
4 625 626 667 666
4 626 627 668 667
4 627 628 669 668
4 628 629 670 669
4 629 630 671 670
4 630 631 672 671
4 631 632 673 672
4 632 633 674 673
4 633 634 675 674
4 634 635 676 675
4 635 636 677 676
4 636 637 678 677
4 637 638 679 678
4 638 639 680 679
4 639 640 681 680
4 640 641 682 681
4 641 642 683 682
4 642 643 684 683
4 643 644 685 684
4 644 645 686 685
4 645 646 687 686
4 646 647 688 687
4 647 648 689 688
4 648 649 690 689
4 649 650 691 690
4 650 651 692 691
4 651 652 693 692
4 652 653 694 693
4 653 654 695 694
4 654 655 696 695
4 656 657 698 697
4 657 658 699 698
4 658 659 700 699
4 659 660 701 700
4 660 661 702 701
4 661 662 703 702
4 662 663 704 703
4 663 664 705 704
4 664 665 706 705
4 665 666 707 706
4 666 667 708 707
4 667 668 709 708
4 668 669 710 709
4 669 670 711 710
4 670 671 712 711
4 671 672 713 712
4 672 673 714 713
4 673 674 715 714
4 674 675 716 715
4 675 676 717 716
4 676 677 718 717
4 677 678 719 718
4 678 679 720 719
4 679 680 721 720
4 680 681 722 721
4 681 682 723 722
4 682 683 724 723
4 683 684 725 724
4 684 685 726 725
4 685 686 727 726
4 686 687 728 727
4 687 688 729 728
4 688 689 730 729
4 689 690 731 730
4 690 691 732 731
4 691 692 733 732
4 692 693 734 733
4 693 694 735 734
4 694 695 736 735
4 695 696 737 736
4 697 698 739 738
4 698 699 740 739
4 699 700 741 740
4 700 701 742 741
4 701 702 743 742
4 702 703 744 743
4 703 704 745 744
4 704 705 746 745
4 705 706 747 746
4 706 707 748 747
4 707 708 749 748
4 708 709 750 749
4 709 710 751 750
4 710 711 752 751
4 711 712 753 752
4 712 713 754 753
4 713 714 755 754
4 714 715 756 755
4 715 716 757 756
4 716 717 758 757
4 717 718 759 758
4 718 719 760 759
4 719 720 761 760
4 720 721 762 761
4 721 722 763 762
4 722 723 764 763
4 723 724 765 764
4 724 725 766 765
4 725 726 767 766
4 726 727 768 767
4 727 728 769 768
4 728 729 770 769
4 729 730 771 770
4 730 731 772 771
4 731 732 773 772
4 732 733 774 773
4 733 734 775 774
4 734 735 776 775
4 735 736 777 776
4 736 737 778 777
4 738 739 780 779
4 739 740 781 780
4 740 741 782 781
4 741 742 783 782
4 742 743 784 783
4 743 744 785 784
4 744 745 786 785
4 745 746 787 786
4 746 747 788 787
4 747 748 789 788
4 748 749 790 789
4 749 750 791 790
4 750 751 792 791
4 751 752 793 792
4 752 753 794 793
4 753 754 795 794
4 754 755 796 795
4 755 756 797 796
4 756 757 798 797
4 757 758 799 798
4 758 759 800 799
4 759 760 801 800
4 760 761 802 801
4 761 762 803 802
4 762 763 804 803
4 763 764 805 804
4 764 765 806 805
4 765 766 807 806
4 766 767 808 807
4 767 768 809 808
4 768 769 810 809
4 769 770 811 810
4 770 771 812 811
4 771 772 813 812
4 772 773 814 813
4 773 774 815 814
4 774 775 816 815
4 775 776 817 816
4 776 777 818 817
4 777 778 819 818
4 779 780 821 820
4 780 781 822 821
4 781 782 823 822
4 782 783 824 823
4 783 784 825 824
4 784 785 826 825
4 785 786 827 826
4 786 787 828 827
4 787 788 829 828
4 788 789 830 829
4 789 790 831 830
4 790 791 832 831
4 791 792 833 832
4 792 793 834 833
4 793 794 835 834
4 794 795 836 835
4 795 796 837 836
4 796 797 838 837
4 797 798 839 838
4 798 799 840 839
4 799 800 841 840
4 800 801 842 841
4 801 802 843 842
4 802 803 844 843
4 803 804 845 844
4 804 805 846 845
4 805 806 847 846
4 806 807 848 847
4 807 808 849 848
4 808 809 850 849
4 809 810 851 850
4 810 811 852 851
4 811 812 853 852
4 812 813 854 853
4 813 814 855 854
4 814 815 856 855
4 815 816 857 856
4 816 817 858 857
4 817 818 859 858
4 818 819 860 859
CELL_TYPES 800
9
9
9
9
9
9
9
9
9
9
9
9
9
9
9
9
9
9
9
9
9
9
9
9
9
9
9
9
9
9
9
9
9
9
9
9
9
9
9
9
9
9
9
9
9
9
9
9
9
9
9
9
9
9
9
9
9
9
9
9
9
9
9
9
9
9
9
9
9
9
9
9
9
9
9
9
9
9
9
9
9
9
9
9
9
9
9
9
9
9
9
9
9
9
9
9
9
9
9
9
9
9
9
9
9
9
9
9
9
9
9
9
9
9
9
9
9
9
9
9
9
9
9
9
9
9
9
9
9
9
9
9
9
9
9
9
9
9
9
9
9
9
9
9
9
9
9
9
9
9
9
9
9
9
9
9
9
9
9
9
9
9
9
9
9
9
9
9
9
9
9
9
9
9
9
9
9
9
9
9
9
9
9
9
9
9
9
9
9
9
9
9
9
9
9
9
9
9
9
9
9
9
9
9
9
9
9
9
9
9
9
9
9
9
9
9
9
9
9
9
9
9
9
9
9
9
9
9
9
9
9
9
9
9
9
9
9
9
9
9
9
9
9
9
9
9
9
9
9
9
9
9
9
9
9
9
9
9
9
9
9
9
9
9
9
9
9
9
9
9
9
9
9
9
9
9
9
9
9
9
9
9
9
9
9
9
9
9
9
9
9
9
9
9
9
9
9
9
9
9
9
9
9
9
9
9
9
9
9
9
9
9
9
9
9
9
9
9
9
9
9
9
9
9
9
9
9
9
9
9
9
9
9
9
9
9
9
9
9
9
9
9
9
9
9
9
9
9
9
9
9
9
9
9
9
9
9
9
9
9
9
9
9
9
9
9
9
9
9
9
9
9
9
9
9
9
9
9
9
9
9
9
9
9
9
9
9
9
9
9
9
9
9
9
9
9
9
9
9
9
9
9
9
9
9
9
9
9
9
9
9
9
9
9
9
9
9
9
9
9
9
9
9
9
9
9
9
9
9
9
9
9
9
9
9
9
9
9
9
9
9
9
9
9
9
9
9
9
9
9
9
9
9
9
9
9
9
9
9
9
9
9
9
9
9
9
9
9
9
9
9
9
9
9
9
9
9
9
9
9
9
9
9
9
9
9
9
9
9
9
9
9
9
9
9
9
9
9
9
9
9
9
9
9
9
9
9
9
9
9
9
9
9
9
9
9
9
9
9
9
9
9
9
9
9
9
9
9
9
9
9
9
9
9
9
9
9
9
9
9
9
9
9
9
9
9
9
9
9
9
9
9
9
9
9
9
9
9
9
9
9
9
9
9
9
9
9
9
9
9
9
9
9
9
9
9
9
9
9
9
9
9
9
9
9
9
9
9
9
9
9
9
9
9
9
9
9
9
9
9
9
9
9
9
9
9
9
9
9
9
9
9
9
9
9
9
9
9
9
9
9
9
9
9
9
9
9
9
9
9
9
9
9
9
9
9
9
9
9
9
9
9
9
9
9
9
9
9
9
9
9
9
9
9
9
9
9
9
9
9
9
9
9
9
9
9
9
9
9
9
9
9
9
9
9
9
9
9
9
9
9
9
9
9
9
9
9
9
9
9
9
9
9
9
9
9
9
9
9
9
9
9
9
9
9
9
9
9
9
9
9
9
9
9
9
9
9
9
9
9
9
9
9
9
9
9
9
9
9
9
9
9
9
9
9
9
9
9
9
9
9
9
9
9
9
9
9
9
9
9
9
9
9
9
9
9
9
9
9
9
9
9
9
9
9
9
9
9
9
9
9
9
9
9
9
9
9
9
9
9
9
9
9
9
9
9
9
9
9
9
9
9
9
9
9
9
9
9
9
9
POINT_DATA 861
SCALARS Disp float 2
LOOKUP_TABLE default
0.0 0.0
0.004802706695669908 -0.1641459878955163
0.005904127610769691 -0.32048249362276476
0.006641669519243304 -0.47602267774207513
0.007542536445664465 -0.6312565432051137
0.00885505171656006 -0.7859062186484699
0.01097409865996132 -0.9396171897992149
0.014337683530230015 -1.0919608198386697
0.01944718124372326 -1.2424077810145941
0.026841990259746804 -1.390279331054224
0.03707230645672869 -1.5346667171976838
0.050702145392566934 -1.674367781150105
0.0683180415067185 -1.8078792677061886
0.09052173544132668 -1.9334518660560658
0.11792891067469774 -2.0491399299159454
0.15109975363706127 -2.152839612416309
0.19040964568701038 -2.2423322532805874
0.23588502434967984 -2.315357143963251
0.28705316538566567 -2.369761127265331
0.34286677250220265 -2.4037301055813898
0.4016141807643887 -2.416015751670267
0.460361589026572 -2.4037301055813205
0.5161751961430993 -2.3697611272651877
0.5673433371790672 -2.3153571439630447
0.6128187158417138 -2.2423322532803276
0.6521286078916383 -2.152839612416014
0.6852994508539778 -2.0491399299156208
0.7127066260873242 -1.9334518660557218
0.7349103200219074 -1.8078792677058355
0.7525262161360348 -1.674367781149754
0.7661560550718515 -1.5346667171973438
0.7763863712688154 -1.3902793310539034
0.7837811802848244 -1.2424077810142968
0.7888906779983071 -1.091960819838401
0.7922542628685683 -0.9396171897989765
0.7943733098119647 -0.7859062186482673
0.7956858250828585 -0.6312565432049468
0.796586692009279 -0.4760226777419461
0.7973242339177524 -0.3204824936226729
0.7984256548328511 -0.16414598789546386
0.8032283615285177 0.0
0.04095325104506335 -0.002061302231698597
0.04422943239718462 -0.1643189483604811
0.044824320760868216 -0.32054390678939154
0.04548509666201955 -0.4761047590721299
0.04628668139872945 -0.6313697375147637
0.04741849917457111 -0.786128789630493
0.04925526360109195 -0.9400504771302898
0.052213152748015475 -1.0927201784273493
0.05676311392372592 -1.2436208259944816
0.06339587560559654 -1.3920745112018107
0.07260035036954199 -1.5371723169300087
0.08486577120416164 -1.6777163180104087
0.10070425381484129 -1.8122109303486043
0.12066705751329276 -1.9389136507336753
0.14532013019863643 -2.0558784613256997
0.17518812759576033 -2.160976595800388
0.21063144253623825 -2.2519273122808587
0.25169733111158393 -2.326368632475004
0.29798596205770705 -2.3820155805858185
0.3485342612755222 -2.4169050273871218
0.40161418076438027 -2.4295610515492583
0.4546941002532352 -2.4169050273870507
0.5052423994710412 -2.3820155805856724
0.5515310304171487 -2.3263686324747925
0.5925969189924747 -2.2519273122805936
0.6280402339329311 -2.160976595800087
0.657908231330033 -2.0558784613253693
0.6825613040153545 -1.9389136507333256
0.7025241077137835 -1.8122109303482454
0.7183625903244415 -1.6777163180100523
0.7306280111590417 -1.5371723169296643
0.7398324859229708 -1.3920745112014863
0.7464652476048282 -1.2436208259941819
0.7510152087805291 -1.0927201784270784
0.7539730979274458 -0.9400504771300503
0.7558098623539626 -0.7861287896302899
0.7569416801298027 -0.6313697375145966
0.7577432648665123 -0.4761047590720009
0.7584040407676634 -0.3205439067892996
0.758998929131347 -0.16431894836042837
0.7622751104834634 -0.0020613022316962265
0.08105493775788472 -0.0036776636824588783
0.08342044927527392 -0.16440125115235643
0.08376581314771651 -0.3205807194867098
0.08430638326669164 -0.47617823473601917
0.08501592239153143 -0.6314635083239207
0.08598588682976757 -0.7863056773284668
0.08754324744644659 -0.9404082961405568
0.09009599173370195 -1.0933681096322883
0.09407718541987717 -1.2446776099393475
0.09993220072458862 -1.3936562031598583
0.10809120810106462 -1.5393914632356254
0.11897620390938876 -1.6806870472629425
0.133027714970968 -1.8160566440552848
0.15073090184515728 -1.9437690114403114
0.17260634492349988 -2.0618787267315932
0.19913819454943163 -2.1682363810044203
0.23067672794379296 -2.2605075504751966
0.26730637694810316 -2.3362406407713103
0.30870596995609356 -2.3930290913956784
0.35398869932276367 -2.4287465536141526
0.401614180764372 -2.4417439521433995
0.4492396622059775 -2.4287465536140798
0.494522391572639 -2.3930290913955297
0.5359219845806156 -2.3362406407710945
0.572551633584909 -2.260507550474927
0.6040901669792513 -2.1682363810041148
0.6306220166051633 -2.061878726731258
0.6524974596834863 -1.9437690114399566
0.6702006465576555 -1.8160566440549208
0.6842521576192158 -1.6806870472625812
0.6951371534275224 -1.539391463235277
0.7032961608039838 -1.3936562031595305
0.7091511761086835 -1.2446776099390453
0.71313236979485 -1.0933681096320156
0.7156851140820994 -0.9404082961403162
0.7172424746987751 -0.7863056773282631
0.7182124391370102 -0.6314635083237534
0.7189219782618496 -0.4761782347358901
0.7194625483808246 -0.3205807194866179
0.7198079122532673 -0.16440125115230342
0.7221734237706519 -0.0036776636824540484
0.1207121382885546 -0.004968795838013587
0.12247515915026204 -0.1644566237910694
0.12268705400001624 -0.3206015118516394
0.1231103116892528 -0.47623900221339566
0.1237244515659323 -0.6315438885611571
0.12455336134282766 -0.7864430555157845
0.12584638493029432 -0.9406926534612133
0.1279956392414763 -1.0939058711201182
0.1314043683091688 -1.2455768101754228
0.13647178544163927 -1.395021827692565
0.14357315804851006 -1.5413212279270325
0.1530662201284808 -1.6832786188587927
0.16532418175317676 -1.8194159063501214
0.1807645301537474 -1.948015152114683
0.19984586384449723 -2.0671358653784333
0.2230183862345225 -2.1746122641714627
0.2506246032595737 -2.268065971110569
0.2827871910139423 -2.3449685168622363
0.3192692047013018 -2.4027981333633153
0.359320099883017 -2.4392785901835126
0.40161418076436406 -2.45261831362509
0.4439082616457085 -2.439278590183438
0.4839591568274158 -2.402798133363164
0.5204411705147631 -2.3449685168620173
0.552603758269117 -2.268065971110295
0.580209975294152 -2.1746122641711523
0.6033824976841595 -2.067135865378094
0.6224638313748923 -1.9480151521143234
0.6379041797754451 -1.8194159063497533
0.6501621414001246 -1.6832786188584277
0.6596552034800802 -1.5413212279266804
0.6667565760869383 -1.3950218276922346
0.6718239932193983 -1.2455768101751183
0.675232722287083 -1.0939058711198437
0.67738197659826 -0.940692653460972
0.678675000185724 -0.7864430555155804
0.6795039099626186 -0.6315438885609896
0.6801180498392978 -0.47623900221326665
0.6805413075285344 -0.32060151185154756
0.6807532023782886 -0.16445662379101614
0.682516223239992 -0.004968795838006537
0.1601127738639139 -0.006005617397592708
0.16143349198871312 -0.16450202225438576
0.16157193707665546 -0.32061336858617084
0.161894819701393 -0.47628621758476863
0.16241036778720908 -0.6316125902162988
0.1631118910598989 -0.7865507652518549
0.164170223385308 -0.9409094641105394
0.16592156384693713 -1.0943353826552753
0.1687598734885504 -1.246319225864014
0.1730360614473364 -1.396170572548289
0.17907359878368176 -1.5429608619221498
0.1871707025373865 -1.685490616852447
0.19763282771592178 -1.8222893432288834
0.2108093826324657 -1.9516528695282822
0.22709959665658233 -2.0716481246017837
0.2469030465345112 -2.180100269336638
0.2705544039808802 -2.274596803174132
0.29821724087489776 -2.352544682810842
0.3297525213834443 -2.411321191036352
0.36458320665223287 -2.4485180540293525
0.40161418076435623 -2.462214822115324
0.43864515487647726 -2.4485180540292775
0.47347584014525873 -2.4113211910361985
0.5050111206537944 -2.3525446828106196
0.5326739575477994 -2.274596803173855
0.5563253149941545 -2.180100269336323
0.5761287648720679 -2.0716481246014404
0.5924189788961697 -1.9516528695279185
0.6055955338126987 -1.8222893432285114
0.6160576589912199 -1.6854906168520785
0.6241547627449117 -1.5429608619217945
0.6301923000812459 -1.396170572547956
0.634468488040023 -1.2463192258637072
0.6373067976816297 -1.0943353826549997
0.6390581381432549 -0.9409094641102973
0.6401164704686618 -0.7865507652516505
0.6408179937413511 -0.6316125902161314
0.641333541827167 -0.47628621758463946
0.6416564244519045 -0.32061336858607914
0.6417948695398469 -0.16450202225433225
0.6431155876646426 -0.00600561739758374
0.19934308431655148 -0.00683317953004695
0.2003236341065998 -0.16454276371772522
0.20041853497064602 -0.3206211509561079
0.20065748375402934 -0.476320825913411
0.20107291402726954 -0.6316701500007966
0.20165566065168725 -0.7866359121823784
0.2025060028769673 -0.9410698113512921
0.20389019381781104 -1.0946602047760348
0.20615945854923975 -1.24690720883453
0.20964705388389995 -1.3971038097493516
0.2146210549642718 -1.5443111002975816
0.22132297543506296 -1.6873246291211947
0.22999457843598523 -1.824679252838283
0.24091638936443985 -1.9546845917226556
0.2544197472639715 -2.075418021183112
0.27086165090601205 -2.184700377086372
0.29055265204248254 -2.2800955144337354
0.3136837785898287 -2.3589612435177907
0.3402328646762121 -2.4185938903343316
0.3698250077990324 -2.4564719116369824
0.40161418076434846 -2.4705510073368933
0.4334033537296621 -2.456471911636906
0.4629954968524764 -2.418593890334176
0.48954458293885045 -2.3589612435175655
0.5126757094861861 -2.280095514433455
0.5323667106226447 -2.1847003770860542
0.5488086142646723 -2.0754180211827657
0.5623119721641914 -1.9546845917222888
0.573233783092634 -1.824679252837908
0.5819053860935443 -1.6873246291208235
0.5886073065643246 -1.5443111002972238
0.5935813076446872 -1.3971038097490167
0.5970689029793401 -1.246907208834222
0.5993381677107635 -1.094660204775758
0.6007223586516041 -0.9410698113510495
0.6015727008768826 -0.786635912182174
0.6021554475013 -0.6316701500006292
0.60257087777454 -0.47632082591328184
0.6028098265579233 -0.32062115095601623
0.6029047274219694 -0.1645427637176715
0.603885277212015 -0.006833179530036349
0.23844956163780673 -0.007486227809022104
0.23916542545884284 -0.16458040561089377
0.2392309266792076 -0.32062735238868484
0.23939773092826624 -0.4763442865864624
0.23971396962527358 -0.6317160569969982
0.240180289249918 -0.7867032957282432
0.2408434224208528 -0.9411860258664925
0.24189620917831603 -1.0948925238651406
0.24362466588002576 -1.2473448432872472
0.24632804496106223 -1.3978248699782987
0.25024557196140285 -1.5453749972315323
0.2555593067032601 -1.6887839252154455
0.2624506355258403 -1.8265900330805316
0.2711328618257863 -1.9571156700154824
0.2818705706553809 -2.0784500430607356
0.2949626003911447 -2.188416292473516
0.31069735402486515 -2.2845617259178104
0.32928269530256526 -2.364210950375031
0.3507972419229315 -2.424606742832073
0.3750943107059426 -2.4631365427362506
0.4016141807643404 -2.477633113956032
0.4281340508227362 -2.4631365427361733
0.4524311196057422 -2.4246067428319162
0.47394566622610085 -2.364210950374804
0.4925310075037923 -2.284561725917528
0.5082657611375029 -2.1884162924731956
0.5213577908732561 -2.0784500430603865
0.5320954997028408 -1.9571156700151133
0.5407777260027773 -1.8265900330801539
0.5476690548253481 -1.6887839252150716
0.5529827895671966 -1.5453749972311726
0.5569003165675299 -1.397824869977962
0.5596036956485606 -1.2473448432869378
0.5613321523502663 -1.094892523864863
0.5623849391077272 -0.9411860258662494
0.5630480722786612 -0.7867032957280388
0.5635143919033053 -0.6317160569968305
0.5638306306003125 -0.47634428658633315
0.563997434849371 -0.3206273523885932
0.5640629360697357 -0.16458040561083997
0.5647787998907697 -0.00748622780901018
0.27746391671750603 -0.007992317845295593
0.2779735424013514 -0.16461635397616323
0.2780151670743199 -0.32063252987594837
0.2781168520753844 -0.4763580248530044
0.2783362567347149 -0.6317494751295878
0.27868273863280135 -0.7867558551035944
0.2791781256405251 -0.9412672025352945
0.27993168565114035 -1.095047999376897
0.2811613969493332 -1.247644316573884
0.28310823590975037 -1.398339901332235
0.28597970412919027 -1.5461578932493116
0.2899169782126436 -1.689874060254249
0.29504480218872264 -1.8280284294833407
0.30151059204090624 -1.9589541944103634
0.30950918325651117 -2.080752994908131
0.31927956546436626 -2.1912546760528375
0.33107430891914774 -2.2879985684418354
0.34510565086607586 -2.368289746382872
0.36153760533343604 -2.429345880387587
0.38044732820602545 -2.4684965467540874
0.4016141807643321 -2.483455539266303
0.42278103332263733 -2.4684965467540083
0.4416907561952229 -2.429345880387428
0.458122710662577 -2.3682897463826427
0.47215405260949816 -2.287998568441551
0.48394879606427205 -2.1912546760525147
0.49371917827211914 -2.0807529949077797
0.5017177694877166 -1.9589541944099924
0.5081835593398935 -1.8280284294829612
0.5133113833159658 -1.689874060253873
0.5172486573994124 -1.5461578932489504
0.5201201256188469 -1.398339901331897
0.5220669645792598 -1.2476443165735738
0.52329667587745 -1.095047999376619
0.5240502358880637 -0.9412672025350515
0.524545622895787 -0.7867558551033896
0.5248921047938732 -0.6317494751294203
0.5251115094532035 -0.47635802485287515
0.525213194454268 -0.3206325298758566
0.5252548191272364 -0.16461635397610935
0.5257644448110804 -0.007992317845282593
0.3164042463109674 -0.008378254434917264
0.31676171109147233 -0.16465168445958164
0.31677660970778887 -0.3206360166903367
0.31681755284794355 -0.47636312633451583
0.3169433450505375 -0.6317701394797312
0.3171661523250005 -0.7867931304520359
0.31749775013904463 -0.9413228430638462
0.3179886349584605 -1.09514279432639
0.31876595778695255 -1.2478249729022588
0.320003670005628 -1.3986635677195909
0.32185938567691785 -1.5466694409370754
0.3244406785938089 -1.6906042450427923
0.32782487558663637 -1.8290045400753974
0.33210239087496474 -1.9602120227825324
0.33739860137762034 -2.0823395757416585
0.3438840125450748 -2.19322700847284
0.35176476980314925 -2.290414421379295
0.36125632708220606 -2.3711977712377506
0.37256276716211695 -2.4327951399644205
0.385952636231205 -2.47252417167335
0.40161418076432337 -2.48799994297042
0.4172757252974411 -2.472524171673271
0.4306655943665267 -2.4327951399642607
0.4419720344464332 -2.3711977712375205
0.4514635917254849 -2.29041442137901
0.4593443489835542 -2.1932270084725154
0.46582976015100325 -2.0823395757413055
0.47112597065365425 -1.9602120227821602
0.4754034859419785 -1.8290045400750168
0.47878768293480173 -1.6906042450424152
0.4813689758516885 -1.5466694409367128
0.4832246915229746 -1.3986635677192518
0.4844624037416478 -1.247824972901948
0.48523972657013803 -1.0951427943261118
0.48573061138955315 -0.941322843063603
0.4860622092035969 -0.7867931304518313
0.4862850164780598 -0.6317701394795636
0.4864108086806537 -0.4763631263343866
0.4864517518208083 -0.320636016690245
0.48646665043712467 -0.16465168445952774
0.4868241152176288 -0.008378254434903514
0.35528243096926815 -0.008672060926471386
0.35553469458053244 -0.16468784089968155
0.3555205537940907 -0.32063646259646367
0.35550353751211716 -0.4763604149239718
0.3555387622315257 -0.6317782601379447
0.3556367295077686 -0.7868137392678652
0.35579933646289263 -0.9413563174445285
0.35604585719980664 -1.0951947030420528
0.3564231938976663 -1.2479133857649978
0.3570154708724635 -1.3988224867826184
0.3579093508248281 -1.5469314626067
0.35917354900068743 -1.6909926412687264
0.36084262415408674 -1.8295356349312877
0.36296118990861503 -1.960907931981684
0.36559413170741195 -2.0832300489633546
0.36883681537122587 -2.194352383245665
0.3728351612121345 -2.2918240252957442
0.3777967959700069 -2.3729463040568897
0.38398283525955296 -2.434945376765568
0.39171626094261325 -2.4751785411543303
0.40161418076431454 -2.491229407254349
0.4115121005860156 -2.47517854115425
0.4192455262690749 -2.4349453767654072
0.425431565558618 -2.3729463040566587
0.4303932003164876 -2.2918240252954583
0.43439154615739384 -2.1943523832453393
0.43763422982120526 -2.0832300489630002
0.4402671716200003 -1.9609079319813114
0.4423857373745271 -1.8295356349309062
0.44405481252792456 -1.6909926412683483
0.4453190107037818 -1.5469314626063368
0.446212890656145 -1.398822486782279
0.4468051676309413 -1.2479133857646867
0.4471825043288004 -1.0951947030417744
0.447429025065714 -0.9413563174442853
0.4475916320208379 -0.7868137392676604
0.4476895992970808 -0.631778260137777
0.4477248240164894 -0.47636041492384257
0.4477078077345158 -0.3206364625963719
0.44769366694807394 -0.16468784089962768
0.4479459305593378 -0.008672060926457118
0.39411416317120695 -0.008896564519138452
0.39429237300935654 -0.16472553477696997
0.3942515979038583 -0.32063302996649784
0.39417907041275496 -0.4763504193243527
0.3941267107814908 -0.6317741069195003
0.39410060947590403 -0.7868173028199728
0.39409100588777013 -0.9413667362298231
0.3940886145909695 -1.095211829245522
0.3940883243556027 -1.247940421762656
0.3940886137741113 -1.3988658417897466
0.3940888169876836 -1.5469990950870214
0.3940889514980773 -1.6910929081406425
0.39408638790110617 -1.8296734480420898
0.39407874984716745 -1.961090572463741
0.39406639266480215 -2.0834717960058486
0.3940749116161485 -2.194675033327024
0.39419285682546795 -2.2922661289743735
0.3946253116746885 -2.373569452370062
0.39570493861454487 -2.435829222830236
0.39781714218552583 -2.47643216984427
0.40161418076430533 -2.4930907881356075
0.4054112193430852 -2.4764321698441902
0.40752342291406607 -2.4358292228300753
0.4086030498539214 -2.3735694523698303
0.4090355047031418 -2.2922661289740875
0.4091534499124621 -2.1946750333266984
0.4091619688638086 -2.0834717960054943
0.4091496116814442 -1.961090572463368
0.4091419736275064 -1.829673448041708
0.40913941003053617 -1.6910929081402644
0.4091395445409306 -1.5469990950866583
0.4091397477545034 -1.398865841789407
0.4091400371730125 -1.2479404217623447
0.409139746937646 -1.0952118292452437
0.40913735564084536 -0.9413667362295799
0.40912775205271157 -0.786817302819768
0.40910165074712496 -0.6317741069193327
0.40904929111586086 -0.47635041932422345
0.40897676362475754 -0.32063302996640597
0.4089359885192593 -0.16472553477691615
0.4091141983574086 -0.008896564519123861
0.4329106823778903 -0.00907133051344317
0.4330384207075544 -0.16476252100591643
0.4329735536765231 -0.3206260158447058
0.43284873642727206 -0.4763333895549298
0.4327116959681422 -0.6317581458724736
0.43256356064884005 -0.7868039009142147
0.43238280725913153 -0.9413535944029036
0.43213114348690523 -1.0951942039637066
0.4317533936521054 -1.2479134669545284
0.4311617257513572 -1.398822532249605
0.4302687792419201 -1.5469317070775779
0.4290045564343682 -1.690992122737762
0.4273301362508234 -1.8295336370996198
0.4251956137757301 -1.960903200209808
0.4225388646256118 -2.083226973173319
0.4193148616904413 -2.1943735053915656
0.41554579788392243 -2.291930703601138
0.41139054397438424 -2.373257629342523
0.407186795878478 -2.435617322508053
0.40346331195702095 -2.476396460207764
0.40161418076429617 -2.493699005012061
0.3997650495715713 -2.4763964602076847
0.39604156565011445 -2.4356173225078916
0.3918378175542097 -2.373257629342292
0.387682563644675 -2.2919307036008525
0.38391349983816014 -2.1943735053912405
0.3806894969029926 -2.083226973172965
0.3780327477528776 -1.9609032002094349
0.37589822527778777 -1.8295336370992388
0.3742238050942468 -1.690992122737384
0.37295958228669834 -1.5469317070772155
0.3720666357772639 -1.3988225322492658
0.37147496787651746 -1.2479134669542173
0.3710972180417187 -1.095194203963428
0.3708455542694928 -0.9413535944026602
0.3706648008797847 -0.7868039009140101
0.37051666556048285 -0.631758145872306
0.3703796251013531 -0.47633338955480065
0.370254807852102 -0.32062601584461387
0.3701899408210708 -0.16476252100586264
0.37031767915073477 -0.009071330513428358
0.4716878611963583 -0.009206105291820416
0.4717775830265805 -0.16479689552591745
0.47169086407555155 -0.3206156615813034
0.47151704587758586 -0.4763096696373172
0.4712986065778412 -0.6317309697304222
0.4710314586220707 -0.7867738264530197
0.4706830639598787 -0.9413174521901373
0.4701880327714491 -1.0951418160687834
0.46941040272925955 -1.2478251441499264
0.4681738791867058 -1.3986638473298214
0.4663189665584848 -1.5466697405731848
0.46373711560179615 -1.690603091726542
0.4603482425706249 -1.8289999758036208
0.45605683743346637 -1.9602020426113427
0.4507390717114695 -2.082333073910991
0.4442686900005186 -2.19326957245375
0.4365929459410327 -2.290626750193029
0.427822714044768 -2.3718090080332734
0.4183190332190472 -2.4341361234936825
0.40898008211190057 -2.475164271334068
0.40161418076428734 -2.4932108140129303
0.3942482794166738 -2.475164271333988
0.38490932830952845 -2.4341361234935217
0.37540564748381117 -2.371809008033043
0.3666354155875524 -2.290626750192745
0.3589596715280732 -2.1932695724534255
0.3524892898171284 -2.0823330739106383
0.3471715240951372 -1.960202042610971
0.342880118957985 -1.828999975803241
0.3394912459268199 -1.6906030917261652
0.3369093949701372 -1.5466697405728236
0.335054482341921 -1.3986638473294826
0.33381795879937076 -1.2478251441496155
0.3330403287571832 -1.095141816068505
0.3325452975687546 -0.9413174521898939
0.33219690290656306 -0.7867738264528152
0.3319297549507931 -0.6317309697302547
0.33171131565104867 -0.476309669637188
0.331537497453083 -0.32061566158121146
0.33145077850205407 -0.16479689552586366
0.3315405003322763 -0.009206105291805444
0.5104584059644364 -0.009306737653459688
0.5105156923497735 -0.1648270765499006
0.5104084216148955 -0.320602081665575
0.5101886502920038 -0.47627970374202383
0.5098925069781093 -0.6316931707822211
0.5095106321910258 -0.7867281245136903
0.5090015940243652 -0.9412590652312576
0.5082439620408552 -1.0950465876812077
0.5070152708867522 -1.2476447732338516
0.5050698382581548 -1.3983404701131497
0.5021986342273843 -1.5461581070202417
0.49826033135797004 -1.689872284761761
0.4931295628786922 -1.8280219132641116
0.4866561242718493 -1.958940207684668
0.47864467562604696 -2.080743601641834
0.46888407502643914 -2.1913139815050813
0.4572330010817144 -2.2882974567346825
0.4437542813438709 -2.3691573715598855
0.4289381881159784 -2.4313340933464667
0.41402825772923485 -2.472587330703255
0.40161418076427846 -2.491641209587164
0.3892001037993226 -2.472587330703175
0.37429017341258136 -2.431334093346307
0.3594740801846942 -2.3691573715596568
0.34599536044685864 -2.2882974567344
0.3343442865021431 -2.191313981504759
0.3245836859025439 -2.0807436016414824
0.31657223725675 -1.958940207684298
0.31009879864991596 -1.8280219132637336
0.3049680301706468 -1.6898722847613858
0.30102972730124083 -1.5461581070198815
0.29815852327047737 -1.3983404701128122
0.29621309064188495 -1.2476447732335414
0.2949843994877853 -1.0950465876809294
0.2942267675042771 -0.9412590652310143
0.29371772933761714 -0.7867281245134858
0.2933358545505342 -0.6316931707820536
0.29303971123663997 -0.47627970374189466
0.29281993991374844 -0.32060208166548315
0.29271266917887057 -0.1648270765498468
0.29276995556420754 -0.009306737653444594
0.5492303163484971 -0.009378386685685549
0.5492588156372464 -0.16485175301054716
0.5491312345472713 -0.32058524705938707
0.5488681836006579 -0.47624391915739783
0.5484977016246568 -0.6316455956925935
0.54800839373952 -0.786668187486688
0.5473335569094041 -0.9411749999574263
0.5462794357410601 -1.0948910390285365
0.5445527786861841 -1.247345788594174
0.5418504950325437 -1.39782562312175
0.537932450368725 -1.5453749420713687
0.5326174381027939 -1.6887816329758254
0.5257256709284661 -1.8265827509819728
0.5170457855637177 -1.9571005416904608
0.5063117015604209 -2.0784399380846157
0.4932254158452964 -2.1884844589988606
0.47754796531202937 -2.2849139266150953
0.45931788159571146 -2.365281099363851
0.439180207527036 -2.4271983981701584
0.418821729602912 -2.4687129834690436
0.4016141807642699 -2.489040858751248
0.38440663192562885 -2.468712983468963
0.3640481540015085 -2.4271983981699994
0.3439104799328401 -2.3652810993636235
0.325680396216532 -2.284913926614815
0.31000294568327647 -2.188484458998541
0.29691665996816313 -2.0784399380842657
0.2861825759648773 -1.957100541690093
0.2775026906001403 -1.826582750981597
0.27061092342582344 -1.6887816329754526
0.2652959111599031 -1.5453749420710108
0.2613778664960934 -1.3978256231214143
0.25867558284245973 -1.247345788593865
0.25694892578758827 -1.0948910390282587
0.25589480461924696 -0.9411749999571835
0.25521996778913225 -0.7866681874864836
0.2547306599039959 -0.6316455956924258
0.25436017792799526 -0.4762439191572687
0.25409712698138204 -0.3205852470592952
0.253969545891407 -0.16485175301049335
0.2539980451801563 -0.009378386685670363
0.5880092711590437 -0.009425890053550537
0.5880123513287697 -0.1648700656097202
0.5878644838149377 -0.3205650136611526
0.5875603968789072 -0.4762027291292831
0.5871199217205088 -0.6315893458224396
0.586527929763557 -0.7865946882947145
0.5856703015814444 -0.9410564716748611
0.5842862994288412 -1.0946590900749555
0.5820190782336835 -1.2469086490045442
0.5785317429178938 -1.3971045517231189
0.573556609543614 -1.5443106453347724
0.5668533961132246 -1.68732200413794
0.5581843962168264 -1.824672718485563
0.5472766005478544 -1.954672345150861
0.5337980338747776 -2.0754110996181137
0.5173643240163692 -2.184768970733695
0.49765477922838275 -2.2804657244623594
0.47468629681493546 -2.3601734482543786
0.4492669421424411 -2.421737186476807
0.42355320424356013 -2.4635728094881193
0.40161418076426164 -2.485427840212938
0.37967515728496437 -2.4635728094880402
0.35396141938608855 -2.42173718647665
0.328542064713603 -2.360173448254154
0.305573582300167 -2.2804657244620827
0.2858640375121942 -2.184768970733378
0.2694303276537995 -2.0754110996177673
0.25595176098073624 -1.9546723451504961
0.2450439653117783 -1.8246727184851903
0.23637496541539352 -1.68732200413757
0.22967175198501685 -1.5443106453344169
0.224696618610748 -1.3971045517227851
0.22120928329496678 -1.2469086490042365
0.21894206209981498 -1.0946590900746789
0.21755805994721553 -0.9410564716746186
0.2167004317651043 -0.7865946882945101
0.21610843980815322 -0.6315893458222721
0.2156679646497552 -0.47620272912915396
0.21536387771372498 -0.3205650136610608
0.2152160101998931 -0.1648700656096664
0.21521909036961911 -0.009425890053535292
0.6267993739086594 -0.009453967702034055
0.6267808826231075 -0.1648816244127837
0.6266133063205027 -0.32054122213950637
0.6262701608850016 -0.47615656939022105
0.6257635891507497 -0.6315254915747575
0.6250659891560851 -0.7865046724193596
0.6240067175337903 -0.9408946750082007
0.6222570892182187 -1.0943348697208868
0.6194196275575591 -1.246320930134215
0.6151427461260429 -1.3961711074229435
0.6091036483839571 -1.5429599476014997
0.6010058373130176 -1.6854879724776657
0.5905497998713152 -1.822285134676901
0.5773976412708839 -1.9516475808860174
0.5611521490203379 -2.0716494232874783
0.5413741274169251 -2.1801657070484257
0.5176716815101832 -2.27495752528969
0.4900321436039817 -2.3538433707956226
0.45940824949238285 -2.41496326618216
0.428363200203592 -2.4571705146721574
0.4016141807642533 -2.4807842328976313
0.3748651613249166 -2.4571705146720793
0.3438201120361321 -2.4149632661820046
0.3131962179245437 -2.3538433707954
0.2855566800183556 -2.2749575252894165
0.2618542341116291 -2.1801657070481126
0.2420762125082326 -2.0716494232871354
0.22583072025770265 -1.9516475808856564
0.21267856165728782 -1.8222851346765319
0.2022225242156011 -1.6854879724772993
0.19412471314467655 -1.5429599476011475
0.1880856154026035 -1.396171107422612
0.18380873397109723 -1.246320930133909
0.18097127231044519 -1.0943348697206112
0.17922164399487797 -0.9408946750079588
0.17816237237258548 -0.7865046724191553
0.17746477237792163 -0.6315254915745901
0.1769582006436701 -0.476156569390092
0.17661505520816936 -0.32054122213941455
0.17644747890556478 -0.1648816244127299
0.1764289876200128 -0.009453967702018758
0.6656032848334522 -0.009467367199260668
0.6655681610334797 -0.1648864891644865
0.6653828107288203 -0.32051384792522836
0.6650026148179001 -0.4761058184989726
0.6644319675517055 -0.631454708871864
0.6636211824810099 -0.7863944071208506
0.6623340598666382 -0.9406777664757984
0.6601856506742254 -1.093905639008722
0.6567758578062294 -1.2455784240405794
0.6517067828730765 -1.395021998279294
0.644603758187113 -1.5413199069312185
0.6351112523672022 -1.6832764506914915
0.6228631490170429 -1.819415448775372
0.6074542498780378 -1.948019782627936
0.5884312635234743 -2.06715057608991
0.5653153275000071 -2.1746797550184165
0.537699469070381 -2.268409199806326
0.5055348024493667 -2.346316874603535
0.4698111362136656 -2.4068865117213227
0.4333834172559834 -2.449481874004462
0.40161418076424515 -2.4750603450164497
0.36984494427250925 -2.449481874004385
0.3334172253148343 -2.4068865117211695
0.29769355907914546 -2.346316874603316
0.26552889245814676 -2.268409199806056
0.23791303402853822 -2.1746797550181074
0.21479709800508964 -2.0671505760895714
0.19577411165054487 -1.9480197826275787
0.1803652125115586 -1.8194154487750072
0.16811710916141714 -1.683276450691129
0.15862460334152348 -1.5413199069308696
0.1515215786555745 -1.3950219982789656
0.1464525037224331 -1.2455784240402759
0.14304271085444567 -1.093905639008448
0.14089430166203862 -0.9406777664755572
0.13960717904766973 -0.7863944071206466
0.13879639397697524 -0.6314547088716966
0.13822574671078094 -0.4761058184988436
0.13784555079986124 -0.32051384792513665
0.13766020049520197 -0.1648864891644327
0.13762507669522947 -0.009467367199245362
0.7044219880942618 -0.009470932340321998
0.7043770340177118 -0.16488523654961468
0.7041784072833369 -0.3204830788787813
0.7037630127104316 -0.47605094792738495
0.7031273835316474 -0.6313760101053514
0.7021895218567927 -0.7862580357427666
0.7006422163016385 -0.9403939194061188
0.6980879689513225 -1.0933674744714734
0.6941034241353915 -1.2446787550568776
0.6882460092755468 -1.3936559093222651
0.6800855648960406 -1.539389907295823
0.6692029644772989 -1.680686008249211
0.6551649777669777 -1.8160610749737163
0.6374969734445775 -1.9437850365500577
0.6156862688093898 -2.0619108693553403
0.5892460530292251 -2.168319278882146
0.5578135976872011 -2.260856130295722
0.5213505156776982 -2.3376399487553825
0.4806945640507435 -2.3975166930561675
0.43878601228881364 -2.4404542259840616
0.40161418076423683 -2.468166773010062
0.36444234923966273 -2.4404542259839856
0.3225337974777415 -2.397516693056017
0.2818778458508006 -2.3376399487551667
0.24541476384131572 -2.2608561302954566
0.21398230849931177 -2.1683192788818415
0.18754209271916777 -2.061910869355007
0.1657313880840012 -1.9437850365497054
0.1480633837616225 -1.8160610749733566
0.1340253970513216 -1.6806860082488528
0.12314279663259904 -1.5393899072954782
0.11498235225310877 -1.3936559093219398
0.10912493739327711 -1.2446787550565763
0.10514039257735579 -1.0933674744712012
0.10258614522704647 -0.9403939194058786
0.10103883967189588 -0.7862580357425628
0.10010097799704273 -0.6313760101051841
0.09946534881825891 -0.476050947927256
0.09904995424535401 -0.3204830788786896
0.09885132751097932 -0.1648852365495609
0.09880637343442929 -0.009470932340306689
0.7432541281164293 -0.009469594964528432
0.7432093714059282 -0.16487914147602242
0.7430063026234344 -0.3204495549157024
0.742557052731831 -0.475991969714481
0.7418502704341 -0.6312876759049308
0.7407617897960012 -0.7860853132749546
0.7389358838694472 -0.9400364045620594
0.7359728979203515 -1.0927183230770519
0.731417746297182 -1.2436211764253355
0.7247819880885371 -1.3920737020992557
0.7155765178011615 -1.5371707877075727
0.703315584561512 -1.677717128303967
0.6874938600101613 -1.8122210781064654
0.6675679041503518 -1.938941477711494
0.6429823309611998 -2.0559306714355166
0.6132393713017932 -2.1610918783620177
0.5780507475674617 -2.252332031277609
0.5375197335171875 -2.3278913526342344
0.4923648627299473 -2.3868904884166877
0.4448615834829043 -2.4299963398363884
0.40161418076422833 -2.4599481092771063
0.35836677804555545 -2.4299963398363142
0.3108634987985224 -2.3868904884165403
0.26570862801129785 -2.327891352634023
0.22517761396104422 -2.252332031277348
0.18998899022673515 -2.1610918783617183
0.16024603056735162 -2.055930671435188
0.13566045737822327 -1.9389414777111467
0.11573450151843753 -1.8122210781061112
0.09991277696710975 -1.6777171283036136
0.08765184372748121 -1.5371707877072323
0.07844637344012312 -1.3920737020989342
0.07181061523149276 -1.2436211764250371
0.06725546360833404 -1.0927183230767814
0.06429247765924585 -0.9400364045618202
0.06246657173269638 -0.7860853132747514
0.06137809109459937 -0.6312876759047638
0.060671308796868884 -0.4759919697143521
0.06022205890526596 -0.3204495549156106
0.060018990122772266 -0.16487914147596863
0.059974233412271226 -0.00946959496451312
0.7820946645141145 -0.009468198443261041
0.7820660342032639 -0.1648707000796645
0.7818745044936052 -0.32041445841285315
0.7813909310226732 -0.4759283355010922
0.7805973425596875 -0.6311845661554304
0.7793339051713831 -0.7858692985745239
0.7772216143293261 -0.9396021878554098
0.7738500391631068 -1.0919572532636257
0.7687339828303286 -1.2424070526220936
0.7613356213775939 -1.390277986265025
0.7511049111334385 -1.5346655143998988
0.7374814584487506 -1.6743711070044969
0.7198849634881389 -1.8078957467685985
0.6977196300083471 -1.9334916017472774
0.6703841960418239 -2.0492146686402424
0.6373740961655298 -2.1530047405041675
0.5984680555329775 -2.2428548862347966
0.5539582179862437 -2.3171415462028415
0.5048221507215704 -2.375175062341022
0.4526506482221309 -2.4180185616243204
0.4016141807642195 -2.4499999999999993
0.3505777133063113 -2.4180185616242476
0.2984062108068828 -2.3751750623408787
0.24927014354222796 -2.317141546202635
0.20476030599551737 -2.242854886234541
0.16585426536299025 -2.153004740503874
0.13284416548672145 -2.04921466863992
0.1055087315202247 -1.9334916017469361
0.08334339804045919 -1.8078957467682504
0.06574690307987248 -1.6743711070041494
0.05212345039520762 -1.5346655143995631
0.041892740151071306 -1.390277986264707
0.0344943786983524 -1.2424070526217983
0.02937832236558597 -1.0919572532633577
0.026006747199375055 -0.939602187855172
0.02389445635732321 -0.7858692985743213
0.02263101896902118 -0.6311845661552635
0.02183743050603624 -0.47592833550096336
0.021353857035104527 -0.32041445841276145
0.021162327325445988 -0.16487070007961077
0.02113369701459549 -0.009468198443245712
SCALARS Stress float 6
LOOKUP_TABLE default
-1066.5429322769642 -1853.7213737855259 -1382.8634828431195 -13.716994111524027 0.0 0.0
1229.3395394023607 712.8867957105234 883.0510967940859 -24.502044597244733 0.0 0.0
538.5569878802334 106.00446247188852 197.72448124727077 -36.67826308324956 0.0 0.0
453.50529595213175 17.572894798911456 142.5206807846621 -3.276475407050239 0.0 0.0
561.3234837239136 52.799254489495134 203.269586859901 0.36954610915895625 0.0 0.0
650.7203813741708 87.35952134818572 293.7915710978256 1.0020634697021307 0.0 0.0
752.4004842798869 117.28711571989456 390.52062816997545 0.4667988850438083 0.0 0.0
851.993750575267 162.64999261613227 484.23992826177687 -0.44198791229692613 0.0 0.0
956.6478269233929 219.39825474883338 573.9207248396301 -1.6059008890492747 0.0 0.0
1074.129655520687 293.2786223928552 672.3942422811947 -2.890726374577178 0.0 0.0
1208.9811432913832 387.8867093853443 787.7304437120458 -4.18650467180242 0.0 0.0
1361.0578128734355 503.45384660130935 921.3884452509924 -5.363558153406802 0.0 0.0
1526.3065753300334 633.8814350227234 1068.7425580427312 -6.114920982546803 0.0 0.0
1699.4154584473758 773.7556329070259 1224.6987505860989 -6.743615211361792 0.0 0.0
1872.3560316126418 915.0132968317291 1381.2349951172928 -7.1998630422689285 0.0 0.0
2036.4239285371427 1049.2677569345456 1529.8507768260508 -7.45290508337959 0.0 0.0
2183.4554363617053 1169.1775616925283 1662.866195977537 -7.3606424316283405 0.0 0.0
2305.0366054167225 1267.3011321911072 1772.419515286519 -6.7675738838770805 0.0 0.0
2396.684679253537 1340.155051944348 1854.4862616930811 -5.6466770440536465 0.0 0.0
2448.0694899768555 1378.5945198291795 1899.361573236821 -5.515401340018315 0.0 0.0
2443.1560921553237 1371.11071764033 1893.4941229797564 1.2645884339690383e-11 0.0 0.0
2448.0694899769705 1378.5945198293227 1899.3615732367102 5.515401340071014 0.0 0.0
2396.684679252286 1340.1550519431353 1854.486261691985 5.646677044030829 0.0 0.0
2305.0366054171664 1267.3011321916388 1772.419515286704 6.767573883850368 0.0 0.0
2183.455436359842 1169.177561690751 1662.8661959761007 7.360642431644045 0.0 0.0
2036.4239285385388 1049.2677569360933 1529.850776826925 7.452905083508394 0.0 0.0
1872.3560316121789 915.0132968313784 1381.234995116827 7.199863042205932 0.0 0.0
1699.4154584462306 773.7556329060372 1224.6987505850407 6.743615211409217 0.0 0.0
1526.3065753292294 633.8814350221094 1068.742558041973 6.114920982490183 0.0 0.0
1361.0578128725658 503.4538466006415 921.3884452502193 5.3635581534438135 0.0 0.0
1208.9811432902875 387.88670938445193 787.7304437111782 4.186504671763544 0.0 0.0
1074.1296555204221 293.278622392863 672.394242280861 2.8907263745077234 0.0 0.0
956.6478269213867 219.39825474700052 573.9207248382492 1.6059008890806457 0.0 0.0
851.9937505754178 162.64999261659966 484.2399282617087 0.441987912280732 0.0 0.0
752.4004842787997 117.28711571900536 390.52062816911297 -0.46679888504959344 0.0 0.0
650.7203813734703 87.35952134771486 293.7915710972392 -1.0020634696626889 0.0 0.0
561.3234837234558 52.79925448923479 203.26958685959147 -0.3695461091216945 0.0 0.0
453.50529595182314 17.572894798747768 142.5206807845248 3.2764754072021818 0.0 0.0
538.5569878799639 106.00446247184348 197.72448124713938 36.67826308320334 0.0 0.0
1229.3395394019926 712.886795710211 883.0510967935778 24.502044597368197 0.0 0.0
-1066.5429322743385 -1853.721373782924 -1382.8634828405284 13.716994111034758 0.0 0.0
-1359.1330627838315 -2115.6786995830767 -1624.1207536287168 -12.991795934636318 0.0 0.0
832.9065997069812 398.32139255260637 550.0324380181488 -35.480235954389954 0.0 0.0
373.09669115429915 42.78133608825045 123.34747841665383 -29.987509693812004 0.0 0.0
402.1382986105508 1.6862750993729305 121.2583400934711 -16.427763695220953 0.0 0.0
500.46114577259874 22.700916387837623 167.80171116670596 -15.142095191960196 0.0 0.0
589.3610447104668 30.538644338546455 236.81748743544074 -19.031215864163162 0.0 0.0
662.768503716564 42.12543785675671 313.99868847490546 -21.301940080649363 0.0 0.0
734.9077957096594 58.1316390511157 381.14253283832886 -22.115019290617184 0.0 0.0
802.7174872310665 77.29762227418763 434.6143646010813 -22.389687906766824 0.0 0.0
870.5118013134415 101.64905049137556 483.93166274379024 -22.624986912398313 0.0 0.0
940.247630030169 131.78301696551785 534.7890072535407 -22.626832092167685 0.0 0.0
1012.032670128879 166.47850581059936 588.2631952790567 -22.407437984069457 0.0 0.0
1084.0194378820888 204.88424460558093 643.4593879785524 -21.885312918352408 0.0 0.0
1153.7263815343633 241.69451282154841 696.6383849018089 -21.270013583696446 0.0 0.0
1214.9413992374925 271.6201905702792 742.1151726136326 -20.653390055111664 0.0 0.0
1262.6774995278743 289.922442878104 775.0487983157028 -19.832479042693866 0.0 0.0
1293.6022718339384 293.941470336458 792.4654686977116 -18.54108124347355 0.0 0.0
1307.9316561965638 284.83384697423253 795.0671775978234 -16.582843594704194 0.0 0.0
1305.7564956423562 263.8229538115579 783.5915771391178 -14.037070889146548 0.0 0.0
1269.758438189589 214.97399534768093 741.7841762271927 -12.087538403174792 0.0 0.0
1204.8215698250056 147.77603336846263 676.8005750467684 -2.6796342922352778e-11 0.0 0.0
1269.7584381894856 214.97399534761183 741.7841762270664 12.087538403226452 0.0 0.0
1305.7564956417345 263.8229538109591 783.5915771386375 14.037070889138445 0.0 0.0
1307.931656197996 284.8338469757732 795.067177598792 16.582843594696108 0.0 0.0
1293.6022718325728 293.9414703351501 792.465468696845 18.54108124348593 0.0 0.0
1262.677499528125 289.92244287848183 775.0487983158193 19.832479042705778 0.0 0.0
1214.9413992377488 271.620190570663 742.1151726137263 20.653390055097084 0.0 0.0
1153.726381534222 241.69451282157698 696.6383849016823 21.27001358378807 0.0 0.0
1084.0194378817016 204.8842446053688 643.4593879782404 21.885312918352763 0.0 0.0
1012.0326701286767 166.47850581059933 588.2631952789395 22.407437984096397 0.0 0.0
940.247630029722 131.78301696527578 534.7890072532351 22.62683209208441 0.0 0.0
870.5118013134692 101.64905049164528 483.9316627437669 22.624986912349122 0.0 0.0
802.7174872295128 77.29762227283126 434.6143646000332 22.38968790670543 0.0 0.0
734.907795710156 58.13163905191392 381.1425328385461 22.11501929057754 0.0 0.0
662.7685037158566 42.12543785630088 313.9986884743185 21.301940080640538 0.0 0.0
589.3610447100345 30.538644338406087 236.81748743505733 19.031215864159314 0.0 0.0
500.46114577231907 22.700916387879804 167.80171116656496 15.14209519195569 0.0 0.0
402.1382986104067 1.6862750994029456 121.25834009344881 16.42776369525917 0.0 0.0
373.0966911541904 42.781336088292676 123.34747841664267 29.98750969364099 0.0 0.0
832.9065997064047 398.3213925521328 550.032438017521 35.48023595445114 0.0 0.0
-1359.133062781922 -2115.678699581101 -1624.1207536266725 12.991795934158562 0.0 0.0
-1117.2777756597611 -1839.6044357069072 -1354.9624076843297 -51.80668953206289 0.0 0.0
635.8324408955043 306.38515070555616 407.8909505731513 -101.30935552410709 0.0 0.0
264.91758485792843 50.2333410770696 94.54516308135763 -31.35098441218402 0.0 0.0
343.2781984804524 -0.4202149078821209 102.85244064760136 -36.72598233991443 0.0 0.0
455.0306981832116 14.564380525850584 144.7170322297958 -37.358023690023245 0.0 0.0
557.4244948235631 26.70155870833417 209.78739256143768 -37.50368002895522 0.0 0.0
634.3496871476358 39.635059714942855 289.38999078768063 -40.23886150053373 0.0 0.0
708.3797920780343 51.95206344424704 359.1476459489426 -41.66249748592726 0.0 0.0
774.9071602567165 68.71583370092674 414.0471729946158 -42.40436046953794 0.0 0.0
839.6596425474837 89.41838579285057 461.39492051535456 -42.88084972644012 0.0 0.0
905.4866812669034 115.83986094577153 508.8979557274821 -42.80287353342377 0.0 0.0
973.0176782136223 147.6255843229466 558.9214101932016 -42.05634649985888 0.0 0.0
1041.7830797217898 181.9432099233351 610.5199164172834 -40.99452884058182 0.0 0.0
1107.1020295850933 215.7501075656512 660.0381306625573 -39.79918232809318 0.0 0.0
1165.2882970435676 243.05908411173783 702.7004271811912 -38.56474982515879 0.0 0.0
1211.1182511015988 259.7981282166948 733.9020806795561 -36.98916566878912 0.0 0.0
1242.3886549524436 264.3268644052095 751.7514055378502 -34.61103904445093 0.0 0.0
1257.4837551929118 255.94622896838376 755.135305444867 -31.21923828515546 0.0 0.0
1250.7273041966068 230.2002739792546 739.1419622456734 -26.964747965219516 0.0 0.0
1228.2458548143975 194.87394698658613 710.6049623965205 -21.97556526092216 0.0 0.0
1147.0649239355348 111.75022971915917 629.8814587743615 -1.1584511128148733e-11 0.0 0.0
1228.245854814754 194.87394698698853 710.6049623967618 21.975565261011944 0.0 0.0
1250.7273041960927 230.20027397879738 739.1419622453543 26.96474796527776 0.0 0.0
1257.4837551933765 255.9462289688912 755.1353054451375 31.21923828517015 0.0 0.0
1242.388654951817 264.32686440467876 751.7514055374394 34.61103904446069 0.0 0.0
1211.1182511007044 259.79812821591395 733.902080678783 36.989165668811566 0.0 0.0
1165.2882970433877 243.05908411168616 702.7004271809559 38.564749825220936 0.0 0.0
1107.1020295847632 215.7501075654747 660.0381306623048 39.79918232813685 0.0 0.0
1041.7830797213055 181.943209923012 610.5199164169294 40.99452884053614 0.0 0.0
973.017678213005 147.62558432251143 558.9214101928316 42.056346499849 0.0 0.0
905.4866812667941 115.83986094586919 508.89795572737336 42.80287353334319 0.0 0.0
839.6596425471375 89.41838579273477 461.39492051512264 42.88084972644855 0.0 0.0
774.9071602558494 68.7158337003053 414.04717299399255 42.40436046953549 0.0 0.0
708.3797920783693 51.95206344490366 359.14764594905284 41.66249748596659 0.0 0.0
634.3496871469757 39.63505971455253 289.3899907871289 40.23886150056776 0.0 0.0
557.4244948233453 26.701558708437275 209.787392561206 37.50368002893333 0.0 0.0
455.0306981829507 14.564380526002898 144.7170322297376 37.35802368999132 0.0 0.0
343.27819848029867 -0.4202149079710764 102.85244064753003 36.72598233983297 0.0 0.0
264.91758485794765 50.23334107700045 94.54516308134278 31.350984412016615 0.0 0.0
635.8324408949397 306.38515070518184 407.89095057258135 101.30935552398847 0.0 0.0
-1117.277775657921 -1839.604435704966 -1354.9624076823168 51.806689531751516 0.0 0.0
-903.6400455270347 -1595.2001347552873 -1117.2680304179366 -65.40136979541268 0.0 0.0
478.83392996468416 211.96517045906182 291.595464166478 -143.96483843365212 0.0 0.0
194.91723939433706 47.65782846451151 72.77252035765456 -53.6425679394693 0.0 0.0
286.82758904163245 4.261227590203621 87.32754019241102 -56.59952415551734 0.0 0.0
400.11594013116274 6.854122577433217 122.23123983031961 -61.1854567137655 0.0 0.0
511.3597529167255 21.797893481655358 180.33089785795067 -57.837108377019305 0.0 0.0
604.2394962543709 34.53787714740514 259.7263882971696 -60.63422988611658 0.0 0.0
676.7725802100705 46.02015986244619 332.7643142562946 -61.55204468315883 0.0 0.0
743.0825914847683 60.23082972935656 390.23814222145205 -62.25073475820187 0.0 0.0
805.1718892571599 77.68224810904297 436.71597864556037 -62.61960410606687 0.0 0.0
866.8225362424878 100.24150109603345 480.96092562698027 -62.20156677411718 0.0 0.0
930.4507604411175 127.83649271377975 527.178588500141 -61.00997040886752 0.0 0.0
994.8959498897494 159.43581934340165 575.364062562039 -59.35665333732551 0.0 0.0
1056.700049634042 188.77777048568169 620.9282670290286 -57.76479789959156 0.0 0.0
1111.3357067367838 213.36123034415294 660.4684379269509 -56.015954066366206 0.0 0.0
1156.1624336861855 229.7943908326544 691.0344793609412 -53.71976395454633 0.0 0.0
1188.0972833096207 234.80478805975113 709.4691684297131 -50.495876183385334 0.0 0.0
1203.4188952009342 226.37128787119798 712.980619178896 -46.0782085422066 0.0 0.0
1199.7127643006404 203.27934582666893 699.8268313601521 -40.10830355704017 0.0 0.0
1184.4123903609377 174.44501931474093 678.0015917376967 -31.043497245434132 0.0 0.0
1069.154487575347 57.25751245105759 564.0141718450103 6.886935466354771e-12 0.0 0.0
1184.4123903611896 174.44501931502026 678.0015917378672 31.043497245486215 0.0 0.0
1199.7127643007952 203.27934582689988 699.8268313603508 40.10830355714795 0.0 0.0
1203.4188952006969 226.3712878710504 712.9806191788176 46.07820854234168 0.0 0.0
1188.0972833094459 234.8047880596427 709.4691684295461 50.495876183469086 0.0 0.0
1156.1624336868015 229.7943908334318 691.03447936138 53.71976395463443 0.0 0.0
1111.3357067361446 213.36123034362626 660.4684379265029 56.015954066409975 0.0 0.0
1056.7000496339137 188.77777048568998 620.9282670288903 57.76479789953349 0.0 0.0
994.8959498891251 159.43581934294215 575.3640625615859 59.356653337302056 0.0 0.0
930.4507604405434 127.83649271339667 527.178588499739 61.009970408866266 0.0 0.0
866.822536242107 100.24150109582334 480.96092562669 62.20156677407641 0.0 0.0
805.1718892566524 77.68224810875594 436.71597864519646 62.61960410597081 0.0 0.0
743.0825914846721 60.23082972954352 390.23814222134274 62.25073475824938 0.0 0.0
676.7725802099687 46.02015986260484 332.7643142560955 61.5520446830987 0.0 0.0
604.2394962538938 34.53787714725924 259.72638829673747 60.634229886091425 0.0 0.0
511.35975291633434 21.79789348160859 180.3308978576855 57.83710837698512 0.0 0.0
400.1159401308731 6.8541225775107115 122.2312398302635 61.18545671367173 0.0 0.0
286.8275890415941 4.261227590217075 87.3275401924011 56.59952415542043 0.0 0.0
194.91723939425958 47.657828464277394 72.77252035756105 53.64256793930997 0.0 0.0
478.8339299641732 211.9651704588254 291.5954641660156 143.9648384335081 0.0 0.0
-903.6400455254079 -1595.2001347535327 -1117.2680304161252 65.40136979522397 0.0 0.0
-719.2750820305852 -1381.7698188359102 -909.0166732178459 -65.78845255390772 0.0 0.0
363.4612732519836 130.53869257793303 202.6272254939044 -173.49169459193436 0.0 0.0
143.92426611239395 40.1003948520905 55.20739828934533 -82.52610075613504 0.0 0.0
234.95524273961408 10.782594723047383 73.7221065949903 -77.93402144560619 0.0 0.0
338.0489200564686 4.536208532714487 102.43087137831694 -84.3135763219253 0.0 0.0
458.7434878150595 10.228901819486344 148.79569269289277 -83.98538613487584 0.0 0.0
561.3495502134605 27.806207451562848 223.9950090373987 -81.20468450658242 0.0 0.0
639.3088830408756 41.42929940727933 301.95899228663626 -81.68859136274342 0.0 0.0
706.1748777865887 52.19933292112113 362.1901417734412 -81.9447445067343 0.0 0.0
765.9989887963987 66.26269485483039 408.8614838390477 -81.81154301586302 0.0 0.0
824.1983540762046 84.70128796051321 450.57011287281796 -80.89717547532082 0.0 0.0
883.4092364600515 108.11665235789259 492.9665378257743 -79.17446072411231 0.0 0.0
943.7507595406773 135.0978692265326 536.9602102541568 -77.13550977563936 0.0 0.0
1001.4084735103843 162.27312544180953 579.4499690285621 -75.10055977201499 0.0 0.0
1053.2219078167586 183.8237568432757 616.1047624213383 -72.93327446349558 0.0 0.0
1096.2381420788956 198.05322018409885 644.6809281490157 -70.12274603453344 0.0 0.0
1128.9776173171754 204.35197950712262 664.1835580002693 -66.23786816837988 0.0 0.0
1147.4991364095763 198.79077726536642 670.7168240414815 -61.05689934913722 0.0 0.0
1148.309878484574 179.3863405801709 661.6399642269689 -53.35678153789938 0.0 0.0
1136.0435898462958 152.1108793062735 642.0790102422983 -40.45500879288093 0.0 0.0
978.1549996264978 -7.753200210698523 486.5815612306787 3.468692000296869e-11 0.0 0.0
1136.0435898458807 152.11087930588258 642.0790102420854 40.4550087928747 0.0 0.0
1148.3098784849349 179.38634058063053 661.6399642272497 53.356781538109864 0.0 0.0
1147.499136410091 198.79077726597706 670.7168240419334 61.0568993492677 0.0 0.0
1128.977617316665 204.35197950670027 664.1835579998768 66.23786816845802 0.0 0.0
1096.238142079552 198.05322018487595 644.6809281494593 70.12274603460705 0.0 0.0
1053.2219078160963 183.82375684276792 616.104762420879 72.93327446352583 0.0 0.0
1001.4084735102847 162.27312544182905 579.4499690284422 75.10055977202818 0.0 0.0
943.7507595399309 135.09786922596766 536.9602102536169 77.13550977568278 0.0 0.0
883.4092364598985 108.11665235794356 492.96653782566386 79.17446072416132 0.0 0.0
824.1983540753648 84.7012879598192 450.5701128722077 80.89717547526013 0.0 0.0
765.9989887961466 66.26269485475132 408.8614838388366 81.81154301569407 0.0 0.0
706.1748777861947 52.19933292101217 362.1901417731273 81.94474450675933 0.0 0.0
639.3088830406703 41.429299407387745 301.95899228635886 81.68859136273505 0.0 0.0
561.3495502130171 27.806207451444216 223.99500903700527 81.20468450655918 0.0 0.0
458.74348781444996 10.228901819196746 148.7956926925475 83.98538613485928 0.0 0.0
338.0489200560832 4.53620853252661 102.43087137816512 84.31357632187351 0.0 0.0
234.95524273966805 10.782594723266483 73.72210659507176 77.9340214454687 0.0 0.0
143.92426611228854 40.100394851757656 55.20739828921386 82.52610075594077 0.0 0.0
363.4612732515762 130.53869257785433 202.6272254935697 173.4916945917904 0.0 0.0
-719.2750820292491 -1381.7698188343868 -909.0166732162679 65.78845255379434 0.0 0.0
-558.0028618879169 -1192.5650340767506 -725.2708950484168 -65.42510052267986 0.0 0.0
272.74355693347877 68.00162321060732 135.45308739487197 -189.3482262667032 0.0 0.0
104.28566835765587 29.327041918161566 40.08381308274522 -109.8176716805173 0.0 0.0
186.71822620959293 16.21493145340802 60.88124849204608 -99.74093581981799 0.0 0.0
276.7000046111769 4.3103522602672655 84.1832524165991 -106.16489452678616 0.0 0.0
390.0915112898509 4.122582367401877 120.14024643308133 -108.84598332576093 0.0 0.0
499.8111049513827 20.769246786618652 184.59848720702564 -103.71515197338537 0.0 0.0
594.8084469485616 33.14208403404536 262.6062395246151 -103.24016566578996 0.0 0.0
660.7234180958085 45.166973120091995 328.1035920067918 -101.1232919462328 0.0 0.0
721.305506998993 54.94649405306607 376.50218331770395 -100.54176797562795 0.0 0.0
776.2061002455849 69.27260094154694 416.6339948342612 -98.89958126892584 0.0 0.0
831.1534615774569 88.41018144002892 455.6176193065917 -96.56748804086182 0.0 0.0
886.9670877022488 111.46096725207683 495.73102178555365 -94.08289685921106 0.0 0.0
940.5778029258901 134.0896300129305 534.0618665526115 -91.81868145961205 0.0 0.0
989.2761916987157 153.53746492053986 568.1786594831767 -89.37402793805602 0.0 0.0
1030.5781760276086 166.889086319092 595.5403820268004 -86.02095046160079 0.0 0.0
1063.8940462720234 172.5945085893021 615.0343883273058 -81.72815529095138 0.0 0.0
1087.0472880110947 171.41210219621428 626.0045954004302 -76.0489327999562 0.0 0.0
1094.1084585365707 157.49440695205453 622.7859009607419 -66.98145360267046 0.0 0.0
1083.580358142223 129.66622367752103 603.854206020215 -50.801710206324316 0.0 0.0
874.0674147562485 -81.72691067751144 398.39610079556905 3.9243275296030333e-11 0.0 0.0
1083.5803581422679 129.66622367765555 603.8542060202521 50.80171020642922 0.0 0.0
1094.108458536168 157.49440695174138 622.785900960488 66.98145360293837 0.0 0.0
1087.047288010527 171.41210219577317 626.0045954000254 76.04893280017751 0.0 0.0
1063.8940462718217 172.59450858919425 615.0343883271727 81.72815529112378 0.0 0.0
1030.578176027202 166.88908631874673 595.540382026487 86.0209504615232 0.0 0.0
989.2761916981823 153.5374649201249 568.1786594827853 89.37402793804794 0.0 0.0
940.5778029247128 134.08963001182934 534.0618665517213 91.8186814595683 0.0 0.0
886.967087702281 111.46096725228915 495.7310217855248 94.08289685919884 0.0 0.0
831.1534615773446 88.4101814401231 455.61761930652284 96.56748804086772 0.0 0.0
776.2061002448171 69.27260094089388 416.63399483365305 98.89958126882448 0.0 0.0
721.30550699886 54.94649405312062 376.5021833175706 100.54176797549185 0.0 0.0
660.723418095172 45.16697311969034 328.10359200627914 101.12329194619329 0.0 0.0
594.8084469482825 33.142084034173436 262.6062395243313 103.24016566583374 0.0 0.0
499.8111049509365 20.76924678647871 184.59848720665337 103.71515197329198 0.0 0.0
390.0915112892548 4.122582367133441 120.14024643281631 108.8459833257153 0.0 0.0
276.70000461110067 4.31035226044728 84.1832524166287 106.16489452684218 0.0 0.0
186.71822620951292 16.214931453492312 60.881248492047 99.74093581964298 0.0 0.0
104.28566835752643 29.327041918045527 40.08381308267158 109.81767168035358 0.0 0.0
272.7435569330079 68.00162321042313 135.45308739454057 189.34822626652095 0.0 0.0
-558.0028618867916 -1192.5650340753618 -725.270895047042 65.42510052266363 0.0 0.0
-420.2285950609392 -1018.4365499559732 -564.3508668095104 -66.08754322398565 0.0 0.0
201.50616496472497 18.093990368966615 84.77734944681198 -198.14593103567424 0.0 0.0
71.61496384028565 18.187819843102496 26.94083510501644 -132.43774623778233 0.0 0.0
141.0998747266122 19.595438606688056 48.209178974457416 -120.30707453650369 0.0 0.0
217.61098683749094 6.074311639345064 67.10083057760261 -125.56541988732374 0.0 0.0
313.9937934504705 -1.1014481758891304 93.15834892231483 -133.93838968186756 0.0 0.0
427.50813710466275 8.851492280001828 142.6123658577979 -130.7359733293929 0.0 0.0
527.2352418826918 26.330977765822496 215.22444017972708 -124.27168380486818 0.0 0.0
609.086567104237 34.05708605323554 283.98436267419936 -122.77696952275936 0.0 0.0
666.891791713431 44.15889108246762 336.78666085564174 -118.48215305278073 0.0 0.0
721.287740643914 53.958932877472584 377.3095360270679 -116.16763472190473 0.0 0.0
772.2819740163723 68.58508163421936 413.7198394874247 -113.24332215889194 0.0 0.0
823.3342764155644 87.19639484278237 449.99966767642957 -110.31613799295882 0.0 0.0
872.5056648740991 106.28571068822139 484.6613611311835 -107.78847050597368 0.0 0.0
917.6293596046853 122.81228067059773 515.7106505267341 -105.17931132653031 0.0 0.0
956.9338450699175 133.3170648338188 540.7412798613267 -101.80198605205617 0.0 0.0
990.3597607793986 140.8206742056076 561.2438644011394 -96.78004421620844 0.0 0.0
1019.5223340258575 144.24203695005122 577.4084026124069 -90.80331158572406 0.0 0.0
1034.7035606074678 136.3687039225009 581.2122294427036 -81.2687591906078 0.0 0.0
1026.7637418817344 108.52966546057652 563.7055757752729 -62.72883682522419 0.0 0.0
754.7494233104726 -164.70588931140497 298.46421547258853 5.589839702224708e-11 0.0 0.0
1026.7637418829956 108.52966546195047 563.7055757761563 62.72883682539235 0.0 0.0
1034.7035606075276 136.36870392272573 581.2122294427975 81.26875919084122 0.0 0.0
1019.5223340253787 144.24203694971288 577.4084026120294 90.80331158598459 0.0 0.0
990.3597607794774 140.82067420579804 561.2438644011916 96.78004421637003 0.0 0.0
956.9338450691088 133.31706483301764 540.7412798607837 101.8019860519552 0.0 0.0
917.6293596044195 122.81228067050137 515.7106505265185 105.17931132653987 0.0 0.0
872.5056648734368 106.28571068768457 484.661361130722 107.78847050598532 0.0 0.0
823.3342764154344 87.19639484285425 449.9996676763554 110.31613799306696 0.0 0.0
772.2819740164657 68.58508163459987 413.7198394875184 113.2433221590111 0.0 0.0
721.2877406434643 53.958932877190655 377.3095360266657 116.16763472189952 0.0 0.0
666.8917917134545 44.158891082737156 336.78666085560695 118.48215305272204 0.0 0.0
609.086567103989 34.057086053268165 283.9843626739199 122.77696952269895 0.0 0.0
527.2352418820483 26.330977765484633 215.2244401792532 124.27168380487015 0.0 0.0
427.50813710422995 8.851492279834108 142.61236585749225 130.73597332925374 0.0 0.0
313.99379345018036 -1.1014481755156136 93.15834892236414 133.93838968175388 0.0 0.0
217.6109868375027 6.074311639662673 67.10083057769877 125.56541988728574 0.0 0.0
141.099874726498 19.595438606692003 48.20917897442413 120.30707453628088 0.0 0.0
71.61496384028653 18.18781984324245 26.940835105058692 132.4377462375802 0.0 0.0
201.50616496428765 18.09399036874751 84.77734944652708 198.1459310355192 0.0 0.0
-420.2285950599943 -1018.4365499547084 -564.3508668083498 66.08754322404927 0.0 0.0
-298.88442118959927 -869.6030959274993 -424.54694281407683 -76.91642501583327 0.0 0.0
140.1793949288063 -19.274221742637593 45.42917810281492 -197.99278339996027 0.0 0.0
43.2307192445974 9.006024960148219 15.671047936265195 -149.90025819075083 0.0 0.0
97.18852796829952 20.950799506731045 35.442340138205445 -138.23140430347405 0.0 0.0
159.31525155452755 8.756080816164577 50.40155918269593 -142.46239551094607 0.0 0.0
233.10859069383346 -0.7993377501577472 69.27200370545715 -153.38679095360052 0.0 0.0
336.030314441616 -0.20208538853649793 102.72066402482146 -158.09589444547038 0.0 0.0
440.42724880797374 13.592760359591448 159.84840571378425 -148.18524755286506 0.0 0.0
531.9049633916605 25.556182490964293 227.55872821981959 -142.21679832977517 0.0 0.0
601.2036335738194 29.725883523410424 283.7681170824918 -138.12607687036893 0.0 0.0
654.2368136226671 37.793920206382 327.32394162148165 -132.65586824530016 0.0 0.0
702.5048684847376 48.84112952236966 363.54072083349126 -128.93929767093093 0.0 0.0
749.5616647433856 62.97721406390353 397.2022766930208 -125.63317317188746 0.0 0.0
793.6195141871442 77.73200138090446 428.00473417477485 -122.90703744717288 0.0 0.0
835.0108938733473 90.86028607120886 455.9055074104837 -120.33924861528234 0.0 0.0
871.6506430195211 100.3804917283828 479.38240609147107 -116.96626464233738 0.0 0.0
904.7380828189889 105.89927615744844 498.9273633786026 -111.81645267831122 0.0 0.0
938.7855009063699 114.00941079707698 519.7131904282893 -105.16969291884287 0.0 0.0
965.6646419655146 117.14244166010951 534.7484229743396 -95.85955381547708 0.0 0.0
964.4414140467914 92.0619568673465 522.2839306464421 -77.0147709032617 0.0 0.0
614.4147693576418 -256.91908956433105 183.99748211931086 7.204192797871656e-11 0.0 0.0
964.4414140477644 92.06195686846965 522.2839306471374 77.01477090353791 0.0 0.0
965.6646419656718 117.14244166042084 534.7484229745164 95.85955381572438 0.0 0.0
938.7855009060632 114.00941079685096 519.7131904280517 105.16969291908035 0.0 0.0
904.7380828188661 105.89927615733153 498.92736337847066 111.81645267832107 0.0 0.0
871.6506430192726 100.38049172826524 479.38240609128144 116.96626464230535 0.0 0.0
835.0108938738707 90.86028607198874 455.90550741079255 120.33924861538561 0.0 0.0
793.619514186559 77.73200138039945 428.0047341743938 122.90703744717406 0.0 0.0
749.5616647427707 62.97721406341675 397.20227669258975 125.6331731719005 0.0 0.0
702.5048684846977 48.84112952261148 363.54072083350275 128.9392976710347 0.0 0.0
654.2368136224693 37.79392020646691 327.32394162129526 132.65586824539935 0.0 0.0
601.2036335739435 29.725883523876057 283.7681170825171 138.12607687036413 0.0 0.0
531.9049633914689 25.55618249117761 227.55872821963078 142.21679832985683 0.0 0.0
440.4272488074665 13.592760359377126 159.84840571342758 148.1852475528041 0.0 0.0
336.0303144410705 -0.2020853888365588 102.72066402454229 158.09589444542593 0.0 0.0
233.1085906937782 -0.7993377497601606 69.27200370557426 153.38679095340254 0.0 0.0
159.3152515543128 8.756080815831277 50.40155918252921 142.4623955107556 0.0 0.0
97.18852796825007 20.950799506711302 35.442340138184555 138.23140430328417 0.0 0.0
43.23071924458398 9.006024960173127 15.671047936268605 149.90025819053875 0.0 0.0
140.1793949284963 -19.274221742804873 45.42917810261763 197.9927833997423 0.0 0.0
-298.88442118878606 -869.6030959263676 -424.54694281312334 76.9164250158847 0.0 0.0
-211.60105068468712 -724.4374426721657 -316.48823395146337 -86.835844003361 0.0 0.0
87.28587905037635 -48.97342439829792 15.697359565600404 -191.65286295891065 0.0 0.0
16.524578954566945 2.7583419952585104 5.786375556370037 -162.52796928833905 0.0 0.0
54.734220743870374 20.830995603544594 22.669195451922977 -152.64531786749782 0.0 0.0
100.75609326182843 11.494965095947071 33.66109391070966 -155.9176151088605 0.0 0.0
153.627832821715 1.6811799764926296 46.483756841134216 -167.80237680623358 0.0 0.0
227.53206905301747 -3.0826576668312313 66.81496144139115 -181.72927558768282 0.0 0.0
326.41741392422847 -2.1688809624065963 101.62208409041648 -179.85132518056372 0.0 0.0
423.70292780466264 8.610879182313044 154.4101197089305 -164.88953693128494 0.0 0.0
502.67525510732696 15.06770187471038 209.1858482872807 -155.15563945255946 0.0 0.0
562.315722009393 20.746774967322665 256.1444771655097 -147.5348703202526 0.0 0.0
610.9990460232767 27.324975774806866 293.65463558241197 -143.0562968386092 0.0 0.0
655.0402295706514 38.13976087849588 327.3765654057654 -139.53891807061527 0.0 0.0
694.4780344181468 48.719229823472816 356.03742682249015 -136.80595457853295 0.0 0.0
731.1652217295087 58.39391793658284 381.31926609260205 -134.46564218088372 0.0 0.0
765.2913746256223 65.92840719421005 403.3675020678675 -131.6046694330181 0.0 0.0
798.3742437131043 71.87790573713883 423.8023014841404 -126.73904000474278 0.0 0.0
833.0107256385796 79.34560364453222 444.997835028385 -119.28368487041321 0.0 0.0
872.988332668556 92.3123432312218 471.151597272163 -110.19815699052705 0.0 0.0
892.1891203445656 82.75943093781925 477.1989494894629 -94.83188976935175 0.0 0.0
444.68158373748895 -355.2342379601261 52.813350505432915 8.482103908136196e-11 0.0 0.0
892.1891203448889 82.7594309383549 477.1989494897314 94.83188976962413 0.0 0.0
872.9883326685261 92.31234323133346 471.1515972721175 110.19815699082463 0.0 0.0
833.0107256373908 79.34560364336362 444.9978350275585 119.28368487056154 0.0 0.0
798.374243712967 71.87790573723784 423.8023014840288 126.73904000493701 0.0 0.0
765.291374626246 65.92840719506358 403.3675020682656 131.60466943320034 0.0 0.0
731.1652217304498 58.39391793772364 381.31926609325063 134.4656421809852 0.0 0.0
694.4780344172739 48.71922982265068 356.0374268218689 136.8059545784786 0.0 0.0
655.0402295707576 38.139760878819104 327.37656540579104 139.53891807071574 0.0 0.0
610.9990460230463 27.324975774762365 293.65463558220154 143.05629683861346 0.0 0.0
562.3157220092418 20.746774967363027 256.1444771653652 147.534870320236 0.0 0.0
502.6752551073573 15.06770187505073 209.1858482872301 155.15563945246572 0.0 0.0
423.7029278041252 8.610879182163238 154.41011970861888 164.8895369313922 0.0 0.0
326.4174139240491 -2.1688809620256 101.62208409040949 179.85132518059297 0.0 0.0
227.53206905268823 -3.082657666676211 66.8149614413537 181.72927558752394 0.0 0.0
153.62783282166038 1.6811799767806452 46.483756841215815 167.8023768059169 0.0 0.0
100.75609326169992 11.494965095724538 33.66109391060254 155.9176151087069 0.0 0.0
54.73422074381565 20.83099560352947 22.66919545190202 152.64531786733886 0.0 0.0
16.524578954504687 2.7583419952615755 5.786375556351982 162.52796928816082 0.0 0.0
87.28587905004525 -48.9734243985282 15.6973595654038 191.6528629586551 0.0 0.0
-211.60105068408248 -724.4374426712017 -316.48823395077267 86.83584400339744 0.0 0.0
-145.2288698600805 -601.4326931783751 -233.7841334342212 -103.31631994280255 0.0 0.0
40.17050305479487 -68.73334581258597 -7.2361851988722075 -179.3627035050311 0.0 0.0
-8.762456396196956 -0.4734550348700003 -2.7704467313812184 -170.45225121738352 0.0 0.0
13.457282689387801 19.73309925837878 9.95741685714369 -163.0569299322491 0.0 0.0
42.526929064663804 13.876609343453739 16.922859451014432 -165.3789424287217 0.0 0.0
74.10122775834097 4.76458359083359 23.562163412889326 -178.51600946155168 0.0 0.0
112.87896131237896 -0.5049372460272261 33.597868514777886 -193.78562520023462 0.0 0.0
170.18328596123786 -3.0112610023665987 50.15157394481341 -200.27813554864983 0.0 0.0
250.9086297207201 -7.8553997591494955 74.33316445656176 -195.22717138137168 0.0 0.0
336.50235484338975 -16.15243730864632 102.81298655188213 -182.25162236026176 0.0 0.0
407.01294669711274 -17.29724856691724 134.94775714396283 -169.21618644619383 0.0 0.0
455.7996160896821 -10.721983114324441 166.56045318565234 -158.25053281710854 0.0 0.0
495.5850858966589 2.273477653462919 197.14708717376013 -152.81766670518448 0.0 0.0
532.2218223481146 15.099955023531688 225.99624043465994 -150.1368542033151 0.0 0.0
565.1015629921318 24.054441380235488 252.55924928361625 -149.17865144273077 0.0 0.0
596.5793338717525 31.33906221152609 277.66290890836945 -149.45942081349983 0.0 0.0
630.3076380479316 37.14110813324746 303.27014036207504 -146.793999618825 0.0 0.0
667.6634593400241 41.50417381549192 328.9258157030749 -138.85068370333693 0.0 0.0
710.7885808232088 47.91256281109571 355.7572997059548 -127.32644702413785 0.0 0.0
774.5191242554881 72.622160297074 402.4542286245913 -117.88498178901044 0.0 0.0
212.6988040706722 -458.59948834381566 -108.81245156741917 1.2256151649125968e-10 0.0 0.0
774.5191242550402 72.62216029653098 402.45422862444303 117.88498178922741 0.0 0.0
710.7885808233335 47.91256281142124 355.75729970609433 127.32644702451921 0.0 0.0
667.6634593393633 41.504173814669855 328.925815702571 138.85068370343174 0.0 0.0
630.3076380477439 37.141108132999406 303.2701403619037 146.7939996188959 0.0 0.0
596.5793338716596 31.33906221148873 277.6629089083797 149.45942081357725 0.0 0.0
565.1015629925756 24.05444138097053 252.55924928401546 149.17865144281382 0.0 0.0
532.2218223483578 15.099955024122638 225.99624043478534 150.13685420332985 0.0 0.0
495.58508589696413 2.2734776539656885 197.14708717396718 152.81766670540333 0.0 0.0
455.79961608930915 -10.721983114535767 166.56045318541558 158.25053281714 0.0 0.0
407.012946697048 -17.297248566828294 134.94775714391747 169.21618644619295 0.0 0.0
336.50235484327584 -16.15243730822815 102.81298655195172 182.2516223601636 0.0 0.0
250.90862972030916 -7.855399759437902 74.33316445633835 195.22717138135081 0.0 0.0
170.18328596086707 -3.0112610025619557 50.151573944652135 200.2781355486418 0.0 0.0
112.87896131228719 -0.504937245828442 33.597868514810784 193.785625200028 0.0 0.0
74.1012277583334 4.764583590971524 23.562163412929973 178.51600946132706 0.0 0.0
42.52692906474723 13.876609343614144 16.92285945108761 165.37894242857774 0.0 0.0
13.4572826893381 19.73309925829466 9.957416857103453 163.05692993203755 0.0 0.0
-8.762456396152135 -0.4734550346368156 -2.770446731298084 170.4522512172504 0.0 0.0
40.17050305447216 -68.73334581280216 -7.236185199050656 179.3627035047617 0.0 0.0
-145.228869859694 -601.4326931775804 -233.78413343377906 103.31631994288297 0.0 0.0
-111.72036170542552 -484.0118245774729 -179.6794834595712 -109.09420736611561 0.0 0.0
3.3628139677545335 -81.0050998970144 -23.161271750789872 -165.6848636558318 0.0 0.0
-32.10501909409022 -2.279986176616771 -10.312238210667669 -174.37361485901354 0.0 0.0
-26.441503421661437 18.37087608878914 -2.4204015416097837 -169.27857759477297 0.0 0.0
-14.81779135751637 15.776937899922151 0.2884316031463787 -170.82741205960363 0.0 0.0
-6.324456370922338 8.076736577764109 0.5280453439282442 -182.43558461136402 0.0 0.0
-2.4024994278605334 1.8745358204736045 -0.16123541398076124 -198.5667580636559 0.0 0.0
-0.5408539808014581 0.21119537749346762 -0.09860313594690684 -204.83626849078902 0.0 0.0
-0.039593633932312855 -0.11626841606800031 -0.04762231269818962 -199.8551541457319 0.0 0.0
0.10939784066757596 0.028961942888559022 0.055867800194441486 -187.76009419686474 0.0 0.0
0.14443760840977404 -0.367093210254426 -0.17744411442916075 -184.18659662165163 0.0 0.0
-0.8436421036801391 0.594256259947521 0.027534144034660812 -181.69023745852633 0.0 0.0
-2.186433064904662 0.9050131951882072 -0.10003277886737294 -179.38762958361508 0.0 0.0
-1.8186307678339801 0.8428957049252475 0.30814206196156846 -172.7040379585127 0.0 0.0
1.6919976528010068 2.56698018252424 1.0316028666338184 -165.97482452737472 0.0 0.0
16.05315711552305 6.907642722621397 3.2739358264986578 -159.76801767330028 0.0 0.0
52.440802998649104 15.869527525864356 8.99394257963921 -154.2325525158625 0.0 0.0
134.03546492556953 19.35557031190399 13.346868852087582 -147.1556760445865 0.0 0.0
324.3007742469046 -40.86101417781815 31.58995299246935 -141.8224833801466 0.0 0.0
492.64871136185604 -16.27126424483434 172.101262899081 -165.56669277806685 0.0 0.0
-351.8422249971916 -648.2401968709663 -427.6137489361855 -1.5198509117908543e-11 0.0 0.0
492.64871136092415 -16.271264246167462 172.10126289836114 165.56669277795055 0.0 0.0
324.30077424720207 -40.861014176927256 31.589952992904387 141.82248338083667 0.0 0.0
134.03546492500072 19.355570310702944 13.34686885152962 147.15567604515707 0.0 0.0
52.44080299845137 15.86952752538835 8.993942579416867 154.2325525159772 0.0 0.0
16.053157114815576 6.907642721660672 3.2739358258640294 159.76801767339379 0.0 0.0
1.691997652993777 2.5669801826688285 1.0316028667610126 165.97482452745845 0.0 0.0
-1.818630766501201 0.8428957069089904 0.30814206304553693 172.7040379585731 0.0 0.0
-2.1864330645892522 0.9050131945285145 -0.10003277897312302 179.3876295837647 0.0 0.0
-0.8436421034108079 0.5942562594966816 0.027534143966509106 181.69023745844123 0.0 0.0
0.14443760850729603 -0.3670932107458995 -0.17744411456182974 184.1865966215616 0.0 0.0
0.10939784107762662 0.028961943330585882 0.05586780046107798 187.76009419680867 0.0 0.0
-0.03959363385697401 -0.11626841637558627 -0.047622312765779995 199.85515414584654 0.0 0.0
-0.540853980585208 0.211195377816203 -0.09860313578171098 204.83626849067278 0.0 0.0
-2.4024994278110636 1.8745358205261216 -0.16123541395025898 198.56675806350958 0.0 0.0
-6.324456370976963 8.0767365774537 0.5280453438187038 182.43558461109774 0.0 0.0
-14.81779135730093 15.776937900248967 0.28843160330964746 170.82741205947337 0.0 0.0
-26.441503421730268 18.370876088537123 -2.42040154170562 169.27857759461804 0.0 0.0
-32.10501909394705 -2.279986176300744 -10.31223821053037 174.37361485884682 0.0 0.0
3.3628139675785755 -81.00509989722583 -23.161271750905517 165.68486365565457 0.0 0.0
-111.7203617053579 -484.0118245768081 -179.6794834593617 109.0942073660622 0.0 0.0
-92.59196827171024 -379.8600105897008 -141.72704076341023 -104.58694138211058 0.0 0.0
-20.012695311792722 -86.9924254061895 -32.1021900052094 -155.18030449105675 0.0 0.0
-53.81355447509251 -3.9793177228166 -17.338839992618993 -174.38930648462429 0.0 0.0
-64.63044944100508 17.09963955862863 -14.256040266801163 -171.22761509823647 0.0 0.0
-71.12042104936945 16.970193073186785 -16.24166084881286 -171.54169898231783 0.0 0.0
-85.69696680014597 11.154410086736274 -22.321969035970834 -180.63501212339986 0.0 0.0
-117.65091801548525 4.404870763237803 -33.80457974223933 -195.45341182265506 0.0 0.0
-171.29684880216112 3.34459207950609 -50.39830582241521 -200.52013182916622 0.0 0.0
-250.85368444693415 7.579860702063424 -74.41822914902613 -195.2136474847571 0.0 0.0
-336.2640178101572 16.117782255269294 -102.75162099859551 -182.1952430607907 0.0 0.0
-407.8217960388178 17.706015021035206 -134.72875750904018 -169.36790084379413 0.0 0.0
-455.79606778774075 10.56454133443285 -166.87930773003336 -158.05189026183558 0.0 0.0
-496.4944513053006 -2.3752737432859377 -198.03884042808568 -152.26652355878971 0.0 0.0
-533.2255580463475 -13.505456582694464 -226.48912013340347 -149.57241448052233 0.0 0.0
-562.2191682599241 -18.22904250409642 -248.2166053970094 -148.8423310006478 0.0 0.0
-580.7655543099544 -17.25431390717422 -258.9946621532527 -151.31217658058515 0.0 0.0
-586.7154643213786 -11.22574662691855 -256.31040822644354 -156.74041049324967 0.0 0.0
-582.7311033830781 -3.2728784955012316 -237.26142955336113 -167.59127365382088 0.0 0.0
-567.2814888707828 37.04700117465653 -191.53718177060054 -177.86808397742422 0.0 0.0
-331.7408647560768 80.17388883612142 -61.5711949390722 -123.83996093588225 0.0 0.0
-877.7075585002017 -867.9435216929105 -865.8276040220618 -1.1974066183029208e-10 0.0 0.0
-331.7408647552893 80.17388883661809 -61.57119493858832 123.83996093637411 0.0 0.0
-567.2814888704515 37.04700117518882 -191.5371817703819 177.86808397772032 0.0 0.0
-582.7311033830371 -3.2728784959857506 -237.26142955335743 167.59127365399598 0.0 0.0
-586.7154643214021 -11.22574662711412 -256.31040822650186 156.74041049336756 0.0 0.0
-580.7655543093322 -17.254313906595605 -258.99466215274595 151.31217658050986 0.0 0.0
-562.21916825989 -18.229042504436784 -248.21660539696566 148.8423310007686 0.0 0.0
-533.2255580453378 -13.505456581472078 -226.489120132729 149.5724144804712 0.0 0.0
-496.4944513054512 -2.3752737437454705 -198.03884042814832 152.26652355891562 0.0 0.0
-455.7960677875527 10.564541334249085 -166.87930772988554 158.05189026194458 0.0 0.0
-407.82179603888363 17.70601502029191 -134.72875750913227 169.3679008438675 0.0 0.0
-336.2640178089965 16.117782255843387 -102.75162099808381 182.1952430606524 0.0 0.0
-250.8536844461997 7.579860702173863 -74.41822914876393 195.21364748483077 0.0 0.0
-171.29684880152047 3.3445920801067883 -50.39830582204132 200.52013182912341 0.0 0.0
-117.65091801517016 4.40487076339501 -33.80457974210016 195.45341182245812 0.0 0.0
-85.69696680001526 11.154410086498846 -22.321969036007353 180.6350121231292 0.0 0.0
-71.12042104910101 16.970193073485955 -16.241660848646767 171.5416989821173 0.0 0.0
-64.63044944108069 17.099639558371425 -14.256040266902609 171.2276150981302 0.0 0.0
-53.81355447498342 -3.979317722633954 -17.33883999253081 174.38930648450628 0.0 0.0
-20.012695311819257 -86.9924254062382 -32.10219000523236 155.18030449086442 0.0 0.0
-92.59196827159394 -379.860010589208 -141.72704076323242 104.58694138205053 0.0 0.0
-75.42211812920614 -291.0129297658436 -109.9305143685149 -95.25828096243336 0.0 0.0
-36.232713892164085 -86.46874356115339 -36.81060301125756 -144.27347796797184 0.0 0.0
-73.87566218055136 -5.356245117819524 -23.76836299644893 -170.52773243498353 0.0 0.0
-101.00791410123989 15.669869758313158 -25.608359461276475 -168.72133442441375 0.0 0.0
-126.01489529278066 17.498851317296147 -32.538265090069565 -167.64552184649133 0.0 0.0
-164.56342920843264 14.132114982550393 -44.84182069004461 -175.13075266127936 0.0 0.0
-230.1006997260321 6.2279255132730285 -66.94545331071075 -181.19732944204202 0.0 0.0
-326.60231556973054 2.080810324405446 -101.8510576445005 -180.0160606250783 0.0 0.0
-423.7402840133463 -8.87546750876923 -154.4959372506003 -164.91690670705756 0.0 0.0
-502.65306124004576 -15.155264064550508 -209.18394029119247 -155.09571603137692 0.0 0.0
-562.2320207943452 -20.663395064507647 -256.08168136944084 -147.45876388001565 0.0 0.0
-611.1243142018052 -27.24103100173857 -293.7422072059309 -142.84634075080567 0.0 0.0
-655.4711616703162 -37.805289651036496 -327.58781511451053 -138.84195831947537 0.0 0.0
-694.8454208572771 -47.54733505231759 -355.85771821316763 -135.6850026097318 0.0 0.0
-727.9149788761989 -53.59766286897582 -377.65067513381064 -133.88899177336714 0.0 0.0
-750.334247939925 -52.62387708300794 -389.5607652892216 -134.5096535010626 0.0 0.0
-759.9401585406739 -44.9199750970228 -390.757672568778 -138.59575752462047 0.0 0.0
-755.3332009665818 -32.92793929984906 -382.28985438083896 -146.35539723173264 0.0 0.0
-719.8772885015236 0.69738804883157 -349.39215362203674 -155.68778757919603 0.0 0.0
-661.5859703121132 45.37331700273204 -301.49636964282865 -160.1165268276938 0.0 0.0
-1597.1695343149163 -1142.1717793186574 -1323.5468086428766 1.4800605185882887e-11 0.0 0.0
-661.5859703109727 45.37331700377986 -301.496369642163 160.11652682780513 0.0 0.0
-719.8772885018186 0.6973880482701844 -349.39215362225536 155.68778757956613 0.0 0.0
-755.3332009668076 -32.927939300352776 -382.2898543810654 146.35539723210695 0.0 0.0
-759.9401585404023 -44.91997509687609 -390.75767256861894 138.59575752469658 0.0 0.0
-750.3342479394161 -52.62387708229076 -389.5607652888518 134.50965350099568 0.0 0.0
-727.9149788758806 -53.59766286891469 -377.6506751336083 133.8889917732588 0.0 0.0
-694.8454208573264 -47.54733505253712 -355.8577182131915 135.68500260983942 0.0 0.0
-655.4711616702151 -37.8052896512573 -327.58781511448046 138.84195831958687 0.0 0.0
-611.1243142016319 -27.24103100179422 -293.7422072057273 142.84634075080865 0.0 0.0
-562.2320207940204 -20.663395064518784 -256.08168136917345 147.45876387991305 0.0 0.0
-502.6530612395343 -15.155264064420116 -209.1839402908253 155.09571603141273 0.0 0.0
-423.74028401249086 -8.875467508245807 -154.49593725002836 164.9169067070953 0.0 0.0
-326.60231556936606 2.0808103242387808 -101.85105764436 180.01606062512488 0.0 0.0
-230.1006997255175 6.227925513371186 -66.9454533105456 181.19732944189067 0.0 0.0
-164.56342920812094 14.132114982616802 -44.841820689933996 175.13075266102828 0.0 0.0
-126.01489529252551 17.49885131741342 -32.53826508995732 167.6455218463542 0.0 0.0
-101.00791410111306 15.6698697583826 -25.60835946122213 168.72133442423836 0.0 0.0
-73.87566218055721 -5.356245117839741 -23.7683629964562 170.52773243491208 0.0 0.0
-36.23271389217218 -86.46874356119866 -36.81060301127326 144.2734779678061 0.0 0.0
-75.42211812902613 -291.01292976543743 -109.93051436833906 95.2582809623875 0.0 0.0
-60.834967868353665 -215.3923421250683 -82.8681929980266 -83.73626772372334 0.0 0.0
-48.469505745399736 -81.05632537275358 -38.85809891911027 -131.76642528846114 0.0 0.0
-92.51392046925747 -6.228603755260938 -29.622457090654343 -162.61536175608572 0.0 0.0
-135.73212586278197 14.13274401040703 -36.471066341028745 -162.24586607035127 0.0 0.0
-179.2839696422667 17.42421980492206 -48.466468702103484 -159.4150829148101 0.0 0.0
-239.22275505806073 13.98329040931278 -67.48371561210759 -159.30435142060708 0.0 0.0
-337.3254212002299 4.014796153815066 -102.22763703280076 -161.085087083782 0.0 0.0
-440.69475286454804 -13.808358281716359 -160.0062492449266 -148.7330630703044 0.0 0.0
-531.9571890518912 -25.836339704951513 -227.64494604996435 -142.20104943784492 0.0 0.0
-601.2306250635316 -29.793063307741036 -283.8137035555312 -138.08422627829952 0.0 0.0
-654.0847236385347 -37.65314348734798 -327.207690949429 -132.592624758884 0.0 0.0
-702.4428263639528 -48.63632282092602 -363.44356695507594 -128.72045182709098 0.0 0.0
-749.7332542664217 -62.64155587994419 -397.19256455962307 -124.85004892714691 0.0 0.0
-794.120769840688 -77.12807599566716 -428.0533848616429 -121.45473754560122 0.0 0.0
-833.1767267577425 -87.81242836897358 -453.7020573149365 -119.32550431122576 0.0 0.0
-860.450611576599 -90.116207742612 -468.94613366503523 -119.88674668664132 0.0 0.0
-872.2654693432464 -81.20370593909898 -470.59293148961694 -124.46509494464472 0.0 0.0
-858.7431678840026 -54.7163483320668 -451.02691381211423 -131.78072737836996 0.0 0.0
-816.7213093847353 -9.134468766395017 -408.5956721850677 -138.5219398328116 0.0 0.0
-713.4652153407069 81.74625698747795 -317.5659738983036 -143.90401372700086 0.0 0.0
-2037.449097206869 -1381.6903514141604 -1673.5686033679922 3.5992542279927875e-11 0.0 0.0
-713.4652153396207 81.74625698840399 -317.56597389764545 143.90401372719055 0.0 0.0
-816.7213093849817 -9.1344687668158 -408.59567218521863 138.52193983311437 0.0 0.0
-858.7431678840462 -54.716348332345916 -451.026913812035 131.7807273786031 0.0 0.0
-872.2654693425857 -81.20370593850394 -470.5929314891749 124.46509494466498 0.0 0.0
-860.4506115773376 -90.11620774354796 -468.94613366550146 119.88674668680126 0.0 0.0
-833.1767267568313 -87.81242836810328 -453.70205731428473 119.32550431112901 0.0 0.0
-794.1207698408301 -77.12807599602296 -428.05338486172786 121.45473754566686 0.0 0.0
-749.7332542655897 -62.64155587927433 -397.1925645590934 124.85004892709524 0.0 0.0
-702.4428263642969 -48.636322821487866 -363.4435669552554 128.72045182712745 0.0 0.0
-654.0847236378839 -37.65314348682814 -327.2076909489813 132.59262475870048 0.0 0.0
-601.2306250634556 -29.7930633081724 -283.81370355542634 138.0842262783608 0.0 0.0
-531.9571890515764 -25.836339705164004 -227.6449460496846 142.20104943795243 0.0 0.0
-440.69475286389223 -13.808358281404006 -160.0062492444592 148.7330630702911 0.0 0.0
-337.32542119986715 4.014796153627421 -102.22763703269733 161.0850870837926 0.0 0.0
-239.22275505752754 13.983290409350644 -67.48371561197443 159.30435142044885 0.0 0.0
-179.28396964184398 17.424219805231633 -48.4664687018907 159.4150829146082 0.0 0.0
-135.73212586255107 14.132744010589892 -36.47106634090372 162.2458660703045 0.0 0.0
-92.51392046919038 -6.228603755310676 -29.622457090648933 162.61536175592556 0.0 0.0
-48.46950574545171 -81.05632537279594 -38.858098919138534 131.7664252883771 0.0 0.0
-60.834967868345984 -215.39234212480093 -82.86819299794408 83.7362677236284 0.0 0.0
-49.5595557019261 -152.17651298309323 -60.52082060550579 -71.46844916285423 0.0 0.0
-58.14621761617163 -72.1605326262667 -39.092025072731495 -117.32927478036487 0.0 0.0
-110.07522629927703 -6.443589697731479 -34.956195814560836 -150.75705104315261 0.0 0.0
-168.76502552248866 12.21640049094944 -46.972919750548996 -151.23623208335263 0.0 0.0
-229.97512421675205 16.17651980129943 -64.00765934208039 -146.25473969416004 0.0 0.0
-316.9519353942029 13.522969905368516 -90.57093410446184 -142.66929602652482 0.0 0.0
-424.7285504886813 -7.239715480477759 -142.1465920772077 -131.31722166814177 0.0 0.0
-527.2497919752709 -26.716655875744316 -215.2759260310732 -124.58437803507348 0.0 0.0
-609.2484491996854 -34.36894065220562 -284.1599797022892 -122.73647598302836 0.0 0.0
-666.9034141748789 -44.17691756399931 -336.8288915967809 -118.44715758593976 0.0 0.0
-721.1163057804862 -53.74560590021622 -377.14445573924536 -116.13512745421404 0.0 0.0
-771.9665627261069 -68.17767500002671 -413.3913528820679 -113.03402693009309 0.0 0.0
-823.0608645908416 -86.61596668766039 -449.61905927294276 -109.54514763158306 0.0 0.0
-873.0559176818495 -106.12434610410926 -484.8942567242499 -106.26093829836046 0.0 0.0
-918.1544994174548 -122.43679389560636 -515.8847213990805 -103.9169060275087 0.0 0.0
-951.3044716683205 -128.0125335404079 -535.4912215697117 -104.24597894711084 0.0 0.0
-961.350500052452 -116.47363894946938 -535.0540861803145 -108.04340915744643 0.0 0.0
-938.5467899213891 -77.03938147288684 -504.45418046050577 -114.48402272800115 0.0 0.0
-873.9444580058981 -5.85007311381581 -438.03329023075776 -120.37296609588763 0.0 0.0
-742.028646196309 115.44578948471681 -315.88083217923423 -125.15965252430667 0.0 0.0
-2381.0686989663486 -1622.1447994569912 -1972.7991143118327 1.6373746802855749e-10 0.0 0.0
-742.0286461956089 115.44578948541377 -315.88083217876556 125.1596525245056 0.0 0.0
-873.9444580063094 -5.850073114373785 -438.0332902310498 120.3729660960346 0.0 0.0
-938.5467899206355 -77.03938147221774 -504.45418045995746 114.48402272816358 0.0 0.0
-961.3505000530088 -116.47363895021287 -535.0540861807501 108.04340915758702 0.0 0.0
-951.3044716686929 -128.01253354097298 -535.49122156996 104.24597894725075 0.0 0.0
-918.1544994170982 -122.43679389536143 -515.884721398807 103.91690602759128 0.0 0.0
-873.055917681731 -106.124346104149 -484.89425672414336 106.26093829833209 0.0 0.0
-823.0608645901268 -86.61596668709355 -449.6190592725135 109.5451476315549 0.0 0.0
-771.9665627265764 -68.17767500074407 -413.3913528823374 113.03402693012376 0.0 0.0
-721.1163057801248 -53.74560590006507 -377.14445573904464 116.13512745411273 0.0 0.0
-666.9034141743368 -44.17691756375084 -336.8288915963776 118.44715758591856 0.0 0.0
-609.2484491995408 -34.36894065256095 -284.15997970210145 122.73647598315046 0.0 0.0
-527.2497919751646 -26.71665587613325 -215.275926030905 124.5843780351396 0.0 0.0
-424.7285504881287 -7.239715480426318 -142.14659207688968 131.31722166812406 0.0 0.0
-316.95193539370865 13.522969905275012 -90.57093410435365 142.6692960264378 0.0 0.0
-229.97512421642625 16.17651980155483 -64.00765934190541 146.25473969401673 0.0 0.0
-168.7650255223667 12.216400490897188 -46.97291975052957 151.2362320832194 0.0 0.0
-110.07522629929983 -6.443589697981558 -34.95619581464247 150.7570510429989 0.0 0.0
-58.14621761613576 -72.16053262629231 -39.092025072728404 117.32927478026093 0.0 0.0
-49.55955570183362 -152.1765129828547 -60.52082060540647 71.46844916278359 0.0 0.0
-41.53124134695558 -100.8551653558414 -42.71592201083909 -58.85777612398571 0.0 0.0
-65.96001132592278 -61.09429302597252 -38.11629130556858 -101.04381386135246 0.0 0.0
-126.69846391371539 -5.923525452405517 -39.787242096123485 -135.0321114111047 0.0 0.0
-200.18182984816593 10.198882377216762 -56.993943604905475 -136.19903032316103 0.0 0.0
-278.4124851722355 12.970684415804 -79.58985174717515 -127.98606538811178 0.0 0.0
-387.9239869540395 7.144309513889015 -116.44524115410209 -118.81367953511797 0.0 0.0
-498.1238675781952 -18.609300157034873 -183.47341839811702 -105.58951512644072 0.0 0.0
-595.0680836540041 -33.71937267041798 -262.8038669022145 -103.33441607807718 0.0 0.0
-660.8573979364562 -45.34577745739398 -328.2484940504204 -101.080071646971 0.0 0.0
-721.3026903931838 -54.92781191087339 -376.52318197330396 -100.52680413030087 0.0 0.0
-776.0029054638964 -69.03621754556593 -416.4414552357193 -98.86725389829361 0.0 0.0
-830.6054356703753 -87.80237302555715 -455.0742751470808 -96.35758935225722 0.0 0.0
-886.1207493764695 -110.47922915986612 -494.8564871398161 -93.38795847214506 0.0 0.0
-940.8446763000125 -134.05454444466224 -534.1752319277308 -90.47948813763733 0.0 0.0
-992.1525732719253 -155.92503555103252 -570.8082305124211 -88.15250651674828 0.0 0.0
-1030.4873872119824 -166.62944249158545 -595.5374482057997 -87.54815405361617 0.0 0.0
-1039.7434065671637 -150.53495400612408 -592.4853268091044 -90.35196230227265 0.0 0.0
-1003.5800963393178 -96.48157058060909 -548.0150912232264 -95.84238364555338 0.0 0.0
-914.1879625057738 0.15814185799223424 -456.323066464896 -101.39520483305313 0.0 0.0
-760.2565952792381 143.89424204576497 -310.44151591459945 -108.62892201158826 0.0 0.0
-2681.8390627058716 -1855.4207554205761 -2244.9548969528873 1.134417004777788e-10 0.0 0.0
-760.2565952792035 143.89424204564028 -310.4415159145294 108.62892201185178 0.0 0.0
-914.1879625061862 0.15814185745885823 -456.3230664652381 101.39520483326486 0.0 0.0
-1003.5800963390521 -96.48157058043309 -548.0150912230011 95.84238364565695 0.0 0.0
-1039.7434065674006 -150.5349540065384 -592.4853268092503 90.35196230243699 0.0 0.0
-1030.487387211742 -166.62944249141825 -595.5374482056641 87.54815405359871 0.0 0.0
-992.1525732719438 -155.92503555126743 -570.8082305123961 88.15250651686202 0.0 0.0
-940.8446763000607 -134.05454444485017 -534.1752319276997 90.47948813764037 0.0 0.0
-886.1207493761491 -110.47922915973716 -494.8564871396612 93.38795847216498 0.0 0.0
-830.6054356699653 -87.8023730253531 -455.0742751468227 96.35758935221831 0.0 0.0
-776.0029054641261 -69.03621754604913 -416.44145523590487 98.8672538983039 0.0 0.0
-721.3026903924015 -54.92781191039474 -376.5231819727807 100.5268041303098 0.0 0.0
-660.8573979363164 -45.345777457577476 -328.2484940502202 101.08007164702131 0.0 0.0
-595.068083653819 -33.719372670740285 -262.803866901944 103.3344160781536 0.0 0.0
-498.12386757769525 -18.60930015688038 -183.4734183977184 105.58951512640061 0.0 0.0
-387.92398695358554 7.144309513976411 -116.44524115390661 118.81367953504727 0.0 0.0
-278.4124851720211 12.970684415429645 -79.5898517472474 127.98606538790092 0.0 0.0
-200.18182984799316 10.198882377100032 -56.99394360489068 136.19903032293612 0.0 0.0
-126.69846391365404 -5.923525452525574 -39.787242096140716 135.03211141104202 0.0 0.0
-65.96001132596186 -61.09429302604219 -38.11629130560121 101.04381386124734 0.0 0.0
-41.531241346931594 -100.85516535570304 -42.71592201079038 58.857776123959624 0.0 0.0
-36.375180107977215 -61.16864390355183 -29.26314720345871 -46.082569602432145 0.0 0.0
-72.09402761015788 -48.945302784915654 -36.31179911852205 -83.07842486852995 0.0 0.0
-142.3571537239289 -4.7861515728364505 -44.14344120871161 -115.53987508065612 0.0 0.0
-230.02632677754212 7.880329723110028 -66.65065826484397 -116.84754507969942 0.0 0.0
-329.9625205164155 9.500828005419521 -95.553261622716 -107.2501290815987 0.0 0.0
-444.9202783951374 -6.670694466072359 -145.75085307872303 -89.21559323750529 0.0 0.0
-559.9618977600488 -26.12601278158455 -222.711552968075 -82.52612281901008 0.0 0.0
-639.4696548331282 -41.76318715147042 -302.07072757655607 -81.60167602464291 0.0 0.0
-706.2974092307027 -52.29282426577132 -362.3117892007987 -81.90566183211888 0.0 0.0
-765.9954514961271 -66.23450669923804 -408.87341574357754 -81.81920134131967 0.0 0.0
-823.9551161076683 -84.42879001134172 -450.33809313737737 -80.86154396101944 0.0 0.0
-882.6727723066602 -107.34938934185921 -492.2495426312651 -78.95824084529309 0.0 0.0
-942.4519940309058 -133.79928959431317 -535.6969672312314 -76.56023659675965 0.0 0.0
-1001.055596835906 -161.96398570503368 -579.1058920077194 -74.13991708153279 0.0 0.0
-1056.6790258430176 -187.22123617769404 -619.4870761936161 -71.99921262903764 0.0 0.0
-1100.7918602135878 -202.28663135669453 -649.1744140806042 -70.60427091132141 0.0 0.0
-1111.9192475806344 -187.65499158803647 -647.8540038366554 -71.52431331695131 0.0 0.0
-1063.4864826827584 -119.44077076597549 -590.2836305684135 -76.00261722528734 0.0 0.0
-948.4872452000653 4.1572707764923535 -472.07276210766884 -82.86852719272922 0.0 0.0
-768.2712799199514 173.4103904460883 -299.0933564636864 -94.3645048763853 0.0 0.0
-2950.311555069693 -2074.425603599345 -2492.7991492825217 5.276490355754504e-11 0.0 0.0
-768.271279920194 173.41039044572148 -299.09335646391 94.36450487662478 0.0 0.0
-948.4872451998729 4.157270776637702 -472.0727621076072 82.86852719280995 0.0 0.0
-1063.4864826822688 -119.44077076554997 -590.2836305680706 76.00261722530838 0.0 0.0
-1111.919247580042 -187.6549915875776 -647.8540038362158 71.52431331706217 0.0 0.0
-1100.791860212607 -202.28663135581607 -649.174414079845 70.60427091135853 0.0 0.0
-1056.6790258431724 -187.22123617801338 -619.4870761936598 71.99921262911619 0.0 0.0
-1001.0555968355457 -161.9639857048762 -579.1058920073648 74.1399170816197 0.0 0.0
-942.4519940301257 -133.7992895937148 -535.6969672307475 76.56023659683365 0.0 0.0
-882.6727723063294 -107.34938934170435 -492.2495426310084 78.95824084523233 0.0 0.0
-823.9551161074164 -84.428790011334 -450.33809313720764 80.86154396094418 0.0 0.0
-765.9954514956024 -66.23450669896862 -408.873415743223 81.81920134130982 0.0 0.0
-706.2974092308563 -52.29282426622367 -362.31178920078366 81.90566183208492 0.0 0.0
-639.469654832665 -41.763187151288875 -302.07072757610064 81.60167602456183 0.0 0.0
-559.9618977597976 -26.12601278173101 -222.71155296777317 82.52612281893109 0.0 0.0
-444.9202783945978 -6.6706944659244325 -145.75085307843077 89.21559323746426 0.0 0.0
-329.9625205161259 9.500828005159104 -95.55326162272286 107.2501290815256 0.0 0.0
-230.02632677734942 7.8803297230652145 -66.65065826480118 116.84754507954588 0.0 0.0
-142.35715372382938 -4.786151572903089 -44.14344120870172 115.5398750806391 0.0 0.0
-72.09402761013277 -48.94530278482328 -36.3117991184868 83.07842486849356 0.0 0.0
-36.37518010811099 -61.16864390355972 -29.2631472035012 46.08256960241276 0.0 0.0
-33.428310532266394 -32.96887845662067 -19.91915669666612 -33.44107577322408 0.0 0.0
-76.28194107672891 -36.6616415944281 -33.88307480134711 -63.641841110649274 0.0 0.0
-156.78386444019878 -3.2993916555739524 -48.02497682873183 -92.20437337978842 0.0 0.0
-259.08329120891085 5.0605264396204825 -76.20056383709793 -93.23745234704036 0.0 0.0
-379.4776799822047 2.822451298799839 -113.0363083578585 -81.0350907666194 0.0 0.0
-503.2806291825297 -15.755129251615866 -175.56485325090367 -64.42482922523241 0.0 0.0
-602.7349220340521 -33.80838176381907 -258.7750702376033 -61.11755397209181 0.0 0.0
-676.7529896284241 -45.94370717410495 -332.69146741983354 -61.402901426421685 0.0 0.0
-743.2107729270089 -60.29403751120736 -390.3498719363688 -62.22379991786056 0.0 0.0
-805.177906143863 -77.6588151266551 -436.73028898134794 -62.64321245951523 0.0 0.0
-866.5181614329794 -99.91723679437322 -480.67040375291845 -62.15944070122277 0.0 0.0
-929.6055927306545 -126.99693248245296 -526.3676349446329 -60.79942657529046 0.0 0.0
-993.4286211091783 -158.07031493910375 -573.9783617180766 -58.930677165479324 0.0 0.0
-1055.6276123956777 -187.95678487100673 -619.9831963140748 -57.21160558871527 0.0 0.0
-1112.962988431326 -215.26875588862669 -662.2099116026668 -55.49330462599519 0.0 0.0
-1160.9512739750353 -234.5224511050494 -695.8273924045423 -53.515928826006416 0.0 0.0
-1180.414258878996 -226.84969826940124 -702.0767145815755 -52.35322741406233 0.0 0.0
-1128.2291726526046 -153.34168529852136 -640.0820768960418 -55.25423573081476 0.0 0.0
-984.9894357599638 -0.2840638270593274 -492.90943129646587 -64.31987080037199 0.0 0.0
-764.2069877964286 210.02191974610847 -278.1903675960223 -81.10976238004586 0.0 0.0
-3186.5549923317562 -2269.4596637109917 -2711.88123970574 9.613643214834156e-11 0.0 0.0
-764.2069877974338 210.02191974499448 -278.1903675967661 81.10976238029434 0.0 0.0
-984.9894357594892 -0.2840638266075217 -492.90943129612424 64.31987080046525 0.0 0.0
-1128.229172652855 -153.34168529882047 -640.0820768961963 55.25423573073377 0.0 0.0
-1180.414258878784 -226.84969826928472 -702.0767145814968 52.35322741404052 0.0 0.0
-1160.9512739735555 -234.52245110364723 -695.8273924034559 53.51592882595462 0.0 0.0
-1112.9629884323713 -215.2687558898475 -662.2099116034215 55.49330462603412 0.0 0.0
-1055.6276123951395 -187.95678487065123 -619.9831963136431 57.21160558880698 0.0 0.0
-993.4286211090596 -158.0703149391649 -573.9783617180235 58.93067716554331 0.0 0.0
-929.6055927298847 -126.99693248190854 -526.3676349440627 60.79942657528807 0.0 0.0
-866.5181614321265 -99.91723679373294 -480.67040375237195 62.159440701193645 0.0 0.0
-805.1779061432943 -77.65881512633518 -436.73028898096203 62.64321245945315 0.0 0.0
-743.2107729264106 -60.29403751088663 -390.34987193590683 62.223799917858486 0.0 0.0
-676.752989628039 -45.943707174032056 -332.6914674194552 61.40290142641419 0.0 0.0
-602.7349220337878 -33.80838176393781 -258.7750702372632 61.11755397205491 0.0 0.0
-503.28062918179137 -15.75512925118097 -175.56485325041737 64.42482922517245 0.0 0.0
-379.47767998176687 2.822451298852359 -113.03630835771408 81.03509076659391 0.0 0.0
-259.08329120874913 5.060526439548556 -76.20056383707094 93.23745234697415 0.0 0.0
-156.78386444008822 -3.2993916557131504 -48.02497682874041 92.204373379682 0.0 0.0
-76.28194107661722 -36.66164159428224 -33.88307480126982 63.64184111059579 0.0 0.0
-33.42831053222864 -32.96887845660752 -19.919156696650848 33.44107577326928 0.0 0.0
-31.542800716990314 -15.966436865271335 -14.252771274678492 -21.65723910353144 0.0 0.0
-77.73526033199664 -25.240728643303985 -30.892796692590174 -43.01010083321375 0.0 0.0
-169.549665223509 -2.0124834188638037 -51.46864459271185 -64.590749934062 0.0 0.0
-288.13644327142106 1.7534320293096006 -85.88487233486056 -64.9636149884381 0.0 0.0
-424.70786523004944 -7.939041314533987 -133.20245964688073 -51.71983533935828 0.0 0.0
-550.523581275079 -24.088770916096667 -205.88255182459943 -41.29528019000461 0.0 0.0
-632.9269234158002 -38.71613117247742 -288.4227269831708 -40.32491557477397 0.0 0.0
-708.1530706103679 -51.47892938881946 -358.82327472952545 -41.526587377229895 0.0 0.0
-775.0848373791133 -68.8190558254231 -414.20186604594335 -42.393458288314264 0.0 0.0
-839.6541374621974 -89.37754999542918 -461.38988704117213 -42.90611976162842 0.0 0.0
-905.1090946348764 -115.45694477076889 -508.5389003844833 -42.7599590458202 0.0 0.0
-972.150555575713 -146.80639363708795 -558.1040376416963 -41.88137073665324 0.0 0.0
-1040.3817255209506 -180.70680128933753 -609.2291963743485 -40.726059693690075 0.0 0.0
-1105.4410621433306 -214.42273943005517 -658.5670058132664 -39.5619564669859 0.0 0.0
-1163.7190921200731 -241.9527539198531 -701.391777570048 -38.38784262218407 0.0 0.0
-1209.5227772532287 -258.63030452084024 -732.5747285971066 -36.62394572216981 0.0 0.0
-1236.6122262877482 -258.83342981533207 -746.3438668080692 -34.10801678784945 0.0 0.0
-1212.1444577371064 -212.01048805393782 -711.4361537418405 -34.07569924046602 0.0 0.0
-1043.574029609528 -31.260372906075446 -537.9219539499144 -43.948716601819825 0.0 0.0
-738.7368593185403 264.97255090266026 -237.63982546489893 -67.66170228537037 0.0 0.0
-3375.879155022714 -2422.3553202102266 -2885.965582127599 1.3917755836700962e-10 0.0 0.0
-738.7368593195231 264.97255090160013 -237.63982546558762 67.66170228554702 0.0 0.0
-1043.5740296093209 -31.26037290592427 -537.9219539497218 43.948716601959944 0.0 0.0
-1212.1444577377497 -212.0104880546606 -711.4361537422121 34.07569924046588 0.0 0.0
-1236.6122262872445 -258.83342981493337 -746.3438668077736 34.10801678791235 0.0 0.0
-1209.5227772520059 -258.6303045197179 -732.574728596207 36.62394572223977 0.0 0.0
-1163.719092120865 -241.95275392080958 -701.3917775706072 38.3878426222559 0.0 0.0
-1105.4410621429176 -214.42273942981333 -658.567005812896 39.56195646704952 0.0 0.0
-1040.3817255212384 -180.70680128983201 -609.2291963745714 40.72605969373904 0.0 0.0
-972.1505555744187 -146.8063936360011 -558.1040376407915 41.8813707366659 0.0 0.0
-905.1090946346109 -115.45694477072935 -508.53890038430666 42.75995904582496 0.0 0.0
-839.6541374615874 -89.37754999505887 -461.38988704073006 42.90611976154416 0.0 0.0
-775.084837378045 -68.81905582457519 -414.2018660451901 42.39345828827136 0.0 0.0
-708.1530706097715 -51.478929388517116 -358.82327472901846 41.52658737725196 0.0 0.0
-632.9269234152991 -38.716131172313005 -288.4227269826967 40.324915574725914 0.0 0.0
-550.5235812743558 -24.088770915656344 -205.88255182406297 41.29528019000879 0.0 0.0
-424.7078652296375 -7.939041314688872 -133.2024596467812 51.71983533927067 0.0 0.0
-288.1364432712396 1.75343202932519 -85.88487233479879 64.96361498843888 0.0 0.0
-169.5496652232986 -2.012483418733292 -51.468644592609564 64.59074993393816 0.0 0.0
-77.73526033193859 -25.24072864328855 -30.89279669256814 43.010100833138246 0.0 0.0
-31.542800717002173 -15.96643686526528 -14.252771274680232 21.657239103521864 0.0 0.0
-28.54746068667643 -9.230343524003557 -11.333341263203994 -12.344936882371139 0.0 0.0
-75.01638517124935 -16.175736556740155 -27.357636518396852 -21.534539323566882 0.0 0.0
-179.9415926703065 -1.7107200145850108 -54.49569380546747 -31.580711287022933 0.0 0.0
-318.4568672880471 -1.5535872818104037 -95.97859803228027 -31.43915983303679 0.0 0.0
-473.07004060846896 -15.754771481669904 -154.6046480008825 -23.156155241122278 0.0 0.0
-584.2539556891401 -30.89648074902264 -234.49824586294278 -20.407649820200696 0.0 0.0
-660.8130235549992 -40.39994630882654 -312.5155756446408 -21.34978093038263 0.0 0.0
-734.6275636768696 -57.7648105160968 -380.8905888531448 -22.05267858300097 0.0 0.0
-802.9390601561987 -77.36446328484057 -434.75903448331945 -22.38809764001943 0.0 0.0
-870.4821777915766 -101.58048996098132 -483.8974991599671 -22.637809035143604 0.0 0.0
-939.8027857337132 -131.34907155289858 -534.3681072937106 -22.59596728850692 0.0 0.0
-1011.1945007281213 -165.72519371354718 -587.4883131483655 -22.302807680550185 0.0 0.0
-1082.782365377952 -203.8466519239015 -642.3507268786719 -21.76213882202155 0.0 0.0
-1151.560166049654 -239.87092149818247 -694.6875611023552 -21.216118921990414 0.0 0.0
-1210.0336381989448 -267.24494565450186 -737.5526587495783 -20.630032370414412 0.0 0.0
-1251.6115930778446 -279.7270475501063 -764.5550355117227 -19.531041481087282 0.0 0.0
-1273.3263797229015 -275.18722713145655 -773.1498562104639 -17.38534894330796 0.0 0.0
-1279.6735174182643 -259.3826201695383 -768.6155045061886 -15.063414319494068 0.0 0.0
-1203.3024014348177 -168.14382111632185 -685.8207610120417 -20.41348843560623 0.0 0.0
-725.80883769653 306.26201214690536 -210.4685036701135 -48.71819798769026 0.0 0.0
-3378.477477571299 -2389.628802500336 -2874.2145931139867 7.142908486912347e-11 0.0 0.0
-725.8088376968686 306.26201214652286 -210.4685036703243 48.71819798781385 0.0 0.0
-1203.3024014348891 -168.1438211164381 -685.8207610120668 20.41348843566302 0.0 0.0
-1279.673517418739 -259.3826201701071 -768.6155045065422 15.0634143194996 0.0 0.0
-1273.3263797219033 -275.18722713053256 -773.1498562097522 17.38534894331154 0.0 0.0
-1251.6115930774547 -279.72704754985114 -764.5550355114057 19.531041481160454 0.0 0.0
-1210.0336381992443 -267.2449456549318 -737.5526587496978 20.630032370386687 0.0 0.0
-1151.5601660489208 -239.87092149761213 -694.6875611017811 21.21611892200188 0.0 0.0
-1082.7823653781588 -203.84665192431473 -642.3507268788403 21.76213882206576 0.0 0.0
-1011.1945007276381 -165.72519371325637 -587.488313148013 22.302807680524033 0.0 0.0
-939.8027857333041 -131.34907155272631 -534.3681072934211 22.59596728842623 0.0 0.0
-870.4821777904715 -101.5804899601223 -483.8974991591926 22.637809035118654 0.0 0.0
-802.9390601555483 -77.36446328444086 -434.75903448284345 22.38809763999042 0.0 0.0
-734.6275636763596 -57.76481051586892 -380.8905888527328 22.052678583021255 0.0 0.0
-660.8130235544645 -40.399946308568 -312.5155756441613 21.349780930347677 0.0 0.0
-584.2539556886335 -30.896480748845043 -234.4982458625036 20.407649820187565 0.0 0.0
-473.070040608252 -15.75477148197451 -154.60464800083355 23.15615524108179 0.0 0.0
-318.4568672877131 -1.553587281750826 -95.97859803217823 31.439159833018422 0.0 0.0
-179.94159267012714 -1.7107200145191306 -54.49569380539386 31.580711286938968 0.0 0.0
-75.0163851712331 -16.175736556770037 -27.357636518400934 21.53453932348135 0.0 0.0
-28.547460686673723 -9.230343523986829 -11.333341263198164 12.344936882365836 0.0 0.0
-17.659030840868688 -4.498878563892046 -6.647372821428221 -7.7607780119002525 0.0 0.0
-64.35224187386234 -9.027012763769697 -22.0137763912896 -8.938229894812325 0.0 0.0
-186.70222094974565 -2.8800664526575126 -56.87468622072093 -10.771198082733076 0.0 0.0
-356.57022983711965 -12.708532402158774 -110.77637951517593 -9.64011957641657 0.0 0.0
-533.1862039243741 -47.28516405092236 -189.62104157890468 -2.60431451888984 0.0 0.0
-654.9950982222241 -83.76259866390353 -290.9989449366419 0.2216516711282246 0.0 0.0
-750.9259254078996 -115.9480415332822 -389.45875498295436 0.5062259786006287 0.0 0.0
-852.3058446934599 -162.66703726052378 -484.4477377891293 -0.41906594660709473 0.0 0.0
-957.0127216282389 -219.64924379414902 -574.2301343142306 -1.6136658521809792 0.0 0.0
-1074.071755855751 -293.1806253294786 -672.3382582176282 -2.9034062421103144 0.0 0.0
-1208.2575509176745 -387.1843315281428 -787.0434097131513 -4.182049667212063 0.0 0.0
-1359.8179004488377 -502.31838755974746 -920.2244929523815 -5.326394751345596 0.0 0.0
-1524.711194786867 -632.4925008588607 -1067.2823902709756 -6.094521907594295 0.0 0.0
-1696.133147878298 -770.8045160071276 -1221.6621689794947 -6.810781670943063 0.0 0.0
-1861.1127729997684 -904.3389450477379 -1370.4929573420172 -7.318220181172748 0.0 0.0
-2001.1402699134528 -1015.1308085089106 -1495.627450354824 -7.390465200400978 0.0 0.0
-2093.155965919552 -1081.3013548860704 -1574.741327188503 -6.630971884931036 0.0 0.0
-2113.844292584408 -1080.7687286209318 -1585.0453289600816 -4.565149539418407 0.0 0.0
-2108.6583148165105 -1059.9921616084755 -1571.4502478177142 -7.1749068097030655 0.0 0.0
-2069.782586144161 -1018.4477671148614 -1527.8598097433683 -36.82980571053716 0.0 0.0
-5202.518532655419 -4185.5921717323645 -4666.927232463262 1.5518253349000588e-11 0.0 0.0
-2069.7825861438732 -1018.4477671146072 -1527.859809742972 36.829805710605555 0.0 0.0
-2108.658314816173 -1059.9921616081974 -1571.4502478173542 7.17490680973599 0.0 0.0
-2113.844292584371 -1080.7687286209812 -1585.045328959929 4.565149539392095 0.0 0.0
-2093.1559659176805 -1081.3013548842762 -1574.7413271869796 6.630971884884133 0.0 0.0
-2001.1402699131356 -1015.1308085087318 -1495.6274503545721 7.390465200492351 0.0 0.0
-1861.1127729995321 -904.3389450476399 -1370.492957341645 7.318220181116999 0.0 0.0
-1696.1331478771008 -770.804516006092 -1221.6621689785716 6.810781671003028 0.0 0.0
-1524.7111947868298 -632.4925008590272 -1067.282390270811 6.0945219076884705 0.0 0.0
-1359.8179004486178 -502.3183875597584 -920.2244929520743 5.326394751318219 0.0 0.0
-1208.2575509163348 -387.1843315270306 -787.0434097121421 4.182049667211896 0.0 0.0
-1074.0717558537654 -293.1806253277275 -672.3382582161873 2.90340624212741 0.0 0.0
-957.0127216273696 -219.64924379352775 -574.2301343135599 1.613665852107534 0.0 0.0
-852.3058446928368 -162.66703726019733 -484.4477377886186 0.4190659465729958 0.0 0.0
-750.9259254075359 -115.94804153321283 -389.4587549825329 -0.5062259786282297 0.0 0.0
-654.9950982214569 -83.76259866341513 -290.9989449359829 -0.22165167114997075 0.0 0.0
-533.1862039238646 -47.285164050786825 -189.62104157858724 2.6043145188897157 0.0 0.0
-356.5702298368003 -12.708532402182495 -110.77637951509175 9.640119576410857 0.0 0.0
-186.7022209496207 -2.8800664528048294 -56.87468622072765 10.77119808259476 0.0 0.0
-64.35224187375903 -9.027012763748404 -22.01377639125223 8.938229894683897 0.0 0.0
-17.659030840830077 -4.498878563865487 -6.64737282140867 7.760778011947446 0.0 0.0
SCALARS Strain float 6
LOOKUP_TABLE default
0.012006766739174779 -0.020613022316985988 0.0 -0.0008324592881573118 0.0 0.0
0.007380159513462117 -0.0017296046496481725 0.0 -0.006335860013308848 0.0 0.0
0.002298703529466745 -0.0006141316662679595 0.0 -0.0006439308072132093 0.0 0.0
0.0020480110436184654 -0.0008208133005470557 0.0 -3.329055017360527e-05 0.0 0.0
0.0027667277466459465 -0.0011319430964993272 0.0 8.70233976563563e-05 0.0 0.0
0.00428945276787107 -0.0022257098202307026 0.0 0.00018366633748412352 0.0 0.0
0.006853289767087442 -0.004332873310747929 0.0 0.000243397923556582 0.0 0.0
0.010591353229702444 -0.00759358588679609 0.0 0.0002664531586305778 0.0 0.0
0.015630383411895998 -0.012130449798872282 0.0 0.00026118778058378605 0.0 0.0
0.022031406516256805 -0.017951801475867352 0.0 0.0002151832296350751 0.0 0.0
0.02982519391602518 -0.025055997323247606 0.0 0.00016987650828166482 0.0 0.0
0.03905716881248728 -0.033485368603035824 0.0 0.0001205699803160234 0.0 0.0
0.04977448756094972 -0.04331662642415877 0.0 7.016948776720046e-06 0.0 0.0
0.062013586459974165 -0.05461784677609312 0.0 -0.00012260704253590985 0.0 0.0
0.0757225227446684 -0.06738531409754499 0.0 -0.0003224877109174304 0.0 0.0
0.09060091876539089 -0.08136983384079535 0.0 -0.0006066646188121884 0.0 0.0
0.10598158839077315 -0.09595059000270958 0.0 -0.0009289459413993192 0.0 0.0
0.12080439962331913 -0.11011488511753023 0.0 -0.0011630248618891398 0.0 0.0
0.13372718519065369 -0.12254453320487185 0.0 -0.001138235302259328 0.0 0.0
0.14320126922340418 -0.13174921805731846 0.0 -0.0011433927729739414 0.0 0.0
0.14686852065546194 -0.1354529987899111 0.0 2.067790383364354e-15 0.0 0.0
0.14320126922338808 -0.13174921805730197 0.0 0.0011433927729812424 0.0 0.0
0.13372718519061896 -0.1225445332048441 0.0 0.001138235302263495 0.0 0.0
0.12080439962326811 -0.11011488511747708 0.0 0.0011630248618912159 0.0 0.0
0.10598158839071387 -0.09595059000266054 0.0 0.0009289459413987346 0.0 0.0
0.09060091876533016 -0.0813698338407271 0.0 0.0006066646188120067 0.0 0.0
0.07572252274460729 -0.06738531409748645 0.0 0.0003224877109163659 0.0 0.0
0.062013586459911854 -0.054617846776037246 0.0 0.00012260704253582192 0.0 0.0
0.04977448756088817 -0.043316626424101494 0.0 -7.0169487799694e-06 0.0 0.0
0.039057168812430224 -0.03348536860298337 0.0 -0.00012056998031697696 0.0 0.0
0.029825193915975913 -0.02505599732320405 0.0 -0.00016987650828352943 0.0 0.0
0.0220314065162161 -0.017951801475827832 0.0 -0.00021518322963736368 0.0 0.0
0.01563038341186472 -0.012130449798851424 0.0 -0.00026118778058334993 0.0 0.0
0.010591353229679922 -0.00759358588677247 0.0 -0.00026645315863053996 0.0 0.0
0.0068532897670721665 -0.004332873310738324 0.0 -0.00024339792355639202 0.0 0.0
0.004289452767862859 -0.002225709820226009 0.0 -0.00018366633748304398 0.0 0.0
0.0027667277466428847 -0.0011319430964983196 0.0 -8.702339765540834e-05 0.0 0.0
0.0020480110436174918 -0.0008208133005472994 0.0 3.329055017561205e-05 0.0 0.0
0.0022987035294650725 -0.0006141316662671783 0.0 0.0006439308072115623 0.0 0.0
0.007380159513456672 -0.0017296046496450982 0.0 0.006335860013302098 0.0 0.0
0.012006766739166681 -0.020613022316962274 0.0 0.0008324592881185628 0.0 0.0
0.00819045338030317 -0.018388318412294425 0.0 -0.00036942653253271493 0.0 0.0
0.004838837144756082 -0.0012763162842006075 0.0 -0.005014542799096195 0.0 0.0
0.0015695803310436674 -0.0004911293197252597 0.0 -0.0004238357048268626 0.0 0.0
0.0018279507973265412 -0.0007777849697197509 0.0 -0.0002087196694733926 0.0 0.0
0.002416753140689453 -0.0010348255940351683 0.0 -0.00016310846861917366 0.0 0.0
0.0037107277529531257 -0.0019972933999842183 0.0 -0.00019674895336990216 0.0 0.0
0.00599331696680545 -0.003955531706708994 0.0 -0.0003934920636436656 0.0 0.0
0.009384812903292454 -0.007036448968094248 0.0 -0.0006713950628804456 0.0 0.0
0.01397840357197631 -0.011349144623763636 0.0 -0.0010428950873073012 0.0 0.0
0.0197965455572701 -0.01688436052817288 0.0 -0.0014883113451995185 0.0 0.0
0.02683736949820638 -0.023623730189707946 0.0 -0.0019577502890677353 0.0 0.0
0.0351298793066241 -0.031596330564186995 0.0 -0.0024279741891354905 0.0 0.0
0.044751607886413906 -0.04088688174548141 0.0 -0.002948298582835481 0.0 0.0
0.05576984547974399 -0.051585726921228536 0.0 -0.003538581702216189 0.0 0.0
0.06815133760308457 -0.06369398407824174 0.0 -0.004191510089380409 0.0 0.0
0.0816391404220023 -0.07698384294055897 0.0 -0.004868859132097591 0.0 0.0
0.09563650439477939 -0.09087648597304307 0.0 -0.005404634559356847 0.0 0.0
0.1091931494018359 -0.1044174840402988 0.0 -0.005503572389082805 0.0 0.0
0.12104616270492273 -0.11633982065173656 0.0 -0.00490647078800791 0.0 0.0
0.1295352733833417 -0.12508224016381272 0.0 -0.0038222046014943483 0.0 0.0
0.13269979872214144 -0.12864100236566103 0.0 4.57446580615084e-15 0.0 0.0
0.12953527338332607 -0.12508224016379774 0.0 0.003822204601509995 0.0 0.0
0.12104616270489192 -0.1163398206517092 0.0 0.004906470788021456 0.0 0.0
0.10919314940179187 -0.10441748404024667 0.0 0.005503572389090888 0.0 0.0
0.09563650439472807 -0.09087648597299891 0.0 0.005404634559358265 0.0 0.0
0.08163914042194786 -0.07698384294050291 0.0 0.004868859132094807 0.0 0.0
0.06815133760302923 -0.06369398407818501 0.0 0.004191510089378762 0.0 0.0
0.05576984547968833 -0.051585726921173324 0.0 0.0035385817022159376 0.0 0.0
0.04475160788635886 -0.040886881745428226 0.0 0.0029482985828319192 0.0 0.0
0.035129879306572916 -0.031596330564136466 0.0 0.0024279741891318762 0.0 0.0
0.026837369498161668 -0.023623730189665224 0.0 0.0019577502890616664 0.0 0.0
0.019796545557233116 -0.016884360528135328 0.0 0.0014883113451949945 0.0 0.0
0.013978403571947918 -0.011349144623743167 0.0 0.001042895087304495 0.0 0.0
0.009384812903272009 -0.00703644896807077 0.0 0.0006713950628776289 0.0 0.0
0.005993316966791966 -0.00395553170669901 0.0 0.0003934920636425628 0.0 0.0
0.0037107277529459673 -0.0019972933999789708 0.0 0.00019674895336971497 0.0 0.0
0.002416753140686998 -0.0010348255940334694 0.0 0.00016310846861943994 0.0 0.0
0.001827950797326065 -0.0007777849697195477 0.0 0.00020871966947389646 0.0 0.0
0.0015695803310434118 -0.0004911293197251596 0.0 0.0004238357048244138 0.0 0.0
0.004838837144749846 -0.0012763162841977294 0.0 0.005014542799087088 0.0 0.0
0.008190453380290874 -0.018388318412270278 0.0 0.00036942653250278564 0.0 0.0
0.005913778793472994 -0.01453746803157499 0.0 -0.0030145324572878286 0.0 0.0
0.0033885942372897486 -0.0006883771529413239 0.0 -0.004900185989926673 0.0 0.0
0.0011074174892721578 -0.00028802531123944624 0.0 -0.0004075632838383165 0.0 0.0
0.0015626365547686263 -0.0006712157063282829 0.0 -0.00047741091034749254 0.0 0.0
0.002099379453844913 -0.0008707552319671967 0.0 -0.000470452404545431 0.0 0.0
0.0031591563186439894 -0.0015713294264573185 0.0 -0.0005066739295121557 0.0 0.0
0.005137631129917976 -0.00321088165461746 0.0 -0.0008724337337647896 0.0 0.0
0.00816742246678823 -0.005928463463845778 0.0 -0.0014242097811843495 0.0 0.0
0.01229526123860837 -0.009779920904703848 0.0 -0.0021538449822479087 0.0 0.0
0.01751752835148433 -0.014736582453772955 0.0 -0.003012767440133957 0.0 0.0
0.023805003981000154 -0.020744554985119824 0.0 -0.003924516734015186 0.0 0.0
0.031170633587379197 -0.02781150424191963 0.0 -0.0048292314029784456 0.0 0.0
0.03969337241971066 -0.036024880007585865 0.0 -0.00575281553003389 0.0 0.0
0.04947328744066486 -0.04550750690503826 0.0 -0.006790240143112761 0.0 0.0
0.060509115880343 -0.05628702026367004 0.0 -0.007955543725832548 0.0 0.0
0.0725879787753664 -0.06817834185537067 0.0 -0.009134736485693625 0.0 0.0
0.08521022799833933 -0.08069329414854834 0.0 -0.010039521091934487 0.0 0.0
0.09753655251537571 -0.09299942193616337 0.0 -0.010202626638810173 0.0 0.0
0.10835290296832566 -0.10391276388748252 0.0 -0.009216177835579238 0.0 0.0
0.1161352635103483 -0.1118678139819532 0.0 -0.00696438289717762 0.0 0.0
0.1190637036040174 -0.11528631037915923 0.0 9.787309851461146e-15 0.0 0.0
0.1161352635103336 -0.11186781398193671 0.0 0.006964382897203878 0.0 0.0
0.10835290296829767 -0.1039127638874572 0.0 0.009216177835604182 0.0 0.0
0.09753655251533766 -0.09299942193612279 0.0 0.010202626638825239 0.0 0.0
0.08521022799829489 -0.08069329414850705 0.0 0.01003952109193627 0.0 0.0
0.07258797877531784 -0.06817834185532702 0.0 0.00913473648568971 0.0 0.0
0.060509115880293535 -0.056287020263621465 0.0 0.007955543725831352 0.0 0.0
0.049473287440615285 -0.045507506904990204 0.0 0.006790240143111102 0.0 0.0
0.039693372419661865 -0.03602488000753937 0.0 0.005752815530027242 0.0 0.0
0.031170633587333595 -0.02781150424187689 0.0 0.004829231402971147 0.0 0.0
0.02380500398096013 -0.020744554985080047 0.0 0.003924516734006024 0.0 0.0
0.017517528351451452 -0.014736582453741456 0.0 0.00301276744012725 0.0 0.0
0.012295261238582565 -0.009779920904682275 0.0 0.002153844982243293 0.0 0.0
0.008167422466769847 -0.005928463463825195 0.0 0.0014242097811806216 0.0 0.0
0.0051376311299064815 -0.003210881654609165 0.0 0.0008724337337632695 0.0 0.0
0.0031591563186383963 -0.0015713294264524187 0.0 0.0005066739295113336 0.0 0.0
0.002099379453843082 -0.0008707552319656997 0.0 0.0004704524045452418 0.0 0.0
0.0015626365547681284 -0.000671215706328413 0.0 0.00047741091034643327 0.0 0.0
0.0011074174892723822 -0.0002880253112398005 0.0 0.0004075632838361395 0.0 0.0
0.0033885942372841133 -0.000688377152938705 0.0 0.004900185989913981 0.0 0.0
0.005913778793461187 -0.014537468031551594 0.0 0.0030145324572678003 0.0 0.0
0.004407552154268624 -0.011639768575669151 0.0 -0.0034303893524937805 0.0 0.0
0.002468644639327065 -0.0005038555101466144 0.0 -0.004475681449836245 0.0 0.0
0.0007939406737384363 -0.00016324549730542981 0.0 -0.000697353383213101 0.0 0.0
0.0012967469573950765 -0.0005399142437465822 0.0 -0.0007357887133902178 0.0 0.0
0.0018038120669685615 -0.0007454094618907298 0.0 -0.0007828396495978313 0.0 0.0
0.0026524167054525006 -0.0012254396169398367 0.0 -0.0008059349744136484 0.0 0.0
0.0043028473733108365 -0.0025058398499129427 0.0 -0.001193639811109832 0.0 0.0
0.006947479223593081 -0.004836365114935462 0.0 -0.001977335326585926 0.0 0.0
0.01059518275020366 -0.008208079623332502 0.0 -0.0029815053721923565 0.0 0.0
0.015210987174176602 -0.012571846942153074 0.0 -0.004161218575773312 0.0 0.0
0.02074304335855197 -0.01784699343262095 0.0 -0.005409035544698769 0.0 0.0
0.02718877963083339 -0.024017847947523298 0.0 -0.006645854888872262 0.0 0.0
0.03462288753158326 -0.031163495867992892 0.0 -0.007895102845093819 0.0 0.0
0.043152102614150624 -0.03941929043985312 0.0 -0.009257544848848545 0.0 0.0
0.05281732010096892 -0.04884698935095309 0.0 -0.010780131405562889 0.0 0.0
0.06347342426884557 -0.05931944166108602 0.0 -0.012338372239770959 0.0 0.0
0.07471100597427464 -0.07044626349467646 0.0 -0.013556935678029746 0.0 0.0
0.08580575180216007 -0.081520210197658 0.0 -0.013860883181958869 0.0 0.0
0.09566613608634333 -0.09146049820336832 0.0 -0.01265483451484085 0.0 0.0
0.10293122007882793 -0.09885750207600132 0.0 -0.009302688679872866 0.0 0.0
0.10573520220336452 -0.10235434985962169 0.0 1.3784546420980703e-14 0.0 0.0
0.10293122007881456 -0.0988575020759864 0.0 0.009302688679906385 0.0 0.0
0.09566613608631819 -0.09146049820334204 0.0 0.012654834514873925 0.0 0.0
0.08580575180212639 -0.08152021019762525 0.0 0.013860883181979956 0.0 0.0
0.07471100597423606 -0.07044626349463878 0.0 0.01355693567803365 0.0 0.0
0.06347342426880323 -0.05931944166103997 0.0 0.01233837223976654 0.0 0.0
0.0528173201009253 -0.048846989350912785 0.0 0.01078013140555929 0.0 0.0
0.04315210261410704 -0.039419290439810024 0.0 0.00925754484884333 0.0 0.0
0.0346228875315406 -0.031163495867953278 0.0 0.007895102845086325 0.0 0.0
0.02718877963079402 -0.02401784794748668 0.0 0.00664585488886231 0.0 0.0
0.020743043358517142 -0.017846993432587895 0.0 0.005409035544688434 0.0 0.0
0.015210987174147546 -0.012571846942126328 0.0 0.004161218575762732 0.0 0.0
0.010595182750180922 -0.008208079623309812 0.0 0.0029815053721861154 0.0 0.0
0.0069474792235773245 -0.004836365114919984 0.0 0.0019773353265800757 0.0 0.0
0.004302847373301388 -0.002505839849905607 0.0 0.0011936398111070015 0.0 0.0
0.002652416705448194 -0.0012254396169369363 0.0 0.0008059349744126681 0.0 0.0
0.001803812066967325 -0.00074540946189003 0.0 0.0007828396495969195 0.0 0.0
0.0012967469573948226 -0.0005399142437463978 0.0 0.0007357887133889156 0.0 0.0
0.0007939406737385401 -0.00016324549730634396 0.0 0.0006973533832110297 0.0 0.0
0.0024686446393220184 -0.0005038555101439916 0.0 0.004475681449824779 0.0 0.0
0.0044075521542583295 -0.011639768575648458 0.0 0.0034303893524797006 0.0 0.0
0.0033017953119980816 -0.009321918460166764 0.0 -0.0030862820019980745 0.0 0.0
0.0018239540159269254 -0.00043069963327928214 0.0 -0.004017314204033862 0.0 0.0
0.0005766596408498161 -9.819552234215639e-05 0.0 -0.0010728393098297557 0.0 0.0
0.0010480383881920413 -0.0004091185000767376 0.0 -0.0010131667137772177 0.0 0.0
0.001521339198132436 -0.0006313071981974359 0.0 -0.0010883722771714702 0.0 0.0
0.0021998194976237248 -0.0009642833329688476 0.0 -0.0011095958235025707 0.0 0.0
0.0035120909837978 -0.0018857894503929553 0.0 -0.0014326820209104231 0.0 0.0
0.005737062629052976 -0.0037716682795833944 0.0 -0.0022894293101693485 0.0 0.0
0.008893122000499068 -0.006651993295536764 0.0 -0.0035185361659121105 0.0 0.0
0.012892156618914206 -0.01040991028393365 0.0 -0.004925702861366259 0.0 0.0
0.017668301362562623 -0.014949361852743554 0.0 -0.006410570801388815 0.0 0.0
0.023199036165300023 -0.020230051312012578 0.0 -0.007876825100505903 0.0 0.0
0.02954835011884905 -0.026316732440806276 0.0 -0.009350832430751733 0.0 0.0
0.03683346117582575 -0.03334719803986421 0.0 -0.010939180662663115 0.0 0.0
0.04511707987755693 -0.041410779023394184 0.0 -0.01268983266307403 0.0 0.0
0.054318509155372355 -0.050440564574548326 0.0 -0.014469524857988077 0.0 0.0
0.06414274292548314 -0.06014771661583396 0.0 -0.015915272928211124 0.0 0.0
0.07399764675320511 -0.06996363327777233 0.0 -0.01642254694834344 0.0 0.0
0.0829574572216689 -0.07897878485508547 0.0 -0.015148414148586689 0.0 0.0
0.08982707422614003 -0.08596660726735018 0.0 -0.011092499268638067 0.0 0.0
0.09257743528030557 -0.08966346855901265 0.0 1.5920424700777147e-14 0.0 0.0
0.08982707422612801 -0.08596660726734018 0.0 0.011092499268675154 0.0 0.0
0.08295745722164645 -0.07897878485506084 0.0 0.015148414148625063 0.0 0.0
0.073997646753176 -0.06996363327774004 0.0 0.016422546948366024 0.0 0.0
0.0641427429254501 -0.060147716615803634 0.0 0.01591527292821665 0.0 0.0
0.05431850915533552 -0.05044056457450771 0.0 0.014469524857981614 0.0 0.0
0.04511707987751892 -0.04141077902335943 0.0 0.012689832663068779 0.0 0.0
0.03683346117578863 -0.0333471980398275 0.0 0.010939180662657989 0.0 0.0
0.029548350118812954 -0.02631673244077393 0.0 0.009350832430744966 0.0 0.0
0.023199036165266338 -0.020230051311979323 0.0 0.007876825100494672 0.0 0.0
0.017668301362532668 -0.01494936185271789 0.0 0.006410570801375613 0.0 0.0
0.012892156618889128 -0.010409910283909654 0.0 0.004925702861352661 0.0 0.0
0.008893122000479573 -0.006651993295518898 0.0 0.0035185361659044994 0.0 0.0
0.005737062629039793 -0.00377166827957096 0.0 0.002289429310163777 0.0 0.0
0.0035120909837901603 -0.001885789450387228 0.0 0.0014326820209075225 0.0 0.0
0.0021998194976202094 -0.00096428333296782 0.0 0.001109595823502009 0.0 0.0
0.0015213391981314423 -0.0006313071981978922 0.0 0.0010883722771711493 0.0 0.0
0.0010480383881918498 -0.0004091185000758371 0.0 0.0010131667137754155 0.0 0.0
0.0005766596408499855 -9.819552234346532e-05 0.0 0.0010728393098272304 0.0 0.0
0.0018239540159226426 -0.0004306996332766406 0.0 0.0040173142040238865 0.0 0.0
0.003301795311989233 -0.009321918460149046 0.0 0.0030862820019884407 0.0 0.0
0.002451374475120763 -0.007403052057146933 0.0 -0.0025900215997314915 0.0 0.0
0.0013443133176181384 -0.0003919167825402223 0.0 -0.0035752969319281036 0.0 0.0
0.00041731205928691916 -6.991901256979372e-05 0.0 -0.0014276297318467246 0.0 0.0
0.0008179738207794216 -0.00029034500846932736 0.0 -0.0012966926714951712 0.0 0.0
0.001247721122072386 -0.0005173339034962994 0.0 -0.001375848645886596 0.0 0.0
0.0017913610621221824 -0.0007626523819415137 0.0 -0.001407585738024113 0.0 0.0
0.002793166457654739 -0.0013828087797646846 0.0 -0.0016643705643465735 0.0 0.0
0.0045668195903405566 -0.0027857060493261124 0.0 -0.0024235201971535033 0.0 0.0
0.007196075082611138 -0.00512808711616575 0.0 -0.003730544259269733 0.0 0.0
0.010576995518790103 -0.008271487150050577 0.0 -0.005294946760185425 0.0 0.0
0.014594901938953762 -0.012070676546910972 0.0 -0.006916158326199148 0.0 0.0
0.01921690433964174 -0.016466541814993574 0.0 -0.008517169846508755 0.0 0.0
0.024491767411721075 -0.021503449258241335 0.0 -0.01011091420223376 0.0 0.0
0.030531461034982818 -0.027314002435999955 0.0 -0.011806064464434537 0.0 0.0
0.037431576926965276 -0.03400959229476041 0.0 -0.013664861710653753 0.0 0.0
0.04516613097313879 -0.04158011568439175 0.0 -0.015549097280112022 0.0 0.0
0.05352765960477075 -0.049824613718393494 0.0 -0.01711133281934762 0.0 0.0
0.06210026579216192 -0.05833133782094645 0.0 -0.01779569773740735 0.0 0.0
0.07017653651150463 -0.06642775897860585 0.0 -0.01666473245155325 0.0 0.0
0.07672664511017063 -0.07309244353449064 0.0 -0.012390875984652827 0.0 0.0
0.07947293241328729 -0.07709145920353873 0.0 1.6103871708361694e-14 0.0 0.0
0.0767266451101598 -0.07309244353447952 0.0 0.012390875984690634 0.0 0.0
0.07017653651148542 -0.06642775897858859 0.0 0.0166647324515932 0.0 0.0
0.06210026579213722 -0.05833133782092452 0.0 0.01779569773743335 0.0 0.0
0.05352765960474274 -0.049824613718366356 0.0 0.01711133281935395 0.0 0.0
0.045166130973107614 -0.04158011568436272 0.0 0.015549097280103744 0.0 0.0
0.03743157692693327 -0.034009592294731085 0.0 0.013664861710646698 0.0 0.0
0.030531461034952086 -0.02731400243597558 0.0 0.01180606446442841 0.0 0.0
0.02449176741169109 -0.021503449258210888 0.0 0.010110914202224696 0.0 0.0
0.019216904339613285 -0.01646654181496529 0.0 0.008517169846496761 0.0 0.0
0.014594901938928824 -0.012070676546890096 0.0 0.006916158326184115 0.0 0.0
0.010576995518769448 -0.008271487150030336 0.0 0.00529494676017109 0.0 0.0
0.007196075082595268 -0.0051280871161529865 0.0 0.003730544259261192 0.0 0.0
0.004566819590329859 -0.0027857060493162848 0.0 0.002423520197148602 0.0 0.0
0.0027931664576489636 -0.0013828087797608266 0.0 0.0016643705643429579 0.0 0.0
0.0017913610621200123 -0.0007626523819416034 0.0 0.0014075857380239653 0.0 0.0
0.0012477211220716575 -0.0005173339034953042 0.0 0.0013758486458873226 0.0 0.0
0.0008179738207788863 -0.0002903450084687817 0.0 0.0012966926714928783 0.0 0.0
0.00041731205928655644 -6.991901257006941e-05 0.0 0.0014276297318445963 0.0 0.0
0.0013443133176145067 -0.00039191678253856316 0.0 0.003575296931919548 0.0 0.0
0.0024513744751137995 -0.007403052057132194 0.0 0.002590021599725426 0.0 0.0
0.0017896595525903171 -0.005795691576243164 0.0 -0.0021312824999065506 0.0 0.0
0.0009767063017510824 -0.00036795129219007464 0.0 -0.003176864250820619 0.0 0.0
0.0002903818367792499 -5.689459920244065e-05 0.0 -0.0017216907010911703 0.0 0.0
0.000603803682582478 -0.00018599469796696266 0.0 -0.0015640391536166566 0.0 0.0
0.0009781979020646748 -0.00039662564395579765 0.0 -0.0016320478899991232 0.0 0.0
0.0014118159944740507 -0.0005997146060802582 0.0 -0.0017020711812974025 0.0 0.0
0.0021448999104975775 -0.0009869559200126527 0.0 -0.0018759213533331158 0.0 0.0
0.0034765543239662078 -0.0019389730043097245 0.0 -0.0024910626092968977 0.0 0.0
0.005539794728432749 -0.003685538696769404 0.0 -0.0036557406409808285 0.0 0.0
0.00827613260172133 -0.006180457914418252 0.0 -0.0052317823011045475 0.0 0.0
0.011539077177747336 -0.009233964758650421 0.0 -0.006905573221841137 0.0 0.0
0.015256329455546863 -0.012747155665270828 0.0 -0.008548780923345626 0.0 0.0
0.0194669439031578 -0.016745883225288246 0.0 -0.010163562236358793 0.0 0.0
0.02427491891192583 -0.021348013438538815 0.0 -0.011853999092923194 0.0 0.0
0.02978717320669807 -0.026674868625094023 0.0 -0.0136785981098442 0.0 0.0
0.03603347921185527 -0.03277149483232515 0.0 -0.015550030779572958 0.0 0.0
0.042900118639275654 -0.0395152700405034 0.0 -0.017135037993567557 0.0 0.0
0.05012485987258292 -0.04664251432540625 0.0 -0.017946909761592755 0.0 0.0
0.057264519254221616 -0.05375995026627626 0.0 -0.017133287165404108 0.0 0.0
0.06352117355176118 -0.060123175585526045 0.0 -0.013171361869983368 0.0 0.0
0.06629967514599203 -0.06452265964704872 0.0 1.4850100316099457e-14 0.0 0.0
0.06352117355175221 -0.06012317558550993 0.0 0.013171361870020628 0.0 0.0
0.05726451925420578 -0.05375995026625968 0.0 0.01713328716544389 0.0 0.0
0.050124859872562565 -0.04664251432538833 0.0 0.017946909761618043 0.0 0.0
0.042900118639252575 -0.039515270040479604 0.0 0.017135037993571106 0.0 0.0
0.03603347921182966 -0.03277149483230383 0.0 0.01555003077956349 0.0 0.0
0.029787173206672304 -0.02667486862506941 0.0 0.01367859810983671 0.0 0.0
0.024274918911901613 -0.02134801343851792 0.0 0.011853999092917634 0.0 0.0
0.0194669439031341 -0.016745883225264803 0.0 0.010163562236351127 0.0 0.0
0.015256329455523961 -0.012747155665246802 0.0 0.008548780923335084 0.0 0.0
0.011539077177727165 -0.009233964758632522 0.0 0.00690557322182684 0.0 0.0
0.008276132601705037 -0.006180457914401442 0.0 0.005231782301091252 0.0 0.0
0.005539794728420634 -0.00368553869675828 0.0 0.0036557406409724403 0.0 0.0
0.003476554323958295 -0.0019389730043047203 0.0 0.0024910626092925665 0.0 0.0
0.0021448999104933964 -0.0009869559200102837 0.0 0.0018759213533288614 0.0 0.0
0.0014118159944725654 -0.0005997146060785076 0.0 0.0017020711812970224 0.0 0.0
0.0009781979020640514 -0.0003966256439543231 0.0 0.001632047889998538 0.0 0.0
0.0006038036825819473 -0.00018599469796671902 0.0 0.0015640391536137443 0.0 0.0
0.0002903818367789811 -5.689459920180562e-05 0.0 0.0017216907010885424 0.0 0.0
0.0009767063017484068 -0.00036795129218928247 0.0 0.003176864250814391 0.0 0.0
0.0017896595525851598 -0.005795691576231263 0.0 0.0021312824999029736 0.0 0.0
0.0012740642096134213 -0.004460133129475773 0.0 -0.0017866669613654362 0.0 0.0
0.0006890629460173082 -0.00035639424343934117 0.0 -0.002818836875168566 0.0 0.0
0.00017913709254122133 -4.3321508259199634e-05 0.0 -0.0019486734531449163 0.0 0.0
0.0004013620754937702 -9.419874026729802e-05 0.0 -0.0017970719686626734 0.0 0.0
0.0007073581967712102 -0.0002704124136644338 0.0 -0.0018504106869179572 0.0 0.0
0.0010523361322627009 -0.000449173618964435 0.0 -0.0019678438817203295 0.0 0.0
0.0015611837729236971 -0.0006840859867678949 0.0 -0.0020935417506686015 0.0 0.0
0.0024790891360100724 -0.0012513523062473728 0.0 -0.0025092636475144508 0.0 0.0
0.003970687823262514 -0.0024006480750576246 0.0 -0.0034084179095386744 0.0 0.0
0.006022883974821373 -0.004193488706461928 0.0 -0.004763845621455261 0.0 0.0
0.008510927878616533 -0.006472218527715468 0.0 -0.006348630074942183 0.0 0.0
0.01133137257441544 -0.009101599136734258 0.0 -0.00793131083979201 0.0 0.0
0.014492017285328236 -0.012072534974327602 0.0 -0.00947896739116282 0.0 0.0
0.01808047633473563 -0.015481763835249986 0.0 -0.011058061535096439 0.0 0.0
0.022211216779325017 -0.01944766340461493 0.0 -0.012735448441895728 0.0 0.0
0.026956407078295674 -0.024053579996616902 0.0 -0.014449906147479916 0.0 0.0
0.03228260675213691 -0.029263477307426823 0.0 -0.015956759021122452 0.0 0.0
0.0380791205178603 -0.034934104313596816 0.0 -0.016815981033985183 0.0 0.0
0.04417709667493694 -0.04094198566173702 0.0 -0.016430874268092168 0.0 0.0
0.05009571928862012 -0.04693814468549899 0.0 -0.013345445972082972 0.0 0.0
0.052917131395764976 -0.05183414507193974 0.0 1.3479235089208785e-14 0.0 0.0
0.05009571928861352 -0.04693814468548674 0.0 0.013345445972117856 0.0 0.0
0.04417709667492459 -0.04094198566172336 0.0 0.01643087426812907 0.0 0.0
0.03807912051784407 -0.034934104313582154 0.0 0.016815981034007457 0.0 0.0
0.03228260675211882 -0.029263477307409476 0.0 0.015956759021122004 0.0 0.0
0.02695640707827627 -0.02405357999659865 0.0 0.014449906147471315 0.0 0.0
0.02221121677930574 -0.01944766340459243 0.0 0.012735448441888463 0.0 0.0
0.018080476334717883 -0.015481763835235186 0.0 0.011058061535091158 0.0 0.0
0.014492017285311513 -0.012072534974313952 0.0 0.009478967391155857 0.0 0.0
0.01133137257439877 -0.009101599136717136 0.0 0.007931310839781993 0.0 0.0
0.008510927878601441 -0.006472218527700975 0.0 0.006348630074930146 0.0 0.0
0.006022883974809173 -0.004193488706448501 0.0 0.004763845621444033 0.0 0.0
0.003970687823253842 -0.0024006480750492875 0.0 0.0034084179095336085 0.0 0.0
0.002479089136004946 -0.0012513523062444023 0.0 0.002509263647510437 0.0 0.0
0.0015611837729213249 -0.0006840859867677721 0.0 0.0020935417506674475 0.0 0.0
0.0010523361322620018 -0.00044917361896281674 0.0 0.0019678438817187544 0.0 0.0
0.0007073581967708271 -0.0002704124136654806 0.0 0.0018504106869153265 0.0 0.0
0.00040136207549358187 -9.419874026728984e-05 0.0 0.0017970719686601915 0.0 0.0
0.00017913709254111372 -4.3321508259062225e-05 0.0 0.0019486734531422218 0.0 0.0
0.0006890629460156099 -0.00035639424343899195 0.0 0.0028188368751629568 0.0 0.0
0.0012740642096101134 -0.004460133129466668 0.0 0.0017866669613628725 0.0 0.0
0.0008936619512623558 -0.0033987154058789885 0.0 -0.0015910038028500682 0.0 0.0
0.0004654542460268595 -0.0003574346175915018 0.0 -0.002516441923369486 0.0 0.0
6.980219558906886e-05 -1.9663602576677843e-05 0.0 -0.002112368744813898 0.0 0.0
0.00020841917843582005 -1.1950354837144118e-05 0.0 -0.0019842263030793094 0.0 0.0
0.00043574934632113554 -0.00014392504178416515 0.0 -0.0020249776628462317 0.0 0.0
0.0006930063606338663 -0.00028942082135518247 0.0 -0.0021709251053075194 0.0 0.0
0.0010281032918249943 -0.00044557454616983973 0.0 -0.0023310257311048676 0.0 0.0
0.001585259559884899 -0.0007335183257804219 0.0 -0.0025568045546846274 0.0 0.0
0.0025187938089594906 -0.001345345955567678 0.0 -0.0030919819998349285 0.0 0.0
0.003866784862456777 -0.00241292725191814 0.0 -0.00401941022995506 0.0 0.0
0.005546260735226081 -0.0038678467869416294 0.0 -0.005277613175812719 0.0 0.0
0.007456862387148124 -0.00559290507238713 0.0 -0.006636019982683838 0.0 0.0
0.009577140351444831 -0.007536027239735003 0.0 -0.008020612347854925 0.0 0.0
0.011967157238729938 -0.009768687856601708 0.0 -0.00941580524428316 0.0 0.0
0.014727027087637554 -0.01238527027612017 0.0 -0.010843989858381047 0.0 0.0
0.017957710531911177 -0.015488535964135783 0.0 -0.012307307512747147 0.0 0.0
0.021715393171414125 -0.019127284269545342 0.0 -0.01365919199120399 0.0 0.0
0.025997496698709554 -0.023282788370086595 0.0 -0.01452017271175124 0.0 0.0
0.030870386436248697 -0.027997481889904786 0.0 -0.01443185091391468 0.0 0.0
0.036314267002758166 -0.03340997200121447 0.0 -0.012661340074560226 0.0 0.0
0.03915386133279521 -0.03886933994022967 0.0 1.1119577481011333e-14 0.0 0.0
0.036314267002754114 -0.03340997200120816 0.0 0.012661340074590358 0.0 0.0
0.030870386436240085 -0.027997481889896102 0.0 0.014431850913948097 0.0 0.0
0.0259974966986978 -0.023282788370081152 0.0 0.014520172711768618 0.0 0.0
0.0217153931714013 -0.019127284269532828 0.0 0.013659191991203412 0.0 0.0
0.017957710531897954 -0.015488535964118783 0.0 0.012307307512740822 0.0 0.0
0.014727027087625025 -0.012385270276102174 0.0 0.010843989858373884 0.0 0.0
0.011967157238719113 -0.009768687856595525 0.0 0.009415805244279473 0.0 0.0
0.009577140351434357 -0.007536027239723625 0.0 0.008020612347849447 0.0 0.0
0.007456862387137419 -0.0055929050723774 0.0 0.006636019982674442 0.0 0.0
0.0055462607352161335 -0.0038678467869321925 0.0 0.005277613175801115 0.0 0.0
0.0038667848624491276 -0.002412927251909851 0.0 0.00401941022994594 0.0 0.0
0.002518793808954258 -0.0013453459555644426 0.0 0.0030919819998323915 0.0 0.0
0.0015852595598816787 -0.0007335183257768125 0.0 0.002556804554682165 0.0 0.0
0.0010281032918235684 -0.0004455745461688365 0.0 0.002331025731103523 0.0 0.0
0.0006930063606332978 -0.00028942082135398404 0.0 0.0021709251053048284 0.0 0.0
0.0004357493463209423 -0.00014392504178488828 0.0 0.002024977662844037 0.0 0.0
0.0002084191784355978 -1.1950354837103482e-05 0.0 0.0019842263030772664 0.0 0.0
6.980219558878164e-05 -1.9663602576545137e-05 0.0 0.002112368744811713 0.0 0.0
0.0004654542460257664 -0.00035743461759192444 0.0 0.0025164419233653828 0.0 0.0
0.0008936619512604632 -0.003398715405872579 0.0 0.0015910038028481989 0.0 0.0
0.0006306590281606464 -0.002591550421106 0.0 -0.0014898656318274085 0.0 0.0
0.00029765353102812224 -0.000369251586941449 0.0 -0.0023021924980695095 0.0 0.0
-3.894633551908218e-05 1.4933619194185799e-05 0.0 -0.002215776550015364 0.0 0.0
2.276054679376801e-05 6.353505081605255e-05 0.0 -0.0021196591027943597 0.0 0.0
0.00016648999456426083 -1.983719884599684e-05 0.0 -0.0021498267751001252 0.0 0.0
0.00032571778920867037 -0.00012086183968454254 0.0 -0.002300285878712012 0.0 0.0
0.000511409615047568 -0.00021946582988530868 0.0 -0.0025099259741067723 0.0 0.0
0.0007798217934671057 -0.00034517459565973623 0.0 -0.002696437238041655 0.0 0.0
0.0012120170908210335 -0.0005772443019847682 0.0 -0.0029228968324557496 0.0 0.0
0.00185769615895225 -0.0010113703507789995 0.0 -0.0033478772097114647 0.0 0.0
0.0026975976602799296 -0.0016482707497316122 0.0 -0.0040655365538054605 0.0 0.0
0.0036665916615731854 -0.0024433154892511653 0.0 -0.005013850884392464 0.0 0.0
0.004734551134909474 -0.003344539833461707 0.0 -0.00608655181884779 0.0 0.0
0.0059393844416565375 -0.004392748406043924 0.0 -0.0072362226790699145 0.0 0.0
0.0073445318282635294 -0.0056611013209515604 0.0 -0.008466607644067982 0.0 0.0
0.00905128688090317 -0.007240124270919872 0.0 -0.00978797506011925 0.0 0.0
0.011199975748476258 -0.009258537975389749 0.0 -0.011101965902437295 0.0 0.0
0.013934592559273096 -0.01185840566155591 0.0 -0.012056766374867196 0.0 0.0
0.01739933121575795 -0.01517041432907745 0.0 -0.012079439109660556 0.0 0.0
0.022039181880952042 -0.01953999085459771 0.0 -0.011032508339372056 0.0 0.0
0.024744799554253048 -0.025454225825934176 0.0 1.0119943077979698e-14 0.0 0.0
0.022039181880950498 -0.019539990854598482 0.0 0.0110325083393975 0.0 0.0
0.01739933121575301 -0.015170414329071309 0.0 0.012079439109686344 0.0 0.0
0.013934592559265907 -0.011858405661552706 0.0 0.012056766374877008 0.0 0.0
0.011199975748469836 -0.00925853797538454 0.0 0.011101965902433088 0.0 0.0
0.009051286880897073 -0.007240124270914019 0.0 0.009787975060112539 0.0 0.0
0.007344531828258063 -0.005661101320942938 0.0 0.008466607644061786 0.0 0.0
0.005939384441652268 -0.00439274840603774 0.0 0.007236222679068078 0.0 0.0
0.004734551134905341 -0.0033445398334555456 0.0 0.0060865518188442744 0.0 0.0
0.0036665916615684488 -0.00244331548924807 0.0 0.005013850884384759 0.0 0.0
0.002697597660275587 -0.0016482707497273126 0.0 0.004065536553797485 0.0 0.0
0.0018576961589493722 -0.0010113703507753735 0.0 0.003347877209706647 0.0 0.0
0.0012120170908193019 -0.0005772443019848822 0.0 0.0029228968324539416 0.0 0.0
0.0007798217934659245 -0.00034517459566000994 0.0 0.0026964372380410173 0.0 0.0
0.0005114096150467767 -0.00021946582988423765 0.0 0.002509925974104018 0.0 0.0
0.0003257177892083869 -0.00012086183968391706 0.0 0.0023002858787095548 0.0 0.0
0.00016648999456432879 -1.983719884543085e-05 0.0 0.0021498267750983 0.0 0.0
2.2760546793701648e-05 6.353505081577079e-05 0.0 0.002119659102791705 0.0 0.0
-3.8946335519332155e-05 1.4933619195158074e-05 0.0 0.002215776550013704 0.0 0.0
0.0002976535310275024 -0.0003692515869422638 0.0 0.002302192498067034 0.0 0.0
0.0006306590281596539 -0.0025915504211017617 0.0 0.001489865631826823 0.0 0.0
0.0004455245953740502 -0.00199634793485899 0.0 -0.001431168601467882 0.0 0.0
0.00017179341581417693 -0.00037340053117427646 0.0 -0.0021519511740895635 0.0 0.0
-0.00014162824575199182 5.2233758789242444e-05 0.0 -0.0022661062720659084 0.0 0.0
-0.00015610890295939507 0.00013512684521043092 0.0 -0.0022003516154786964 0.0 0.0
-9.807617106366229e-05 0.00010057132735476662 0.0 -0.002218935686442832 0.0 0.0
-4.4631117150739976e-05 4.919176825228003e-05 0.0 -0.0023566309325461104 0.0 0.0
-1.49936061681046e-05 1.3615208125369248e-05 0.0 -0.002575804050741792 0.0 0.0
-3.3519152092843367e-06 2.4953917307745737e-06 0.0 -0.00279067548054838 0.0 0.0
-1.02107272637042e-09 -4.0594765267079277e-07 0.0 -0.0029165169080853305 0.0 0.0
6.157901011747595e-07 -2.273349336735927e-07 0.0 -0.0030920672609880194 0.0 0.0
4.2215495755224593e-07 -1.2223543900999171e-06 0.0 -0.00348669085316018 0.0 0.0
-3.036358221724571e-06 2.592654822328893e-06 0.0 -0.004187904025431788 0.0 0.0
-1.2752063637278162e-05 9.989158340110435e-06 0.0 -0.005059519920190472 0.0 0.0
-2.499404538003835e-05 2.365885937814381e-05 0.0 -0.00607581561912344 0.0 0.0
-4.797788773698228e-06 1.5378950177616412e-05 0.0 -0.0072569114881046596 0.0 0.0
0.00015808020083228256 -0.00010561072950299698 0.0 -0.0086026846145784 0.0 0.0
0.0006880000731749871 -0.0005333915269666815 0.0 -0.01006484044485715 0.0 0.0
0.0018901022363460754 -0.0015566264281669559 0.0 -0.011485127297940852 0.0 0.0
0.003989788138546625 -0.0033597287124235114 0.0 -0.012558593748134445 0.0 0.0
0.00738655268720057 -0.006089595267168362 0.0 -0.012841701559676049 0.0 0.0
0.009492596446949235 -0.012347988788557916 0.0 6.7628194710955825e-15 0.0 0.0
0.007386552687200931 -0.006089595267174695 0.0 0.012841701559692758 0.0 0.0
0.0039897881385451955 -0.0033597287124188372 0.0 0.012558593748147905 0.0 0.0
0.001890102236344618 -0.0015566264281701523 0.0 0.011485127297943393 0.0 0.0
0.0006880000731757942 -0.000533391526969281 0.0 0.01006484044485254 0.0 0.0
0.00015808020083345827 -0.00010561072950877637 0.0 0.008602684614573565 0.0 0.0
-4.797788772363683e-06 1.5378950177210324e-05 0.0 0.007256911488099163 0.0 0.0
-2.4994045377861487e-05 2.3658859384768232e-05 0.0 0.006075815619119598 0.0 0.0
-1.2752063635063733e-05 9.989158336995874e-06 0.0 0.00505951992018358 0.0 0.0
-3.0363582197194473e-06 2.5926548198238576e-06 0.0 0.004187904025423482 0.0 0.0
4.2215495894455126e-07 -1.2223543925454978e-06 0.0 0.0034866908531543004 0.0 0.0
6.157901023775192e-07 -2.273349326388979e-07 0.0 0.0030920672609865297 0.0 0.0
-1.0210717280370596e-09 -4.0594765426868316e-07 0.0 0.0029165169080846444 0.0 0.0
-3.3519152089430028e-06 2.4953917318416048e-06 0.0 0.0027906754805465386 0.0 0.0
-1.4993606167980363e-05 1.3615208125509984e-05 0.0 0.0025758040507394935 0.0 0.0
-4.463111715040947e-05 4.919176825100033e-05 0.0 0.0023566309325437317 0.0 0.0
-9.80761710632994e-05 0.00010057132735581482 0.0 0.0022189356864408265 0.0 0.0
-0.0001561089029592087 0.00013512684520941117 0.0 0.0022003516154766043 0.0 0.0
-0.00014162824575196203 5.223375879040567e-05 0.0 0.002266106272063874 0.0 0.0
0.00017179341581376116 -0.0003734005311748667 0.0 0.00215195117408722 0.0 0.0
0.00044552459537319946 -0.0019963479348562557 0.0 0.0014311686014674904 0.0 0.0
0.0003193458241602002 -0.001547703863409843 0.0 -0.0013594861054265397 0.0 0.0
7.858912329097446e-05 -0.0003568037447373577 0.0 -0.002017306577958591 0.0 0.0
-0.00023710535035293372 8.684192597187745e-05 0.0 -0.0022672548278000896 0.0 0.0
-0.00032732213547614344 0.0002037484351777883 0.0 -0.0022252852105552755 0.0 0.0
-0.00035646972303998427 0.00021568594538999325 0.0 -0.0022286602173544087 0.0 0.0
-0.00041111088626332847 0.00021738183476456742 0.0 -0.002340064932203806 0.0 0.0
-0.0005405214524185636 0.0002464201984295901 0.0 -0.0025275884513222403 0.0 0.0
-0.0007867670087826585 0.00035006588369251797 0.0 -0.00270274978713341 0.0 0.0
-0.0012117721694349932 0.0005763880636471989 0.0 -0.002925018489088812 0.0 0.0
-0.0018557680127316116 0.0010099722996246448 0.0 -0.0033464730908392376 0.0 0.0
-0.0026964616462362553 0.001646772569182609 0.0 -0.004061240256190321 0.0 0.0
-0.003673303738870895 0.0024490820705042127 0.0 -0.005011592008958096 0.0 0.0
-0.004761178323297662 0.0033673611923443134 0.0 -0.006079573492464111 0.0 0.0
-0.005989089531514561 0.004442649261989675 0.0 -0.007226232160629795 0.0 0.0
-0.007350940106611074 0.0056936104742890134 0.0 -0.008474486243861596 0.0 0.0
-0.008741333427111694 0.00702730436637093 0.0 -0.009910771112923392 0.0 0.0
-0.009905397145071266 0.008196893906721785 0.0 -0.011604709360872484 0.0 0.0
-0.010448752506805525 0.008802221683941635 0.0 -0.013621261783246295 0.0 0.0
-0.00990904002170405 0.00846549668277061 0.0 -0.015853065559040085 0.0 0.0
-0.006965768892727254 0.006339492551009202 0.0 -0.016787403498135876 0.0 0.0
-0.004622827981812086 -0.0006001293866182643 0.0 1.0835950192689126e-14 0.0 0.0
-0.006965768892727115 0.0063394925510126005 0.0 0.016787403498154278 0.0 0.0
-0.009909040021701994 0.008465496682770713 0.0 0.015853065559053612 0.0 0.0
-0.010448752506799313 0.008802221683934545 0.0 0.013621261783248677 0.0 0.0
-0.009905397145061981 0.00819689390671195 0.0 0.011604709360867885 0.0 0.0
-0.008741333427103083 0.0070273043663657275 0.0 0.009910771112914918 0.0 0.0
-0.007350940106603173 0.005693610474280589 0.0 0.008474486243855685 0.0 0.0
-0.00598908953150596 0.00444264926198688 0.0 0.007226232160623619 0.0 0.0
-0.004761178323288461 0.003367361192333767 0.0 0.006079573492457175 0.0 0.0
-0.0036733037388618495 0.0024490820704954714 0.0 0.005011592008947951 0.0 0.0
-0.0026964616462286563 0.0016467725691732067 0.0 0.0040612402561813485 0.0 0.0
-0.001855768012726077 0.0010099722996236024 0.0 0.00334647309083532 0.0 0.0
-0.0012117721694315763 0.0005763880636459964 0.0 0.002925018489088761 0.0 0.0
-0.000786767008780893 0.00035006588369398294 0.0 0.002702749787131587 0.0 0.0
-0.0005405214524174761 0.0002464201984297254 0.0 0.0025275884513198095 0.0 0.0
-0.0004111108862623814 0.00021738183476333376 0.0 0.002340064932201308 0.0 0.0
-0.0003564697230394893 0.00021568594539096562 0.0 0.002228660217353091 0.0 0.0
-0.0003273221354760181 0.00020374843517679427 0.0 0.0022252852105543804 0.0 0.0
-0.0002371053503527758 8.684192597247936e-05 0.0 0.0022672548277983856 0.0 0.0
7.858912329094316e-05 -0.00035680374473752284 0.0 0.0020173065779561434 0.0 0.0
0.00031934582415982173 -0.001547703863407891 0.0 0.0013594861054258515 0.0 0.0
0.000224304575555507 -0.0011770357000826365 0.0 -0.0012383576525116333 0.0 0.0
3.7535989915594333e-06 -0.00032277771992070953 0.0 -0.0018755871507586436 0.0 0.0
-0.0003256714362433006 0.00011967089565366099 0.0 -0.0022166279473874117 0.0 0.0
-0.0004903218721379918 0.00026842906452958533 0.0 -0.0021945658627396183 0.0 0.0
-0.0006069840693939996 0.0003248754512628914 0.0 -0.0021761409697929244 0.0 0.0
-0.0007694282724531265 0.00037888200262127276 0.0 -0.002247745363714686 0.0 0.0
-0.0010542823132769813 0.0004726458582300419 0.0 -0.002366053193535994 0.0 0.0
-0.0015908265382738823 0.000738081412494231 0.0 -0.0025705221799865036 0.0 0.0
-0.0025176919809291143 0.0013434686033836829 0.0 -0.0030931529030631807 0.0 0.0
-0.0038642952134684133 0.0024103106822768333 0.0 -0.00401518299508519 0.0 0.0
-0.005545954481136995 0.0038680002866804094 0.0 -0.005274780568579694 0.0 0.0
-0.007463404984824852 0.005599189880005902 0.0 -0.006633919420035639 0.0 0.0
-0.009600347710412207 0.007558619177540476 0.0 -0.008001555466656827 0.0 0.0
-0.012011463573944253 0.009814962625698732 0.0 -0.009363820153616916 0.0 0.0
-0.014735184291184655 0.012416857657426677 0.0 -0.01080535730083406 0.0 0.0
-0.01768265721304592 0.015297619432421607 0.0 -0.012521028672558374 0.0 0.0
-0.02055746994468824 0.018166234332275287 0.0 -0.014738278485443134 0.0 0.0
-0.022842390902481878 0.02050128891318734 0.0 -0.0175680297783826 0.0 0.0
-0.0235532899160842 0.021416145807934734 0.0 -0.02043711793849068 0.0 0.0
-0.020881065568449698 0.019045647522545263 0.0 -0.021018634287991105 0.0 0.0
-0.018414753369033456 0.010288977124480545 0.0 1.1127383736653229e-14 0.0 0.0
-0.020881065568448594 0.019045647522549877 0.0 0.02101863428801709 0.0 0.0
-0.023553289916078343 0.021416145807926733 0.0 0.0204371179385164 0.0 0.0
-0.022842390902470134 0.02050128891317368 0.0 0.017568029778394192 0.0 0.0
-0.02055746994467251 0.018166234332260712 0.0 0.014738278485440591 0.0 0.0
-0.01768265721303001 0.015297619432408895 0.0 0.012521028672547344 0.0 0.0
-0.014735184291170017 0.012416857657413214 0.0 0.010805357300824176 0.0 0.0
-0.01201146357392943 0.009814962625683307 0.0 0.009363820153609788 0.0 0.0
-0.009600347710396752 0.007558619177524841 0.0 0.008001555466648947 0.0 0.0
-0.007463404984809741 0.005599189879991431 0.0 0.0066339194200222915 0.0 0.0
-0.005545954481123631 0.0038680002866682056 0.0 0.005274780568566321 0.0 0.0
-0.003864295213458026 0.0024103106822684663 0.0 0.0040151829950767215 0.0 0.0
-0.002517691980922181 0.0013434686033806506 0.0 0.003093152903059419 0.0 0.0
-0.001590826538270257 0.0007380814124912821 0.0 0.0025705221799841465 0.0 0.0
-0.0010542823132752297 0.00047264585822984553 0.0 0.002366053193534772 0.0 0.0
-0.0007694282724519218 0.0003788820026210453 0.0 0.0022477453637119254 0.0 0.0
-0.0006069840693930507 0.00032487545126291166 0.0 0.002176140969791041 0.0 0.0
-0.0004903218721376625 0.00026842906452975734 0.0 0.0021945658627381915 0.0 0.0
-0.0003256714362432638 0.00011967089565355737 0.0 0.002216627947386376 0.0 0.0
3.7535989916126337e-06 -0.00032277771992090095 0.0 0.0018755871507564457 0.0 0.0
0.00022430457555553407 -0.0011770357000811396 0.0 0.0012383576525110374 0.0 0.0
0.00014321596334287404 -0.0008614069693257712 0.0 -0.0010885714804084036 0.0 0.0
-6.248043692601364e-05 -0.00027428742314851364 0.0 -0.0017130169618138937 0.0 0.0
-0.00040880257221220307 0.0001520726095818576 0.0 -0.002113931631555641 0.0 0.0
-0.0006448932959829016 0.0003287523995960942 0.0 -0.002108172780446257 0.0 0.0
-0.0008475226262225932 0.0004268701891436968 0.0 -0.0020650507305048035 0.0 0.0
-0.0011136411921801822 0.0005281948316584711 0.0 -0.0020726924740476433 0.0 0.0
-0.00158333768771323 0.0007122611635547987 0.0 -0.0021456142117686635 0.0 0.0
-0.0024829039220161456 0.001253885201233763 0.0 -0.0025251201551873734 0.0 0.0
-0.003967654728375566 0.002396777778761949 0.0 -0.0034054732553038185 0.0 0.0
-0.006020795824209984 0.004191121040356377 0.0 -0.004758588003797751 0.0 0.0
-0.00851188362523091 0.006473992509080286 0.0 -0.00634734925956348 0.0 0.0
-0.011336339185865144 0.009107293753585228 0.0 -0.007928145299848437 0.0 0.0
-0.014505258857650926 0.012086124108238942 0.0 -0.009447761864427726 0.0 0.0
-0.01810610906580649 0.015507504604410496 0.0 -0.010957369820895943 0.0 0.0
-0.02221506155676269 0.01946567913187939 0.0 -0.012604068030759629 0.0 0.0
-0.026764593180415748 0.02392556727444724 0.0 -0.01465868964217151 0.0 0.0
-0.03141224210321023 0.0285641178896663 0.0 -0.01752914071352223 0.0 0.0
-0.035368516207169985 0.032639543347113616 0.0 -0.021319958010012047 0.0 0.0
-0.03715752951829513 0.03468862661762275 0.0 -0.024981577389267158 0.0 0.0
-0.034155009189624976 0.03225643932512191 0.0 -0.02617565784581434 0.0 0.0
-0.03103519241239036 0.020849776308412296 0.0 1.2437967322753707e-14 0.0 0.0
-0.034155009189621395 0.032256439325123676 0.0 0.026175657845846842 0.0 0.0
-0.03715752951828555 0.03468862661761148 0.0 0.024981577389297398 0.0 0.0
-0.035368516207153484 0.032639543347096636 0.0 0.021319958010027378 0.0 0.0
-0.031412242103188937 0.028564117889648424 0.0 0.01752914071352023 0.0 0.0
-0.02676459318039349 0.023925567274420707 0.0 0.014658689642163276 0.0 0.0
-0.022215061556741366 0.01946567913186293 0.0 0.012604068030749161 0.0 0.0
-0.018106109065784897 0.015507504604387722 0.0 0.010957369820886449 0.0 0.0
-0.014505258857629034 0.012086124108221121 0.0 0.009447761864416988 0.0 0.0
-0.01133633918584394 0.009107293753561861 0.0 0.007928145299833395 0.0 0.0
-0.008511883625211799 0.0064739925090644135 0.0 0.006347349259546549 0.0 0.0
-0.0060207958241949005 0.00419112104034079 0.0 0.004758588003786418 0.0 0.0
-0.003967654728365083 0.002396777778752231 0.0 0.0034054732552981446 0.0 0.0
-0.0024829039220097414 0.0012538852012302295 0.0 0.002525120155183319 0.0 0.0
-0.001583337687710168 0.0007122611635522936 0.0 0.0021456142117673035 0.0 0.0
-0.0011136411921786535 0.0005281948316583506 0.0 0.0020726924740474308 0.0 0.0
-0.0008475226262214613 0.00042687018914445497 0.0 0.0020650507305028467 0.0 0.0
-0.0006448932959821801 0.00032875239959645014 0.0 0.0021081727804455976 0.0 0.0
-0.00040880257221179465 0.0001520726095814946 0.0 0.002113931631553531 0.0 0.0
-6.248043692616732e-05 -0.00027428742314860514 0.0 0.001713016961812798 0.0 0.0
0.00014321596334238753 -0.0008614069693245695 0.0 0.001088571480407169 0.0 0.0
7.124822187326796e-05 -0.0005957620004543183 0.0 -0.0009290898391171049 0.0 0.0
-0.00012385225153236084 -0.00021494529909797888 0.0 -0.0015252805721447432 0.0 0.0
-0.0004882900457356454 0.00018534002211250658 0.0 -0.001959896683352141 0.0 0.0
-0.0007919161532678855 0.00038487306370370896 0.0 -0.001966702856990287 0.0 0.0
-0.001074737326422209 0.0005191247989071431 0.0 -0.0018932616996153377 0.0 0.0
-0.001455180894065988 0.0006671810948793956 0.0 -0.0018252674683836186 0.0 0.0
-0.0021611974980748883 0.001012967781982154 0.0 -0.00193502664191352 0.0 0.0
-0.0034759727790249044 0.0019374880312607264 0.0 -0.0025017988560044643 0.0 0.0
-0.0055361758856454345 0.0036806211465370726 0.0 -0.0036491933818601106 0.0 0.0
-0.008275410396823836 0.00617959195015252 0.0 -0.005226918547797369 0.0 0.0
-0.011541321162187118 0.009237308427347218 0.0 -0.006905135736445589 0.0 0.0
-0.015258474300323486 0.012751403119107076 0.0 -0.008544437361981837 0.0 0.0
-0.019464565673845413 0.01674597389274253 0.0 -0.010124469202622985 0.0 0.0
-0.024267461710056726 0.021339312669036298 0.0 -0.011719102498277817 0.0 0.0
-0.029775462148026767 0.02666251011860246 0.0 -0.013463105391846987 0.0 0.0
-0.035954670310489434 0.03272505385693257 0.0 -0.01569124071344856 0.0 0.0
-0.04238441781198117 0.03915866136161663 0.0 -0.0188869097228952 0.0 0.0
-0.04795969723124171 0.04491961652753219 0.0 -0.023195512088505836 0.0 0.0
-0.050620189990999376 0.047984534348298385 0.0 -0.027646084999177853 0.0 0.0
-0.04695753345345774 0.04507260607567607 0.0 -0.029678343154735227 0.0 0.0
-0.043018872096604016 0.031066846871133653 0.0 1.6341095143701523e-14 0.0 0.0
-0.04695753345345176 0.04507260607567381 0.0 0.0296783431547695 0.0 0.0
-0.05062018999098594 0.047984534348282495 0.0 0.027646084999210008 0.0 0.0
-0.04795969723122055 0.044919616527514854 0.0 0.02319551208852445 0.0 0.0
-0.04238441781195448 0.039158661361586536 0.0 0.018886909722895265 0.0 0.0
-0.03595467031046111 0.032725053856901845 0.0 0.015691240713442182 0.0 0.0
-0.02977546214799899 0.02666251011857646 0.0 0.013463105391837402 0.0 0.0
-0.02426746171002857 0.021339312669008514 0.0 0.011719102498267298 0.0 0.0
-0.019464565673817366 0.016745973892717893 0.0 0.010124469202611836 0.0 0.0
-0.015258474300296584 0.012751403119077274 0.0 0.008544437361966568 0.0 0.0
-0.01154132116216248 0.009237308427324014 0.0 0.006905135736427885 0.0 0.0
-0.008275410396804097 0.006179591950135162 0.0 0.005226918547784483 0.0 0.0
-0.005536175885631426 0.0036806211465230205 0.0 0.0036491933818532784 0.0 0.0
-0.0034759727790159723 0.0019374880312515658 0.0 0.002501798855999291 0.0 0.0
-0.002161197498069994 0.001012967781979104 0.0 0.001935026641911248 0.0 0.0
-0.0014551808940638249 0.0006671810948782501 0.0 0.0018252674683831476 0.0 0.0
-0.001074737326421209 0.000519124798907655 0.0 0.0018932616996134286 0.0 0.0
-0.0007919161532672632 0.00038487306370326487 0.0 0.0019667028569886947 0.0 0.0
-0.0004882900457352556 0.0001853400221114078 0.0 0.001959896683350117 0.0 0.0
-0.0001238522515321477 -0.00021494529909816537 0.0 0.0015252805721433923 0.0 0.0
7.124822187322364e-05 -0.0005957620004534134 0.0 0.0009290898391161864 0.0 0.0
7.700424315242789e-06 -0.000377905081742515 0.0 -0.0007651510896118143 0.0 0.0
-0.00018098418013230217 -0.0001493570111826257 0.0 -0.0013135695801975821 0.0 0.0
-0.0005649430623281844 0.0002201245994036956 0.0 -0.0017554705332954194 0.0 0.0
-0.0009307026180362444 0.00043674883588453524 0.0 -0.0017705287798906407 0.0 0.0
-0.0012905838941875754 0.000600520589180362 0.0 -0.001660511326325677 0.0 0.0
-0.0018120251738303512 0.0008175753366418461 0.0 -0.0015459302327009926 0.0 0.0
-0.0028020379183947984 0.0014016247461281054 0.0 -0.0017146991033695834 0.0 0.0
-0.0045640291847012515 0.0027808465382479775 0.0 -0.0024269542763111795 0.0 0.0
-0.007193195638684518 0.005124292299795973 0.0 -0.003722582703328753 0.0 0.0
-0.010578085862587006 0.00827257849403229 0.0 -0.0052912399452878485 0.0 0.0
-0.01459793350583645 0.012074972349346081 0.0 -0.006915825442365877 0.0 0.0
-0.01921526665848452 0.01646830249079849 0.0 -0.00851059538736995 0.0 0.0
-0.02447099445671254 0.02148808152536022 0.0 -0.010067281551905496 0.0 0.0
-0.030482952927560758 0.02726480402221595 0.0 -0.011663697879858211 0.0 0.0
-0.037390345664356534 0.033952573985685734 0.0 -0.013418544678957492 0.0 0.0
-0.045179068307993564 0.04159375975217485 0.0 -0.015574723197163506 0.0 0.0
-0.05334753400179204 0.04978200662702725 0.0 -0.018637015910084796 0.0 0.0
-0.060484796357427 0.057188642841140655 0.0 -0.023018017476708445 0.0 0.0
-0.06391636571421913 0.061175659939993784 0.0 -0.02810899171544135 0.0 0.0
-0.05956595172272443 0.05771234398442825 0.0 -0.03190596416676267 0.0 0.0
-0.05484755869824483 0.041283129268086145 0.0 1.531587356939923e-14 0.0 0.0
-0.05956595172271635 0.057712343984420156 0.0 0.031905964166798445 0.0 0.0
-0.06391636571420178 0.0611756599399739 0.0 0.02810899171547597 0.0 0.0
-0.060484796357402004 0.05718864284111702 0.0 0.02301801747672694 0.0 0.0
-0.05334753400176105 0.0497820066269946 0.0 0.01863701591008757 0.0 0.0
-0.045179068307959445 0.04159375975214184 0.0 0.015574723197157293 0.0 0.0
-0.03739034566432237 0.033952573985651165 0.0 0.013418544678949675 0.0 0.0
-0.03048295292752646 0.027264804022181236 0.0 0.011663697879848365 0.0 0.0
-0.024470994456678444 0.021488081525327326 0.0 0.010067281551894942 0.0 0.0
-0.01921526665845188 0.01646830249076758 0.0 0.008510595387355758 0.0 0.0
-0.014597933505806973 0.01207497234931481 0.0 0.006915825442349333 0.0 0.0
-0.0105780858625626 0.008272578494011452 0.0 0.005291239945275536 0.0 0.0
-0.007193195638666267 0.005124292299778036 0.0 0.003722582703319777 0.0 0.0
-0.004564029184689086 0.002780846538236076 0.0 0.0024269542763061536 0.0 0.0
-0.002802037918388376 0.0014016247461237877 0.0 0.0017146991033664817 0.0 0.0
-0.0018120251738279166 0.000817575336640885 0.0 0.0015459302326997746 0.0 0.0
-0.0012905838941863787 0.0006005205891787008 0.0 0.0016605113263236436 0.0 0.0
-0.0009307026180352756 0.0004367488358837081 0.0 0.0017705287798878526 0.0 0.0
-0.0005649430623276614 0.00022012459940302066 0.0 0.0017554705332945733 0.0 0.0
-0.00018098418013234424 -0.00014935701118286635 0.0 0.0013135695801962158 0.0 0.0
7.700424315082193e-06 -0.0003779050817419323 0.0 0.0007651510896114753 0.0 0.0
-4.6228213879370315e-05 -0.00020738572855060527 0.0 -0.0005990734048316179 0.0 0.0
-0.00023258448519563284 -8.21177738315584e-05 0.0 -0.0010800195232908898 0.0 0.0
-0.0006384021726322214 0.0002558286796212674 0.0 -0.0015020466523833422 0.0 0.0
-0.0010621464621912583 0.000484553151552706 0.0 -0.0015192470991002745 0.0 0.0
-0.0015052146611457154 0.000673184752878291 0.0 -0.0013748996304404845 0.0 0.0
-0.0021960895211991576 0.001001405869319291 0.0 -0.0012452157045402497 0.0 0.0
-0.003511124922332921 0.0018935259953135036 0.0 -0.0014689552009408858 0.0 0.0
-0.005733862470288965 0.0037672553311666537 0.0 -0.002286062680597888 0.0 0.0
-0.00889292886521968 0.006651124819825136 0.0 -0.0035113992648422737 0.0 0.0
-0.012894973967002434 0.010412767219124546 0.0 -0.004923572058193062 0.0 0.0
-0.017671136016281706 0.014953692017768916 0.0 -0.00641033810090838 0.0 0.0
-0.02319231064080252 0.020227767232242944 0.0 -0.007867202574363522 0.0 0.0
-0.029510245052667264 0.026286348550954353 0.0 -0.00930574650935729 0.0 0.0
-0.0367470635637218 0.03326281261462448 0.0 -0.010817114112305985 0.0 0.0
-0.04502939231744851 0.04130261764101988 0.0 -0.012481509459528025 0.0 0.0
-0.05435058438769337 0.050446078576391516 0.0 -0.014380110084575218 0.0 0.0
-0.06417747976617919 0.06028262328016852 0.0 -0.016873630474004118 0.0 0.0
-0.07282929002225029 0.06928286825421603 0.0 -0.020764647943431296 0.0 0.0
-0.07708617925048711 0.07425337377742457 0.0 -0.026437959489546737 0.0 0.0
-0.07224258591016207 0.07045467741828698 0.0 -0.033125143332223106 0.0 0.0
-0.06687254859834435 0.051837475982441227 0.0 1.4889998956046924e-14 0.0 0.0
-0.07224258591015142 0.07045467741827463 0.0 0.03312514333225768 0.0 0.0
-0.07708617925046603 0.07425337377740422 0.0 0.026437959489578253 0.0 0.0
-0.07282929002222058 0.06928286825418883 0.0 0.02076464794344765 0.0 0.0
-0.06417747976614324 0.0602826232801356 0.0 0.016873630474008652 0.0 0.0
-0.054350584387653805 0.05044607857635719 0.0 0.014380110084572104 0.0 0.0
-0.045029392317408094 0.04130261764097841 0.0 0.012481509459521527 0.0 0.0
-0.03674706356368105 0.033262812614585455 0.0 0.010817114112298888 0.0 0.0
-0.029510245052626997 0.026286348550917833 0.0 0.009305746509349113 0.0 0.0
-0.02319231064076412 0.020227767232206026 0.0 0.007867202574349643 0.0 0.0
-0.017671136016247067 0.014953692017735148 0.0 0.006410338100893081 0.0 0.0
-0.012894973966974147 0.01041276721909855 0.0 0.004923572058180782 0.0 0.0
-0.008892928865197861 0.006651124819802129 0.0 0.0035113992648326663 0.0 0.0
-0.005733862470274038 0.0037672553311539304 0.0 0.0022860626805910984 0.0 0.0
-0.0035111249223245843 0.0018935259953059783 0.0 0.0014689552009366463 0.0 0.0
-0.002196089521195415 0.001001405869317508 0.0 0.0012452157045392122 0.0 0.0
-0.0015052146611442218 0.0006731847528768421 0.0 0.001374899630439835 0.0 0.0
-0.0010621464621903246 0.0004845531515521536 0.0 0.0015192470990983199 0.0 0.0
-0.0006384021726316383 0.0002558286796207698 0.0 0.0015020466523831206 0.0 0.0
-0.0002325844851956987 -8.211777383118702e-05 0.0 0.0010800195232904162 0.0 0.0
-4.622821387996356e-05 -0.00020738572855038027 0.0 0.0005990734048313659 0.0 0.0
-8.78094999314018e-05 -8.482319143970461e-05 0.0 -0.00043473398505191306 0.0 0.0
-0.0002755926307899818 -1.8060684155026515e-05 0.0 -0.0008273439344384406 0.0 0.0
-0.0007069327694745355 0.0002907163036255261 0.0 -0.0011986568539372495 0.0 0.0
-0.0011885539713934023 0.0005281073141806257 0.0 -0.001211817056144846 0.0 0.0
-0.0017267904211127048 0.0007474073470301778 0.0 -0.0010417638728594724 0.0 0.0
-0.002622384606334211 0.0012331833829641126 0.0 -0.0009111585013801828 0.0 0.0
-0.004294414758480699 0.0025037780104097463 0.0 -0.0012115460205990945 0.0 0.0
-0.006947752575510996 0.00483697624706627 0.0 -0.0019714232904565485 0.0 0.0
-0.010598584751436187 0.008210875386687005 0.0 -0.0029764661990534136 0.0 0.0
-0.015215124523895528 0.012575990503391806 0.0 -0.004160537865780246 0.0 0.0
-0.020744413132342866 0.017850201528382317 0.0 -0.0054084829548298905 0.0 0.0
-0.027175761462587718 0.024009821142272233 0.0 -0.0066337914837854735 0.0 0.0
-0.034571253111455584 0.031120298515922858 0.0 -0.007853275442243466 0.0 0.0
-0.043039856866960796 0.039312721679799274 0.0 -0.009172248274704599 0.0 0.0
-0.052673652972538405 0.04869276966069313 0.0 -0.01065436654284201 0.0 0.0
-0.06341474306636674 0.059232140831397564 0.0 -0.012213651584020825 0.0 0.0
-0.07472565631330061 0.0705069749698406 0.0 -0.013836818596308365 0.0 0.0
-0.08486041607089423 0.08101711020119988 0.0 -0.016504779525163535 0.0 0.0
-0.090189231491729 0.08723286562996209 0.0 -0.022524676459355412 0.0 0.0
-0.08524619431177569 0.08358144344048313 0.0 -0.03310323119280048 0.0 0.0
-0.07942309122934291 0.06308729943784595 0.0 1.4188303310014305e-14 0.0 0.0
-0.08524619431176354 0.08358144344046514 0.0 0.03310323119283137 0.0 0.0
-0.09018923149170481 0.08723286562994036 0.0 0.022524676459384073 0.0 0.0
-0.08486041607085952 0.08101711020116374 0.0 0.016504779525175848 0.0 0.0
-0.07472565631325909 0.07050697496979992 0.0 0.013836818596311046 0.0 0.0
-0.06341474306632142 0.05923214083136011 0.0 0.012213651584018577 0.0 0.0
-0.05267365297249163 0.04869276966064034 0.0 0.010654366542836524 0.0 0.0
-0.04303985686691384 0.03931272167975493 0.0 0.00917224827469866 0.0 0.0
-0.03457125311140973 0.03112029851587724 0.0 0.007853275442236376 0.0 0.0
-0.027175761462543954 0.024009821142232254 0.0 0.006633791483775495 0.0 0.0
-0.020744413132303362 0.01785020152834689 0.0 0.005408482954817881 0.0 0.0
-0.015215124523862953 0.012575990503361766 0.0 0.004160537865768706 0.0 0.0
-0.010598584751411013 0.0082108753866646 0.0 0.002976466199046196 0.0 0.0
-0.0069477525754930766 0.004836976247050024 0.0 0.001971423290451 0.0 0.0
-0.00429441475846991 0.0025037780103999343 0.0 0.0012115460205955788 0.0 0.0
-0.0026223846063292214 0.001233183382962442 0.0 0.000911158501378817 0.0 0.0
-0.0017267904211109727 0.000747407347029715 0.0 0.001041763872859557 0.0 0.0
-0.001188553971392515 0.0005281073141799719 0.0 0.0012118170561439352 0.0 0.0
-0.0007069327694737609 0.00029071630362467716 0.0 0.0011986568539358662 0.0 0.0
-0.00027559263078975806 -1.8060684154580634e-05 0.0 0.0008273439344377453 0.0 0.0
-8.780949993125568e-05 -8.482319143971839e-05 0.0 0.0004347339850525006 0.0 0.0
-0.00011238519137502683 -1.1138826338853476e-05 0.0 -0.00028154410834590874 0.0 0.0
-0.0003044760136561419 3.673844232036027e-05 0.0 -0.0005591313108317789 0.0 0.0
-0.0007675266341001817 0.0003214650476300123 0.0 -0.0008396797491428061 0.0 0.0
-0.0013137796896117583 0.000569243922457814 0.0 -0.0008439744635577999 0.0 0.0
-0.001966863567048621 0.0008351648346656925 0.0 -0.0006673453572550972 0.0 0.0
-0.003106459037511287 0.0015454692294797356 0.0 -0.0005693500510030177 0.0 0.0
-0.005126941131837783 0.0032068095686948878 0.0 -0.0008776783968384946 0.0 0.0
-0.008173490207808718 0.005936579658351298 0.0 -0.001419808332817444 0.0 0.0
-0.012302449594719546 0.009786238076218578 0.0 -0.002151101108727151 0.0 0.0
-0.017522324049188676 0.014741480900191065 0.0 -0.003012914221378788 0.0 0.0
-0.023803805997810006 0.020745596118229716 0.0 -0.0039238255884395095 0.0 0.0
-0.031150733911328575 0.02779661193761957 0.0 -0.0048172986258175985 0.0 0.0
-0.039632488790901775 0.03597185334453249 0.0 -0.005720230410465866 0.0 0.0
-0.04934838619698492 0.045391524582211566 0.0 -0.006743971615460046 0.0 0.0
-0.06031365051919059 0.05609952327197071 0.0 -0.007912465726483157 0.0 0.0
-0.07234083890273589 0.06793938328199346 0.0 -0.00906135716654764 0.0 0.0
-0.08486942168940834 0.08038584264358618 0.0 -0.009894444856141573 0.0 0.0
-0.09639879204557181 0.092127609846506 0.0 -0.010901048111452451 0.0 0.0
-0.10320562923610573 0.09998011652317465 0.0 -0.01574921395444037 0.0 0.0
-0.09885047910813347 0.09742767084037171 0.0 -0.030921768807763476 0.0 0.0
-0.09292957881143869 0.07556117869671752 0.0 1.1315601233796713e-14 0.0 0.0
-0.09885047910811899 0.09742767084035202 0.0 0.03092176880778727 0.0 0.0
-0.10320562923607764 0.09998011652314776 0.0 0.01574921395446454 0.0 0.0
-0.09639879204553227 0.092127609846463 0.0 0.010901048111462428 0.0 0.0
-0.08486942168936103 0.08038584264354118 0.0 0.009894444856144317 0.0 0.0
-0.07234083890268493 0.06793938328194912 0.0 0.009061357166547941 0.0 0.0
-0.060313650519138166 0.0560995232719136 0.0 0.007912465726480484 0.0 0.0
-0.04934838619693168 0.04539152458216043 0.0 0.006743971615455589 0.0 0.0
-0.039632488790849574 0.03597185334447829 0.0 0.005720230410461201 0.0 0.0
-0.031150733911279354 0.027796611937576876 0.0 0.004817298625811726 0.0 0.0
-0.023803805997766082 0.0207455961181868 0.0 0.0039238255884303675 0.0 0.0
-0.017522324049152407 0.014741480900157651 0.0 0.003012914221369861 0.0 0.0
-0.012302449594691223 0.009786238076195608 0.0 0.0021511011087214033 0.0 0.0
-0.008173490207788285 0.0059365796583336706 0.0 0.001419808332813725 0.0 0.0
-0.0051269411318248855 0.003206809568684265 0.0 0.000877678396835435 0.0 0.0
-0.0031064590375046762 0.0015454692294765255 0.0 0.0005693500510025178 0.0 0.0
-0.001966863567046207 0.0008351648346639917 0.0 0.0006673453572544541 0.0 0.0
-0.0013137796896108929 0.0005692439224574661 0.0 0.0008439744635577277 0.0 0.0
-0.0007675266340994789 0.00032146504763019574 0.0 0.0008396797491411962 0.0 0.0
-0.00030447601365590803 3.6738442320317336e-05 0.0 0.0005591313108307972 0.0 0.0
-0.00011238519137509256 -1.1138826338802817e-05 0.0 0.0002815441083457842 0.0 0.0
-0.00011189177625257085 1.3669485304802847e-05 0.0 -0.0001604841794708248 0.0 0.0
-0.00030978186624354144 7.268234975076856e-05 0.0 -0.00027994901120636953 0.0 0.0
-0.0008153983426214542 0.00034310232964073585 0.0 -0.0004105492467312982 0.0 0.0
-0.0014450402366678798 0.0006130621314636037 0.0 -0.00040805967532742056 0.0 0.0
-0.0022440786697871143 0.000957219749605071 0.0 -0.00026688431039101416 0.0 0.0
-0.0036429832058158876 0.001943685841213676 0.0 -0.00021399424845778452 0.0 0.0
-0.005986114844562093 0.003958657753545158 0.0 -0.00039427211418271773 0.0 0.0
-0.009397671965331355 0.007051106039239129 0.0 -0.0006706137701727299 0.0 0.0
-0.013988637289767871 0.011358512173919153 0.0 -0.00104143030306984 0.0 0.0
-0.019801535620025585 0.01688961528620052 0.0 -0.0014889535925602195 0.0 0.0
-0.026833004408781336 0.023621964479620717 0.0 -0.001957551568898765 0.0 0.0
-0.03510332223875018 0.03157450622357011 0.0 -0.0024203931413575254 0.0 0.0
-0.04468460051395027 0.04082664102558918 0.0 -0.0029305081536023397 0.0 0.0
-0.055639411311202105 0.05146717401390172 0.0 -0.0035237088424655678 0.0 0.0
-0.06791066606069837 0.06348100357549234 0.0 -0.004198364650985045 0.0 0.0
-0.0811644792421726 0.0765726918898933 0.0 -0.00486148412109067 0.0 0.0
-0.09464954723075694 0.09000622030462728 0.0 -0.005227053611387212 0.0 0.0
-0.10710735604689303 0.1024920127627051 0.0 -0.005159559881120732 0.0 0.0
-0.11582268754285416 0.11170815357572769 0.0 -0.0069933006485569296 0.0 0.0
-0.11343835245714891 0.11217832179870946 0.0 -0.021998846408936505 0.0 0.0
-0.10811850679668619 0.09083386505031482 0.0 6.07413425113279e-15 0.0 0.0
-0.11343835245713235 0.112178321798691 0.0 0.021998846408950487 0.0 0.0
-0.115822687542822 0.11170815357569502 0.0 0.006993300648569753 0.0 0.0
-0.10710735604684772 0.10249201276265692 0.0 0.005159559881126732 0.0 0.0
-0.09464954723070342 0.09000622030457912 0.0 0.005227053611388801 0.0 0.0
-0.08116447924211576 0.0765726918898383 0.0 0.004861484121091858 0.0 0.0
-0.0679106660606398 0.06348100357543206 0.0 0.004198364650982076 0.0 0.0
-0.055639411311142695 0.05146717401384598 0.0 0.0035237088424634995 0.0 0.0
-0.04468460051389196 0.04082664102552935 0.0 0.0029305081535999054 0.0 0.0
-0.03510332223869544 0.03157450622351761 0.0 0.0024203931413534154 0.0 0.0
-0.02683300440873332 0.023621964479574403 0.0 0.0019575515688924432 0.0 0.0
-0.01980153561998553 0.016889615286165963 0.0 0.0014889535925559582 0.0 0.0
-0.013988637289736339 0.011358512173890665 0.0 0.001041430303066704 0.0 0.0
-0.009397671965308614 0.0070511060392186905 0.0 0.0006706137701708785 0.0 0.0
-0.005986114844547078 0.00395865775353269 0.0 0.000394272114180751 0.0 0.0
-0.003642983205808117 0.0019436858412081545 0.0 0.00021399424845765529 0.0 0.0
-0.0022440786697843704 0.000957219749602249 0.0 0.0002668843103908288 0.0 0.0
-0.001445040236666766 0.000613062131463482 0.0 0.0004080596753271936 0.0 0.0
-0.0008153983426207658 0.0003431023296406858 0.0 0.00041054924673020665 0.0 0.0
-0.000309781866243409 7.268234975060083e-05 0.0 0.0002799490112052576 0.0 0.0
-0.00011189177625259115 1.3669485304873688e-05 0.0 0.00016048417947075585 0.0 0.0
-7.157577712636305e-05 1.3965212673985132e-05 0.0 -0.00010089011415470327 0.0 0.0
-0.00027520002563672264 8.441396357887943e-05 0.0 -0.00011619698863256017 0.0 0.0
-0.0008438789757386606 0.00035096502849241227 0.0 -0.00014002557507553 0.0 0.0
-0.00159645241739721 0.0006363421338883012 0.0 -0.00012385176979944204 0.0 0.0
-0.0025712823141126953 0.001031097495004293 0.0 4.451741408633954e-05 0.0 0.0
-0.004219660287951757 0.0021601470043062167 0.0 0.00019912662884719875 0.0 0.0
-0.006854832510345248 0.0043421670664969755 0.0 0.000247361237412967 0.0 0.0
-0.01060953937374703 0.007610698134260798 0.0 0.0002653314691999695 0.0 0.0
-0.015643022231891294 0.012141238032418051 0.0 0.0002614490797172512 0.0 0.0
-0.022036339621112795 0.01795715834230708 0.0 0.0002132556683130224 0.0 0.0
-0.02981770366105418 0.02505273307673623 0.0 0.00016753239843187318 0.0 0.0
-0.03902493455662434 0.03346021299470243 0.0 0.00012094841151257972 0.0 0.0
-0.049702285550504176 0.04325331337867072 0.0 1.0416351301298886e-05 0.0 0.0
-0.06187595930789362 0.05449875964216373 0.0 -0.000131393759600691 0.0 0.0
-0.07543191730352188 0.06716002795274278 0.0 -0.00037277263987284433 0.0 0.0
-0.08989517563605795 0.0808713785785035 0.0 -0.0007030233558250037 0.0 0.0
-0.10426984772410729 0.09477145042811891 0.0 -0.0009979274681836195 0.0 0.0
-0.11705738101425871 0.10749806431392775 0.0 -0.0010153754422208283 0.0 0.0
-0.12663446220514085 0.11715426075665551 0.0 -0.0015233893606165592 0.0 0.0
-0.12900996244668878 0.11977778212068396 0.0 -0.015640524681455038 0.0 0.0
-0.1275911686447747 0.09948109277107249 0.0 2.7408630920433552e-15 0.0 0.0
-0.12900996244667085 0.11977778212066781 0.0 0.0156405246814598 0.0 0.0
-0.12663446220510421 0.11715426075662082 0.0 0.0015233893606201206 0.0 0.0
-0.11705738101420672 0.10749806431387623 0.0 0.001015375442222563 0.0 0.0
-0.10426984772404711 0.09477145042806892 0.0 0.0009979274681823774 0.0 0.0
-0.0898951756359949 0.08087137857844195 0.0 0.0007030233558263047 0.0 0.0
-0.07543191730345683 0.0671600279526792 0.0 0.0003727726398694547 0.0 0.0
-0.061875959307827855 0.05449875964210432 0.0 0.00013139375960108477 0.0 0.0
-0.049702285550440345 0.04325331337860698 0.0 -1.041635130103434e-05 0.0 0.0
-0.039024934556564514 0.0334602129946436 0.0 -0.00012094841151503045 0.0 0.0
-0.029817703661001525 0.025052733076690512 0.0 -0.0001675323984337996 0.0 0.0
-0.02203633962106899 0.017957158342273637 0.0 -0.00021325566831353502 0.0 0.0
-0.015643022231856638 0.012141238032387728 0.0 -0.0002614490797189753 0.0 0.0
-0.010609539373721664 0.0076106981342383626 0.0 -0.00026533146920038877 0.0 0.0
-0.0068548325103284565 0.004342167066481896 0.0 -0.0002473612374132969 0.0 0.0
-0.00421966028794236 0.0021601470043006495 0.0 -0.00019912662884671482 0.0 0.0
-0.002571282314108711 0.0010310974950022349 0.0 -4.451741408585241e-05 0.0 0.0
-0.0015964524173958062 0.000636342133887657 0.0 0.00012385176979939832 0.0 0.0
-0.000843878975737805 0.0003509650284914984 0.0 0.00014002557507373185 0.0 0.0
-0.00027520002563629427 8.441396357877488e-05 0.0 0.00011619698863089068 0.0 0.0
-7.157577712623917e-05 1.3965212674030675e-05 0.0 0.00010089011415531681 0.0 0.0
SCALARS Statev float 8
LOOKUP_TABLE default
0.0 0.015691987018980738 0.01248460411561663 -0.015018525070738486 0.0025339209551218625 -0.000654138364707499 0.0 0.0
0.0 0.005020253321866118 0.0036273686552072246 -0.002125452673906119 -0.001501915981301103 -0.006017333433544666 0.0 0.0
0.0 2.017033607684388e-05 6.151200564431717e-05 -3.973177493614588e-05 -2.1780230708171444e-05 -0.000167113387130965 0.0 0.0
0.0 0.00010398235285940461 2.062492723316814e-05 -1.4638809436422465e-05 -5.98611779674578e-06 9.303630118047852e-06 0.0 0.0
0.0 0.0006470926316636012 0.00034421359005047214 -0.00024904976307108055 -9.51638269793921e-05 8.221929823728985e-05 0.0 0.0
0.0 0.0015702391285257258 0.0016075774996692298 -0.0012457394982636355 -0.0003618380014055938 0.00017063951237799587 0.0 0.0
0.0 0.004167531322081518 0.0038529989615228126 -0.0032049272206726084 -0.0006480717408502049 0.00023732953805101248 0.0 0.0
0.0 0.008006474847205248 0.007301719358142969 -0.006402485331621185 -0.0008992340265217861 0.0002721990014904378 0.0 0.0
0.0 0.0133665878294275 0.012037122746661728 -0.01093158824497191 -0.0011055345016898121 0.00028206449214142673 0.0 0.0
0.0 0.02033769959049817 0.01810926753566445 -0.016798408741128805 -0.0013108587945356604 0.0002527626725045782 0.0 0.0
0.0 0.028934828527664082 0.025543713929214354 -0.024000363489669184 -0.0015433504395451392 0.00022430106901509588 0.0 0.0
0.0 0.038880414551077255 0.03438914318589857 -0.032578968448855716 -0.0018101747370428435 0.000190296236310311 0.0 0.0
0.0 0.050593078453894026 0.044696890673897746 -0.04259345989921323 -0.0021034307746845217 8.651092154982802e-05 0.0 0.0
0.0 0.06406582684956341 0.056514190742976964 -0.05410045362707802 -0.0024137371158988925 -3.494004478820658e-05 0.0 0.0
0.0 0.07926218193892928 0.06980511502452873 -0.06707999404160875 -0.002725120982919908 -0.00022888949136793432 0.0 0.0
0.0 0.09590106205844526 0.08428747692334605 -0.0812667605674233 -0.003020716355922725 -0.0005097768527282521 0.0 0.0
0.0 0.11319804028345115 0.09931237684546967 -0.09602699536266338 -0.003285381482806338 -0.0008332575897881502 0.0 0.0
0.0 0.12993994844975215 0.11383879756745194 -0.11033520659743089 -0.003503590970020852 -0.001075046401398739 0.0 0.0
0.0 0.1445823596562586 0.1265357237648421 -0.12286855205317364 -0.00366717171166858 -0.0010648285006866322 0.0 0.0
0.0 0.15514872796241616 0.13587785591311888 -0.1321210440616439 -0.003756811851475053 -0.0010716925555537072 0.0 0.0
0.0 0.15935800664133323 0.13954964745561543 -0.13580357705541007 -0.0037460704002053 1.9029916531465574e-15 0.0 0.0
0.0 0.15514872796239768 0.13587785591310222 -0.13212104406162806 -0.0037568118514741122 0.00107169255556032 0.0 0.0
0.0 0.14458235965622246 0.12653572376481018 -0.12286855205314341 -0.003667171711666793 0.0010648285006910957 0.0 0.0
0.0 0.1299399484496923 0.11383879756739979 -0.11033520659737947 -0.00350359097002031 0.0010750464014011628 0.0 0.0
0.0 0.11319804028338838 0.09931237684541493 -0.09602699536261036 -0.003285381482804614 0.0008332575897873618 0.0 0.0
0.0 0.09590106205837172 0.084287476923282 -0.08126676056735936 -0.003020716355922679 0.0005097768527263973 0.0 0.0
0.0 0.07926218193886048 0.06980511502446872 -0.06707999404154982 -0.0027251209829188 0.0002288894913676895 0.0 0.0
0.0 0.06406582684949556 0.05651419074291732 -0.05410045362702053 -0.002413737115896804 3.49400447875025e-05 0.0 0.0
0.0 0.05059307845382591 0.044696890673838134 -0.04259345989915524 -0.0021034307746828577 -8.651092155234131e-05 0.0 0.0
0.0 0.038880414551014805 0.03438914318584368 -0.032578968448802405 -0.0018101747370412838 -0.00019029623631174617 0.0 0.0
0.0 0.028934828527611187 0.025543713929167915 -0.02400036348962412 -0.0015433504395437837 -0.0002243010690164554 0.0 0.0
0.0 0.020337699590452632 0.018109267535624574 -0.016798408741090225 -0.0013108587945343771 -0.00025276267250596424 0.0 0.0
0.0 0.01336658782939832 0.012037122746635657 -0.010931588244946971 -0.0011055345016886663 -0.0002820644921413987 0.0 0.0
0.0 0.008006474847180419 0.0073017193581202955 -0.00640248533159978 -0.0008992340265205174 -0.0002721990014901896 0.0 0.0
0.0 0.004167531322068768 0.003852998961510344 -0.003204927220661483 -0.0006480717408488576 -0.00023732953805074728 0.0 0.0
0.0 0.001570239128519905 0.001607577499662939 -0.0012457394982585191 -0.00036183800140441853 -0.00017063951237742897 0.0 0.0
0.0 0.0006470926316607468 0.0003442135900488456 -0.0002490497630699231 -9.516382697892156e-05 -8.221929823682627e-05 0.0 0.0
0.0 0.00010398235285866485 2.0624927233284515e-05 -1.4638809436516299e-05 -5.986117796767751e-06 -9.303630118016342e-06 0.0 0.0
0.0 2.0170336076026446e-05 6.151200564372753e-05 -3.973177493574122e-05 -2.178023070798589e-05 0.00016711338712991884 0.0 0.0
0.0 0.005020253321856958 0.0036273686552023895 -0.002125452673902798 -0.001501915981299584 0.0060173334335363125 0.0 0.0
0.0 0.015691987018961136 0.012484604115603199 -0.015018525070719956 0.0025339209551167485 0.0006541383646751103 0.0 0.0
0.0 0.01265466195945244 0.009376419514404637 -0.012284805638997864 0.0029083861245932227 -0.00020053318538244304 0.0 0.0
0.0 0.002935068684885218 0.0020968348920773084 -0.001193514690375945 -0.000903320201701363 -0.004553299731689125 0.0 0.0
0.0 -3.8627263256227284e-05 -4.670990297047287e-05 3.963025418991744e-05 7.079648780555457e-06 -3.3998078807306535e-05 0.0 0.0
0.0 9.927765180790288e-06 1.6762270630522397e-06 -1.1213871605826058e-06 -5.548399024696736e-07 4.841258564479834e-06 0.0 0.0
0.0 0.00030333027882021825 0.00020020135315827484 -0.00014593589056539953 -5.426546259287516e-05 3.373876887630891e-05 0.0 0.0
0.0 0.001397367737073106 0.001164956727061771 -0.0009107188234580894 -0.0002542379036036839 5.065685286421893e-05 0.0 0.0
0.0 0.00347462224806563 0.003213660637720123 -0.0027010081077055723 -0.000512652530014546 -0.00011656684259522376 0.0 0.0
0.0 0.00703452073997116 0.0063691851825783226 -0.005653031670527844 -0.0007161535120504822 -0.00038389981210242176 0.0 0.0
0.0 0.012032069925388515 0.010732684116133885 -0.009879634957386356 -0.0008530491587475254 -0.0007518291445193329 0.0 0.0
0.0 0.01845664180364836 0.01632235762055564 -0.015360940584543912 -0.0009614170360117262 -0.00119418651533834 0.0 0.0
0.0 0.026331137170967217 0.023135989384384117 -0.022070090318609976 -0.0010658990657741738 -0.0016636014718695558 0.0 0.0
0.0 0.03578765650922959 0.03120182850761418 -0.03002827929512808 -0.0011735492124860661 -0.002136677495342588 0.0 0.0
0.0 0.046334804816831235 0.040604026145879664 -0.03932008472971835 -0.0012839414161612576 -0.0026637895148969005 0.0 0.0
0.0 0.05879130549822896 0.05140871291865721 -0.050018652335682014 -0.0013900605829751766 -0.0032620715256281353 0.0 0.0
0.0 0.07283725247701527 0.06359723365167298 -0.06211650017331644 -0.001480733478356506 -0.003923016018663958 0.0 0.0
0.0 0.08822354617347032 0.07692320978615366 -0.07537686570818414 -0.0015463440779695471 -0.004611036904542568 0.0 0.0
0.0 0.10429888320796127 0.09079810344416094 -0.08921709171392789 -0.0015810117302329629 -0.005163600503191694 0.0 0.0
0.0 0.11996099341246834 0.10427334265771118 -0.10268715502447837 -0.0015861876332329229 -0.0052879954223516495 0.0 0.0
0.0 0.13369617130402794 0.11608850202313697 -0.11452491331162212 -0.0015635887115147179 -0.004723988866449005 0.0 0.0
0.0 0.14367758216101367 0.12462161844975607 -0.12313979621892596 -0.0014818222308300582 -0.003665066602253077 0.0 0.0
0.0 0.1477845222954496 0.12791255578563923 -0.1265574493151957 -0.0013551064704436402 4.924012586560167e-15 0.0 0.0
0.0 0.14367758216099652 0.12462161844974068 -0.12313979621891095 -0.0014818222308296864 0.0036650666022680508 0.0 0.0
0.0 0.13369617130399442 0.11608850202310761 -0.11452491331159344 -0.0015635887115141474 0.004723988866462655 0.0 0.0
0.0 0.11996099341241313 0.1042733426576637 -0.10268715502443032 -0.001586187633233307 0.005287995422359839 0.0 0.0
0.0 0.1042988832079058 0.09079810344411324 -0.08921709171388056 -0.0015810117302326398 0.0051636005031929465 0.0 0.0
0.0 0.08822354617340707 0.0769232097860987 -0.0753768657081294 -0.0015463440779691876 0.004611036904539633 0.0 0.0
0.0 0.07283725247695098 0.06359723365161708 -0.06211650017326112 -0.001480733478356012 0.0039230160186625 0.0 0.0
0.0 0.0587913054981655 0.0514087129186021 -0.050018652335627356 -0.0013900605829747143 0.0032620715256266924 0.0 0.0
0.0 0.046334804816769055 0.04060402614582577 -0.03932008472966515 -0.001283941416160597 0.0026637895148933326 0.0 0.0
0.0 0.0357876565091719 0.031201828507563836 -0.03002827929507803 -0.0011735492124857843 0.002136677495338622 0.0 0.0
0.0 0.02633113717091732 0.023135989384340822 -0.022070090318567173 -0.0010658990657736774 0.0016636014718645685 0.0 0.0
0.0 0.018456641803606812 0.016322357620518882 -0.015360940584507703 -0.000961417036011164 0.0011941865153344553 0.0 0.0
0.0 0.012032069925361849 0.010732684116109647 -0.009879634957363001 -0.0008530491587466502 0.0007518291445173244 0.0 0.0
0.0 0.007034520739947585 0.006369185182556917 -0.005653031670507288 -0.0007161535120496259 0.0003838998121001206 0.0 0.0
0.0 0.003474622248053565 0.003213660637708612 -0.002701008107695253 -0.000512652530013357 0.00011656684259423574 0.0 0.0
0.0 0.001397367737066444 0.0011649567270559887 -0.0009107188234533633 -0.0002542379036026255 -5.0656852864356026e-05 0.0 0.0
0.0 0.00030333027881803657 0.0002002013531570689 -0.0001459358905645424 -5.4265462592526835e-05 -3.3738768875984095e-05 0.0 0.0
0.0 9.92776518035391e-06 1.6762270633091968e-06 -1.1213871607795255e-06 -5.548399025294873e-07 -4.8412585644727085e-06 0.0 0.0
0.0 -3.8627263255929095e-05 -4.6709902970137426e-05 3.96302541896264e-05 7.079648780510894e-06 3.399807880708079e-05 0.0 0.0
0.0 0.002935068684876086 0.002096834892072304 -0.0011935146903725058 -0.0009033202016997986 0.004553299731679222 0.0 0.0
0.0 0.01265466195943177 0.009376419514388829 -0.012284805638977665 0.0029083861245888304 0.00020053318535872476 0.0 0.0
0.0 0.009257425657505869 0.0067083174066849445 -0.009047806128056595 0.002339488721371648 -0.00234104549337101 0.0 0.0
0.0 0.0020377782762066557 0.0012808461847302877 -0.0006547178192661215 -0.0006261283654641659 -0.0035831643681132814 0.0 0.0
0.0 2.5678426942533087e-08 -2.678779843523035e-09 2.105284134767642e-09 5.734957087552363e-10 -4.864799241920996e-10 0.0 0.0
0.0 1.829377099902605e-06 -1.0609902405698214e-07 8.132690320831025e-08 2.47721208485463e-08 2.6860071394845384e-08 0.0 0.0
0.0 9.592373486953822e-05 6.314808206232471e-05 -4.395553897693887e-05 -1.9192543085386112e-05 1.5201903424871129e-05 0.0 0.0
0.0 0.0009482028301043008 0.0007267672714308312 -0.0005540193889214881 -0.0001727478825093426 -1.9126089135737602e-05 0.0 0.0
0.0 0.0025933517529952155 0.0024594202699337337 -0.0020234474362892003 -0.00043597283364453537 -0.00034932853425785105 0.0 0.0
0.0 0.0057811482621467946 0.0052421730704878405 -0.004586932624026548 -0.0006552404464612913 -0.0008825973138672954 0.0 0.0
0.0 0.010221916789122877 0.0091448699473681 -0.008340068573331484 -0.0008048013740366142 -0.0016025882961439148 0.0 0.0
0.0 0.016026844305910573 0.014145450098209215 -0.013232092538142948 -0.000913357560066272 -0.0024553163936902353 0.0 0.0
0.0 0.023077337080191263 0.020214677299675514 -0.019202177334357102 -0.0010124999653183988 -0.003368079378080677 0.0 0.0
0.0 0.031271177207743736 0.027365365688085314 -0.026251723530924132 -0.0011136421571611558 -0.0042824988984802815 0.0 0.0
0.0 0.04104680974961427 0.03567315171061264 -0.03445614156299394 -0.0012170101476187297 -0.005219886655106325 0.0 0.0
0.0 0.05183252180416727 0.045251459650081705 -0.04393554720249503 -0.0013159124475866707 -0.00627285077284755 0.0 0.0
0.0 0.0643688970504245 0.05610131366206457 -0.054700332597891595 -0.0014009810641729989 -0.007454201978105482 0.0 0.0
0.0 0.07814449000376937 0.06802293783320278 -0.0665598019987824 -0.0014631358344203396 -0.008653877331999365 0.0 0.0
0.0 0.09260569103454067 0.08052240212849171 -0.07902371837983896 -0.0014986837486527722 -0.009589577584356624 0.0 0.0
0.0 0.10677594381153481 0.09276575604103107 -0.09126022449004859 -0.0015055315509823924 -0.00979677654110315 0.0 0.0
0.0 0.11929377920016507 0.10355327980168 -0.10207896135771538 -0.0014743184439645761 -0.008865636112031384 0.0 0.0
0.0 0.1283828007420406 0.11135225260035092 -0.10993390749106975 -0.001418345109281128 -0.006678700548785631 0.0 0.0
0.0 0.13225585369757456 0.11444082651708004 -0.11317964195369018 -0.0012611845633897663 9.936929751264145e-15 0.0 0.0
0.0 0.12838280074202385 0.11135225260033546 -0.10993390749105439 -0.0014183451092811953 0.006678700548810722 0.0 0.0
0.0 0.11929377920013465 0.10355327980165344 -0.10207896135768901 -0.001474318443964437 0.008865636112055573 0.0 0.0
0.0 0.10677594381148978 0.09276575604099184 -0.09126022449000948 -0.0015055315509822868 0.009796776541118025 0.0 0.0
0.0 0.0926056910344908 0.080522402128449 -0.07902371837979656 -0.0014986837486524538 0.009589577584358279 0.0 0.0
0.0 0.07814449000371661 0.06802293783315636 -0.06655980199873737 -0.0014631358344189892 0.00865387733199516 0.0 0.0
0.0 0.06436889705036827 0.05610131366201557 -0.0547003325978434 -0.001400981064172169 0.007454201978103477 0.0 0.0
0.0 0.0518325218041114 0.045251459650033146 -0.04393554720244699 -0.001315912447586168 0.0062728507728453215 0.0 0.0
0.0 0.04104680974955963 0.03567315171056525 -0.034456141562947074 -0.0012170101476181715 0.005219886655100273 0.0 0.0
0.0 0.03127117720769308 0.027365365688041585 -0.026251723530880695 -0.0011136421571608828 0.004282498898473109 0.0 0.0
0.0 0.023077337080146403 0.020214677299636025 -0.019202177334318143 -0.0010124999653178725 0.003368079378072562 0.0 0.0
0.0 0.016026844305874893 0.014145450098177553 -0.013232092538111737 -0.0009133575600658044 0.00245531639368342 0.0 0.0
0.0 0.010221916789096865 0.009144869947344769 -0.008340068573309036 -0.0008048013740357308 0.0016025882961393319 0.0 0.0
0.0 0.005781148262125534 0.005242173070468937 -0.00458693262400858 -0.0006552404464603555 0.0008825973138630561 0.0 0.0
0.0 0.002593351752985247 0.0024594202699241225 -0.0020234474362807705 -0.0004359728336433518 0.0003493285342558887 0.0 0.0
0.0 0.0009482028300985818 0.0007267672714261346 -0.000554019388917778 -0.00017274788250835603 1.9126089135200177e-05 0.0 0.0
0.0 9.592373486830501e-05 6.314808206193903e-05 -4.395553897668149e-05 -1.9192543085257563e-05 -1.5201903424645371e-05 0.0 0.0
0.0 1.8293770996295274e-06 -1.0609902402647743e-07 8.132690318546062e-08 2.4772120841038456e-08 -2.6860071395244992e-08 0.0 0.0
0.0 2.5678426919816804e-08 -2.678779841143436e-09 2.1052841328877173e-09 5.734957082559921e-10 4.864799235722653e-10 0.0 0.0
0.0 0.002037778276199674 0.0012808461847260589 -0.0006547178192633329 -0.0006261283654627246 0.0035831643681021306 0.0 0.0
0.0 0.00925742565748545 0.00670831740666987 -0.009047806128037123 0.002339488721367253 0.0023410454933550312 0.0 0.0
0.0 0.006897339084282062 0.004857050134143963 -0.006695130015810171 0.001838079881666201 -0.0025801715451534155 0.0 0.0
0.0 0.0014091059952323155 0.0008298159414419532 -0.0004080372712451806 -0.00042177867019677106 -0.0026041385501987683 0.0 0.0
0.0 0.0 0.0 0.0 0.0 0.0 0.0 0.0
0.0 -3.4216003969237645e-07 -7.836139164155759e-09 1.2312153465120962e-08 -4.476014300968813e-09 5.100631507588542e-09 0.0 0.0
0.0 1.992764386674068e-05 -3.139590075623078e-06 3.840695164327592e-06 -7.011050887042518e-07 1.2571287681120539e-05 0.0 0.0
0.0 0.0004847745234936773 0.0003988111278782819 -0.00029689310818609914 -0.00010191801969218215 -5.405256551239745e-05 0.0 0.0
0.0 0.0019915725542372265 0.0017230462902058426 -0.001382580408822657 -0.0003404658813831838 -0.0004053948225903167 0.0 0.0
0.0 0.0045643421163325685 0.004131793033720839 -0.0035521605725481443 -0.0005796324611726983 -0.0011771587457048611 0.0 0.0
0.0 0.008483437576657185 0.0075554732507060254 -0.006809252671419954 -0.0007462205792860733 -0.0021722458203357327 0.0 0.0
0.0 0.01360267394412287 0.01195672506802271 -0.01109742638084421 -0.0008592986871784982 -0.003347163722394442 0.0 0.0
0.0 0.01975259080904764 0.01728073431742405 -0.01632652574529691 -0.0009542085721271201 -0.004600415176635245 0.0 0.0
0.0 0.027054216733798722 0.023519048450448676 -0.022470586387680312 -0.0010484620627683597 -0.005852725273556984 0.0 0.0
0.0 0.03528936330139827 0.030750607604992677 -0.029605284946032207 -0.0011453226589604676 -0.007123466351708587 0.0 0.0
0.0 0.04516667195850814 0.03908316142225249 -0.03784673681728694 -0.0012364246049655582 -0.008506602476153856 0.0 0.0
0.0 0.05604275181721862 0.04857138606969164 -0.04725608928567826 -0.0013152967840133496 -0.010051924002700132 0.0 0.0
0.0 0.06801062416389629 0.05907385540570507 -0.0576976182456786 -0.001376237160026446 -0.011640015308361857 0.0 0.0
0.0 0.08094838632498372 0.07018693049246075 -0.06877393775736622 -0.0014129927350945086 -0.012900489287645733 0.0 0.0
0.0 0.09369428942439383 0.08119768518673053 -0.07977746736544424 -0.0014202178212862817 -0.013261866470910186 0.0 0.0
0.0 0.10504244747270045 0.09102223153062038 -0.08962758553901048 -0.0013946459916097977 -0.012133426568599332 0.0 0.0
0.0 0.11340791145145586 0.09828782804360192 -0.09693610619942708 -0.0013517218441749658 -0.008899123215682227 0.0 0.0
0.0 0.11724730590893305 0.10132133729193189 -0.10019088443274646 -0.0011304528591854447 1.3695208161967898e-14 0.0 0.0
0.0 0.11340791145144116 0.09828782804358795 -0.09693610619941292 -0.0013517218441750209 0.008899123215715066 0.0 0.0
0.0 0.10504244747267195 0.09102223153059509 -0.08962758553898482 -0.0013946459916102114 0.012133426568631001 0.0 0.0
0.0 0.09369428942435643 0.08119768518669772 -0.07977746736541123 -0.0014202178212864673 0.013261866470929511 0.0 0.0
0.0 0.08094838632493928 0.07018693049242263 -0.0687739377573285 -0.0014129927350940976 0.012900489287648547 0.0 0.0
0.0 0.06801062416384582 0.059073855405661437 -0.05769761824563487 -0.0013762371600265504 0.011640015308356289 0.0 0.0
0.0 0.0560427518171705 0.04857138606964976 -0.047256089285636974 -0.001315296784012859 0.010051924002695958 0.0 0.0
0.0 0.045166671958458686 0.039083161422209335 -0.03784673681724427 -0.0012364246049650454 0.008506602476149396 0.0 0.0
0.0 0.03528936330135076 0.030750607604951772 -0.02960528494599193 -0.0011453226589598284 0.007123466351701396 0.0 0.0
0.0 0.027054216733755864 0.023519048450411008 -0.022470586387643248 -0.0010484620627677847 0.005852725273547046 0.0 0.0
0.0 0.01975259080900916 0.017280734317390377 -0.016326525745263814 -0.0009542085721265549 0.00460041517662544 0.0 0.0
0.0 0.013602673944091518 0.011956725067995215 -0.011097426380817333 -0.0008592986871778706 0.003347163722385111 0.0 0.0
0.0 0.00848343757663197 0.007555473250683895 -0.0068092526713985045 -0.0007462205792853904 0.0021722458203288723 0.0 0.0
0.0 0.00456434211631619 0.0041317930337055305 -0.003552160572533911 -0.0005796324611716171 0.001177158745699793 0.0 0.0
0.0 0.0019915725542276647 0.0017230462901979143 -0.0013825804088159564 -0.000340465881381958 0.00040539482258781265 0.0 0.0
0.0 0.0004847745234896714 0.00039881112787546337 -0.0002968931081839497 -0.00010191801969151352 5.405256551186192e-05 0.0 0.0
0.0 1.9927643866112452e-05 -3.1395900753795763e-06 3.8406951641214494e-06 -7.01105088741909e-07 -1.2571287680813047e-05 0.0 0.0
0.0 -3.421600396086824e-07 -7.836139220628471e-09 1.2312153509403942e-08 -4.476014288763093e-09 -5.100631550283579e-09 0.0 0.0
0.0 0.0 0.0 0.0 0.0 0.0 0.0 0.0
0.0 0.0014091059952261468 0.0008298159414384139 -0.0004080372712428358 -0.0004217786701955801 0.0026041385501891726 0.0 0.0
0.0 0.006897339084265253 0.0048570501341308825 -0.006695130015793092 0.001838079881662217 0.0025801715451417894 0.0 0.0
0.0 0.004934701955746736 0.003461990984070373 -0.0048555069988598576 0.0013935160147894878 -0.0022310321187972736 0.0 0.0
0.0 0.0011235489603278626 0.0005063965267747628 -0.00023426034805011542 -0.00027213617872464714 -0.0017619221743387144 0.0 0.0
0.0 0.0 0.0 0.0 0.0 0.0 0.0 0.0
0.0 -2.1175026786527247e-07 1.9226471027512064e-08 -1.544969006812908e-08 -3.77678095938152e-09 -2.443498433731356e-08 0.0 0.0
0.0 -1.6723484451955415e-05 -8.454782283359638e-06 6.731446291169878e-06 1.7233359921897549e-06 7.704215013558335e-06 0.0 0.0
0.0 0.00021921156815200705 0.00014463895031699685 -0.00010411907130435116 -4.051987901264549e-05 -1.7785803749185094e-05 0.0 0.0
0.0 0.00140081541113055 0.0010830450574639404 -0.000846803648774481 -0.00023624140868945884 -0.0003770211223248514 0.0 0.0
0.0 0.0034123171732504997 0.0030556006513894718 -0.002566912963628524 -0.0004886876877609489 -0.0012274776224536828 0.0 0.0
0.0 0.006779735710875255 0.0059838318236079685 -0.005310442430802325 -0.0006733893928056419 -0.002453254487324564 0.0 0.0
0.0 0.011179461323569687 0.009774847942973033 -0.008978933049254633 -0.0007959148937183955 -0.003862152802160039 0.0 0.0
0.0 0.016525958239057302 0.014350216693431598 -0.013460715592122583 -0.0008895011013090137 -0.005358907520209646 0.0 0.0
0.0 0.022775045037315395 0.019683614768275272 -0.018706070912373307 -0.0009775438559019556 -0.00684755711109244 0.0 0.0
0.0 0.03004744625842555 0.025837683440366688 -0.024771155332246695 -0.0010665281081199685 -0.008348070803668419 0.0 0.0
0.0 0.038093468939386935 0.03293900344997937 -0.031787276003264836 -0.00115172744671452 -0.009962873385626922 0.0 0.0
0.0 0.047625703998116636 0.04105086311737006 -0.039825907802253424 -0.00122495531511664 -0.011741700095048583 0.0 0.0
0.0 0.058225850025559384 0.050101419667477554 -0.04881945207012695 -0.0012819675973505884 -0.013557929159539142 0.0 0.0
0.0 0.06931570428488129 0.05980065814515834 -0.05847973475039342 -0.001320923394764899 -0.015054180642022184 0.0 0.0
0.0 0.08058807755562075 0.0695644124731175 -0.06823026322342257 -0.0013341492496949938 -0.015628807256804655 0.0 0.0
0.0 0.09085466589935758 0.07847744728645674 -0.07716079179391903 -0.0013166554925377275 -0.014454775988594 0.0 0.0
0.0 0.09870968780399318 0.08533814111123142 -0.08405997776374866 -0.0012781633474826372 -0.010566584154330622 0.0 0.0
0.0 0.10264234203911718 0.08840490282370309 -0.08742759771667338 -0.0009773051070296951 1.546852923528519e-14 0.0 0.0
0.0 0.09870968780398266 0.08533814111122055 -0.08405997776373764 -0.001278163347482781 0.010566584154367783 0.0 0.0
0.0 0.09085466589933229 0.0784774472864336 -0.07716079179389573 -0.0013166554925379006 0.014454775988629629 0.0 0.0
0.0 0.08058807755558643 0.06956441247308744 -0.06823026322339189 -0.0013341492496955648 0.01562880725682554 0.0 0.0
0.0 0.06931570428484465 0.05980065814512663 -0.05847973475036229 -0.0013209233947643366 0.015054180642026696 0.0 0.0
0.0 0.05822585002551487 0.050101419667439265 -0.04881945207008858 -0.001281967597350655 0.013557929159531724 0.0 0.0
0.0 0.04762570399807518 0.04105086311733391 -0.039825907802217814 -0.0012249553151160988 0.011741700095042946 0.0 0.0
0.0 0.03809346893934466 0.03293900344994262 -0.03178727600322855 -0.0011517274467140422 0.009962873385621622 0.0 0.0
0.0 0.030047446258386814 0.02583768344033268 -0.024771155332213447 -0.0010665281081192355 0.008348070803661088 0.0 0.0
0.0 0.022775045037277397 0.019683614768242264 -0.018706070912340698 -0.0009775438559015564 0.006847557111080574 0.0 0.0
0.0 0.016525958239025217 0.014350216693403887 -0.01346071559209563 -0.0008895011013082624 0.005358907520197233 0.0 0.0
0.0 0.011179461323541575 0.009774847942948776 -0.008978933049230937 -0.0007959148937178367 0.0038621528021486377 0.0 0.0
0.0 0.006779735710854661 0.005983831823589806 -0.005310442430784977 -0.0006733893928048262 0.002453254487316628 0.0 0.0
0.0 0.0034123171732367034 0.00305560065137706 -0.002566912963617355 -0.000488687687759707 0.0012274776224482208 0.0 0.0
0.0 0.0014008154111225329 0.00108304505745775 -0.0008468036487694159 -0.0002362414086883347 0.00037702112232225335 0.0 0.0
0.0 0.00021921156814945915 0.00014463895031557566 -0.0001041190713033077 -4.051987901226736e-05 1.7785803748838488e-05 0.0 0.0
0.0 -1.672348445218861e-05 -8.454782282935952e-06 6.7314462908469775e-06 1.7233359920889082e-06 -7.704215013206391e-06 0.0 0.0
0.0 -2.117502677458955e-07 1.9226471016883667e-08 -1.5449690059872236e-08 -3.776780957015529e-09 2.4434984322558555e-08 0.0 0.0
0.0 0.0 0.0 0.0 0.0 0.0 0.0 0.0
0.0 0.0011235489603217714 0.0005063965267718977 -0.00023426034804819332 -0.00027213617872370275 0.0017619221743306102 0.0 0.0
0.0 0.004934701955732827 0.0034619909840594956 -0.004855506998845388 0.0013935160147858848 0.0022310321187891144 0.0 0.0
0.0 0.003505793353515643 0.002364634890872596 -0.0033651375221676783 0.0010005026312950823 -0.001739495292936653 0.0 0.0
0.0 0.0006138016354939249 0.00028577759885896326 -0.0001196299321007327 -0.0001661476667582307 -0.0011137699904609619 0.0 0.0
0.0 0.0 0.0 0.0 0.0 0.0 0.0 0.0
0.0 -3.7155433862380205e-07 2.6959649637958232e-08 -2.0453683908928497e-08 -6.505965729029205e-09 -6.050583753727464e-08 0.0 0.0
0.0 -3.0683623309086093e-06 -3.0384939681986597e-06 2.4392207440280895e-06 5.992732241705782e-07 4.294982961624337e-06 0.0 0.0
0.0 2.8262245777815815e-05 2.7297748873652302e-05 -1.791765719412493e-05 -9.380091679527483e-06 7.4120452107787805e-06 0.0 0.0
0.0 0.0006851540604743496 0.0006021625338882914 -0.0004600406254601654 -0.0001421219084281261 -0.00031607358869256404 0.0 0.0
0.0 0.0026093940341044577 0.002036399840935739 -0.0016652944397865738 -0.00037110540114916574 -0.0010813980434982334 0.0 0.0
0.0 0.005001998874338824 0.004452363839822422 -0.003870681466612309 -0.0005816823732101088 -0.002415941463968706 0.0 0.0
0.0 0.008836448223897586 0.007617640999851293 -0.006899508084840864 -0.0007181329150104319 -0.003987903776502263 0.0 0.0
0.0 0.013318074897892893 0.01144273133138955 -0.01062777940899894 -0.0008149519223906086 -0.005630463769703112 0.0 0.0
0.0 0.01851968008629682 0.015877178732874378 -0.014978436100867644 -0.0008987426320067296 -0.007261792501977554 0.0 0.0
0.0 0.024492210704985865 0.02096771995676628 -0.019986706930270014 -0.00098101302649628 -0.008887836543064014 0.0 0.0
0.0 0.03144544927241443 0.026830799265201676 -0.02577249108184686 -0.0010583081833548265 -0.010612421605459577 0.0 0.0
0.0 0.039270612259863454 0.03356777015507728 -0.032441097342590285 -0.0011266728124870015 -0.01250299934745902 0.0 0.0
0.0 0.04798713545059945 0.041156884295519586 -0.0399753832789056 -0.0011815010166139521 -0.014430824924111208 0.0 0.0
0.0 0.05785069699332782 0.049389632718785555 -0.048169193609441004 -0.0012204391093445404 -0.016048866800565255 0.0 0.0
0.0 0.06755671496459131 0.05786115439850143 -0.05661882050681023 -0.0012423338916911879 -0.01680706161100792 0.0 0.0
0.0 0.07657275576831205 0.06587641468069097 -0.06463988947412017 -0.0012365252065707718 -0.015793973554718538 0.0 0.0
0.0 0.08406419312790853 0.07240902396400611 -0.0712096228066346 -0.0011994011573714584 -0.011730453751970609 0.0 0.0
0.0 0.08821129974442886 0.07557759912468312 -0.07477412937682344 -0.0008034697478597403 1.5596898772507473e-14 0.0 0.0
0.0 0.0840641931278988 0.0724090239639953 -0.07120962280662402 -0.001199401157371376 0.011730453752007056 0.0 0.0
0.0 0.07657275576829367 0.06587641468067292 -0.06463988947410232 -0.0012365252065705762 0.01579397355475499 0.0 0.0
0.0 0.06755671496456607 0.05786115439847829 -0.056618820506787564 -0.0012423338916906774 0.016807061611031043 0.0 0.0
0.0 0.05785069699329585 0.04938963271875818 -0.048169193609413845 -0.0012204391093443403 0.01604886680056934 0.0 0.0
0.0 0.047987135450564496 0.04115688429548946 -0.03997538327887593 -0.0011815010166135122 0.014430824924103943 0.0 0.0
0.0 0.039270612259828405 0.03356777015504672 -0.03244109734256025 -0.0011266728124864666 0.01250299934745207 0.0 0.0
0.0 0.03144544927238308 0.02683079926517385 -0.02577249108182008 -0.0010583081833537926 0.01061242160545402 0.0 0.0
0.0 0.024492210704951084 0.020967719956736405 -0.01998670693024062 -0.000981013026495769 0.008887836543055111 0.0 0.0
0.0 0.018519680086264236 0.01587717873284653 -0.014978436100840105 -0.0008987426320064124 0.007261792501965481 0.0 0.0
0.0 0.0133180748978656 0.011442731331366559 -0.010627779408976861 -0.0008149519223896995 0.005630463769689394 0.0 0.0
0.0 0.008836448223874235 0.007617640999831185 -0.0068995080848212945 -0.0007181329150098819 0.003987903776489695 0.0 0.0
0.0 0.005001998874323303 0.00445236383980836 -0.0038706814665992605 -0.0005816823732091018 0.0024159414639606793 0.0 0.0
0.0 0.0026093940340924313 0.002036399840926204 -0.0016652944397782317 -0.0003711054011479728 0.0010813980434927633 0.0 0.0
0.0 0.0006851540604687118 0.0006021625338839791 -0.0004600406254568351 -0.0001421219084271442 0.000316073588690162 0.0 0.0
0.0 2.826224577714211e-05 2.7297748873663205e-05 -1.791765719416404e-05 -9.380091679499179e-06 -7.41204521033363e-06 0.0 0.0
0.0 -3.0683623318838988e-06 -3.0384939682315665e-06 2.4392207440532756e-06 5.992732241782603e-07 -4.294982961625495e-06 0.0 0.0
0.0 -3.71554338523354e-07 2.6959649630558343e-08 -2.0453683903316375e-08 -6.505965727237455e-09 6.050583751945212e-08 0.0 0.0
0.0 0.0 0.0 0.0 0.0 0.0 0.0 0.0
0.0 0.0006138016354891747 0.0002857775988569127 -0.00011962993209935614 -0.00016614766675755632 0.0011137699904547756 0.0 0.0
0.0 0.003505793353504808 0.0023646348908641516 -0.003365137522156135 0.0010005026312919804 0.0017394952929307985 0.0 0.0
0.0 0.00221480782453206 0.0015166214027467879 -0.0021803780192689724 0.0006637566165221839 -0.0012721444379947368 0.0 0.0
0.0 0.00033695641788795294 0.0001234824866511253 -2.8995972417602484e-05 -9.448651423352262e-05 -0.0006009671473568536 0.0 0.0
0.0 0.0 0.0 0.0 0.0 0.0 0.0 0.0
0.0 -2.4436484517163937e-07 1.123532113513199e-08 -8.310448798480903e-09 -2.924872336655857e-09 -4.7184642108198884e-08 0.0 0.0
0.0 -1.885566449709795e-06 -9.431879735822814e-08 7.052397011734847e-08 2.3794827240907615e-08 3.0256853608578355e-07 0.0 0.0
0.0 -2.54423949823885e-05 -2.0067621658663382e-05 1.6520848358365482e-05 3.5467733002979805e-06 3.9127884566875666e-05 0.0 0.0
0.0 0.000314010053318806 0.00023455501218096376 -0.00017603262696897095 -5.8522385211992986e-05 -0.00017635370005100872 0.0 0.0
0.0 0.0014207042647139917 0.0012027112414710734 -0.0009569383700452087 -0.0002457728714258644 -0.000875530719833611 0.0 0.0
0.0 0.003842212742783125 0.0029714240660027153 -0.002516217732367928 -0.00045520633363478835 -0.0020596400371849567 0.0 0.0
0.0 0.006416383617033349 0.005513091971061337 -0.00489573469097698 -0.0006173572800843611 -0.0036915143114183984 0.0 0.0
0.0 0.010179721333146069 0.008579541177884576 -0.007855863508031313 -0.0007236776698532598 -0.005395393970456375 0.0 0.0
0.0 0.014378149825919305 0.012118376967147472 -0.011311078353186229 -0.0008072986139612368 -0.007076617735280028 0.0 0.0
0.0 0.01913840170627443 0.0161560666148588 -0.01527186428336417 -0.0008842023314946286 -0.008729452442450329 0.0 0.0
0.0 0.024617813292835217 0.02079881119528444 -0.019843691452972 -0.0009551197423124371 -0.010452748976345535 0.0 0.0
0.0 0.03088592443999176 0.026156810805470634 -0.02513892001324988 -0.0010178907922207458 -0.012311267062599307 0.0 0.0
0.0 0.03830541118335489 0.03225989750354839 -0.031191567469097372 -0.0010683300344510294 -0.014226604960896226 0.0 0.0
0.0 0.04583219311141381 0.039001416643288794 -0.03789196797376062 -0.0011094486695281882 -0.01587689741875684 0.0 0.0
0.0 0.05427708626308387 0.046109723861797326 -0.0449683284051991 -0.0011413954565981726 -0.016766466710978343 0.0 0.0
0.0 0.06252137054905385 0.05316737285123208 -0.052017920100813506 -0.001149452750418565 -0.016076793295926213 0.0 0.0
0.0 0.06951620575719554 0.05939570770420628 -0.05828011993634341 -0.001115587767862899 -0.012355886991255453 0.0 0.0
0.0 0.07402592911819061 0.06272656551868144 -0.06211930974231708 -0.0006072557763643411 1.4124985903141152e-14 0.0 0.0
0.0 0.0695162057571847 0.059395707704194375 -0.05828011993633096 -0.0011155877678633618 0.012355886991290527 0.0 0.0
0.0 0.06252137054903865 0.053167372851216414 -0.05201792010079783 -0.0011494527504186073 0.01607679329596295 0.0 0.0
0.0 0.05427708626306374 0.04610972386177829 -0.04496832840518079 -0.0011413954565975106 0.016766466711000242 0.0 0.0
0.0 0.045832193111386414 0.039001416643265674 -0.03789196797373759 -0.0011094486695280444 0.015876897418758296 0.0 0.0
0.0 0.03830541118332722 0.032259897503524815 -0.031191567469074085 -0.0010683300344507295 0.014226604960888074 0.0 0.0
0.0 0.03088592443996343 0.026156810805445734 -0.025138920013225513 -0.0010178907922202113 0.01231126706259169 0.0 0.0
0.0 0.024617813292809664 0.020798811195262043 -0.0198436914529501 -0.0009551197423119279 0.010452748976339825 0.0 0.0
0.0 0.019138401706247057 0.016156066614835745 -0.015271864283341388 -0.0008842023314943446 0.008729452442441256 0.0 0.0
0.0 0.014378149825892129 0.012118376967124807 -0.011311078353163827 -0.0008072986139609933 0.007076617735267939 0.0 0.0
0.0 0.010179721333123186 0.008579541177865628 -0.007855863508013282 -0.0007236776698523457 0.005395393970442145 0.0 0.0
0.0 0.006416383617014044 0.00551309197104528 -0.004895734690961537 -0.0006173572800837473 0.003691514311405866 0.0 0.0
0.0 0.0038422127427685583 0.0029714240659914734 -0.0025162177323577585 -0.0004552063336337143 0.0020596400371773525 0.0 0.0
0.0 0.0014207042647064367 0.0012027112414651586 -0.0009569383700401911 -0.0002457728714249664 0.0008755307198292544 0.0 0.0
0.0 0.00031401005331439775 0.00023455501217823586 -0.00017603262696687085 -5.852238521136521e-05 0.00017635370004856222 0.0 0.0
0.0 -2.544239498248809e-05 -2.0067621658063317e-05 1.6520848357887044e-05 3.5467733001761864e-06 -3.912788456577749e-05 0.0 0.0
0.0 -1.8855664498249823e-06 -9.431879741993555e-08 7.052397016570547e-08 2.3794827254238077e-08 -3.025685361766434e-07 0.0 0.0
0.0 -2.4436484509791044e-07 1.123532113164423e-08 -8.310448795894743e-09 -2.924872335750786e-09 4.718464209339819e-08 0.0 0.0
0.0 0.0 0.0 0.0 0.0 0.0 0.0 0.0
0.0 0.0003369564178845983 0.0001234824866498803 -2.8995972416797715e-05 -9.448651423308273e-05 0.0006009671473526413 0.0 0.0
0.0 0.0022148078245239427 0.0015166214027405437 -0.0021803780192602355 0.0006637566165196948 0.001272144437990334 0.0 0.0
0.0 0.0016635868487334343 0.000827261257449054 -0.0011972646958437899 0.0003700034383947366 -0.0007867534361596034 0.0 0.0
0.0 5.1735777102606e-05 2.739840591354283e-05 1.838972482127861e-05 -4.578813073482153e-05 -0.0002449306909690822 0.0 0.0
0.0 1.501239477888374e-07 -8.943371455963241e-10 1.017711353153143e-09 -1.233742075570957e-10 2.99033348444305e-08 0.0 0.0
0.0 -3.110318095085595e-07 9.145119677157732e-09 -6.435641195785186e-09 -2.7094784813723947e-09 -6.371271751080803e-08 0.0 0.0
0.0 -4.3217718815404164e-07 -4.816010031368767e-07 3.8239836057844173e-07 9.920264255844018e-08 1.6004547243415311e-06 0.0 0.0
0.0 -1.7744914106140714e-05 -1.0497822273517516e-05 8.393961385289746e-06 2.103860888227742e-06 2.6184400676476907e-05 0.0 0.0
0.0 5.854794982037483e-05 3.4810068670044085e-05 -2.494909212555624e-05 -9.860976544487956e-06 -3.829512287748655e-05 0.0 0.0
0.0 0.0006624238704964004 0.0005371146410802668 -0.0004189026262626931 -0.00011821201481757372 -0.0005828554293272049 0.0 0.0
0.0 0.002121702233175878 0.0016908353723703875 -0.0013892334500952258 -0.0003016019222751611 -0.0015595995312515968 0.0 0.0
0.0 0.004572539105623413 0.0034871068078611294 -0.003014660498094513 -0.00047244630976661417 -0.0029682066221404643 0.0 0.0
0.0 0.007130990659097169 0.005787420603244994 -0.005188846995881156 -0.0005985736073638347 -0.004624103787753281 0.0 0.0
0.0 0.01026277635859517 0.008437421007525543 -0.007746736400368765 -0.0006906846071567963 -0.006255099970069908 0.0 0.0
0.0 0.013888404884366786 0.011434478197746695 -0.01066727513249251 -0.0007672030652541709 -0.007845736139928283 0.0 0.0
0.0 0.01798331260668725 0.014870983867133428 -0.014037987469611633 -0.0008329963975218015 -0.00946027004828319 0.0 0.0
0.0 0.022815527380408016 0.018856311000180818 -0.017965590233045226 -0.0008907207671355851 -0.01117103820989706 0.0 0.0
0.0 0.02825497821760157 0.023467798209927844 -0.022528932881592325 -0.0009388653283354996 -0.012929344707129534 0.0 0.0
0.0 0.03457308454129441 0.02866615629734604 -0.027687475518917676 -0.000978680778428357 -0.014503145136304402 0.0 0.0
0.0 0.041124659852572194 0.034335776915166503 -0.03331640333058022 -0.0010193735845862766 -0.01544877502604023 0.0 0.0
0.0 0.04783144689558789 0.04032660976206103 -0.03927707827262779 -0.0010495314894332615 -0.015184700068490967 0.0 0.0
0.0 0.05459370093062544 0.046195031049656846 -0.04516836645279587 -0.001026664596861003 -0.012344253950340571 0.0 0.0
0.0 0.05965992600001706 0.04973567513780924 -0.04935193124690265 -0.0003837438909065892 1.2545953859133263e-14 0.0 0.0
0.0 0.0545937009306187 0.04619503104964811 -0.04516836645278674 -0.0010266645968613367 0.012344253950371864 0.0 0.0
0.0 0.04783144689557686 0.040326609762048625 -0.039277078272615194 -0.0010495314894334432 0.015184700068524647 0.0 0.0
0.0 0.041124659852556 0.03433577691515109 -0.033316403330565236 -0.0010193735845858871 0.015448775026059413 0.0 0.0
0.0 0.03457308454127304 0.0286661562973282 -0.027687475518900127 -0.0009786807784280581 0.014503145136303828 0.0 0.0
0.0 0.02825497821757927 0.023467798209909227 -0.02252893288157415 -0.0009388653283351005 0.012929344707121343 0.0 0.0
0.0 0.02281552738038437 0.018856311000160556 -0.01796559023302538 -0.0008907207671351732 0.011171038209888452 0.0 0.0
0.0 0.017983312606668342 0.01487098386711728 -0.014037987469595758 -0.0008329963975215309 0.009460270048277892 0.0 0.0
0.0 0.013888404884348685 0.011434478197731671 -0.010667275132477994 -0.000767203065253668 0.007845736139921148 0.0 0.0
0.0 0.010262776358575655 0.008437421007509455 -0.007746736400352892 -0.0006906846071565499 0.00625509997005854 0.0 0.0
0.0 0.007130990659079181 0.0057874206032307385 -0.005188846995867663 -0.0005985736073630721 0.004624103787739954 0.0 0.0
0.0 0.0045725391056078 0.0034871068078490457 -0.0030146604980831903 -0.00047244630976585604 0.0029682066221293 0.0 0.0
0.0 0.0021217022331659944 0.00169083537236271 -0.0013892334500885254 -0.00030160192227418424 0.0015595995312454693 0.0 0.0
0.0 0.0006624238704917174 0.0005371146410768189 -0.00041890262625994697 -0.00011821201481687217 0.0005828554293239832 0.0 0.0
0.0 5.854794981929827e-05 3.481006866953043e-05 -2.494909212516998e-05 -9.860976544360486e-06 3.829512287691055e-05 0.0 0.0
0.0 -1.7744914106805374e-05 -1.0497822273168512e-05 8.393961385012764e-06 2.1038608881557913e-06 -2.6184400675477564e-05 0.0 0.0
0.0 -4.3217718830988977e-07 -4.816010031958927e-07 3.823983606259449e-07 9.920264256993701e-08 -1.6004547244963912e-06 0.0 0.0
0.0 -3.1103180944933557e-07 9.145119675171675e-09 -6.435641194459957e-09 -2.709478480710289e-09 6.371271749740787e-08 0.0 0.0
0.0 1.5012394747879627e-07 -8.94337143643398e-10 1.0177113510135556e-09 -1.2337420737023362e-10 -2.990333478189685e-08 0.0 0.0
0.0 5.173577710060622e-05 2.7398405912847555e-05 1.8389724821703488e-05 -4.5788130734551104e-05 0.00024493069096630655 0.0 0.0
0.0 0.0016635868487260097 0.000827261257444808 -0.0011972646958376945 0.0003700034383928865 0.0007867534361563717 0.0 0.0
0.0 0.0007122775230287428 0.0003902786897503476 -0.0005686621194723853 0.0001783834297220378 -0.0004621378308063751 0.0 0.0
0.0 -3.17991492611537e-05 -2.0889246474068442e-05 4.1907362323952854e-05 -2.101811584988442e-05 -2.4954704903646652e-05 0.0 0.0
0.0 2.2756234019458266e-06 -3.622856323065417e-09 1.1119213435067454e-08 -7.496357112000574e-09 4.94855934509731e-07 0.0 0.0
0.0 7.864306231303351e-07 -1.6387003304045022e-09 -2.085611771306629e-10 1.847261507534281e-09 1.628291981626507e-07 0.0 0.0
0.0 -8.270565494262345e-07 -2.9703147802160677e-07 2.2591349490660299e-07 7.11179831150028e-08 1.951333568955259e-06 0.0 0.0
0.0 -1.3987918768245816e-05 -2.8853982482684226e-06 2.3406632566281546e-06 5.44734991640268e-07 1.0505793173516923e-05 0.0 0.0
0.0 -2.0088935660486143e-06 -1.3958597778252804e-05 1.1359287905929262e-05 2.5993098723234993e-06 3.145485153500896e-05 0.0 0.0
0.0 0.00023979299010864002 0.00010235229495577125 -8.061467394642158e-05 -2.1737621009349618e-05 -0.00021873732733729897 0.0 0.0
0.0 0.0009439024267371142 0.0006448106682730433 -0.0005212307802088537 -0.00012357988806418918 -0.0009484180197282244 0.0 0.0
0.0 0.0023786072524420742 0.0016897889121631267 -0.0014204741061997804 -0.0002693148059633475 -0.0020023869170717867 0.0 0.0
0.0 0.004102646612600617 0.0031500190033783636 -0.002743890363015889 -0.00040612864036247513 -0.0033596598616494346 0.0 0.0
0.0 0.006313521816354441 0.004883336574067568 -0.00437254942885263 -0.0005107871452149345 -0.004776288123781918 0.0 0.0
0.0 0.00876253484082678 0.006850213693017967 -0.0062531008516628584 -0.0005971128413551066 -0.006206606412936928 0.0 0.0
0.0 0.011535024788922932 0.009101902051608149 -0.008436510813858116 -0.0006653912377500212 -0.0076373278347622335 0.0 0.0
0.0 0.014802795471755493 0.011730770755033785 -0.011008513134069918 -0.0007222576209638733 -0.00909593651002956 0.0 0.0
0.0 0.018669010694934936 0.014835197522676187 -0.0140651896850666 -0.0007700078376095899 -0.010596446810117914 0.0 0.0
0.0 0.023120837254054123 0.01846704226368052 -0.017653408980435176 -0.0008136332832453375 -0.012011584471142329 0.0 0.0
0.0 0.027932368667761633 0.022618958228526026 -0.021762503547308805 -0.0008564546812172568 -0.01296948480843586 0.0 0.0
0.0 0.03337054050840347 0.027350640683661002 -0.026442833711149815 -0.0009078069725111484 -0.012999274873037826 0.0 0.0
0.0 0.0396874079780526 0.03269325897167627 -0.03176968705115252 -0.0009235719205237381 -0.011428525507558652 0.0 0.0
0.0 0.04519515878065548 0.03647682208292573 -0.036346926349064654 -0.0001298957338611207 1.0018028073766061e-14 0.0 0.0
0.0 0.039687407978051994 0.032693258971671794 -0.031769687051148 -0.0009235719205237907 0.011428525507585247 0.0 0.0
0.0 0.03337054050839733 0.02735064068365263 -0.026442833711141808 -0.0009078069725107987 0.012999274873067374 0.0 0.0
0.0 0.02793236866775231 0.02261895822851722 -0.021762503547300548 -0.0008564546812166617 0.012969484808451314 0.0 0.0
0.0 0.023120837254038587 0.01846704226366836 -0.017653408980423526 -0.0008136332832448372 0.012011584471139234 0.0 0.0
0.0 0.018669010694916912 0.014835197522661714 -0.014065189685052335 -0.0007700078376093638 0.010596446810109218 0.0 0.0
0.0 0.014802795471737564 0.011730770755019234 -0.011008513134055244 -0.0007222576209639932 0.009095936510021076 0.0 0.0
0.0 0.011535024788912794 0.00910190205159952 -0.008436510813850063 -0.0006653912377494579 0.007637327834759251 0.0 0.0
0.0 0.008762534840813987 0.0068502136930074856 -0.006253100851652897 -0.000597112841354591 0.006206606412930143 0.0 0.0
0.0 0.006313521816340923 0.004883336574057633 -0.004372549428843341 -0.0005107871452142948 0.0047762881237724646 0.0 0.0
0.0 0.004102646612588192 0.0031500190033690164 -0.002743890363007097 -0.00040612864036191916 0.003359659861638049 0.0 0.0
0.0 0.0023786072524317886 0.0016897889121557624 -0.0014204741061932234 -0.0002693148059625387 0.002002386917063886 0.0 0.0
0.0 0.0009439024267321897 0.0006448106682698053 -0.0005212307802061428 -0.00012357988806366204 0.0009484180197242928 0.0 0.0
0.0 0.00023979299010554167 0.00010235229495400851 -8.061467394499638e-05 -2.173762100901206e-05 0.00021873732733445646 0.0 0.0
0.0 -2.0088935671955227e-06 -1.3958597777856834e-05 1.1359287905607389e-05 2.5993098722495084e-06 -3.145485153428916e-05 0.0 0.0
0.0 -1.3987918768322824e-05 -2.8853982480093342e-06 2.340663256426904e-06 5.447349915823977e-07 -1.0505793172091289e-05 0.0 0.0
0.0 -8.270565501217082e-07 -2.9703147806669285e-07 2.259134949427144e-07 7.111798312399003e-08 -1.9513335691526666e-06 0.0 0.0
0.0 7.864306230353753e-07 -1.6387003332195712e-09 -2.0856117435996048e-10 1.847261507578611e-09 -1.6282919813890725e-07 0.0 0.0
0.0 2.2756234013447927e-06 -3.6228563214464765e-09 1.1119213431972399e-08 -7.496357110524799e-09 -4.948559343785076e-07 0.0 0.0
0.0 -3.179914926210008e-05 -2.0889246474146475e-05 4.190736232389001e-05 -2.101811584974345e-05 2.4954704902866443e-05 0.0 0.0
0.0 0.0007122775230238831 0.0003902786897479143 -0.0005686621194688523 0.00017838342972093733 0.00046213783080403223 0.0 0.0
0.0 0.0002541061297889967 0.00010397813754215455 -0.00015290646015557707 4.89283226134227e-05 -0.00014675347257097512 0.0 0.0
0.0 -3.570475059804543e-05 -1.7153280763039394e-05 2.381661890536502e-05 -6.663338142325631e-06 2.9522647495895045e-05 0.0 0.0
0.0 5.096525743868014e-07 9.381252579871773e-11 1.5396771685514519e-09 -1.6334896943491657e-09 1.0271581062143611e-07 0.0 0.0
0.0 4.096640072979324e-07 9.90752011270457e-09 -8.396156044114786e-09 -1.5113640685919163e-09 8.098632487915903e-08 0.0 0.0
0.0 8.697936531097197e-08 5.455243264408805e-08 -4.5562789748186265e-08 -8.989642895893437e-09 9.947647325672799e-08 0.0 0.0
0.0 -9.177555659579882e-06 -2.2982290774502135e-06 1.8103291181349576e-06 4.8789995931523e-07 2.042224428815964e-05 0.0 0.0
0.0 8.14814768445716e-06 -3.345794611200845e-06 2.77410108556275e-06 5.716935256381228e-07 9.287153496278989e-06 0.0 0.0
0.0 7.293724512158321e-05 -3.8416692541355054e-07 3.839992111735805e-07 1.677142398914039e-10 -9.282147590920661e-05 0.0 0.0
0.0 0.0002558296285927611 5.719058926355088e-05 -5.010461192309795e-05 -7.085977340452771e-06 -0.00038494360449791874 0.0 0.0
0.0 0.0007224005141856576 0.0003051752086001548 -0.00027163515214286005 -3.354005645729558e-05 -0.0009786061190280616 0.0 0.0
0.0 0.0016846365551780908 0.0008390086896599347 -0.0007488434511354129 -9.016523852452115e-05 -0.0018657261300049398 0.0 0.0
0.0 0.002703686142013937 0.0016213512862317664 -0.001456165469766541 -0.00016518581646522557 -0.002956593957770054 0.0 0.0
0.0 0.004043901607061727 0.002555756552667014 -0.0023168089621233927 -0.00023894759054361785 -0.004099922151680393 0.0 0.0
0.0 0.00561246135764931 0.003639919623103252 -0.003330921086987421 -0.0003089985361158301 -0.005284443574426816 0.0 0.0
0.0 0.007421514520596662 0.004933944549298646 -0.004554882309439115 -0.00037906223985953 -0.0065272851753124805 0.0 0.0
0.0 0.009610481868295233 0.0065318931682242535 -0.00608545621780732 -0.0004464369504169295 -0.007845002589543754 0.0 0.0
0.0 0.012349958400046483 0.00855905443097958 -0.008043876848440976 -0.0005151775825386068 -0.00919364390739257 0.0 0.0
0.0 0.015746807612305045 0.011151920246850825 -0.01057104261806872 -0.0005808776287821003 -0.010251707486723813 0.0 0.0
0.0 0.01966394724895561 0.014450893105417483 -0.013810158322339183 -0.0006407347830783172 -0.010424195298346766 0.0 0.0
0.0 0.02455210030905387 0.018879200843057095 -0.018137641626762967 -0.0007415592162941136 -0.009500003576114925 0.0 0.0
0.0 0.03150045916911809 0.022830187624032834 -0.02300539885546022 0.00017521123142738028 8.52746692703299e-15 0.0 0.0
0.0 0.02455210030905836 0.01887920084305676 -0.01813764162676192 -0.0007415592162948576 0.009500003576137549 0.0 0.0
0.0 0.019663947248952304 0.014450893105412614 -0.013810158322334275 -0.00064073478307834 0.010424195298367593 0.0 0.0
0.0 0.01574680761229754 0.011151920246844955 -0.010571042618063152 -0.0005808776287818057 0.010251707486732393 0.0 0.0
0.0 0.012349958400035959 0.008559054430973474 -0.008043876848435067 -0.0005151775825384043 0.009193643907387444 0.0 0.0
0.0 0.00961048186828652 0.006531893168218578 -0.006085456217801404 -0.0004464369504171765 0.007845002589536033 0.0 0.0
0.0 0.007421514520588231 0.004933944549292663 -0.0045548823094329035 -0.00037906223985975787 0.006527285175305203 0.0 0.0
0.0 0.0056124613576431365 0.003639919623098841 -0.0033309210869836388 -0.00030899853611520567 0.005284443574424789 0.0 0.0
0.0 0.004043901607054138 0.0025557565526624195 -0.0023168089621189774 -0.0002389475905434411 0.004099922151674032 0.0 0.0
0.0 0.002703686142007123 0.0016213512862282224 -0.0014561654697633046 -0.00016518581646491826 0.0029565939577619383 0.0 0.0
0.0 0.001684636555170876 0.0008390086896559817 -0.0007488434511317231 -9.016523852425796e-05 0.0018657261299969774 0.0 0.0
0.0 0.0007224005141817691 0.00030517520859857876 -0.00027163515214139166 -3.3540056457187294e-05 0.000978606119024521 0.0 0.0
0.0 0.00025582962859169454 5.719058926310669e-05 -5.0104611922721485e-05 -7.0859773403849536e-06 0.000384943604496381 0.0 0.0
0.0 7.293724512098763e-05 -3.841669252758164e-07 3.8399921107875844e-07 1.6771419698177359e-10 9.282147590867373e-05 0.0 0.0
0.0 8.148147683109249e-06 -3.3457946111857266e-06 2.7741010855515513e-06 5.716935256341828e-07 -9.287153496345218e-06 0.0 0.0
0.0 -9.177555659829213e-06 -2.298229077427805e-06 1.8103291181203308e-06 4.878999593074752e-07 -2.0422244287697637e-05 0.0 0.0
0.0 8.697936487691153e-08 5.455243264529711e-08 -4.5562789749308676e-08 -8.98964289599162e-09 -9.947647321127925e-08 0.0 0.0
0.0 4.096640068308793e-07 9.90752010832275e-09 -8.39615604017302e-09 -1.5113640681489081e-09 -8.098632478345155e-08 0.0 0.0
0.0 5.096525740515149e-07 9.381252618957887e-11 1.539677166806176e-09 -1.6334896929998106e-09 -1.0271581055161462e-07 0.0 0.0
0.0 -3.570475059773538e-05 -1.715328076263753e-05 2.381661890487925e-05 -6.6633381422417134e-06 -2.9522647494868286e-05 0.0 0.0
0.0 0.00025410612978608204 0.00010397813754108476 -0.0001529064601540692 4.892832261298427e-05 0.0001467534725693443 0.0 0.0
0.0 1.218747087546032e-05 8.589441845611616e-06 -1.338857971912022e-05 4.79913787350856e-06 -1.2943905708378855e-05 0.0 0.0
0.0 -1.6162479343489724e-06 -1.2702114963020686e-06 1.9272816362424963e-06 -6.570701399404159e-07 1.952053436249598e-06 0.0 0.0
0.0 3.575544156836618e-06 8.51313753265954e-09 7.803715189483634e-09 -1.63168527221478e-08 7.507211012685184e-07 0.0 0.0
0.0 1.231441808328086e-06 2.4325969681192084e-08 -2.0392678421670153e-08 -3.933291259518645e-09 2.6989325335219216e-07 0.0 0.0
0.0 -9.81532118150576e-07 1.1083997852231842e-07 -1.074017763990963e-07 -3.4382021232222973e-09 1.820670332014794e-06 0.0 0.0
0.0 -7.187462377087161e-06 -1.0166241358974202e-07 1.1346882296831198e-07 -1.1806409378567037e-08 1.503166740162174e-05 0.0 0.0
0.0 9.388265744575595e-06 -4.111584190627152e-07 3.9692676023930136e-07 1.4231658823404766e-08 5.5638040857344075e-06 0.0 0.0
0.0 7.323592499182788e-05 -4.787569429572741e-07 4.802291681847141e-07 -1.4722252274316224e-09 -0.00012780399016812236 0.0 0.0
0.0 0.00023414018044242143 -4.8888996213918284e-08 4.4570507723488706e-08 4.3184884904555744e-09 -0.00031839990419081545 0.0 0.0
0.0 0.0003819114151227424 1.9604551246138635e-07 -1.2424618682342656e-07 -7.179932563799758e-08 -0.0006511860364287772 0.0 0.0
0.0 0.0006890031696317795 -1.116839071521957e-06 5.636019021430845e-07 5.532371693788309e-07 -0.0010922650970787082 0.0 0.0
0.0 0.0009208941173490422 2.114537902649506e-06 -1.6027884168770616e-06 -5.117494857722412e-07 -0.0018259309384709454 0.0 0.0
0.0 0.0013223059654998979 -6.12427688273401e-07 2.0343935985114912e-06 -1.4219659102377853e-06 -0.0027274807356034753 0.0 0.0
0.0 0.0019322320712126528 -1.4174334890538522e-05 1.7178647794709358e-05 -3.004312904170958e-06 -0.003830663125662772 0.0 0.0
0.0 0.0027817939369167233 -7.85990246396633e-06 6.629450044147531e-06 1.230452419818785e-06 -0.005099238769248786 0.0 0.0
0.0 0.0037714072559662634 9.3086783078347e-05 -0.0001111583037030713 1.807152062472337e-05 -0.006525700384825494 0.0 0.0
0.0 0.004973104648486323 0.0004630912633399971 -0.000520587046228571 5.749578288857414e-05 -0.008059817262150937 0.0 0.0
0.0 0.00635913535044396 0.0012689785704642137 -0.0014323307790599898 0.0001633522085957719 -0.009572103509361225 0.0 0.0
0.0 0.00846412668604185 0.0023543776755340783 -0.00262158755067536 0.0002672098751412829 -0.010714901464192541 0.0 0.0
0.0 0.012450386720491351 0.005157054128372661 -0.005011113984552785 -0.00014594014381987216 -0.010689334553561185 0.0 0.0
0.0 0.021672832646946985 0.009638026653224465 -0.01027597176510315 0.0006379451118786903 6.957975862142973e-15 0.0 0.0
0.0 0.012450386720500027 0.0051570541283746 -0.005011113984554928 -0.00014594014381967056 0.0106893345535794 0.0 0.0
0.0 0.008464126686039823 0.002354377675533151 -0.0026215875506740414 0.00026720987514089044 0.010714901464197027 0.0 0.0
0.0 0.006359135350435718 0.001268978570462963 -0.0014323307790588703 0.00016335220859590717 0.009572103509356349 0.0 0.0
0.0 0.004973104648480784 0.00046309126334074494 -0.0005205870462294203 5.74957828886754e-05 0.008059817262144837 0.0 0.0
0.0 0.0037714072559629245 9.308678308066735e-05 -0.00011115830370606028 1.807152062539426e-05 0.006525700384819447 0.0 0.0
0.0 0.002781793936911469 -7.85990246318771e-06 6.629450043498636e-06 1.2304524196889383e-06 0.0050992387692422 0.0 0.0
0.0 0.0019322320712096353 -1.4174334890423705e-05 1.717864779503985e-05 -3.0043129046160094e-06 0.0038306631256581464 0.0 0.0
0.0 0.0013223059654953145 -6.124276887844397e-07 2.0343935990097906e-06 -1.4219659102254593e-06 0.0027274807355946386 0.0 0.0
0.0 0.0009208941173456215 2.1145379025296204e-06 -1.6027884168260905e-06 -5.117494857037535e-07 0.0018259309384637459 0.0 0.0
0.0 0.0006890031696291525 -1.1168390715534564e-06 5.636019021023185e-07 5.532371694512362e-07 0.0010922650970739993 0.0 0.0
0.0 0.0003819114151225964 1.960455126768414e-07 -1.242461869837365e-07 -7.179932569308797e-08 0.0006511860364280166 0.0 0.0
0.0 0.00023414018044093452 -4.8888996155221296e-08 4.4570507675135466e-08 4.31848848005449e-09 0.00031839990418863935 0.0 0.0
0.0 7.323592499118223e-05 -4.787569429652578e-07 4.80229168210226e-07 -1.4722252449503317e-09 0.00012780399016779298 0.0 0.0
0.0 9.388265744040507e-06 -4.111584190612534e-07 3.969267602374071e-07 1.4231658823858782e-08 -5.563804086131757e-06 0.0 0.0
0.0 -7.187462377116579e-06 -1.0166241361604666e-07 1.1346882299445828e-07 -1.1806409378417843e-08 -1.5031667400538615e-05 0.0 0.0
0.0 -9.815321188749716e-07 1.1083997854315231e-07 -1.0740177641697139e-07 -3.4382021261776536e-09 -1.8206703323276065e-06 0.0 0.0
0.0 1.23144180768856e-06 2.432596968988195e-08 -2.0392678428279313e-08 -3.933291261603555e-09 -2.6989325343009573e-07 0.0 0.0
0.0 3.5755441566133005e-06 8.513137526622589e-09 7.803715193243501e-09 -1.6316852719856898e-08 -7.507211011349094e-07 0.0 0.0
0.0 -1.616247934784022e-06 -1.2702114963286506e-06 1.927281636271935e-06 -6.570701399432969e-07 -1.9520534362898072e-06 0.0 0.0
0.0 1.2187470874530818e-05 8.589441845734203e-06 -1.3388579719293592e-05 4.799137873559484e-06 1.2943905708681476e-05 0.0 0.0
0.0 1.2392568618169737e-06 -7.491151091484791e-08 1.1767598598030642e-07 -4.2764475065472074e-08 1.441325408975938e-07 0.0 0.0
0.0 1.0193361657633564e-07 1.0676732839692013e-08 -1.3945681913414806e-08 3.26894907372364e-09 3.7380425146472035e-08 0.0 0.0
0.0 -9.516414721804926e-07 -1.481455062452887e-08 9.92288439320523e-09 4.891666231323608e-09 -1.9384349997418594e-07 0.0 0.0
0.0 1.2741279824758994e-06 9.551066662303323e-08 -7.949717706421616e-08 -1.6013489558818638e-08 6.737857217980305e-07 0.0 0.0
0.0 -1.8890501308028117e-06 2.2518054342382757e-07 -2.081428232141323e-07 -1.703772020969312e-08 1.3818694157229436e-06 0.0 0.0
0.0 -8.226663381133672e-06 6.226093135495842e-07 -4.18619423289166e-07 -2.039898902603867e-07 8.190225400392164e-06 0.0 0.0
0.0 2.4972310907146325e-05 3.6335741903603054e-06 -2.787402023185843e-06 -8.46172167174526e-07 1.3305902372274573e-05 0.0 0.0
0.0 7.9619822794205e-05 -8.633353862165102e-07 8.001913581229686e-07 6.314402809358181e-08 -9.598807335424794e-05 0.0 0.0
0.0 0.00025658514755251115 -5.776129987076633e-05 5.058088974294146e-05 7.180410127824662e-06 -0.00038724107178696876 0.0 0.0
0.0 0.0007204654661693721 -0.00030439868179581435 0.000270859930135169 3.353875166064574e-05 -0.0009779349310489595 0.0 0.0
0.0 0.0016887296670722123 -0.0008328867797741735 0.0007444166637556458 8.847011601852692e-05 -0.0018594575452209956 0.0 0.0
0.0 0.0027198140312619202 -0.001628795549525592 0.0014622463005553874 0.00016654924897020507 -0.0029569174355542306 0.0 0.0
0.0 0.004072661758227705 -0.0025793272380282154 0.002337437623460663 0.0002418896145675485 -0.0041001086861998425 0.0 0.0
0.0 0.0056622982996567895 -0.003682953606356971 0.0033706045276335195 0.00031234907872345436 -0.005281790772383006 0.0 0.0
0.0 0.007412220699973388 -0.00493951273716311 0.004569102026324096 0.00037041071083901607 -0.006539535940853171 0.0 0.0
0.0 0.009295865138645018 -0.006251879119652562 0.005853935611211992 0.0003979435084405713 -0.007943712817375784 0.0 0.0
0.0 0.011042911531599085 -0.007373124055744414 0.006988483831034646 0.00038464022470977184 -0.009567084024460238 0.0 0.0
0.0 0.012471154869912137 -0.007895898451963429 0.0075885972770144815 0.0003073011749489372 -0.011442575225746624 0.0 0.0
0.0 0.012678667189439014 -0.007304367848244054 0.007142033670935251 0.0001623341773088137 -0.01354078046733357 0.0 0.0
0.0 0.01053571787898159 -0.005279160528101297 0.005348655017285874 -6.94944891845727e-05 -0.015177484005969407 0.0 0.0
0.0 0.020662105380866373 -0.0028349468778835346 0.0011242854780628912 0.0017106613998206428 1.2391997150640321e-14 0.0 0.0
0.0 0.01053571787898824 -0.005279160528103625 0.005348655017288692 -6.949448918506547e-05 0.015177484005981408 0.0 0.0
0.0 0.012678667189437956 -0.007304367848242522 0.007142033670933514 0.0001623341773090153 0.013540780467343248 0.0 0.0
0.0 0.012471154869904657 -0.007895898451958143 0.007588597277009881 0.0003073011749482532 0.011442575225746729 0.0 0.0
0.0 0.011042911531586791 -0.007373124055735397 0.006988483831025667 0.00038464022470973476 0.009567084024454107 0.0 0.0
0.0 0.00929586513863543 -0.00625187911964543 0.005853935611205587 0.0003979435084398382 0.007943712817368286 0.0 0.0
0.0 0.007412220699964625 -0.004939512737155827 0.004569102026317492 0.000370410710838338 0.006539535940845692 0.0 0.0
0.0 0.005662298299648418 -0.0036829536063505705 0.0033706045276271413 0.0003123490787234302 0.0052817907723774924 0.0 0.0
0.0 0.0040726617582155416 -0.002579327238019044 0.0023374376234520954 0.00024188961456694677 0.004100108686191274 0.0 0.0
0.0 0.002719814031249378 -0.001628795549517541 0.0014622463005480684 0.00016654924896947234 0.002956917435542672 0.0 0.0
0.0 0.0016887296670609932 -0.0008328867797674977 0.0007444166637497229 8.847011601777367e-05 0.0018594575452110709 0.0 0.0
0.0 0.0007204654661655218 -0.00030439868179445466 0.000270859930133765 3.35387516606893e-05 0.0009779349310468383 0.0 0.0
0.0 0.00025658514755128937 -5.7761299870462417e-05 5.058088974268162e-05 7.1804101277808635e-06 0.0003872410717859606 0.0 0.0
0.0 7.961982279293865e-05 -8.633353861924968e-07 8.001913581063532e-07 6.314402808616053e-08 9.598807335298284e-05 0.0 0.0
0.0 2.4972310905570106e-05 3.6335741903170122e-06 -2.7874020231551083e-06 -8.461721671618968e-07 -1.3305902372146307e-05 0.0 0.0
0.0 -8.226663381037477e-06 6.226093134322798e-07 -4.186194231943471e-07 -2.0398989023792477e-07 -8.19022539937204e-06 0.0 0.0
0.0 -1.8890501306217724e-06 2.2518054327455627e-07 -2.0814282308581262e-07 -1.7037720188747568e-08 -1.381869414434226e-06 0.0 0.0
0.0 1.2741279821196678e-06 9.551066658865226e-08 -7.949717703781536e-08 -1.6013489550836576e-08 -6.737857213121856e-07 0.0 0.0
0.0 -9.51641472449752e-07 -1.4814550605864841e-08 9.922884377830824e-09 4.89166622803104e-09 1.9384349980349792e-07 0.0 0.0
0.0 1.0193361634669551e-07 1.0676732833700947e-08 -1.3945681909328034e-08 3.2689490756309226e-09 -3.7380425093418424e-08 0.0 0.0
0.0 1.2392568610875138e-06 -7.491151086901853e-08 1.1767598590977797e-07 -4.276447504077999e-08 -1.441325408055337e-07 0.0 0.0
0.0 0.0 0.0 0.0 0.0 0.0 0.0 0.0
0.0 -1.59855136193298e-07 -1.8514062365601714e-09 1.0225299249188145e-09 8.288763116405632e-10 -3.193717500959494e-08 0.0 0.0
0.0 -1.7429848194382178e-07 1.9962488053395303e-08 -1.3916522741763118e-08 -6.0459653116305545e-09 2.3257426737450735e-07 0.0 0.0
0.0 -3.3860643205708845e-07 -1.9003618623730306e-07 1.5530539424498615e-07 3.4730791992308076e-08 -1.1885152222392926e-06 0.0 0.0
0.0 5.393678765591347e-06 5.312864107436348e-07 -4.4854589786466777e-07 -8.274051287892087e-08 3.2508142114629567e-06 0.0 0.0
0.0 3.6820150053211498e-06 7.324315027795365e-06 -5.886447139195014e-06 -1.4378678886003276e-06 2.895442088194541e-05 0.0 0.0
0.0 -1.3936810157411006e-06 5.144893657022159e-06 -4.062998891437368e-06 -1.0818947655847163e-06 -1.0487910789447565e-05 0.0 0.0
0.0 0.0002525214113162057 -0.00010747033140537226 8.49973010508572e-05 2.2473030354514956e-05 -0.00023031339186048498 0.0 0.0
0.0 0.0009428223197958907 -0.0006440476680014372 0.0005204916090316091 0.00012355605896982813 -0.000949233115871431 0.0 0.0
0.0 0.0023742632390007096 -0.0016875387138017973 0.0014183315003027295 0.00026920721349906813 -0.0019989386866772906 0.0 0.0
0.0 0.004101543545587031 -0.0031499119918161926 0.002743846708757269 0.00040606528305892493 -0.0033578166381394896 0.0 0.0
0.0 0.006320804993202617 -0.004889258271127331 0.004378095252902993 0.0005111630182243395 -0.004776916990275165 0.0 0.0
0.0 0.008785445516916568 -0.006871081559208944 0.00627305716061842 0.0005980243985905239 -0.0061966100085036465 0.0 0.0
0.0 0.011572734850632434 -0.009142344049556096 0.008476644592354653 0.0006656994572014465 -0.007599915119690404 0.0 0.0
0.0 0.014799621268184994 -0.011742481903807838 0.011026497490756541 0.0007159844130512919 -0.009064800407780287 0.0 0.0
0.0 0.018389967389645635 -0.014594262936904634 0.013850896297992929 0.0007433666389117089 -0.010772403177044558 0.0 0.0
0.0 0.02199034689249142 -0.017411285623483572 0.01666478746109622 0.0007464981623873451 -0.012936533637623067 0.0 0.0
0.0 0.02488209372728434 -0.019688551588169997 0.018959494026665455 0.0007290575615045489 -0.015665409614370074 0.0 0.0
0.0 0.02649985566836959 -0.020476945621936388 0.01980875470450523 0.0006681909174311457 -0.018413176699961124 0.0 0.0
0.0 0.02453197383754785 -0.01795732029584927 0.01737415742759919 0.0005831628682500721 -0.018937119439231077 0.0 0.0
0.0 0.025543723616670715 -0.014127483579401174 0.011618761506637145 0.0025087220727640245 1.0937431516033769e-14 0.0 0.0
0.0 0.024531973837556675 -0.017957320295851308 0.017374157427601275 0.0005831628682500258 0.01893711943925562 0.0 0.0
0.0 0.026499855668366466 -0.020476945621930226 0.019808754704499273 0.0006681909174309538 0.018413176699982037 0.0 0.0
0.0 0.02488209372727099 -0.019688551588158222 0.018959494026653624 0.0007290575615045865 0.015665409614376805 0.0 0.0
0.0 0.021990346892473367 -0.017411285623468734 0.01666478746108156 0.0007464981623871768 0.012936533637619534 0.0 0.0
0.0 0.018389967389626734 -0.01459426293688964 0.013850896297977944 0.0007433666389116997 0.010772403177034401 0.0 0.0
0.0 0.014799621268168622 -0.011742481903794403 0.011026497490743553 0.0007159844130508493 0.009064800407771814 0.0 0.0
0.0 0.011572734850615368 -0.009142344049541394 0.008476644592340217 0.0006656994572011624 0.007599915119681874 0.0 0.0
0.0 0.008785445516898402 -0.006871081559194281 0.006273057160604083 0.0005980243985901936 0.006196610008494318 0.0 0.0
0.0 0.00632080499318371 -0.004889258271112861 0.004378095252889362 0.0005111630182234974 0.004776916990261779 0.0 0.0
0.0 0.004101543545571651 -0.0031499119918040664 0.0027438467087460075 0.0004060652830580587 0.0033578166381274515 0.0 0.0
0.0 0.0023742632389887283 -0.0016875387137932224 0.0014183315002950277 0.00026920721349819486 0.0019989386866683567 0.0 0.0
0.0 0.0009428223197898346 -0.0006440476679971382 0.000520491609028101 0.00012355605896903688 0.00094923311586718 0.0 0.0
0.0 0.00025252141131307736 -0.00010747033140360811 8.49973010494989e-05 2.247303035410905e-05 0.00023031339185752348 0.0 0.0
0.0 -1.3936810165520212e-06 5.144893656596425e-06 -4.062998891105031e-06 -1.081894765491422e-06 1.048791079019299e-05 0.0 0.0
0.0 3.6820150040238146e-06 7.324315027707054e-06 -5.886447139121039e-06 -1.4378678885861157e-06 -2.89544208814418e-05 0.0 0.0
0.0 5.3936787650283575e-06 5.312864107612842e-07 -4.4854589787970075e-07 -8.274051288158567e-08 -3.2508142115642047e-06 0.0 0.0
0.0 -3.3860643217463147e-07 -1.9003618635640754e-07 1.553053943414616e-07 3.473079201495739e-08 1.1885152230931154e-06 0.0 0.0
0.0 -1.742984824609697e-07 1.996248807835409e-08 -1.3916522763960047e-08 -6.045965314392301e-09 -2.3257426748068584e-07 0.0 0.0
0.0 -1.598551359760529e-07 -1.8514062343378152e-09 1.022529924327987e-09 8.28876310009049e-10 3.1937174965589786e-08 0.0 0.0
0.0 0.0 0.0 0.0 0.0 0.0 0.0 0.0
0.0 0.0 0.0 0.0 0.0 0.0 0.0 0.0
0.0 -2.601208151042033e-07 -4.54463681070783e-09 2.796718489368658e-09 1.747918321339569e-09 -5.343306389855201e-08 0.0 0.0
0.0 3.034054291392965e-07 -9.561134788603184e-09 1.1062018294505187e-08 -1.5008835058998862e-09 6.807127347356168e-08 0.0 0.0
0.0 1.399814228287086e-06 2.598498350755513e-07 -2.1610876165701378e-07 -4.374107341854395e-08 1.0234784683100224e-06 0.0 0.0
0.0 5.0260273881471255e-08 2.3338486429681596e-06 -1.8765673974687474e-06 -4.5728124549944476e-07 7.345347387727727e-06 0.0 0.0
0.0 -1.6080939342407686e-05 2.2219453059289666e-06 -1.781326393345212e-06 -4.4061891258370423e-07 -1.7359055797516356e-06 0.0 0.0
0.0 0.00011612086698348028 -4.4029843030559276e-05 3.285759543617733e-05 1.1172247594381772e-05 -5.150807967949674e-05 0.0 0.0
0.0 0.0006759274368363864 -0.000540152068983369 0.00042187548947813266 0.00011827657950523638 -0.0005915903352734161 0.0 0.0
0.0 0.0021181211971877376 -0.001688090711748484 0.001386556274633924 0.0003015344371145578 -0.0015568596126118342 0.0 0.0
0.0 0.0045696085566486674 -0.0034850528491872338 0.003012519863966488 0.00047253298522074717 -0.002963493062179857 0.0 0.0
0.0 0.007127667513083413 -0.005788751258693401 0.00519031960463508 0.0005984316540583216 -0.004623645137697988 0.0 0.0
0.0 0.010269113075545282 -0.008442244888709384 0.007751645777711314 0.0006905991109980618 -0.006254779426096255 0.0 0.0
0.0 0.01390004578387406 -0.01144634376697817 0.0106789431593996 0.0007674006075785666 -0.007824711228374817 0.0 0.0
0.0 0.01799603655305982 -0.014893277407889021 0.014059883752335337 0.0008333936555536818 -0.009378458232803128 0.0 0.0
0.0 0.0227924138938005 -0.018861449651499846 0.01797442309761524 0.0008870265538846091 -0.011052836474713692 0.0 0.0
0.0 0.02804863451654316 -0.023300933634644222 0.022382053195297853 0.00091888043934636 -0.013100161935245174 0.0 0.0
0.0 0.033786734881751115 -0.02787860971263707 0.026955848818112506 0.0009227608945245672 -0.01591109447924184 0.0 0.0
0.0 0.03873568672655989 -0.03183341526096625 0.03094846996622977 0.0008849452947364677 -0.019606808554093236 0.0 0.0
0.0 0.0414441825726797 -0.03370051818279865 0.032896323489100016 0.0008041946936986434 -0.023180792171440603 0.0 0.0
0.0 0.0387873736360491 -0.03094141268828768 0.030301161256326002 0.0006402514319616744 -0.024304905667363336 0.0 0.0
0.0 0.0360299663159805 -0.02543083535852924 0.022191701514620812 0.0032391338439084175 1.1966989899026004e-14 0.0 0.0
0.0 0.03878737363605514 -0.030941412688287154 0.03030116125632576 0.0006402514319614024 0.02430490566739336 0.0 0.0
0.0 0.04144418257267289 -0.033700518182788686 0.03289632348909025 0.0008041946936983963 0.02318079217146691 0.0 0.0
0.0 0.03873568672654284 -0.031833415260949814 0.030948469966214236 0.0008849452947355862 0.019606808554105543 0.0 0.0
0.0 0.03378673488172807 -0.027878609712617526 0.0269558488180933 0.0009227608945242403 0.015911094479239586 0.0 0.0
0.0 0.028048634516514858 -0.023300933634620376 0.02238205319527419 0.0009188804393461789 0.01310016193523486 0.0 0.0
0.0 0.022792413893777713 -0.018861449651480802 0.017974423097596767 0.0008870265538840219 0.011052836474704484 0.0 0.0
0.0 0.01799603655303419 -0.014893277407867368 0.014059883752314001 0.0008333936555533606 0.009378458232792776 0.0 0.0
0.0 0.013900045783850543 -0.011446343766958638 0.010678943159380467 0.0007674006075781713 0.007824711228364752 0.0 0.0
0.0 0.010269113075518125 -0.008442244888687568 0.007751645777689975 0.0006905991109976003 0.006254779426080737 0.0 0.0
0.0 0.007127667513061632 -0.0057887512586760935 0.005190319604618255 0.0005984316540578383 0.004623645137683442 0.0 0.0
0.0 0.004569608556630688 -0.0034850528491730207 0.00301251986395333 0.00047253298521969013 0.002963493062167727 0.0 0.0
0.0 0.002118121197175993 -0.0016880907117394737 0.0013865562746261596 0.0003015344371133122 0.0015568596126047636 0.0 0.0
0.0 0.0006759274368306659 -0.0005401520689790739 0.0004218754894747223 0.00011827657950435165 0.0005915903352695344 0.0 0.0
0.0 0.000116120866980954 -4.402984302943695e-05 3.2857595435310006e-05 1.1172247594127093e-05 5.150807967800008e-05 0.0 0.0
0.0 -1.6080939342196415e-05 2.2219453050486605e-06 -1.7813263926554839e-06 -4.4061891239315845e-07 1.7359055815954125e-06 0.0 0.0
0.0 5.026027300932833e-08 2.3338486427700784e-06 -1.8765673973051432e-06 -4.5728124546493055e-07 -7.345347387058867e-06 0.0 0.0
0.0 1.3998142277628855e-06 2.59849835104549e-07 -2.1610876168140373e-07 -4.374107342315267e-08 -1.0234784683610652e-06 0.0 0.0
0.0 3.0340542927854597e-07 -9.561134782204816e-09 1.1062018289073182e-08 -1.5008835068734509e-09 -6.807127350154016e-08 0.0 0.0
0.0 -2.601208150903466e-07 -4.544636810377973e-09 2.7967184891725414e-09 1.7479183212069819e-09 5.3433063895465725e-08 0.0 0.0
0.0 0.0 0.0 0.0 0.0 0.0 0.0 0.0
0.0 0.0 0.0 0.0 0.0 0.0 0.0 0.0
0.0 0.0 0.0 0.0 0.0 0.0 0.0 0.0
0.0 -2.95889627028445e-07 -1.3592507698731995e-08 1.083743040721265e-08 2.7550772915178707e-09 -5.501979115714737e-08 0.0 0.0
0.0 -2.1253336607824818e-06 -2.2580454484153403e-07 1.8414333940537027e-07 4.166120543616625e-08 -6.318399067031436e-07 0.0 0.0
0.0 4.247671241275116e-06 3.3915853503793664e-06 -2.7319754376025924e-06 -6.596099127767676e-07 8.049916408742958e-06 0.0 0.0
0.0 1.9510683199344874e-05 1.4006836606386436e-05 -1.1718058895444193e-05 -2.2887777109423032e-06 2.943337996120503e-05 0.0 0.0
0.0 0.0003332456010311901 -0.00026163420696800947 0.00019885364553570936 6.278056143230008e-05 -0.0002279027602276768 0.0 0.0
0.0 0.0014283717789923408 -0.0012027126920087761 0.0009572827336299327 0.0002454299583788432 -0.0008822019415485094 0.0 0.0
0.0 0.0038369057196716446 -0.0029677270201787496 0.0025123532064451385 0.00045537381373360976 -0.002053619194080743 0.0 0.0
0.0 0.006413841974932761 -0.0055124020396906115 0.004894878079315027 0.0006175239603755877 -0.0036871054991801508 0.0 0.0
0.0 0.010183440283690429 -0.00858207472574388 0.007858645314568705 0.0007234294111751735 -0.005395379079540807 0.0 0.0
0.0 0.014381652900806239 -0.012120995028516093 0.01131425462069495 0.0008067404078211397 -0.007074995011890628 0.0 0.0
0.0 0.01913415836228837 -0.016153613889832108 0.015270033840385156 0.0008835800494469608 -0.008700382283412404 0.0 0.0
0.0 0.024593778105073332 -0.020788710025890018 0.019833009137947697 0.0009557008879423114 -0.01033771030039913 0.0 0.0
0.0 0.03083538007770065 -0.02614217192388153 0.025123635256855688 0.0010185366670258118 -0.012112185613489373 0.0 0.0
0.0 0.03819932864174919 -0.03219340358481301 0.031134922984777557 0.0010584806000354654 -0.014336042987136116 0.0 0.0
0.0 0.04542119455893897 -0.038554956899413594 0.03749642267701482 0.001058534222398691 -0.017482345403848392 0.0 0.0
0.0 0.052472654935769435 -0.044139203624534856 0.043140311979323775 0.0009988916452111148 -0.021707219793041813 0.0 0.0
0.0 0.05642804358695925 -0.04691629274598676 0.04604581809151248 0.0008704746544742178 -0.026081236439931314 0.0 0.0
0.0 0.0530711560026494 -0.04354804278651796 0.042908512910689166 0.0006395298758287832 -0.028051267671919233 0.0 0.0
0.0 0.047440807943646114 -0.036505944472425514 0.032646769148501335 0.0038591753239241534 1.4216058885629934e-14 0.0 0.0
0.0 0.05307115600265047 -0.04354804278651375 0.04290851291068518 0.0006395298758285347 0.028051267671950923 0.0 0.0
0.0 0.05642804358694727 -0.04691629274597253 0.046045818091498325 0.0008704746544742244 0.026081236439961554 0.0 0.0
0.0 0.05247265493574917 -0.044139203624515636 0.04314031197930505 0.000998891645210507 0.02170721979305832 0.0 0.0
0.0 0.04542119455890666 -0.03855495689938589 0.037496422676986975 0.0010585342223989197 0.01748234540384663 0.0 0.0
0.0 0.0381993286417153 -0.03219340358478402 0.031134922984748736 0.0010584806000353006 0.014336042987127923 0.0 0.0
0.0 0.030835380077669353 -0.02614217192385475 0.02512363525682941 0.0010185366670253447 0.012112185613478718 0.0 0.0
0.0 0.024593778105041212 -0.020788710025862356 0.019833009137920445 0.0009557008879418976 0.010337710300388978 0.0 0.0
0.0 0.019134158362257608 -0.01615361388980614 0.015270033840359392 0.0008835800494467374 0.008700382283401625 0.0 0.0
0.0 0.014381652900773263 -0.012120995028488329 0.01131425462066762 0.0008067404078207064 0.0070749950118749565 0.0 0.0
0.0 0.010183440283662394 -0.00858207472572052 0.007858645314545585 0.0007234294111749386 0.005395379079524421 0.0 0.0
0.0 0.0064138419749116835 -0.005512402039672604 0.004894878079297846 0.0006175239603747571 0.003687105499167542 0.0 0.0
0.0 0.003836905719654898 -0.002967727020165714 0.002512353206433362 0.0004553738137323548 0.002053619194072321 0.0 0.0
0.0 0.0014283717789818988 -0.001202712692000706 0.0009572827336231282 0.0002454299583775781 0.0008822019415424761 0.0 0.0
0.0 0.00033324560102690503 -0.00026163420696532466 0.00019885364553370787 6.278056143161647e-05 0.00022790276022563487 0.0 0.0
0.0 1.9510683198686817e-05 1.4006836606100673e-05 -1.1718058895218508e-05 -2.2887777108822134e-06 -2.943337996054334e-05 0.0 0.0
0.0 4.247671239924463e-06 3.3915853503965773e-06 -2.7319754376164697e-06 -6.596099127800831e-07 -8.049916408788886e-06 0.0 0.0
0.0 -2.125333661348886e-06 -2.2580454487806004e-07 1.8414333943451292e-07 4.1661205443550094e-08 6.318399068424692e-07 0.0 0.0
0.0 -2.9588962689353585e-07 -1.3592507692400482e-08 1.0837430402124616e-08 2.755077290274585e-09 5.50197911312241e-08 0.0 0.0
0.0 0.0 0.0 0.0 0.0 0.0 0.0 0.0
0.0 0.0 0.0 0.0 0.0 0.0 0.0 0.0
0.0 0.0 0.0 0.0 0.0 0.0 0.0 0.0
0.0 0.0 0.0 0.0 0.0 0.0 0.0 0.0
0.0 -3.008317283811859e-07 -1.6894082401111415e-08 1.3667650964936457e-08 3.226431436173586e-09 -5.3084951058647605e-08 0.0 0.0
0.0 4.6853068271641524e-07 1.3939363052053655e-08 -9.236181155692594e-09 -4.703181896339928e-09 5.8614310452866236e-08 0.0 0.0
0.0 -1.1804627650395495e-05 1.5497806765452918e-06 -1.336338277773729e-06 -2.134423987715682e-07 3.3075237197764178e-06 0.0 0.0
0.0 0.00010220154233978555 -3.635663652047356e-05 2.5299946910188846e-05 1.1056689610284894e-05 -1.3523987444593193e-06 0.0 0.0
0.0 0.0007248529582597162 -0.0006145426583365514 0.0004722753179488116 0.00014226734038774044 -0.000342035406725854 0.0 0.0
0.0 0.0026108393272006626 -0.0020334736257901784 0.0016626354757657389 0.00037083815002443945 -0.0010836068672961754 0.0 0.0
0.0 0.004998431028725897 -0.004449300056263958 0.003867362349102628 0.0005819377071613271 -0.0024085417719181307 0.0 0.0
0.0 0.008836575121266005 -0.007618748901447354 0.006900478745036926 0.0007182701564104339 -0.003984391491593936 0.0 0.0
0.0 0.013321895329877738 -0.011446135487688896 0.010631486896024488 0.0008146485916644028 -0.005630551141688062 0.0 0.0
0.0 0.01851926183948923 -0.015876554452391597 0.014978794789700094 0.0008977596626915051 -0.007257946725790605 0.0 0.0
0.0 0.024468904077476337 -0.02094839428427972 0.019969011816385118 0.0009793824678945777 -0.00885323809176761 0.0 0.0
0.0 0.031378280202689984 -0.026781074210619284 0.02572254688209765 0.0010585273285216423 -0.010487464534068926 0.0 0.0
0.0 0.03918523033648809 -0.03351968269709209 0.032387757957764385 0.0011319247393276695 -0.012272562094239766 0.0 0.0
0.0 0.04796841498736519 -0.041169881707979736 0.03998786971150611 0.0011820119964736473 -0.014436597194466494 0.0 0.0
0.0 0.05776008529491495 -0.04926334739017906 0.04808633829699348 0.0011770090931855904 -0.01746244040015525 0.0 0.0
0.0 0.06627289148989188 -0.056433640868436157 0.05534365791269989 0.0010899829557362412 -0.02177206648931625 0.0 0.0
0.0 0.0707674177227935 -0.060029673288600614 0.05911910268724782 0.0009105706013528075 -0.02679085405261166 0.0 0.0
0.0 0.06700725724511536 -0.056014489657131475 0.05538682560740867 0.000627664049722788 -0.03049378818061202 0.0 0.0
0.0 0.05977955549912886 -0.04758892686327567 0.04317004210570089 0.004418884757574765 1.3840491253080955e-14 0.0 0.0
0.0 0.06700725724511206 -0.05601448965712366 0.05538682560740135 0.0006276640497223029 0.03049378818064437 0.0 0.0
0.0 0.07076741772277648 -0.06002967328858252 0.05911910268722946 0.0009105706013531003 0.026790854052643535 0.0 0.0
0.0 0.06627289148986543 -0.05643364086841189 0.055343657912676106 0.001089982955735778 0.021772066489333396 0.0 0.0
0.0 0.05776008529487898 -0.04926334739014773 0.04808633829696232 0.0011770090931853435 0.017462440400155887 0.0 0.0
0.0 0.047968414987326416 -0.04116988170794637 0.03998786971147282 0.0011820119964735811 0.014436597194460506 0.0 0.0
0.0 0.03918523033644863 -0.033519682697058156 0.03238775795773099 0.001131924739327165 0.012272562094230473 0.0 0.0
0.0 0.031378280202650675 -0.02678107421058498 0.02572254688206385 0.0010585273285211323 0.010487464534059037 0.0 0.0
0.0 0.024468904077438042 -0.020948394284246795 0.01996901181635229 0.0009793824678944766 0.008853238091756796 0.0 0.0
0.0 0.018519261839452468 -0.01587655445236031 0.014978794789669157 0.0008977596626911364 0.00725794672577692 0.0 0.0
0.0 0.013321895329842529 -0.011446135487659272 0.010631486895995008 0.0008146485916642616 0.005630551141671382 0.0 0.0
0.0 0.008836575121240163 -0.007618748901425356 0.006900478745015654 0.0007182701564097102 0.003984391491581509 0.0 0.0
0.0 0.00499843102870669 -0.004449300056246384 0.003867362349086119 0.0005819377071602607 0.0024085417719084995 0.0 0.0
0.0 0.0026108393271866617 -0.0020334736257790146 0.0016626354757561324 0.0003708381500228811 0.0010836068672901563 0.0 0.0
0.0 0.0007248529582535765 -0.0006145426583317969 0.000472275317945069 0.00014226734038672872 0.00034203540672327423 0.0 0.0
0.0 0.00010220154233777824 -3.6356636519884275e-05 2.5299946909764784e-05 1.1056689610119298e-05 1.3523987441600999e-06 0.0 0.0
0.0 -1.180462765066525e-05 1.54978067600029e-06 -1.336338277350019e-06 -2.1344239865030187e-07 -3.3075237190685405e-06 0.0 0.0
0.0 4.6853068193403325e-07 1.3939363004074152e-08 -9.236181117858883e-09 -4.7031818861973815e-09 -5.861431031767824e-08 0.0 0.0
0.0 -3.0083172820327663e-07 -1.6894082390560128e-08 1.3667650956397697e-08 3.226431434162971e-09 5.3084951026648725e-08 0.0 0.0
0.0 0.0 0.0 0.0 0.0 0.0 0.0 0.0
0.0 0.0 0.0 0.0 0.0 0.0 0.0 0.0
0.0 0.0 0.0 0.0 0.0 0.0 0.0 0.0
0.0 0.0 0.0 0.0 0.0 0.0 0.0 0.0
0.0 -1.680433764396781e-07 -1.0793184899027673e-08 8.54508648894806e-09 2.2480984100807976e-09 -2.827633481288059e-08 0.0 0.0
0.0 -7.331788245097913e-07 -1.7032111614847633e-07 1.3602537357670247e-07 3.429574257174652e-08 -2.290130641821781e-07 0.0 0.0
0.0 -1.053176399243832e-06 1.5519291010417727e-05 -1.2593060357503805e-05 -2.926230652913873e-06 1.9352047620298723e-05 0.0 0.0
0.0 0.00019950149775465142 -0.00020012045054066259 0.00014875264443886202 5.136780610180039e-05 -8.5412992452681e-05 0.0 0.0
0.0 0.0014306338145362264 -0.0010845717821571664 0.0008501458831292409 0.00023442589902792553 -0.0003961156042937545 0.0 0.0
0.0 0.0034094066958340993 -0.0030522650682153637 0.00256376069330948 0.0004885043749058827 -0.00122524089227753 0.0 0.0
0.0 0.006779226524682269 -0.005983348739266017 0.005309675143506739 0.0006736735957592827 -0.0024466256610247276 0.0 0.0
0.0 0.011182310787977528 -0.00977765859318602 0.008981636451761178 0.0007960221414248401 -0.0038599224407559053 0.0 0.0
0.0 0.016529903781238444 -0.014353510760466436 0.013464396153958056 0.0008891146065083723 -0.005359138029415127 0.0 0.0
0.0 0.022769312051417308 -0.019678345177228898 0.018702130706545358 0.0009762144706835466 -0.0068407454433747125 0.0 0.0
0.0 0.0300058572448077 -0.02580222946775105 0.024738121557032717 0.0010641079107183294 -0.008310463433599414 0.0 0.0
0.0 0.037988765310031605 -0.0328533903961114 0.03170239030988421 0.001151000086227187 -0.009853295190246057 0.0 0.0
0.0 0.047497693987768284 -0.04095605965679039 0.03972447466885339 0.0012315849879370126 -0.011545519695350535 0.0 0.0
0.0 0.0582187332486924 -0.05012381665478138 0.04883256232173371 0.0012912543330475972 -0.01346225456272804 0.0 0.0
0.0 0.06940099706256525 -0.05987114702141305 0.058581238360982765 0.0012899086604302717 -0.015943814400883743 0.0 0.0
0.0 0.0796553083160626 -0.06857644421083807 0.06739941693816914 0.001177027272668967 -0.019776613919502563 0.0 0.0
0.0 0.08529613154542108 -0.07304561626148356 0.07210174741258049 0.0009438688489029851 -0.025360668636041254 0.0 0.0
0.0 0.08099173842644825 -0.06858975395958872 0.06798657851148109 0.0006031754481076381 -0.0318984047688301 0.0 0.0
0.0 0.07230072885472527 -0.05897182795231868 0.054044937943909646 0.004926890008409053 1.4205650544774073e-14 0.0 0.0
0.0 0.08099173842643995 -0.06858975395957774 0.06798657851146987 0.0006031754481078413 0.03189840476886155 0.0 0.0
0.0 0.08529613154540044 -0.07304561626146312 0.07210174741255981 0.0009438688489031833 0.025360668636071722 0.0 0.0
0.0 0.07965530831603068 -0.06857644421080966 0.06739941693814108 0.0011770272726686246 0.01977661391951864 0.0 0.0
0.0 0.0694009970625262 -0.059871147021378725 0.05858123836094911 0.0012899086604296485 0.01594381440088684 0.0 0.0
0.0 0.05821873324865019 -0.05012381665474426 0.048832562321697574 0.001291254333046591 0.01346225456272444 0.0 0.0
0.0 0.047497693987721246 -0.040956059656749755 0.03972447466881323 0.0012315849879365212 0.011545519695343013 0.0 0.0
0.0 0.037988765309986086 -0.032853390396071686 0.03170239030984548 0.0011510000862261912 0.009853295190237829 0.0 0.0
0.0 0.03000585724476422 -0.02580222946771306 0.024738121556995098 0.0010641079107179768 0.008310463433590279 0.0 0.0
0.0 0.022769312051374082 -0.019678345177191543 0.018702130706508543 0.0009762144706829919 0.006840745443361623 0.0 0.0
0.0 0.016529903781199486 -0.014353510760432798 0.013464396153924883 0.0008891146065079123 0.005359138029400806 0.0 0.0
0.0 0.011182310787946962 -0.009777658593159426 0.008981636451735154 0.0007960221414242582 0.0038599224407437544 0.0 0.0
0.0 0.006779226524657656 -0.005983348739244092 0.005309675143485787 0.0006736735957582988 0.002446625661015562 0.0 0.0
0.0 0.0034094066958187865 -0.0030522650682017955 0.0025637606932972256 0.000488504374904572 0.001225240892271795 0.0 0.0
0.0 0.0014306338145266986 -0.0010845717821498521 0.0008501458831232773 0.00023442589902657293 0.00039611560429054225 0.0 0.0
0.0 0.00019950149775176915 -0.00020012045053895817 0.00014875264443758743 5.136780610137052e-05 8.541299245217669e-05 0.0 0.0
0.0 -1.0531764000189387e-06 1.5519291010062115e-05 -1.2593060357226247e-05 -2.9262306528357368e-06 -1.9352047619997803e-05 0.0 0.0
0.0 -7.331788246476163e-07 -1.7032111618129986e-07 1.360253736016507e-07 3.4295742579648146e-08 2.290130642228368e-07 0.0 0.0
0.0 -1.6804337643450485e-07 -1.0793184898566844e-08 8.545086488621468e-09 2.248098409945835e-09 2.8276334812116163e-08 0.0 0.0
0.0 0.0 0.0 0.0 0.0 0.0 0.0 0.0
0.0 0.0 0.0 0.0 0.0 0.0 0.0 0.0
0.0 0.0 0.0 0.0 0.0 0.0 0.0 0.0
0.0 0.0 0.0 0.0 0.0 0.0 0.0 0.0
0.0 0.0 0.0 0.0 0.0 0.0 0.0 0.0
0.0 -1.0197649698213103e-06 1.5242855493547567e-07 -1.211005864896802e-07 -3.132796844578707e-08 2.6982436667899455e-07 0.0 0.0
0.0 2.0612442622892347e-05 5.2771932097307585e-06 -5.475891973916026e-06 1.986987641854897e-07 1.1692307106579956e-05 0.0 0.0
0.0 0.0005009520392066942 -0.0003929614341753418 0.00029369080557204173 9.927062860329999e-05 -7.363572145216153e-05 0.0 0.0
0.0 0.0019935559977753707 -0.0017196153263125701 0.0013805549308213583 0.0003390603954912094 -0.00041701781896190084 0.0 0.0
0.0 0.004566226125266464 -0.004131940389259781 0.0035525280973644074 0.0005794122918953744 -0.0011731855719130668 0.0 0.0
0.0 0.008487084525026526 -0.007558496750972504 0.006812004606947976 0.0007464921440245199 -0.0021675568001212264 0.0 0.0
0.0 0.013607482876350514 -0.011960818649338217 0.011101422286337263 0.0008593963630009627 -0.0033461761038065464 0.0 0.0
0.0 0.019755290273177416 -0.017282703785998905 0.016329004864575336 0.000953698921423564 -0.004600410225713994 0.0 0.0
0.0 0.027041631176366918 -0.02350778035007507 0.022460845963171563 0.001046934386903503 -0.005843398938306697 0.0 0.0
0.0 0.03523311616850022 -0.03070218302089546 0.029559539616377493 0.00114264340451796 -0.007087176639092233 0.0 0.0
0.0 0.0450379645460892 -0.03897362877676002 0.03773908939108968 0.001234539385670348 -0.0084284974020513 0.0 0.0
0.0 0.055867049369807825 -0.048425056031618716 0.04710635409008528 0.0013187019415334053 -0.009932953582704072 0.0 0.0
0.0 0.0679148609318496 -0.05900551146175596 0.05761958508735345 0.0013859263744025849 -0.011517944509282743 0.0 0.0
0.0 0.08095686754461213 -0.07021697463818208 0.06881748700099674 0.001399487637185282 -0.013156226639925548 0.0 0.0
0.0 0.09283888218830366 -0.08040940585092306 0.07913135175336954 0.0012780540975535204 -0.015786474460662937 0.0 0.0
0.0 0.09966893312115384 -0.08600407455561447 0.08501743764851272 0.0009866369071017947 -0.02168851813895058 0.0 0.0
0.0 0.09548419913788976 -0.08152741204456844 0.08096773780866391 0.0005596742359046318 -0.03204880428185989 0.0 0.0
0.0 0.08602686716320927 -0.07096232762280921 0.06558694340834466 0.00537538421446458 1.2943639216000946e-14 0.0 0.0
0.0 0.09548419913787629 -0.08152741204455402 0.08096773780864888 0.0005596742359051715 0.03204880428188754 0.0 0.0
0.0 0.09966893312112932 -0.08600407455559145 0.08501743764848994 0.0009866369071014753 0.021688518138978017 0.0 0.0
0.0 0.09283888218826312 -0.08040940585088775 0.07913135175333422 0.0012780540975534684 0.015786474460676308 0.0 0.0
0.0 0.08095686754456513 -0.07021697463814135 0.0688174870009559 0.0013994876371853818 0.013156226639928515 0.0 0.0
0.0 0.06791486093180199 -0.0590055114617143 0.05761958508731282 0.0013859263744014775 0.011517944509281166 0.0 0.0
0.0 0.0558670493697507 -0.048425056031569685 0.04710635409003589 0.0013187019415337787 0.009932953582698082 0.0 0.0
0.0 0.04503796454603707 -0.03897362877671459 0.03773908939104502 0.001234539385669529 0.008428497402044169 0.0 0.0
0.0 0.035233116168447765 -0.03070218302085021 0.02955953961633244 0.0011426434045177806 0.007087176639084313 0.0 0.0
0.0 0.027041631176319744 -0.02350778035003349 0.02246084596313088 0.0010469343869026239 0.005843398938296751 0.0 0.0
0.0 0.019755290273135013 -0.017282703785961886 0.016329004864538806 0.0009536989214230722 0.004600410225702364 0.0 0.0
0.0 0.013607482876315146 -0.011960818649307427 0.01110142228630706 0.0008593963630003651 0.003346176103795814 0.0 0.0
0.0 0.008487084525000448 -0.007558496750949155 0.006812004606925558 0.0007464921440235889 0.002167556800114035 0.0 0.0
0.0 0.004566226125248433 -0.004131940389243113 0.003552528097348944 0.0005794122918941699 0.001173185571907615 0.0 0.0
0.0 0.0019935559977638817 -0.0017196153263027724 0.001380554930813047 0.00033906039548972785 0.00041701781895886524 0.0 0.0
0.0 0.0005009520392026761 -0.00039296143417266277 0.00029369080557003406 9.927062860262856e-05 7.363572145157515e-05 0.0 0.0
0.0 2.0612442622206375e-05 5.277193209569675e-06 -5.475891973768313e-06 1.9869876419849777e-07 -1.1692307106164086e-05 0.0 0.0
0.0 -1.0197649703424719e-06 1.5242855494708055e-07 -1.2110058650104614e-07 -3.1327968446028886e-08 -2.6982436672874255e-07 0.0 0.0
0.0 0.0 0.0 0.0 0.0 0.0 0.0 0.0
0.0 0.0 0.0 0.0 0.0 0.0 0.0 0.0
0.0 0.0 0.0 0.0 0.0 0.0 0.0 0.0
0.0 0.0 0.0 0.0 0.0 0.0 0.0 0.0
0.0 0.0 0.0 0.0 0.0 0.0 0.0 0.0
0.0 0.0 0.0 0.0 0.0 0.0 0.0 0.0
0.0 -1.398815496809567e-08 7.053662870209929e-07 -5.55211098156514e-07 -1.5015518886449382e-07 5.525312918950555e-07 0.0 0.0
0.0 5.4949059693963604e-05 -5.503649234049586e-05 3.799455392296716e-05 1.7041938417528727e-05 5.012502156560445e-06 0.0 0.0
0.0 0.0009124023823712327 -0.000698798115246936 0.0005313038844107014 0.00016749423083623377 -3.251140853295767e-05 0.0 0.0
0.0 0.0025867690258572517 -0.0024530148019922555 0.002018365748958819 0.0004346490530334378 -0.0003534544943664332 0.0 0.0
0.0 0.0057971874818706585 -0.005248178160934395 0.004593509787285555 0.0006546683736488463 -0.0008799626969134554 0.0 0.0
0.0 0.010228688224385794 -0.009151556790631024 0.008346403300208109 0.0008051534904229124 -0.0015999861509790655 0.0 0.0
0.0 0.01603290145023082 -0.01415020451743259 0.013236802613413158 0.000913401904019421 -0.0024551346644776195 0.0 0.0
0.0 0.02307753734633123 -0.020214254292368495 0.01920240884955452 0.0010118454428139482 -0.003367946120843846 0.0 0.0
0.0 0.031250962063680846 -0.027347346780368174 0.026235262015978894 0.0011120847643892801 -0.004272840806241107 0.0 0.0
0.0 0.04098055839279375 -0.03561548415979256 0.03440097096813623 0.0012145131916563108 -0.0051907916344478945 0.0 0.0
0.0 0.05169366003410253 -0.04513066550413326 0.043817626177426953 0.0013130393267062532 -0.006229666181389231 0.0 0.0
0.0 0.0641503502487947 -0.055910071855825076 0.05451162073703479 0.0013984511187903512 -0.0074134237723947624 0.0 0.0
0.0 0.07786444931513642 -0.06778003256614665 0.06631938854582216 0.0014606440203244308 -0.008585245872159433 0.0 0.0
0.0 0.0922083490536629 -0.08019412650290471 0.07870557565301914 0.0014885508498857253 -0.009451040637899531 0.0 0.0
0.0 0.1055251832400634 -0.09172323971957992 0.0903022913695573 0.001420948350022637 -0.010458064021326392 0.0 0.0
0.0 0.11397968255996538 -0.09884153257834208 0.09776417441236589 0.0010773581659761669 -0.015177880638616711 0.0 0.0
0.0 0.11067617141597116 -0.09511579572338412 0.09463824305868325 0.00047755266470067516 -0.03004216667805366 0.0 0.0
0.0 0.10103532073364958 -0.08401266438983188 0.0782801881920432 0.0057324761977885896 9.508886733566868e-15 0.0 0.0
0.0 0.1106761714159538 -0.09511579572336737 0.09463824305866632 0.0004775526647010535 0.03004216667807515 0.0 0.0
0.0 0.11397968255993482 -0.09884153257831454 0.09776417441233881 0.0010773581659757412 0.01517788063863906 0.0 0.0
0.0 0.10552518324001577 -0.09172323971953883 0.09030229136951638 0.0014209483500224448 0.01045806402133637 0.0 0.0
0.0 0.09220834905361004 -0.08019412650285887 0.07870557565297329 0.0014885508498856009 0.009451040637901458 0.0 0.0
0.0 0.07786444931508157 -0.06778003256609881 0.06631938854577538 0.0014606440203234494 0.008585245872158824 0.0 0.0
0.0 0.06415035024873185 -0.05591007185577097 0.054511620736980446 0.0013984511187905245 0.0074134237723911586 0.0 0.0
0.0 0.05169366003404264 -0.04513066550408116 0.04381762617737577 0.0013130393267053854 0.006229666181383944 0.0 0.0
0.0 0.040980558392733187 -0.035615484159739995 0.03440097096808373 0.001214513191656252 0.005190791634442593 0.0 0.0
0.0 0.03125096206362823 -0.027347346780322454 0.02623526201593407 0.0011120847643883282 0.004272840806235067 0.0 0.0
0.0 0.02307753734628262 -0.02021425429232558 0.019202408849512062 0.0010118454428135228 0.003367946120834643 0.0 0.0
0.0 0.016032901450192167 -0.014150204517398155 0.013236802613379475 0.0009134019040186807 0.002455134664469787 0.0 0.0
0.0 0.010228688224357747 -0.009151556790605649 0.008346403300183634 0.0008051534904220202 0.0015999861509738756 0.0 0.0
0.0 0.005797187481850402 -0.005248178160915731 0.004593509787268069 0.0006546683736476594 0.0008799626969094493 0.0 0.0
0.0 0.0025867690258452106 -0.0024530148019809035 0.002018365748948836 0.00043464905303206556 0.00035345449436399804 0.0 0.0
0.0 0.0009124023823656851 -0.0006987981152424764 0.0005313038844071792 0.00016749423083529667 3.251140853240364e-05 0.0 0.0
0.0 5.494905969267946e-05 -5.503649234022458e-05 3.7994553922808015e-05 1.704193841741644e-05 -5.012502156064669e-06 0.0 0.0
0.0 -1.3988155416159793e-08 7.053662870953449e-07 -5.55211098217557e-07 -1.5015518887780862e-07 -5.525312919776936e-07 0.0 0.0
0.0 0.0 0.0 0.0 0.0 0.0 0.0 0.0
0.0 0.0 0.0 0.0 0.0 0.0 0.0 0.0
0.0 0.0 0.0 0.0 0.0 0.0 0.0 0.0
0.0 0.0 0.0 0.0 0.0 0.0 0.0 0.0
0.0 0.0 0.0 0.0 0.0 0.0 0.0 0.0
0.0 0.0 0.0 0.0 0.0 0.0 0.0 0.0
0.0 -1.740221161891743e-06 9.458218012201978e-07 -8.231301078354529e-07 -1.2269169338474187e-07 6.494025020577436e-07 0.0 0.0
0.0 0.00020768848867554955 -0.00013426759596859775 9.448157409939342e-05 3.9786021869204217e-05 3.414570774357562e-05 0.0 0.0
0.0 0.001297590260495493 -0.0011198055172881355 0.0008700399426306654 0.00024976557465747015 5.130519920482453e-05 0.0 0.0
0.0 0.0034645041987335498 -0.003211423009717297 0.002700664586289831 0.0005107584234274658 -0.00011672496208774364 0.0 0.0
0.0 0.007038054992086346 -0.00638251724600087 0.00566665286302459 0.0007158643829762749 -0.00038392894859371726 0.0 0.0
0.0 0.012049013942746389 -0.010742127235639116 0.009888787348384078 0.0008533398872550392 -0.000750385033749587 0.0 0.0
0.0 0.018463191558603986 -0.016327341714749116 0.015365948220578112 0.0009613934941709982 -0.0011946620751033526 0.0 0.0
0.0 0.026328005528278926 -0.023132566248382686 0.02206745349784407 0.0010651127505386356 -0.0016638039941481752 0.0 0.0
0.0 0.03576003927730416 -0.031177169995402435 0.030005107971323112 0.0011720620240793253 -0.002130456641510373 0.0 0.0
0.0 0.04626150400170133 -0.04053998475526437 0.039258174646823754 0.0012818101084405803 -0.0026476003489160583 0.0 0.0
0.0 0.05864879906353365 -0.05128344820485463 0.0498971570306646 0.0013862911741900213 -0.0032478992964796926 0.0 0.0
0.0 0.07257931254605088 -0.0633676942763098 0.061895848858342074 0.0014718454179677221 -0.003930174230169658 0.0 0.0
0.0 0.08771526347265363 -0.07647284440137611 0.07494707718475949 0.001525767216616688 -0.004607580581836534 0.0 0.0
0.0 0.1032071813769954 -0.08985542095715532 0.0883124420863845 0.0015429788707707831 -0.00500104407512421 0.0 0.0
0.0 0.11755425941905231 -0.10225098564681531 0.10071649233066612 0.00153449331614924 -0.004963735494967307 0.0 0.0
0.0 0.12777871389438525 -0.1110871224088726 0.10971518793763899 0.0013719344712334993 -0.0067279252988940485 0.0 0.0
0.0 0.12686513151726642 -0.1096656180059511 0.10924259572592496 0.0004230222800261309 -0.02136550983509653 0.0 0.0
0.0 0.11842290032881561 -0.09912188450225115 0.09340297095678857 0.0057189135454624816 5.146924553223187e-15 0.0 0.0
0.0 0.1268651315172476 -0.1096656180059337 0.1092425957259076 0.0004230222800261038 0.02136550983510891 0.0 0.0
0.0 0.12777871389434814 -0.1110871224088403 0.10971518793760679 0.0013719344712333431 0.006727925298906133 0.0 0.0
0.0 0.11755425941899847 -0.102250985646769 0.10071649233061952 0.0015344933161494413 0.004963735494973238 0.0 0.0
0.0 0.1032071813769369 -0.08985542095710433 0.08831244208633429 0.0015429788707701072 0.005001044075125752 0.0 0.0
0.0 0.08771526347258946 -0.07647284440132035 0.07494707718470425 0.0015257672166160696 0.004607580581836772 0.0 0.0
0.0 0.07257931254598257 -0.06336769427625052 0.06189584885828331 0.0014718454179672256 0.003930174230167048 0.0 0.0
0.0 0.058648799063467566 -0.05128344820479717 0.049897157030607986 0.001386291174189107 0.0032478992964774757 0.0 0.0
0.0 0.046261504001633855 -0.04053998475520591 0.039258174646765426 0.001281810108440492 0.0026476003489130507 0.0 0.0
0.0 0.03576003927724306 -0.031177169995349148 0.030005107971270418 0.0011720620240787227 0.002130456641506603 0.0 0.0
0.0 0.026328005528225215 -0.02313256624833602 0.022067453497797946 0.00106511275053806 0.0016638039941429027 0.0 0.0
0.0 0.018463191558562398 -0.016327341714712153 0.01536594822054208 0.0009613934941700724 0.0011946620750994156 0.0 0.0
0.0 0.012049013942713597 -0.010742127235609527 0.009888787348355283 0.000853339887254234 0.0007503850337468285 0.0 0.0
0.0 0.007038054992063294 -0.00638251724597972 0.005666652863004393 0.0007158643829753214 0.00038392894859160193 0.0 0.0
0.0 0.0034645041987193545 -0.0032114230097038507 0.002700664586277591 0.0005107584234262582 0.00011672496208623134 0.0 0.0
0.0 0.0012975902604883674 -0.0011198055172819733 0.0008700399426256739 0.00024976557465630013 -5.1305199204783105e-05 0.0 0.0
0.0 0.00020768848867317816 -0.0001342675959673217 9.448157409849359e-05 3.978602186882822e-05 -3.414570774323444e-05 0.0 0.0
0.0 -1.7402211620726566e-06 9.458218009058952e-07 -8.23130107600976e-07 -1.2269169330485996e-07 -6.494025020459211e-07 0.0 0.0
0.0 0.0 0.0 0.0 0.0 0.0 0.0 0.0
0.0 0.0 0.0 0.0 0.0 0.0 0.0 0.0
0.0 0.0 0.0 0.0 0.0 0.0 0.0 0.0
0.0 0.0 0.0 0.0 0.0 0.0 0.0 0.0
0.0 0.0 0.0 0.0 0.0 0.0 0.0 0.0
0.0 0.0 0.0 0.0 0.0 0.0 0.0 0.0
0.0 2.65629875388089e-07 1.1713639123861935e-06 -1.135118129348031e-06 -3.624578303803805e-08 1.4697846939733128e-06 0.0 0.0
0.0 0.00041846295697704 -0.0002607106029355646 0.00018331244700398633 7.739815593157869e-05 7.83735028319074e-05 0.0 0.0
0.0 0.0017365476766081685 -0.0015068271122414536 0.001159968932887435 0.0003468581793540181 0.0001962451571225318 0.0 0.0
0.0 0.004154263588325879 -0.0038583130780801044 0.0032113302535771056 0.0006469828245029988 0.00024078029969115878 0.0 0.0
0.0 0.00803210472714966 -0.007318682312854207 0.006418902946839534 0.0008997793660146706 0.0002707793265058617 0.0 0.0
0.0 0.013381419330638198 -0.012048777690912667 0.01094261996747509 0.0011061577234375715 0.00028242673579560414 0.0 0.0
0.0 0.020344376628136908 -0.018114259167154697 0.016803446447844404 0.0013108127193102981 0.00025099994946045667 0.0 0.0
0.0 0.028929002244052975 -0.02553775751832775 0.023995703293430704 0.0015420542248970309 0.00022189904410562997 0.0 0.0
0.0 0.03884744274729923 -0.03435965937514836 0.03255174134239934 0.0018079180327490309 0.00019019154328007212 0.0 0.0
0.0 0.050515331417246574 -0.0446283919132646 0.042527785505378266 0.0021006064078862873 8.964513610002466e-05 0.0 0.0
0.0 0.06391895270876898 -0.05638399359598206 0.05397608924691269 0.0024079043490693353 -4.2853597878431474e-05 0.0 0.0
0.0 0.07896459754416739 -0.06953860129210768 0.06683431408246879 0.0027042872096388285 -0.0002776357775175972 0.0 0.0
0.0 0.09520009556621843 -0.0836556116747863 0.08070188104064563 0.002953730634140576 -0.0006069473082197874 0.0 0.0
0.0 0.11150701660529361 -0.09778813191762138 0.09467611126288719 0.0031120206547340813 -0.0009117248336795152 0.0 0.0
0.0 0.12620412897284972 -0.11048688063770819 0.1073535735247157 0.0031333071129923994 -0.0009560284982083871 0.0 0.0
0.0 0.1371261809513972 -0.12003833424519758 0.11693405872074655 0.003104275524451093 -0.001430115572090422 0.0 0.0
0.0 0.13940736109074314 -0.12248051088125529 0.11947355736242697 0.0030069535188283086 -0.015161737207218053 0.0 0.0
0.0 0.13520478808600483 -0.11485735508779105 0.10560488498205631 0.00925247010573464 2.5396351688300456e-15 0.0 0.0
0.0 0.13940736109072369 -0.12248051088123783 0.11947355736241057 0.00300695351882714 0.015161737207221927 0.0 0.0
0.0 0.13712618095135587 -0.12003833424516167 0.11693405872071153 0.003104275524450216 0.001430115572093554 0.0 0.0
0.0 0.12620412897279001 -0.11048688063765624 0.10735357352466468 0.0031333071129916188 0.0009560284982104671 0.0 0.0
0.0 0.11150701660523035 -0.09778813191756558 0.09467611126283329 0.003112020654731963 0.0009117248336788855 0.0 0.0
0.0 0.0952000955661469 -0.08365561167472418 0.08070188104058407 0.0029537306341400624 0.0006069473082199062 0.0 0.0
0.0 0.07896459754409359 -0.06953860129204309 0.06683431408240563 0.0027042872096374663 0.00027763577751493095 0.0 0.0
0.0 0.06391895270869712 -0.05638399359591935 0.05397608924685127 0.00240790434906807 4.285359787804723e-05 0.0 0.0
0.0 0.05051533141717364 -0.04462839191320095 0.04252778550531566 0.0021006064078852686 -8.964513610098482e-05 0.0 0.0
0.0 0.03884744274723137 -0.03435965937508917 0.03255174134234136 0.001807918032747807 -0.00019019154328216766 0.0 0.0
0.0 0.0289290022439971 -0.02553775751827861 0.023995703293382954 0.001542054224895663 -0.0002218990441075542 0.0 0.0
0.0 0.02034437662809281 -0.01811425916711603 0.016803446447807343 0.001310812719308697 -0.0002509999494611911 0.0 0.0
0.0 0.01338141933060186 -0.012048777690880417 0.010942619967443973 0.001106157723436455 -0.0002824267357963734 0.0 0.0
0.0 0.008032104727123901 -0.007318682312830704 0.006418902946817166 0.0008997793660135417 -0.00027077932650583785 0.0 0.0
0.0 0.004154263588309291 -0.003858313078064395 0.0032113302535628566 0.0006469828245015412 -0.00024078029969112978 0.0 0.0
0.0 0.0017365476766007142 -0.001506827112234171 0.0011599689328815656 0.00034685817935260603 -0.0001962451571217652 0.0 0.0
0.0 0.0004184629569738659 -0.00026071060293344985 0.00018331244700249148 7.739815593095929e-05 -7.837350283141875e-05 0.0 0.0
0.0 2.6562987527924866e-07 1.1713639122838914e-06 -1.1351181292684844e-06 -3.624578301542439e-08 -1.4697846939428368e-06 0.0 0.0
0.0 0.0 0.0 0.0 0.0 0.0 0.0 0.0
0.0 0.0 0.0 0.0 0.0 0.0 0.0 0.0
0.0 0.0 0.0 0.0 0.0 0.0 0.0 0.0
SCALARS Wm float 4
LOOKUP_TABLE default
10.917068243465053 1.9471247137095973 4.376637691815931 4.5933058379395195
5.0986072992301885 2.509243915580434 1.1339028958906237 1.4554604877591315
0.5705853709481927 0.5603118513839745 -0.0024762865419536767 0.012749806106171798
0.4655138165888113 0.45605592607296586 0.0026117547139141023 0.006846135801931249
0.8490695319611239 0.6838423154620275 0.058113547400557596 0.10711366909853814
1.7008775071193367 0.9295926593888271 0.26364052080133826 0.5076443269291713
3.3663049476673623 1.2796811832068589 0.8462071733167156 1.2404165911437894
6.00010084471769 1.685216951853607 1.9169368903909023 2.397947002473173
9.814910056375272 2.170828040419475 3.6373948730057784 4.006687142950019
14.993910586978908 2.771636832589261 6.142250430935437 6.080023323454217
21.682311090558372 3.529271637371286 9.532206306263614 8.620833146923474
29.920886498758097 4.472710658642718 13.80492075497657 11.643255085138826
39.95790026581859 5.601486282113184 19.188631526277153 15.167782457428242
51.900937826039836 6.914852557309283 25.771273788197547 19.214811480533008
65.71128035295266 8.319815337562687 33.62615878883653 23.765306226553438
81.0361842562329 9.6408657730075 42.67501595983081 28.720302523394594
97.02478457933654 10.650306334416463 52.49105459517445 33.88342364974564
112.39508086036976 11.154980348487578 62.357647163772796 38.88245334810937
125.6623799991803 11.153497865412307 71.25215810332661 43.25672403044142
134.93872069581855 10.63320677493287 77.81444464762805 46.491069273257594
138.053461494825 9.762124358186185 80.46376013831053 47.82757699832831
134.93872069580485 10.6332067749363 77.81444464761638 46.49106927325221
125.66237999914082 11.153497865405887 71.25215810330424 43.25672403043067
112.39508086032313 11.154980348495206 62.35764716373686 38.882453348091055
97.02478457926621 10.650306334401254 52.49105459513808 33.883423649726865
81.03618425617825 9.6408657730161 42.675015959789896 28.72030252337232
65.71128035289341 8.31981533756064 33.62615878880007 23.765306226532676
51.900937825978794 6.914852557302762 25.771273788163423 19.214811480512584
39.95790026576174 5.601486282109125 19.188631526244823 15.167782457407815
29.92088649870563 4.472710658636786 13.804920754948816 11.643255085120026
21.682311090514666 3.5292716373653166 9.53220630624178 8.620833146907566
14.993910586945628 2.77163683258672 6.142250430918292 6.080023323440622
9.814910056348966 2.1708280404119744 3.637394872995835 4.006687142941159
6.000100844702288 1.6852169518533302 1.9169368903834385 2.397947002465521
3.3663049476570395 1.2796811832039114 0.8462071733134361 1.2404165911396923
1.7008775071139866 0.9295926593867092 0.26364052080035155 0.5076443269269264
0.8490695319593431 0.6838423154610601 0.05811354740024577 0.10711366909803727
0.4655138165883328 0.45605592607245515 0.00261175471391574 0.006846135801962227
0.5705853709474413 0.5603118513834017 -0.002476286541983421 0.012749806106023125
5.098607299225597 2.509243915581097 1.1339028958881534 1.4554604877563446
10.917068243439875 1.947124713697218 4.376637691809001 4.593305837933661
12.79532599707336 5.710606687599911 3.348874520049083 3.73584478942437
1.9035808683216944 0.4196577915170642 0.601834316737972 0.8820887600666576
0.23914943396633342 0.2633944402048762 -0.006454739251278282 -0.017790266987264533
0.3696685254294083 0.36930941726524164 -9.069387721251299e-05 0.0004498020413792683
0.6499543603733333 0.5625421081148896 0.02515819380281291 0.062254058455630965
1.3680640222859366 0.8032528418764062 0.19775361975186617 0.3670575606576643
2.767007590909092 1.0555220971459596 0.6729817917119546 1.0385037020511774
5.083000746834538 1.3516180292022943 1.6277294572824317 2.103653260349814
8.455595895559835 1.6723073698536228 3.1860729933880108 3.5972155323181987
12.98952011974169 2.0292331436552127 5.439008646588352 5.521278329498125
18.785113936495122 2.434141972727889 8.479452066052959 7.8715198977142675
25.988911295102216 2.906436919577882 12.42930457110523 10.653169804419118
34.55198160802517 3.4594472424308123 17.19445297749815 13.89808138809622
44.85768272785046 4.079489423848627 23.14915049755915 17.629042806442683
56.82194756534496 4.7259346366361905 30.249904600902685 21.84610832780607
70.18769826670783 5.296383190584199 38.43214971691402 26.459165359209592
84.29553946089187 5.659472379768526 47.38495567654107 31.25111140458226
98.07166153753906 5.718408266163385 56.43911611741577 35.91413715395988
110.06422264227261 5.4300087454847 64.62089294619624 40.013320950591655
118.52500353480217 4.841261727315077 70.70113516224895 42.98260664523809
121.64476353407755 4.21210100144383 73.2340210661548 44.198641466478975
118.52500353478611 4.8412617273146035 70.70113516223851 42.98260664523301
110.06422264224149 5.430008745484082 64.62089294617591 40.01332095058149
98.07166153749873 5.718408266171985 56.439116117383264 35.91413715394349
84.2955394608369 5.659472379761701 47.38495567650964 31.251111404565577
70.18769826664669 5.296383190576477 38.43214971687949 26.459165359190713
56.821947565292454 4.725934636636499 30.249904600869232 21.84610832778672
44.85768272780032 4.0794894238487345 23.14915049752791 17.62904280642368
34.551981607975144 3.459447242428318 17.19445297746928 13.898081388077525
25.98891129505745 2.9064369195756776 12.429304571080102 10.65316980440167
18.785113936457602 2.4341419727255045 8.47945206603286 7.8715198976992475
12.989520119712374 2.0292331436538844 5.439008646572998 5.52127832948549
8.45559589553818 1.672307369849154 3.1860729933791094 3.597215532309913
5.08300074682053 1.3516180292024194 1.6277294572755892 2.103653260342525
2.7670075909005973 1.0555220971441646 0.672981791709073 1.0385037020473593
1.3680640222816072 0.8032528418751195 0.19775361975064168 0.3670575606558458
0.6499543603720113 0.5625421081141413 0.025158193802607393 0.06225405845526264
0.3696685254292158 0.36930941726495675 -9.069387719784924e-05 0.00044980204145695697
0.23914943396633023 0.2633944402046818 -0.006454739251218079 -0.017790266987133433
1.9035808683159736 0.4196577915162373 0.6018343167356874 0.8820887600640495
12.795325997049714 5.710606687589437 3.3488745200421612 3.735844789418115
9.506134948851848 4.482484883997316 2.269511630765157 2.7541384340893726
1.1586216030201413 0.15290005803919998 0.39410498241218417 0.6116165625687572
0.15077338035953836 0.1507742655892394 -3.6811495252537546e-08 -8.48418205815541e-07
0.27867508329758617 0.27869270972398463 2.441298382160997e-05 -4.2039410220100525e-05
0.5013421819154986 0.4769855131590323 0.005339746684198301 0.01901692207226817
1.0653267293300988 0.7212895105978442 0.11640295495951626 0.22763426377273846
2.230461771405596 0.9659758633477019 0.4727512484431379 0.7917346596147565
4.250856249273561 1.2505915346053549 1.2713834034568063 1.7288813112113985
7.213145965659695 1.548214369196803 2.5983966510912424 3.0665349453716484
11.216839211306123 1.8674101176598874 4.55695243166541 4.792476661980823
16.298598677050904 2.222221970903272 7.185838570559495 6.890538135588141
22.506897539790494 2.6290232725533937 10.514431442327746 9.363442824909352
30.099398199309444 3.111305788922272 14.75563330831915 12.232459102068024
38.98677125402195 3.6632057447524446 19.77699326962307 15.546572239646432
49.46369789584968 4.240011190516332 25.92217511097152 19.301511594361823
61.23160935962244 4.770772957902355 33.02658360614083 23.43425279557926
73.74804630654282 5.150067199454195 40.81970708086982 27.778272026218836
86.05596209080214 5.264552027358982 48.776063535151756 32.01534652829139
96.80742488218159 5.031831316112747 56.033094107220364 35.74249945884847
104.43881264743382 4.574601620071325 61.430967153490215 38.433243873872286
107.1793351653765 3.8359376736273494 63.75156372077042 39.591833770978745
104.43881264742548 4.574601620078192 61.43096715348019 38.43324387386704
96.80742488215327 5.03183131611147 56.033094107202494 35.74249945883933
86.0559620907577 5.264552027353919 48.7760635351261 32.0153465282777
73.7480463065021 5.150067199455958 40.81970708084233 27.77827202620383
61.231609359576844 4.770772957900466 33.02658360611294 23.43425279556342
49.46369789579986 4.240011190511663 25.922175110943193 19.301511594344994
38.98677125397439 3.663205744748351 19.7769932695964 15.54657223962965
30.09939819926663 3.1113057889205247 14.755633308294549 12.23245910205155
22.506897539749424 2.629023272548817 10.514431442306462 9.36344282489415
16.29859867701773 2.222221970901386 7.185838570541935 6.890538135574406
11.216839211280556 1.8674101176580205 4.556952431652666 4.792476661969865
7.213145965640891 1.5482143691942973 2.5983966510829557 3.066534945363636
4.25085624926053 1.250591534604605 1.2713834034509826 1.7288813112049426
2.2304617713983887 0.9659758633459212 0.47275124844098126 0.7917346596114861
1.0653267293267246 0.7212895105968722 0.11640295495860659 0.22763426377124588
0.5013421819145885 0.4769855131583004 0.0053397466841362306 0.019016922072151478
0.278675083297348 0.27869270972373694 2.4412983822781962e-05 -4.20394102117002e-05
0.1507733803595187 0.150774265589219 -3.68114952114993e-08 -8.484182050657688e-07
1.1586216030159147 0.1529000580389639 0.39410498241041725 0.6116165625665333
9.506134948829926 4.482484883988031 2.269511630758783 2.7541384340831137
7.106476016653135 3.480507344669501 1.569634018949135 2.056334653034502
0.7598450720327157 0.08205051311172064 0.24819605554864066 0.4295985033723544
0.10645878377763453 0.10645878377763453 0.0 0.0
0.21049144575296402 0.21049198465188762 3.5386459732908577e-06 -4.077544896841459e-06
0.3892152106003855 0.3920302974440897 -0.00112415900777775 -0.0016909278359263681
0.7966785936231459 0.6199491353395995 0.051900034397401366 0.12482942388614496
1.7559314904453758 0.882895543749402 0.31764004408030977 0.5553959026156639
3.4516629099095817 1.1436563481071196 0.943522754177111 1.3644838076253507
6.017201576383796 1.4203302906863582 2.054555668046669 2.5423156176507673
9.484049132704092 1.706149989339443 3.7098073268930274 4.068091816471622
13.847596708006852 2.013087048727637 5.917823510558048 5.916686148721171
19.210888604181772 2.365797193136713 8.763965816450611 8.081125594594454
25.59846805112506 2.778726322958743 12.232494387786703 10.587247340379605
33.35880932972108 3.256220848145679 16.631047035423624 13.471541446151802
42.32785786606386 3.7742279436618276 21.78895522914239 16.764674693259643
52.45508064352089 4.269388752106496 27.770435701548205 20.415256189866195
63.441790070448285 4.6588309683399265 34.51013445128112 24.27282465082724
74.34636165252824 4.83049105791672 41.42206566795856 28.093804926652926
83.969834481011 4.6947914108525834 47.77232454789252 31.50271852226589
90.91556726864466 4.329227507447063 52.568863692382926 34.017476068814744
93.41557832360456 3.4461386472487145 54.817686312113125 35.1517533642427
90.91556726863007 4.329227507445317 52.568863692374364 34.01747606881038
83.96983448099252 4.694791410858958 47.77232454787629 31.5027185222573
74.3463616525008 4.830491057921124 41.42206566793784 28.09380492664183
63.441790070406675 4.658830968335376 34.510134451257436 24.272824650813853
52.455080643486056 4.2693887521125955 27.77043570152246 20.415256189851032
42.327857866022406 3.7742279436582677 21.788955229118965 16.764674693245148
33.35880932968558 3.256220848147842 16.631047035400826 13.471541446136916
25.598468051087593 2.7787263229560875 12.23249438776614 10.587247340365373
19.210888604149087 2.3657971931345916 8.76396581643316 8.081125594581334
13.847596707978003 2.0130870487250587 5.917823510543574 5.916686148709374
9.484049132682301 1.706149989337938 3.709807326882287 4.068091816462071
6.017201576367159 1.4203302906850448 2.054555668039035 2.5423156176430797
3.451662909899056 1.143656348106057 0.9435227541729337 1.364483807620065
1.755931490439585 0.8828955437481156 0.3176400440783937 0.5553959026130753
0.7966785936206302 0.619949135338481 0.051900034396897846 0.12482942388525159
0.3892152105997883 0.3920302974433908 -0.0011241590077659686 -0.001690927835836536
0.2104914457528341 0.21049198465177835 3.538645971508126e-06 -4.07754491580461e-06
0.10645878377748387 0.10645878377748387 0.0 0.0
0.7598450720294252 0.08205051311170067 0.2481960555472073 0.4295985033705175
7.106476016635182 3.4805073446619312 1.5696340189442273 2.0563346530290256
5.229178493243264 2.6802826703123346 1.0437087924403814 1.5051870304905468
0.5564792590749478 0.10677053593066396 0.17061603595864516 0.279092687185639
0.09681814467309964 0.09681814467309964 0.0 0.0
0.16752510916959923 0.16751768035108094 4.1024249203392503e-07 7.018576026238409e-06
0.3055608545366663 0.3096813891435733 -0.0010580322396828057 -0.003062502367224234
0.5918197152124249 0.5340648653055297 0.013989518867312735 0.04376533103958239
1.3255315003253902 0.7789362115266675 0.1958773746972991 0.3507179141014241
2.6981233160898586 1.031992846768582 0.6513376212418241 1.0147928480794535
4.861788280932349 1.2868730138441908 1.5476763922147438 2.0272388748734156
7.795109872055742 1.5426800169113515 2.901389398023228 3.351040457121165
11.49276373007289 1.8103493312687997 4.732330336304248 4.950084062499841
15.985079281540443 2.1096988479101673 7.0654822653509886 6.809898168279294
21.397492003792394 2.462753338210528 9.983533061558118 8.951205604023745
27.745505678780418 2.8730707693404387 13.451802140888612 11.420632768551373
35.340139117841105 3.3216705314708017 17.77697617977981 14.24149240659049
44.019207589480104 3.781016972405663 22.845370105623374 17.392820511451074
53.37804070700257 4.182582464075731 28.422194813944213 20.773263428982624
62.894155592278665 4.419593803971432 34.314404148542685 24.16015763976453
71.48692445004866 4.389510625359523 39.859187190233904 27.238226634455227
77.90241209409677 4.101357750842844 44.20844798707614 29.592606356177736
80.24873955141027 3.056891121366963 46.41963005881202 30.772218371231347
77.9024120940879 4.101357750843033 44.208447987070265 29.592606356174574
71.48692445002578 4.3895106253581435 39.85918719021998 27.238226634447646
62.894155592251636 4.419593803973035 34.31440414852439 24.160157639754225
53.37804070697188 4.182582464074862 28.422194813925383 20.773263428971617
44.01920758944235 3.7810169724031604 22.845370105601475 17.39282051143772
35.34013911780404 3.3216705314655326 17.776976179760478 14.241492406578047
27.745505678746436 2.873070769337867 13.451802140869901 11.42063276853865
21.39749200376197 2.4627533382081603 9.98353306154191 8.951205604011895
15.985079281512448 2.1096988479086143 7.0654822653361675 6.809898168267665
11.492763730048543 1.8103493312658252 4.732330336292714 4.950084062490006
7.795109872036499 1.5426800169097488 2.9013893980141052 3.3510404571126475
4.861788280917963 1.28687301384206 1.5476763922088927 2.0272388748670096
2.69812331608127 1.0319928467675337 0.6513376212385082 1.0147928480752277
1.3255315003206856 0.7789362115254326 0.19587737469588531 0.3507179140993678
0.5918197152105917 0.5340648653043478 0.013989518867106553 0.04376533103913736
0.3055608545362751 0.30968138914300714 -0.0010580322396532013 -0.0030625023670789466
0.1675251091693745 0.16751768035086045 4.1024249179030226e-07 7.018576022264267e-06
0.09681814467291502 0.09681814467291502 0.0 0.0
0.5564792590721147 0.10677053593055771 0.17061603595743208 0.2790926871841254
5.229178493229172 2.680282670306559 1.0437087924366149 1.505187030485999
3.772452572604056 2.0496530779853535 0.6715518271263481 1.0512476674923557
0.3936452391732713 0.14280631615978723 0.08135796254028707 0.1694809604731966
0.1085440269761504 0.1085440269761504 0.0 0.0
0.14607088759276848 0.14605741058588434 9.466100070054239e-07 1.2530396877125434e-05
0.2490348341730651 0.25049486948172905 -0.00023764722923484712 -0.0012223880794291144
0.4390700344883484 0.4336645030985786 -0.0013127837660949658 0.006718315155864847
0.9353689212031508 0.653919557432213 0.0830055292830018 0.19844383448793615
2.038534611098359 0.9146921073865546 0.43830727324609076 0.6855352304657126
3.737533933003211 1.1434336652538888 1.0693572760818517 1.5247429916674715
6.176299368267653 1.3768550005508406 2.1556705204202813 2.643773847296531
9.211613777909301 1.608574697768522 3.610425691955439 3.992613388185341
12.869047557728432 1.8622142251246803 5.455677549404745 5.5511557831990075
17.22858721393441 2.158160162541112 7.737581497802522 7.332845553590772
22.45732634191364 2.503864253339113 10.57034195799314 9.383120130581382
28.59383670511417 2.898509093045339 13.956465104617582 11.738862507451254
35.65401939392442 3.307062031111683 17.955756514290197 14.391200848522542
43.62027757451758 3.702989863761736 22.657905140981224 17.25938256977461
51.739610996071264 4.01656647212327 27.512252420065685 20.210792103882305
59.279030914673704 4.103159579373166 32.19489265859924 22.980978676701298
65.26997561933985 3.8923696596206643 36.17527825585955 25.202327703859638
67.5407587693344 2.6758738834369895 38.42024642829882 26.44463845759861
65.26997561933486 3.8923696596238933 36.17527825585431 25.20232770385663
59.279030914656374 4.103159579371053 32.194892658589545 22.9809786766958
51.73961099604352 4.016566472115931 27.512252420052764 20.210792103874795
43.62027757449129 3.7029898637606364 22.657905140965575 17.259382569765084
35.65401939389537 3.3070620311094707 17.955756514273858 14.391200848512062
28.5938367050857 2.8985090930430304 13.956465104601957 11.738862507440711
22.457326341886414 2.503864253334713 10.570341957979885 9.383120130571816
17.22858721391087 2.1581601625418414 7.737581497788764 7.332845553580269
12.869047557705624 1.8622142251238185 5.455677549392717 5.551155783189087
9.211613777889418 1.6085746977662052 3.6104256919461735 3.9926133881770425
6.176299368252208 1.3768550005497284 2.1556705204131523 2.6437738472893235
3.7375339329923434 1.1434336652521409 1.0693572760776764 1.5247429916625266
2.0385346110912086 0.9146921073852866 0.43830727324350116 0.6855352304624206
0.9353689211997853 0.6539195574311385 0.08300552928216594 0.19844383448648092
0.4390700344874007 0.43366450309758814 -0.001312783766092805 0.006718315155905332
0.24903483417299413 0.25049486948167116 -0.00023764722923719028 -0.0012223880794397536
0.1460708875923984 0.14605741058551813 9.466100066451608e-07 1.2530396873620373e-05
0.10854402697589598 0.10854402697589598 0.0 0.0
0.3936452391711043 0.14280631615959244 0.08135796253945879 0.16948096047205302
3.7724525725933806 2.0496530779809237 0.6715518271236665 1.0512476674887916
2.619651087790155 1.5435175734234163 0.3866861242213405 0.689447390145398
0.3000131107474182 0.18427512009214114 0.03331530201665561 0.08242268863862168
0.12991613906744381 0.12991613906744381 0.0 0.0
0.14114726891940005 0.14113846955494766 5.916227772428284e-07 8.207741675143951e-06
0.21194827598586974 0.21203243169683522 -1.8945223150491984e-05 -6.521048781499472e-05
0.336897108918827 0.3499769430648542 -0.003782248747836086 -0.00929758539819108
0.6508386319026552 0.5456102326616868 0.025187481522075453 0.0800409177188927
1.3894200773509948 0.7608035695220512 0.21100886336193833 0.4176076444670057
2.767434309916213 1.0027015793778578 0.722965413622344 1.0417673169160109
4.602342899157623 1.2009111346225652 1.453439163178433 1.9479926013566247
7.026243594813689 1.4055380804771835 2.57329453848202 3.047410975854487
9.896121105819436 1.6196271915154101 3.9706638545589645 4.305830059745063
13.278356235597947 1.864625314541362 5.680441358923964 5.733289562132622
17.305885288531822 2.152155097769847 7.784126962402566 7.36960322835941
22.08590562183161 2.4838594284924396 10.343159448290589 9.258886745048578
27.7732220284356 2.853985472656892 13.512886257473184 11.406350298305519
33.95637950572093 3.2300452373241177 16.951806485604916 13.7745277827919
40.764708527444746 3.5927795396830358 20.93220686012981 16.239722127631907
47.45991871321992 3.8146550708560074 24.968807926554504 18.676455715809396
53.02072476321774 3.7065556471089454 28.51613191422681 20.798037201882
55.307767402867825 2.3132845380945497 30.84884730735785 22.14563555741543
53.02072476321844 3.7065556471184196 28.516131914221226 20.798037201878792
47.459918713213796 3.8146550708620577 24.968807926546905 18.67645571580484
40.7647085274324 3.5927795396864926 20.932206860120075 16.23972212762583
33.956379505699495 3.2300452373234902 16.951806485592247 13.77452778278376
27.7732220284109 2.853985472652771 13.512886257460918 11.406350298297205
22.085905621809136 2.4838594284905056 10.343159448278675 9.258886745039948
17.30588528851384 2.1521550977697443 7.784126962392442 7.369603228351654
13.278356235575938 1.864625314537839 5.680441358913745 5.733289562124356
9.896121105802068 1.6196271915156664 3.970663854549547 4.305830059736856
7.026243594798057 1.4055380804758384 2.573294538474762 3.047410975847455
4.602342899145747 1.200911134622026 1.4534391631729464 1.947992601350776
2.7674343099078658 1.0027015793769882 0.722965413618871 1.0417673169120074
1.3894200773458816 0.7608035695204529 0.21100886336051436 0.41760764446491483
0.65083863189999 0.5456102326605105 0.02518748152157387 0.08004091771790553
0.33689710891836633 0.3499769430640382 -0.0037822487477477784 -0.009297585397923998
0.2119482759856018 0.21203243169659722 -1.8945223156302115e-05 -6.521048783919075e-05
0.14114726891894963 0.1411384695545 5.916227770131883e-07 8.20774167260772e-06
0.1299161390670899 0.1299161390670899 0.0 0.0
0.30001311074604026 0.1842751200919713 0.03331530201617646 0.0824226886378922
2.61965108778228 1.5435175734200532 0.3866861242195497 0.6894473901426778
1.8017174419065975 1.1889363419576313 0.2255551831046802 0.38722591684428587
0.22705708845734063 0.20135266489889403 -0.00024300166933913714 0.025947425227785825
0.15311181108089847 0.15311699652675143 -2.1719582759986377e-07 -4.968250025342334e-06
0.14743077047951236 0.14741943114435263 8.207922390617571e-07 1.0518542920683493e-05
0.18984256340468442 0.1902057207429801 -4.671200298369514e-05 -0.00031644533531201925
0.27414782106600005 0.2816609824168107 -0.0018608884805950147 -0.005652272870215569
0.4461992813714524 0.43445805501862855 -0.0012529982101021628 0.012994224562926121
0.8911987639038541 0.6109291682846159 0.07815033743576341 0.2021192581834749
1.7877781357597982 0.8171851816247798 0.3495295935548041 0.6210633605802143
3.2074271518516357 1.0195566639427458 0.9115421653767775 1.2763283225321114
4.9464176342044714 1.192090094245591 1.638023181485853 2.116304358473028
7.05372410372107 1.3717084148315506 2.602714837027347 3.0793008518621705
9.531073967943689 1.5739676735118917 3.7997560931590217 4.157350201272776
12.447515964459864 1.8066267863903527 5.25366810608356 5.3872210719859535
15.966163358956408 2.0843531515070413 7.071087935887672 6.8107222715616995
20.103632383288588 2.4048249581747 9.243698027378901 8.455109397734988
24.93890764804652 2.7552206943446507 11.892019504060022 10.291667449641853
30.196861563962916 3.1424615842078696 14.770529808997638 12.283870170757405
35.71494445564565 3.490072836895509 17.87364802454271 14.351223594207429
40.965412168671904 3.5348186071041328 21.084550585874254 16.34604297569351
43.38361173142654 1.9741856777476827 23.567921673443216 17.841504380235627
40.96541216866199 3.53481860709948 21.084550585870932 16.34604297569157
35.71494445563428 3.4900728368926957 17.873648024537474 14.351223594204129
30.196861563945728 3.1424615842029366 14.770529808990295 12.283870170752515
24.9389076480271 2.7552206943409554 11.892019504050761 10.291667449635382
20.103632383274906 2.4048249581767953 9.243698027369792 8.455109397728322
15.966163358942673 2.0843531515096188 7.071087935878484 6.810722271554571
12.447515964443122 1.8066267863862175 5.253668106076628 5.3872210719802744
9.531073967930602 1.573967673510503 3.7997560931528045 4.157350201267298
7.053724103708037 1.3717084148307994 2.602714837021092 3.079300851856144
4.946417634192548 1.192090094244384 1.6380231814806478 2.1163043584675165
3.2074271518430857 1.0195566639426958 0.9115421653727813 1.2763283225276085
1.7877781357541718 0.8171851816240089 0.3495295935527387 0.6210633605774244
0.891198763901037 0.61092916828377 0.07815033743505911 0.20211925818220713
0.4461992813703636 0.43445805501779144 -0.001252998210159206 0.012994224562731279
0.27414782106550806 0.2816609824160851 -0.0018608884805640816 -0.00565227287001308
0.18984256340422798 0.19020572074255873 -4.671200298597554e-05 -0.0003164453353446821
0.14743077047914627 0.14741943114398895 8.207922387916424e-07 1.0518542918553883e-05
0.1531118110804912 0.15311699652633332 -2.171958270000216e-07 -4.968250015090288e-06
0.2270570884563283 0.20135266489855871 -0.00024300166955599145 0.025947425227325533
1.801717441900777 1.1889363419549988 0.2255551831033591 0.3872259168424197
1.1594472834359046 0.8830690258802806 0.08449555877153726 0.19188269878408687
0.1903524389139219 0.2040454879608984 -0.006879185710426227 -0.006813863336550269
0.17362576926384504 0.17371183832044668 -7.296353753386552e-06 -7.877270284823133e-05
0.16019179485673923 0.16022009661191688 -1.911838206656354e-06 -2.6389916971011686e-05
0.1805383182073316 0.18094469278813222 -5.61995030370858e-05 -0.00035017507776354114
0.23488433215786148 0.2378285479446639 -0.0008858215388411446 -0.0020583942479614216
0.32870941241761287 0.3398881532249365 -0.004325308570229245 -0.006853432237094533
0.541129381327479 0.47542298951118483 0.013757891609346706 0.05194850020694743
1.0189116728657737 0.6243637114741262 0.12032762667363463 0.27422033471801266
1.8630912382253437 0.7898593397854518 0.3986256167199631 0.6746062817199292
2.9940534507266903 0.9416587279294639 0.8215525555733596 1.2308421672238683
4.3899259112017095 1.0956216832841543 1.409192816928773 1.8851114109887817
6.014534527110932 1.26126858613057 2.1320385105381225 2.6212274304422407
7.9148802517302554 1.4459652631742452 3.0120173033393125 3.4568976852166955
10.208156303137836 1.6678658863240285 4.114722078757107 4.425568338056701
12.998778937161964 1.9397905352436107 5.496924802073423 5.562063599844928
16.325651104534344 2.2655800208475125 7.180108375895032 6.8799627077917975
20.093998346201154 2.6199154252064645 9.117008547602781 8.357074373391917
24.4518960505883 3.058829887814353 11.390918926191517 10.002147236582424
29.328259322389396 3.364970759734124 14.130212926392954 11.83307563626231
31.93379329111315 1.6917129513830007 16.65284390564232 13.58923643408783
29.328259322392686 3.364970759737925 14.13021292639266 11.833075636262107
24.45189605058646 3.0588298878170255 11.390918926188881 10.002147236580553
20.09399834619098 2.619915425202813 9.117008547598964 8.357074373389194
16.32565110452412 2.265580020848063 7.180108375888941 6.879962707787116
12.998778937151489 1.9397905352452054 5.496924802066748 5.562063599839538
10.208156303126225 1.6678658863240132 4.114722078750859 4.42556833805135
7.914880251722481 1.4459652631727922 3.012017303336017 3.4568976852136757
6.014534527103681 1.261268586131327 2.1320385105341595 2.6212274304381946
4.389925911193086 1.095621683283261 1.4091928169249888 1.8851114109848388
2.994053450718797 0.9416587279286787 0.8215525555701445 1.2308421672199739
1.8630912382196865 0.7898593397848155 0.398625616717781 0.6746062817170903
1.0189116728627141 0.6243637114731927 0.12032762667282193 0.27422033471669965
0.5411293813258732 0.47542298951066664 0.01375789160902575 0.051948500206180796
0.32870941241698315 0.33988815322411053 -0.004325308570201469 -0.006853432236925871
0.23488433215736165 0.23782854794386538 -0.0008858215387998864 -0.002058394247703782
0.18053831820698318 0.18094469278782715 -5.619950304308385e-05 -0.00035017507780095626
0.1601917948563931 0.16022009661156675 -1.91183820609508e-06 -2.638991696751545e-05
0.17362576926349035 0.17371183832006915 -7.2963537516321735e-06 -7.877270282710897e-05
0.1903524389133423 0.2040454879604338 -0.006879185710457948 -0.006813863336633699
1.159447283432221 0.8830690258784432 0.08449555877083836 0.1918826987829395
0.7468790054770237 0.6737456393292017 0.019263713908820375 0.05386965223900169
0.17458166708324355 0.18702514119888553 -0.0031892078662213883 -0.009254266249420629
0.18896401780204955 0.18898141183771516 -9.224449329999089e-07 -1.6471590732581265e-05
0.1756005546599719 0.1756146381111049 -6.269657850398564e-07 -1.3456485347957748e-05
0.18196960140514418 0.1819885194743834 -2.7184439413686526e-06 -1.619962529793925e-05
0.21426386827394783 0.21887594262379728 -0.0010088223423211334 -0.003603252007528296
0.2704733355691916 0.27385694463217164 -0.0016379348459420098 -0.001745674217037942
0.3495910480440878 0.3313599153818321 0.003190180167274181 0.01504095249498156
0.5001879285609842 0.40961960861060376 0.021809994033597985 0.06875832591678233
0.8125525966702971 0.5155719509004212 0.0907379207522434 0.20624272501763258
1.3506983575773444 0.6346929970334553 0.26087778374059467 0.4551275768032935
2.0219620422559457 0.7319154987013183 0.48855743652346617 0.8014891070311614
2.8562670488033826 0.8394802777320801 0.8106503290820436 1.2061364419892593
3.8631874415520273 0.9715108673170321 1.2219672642872714 1.6697093099477245
5.080957896288204 1.1313819020697986 1.7365391475476188 2.213036846670787
6.617723611403279 1.3435642770383807 2.4006083039916906 2.8735510303732053
8.597409257585483 1.6278304445233582 3.280655929825738 3.688922883236385
11.081004080918497 1.9650879643622234 4.44176293155636 4.674153184999914
14.014657009779231 2.323835295639156 5.85626482838954 5.834556885750542
18.056050507057563 2.981245730900379 7.743982050328639 7.330822725828544
21.534654855522923 1.525848420914877 10.590541946992289 9.418264487615753
18.05605050705055 2.9812457308903446 7.743982050330349 7.330822725829854
14.014657009776352 2.323835295638502 5.856264828388271 5.834556885749578
11.08100408091442 1.9650879643630628 4.441762931553698 4.674153184997664
8.597409257574256 1.6278304445187506 3.280655929822177 3.6889228832333267
6.617723611393372 1.343564277033964 2.400608303988886 2.873551030370523
5.080957896282739 1.1313819020694824 1.7365391475451015 2.213036846668156
3.8631874415509735 0.9715108673192433 1.2219672642857007 1.6697093099460278
2.8562670487985744 0.8394802777315575 0.8106503290800768 1.2061364419869387
2.021962042251353 0.7319154987003689 0.4885574365218365 0.8014891070291471
1.3506983575734208 0.6346929970330799 0.2608777837391366 0.45512757680120475
0.8125525966683508 0.5155719508998563 0.09073792075171701 0.20624272501677712
0.5001879285602205 0.40961960861027685 0.021809994033470302 0.06875832591647327
0.3495910480435134 0.3313599153813729 0.0031901801672248615 0.015040952494915619
0.2704733355685012 0.2738569446315123 -0.001637934845958379 -0.0017456742170527226
0.21426386827344823 0.2188759426231953 -0.0010088223422969793 -0.00360325200745005
0.18196960140487303 0.1819885194741059 -2.7184439418668507e-06 -1.6199625291033035e-05
0.17560055465952396 0.17561463811064032 -6.269657839693201e-07 -1.3456485332418166e-05
0.18896401780175676 0.1889814118374103 -9.224449321673981e-07 -1.6471590721401528e-05
0.17458166708304174 0.18702514119837613 -0.00318920786615551 -0.009254266249178838
0.7468790054749648 0.6737456393279508 0.01926371390857349 0.05386965223844052
0.4838973388007939 0.4787537449806232 0.0005316794604645013 0.004611914359706112
0.16942826694276394 0.1701741007778768 -7.742033437316495e-05 -0.0006684135007396686
0.1987004687442728 0.1988305327475137 -1.0671408757581424e-05 -0.00011939259448334245
0.19085484419989002 0.19090218383644797 -3.00709481244032e-06 -4.433254174556324e-05
0.1913427875433688 0.191718985076817 -5.747005244603989e-05 -0.00031872748100212776
0.21231458403155132 0.2157399640334877 -0.0008283096691663981 -0.002597070332769882
0.25274122941689686 0.25483034202272836 -0.001192595773925262 -0.0008965168319061297
0.29814713989588904 0.2707116068396683 0.005301924646037832 0.022133608410182984
0.3352133132397716 0.2573624032936414 0.022568139392098712 0.05528277055403152
0.38013655447838324 0.21924665661547874 0.048596389928377386 0.11229350793452708
0.48763034625590396 0.20874936437505937 0.10123865096113313 0.17764233091971168
0.6613334429998794 0.22433071030673135 0.16149420992886696 0.2755085227642809
0.9168265522337073 0.2687307944064498 0.2543433660098493 0.3937523918174088
1.254755146589357 0.29401336594319905 0.3869646097305003 0.5737771709156566
1.7067671384271952 0.2948791742391851 0.584832761870028 0.8270552023179828
2.273053510194194 0.30931838725378996 0.8332472321305148 1.1304878908098894
3.0033802285923965 0.351267235836741 1.1661336587854223 1.485979333970232
3.9277254212785677 0.4291780962674547 1.5967749577942292 1.9017723672168847
5.3840863994187975 0.6433215287853967 2.2321161913499106 2.508648679283491
8.665088678814138 1.6529754368661518 3.3078787708414863 3.7042344711064996
14.365066580204665 1.4243184261719253 6.481315568888642 6.459432585144102
8.66508867882277 1.6529754368695726 3.307878770844326 3.7042344711088733
5.384086399420467 0.6433215287878463 2.2321161913494696 2.5086486792831506
3.9277254212704245 0.42917809626364606 1.5967749577920194 1.9017723672147593
3.0033802285910363 0.35126723583836317 1.1661336587839404 1.4859793339687302
2.2730535101922085 0.30931838725395466 0.8332472321295497 1.1304878908087033
1.7067671384237555 0.2948791742382888 0.5848327618687913 0.8270552023166765
1.2547551465885256 0.29401336594378924 0.3869646097299261 0.5737771709148114
0.9168265522300881 0.26873079440489467 0.2543433660088101 0.39375239181638344
0.6613334429980785 0.2243307103067837 0.16149420992812363 0.27550852276317167
0.48763034625410806 0.20874936437442826 0.1012386509606014 0.17764233091907777
0.38013655447831757 0.2192466566156186 0.04859638992833101 0.1122935079343681
0.3352133132393834 0.2573624032938356 0.02256813939189971 0.055282770553648074
0.2981471398957607 0.2707116068396359 0.005301924646000844 0.022133608410124003
0.252741229416373 0.25483034202230503 -0.0011925957739550236 -0.0008965168319770541
0.21231458403113895 0.21573996403285053 -0.0008283096691269435 -0.0025970703325848142
0.19134278754303782 0.19171898507655094 -5.747005245526813e-05 -0.00031872748105782545
0.19085484419951895 0.19090218383609392 -3.0070948139851977e-06 -4.4332541760987575e-05
0.19870046874389524 0.19883053274711143 -1.0671408754805406e-05 -0.00011939259446143472
0.16942826694253288 0.17017410077765702 -7.742033437288225e-05 -0.0006684135007512548
0.4838973387997228 0.47875374497949325 0.0005316794604516132 0.004611914359777782
0.3212364439038215 0.32127987261221674 -2.4699665670363174e-06 -4.095874182818501e-05
0.16108328722244902 0.16108735471559754 -3.861226354782416e-07 -3.6813705130687944e-06
0.2025752413257518 0.2025411103660312 3.0244710154403055e-06 3.1106488705192196e-05
0.20390060177174874 0.20403102368743528 -1.4226609750289728e-05 -0.00011619530593630605
0.2062399883476856 0.206554662625344 -5.941625250009598e-05 -0.0002552580251583264
0.22848470264971407 0.2306677025571604 -0.0007429959141204941 -0.001440003993325862
0.2780910988767418 0.28185550664460157 -0.0013866972007589371 -0.0023777105671008124
0.3522061957494533 0.3328325562797462 0.0036841574277172284 0.015689482041989833
0.5005899170924973 0.4093337994133101 0.022054058117496257 0.06920205956169091
0.8114625684486605 0.5149655880790093 0.09050361683021063 0.20599336353944087
1.3503522580340401 0.6370316022185685 0.2601170613150279 0.45320359450044334
2.0282446768304228 0.7326907153952149 0.49222557833867425 0.8033283830965335
2.873126816879315 0.8426515098174662 0.8168362061285117 1.2136391009333365
3.8918045736610445 0.975488318591816 1.2343220417577485 1.6819942133114816
5.068899176722747 1.1237251697497534 1.7351959871337725 2.2099780198392196
6.373315088503424 1.2901138398172813 2.3080832069863404 2.775118041699801
7.641481755830999 1.4641069735237755 2.873150537835157 3.3042242444720684
8.687559256647427 1.649070508468058 3.3624310195024756 3.6760577286768923
9.05575449905187 1.7613912762818473 3.530718451304606 3.763644771465417
7.232537289234759 0.9540527510010592 3.1120073078985153 3.166477230335181
14.540620138931356 2.5231363959998316 5.893618173199298 6.123865569732226
7.232537289246132 0.9540527510070297 3.112007307901422 3.1664772303376743
9.055754499045547 1.761391276276354 3.5307184513041063 3.7636447714650867
8.687559256647788 1.6490705084733932 3.3624310194998 3.6760577286745963
7.641481755820061 1.4641069735207504 2.873150537831047 3.3042242444682652
6.373315088500385 1.2901138398201033 2.3080832069834027 2.7751180416968784
5.068899176716617 1.1237251697492565 1.7351959871310683 2.2099780198362904
3.8918045736520117 0.9754883185876058 1.2343220417553789 1.6819942133090258
2.8731268168726714 0.842651509817657 0.8168362061254207 1.213639100929595
2.028244676822953 0.7326907153941946 0.4922255783358255 0.803328383092932
1.3503522580285652 0.6370316022181454 0.260117061312949 0.4532035944974704
0.8114625684460915 0.5149655880774726 0.09050361682979041 0.2059933635388285
0.5005899170916521 0.40933379941277975 0.02205405811738186 0.06920205956149042
0.3522061957484199 0.3328325562790235 0.003684157427612202 0.015689482041784213
0.27809109887613404 0.2818555066439778 -0.0013866972007628565 -0.002377710567081006
0.22848470264918327 0.23066770255641583 -0.0007429959140851608 -0.001440003993147474
0.20623998834744456 0.20655466262484634 -5.9416252470256034e-05 -0.00025525802493145747
0.20390060177157127 0.2040310236871685 -1.4226609744046699e-05 -0.00011619530585317296
0.20257524132543253 0.20254111036574574 3.024471011650553e-06 3.110648867513222e-05
0.16108328722212278 0.16108735471526348 -3.861226352988379e-07 -3.681370505393053e-06
0.32123644390315503 0.3212798726115235 -2.4699665649585164e-06 -4.095874180351584e-05
0.20760211017705762 0.20760211017705762 0.0 0.0
0.14743188639814597 0.14742633526043109 2.702453418794739e-07 5.280892372970864e-06
0.1997038885756426 0.19974951239453775 -4.054951892437192e-06 -4.156886700274248e-05
0.21347774921222162 0.2132418929735771 2.6463492508631436e-05 0.00020939274613593613
0.22484177443457354 0.22551809163133363 -0.00011329634189753057 -0.0005630208548626144
0.26173526267373876 0.2686565790340846 -0.0014669975152826894 -0.005454318845063184
0.3403982805239481 0.34226422082962826 -0.0026087327846568485 0.0007427924789767245
0.5457276423727904 0.4760070950313957 0.015160747297291286 0.05455980004410349
1.01853803326609 0.6241717659381674 0.12023688374800294 0.27412938357991995
1.8610714840231433 0.7896626110399483 0.3977355850415713 0.6736732879416228
2.993641163367216 0.9416170837816109 0.8212985155102545 1.2307255640753498
4.39479690058712 1.0963220930827342 1.411196706599193 1.8872781009051924
6.02965244556915 1.2628586406131777 2.1389398004311007 2.6278540045248713
7.938714912894922 1.4469566633418598 3.024228425244878 3.4675298243081816
10.191940716789668 1.6554426543055538 4.113621639782884 4.422876422701225
12.752708287671119 1.88091924143278 5.395416507294026 5.476372538944318
15.412861107278868 2.117203629044413 6.749874374350198 6.545783103884261
17.770996849292096 2.377584913874638 7.915443767666634 7.477968167750824
18.999452530901458 2.4613090613527966 8.582975957776608 7.955167511772054
17.55719273893502 2.4402526595507013 7.858484058531576 7.258456020852741
21.287091278353 5.486511845546987 8.12754507573167 7.673034357074327
17.557192738933445 2.4402526595429808 7.858484058535116 7.258456020855355
18.999452530899365 2.461309061352895 8.582975957775336 7.9551675117711325
17.77099684927564 2.3775849138675875 7.915443767661197 7.47796816774686
15.412861107269526 2.1172036290473972 6.749874374343257 6.545783103878872
12.752708287650702 1.8809192414250595 5.395416507287008 5.476372538938631
10.191940716778149 1.655442654304701 4.113621639777162 4.422876422696286
7.93871491288329 1.4469566633411581 3.024228425239218 3.467529824302913
6.029652445557616 1.2628586406126887 2.1389398004255242 2.6278540045194023
4.394796900575924 1.096322093082462 1.4111967065938864 1.887278100899575
2.9936411633579647 0.9416170837809715 0.8212985155063458 1.2307255640706471
1.861071484015463 0.7896626110381291 0.3977355850390003 0.6736732879383339
1.0185380332620233 0.624171765936705 0.12023688374701091 0.2741293835783066
0.5457276423710616 0.47600709503077515 0.015160747296962263 0.0545598000433243
0.3403982805232164 0.342264220828691 -0.002608732784628803 0.0007427924791542952
0.2617352626731146 0.2686565790333433 -0.0014669975152496882 -0.0054543188449789545
0.22484177443410996 0.22551809163089498 -0.00011329634190177319 -0.0005630208548832946
0.21347774921194784 0.21324189297313753 2.646349252318959e-05 0.00020939274628713463
0.19970388857546428 0.19974951239438238 -4.054951894950648e-06 -4.156886702312241e-05
0.14743188639787758 0.14742633526017038 2.7024534145801815e-07 5.280892365722374e-06
0.20760211017662755 0.20760211017662755 0.0 0.0
0.12789789215735775 0.12789789215735775 0.0 0.0
0.1285116635094863 0.1285022913190713 6.316936465528355e-07 8.74049676847986e-06
0.1902250942481062 0.19023580916742164 -6.076566036240563e-07 -1.0107262711789667e-05
0.21910088429327887 0.21931771152494758 -2.4843234604860643e-05 -0.00019198399706389053
0.24687556977988656 0.24866400174522824 -0.00032776968380611037 -0.0014606622815354973
0.30573858947354154 0.3071899694740646 -0.0012150323409988993 -0.00023634765952403855
0.46473921160521225 0.4459987165909149 0.0018118210664167037 0.016928673947880703
0.8959767830927633 0.6120710439568683 0.07997269892409357 0.20393304021180197
1.785951556539698 0.8171167666578302 0.3487502157415534 0.6200845741403139
3.2058659693678746 1.0196587666569388 0.9110266562745948 1.275180546436341
4.946091765323075 1.1919308084113882 1.636730459518676 2.117430497393013
7.057675947905411 1.3718618403750273 2.604715016047664 3.081099091482722
9.539131045828297 1.5744572717683174 3.8038258155711127 4.160847958488869
12.455697552172438 1.8063301475343823 5.258439213039914 5.3909281915981415
15.936849207077927 2.071346088752794 7.062151113043823 6.803352005281308
19.903052534491618 2.3517760706815816 9.159216780429622 8.392059683380412
24.246514655744075 2.6362908108389664 11.555494849085882 10.054728995819223
28.111084250702415 2.826873047625077 13.713349099011358 11.570862104065979
30.177907419588056 2.819318393423368 14.956657851582724 12.401931174581971
27.94355493457637 2.4866028435196985 13.829602831188698 11.627349259867975
31.40595701546574 8.0968807690214 12.532595732853387 10.776480513590961
27.94355493458126 2.4866028435199876 13.829602831191458 11.627349259869815
30.177907419584056 2.8193183934245027 14.956657851579596 12.40193117457995
28.11108425069826 2.8268730476336104 13.71334909900382 11.57086210406083
24.24651465572268 2.6362908108343666 11.555494849075966 10.054728995812349
19.90305253447342 2.3517760706835054 9.159216780418028 8.39205968337189
15.936849207060684 2.0713460887512256 7.062151113034982 6.803352005274476
12.455697552155138 1.8063301475341398 5.258439213030535 5.390928191590464
9.539131045811635 1.5744572717667922 3.8038258155630387 4.160847958481807
7.057675947887562 1.3718618403739584 2.604715016039009 3.081099091474594
4.946091765308013 1.191930808409135 1.6367304595123784 2.1174304973865015
3.2058659693574243 1.0196587666562735 0.9110266562700028 1.2751805464311485
1.785951556532934 0.8171167666567573 0.34875021573911374 0.6200845741370637
0.8959767830891604 0.6120710439557071 0.07997269892321837 0.20393304021023503
0.46473921160375997 0.4459987165900651 0.0018118210662625136 0.016928673947432388
0.3057385894730968 0.30718996947313604 -0.0012150323409378812 -0.0002363476591013148
0.24687556977937927 0.24866400174457398 -0.0003277696837878175 -0.0014606622814068537
0.219100884293061 0.2193177115247452 -2.4843234606943304e-05 -0.00019198399707721117
0.19022509424771988 0.19023580916704053 -6.076566040686563e-07 -1.010726271655984e-05
0.12851166350935 0.12850229131893554 6.316936464977709e-07 8.740496767980233e-06
0.12789789215705633 0.12789789215705633 0.0 0.0
0.0747066511011788 0.0747066511011788 0.0 0.0
0.10623995413803594 0.10623995413803594 0.0 0.0
0.17521191916298628 0.1752014783375373 6.169848764971448e-07 9.823840572470336e-06
0.22119498785834457 0.22105787343307715 1.7133691079709172e-05 0.00011998073418767834
0.27061817136014416 0.27276805943005006 -0.00039887266082710347 -0.0017510154090787037
0.3705370692205138 0.38000576919553397 -0.002922617847975728 -0.0065460821270443975
0.6653668753379404 0.542751391807541 0.03013363395419026 0.09248184957620915
1.39168708212152 0.7612364661741188 0.2121308731939816 0.41831974275341943
2.764909277981225 1.0029879333436575 0.7216470587343087 1.0402742859032585
4.601392268676984 1.2011459957104862 1.4526837335861902 1.9475625393803075
7.028002989343557 1.405336337781949 2.574541003311877 3.0481256482497305
9.897607046638237 1.6188307283151648 3.971905490769302 4.306870827553769
13.273535816167765 1.8626274160691896 5.67896618897711 5.731942211121469
17.28634954093366 2.1493746537442027 7.774769189512886 7.3622056976765675
22.04298277016143 2.477291899373061 10.32204150132084 9.243649369467533
27.67325111631446 2.832100192240002 13.466079286846938 11.37507163722751
33.53713322044638 3.1244059550270924 16.76147674777146 13.651250517647833
38.98496529426908 3.2176254772745354 20.067761612981563 15.699578204012969
41.79939331355377 2.9757626222551754 21.981377338550807 16.8422533527478
38.83278828702726 2.559073177101007 20.40209786759501 15.87161724233124
42.518390319824576 10.598915379744614 17.69405573659693 14.225419203483042
38.83278828701849 2.559073177091349 20.40209786759558 15.871617242331553
41.79939331354374 2.9757626222545914 21.98137733854491 16.842253352744248
38.98496529424604 3.2176254772672883 20.06776161297178 15.699578204006967
33.53713322041946 3.124405955024891 16.761476747756507 13.65125051763807
27.67325111629119 2.8321001922419007 13.466079286831944 11.375071637217346
22.042982770133335 2.477291899367681 10.322041501307657 9.243649369457987
17.286349540911417 2.149374653744374 7.774769189500153 7.362205697666898
13.27353581614296 1.8626274160651093 5.678966188965648 5.731942211112201
9.89760704661853 1.6188307283169867 3.9719054907578575 4.306870827543683
7.028002989324291 1.4053363377802273 2.574541003302974 3.048125648241089
4.6013922686628685 1.2011459957088275 1.4526837335801923 1.9475625393738478
2.764909277971821 1.002987933342866 0.7216470587302976 1.0402742858986582
1.3916870821155705 0.7612364661730153 0.21213087319200846 0.418319742750547
0.6653668753355094 0.5427513918065183 0.030133633953708855 0.0924818495752822
0.37053706921971363 0.38000576919454254 -0.0029226178479234413 -0.0065460821269053525
0.27061817135958327 0.272768059429506 -0.0003988726608292449 -0.001751015409093506
0.22119498785798952 0.22105787343269467 1.713369108127846e-05 0.00011998073421361971
0.17521191916265058 0.17520147833720656 6.169848761276928e-07 9.823840567913113e-06
0.1062399541378843 0.1062399541378843 0.0 0.0
0.07470665110098838 0.07470665110098838 0.0 0.0
0.041085246336649964 0.041085246336649964 0.0 0.0
0.08325958668641717 0.08325958668641717 0.0 0.0
0.15638809943585616 0.15637744084156177 6.366593226293898e-07 1.002193497175889e-05
0.22073869605438354 0.22074999756968866 1.3657908409446678e-06 -1.2667306146127467e-05
0.29649357663547415 0.29771824871547137 -0.00041540111377575426 -0.0008092709662216298
0.46745154701121294 0.4559909989777205 0.0012513631284656176 0.01020918490502676
0.9477693119200326 0.6554913090770833 0.08784963612455893 0.20442836671838996
2.038325542894644 0.9152602037104918 0.4381010283755335 0.6849643108086182
3.735790058616005 1.1440055209212956 1.068403296115059 1.5233812415796508
6.17675867771905 1.3770821337423125 2.155725220970576 2.6439513230061618
9.213777636625602 1.6082401766626475 3.611736837845485 3.993800622117472
12.866719634706737 1.8601107418999634 5.455559840755868 5.551049052050905
17.206315571667364 2.152083441355358 7.728446566940019 7.325785563371985
22.401878528338187 2.4968024729720124 10.542213789343165 9.362862266023008
28.536895703413222 2.9047021821085424 13.91878422899272 11.71340929231196
35.65654700127608 3.3237099456094317 17.946771003232378 14.386066052434266
43.46655326241722 3.6206959959394585 22.61298665243673 17.232870614041023
50.24523300419326 3.562059958841547 26.85860502176142 19.8245680235903
53.46875774437806 3.0410381981120826 29.180373572503118 21.247345973762854
50.023236460449475 2.6817296306760348 27.28468410077599 20.056822728997474
54.63326591525859 13.169916611626693 23.616639913483233 17.84670939014865
50.02323646044757 2.6817296306767844 27.284684100774303 20.056822728996487
53.46875774436644 3.041038198114447 29.180373572494325 21.247345973757653
50.24523300417377 3.562059958843392 26.85860502174799 19.824568023582383
43.4665532623956 3.620695995946188 22.61298665241908 17.23287061403032
35.65654700124669 3.323709945609849 17.946771003214252 14.386066052422608
28.536895703384136 2.904702182108932 13.918784228975143 11.71340929230005
22.401878528308842 2.49680247297119 10.542213789326562 9.362862266011081
17.206315571639788 2.152083441354584 7.72844656692485 7.325785563360347
12.866719634680766 1.8601107418987282 5.455559840742286 5.551049052039755
9.213777636602195 1.608240176661931 3.6117368378335057 3.993800622106758
6.176758677701085 1.3770821337400236 2.1557252209626956 2.643951322998365
3.735790058603355 1.1440055209200224 1.0684032961098655 1.523381241573468
2.038325542887208 0.9152602037098817 0.43810102837251613 0.6849643108048098
0.9477693119161212 0.6554913090757162 0.08784963612362177 0.20442836671678402
0.4674515470100249 0.4559909989767993 0.0012513631283899204 0.010209184904835494
0.2964935766348215 0.29771824871458125 -0.0004154011137470263 -0.0008092709660126347
0.22073869605379381 0.220749997569071 1.3657908429142248e-06 -1.2667306120110291e-05
0.15638809943566778 0.15637744084137986 6.366593221431451e-07 1.0021934965748754e-05
0.08325958668630312 0.08325958668630312 0.0 0.0
0.041085246336592406 0.041085246336592406 0.0 0.0
0.021210773796548683 0.021210773796548683 0.0 0.0
0.06186682379693405 0.06186682379693405 0.0 0.0
0.13605136528119727 0.13604539113815362 3.662909033654852e-07 5.6078521402870744e-06
0.21945901109349744 0.2193881126844778 8.693619031656736e-06 6.220478998797314e-05
0.3320398453690939 0.3397053566646759 -0.0017263249002122854 -0.005939186395369729
0.6009687635698135 0.5184431917209388 0.018245170878091604 0.06428040097078297
1.3311275079549971 0.7797223996697846 0.19881039421543759 0.3525947140697748
2.697230207967978 1.0327323811961808 0.6504393283287488 1.0140584984430479
4.861712932539628 1.2874438737008636 1.5475873415611043 2.026681717277662
7.797064115748106 1.5428905068197312 2.9023170860163834 3.3518565229119903
11.49474156632154 1.809709756792079 4.733757609182935 4.951274200346522
15.977486325019623 2.106047134812566 7.063280693028528 6.8081584971785265
21.35731554808696 2.4523744906050045 9.966265711973946 8.938675345508011
27.655747137368124 2.8608691225741048 13.405703255709533 11.389174759084487
35.25520292806342 3.3345077592526016 17.7174419230302 14.203253245780616
44.0663216924021 3.8323151199383796 22.84235196792494 17.39165460453878
53.39589536923878 4.130431711332054 28.465745848595546 20.799717809311183
61.573124847470254 3.8768128230460888 33.81645424619299 23.879857778231166
65.4920253459479 3.0867322009396228 36.83552685296686 25.569766292041436
61.66176345068788 2.8118829739886704 34.56077210506179 24.289108371637415
67.45867679914562 15.794178823338054 29.97080638231255 21.693691593495025
61.66176345067781 2.811882973985499 34.56077210505735 24.289108371634953
65.4920253459316 3.0867322009407134 36.8355268529556 25.569766292035258
61.57312484744095 3.8768128230432923 33.816454246176036 23.879857778221623
53.3958953692019 4.13043171132702 28.465745848575477 20.799717809299388
44.06632169236537 3.8323151199351306 22.842351967904175 17.39165460452607
35.25520292802437 3.334507759249634 17.717441923008227 14.203253245766485
27.65574713733456 2.8608691225743015 13.405703255689467 11.389174759070785
21.357315548052263 2.4523744906017177 9.966265711955776 8.93867534549477
15.97748632498797 2.106047134810927 7.063280693011686 6.808158497165357
11.494741566294906 1.8097097567913274 4.733757609168947 4.951274200334626
7.797064115726322 1.5428905068172494 2.9023170860064287 3.351856522902645
4.861712932524397 1.2874438737003429 1.5475873415541033 2.0266817172699514
2.697230207957896 1.0327323811944158 0.6504393283250232 1.0140584984384582
1.3311275079498839 0.7797223996687666 0.1988103942137596 0.35259471406735654
0.6009687635678482 0.5184431917198057 0.018245170877808685 0.06428040097023402
0.3320398453685038 0.3397053566639251 -0.0017263249001727918 -0.005939186395248555
0.2194590110930349 0.21938811268400196 8.69361903241615e-06 6.220479000050311e-05
0.1360513652810913 0.13604539113804784 3.662909033509835e-07 5.607852140109466e-06
0.061866823796866595 0.061866823796866595 0.0 0.0
0.02121077379653638 0.02121077379653638 0.0 0.0
0.010415303433284026 0.010415303433284026 0.0 0.0
0.043781769871065336 0.043781769871065336 0.0 0.0
0.11661236774954557 0.11661236774954557 0.0 0.0
0.22041820590154385 0.22049721812388498 -1.1100089380594943e-05 -6.791213296060144e-05
0.3833023908959571 0.38693822553728036 -0.0013089904805938632 -0.0023268441607292
0.792645924305505 0.6164580032307101 0.052283413212657684 0.12390450786213748
1.7551118913606754 0.8822181655564927 0.3176047547636579 0.5552889710405258
3.4528728657895185 1.144185467291879 0.9440861788389953 1.364601219658644
6.019609833789552 1.420823750463505 2.0556229167593982 2.5431631665666514
9.487114940139499 1.7062646382002538 3.7114287919873954 4.069421509951849
13.848182944951638 2.0118999640285304 5.9188341490338745 5.917448831889237
19.19671886741252 2.3605408987738405 8.75886683303337 8.077311135605315
25.544074437734928 2.7655742002733943 12.208150267006483 10.570349970455048
33.24434023083135 3.239534873327467 16.571815684824497 13.43298967267938
42.19440322692637 3.7784134318151184 21.703805387704563 16.71218440740667
52.429615582464166 4.320894784763497 27.722144711290717 20.386576086409967
63.42643203349532 4.635188903702368 34.51554832747914 24.275694802313804
73.01436313562269 4.230022469683978 40.9479576445998 27.836383021338914
77.7689144192226 3.147923998938004 44.72725215162519 29.893738268659376
73.96262761183763 2.902884896327929 42.43196731308521 28.627775402424493
81.44980001550044 18.4190296396309 37.24223337389013 25.788537001979414
73.96262761182864 2.902884896330397 42.431967313077706 28.62777540242055
77.76891441919956 3.147923998936075 44.72725215161143 29.89373826865204
73.0143631355868 4.230022469682527 40.9479576445774 27.836383021326853
63.42643203345525 4.635188903701489 34.515548327454084 24.275694802299665
52.42961558241901 4.320894784756847 27.722144711266388 20.386576086395745
42.19440322688293 3.7784134318166367 21.70380538767678 16.71218440738953
33.24434023078831 3.2395348733241667 16.571815684800434 13.43298967266371
25.544074437692732 2.765574200269692 12.208150266983779 10.570349970439263
19.19671886737777 2.360540898772776 8.758866833014162 8.077311135590833
13.848182944918856 2.011899964024621 5.918834149017942 5.917448831876297
9.48711494011431 1.706264638197872 3.7114287919753095 4.069421509941125
6.019609833771771 1.4208237504616945 2.05562291675147 2.5431631665586067
3.4528728657776857 1.1441854672904115 0.9440861788344823 1.3646012196527917
1.7551118913538182 0.8822181655551863 0.31760475476131766 0.5552889710373143
0.7926459243027902 0.6164580032293222 0.05228341321217954 0.12390450786128852
0.38330239089522467 0.3869382255364596 -0.0013089904805837409 -0.002326844160651273
0.22041820590122663 0.2204972181235783 -1.1100089382956905e-05 -6.791213296872542e-05
0.11661236774928531 0.11661236774928531 0.0 0.0
0.043781769871007195 0.043781769871007195 0.0 0.0
0.010415303433300717 0.010415303433300717 0.0 0.0
0.0050745062115449885 0.0050745062115449885 0.0 0.0
0.029984394456152065 0.029984394456152065 0.0 0.0
0.10069463838704595 0.10069463838704595 0.0 0.0
0.2281683980637676 0.2284474829989564 -3.779817971437981e-05 -0.00024128675547442735
0.45790138429986366 0.43801860365102496 0.003504307800892995 0.016378472847945955
1.0437116862300027 0.7134941108182414 0.1111719641246633 0.21904561128709787
2.22744139220679 0.9655557557293728 0.47086631372159465 0.7910193227558214
4.257249827270606 1.250779563400373 1.2757178532511628 1.7307524106190704
7.217883030198128 1.5485251985450912 2.6006375609876597 3.0687202706653762
11.220489051249029 1.8673434821781814 4.5590554619982875 4.794090107072562
16.296604179442117 2.220220940292801 7.185888540871216 6.8904946982781015
22.485642995975752 2.622404579747652 10.505919034681773 9.357319381546324
30.035678808511996 3.097359469605643 14.725793311708223 12.212526027198116
38.85955089624166 3.643863635726686 19.7107861090567 15.504901151458283
49.27151603910597 4.223173822737493 25.81237028710526 19.235971929263233
60.98851685816627 4.75882485676576 32.879481349198656 23.35021065220184
73.34559567737766 5.084869362748761 40.60538775311343 27.65533856151549
84.42355502810454 4.721214649224325 48.05384632285595 31.64849405602427
90.32735175443446 3.2587210294939037 52.925328956611494 34.143301768329074
87.0617988063928 2.8785103134338286 51.036360358269185 33.14692813468975
96.71360682695273 20.89955795931151 45.51380902912414 30.300239838517093
87.06179880637717 2.8785103134333854 51.03636035825925 33.14692813468453
90.32735175440448 3.2587210294909776 52.92532895659367 34.143301768319866
84.4235550280684 4.72121464922958 48.05384632282883 31.64849405600999
73.34559567733213 5.084869362748183 40.60538775308427 27.655338561499686
60.988516858114714 4.758824856759613 32.87948134916971 23.35021065218538
49.27151603905862 4.223173822740586 25.81237028707363 19.235971929244407
38.85955089619532 3.64386363572692 19.710786109028138 15.504901151440274
30.03567880846686 3.0973594696060216 14.725793311680954 12.212526027179887
22.485642995933574 2.6224045797434026 10.505919034659644 9.357319381530532
16.29660417940556 2.2202209402902464 7.185888540852151 6.890494698263161
11.220489051220591 1.8673434821754393 4.559055461984482 4.7940901070606685
7.217883030176599 1.548525198541223 2.6006375609787273 3.0687202706566468
4.257249827256418 1.2507795633981322 1.2757178532455635 1.730752410612724
2.227441392198691 0.9655557557277407 0.4708663137190795 0.7910193227518699
1.043711686226099 0.7134941108166153 0.11117196412380527 0.21904561128567807
0.45790138429863875 0.43801860364994866 0.0035043078008113416 0.016378472847878855
0.2281683980635238 0.22844748299874545 -3.779817971903749e-05 -0.00024128675550253494
0.10069463838680628 0.10069463838680628 0.0 0.0
0.0299843944560823 0.0299843944560823 0.0 0.0
0.0050745062115495005 0.0050745062115495005 0.0 0.0
0.0024082922783310425 0.0024082922783310425 0.0 0.0
0.020503003320685474 0.020503003320685474 0.0 0.0
0.09176248486937649 0.09176248486937649 0.0 0.0
0.24996922911622055 0.2503822979279876 -9.148937386603136e-05 -0.00032157943790100713
0.5752536500815645 0.5180466135402026 0.016106508936220114 0.0411005276051418
1.3325487817045882 0.794959269096613 0.18495829932835345 0.3526312132796223
2.7635647725281305 1.0545083596435876 0.6708964900721903 1.0381599228123524
5.088501006529349 1.3509828949042428 1.6291174168741371 2.108400694750968
8.464180958328859 1.6725501174088582 3.1911826319143124 3.6004482090056893
12.993230580853984 2.0288726390266603 5.441359637867931 5.522998303959393
18.77977006865225 2.431169246834063 8.47814661685862 7.870454204959564
25.960832061587816 2.8988060178144925 12.417238445326875 10.644787598446445
34.482558028634514 3.446047006871218 17.160429477864312 13.876081543898994
44.72359728138042 4.058299272802757 23.079014785807733 17.586283222769943
56.56694587653633 4.682182851966546 30.116370549453386 21.7683924751164
69.64352465641163 5.180373281452864 38.15579271100088 26.30735866395786
83.08118859670776 5.386671072612343 46.76448141564801 30.9300361084474
95.41611563814755 5.186318694099395 55.0291520184294 35.20064492561872
103.09254138124078 3.7869737839452418 61.0615000378509 38.244067559444616
101.02559630046537 2.570717564993231 60.51949184001264 37.93538689545952
113.26244239295606 22.25290314376081 55.54327784567526 35.466261403519994
101.02559630045018 2.5707175649949736 60.51949184000135 37.93538689545384
103.09254138120808 3.786973783945914 61.06150003782874 38.24406755943346
95.41611563810338 5.186318694102874 55.02915201839788 35.20064492560264
83.08118859665362 5.3866710726090234 46.764481415614874 30.930036108429697
69.64352465635292 5.180373281448281 38.15579271096591 26.307358663938725
56.56694587648022 4.682182851966413 30.116370549417926 21.768392475095872
44.72359728132466 4.058299272799302 23.079014785775207 17.58628322275014
34.482558028582055 3.4460470068703213 17.160429477832977 13.87608154387874
25.96083206153911 2.898806017810897 12.41723844530026 10.64478759842796
18.779770068613058 2.4311692468326247 8.478146616836993 7.870454204943454
12.99323058082258 2.0288726390233185 5.441359637852549 5.522998303946709
8.464180958304713 1.672550117405818 3.19118263190337 3.6004482089955268
5.088501006513244 1.3509828949020108 1.629117416867472 2.1084006947437635
2.7635647725182126 1.05450835964156 0.6708964900688105 1.0381599228078422
1.3325487817000246 0.7949592690952669 0.18495829932706068 0.35263121327769714
0.5752536500801478 0.5180466135393909 0.01610650893600511 0.04110052760475179
0.2499692291158616 0.25038229792752426 -9.148937385846082e-05 -0.0003215794378042605
0.09176248486919415 0.09176248486919415 0.0 0.0
0.020503003320651435 0.020503003320651435 0.0 0.0
0.0024082922783263197 0.0024082922783263197 0.0 0.0
0.0006755476008362693 0.0006755476008362693 0.0 0.0
0.014752296144588735 0.014752296144588735 0.0 0.0
0.09476555232361188 0.09476555232361188 0.0 0.0
0.2990649869388198 0.29972046535004576 -0.00023644857898571972 -0.0004190298322402403
0.7474740978411976 0.6286099142990011 0.0383503212707992 0.08051386227139715
1.6915393177806053 0.9500724385852117 0.26762348482415094 0.4738433943712424
3.3640908779221577 1.2779838390397054 0.8433014493680004 1.2428055895144527
6.013636438941772 1.6856327566794422 1.9241941263191193 2.4038095559432078
9.824103171818624 2.1711182044806976 3.6423278077486083 4.010657159589323
14.996861469646669 2.770416002130265 6.14468620396225 6.081759263554156
21.672215829757402 3.52354266168946 9.529729084393729 8.618944083674217
29.884314473494957 4.460743098705807 13.790237156153637 11.633334218635511
39.87951554678253 5.583345219040803 19.15171828798477 15.14445203975696
51.74285325310619 6.874731535525255 25.697384612701676 19.170737104879265
65.32275955248475 8.17754870402648 33.467397597309926 23.677813251148315
79.98553737007397 9.18723912560935 42.285326632003205 28.512971612461413
94.4177777334279 9.523467340869606 51.51320951863995 33.38110087391836
106.88931755555882 8.994010286777346 60.12604596434164 37.76926130443991
115.87410191446818 8.14861567549057 66.69186803516419 41.033618203813425
112.44656094922942 2.581259466174351 68.07336395684911 41.7919375262059
162.5131697201992 56.64022834343428 65.50853574674137 40.364405630023555
112.44656094921146 2.5812594661741137 68.07336395683721 41.791937526200144
115.87410191443144 8.148615675491074 66.69186803513921 41.033618203801105
106.88931755550801 8.994010286780181 60.12604596430609 37.76926130442179
94.41777773335801 9.523467340855134 51.51320951860339 33.38110087389951
79.98553737001176 9.18723912560832 42.28532663196348 28.512971612439888
65.32275955242247 8.177548704025597 33.46739759727078 23.677813251126103
51.74285325304017 6.874731535516971 25.69738461266552 19.170737104857697
39.87951554672438 5.583345219039157 19.151718287950203 15.144452039735029
29.884314473443098 4.460743098704411 13.79023715612352 11.63333421861516
21.672215829711746 3.5235426616836634 9.529729084370677 8.618944083657402
14.99686146960858 2.770416002121946 6.144686203945632 6.081759263541002
9.824103171790876 2.171118204476342 3.6423278077362173 4.01065715957832
6.013636438923307 1.6856327566766673 1.924194126311395 2.4038095559352426
3.3640908779108765 1.2779838390377942 0.8433014493638421 1.2428055895092416
1.6915393177748883 0.9500724385832775 0.2676234848227682 0.47384339436884293
0.7474740978389235 0.6286099142977286 0.03835032127044944 0.08051386227074522
0.2990649869382921 0.2997204653494718 -0.0002364485789713524 -0.00041902983220847316
0.09476555232342258 0.09476555232342258 0.0 0.0
0.014752296144530708 0.014752296144530708 0.0 0.0
0.0006755476008344027 0.0006755476008344027 0.0 0.0
CELL_DATA 800
SCALARS Stress float 6
LOOKUP_TABLE default
154.18717297400977 -507.70641147818475 -182.83247328489065 -107.1175118685318 0.0 0.0
396.31252991239523 -39.223050195971325 117.16974054421765 58.64988542871617 0.0 0.0
388.53383400843023 7.93430085052856 118.74425445278291 -4.519697800038232 0.0 0.0
449.24018456962244 -8.728134700610754 135.33114032632642 -13.53393842467139 0.0 0.0
522.6798084607108 -13.609318668021631 179.22443523558243 -11.240314216341277 0.0 0.0
592.1665963876845 -6.433398319725605 247.00312538868064 -9.642843311711426 0.0 0.0
659.3624704931897 1.378514507297286 308.56547635890377 -9.693849327593615 0.0 0.0
726.5451026297445 17.17528644478125 362.43249526037704 -10.7241910803767 0.0 0.0
794.8020158691555 39.503622939610594 412.36322869000486 -12.00405948125106 0.0 0.0
864.5198467588353 67.50469878072884 462.7701052617084 -12.953359991179056 0.0 0.0
935.0738452733453 99.48376481891837 514.638264872378 -13.4019317917068 0.0 0.0
1005.734436018723 134.79220561026844 567.9613045924204 -13.346533418653742 0.0 0.0
1076.5462209451398 171.80194307456236 622.0945565796177 -13.125552562462339 0.0 0.0
1148.1799583847178 211.0207382308372 677.6640341709538 -12.861361390701807 0.0 0.0
1221.3829116661555 253.5037181357773 735.601610292922 -12.492223326343895 0.0 0.0
1295.6843944454392 299.26451860865046 795.699495087162 -11.841031482997014 0.0 0.0
1368.807864989788 346.95451951285054 856.160859196578 -10.7022495526088 0.0 0.0
1437.3366258181343 394.21145847704287 914.0798239225453 -9.062955587753176 0.0 0.0
1497.710660234192 438.6183715574456 966.4246116306649 -7.632637516428608 0.0 0.0
1565.170128978156 497.3549033880788 1029.0006002301952 -9.662085095764995 0.0 0.0
1565.1701289777382 497.35490338767045 1029.0006002298394 9.662085095741475 0.0 0.0
1497.710660234075 438.61837155736526 966.4246116304325 7.632637516490323 0.0 0.0
1437.3366258174744 394.2114584764403 914.079823921939 9.062955587677083 0.0 0.0
1368.807864989543 346.95451951269104 856.1608591963812 10.702249552683192 0.0 0.0
1295.6843944454638 299.26451860878024 795.6994950871884 11.841031482948056 0.0 0.0
1221.382911666989 253.50371813674698 735.601610293549 12.492223326438305 0.0 0.0
1148.1799583847608 211.02073823101532 677.6640341709423 12.861361390684442 0.0 0.0
1076.5462209447483 171.80194307434587 622.094556579247 13.12555256248082 0.0 0.0
1005.7344360181006 134.7922056098375 567.9613045919014 13.346533418676808 0.0 0.0
935.0738452728107 99.48376481859346 514.6382648719723 13.40193179170847 0.0 0.0
864.5198467583047 67.50469878042543 462.7701052613134 12.953359991071924 0.0 0.0
794.8020158684052 39.503622939079975 412.36322868951373 12.004059481268438 0.0 0.0
726.5451026293454 17.175286444634565 362.43249526005474 10.72419108029603 0.0 0.0
659.3624704927008 1.3785145070547031 308.5654763585171 9.693849327622708 0.0 0.0
592.1665963868103 -6.433398320403754 247.0031253880373 9.64284331167657 0.0 0.0
522.679808460402 -13.60931866808617 179.22443523535537 11.240314216377417 0.0 0.0
449.24018456936335 -8.728134700664098 135.33114032623624 13.533938424719487 0.0 0.0
388.5338340083621 7.934300850611722 118.7442544527905 4.519697800116497 0.0 0.0
396.3125299124174 -39.22305019579395 117.16974054423237 -58.64988542864673 0.0 0.0
154.18717297451238 -507.70641147762444 -182.8324732843659 107.11751186826388 0.0 0.0
57.01382123523405 -537.4215932059453 -240.19479117424783 -150.26942578395102 0.0 0.0
247.71207187999912 -24.73569449947771 66.89254721443513 12.078472385251079 0.0 0.0
340.672811386702 24.80476529526654 109.64278287826265 -10.312930517074859 0.0 0.0
410.7948451697274 -6.19784358952168 121.73922927239573 -33.15684144405199 0.0 0.0
493.07069723730353 -14.711104920013147 158.608023654303 -31.977649139623498 0.0 0.0
567.4185117723875 -7.818684210123507 224.96155383558266 -28.56114312577475 0.0 0.0
638.7793231331084 -0.1860663000588758 291.1771015132673 -28.96427304042758 0.0 0.0
706.9690293045744 14.829461890349705 348.38542297180464 -30.53954695446924 0.0 0.0
774.1398070360399 35.72008663829008 398.8109656558654 -32.48408957912337 0.0 0.0
841.2386384726892 61.39066256136151 447.4513775677666 -33.71941364104684 0.0 0.0
907.9646056331298 90.23361888510601 496.1232819450441 -33.89491255091907 0.0 0.0
974.1657802111129 120.94210650187746 545.0307604131458 -33.29308809405251 0.0 0.0
1040.018635490319 153.85480552890118 594.6846335890932 -32.389582891246846 0.0 0.0
1106.7086546479331 188.84707675068685 645.7013395802802 -31.466325590362707 0.0 0.0
1174.6569236786383 226.49829992671312 698.6226409889563 -30.3837651565696 0.0 0.0
1243.3420301575277 266.96381753618095 753.290865655725 -28.71719757692134 0.0 0.0
1311.1564218408753 309.43898038677264 808.4993584458823 -26.142112192400624 0.0 0.0
1375.924739991073 352.8300806153871 862.5873852973923 -22.831852720861434 0.0 0.0
1439.117654161659 400.05143044155994 917.6311884731492 -19.665795812599754 0.0 0.0
1484.7589230881263 436.54201218524304 958.507593338827 -15.91001645667345 0.0 0.0
1484.7589230879955 436.5420121851191 958.50759333876 15.910016456674722 0.0 0.0
1439.1176541610025 400.05143044094086 917.6311884727132 19.66579581267286 0.0 0.0
1375.9247399916417 352.830080616024 862.5873852977624 22.831852720852126 0.0 0.0
1311.1564218408434 309.4389803868207 808.4993584457877 26.142112192452778 0.0 0.0
1243.3420301561825 266.96381753492335 753.2908656546497 28.71719757686764 0.0 0.0
1174.656923678059 226.49829992626246 698.6226409883594 30.383765156652693 0.0 0.0
1106.7086546480227 188.84707675091764 645.7013395802702 31.46632559037331 0.0 0.0
1040.0186354901196 153.85480552887972 594.6846335889644 32.38958289131219 0.0 0.0
974.1657802106959 120.94210650165351 545.030760412829 33.29308809407883 0.0 0.0
907.9646056329298 90.23361888511856 496.12328194489675 33.89491255087263 0.0 0.0
841.2386384726403 61.39066256152407 447.45137756771936 33.719413640954514 0.0 0.0
774.1398070355307 35.72008663800678 398.8109656555072 32.484089579065575 0.0 0.0
706.9690293041721 14.829461890212599 348.38542297147194 30.5395469544572 0.0 0.0
638.779323133146 -0.1860662997284166 291.1771015131948 28.96427304048156 0.0 0.0
567.4185117721424 -7.818684210042356 224.96155383533005 28.56114312579482 0.0 0.0
493.07069723718325 -14.711104919806502 158.60802365423237 31.9776491396272 0.0 0.0
410.79484516976424 -6.197843589076104 121.73922927253926 33.156841444005615 0.0 0.0
340.6728113866565 24.80476529528505 109.6427828782549 10.312930516970031 0.0 0.0
247.71207188016743 -24.735694499177963 66.89254721457591 -12.07847238544266 0.0 0.0
57.01382123545517 -537.4215932056877 -240.19479117394476 150.26942578371083 0.0 0.0
10.597149384451825 -540.1659880925388 -256.36041002567384 -164.2806726694965 0.0 0.0
143.59764479167637 -22.155958432752712 36.43250590767709 -40.437835170396525 0.0 0.0
277.31137258696754 29.221530772362932 91.95987100779912 -32.146972271355295 0.0 0.0
363.7173640726287 1.157554094265727 109.55517125077806 -51.84074791094076 0.0 0.0
453.65107997129024 -12.988915246483359 139.2381583472564 -54.85662732106963 0.0 0.0
539.7059006874022 -11.587210781295981 199.03266774946022 -49.71766242546581 0.0 0.0
613.8866600995674 -0.838840503076618 270.4042832107547 -48.53420468941391 0.0 0.0
682.9607505024753 12.49275601075902 330.8439048912577 -50.32772923887207 0.0 0.0
749.6649537555036 32.02035883929117 382.7730386890606 -52.579430184741454 0.0 0.0
814.2080709567983 55.12564599831294 429.93071235185323 -53.83476950430197 0.0 0.0
877.151343078188 80.43361043895575 475.36050852406015 -53.680136776657825 0.0 0.0
938.7229165078529 107.37525480671397 520.2375308901911 -52.51345649478041 0.0 0.0
1000.1066418641301 135.66942484443516 565.4260569959645 -51.11129985086352 0.0 0.0
1061.7379034943247 166.2783053171093 611.7709688431825 -49.61061703151855 0.0 0.0
1124.2175865655565 198.95599331783322 659.5043953848893 -47.85234093285793 0.0 0.0
1187.2436447402024 233.8711572971347 708.5947040601176 -45.32519168246015 0.0 0.0
1249.8462627717565 271.018262575308 758.5416330830695 -41.652138538788755 0.0 0.0
1312.1030913516497 311.64556534391875 809.9603814924778 -37.009268423716854 0.0 0.0
1369.4290923461754 352.4651418887862 858.9247660146415 -31.02157131813666 0.0 0.0
1408.8416227011312 381.7482901808909 893.1414113383144 -21.496954976213043 0.0 0.0
1408.8416227017517 381.7482901815264 893.1414113387225 21.496954976252276 0.0 0.0
1369.4290923464555 352.46514188912147 858.9247660148243 31.021571318250977 0.0 0.0
1312.1030913505565 311.6455653428908 809.9603814916662 37.00926842385466 0.0 0.0
1249.8462627708623 271.01826257448886 758.5416330823044 41.652138538836546 0.0 0.0
1187.243644740395 233.87115729742766 708.5947040601591 45.3251916824628 0.0 0.0
1124.2175865647157 198.95599331711813 659.5043953842381 47.85234093293231 0.0 0.0
1061.7379034935116 166.27830531642758 611.7709688425421 49.61061703152811 0.0 0.0
1000.1066418635907 135.66942484404524 565.4260569955371 51.11129985080454 0.0 0.0
938.7229165067323 107.37525480574183 520.2375308893775 52.513456494712244 0.0 0.0
877.1513430776945 80.43361043865944 475.36050852370914 53.68013677662599 0.0 0.0
814.2080709565261 55.125645998261035 429.9307123516291 53.83476950430055 0.0 0.0
749.6649537547861 32.02035883881811 382.77303868857075 52.57943018477673 0.0 0.0
682.9607505022122 12.492756010769902 330.843904891022 50.32772923887782 0.0 0.0
613.8866600993134 -0.8388405030507045 270.4042832104931 48.53420468942309 0.0 0.0
539.7059006868727 -11.587210781528757 199.03266774905674 49.717662425496016 0.0 0.0
453.65107997121015 -12.988915246197855 139.2381583472591 54.8566273210424 0.0 0.0
363.71736407237506 1.1575540941532854 109.55517125067925 51.840747910796054 0.0 0.0
277.31137258689205 29.221530772232967 91.95987100773748 32.146972271278436 0.0 0.0
143.59764479188397 -22.155958432431923 36.43250590783561 40.4378351702001 0.0 0.0
10.59714938459642 -540.1659880922955 -256.36041002539724 164.2806726693397 0.0 0.0
-6.28572447748229 -524.4759014182105 -247.45156477635376 -166.7287905303266 0.0 0.0
84.87101873568737 -26.54450608885046 17.497953794051078 -84.93949346095341 0.0 0.0
217.0248522579938 28.09624887500007 73.53633033989816 -60.84375050348688 0.0 0.0
313.3356563644218 6.8724013966527275 96.0543525117035 -72.08772132013122 0.0 0.0
404.6953470918287 -9.973262077001506 120.77009294574185 -79.20601614184964 0.0 0.0
499.8299085808571 -13.147196253875366 171.61376972947454 -73.05551164127581 0.0 0.0
581.7470349204925 -3.109544796731127 243.42878167508897 -69.01009330082188 0.0 0.0
654.2609034807817 10.789996308854374 309.5302341554639 -70.2611190388525 0.0 0.0
720.4295849613002 28.167913202108437 363.2543230843825 -72.27598474619964 0.0 0.0
782.6940824273364 48.60927374095057 409.5682312391604 -73.31282300043883 0.0 0.0
842.0834980759045 70.49370750111515 452.1964685410652 -72.76040525447374 0.0 0.0
899.6033438224158 93.50927613378272 493.3544510226686 -71.11253709301639 0.0 0.0
956.0246728302736 117.58359770659489 534.0705717565888 -69.21432336993605 0.0 0.0
1012.9418548471034 143.53237053364194 575.801504035732 -67.29096164777177 0.0 0.0
1070.0687557393214 170.9679342288972 618.2850061886481 -64.96318825703837 0.0 0.0
1127.0227134415436 200.2950159934723 661.5732433568746 -61.698020891891105 0.0 0.0
1184.6863734080857 232.2443293586579 706.4646720516965 -57.25276809172401 0.0 0.0
1242.2745306881675 267.5639521308013 752.9113355144648 -51.30467373199078 0.0 0.0
1295.1201474216384 302.7308202948559 796.8330166554264 -42.33790865547707 0.0 0.0
1332.249412456392 328.0439639103053 827.935154367148 -27.438406573122414 0.0 0.0
1332.2494124564955 328.0439639104222 827.9351543672243 27.438406573121828 0.0 0.0
1295.1201474213235 302.73082029457055 796.8330166552528 42.337908655529326 0.0 0.0
1242.2745306886898 267.5639521314129 752.9113355149129 51.30467373214043 0.0 0.0
1184.686373408249 232.24432935892014 706.4646720518598 57.25276809185062 0.0 0.0
1127.022713441456 200.29501599347523 661.5732433567835 61.69802089189996 0.0 0.0
1070.0687557396895 170.9679342294184 618.28500618895 64.9631882571122 0.0 0.0
1012.9418548478625 143.53237053456488 575.8015040362556 67.29096164782547 0.0 0.0
956.0246728300032 117.58359770646743 534.0705717564173 69.21432336992808 0.0 0.0
899.6033438218375 93.50927613340137 493.3544510222366 71.11253709306375 0.0 0.0
842.0834980753851 70.49370750080573 452.1964685406601 72.76040525451074 0.0 0.0
782.6940824268754 48.60927374063884 409.56823123879 73.3128230002307 0.0 0.0
720.4295849610188 28.16791320203346 363.25432308413883 72.27598474609482 0.0 0.0
654.2609034808677 10.789996309249446 309.53023415544664 70.2611190388537 0.0 0.0
581.7470349202109 -3.1095447967236822 243.42878167480072 69.01009330079341 0.0 0.0
499.82990858048584 -13.14719625385124 171.61376972922156 73.05551164128323 0.0 0.0
404.695347091545 -9.973262076913722 120.77009294567422 79.2060161417446 0.0 0.0
313.33565636444206 6.872401396959729 96.05435251180302 72.08772132001135 0.0 0.0
217.0248522580317 28.096248875052908 73.53633033992537 60.84375050332034 0.0 0.0
84.87101873578668 -26.544506088746907 17.49795379411193 84.93949346074845 0.0 0.0
-6.285724477378409 -524.4759014179095 -247.45156477606562 166.728790530217 0.0 0.0
-9.239940963541017 -498.121542676951 -225.10505906403986 -164.916905751506 0.0 0.0
50.53536849046869 -31.66487864308767 5.66114695421431 -119.49745410182071 0.0 0.0
164.6217054756327 23.968974237459395 56.57720391392762 -89.94963167244026 0.0 0.0
260.1370158846515 10.202575890505564 81.10159978488599 -93.73678723230086 0.0 0.0
347.75554723802463 -5.190606178209887 103.33695707926066 -102.38379376478717 0.0 0.0
448.5630784184317 -13.355284845606151 143.9783724181372 -99.32708288615356 0.0 0.0
541.7238234479933 -6.201060738753744 211.26096005609855 -91.84022934332518 0.0 0.0
619.1414238875775 8.669165877422625 282.41066519704316 -90.32058922450237 0.0 0.0
685.6049699098646 24.389891797910078 339.319267748752 -91.66570361723997 0.0 0.0
745.9977743059468 41.86702188073082 385.6577730252553 -92.21250813597325 0.0 0.0
802.2595920120491 60.35933498755155 426.14460286104116 -91.1889448338632 0.0 0.0
855.5929768737844 79.45765284574901 463.7247870729989 -89.05340578918471 0.0 0.0
907.6155880865113 99.38600197226256 500.3975536333257 -86.8104488283117 0.0 0.0
959.0800486426833 120.67673872091156 537.1787256614118 -84.46301179987593 0.0 0.0
1010.8196417174549 143.0294069662459 574.486073640362 -81.67069996063054 0.0 0.0
1062.7543990489987 166.69107280478192 612.4811190764676 -77.92929052540967 0.0 0.0
1114.2657977882752 192.51083075120312 651.270605932659 -72.84428226187886 0.0 0.0
1166.2957263235683 221.48807196828594 691.7953112177697 -65.77339068653254 0.0 0.0
1215.5119338303891 251.18659940674877 731.1769474945212 -54.12249641032737 0.0 0.0
1252.6156047102984 273.91481375697595 760.9544319354735 -34.2202991823809 0.0 0.0
1252.6156047102497 273.9148137569508 760.9544319354736 34.220299182439305 0.0 0.0
1215.5119338301765 251.18659940660092 731.1769474943773 54.12249641053455 0.0 0.0
1166.2957263235737 221.48807196840923 691.7953112177522 65.77339068675033 0.0 0.0
1114.2657977880385 192.5108307511119 651.2706059324023 72.84428226212438 0.0 0.0
1062.7543990486938 166.69107280457956 612.4811190761478 77.92929052544329 0.0 0.0
1010.8196417163487 143.02940696524072 574.4860736395347 81.67069996062449 0.0 0.0
959.0800486422938 120.6767387206904 537.1787256610669 84.46301179997641 0.0 0.0
907.6155880857941 99.3860019716776 500.39755363275356 86.81044882829235 0.0 0.0
855.5929768729873 79.4576528451183 463.7247870724244 89.0534057891914 0.0 0.0
802.259592011432 60.35933498712936 426.144602860595 91.18894483386258 0.0 0.0
745.9977743053414 41.8670218802542 385.65777302478585 92.2125081357847 0.0 0.0
685.6049699093267 24.389891797563735 339.3192677483413 91.66570361716768 0.0 0.0
619.1414238871004 8.669165877267432 282.410665196631 90.32058922454236 0.0 0.0
541.7238234477298 -6.20106073862987 211.260960055846 91.84022934337264 0.0 0.0
448.56307841766727 -13.355284846130932 143.97837241766732 99.3270828860829 0.0 0.0
347.75554723767647 -5.190606178340741 103.33695707912905 102.38379376475518 0.0 0.0
260.13701588437533 10.202575890170078 81.10159978470313 93.73678723229077 0.0 0.0
164.62170547556303 23.96897423739295 56.57720391388679 89.94963167223744 0.0 0.0
50.5353684905629 -31.664878642864288 5.661146954309585 119.4974541015773 0.0 0.0
-9.239940963472321 -498.1215426766304 -225.10505906375275 164.91690575142962 0.0 0.0
-5.978391094153423 -464.70773686534926 -195.78079547202032 -161.74677668346158 0.0 0.0
28.687244323571523 -35.88494555971057 -2.159310370841715 -145.0578627841985 0.0 0.0
119.43874805543757 18.592314410129298 41.409318739670056 -115.96669460452073 0.0 0.0
206.22347755369475 12.14314558537775 65.50731013316863 -114.99827927075081 0.0 0.0
287.57560076491757 -1.1068566595487175 85.97130639253719 -123.97189742992128 0.0 0.0
381.5460340644008 -11.412930295384516 116.79386620198147 -126.19370725214446 0.0 0.0
484.78610692305847 -7.888998343220196 174.87994209646405 -117.89973129035118 0.0 0.0
572.4139233491545 4.911021886243603 246.36709591928673 -111.97415308409538 0.0 0.0
643.4267603319213 20.261068834527286 308.9344764836253 -111.03137462274336 0.0 0.0
702.8737717780477 35.065232832058605 356.87313859070605 -110.58279528372432 0.0 0.0
756.0355723429041 49.89289174301349 395.87347331598244 -108.9884456583786 0.0 0.0
805.6954681558282 65.27897764293247 430.66710264124936 -106.4291534433469 0.0 0.0
853.1509902879072 81.23453761433268 463.4914021599763 -103.7966229373904 0.0 0.0
899.5765730918159 97.75377736972028 495.5859291166745 -101.24102619560514 0.0 0.0
946.0399766040936 115.01486878092797 527.8103538230874 -98.14527550145104 0.0 0.0
992.0498453204093 133.44631592337626 560.2833920771177 -93.85816689553033 0.0 0.0
1037.6987884145037 152.4769605327716 592.8207884180229 -88.3538410679016 0.0 0.0
1083.3163239754708 173.72393509043482 626.3317951981618 -80.5565143402137 0.0 0.0
1128.7212532300084 197.48693520944795 660.840260180478 -66.77750510212077 0.0 0.0
1167.5660169079192 218.27615003251861 690.4654268625409 -42.358246363374896 0.0 0.0
1167.5660169082312 218.27615003285092 690.4654268627465 42.35824636341252 0.0 0.0
1128.7212532297956 197.48693520931556 660.840260180296 66.77750510232943 0.0 0.0
1083.3163239740727 173.7239350891462 626.3317951972076 80.55651434045149 0.0 0.0
1037.6987884136386 152.47696053203794 592.8207884174058 88.35384106811206 0.0 0.0
992.0498453202143 133.44631592328017 560.2833920769488 93.85816689551152 0.0 0.0
946.0399766037532 115.01486878063164 527.8103538228673 98.1452755013257 0.0 0.0
899.5765730911601 97.75377736917264 495.5859291162491 101.24102619560718 0.0 0.0
853.1509902872892 81.23453761382295 463.4914021594671 103.79662293735238 0.0 0.0
805.6954681561708 65.27897764348846 430.6671026414289 106.42915344336859 0.0 0.0
756.03557234268 49.89289174302782 395.87347331581105 108.98844565842026 0.0 0.0
702.8737717775863 35.06523283170803 356.87313859029666 110.58279528354194 0.0 0.0
643.4267603316325 20.26106883446569 308.9344764833574 111.03137462268789 0.0 0.0
572.413923348696 4.911021886061917 246.3670959188923 111.97415308406318 0.0 0.0
484.78610692281325 -7.888998342976063 174.87994209628482 117.89973129040017 0.0 0.0
381.5460340640979 -11.412930295208085 116.79386620189297 126.1937072520651 0.0 0.0
287.5756007649086 -1.1068566591247029 85.9713063926703 123.97189742993012 0.0 0.0
206.22347755371752 12.143145585781298 65.50731013329742 114.99827927069214 0.0 0.0
119.43874805541088 18.592314410252065 41.40931873969889 115.96669460429655 0.0 0.0
28.687244323553372 -35.88494555963906 -2.159310370825703 145.0578627840256 0.0 0.0
-5.978391094176949 -464.7077368650989 -195.7807954717876 161.74677668341297 0.0 0.0
-0.3303770896451681 -425.6249475589141 -163.20973865787283 -158.28745335755417 0.0 0.0
12.325529948905269 -39.91087456360406 -8.275603384409639 -162.85512760505708 0.0 0.0
79.44402428828941 13.260896337308832 27.81147618767947 -137.40221210686212 0.0 0.0
153.06472073210222 13.772192406229202 50.04918674387466 -134.39323093045527 0.0 0.0
223.74108312975625 1.6480344998352927 67.6680642252237 -143.4546093751796 0.0 0.0
305.8503557512362 -7.4501572675880094 91.33480279463693 -151.08744868383755 0.0 0.0
409.607637513414 -8.286257294689424 136.01489843456272 -146.50595994380964 0.0 0.0
508.3127936204228 1.431567923981838 201.73864241206084 -136.65268535771546 0.0 0.0
587.7262058263576 14.810513615460103 267.58795503362956 -131.33518099241795 0.0 0.0
650.1758958741191 28.006569239940095 320.12111795850865 -128.71857671569896 0.0 0.0
701.0206795748567 39.13782783341719 359.144366953887 -126.23839020468837 0.0 0.0
747.3622956960739 51.00730593640959 392.272293498312 -123.2529514314599 0.0 0.0
790.4606126948636 62.92603318633238 421.82145497461636 -120.3062469894574 0.0 0.0
831.7201765054772 75.11402742751758 449.66271862604947 -117.55751012638879 0.0 0.0
872.1668311530846 87.04776379853891 476.4543030202283 -114.35903184727599 0.0 0.0
913.4899463586457 100.28910175299924 504.0913738356086 -109.7723164168697 0.0 0.0
952.9273957378373 112.9614536402769 530.4418363491975 -103.61821874078619 0.0 0.0
990.723004166089 125.30252575879587 555.7037415178282 -95.51850612709505 0.0 0.0
1031.6352009095046 140.86947849380718 583.8861719696068 -80.73434439222397 0.0 0.0
1074.049930650788 159.80615741477615 614.2722271057411 -52.62951256251794 0.0 0.0
1074.0499306518102 159.80615741585774 614.2722271065074 52.62951256268028 0.0 0.0
1031.6352009110672 140.869478495533 583.8861719707611 80.734344392526 0.0 0.0
990.7230041666248 125.30252575955205 555.7037415181906 95.5185061274681 0.0 0.0
952.9273957376546 112.96145364023079 530.4418363490129 103.61821874094328 0.0 0.0
913.4899463583099 100.28910175273626 504.09137383534835 109.77231641685613 0.0 0.0
872.1668311523656 87.04776379791662 476.45430301967843 114.35903184727977 0.0 0.0
831.7201765054936 75.1140274277406 449.6627186260576 117.55751012648886 0.0 0.0
790.4606126943906 62.92603318598772 421.8214549743209 120.30624698948802 0.0 0.0
747.3622956961266 51.007305936694365 392.27229349834636 123.25295143157363 0.0 0.0
701.0206795744426 39.137827833319164 359.14436695362195 126.2383902048308 0.0 0.0
650.1758958742247 28.006569240333967 320.1211179585094 128.71857671570848 0.0 0.0
587.7262058262079 14.8105136156356 267.5879550334646 131.3351809924144 0.0 0.0
508.3127936198034 1.431567923562156 201.73864241158066 136.6526853576319 0.0 0.0
409.6076375127313 -8.28625729511297 136.01489843413523 146.50595994371184 0.0 0.0
305.8503557511257 -7.450157267199522 91.33480279470587 151.08744868368265 0.0 0.0
223.74108312970046 1.6480345000927352 67.66806422529261 143.45460937501767 0.0 0.0
153.06472073196431 13.772192406147841 50.04918674380947 134.39323093024075 0.0 0.0
79.44402428825312 13.26089633736648 27.811476187685876 137.40221210662727 0.0 0.0
12.32552994893089 -39.910874563458876 -8.275603384358398 162.85512760484357 0.0 0.0
-0.33037708957770917 -425.62494755850435 -163.20973865758734 158.28745335751557 0.0 0.0
3.5301373273809205 -382.4299835985271 -132.3362961101115 -155.12581339813698 0.0 0.0
-3.3722252595669473 -44.101788131194084 -14.242175322988295 -173.27720898635738 0.0 0.0
43.04506912193904 9.010198964515265 15.616580425936288 -154.23374972333832 0.0 0.0
101.31171444223024 15.099913502815635 34.92183162076661 -150.71594815954523 0.0 0.0
158.08222700637134 4.175743686421304 48.69851568829374 -160.16055615686824 0.0 0.0
221.72319840562028 -3.4436860353411456 66.29630875187938 -171.12776587238784 0.0 0.0
310.4714202725186 -5.8182610091468465 97.0361643943436 -174.6546363064255 0.0 0.0
417.41010579929207 -0.894940057342156 149.25296876610852 -165.48160227477143 0.0 0.0
509.2179164668163 8.681793388231439 211.63798775119741 -154.67253237507944 0.0 0.0
578.4303115959701 19.894832334734215 268.12959997630304 -147.478913310778 0.0 0.0
631.312555075413 28.002219371848895 310.45841000091696 -143.45085813402088 0.0 0.0
674.534878650614 36.29188024175329 343.4478951741839 -139.6402874268396 0.0 0.0
713.6119651059597 44.74192379161983 371.36441335753193 -136.34805670240522 0.0 0.0
749.8478176379958 52.586018234836644 395.794223798493 -133.48538339179163 0.0 0.0
784.7816064243605 59.64752322535359 418.15859609398984 -130.39170356581607 0.0 0.0
819.9150091913082 66.82423052029654 439.9853121671033 -125.73169310720947 0.0 0.0
855.6205850111282 74.44805056499109 462.04889981869803 -118.8889839739393 0.0 0.0
885.9412346869534 77.93924763083996 479.4050304457177 -110.29960451132791 0.0 0.0
917.4679627825567 80.85529118009423 496.7104693440951 -95.92908498034197 0.0 0.0
964.1143271795668 96.29702639281001 527.2652701188957 -66.10008074336287 0.0 0.0
964.1143271791607 96.29702639243837 527.2652701185428 66.10008074352258 0.0 0.0
917.4679627824285 80.8552911801319 496.7104693439778 95.929084980652 0.0 0.0
885.941234686276 77.93924763031822 479.4050304452852 110.29960451162074 0.0 0.0
855.6205850101259 74.44805056410479 462.04889981797874 118.88898397406649 0.0 0.0
819.9150091917943 66.82423052089621 439.98531216738604 125.73169310724141 0.0 0.0
784.7816064246755 59.6475232258055 418.15859609417333 130.39170356580954 0.0 0.0
749.8478176377748 52.58601823478716 395.79422379835654 133.4853833918529 0.0 0.0
713.6119651057741 44.74192379161006 371.3644133574 136.34805670249392 0.0 0.0
674.5348786501519 36.29188024140437 343.4478951738227 139.64028742680892 0.0 0.0
631.3125550750196 28.00221937168167 310.45841000062325 143.45085813405885 0.0 0.0
578.4303115961796 19.894832335241126 268.12959997635033 147.47891331073487 0.0 0.0
509.21791646666236 8.68179338853097 211.63798775107307 154.67253237521368 0.0 0.0
417.41010579917577 -0.8949400568261296 149.25296876609048 165.48160227484956 0.0 0.0
310.4714202720416 -5.818261009133889 97.03616439417613 174.65463630641898 0.0 0.0
221.7231984053007 -3.4436860356149808 66.29630875170255 171.1277658722404 0.0 0.0
158.08222700611643 4.175743686095158 48.6985156881254 160.16055615660855 0.0 0.0
101.31171444204891 15.099913502521284 34.92183162062472 150.71594815933634 0.0 0.0
43.0450691218878 9.010198964481104 15.616580425910668 154.2337497231291 0.0 0.0
-3.37222525963835 -44.10178813126669 -14.24217532303163 173.2772089861597 0.0 0.0
3.5301373274457433 -382.42998359821235 -132.3362961098961 155.12581339797245 0.0 0.0
0.21406290495297142 -335.99800720304285 -108.04313998123048 -149.93748224841545 0.0 0.0
-20.86105666287046 -49.16468347948299 -21.00648175318797 -179.37980386295098 0.0 0.0
9.359479509879641 6.500784526898176 4.757783369176365 -166.48849851869974 0.0 0.0
51.07031393837677 15.940125139460855 20.10201799985085 -163.41169316351852 0.0 0.0
91.32457369529592 7.629985677575368 29.705849711231266 -172.3813572192128 0.0 0.0
133.70588105664427 -0.4039138608812818 40.368022254766714 -186.6709306740395 0.0 0.0
191.2731061010441 -2.487646490951961 58.635272232742324 -196.07831759101032 0.0 0.0
279.459281071328 0.13843584962702504 91.2605410443693 -194.86612182374483 0.0 0.0
382.5192336700764 4.360106882807402 138.53409095131204 -183.69836350490692 0.0 0.0
465.7148656468486 10.340926120619297 190.08964138560748 -169.9341418865233 0.0 0.0
525.2090912923891 16.881695901459597 235.29640687814282 -161.47998895334584 0.0 0.0
568.7268853167553 21.023132282395487 269.8173692321702 -156.29870741922304 0.0 0.0
605.1675997255395 26.23595293786726 298.63696151725514 -152.28455563055192 0.0 0.0
636.9770179957354 30.42805075861998 322.35906753399456 -149.0812016916273 0.0 0.0
665.8947642656777 32.69687357397599 341.84764540141185 -145.9755870622773 0.0 0.0
694.4883055326105 33.605439749789326 358.89896839690664 -141.76849408309315 0.0 0.0
726.3887080069238 34.99905724668602 376.51541885689375 -134.67293119622852 0.0 0.0
757.8867801241721 34.9567440846909 393.0320309864094 -124.56936801601316 0.0 0.0
776.0549120646256 19.226581382830204 395.26202132683164 -111.37879219618605 0.0 0.0
823.0369312790856 22.540822004812767 419.503056206255 -84.34243432769749 0.0 0.0
823.0369312797867 22.540822005662818 419.5030562067826 84.34243432800996 0.0 0.0
776.0549120653852 19.22658138379174 395.2620213273544 111.37879219657212 0.0 0.0
757.8867801235455 34.956744084277005 393.03203098597845 124.56936801629658 0.0 0.0
726.3887080065405 34.99905724627675 376.5154188565566 134.6729311962714 0.0 0.0
694.4883055332585 33.605439750666164 358.89896839731483 141.76849408324597 0.0 0.0
665.8947642659737 32.69687357452055 341.8476454016327 145.97558706241932 0.0 0.0
636.9770179960276 30.42805075915605 322.3590675342173 149.08120169172918 0.0 0.0
605.1675997254229 26.235952937907882 298.6369615171585 152.28455563069383 0.0 0.0
568.7268853168749 21.023132282857425 269.81736923220103 156.2987074193526 0.0 0.0
525.2090912921949 16.88169590148366 235.29640687795904 161.4799889533037 0.0 0.0
465.7148656466666 10.34092612062977 190.0896413854181 169.93414188639898 0.0 0.0
382.51923366964263 4.360106882616851 138.5340909510411 183.6983635048964 0.0 0.0
279.45928107094494 0.1384358497717546 91.26054104425369 194.8661218237469 0.0 0.0
191.273106100934 -2.4876464905578093 58.635272232819105 196.07831759092826 0.0 0.0
133.70588105672277 -0.4039138603536676 40.36802225494469 186.6709306738429 0.0 0.0
91.32457369536182 7.629985677784642 29.705849711316933 172.3813572190122 0.0 0.0
51.070313938447306 15.940125139614178 20.10201799991842 163.41169316339722 0.0 0.0
9.3594795098444 6.500784526944 4.75778336917966 166.48849851849823 0.0 0.0
-20.861056662922522 -49.1646834794679 -21.00648175319958 179.3798038628369 0.0 0.0
0.2140629049316125 -335.9980072027055 -108.04313998108843 149.93748224827954 0.0 0.0
-8.547799204794684 -287.76784442493795 -90.13212537523623 -141.1024575666833 0.0 0.0
-38.247513956328454 -54.04348528135398 -27.684551531249337 -182.84773970771806 0.0 0.0
-22.38921538213162 5.162725508706412 -5.16779433712074 -174.53544491085862 0.0 0.0
2.3956869294606884 16.575816881978103 5.691221437562633 -171.90166969538762 0.0 0.0
24.520628173091275 11.16258760393572 10.707181725129505 -179.9049193606761 0.0 0.0
42.99093023562518 3.582797989361222 14.097532638335835 -194.74955752999804 0.0 0.0
63.91761744563385 0.0018169510727359395 19.798993764858626 -208.3327393020513 0.0 0.0
94.98835427928228 0.06508967188267789 30.195092289055278 -214.56615196520102 0.0 0.0
143.669839238648 2.864565476090961 47.842079135744555 -208.30062604323462 0.0 0.0
206.04738476111305 4.474979799622631 70.81089552553786 -196.80735781302104 0.0 0.0
265.9465651309797 6.777316408273617 97.73566677399214 -183.12566824649434 0.0 0.0
314.1654368063826 8.020999874700884 124.18332929138455 -174.8239390404181 0.0 0.0
357.5703651358445 9.525051676246846 151.1004139083098 -169.579532002951 0.0 0.0
393.0393459505806 8.968402638504529 174.88882530192643 -164.83806096164363 0.0 0.0
420.1475972665438 6.595098696206364 194.26612887934618 -160.58113061777405 0.0 0.0
448.3702633652159 0.9416611008921336 211.4855819567643 -156.77785312590856 0.0 0.0
484.19888919633246 -5.686458172880009 229.6635939061581 -150.7746941366216 0.0 0.0
530.4435162688372 -9.846504294962557 252.9584368015457 -140.39289701597625 0.0 0.0
569.3580852311491 -27.193558335338963 267.66687036066315 -123.82078935754582 0.0 0.0
594.1120411831454 -77.54115215955778 255.25418328240386 -105.78466788701746 0.0 0.0
594.1120411824745 -77.54115216023155 255.25418328204543 105.78466788724866 0.0 0.0
569.3580852305762 -27.193558336129172 267.66687036023677 123.82078935784405 0.0 0.0
530.4435162685769 -9.846504295083776 252.95843680142673 140.39289701631486 0.0 0.0
484.1988891957775 -5.686458173539421 229.66359390577608 150.77469413669544 0.0 0.0
448.3702633643496 0.9416610996266002 211.48558195609314 156.7778531258934 0.0 0.0
420.14759726619775 6.595098695807721 194.2661288790847 160.58113061777874 0.0 0.0
393.03934595158705 8.96840263994413 174.88882530262376 164.83806096173907 0.0 0.0
357.5703651362235 9.525051677037567 151.1004139086248 169.57953200315865 0.0 0.0
314.16543680619037 8.020999874322555 124.18332929119174 174.82393904036022 0.0 0.0
265.9465651309895 6.777316408507957 97.73566677401172 183.12566824649758 0.0 0.0
206.0473847610074 4.474979799767539 70.81089552554033 196.80735781291895 0.0 0.0
143.66983923872542 2.864565476373322 47.8420791358358 208.30062604329777 0.0 0.0
94.98835427897102 0.06508967128585219 30.195092288776852 214.5661519651572 0.0 0.0
63.91761744527688 0.001816950469645029 19.798993764569673 208.33273930192954 0.0 0.0
42.99093023559167 3.5827979893418718 14.097532638319302 194.74955752975887 0.0 0.0
24.520628173119754 11.162587603901187 10.70718172512862 179.9049193604273 0.0 0.0
2.3956869295245937 16.5758168820049 5.691221437589885 171.90166969518066 0.0 0.0
-22.389215382109494 5.162725508812472 -5.167794337082393 174.53544491068493 0.0 0.0
-38.24751395636163 -54.043485281373435 -27.684551531266095 182.84773970758738 0.0 0.0
-8.547799204905287 -287.7678444247281 -90.1321253752036 141.1024575664855 0.0 0.0
-19.184792074797272 -240.9485621772914 -78.02959899234204 -129.8154786164261 0.0 0.0
-52.84528783185499 -55.584587665064795 -32.52672772018604 -182.62503688254702 0.0 0.0
-52.54326903730905 3.904258997927684 -14.591724644762927 -178.68465926077005 0.0 0.0
-44.704362948334236 17.091283689625012 -8.284936113722747 -175.93381605587365 0.0 0.0
-41.66788382694152 14.368582727414713 -8.191207494354614 -182.154379408169 0.0 0.0
-48.18409152318762 7.812507733093632 -12.242195667286543 -195.72097836686473 0.0 0.0
-65.26721481733776 2.780079361349139 -19.379510848680752 -208.46437089734968 0.0 0.0
-95.07739348821966 0.35137965337719024 -30.09880516237036 -214.68322034378454 0.0 0.0
-143.39076540050377 -2.8231191234714945 -47.73679620297001 -208.31929997811548 0.0 0.0
-205.84526026727247 -4.5857577769253375 -70.78966790859539 -196.76833153111036 0.0 0.0
-266.1711128888979 -6.095030039183126 -97.35551198532062 -183.08117991880204 0.0 0.0
-315.3271228243367 -7.019921186303598 -124.27695543558701 -174.4944721041263 0.0 0.0
-360.7803930216378 -8.146601915303073 -151.9653447003584 -169.02693786458326 0.0 0.0
-398.82330116588406 -10.766882064814098 -178.11355841482612 -164.5554997450213 0.0 0.0
-425.0827901439279 -17.452835396650812 -201.264944379261 -161.933901338112 0.0 0.0
-440.5165607768828 -27.96561009324813 -221.08368064443815 -162.1374713283706 0.0 0.0
-434.92782569433115 -40.940844930454034 -232.7597401373709 -163.80290748707054 0.0 0.0
-379.5819863946515 -40.67730253420228 -223.00805929644426 -165.0065264629036 0.0 0.0
-202.21850084906973 -34.52462432723166 -151.28219714794233 -166.85333495006478 0.0 0.0
20.156622980751393 -170.66837031180222 -63.314236254135224 -135.58985085310314 0.0 0.0
20.156622980855616 -170.6683703117367 -63.31423625409741 135.58985085345688 0.0 0.0
-202.2185008489267 -34.524624327159586 -151.2821971479001 166.85333495059595 0.0 0.0
-379.5819863947604 -40.67730253411099 -223.00805929639895 165.00652646316212 0.0 0.0
-434.9278256946791 -40.94084493143522 -232.75974013771383 163.80290748722774 0.0 0.0
-440.51656077687664 -27.965610093587173 -221.0836806444667 162.13747132844793 0.0 0.0
-425.08279014406355 -17.45283539711859 -201.26494437937916 161.93390133815834 0.0 0.0
-398.82330116492676 -10.766882064117738 -178.11355841425967 164.55549974508102 0.0 0.0
-360.7803930211055 -8.146601915233099 -151.96534470003766 169.0269378645944 0.0 0.0
-315.32712282369533 -7.019921186172439 -124.27695543524919 174.4944721041133 0.0 0.0
-266.17111288858166 -6.095030039680175 -97.35551198527182 183.08117991877424 0.0 0.0
-205.84526026679293 -4.58575777735016 -70.78966790857375 196.76833153110493 0.0 0.0
-143.39076540009012 -2.8231191237543545 -47.73679620292039 208.319299978225 0.0 0.0
-95.07739348766877 0.3513796539528222 -30.09880516202583 214.683220343749 0.0 0.0
-65.2672148167959 2.7800793623974114 -19.37951084819615 208.46437089719745 0.0 0.0
-48.1840915230368 7.812507733090963 -12.242195667240418 195.72097836666666 0.0 0.0
-41.66788382682182 14.368582727381575 -8.19120749433014 182.15437940798847 0.0 0.0
-44.70436294831388 17.09128368952597 -8.284936113748147 175.93381605572617 0.0 0.0
-52.543269037293335 3.9042589979350186 -14.59172464475822 178.68465926059835 0.0 0.0
-52.84528783176023 -55.584587664907644 -32.526727720111815 182.62503688238496 0.0 0.0
-19.184792074838136 -240.94856217706783 -78.02959899229057 129.81547861629235 0.0 0.0
-24.402426025711236 -196.33653244865826 -66.22168754231085 -116.9823246724988 0.0 0.0
-64.87285017326418 -54.19809982655619 -35.72093028451942 -178.50222663443296 0.0 0.0
-80.83818002520435 2.79201469603897 -23.415536643797598 -178.72101258466935 0.0 0.0
-90.28668335488206 17.256454499490093 -21.90447128122822 -175.54449263557976 0.0 0.0
-106.46416552495108 16.947636523332438 -26.9090098029412 -178.92078972790642 0.0 0.0
-137.87157460547584 11.211120814472194 -38.515393743660326 -188.99371172218747 0.0 0.0
-192.35974890847308 5.184583495044363 -58.183915772907255 -197.03123350699897 0.0 0.0
-279.38982700036854 0.21132518597637073 -91.1571724915724 -195.08982459800424 0.0 0.0
-382.2614785583351 -4.394419074755781 -138.4444434670785 -183.74352228514348 0.0 0.0
-465.55213500235607 -10.260909243209987 -189.97035634901493 -169.88097874538133 0.0 0.0
-524.9364084461179 -16.37555199198468 -234.99035317917452 -161.31020568536863 0.0 0.0
-568.5332537803191 -19.94912298007081 -269.3451143898194 -155.8301992288007 0.0 0.0
-605.7050534185138 -25.046921834608398 -298.40554624497804 -151.30467252695414 0.0 0.0
-640.0301499946022 -31.972167200498774 -324.42732589380853 -148.29581597994243 0.0 0.0
-672.8600696395935 -42.11341554628865 -349.4364182806769 -147.54999337093722 0.0 0.0
-703.229679089003 -56.202658038245275 -373.8567143149654 -149.75557798953236 0.0 0.0
-727.5726277567444 -73.15025747710956 -396.26894999667826 -155.63241026388616 0.0 0.0
-740.4137302218903 -89.41016622073556 -412.7683705249091 -164.9764235354497 0.0 0.0
-777.35070536609 -144.3398622500453 -458.8616050943473 -174.1950476495707 0.0 0.0
-758.3955275756039 -215.69062657267926 -484.3595014982403 -188.1692582469657 0.0 0.0
-758.3955275745218 -215.6906265715906 -484.3595014975692 188.16925824709188 0.0 0.0
-777.3507053657327 -144.33986224973174 -458.86160509413173 174.1950476498432 0.0 0.0
-740.4137302211943 -89.41016622011966 -412.7683705244598 164.9764235356215 0.0 0.0
-727.5726277566378 -73.15025747715242 -396.2689499966238 155.63241026400993 0.0 0.0
-703.2296790877085 -56.20265803706562 -373.85671431414426 149.75557798950877 0.0 0.0
-672.8600696390029 -42.113415545527886 -349.43641828016166 147.54999337074588 0.0 0.0
-640.0301499949128 -31.97216720120437 -324.42732589404045 148.29581598015596 0.0 0.0
-605.7050534181766 -25.046921834430655 -298.40554624474265 151.30467252701197 0.0 0.0
-568.5332537801953 -19.94912298037805 -269.34511438973254 155.830199228915 0.0 0.0
-524.93640844611 -16.375551992427376 -234.9903531791077 161.31020568537465 0.0 0.0
-465.5521350018987 -10.260909243306706 -189.97035634872347 169.88097874542018 0.0 0.0
-382.26147855718455 -4.394419073860497 -138.4444434663487 183.74352228515653 0.0 0.0
-279.38982699957705 0.2113251863353236 -91.15717249118242 195.0898245980143 0.0 0.0
-192.35974890817297 5.1845834950683045 -58.183915772794066 197.03123350686843 0.0 0.0
-137.87157460524418 11.211120814436349 -38.515393743599425 188.99371172193588 0.0 0.0
-106.46416552471875 16.947636523347192 -26.909009802869058 178.92078972773436 0.0 0.0
-90.28668335474958 17.256454499534986 -21.904471281176594 175.54449263547076 0.0 0.0
-80.8381800252198 2.7920146959709564 -23.41553664382517 178.72101258456854 0.0 0.0
-64.87285017320812 -54.198099826526345 -35.720930284494294 178.5022266342574 0.0 0.0
-24.40242602568174 -196.3365324484756 -66.2216875422472 116.98232467234722 0.0 0.0
-25.995342238162813 -154.89183417066837 -54.26615292264934 -103.51084283207659 0.0 0.0
-74.86491674011587 -50.32547475031107 -37.555932838350465 -170.31358628352368 0.0 0.0
-107.3478955099959 1.8618392620973334 -31.642866733751106 -174.55461583264992 0.0 0.0
-134.12956704220437 17.04280060178357 -35.115258347921255 -170.5649403692137 0.0 0.0
-169.65034500676873 18.316008003912685 -45.55265845457594 -170.62770668512275 0.0 0.0
-224.5475317088231 13.26934145654691 -64.39508225824194 -174.92887692492158 0.0 0.0
-310.63227146398594 8.271578952149362 -96.51542381205073 -175.7584432295351 0.0 0.0
-416.97403316844134 1.0968342808676326 -149.07528966826828 -165.85717465432944 0.0 0.0
-509.08590167500245 -8.702821238501137 -211.5635521892031 -154.65386211654203 0.0 0.0
-578.3686980638953 -19.845770935146106 -268.08151883336046 -147.42166097034368 0.0 0.0
-631.1156397932856 -27.640074209454582 -310.23913300147825 -143.3140334827381 0.0 0.0
-674.2458417664445 -35.41155714744346 -342.9447843904956 -139.1405422459011 0.0 0.0
-713.7483970967455 -43.643759308339725 -370.89151813580423 -135.14825876384893 0.0 0.0
-751.9416046218173 -53.45023302725741 -397.09915264665864 -132.15004800676928 0.0 0.0
-790.661836857939 -66.75988353723545 -424.28417913990796 -131.3159704692536 0.0 0.0
-829.127207438378 -84.7502223654804 -453.1728052898404 -133.89403612055747 0.0 0.0
-864.73699649184 -106.21147587322164 -482.32146961562717 -140.4734006608082 0.0 0.0
-905.2214666358207 -140.27715554062303 -520.1936098216239 -148.00678909581094 0.0 0.0
-949.2239932889058 -190.7994500942286 -568.100545225567 -155.3244185580069 0.0 0.0
-1023.5749484555458 -310.1451567622653 -662.4036986892245 -166.55100877452907 0.0 0.0
-1023.5749484556 -310.14515676240916 -662.4036986893351 166.5510087746928 0.0 0.0
-949.2239932889295 -190.79945009455662 -568.1005452256625 155.32441855843416 0.0 0.0
-905.2214666365508 -140.27715554164308 -520.193609822104 148.0067890961427 0.0 0.0
-864.736996492132 -106.2114758738627 -482.3214696158425 140.4734006610566 0.0 0.0
-829.1272074386177 -84.75022236586267 -453.17280528998083 133.8940361206694 0.0 0.0
-790.6618368576575 -66.75988353696648 -424.28417913970975 131.3159704690945 0.0 0.0
-751.9416046215601 -53.45023302708134 -397.09915264650226 132.15004800673995 0.0 0.0
-713.7483970964702 -43.64375930825025 -370.8915181356039 135.1482587638561 0.0 0.0
-674.2458417665316 -35.41155714783088 -342.9447843905426 139.14054224597623 0.0 0.0
-631.1156397923694 -27.64007420858099 -310.2391330007826 143.31403348249347 0.0 0.0
-578.3686980634176 -19.84577093490643 -268.0815188329611 147.42166097027098 0.0 0.0
-509.0859016749016 -8.702821239044082 -211.56355218913578 154.6538621166934 0.0 0.0
-416.97403316820186 1.0968342803803837 -149.07528966817324 165.85717465445498 0.0 0.0
-310.6322714632623 8.27157895241735 -96.51542381172399 175.75844322949558 0.0 0.0
-224.5475317083571 13.269341456874484 -64.39508225800859 174.92887692473153 0.0 0.0
-169.65034500640297 18.316008004051447 -45.55265845442819 170.6277066849463 0.0 0.0
-134.1295670419725 17.04280060192613 -35.11525834780994 170.5649403690009 0.0 0.0
-107.34789550990499 1.8618392621565194 -31.642866733706896 174.55461583248206 0.0 0.0
-74.86491674008263 -50.32547475032804 -37.555932838345925 170.31358628343574 0.0 0.0
-25.995342238143536 -154.89183417053084 -54.26615292260231 103.51084283199974 0.0 0.0
-26.70222095500025 -117.29599895042254 -43.19946597162683 -89.7663976122569 0.0 0.0
-83.56081862859507 -44.42920189422216 -38.397006156845165 -158.14945049223599 0.0 0.0
-132.14246156135138 1.204974378080288 -39.2784542225446 -166.0754932412506 0.0 0.0
-176.23874716108094 16.053662073062927 -48.0565354629238 -161.14661793793007 0.0 0.0
-230.22176386663165 18.311144430272297 -63.798259126445984 -157.02321754273913 0.0 0.0
-305.9560273523754 15.594388452956094 -89.55448200228001 -155.6059311765195 0.0 0.0
-408.5337115081261 10.433251326718937 -135.21044347131004 -148.0766968646754 0.0 0.0
-507.95067112126685 -1.2954029964187335 -201.51332562268522 -136.86225431658605 0.0 0.0
-587.7446090018205 -14.893933212151708 -267.60505649213263 -131.26491293850853 0.0 0.0
-650.1488721324406 -27.986625683990574 -320.1150856206092 -128.67361357616622 0.0 0.0
-700.8945901396178 -38.89287806824528 -358.9926543611681 -126.13303452942571 0.0 0.0
-747.1889311549241 -50.428208618273004 -391.93247354351547 -122.76293807743632 0.0 0.0
-790.4246668494021 -61.99464781590669 -421.33747671433287 -119.01171409647743 0.0 0.0
-832.6265198709416 -75.02351176100919 -449.9839954898773 -115.8699723248516 0.0 0.0
-875.4755621962111 -90.98035645171508 -479.8828694614529 -114.78556180815542 0.0 0.0
-920.7709120639262 -113.09077565936619 -513.8345465025236 -117.28671826467718 0.0 0.0
-969.8650732623353 -144.3958498749651 -554.2354466589356 -123.15323997851839 0.0 0.0
-1024.3013858311378 -188.16453003193877 -603.7202136346843 -129.70936995848044 0.0 0.0
-1090.819986323085 -255.92273619440087 -670.9064454761435 -134.14271479582922 0.0 0.0
-1176.8608259727944 -376.7941522681412 -773.1159736891329 -142.70333031239502 0.0 0.0
-1176.8608259722423 -376.7941522677133 -773.1159736888537 142.7033303126109 0.0 0.0
-1090.819986322018 -255.92273619334236 -670.906445475432 134.14271479591028 0.0 0.0
-1024.301385830551 -188.16453003145082 -603.7202136342344 129.7093699586196 0.0 0.0
-969.8650732614333 -144.39584987413906 -554.2354466582316 123.15323997856206 0.0 0.0
-920.77091206373 -113.09077565936674 -513.8345465022724 117.28671826485021 0.0 0.0
-875.4755621958293 -90.98035645154914 -479.88286946116114 114.78556180829634 0.0 0.0
-832.6265198704475 -75.02351176060762 -449.9839954894955 115.86997232480448 0.0 0.0
-790.4246668487702 -61.99464781545949 -421.33747671392956 119.01171409648938 0.0 0.0
-747.1889311549047 -50.428208618453596 -391.9324735434385 122.76293807744135 0.0 0.0
-700.8945901395136 -38.89287806834062 -358.99265436106094 126.13303452932185 0.0 0.0
-650.1488721321793 -27.98662568398698 -320.1150856203674 128.67361357609025 0.0 0.0
-587.7446090016774 -14.893933212449392 -267.60505649195045 131.26491293858808 0.0 0.0
-507.95067112065504 -1.2954029962435767 -201.51332562223715 136.86225431664474 0.0 0.0
-408.53371150781607 10.433251326476602 -135.21044347114878 148.07669686463709 0.0 0.0
-305.9560273520267 15.594388452705441 -89.55448200223918 155.60593117646846 0.0 0.0
-230.22176386626228 18.311144430399054 -63.798259126303684 157.02321754274283 0.0 0.0
-176.23874716072754 16.053662073385517 -48.056535462725456 161.14661793783367 0.0 0.0
-132.14246156123465 1.204974378065525 -39.27845422251477 166.07549324114746 0.0 0.0
-83.56081862852142 -44.429201894178384 -38.39700615680994 158.14945049207586 0.0 0.0
-26.702220955013996 -117.29599895031939 -43.199465971600006 89.76639761215867 0.0 0.0
-27.343047842695793 -84.04368757875834 -33.416020626436236 -75.72883391838019 0.0 0.0
-91.59089605347856 -37.14247296636867 -38.620010705954165 -142.43290995315346 0.0 0.0
-155.43200627832374 0.8905885590073028 -46.361193059780284 -153.3296665975764 0.0 0.0
-216.78692918054477 14.271526927907308 -60.733061075357156 -147.276475655957 0.0 0.0
-288.0597278710256 17.90975939513372 -81.28977751070889 -139.5916202675818 0.0 0.0
-380.0915540625199 17.540795187943722 -115.17118742161828 -131.29022309917406 0.0 0.0
-483.31057892936246 9.565858385028008 -173.8892646819355 -119.01669409545796 0.0 0.0
-572.2973766163606 -4.915058706437698 -246.24011292112618 -111.98057706012183 0.0 0.0
-643.546684464162 -20.394424640713204 -309.0432761367511 -110.94773370384733 0.0 0.0
-702.8837099043712 -35.047320967689934 -356.8849048706142 -110.5613972726329 0.0 0.0
-756.0018318840549 -49.76786948324027 -395.8074226280405 -108.89078389681777 0.0 0.0
-805.7157759780798 -65.04191664378574 -430.5683908434736 -105.97129749282529 0.0 0.0
-853.0358593728744 -80.57815010284027 -463.11404657520814 -102.57350721774678 0.0 0.0
-899.0257066539834 -96.57543396328813 -494.71801686185677 -99.5285739868694 0.0 0.0
-946.0624427280906 -115.25651858618582 -527.8614429745332 -98.10311055722404 0.0 0.0
-997.9478704889851 -142.31739710323907 -567.380763437006 -99.75285589013568 0.0 0.0
-1058.8880054869526 -182.5681729805847 -618.0144971147187 -104.78157792319638 0.0 0.0
-1129.2866157374888 -239.75751298699467 -681.9418274489067 -110.2877245758805 0.0 0.0
-1209.4969173950499 -319.99381401595065 -762.1799722783713 -114.08773036003124 0.0 0.0
-1290.6354900522967 -433.8373796153913 -859.1535309589751 -125.02373509623266 0.0 0.0
-1290.6354900527845 -433.83737961609387 -859.1535309593803 125.02373509658912 0.0 0.0
-1209.4969173955053 -319.9938140165649 -762.1799722786807 114.0877303602903 0.0 0.0
-1129.2866157377878 -239.7575129874746 -681.9418274491425 110.28772457614389 0.0 0.0
-1058.888005488016 -182.56817298180925 -618.01449711544 104.78157792334974 0.0 0.0
-997.9478704894434 -142.3173971038716 -567.3807634373898 99.7528558902507 0.0 0.0
-946.0624427281045 -115.25651858631096 -527.861442974574 98.10311055723633 0.0 0.0
-899.0257066544766 -96.5754339639889 -494.71801686219624 99.52857398695578 0.0 0.0
-853.0358593724551 -80.57815010258281 -463.11404657490857 102.57350721775127 0.0 0.0
-805.715775977942 -65.04191664388104 -430.56839084339754 105.97129749288152 0.0 0.0
-756.0018318837375 -49.76786948317257 -395.80742262785924 108.89078389681987 0.0 0.0
-702.8837099038008 -35.04732096734809 -356.8849048702239 110.56139727257587 0.0 0.0
-643.5466844636496 -20.394424640563887 -309.04327613638975 110.94773370395181 0.0 0.0
-572.297376616432 -4.915058707045393 -246.24011292107556 111.98057706027424 0.0 0.0
-483.3105789290768 9.56585838471118 -173.88926468173779 119.01669409558687 0.0 0.0
-380.0915540619718 17.540795188061452 -115.17118742137163 131.2902230990785 0.0 0.0
-288.059727870786 17.909759394970912 -81.28977751069203 139.59162026739264 0.0 0.0
-216.78692918039616 14.271526927741636 -60.733061075364404 147.27647565569958 0.0 0.0
-155.43200627831533 0.8905885587030822 -46.36119305986959 153.3296665973865 0.0 0.0
-91.59089605352742 -37.14247296662141 -38.62001070604464 142.43290995303175 0.0 0.0
-27.343047842725085 -84.04368757873772 -33.416020626438836 75.7288339183076 0.0 0.0
-28.05361679537876 -55.579518788139616 -25.08994067505551 -61.27847029863558 0.0 0.0
-99.10163904155998 -29.029583124679803 -38.43936664987193 -123.57024793688916 0.0 0.0
-177.47075193948268 0.821315368504461 -52.992643865472985 -136.4271272930587 0.0 0.0
-255.2881785690107 11.534461299843283 -73.1156237766465 -129.0602205698385 0.0 0.0
-341.26123249256915 17.967664889360755 -98.02609456428229 -118.303195180537 0.0 0.0
-444.08313976120166 17.60138990489929 -142.04927286032887 -104.37406683817014 0.0 0.0
-540.5362514197801 7.391656455258342 -210.33189582214612 -92.47187301933967 0.0 0.0
-619.2767571974603 -8.826355167742356 -282.4756115260311 -90.14067518315055 0.0 0.0
-685.7482362853826 -24.521869568853063 -339.45743495029035 -91.60979008190324 0.0 0.0
-746.0170911005223 -41.853519078454724 -385.66875392886806 -92.20346894103272 0.0 0.0
-802.3140976635699 -60.34087322237678 -426.1618585776719 -91.08363108181605 0.0 0.0
-855.771722494934 -79.50446045494894 -463.8334810221912 -88.64283900490969 0.0 0.0
-907.4426806338549 -99.01502583490108 -500.14352814430146 -85.8239097899579 0.0 0.0
-957.3383152089674 -118.72025681179258 -535.3767665467267 -83.03296831451549 0.0 0.0
-1008.0440695919726 -140.24509268544375 -571.6929615996256 -81.13571479013598 0.0 0.0
-1066.2261132857852 -171.32581211464412 -616.2851139583581 -81.61471994953635 0.0 0.0
-1137.4357478686684 -220.51745316692518 -676.367920181435 -85.28955250441162 0.0 0.0
-1222.1515508280931 -290.9456947702964 -753.9388609507821 -90.50147550644652 0.0 0.0
-1311.0610113047674 -379.770970335978 -842.872234131282 -96.14613156745199 0.0 0.0
-1389.276470325145 -489.32400534113225 -936.6710203109333 -111.54285114730688 0.0 0.0
-1389.2764703247337 -489.32400534078755 -936.6710203106294 111.54285114744138 0.0 0.0
-1311.0610113049074 -379.7709703362441 -842.8722341314319 96.14613156767 0.0 0.0
-1222.151550827904 -290.94569477019786 -753.9388609506129 90.50147550655274 0.0 0.0
-1137.435747867219 -220.517453165543 -676.367920180249 85.28955250445321 0.0 0.0
-1066.2261132851204 -171.32581211414893 -616.2851139578072 81.61471994971834 0.0 0.0
-1008.0440695913223 -140.2450926849162 -571.6929615991351 81.13571479015924 0.0 0.0
-957.3383152089485 -118.72025681195082 -535.3767665466544 83.03296831458059 0.0 0.0
-907.4426806336423 -99.01502583487894 -500.1435281441677 85.82390979001346 0.0 0.0
-855.77172249462 -79.5044604548203 -463.8334810219481 88.64283900486105 0.0 0.0
-802.3140976632252 -60.34087322222829 -426.1618585774066 91.08363108173688 0.0 0.0
-746.0170911003888 -41.85351907860526 -385.6687539287491 92.20346894105109 0.0 0.0
-685.7482362851207 -24.521869568904705 -339.4574349500346 91.60979008191273 0.0 0.0
-619.2767571971176 -8.826355167683017 -282.47561152568306 90.14067518307795 0.0 0.0
-540.5362514192691 7.3916564554496045 -210.33189582169672 92.47187301923839 0.0 0.0
-444.0831397608374 17.60138990487895 -142.04927286011744 104.37406683811348 0.0 0.0
-341.2612324923133 17.967664889057254 -98.02609456430413 118.30319518044124 0.0 0.0
-255.28817856886587 11.534461299627939 -73.11562377666962 129.06022056970122 0.0 0.0
-177.4707519392946 0.8213153685198464 -52.99264386541278 136.4271272929407 0.0 0.0
-99.1016390414623 -29.029583124644038 -38.439366649831896 123.57024793685713 0.0 0.0
-28.05361679544408 -55.57951878811767 -25.08994067506852 61.27847029856727 0.0 0.0
-28.580605087675742 -32.31943397101904 -18.270011717608433 -46.34820531880631 0.0 0.0
-105.78714903590468 -20.60167642725117 -37.91664763894675 -101.90627045246374 0.0 0.0
-198.36000762650625 0.8403324748487631 -59.255902545497236 -115.33504419183456 0.0 0.0
-292.35638873594723 8.192868186195081 -85.26436937448479 -107.12785537712833 0.0 0.0
-393.14238080882154 18.12082859631982 -115.09911013145238 -93.7548785998725 0.0 0.0
-495.94056258391845 16.581281020882493 -169.20253907531887 -77.15249145879139 0.0 0.0
-581.369419024453 3.468105514297271 -243.02401756261094 -68.97396034713749 0.0 0.0
-654.5009622638125 -10.971366986533702 -309.7197366582512 -70.04666638335321 0.0 0.0
-720.5552821496207 -28.26159517230792 -363.3677573829309 -72.24863102655483 0.0 0.0
-782.7379198049675 -48.6181895872909 -409.5958733120955 -73.30862702413656 0.0 0.0
-842.200519882589 -70.56074458790368 -452.2806511728408 -72.6421430988868 0.0 0.0
-899.8189531637328 -93.69934950414539 -493.55047298759223 -70.76766161710981 0.0 0.0
-955.7437240557704 -117.36493990886476 -533.84202415708 -68.54424587473386 0.0 0.0
-1010.8302472364132 -141.54705786073043 -573.8081839710339 -66.32576645049338 0.0 0.0
-1065.8490741999149 -166.7678259408696 -614.1085477147934 -64.1287778930945 0.0 0.0
-1126.7893791115873 -200.21553904134475 -661.2415086433864 -62.95154931348593 0.0 0.0
-1206.1650951732172 -255.89252170151917 -728.5160240058547 -65.02672513016546 0.0 0.0
-1303.392171490849 -337.7452924757373 -817.9611207845819 -70.68415978200953 0.0 0.0
-1402.7740781004397 -436.88810799989267 -917.330146612721 -79.72420313449531 0.0 0.0
-1482.7333158059023 -547.2005353468087 -1012.6547335783598 -100.3458836416313 0.0 0.0
-1482.7333158057636 -547.2005353467373 -1012.6547335783578 100.3458836418097 0.0 0.0
-1402.7740781006391 -436.88810800020246 -917.3301466129944 79.72420313470634 0.0 0.0
-1303.3921714901846 -337.74529247510804 -817.9611207841645 70.6841597819714 0.0 0.0
-1206.1650951729823 -255.8925217013545 -728.5160240057137 65.02672513013957 0.0 0.0
-1126.789379110681 -200.21553904055003 -661.2415086426498 62.95154931354007 0.0 0.0
-1065.8490741998226 -166.7678259408964 -614.1085477145875 64.1287778930726 0.0 0.0
-1010.8302472359676 -141.5470578604558 -573.8081839706232 66.32576645059814 0.0 0.0
-955.7437240547046 -117.36493990800867 -533.8420241562912 68.5442458748837 0.0 0.0
-899.8189531634198 -93.69934950402255 -493.5504729872888 70.76766161708643 0.0 0.0
-842.2005198817981 -70.5607445873233 -452.2806511722973 72.64214309881922 0.0 0.0
-782.7379198043038 -48.61818958682944 -409.59587331165847 73.30862702401276 0.0 0.0
-720.5552821496879 -28.261595172667427 -363.3677573829416 72.24863102654763 0.0 0.0
-654.5009622637465 -10.971366986794791 -309.7197366581115 70.04666638333461 0.0 0.0
-581.3694190242412 3.4681055141440034 -243.02401756233934 68.97396034713432 0.0 0.0
-495.94056258356915 16.58128102080071 -169.20253907507623 77.1524914588142 0.0 0.0
-393.1423808084553 18.12082859618352 -115.09911013136642 93.75487859981689 0.0 0.0
-292.3563887357382 8.192868186147829 -85.26436937444531 107.12785537704006 0.0 0.0
-198.36000762629752 0.8403324748162082 -59.255902545444386 115.33504419175341 0.0 0.0
-105.7871490358473 -20.601676427305883 -37.916647638945946 101.90627045242958 0.0 0.0
-28.580605087675607 -32.319433970929765 -18.27001171758161 46.34820531880629 0.0 0.0
-28.28343509287486 -14.662709753560096 -12.883843453930483 -31.069345610739834 0.0 0.0
-110.74900660637755 -12.275221162167256 -36.90726833056344 -77.62720528020415 0.0 0.0
-218.33932549812533 0.535473725815228 -65.34115553169302 -89.98671482265323 0.0 0.0
-328.86272542277845 5.793755479882337 -96.93046291827163 -81.78091771292442 0.0 0.0
-440.4308941003119 18.160148776048267 -132.95810915360445 -66.587492494353 0.0 0.0
-537.0484571290206 13.134055940317936 -197.05708535633863 -52.042594705667106 0.0 0.0
-614.147221728904 0.6109187094748094 -270.59501886591875 -48.24507758715408 0.0 0.0
-683.2038257859455 -12.623379798848283 -331.05004449358904 -50.14213184760967 0.0 0.0
-749.7548242307805 -32.06417183978854 -382.8422727269078 -52.57116486330682 0.0 0.0
-814.2862447024177 -55.17129799899344 -429.9891421567807 -53.8298728594092 0.0 0.0
-877.2930357074626 -80.55818488156835 -475.4849843797557 -53.561825490078434 0.0 0.0
-938.8372991341084 -107.549842514345 -520.3785363118865 -52.25669970354191 0.0 0.0
-999.6851097045198 -135.454205686794 -565.1256491523507 -50.73200275163248 0.0 0.0
-1059.9404685957247 -164.8090371496436 -610.1753317280929 -49.105464176213395 0.0 0.0
-1120.5709914987501 -195.55085731188615 -656.0158513588182 -47.076577717688046 0.0 0.0
-1184.4532808194595 -231.12317249153568 -705.7555367845237 -44.61806578157703 0.0 0.0
-1262.15785889186 -284.30130643742206 -770.8953318525258 -44.3723786211953 0.0 0.0
-1371.546816902976 -377.1410657051995 -871.7119982821391 -50.25917303712137 0.0 0.0
-1487.541616998992 -491.7731887227859 -987.1876801454778 -63.64144241671155 0.0 0.0
-1579.4289053828065 -612.0339930951969 -1093.654544748008 -90.1795816938608 0.0 0.0
-1579.4289053831837 -612.033993095673 -1093.6545447482508 90.17958169408217 0.0 0.0
-1487.541616999417 -491.77318872330653 -987.1876801456572 63.64144241694339 0.0 0.0
-1371.5468169029264 -377.141065705224 -871.7119982819562 50.259173037146965 0.0 0.0
-1262.1578588915943 -284.3013064372261 -770.8953318522565 44.37237862115846 0.0 0.0
-1184.453280818866 -231.12317249104382 -705.7555367841296 44.61806578161091 0.0 0.0
-1120.5709914984227 -195.55085731166878 -656.0158513586802 47.07657771764305 0.0 0.0
-1059.9404685964264 -164.80903715052045 -610.1753317286848 49.10546417630025 0.0 0.0
-999.6851097044089 -135.45420568687618 -565.125649152296 50.73200275170446 0.0 0.0
-938.8372991339334 -107.54984251439281 -520.3785363116958 52.256699703625365 0.0 0.0
-877.2930357062291 -80.55818488056707 -475.4849843788955 53.56182549013573 0.0 0.0
-814.2862447015923 -55.1712979984113 -429.9891421562152 53.82987285939352 0.0 0.0
-749.7548242295618 -32.06417183880819 -382.84227272608814 52.57116486332143 0.0 0.0
-683.2038257852197 -12.623379798375854 -331.0500444930517 50.14213184755171 0.0 0.0
-614.1472217284544 0.61091870960745 -270.5950188655053 48.245077587102585 0.0 0.0
-537.048457128502 13.134055940547944 -197.05708535592944 52.04259470563828 0.0 0.0
-440.43089409971856 18.16014877628548 -132.95810915331094 66.58749249434315 0.0 0.0
-328.8627254226087 5.793755479818462 -96.9304629182491 81.78091771287924 0.0 0.0
-218.33932549789714 0.5354737258032234 -65.34115553162815 89.98671482254647 0.0 0.0
-110.74900660632045 -12.275221162197678 -36.90726833055543 77.62720528007819 0.0 0.0
-28.283435092891608 -14.662709753576042 -12.883843453940292 31.069345610697134 0.0 0.0
-25.90317868883956 -2.93383549761964 -8.65110425593776 -15.955873004940962 0.0 0.0
-112.32885471284663 -4.603534798739929 -35.079716853475965 -50.70431303758274 0.0 0.0
-237.6194778733838 -0.18617625030203655 -71.34169623710574 -59.859846287960366 0.0 0.0
-366.80450631813994 4.699812178124682 -108.62144537082268 -53.18143742798027 0.0 0.0
-480.5401751181838 18.343127857318123 -151.62522775339554 -39.327945821854115 0.0 0.0
-566.472275016904 7.752462628314582 -223.9440840000567 -29.342880861763664 0.0 0.0
-639.436982872083 -0.3630605521847272 -291.805172505466 -28.69516772514168 0.0 0.0
-707.0826785972774 -14.89006675328568 -348.5124641781602 -30.414190616616796 0.0 0.0
-774.2018862600039 -35.72225876957224 -398.8443863975583 -32.48135288361179 0.0 0.0
-841.3529950482254 -61.47983535236308 -447.5468082510512 -33.71111923358885 0.0 0.0
-908.0854962742003 -90.37511172394073 -496.24909476059884 -33.80289695757059 0.0 0.0
-974.1022244727205 -120.99765459598389 -545.0276282395301 -33.13957148430669 0.0 0.0
-1039.4773515524591 -153.57408374314696 -594.2844140492173 -32.22379604935539 0.0 0.0
-1105.5139249389567 -188.04870580062007 -644.719113502256 -31.253668338302113 0.0 0.0
-1172.978014176145 -225.31231136881468 -697.1982243057163 -29.844224440212482 0.0 0.0
-1241.6520869047936 -265.8871935178008 -751.8862966942961 -27.277669579947624 0.0 0.0
-1314.0547937694266 -313.678200496979 -811.8391949401673 -24.612150648847106 0.0 0.0
-1408.2631726812667 -389.9480748867209 -896.550859733439 -28.284191006443198 0.0 0.0
-1569.515251773283 -547.0009166118379 -1055.6512443392248 -45.743966391951645 0.0 0.0
-1689.5328738339479 -692.1417326487939 -1188.9720939768158 -80.0623057270736 0.0 0.0
-1689.532873834759 -692.1417326496858 -1188.9720939774722 80.06230572726261 0.0 0.0
-1569.5152517736406 -547.0009166122579 -1055.6512443394788 45.74396639207505 0.0 0.0
-1408.2631726815127 -389.94807488703464 -896.5508597335127 28.284191006452048 0.0 0.0
-1314.054793768904 -313.6782004965497 -811.8391949397238 24.61215064896053 0.0 0.0
-1241.6520869040637 -265.8871935171744 -751.8862966936434 27.277669579966897 0.0 0.0
-1172.9780141756069 -225.31231136841365 -697.1982243051627 29.844224440281423 0.0 0.0
-1105.5139249387737 -188.04870580059244 -644.7191135019641 31.25366833833226 0.0 0.0
-1039.4773515519464 -153.5740837428122 -594.2844140487837 32.223796049344486 0.0 0.0
-974.1022244720345 -120.99765459548921 -545.027628239017 33.13957148428616 0.0 0.0
-908.0854962735878 -90.37511172354819 -496.24909476015074 33.80289695748687 0.0 0.0
-841.3529950478394 -61.47983535220279 -447.5468082507218 33.711119233479124 0.0 0.0
-774.2018862593789 -35.72225876919666 -398.84438639710976 32.48135288358033 0.0 0.0
-707.0826785965065 -14.890066752762994 -348.51246417757784 30.414190616559363 0.0 0.0
-639.436982871409 -0.36306055179614916 -291.80517250493244 28.695167725151514 0.0 0.0
-566.4722750164801 7.752462628402213 -223.9440839996754 29.342880861769956 0.0 0.0
-480.5401751180531 18.343127856990233 -151.6252277533404 39.32794582184603 0.0 0.0
-366.80450631794645 4.699812177937563 -108.62144537083255 53.18143742789927 0.0 0.0
-237.61947787308532 -0.1861762501375015 -71.34169623696684 59.85984628790271 0.0 0.0
-112.32885471267504 -4.603534798556583 -35.079716853369476 50.70431303752936 0.0 0.0
-25.90317868883209 -2.933835497616437 -8.651104255934555 15.955873004868371 0.0 0.0
-19.02183355564592 2.6586841083366872 -4.90894483419277 -2.2357084435452848 0.0 0.0
-107.67955070110698 1.6954664106635828 -31.795225287133015 -20.645490657861252 0.0 0.0
-256.9709107159092 -1.6350977375091276 -77.58180253602549 -23.843388746622388 0.0 0.0
-406.44201073133445 6.25141971572671 -120.6812272091224 -21.60088286404883 0.0 0.0
-515.4909007598701 15.999661450194843 -172.64640236479133 -13.574068125650982 0.0 0.0
-592.9853601424027 4.74745461495683 -247.55655715353151 -9.503191492192359 0.0 0.0
-659.9127622631796 -1.8322501929662351 -309.13938442639846 -9.613138422948722 0.0 0.0
-726.736238339984 -17.202387751941913 -362.58230470573255 -10.662787299846453 0.0 0.0
-794.8553008140802 -39.4881432516312 -412.3822506152183 -11.993482403102934 0.0 0.0
-864.6449351599033 -67.6147423187603 -462.8802999672548 -12.945253981057776 0.0 0.0
-935.1513977219114 -99.61293597435494 -514.7403511546358 -13.363201397455624 0.0 0.0
-1005.4967766895546 -134.7057991130777 -567.803025830711 -13.299969192536475 0.0 0.0
-1075.9447050625427 -171.46528405008507 -621.6275929293081 -13.08434742691735 0.0 0.0
-1147.66930474312 -210.91422101564976 -677.3490478114236 -12.747102583345775 0.0 0.0
-1221.8189708409318 -254.63066367492672 -736.3609424864558 -12.057612886530233 0.0 0.0
-1297.6089042128074 -302.5753973817606 -798.2736760518619 -10.593396208697058 0.0 0.0
-1371.1642726289679 -352.1568896211917 -859.8324003671843 -7.882114454397303 0.0 0.0
-1442.2222352174433 -405.0035542587431 -921.5292253243133 -6.675668029012671 0.0 0.0
-1544.941785689928 -499.39497110928943 -1019.3911154174358 -21.264202080153634 0.0 0.0
-1885.7620708368918 -857.2880749159906 -1369.649991675772 -64.91785813782542 0.0 0.0
-1885.7620708365876 -857.2880749157144 -1369.6499916754929 64.91785813791397 0.0 0.0
-1544.9417856897153 -499.3949711091202 -1019.3911154171865 21.264202080204488 0.0 0.0
-1442.2222352173644 -405.00355425873414 -921.529225324147 6.675668028998061 0.0 0.0
-1371.1642726285418 -352.15688962085443 -859.8324003668313 7.88211445445363 0.0 0.0
-1297.6089042123435 -302.57539738139883 -798.2736760515546 10.5933962086473 0.0 0.0
-1221.8189708408852 -254.63066367501904 -736.3609424864352 12.05761288660718 0.0 0.0
-1147.669304742844 -210.91422101551672 -677.3490478112653 12.747102583326669 0.0 0.0
-1075.9447050623558 -171.4652840500817 -621.6275929291745 13.08434742696644 0.0 0.0
-1005.496776689819 -134.70579911356484 -567.8030258308331 13.299969192634212 0.0 0.0
-935.1513977215211 -99.6129359741888 -514.7403511543248 13.363201397437333 0.0 0.0
-864.6449351586334 -67.61474231771798 -462.88029996640506 12.945253981034208 0.0 0.0
-794.8553008128674 -39.48814325067363 -412.38225061441244 11.99348240310076 0.0 0.0
-726.7362383394695 -17.20238775169539 -362.58230470536967 10.662787299793806 0.0 0.0
-659.9127622628023 -1.8322501928820714 -309.13938442609066 9.613138422974929 0.0 0.0
-592.9853601421289 4.7474546149319465 -247.55655715324392 9.503191492136063 0.0 0.0
-515.4909007593948 15.999661450374482 -172.64640236446684 13.574068125651099 0.0 0.0
-406.44201073108644 6.251419715472864 -120.68122720913166 21.600882864016963 0.0 0.0
-256.9709107157527 -1.635097737637265 -77.58180253601698 23.84338874656474 0.0 0.0
-107.6795507010251 1.6954664105766781 -31.795225287134517 20.645490657731017 0.0 0.0
-19.02183355563805 2.6586841083408244 -4.908944834189167 2.235708443511124 0.0 0.0
SCALARS Strain float 6
LOOKUP_TABLE default
0.010098610059738968 -0.011171313483317097 0.0 -0.006104658797483259 0.0 0.0
0.002120386598479228 -0.0011718681579579449 0.0 0.0010327640628674528 0.0 0.0
0.0017478972620311832 -0.0007174724834076995 0.0 -5.8194038186881736e-05 0.0 0.0
0.0021280645789138186 -0.0009763781985231423 0.0 -0.00018569440288435102 0.0 0.0
0.0030554163084215782 -0.0016788264583650347 0.0 -0.00022294739347672454 0.0 0.0
0.004944764212402619 -0.0032792915654893395 0.0 -0.00031776131746857894 0.0 0.0
0.007901842521490274 -0.005963229598771491 0.0 -0.00048349337606226617 0.0 0.0
0.01207432361150461 -0.009862017842834803 0.0 -0.0007275014398808177 0.0 0.0
0.017534463372367692 -0.015041125637370145 0.0 -0.0010574539294364305 0.0 0.0
0.024293488701159202 -0.02150389939955666 0.0 -0.0014468435462572926 0.0 0.0
0.03236907471307234 -0.029270682963143058 0.0 -0.001847982668986281 0.0 0.0
0.04181797340603901 -0.03840099751359616 0.0 -0.0022584330192617075 0.0 0.0
0.052708122041324586 -0.04896723660012592 0.0 -0.002686476518240777 0.0 0.0
0.06507530989839351 -0.06100158043682047 0.0 -0.0031333850853566547 0.0 0.0
0.0787985504493594 -0.07437757396916966 0.0 -0.0035993038056262583 0.0 0.0
0.09344150873803372 -0.08866021192175122 0.0 -0.004003342641302338 0.0 0.0
0.10817658404751872 -0.10303273756012032 0.0 -0.0041622455403511616 0.0 0.0
0.12182096497763625 -0.11632970916120078 0.0 -0.0038381470963910203 0.0 0.0
0.13295238291794004 -0.1271468756310954 0.0 -0.003071604169897546 0.0 0.0
0.13978415968880573 -0.13360110842361284 0.0 -0.002839643947211923 0.0 0.0
0.13978415968879757 -0.13360110842360706 0.0 0.0028396439472162527 0.0 0.0
0.1329523829179165 -0.12714687563107274 0.0 0.003071604169914255 0.0 0.0
0.12182096497759431 -0.11632970916116259 0.0 0.003838147096396294 0.0 0.0
0.10817658404746563 -0.10303273756006837 0.0 0.004162245540357823 0.0 0.0
0.09344150873797635 -0.08866021192169349 0.0 0.004003342641294649 0.0 0.0
0.07879855044930162 -0.07437757396910705 0.0 0.003599303805628007 0.0 0.0
0.06507530989833485 -0.061001580436761405 0.0 0.0031333850853553225 0.0 0.0
0.05270812204126532 -0.04896723660006863 0.0 0.002686476518240777 0.0 0.0
0.04181797340598167 -0.03840099751354198 0.0 0.002258433019257322 0.0 0.0
0.03236907471302142 -0.029270682963094652 0.0 0.0018479826689839496 0.0 0.0
0.02429348870111611 -0.021503899399516024 0.0 0.0014468435462507978 0.0 0.0
0.017534463372333053 -0.015041125637339059 0.0 0.001057453929435126 0.0 0.0
0.01207432361147956 -0.009862017842811488 0.0 0.0007275014398780422 0.0 0.0
0.007901842521472385 -0.005963229598755837 0.0 0.00048349337606165554 0.0 0.0
0.004944764212391789 -0.0032792915654829002 0.0 0.0003177613174673577 0.0 0.0
0.003055416308417047 -0.001678826458361704 0.0 0.00022294739347683556 0.0 0.0
0.0021280645789127917 -0.0009763781985229203 0.0 0.00018569440288493388 0.0 0.0
0.0017478972620307842 -0.0007174724834072554 0.0 5.819403818790869e-05 0.0 0.0
0.0021203865984777692 -0.0011718681579560575 0.0 -0.0010327640628648993 0.0 0.0
0.01009861005972873 -0.01117131348330369 0.0 0.006104658797455281 0.0 0.0
0.007052116086888081 -0.008493321213178001 0.0 -0.007263024043796751 0.0 0.0
0.0011753152951577452 -0.000595577445967832 0.0 0.00015701287060823632 0.0 0.0
0.001501682525158074 -0.0005514418060376114 0.0 -0.00013406445745753337 0.0 0.0
0.0018889048269370955 -0.0008362323652318926 0.0 -0.00043517705079884617 0.0 0.0
0.00262722776759727 -0.0013532925356540826 0.0 -0.0005183831603520761 0.0 0.0
0.004242656303999837 -0.0026735335412041428 0.0 -0.0007535253871024106 0.0 0.0
0.006888291792723593 -0.005028751076030957 0.0 -0.001182779330783118 0.0 0.0
0.010663943577357084 -0.008523575749023626 0.0 -0.0017781324335510718 0.0 0.0
0.01560972123322759 -0.013192379514567198 0.0 -0.0025383649590827173 0.0 0.0
0.02170435267552684 -0.019004191318323205 0.0 -0.0034054180023830316 0.0 0.0
0.0289380208036797 -0.025949377790753125 0.0 -0.004293029200897275 0.0 0.0
0.03736249209032359 -0.03408221479607132 0.0 -0.0051607921064032725 0.0 0.0
0.047082488215800966 -0.043505372066584336 0.0 -0.006082332272665941 0.0 0.0
0.0581606447046079 -0.05427813056265007 0.0 -0.007092862070493422 0.0 0.0
0.07049980877881966 -0.06630025304963105 0.0 -0.008138327541720725 0.0 0.0
0.08372731041854901 -0.07920011699185014 0.0 -0.009050595632928565 0.0 0.0
0.09711942197456969 -0.0922612324532226 0.0 -0.009446356892453267 0.0 0.0
0.10961027994264197 -0.10442759553083425 0.0 -0.008898979744449809 0.0 0.0
0.1197887857306064 -0.11427518518445368 0.0 -0.007386406546582014 0.0 0.0
0.12588175116308353 -0.12012213410585915 0.0 -0.004794588128063215 0.0 0.0
0.12588175116307532 -0.1201221341058516 0.0 0.004794588128079091 0.0 0.0
0.11978878573058431 -0.11427518518443502 0.0 0.007386406546610935 0.0 0.0
0.10961027994260517 -0.10442759553079428 0.0 0.008898979744467295 0.0 0.0
0.09711942197452428 -0.0922612324531773 0.0 0.009446356892463759 0.0 0.0
0.0837273104184986 -0.07920011699180707 0.0 0.009050595632921099 0.0 0.0
0.07049980877876713 -0.06630025304958176 0.0 0.008138327541720725 0.0 0.0
0.058160644704555675 -0.05427813056259723 0.0 0.007092862070491646 0.0 0.0
0.04708248821574787 -0.04350537206653193 0.0 0.006082332272664914 0.0 0.0
0.03736249209027284 -0.03408221479602247 0.0 0.005160792106396639 0.0 0.0
0.028938020803633724 -0.025949377790707828 0.0 0.004293029200890197 0.0 0.0
0.02170435267548812 -0.019004191318284347 0.0 0.003405418002372873 0.0 0.0
0.015609721233196427 -0.013192379514538333 0.0 0.0025383649590777213 0.0 0.0
0.010663943577334023 -0.00852357574900231 0.0 0.001778132433546853 0.0 0.0
0.006888291792707862 -0.005028751076014637 0.0 0.0011827793307808976 0.0 0.0
0.004242656303990566 -0.002673533541195705 0.0 0.0007535253871008007 0.0 0.0
0.0026272277675937483 -0.0013532925356505299 0.0 0.0005183831603513545 0.0 0.0
0.0018889048269363495 -0.0008362323652298942 0.0 0.0004351770507982078 0.0 0.0
0.001501682525157838 -0.0005514418060374449 0.0 0.00013406445745617335 0.0 0.0
0.001175315295157936 -0.0005955774459668051 0.0 -0.00015701287061073432 0.0 0.0
0.007052116086876031 -0.008493321213164385 0.0 0.007263024043772659 0.0 0.0
0.005160665473870812 -0.006732523971338333 0.0 -0.006704717250401893 0.0 0.0
0.0006965734027459952 -0.0003808250182127937 0.0 -0.0005256918572151548 0.0 0.0
0.0012047847602645947 -0.00040779921153033527 0.0 -0.00041791063952761887 0.0 0.0
0.0016545987518991195 -0.0007057385730637744 0.0 -0.000675411934768777 0.0 0.0
0.0022485927689143703 -0.0010887921227702435 0.0 -0.0007966515116623607 0.0 0.0
0.003562980255182119 -0.0021086775398709845 0.0 -0.0010872109623592252 0.0 0.0
0.005877498248046682 -0.004110594042432192 0.0 -0.0017023639801850843 0.0 0.0
0.009237403442334625 -0.00718480861952564 0.0 -0.0025913972176250244 0.0 0.0
0.013653040546477396 -0.011324123843909684 0.0 -0.0036956753903549244 0.0 0.0
0.019075474979183535 -0.016476946120569602 0.0 -0.004935652065313462 0.0 0.0
0.025472572360368602 -0.02260668143628619 0.0 -0.0062063878661589855 0.0 0.0
0.03288684085784398 -0.029754169453434454 0.0 -0.007451190348084946 0.0 0.0
0.04142941909344992 -0.038027014846040874 0.0 -0.008739040982990942 0.0 0.0
0.05119597096136558 -0.04751639660605633 0.0 -0.010172299545853525 0.0 0.0
0.06213046501994633 -0.05816510906940975 0.0 -0.011694013301879663 0.0 0.0
0.07393093802426562 -0.06967151901207069 0.0 -0.013015760507994634 0.0 0.0
0.08599029594834831 -0.081431483631488 0.0 -0.013651098151626018 0.0 0.0
0.09735200836918743 -0.09248459029281131 0.0 -0.013052339851571226 0.0 0.0
0.10666703068548154 -0.10150539268498227 0.0 -0.01077422227103153 0.0 0.0
0.11239945290369464 -0.1070319902552539 0.0 -0.0062643996623040765 0.0 0.0
0.11239945290368729 -0.10703199025524324 0.0 0.006264399662329834 0.0 0.0
0.10666703068546088 -0.10150539268496006 0.0 0.010774222271069167 0.0 0.0
0.09735200836915497 -0.09248459029278466 0.0 0.013052339851599148 0.0 0.0
0.08599029594830909 -0.0814314836314538 0.0 0.013651098151639118 0.0 0.0
0.07393093802422182 -0.06967151901202584 0.0 0.013015760507986918 0.0 0.0
0.062130465019899245 -0.058165109069367116 0.0 0.011694013301878026 0.0 0.0
0.05119597096131956 -0.04751639660601459 0.0 0.010172299545851526 0.0 0.0
0.04142941909340281 -0.038027014845996465 0.0 0.008739040982986168 0.0 0.0
0.03288684085779975 -0.02975416945339604 0.0 0.007451190348073955 0.0 0.0
0.025472572360327905 -0.022606681436247777 0.0 0.0062063878661499094 0.0 0.0
0.019075474979149354 -0.016476946120536518 0.0 0.00493565206530211 0.0 0.0
0.013653040546449613 -0.011324123843885259 0.0 0.003695675390348596 0.0 0.0
0.009237403442313885 -0.007184808619505878 0.0 0.002591397217619029 0.0 0.0
0.005877498248033269 -0.004110594042419757 0.0 0.0017023639801811152 0.0 0.0
0.0035629802551745693 -0.0021086775398657664 0.0 0.0010872109623573378 0.0 0.0
0.002248592768912011 -0.001088792122767468 0.0 0.0007966515116612227 0.0 0.0
0.0016545987518984118 -0.0007057385730639965 0.0 0.0006754119347670562 0.0 0.0
0.0012047847602645045 -0.00040779921153077936 0.0 0.00041791063952661966 0.0 0.0
0.0006965734027463144 -0.000380825018211739 0.0 0.0005256918572126013 0.0 0.0
0.005160665473859821 -0.006732523971326013 0.0 0.006704717250382325 0.0 0.0
0.0038546737331333347 -0.0054111001144774296 0.0 -0.005685448943259036 0.0 0.0
0.00043792492212063605 -0.00028627598923886 0.0 -0.0011042134149923943 0.0 0.0
0.0009326753924676218 -0.00029536052952183756 0.0 -0.0007909687565453294 0.0 0.0
0.0014121099531195017 -0.0005795851325739454 0.0 -0.0009369525570294968 0.0 0.0
0.0019130413119815004 -0.0008820569560603619 0.0 -0.0010744477959892251 0.0 0.0
0.002939194891094739 -0.001622601926981826 0.0 -0.001348530144716642 0.0 0.0
0.004875743466013896 -0.003231610922416195 0.0 -0.0020501049521782777 0.0 0.0
0.0078087983866321625 -0.005859636118741962 0.0 -0.0031613289058417537 0.0 0.0
0.011679506364070565 -0.00945580272157498 0.0 -0.0045215493263775774 0.0 0.0
0.016423637429020234 -0.013941894254205334 0.0 -0.006038528306066437 0.0 0.0
0.02198770729209433 -0.019258159943858155 0.0 -0.007584316607184144 0.0 0.0
0.028400108504039047 -0.025427174362081306 0.0 -0.00910437547645282 0.0 0.0
0.03577112914639325 -0.032555771461806327 0.0 -0.010685972872633981 0.0 0.0
0.04421443464358311 -0.040749883184750146 0.0 -0.012402033967548215 0.0 0.0
0.053719965334942714 -0.05000132194262896 0.0 -0.014218713849486198 0.0 0.0
0.06407196808927523 -0.06009418614369144 0.0 -0.01586549586427366 0.0 0.0
0.07478178081048252 -0.07053499006084563 0.0 -0.016763778824161357 0.0 0.0
0.08502161774488262 -0.08049611810821578 0.0 -0.016190823192746562 0.0 0.0
0.09360197556312964 -0.0888126075943858 0.0 -0.013364532509705151 0.0 0.0
0.09915631874183833 -0.09417986168037062 0.0 -0.007480080563396552 0.0 0.0
0.09915631874183178 -0.09417986168036352 0.0 0.0074800805634281375 0.0 0.0
0.09360197556311078 -0.08881260759436849 0.0 0.013364532509749116 0.0 0.0
0.08502161774485384 -0.0804961181081838 0.0 0.01619082319277787 0.0 0.0
0.07478178081044859 -0.07053499006081054 0.0 0.0167637788241769 0.0 0.0
0.06407196808923757 -0.06009418614365414 0.0 0.01586549586426822 0.0 0.0
0.05371996533490114 -0.050001321942585 0.0 0.014218713849480258 0.0 0.0
0.044214434643543105 -0.04074988318470574 0.0 0.012402033967544246 0.0 0.0
0.03577112914635258 -0.0325557714617668 0.0 0.01068597287262818 0.0 0.0
0.02840010850400096 -0.025427174362046 0.0 0.009104375476442716 0.0 0.0
0.021987707292059427 -0.019258159943825737 0.0 0.0075843166071736245 0.0 0.0
0.016423637428990417 -0.0139418942541778 0.0 0.00603852830604984 0.0 0.0
0.011679506364046272 -0.009455802721551887 0.0 0.004521549326367613 0.0 0.0
0.0078087983866142185 -0.005859636118723088 0.0 0.0031613289058339267 0.0 0.0
0.004875743466002891 -0.003231610922406314 0.0 0.0020501049521735315 0.0 0.0
0.0029391948910886534 -0.001622601926976941 0.0 0.0013485301447139497 0.0 0.0
0.0019130413119797518 -0.0008820569560591407 0.0 0.0010744477959875598 0.0 0.0
0.0014121099531190229 -0.0005795851325726131 0.0 0.0009369525570279702 0.0 0.0
0.0009326753924676912 -0.000295360529521671 0.0 0.0007909687565431645 0.0 0.0
0.00043792492212088585 -0.00028627598923858244 0.0 0.0011042134149897298 0.0 0.0
0.003854673733123787 -0.005411100114466496 0.0 0.005685448943243909 0.0 0.0
0.002876584893559443 -0.0043415179789685066 0.0 -0.004655223452967844 0.0 0.0
0.0002916824399856535 -0.00024261916638246284 0.0 -0.0015534669033236692 0.0 0.0
0.000702289260151083 -0.00021195349289704346 0.0 -0.0011693452117417236 0.0 0.0
0.0011637229488203685 -0.0004608405657002823 0.0 -0.0012185694351607157 0.0 0.0
0.0016053373713844354 -0.0007135335751062843 0.0 -0.001348342362178151 0.0 0.0
0.002385843188361457 -0.0012274708563795311 0.0 -0.0015930021172592124 0.0 0.0
0.003919414253091093 -0.0024258468075604167 0.0 -0.0022483426491821945 0.0 0.0
0.006384467966302439 -0.004564025456378351 0.0 -0.0034474839262261803 0.0 0.0
0.00970472911680776 -0.007606100857894704 0.0 -0.005007047012606097 0.0 0.0
0.013764423020896525 -0.011417377882472657 0.0 -0.006704731816845888 0.0 0.0
0.018498780280619832 -0.015921253220898546 0.0 -0.00843045930105532 0.0 0.0
0.023917160224321936 -0.02111960939073687 0.0 -0.010121569528206031 0.0 0.0
0.030122957306248185 -0.027108159018863986 0.0 -0.011867294219526703 0.0 0.0
0.037241964904560346 -0.03400809387851034 0.0 -0.013775068970631632 0.0 0.0
0.045306691899961865 -0.04185002165531371 0.0 -0.015774350903193624 0.0 0.0
0.054177948228549294 -0.05049409504668878 0.0 -0.017580326815555547 0.0 0.0
0.06349245430170462 -0.05957635983276033 0.0 -0.018693082018289897 0.0 0.0
0.07260545824366241 -0.06844630002464314 0.0 -0.018277038764070053 0.0 0.0
0.08052853548951106 -0.07613278452804773 0.0 -0.015232883171726552 0.0 0.0
0.08602518384679961 -0.08145021414599407 0.0 -0.008510823998394423 0.0 0.0
0.08602518384679327 -0.08145021414598785 0.0 0.008510823998427952 0.0 0.0
0.08052853548949453 -0.07613278452803218 0.0 0.015232883171773182 0.0 0.0
0.0726054582436373 -0.06844630002461782 0.0 0.018277038764105247 0.0 0.0
0.06349245430167588 -0.059576359832732795 0.0 0.01869308201830777 0.0 0.0
0.05417794822851699 -0.05049409504665814 0.0 0.017580326815550995 0.0 0.0
0.0453066918999262 -0.04185002165528395 0.0 0.015774350903186574 0.0 0.0
0.037241964904526026 -0.03400809387847792 0.0 0.013775068970628412 0.0 0.0
0.030122957306214698 -0.027108159018834233 0.0 0.011867294219520541 0.0 0.0
0.023917160224289302 -0.021119609390708227 0.0 0.010121569528194818 0.0 0.0
0.01849878028059021 -0.0159212532208719 0.0 0.008430459301042137 0.0 0.0
0.01376442302087122 -0.011417377882450452 0.0 0.006704731816827514 0.0 0.0
0.009704729116787408 -0.007606100857876941 0.0 0.005007047012595578 0.0 0.0
0.0063844679662874715 -0.0045640254563654725 0.0 0.003447483926218853 0.0 0.0
0.003919414253082204 -0.002425846807552312 0.0 0.002248342649178031 0.0 0.0
0.0023858431883569398 -0.001227470856378532 0.0 0.0015930021172563258 0.0 0.0
0.0016053373713833252 -0.0007135335751063954 0.0 0.0013483423621779567 0.0 0.0
0.0011637229488197787 -0.0004608405657012815 0.0 0.0012185694351606047 0.0 0.0
0.0007022892601508957 -0.00021195349289721 0.0 0.0011693452117390868 0.0 0.0
0.0002916824399856466 -0.00024261916638163017 0.0 0.001553466903320505 0.0 0.0
0.002876584893551498 -0.00434151797895921 0.0 0.004655223452955964 0.0 0.0
0.00212051701385553 -0.0034534508607185765 0.0 -0.0037633591194463634 0.0 0.0
0.00020050260551368604 -0.00021921662872764758 0.0 -0.0018857522161945806 0.0 0.0
0.0005071912905524889 -0.00014831052814201495 0.0 -0.0015075670298587696 0.0 0.0
0.000914586212809404 -0.0003468383462649216 0.0 -0.0014948542611974702 0.0 0.0
0.0013113328113276562 -0.000566452710331844 0.0 -0.0016128301598599404 0.0 0.0
0.001891844245268573 -0.000917990305326577 0.0 -0.0018355459233728721 0.0 0.0
0.0030462221228837183 -0.001742668021531113 0.0 -0.002403939757286422 0.0 0.0
0.0049971517914230296 -0.00334976770911366 0.0 -0.0035180408942980246 0.0 0.0
0.007738718019620852 -0.005793473408320704 0.0 -0.0051147924676002154 0.0 0.0
0.011114410100890593 -0.008924785814488967 0.0 -0.0069192318803635855 0.0 0.0
0.015019569015810516 -0.012615965141006713 0.0 -0.008723829682767248 0.0 0.0
0.0194536647793781 -0.016850381682498083 0.0 -0.010488972687457077 0.0 0.0
0.024505046535500785 -0.021709292675376357 0.0 -0.012301072018147341 0.0 0.0
0.030301333411407866 -0.02731550085225143 0.0 -0.01424827386835864 0.0 0.0
0.036917416722255486 -0.03373968632383928 0.0 -0.01630189226234119 0.0 0.0
0.04428219346273855 -0.040910634356096764 0.0 -0.018197456151995306 0.0 0.0
0.05214558478130783 -0.04857959170657722 0.0 -0.019425598450999337 0.0 0.0
0.060079540883437005 -0.05631279677490886 0.0 -0.019219079294698793 0.0 0.0
0.06736151488228921 -0.06338741798504932 0.0 -0.016341375740387132 0.0 0.0
0.0728863037796426 -0.06873368859203666 0.0 -0.009373069115104604 0.0 0.0
0.07288630377963673 -0.06873368859202911 0.0 0.009373069115137023 0.0 0.0
0.06736151488227525 -0.06338741798503644 0.0 0.016341375740432873 0.0 0.0
0.060079540883415924 -0.05631279677489509 0.0 0.01921907929473521 0.0 0.0
0.052145584781283866 -0.04857959170655768 0.0 0.019425598451016324 0.0 0.0
0.04428219346271148 -0.04091063435607056 0.0 0.018197456151988756 0.0 0.0
0.036917416722225815 -0.0337396863238113 0.0 0.01630189226233103 0.0 0.0
0.03030133341137972 -0.02731550085222656 0.0 0.014248273868353034 0.0 0.0
0.024505046535473973 -0.02170929267535282 0.0 0.012301072018140902 0.0 0.0
0.019453664779351176 -0.016850381682468996 0.0 0.010488972687444531 0.0 0.0
0.015019569015785994 -0.012615965140982954 0.0 0.008723829682754147 0.0 0.0
0.011114410100869943 -0.00892478581447076 0.0 0.006919231880345267 0.0 0.0
0.007738718019604518 -0.005793473408305605 0.0 0.005114792467589169 0.0 0.0
0.004997151791411414 -0.0033497677091041123 0.0 0.00351804089428992 0.0 0.0
0.003046222122876696 -0.0017426680215244517 0.0 0.0024039397572822307 0.0 0.0
0.0018918442452655893 -0.0009179903053240235 0.0 0.0018355459233699856 0.0 0.0
0.0013113328113269762 -0.0005664527103300676 0.0 0.0016128301598604122 0.0 0.0
0.0009145862128087379 -0.00034683834626314525 0.0 0.0014948542611967486 0.0 0.0
0.0005071912905521281 -0.00014831052814140433 0.0 0.0015075670298558552 0.0 0.0
0.000200502605513464 -0.00021921662872728676 0.0 0.0018857522161923324 0.0 0.0
0.0021205170138494656 -0.0034534508607115925 0.0 0.0037633591194380367 0.0 0.0
0.0015318618811018814 -0.0027101920077147457 0.0 -0.0030354073048847185 0.0 0.0
0.0001339073666665469 -0.00020562926266476378 0.0 -0.002117116658865742 0.0 0.0
0.00033561156265396463 -9.457876902740914e-05 0.0 -0.0017862287573892077 0.0 0.0
0.0006695541954222922 -0.00023578199565787994 0.0 -0.0017469845761014235 0.0 0.0
0.0010160019034135964 -0.00042988753970396587 0.0 -0.001868340919940703 0.0 0.0
0.0014481502233231747 -0.0006686802207666043 0.0 -0.0020568339496578325 0.0 0.0
0.002257933460098102 -0.0011832609027915275 0.0 -0.0025082200878301653 0.0 0.0
0.0036977099998781876 -0.0022747439919652557 0.0 -0.0034497580632087965 0.0 0.0
0.005812772551817114 -0.004072523202866218 0.0 -0.004884904221775288 0.0 0.0
0.008486244024725642 -0.006489636858580505 0.0 -0.006638533380510014 0.0 0.0
0.011563761031638253 -0.009365155282913928 0.0 -0.008447350350207772 0.0 0.0
0.015023940998324048 -0.012642657208062458 0.0 -0.010191405506392748 0.0 0.0
0.018935020190161952 -0.01638460398845032 0.0 -0.01195476793745559 0.0 0.0
0.02342037505649948 -0.02070738121138138 0.0 -0.013834752847525167 0.0 0.0
0.028578014929523596 -0.02570667713357988 0.0 -0.01580702482510027 0.0 0.0
0.034411871360627344 -0.031376130516732825 0.0 -0.017642057454093862 0.0 0.0
0.04077085403078522 -0.0375781926593306 0.0 -0.01892595070885522 0.0 0.0
0.04743312635965802 -0.04408966781677259 0.0 -0.018998313207120587 0.0 0.0
0.05400848956950058 -0.050495707866754724 0.0 -0.01663367828541029 0.0 0.0
0.05960840327088074 -0.05591214664053812 0.0 -0.01005436716462349 0.0 0.0
0.059608403270876284 -0.055912146640527904 0.0 0.010054367164655464 0.0 0.0
0.05400848956948946 -0.05049570786673474 0.0 0.016633678285455422 0.0 0.0
0.04743312635964092 -0.044089667816752165 0.0 0.018998313207156337 0.0 0.0
0.04077085403076573 -0.03757819265931195 0.0 0.01892595070886882 0.0 0.0
0.03441187136060564 -0.03137613051671284 0.0 0.017642057454086424 0.0 0.0
0.028578014929500267 -0.02570667713356034 0.0 0.015807024825091553 0.0 0.0
0.02342037505647776 -0.020707381211359177 0.0 0.013834752847519671 0.0 0.0
0.018935020190141733 -0.016384603988432334 0.0 0.011954767937449928 0.0 0.0
0.015023940998303925 -0.012642657208041586 0.0 0.01019140550638259 0.0 0.0
0.011563761031618935 -0.009365155282896165 0.0 0.008447350350196114 0.0 0.0
0.008486244024709766 -0.00648963685856363 0.0 0.00663853338049436 0.0 0.0
0.0058127725518044016 -0.004072523202853784 0.0 0.004884904221765296 0.0 0.0
0.0036977099998700413 -0.0022747439919601486 0.0 0.0034497580632013025 0.0 0.0
0.002257933460093259 -0.0011832609027897512 0.0 0.002508220087825419 0.0 0.0
0.001448150223321537 -0.0006686802207642728 0.0 0.002056833949654946 0.0 0.0
0.0010160019034130274 -0.00042988753970285565 0.0 0.0018683409199391487 0.0 0.0
0.0006695541954218343 -0.00023578199565799096 0.0 0.0017469845760986757 0.0 0.0
0.0003356115626536871 -9.457876902707607e-05 0.0 0.0017862287573861546 0.0 0.0
0.00013390736666638037 -0.00020562926266415316 0.0 0.0021171166588629664 0.0 0.0
0.001531861881097607 -0.0027101920077089465 0.0 0.003035407304878779 0.0 0.0
0.0010838630804378968 -0.0021063353652004124 0.0 -0.0024793412765035383 0.0 0.0
7.065411160624147e-05 -0.00019408648903374015 0.0 -0.002252578545225925 0.0 0.0
0.00017828517652401787 -4.294147949923666e-05 0.0 -0.002005038746403398 0.0 0.0
0.0004314960774055715 -0.00012882915827394648 0.0 -0.0019591338353398824 0.0 0.0
0.0007116114656867678 -0.00028969849292459493 0.0 -0.0020842036427805577 0.0 0.0
0.001033731027209786 -0.0004645793849654689 0.0 -0.002286134100794146 0.0 0.0
0.001555556037538916 -0.0007521773902234852 0.0 -0.00261806610098389 0.0 0.0
0.00250879265835606 -0.0013772563893399425 0.0 -0.0032905689913722558 0.0 0.0
0.0039806889738659285 -0.0025216135786534366 0.0 -0.0044177498021181205 0.0 0.0
0.0059089798634122115 -0.004176070375598195 0.0 -0.005904253200175291 0.0 0.0
0.008148208750430416 -0.006208662381534058 0.0 -0.0075468042438534 0.0 0.0
0.01064002621113315 -0.008531476903000046 0.0 -0.009174461431726066 0.0 0.0
0.01342913142563995 -0.011169694821129728 0.0 -0.010807198382836392 0.0 0.0
0.016618502147825634 -0.014222046028482982 0.0 -0.012501857045279507 0.0 0.0
0.020319741719136933 -0.017794566267649525 0.0 -0.014267066335771517 0.0 0.0
0.02459437589106994 -0.02194092678731252 0.0 -0.015939591795765873 0.0 0.0
0.029403624032481104 -0.02661938896169147 0.0 -0.017137474248705542 0.0 0.0
0.034672993184088785 -0.031786422158561756 0.0 -0.017437688190175937 0.0 0.0
0.04037448992709686 -0.03738442248048335 0.0 -0.015947273324984912 0.0 0.0
0.046035496364281434 -0.0428601431168989 0.0 -0.010516914635752439 0.0 0.0
0.046035496364278755 -0.04286014311689845 0.0 0.010516914635779473 0.0 0.0
0.04037448992708888 -0.0373844224804758 0.0 0.015947273325025657 0.0 0.0
0.034672993184075754 -0.031786422158551986 0.0 0.01743768819020708 0.0 0.0
0.029403624032466116 -0.0266193889616817 0.0 0.017137474248716422 0.0 0.0
0.024594375891054038 -0.02194092678729387 0.0 0.01593959179575838 0.0 0.0
0.020319741719120182 -0.017794566267630874 0.0 0.01426706633576208 0.0 0.0
0.016618502147810604 -0.014222046028468771 0.0 0.01250185704527379 0.0 0.0
0.01342913142562642 -0.011169694821116849 0.0 0.010807198382833005 0.0 0.0
0.01064002621111948 -0.008531476902988722 0.0 0.009174461431716352 0.0 0.0
0.008148208750416719 -0.006208662381522068 0.0 0.007546804243841965 0.0 0.0
0.0059089798634008595 -0.004176070375585317 0.0 0.00590425320016108 0.0 0.0
0.003980688973857532 -0.002521613578644999 0.0 0.004417749802111626 0.0 0.0
0.002508792658350606 -0.0013772563893337253 0.0 0.003290568991367704 0.0 0.0
0.0015555560375359878 -0.0007521773902218198 0.0 0.0026180661009820305 0.0 0.0
0.0010337310272089117 -0.00046457938496613504 0.0 0.002286134100792342 0.0 0.0
0.0007116114656863792 -0.00028969849292570515 0.0 0.00208420364277781 0.0 0.0
0.0004314960774053356 -0.00012882915827494568 0.0 0.0019591338353372734 0.0 0.0
0.00017828517652385134 -4.294147949929217e-05 0.0 0.002005038746400678 0.0 0.0
7.065411160606105e-05 -0.00019408648903393444 0.0 0.002252578545223455 0.0 0.0
0.0010838630804353155 -0.002106335365196641 0.0 0.0024793412764979594 0.0 0.0
0.0007621604897114914 -0.0016498146582701323 0.0 -0.002105671760538913 0.0 0.0
9.47287343469605e-07 -0.0001830117311345525 0.0 -0.0023315545326121068 0.0 0.0
2.9908572726472515e-05 1.132752208543586e-05 0.0 -0.0021641837122320096 0.0 0.0
0.00020127115250308247 -2.7046238347705476e-05 0.0 -0.0021240637231763337 0.0 0.0
0.0004009681883823113 -0.00014364737021410612 0.0 -0.0022431158090002734 0.0 0.0
0.0006177559614602285 -0.000270415982559169 0.0 -0.0024795459525112362 0.0 0.0
0.0009217569454123553 -0.00042691548172668625 0.0 -0.0027788782491147968 0.0 0.0
0.001443324407939664 -0.0007016078920090152 0.0 -0.003178784863217543 0.0 0.0
0.002287486491840851 -0.0012366596288324594 0.0 -0.0038394349059448496 0.0 0.0
0.003436994529568138 -0.0021047036632619864 0.0 -0.004834731228229028 0.0 0.0
0.004806863865937858 -0.0032520894777938736 0.0 -0.006080800685734966 0.0 0.0
0.006316590182783466 -0.004597455409120821 0.0 -0.007426015997313795 0.0 0.0
0.00799510130357084 -0.006135020275209513 0.0 -0.008841986691411008 0.0 0.0
0.009911440376815642 -0.007931912104238936 0.0 -0.010290440608787033 0.0 0.0
0.012160118539085427 -0.010079239972603293 0.0 -0.011770542987152077 0.0 0.0
0.014848878873728905 -0.012674893446370294 0.0 -0.013207847519986105 0.0 0.0
0.018066490046161454 -0.015790683677940454 0.0 -0.014327734290570104 0.0 0.0
0.021865599211821157 -0.019493848101430622 0.0 -0.014692866868000976 0.0 0.0
0.02640411844018546 -0.024023031410636886 0.0 -0.01403428107789334 0.0 0.0
0.03194933044352473 -0.02941916882454443 0.0 -0.010590173189363339 0.0 0.0
0.03194933044352355 -0.0294191688245391 0.0 0.010590173189387986 0.0 0.0
0.026404118440181076 -0.024023031410628004 0.0 0.014034281077929978 0.0 0.0
0.021865599211812012 -0.019493848101424405 0.0 0.014692866868026677 0.0 0.0
0.018066490046151656 -0.015790683677932904 0.0 0.014327734290575544 0.0 0.0
0.014848878873719454 -0.012674893446356972 0.0 0.013207847519979388 0.0 0.0
0.01216011853907556 -0.010079239972591303 0.0 0.011770542987144639 0.0 0.0
0.009911440376807523 -0.007931912104228722 0.0 0.010290440608782592 0.0 0.0
0.007995101303563831 -0.0061350202752028515 0.0 0.008841986691410564 0.0 0.0
0.006316590182775805 -0.004597455409111939 0.0 0.007426015997306856 0.0 0.0
0.0048068638659300444 -0.003252089477786768 0.0 0.006080800685724308 0.0 0.0
0.0034369945295616433 -0.0021047036632562133 0.0 0.004834731228217093 0.0 0.0
0.0022874864918368404 -0.001236659628830239 0.0 0.0038394349059398536 0.0 0.0
0.0014433244079367358 -0.0007016078920067947 0.0 0.0031787848632148785 0.0 0.0
0.0009217569454108565 -0.0004269154817244658 0.0 0.002778878249112632 0.0 0.0
0.0006177559614594652 -0.0002704159825568375 0.0 0.0024795459525081276 0.0 0.0
0.0004009681883822558 -0.00014364737021332896 0.0 0.0022431158089980807 0.0 0.0
0.00020127115250311023 -2.7046238347150364e-05 0.0 0.0021240637231748627 0.0 0.0
2.9908572726222715e-05 1.1327522085713415e-05 0.0 0.002164183712229484 0.0 0.0
9.47287343205927e-07 -0.00018301173113438596 0.0 0.0023315545326107467 0.0 0.0
0.0007621604897100481 -0.001649814658267773 0.0 0.0021056717605363318 0.0 0.0
0.0005380918117673661 -0.001310987349777304 0.0 -0.0018588846349875399 0.0 0.0
-6.864486492504096e-05 -0.00017130623661282263 0.0 -0.0023765334149287165 0.0 0.0
-0.00011192971634603477 6.714114792494286e-05 0.0 -0.002268792054676172 0.0 0.0
-2.1418639819595353e-05 7.074409031759821e-05 0.0 -0.0022345087583860723 0.0 0.0
8.98324633201858e-05 2.9483316841272256e-06 0.0 -0.0023392011974884275 0.0 0.0
0.00019125420873773724 -6.991168701109274e-05 0.0 -0.0025872675180771687 0.0 0.0
0.000305161800141715 -0.00013772494381858458 0.0 -0.002932214186326776 0.0 0.0
0.00047130807811608666 -0.00022081100563564604 0.0 -0.0032696548046018403 0.0 0.0
0.0007407079916322279 -0.00035195502393126077 0.0 -0.00360178450796772 0.0 0.0
0.0011176039574212066 -0.0005549374372486593 0.0 -0.004039741079178705 0.0 0.0
0.0015804158578162641 -0.000839496761189773 0.0 -0.004719396343332072 0.0 0.0
0.0020831394455352037 -0.0011903999135902676 0.0 -0.0056085857329639666 0.0 0.0
0.0026386596257369915 -0.001602267964296189 0.0 -0.0066801584122001545 0.0 0.0
0.003275730770539498 -0.002121937622757475 0.0 -0.007930071175010045 0.0 0.0
0.004064003268950359 -0.002821985619266165 0.0 -0.009355178492792937 0.0 0.0
0.005145363812785145 -0.0038237687999393977 0.0 -0.010849462830505252 0.0 0.0
0.006742612008866153 -0.005326259959006929 0.0 -0.012100946105966737 0.0 0.0
0.009082082786753001 -0.007534971889202158 0.0 -0.012570458662697681 0.0 0.0
0.012307036567551582 -0.010687373773038633 0.0 -0.011930216263972504 0.0 0.0
0.01711869800060105 -0.015575047855989066 0.0 -0.010382449274678907 0.0 0.0
0.0171186980006012 -0.015575047855992619 0.0 0.01038244927469617 0.0 0.0
0.012307036567550222 -0.010687373773040854 0.0 0.011930216264001092 0.0 0.0
0.009082082786748005 -0.007534971889198161 0.0 0.01257045866271489 0.0 0.0
0.006742612008862517 -0.005326259959006485 0.0 0.012100946105966959 0.0 0.0
0.005145363812783091 -0.0038237687999429504 0.0 0.010849462830498313 0.0 0.0
0.004064003268947458 -0.002821985619265277 0.0 0.009355178492787164 0.0 0.0
0.003275730770538235 -0.0021219376227499254 0.0 0.007930071175004827 0.0 0.0
0.0026386596257361866 -0.0016022679642924142 0.0 0.006680158412198489 0.0 0.0
0.0020831394455341212 -0.0011903999135907117 0.0 0.0056085857329562505 0.0 0.0
0.001580415857814571 -0.0008394967611875526 0.0 0.004719396343324633 0.0 0.0
0.0011176039574199575 -0.000554937437247327 0.0 0.004039741079171932 0.0 0.0
0.0007407079916317977 -0.0003519550239299285 0.0 0.0036017845079659994 0.0 0.0
0.00047130807811571196 -0.00022081100563764444 0.0 0.0032696548045995644 0.0 0.0
0.0003051618001412154 -0.00013772494382058298 0.0 0.002932214186324361 0.0 0.0
0.00019125420873759846 -6.991168701109274e-05 0.0 0.002587267518073505 0.0 0.0
8.983246332039396e-05 2.948331683905181e-06 0.0 0.002339201197485735 0.0 0.0
-2.141863981935943e-05 7.074409031759821e-05 0.0 0.002234508758383491 0.0 0.0
-0.00011192971634614579 6.714114792538695e-05 0.0 0.002268792054674007 0.0 0.0
-6.864486492515198e-05 -0.00017130623661285038 0.0 0.002376533414927162 0.0 0.0
0.000538091811766464 -0.0013109873497761382 0.0 0.0018588846349851529 0.0 0.0
0.0003824352097670791 -0.0010587611162559407 0.0 -0.0016873664134751942 0.0 0.0
-0.00013205267066195014 -0.00014986053577226155 0.0 -0.002373720181083283 0.0 0.0
-0.0002466809254429436 0.000120219456074655 0.0 -0.002322844899188714 0.0 0.0
-0.00023675011299256754 0.00016495408224770358 0.0 -0.0022872988850219933 0.0 0.0
-0.00021779578111107145 0.0001468147639233086 0.0 -0.0023715068798300654 0.0 0.0
-0.00023794622230302598 0.00013271866338826488 0.0 -0.002600145901686668 0.0 0.0
-0.0003175688362836576 0.00015383554367431884 0.0 -0.002935476884142363 0.0 0.0
-0.00047255008770827334 0.0002229004497138476 0.0 -0.0032718284227532535 0.0 0.0
-0.0007392231027994467 0.00035132174134555605 0.0 -0.0036022002839661837 0.0 0.0
-0.001115929119830994 0.0005534877479254074 0.0 -0.004037663999148067 0.0 0.0
-0.0015801103714477016 0.000840867061620898 0.0 -0.004714949939619906 0.0 0.0
-0.002096229725644938 0.0012029817267524834 0.0 -0.0056058013990915034 0.0 0.0
-0.00267770066129 0.0016359159820154012 0.0 -0.006680298023400311 0.0 0.0
-0.003336382915604577 0.0021609754323135277 0.0 -0.007934566185162695 0.0 0.0
-0.00401935497978019 0.0027317538399405095 0.0 -0.00937510174876588 0.0 0.0
-0.004563898246499248 0.003184766543470108 0.0 -0.010970911657415483 0.0 0.0
-0.004653498825397048 0.0032362420038727358 0.0 -0.012696944630590512 0.0 0.0
-0.0039051514450623437 0.002618616748611746 0.0 -0.014538881713985263 0.0 0.0
-0.0020141004380950372 0.0012380497934465495 0.0 -0.01608747071504013 0.0 0.0
0.0024348842325683795 -0.002862536199738752 0.0 -0.014220605012112641 0.0 0.0
0.002434884232568796 -0.002862536199738752 0.0 0.014220605012125964 0.0 0.0
-0.002014100438094968 0.0012380497934469936 0.0 0.016087470715057006 0.0 0.0
-0.003905151445061844 0.002618616748611302 0.0 0.014538881713990426 0.0 0.0
-0.004653498825392843 0.0032362420038651862 0.0 0.012696944630585572 0.0 0.0
-0.004563898246493309 0.0031847665434634465 0.0 0.010970911657408489 0.0 0.0
-0.0040193549797763045 0.0027317538399351804 0.0 0.00937510174875894 0.0 0.0
-0.003336382915599248 0.0021609754323126396 0.0 0.007934566185157088 0.0 0.0
-0.0026777006612846016 0.0016359159820118485 0.0 0.006680298023395703 0.0 0.0
-0.002096229725638943 0.0012029817267487086 0.0 0.00560580139908301 0.0 0.0
-0.0015801103714426362 0.0008408670616155689 0.0 0.0047149499396111905 0.0 0.0
-0.0011159291198270666 0.0005534877479216327 0.0 0.0040376639991421825 0.0 0.0
-0.0007392231027966434 0.00035132174134311356 0.0 0.0036022002839658507 0.0 0.0
-0.0004725500877066635 0.00022290044971517986 0.0 0.0032718284227510885 0.0 0.0
-0.0003175688362831719 0.00015383554367798258 0.0 0.0029354768841393097 0.0 0.0
-0.00023794622230230433 0.0001327186633879318 0.0 0.0026001459016836703 0.0 0.0
-0.00021779578111051634 0.00014681476392297554 0.0 0.002371506879828511 0.0 0.0
-0.00023675011299233162 0.0001649540822472595 0.0 0.0022872988850206055 0.0 0.0
-0.0002466809254429436 0.00012021945607471052 0.0 0.0023228448991871042 0.0 0.0
-0.00013205267066182524 -0.0001498605357717342 0.0 0.00237372018108134 0.0 0.0
0.00038243520976649625 -0.0010587611162548895 0.0 0.001687366413473529 0.0 0.0
0.00027182519985789744 -0.0008457464918912583 0.0 -0.0015207702207424845 0.0 0.0
-0.0001894824775753451 -0.00012010128299333456 0.0 -0.002320462527446304 0.0 0.0
-0.0003732943090209162 0.0001703709050749902 0.0 -0.002323627961085817 0.0 0.0
-0.0004443496985932216 0.0002544802983199812 0.0 -0.002281470213246789 0.0 0.0
-0.000519104093840761 0.00028625301623164123 0.0 -0.0023367217907747373 0.0 0.0
-0.00066143506487569 0.000331083369806362 0.0 -0.0025258756623686707 0.0 0.0
-0.0009333687008198366 0.0004426505384471646 0.0 -0.0027954868728568283 0.0 0.0
-0.001444224846236672 0.0007035534976247426 0.0 -0.003183747031465678 0.0 0.0
-0.002285239304127426 0.001235038621927087 0.0 -0.0038388980312010212 0.0 0.0
-0.0034348239220726023 0.0021032571208834394 0.0 -0.0048321313296036394 0.0 0.0
-0.004807592205300637 0.003254987578066082 0.0 -0.006078476096962604 0.0 0.0
-0.006329116518395073 0.004613461536094654 0.0 -0.007419670612523466 0.0 0.0
-0.00803240951531474 0.0061740944723185365 0.0 -0.008817887509698863 0.0 0.0
-0.00996814359014403 0.007975284303966212 0.0 -0.01026135161098013 0.0 0.0
-0.012117980807651682 0.00998916100071856 0.0 -0.011833611471582794 0.0 0.0
-0.014306009832505948 0.01203943172962152 0.0 -0.01363808810012529 0.0 0.0
-0.016156857257253576 0.013762873586792512 0.0 -0.01573988883956584 0.0 0.0
-0.0171342861520338 0.014649101618098737 0.0 -0.018036473727658764 0.0 0.0
-0.016328043785754462 0.013566939440333492 0.0 -0.01901406944787709 0.0 0.0
-0.011518790675422524 0.008601899364129473 0.0 -0.016602508579594666 0.0 0.0
-0.011518790675423052 0.00860189936413569 0.0 0.016602508579616204 0.0 0.0
-0.016328043785752686 0.013566939440333492 0.0 0.0190140694479069 0.0 0.0
-0.017134286152027625 0.014649101618096072 0.0 0.018036473727676472 0.0 0.0
-0.016156857257241794 0.013762873586780966 0.0 0.01573988883956645 0.0 0.0
-0.014306009832492694 0.012039431729614858 0.0 0.013638088100116574 0.0 0.0
-0.0121179808076404 0.009989161000711011 0.0 0.011833611471571914 0.0 0.0
-0.00996814359013276 0.007975284303952446 0.0 0.010261351610974134 0.0 0.0
-0.008032409515302583 0.006174094472307878 0.0 0.008817887509693145 0.0 0.0
-0.00632911651838261 0.0046134615360819975 0.0 0.007419670612514251 0.0 0.0
-0.004807592205288938 0.0032549875780536475 0.0 0.006078476096948837 0.0 0.0
-0.0034348239220633042 0.002103257120875446 0.0 0.004832131329593037 0.0 0.0
-0.0022852393041207647 0.0012350386219259768 0.0 0.0038388980311959142 0.0 0.0
-0.001444224846232925 0.0007035534976240765 0.0 0.003183747031463846 0.0 0.0
-0.0009333687008181851 0.00044265053844638746 0.0 0.0027954868728536086 0.0 0.0
-0.0006614350648745104 0.00033108336980569586 0.0 0.00252587566236509 0.0 0.0
-0.0005191040938397895 0.00028625301623130817 0.0 0.0023367217907728777 0.0 0.0
-0.00044434969859276363 0.0002544802983199812 0.0 0.00228147021324579 0.0 0.0
-0.0003732943090209162 0.00017037090507476815 0.0 0.002323627961084984 0.0 0.0
-0.0001894824775751508 -0.0001201012829933068 0.0 0.0023204625274441115 0.0 0.0
0.0002718251998576754 -0.0008457464918904846 0.0 0.0015207702207405138 0.0 0.0
0.00018376026944916246 -0.0006540669281121236 0.0 -0.0013456409568169958 0.0 0.0
-0.00024248710738367096 -8.300554127388393e-05 0.0 -0.002213879651140782 0.0 0.0
-0.0004919869010718281 0.0002177290551085287 0.0 -0.0022687278967687408 0.0 0.0
-0.0006432282670490175 0.00033882421747233327 0.0 -0.0022159348431977643 0.0 0.0
-0.0008112784285675134 0.00041750443765264933 0.0 -0.0022318932214674403 0.0 0.0
-0.00107179103606575 0.0005204444910447137 0.0 -0.002354689901147039 0.0 0.0
-0.0015658289649244095 0.0007680767322766346 0.0 -0.002642561241281871 0.0 0.0
-0.002507901495365561 0.0013779965182538767 0.0 -0.0032979049077392353 0.0 0.0
-0.0039774452139391125 0.0025187406637336984 0.0 -0.004413863929282447 0.0 0.0
-0.005907645823739288 0.004175053848074484 0.0 -0.005901278986327307 0.0 0.0
-0.008150192282628643 0.006212202588620208 0.0 -0.007544993993228943 0.0 0.0
-0.010649551888061382 0.008544347521452611 0.0 -0.009160460403080384 0.0 0.0
-0.0134560546800018 0.011199487330920022 0.0 -0.010747415803096794 0.0 0.0
-0.016661517959749017 0.014256535979157547 0.0 -0.012393577806216194 0.0 0.0
-0.02028872788819837 0.017725316089128196 0.0 -0.014278653305018096 0.0 0.0
-0.02415852250526329 0.021424422035075885 0.0 -0.016648615378089204 0.0 0.0
-0.027811189542635173 0.024904649658673783 0.0 -0.019694603632885332 0.0 0.0
-0.030399717567016704 0.02726833310302057 0.0 -0.022876185578566743 0.0 0.0
-0.030311101867362633 0.02689485389014523 0.0 -0.02451507892513921 0.0 0.0
-0.024724972890712016 0.020732725282897935 0.0 -0.021134648866837857 0.0 0.0
-0.02472497289071174 0.020732725282897047 0.0 0.021134648866863226 0.0 0.0
-0.03031110186735822 0.026894853890139903 0.0 0.024515078925176903 0.0 0.0
-0.03039971756700563 0.027268333103005027 0.0 0.022876185578590835 0.0 0.0
-0.02781118954261791 0.024904649658654243 0.0 0.019694603632889662 0.0 0.0
-0.024158522505243488 0.02142442203505457 0.0 0.01664861537808221 0.0 0.0
-0.020288727888179994 0.01772531608911132 0.0 0.01427865330500594 0.0 0.0
-0.016661517959731406 0.014256535979141116 0.0 0.01239357780620598 0.0 0.0
-0.013456054679982912 0.011199487330902258 0.0 0.010747415803088078 0.0 0.0
-0.010649551888042882 0.008544347521433071 0.0 0.00916046040306856 0.0 0.0
-0.008150192282610796 0.0062122025886073295 0.0 0.007544993993211124 0.0 0.0
-0.005907645823724619 0.004175053848062049 0.0 0.0059012789863125414 0.0 0.0
-0.003977445213928316 0.002518740663722152 0.0 0.00441386392927462 0.0 0.0
-0.002507901495358983 0.0013779965182469933 0.0 0.003297904907734628 0.0 0.0
-0.0015658289649209955 0.0007680767322758575 0.0 0.002642561241279845 0.0 0.0
-0.0010717910360643623 0.0005204444910453798 0.0 0.00235468990114468 0.0 0.0
-0.0008112784285662089 0.00041750443765264933 0.0 0.0022318932214654974 0.0 0.0
-0.0006432282670482681 0.0003388242174725553 0.0 0.0022159348431951276 0.0 0.0
-0.0004919869010715505 0.0002177290551086397 0.0 0.002268727896766687 0.0 0.0
-0.00024248710738349055 -8.300554127402271e-05 0.0 0.0022138796511396996 0.0 0.0
0.00018376026944898205 -0.0006540669281115356 0.0 0.0013456409568159966 0.0 0.0
0.00010723209260807276 -0.0004816274643621721 0.0 -0.0011669631689593396 0.0 0.0
-0.0002935647810663744 -3.920927229295046e-05 0.0 -0.002055942856399068 0.0 0.0
-0.0006035278368814456 0.0002630959540698141 0.0 -0.002158636512924278 0.0 0.0
-0.0008332816123693965 0.00041679837126751274 0.0 -0.002095289693232083 0.0 0.0
-0.0010889783402754094 0.0005375605831497987 0.0 -0.002057150931744689 0.0 0.0
-0.001479843745970738 0.0007200115041673394 0.0 -0.002148569317714455 0.0 0.0
-0.0022646914398174456 0.001198069632512011 0.0 -0.0025422689751058714 0.0 0.0
-0.003694185261223698 0.002272666461742956 0.0 -0.0034512613996675046 0.0 0.0
-0.005809645352797321 0.004069158155385111 0.0 -0.00487859138948793 0.0 0.0
-0.008486560868236487 0.006490059701362405 0.0 -0.0066363302422406956 0.0 0.0
-0.011566643919181496 0.009369083674043432 0.0 -0.008446471376647002 0.0 0.0
-0.015028169567007088 0.012649070340373658 0.0 -0.010172359162633038 0.0 0.0
-0.018941654964489185 0.0163941413817299 0.0 -0.011866259703093684 0.0 0.0
-0.023431915811373993 0.020716647757130335 0.0 -0.013645051807939956 0.0 0.0
-0.02855860789341544 0.02566593031719666 0.0 -0.015726792205709272 0.0 0.0
-0.03416065559748965 0.031065263129038012 0.0 -0.01848465331143323 0.0 0.0
-0.0396360043177017 0.03629901157810922 0.0 -0.022141037056669977 0.0 0.0
-0.04369220912070999 0.04005983686171444 0.0 -0.026089427426619738 0.0 0.0
-0.044085510388584465 0.04005021205259718 0.0 -0.02828232189591745 0.0 0.0
-0.037027032254498216 0.03237349035063808 0.0 -0.025259833339299265 0.0 0.0
-0.03702703225449615 0.03237349035063852 0.0 0.02525983333933074 0.0 0.0
-0.044085510388577 0.0400502120525954 0.0 0.028282321895956142 0.0 0.0
-0.04369220912069449 0.040059836861702 0.0 0.026089427426647216 0.0 0.0
-0.039636004317679524 0.0362990115780919 0.0 0.022141037056677138 0.0 0.0
-0.034160655597463896 0.031065263129013143 0.0 0.018484653311428123 0.0 0.0
-0.028558607893390653 0.02566593031717357 0.0 0.015726792205701834 0.0 0.0
-0.02343191581134968 0.020716647757108575 0.0 0.013645051807928188 0.0 0.0
-0.01894165496446379 0.016394141381707472 0.0 0.011866259703084359 0.0 0.0
-0.015028169566982608 0.012649070340349011 0.0 0.01017235916261966 0.0 0.0
-0.011566643919157946 0.009369083674020118 0.0 0.008446471376628018 0.0 0.0
-0.008486560868216378 0.006490059701343309 0.0 0.00663633024222271 0.0 0.0
-0.005809645352782611 0.004069158155370456 0.0 0.004878591389478271 0.0 0.0
-0.0036941852612139003 0.0022726664617356285 0.0 0.003451261399661232 0.0 0.0
-0.0022646914398118806 0.001198069632506904 0.0 0.002542268975100348 0.0 0.0
-0.0014798437459683511 0.00072001150416523 0.0 0.0021485693177130116 0.0 0.0
-0.0010889783402741327 0.0005375605831497987 0.0 0.002057150931745161 0.0 0.0
-0.000833281612368536 0.0004167983712684009 0.0 0.0020952896932312504 0.0 0.0
-0.0006035278368809044 0.00026309595406953656 0.0 0.002158636512923029 0.0 0.0
-0.0002935647810661246 -3.920927229289495e-05 0.0 0.002055942856396986 0.0 0.0
0.00010723209260780908 -0.00048162746436167594 0.0 0.0011669631689580628 0.0 0.0
3.947432309431287e-05 -0.00032907983519009365 0.0 -0.0009844748409389426 0.0 0.0
-0.0003443107547589086 9.603995307305713e-06 0.0 -0.001851627829390995 0.0 0.0
-0.0007089223533048861 0.00030711713174669253 0.0 -0.0019931717280976258 0.0 0.0
-0.001013696417999227 0.0004871994913432376 0.0 -0.001913199664934473 0.0 0.0
-0.0013516248026106126 0.0006487453106374108 0.0 -0.0018261372335169057 0.0 0.0
-0.0019155812652857929 0.0009601373726934037 0.0 -0.0019293413332182319 0.0 0.0
-0.0030476541511839095 0.001752386180731369 0.0 -0.002430280039898036 0.0 0.0
-0.004992347812542264 0.0033454427160544142 0.0 -0.0035145694426296226 0.0 0.0
-0.007737023711787749 0.0057910549413044965 0.0 -0.0051069343934394 0.0 0.0
-0.011116472547623157 0.008926840676137804 0.0 -0.006917230400393992 0.0 0.0
-0.015022782120400452 0.012619627872409778 0.0 -0.008721976207931081 0.0 0.0
-0.019450958838407528 0.016848306671476854 0.0 -0.010466373948257612 0.0 0.0
-0.02448460129215041 0.021691145180048554 0.0 -0.01219907035474721 0.0 0.0
-0.03026581334546702 0.027285175030508757 0.0 -0.014011952084292068 0.0 0.0
-0.03689999446691619 0.03372163365833858 0.0 -0.016126787610135085 0.0 0.0
-0.04423374415156678 0.040818452089508295 0.0 -0.01892916624399188 0.0 0.0
-0.05149820766220639 0.0477792663110419 0.0 -0.02271747499808119 0.0 0.0
-0.05694628592646227 0.05284431401411549 0.0 -0.027075547112774212 0.0 0.0
-0.0575902697787562 0.05300692837137744 0.0 -0.030096714107479605 0.0 0.0
-0.04893321539742594 0.0437659625961726 0.0 -0.029071259305579578 0.0 0.0
-0.048933215397422916 0.043765962596166386 0.0 0.029071259305614605 0.0 0.0
-0.05759026977874518 0.05300692837136367 0.0 0.030096714107520017 0.0 0.0
-0.05694628592644253 0.05284431401409373 0.0 0.027075547112805076 0.0 0.0
-0.05149820766218004 0.04777926631100948 0.0 0.022717474998088683 0.0 0.0
-0.044233744151535526 0.0408184520894741 0.0 0.018929166243987272 0.0 0.0
-0.03689999446688502 0.03372163365830705 0.0 0.016126787610127202 0.0 0.0
-0.030265813345436335 0.027285175030475006 0.0 0.01401195208428091 0.0 0.0
-0.0244846012921187 0.0216911451800188 0.0 0.012199070354737662 0.0 0.0
-0.0194509588383771 0.016848306671446656 0.0 0.010466373948245455 0.0 0.0
-0.015022782120371343 0.0126196278723818 0.0 0.008721976207914178 0.0 0.0
-0.011116472547598122 0.008926840676115377 0.0 0.006917230400376229 0.0 0.0
-0.007737023711768605 0.005791054941287399 0.0 0.005106934393430185 0.0 0.0
-0.004992347812529087 0.0033454427160399813 0.0 0.0035145694426231555 0.0 0.0
-0.003047654151175916 0.0017523861807237084 0.0 0.002430280039893873 0.0 0.0
-0.0019155812652824136 0.0009601373726918494 0.0 0.0019293413332155118 0.0 0.0
-0.001351624802609315 0.0006487453106363006 0.0 0.0018261372335146298 0.0 0.0
-0.0010136964179982763 0.0004871994913422384 0.0 0.0019131996649312533 0.0 0.0
-0.0007089223533042685 0.00030711713174530475 0.0 0.001993171728095211 0.0 0.0
-0.000344310754758638 9.603995306251e-06 0.0 0.0018516278293894128 0.0 0.0
3.9474323094139396e-05 -0.00032907983518994273 0.0 0.0009844748409379989 0.0 0.0
-1.926389478210111e-05 -0.00019818225773504672 0.0 -0.0007966201138822626 0.0 0.0
-0.00039430477054597235 6.116359291374884e-05 0.0 -0.0016064132231795591 0.0 0.0
-0.0008090404644145177 0.00034975630354161513 0.0 -0.001773395840259151 0.0 0.0
-0.0011838086158129368 0.0005500699337213089 0.0 -0.001677266415440054 0.0 0.0
-0.0016119899395203308 0.0007693506151853491 0.0 -0.001572020032252014 0.0 0.0
-0.0023961247555091825 0.00125906271007592 0.0 -0.0016923557368646591 0.0 0.0
-0.0039170380852185105 0.0024300851036451743 0.0 -0.002267487682359709 0.0 0.0
-0.006380853569771611 0.004559696121989143 0.0 -0.00343782861238201 0.0 0.0
-0.009705270934132454 0.007605815852523401 0.0 -0.004999837349005054 0.0 0.0
-0.013767788895456906 0.011420710167241221 0.0 -0.006703456995301171 0.0 0.0
-0.018501280626661204 0.015923646967733962 0.0 -0.00842682939848638 0.0 0.0
-0.023906296672625837 0.021108077344681675 0.0 -0.010095621412164302 0.0 0.0
-0.030074942836754076 0.027061740367527953 0.0 -0.011770369205427789 0.0 0.0
-0.03715507365452861 0.03393220297739363 0.0 -0.013549966742944064 0.0 0.0
-0.04526466432727652 0.04182470007952244 0.0 -0.015523100865080242 0.0 0.0
-0.05426498836841048 0.0505573142896929 0.0 -0.017977186550628632 0.0 0.0
-0.06326002539956077 0.05919138315712669 0.0 -0.021428216268206013 0.0 0.0
-0.07005406098011649 0.06551998876701814 0.0 -0.02591877131626824 0.0 0.0
-0.07094848398458975 0.06588107555304568 0.0 -0.030297072826768967 0.0 0.0
-0.06086005364829675 0.055229510656342296 0.0 -0.03278595638774867 0.0 0.0
-0.06086005364829242 0.055229510656340075 0.0 0.03278595638778126 0.0 0.0
-0.07094848398457533 0.06588107555303013 0.0 0.03029707282680988 0.0 0.0
-0.0700540609800925 0.06551998876699505 0.0 0.025918771316297606 0.0 0.0
-0.06326002539953006 0.05919138315710404 0.0 0.02142821626821484 0.0 0.0
-0.054264988368374206 0.05055731428966004 0.0 0.017977186550628577 0.0 0.0
-0.04526466432723901 0.04182470007948824 0.0 0.0155231008650758 0.0 0.0
-0.03715507365449144 0.03393220297735633 0.0 0.013549966742935543 0.0 0.0
-0.030074942836716044 0.02706174036749065 0.0 0.011770369205418907 0.0 0.0
-0.02390629667258938 0.021108077344646592 0.0 0.0100956214121517 0.0 0.0
-0.0185012806266266 0.015923646967700877 0.0 0.008426829398469254 0.0 0.0
-0.013767788895427402 0.011420710167211912 0.0 0.006703456995285101 0.0 0.0
-0.00970527093410932 0.0076058158525011965 0.0 0.004999837348994146 0.0 0.0
-0.006380853569754791 0.004559696121973822 0.0 0.0034378286123725454 0.0 0.0
-0.003917038085208324 0.0024300851036372917 0.0 0.00226748768235302 0.0 0.0
-0.0023961247555046306 0.0012590627100724783 0.0 0.001692355736861162 0.0 0.0
-0.0016119899395186932 0.0007693506151835727 0.0 0.001572020032250876 0.0 0.0
-0.001183808615811903 0.0005500699337200876 0.0 0.001677266415438361 0.0 0.0
-0.0008090404644137128 0.0003497563035413376 0.0 0.00177339584025768 0.0 0.0
-0.00039430477054559765 6.116359291372109e-05 0.0 0.0016064132231791428 0.0 0.0
-1.9263894782441116e-05 -0.00019818225773481947 0.0 0.0007966201138813744 0.0 0.0
-6.701885690543752e-05 -9.132124464716895e-05 0.0 -0.0006025266691444819 0.0 0.0
-0.00044115825908022654 0.00011254731287602127 0.0 -0.0013247815158820286 0.0 0.0
-0.0009041766830265585 0.000390625527632249 0.0 -0.0014993555744938492 0.0 0.0
-0.0013465237505581318 0.0006076679707096577 0.0 -0.0013931040275142748 0.0 0.0
-0.0018854813317003283 0.00090524000701242 0.0 -0.0012807402375839272 0.0 0.0
-0.0029329927958330893 0.0016358691545563797 0.0 -0.001429024140873425 0.0 0.0
-0.004872546884980539 0.0032306962228350056 0.0 -0.0020555651127399377 0.0 0.0
-0.0078090681608194434 0.005858684029002248 0.0 -0.003149598283097632 0.0 0.0
-0.01168244545583641 0.00945807618642669 0.0 -0.004515854430785393 0.0 0.0
-0.01642765303506155 0.013945749069652846 0.0 -0.006037703287154916 0.0 0.0
-0.021987896113563082 0.01925781228227641 0.0 -0.007578086508846671 0.0 0.0
-0.028380175989827144 0.025406038438516187 0.0 -0.009076379354333641 0.0 0.0
-0.03570132217429556 0.03248742079805211 0.0 -0.010608686312693183 0.0 0.0
-0.04408559825638694 0.04063322727825058 0.0 -0.012237179277842958 0.0 0.0
-0.05361744703359994 0.04992399613788878 0.0 -0.013955255430727176 0.0 0.0
-0.06414788042046013 0.06017138756686746 0.0 -0.015806640570067754 0.0 0.0
-0.07475525565901961 0.07037410837725844 0.0 -0.01833966835101264 0.0 0.0
-0.08293445043412483 0.07801625326462247 0.0 -0.022584187797068 0.0 0.0
-0.08434096030809127 0.07882697564266516 0.0 -0.028887744598050102 0.0 0.0
-0.07314781991384652 0.06706264274438434 0.0 -0.036389151284910715 0.0 0.0
-0.07314781991384071 0.06706264274437901 0.0 0.036389151284943355 0.0 0.0
-0.08434096030807417 0.07882697564264651 0.0 0.028887744598087628 0.0 0.0
-0.08293445043409661 0.0780162532645976 0.0 0.02258418779709298 0.0 0.0
-0.07475525565898346 0.07037410837722335 0.0 0.0183396683510188 0.0 0.0
-0.06414788042041886 0.06017138756683105 0.0 0.015806640570067476 0.0 0.0
-0.05361744703355632 0.049923996137845705 0.0 0.013955255430722457 0.0 0.0
-0.044085598256343395 0.04063322727820928 0.0 0.012237179277836269 0.0 0.0
-0.03570132217425149 0.03248742079801348 0.0 0.010608686312687243 0.0 0.0
-0.028380175989785227 0.025406038438475775 0.0 0.009076379354322983 0.0 0.0
-0.021987896113522844 0.019257812282239994 0.0 0.007578086508830767 0.0 0.0
-0.01642765303502757 0.013945749069621982 0.0 0.006037703287139595 0.0 0.0
-0.011682445455809529 0.009458076186398934 0.0 0.004515854430775401 0.0 0.0
-0.007809068160799348 0.005858684028982042 0.0 0.003149598283089472 0.0 0.0
-0.004872546884967778 0.003230696222822904 0.0 0.0020555651127344976 0.0 0.0
-0.00293299279582674 0.0016358691545510506 0.0 0.0014290241408708437 0.0 0.0
-0.0018854813316979205 0.0009052400070106437 0.0 0.0012807402375827615 0.0 0.0
-0.0013465237505572852 0.0006076679707092136 0.0 0.0013931040275134143 0.0 0.0
-0.0009041766830255454 0.0003906255276316939 0.0 0.0014993555744927944 0.0 0.0
-0.0004411582590798588 0.00011254731287566044 0.0 0.0013247815158815845 0.0 0.0
-6.701885690561099e-05 -9.132124464676303e-05 0.0 0.0006025266691444819 0.0 0.0
-0.00010009734565313844 -1.1562630947592467e-05 0.0 -0.00040390149293961786 0.0 0.0
-0.00047997129879279177 0.0001601083065945752 0.0 -0.0010091536686426539 0.0 0.0
-0.00099448810478181 0.0004281980901738036 0.0 -0.001169827292694492 0.0 0.0
-0.0015078455562233528 0.0006678466905010172 0.0 -0.001063371326205348 0.0 0.0
-0.0021858084319378857 0.001075350722982149 0.0 -0.0009583780793785135 0.0 0.0
-0.0035430352119074637 0.0021010922388173814 0.0 -0.0011415747189592318 0.0 0.0
-0.005878320678410959 0.004110058034640263 0.0 -0.0016994109373608124 0.0 0.0
-0.009242922104908735 0.007189167604751967 0.0 -0.0025806589902807042 0.0 0.0
-0.013658112241246995 0.011328789703652031 0.0 -0.003691946971964788 0.0 0.0
-0.0190793363318372 0.01648044296212081 0.0 -0.004934717724863424 0.0 0.0
-0.025468882798315634 0.022602210388378063 0.0 -0.006198211796954622 0.0 0.0
-0.03285761257560066 0.029724081219679954 0.0 -0.007424876710324324 0.0 0.0
-0.04134612932675674 0.037945599397669394 0.0 -0.008687607703759037 0.0 0.0
-0.05104211373718895 0.04737226406224204 0.0 -0.010082138571794408 0.0 0.0
-0.06194518975453997 0.05800091435420107 0.0 -0.01149333149347398 0.0 0.0
-0.07381039221456265 0.06956772823437163 0.0 -0.012608599521666708 0.0 0.0
-0.0857846857881463 0.08114997679378266 0.0 -0.013715157345328799 0.0 0.0
-0.09547452232831974 0.09023372256653905 0.0 -0.017062271446168564 0.0 0.0
-0.097920338399515 0.09198733342778054 0.0 -0.025486004664250772 0.0 0.0
-0.08617633502039417 0.07960610013394209 0.0 -0.03960079738337524 0.0 0.0
-0.0861763350203874 0.07960610013393321 0.0 0.03960079738340244 0.0 0.0
-0.09792033839949513 0.09198733342775833 0.0 0.025486004664283857 0.0 0.0
-0.09547452232828735 0.09023372256650708 0.0 0.017062271446191712 0.0 0.0
-0.08578468578810439 0.08114997679374225 0.0 0.013715157345332796 0.0 0.0
-0.07381039221451571 0.06956772823432766 0.0 0.01260859952166729 0.0 0.0
-0.061945189754490634 0.05800091435415311 0.0 0.011493331493471676 0.0 0.0
-0.05104211373713915 0.04737226406218786 0.0 0.010082138571789911 0.0 0.0
-0.041346129326706366 0.03794559939761921 0.0 0.008687607703752931 0.0 0.0
-0.032857612575552926 0.02972408121963288 0.0 0.0074248767103190505 0.0 0.0
-0.02546888279827037 0.022602210388338984 0.0 0.006198211796944186 0.0 0.0
-0.019079336331799052 0.016480442962086617 0.0 0.00493471772485185 0.0 0.0
-0.0136581122412163 0.011328789703627384 0.0 0.003691946971957294 0.0 0.0
-0.009242922104885944 0.007189167604732649 0.0 0.002580658990273821 0.0 0.0
-0.0058783206783954225 0.004110058034626718 0.0 0.0016994109373555388 0.0 0.0
-0.0035430352118993765 0.0021010922388116082 0.0 0.0011415747189560121 0.0 0.0
-0.0021858084319345272 0.0010753507229810388 0.0 0.0009583780793777086 0.0 0.0
-0.001507845556222652 0.0006678466905005731 0.0 0.0010633713262049593 0.0 0.0
-0.0009944881047807483 0.000428198090173304 0.0 0.0011698272926931041 0.0 0.0
-0.0004799712987924726 0.0001601083065943254 0.0 0.0010091536686410163 0.0 0.0
-0.00010009734565318354 -1.1562630947632366e-05 0.0 0.00040390149293906275 0.0 0.0
-0.00011213848381386171 3.716224692906778e-05 0.0 -0.00020742634906423252 0.0 0.0
-0.0005021193960859094 0.00019809518335578424 0.0 -0.0006591560694885756 0.0 0.0
-0.0010808055806358075 0.0004625108799142241 0.0 -0.0007781780017434847 0.0 0.0
-0.00167801434564388 0.0007365620666222039 0.0 -0.0006913258412602763 0.0 0.0
-0.002532927891191833 0.0013052833411633102 0.0 -0.0006238045509937284 0.0 0.0
-0.0042165143521353254 0.002651186559358032 0.0 -0.0007790411529854102 0.0 0.0
-0.0068965416242645905 0.005033331192405122 0.0 -0.0011763592912452936 0.0 0.0
-0.010674620548875552 0.008533650129818104 0.0 -0.0017714117630132642 0.0 0.0
-0.01561646633561195 0.013198929272757676 0.0 -0.002535595050231043 0.0 0.0
-0.021707393333602387 0.0190066340562991 0.0 -0.003404195886787864 0.0 0.0
-0.028929417072988933 0.02593999766747146 0.0 -0.004285186990557799 0.0 0.0
-0.03732463907708983 0.03404438406247334 0.0 -0.005141259021771649 0.0 0.0
-0.046992450227762245 0.04341777852907258 0.0 -0.006056386731923102 0.0 0.0
-0.057995347280424714 0.054118783791941016 0.0 -0.007058818873710293 0.0 0.0
-0.07022896929946426 0.06603799219976292 0.0 -0.008015118444743341 0.0 0.0
-0.08327634884544421 0.07875749769121043 0.0 -0.008568914647315351 0.0 0.0
-0.09624262007472106 0.09136347569630798 0.0 -0.008397086171606505 0.0 0.0
-0.10726352801774378 0.10187400380314093 0.0 -0.009397267510582785 0.0 0.0
-0.11176478876121604 0.10542045393576727 0.0 -0.01882488106802127 0.0 0.0
-0.10052404280406631 0.09338274940314717 0.0 -0.04170253961298703 0.0 0.0
-0.1005240428040586 0.09338274940313473 0.0 0.04170253961300652 0.0 0.0
-0.11176478876119277 0.10542045393574195 0.0 0.018824881068046084 0.0 0.0
-0.10726352801770689 0.10187400380310274 0.0 0.009397267510599827 0.0 0.0
-0.09624262007467309 0.09136347569626269 0.0 0.00839708617161028 0.0 0.0
-0.08327634884539137 0.07875749769116158 0.0 0.008568914647315795 0.0 0.0
-0.0702289692994093 0.06603799219971096 0.0 0.00801511844474298 0.0 0.0
-0.057995347280368634 0.05411878379188595 0.0 0.007058818873707906 0.0 0.0
-0.04699245022770572 0.043417778529018625 0.0 0.006056386731917385 0.0 0.0
-0.037324639077035815 0.03404438406242272 0.0 0.005141259021767486 0.0 0.0
-0.02892941707293898 0.025939997667424386 0.0 0.004285186990548306 0.0 0.0
-0.021707393333560424 0.01900663405625891 0.0 0.0034041958867780386 0.0 0.0
-0.015616466335577516 0.013198929272726145 0.0 0.002535595050225714 0.0 0.0
-0.010674620548850041 0.008533650129796344 0.0 0.001771411763008296 0.0 0.0
-0.006896541624246855 0.005033331192390578 0.0 0.0011763592912421572 0.0 0.0
-0.004216514352125101 0.0026511865593495942 0.0 0.0007790411529835506 0.0 0.0
-0.0025329278911876765 0.0013052833411588693 0.0 0.000623804550992757 0.0 0.0
-0.0016780143456428878 0.0007365620666212047 0.0 0.0006913258412593881 0.0 0.0
-0.00108080558063477 0.00046251087991439066 0.0 0.0007781780017427353 0.0 0.0
-0.0005021193960854861 0.00019809518335628384 0.0 0.0006591560694878817 0.0 0.0
-0.00011213848381383396 3.716224692906778e-05 0.0 0.00020742634906328883 0.0 0.0
-9.173377668944549e-05 4.9189588126441475e-05 0.0 -2.90642097660887e-05 0.0 0.0
-0.0004932481151908308 0.0002176894960356779 0.0 -0.0002683913785521963 0.0 0.0
-0.0011660292031692443 0.0004936535811903564 0.0 -0.00030996405370609104 0.0 0.0
-0.0018754634508958146 0.0008337198144463542 0.0 -0.0002851689738359864 0.0 0.0
-0.002939897533004082 0.0015956222496551487 0.0 -0.0002570247315477614 0.0 0.0
-0.0049227459607636415 0.003251157035401686 0.0 -0.0003157465336828258 0.0 0.0
-0.007918201394143703 0.005976432600378612 0.0 -0.0004818713908376071 0.0 0.0
-0.01208900994493467 0.009875968083339348 0.0 -0.0007239270039289813 0.0 0.0
-0.017542649576724467 0.015049198187362611 0.0 -0.0010549750350463127 0.0 0.0
-0.024295225664413833 0.021504945709521994 0.0 -0.001445634072318347 0.0 0.0
-0.03235548240542169 0.029256473035719877 0.0 -0.0018435804036608383 0.0 0.0
-0.04177277438995283 0.03835676318668613 0.0 -0.002250850132167914 0.0 0.0
-0.05261411167450161 0.04887603651041772 0.0 -0.0026811715497688238 0.0 0.0
-0.0649012589445942 0.06082939379745378 0.0 -0.0031223710781380642 0.0 0.0
-0.07844132441962609 0.07401570326562146 0.0 -0.0035061487662283453 0.0 0.0
-0.09261833045860446 0.0878214145033116 0.0 -0.003602709161511841 0.0 0.0
-0.10630106449625981 0.10113475737102506 0.0 -0.0030285144829771404 0.0 0.0
-0.11786367256489197 0.11232616253529093 0.0 -0.0018119525973957495 0.0 0.0
-0.12459347718310307 0.11846602143866969 0.0 -0.006204924724499183 0.0 0.0
-0.11785483772073461 0.10962943744587728 0.0 -0.03847118607440653 0.0 0.0
-0.11785483772072625 0.10962943744587061 0.0 0.038471186074415076 0.0 0.0
-0.12459347718307691 0.11846602143864482 0.0 0.006204924724509953 0.0 0.0
-0.11786367256484931 0.11232616253524874 0.0 0.0018119525974036321 0.0 0.0
-0.10630106449620516 0.10113475737097266 0.0 0.0030285144829770017 0.0 0.0
-0.09261833045854537 0.08782141450325476 0.0 0.003602709161511314 0.0 0.0
-0.07844132441956533 0.07401570326556062 0.0 0.0035061487662288726 0.0 0.0
-0.06490125894453132 0.06082939379739205 0.0 0.0031223710781365654 0.0 0.0
-0.05261411167443925 0.04887603651035599 0.0 0.0026811715497670197 0.0 0.0
-0.04177277438989308 0.03835676318662462 0.0 0.002250850132168608 0.0 0.0
-0.03235548240536688 0.029256473035666808 0.0 0.0018435804036552872 0.0 0.0
-0.02429522566436798 0.02150494570948247 0.0 0.0014456340723143224 0.0 0.0
-0.017542649576686546 0.015049198187330637 0.0 0.0010549750350446474 0.0 0.0
-0.012089009944906437 0.009875968083313369 0.0 0.0007239270039264278 0.0 0.0
-0.007918201394123844 0.005976432600360293 0.0 0.00048187139083658015 0.0 0.0
-0.004922745960751688 0.003251157035390806 0.0 0.0003157465336810772 0.0 0.0
-0.002939897532998792 0.001595622249651818 0.0 0.0002570247315474006 0.0 0.0
-0.0018754634508942906 0.0008337198144447999 0.0 0.0002851689738355423 0.0 0.0
-0.0011660292031682824 0.0004936535811894682 0.0 0.00030996405370534164 0.0 0.0
-0.0004932481151902887 0.00021768949603512278 0.0 0.0002683913785505032 0.0 0.0
-9.173377668941773e-05 4.9189588126444944e-05 0.0 2.906420976564461e-05 0.0 0.0
SCALARS Statev float 8
LOOKUP_TABLE default
0.0 0.010826525046481388 0.008291865867724306 -0.008675749376392495 0.0003838835086681908 -0.004712131143192346 0.0 0.0
0.0 0.00040584663048271515 0.0002557439844396214 -0.000205529501293169 -5.021448314645244e-05 0.0002703155522941426 0.0 0.0
0.0 3.342380937738801e-05 -4.754075056001044e-06 3.773145031477424e-06 9.809300245235895e-07 5.62033213615258e-07 0.0 0.0
0.0 0.00014485327025974104 7.176816450428e-05 -5.5880537676165384e-05 -1.588762682811472e-05 -9.753203363622935e-06 0.0 0.0
0.0 0.0009319352421627403 0.0006904399409693651 -0.0005579234994804868 -0.00013251644148887847 -7.682330866428792e-05 0.0 0.0
0.0 0.0025549485140552108 0.0023447858210676287 -0.001988369991226164 -0.00035641582984146487 -0.00019240435441633045 0.0 0.0
0.0 0.0056159295949293996 0.005069946155323628 -0.004518230251029837 -0.0005517159042937887 -0.0003574733348035491 0.0 0.0
0.0 0.010111885059517486 0.009011009770913625 -0.008314427878223526 -0.0006965818926900967 -0.0005880869558359206 0.0 0.0
0.0 0.01612812364181019 0.014238253570466337 -0.013427895885229458 -0.0008103576852368753 -0.0009014011561801668 0.0 0.0
0.0 0.02367702126176454 0.020766301673428682 -0.019850487965429486 -0.0009158137079991962 -0.001278449866371965 0.0 0.0
0.0 0.032800676906762846 0.028614888531242562 -0.02759353362201906 -0.0010213549092234948 -0.0016737575556940928 0.0 0.0
0.0 0.04328076513144046 0.03784343149124942 -0.036714414930730785 -0.0011290165605186153 -0.0020849280848192087 0.0 0.0
0.0 0.055499954096078205 0.048516235686080156 -0.04727828514921159 -0.0012379505368685353 -0.0025158443349287667 0.0 0.0
0.0 0.06949543096369304 0.06066743726507261 -0.05931791813914115 -0.0013495191259314367 -0.0029661873872775316 0.0 0.0
0.0 0.08506310173581501 0.07417529388367167 -0.07270961577690993 -0.0014656781067617119 -0.0034369049023837872 0.0 0.0
0.0 0.10173695498899407 0.08860553278635024 -0.08701945868049557 -0.0015860741058546755 -0.0038494092320233765 0.0 0.0
0.0 0.11853625852371813 0.10313721779063392 -0.10143005707140502 -0.0017071607192289317 -0.004023116296167247 0.0 0.0
0.0 0.13408716823031072 0.11659671877214496 -0.11477364177897498 -0.0018230769931699613 -0.003720328673750229 0.0 0.0
0.0 0.14675968446747092 0.12757139409155124 -0.12564376458108534 -0.0019276295104658685 -0.002972379882183974 0.0 0.0
0.0 0.15430690451355134 0.13424784229934236 -0.13219662684674072 -0.002051215452601624 -0.0027140368409669774 0.0 0.0
0.0 0.1543069045135434 0.13424784229933515 -0.13219662684673403 -0.0020512154526010845 0.0027140368409716135 0.0 0.0
0.0 0.14675968446744442 0.1275713940915278 -0.12564376458106283 -0.0019276295104650029 0.0029723798821998807 0.0 0.0
0.0 0.13408716823026445 0.11659671877210451 -0.11477364177893566 -0.0018230769931688227 0.0037203286737564917 0.0 0.0
0.0 0.11853625852365773 0.10313721779058152 -0.10143005707135294 -0.0017071607192285557 0.004023116296172941 0.0 0.0
0.0 0.10173695498892794 0.08860553278629299 -0.08701945868043842 -0.001586074105854576 0.0038494092320163244 0.0 0.0
0.0 0.085063101735746 0.07417529388361212 -0.07270961577684998 -0.0014656781067621417 0.003436904902384309 0.0 0.0
0.0 0.06949543096362544 0.06066743726501398 -0.05931791813908292 -0.0013495191259310477 0.002966187387276425 0.0 0.0
0.0 0.05549995409601144 0.048516235686021966 -0.047278285149154366 -0.001237950536867594 0.002515844334928526 0.0 0.0
0.0 0.04328076513137668 0.03784343149119378 -0.03671441493067616 -0.0011290165605175998 0.0020849280848145237 0.0 0.0
0.0 0.03280067690670653 0.028614888531193212 -0.027593533621970444 -0.001021354909222756 0.0016737575556917395 0.0 0.0
0.0 0.023677021261716905 0.020766301673387198 -0.019850487965388724 -0.0009158137079984722 0.0012784498663668629 0.0 0.0
0.0 0.016128123641773563 0.014238253570433918 -0.01342789588519758 -0.0008103576852363409 0.0009014011561786362 0.0 0.0
0.0 0.010111885059491293 0.009011009770889866 -0.00831442787820056 -0.0006965818926893041 0.0005880869558341937 0.0 0.0
0.0 0.005615929594911652 0.005069946155307238 -0.004518230251014284 -0.0005517159042929525 0.0003574733348025603 0.0 0.0
0.0 0.0025549485140465653 0.0023447858210591875 -0.0019883699912186105 -0.0003564158298405767 0.00019240435441556227 0.0 0.0
0.0 0.0009319352421583702 0.000690439940965941 -0.0005579234994776373 -0.00013251644148830336 7.682330866392917e-05 0.0 0.0
0.0 0.00014485327025874455 7.176816450433273e-05 -5.5880537676200445e-05 -1.588762682813232e-05 9.753203363580563e-06 0.0 0.0
0.0 3.342380937687491e-05 -4.754075055922566e-06 3.7731450314146314e-06 9.80930024507978e-07 -5.620332136057866e-07 0.0 0.0
0.0 0.0004058466304803854 0.0002557439844383397 -0.00020552950129211316 -5.021448314622669e-05 -0.00027031555229249177 0.0 0.0
0.0 0.010826525046464931 0.008291865867713182 -0.008675749376380345 0.0003838835086671616 0.0047121311431678504 0.0 0.0
0.0 0.007800464239472235 0.005600622404141621 -0.006080984702056796 0.00048036229791517215 -0.005309521508605388 0.0 0.0
0.0 9.735811856412316e-08 -9.785169814275069e-09 7.955171207828274e-09 1.8299986064463344e-09 -7.27040002772591e-09 0.0 0.0
0.0 9.430826945183483e-08 -1.020951514236367e-08 7.758883502814768e-09 2.450631639548195e-09 3.6392644398315674e-09 0.0 0.0
0.0 4.127731070561169e-05 8.24267961276956e-06 -6.4420356210996295e-06 -1.8006439916701627e-06 -4.138112026170282e-06 0.0 0.0
0.0 0.0005757901185254146 0.00037771965951218677 -0.0003022189297166071 -7.55007297955796e-05 -0.0001026737215369706 0.0 0.0
0.0 0.0018837717544659908 0.0017312780495760873 -0.00144587002174157 -0.0002854080278345173 -0.00038223052646733886 0.0 0.0
0.0 0.004575953580480275 0.004130881729877864 -0.0036328861075611 -0.0004979956223167625 -0.0008062437812575595 0.0 0.0
0.0 0.008616429989798233 0.007673920758127443 -0.007014691380060807 -0.0006592293780666372 -0.0013811183231429718 0.0 0.0
0.0 0.014037645174173833 0.012390818776488625 -0.011611553788720792 -0.0007792649877678322 -0.0021160717945541132 0.0 0.0
0.0 0.020814430055988625 0.018261422543357084 -0.017378109607069328 -0.0008833129362877572 -0.002967065625049423 0.0 0.0
0.0 0.028934600035818506 0.025277733126759277 -0.024294414053811393 -0.000983319072947867 -0.003852395337735327 0.0 0.0
0.0 0.03849945756283245 0.03349062248964056 -0.032408130517644324 -0.0010824919719962438 -0.00472798196118059 0.0 0.0
0.0 0.049334941576573976 0.04300520419702636 -0.04182259119060973 -0.0011826130064166362 -0.005661267695079733 0.0 0.0
0.0 0.061806426980490096 0.05387892405586468 -0.052593750955061185 -0.0012851731008034716 -0.006683799837818707 0.0 0.0
0.0 0.0757995799039331 0.06601420557179996 -0.06462282520226323 -0.0013913803695367547 -0.00774333859468532 0.0 0.0
0.0 0.0908133712802694 0.07904098229254923 -0.07753998673581118 -0.0015009955567380623 -0.008677272064428589 0.0 0.0
0.0 0.10602928811149216 0.09224054737361428 -0.09062894368472632 -0.0016116036888879394 -0.00910650943395206 0.0 0.0
0.0 0.12023194140249589 0.10455378244155578 -0.10283397774597848 -0.0017198046955772721 -0.00860216565907861 0.0 0.0
0.0 0.13176725459813915 0.11456972138817018 -0.11274031907270926 -0.0018294023154609175 -0.007130751201018217 0.0 0.0
0.0 0.1386309673829964 0.120550530955929 -0.11863994439214492 -0.0019105865637840814 -0.00458775791412646 0.0 0.0
0.0 0.13863096738298752 0.12055053095592116 -0.11863994439213706 -0.0019105865637841282 0.0045877579141423205 0.0 0.0
0.0 0.13176725459811625 0.11456972138814978 -0.11274031907268917 -0.001829402315460652 0.007130751201046188 0.0 0.0
0.0 0.12023194140245216 0.10455378244151763 -0.10283397774594029 -0.0017198046955773144 0.008602165659096217 0.0 0.0
0.0 0.1060292881114403 0.09224054737356899 -0.09062894368468145 -0.0016116036888874424 0.009106509433961872 0.0 0.0
0.0 0.09081337128021541 0.07904098229250205 -0.07753998673576543 -0.00150099555673659 0.00867727206442182 0.0 0.0
0.0 0.07579957990387473 0.06601420557174877 -0.06462282520221345 -0.0013913803695353158 0.00774333859468424 0.0 0.0
0.0 0.06180642698042983 0.05387892405581234 -0.05259375095500938 -0.0012851731008029408 0.006683799837816792 0.0 0.0
0.0 0.04933494157651369 0.04300520419697404 -0.0418225911905577 -0.0011826130064163235 0.005661267695077856 0.0 0.0
0.0 0.03849945756277566 0.03349062248959109 -0.032408130517595446 -0.0010824919719956208 0.004727981961173614 0.0 0.0
0.0 0.02893460003576657 0.025277733126714098 -0.02429441405376668 -0.0009833190729474112 0.003852395337728853 0.0 0.0
0.0 0.02081443005594477 0.01826142254331878 -0.017378109607031428 -0.0008833129362873508 0.0029670656250404643 0.0 0.0
0.0 0.014037645174140708 0.012390818776459046 -0.01161155378869181 -0.00077926498776723 0.002116071794549869 0.0 0.0
0.0 0.008616429989774044 0.007673920758105689 -0.007014691380039907 -0.0006592293780657829 0.0013811183231389093 0.0 0.0
0.0 0.004575953580463415 0.004130881729862332 -0.003632886107546484 -0.0004979956223158479 0.0008062437812546373 0.0 0.0
0.0 0.0018837717544568206 0.0017312780495677856 -0.0014458700217342847 -0.0002854080278335002 0.000382230526465468 0.0 0.0
0.0 0.0005757901185214632 0.00037771965950947085 -0.0003022189297143741 -7.55007297950968e-05 0.00010267372153620087 0.0 0.0
0.0 4.127731070485664e-05 8.24267961272264e-06 -6.442035621058368e-06 -1.800643991664134e-06 4.138112026134756e-06 0.0 0.0
0.0 9.430826938068039e-08 -1.0209515134588993e-08 7.758883496907494e-09 2.4506316376819497e-09 -3.6392644370560787e-09 0.0 0.0
0.0 9.735811846572097e-08 -9.78516980428818e-09 7.9551711997036e-09 1.8299986045861706e-09 7.270400020323914e-09 0.0 0.0
0.0 0.0078004642394536965 0.005600622404129307 -0.006080984702043681 0.0004803622979143755 0.005309521508584418 0.0 0.0
0.0 0.005774961389287042 0.003912890129771234 -0.004400338921837473 0.00048744879206623896 -0.004569068505698438 0.0 0.0
0.0 0.0 0.0 0.0 0.0 0.0 0.0 0.0
0.0 0.0 0.0 0.0 0.0 0.0 0.0 0.0
0.0 5.464702721580154e-06 2.0810195535416604e-06 -1.6175405499929447e-06 -4.634790035487359e-07 -1.4822119265470827e-06 0.0 0.0
0.0 0.00026709278158854483 0.0001697112337090786 -0.00013451368906000684 -3.5197544649071674e-05 -8.351535648845551e-05 0.0 0.0
0.0 0.0014302402914621198 0.0011456189371973542 -0.0009426336333092112 -0.00020298530388814187 -0.0004408813508281697 0.0 0.0
0.0 0.0035769556172929153 0.0032124131116103623 -0.0027799634249513257 -0.0004324496866590375 -0.0010714193192227035 0.0 0.0
0.0 0.007141231593028792 0.006337604681175274 -0.005726565416488835 -0.0006110392646864371 -0.0019371367375196876 0.0 0.0
0.0 0.011976805972047167 0.010526905873992406 -0.009785568649439294 -0.0007413372245531109 -0.0030121427979532857 0.0 0.0
0.0 0.01799938477408667 0.015732019161924793 -0.014886366175598189 -0.0008456529863265992 -0.004235800061757536 0.0 0.0
0.0 0.025194143212939602 0.021920506823422187 -0.020980081711077597 -0.0009404251123445856 -0.0055085460880624345 0.0 0.0
0.0 0.03351793741869896 0.02913464545385007 -0.028102605056370956 -0.0010320403974791053 -0.0067685154136528005 0.0 0.0
0.0 0.0432626320939925 0.03748052910688987 -0.03635706292197291 -0.0011234661849169744 -0.008074594084929717 0.0 0.0
0.0 0.054204237744709546 0.04705435535513439 -0.04583752482413562 -0.0012168305309987616 -0.009527361524443782 0.0 0.0
0.0 0.06655315073255454 0.05779706767017263 -0.056484306063073246 -0.0013127616070993625 -0.011071932869752511 0.0 0.0
0.0 0.0799512336042513 0.0694084185926005 -0.06799711727535589 -0.0014113013172445828 -0.012426533016122652 0.0 0.0
0.0 0.09361942981452298 0.0812854044779771 -0.07977399310058231 -0.001511411377394751 -0.013109620350621763 0.0 0.0
0.0 0.1064422895594594 0.0924739018326838 -0.0908597229102647 -0.001614178922419037 -0.012571219362062907 0.0 0.0
0.0 0.11690323000693888 0.10163697008560582 -0.09992518760688497 -0.001711782478720766 -0.010370941843895753 0.0 0.0
0.0 0.12327873641886039 0.10726757934246779 -0.10548775715509918 -0.001779822187368539 -0.005984939247613307 0.0 0.0
0.0 0.1232787364188505 0.10726757934245891 -0.10548775715509016 -0.0017798221873686962 0.005984939247638554 0.0 0.0
0.0 0.11690323000691538 0.1016369700855845 -0.09992518760686374 -0.0017117824787207562 0.010370941843931905 0.0 0.0
0.0 0.10644228955942658 0.09247390183265403 -0.0908597229102358 -0.0016141789224181603 0.012571219362089037 0.0 0.0
0.0 0.09361942981448143 0.08128540447793997 -0.0797739931005465 -0.0015114113773934958 0.013109620350634243 0.0 0.0
0.0 0.07995123360420009 0.06940841859255623 -0.06799711727531216 -0.001411301317244062 0.012426533016114901 0.0 0.0
0.0 0.06655315073250317 0.057797067670127704 -0.056484306063029274 -0.0013127616070984398 0.011071932869749905 0.0 0.0
0.0 0.05420423774465939 0.047054355355090456 -0.045837524824092646 -0.0012168305309978027 0.009527361524441662 0.0 0.0
0.0 0.043262632093940295 0.037480529106844226 -0.036357062921928 -0.001123466184916232 0.00807459408492571 0.0 0.0
0.0 0.03351793741865139 0.029134645453808766 -0.028102605056330585 -0.0010320403974781766 0.006768515413642696 0.0 0.0
0.0 0.025194143212894947 0.021920506823382986 -0.02098008171103897 -0.0009404251123440151 0.005508546088053771 0.0 0.0
0.0 0.017999384774048825 0.01573201916189156 -0.014886366175565591 -0.0008456529863259653 0.004235800061746202 0.0 0.0
0.0 0.011976805972018173 0.010526905873966765 -0.009785568649414314 -0.0007413372245524475 0.0030121427979464986 0.0 0.0
0.0 0.007141231593006704 0.0063376046811555115 -0.005726565416469876 -0.000611039264685637 0.0019371367375136178 0.0 0.0
0.0 0.0035769556172792014 0.003212413111597866 -0.002779963424939794 -0.00043244968665807145 0.001071419319218615 0.0 0.0
0.0 0.0014302402914549395 0.0011456189371914975 -0.0009426336333042285 -0.00020298530388726792 0.00044088135082588967 0.0 0.0
0.0 0.00026709278158606407 0.0001697112337075523 -0.00013451368905877494 -3.5197544648777205e-05 8.351535648767157e-05 0.0 0.0
0.0 5.4647027212622765e-06 2.081019553785432e-06 -1.6175405501815762e-06 -4.6347900360387557e-07 1.4822119267074187e-06 0.0 0.0
0.0 0.0 0.0 0.0 0.0 0.0 0.0 0.0
0.0 0.0 0.0 0.0 0.0 0.0 0.0 0.0
0.0 0.005774961389271123 0.0039128901297603 -0.004400338921825737 0.0004874487920654376 0.0045690685056809085 0.0 0.0
0.0 0.004217668189089291 0.0027282111562289 -0.003169326541267131 0.0004411153850382299 -0.0035179746663647907 0.0 0.0
0.0 0.0 0.0 0.0 0.0 0.0 0.0 0.0
0.0 0.0 0.0 0.0 0.0 0.0 0.0 0.0
0.0 1.7764958665315978e-06 -1.7819784007305854e-07 1.3787375697884427e-07 4.03240830942293e-08 1.8782013220909485e-07 0.0 0.0
0.0 0.00010000171936325742 5.5759822825467334e-05 -4.399248561899867e-05 -1.1767337206468551e-05 -4.476958614517967e-05 0.0 0.0
0.0 0.0009034086645235704 0.0006777452084038518 -0.0005497004282469517 -0.00012804478015690025 -0.00039880849338005633 0.0 0.0
0.0 0.002679252952621833 0.0023274871467289693 -0.0019782994735391673 -0.0003491876731898026 -0.0011529737392675934 0.0 0.0
0.0 0.005707635782795053 0.0050179742149247305 -0.0044678993938318656 -0.0005500748210928656 -0.002247934358336671 0.0 0.0
0.0 0.009937645906089948 0.0086644917936938 -0.007971116425516997 -0.0006933753681767998 -0.003581961524676982 0.0 0.0
0.0 0.015200242024423992 0.01319743327435372 -0.012396547152410342 -0.0008008861219433721 -0.005085461607060732 0.0 0.0
0.0 0.021452593655977816 0.01856132506577808 -0.017669208531438278 -0.000892116534339797 -0.006638431338875986 0.0 0.0
0.0 0.02870363232502866 0.024782387375661644 -0.023805284050482593 -0.0009771033251790456 -0.008179912494243605 0.0 0.0
0.0 0.037054126822824086 0.031968487036436656 -0.030908546583459012 -0.0010599404529776416 -0.009786186668824812 0.0 0.0
0.0 0.046673139084907875 0.04022872618120165 -0.0390844299990941 -0.0011442961821075419 -0.011527251466127183 0.0 0.0
0.0 0.05750938494053231 0.04955350096687242 -0.04832363097088149 -0.0012298699959909132 -0.0133741924021447 0.0 0.0
0.0 0.06908901908850587 0.05972965691109303 -0.058412767288461176 -0.0013168896226318494 -0.015063421592679076 0.0 0.0
0.0 0.08121560227949311 0.07026641244555762 -0.06885948513944926 -0.0014069273061083677 -0.016019492838968946 0.0 0.0
0.0 0.09272591417790155 0.08034095802290968 -0.07884115906956583 -0.0014997989533438707 -0.015523862434230682 0.0 0.0
0.0 0.10226003523802571 0.08877572058144688 -0.08718833194974449 -0.0015873886317023915 -0.01281413969718395 0.0 0.0
0.0 0.10832200963970201 0.09422904035697255 -0.09257980464968685 -0.0016492357072856942 -0.00712338127794596 0.0 0.0
0.0 0.10832200963969477 0.09422904035696578 -0.09257980464968005 -0.0016492357072857456 0.007123381277977554 0.0 0.0
0.0 0.10226003523800672 0.08877572058142891 -0.08718833194972647 -0.001587388631702423 0.012814139697227235 0.0 0.0
0.0 0.09272591417786855 0.08034095802287988 -0.07884115906953545 -0.0014997989533444113 0.015523862434260044 0.0 0.0
0.0 0.08121560227945464 0.07026641244552352 -0.06885948513941498 -0.0014069273061085455 0.016019492838982845 0.0 0.0
0.0 0.06908901908846268 0.059729656911055674 -0.05841276728842416 -0.0013168896226315205 0.015063421592673518 0.0 0.0
0.0 0.057509384940483195 0.04955350096683025 -0.04832363097083913 -0.0012298699959910882 0.013374192402137799 0.0 0.0
0.0 0.0466731390848598 0.040228726181160024 -0.039084429999052386 -0.001144296182107637 0.011527251466122514 0.0 0.0
0.0 0.03705412682277842 0.03196848703639689 -0.03090854658341951 -0.0010599404529773812 0.009786186668819113 0.0 0.0
0.0 0.02870363232498703 0.02478238737562523 -0.023805284050446896 -0.000977103325178325 0.008179912494232888 0.0 0.0
0.0 0.021452593655939836 0.018561325065744698 -0.017669208531405696 -0.0008921165343390144 0.006638431338864985 0.0 0.0
0.0 0.015200242024390968 0.013197433274325184 -0.012396547152382496 -0.0008008861219426789 0.005085461607046841 0.0 0.0
0.0 0.009937645906063348 0.008664491793670435 -0.007971116425494317 -0.000693375368176116 0.0035819615246683806 0.0 0.0
0.0 0.00570763578277483 0.0050179742149069236 -0.004467899393814864 -0.0005500748210920576 0.0022479343583288285 0.0 0.0
0.0 0.0026792529526103474 0.0023274871467189517 -0.001978299473530178 -0.0003491876731887728 0.001152973739263217 0.0 0.0
0.0 0.000903408664517128 0.0006777452083992798 -0.0005497004282431238 -0.0001280447801561561 0.00039880849337726765 0.0 0.0
0.0 0.0001000017193618669 5.575982282516767e-05 -4.3992485618743394e-05 -1.1767337206424346e-05 4.47695861448801e-05 0.0 0.0
0.0 1.7764958662467406e-06 -1.7819784004332652e-07 1.3787375695581053e-07 4.032408308752122e-08 -1.8782013217738892e-07 0.0 0.0
0.0 0.0 0.0 0.0 0.0 0.0 0.0 0.0
0.0 0.0 0.0 0.0 0.0 0.0 0.0 0.0
0.0 0.004217668189075322 0.002728211156219716 -0.003169326541257114 0.00044111538503739645 0.003517974666351088 0.0 0.0
0.0 0.002964100386659249 0.001837944695765662 -0.002202427765625123 0.00036448306985946134 -0.002511303678198266 0.0 0.0
0.0 0.0 0.0 0.0 0.0 0.0 0.0 0.0
0.0 0.0 0.0 0.0 0.0 0.0 0.0 0.0
0.0 6.929946244958124e-08 -5.867089801559984e-09 4.478351496008589e-09 1.388738305550426e-09 8.798859195521545e-09 0.0 0.0
0.0 3.3496606917267825e-05 1.3779161545888069e-05 -1.0941787739306982e-05 -2.837373806581106e-06 -1.735304323591783e-05 0.0 0.0
0.0 0.0004841370839750599 0.00033896242762809504 -0.00027188225589664706 -6.708017173144803e-05 -0.00030175003973921625 0.0 0.0
0.0 0.0019439195727111354 0.0015183849848271437 -0.0012653643286105105 -0.0002530206562166337 -0.0010544196677189672 0.0 0.0
0.0 0.00437450995025947 0.0037253805934762503 -0.0032550431521385335 -0.0004703374413377158 -0.002273316266307649 0.0 0.0
0.0 0.007935209182855979 0.00682226800657843 -0.006190663960396329 -0.0006316040461820981 -0.0038153928655819775 0.0 0.0
0.0 0.012442536451216672 0.01067572134172577 -0.009929229670879508 -0.0007464916708462604 -0.005505969211078236 0.0 0.0
0.0 0.017770954486072202 0.015217238227332475 -0.014380443603526668 -0.000836794623805805 -0.007245003018215099 0.0 0.0
0.0 0.023895312575519478 0.020453968999831134 -0.01953792100904544 -0.0009160479907856943 -0.00896387525294663 0.0 0.0
0.0 0.031000557428037118 0.02648455469922401 -0.02549306931614554 -0.0009914853830784679 -0.010738758384758651 0.0 0.0
0.0 0.0390318910287321 0.03343334785792042 -0.03236708941065875 -0.0010662584472616668 -0.012677049817233246 0.0 0.0
0.0 0.04824544969065127 0.041328866912284504 -0.04018721011710821 -0.001141656795176259 -0.014712631803705425 0.0 0.0
0.0 0.058449425946699204 0.05003293452112618 -0.04881469713352449 -0.0012182373876016678 -0.01656724603872522 0.0 0.0
0.0 0.06884414374687796 0.059186797467789036 -0.057890609380934946 -0.0012961880868540784 -0.01774610634888547 0.0 0.0
0.0 0.0789784785197121 0.06814390468682364 -0.06676660382817257 -0.0013773008586510675 -0.01742198468514513 0.0 0.0
0.0 0.08768597999328924 0.07592452114071102 -0.0744686842030941 -0.0014558369376168993 -0.014529290718392297 0.0 0.0
0.0 0.09357136859820969 0.08131440969178678 -0.07979943315981029 -0.001514976531976456 -0.008065960109023471 0.0 0.0
0.0 0.09357136859820353 0.08131440969178066 -0.07979943315980402 -0.001514976531976568 0.00806596010905624 0.0 0.0
0.0 0.08768597999327345 0.07592452114069512 -0.07446868420307837 -0.00145583693761672 0.014529290718436231 0.0 0.0
0.0 0.0789784785196859 0.06814390468679868 -0.06676660382814788 -0.0013773008586507865 0.017421984685177493 0.0 0.0
0.0 0.06884414374684741 0.05918679746776096 -0.05789060938090769 -0.0012961880868532863 0.017746106348900156 0.0 0.0
0.0 0.058449425946663164 0.050032934521094606 -0.048814697133493776 -0.0012182373876008289 0.01656724603872023 0.0 0.0
0.0 0.04824544969061367 0.04132886691225162 -0.040187210117076336 -0.0011416567951752891 0.014712631803698455 0.0 0.0
0.0 0.039031891028694275 0.033433347857887194 -0.032367089410626326 -0.0010662584472608584 0.01267704981722872 0.0 0.0
0.0 0.031000557428001382 0.026484554699192375 -0.025493069316114798 -0.0009914853830775604 0.010738758384752741 0.0 0.0
0.0 0.023895312575484527 0.02045396899980068 -0.0195379210090157 -0.0009160479907849639 0.00896387525293533 0.0 0.0
0.0 0.017770954486039957 0.015217238227304636 -0.014380443603499507 -0.000836794623805133 0.007245003018201924 0.0 0.0
0.0 0.01244253645118841 0.01067572134170207 -0.009929229670856533 -0.0007464916708455359 0.005505969211062313 0.0 0.0
0.0 0.007935209182834295 0.006822268006559632 -0.006190663960378258 -0.0006316040461813714 0.0038153928655723984 0.0 0.0
0.0 0.004374509950243689 0.0037253805934628174 -0.0032550431521262127 -0.0004703374413366036 0.002273316266299802 0.0 0.0
0.0 0.0019439195727014476 0.0015183849848193786 -0.0012653643286037988 -0.0002530206562155802 0.0010544196677141867 0.0 0.0
0.0 0.00048413708397147354 0.0003389624276259075 -0.00027188225589487537 -6.708017173103219e-05 0.0003017500397372479 0.0 0.0
0.0 3.3496606916725385e-05 1.3779161546125265e-05 -1.0941787739483484e-05 -2.8373738066417077e-06 1.7353043236139297e-05 0.0 0.0
0.0 6.92994622914334e-08 -5.86708978807203e-09 4.478351485713519e-09 1.3887383023585593e-09 -8.798859175293273e-09 0.0 0.0
0.0 0.0 0.0 0.0 0.0 0.0 0.0 0.0
0.0 0.0 0.0 0.0 0.0 0.0 0.0 0.0
0.0 0.00296410038664758 0.0018379446957582854 -0.0022024277656168957 0.0003644830698586097 0.002511303678187379 0.0 0.0
0.0 0.00193451152829639 0.001159676170820243 -0.001432550956241091 0.00027287478542084765 -0.0016606510225613627 0.0 0.0
0.0 0.0 0.0 0.0 0.0 0.0 0.0 0.0
0.0 0.0 0.0 0.0 0.0 0.0 0.0 0.0
0.0 7.616774122468806e-07 -5.549138125016537e-08 4.2107338484635224e-08 1.338404276552882e-08 1.233693222903045e-07 0.0 0.0
0.0 1.2854649161088876e-05 7.514821025509839e-07 -5.980662979182572e-07 -1.534158046327264e-07 -1.1954932709637397e-06 0.0 0.0
0.0 0.0002080575249572437 0.0001421854788064641 -0.00011341580345008099 -2.876967535638297e-05 -0.00019502772909499397 0.0 0.0
0.0 0.0011663359735711275 0.0008727780038982917 -0.0007137239562857283 -0.0001590540476125629 -0.0008712432505118564 0.0 0.0
0.0 0.0031303378781831113 0.0025119993513855526 -0.0021461512896422167 -0.00036584806174333657 -0.002062376904204785 0.0 0.0
0.0 0.006031166424711123 0.005015377535938475 -0.004466236897270021 -0.000549140638668454 -0.0036713845975045517 0.0 0.0
0.0 0.009739754313201671 0.0081879487991345 -0.007510491613096129 -0.0006774571860383708 -0.005481655541675169 0.0 0.0
0.0 0.014124449060563678 0.011908040701684488 -0.011137566031233451 -0.0007704746704510362 -0.007306979889208327 0.0 0.0
0.0 0.019161073568315486 0.01616910655902523 -0.015322232714517131 -0.0008468738445081061 -0.009105393692693567 0.0 0.0
0.0 0.02492704814963529 0.02105638049372271 -0.020140501774776196 -0.000915878718946522 -0.010951715919961266 0.0 0.0
0.0 0.03157231715056683 0.026693460105678378 -0.025711525985787295 -0.0009819341198910683 -0.012932140527815775 0.0 0.0
0.0 0.03920524807213748 0.03315145467314104 -0.03210398517210315 -0.0010474695010379053 -0.015026003680822325 0.0 0.0
0.0 0.04746621053429404 0.04036253879813725 -0.039249366079617355 -0.0011131727185199106 -0.01697729998235341 0.0 0.0
0.0 0.056460803328224334 0.04807503746266151 -0.046896197143992284 -0.0011788403186692013 -0.01827699851711662 0.0 0.0
0.0 0.06533748472513197 0.055863042858992545 -0.05461694427160058 -0.0012460985873919512 -0.018171844608276016 0.0 0.0
0.0 0.07307855098745836 0.06300539940922406 -0.06169051039098082 -0.0013148890182432058 -0.015473268174059562 0.0 0.0
0.0 0.07887432014851285 0.06841158606044559 -0.06703802217654356 -0.001373563883902048 -0.00882241191238073 0.0 0.0
0.0 0.07887432014850636 0.06841158606043897 -0.0670380221765369 -0.0013735638839021103 0.00882241191241266 0.0 0.0
0.0 0.07307855098744631 0.06300539940921068 -0.06169051039096789 -0.0013148890182428138 0.01547326817410259 0.0 0.0
0.0 0.06533748472511548 0.05586304285897509 -0.0546169442715839 -0.0012460985873912094 0.01817184460830934 0.0 0.0
0.0 0.056460803328201394 0.048075037462639844 -0.0468961971439713 -0.001178840318668515 0.01827699851713087 0.0 0.0
0.0 0.04746621053426327 0.04036253879811075 -0.03924936607959122 -0.001113172718519502 0.016977299982347104 0.0 0.0
0.0 0.03920524807210401 0.0331514546731123 -0.03210398517207452 -0.0010474695010377598 0.015026003680813797 0.0 0.0
0.0 0.03157231715053679 0.026693460105652055 -0.02571152598576131 -0.0009819341198907467 0.012932140527810141 0.0 0.0
0.0 0.0249270481496066 0.021056380493697464 -0.0201405017747518 -0.0009158787189456673 0.010951715919955321 0.0 0.0
0.0 0.019161073568283067 0.016169106558997698 -0.015322232714490038 -0.0008468738445076557 0.009105393692680739 0.0 0.0
0.0 0.014124449060535683 0.011908040701660853 -0.011137566031210357 -0.0007704746704504938 0.007306979889194683 0.0 0.0
0.0 0.009739754313178181 0.008187948799115018 -0.007510491613077475 -0.0006774571860375417 0.005481655541659221 0.0 0.0
0.0 0.006031166424693002 0.0050153775359230894 -0.004466236897255449 -0.0005491406386676397 0.0036713845974942257 0.0 0.0
0.0 0.003130337878170621 0.0025119993513753646 -0.0021461512896330396 -0.00036584806174232447 0.0020623769041970986 0.0 0.0
0.0 0.0011663359735635663 0.0008727780038925929 -0.0007137239562809242 -0.00015905404761166846 0.0008712432505070286 0.0 0.0
0.0 0.00020805752495450805 0.00014218547880512702 -0.00011341580344899684 -2.8769675356130217e-05 0.00019502772909313926 0.0 0.0
0.0 1.2854649160716034e-05 7.514821027515142e-07 -5.980662980757512e-07 -1.5341580467575344e-07 1.1954932713206306e-06 0.0 0.0
0.0 7.616774120036076e-07 -5.54913812317514e-08 4.210733847065235e-08 1.3384042761090036e-08 -1.2336932224923908e-07 0.0 0.0
0.0 0.0 0.0 0.0 0.0 0.0 0.0 0.0
0.0 0.0 0.0 0.0 0.0 0.0 0.0 0.0
0.0 0.0019345115282877062 0.0011596761708150207 -0.0014325509562350446 0.00027287478542002415 0.0016606510225536677 0.0 0.0
0.0 0.0011512238260023289 0.000650261737224927 -0.0008273774435414523 0.00017711570631652544 -0.000977670411236514 0.0 0.0
0.0 0.0 0.0 0.0 0.0 0.0 0.0 0.0
0.0 0.0 0.0 0.0 0.0 0.0 0.0 0.0
0.0 6.928205378478581e-07 -3.733951306313336e-08 2.7903524939343766e-08 9.435988123798777e-09 1.2742599449485983e-07 0.0 0.0
0.0 5.970366396623322e-06 1.270635852403809e-06 -1.0139911706724816e-06 -2.566446817313312e-07 -3.4309980633683985e-06 0.0 0.0
0.0 0.00010593812975182963 4.472541285756685e-05 -3.565169660985454e-05 -9.07371624771235e-06 -9.269711676794432e-05 0.0 0.0
0.0 0.0006030131204731458 0.00040148823424084214 -0.0003233958123961154 -7.80924218447268e-05 -0.0006036426085606399 0.0 0.0
0.0 0.001967125086807827 0.001460901347280137 -0.0012168246775364395 -0.00024407666974369724 -0.0016732731535584959 0.0 0.0
0.0 0.004205535862173138 0.00329773922565896 -0.0028636045296535385 -0.0004341346960054213 -0.0031775468688738547 0.0 0.0
0.0 0.007110486848602266 0.00575755607615272 -0.005174224184031264 -0.0005833318921214544 -0.0049651918832059275 0.0 0.0
0.0 0.010554701415756491 0.008656080925944925 -0.0079705968522879 -0.0006854840736570244 -0.0068062512775468225 0.0 0.0
0.0 0.014489654341349457 0.011952048918995761 -0.011188241853952927 -0.0007638070650428353 -0.008589117137783769 0.0 0.0
0.0 0.018994057643978733 0.015709838358929057 -0.014880811052877762 -0.0008290273060512883 -0.010390786726592645 0.0 0.0
0.0 0.02413591345858286 0.020048939293052445 -0.01916087700582168 -0.0008880622872307554 -0.012306505215882113 0.0 0.0
0.0 0.03009329567697266 0.025062433873986323 -0.024118984251312606 -0.0009434496226737062 -0.014320357411085682 0.0 0.0
0.0 0.03678804424110811 0.03075099234221703 -0.02975120404520644 -0.0009997882970105756 -0.016215017340674556 0.0 0.0
0.0 0.04394303551489814 0.03697132198708024 -0.035917946079401436 -0.001053375907678817 -0.017578913865225004 0.0 0.0
0.0 0.05134119420166475 0.043501020739742505 -0.042396540327040697 -0.0011044804127018138 -0.017756572627468353 0.0 0.0
0.0 0.05849966324935412 0.049937447040648175 -0.048776773199905095 -0.0011606738407430662 -0.01558413180831138 0.0 0.0
0.0 0.06432241856350923 0.05539927119440757 -0.054178694190977206 -0.0012205770034303602 -0.009370183501310757 0.0 0.0
0.0 0.06432241856350224 0.05539927119440077 -0.05417869419096971 -0.0012205770034310352 0.00937018350134062 0.0 0.0
0.0 0.0584996632493405 0.04993744704063357 -0.04877677319988966 -0.001160673840743906 0.015584131808352584 0.0 0.0
0.0 0.05134119420164775 0.04350102073972441 -0.0423965403270227 -0.001104480412701688 0.017756572627499252 0.0 0.0
0.0 0.04394303551487863 0.03697132198706132 -0.0359179460793831 -0.0010533759076782364 0.017578913865236558 0.0 0.0
0.0 0.03678804424108388 0.030750992342196217 -0.029751204045186035 -0.0009997882970101725 0.016215017340667295 0.0 0.0
0.0 0.030093295676947636 0.025062433873964833 -0.02411898425129186 -0.0009434496226729692 0.014320357411076918 0.0 0.0
0.0 0.024135913458558048 0.02004893929303099 -0.019160877005800554 -0.0008880622872304367 0.012306505215875316 0.0 0.0
0.0 0.018994057643957025 0.015709838358910242 -0.014880811052859206 -0.0008290273060510371 0.010390786726586585 0.0 0.0
0.0 0.014489654341325722 0.011952048918975854 -0.011188241853933347 -0.0007638070650425007 0.008589117137772133 0.0 0.0
0.0 0.010554701415734759 0.008656080925927134 -0.007970596852270664 -0.0006854840736564671 0.006806251277533313 0.0 0.0
0.0 0.0071104868485821655 0.005757556076136907 -0.005174224184016199 -0.0005833318921207089 0.00496519188319015 0.0 0.0
0.0 0.004205535862157972 0.003297739225647012 -0.0028636045296424537 -0.0004341346960045577 0.003177546868863909 0.0 0.0
0.0 0.001967125086799181 0.0014609013472737383 -0.0012168246775308834 -0.00024407666974285511 0.0016732731535520878 0.0 0.0
0.0 0.0006030131204689048 0.0004014882342381356 -0.0003233958123938866 -7.809242184424866e-05 0.000603642608557165 0.0 0.0
0.0 0.00010593812975022058 4.4725412857168133e-05 -3.565169660952792e-05 -9.073716247640134e-06 9.269711676707117e-05 0.0 0.0
0.0 5.970366396418507e-06 1.2706358526030798e-06 -1.013991170829736e-06 -2.5664468177334943e-07 3.4309980639190868e-06 0.0 0.0
0.0 6.928205376352142e-07 -3.733951305122376e-08 2.7903524930424694e-08 9.435988120799248e-09 -1.2742599445425477e-07 0.0 0.0
0.0 0.0 0.0 0.0 0.0 0.0 0.0 0.0
0.0 0.0 0.0 0.0 0.0 0.0 0.0 0.0
0.0 0.001151223825995755 0.000650261737221358 -0.0008273774435371719 0.00017711570631581355 0.0009776704112310765 0.0 0.0
0.0 0.0005783362927803927 0.00029406297423803426 -0.00038739468538187235 9.333171114383818e-05 -0.0004627057023277577 0.0 0.0
0.0 1.266647607192392e-07 -7.072771973675951e-10 8.507483974345466e-10 -1.4347120006705642e-10 2.5171596720899338e-08 0.0 0.0
0.0 0.0 0.0 0.0 0.0 0.0 0.0 0.0
0.0 8.694762653476193e-07 -2.987712020632065e-08 2.159330647060148e-08 8.283813735721381e-09 1.7349073420562356e-07 0.0 0.0
0.0 4.648335824302415e-06 5.117197169835526e-07 -4.0609731470385136e-07 -1.056224022797146e-07 -2.1164127412706877e-06 0.0 0.0
0.0 6.216085423826998e-05 1.9393969256491937e-05 -1.5331694052513743e-05 -4.062275203978189e-06 -6.147314445310421e-05 0.0 0.0
0.0 0.00028271074557297893 0.0001400257912541181 -0.0001118247081774577 -2.8201083076660426e-05 -0.0003475558290003588 0.0 0.0
0.0 0.0010189029972727374 0.0006442791724227491 -0.000522787077205131 -0.00012149209521761784 -0.0011393081618002272 0.0 0.0
0.0 0.002530112186235849 0.00176507906324099 -0.0014837386892675734 -0.00028134037397341554 -0.0024070068812420877 0.0 0.0
0.0 0.0045389033175633085 0.0034488649538989163 -0.003005704669913457 -0.0004431602839854587 -0.003987027327135176 0.0 0.0
0.0 0.007126637776346718 0.005499336919112499 -0.004936017030778808 -0.0005633198883336919 -0.005681943088111129 0.0 0.0
0.0 0.00993377633536557 0.007836961481003985 -0.007185962143471616 -0.0006509993375323686 -0.007359137695177151 0.0 0.0
0.0 0.013141566845133398 0.01048523110583388 -0.00976593987239259 -0.0007192912334412903 -0.009034673645705123 0.0 0.0
0.0 0.01685831379466863 0.01354183342268565 -0.01276651305750243 -0.0007753203651832167 -0.010766547061186215 0.0 0.0
0.0 0.021224276154255026 0.017112542865994146 -0.01628839357999877 -0.0008241492859953784 -0.012571974189415908 0.0 0.0
0.0 0.02616042492329289 0.021255015159144502 -0.020385197457876387 -0.0008698177012681099 -0.01430507978537215 0.0 0.0
0.0 0.03166955201656545 0.025930266533000998 -0.025015124987271688 -0.0009151415457293114 -0.015591917457044331 0.0 0.0
0.0 0.03744590152255073 0.031079303427768854 -0.030128098999016945 -0.0009512044287518988 -0.016003793331528675 0.0 0.0
0.0 0.043483543736145824 0.03665349875397035 -0.03566743128819384 -0.000986067465776499 -0.014700195220240466 0.0 0.0
0.0 0.049212419795709776 0.04215026817315116 -0.04110455885291525 -0.0010457093202359132 -0.009657613586088722 0.0 0.0
0.0 0.049212419795709686 0.04215026817314942 -0.04110455885291409 -0.0010457093202353158 0.009657613586113679 0.0 0.0
0.0 0.04348354373614161 0.0366534987539629 -0.03566743128818685 -0.0009860674657760481 0.014700195220277181 0.0 0.0
0.0 0.03744590152254217 0.031079303427757776 -0.030128098999006234 -0.0009512044287515352 0.016003793331556007 0.0 0.0
0.0 0.031669552016553276 0.025930266532988612 -0.025015124987260065 -0.0009151415457285477 0.015591917457053558 0.0 0.0
0.0 0.02616042492327241 0.02125501515912749 -0.020385197457859577 -0.0008698177012678946 0.01430507978536424 0.0 0.0
0.0 0.02122427615423397 0.01711254286597677 -0.016288393579981627 -0.0008241492859951455 0.012571974189406556 0.0 0.0
0.0 0.01685831379465167 0.013541833422671446 -0.01276651305748851 -0.00077532036518294 0.010766547061179702 0.0 0.0
0.0 0.013141566845118602 0.010485231105821065 -0.009765939872380138 -0.0007192912334409234 0.009034673645700585 0.0 0.0
0.0 0.009933776335350305 0.007836961480991562 -0.007185962143459781 -0.0006509993375317795 0.0073591376951678365 0.0 0.0
0.0 0.007126637776330835 0.005499336919100078 -0.004936017030767011 -0.0005633198883330644 0.0056819430880992 0.0 0.0
0.0 0.004538903317547577 0.003448864953887348 -0.0030057046699027276 -0.00044316028398462055 0.003987027327121527 0.0 0.0
0.0 0.002530112186225819 0.0017650790632336261 -0.0014837386892610506 -0.0002813403739725755 0.0024070068812338478 0.0 0.0
0.0 0.001018902997266748 0.0006442791724186232 -0.0005227870772016953 -0.00012149209521692787 0.0011393081617946596 0.0 0.0
0.0 0.0002827107455708489 0.00014002579125334274 -0.00011182470817682377 -2.8201083076519036e-05 0.00034755582899858423 0.0 0.0
0.0 6.216085423737524e-05 1.939396925653958e-05 -1.5331694052555312e-05 -4.062275203984248e-06 6.14731444532166e-05 0.0 0.0
0.0 4.64833582412332e-06 5.117197171278776e-07 -4.0609731481823506e-07 -1.0562240230963561e-07 2.116412741898436e-06 0.0 0.0
0.0 8.694762648168817e-07 -2.987712019000699e-08 2.1593306458356525e-08 8.283813731647456e-09 -1.7349073409897767e-07 0.0 0.0
0.0 0.0 0.0 0.0 0.0 0.0 0.0 0.0
0.0 1.2666476022059354e-07 -7.072771946710994e-10 8.50748394078545e-10 -1.4347119940746084e-10 -2.5171596621278046e-08 0.0 0.0
0.0 0.0005783362927757199 0.00029406297423592424 -0.00038739468537925476 9.333171114333052e-05 0.00046270570232431773 0.0 0.0
0.0 0.00019061569747107814 9.502845441031662e-05 -0.00013156823786933424 3.653978345901763e-05 -0.00015648449130951206 0.0 0.0
0.0 1.8030073051673429e-06 -4.177191184509683e-09 1.0378638774830307e-08 -6.201447590320216e-09 3.8291760625588695e-07 0.0 0.0
0.0 8.129603515550081e-07 -9.729788138728575e-10 -5.062304710215263e-10 1.479209284894036e-09 1.6676851108718092e-07 0.0 0.0
0.0 1.3942118126280809e-06 -1.7202479833820512e-08 1.1633862331670308e-08 5.568617502153395e-09 2.882879494068393e-07 0.0 0.0
0.0 4.745377488777593e-06 3.4907298904159443e-07 -2.5166349219218863e-07 -9.740949684941005e-08 -2.1581651505070457e-06 0.0 0.0
0.0 5.121555834361757e-05 9.17271876783519e-06 -7.285558287646091e-06 -1.8871604801890998e-06 -5.2823853748722494e-05 0.0 0.0
0.0 0.00017402681284977466 4.961285351982035e-05 -3.9614681771246856e-05 -9.998171748573469e-06 -0.00022986012043166271 0.0 0.0
0.0 0.0004394177374140225 0.00018312646792401844 -0.00014622033808360443 -3.6906129840414017e-05 -0.00064552527950886 0.0 0.0
0.0 0.0011354517196901304 0.000589231620241648 -0.0004768801763144138 -0.00011235144392723445 -0.0014513561803810593 0.0 0.0
0.0 0.0022872210851091284 0.0014090660525932352 -0.0011727015333163988 -0.00023636451927683573 -0.002625587383704225 0.0 0.0
0.0 0.0037819020333057507 0.0025590855636453158 -0.0021957397100453736 -0.00036334585359994116 -0.00398156082934147 0.0 0.0
0.0 0.0055945833202616195 0.0039092165084715375 -0.00344475468870941 -0.0004644618197621249 -0.005394132800863896 0.0 0.0
0.0 0.0076080446072024485 0.0054565726766258255 -0.004910493198034657 -0.0005460794785911658 -0.006862287468213832 0.0 0.0
0.0 0.009933275554421812 0.007255735964275886 -0.006645048229737441 -0.00061068773453844 -0.008352384986795877 0.0 0.0
0.0 0.012654968728127424 0.009392461496220118 -0.00873111072597254 -0.0006613507702475784 -0.009872860355342473 0.0 0.0
0.0 0.015853761944197884 0.011965193958285896 -0.011262839734224966 -0.0007023542240609338 -0.011364857096905894 0.0 0.0
0.0 0.019597889291021964 0.015051818220282204 -0.014311322773878157 -0.000740495446404054 -0.012576986185019134 0.0 0.0
0.0 0.023811140421838742 0.01871814847380695 -0.017942253605188203 -0.0007758948686187523 -0.013073465083792804 0.0 0.0
0.0 0.028696836978431662 0.023145576783926827 -0.022362188917463853 -0.0007833878664629748 -0.012586356779342922 0.0 0.0
0.0 0.034177198160738206 0.028497211604445905 -0.027668062953340483 -0.0008291486511054273 -0.00949372154310327 0.0 0.0
0.0 0.03417719816073696 0.02849721160444328 -0.02766806295333756 -0.0008291486511057388 0.009493721543123855 0.0 0.0
0.0 0.028696836978429115 0.02314557678392087 -0.022362188917457854 -0.0007833878664630069 0.01258635677937454 0.0 0.0
0.0 0.023811140421834576 0.01871814847379967 -0.017942253605181504 -0.0007758948686181587 0.013073465083814823 0.0 0.0
0.0 0.019597889291012936 0.015051818220273204 -0.014311322773869643 -0.000740495446403557 0.012576986185024015 0.0 0.0
0.0 0.01585376194418359 0.011965193958275132 -0.011262839734214441 -0.0007023542240606874 0.01136485709689719 0.0 0.0
0.0 0.012654968728113797 0.009392461496209922 -0.008731110725962497 -0.0006613507702474222 0.009872860355333187 0.0 0.0
0.0 0.00993327555441111 0.007255735964267445 -0.006645048229729135 -0.0006106877345383109 0.008352384986790112 0.0 0.0
0.0 0.007608044607194974 0.005456572676619317 -0.004910493198028519 -0.0005460794785907966 0.006862287468211544 0.0 0.0
0.0 0.005594583320251175 0.003909216508464018 -0.0034447546887026127 -0.00046446181976140687 0.005394132800855272 0.0 0.0
0.0 0.003781902033295253 0.0025590855636382337 -0.0021957397100389555 -0.0003633458535992775 0.00398156082933136 0.0 0.0
0.0 0.002287221085099526 0.0014090660525873818 -0.0011727015333112352 -0.00023636451927614604 0.002625587383693906 0.0 0.0
0.0 0.0011354517196858452 0.0005892316202391143 -0.0004768801763122977 -0.00011235144392681632 0.0014513561803762 0.0 0.0
0.0 0.00043941773741163045 0.0001831264679230492 -0.00014622033808285562 -3.690612984019345e-05 0.0006455252795061685 0.0 0.0
0.0 0.00017402681284837582 4.961285351957844e-05 -3.9614681771047146e-05 -9.998171748531285e-06 0.00022986012043056442 0.0 0.0
0.0 5.121555834272065e-05 9.17271876773783e-06 -7.2855582875680035e-06 -1.8871604801698107e-06 5.282385374816982e-05 0.0 0.0
0.0 4.745377488444155e-06 3.490729890990528e-07 -2.516634922340714e-07 -9.740949686498325e-08 2.158165150922209e-06 0.0 0.0
0.0 1.3942118121365584e-06 -1.7202479827439693e-08 1.1633862327329383e-08 5.568617500112952e-09 -2.8828794930130727e-07 0.0 0.0
0.0 8.12960351106587e-07 -9.729788137991681e-10 -5.062304704954294e-10 1.479209284295063e-09 -1.667685109932312e-07 0.0 0.0
0.0 1.8030073045943297e-06 -4.1771911826671024e-09 1.0378638770354691e-08 -6.201447587687759e-09 -3.8291760613307903e-07 0.0 0.0
0.0 0.0001906156974689872 9.502845440969937e-05 -0.00013156823786848092 3.653978345878143e-05 0.00015648449130869737 0.0 0.0
0.0 3.468978360102369e-05 1.3980853091078336e-05 -2.0168014522660622e-05 6.187161431582291e-06 -2.4552686620656834e-05 0.0 0.0
0.0 2.3409661729961703e-06 6.496376963596438e-10 1.3091562580591183e-08 -1.3741200276949575e-08 4.872012716183131e-07 0.0 0.0
0.0 8.28283976103979e-07 8.757322001854407e-09 -7.994197467743662e-09 -7.631245341108108e-10 1.6872916499049268e-07 0.0 0.0
0.0 1.0341171999299922e-06 3.4830124123105497e-09 -4.631541757330647e-09 1.1485293450206947e-09 2.129476539670559e-07 0.0 0.0
0.0 6.42245500299888e-06 3.397644832721662e-08 -2.2891488220192114e-08 -1.1084960107030898e-08 -4.37245799638348e-07 0.0 0.0
0.0 4.668753864570075e-05 2.8200535011569324e-06 -2.1929826469573356e-06 -6.270708541995865e-07 -5.5523270187194094e-05 0.0 0.0
0.0 0.00014832596300046397 1.5274928987442802e-05 -1.2159111758209542e-05 -3.1158172292332746e-06 -0.00022388857540010874 0.0 0.0
0.0 0.0003334738474329825 4.1756579661082105e-05 -3.3361284142553095e-05 -8.395295518528966e-06 -0.00048029482905422694 0.0 0.0
0.0 0.0005644127305511872 9.841876235674118e-05 -7.900997375012678e-05 -1.9408788606614405e-05 -0.0008938763694056702 0.0 0.0
0.0 0.0009744405394956968 0.00020029584660338185 -0.00016202491581679605 -3.82709307865858e-05 -0.0014812454276094313 0.0 0.0
0.0 0.0014550103159768429 0.0004074525069347641 -0.00032785999537368333 -7.959251156108068e-05 -0.0023387626561276456 0.0 0.0
0.0 0.002173717592278041 0.0007106187552524191 -0.0005729817638171214 -0.00013763699143529777 -0.003335874525438531 0.0 0.0
0.0 0.003036578292770441 0.0010917459984346035 -0.0008868870541111917 -0.0002048589443234119 -0.0044756244961617914 0.0 0.0
0.0 0.004112709057756434 0.0015863198826972414 -0.0013148873790712371 -0.0002714325036260046 -0.005787176382508678 0.0 0.0
0.0 0.005425023409631298 0.002264557123980968 -0.0019333405235283621 -0.0003312166004526056 -0.007267623794761874 0.0 0.0
0.0 0.00706231306767939 0.0032221533605455493 -0.002838693337460888 -0.00038346002308465937 -0.00881135073986844 0.0 0.0
0.0 0.00906182285239517 0.004657583266484408 -0.004227033943488793 -0.00043054932299561226 -0.010140875082190656 0.0 0.0
0.0 0.011516112014551168 0.006794533104168689 -0.006310636438121771 -0.00048389666604691645 -0.01074535100148999 0.0 0.0
0.0 0.014682192417986874 0.009820956109433825 -0.00929586854797422 -0.0005250875614596006 -0.01032054600232441 0.0 0.0
0.0 0.01932014945923621 0.014414707341369591 -0.013913292758492953 -0.0005014145828766382 -0.009007248592147679 0.0 0.0
0.0 0.019320149459240057 0.01441470734137155 -0.013913292758494681 -0.0005014145828768628 0.009007248592161938 0.0 0.0
0.0 0.0146821924179911 0.009820956109433503 -0.009295868547973988 -0.0005250875614595137 0.01032054600234912 0.0 0.0
0.0 0.011516112014549267 0.006794533104164635 -0.006310636438117737 -0.00048389666604689433 0.010745351001502796 0.0 0.0
0.0 0.009061822852391576 0.004657583266481984 -0.004227033943486458 -0.0004305493229955234 0.010140875082189919 0.0 0.0
0.0 0.007062313067676042 0.0032221533605449218 -0.002838693337460419 -0.0003834600230845013 0.008811350739861699 0.0 0.0
0.0 0.00542502340962647 0.002264557123978808 -0.0019333405235263921 -0.0003312166004524155 0.00726762379475604 0.0 0.0
0.0 0.004112709057750154 0.0015863198826941514 -0.00131488737906833 -0.00027143250362582187 0.005787176382502219 0.0 0.0
0.0 0.003036578292767326 0.001091745998433563 -0.0008868870541103299 -0.00020485894432323266 0.004475624496157427 0.0 0.0
0.0 0.0021737175922737165 0.0007106187552514408 -0.0005729817638162514 -0.00013763699143518946 0.003335874525431568 0.0 0.0
0.0 0.0014550103159722218 0.0004074525069334031 -0.0003278599953725906 -7.959251156081245e-05 0.0023387626561201646 0.0 0.0
0.0 0.0009744405394919423 0.0002002958466028824 -0.0001620249158163432 -3.827093078653926e-05 0.0014812454276039856 0.0 0.0
0.0 0.0005644127305496056 9.841876235648433e-05 -7.900997374995335e-05 -1.9408788606530915e-05 0.0008938763694031289 0.0 0.0
0.0 0.00033347384743189087 4.175657966095095e-05 -3.3361284142451926e-05 -8.395295518498995e-06 0.00048029482905252073 0.0 0.0
0.0 0.00014832596299927888 1.5274928987389967e-05 -1.2159111758161377e-05 -3.115817229228584e-06 0.0002238885753992772 0.0 0.0
0.0 4.66875386448543e-05 2.8200535011318454e-06 -2.1929826469356482e-06 -6.27070854196201e-07 5.552327018663941e-05 0.0 0.0
0.0 6.422455002747685e-06 3.397644833988873e-08 -2.2891488228200714e-08 -1.1084960111691392e-08 4.372458001804347e-07 0.0 0.0
0.0 1.0341171994111593e-06 3.4830124097744975e-09 -4.63154175459075e-09 1.1485293448161685e-09 -2.1294765385734702e-07 0.0 0.0
0.0 8.282839756553083e-07 8.757321996808003e-09 -7.99419746324245e-09 -7.631245335657651e-10 -1.687291648967851e-07 0.0 0.0
0.0 2.340966172321822e-06 6.496376968874008e-10 1.3091562575233056e-08 -1.3741200272117913e-08 -4.87201271473837e-07 0.0 0.0
0.0 3.468978360018319e-05 1.3980853091093032e-05 -2.0168014522661103e-05 6.187161431568018e-06 2.455268662084122e-05 0.0 0.0
0.0 1.746363269014452e-06 -1.080716133846742e-07 1.601080298073669e-07 -5.203641642269867e-08 2.3480853834527648e-07 0.0 0.0
0.0 1.9028631458580495e-06 6.795419448546787e-09 4.3792250009357676e-09 -1.1174644449477697e-08 4.0529838982822875e-07 0.0 0.0
0.0 1.0945380631068839e-06 4.221273348784406e-09 -4.329438091378741e-09 1.0816474259565015e-10 5.56712012963809e-08 0.0 0.0
0.0 1.6430996397414103e-06 -1.87768870429545e-08 1.3715206493052492e-08 5.061680549902123e-09 -1.592762956361031e-07 0.0 0.0
0.0 9.21020969286115e-06 -1.9029912677370696e-07 1.8321330429085047e-07 7.085822482865894e-09 -3.4999475238683276e-06 0.0 0.0
0.0 5.153865482377159e-05 -3.670296588377243e-06 3.016693937085489e-06 6.536026512917478e-07 -5.57731829174262e-05 0.0 0.0
0.0 0.00015021162723364274 -1.6131909427966234e-05 1.2965058368545398e-05 3.1668510594208307e-06 -0.00022544006247681678 0.0 0.0
0.0 0.00033436035514250705 -4.1784258530664804e-05 3.337925347107663e-05 8.405005059588126e-06 -0.00048094655828405435 0.0 0.0
0.0 0.0005641372890117814 -9.810914878659007e-05 7.874599455770287e-05 1.9363154228887214e-05 -0.0008940493842506821 0.0 0.0
0.0 0.0009730342282755568 -0.00019976595702291257 0.00016146414454623235 3.8301812476680286e-05 -0.0014796756892436322 0.0 0.0
0.0 0.001460414206802892 -0.0004044306200399677 0.00032605227450548585 7.837834553448163e-05 -0.0023348946006754795 0.0 0.0
0.0 0.0021782510404290594 -0.0007165394264560904 0.0005786752152941158 0.00013786421116197467 -0.0033373732617378612 0.0 0.0
0.0 0.003052764493097222 -0.0011139666161053031 0.0009075303850089222 0.0002064362310963808 -0.004482947831160728 0.0 0.0
0.0 0.004144158536937036 -0.001625587070494617 0.001349404553266533 0.0002761825172280834 -0.0057953446884774175 0.0 0.0
0.0 0.00539047458163948 -0.0022220176987244183 0.00187949641513898 0.00034252128358543707 -0.007269961031370424 0.0 0.0
0.0 0.006710210221728949 -0.002734889378721364 0.0023321942318043675 0.0004026951469169944 -0.008863124530146666 0.0 0.0
0.0 0.007837555418727667 -0.0028894105745271297 0.002439414879777453 0.00044999569474967664 -0.010567506833258595 0.0 0.0
0.0 0.008608743470779131 -0.002402769555835056 0.001918118192746114 0.00048465136308894075 -0.012393796869967517 0.0 0.0
0.0 0.00893223630157624 -0.0012817181660624496 0.0008804218680871897 0.00040129629797525947 -0.013918377360689288 0.0 0.0
0.0 0.008496169304550893 0.0019831272078157164 -0.0020739307680898164 9.080356027410004e-05 -0.012457936951022298 0.0 0.0
0.0 0.008496169304553854 0.001983127207815767 -0.0020739307680899314 9.080356027416526e-05 0.012457936951031024 0.0 0.0
0.0 0.008932236301580208 -0.0012817181660629237 0.0008804218680875514 0.00040129629797537104 0.013918377360699258 0.0 0.0
0.0 0.00860874347077676 -0.002402769555833807 0.0019181181927451184 0.00048465136308868776 0.01239379686996932 0.0 0.0
0.0 0.007837555418719885 -0.0028894105745231715 0.002439414879773773 0.00044999569474939784 0.010567506833251611 0.0 0.0
0.0 0.006710210221720176 -0.0027348893787160064 0.0023321942317993676 0.00040269514691663777 0.008863124530138666 0.0 0.0
0.0 0.005390474581632349 -0.002222017698720733 0.0018794964151356095 0.00034252128358512244 0.007269961031362882 0.0 0.0
0.0 0.004144158536931605 -0.0016255870704921802 0.0013494045532644488 0.0002761825172277316 0.005795344688471035 0.0 0.0
0.0 0.0030527644930914144 -0.0011139666161019799 0.0009075303850062993 0.00020643623109568046 0.004482947831155977 0.0 0.0
0.0 0.0021782510404222545 -0.0007165394264525987 0.0005786752152911541 0.00013786421116144436 0.0033373732617295376 0.0 0.0
0.0 0.0014604142067966665 -0.00040443062003715574 0.00032605227450318956 7.837834553396638e-05 0.002334894600667125 0.0 0.0
0.0 0.0009730342282710841 -0.00019976595702198767 0.0001614641445453335 3.8301812476654116e-05 0.0014796756892378183 0.0 0.0
0.0 0.0005641372890104154 -9.810914878620489e-05 7.874599455736961e-05 1.9363154228835263e-05 0.0008940493842489259 0.0 0.0
0.0 0.0003343603551410568 -4.178425853042914e-05 3.337925347087387e-05 8.405005059555248e-06 0.00048094655828235123 0.0 0.0
0.0 0.00015021162723238835 -1.613190942789051e-05 1.2965058368507458e-05 3.1668510593830517e-06 0.00022544006247574266 0.0 0.0
0.0 5.153865482288132e-05 -3.670296588344535e-06 3.0166939370611894e-06 6.53602651283356e-07 5.577318291700355e-05 0.0 0.0
0.0 9.210209692617377e-06 -1.902991268300792e-07 1.8321330433973277e-07 7.085822490342508e-09 3.4999475246610035e-06 0.0 0.0
0.0 1.6430996395047305e-06 -1.8776887095478153e-08 1.3715206536598664e-08 5.061680558879907e-09 1.5927629616562892e-07 0.0 0.0
0.0 1.0945380627903032e-06 4.2212732882862156e-09 -4.329438041910149e-09 1.0816475362440748e-10 -5.567120067454802e-08 0.0 0.0
0.0 1.9028631450714174e-06 6.795419446720134e-09 4.37922499599115e-09 -1.1174644442706392e-08 -4.052983896639658e-07 0.0 0.0
0.0 1.7463632684856744e-06 -1.0807161335057875e-07 1.601080297566021e-07 -5.2036416406020456e-08 -2.3480853827189452e-07 0.0 0.0
0.0 0.0 0.0 0.0 0.0 0.0 0.0 0.0
0.0 3.3206270015814023e-07 3.228124362425176e-09 -1.4545472289870203e-09 -1.773577133437446e-09 6.641880132428198e-08 0.0 0.0
0.0 1.4254783943826369e-06 -3.869181653239758e-08 3.025659129245063e-08 8.43522523994593e-09 -2.5479748511542493e-07 0.0 0.0
0.0 4.644251245635419e-06 1.1169300858151818e-07 -8.870613163467893e-08 -2.298687694682576e-08 6.081910157478285e-07 0.0 0.0
0.0 1.2836162822832227e-05 -1.725326135418689e-06 1.455070623140654e-06 2.702555122780424e-07 -1.0751524311953872e-05 0.0 0.0
0.0 6.060376780834017e-05 -1.303360124209304e-05 1.0447313210296798e-05 2.586288031796206e-06 -6.895740998023356e-05 0.0 0.0
0.0 0.00018255472449984242 -5.106895469426562e-05 4.0912123949872404e-05 1.0156830744393236e-05 -0.00023408083726584168 0.0 0.0
0.0 0.0004415555316700147 -0.00018369448219322307 0.00014667637245694936 3.701810973627371e-05 -0.0006475793116916229 0.0 0.0
0.0 0.0011327953886891963 -0.0005881902051485019 0.0004759518342627456 0.00011223837088575618 -0.0014502322414941561 0.0 0.0
0.0 0.002284154294952117 -0.0014074101454491594 0.001171277930072433 0.0002361322153767257 -0.002623678605913683 0.0 0.0
0.0 0.003782411727497359 -0.002559959020826786 0.002196975195588067 0.00036298382523871893 -0.003981443423052811 0.0 0.0
0.0 0.005605009615295453 -0.0039203916055483125 0.0034563895987398006 0.00046400200680851245 -0.005393878022549058 0.0 0.0
0.0 0.007637254128537445 -0.0054890629503415505 0.004943163181996341 0.0005458997683452072 -0.006850926766848459 0.0 0.0
0.0 0.009976257678759414 -0.00730259207981248 0.00668845892613609 0.000614133153676391 -0.008333506003240877 0.0 0.0
0.0 0.012617030911021952 -0.009341005210194164 0.008666283346569598 0.0006747218636245615 -0.00991546155776061 0.0 0.0
0.0 0.015396915062785392 -0.011434950495590748 0.010704815429706794 0.0007301350658839549 -0.011691265586261369 0.0 0.0
0.0 0.01798720595796982 -0.013223122929680536 0.012442862507547926 0.0007802604221326105 -0.01371666750613532 0.0 0.0
0.0 0.01979226603961537 -0.014185485306042816 0.013366379298082215 0.0008191060079606067 -0.015891780221697918 0.0 0.0
0.0 0.019361835550703668 -0.013346092459940602 0.012434320285893061 0.0009117721740475339 -0.01674953382843267 0.0 0.0
0.0 0.014688855915661981 -0.008776888229650885 0.007816219953382103 0.0009606682762687772 -0.014156308222384112 0.0 0.0
0.0 0.014688855915671331 -0.008776888229654181 0.007816219953385507 0.0009606682762686777 0.01415630822240401 0.0 0.0
0.0 0.019361835550709253 -0.013346092459939816 0.012434320285892354 0.0009117721740474626 0.016749533828458937 0.0 0.0
0.0 0.01979226603961414 -0.014185485306038522 0.01336637929807819 0.0008191060079603279 0.015891780221713392 0.0 0.0
0.0 0.01798720595795712 -0.013223122929669269 0.012442862507536836 0.0007802604221324337 0.013716667506134324 0.0 0.0
0.0 0.015396915062773072 -0.011434950495580968 0.010704815429697406 0.0007301350658835604 0.01169126558625296 0.0 0.0
0.0 0.012617030911008988 -0.00934100521018392 0.008666283346559903 0.0006747218636240123 0.009915461557752218 0.0 0.0
0.0 0.009976257678744849 -0.0073025920798010634 0.006688458926125037 0.0006141331536760269 0.008333506003232106 0.0 0.0
0.0 0.007637254128524239 -0.005489062950330459 0.004943163181985653 0.0005458997683448026 0.0068509267668419895 0.0 0.0
0.0 0.005605009615280237 -0.0039203916055368 0.0034563895987289963 0.0004640020068078028 0.005393878022538356 0.0 0.0
0.0 0.0037824117274815224 -0.0025599590208156904 0.002196975195577958 0.0003629838252377325 0.003981443423038966 0.0 0.0
0.0 0.002284154294940886 -0.001407410145441856 0.0011712779300660464 0.00023613221537580937 0.0026236786059025746 0.0 0.0
0.0 0.0011327953886840771 -0.0005881902051451558 0.0004759518342599795 0.0001122383708851761 0.0014502322414888793 0.0 0.0
0.0 0.000441555531668139 -0.00018369448219231042 0.00014667637245626073 3.701810973604966e-05 0.00064757931168966 0.0 0.0
0.0 0.00018255472449792736 -5.106895469390877e-05 4.0912123949595356e-05 1.0156830744313348e-05 0.00023408083726431914 0.0 0.0
0.0 6.060376780719349e-05 -1.3033601242034175e-05 1.0447313210248729e-05 2.5862880317854346e-06 6.895740997992366e-05 0.0 0.0
0.0 1.2836162822449724e-05 -1.7253261354784905e-06 1.4550706231905071e-06 2.7025551228796665e-07 1.0751524312331076e-05 0.0 0.0
0.0 4.6442512453596474e-06 1.1169300852191356e-07 -8.87061315829916e-08 -2.2986876938918085e-08 -6.081910153300793e-07 0.0 0.0
0.0 1.425478394114693e-06 -3.8691816598532136e-08 3.0256591345939634e-08 8.435225252592371e-09 2.547974855930766e-07 0.0 0.0
0.0 3.3206269971330245e-07 3.2281243589135146e-09 -1.4545472286881782e-09 -1.7735771302251563e-09 -6.64188012348373e-08 0.0 0.0
0.0 0.0 0.0 0.0 0.0 0.0 0.0 0.0
0.0 0.0 0.0 0.0 0.0 0.0 0.0 0.0
0.0 9.659038647247042e-07 1.536493391610939e-08 -9.441890028047111e-09 -5.923043888061976e-09 1.9697054502569396e-07 0.0 0.0
0.0 2.3595770756542535e-06 8.103527067074457e-08 -6.628456757845172e-08 -1.4750703092293867e-08 4.821090557083344e-07 0.0 0.0
0.0 6.5906872819304125e-06 3.108815427979235e-07 -2.5702362177301864e-07 -5.385792102489637e-08 1.4093816020137892e-06 0.0 0.0
0.0 1.8631673850064867e-05 -3.881679209664607e-06 3.1198924410689383e-06 7.617867685956822e-07 -1.3733034560844467e-05 0.0 0.0
0.0 7.810162306837148e-05 -2.5741988724177092e-05 2.06838628113816e-05 5.0581259127954705e-06 -8.061450112305859e-05 0.0 0.0
0.0 0.00029720551005491056 -0.00014503337489433162 0.00011599729460183282 2.90360802924988e-05 -0.00035770147929791525 0.0 0.0
0.0 0.0010213175971965722 -0.0006449990126044549 0.0005234383625944742 0.00012156065000998087 -0.0011417616372329529 0.0 0.0
0.0 0.002525046585035724 -0.001762415265705657 0.0014812805891298959 0.0002811346765757603 -0.0024033637217674 0.0 0.0
0.0 0.0045362031997999335 -0.0034476932680725715 0.0030046073774043307 0.0004430858906682403 -0.00398479739371284 0.0 0.0
0.0 0.0071286257883377505 -0.005501432894478614 0.004938370800475335 0.0005630620940032811 -0.005681911557953348 0.0 0.0
0.0 0.009941670868878918 -0.007845857191536066 0.007195619367954418 0.000650237823581646 -0.0073516333538836695 0.0 0.0
0.0 0.013156086827570967 -0.010509115610684287 0.009790746254612896 0.0007183693560713935 -0.008990488439166758 0.0 0.0
0.0 0.016874743050575517 -0.013577634015150806 0.012800226008391122 0.0007774080067596812 -0.010675627182128195 0.0 0.0
0.0 0.021179133888833725 -0.01707198479792439 0.0162366964828176 0.0008352883151067783 -0.0125715456889178 0.0 0.0
0.0 0.025814149696311402 -0.020819771009554382 0.019924723127810958 0.0008950478817434148 -0.014907992908521956 0.0 0.0
0.0 0.030421521291230928 -0.024370303978409245 0.02341511933887869 0.0009551846395305434 -0.017868449424294823 0.0 0.0
0.0 0.033718366496806366 -0.02686431638188097 0.025831596266037517 0.0010327201158434546 -0.020952097320321203 0.0 0.0
0.0 0.034020668300946307 -0.0267033318938978 0.025572864332844666 0.0011304675610531337 -0.022495861483885122 0.0 0.0
0.0 0.02726910661840818 -0.021065921431611522 0.019754483095992106 0.0013114383356194062 -0.01896948575276898 0.0 0.0
0.0 0.02726910661841305 -0.021065921431611356 0.01975448309599169 0.0013114383356196621 0.01896948575279222 0.0 0.0
0.0 0.03402066830094873 -0.026703331893893904 0.025572864332840797 0.0011304675610530833 0.02249586148391726 0.0 0.0
0.0 0.03371836649679652 -0.026864316381868494 0.02583159626602526 0.001032720115843229 0.02095209732034098 0.0 0.0
0.0 0.030421521291211867 -0.024370303978391808 0.023415119338861597 0.0009551846395302208 0.017868449424295926 0.0 0.0
0.0 0.02581414969628752 -0.020819771009534166 0.019924723127790984 0.0008950478817431838 0.01490799290851351 0.0 0.0
0.0 0.021179133888812277 -0.01707198479790672 0.016236696482800104 0.0008352883151066131 0.012571545688907712 0.0 0.0
0.0 0.016874743050555148 -0.01357763401513398 0.01280022600837443 0.0007774080067595491 0.010675627182118359 0.0 0.0
0.0 0.013156086827549873 -0.010509115610666343 0.009790746254595398 0.0007183693560709392 0.00899048843915795 0.0 0.0
0.0 0.009941670868856516 -0.007845857191517785 0.007195619367936615 0.0006502378235811697 0.00735163335387087 0.0 0.0
0.0 0.0071286257883179036 -0.005501432894462995 0.004938370800460506 0.0005630620940024876 0.0056819115579387095 0.0 0.0
0.0 0.0045362031997824275 -0.0034476932680593325 0.0030046073773920133 0.0004430858906673195 0.003984797393699019 0.0 0.0
0.0 0.002525046585023235 -0.0017624152656960772 0.0014812805891213166 0.0002811346765747603 0.002403363721757605 0.0 0.0
0.0 0.0010213175971896232 -0.0006449990125996629 0.0005234383625905289 0.00012156065000913402 0.0011417616372267135 0.0 0.0
0.0 0.0002972055100526412 -0.00014503337489364407 0.0001159972946012914 2.903608029235268e-05 0.00035770147929640225 0.0 0.0
0.0 7.81016230672578e-05 -2.5741988724278065e-05 2.0683862811458962e-05 5.058125912819059e-06 8.061450112316983e-05 0.0 0.0
0.0 1.8631673849532554e-05 -3.8816792097590185e-06 3.119892441145329e-06 7.617867686136465e-07 1.3733034561195349e-05 0.0 0.0
0.0 6.590687281374371e-06 3.1088154276881837e-07 -2.570236217490074e-07 -5.385792101982278e-08 -1.4093816018841068e-06 0.0 0.0
0.0 2.3595770750547986e-06 8.103527064889636e-08 -6.628456756069521e-08 -1.4750703088195763e-08 -4.821090555798598e-07 0.0 0.0
0.0 9.659038644330307e-07 1.5364933911636078e-08 -9.441890025310556e-09 -5.923043886328447e-09 -1.969705449648645e-07 0.0 0.0
0.0 0.0 0.0 0.0 0.0 0.0 0.0 0.0
0.0 0.0 0.0 0.0 0.0 0.0 0.0 0.0
0.0 0.0 0.0 0.0 0.0 0.0 0.0 0.0
0.0 1.762862297087584e-06 7.425115861487428e-08 -6.029149643128876e-08 -1.3959662183589334e-08 3.448992119798501e-07 0.0 0.0
0.0 5.504724389226745e-06 -9.218664878297928e-08 8.713696619100612e-08 5.0496825919693885e-09 -3.8366003899186003e-07 0.0 0.0
0.0 2.5371843450202644e-05 -6.1001929865117725e-06 4.9748265088208565e-06 1.1253664776909494e-06 -1.5849103689080112e-05 0.0 0.0
0.0 0.00012514288046745235 -6.10037495328472e-05 4.877379787057594e-05 1.2229951662271249e-05 -0.00012569221241970116 0.0 0.0
0.0 0.0006271309427635371 -0.00040918867049370163 0.00033028714340926224 7.89015270844395e-05 -0.0006172719158650912 0.0 0.0
0.0 0.0019658572743227257 -0.0014586449985460198 0.0012149474816091218 0.00024369751693689771 -0.0016720520935518861 0.0 0.0
0.0 0.004200095922767225 -0.003294670792344645 0.0028606033232049396 0.00043406746913970495 -0.0031721475212873186 0.0 0.0
0.0 0.007107599218483131 -0.005757969074531183 0.0051745968931527836 0.0005833721813783992 -0.004963573265750535 0.0 0.0
0.0 0.010558075317356372 -0.008658999267127527 0.00797371719763348 0.0006852820694940463 -0.0068067419277644675 0.0 0.0
0.0 0.014491317666706563 -0.011955765934475148 0.011192529276417364 0.000763236658057782 -0.008576440967626366 0.0 0.0
0.0 0.018985302918977418 -0.015714529817037533 0.01488647140546383 0.0008280584115737013 -0.010319107419839478 0.0 0.0
0.0 0.024112508794866556 -0.020056294472895614 0.019167849542894154 0.0008884449300014606 -0.012138742167716885 0.0 0.0
0.0 0.030049678876186335 -0.025037524921304136 0.02408779445196874 0.0009497304693353759 -0.014234579902203252 0.0 0.0
0.0 0.03663005709593888 -0.03049718902041286 0.02947880881948517 0.0010183802009276794 -0.016959925973992426 0.0 0.0
0.0 0.04313457127682898 -0.03583462589619087 0.034734840047602134 0.001099785848588728 -0.020540044936949237 0.0 0.0
0.0 0.04812748420680251 -0.039758529307054244 0.038558627112675395 0.0011999021943788072 -0.024403205617159494 0.0 0.0
0.0 0.04878109871403298 -0.04002165422947486 0.03868723608587034 0.0013344181436044892 -0.026538466603571672 0.0 0.0
0.0 0.04035101244697952 -0.032867593313570156 0.031332495912485894 0.0015350974010842617 -0.023404690045238128 0.0 0.0
0.0 0.04035101244698449 -0.03286759331356979 0.03133249591248544 0.001535097401084336 0.023404690045266796 0.0 0.0
0.0 0.04878109871403424 -0.04002165422947007 0.03868723608586594 0.0013344181436041197 0.02653846660360931 0.0 0.0
0.0 0.04812748420679136 -0.03975852930704027 0.03855862711266208 0.001199902194378169 0.02440320561718516 0.0 0.0
0.0 0.04313457127680803 -0.03583462589617092 0.0347348400475831 0.0010997858485877997 0.020540044936955833 0.0 0.0
0.0 0.036630057095910065 -0.030497189020387706 0.029478808819460973 0.0010183802009267173 0.01695992597398507 0.0 0.0
0.0 0.030049678876158857 -0.02503752492128057 0.024087794451945827 0.000949730469334738 0.01423457990219398 0.0 0.0
0.0 0.02411250879483936 -0.020056294472872598 0.0191678495428717 0.0008884449300008953 0.012138742167705729 0.0 0.0
0.0 0.018985302918949884 -0.015714529817014024 0.014886471405440721 0.000828058411573303 0.010319107419829996 0.0 0.0
0.0 0.014491317666677984 -0.011955765934450921 0.011192529276393763 0.0007632366580571554 0.008576440967612921 0.0 0.0
0.0 0.010558075317328072 -0.00865899926710448 0.007973717197610959 0.0006852820694935233 0.006806741927746833 0.0 0.0
0.0 0.007107599218459194 -0.005757969074512013 0.005174596893134424 0.0005833721813775877 0.0049635732657335365 0.0 0.0
0.0 0.004200095922749924 -0.0032946707923308233 0.0028606033231922613 0.00043406746913856215 0.0031721475212766253 0.0 0.0
0.0 0.0019658572743127996 -0.001458644998538346 0.0012149474816025082 0.00024369751693583796 0.0016720520935448505 0.0 0.0
0.0 0.0006271309427575056 -0.0004091886704898087 0.00033028714340607387 7.890152708373481e-05 0.0006172719158600659 0.0 0.0
0.0 0.00012514288046564127 -6.1003749532517905e-05 4.877379787030394e-05 1.2229951662213996e-05 0.00012569221241892148 0.0 0.0
0.0 2.537184344947213e-05 -6.100192986678227e-06 4.9748265089545166e-06 1.1253664777236657e-06 1.5849103689504045e-05 0.0 0.0
0.0 5.504724388748857e-06 -9.218664890810333e-08 8.713696629383449e-08 5.049682614258678e-09 3.836600394129195e-07 0.0 0.0
0.0 1.7628622966370727e-06 7.425115859493936e-08 -6.029149641515662e-08 -1.3959662179784548e-08 -3.4489921188806817e-07 0.0 0.0
0.0 0.0 0.0 0.0 0.0 0.0 0.0 0.0
0.0 0.0 0.0 0.0 0.0 0.0 0.0 0.0
0.0 0.0 0.0 0.0 0.0 0.0 0.0 0.0
0.0 0.0 0.0 0.0 0.0 0.0 0.0 0.0
0.0 6.301117771691601e-07 3.177133557320747e-08 -2.5610055499987776e-08 -6.161280073216576e-09 1.139376708674144e-07 0.0 0.0
0.0 7.479034888138472e-06 5.4592668232219e-07 -4.381286801518101e-07 -1.0779800217037303e-07 1.3945185929680183e-06 0.0 0.0
0.0 3.856152628899113e-05 -6.3961904288472e-06 5.172255589140583e-06 1.2239348397066187e-06 -1.1446170038342595e-05 0.0 0.0
0.0 0.0002530037417060919 -0.00016156908332370506 0.00012953928452747788 3.2029798796227177e-05 -0.00022256843292896907 0.0 0.0
0.0 0.0011840539019350978 -0.0008775863659824581 0.0007187571233892821 0.0001588292425931758 -0.0008830630166570825 0.0 0.0
0.0 0.003126279094721983 -0.002507593686901807 0.0021422117752803727 0.00036538191162143374 -0.0020588219408480385 0.0 0.0
0.0 0.0060272705773108054 -0.0050134468406331355 0.004464142123606693 0.0005493047170264429 -0.003664613855289384 0.0 0.0
0.0 0.009741529187899294 -0.008189952336858758 0.007512424358813775 0.0006775279780449795 -0.005479932235849765 0.0 0.0
0.0 0.014127715061326656 -0.011911135899147097 0.011140753338057837 0.0007703825610892598 -0.00730639601727245 0.0 0.0
0.0 0.01915458225759229 -0.016165795419748018 0.015319090004463453 0.00084670541528457 -0.009088747080850883 0.0 0.0
0.0 0.024889650373402586 -0.021034960290303113 0.020119811071640632 0.0009151492186624691 -0.010865614760916503 0.0 0.0
0.0 0.0315012298105002 -0.026657624988434818 0.025677436615051438 0.0009801883733833764 -0.012718080622462765 0.0 0.0
0.0 0.03916268981803657 -0.033134359195616817 0.03208703042271557 0.0010473287729012523 -0.014851447172891172 0.0 0.0
0.0 0.047489716662198506 -0.040308552039932215 0.039182046124135506 0.0011265059157966933 -0.017632379117420115 0.0 0.0
0.0 0.05607885476885016 -0.047404641639914584 0.04617675342204232 0.0012278882178722878 -0.021355314485079633 0.0 0.0
0.0 0.06260037572356227 -0.05268240185842867 0.05132625891427087 0.001356142944157809 -0.025641806693287764 0.0 0.0
0.0 0.06347108652014555 -0.05316604587122243 0.051649382106947056 0.0015166637642753562 -0.0286135736127992 0.0 0.0
0.0 0.053485738609077474 -0.04441952431302601 0.042710465962732654 0.0017090583502933437 -0.02744595074932855 0.0 0.0
0.0 0.053485738609078216 -0.04441952431302221 0.04271046596272861 0.0017090583502935848 0.027445950749358947 0.0 0.0
0.0 0.06347108652013753 -0.053166045871210516 0.05164938210693522 0.0015166637642752988 0.028613573612836243 0.0 0.0
0.0 0.06260037572354307 -0.052682401858408515 0.05132625891425071 0.001356142944157819 0.025641806693315207 0.0 0.0
0.0 0.05607885476881818 -0.04740464163988583 0.04617675342201334 0.0012278882178724624 0.02135531448508514 0.0 0.0
0.0 0.047489716662161334 -0.0403085520399002 0.039182046124103205 0.0011265059157969765 0.017632379117414013 0.0 0.0
0.0 0.0391626898180006 -0.03313435919558583 0.032087030422684584 0.0010473287729012464 0.01485144717288313 0.0 0.0
0.0 0.031501229810463174 -0.026657624988403232 0.02567743661501994 0.0009801883733832832 0.012718080622450485 0.0 0.0
0.0 0.024889650373367475 -0.02103496029027266 0.02011981107161067 0.000915149218661986 0.010865614760906896 0.0 0.0
0.0 0.0191545822575576 -0.016165795419718305 0.01531909000443405 0.0008467054152842532 0.009088747080837995 0.0 0.0
0.0 0.014127715061293362 -0.011911135899119202 0.011140753338030267 0.0007703825610889312 0.00730639601725552 0.0 0.0
0.0 0.009741529187871543 -0.008189952336835475 0.00751242435879108 0.0006775279780443964 0.005479932235832742 0.0 0.0
0.0 0.006027270577290242 -0.0050134468406157874 0.00446414212359016 0.0005493047170256288 0.003664613855278811 0.0 0.0
0.0 0.0031262790947066657 -0.0025075936868891083 0.002142211775268947 0.00036538191162016186 0.0020588219408395904 0.0 0.0
0.0 0.0011840539019264318 -0.0008775863659760717 0.0007187571233839308 0.00015882924259214064 0.0008830630166512437 0.0 0.0
0.0 0.00025300374170339045 -0.0001615690833225196 0.000129539284526527 3.202979879599257e-05 0.00022256843292749106 0.0 0.0
0.0 3.856152628801907e-05 -6.396190428966739e-06 5.172255589229081e-06 1.2239348397375574e-06 1.144617003852537e-05 0.0 0.0
0.0 7.479034887487536e-06 5.459266822702636e-07 -4.3812868011058e-07 -1.0779800215968128e-07 -1.3945185928411796e-06 0.0 0.0
0.0 6.301117768796378e-07 3.177133555832444e-08 -2.5610055487985994e-08 -6.161280070339225e-09 -1.1393767081387647e-07 0.0 0.0
0.0 0.0 0.0 0.0 0.0 0.0 0.0 0.0
0.0 0.0 0.0 0.0 0.0 0.0 0.0 0.0
0.0 0.0 0.0 0.0 0.0 0.0 0.0 0.0
0.0 0.0 0.0 0.0 0.0 0.0 0.0 0.0
0.0 9.159772724021529e-07 5.630253744311479e-08 -4.536700834069255e-08 -1.0935529102421052e-08 1.5681455061216043e-07 0.0 0.0
0.0 3.241628952765024e-06 2.6053331691204254e-07 -2.0807629639336721e-07 -5.2457020518637325e-08 5.164519678466237e-07 0.0 0.0
0.0 5.963455785522521e-05 -2.5771421569866985e-05 2.0581300153268137e-05 5.190121416598869e-06 -3.4078494905032986e-05 0.0 0.0
0.0 0.0005149447694158658 -0.0003623808811363185 0.00029185714161912774 7.052373951719094e-05 -0.0003354928679684473 0.0 0.0
0.0 0.0019524805180996065 -0.0015187671871699415 0.0012668246005059934 0.000251942586663948 -0.0010653533331082933 0.0 0.0
0.0 0.004369850275430846 -0.0037214227338249694 0.003251199344742618 0.0004702233890823516 -0.002265999835001053 0.0 0.0
0.0 0.007934395111766919 -0.006822498709484256 0.006190616693514157 0.0006318820159700984 -0.003808910077940312 0.0 0.0
0.0 0.012446011875954947 -0.010678986849465279 0.00993244899508941 0.000746537854375875 -0.005504811899067746 0.0 0.0
0.0 0.017773025506557225 -0.015219464236043426 0.014382637399483983 0.0008368268365594397 -0.007242742194422771 0.0 0.0
0.0 0.02387927461689307 -0.02044244497236688 0.019526191841680734 0.000916253130686132 -0.008943264505100476 0.0 0.0
0.0 0.030935667764994734 -0.026436467264553606 0.025445436183535224 0.0009910310810183737 -0.010654658378158335 0.0 0.0
0.0 0.03891417759275781 -0.03334952761352155 0.03228673163881905 0.0010627959747024933 -0.012470538154855363 0.0 0.0
0.0 0.048179986854039555 -0.04129235106074426 0.04015631999616226 0.001136031064582004 -0.014468336572808474 0.0 0.0
0.0 0.05857347791556531 -0.05011527419109106 0.04889017650939991 0.0012250976816911468 -0.01691619519128466 0.0 0.0
0.0 0.06877125870366359 -0.05891817472023997 0.05757326492088616 0.0013449097993537848 -0.02031945208564866 0.0 0.0
0.0 0.07661412348032923 -0.06551063005955764 0.06401058162320131 0.0015000484363563264 -0.024742252134684437 0.0 0.0
0.0 0.07787949798480859 -0.0662271437347668 0.06454903053657149 0.0016781131981952917 -0.029047173116392093 0.0 0.0
0.0 0.06691730964348767 -0.05605266383514912 0.05418720944709384 0.001865454388055251 -0.031335899322833684 0.0 0.0
0.0 0.06691730964348891 -0.05605266383514587 0.054187209447090975 0.0018654543880548657 0.03133589932286451 0.0 0.0
0.0 0.07787949798479663 -0.0662271437347523 0.06454903053655685 0.0016781131981954325 0.02904717311643017 0.0 0.0
0.0 0.07661412348030565 -0.0655106300595342 0.06401058162317827 0.001500048436355912 0.02474225213471242 0.0 0.0
0.0 0.06877125870363407 -0.05891817472021266 0.057573264920860553 0.0013449097993521023 0.02031945208565695 0.0 0.0
0.0 0.058573477915526195 -0.05011527419105654 0.04889017650936639 0.0012250976816901324 0.01691619519128224 0.0 0.0
0.0 0.04817998685399873 -0.04129235106070847 0.04015631999612714 0.0011360310645813177 0.01446833657280373 0.0 0.0
0.0 0.03891417759271527 -0.0333495276134846 0.03228673163878268 0.0010627959747019232 0.012470538154845995 0.0 0.0
0.0 0.030935667764952067 -0.0264364672645164 0.02544543618349833 0.0009910310810180567 0.010654658378148732 0.0 0.0
0.0 0.023879274616852318 -0.020442444972331435 0.01952619184164584 0.0009162531306855802 0.008943264505088509 0.0 0.0
0.0 0.017773025506518103 -0.015219464236009925 0.014382637399451071 0.000836826836558853 0.007242742194406676 0.0 0.0
0.0 0.012446011875921119 -0.01067898684943649 0.009932448995061231 0.0007465378543752546 0.005504811899051437 0.0 0.0
0.0 0.007934395111741493 -0.006822498709462124 0.0061906166934929865 0.0006318820159691349 0.0038089100779292806 0.0 0.0
0.0 0.004369850275412666 -0.0037214227338092523 0.0032511993447280367 0.00047022338908121454 0.0022659998349925325 0.0 0.0
0.0 0.0019524805180889434 -0.001518767187161349 0.0012668246004985948 0.00025194258666275435 0.001065353333102921 0.0 0.0
0.0 0.0005149447694111626 -0.0003623808811333009 0.0002918571416166512 7.05237395166496e-05 0.00033549286796568674 0.0 0.0
0.0 5.963455785424566e-05 -2.57714215699972e-05 2.058130015336046e-05 5.190121416636757e-06 3.407849490514004e-05 0.0 0.0
0.0 3.2416289522024286e-06 2.6053331686397295e-07 -2.080762963552667e-07 -5.245702050872393e-08 -5.164519677547741e-07 0.0 0.0
0.0 9.159772720464821e-07 5.630253742091469e-08 -4.5367008322703315e-08 -1.0935529098212496e-08 -1.5681455054918204e-07 0.0 0.0
0.0 0.0 0.0 0.0 0.0 0.0 0.0 0.0
0.0 0.0 0.0 0.0 0.0 0.0 0.0 0.0
0.0 0.0 0.0 0.0 0.0 0.0 0.0 0.0
0.0 0.0 0.0 0.0 0.0 0.0 0.0 0.0
0.0 0.0 0.0 0.0 0.0 0.0 0.0 0.0
0.0 3.540566885756859e-06 -3.4905866083007544e-07 2.7249261303434023e-07 7.65660477957535e-08 -4.419076116063964e-07 0.0 0.0
0.0 0.0001165945840905906 -6.523684995891936e-05 5.227362762041012e-05 1.2963222338509377e-05 -6.192681578558469e-05 0.0 0.0
0.0 0.0009236303204901703 -0.0006822218699951512 0.0005552480969631112 0.0001269737730320404 -0.00042604175190913705 0.0 0.0
0.0 0.002679217135446858 -0.002325033657930744 0.0019767655403829234 0.00034826811754782135 -0.0011589036282271502 0.0 0.0
0.0 0.005707450637602978 -0.005017600004967558 0.004467209815551821 0.0005503901894157368 -0.00223899162011404 0.0 0.0
0.0 0.009940485110479983 -0.008667113073921165 0.007973499602989402 0.0006936134709317618 -0.0035766222274401806 0.0 0.0
0.0 0.015204648155458501 -0.013201284530385793 0.012400339327913706 0.0008009452024720898 -0.005084691135841141 0.0 0.0
0.0 0.021451776173628537 -0.01856115560779125 0.017668894248632785 0.0008922613591584653 -0.006633738648561142 0.0 0.0
0.0 0.028677593926071387 -0.024761955957746086 0.023784481046809927 0.000977474910936144 -0.008156399753311214 0.0 0.0
0.0 0.0369688467252616 -0.031899414000115624 0.030839866875277164 0.0010595471248384476 -0.009717611116321643 0.0 0.0
0.0 0.046519314781071935 -0.04010447988295252 0.03896400492074306 0.0011404749622094547 -0.011374944313986543 0.0 0.0
0.0 0.05738293547989466 -0.04945951622308386 0.04823789883472107 0.0012216173883627906 -0.013121581318116948 0.0 0.0
0.0 0.06916745727847512 -0.05980611909642929 0.058490418930441726 0.0013157001659875342 -0.014988270428992437 0.0 0.0
0.0 0.08122332082536185 -0.07020104300171458 0.06875154930699742 0.0014494936947171693 -0.01749432092432049 0.0 0.0
0.0 0.09058788135279577 -0.07815104919656106 0.07652294978858801 0.0016280994079730308 -0.021665293719901876 0.0 0.0
0.0 0.09247389304323161 -0.07935841729950799 0.07753125984559489 0.0018271574539131068 -0.027851329957301663 0.0 0.0
0.0 0.08069041374086325 -0.06807393623820476 0.06605556334704199 0.002018372891162733 -0.0350846547975695 0.0 0.0
0.0 0.08069041374086156 -0.06807393623819954 0.06605556334703652 0.0020183728911630375 0.035084654797599826 0.0 0.0
0.0 0.09247389304321507 -0.07935841729949077 0.07753125984557707 0.0018271574539137103 0.027851329957336447 0.0 0.0
0.0 0.0905878813527674 -0.0781510491965346 0.07652294978856161 0.0016280994079728836 0.021665293719927353 0.0 0.0
0.0 0.08122332082532156 -0.07020104300167915 0.06875154930696209 0.0014494936947170634 0.017494320924326987 0.0 0.0
0.0 0.06916745727843082 -0.05980611909639025 0.058490418930403805 0.0013157001659864027 0.014988270428991457 0.0 0.0
0.0 0.05738293547984502 -0.049459516223040435 0.04823789883467858 0.0012216173883618593 0.013121581318112514 0.0 0.0
0.0 0.04651931478102323 -0.040104479882910174 0.03896400492070168 0.0011404749622084813 0.011374944313978494 0.0 0.0
0.0 0.036968846725214534 -0.031899414000074414 0.03083986687523703 0.0010595471248373866 0.009717611116313755 0.0 0.0
0.0 0.028677593926024654 -0.024761955957705094 0.023784481046769827 0.0009774749109352806 0.008156399753300859 0.0 0.0
0.0 0.02145177617358488 -0.018561155607753285 0.017668894248595468 0.0008922613591578048 0.006633738648546117 0.0 0.0
0.0 0.015204648155421673 -0.013201284530353782 0.012400339327882185 0.0008009452024715923 0.00508469113582743 0.0 0.0
0.0 0.009940485110449662 -0.008667113073894504 0.007973499602963327 0.0006936134709311752 0.003576622227430282 0.0 0.0
0.0 0.005707450637580971 -0.005017600004947976 0.004467209815533229 0.000550390189414746 0.002238991620106122 0.0 0.0
0.0 0.0026792171354332694 -0.002325033657918865 0.0019767655403723134 0.0003482681175465511 0.0011589036282217513 0.0 0.0
0.0 0.0009236303204833644 -0.0006822218699903077 0.0005552480969590792 0.00012697377303122855 0.0004260417519062592 0.0 0.0
0.0 0.00011659458408878534 -6.52368499584181e-05 5.2273627619993505e-05 1.296322233842446e-05 6.192681578514193e-05 0.0 0.0
0.0 3.5405668852720514e-06 -3.490586610402035e-07 2.7249261319927157e-07 7.65660478409443e-08 4.419076118935167e-07 0.0 0.0
0.0 0.0 0.0 0.0 0.0 0.0 0.0 0.0
0.0 0.0 0.0 0.0 0.0 0.0 0.0 0.0
0.0 0.0 0.0 0.0 0.0 0.0 0.0 0.0
0.0 0.0 0.0 0.0 0.0 0.0 0.0 0.0
0.0 0.0 0.0 0.0 0.0 0.0 0.0 0.0
0.0 0.0 0.0 0.0 0.0 0.0 0.0 0.0
0.0 3.821045351209067e-06 -2.3699026704450488e-07 1.8813059003044962e-07 4.885967701404486e-08 -2.1939593733048324e-07 0.0 0.0
0.0 0.00024836818800958544 -0.0001558509020026601 0.00012446647422103326 3.1384427781626816e-05 -9.274067695192461e-05 0.0 0.0
0.0 0.001420060072379709 -0.0011336774703863922 0.0009342636453877531 0.0001994138249986395 -0.0004650209877855595 0.0 0.0
0.0 0.00357681895918261 -0.0032125607200011045 0.002779890080200655 0.00043267063980045016 -0.0010722249287278094 0.0 0.0
0.0 0.007147686244064818 -0.006342413112417664 0.0057309036983269075 0.0006115094140907546 -0.0019288112762617785 0.0 0.0
0.0 0.011982565949943062 -0.010531697786943137 0.009790214917414441 0.0007414828695286858 -0.003008521828741799 0.0 0.0
0.0 0.018003764686499356 -0.01573564576855877 0.01488988637182698 0.0008457593967317871 -0.004234929377691105 0.0 0.0
0.0 0.02518893829828177 -0.021916482373670304 0.020975834282655075 0.0009406480910152324 -0.005501908065583603 0.0 0.0
0.0 0.033482365265543775 -0.02910531864816946 0.028073006679082687 0.0010323119690867524 -0.0067455396141782795 0.0 0.0
0.0 0.043165803097038206 -0.037398573560492865 0.03627565428781806 0.0011229192726747825 -0.008028091667987815 0.0 0.0
0.0 0.054029134339873025 -0.04690488794752693 0.045691135547504536 0.0012137524000224123 -0.009443767537503632 0.0 0.0
0.0 0.06633943899641621 -0.05761968486005227 0.05631378837647415 0.0013058964835781367 -0.010881335983144036 0.0 0.0
0.0 0.07978970160798567 -0.06929344387437944 0.06788803087042333 0.0014054130039561265 -0.012028564666506206 0.0 0.0
0.0 0.09332669493458157 -0.08105669145112193 0.0795219035398532 0.0015347879112687062 -0.01313831642325326 0.0 0.0
0.0 0.10427693642896058 -0.09049006783978586 0.08875453967228739 0.0017355281674984334 -0.01640890219668599 0.0 0.0
0.0 0.1073184333493451 -0.09270107161782244 0.09073410542567775 0.001966966192144723 -0.02465866591283352 0.0 0.0
0.0 0.09542578009239967 -0.08083772330024494 0.07865664492422186 0.002181078376023035 -0.03842846282135505 0.0 0.0
0.0 0.09542578009239436 -0.08083772330023738 0.07865664492421442 0.0021810783760229688 0.03842846282137938 0.0 0.0
0.0 0.10731843334932353 -0.09270107161780147 0.09073410542565725 0.0019669661921442013 0.024658665912863593 0.0 0.0
0.0 0.10427693642892494 -0.09049006783975348 0.08875453967225588 0.0017355281674975556 0.0164089021967088 0.0 0.0
0.0 0.0933266949345345 -0.08105669145108063 0.0795219035398126 0.0015347879112680518 0.013138316423257735 0.0 0.0
0.0 0.07978970160793361 -0.06929344387433416 0.06788803087037838 0.0014054130039557844 0.012028564666506349 0.0 0.0
0.0 0.06633943899636047 -0.057619684860004045 0.0563137883764258 0.0013058964835782642 0.010881335983142316 0.0 0.0
0.0 0.05402913433981356 -0.046904887947475826 0.0456911355474528 0.001213752400023004 0.009443767537498008 0.0 0.0
0.0 0.04316580309698083 -0.03739857356044308 0.036275654287768536 0.001122919272674552 0.008028091667980772 0.0 0.0
0.0 0.03348236526548978 -0.029105318648122394 0.0280730066790364 0.00103231196908599 0.006745539614171921 0.0 0.0
0.0 0.025188938298234268 -0.02191648237362842 0.020975834282614132 0.0009406480910142837 0.005501908065572422 0.0 0.0
0.0 0.018003764686458756 -0.01573564576852303 0.014889886371791962 0.000845759396731071 0.004234929377679735 0.0 0.0
0.0 0.011982565949912379 -0.010531697786915834 0.00979021491738795 0.0007414828695278857 0.0030085218287341153 0.0 0.0
0.0 0.007147686244041883 -0.006342413112396987 0.005730903698307121 0.0006115094140898654 0.0019288112762556485 0.0 0.0
0.0 0.0035768189591671388 -0.0032125607199869973 0.002779890080187741 0.0004326706397992564 0.0010722249287232052 0.0 0.0
0.0 0.0014200600723717634 -0.0011336774703799386 0.0009342636453822214 0.00019941382499771618 0.0004650209877827146 0.0 0.0
0.0 0.0002483681880071394 -0.0001558509020014723 0.00012446647422006724 3.138442778140515e-05 9.274067695124762e-05 0.0 0.0
0.0 3.821045350624409e-06 -2.3699026725434692e-07 1.881305901940965e-07 4.88596770602589e-08 2.1939593752924813e-07 0.0 0.0
0.0 0.0 0.0 0.0 0.0 0.0 0.0 0.0
0.0 0.0 0.0 0.0 0.0 0.0 0.0 0.0
0.0 0.0 0.0 0.0 0.0 0.0 0.0 0.0
0.0 0.0 0.0 0.0 0.0 0.0 0.0 0.0
0.0 0.0 0.0 0.0 0.0 0.0 0.0 0.0
0.0 0.0 0.0 0.0 0.0 0.0 0.0 0.0
0.0 8.350178470062479e-06 1.2573615777277727e-07 -7.592180186337171e-08 -4.981435590937611e-08 3.28453034673663e-08 0.0 0.0
0.0 0.000493593910504593 -0.00033015016544502967 0.0002653195975693507 6.483056787567909e-05 -0.00011254125530962485 0.0 0.0
0.0 0.0018619968103048825 -0.0017084404091084189 0.001426799707691018 0.0002816407014173997 -0.0003975837017824826 0.0 0.0
0.0 0.004582121921327572 -0.0041376090594906515 0.003638283262099722 0.0004993257973909283 -0.0008033221108184518 0.0 0.0
0.0 0.008620629412884493 -0.007684310952286333 0.007024707749421376 0.0006596032028649565 -0.001376027284997246 0.0 0.0
0.0 0.014045985353082597 -0.012397306872062626 0.011617971157619193 0.0007793357144434275 -0.00211333746274409 0.0 0.0
0.0 0.020817916218391012 -0.01826416832376638 0.017380683528112 0.0008834847956543737 -0.002965951336751209 0.0 0.0
0.0 0.028924106034270765 -0.02526892590134474 0.024285371339538966 0.000983554561805783 -0.003845749330109381 0.0 0.0
0.0 0.038455488931323015 -0.03345316587897949 0.03237067755638488 0.001082488322594594 -0.004710444592475662 0.0 0.0
0.0 0.04923267550290678 -0.04291685121668849 0.0417350062993858 0.0011818449173026776 -0.005637477383281483 0.0 0.0
0.0 0.061619908377279084 -0.053716929384684246 0.052433677763282296 0.0012832516214019152 -0.006652521185312366 0.0 0.0
0.0 0.07548752599518292 -0.06574784503209534 0.06435928939888419 0.0013885556332111425 -0.007627143527020579 0.0 0.0
0.0 0.09027171812910138 -0.07859474864623839 0.0770966260834008 0.0014981225628375896 -0.008214304942776031 0.0 0.0
0.0 0.10493737425356225 -0.09136062219902964 0.0897430257157285 0.0016175964833012285 -0.00807712821317149 0.0 0.0
0.0 0.1173687415232635 -0.10215196055626768 0.10036652312895247 0.001785437427315214 -0.009029573027499023 0.0 0.0
0.0 0.1225633605117448 -0.10632119074377622 0.10421770877465769 0.0021034819691184425 -0.0182302095049259 0.0 0.0
0.0 0.11157714035557702 -0.09489804917483498 0.09252570061467501 0.0023723485601599664 -0.04066172963853507 0.0 0.0
0.0 0.11157714035556787 -0.09489804917482556 0.09252570061466481 0.0023723485601606954 0.0406617296385521 0.0 0.0
0.0 0.1225633605117181 -0.10632119074375217 0.10421770877463356 0.002103481969118546 0.018230209504949108 0.0 0.0
0.0 0.11736874152322078 -0.10215196055623013 0.10036652312891536 0.0017854374273147426 0.00902957302751595 0.0 0.0
0.0 0.1049373742535088 -0.09136062219898297 0.08974302571568249 0.0016175964833004394 0.008077128213173792 0.0 0.0
0.0 0.09027171812904296 -0.07859474864618728 0.07709662608335088 0.0014981225628363606 0.008214304942776226 0.0 0.0
0.0 0.07548752599512164 -0.06574784503204165 0.06435928939883188 0.0013885556332097842 0.007627143527019322 0.0 0.0
0.0 0.06161990837721534 -0.053716929384628596 0.052433677763227805 0.0012832516214007713 0.006652521185309587 0.0 0.0
0.0 0.04923267550284354 -0.042916851216633384 0.04173500629933159 0.001181844917301781 0.005637477383275906 0.0 0.0
0.0 0.03845548893126357 -0.033453165878927396 0.03237067755633359 0.0010824883225937997 0.0047104445924717655 0.0 0.0
0.0 0.028924106034215566 -0.02526892590129659 0.02428537133949152 0.0009835545618050497 0.0038457493301009772 0.0 0.0
0.0 0.020817916218344633 -0.018264168323725613 0.01738068352807208 0.000883484795653546 0.00296595133674281 0.0 0.0
0.0 0.014045985353046221 -0.01239730687203008 0.011617971157587396 0.0007793357144426859 0.0021133374627391698 0.0 0.0
0.0 0.008620629412858717 -0.00768431095226302 0.007024707749399033 0.0006596032028639853 0.0013760272849930241 0.0 0.0
0.0 0.0045821219213105805 -0.004137609059474903 0.0036382832620850463 0.0004993257973898545 0.0008033221108151875 0.0 0.0
0.0 0.0018619968102954172 -0.00170844040909961 0.00142679970768335 0.00028164070141626035 0.0003975837017805412 0.0 0.0
0.0 0.0004935939105001186 -0.0003301501654419359 0.00026531959756682797 6.483056787510772e-05 0.00011254125530875856 0.0 0.0
0.0 8.350178469391256e-06 1.257361575021585e-07 -7.592180165163629e-08 -4.98143558505686e-08 -3.2845303302456395e-08 0.0 0.0
0.0 0.0 0.0 0.0 0.0 0.0 0.0 0.0
0.0 0.0 0.0 0.0 0.0 0.0 0.0 0.0
0.0 0.0 0.0 0.0 0.0 0.0 0.0 0.0
0.0 0.0 0.0 0.0 0.0 0.0 0.0 0.0
0.0 0.0 0.0 0.0 0.0 0.0 0.0 0.0
0.0 0.0 0.0 0.0 0.0 0.0 0.0 0.0
0.0 3.106728164306364e-05 -1.4898108479235992e-05 1.1777858957035533e-05 3.1202495222006037e-06 -4.357496603351617e-06 0.0 0.0
0.0 0.0008677440108449822 -0.0005974131405766262 0.00048341798771718233 0.00011399515285944385 -8.056184591429863e-05 0.0 0.0
0.0 0.002529960582942899 -0.0023220328138594897 0.0019666068863830005 0.00035542592747648876 -0.00019220504428432516 0.0 0.0
0.0 0.005624121286683509 -0.005085095034756853 0.004532015631309076 0.0005530794034477737 -0.0003569005913392737 0.0 0.0
0.0 0.010129789237017647 -0.009025005791921262 0.008328002207530483 0.000697003584390774 -0.0005853107690309775 0.0 0.0
0.0 0.01613847169099843 -0.014246178663454342 0.01343578257647682 0.0008103960869775249 -0.0008990597638059746 0.0 0.0
0.0 0.023679130568616747 -0.02076774355204334 0.01985173156842506 0.0009160119836182788 -0.0012773457705645957 0.0 0.0
0.0 0.03278488630954834 -0.028601255347505617 0.02757970009227683 0.00102155525522878 -0.0016698587854939151 0.0 0.0
0.0 0.043229396681141306 -0.037799053743920744 0.03667034247847112 0.0011287112654496069 -0.0020779505326649402 0.0 0.0
0.0 0.05539394213460736 -0.048424027464657994 0.04718700448368037 0.001237022980977599 -0.0025110750332188983 0.0 0.0
0.0 0.06929698522405732 -0.06049530732411921 0.05914643737370021 0.001348869950418963 -0.00295665874455457 0.0 0.0
0.0 0.08464483489826538 -0.0738187169746635 0.07235158671400502 0.0014671302606584914 -0.0033493997987034518 0.0 0.0
0.0 0.10075365624094469 -0.08778155954769086 0.0861904676198234 0.0015910919278674586 -0.003464995010798779 0.0 0.0
0.0 0.11629834266242192 -0.10126322706809752 0.09954904680963679 0.0017141802584606822 -0.002926046995069975 0.0 0.0
0.0 0.12937476250869057 -0.11264236055817935 0.110805553115772 0.0018368074424072868 -0.0017251689130185848 0.0 0.0
0.0 0.13697875969893714 -0.11914694738444352 0.11711649694255509 0.002030450441888353 -0.005928490097457186 0.0 0.0
0.0 0.13045053043260216 -0.1117664344664378 0.10903275972668823 0.0027336747397495365 -0.037627253918614795 0.0 0.0
0.0 0.1304505304325943 -0.11176643446643011 0.10903275972668107 0.0027336747397490122 0.03762725391862219 0.0 0.0
0.0 0.13697875969890794 -0.11914694738441779 0.11711649694253007 0.0020304504418876797 0.0059284900974672945 0.0 0.0
0.0 0.12937476250864172 -0.11264236055813681 0.11080555311573015 0.001836807442406588 0.0017251689130266573 0.0 0.0
0.0 0.11629834266236039 -0.10126322706804398 0.09954904680958387 0.0017141802584600624 0.0029260469950691042 0.0 0.0
0.0 0.10075365624087809 -0.08778155954763309 0.0861904676197659 0.0015910919278671605 0.003464995010798899 0.0 0.0
0.0 0.08464483489819563 -0.0738187169746031 0.07235158671394473 0.0014671302606583197 0.003349399798702979 0.0 0.0
0.0 0.06929698522398572 -0.060495307324057265 0.05914643737363847 0.0013488699504187861 0.0029566587445533188 0.0 0.0
0.0 0.0553939421345363 -0.048424027464596356 0.0471870044836191 0.001237022980977217 0.002511075033216456 0.0 0.0
0.0 0.04322939668107208 -0.03779905374386058 0.036670342478411465 0.0011287112654490906 0.0020779505326643634 0.0 0.0
0.0 0.032784886309486984 -0.02860125534745204 0.02757970009222398 0.001021555255228059 0.0016698587854886019 0.0 0.0
0.0 0.023679130568568137 -0.020767743552001 0.019851731568383504 0.0009160119836174982 0.0012773457705608777 0.0 0.0
0.0 0.01613847169095957 -0.014246178663419838 0.013435782576443085 0.0008103960869767506 0.0008990597638043375 0.0 0.0
0.0 0.010129789236988238 -0.009025005791894688 0.008328002207504587 0.0006970035843901007 0.0005853107690291083 0.0 0.0
0.0 0.005624121286663201 -0.00508509503473829 0.004532015631291363 0.0005530794034469267 0.00035690059133790605 0.0 0.0
0.0 0.002529960582931424 -0.002322032813848511 0.001966606886373087 0.00035542592747542413 0.00019220504428330836 0.0 0.0
0.0 0.0008677440108398522 -0.0005974131405729563 0.0004834179877141532 0.00011399515285880364 8.05618459139363e-05 0.0 0.0
0.0 3.106728164241272e-05 -1.4898108479346476e-05 1.1777858957108517e-05 3.120249522237947e-06 4.357496603321788e-06 0.0 0.0
0.0 0.0 0.0 0.0 0.0 0.0 0.0 0.0
0.0 0.0 0.0 0.0 0.0 0.0 0.0 0.0
0.0 0.0 0.0 0.0 0.0 0.0 0.0 0.0