# vtk DataFile Version 3.0
Some data
ASCII
DATASET UNSTRUCTURED_GRID
POINTS 861 float
0.0 0.0 0.0
0.4 0.0 0.0
0.8 0.0 0.0
1.2000000000000002 0.0 0.0
1.6 0.0 0.0
2.0 0.0 0.0
2.4000000000000004 0.0 0.0
2.8000000000000003 0.0 0.0
3.2 0.0 0.0
3.6 0.0 0.0
4.0 0.0 0.0
4.4 0.0 0.0
4.800000000000001 0.0 0.0
5.2 0.0 0.0
5.6000000000000005 0.0 0.0
6.0 0.0 0.0
6.4 0.0 0.0
6.800000000000001 0.0 0.0
7.2 0.0 0.0
7.6000000000000005 0.0 0.0
8.0 0.0 0.0
8.4 0.0 0.0
8.8 0.0 0.0
9.200000000000001 0.0 0.0
9.600000000000001 0.0 0.0
10.0 0.0 0.0
10.4 0.0 0.0
10.8 0.0 0.0
11.200000000000001 0.0 0.0
11.600000000000001 0.0 0.0
12.0 0.0 0.0
12.4 0.0 0.0
12.8 0.0 0.0
13.200000000000001 0.0 0.0
13.600000000000001 0.0 0.0
14.0 0.0 0.0
14.4 0.0 0.0
14.8 0.0 0.0
15.200000000000001 0.0 0.0
15.600000000000001 0.0 0.0
16.0 0.0 0.0
0.0 0.1 0.0
0.4 0.1 0.0
0.8 0.1 0.0
1.2000000000000002 0.1 0.0
1.6 0.1 0.0
2.0 0.1 0.0
2.4000000000000004 0.1 0.0
2.8000000000000003 0.1 0.0
3.2 0.1 0.0
3.6 0.1 0.0
4.0 0.1 0.0
4.4 0.1 0.0
4.800000000000001 0.1 0.0
5.2 0.1 0.0
5.6000000000000005 0.1 0.0
6.0 0.1 0.0
6.4 0.1 0.0
6.800000000000001 0.1 0.0
7.2 0.1 0.0
7.6000000000000005 0.1 0.0
8.0 0.1 0.0
8.4 0.1 0.0
8.8 0.1 0.0
9.200000000000001 0.1 0.0
9.600000000000001 0.1 0.0
10.0 0.1 0.0
10.4 0.1 0.0
10.8 0.1 0.0
11.200000000000001 0.1 0.0
11.600000000000001 0.1 0.0
12.0 0.1 0.0
12.4 0.1 0.0
12.8 0.1 0.0
13.200000000000001 0.1 0.0
13.600000000000001 0.1 0.0
14.0 0.1 0.0
14.4 0.1 0.0
14.8 0.1 0.0
15.200000000000001 0.1 0.0
15.600000000000001 0.1 0.0
16.0 0.1 0.0
0.0 0.2 0.0
0.4 0.2 0.0
0.8 0.2 0.0
1.2000000000000002 0.2 0.0
1.6 0.2 0.0
2.0 0.2 0.0
2.4000000000000004 0.2 0.0
2.8000000000000003 0.2 0.0
3.2 0.2 0.0
3.6 0.2 0.0
4.0 0.2 0.0
4.4 0.2 0.0
4.800000000000001 0.2 0.0
5.2 0.2 0.0
5.6000000000000005 0.2 0.0
6.0 0.2 0.0
6.4 0.2 0.0
6.800000000000001 0.2 0.0
7.2 0.2 0.0
7.6000000000000005 0.2 0.0
8.0 0.2 0.0
8.4 0.2 0.0
8.8 0.2 0.0
9.200000000000001 0.2 0.0
9.600000000000001 0.2 0.0
10.0 0.2 0.0
10.4 0.2 0.0
10.8 0.2 0.0
11.200000000000001 0.2 0.0
11.600000000000001 0.2 0.0
12.0 0.2 0.0
12.4 0.2 0.0
12.8 0.2 0.0
13.200000000000001 0.2 0.0
13.600000000000001 0.2 0.0
14.0 0.2 0.0
14.4 0.2 0.0
14.8 0.2 0.0
15.200000000000001 0.2 0.0
15.600000000000001 0.2 0.0
16.0 0.2 0.0
0.0 0.30000000000000004 0.0
0.4 0.30000000000000004 0.0
0.8 0.30000000000000004 0.0
1.2000000000000002 0.30000000000000004 0.0
1.6 0.30000000000000004 0.0
2.0 0.30000000000000004 0.0
2.4000000000000004 0.30000000000000004 0.0
2.8000000000000003 0.30000000000000004 0.0
3.2 0.30000000000000004 0.0
3.6 0.30000000000000004 0.0
4.0 0.30000000000000004 0.0
4.4 0.30000000000000004 0.0
4.800000000000001 0.30000000000000004 0.0
5.2 0.30000000000000004 0.0
5.6000000000000005 0.30000000000000004 0.0
6.0 0.30000000000000004 0.0
6.4 0.30000000000000004 0.0
6.800000000000001 0.30000000000000004 0.0
7.2 0.30000000000000004 0.0
7.6000000000000005 0.30000000000000004 0.0
8.0 0.30000000000000004 0.0
8.4 0.30000000000000004 0.0
8.8 0.30000000000000004 0.0
9.200000000000001 0.30000000000000004 0.0
9.600000000000001 0.30000000000000004 0.0
10.0 0.30000000000000004 0.0
10.4 0.30000000000000004 0.0
10.8 0.30000000000000004 0.0
11.200000000000001 0.30000000000000004 0.0
11.600000000000001 0.30000000000000004 0.0
12.0 0.30000000000000004 0.0
12.4 0.30000000000000004 0.0
12.8 0.30000000000000004 0.0
13.200000000000001 0.30000000000000004 0.0
13.600000000000001 0.30000000000000004 0.0
14.0 0.30000000000000004 0.0
14.4 0.30000000000000004 0.0
14.8 0.30000000000000004 0.0
15.200000000000001 0.30000000000000004 0.0
15.600000000000001 0.30000000000000004 0.0
16.0 0.30000000000000004 0.0
0.0 0.4 0.0
0.4 0.4 0.0
0.8 0.4 0.0
1.2000000000000002 0.4 0.0
1.6 0.4 0.0
2.0 0.4 0.0
2.4000000000000004 0.4 0.0
2.8000000000000003 0.4 0.0
3.2 0.4 0.0
3.6 0.4 0.0
4.0 0.4 0.0
4.4 0.4 0.0
4.800000000000001 0.4 0.0
5.2 0.4 0.0
5.6000000000000005 0.4 0.0
6.0 0.4 0.0
6.4 0.4 0.0
6.800000000000001 0.4 0.0
7.2 0.4 0.0
7.6000000000000005 0.4 0.0
8.0 0.4 0.0
8.4 0.4 0.0
8.8 0.4 0.0
9.200000000000001 0.4 0.0
9.600000000000001 0.4 0.0
10.0 0.4 0.0
10.4 0.4 0.0
10.8 0.4 0.0
11.200000000000001 0.4 0.0
11.600000000000001 0.4 0.0
12.0 0.4 0.0
12.4 0.4 0.0
12.8 0.4 0.0
13.200000000000001 0.4 0.0
13.600000000000001 0.4 0.0
14.0 0.4 0.0
14.4 0.4 0.0
14.8 0.4 0.0
15.200000000000001 0.4 0.0
15.600000000000001 0.4 0.0
16.0 0.4 0.0
0.0 0.5 0.0
0.4 0.5 0.0
0.8 0.5 0.0
1.2000000000000002 0.5 0.0
1.6 0.5 0.0
2.0 0.5 0.0
2.4000000000000004 0.5 0.0
2.8000000000000003 0.5 0.0
3.2 0.5 0.0
3.6 0.5 0.0
4.0 0.5 0.0
4.4 0.5 0.0
4.800000000000001 0.5 0.0
5.2 0.5 0.0
5.6000000000000005 0.5 0.0
6.0 0.5 0.0
6.4 0.5 0.0
6.800000000000001 0.5 0.0
7.2 0.5 0.0
7.6000000000000005 0.5 0.0
8.0 0.5 0.0
8.4 0.5 0.0
8.8 0.5 0.0
9.200000000000001 0.5 0.0
9.600000000000001 0.5 0.0
10.0 0.5 0.0
10.4 0.5 0.0
10.8 0.5 0.0
11.200000000000001 0.5 0.0
11.600000000000001 0.5 0.0
12.0 0.5 0.0
12.4 0.5 0.0
12.8 0.5 0.0
13.200000000000001 0.5 0.0
13.600000000000001 0.5 0.0
14.0 0.5 0.0
14.4 0.5 0.0
14.8 0.5 0.0
15.200000000000001 0.5 0.0
15.600000000000001 0.5 0.0
16.0 0.5 0.0
0.0 0.6000000000000001 0.0
0.4 0.6000000000000001 0.0
0.8 0.6000000000000001 0.0
1.2000000000000002 0.6000000000000001 0.0
1.6 0.6000000000000001 0.0
2.0 0.6000000000000001 0.0
2.4000000000000004 0.6000000000000001 0.0
2.8000000000000003 0.6000000000000001 0.0
3.2 0.6000000000000001 0.0
3.6 0.6000000000000001 0.0
4.0 0.6000000000000001 0.0
4.4 0.6000000000000001 0.0
4.800000000000001 0.6000000000000001 0.0
5.2 0.6000000000000001 0.0
5.6000000000000005 0.6000000000000001 0.0
6.0 0.6000000000000001 0.0
6.4 0.6000000000000001 0.0
6.800000000000001 0.6000000000000001 0.0
7.2 0.6000000000000001 0.0
7.6000000000000005 0.6000000000000001 0.0
8.0 0.6000000000000001 0.0
8.4 0.6000000000000001 0.0
8.8 0.6000000000000001 0.0
9.200000000000001 0.6000000000000001 0.0
9.600000000000001 0.6000000000000001 0.0
10.0 0.6000000000000001 0.0
10.4 0.6000000000000001 0.0
10.8 0.6000000000000001 0.0
11.200000000000001 0.6000000000000001 0.0
11.600000000000001 0.6000000000000001 0.0
12.0 0.6000000000000001 0.0
12.4 0.6000000000000001 0.0
12.8 0.6000000000000001 0.0
13.200000000000001 0.6000000000000001 0.0
13.600000000000001 0.6000000000000001 0.0
14.0 0.6000000000000001 0.0
14.4 0.6000000000000001 0.0
14.8 0.6000000000000001 0.0
15.200000000000001 0.6000000000000001 0.0
15.600000000000001 0.6000000000000001 0.0
16.0 0.6000000000000001 0.0
0.0 0.7000000000000001 0.0
0.4 0.7000000000000001 0.0
0.8 0.7000000000000001 0.0
1.2000000000000002 0.7000000000000001 0.0
1.6 0.7000000000000001 0.0
2.0 0.7000000000000001 0.0
2.4000000000000004 0.7000000000000001 0.0
2.8000000000000003 0.7000000000000001 0.0
3.2 0.7000000000000001 0.0
3.6 0.7000000000000001 0.0
4.0 0.7000000000000001 0.0
4.4 0.7000000000000001 0.0
4.800000000000001 0.7000000000000001 0.0
5.2 0.7000000000000001 0.0
5.6000000000000005 0.7000000000000001 0.0
6.0 0.7000000000000001 0.0
6.4 0.7000000000000001 0.0
6.800000000000001 0.7000000000000001 0.0
7.2 0.7000000000000001 0.0
7.6000000000000005 0.7000000000000001 0.0
8.0 0.7000000000000001 0.0
8.4 0.7000000000000001 0.0
8.8 0.7000000000000001 0.0
9.200000000000001 0.7000000000000001 0.0
9.600000000000001 0.7000000000000001 0.0
10.0 0.7000000000000001 0.0
10.4 0.7000000000000001 0.0
10.8 0.7000000000000001 0.0
11.200000000000001 0.7000000000000001 0.0
11.600000000000001 0.7000000000000001 0.0
12.0 0.7000000000000001 0.0
12.4 0.7000000000000001 0.0
12.8 0.7000000000000001 0.0
13.200000000000001 0.7000000000000001 0.0
13.600000000000001 0.7000000000000001 0.0
14.0 0.7000000000000001 0.0
14.4 0.7000000000000001 0.0
14.8 0.7000000000000001 0.0
15.200000000000001 0.7000000000000001 0.0
15.600000000000001 0.7000000000000001 0.0
16.0 0.7000000000000001 0.0
0.0 0.8 0.0
0.4 0.8 0.0
0.8 0.8 0.0
1.2000000000000002 0.8 0.0
1.6 0.8 0.0
2.0 0.8 0.0
2.4000000000000004 0.8 0.0
2.8000000000000003 0.8 0.0
3.2 0.8 0.0
3.6 0.8 0.0
4.0 0.8 0.0
4.4 0.8 0.0
4.800000000000001 0.8 0.0
5.2 0.8 0.0
5.6000000000000005 0.8 0.0
6.0 0.8 0.0
6.4 0.8 0.0
6.800000000000001 0.8 0.0
7.2 0.8 0.0
7.6000000000000005 0.8 0.0
8.0 0.8 0.0
8.4 0.8 0.0
8.8 0.8 0.0
9.200000000000001 0.8 0.0
9.600000000000001 0.8 0.0
10.0 0.8 0.0
10.4 0.8 0.0
10.8 0.8 0.0
11.200000000000001 0.8 0.0
11.600000000000001 0.8 0.0
12.0 0.8 0.0
12.4 0.8 0.0
12.8 0.8 0.0
13.200000000000001 0.8 0.0
13.600000000000001 0.8 0.0
14.0 0.8 0.0
14.4 0.8 0.0
14.8 0.8 0.0
15.200000000000001 0.8 0.0
15.600000000000001 0.8 0.0
16.0 0.8 0.0
0.0 0.9 0.0
0.4 0.9 0.0
0.8 0.9 0.0
1.2000000000000002 0.9 0.0
1.6 0.9 0.0
2.0 0.9 0.0
2.4000000000000004 0.9 0.0
2.8000000000000003 0.9 0.0
3.2 0.9 0.0
3.6 0.9 0.0
4.0 0.9 0.0
4.4 0.9 0.0
4.800000000000001 0.9 0.0
5.2 0.9 0.0
5.6000000000000005 0.9 0.0
6.0 0.9 0.0
6.4 0.9 0.0
6.800000000000001 0.9 0.0
7.2 0.9 0.0
7.6000000000000005 0.9 0.0
8.0 0.9 0.0
8.4 0.9 0.0
8.8 0.9 0.0
9.200000000000001 0.9 0.0
9.600000000000001 0.9 0.0
10.0 0.9 0.0
10.4 0.9 0.0
10.8 0.9 0.0
11.200000000000001 0.9 0.0
11.600000000000001 0.9 0.0
12.0 0.9 0.0
12.4 0.9 0.0
12.8 0.9 0.0
13.200000000000001 0.9 0.0
13.600000000000001 0.9 0.0
14.0 0.9 0.0
14.4 0.9 0.0
14.8 0.9 0.0
15.200000000000001 0.9 0.0
15.600000000000001 0.9 0.0
16.0 0.9 0.0
0.0 1.0 0.0
0.4 1.0 0.0
0.8 1.0 0.0
1.2000000000000002 1.0 0.0
1.6 1.0 0.0
2.0 1.0 0.0
2.4000000000000004 1.0 0.0
2.8000000000000003 1.0 0.0
3.2 1.0 0.0
3.6 1.0 0.0
4.0 1.0 0.0
4.4 1.0 0.0
4.800000000000001 1.0 0.0
5.2 1.0 0.0
5.6000000000000005 1.0 0.0
6.0 1.0 0.0
6.4 1.0 0.0
6.800000000000001 1.0 0.0
7.2 1.0 0.0
7.6000000000000005 1.0 0.0
8.0 1.0 0.0
8.4 1.0 0.0
8.8 1.0 0.0
9.200000000000001 1.0 0.0
9.600000000000001 1.0 0.0
10.0 1.0 0.0
10.4 1.0 0.0
10.8 1.0 0.0
11.200000000000001 1.0 0.0
11.600000000000001 1.0 0.0
12.0 1.0 0.0
12.4 1.0 0.0
12.8 1.0 0.0
13.200000000000001 1.0 0.0
13.600000000000001 1.0 0.0
14.0 1.0 0.0
14.4 1.0 0.0
14.8 1.0 0.0
15.200000000000001 1.0 0.0
15.600000000000001 1.0 0.0
16.0 1.0 0.0
0.0 1.1 0.0
0.4 1.1 0.0
0.8 1.1 0.0
1.2000000000000002 1.1 0.0
1.6 1.1 0.0
2.0 1.1 0.0
2.4000000000000004 1.1 0.0
2.8000000000000003 1.1 0.0
3.2 1.1 0.0
3.6 1.1 0.0
4.0 1.1 0.0
4.4 1.1 0.0
4.800000000000001 1.1 0.0
5.2 1.1 0.0
5.6000000000000005 1.1 0.0
6.0 1.1 0.0
6.4 1.1 0.0
6.800000000000001 1.1 0.0
7.2 1.1 0.0
7.6000000000000005 1.1 0.0
8.0 1.1 0.0
8.4 1.1 0.0
8.8 1.1 0.0
9.200000000000001 1.1 0.0
9.600000000000001 1.1 0.0
10.0 1.1 0.0
10.4 1.1 0.0
10.8 1.1 0.0
11.200000000000001 1.1 0.0
11.600000000000001 1.1 0.0
12.0 1.1 0.0
12.4 1.1 0.0
12.8 1.1 0.0
13.200000000000001 1.1 0.0
13.600000000000001 1.1 0.0
14.0 1.1 0.0
14.4 1.1 0.0
14.8 1.1 0.0
15.200000000000001 1.1 0.0
15.600000000000001 1.1 0.0
16.0 1.1 0.0
0.0 1.2000000000000002 0.0
0.4 1.2000000000000002 0.0
0.8 1.2000000000000002 0.0
1.2000000000000002 1.2000000000000002 0.0
1.6 1.2000000000000002 0.0
2.0 1.2000000000000002 0.0
2.4000000000000004 1.2000000000000002 0.0
2.8000000000000003 1.2000000000000002 0.0
3.2 1.2000000000000002 0.0
3.6 1.2000000000000002 0.0
4.0 1.2000000000000002 0.0
4.4 1.2000000000000002 0.0
4.800000000000001 1.2000000000000002 0.0
5.2 1.2000000000000002 0.0
5.6000000000000005 1.2000000000000002 0.0
6.0 1.2000000000000002 0.0
6.4 1.2000000000000002 0.0
6.800000000000001 1.2000000000000002 0.0
7.2 1.2000000000000002 0.0
7.6000000000000005 1.2000000000000002 0.0
8.0 1.2000000000000002 0.0
8.4 1.2000000000000002 0.0
8.8 1.2000000000000002 0.0
9.200000000000001 1.2000000000000002 0.0
9.600000000000001 1.2000000000000002 0.0
10.0 1.2000000000000002 0.0
10.4 1.2000000000000002 0.0
10.8 1.2000000000000002 0.0
11.200000000000001 1.2000000000000002 0.0
11.600000000000001 1.2000000000000002 0.0
12.0 1.2000000000000002 0.0
12.4 1.2000000000000002 0.0
12.8 1.2000000000000002 0.0
13.200000000000001 1.2000000000000002 0.0
13.600000000000001 1.2000000000000002 0.0
14.0 1.2000000000000002 0.0
14.4 1.2000000000000002 0.0
14.8 1.2000000000000002 0.0
15.200000000000001 1.2000000000000002 0.0
15.600000000000001 1.2000000000000002 0.0
16.0 1.2000000000000002 0.0
0.0 1.3 0.0
0.4 1.3 0.0
0.8 1.3 0.0
1.2000000000000002 1.3 0.0
1.6 1.3 0.0
2.0 1.3 0.0
2.4000000000000004 1.3 0.0
2.8000000000000003 1.3 0.0
3.2 1.3 0.0
3.6 1.3 0.0
4.0 1.3 0.0
4.4 1.3 0.0
4.800000000000001 1.3 0.0
5.2 1.3 0.0
5.6000000000000005 1.3 0.0
6.0 1.3 0.0
6.4 1.3 0.0
6.800000000000001 1.3 0.0
7.2 1.3 0.0
7.6000000000000005 1.3 0.0
8.0 1.3 0.0
8.4 1.3 0.0
8.8 1.3 0.0
9.200000000000001 1.3 0.0
9.600000000000001 1.3 0.0
10.0 1.3 0.0
10.4 1.3 0.0
10.8 1.3 0.0
11.200000000000001 1.3 0.0
11.600000000000001 1.3 0.0
12.0 1.3 0.0
12.4 1.3 0.0
12.8 1.3 0.0
13.200000000000001 1.3 0.0
13.600000000000001 1.3 0.0
14.0 1.3 0.0
14.4 1.3 0.0
14.8 1.3 0.0
15.200000000000001 1.3 0.0
15.600000000000001 1.3 0.0
16.0 1.3 0.0
0.0 1.4000000000000001 0.0
0.4 1.4000000000000001 0.0
0.8 1.4000000000000001 0.0
1.2000000000000002 1.4000000000000001 0.0
1.6 1.4000000000000001 0.0
2.0 1.4000000000000001 0.0
2.4000000000000004 1.4000000000000001 0.0
2.8000000000000003 1.4000000000000001 0.0
3.2 1.4000000000000001 0.0
3.6 1.4000000000000001 0.0
4.0 1.4000000000000001 0.0
4.4 1.4000000000000001 0.0
4.800000000000001 1.4000000000000001 0.0
5.2 1.4000000000000001 0.0
5.6000000000000005 1.4000000000000001 0.0
6.0 1.4000000000000001 0.0
6.4 1.4000000000000001 0.0
6.800000000000001 1.4000000000000001 0.0
7.2 1.4000000000000001 0.0
7.6000000000000005 1.4000000000000001 0.0
8.0 1.4000000000000001 0.0
8.4 1.4000000000000001 0.0
8.8 1.4000000000000001 0.0
9.200000000000001 1.4000000000000001 0.0
9.600000000000001 1.4000000000000001 0.0
10.0 1.4000000000000001 0.0
10.4 1.4000000000000001 0.0
10.8 1.4000000000000001 0.0
11.200000000000001 1.4000000000000001 0.0
11.600000000000001 1.4000000000000001 0.0
12.0 1.4000000000000001 0.0
12.4 1.4000000000000001 0.0
12.8 1.4000000000000001 0.0
13.200000000000001 1.4000000000000001 0.0
13.600000000000001 1.4000000000000001 0.0
14.0 1.4000000000000001 0.0
14.4 1.4000000000000001 0.0
14.8 1.4000000000000001 0.0
15.200000000000001 1.4000000000000001 0.0
15.600000000000001 1.4000000000000001 0.0
16.0 1.4000000000000001 0.0
0.0 1.5 0.0
0.4 1.5 0.0
0.8 1.5 0.0
1.2000000000000002 1.5 0.0
1.6 1.5 0.0
2.0 1.5 0.0
2.4000000000000004 1.5 0.0
2.8000000000000003 1.5 0.0
3.2 1.5 0.0
3.6 1.5 0.0
4.0 1.5 0.0
4.4 1.5 0.0
4.800000000000001 1.5 0.0
5.2 1.5 0.0
5.6000000000000005 1.5 0.0
6.0 1.5 0.0
6.4 1.5 0.0
6.800000000000001 1.5 0.0
7.2 1.5 0.0
7.6000000000000005 1.5 0.0
8.0 1.5 0.0
8.4 1.5 0.0
8.8 1.5 0.0
9.200000000000001 1.5 0.0
9.600000000000001 1.5 0.0
10.0 1.5 0.0
10.4 1.5 0.0
10.8 1.5 0.0
11.200000000000001 1.5 0.0
11.600000000000001 1.5 0.0
12.0 1.5 0.0
12.4 1.5 0.0
12.8 1.5 0.0
13.200000000000001 1.5 0.0
13.600000000000001 1.5 0.0
14.0 1.5 0.0
14.4 1.5 0.0
14.8 1.5 0.0
15.200000000000001 1.5 0.0
15.600000000000001 1.5 0.0
16.0 1.5 0.0
0.0 1.6 0.0
0.4 1.6 0.0
0.8 1.6 0.0
1.2000000000000002 1.6 0.0
1.6 1.6 0.0
2.0 1.6 0.0
2.4000000000000004 1.6 0.0
2.8000000000000003 1.6 0.0
3.2 1.6 0.0
3.6 1.6 0.0
4.0 1.6 0.0
4.4 1.6 0.0
4.800000000000001 1.6 0.0
5.2 1.6 0.0
5.6000000000000005 1.6 0.0
6.0 1.6 0.0
6.4 1.6 0.0
6.800000000000001 1.6 0.0
7.2 1.6 0.0
7.6000000000000005 1.6 0.0
8.0 1.6 0.0
8.4 1.6 0.0
8.8 1.6 0.0
9.200000000000001 1.6 0.0
9.600000000000001 1.6 0.0
10.0 1.6 0.0
10.4 1.6 0.0
10.8 1.6 0.0
11.200000000000001 1.6 0.0
11.600000000000001 1.6 0.0
12.0 1.6 0.0
12.4 1.6 0.0
12.8 1.6 0.0
13.200000000000001 1.6 0.0
13.600000000000001 1.6 0.0
14.0 1.6 0.0
14.4 1.6 0.0
14.8 1.6 0.0
15.200000000000001 1.6 0.0
15.600000000000001 1.6 0.0
16.0 1.6 0.0
0.0 1.7000000000000002 0.0
0.4 1.7000000000000002 0.0
0.8 1.7000000000000002 0.0
1.2000000000000002 1.7000000000000002 0.0
1.6 1.7000000000000002 0.0
2.0 1.7000000000000002 0.0
2.4000000000000004 1.7000000000000002 0.0
2.8000000000000003 1.7000000000000002 0.0
3.2 1.7000000000000002 0.0
3.6 1.7000000000000002 0.0
4.0 1.7000000000000002 0.0
4.4 1.7000000000000002 0.0
4.800000000000001 1.7000000000000002 0.0
5.2 1.7000000000000002 0.0
5.6000000000000005 1.7000000000000002 0.0
6.0 1.7000000000000002 0.0
6.4 1.7000000000000002 0.0
6.800000000000001 1.7000000000000002 0.0
7.2 1.7000000000000002 0.0
7.6000000000000005 1.7000000000000002 0.0
8.0 1.7000000000000002 0.0
8.4 1.7000000000000002 0.0
8.8 1.7000000000000002 0.0
9.200000000000001 1.7000000000000002 0.0
9.600000000000001 1.7000000000000002 0.0
10.0 1.7000000000000002 0.0
10.4 1.7000000000000002 0.0
10.8 1.7000000000000002 0.0
11.200000000000001 1.7000000000000002 0.0
11.600000000000001 1.7000000000000002 0.0
12.0 1.7000000000000002 0.0
12.4 1.7000000000000002 0.0
12.8 1.7000000000000002 0.0
13.200000000000001 1.7000000000000002 0.0
13.600000000000001 1.7000000000000002 0.0
14.0 1.7000000000000002 0.0
14.4 1.7000000000000002 0.0
14.8 1.7000000000000002 0.0
15.200000000000001 1.7000000000000002 0.0
15.600000000000001 1.7000000000000002 0.0
16.0 1.7000000000000002 0.0
0.0 1.8 0.0
0.4 1.8 0.0
0.8 1.8 0.0
1.2000000000000002 1.8 0.0
1.6 1.8 0.0
2.0 1.8 0.0
2.4000000000000004 1.8 0.0
2.8000000000000003 1.8 0.0
3.2 1.8 0.0
3.6 1.8 0.0
4.0 1.8 0.0
4.4 1.8 0.0
4.800000000000001 1.8 0.0
5.2 1.8 0.0
5.6000000000000005 1.8 0.0
6.0 1.8 0.0
6.4 1.8 0.0
6.800000000000001 1.8 0.0
7.2 1.8 0.0
7.6000000000000005 1.8 0.0
8.0 1.8 0.0
8.4 1.8 0.0
8.8 1.8 0.0
9.200000000000001 1.8 0.0
9.600000000000001 1.8 0.0
10.0 1.8 0.0
10.4 1.8 0.0
10.8 1.8 0.0
11.200000000000001 1.8 0.0
11.600000000000001 1.8 0.0
12.0 1.8 0.0
12.4 1.8 0.0
12.8 1.8 0.0
13.200000000000001 1.8 0.0
13.600000000000001 1.8 0.0
14.0 1.8 0.0
14.4 1.8 0.0
14.8 1.8 0.0
15.200000000000001 1.8 0.0
15.600000000000001 1.8 0.0
16.0 1.8 0.0
0.0 1.9000000000000001 0.0
0.4 1.9000000000000001 0.0
0.8 1.9000000000000001 0.0
1.2000000000000002 1.9000000000000001 0.0
1.6 1.9000000000000001 0.0
2.0 1.9000000000000001 0.0
2.4000000000000004 1.9000000000000001 0.0
2.8000000000000003 1.9000000000000001 0.0
3.2 1.9000000000000001 0.0
3.6 1.9000000000000001 0.0
4.0 1.9000000000000001 0.0
4.4 1.9000000000000001 0.0
4.800000000000001 1.9000000000000001 0.0
5.2 1.9000000000000001 0.0
5.6000000000000005 1.9000000000000001 0.0
6.0 1.9000000000000001 0.0
6.4 1.9000000000000001 0.0
6.800000000000001 1.9000000000000001 0.0
7.2 1.9000000000000001 0.0
7.6000000000000005 1.9000000000000001 0.0
8.0 1.9000000000000001 0.0
8.4 1.9000000000000001 0.0
8.8 1.9000000000000001 0.0
9.200000000000001 1.9000000000000001 0.0
9.600000000000001 1.9000000000000001 0.0
10.0 1.9000000000000001 0.0
10.4 1.9000000000000001 0.0
10.8 1.9000000000000001 0.0
11.200000000000001 1.9000000000000001 0.0
11.600000000000001 1.9000000000000001 0.0
12.0 1.9000000000000001 0.0
12.4 1.9000000000000001 0.0
12.8 1.9000000000000001 0.0
13.200000000000001 1.9000000000000001 0.0
13.600000000000001 1.9000000000000001 0.0
14.0 1.9000000000000001 0.0
14.4 1.9000000000000001 0.0
14.8 1.9000000000000001 0.0
15.200000000000001 1.9000000000000001 0.0
15.600000000000001 1.9000000000000001 0.0
16.0 1.9000000000000001 0.0
0.0 2.0 0.0
0.4 2.0 0.0
0.8 2.0 0.0
1.2000000000000002 2.0 0.0
1.6 2.0 0.0
2.0 2.0 0.0
2.4000000000000004 2.0 0.0
2.8000000000000003 2.0 0.0
3.2 2.0 0.0
3.6 2.0 0.0
4.0 2.0 0.0
4.4 2.0 0.0
4.800000000000001 2.0 0.0
5.2 2.0 0.0
5.6000000000000005 2.0 0.0
6.0 2.0 0.0
6.4 2.0 0.0
6.800000000000001 2.0 0.0
7.2 2.0 0.0
7.6000000000000005 2.0 0.0
8.0 2.0 0.0
8.4 2.0 0.0
8.8 2.0 0.0
9.200000000000001 2.0 0.0
9.600000000000001 2.0 0.0
10.0 2.0 0.0
10.4 2.0 0.0
10.8 2.0 0.0
11.200000000000001 2.0 0.0
11.600000000000001 2.0 0.0
12.0 2.0 0.0
12.4 2.0 0.0
12.8 2.0 0.0
13.200000000000001 2.0 0.0
13.600000000000001 2.0 0.0
14.0 2.0 0.0
14.4 2.0 0.0
14.8 2.0 0.0
15.200000000000001 2.0 0.0
15.600000000000001 2.0 0.0
16.0 2.0 0.0
CELLS 800 4000
4 0 1 42 41
4 1 2 43 42
4 2 3 44 43
4 3 4 45 44
4 4 5 46 45
4 5 6 47 46
4 6 7 48 47
4 7 8 49 48
4 8 9 50 49
4 9 10 51 50
4 10 11 52 51
4 11 12 53 52
4 12 13 54 53
4 13 14 55 54
4 14 15 56 55
4 15 16 57 56
4 16 17 58 57
4 17 18 59 58
4 18 19 60 59
4 19 20 61 60
4 20 21 62 61
4 21 22 63 62
4 22 23 64 63
4 23 24 65 64
4 24 25 66 65
4 25 26 67 66
4 26 27 68 67
4 27 28 69 68
4 28 29 70 69
4 29 30 71 70
4 30 31 72 71
4 31 32 73 72
4 32 33 74 73
4 33 34 75 74
4 34 35 76 75
4 35 36 77 76
4 36 37 78 77
4 37 38 79 78
4 38 39 80 79
4 39 40 81 80
4 41 42 83 82
4 42 43 84 83
4 43 44 85 84
4 44 45 86 85
4 45 46 87 86
4 46 47 88 87
4 47 48 89 88
4 48 49 90 89
4 49 50 91 90
4 50 51 92 91
4 51 52 93 92
4 52 53 94 93
4 53 54 95 94
4 54 55 96 95
4 55 56 97 96
4 56 57 98 97
4 57 58 99 98
4 58 59 100 99
4 59 60 101 100
4 60 61 102 101
4 61 62 103 102
4 62 63 104 103
4 63 64 105 104
4 64 65 106 105
4 65 66 107 106
4 66 67 108 107
4 67 68 109 108
4 68 69 110 109
4 69 70 111 110
4 70 71 112 111
4 71 72 113 112
4 72 73 114 113
4 73 74 115 114
4 74 75 116 115
4 75 76 117 116
4 76 77 118 117
4 77 78 119 118
4 78 79 120 119
4 79 80 121 120
4 80 81 122 121
4 82 83 124 123
4 83 84 125 124
4 84 85 126 125
4 85 86 127 126
4 86 87 128 127
4 87 88 129 128
4 88 89 130 129
4 89 90 131 130
4 90 91 132 131
4 91 92 133 132
4 92 93 134 133
4 93 94 135 134
4 94 95 136 135
4 95 96 137 136
4 96 97 138 137
4 97 98 139 138
4 98 99 140 139
4 99 100 141 140
4 100 101 142 141
4 101 102 143 142
4 102 103 144 143
4 103 104 145 144
4 104 105 146 145
4 105 106 147 146
4 106 107 148 147
4 107 108 149 148
4 108 109 150 149
4 109 110 151 150
4 110 111 152 151
4 111 112 153 152
4 112 113 154 153
4 113 114 155 154
4 114 115 156 155
4 115 116 157 156
4 116 117 158 157
4 117 118 159 158
4 118 119 160 159
4 119 120 161 160
4 120 121 162 161
4 121 122 163 162
4 123 124 165 164
4 124 125 166 165
4 125 126 167 166
4 126 127 168 167
4 127 128 169 168
4 128 129 170 169
4 129 130 171 170
4 130 131 172 171
4 131 132 173 172
4 132 133 174 173
4 133 134 175 174
4 134 135 176 175
4 135 136 177 176
4 136 137 178 177
4 137 138 179 178
4 138 139 180 179
4 139 140 181 180
4 140 141 182 181
4 141 142 183 182
4 142 143 184 183
4 143 144 185 184
4 144 145 186 185
4 145 146 187 186
4 146 147 188 187
4 147 148 189 188
4 148 149 190 189
4 149 150 191 190
4 150 151 192 191
4 151 152 193 192
4 152 153 194 193
4 153 154 195 194
4 154 155 196 195
4 155 156 197 196
4 156 157 198 197
4 157 158 199 198
4 158 159 200 199
4 159 160 201 200
4 160 161 202 201
4 161 162 203 202
4 162 163 204 203
4 164 165 206 205
4 165 166 207 206
4 166 167 208 207
4 167 168 209 208
4 168 169 210 209
4 169 170 211 210
4 170 171 212 211
4 171 172 213 212
4 172 173 214 213
4 173 174 215 214
4 174 175 216 215
4 175 176 217 216
4 176 177 218 217
4 177 178 219 218
4 178 179 220 219
4 179 180 221 220
4 180 181 222 221
4 181 182 223 222
4 182 183 224 223
4 183 184 225 224
4 184 185 226 225
4 185 186 227 226
4 186 187 228 227
4 187 188 229 228
4 188 189 230 229
4 189 190 231 230
4 190 191 232 231
4 191 192 233 232
4 192 193 234 233
4 193 194 235 234
4 194 195 236 235
4 195 196 237 236
4 196 197 238 237
4 197 198 239 238
4 198 199 240 239
4 199 200 241 240
4 200 201 242 241
4 201 202 243 242
4 202 203 244 243
4 203 204 245 244
4 205 206 247 246
4 206 207 248 247
4 207 208 249 248
4 208 209 250 249
4 209 210 251 250
4 210 211 252 251
4 211 212 253 252
4 212 213 254 253
4 213 214 255 254
4 214 215 256 255
4 215 216 257 256
4 216 217 258 257
4 217 218 259 258
4 218 219 260 259
4 219 220 261 260
4 220 221 262 261
4 221 222 263 262
4 222 223 264 263
4 223 224 265 264
4 224 225 266 265
4 225 226 267 266
4 226 227 268 267
4 227 228 269 268
4 228 229 270 269
4 229 230 271 270
4 230 231 272 271
4 231 232 273 272
4 232 233 274 273
4 233 234 275 274
4 234 235 276 275
4 235 236 277 276
4 236 237 278 277
4 237 238 279 278
4 238 239 280 279
4 239 240 281 280
4 240 241 282 281
4 241 242 283 282
4 242 243 284 283
4 243 244 285 284
4 244 245 286 285
4 246 247 288 287
4 247 248 289 288
4 248 249 290 289
4 249 250 291 290
4 250 251 292 291
4 251 252 293 292
4 252 253 294 293
4 253 254 295 294
4 254 255 296 295
4 255 256 297 296
4 256 257 298 297
4 257 258 299 298
4 258 259 300 299
4 259 260 301 300
4 260 261 302 301
4 261 262 303 302
4 262 263 304 303
4 263 264 305 304
4 264 265 306 305
4 265 266 307 306
4 266 267 308 307
4 267 268 309 308
4 268 269 310 309
4 269 270 311 310
4 270 271 312 311
4 271 272 313 312
4 272 273 314 313
4 273 274 315 314
4 274 275 316 315
4 275 276 317 316
4 276 277 318 317
4 277 278 319 318
4 278 279 320 319
4 279 280 321 320
4 280 281 322 321
4 281 282 323 322
4 282 283 324 323
4 283 284 325 324
4 284 285 326 325
4 285 286 327 326
4 287 288 329 328
4 288 289 330 329
4 289 290 331 330
4 290 291 332 331
4 291 292 333 332
4 292 293 334 333
4 293 294 335 334
4 294 295 336 335
4 295 296 337 336
4 296 297 338 337
4 297 298 339 338
4 298 299 340 339
4 299 300 341 340
4 300 301 342 341
4 301 302 343 342
4 302 303 344 343
4 303 304 345 344
4 304 305 346 345
4 305 306 347 346
4 306 307 348 347
4 307 308 349 348
4 308 309 350 349
4 309 310 351 350
4 310 311 352 351
4 311 312 353 352
4 312 313 354 353
4 313 314 355 354
4 314 315 356 355
4 315 316 357 356
4 316 317 358 357
4 317 318 359 358
4 318 319 360 359
4 319 320 361 360
4 320 321 362 361
4 321 322 363 362
4 322 323 364 363
4 323 324 365 364
4 324 325 366 365
4 325 326 367 366
4 326 327 368 367
4 328 329 370 369
4 329 330 371 370
4 330 331 372 371
4 331 332 373 372
4 332 333 374 373
4 333 334 375 374
4 334 335 376 375
4 335 336 377 376
4 336 337 378 377
4 337 338 379 378
4 338 339 380 379
4 339 340 381 380
4 340 341 382 381
4 341 342 383 382
4 342 343 384 383
4 343 344 385 384
4 344 345 386 385
4 345 346 387 386
4 346 347 388 387
4 347 348 389 388
4 348 349 390 389
4 349 350 391 390
4 350 351 392 391
4 351 352 393 392
4 352 353 394 393
4 353 354 395 394
4 354 355 396 395
4 355 356 397 396
4 356 357 398 397
4 357 358 399 398
4 358 359 400 399
4 359 360 401 400
4 360 361 402 401
4 361 362 403 402
4 362 363 404 403
4 363 364 405 404
4 364 365 406 405
4 365 366 407 406
4 366 367 408 407
4 367 368 409 408
4 369 370 411 410
4 370 371 412 411
4 371 372 413 412
4 372 373 414 413
4 373 374 415 414
4 374 375 416 415
4 375 376 417 416
4 376 377 418 417
4 377 378 419 418
4 378 379 420 419
4 379 380 421 420
4 380 381 422 421
4 381 382 423 422
4 382 383 424 423
4 383 384 425 424
4 384 385 426 425
4 385 386 427 426
4 386 387 428 427
4 387 388 429 428
4 388 389 430 429
4 389 390 431 430
4 390 391 432 431
4 391 392 433 432
4 392 393 434 433
4 393 394 435 434
4 394 395 436 435
4 395 396 437 436
4 396 397 438 437
4 397 398 439 438
4 398 399 440 439
4 399 400 441 440
4 400 401 442 441
4 401 402 443 442
4 402 403 444 443
4 403 404 445 444
4 404 405 446 445
4 405 406 447 446
4 406 407 448 447
4 407 408 449 448
4 408 409 450 449
4 410 411 452 451
4 411 412 453 452
4 412 413 454 453
4 413 414 455 454
4 414 415 456 455
4 415 416 457 456
4 416 417 458 457
4 417 418 459 458
4 418 419 460 459
4 419 420 461 460
4 420 421 462 461
4 421 422 463 462
4 422 423 464 463
4 423 424 465 464
4 424 425 466 465
4 425 426 467 466
4 426 427 468 467
4 427 428 469 468
4 428 429 470 469
4 429 430 471 470
4 430 431 472 471
4 431 432 473 472
4 432 433 474 473
4 433 434 475 474
4 434 435 476 475
4 435 436 477 476
4 436 437 478 477
4 437 438 479 478
4 438 439 480 479
4 439 440 481 480
4 440 441 482 481
4 441 442 483 482
4 442 443 484 483
4 443 444 485 484
4 444 445 486 485
4 445 446 487 486
4 446 447 488 487
4 447 448 489 488
4 448 449 490 489
4 449 450 491 490
4 451 452 493 492
4 452 453 494 493
4 453 454 495 494
4 454 455 496 495
4 455 456 497 496
4 456 457 498 497
4 457 458 499 498
4 458 459 500 499
4 459 460 501 500
4 460 461 502 501
4 461 462 503 502
4 462 463 504 503
4 463 464 505 504
4 464 465 506 505
4 465 466 507 506
4 466 467 508 507
4 467 468 509 508
4 468 469 510 509
4 469 470 511 510
4 470 471 512 511
4 471 472 513 512
4 472 473 514 513
4 473 474 515 514
4 474 475 516 515
4 475 476 517 516
4 476 477 518 517
4 477 478 519 518
4 478 479 520 519
4 479 480 521 520
4 480 481 522 521
4 481 482 523 522
4 482 483 524 523
4 483 484 525 524
4 484 485 526 525
4 485 486 527 526
4 486 487 528 527
4 487 488 529 528
4 488 489 530 529
4 489 490 531 530
4 490 491 532 531
4 492 493 534 533
4 493 494 535 534
4 494 495 536 535
4 495 496 537 536
4 496 497 538 537
4 497 498 539 538
4 498 499 540 539
4 499 500 541 540
4 500 501 542 541
4 501 502 543 542
4 502 503 544 543
4 503 504 545 544
4 504 505 546 545
4 505 506 547 546
4 506 507 548 547
4 507 508 549 548
4 508 509 550 549
4 509 510 551 550
4 510 511 552 551
4 511 512 553 552
4 512 513 554 553
4 513 514 555 554
4 514 515 556 555
4 515 516 557 556
4 516 517 558 557
4 517 518 559 558
4 518 519 560 559
4 519 520 561 560
4 520 521 562 561
4 521 522 563 562
4 522 523 564 563
4 523 524 565 564
4 524 525 566 565
4 525 526 567 566
4 526 527 568 567
4 527 528 569 568
4 528 529 570 569
4 529 530 571 570
4 530 531 572 571
4 531 532 573 572
4 533 534 575 574
4 534 535 576 575
4 535 536 577 576
4 536 537 578 577
4 537 538 579 578
4 538 539 580 579
4 539 540 581 580
4 540 541 582 581
4 541 542 583 582
4 542 543 584 583
4 543 544 585 584
4 544 545 586 585
4 545 546 587 586
4 546 547 588 587
4 547 548 589 588
4 548 549 590 589
4 549 550 591 590
4 550 551 592 591
4 551 552 593 592
4 552 553 594 593
4 553 554 595 594
4 554 555 596 595
4 555 556 597 596
4 556 557 598 597
4 557 558 599 598
4 558 559 600 599
4 559 560 601 600
4 560 561 602 601
4 561 562 603 602
4 562 563 604 603
4 563 564 605 604
4 564 565 606 605
4 565 566 607 606
4 566 567 608 607
4 567 568 609 608
4 568 569 610 609
4 569 570 611 610
4 570 571 612 611
4 571 572 613 612
4 572 573 614 613
4 574 575 616 615
4 575 576 617 616
4 576 577 618 617
4 577 578 619 618
4 578 579 620 619
4 579 580 621 620
4 580 581 622 621
4 581 582 623 622
4 582 583 624 623
4 583 584 625 624
4 584 585 626 625
4 585 586 627 626
4 586 587 628 627
4 587 588 629 628
4 588 589 630 629
4 589 590 631 630
4 590 591 632 631
4 591 592 633 632
4 592 593 634 633
4 593 594 635 634
4 594 595 636 635
4 595 596 637 636
4 596 597 638 637
4 597 598 639 638
4 598 599 640 639
4 599 600 641 640
4 600 601 642 641
4 601 602 643 642
4 602 603 644 643
4 603 604 645 644
4 604 605 646 645
4 605 606 647 646
4 606 607 648 647
4 607 608 649 648
4 608 609 650 649
4 609 610 651 650
4 610 611 652 651
4 611 612 653 652
4 612 613 654 653
4 613 614 655 654
4 615 616 657 656
4 616 617 658 657
4 617 618 659 658
4 618 619 660 659
4 619 620 661 660
4 620 621 662 661
4 621 622 663 662
4 622 623 664 663
4 623 624 665 664
4 624 625 666 665
4 625 626 667 666
4 626 627 668 667
4 627 628 669 668
4 628 629 670 669
4 629 630 671 670
4 630 631 672 671
4 631 632 673 672
4 632 633 674 673
4 633 634 675 674
4 634 635 676 675
4 635 636 677 676
4 636 637 678 677
4 637 638 679 678
4 638 639 680 679
4 639 640 681 680
4 640 641 682 681
4 641 642 683 682
4 642 643 684 683
4 643 644 685 684
4 644 645 686 685
4 645 646 687 686
4 646 647 688 687
4 647 648 689 688
4 648 649 690 689
4 649 650 691 690
4 650 651 692 691
4 651 652 693 692
4 652 653 694 693
4 653 654 695 694
4 654 655 696 695
4 656 657 698 697
4 657 658 699 698
4 658 659 700 699
4 659 660 701 700
4 660 661 702 701
4 661 662 703 702
4 662 663 704 703
4 663 664 705 704
4 664 665 706 705
4 665 666 707 706
4 666 667 708 707
4 667 668 709 708
4 668 669 710 709
4 669 670 711 710
4 670 671 712 711
4 671 672 713 712
4 672 673 714 713
4 673 674 715 714
4 674 675 716 715
4 675 676 717 716
4 676 677 718 717
4 677 678 719 718
4 678 679 720 719
4 679 680 721 720
4 680 681 722 721
4 681 682 723 722
4 682 683 724 723
4 683 684 725 724
4 684 685 726 725
4 685 686 727 726
4 686 687 728 727
4 687 688 729 728
4 688 689 730 729
4 689 690 731 730
4 690 691 732 731
4 691 692 733 732
4 692 693 734 733
4 693 694 735 734
4 694 695 736 735
4 695 696 737 736
4 697 698 739 738
4 698 699 740 739
4 699 700 741 740
4 700 701 742 741
4 701 702 743 742
4 702 703 744 743
4 703 704 745 744
4 704 705 746 745
4 705 706 747 746
4 706 707 748 747
4 707 708 749 748
4 708 709 750 749
4 709 710 751 750
4 710 711 752 751
4 711 712 753 752
4 712 713 754 753
4 713 714 755 754
4 714 715 756 755
4 715 716 757 756
4 716 717 758 757
4 717 718 759 758
4 718 719 760 759
4 719 720 761 760
4 720 721 762 761
4 721 722 763 762
4 722 723 764 763
4 723 724 765 764
4 724 725 766 765
4 725 726 767 766
4 726 727 768 767
4 727 728 769 768
4 728 729 770 769
4 729 730 771 770
4 730 731 772 771
4 731 732 773 772
4 732 733 774 773
4 733 734 775 774
4 734 735 776 775
4 735 736 777 776
4 736 737 778 777
4 738 739 780 779
4 739 740 781 780
4 740 741 782 781
4 741 742 783 782
4 742 743 784 783
4 743 744 785 784
4 744 745 786 785
4 745 746 787 786
4 746 747 788 787
4 747 748 789 788
4 748 749 790 789
4 749 750 791 790
4 750 751 792 791
4 751 752 793 792
4 752 753 794 793
4 753 754 795 794
4 754 755 796 795
4 755 756 797 796
4 756 757 798 797
4 757 758 799 798
4 758 759 800 799
4 759 760 801 800
4 760 761 802 801
4 761 762 803 802
4 762 763 804 803
4 763 764 805 804
4 764 765 806 805
4 765 766 807 806
4 766 767 808 807
4 767 768 809 808
4 768 769 810 809
4 769 770 811 810
4 770 771 812 811
4 771 772 813 812
4 772 773 814 813
4 773 774 815 814
4 774 775 816 815
4 775 776 817 816
4 776 777 818 817
4 777 778 819 818
4 779 780 821 820
4 780 781 822 821
4 781 782 823 822
4 782 783 824 823
4 783 784 825 824
4 784 785 826 825
4 785 786 827 826
4 786 787 828 827
4 787 788 829 828
4 788 789 830 829
4 789 790 831 830
4 790 791 832 831
4 791 792 833 832
4 792 793 834 833
4 793 794 835 834
4 794 795 836 835
4 795 796 837 836
4 796 797 838 837
4 797 798 839 838
4 798 799 840 839
4 799 800 841 840
4 800 801 842 841
4 801 802 843 842
4 802 803 844 843
4 803 804 845 844
4 804 805 846 845
4 805 806 847 846
4 806 807 848 847
4 807 808 849 848
4 808 809 850 849
4 809 810 851 850
4 810 811 852 851
4 811 812 853 852
4 812 813 854 853
4 813 814 855 854
4 814 815 856 855
4 815 816 857 856
4 816 817 858 857
4 817 818 859 858
4 818 819 860 859
CELL_TYPES 800
9
9
9
9
9
9
9
9
9
9
9
9
9
9
9
9
9
9
9
9
9
9
9
9
9
9
9
9
9
9
9
9
9
9
9
9
9
9
9
9
9
9
9
9
9
9
9
9
9
9
9
9
9
9
9
9
9
9
9
9
9
9
9
9
9
9
9
9
9
9
9
9
9
9
9
9
9
9
9
9
9
9
9
9
9
9
9
9
9
9
9
9
9
9
9
9
9
9
9
9
9
9
9
9
9
9
9
9
9
9
9
9
9
9
9
9
9
9
9
9
9
9
9
9
9
9
9
9
9
9
9
9
9
9
9
9
9
9
9
9
9
9
9
9
9
9
9
9
9
9
9
9
9
9
9
9
9
9
9
9
9
9
9
9
9
9
9
9
9
9
9
9
9
9
9
9
9
9
9
9
9
9
9
9
9
9
9
9
9
9
9
9
9
9
9
9
9
9
9
9
9
9
9
9
9
9
9
9
9
9
9
9
9
9
9
9
9
9
9
9
9
9
9
9
9
9
9
9
9
9
9
9
9
9
9
9
9
9
9
9
9
9
9
9
9
9
9
9
9
9
9
9
9
9
9
9
9
9
9
9
9
9
9
9
9
9
9
9
9
9
9
9
9
9
9
9
9
9
9
9
9
9
9
9
9
9
9
9
9
9
9
9
9
9
9
9
9
9
9
9
9
9
9
9
9
9
9
9
9
9
9
9
9
9
9
9
9
9
9
9
9
9
9
9
9
9
9
9
9
9
9
9
9
9
9
9
9
9
9
9
9
9
9
9
9
9
9
9
9
9
9
9
9
9
9
9
9
9
9
9
9
9
9
9
9
9
9
9
9
9
9
9
9
9
9
9
9
9
9
9
9
9
9
9
9
9
9
9
9
9
9
9
9
9
9
9
9
9
9
9
9
9
9
9
9
9
9
9
9
9
9
9
9
9
9
9
9
9
9
9
9
9
9
9
9
9
9
9
9
9
9
9
9
9
9
9
9
9
9
9
9
9
9
9
9
9
9
9
9
9
9
9
9
9
9
9
9
9
9
9
9
9
9
9
9
9
9
9
9
9
9
9
9
9
9
9
9
9
9
9
9
9
9
9
9
9
9
9
9
9
9
9
9
9
9
9
9
9
9
9
9
9
9
9
9
9
9
9
9
9
9
9
9
9
9
9
9
9
9
9
9
9
9
9
9
9
9
9
9
9
9
9
9
9
9
9
9
9
9
9
9
9
9
9
9
9
9
9
9
9
9
9
9
9
9
9
9
9
9
9
9
9
9
9
9
9
9
9
9
9
9
9
9
9
9
9
9
9
9
9
9
9
9
9
9
9
9
9
9
9
9
9
9
9
9
9
9
9
9
9
9
9
9
9
9
9
9
9
9
9
9
9
9
9
9
9
9
9
9
9
9
9
9
9
9
9
9
9
9
9
9
9
9
9
9
9
9
9
9
9
9
9
9
9
9
9
9
9
9
9
9
9
9
9
9
9
9
9
9
9
9
9
9
9
9
9
9
9
9
9
9
9
9
9
9
9
9
9
9
9
9
9
9
9
9
9
9
9
9
9
9
9
9
9
9
9
9
9
9
9
9
9
9
9
9
9
9
9
9
9
9
9
9
9
9
9
9
9
9
9
9
9
9
9
9
9
9
9
9
9
9
9
9
9
9
9
9
9
9
9
9
9
9
9
9
9
9
9
9
9
9
9
9
9
9
9
9
9
9
9
9
9
9
9
9
9
9
9
9
9
9
9
9
9
9
9
9
9
9
9
9
9
9
9
9
9
9
9
9
9
9
9
9
9
9
9
9
9
9
9
POINT_DATA 861
SCALARS Disp float 2
LOOKUP_TABLE default
0.0 0.0
0.0023502781455328543 -0.04295309104388351
0.0041862286238804605 -0.07924689509788538
0.0056589087257648074 -0.1149177135146961
0.0073413873808538385 -0.14990246942417196
0.009364866062808527 -0.18418560622184993
0.011793865657147582 -0.2176032978775302
0.014654280863266188 -0.2499785427783239
0.017954588336879303 -0.281128435339052
0.02169675272052533 -0.310872318771216
0.025880480213585938 -0.33903162833465844
0.030505093493088126 -0.3654294367671902
0.03557017572002579 -0.38988990485062724
0.041076188321302866 -0.41223803633355116
0.04702579760566695 -0.4322990968230326
0.05342630509553675 -0.4498962109259067
0.06029209333215443 -0.4648435048955188
0.0676422075523309 -0.476932298914611
0.0754825631648049 -0.48591327472781337
0.08376214111377794 -0.49149420978260744
0.09231726720314773 -0.4933967317999065
0.10087239329251758 -0.49149420978260744
0.10915197124149056 -0.4859132747278132
0.11699232685396456 -0.4769322989146109
0.12434244107414101 -0.4648435048955186
0.13120822931075865 -0.44989621092590665
0.13760873680062846 -0.4322990968230326
0.14355834608499257 -0.41223803633355116
0.14906435868626966 -0.3898899048506272
0.15412944091320732 -0.3654294367671901
0.15875405419270947 -0.33903162833465844
0.16293778168577006 -0.31087231877121596
0.16667994606941614 -0.2811284353390519
0.16998025354302923 -0.24997854277832385
0.17284066874914783 -0.21760329787753
0.17526966834348687 -0.18418560622185007
0.17729314702544158 -0.149902469424172
0.1789756256805306 -0.11491771351469622
0.18044830578241497 -0.07924689509788532
0.18228425626076256 -0.04295309104388341
0.18463453440629543 0.0
0.010640060807718607 -0.0014595682293737464
0.012103584185300208 -0.042839312651137856
0.013116560018860978 -0.07945299069654595
0.014481137924072652 -0.11506140299219982
0.01597747770663977 -0.15009178373961274
0.017804391125054074 -0.1844111053291425
0.01999351078708267 -0.21787246539792388
0.022569920876622036 -0.25029204966071816
0.025541119620149034 -0.28148687886539286
0.028909412057159373 -0.31127571272773147
0.032674880178346376 -0.339479927742753
0.03683713268319519 -0.36592258432828845
0.04139595612213693 -0.3904278947084915
0.046351897926251336 -0.41282099446519277
0.05170733347584428 -0.4329274584339126
0.057468199582913035 -0.45057097975421395
0.06364525736368855 -0.46556634549538806
0.07025067391377325 -0.4777047179637399
0.07728173741210628 -0.4867336803724225
0.08468525061059143 -0.49235246652836634
0.09231726720314773 -0.49426999809450184
0.09994928379570407 -0.49235246652836634
0.10735279699418918 -0.4867336803724223
0.11438386049252218 -0.47770471796373976
0.12098927704260685 -0.465566345495388
0.12716633482338238 -0.45057097975421384
0.13292720093045116 -0.4329274584339126
0.1382826364800441 -0.4128209944651927
0.14323857828415848 -0.3904278947084914
0.14779740172310024 -0.36592258432828834
0.15195965422794902 -0.33947992774275293
0.15572512234913602 -0.3112757127277314
0.15909341478614636 -0.28148687886539275
0.16206461352967336 -0.25029204966071805
0.16464102361921273 -0.21787246539792368
0.1668301432812413 -0.18441110532914268
0.16865705669965564 -0.1500917837396128
0.17015339648222277 -0.11506140299219995
0.17151797438743444 -0.07945299069654588
0.17253095022099518 -0.042839312651137766
0.1739944735985768 -0.0014595682293737488
0.020555641699282156 -0.0027132974971053286
0.021605363632672413 -0.04275586786226839
0.022150541701429494 -0.07956654646512283
0.023243112632921396 -0.11520128891981611
0.024569965724657344 -0.150255682733528
0.0261867333355234 -0.1846136274040303
0.028134317330517435 -0.2181131319286473
0.0304254465912576 -0.25057269763467277
0.033067338055610254 -0.28180764230601324
0.03606177431943773 -0.3116366811917704
0.03940905907032075 -0.33988105828014253
0.04310899611047158 -0.36636384255994187
0.04716150456650096 -0.39090927726539176
0.051567063412322894 -0.41334259055188555
0.05632747150502389 -0.43348957409136646
0.06144700424682876 -0.45117433200387713
0.0669330848477176 -0.4662121544728384
0.07279321677003943 -0.47839412606186704
0.0790217426093768 -0.48746546343621433
0.08557099335317098 -0.4931183467827259
0.09231726720314773 -0.4950499118288782
0.09906354105312448 -0.49311834678272587
0.10561279179691865 -0.4874654634362142
0.11184131763625603 -0.47839412606186693
0.11770144955857782 -0.46621215447283837
0.12318753015946668 -0.451174332003877
0.12830706290127153 -0.4334895740913664
0.13306747099397256 -0.41334259055188544
0.13747302983979445 -0.39090927726539165
0.14152553829582384 -0.3663638425599417
0.14522547533597466 -0.3398810582801425
0.14857276008685766 -0.31163668119177035
0.15156719635068516 -0.28180764230601324
0.1542090878150378 -0.25057269763467266
0.156500217075778 -0.21811313192864712
0.158447801070772 -0.1846136274040305
0.16006456868163807 -0.15025568273352802
0.161391421773374 -0.11520128891981625
0.1624839927048659 -0.07956654646512278
0.163029170773623 -0.042755867862268294
0.16407889270701323 -0.0027132974971053343
0.030043153972859636 -0.003784850956550779
0.030876986306044178 -0.0427313326320747
0.03116606631170947 -0.07961683287467781
0.03197926846531265 -0.11531686776067362
0.033113832205974573 -0.15039830701986223
0.034520360516980694 -0.18479079450782673
0.036222510047067176 -0.2183254085330458
0.038227778949893945 -0.25082028876876916
0.040540002341889314 -0.2820907359638879
0.04316057516479708 -0.3119552275833613
0.04608970931860003 -0.34023503170809305
0.049327350124080224 -0.36675321146308903
0.05287347598570391 -0.39133402551461105
0.05672838045184946 -0.4138027342318143
0.06089309686803498 -0.43398523749006357
0.0653701050287081 -0.4517059278709847
0.0701639043700177 -0.46678063998625163
0.07527933829554702 -0.47900094489931333
0.08071237908167532 -0.488111035597514
0.08642636556549099 -0.4937972777559622
0.09231726720314772 -0.4957435983107991
0.09820816884080445 -0.49379727775596216
0.10392215532462012 -0.4881110355975139
0.10935519611074844 -0.4790009448993132
0.11447063003627772 -0.4667806399862516
0.11926442937758731 -0.45170592787098457
0.12374143753826049 -0.43398523749006346
0.12790615395444596 -0.4138027342318142
0.1317610584205915 -0.391334025514611
0.1353071842822152 -0.3667532114630889
0.13854482508769542 -0.34023503170809305
0.14147395924149836 -0.31195522758336125
0.1440945320644061 -0.28209073596388784
0.14640675545640147 -0.2508202887687691
0.14841202435922823 -0.2183254085330456
0.1501141738893147 -0.18479079450782687
0.15152070220032085 -0.1503983070198623
0.15265526594098275 -0.11531686776067375
0.15346846809458595 -0.07961683287467776
0.15375754810025122 -0.04273133263207459
0.15459138043343576 -0.003784850956550786
0.03925714233800667 -0.00469752109243831
0.039960915053635394 -0.04276269088012761
0.04011361938268655 -0.07963093580190944
0.04068672521750675 -0.11540228018766642
0.04161604114047159 -0.15051840397548769
0.042809931719514915 -0.18494248881558947
0.044265086988436654 -0.21850885483881125
0.04598356242921255 -0.2510347999066703
0.04796590160658509 -0.28233612072381326
0.050212535173545264 -0.3122313589543213
0.0527235277731568 -0.340541851522176
0.05549886786818528 -0.3670906885807463
0.058538543659522164 -0.39170211556107315
0.06184258348319935 -0.41420135702557437
0.06541115665107741 -0.43441430576307305
0.06924493371817524 -0.45216555578520223
0.07334592588042389 -0.4672716871768483
0.07771795375379295 -0.47952569420832686
0.08236213171834206 -0.48867253628768514
0.08725686385006501 -0.49439378633703746
0.09231726720314772 -0.49635699598397043
0.09737767055623045 -0.4943937863370374
0.10227240268795336 -0.4886725362876851
0.1069165806525025 -0.47952569420832675
0.11128860852587154 -0.4672716871768482
0.11538960068812017 -0.4521655557852022
0.11922337775521806 -0.43441430576307294
0.12279195092309605 -0.41420135702557426
0.12609599074677325 -0.3917021155610731
0.12913566653811012 -0.36709068858074617
0.13191100663313862 -0.3405418515221759
0.13442199923275014 -0.31223135895432125
0.1366686327997103 -0.28233612072381314
0.13865097197708287 -0.25103479990667027
0.14036944741785876 -0.21850885483881102
0.1418246026867805 -0.1849424888155896
0.1430184932658238 -0.1505184039754877
0.14394780918878866 -0.11540228018766654
0.14452091502360884 -0.07963093580190937
0.14467361935266002 -0.0427626908801275
0.14537739206828873 -0.004697521092438317
0.04828638568589826 -0.005472725993046578
0.0488979610268469 -0.042837076287176784
0.04897862902431053 -0.07962758264673102
0.049357594757477176 -0.11545899750972613
0.05008218357935213 -0.15061452660640748
0.051060995471218666 -0.1850686530300761
0.05226849724798165 -0.21866326724159169
0.053699541123520295 -0.25121615623408755
0.05535176319699231 -0.2825437800576809
0.057224381227262436 -0.3124650696697514
0.059317209486210686 -0.3408015186779511
0.06163022937850291 -0.3673762691798879
0.06416339490418563 -0.3920135296490536
0.06691643277320165 -0.4145384161954259
0.06988863038650721 -0.4347767008694689
0.07307892360884241 -0.45255311801038417
0.07648721338470395 -0.4676853009935677
0.08011746529891757 -0.47996887028550445
0.0839784666696174 -0.48915171466364826
0.08806695101692019 -0.49491162223161717
0.0923172672031477 -0.4968952118484968
0.09656758338937527 -0.4949116222316171
0.10065606773667801 -0.4891517146636482
0.10451706910737786 -0.47996887028550433
0.1081473210215915 -0.4676853009935676
0.11155561079745299 -0.4525531180103841
0.11474590401978825 -0.43477670086946874
0.11771810163309378 -0.4145384161954258
0.12047113950210976 -0.3920135296490535
0.1230043050277925 -0.3673762691798878
0.1253173249200847 -0.340801518677951
0.12741015317903295 -0.31246506966975135
0.1292827712093031 -0.28254378005768077
0.1309349932827751 -0.25121615623408744
0.13236603715831374 -0.21866326724159152
0.13357353893507676 -0.18506865303007622
0.13455235082694328 -0.15061452660640748
0.1352769396488182 -0.11545899750972625
0.13565590538198485 -0.07962758264673096
0.1357365733794485 -0.04283707628717668
0.13634814872039713 -0.005472725993046587
0.057186245517347065 -0.006129089073579934
0.05772227847101498 -0.042940206992229585
0.057763070512084236 -0.07961792792042596
0.05798731529344873 -0.11549121335216654
0.05851614361569439 -0.15068632647969502
0.05927947195826028 -0.18516918399917298
0.06023908039261639 -0.2187885992034744
0.061382405895809476 -0.25136429944919586
0.06270431029553433 -0.2827136975731045
0.0642028292576299 -0.3126563522382977
0.06587745146567964 -0.34101402970980255
0.06772811893566667 -0.3676099481943269
0.06975472686151558 -0.3922682574862677
0.07195670131834615 -0.4148138961205391
0.07433250272124195 -0.4350724076053761
0.07687947359818705 -0.4528686165701328
0.07959567857777747 -0.46802156174359044
0.08248586311729827 -0.48033085748787924
0.08556810461530362 -0.4895498528200467
0.0888603585238477 -0.49535384575992203
0.09231726720314772 -0.4973627882758356
0.09577417588244776 -0.49535384575992203
0.09906642979099183 -0.48954985282004654
0.10214867128899714 -0.48033085748787907
0.10503885582851798 -0.4680215617435903
0.10775506080810839 -0.4528686165701328
0.1103020316850535 -0.435072407605376
0.11267783308794925 -0.4148138961205389
0.11487980754477983 -0.39226825748626765
0.11690641547062872 -0.36760994819432674
0.11875708294061574 -0.34101402970980255
0.1204317051486655 -0.3126563522382976
0.12193022411076108 -0.2827136975731045
0.12325212851048592 -0.25136429944919575
0.12439545401367902 -0.21878859920347427
0.12535506244803513 -0.1851691839991731
0.12611839079060103 -0.15068632647969502
0.12664721911284668 -0.11549121335216668
0.12687146389421117 -0.07961792792042591
0.1269122559352804 -0.042940206992229474
0.12744828888894832 -0.0061290890735799484
0.06599373587192407 -0.006682267582326555
0.06646145398387543 -0.043059427587699574
0.0664763609795506 -0.07960767097307109
0.06657578008260198 -0.11550349178793075
0.06692142270830718 -0.1507344784988239
0.06747124628684682 -0.18524411447370176
0.06818321986027483 -0.21888488105346768
0.06903879953836364 -0.25147921032692805
0.07003025770677718 -0.2828458576581503
0.07115458877095064 -0.3128051977973578
0.07241094995166693 -0.34117937832296363
0.0737992241652947 -0.36779172070101895
0.07531924177974024 -0.3924662967952739
0.07697016271677166 -0.4150278071948001
0.07874973853554097 -0.43530146895524496
0.08065391818249781 -0.45311214117849297
0.08267908760560203 -0.4682805957925285
0.08483084271069656 -0.4806118706905486
0.08713726587408607 -0.48986770724175566
0.08964029894282159 -0.49572287769436457
0.0923172672031477 -0.4977639264784639
0.09499423546347384 -0.4957228776943645
0.09749726853220934 -0.4898677072417556
0.09980369169559886 -0.48061187069054845
0.10195544680069343 -0.4682805957925284
0.1039806162237976 -0.4531121411784929
0.10588479587075449 -0.43530146895524485
0.10766437168952374 -0.4150278071947999
0.10931529262655518 -0.3924662967952738
0.11083531024100068 -0.36779172070101884
0.11222358445462845 -0.3411793783229636
0.11347994563534476 -0.31280519779735777
0.11460427669951824 -0.28284585765815023
0.11559573486793173 -0.2514792103269279
0.11645131454602058 -0.2188848810534675
0.11716328811944857 -0.18524411447370184
0.11771311169798822 -0.1507344784988239
0.11805875432369342 -0.11550349178793087
0.11815817342674478 -0.07960767097307105
0.11817308042241999 -0.04305942758769946
0.11864079853437133 -0.00668226758232657
0.07473516472852222 -0.0071452327498020595
0.07513776941705816 -0.0431845486639762
0.07513087268363121 -0.07959897539131214
0.07512652535586986 -0.11549975919914182
0.07530203742157769 -0.15076027663638564
0.07564215792372372 -0.1852937016687422
0.07610734688321684 -0.21895220125323572
0.07667535195653023 -0.25156090328444125
0.07733630781971029 -0.2829402501907135
0.07808636458423289 -0.31291159599227614
0.07892439959432421 -0.34129755644629367
0.07985023443335883 -0.3679215823296443
0.08086364295850644 -0.39260765277233584
0.08196358058941179 -0.4151801826639805
0.08314726094633412 -0.43546397904203915
0.08440950034593349 -0.45328385980905594
0.08574507262824534 -0.46846256303624106
0.08715992863824552 -0.48081192654915833
0.08869189923972333 -0.49010545599625854
0.0904096293611077 -0.49602050792823565
0.0923172672031477 -0.4981026964565721
0.09422490504518771 -0.49602050792823554
0.09594263516657206 -0.4901054559962585
0.0974746057680499 -0.4808119265491582
0.0988894617780501 -0.468462563036241
0.10022503406036193 -0.45328385980905583
0.10148727345996132 -0.43546397904203904
0.10267095381688363 -0.41518018266398027
0.10377089144778899 -0.3926076527723357
0.10478429997293656 -0.3679215823296441
0.1057101348119712 -0.34129755644629367
0.10654816982206251 -0.312911595992276
0.10729822658658511 -0.28294025019071345
0.10795918244976517 -0.25156090328444114
0.10852718752307856 -0.2189522012532356
0.10899237648257167 -0.1852937016687423
0.10933249698471771 -0.15076027663638564
0.10950800905042556 -0.11549975919914193
0.1095036617226642 -0.07959897539131208
0.10949676498923724 -0.0431845486639761
0.10989936967777317 -0.007145232749802072
0.0834302829339953 -0.00752874271734668
0.08376949368480933 -0.04330782037244718
0.08373976486991325 -0.07959188846910253
0.08364562863649846 -0.11548299646748349
0.08366288651848325 -0.15076525889927042
0.08379813456873227 -0.18531841154222117
0.08401793388804002 -0.21899070700027132
0.08429870029114514 -0.25160941708789825
0.08462915380879069 -0.2829968718087079
0.08500485642605038 -0.3129755356780458
0.08542449323485653 -0.3413685547619803
0.08588783937854545 -0.3679995294515077
0.08639463136566372 -0.3926923367620603
0.08694370036029256 -0.415271073709208
0.08753193280689169 -0.4355600736333718
0.08815334453226242 -0.4533840113592275
0.08880113859233638 -0.46856766170202285
0.08948059742611116 -0.480930844015721
0.09023791135334493 -0.49026264604478365
0.09117099376682064 -0.4962478554918131
0.0923172672031477 -0.49838325761501145
0.09346354063947476 -0.49624785549181305
0.09439662305295046 -0.4902626460447836
0.09515393698018426 -0.4809308440157209
0.09583339581395904 -0.4685676617020228
0.096481189874033 -0.45338401135922746
0.09710260159940375 -0.4355600736333716
0.09769083404600286 -0.41527107370920774
0.0982399030406317 -0.39269233676206017
0.09874669502774994 -0.3679995294515076
0.09921004117143888 -0.3413685547619803
0.09962967798024502 -0.3129755356780458
0.1000053805975047 -0.2829968718087078
0.10033583411515024 -0.25160941708789814
0.10061660051825538 -0.21899070700027112
0.10083639983756312 -0.18531841154222128
0.10097164788781215 -0.1507652588992704
0.10098890576979694 -0.1154829964674836
0.10089476953638218 -0.07959188846910246
0.10086504072148605 -0.043307820372447084
0.1012042514723001 -0.007528742717346692
0.09209465003093031 -0.00784185631431576
0.09237192207894725 -0.0434236072602935
0.09231598083125932 -0.0795853037105851
0.09214078333287382 -0.11545525995954997
0.09200979422915136 -0.15075094920253024
0.09194532051781328 -0.18531885033278303
0.0919215068882224 -0.2190005989433964
0.09191549684867363 -0.2516248074332454
0.09191548411858491 -0.28301572449919726
0.09191675873084228 -0.3129970055909069
0.09191792158559059 -0.3413923631224354
0.09191872784235848 -0.3680255590719588
0.09191890307576082 -0.3927203644171431
0.09191724391358423 -0.41530054325932964
0.09191054293067336 -0.43558991792877927
0.09189242773857836 -0.45341289843805427
0.09185465425141554 -0.46859614981319236
0.09180039149299397 -0.4809682782909981
0.09178141612011514 -0.49033814101689555
0.09192696984128262 -0.49640526566487503
0.0923172672031477 -0.49861011369954045
0.09270756456501276 -0.496405265664875
0.09285311828618024 -0.4903381410168955
0.09283414291330142 -0.4809682782909981
0.0927798801548799 -0.46859614981319225
0.09274210666771703 -0.4534128984380542
0.09272399147562206 -0.43558991792877916
0.09271729049271119 -0.41530054325932936
0.0927156313305346 -0.392720364417143
0.09271580656393692 -0.36802555907195866
0.09271661282070483 -0.3413923631224355
0.09271777567545313 -0.31299700559090693
0.0927190502877105 -0.28301572449919715
0.09271903755762176 -0.2516248074332453
0.092713027518073 -0.21900059894339619
0.09268921388848211 -0.18531885033278317
0.09262474017714405 -0.15075094920253024
0.09249375107342159 -0.1154552599595501
0.09231855357503607 -0.079585303710585
0.09226261232734814 -0.0434236072602934
0.09253988437536509 -0.007841856314315773
0.10074102197858431 -0.008092414779588058
0.10095813863877487 -0.04352800065898529
0.10087182610049913 -0.07957758135317447
0.10062063148148295 -0.11541783547634162
0.10034940456861371 -0.15071871017205332
0.10009015261331992 -0.18529568356809278
0.0998246670964433 -0.21898211453180016
0.09953241240581955 -0.2516071402202311
0.09920198523341223 -0.28299681318902004
0.09882876085975958 -0.3129759946196547
0.09841137293005962 -0.3413689709518548
0.09794958722585094 -0.36799966849908305
0.09744314759755524 -0.3926917535610668
0.09689090726402472 -0.4152686592192994
0.09628979896714109 -0.4355536914542141
0.09563354898744163 -0.45337087663627296
0.09491281485538182 -0.46854838058629505
0.09412701033533181 -0.4809237967669785
0.09332902663229638 -0.49033007731293227
0.09268025140807797 -0.49649212015542216
0.09231726720314769 -0.4987884283200378
0.09195428299821741 -0.4964921201554221
0.09130550777399901 -0.49033007731293227
0.09050752407096357 -0.48092379676697844
0.08972171955091358 -0.46854838058629505
0.08900098541885376 -0.45337087663627296
0.08834473543915433 -0.435553691454214
0.08774362714227069 -0.4152686592192992
0.0871913868087402 -0.39269175356106667
0.08668494718044446 -0.367999668499083
0.08622316147623578 -0.3413689709518548
0.08580577354653582 -0.31297599461965464
0.08543254917288316 -0.2829968131890199
0.08510212200047587 -0.251607140220231
0.08480986730985209 -0.21898211453179992
0.08454438179297548 -0.18529568356809292
0.08428512983768167 -0.15071871017205332
0.08401390292481244 -0.11541783547634173
0.08376270830579627 -0.0795775813531744
0.08367639576752052 -0.0435280006589852
0.08389351242771109 -0.008092414779588072
0.10938016626844936 -0.008287463935270793
0.10953954278498855 -0.04361846037287218
0.10941883142774667 -0.07956693540223876
0.10909432487399907 -0.11537142905890248
0.10868903086499111 -0.15066967642903575
0.10823938409440921 -0.18524956302735482
0.10773410856113386 -0.21893550322630032
0.10715613777626865 -0.25155648401770747
0.10649534247662053 -0.2829401431984622
0.10574754733179456 -0.31291249178482033
0.1049115329832769 -0.3412983676353494
0.10398710335595637 -0.3679218548914532
0.10297404711616699 -0.3926065218906997
0.10187136071182105 -0.41517548797656073
0.10067632920791807 -0.4354515705850583
0.09938330182850437 -0.45325833497214035
0.09798256297137257 -0.46842484493775877
0.09646835240929681 -0.48079701009856557
0.09488821505144669 -0.4902358486101573
0.09343391501573751 -0.4965065222435076
0.09231726720314769 -0.49892443175414936
0.09120061939055786 -0.4965065222435076
0.08974631935484868 -0.4902358486101572
0.08816618199699858 -0.48079701009856557
0.08665197143492281 -0.46842484493775877
0.085251232577791 -0.45325833497214035
0.08395820519837734 -0.43545157058505823
0.08276317369447435 -0.4151754879765605
0.08166048729012844 -0.3926065218906996
0.08064743105033903 -0.367921854891453
0.0797230014230185 -0.3412983676353494
0.07888698707450084 -0.3129124917848203
0.07813919192967489 -0.2829401431984621
0.07747839663002676 -0.25155648401770736
0.07690042584516153 -0.2189355032263001
0.07639515031188618 -0.18524956302735493
0.0759455035413043 -0.15066967642903575
0.07554020953229632 -0.11537142905890259
0.07521570297854874 -0.07956693540223869
0.07509499162130684 -0.04361846037287208
0.07525436813784604 -0.00828746393527081
0.11802131752419093 -0.008433611714733225
0.11812618828321476 -0.04369351538789282
0.11796775269875086 -0.07955167218519686
0.11757126453046769 -0.11531635141717096
0.11703651276532293 -0.1506047373817551
0.1164000703773031 -0.18518106832322978
0.11565662432633711 -0.2188609985963957
0.11479338336789312 -0.25147290149496443
0.11380223933389115 -0.2828457178623334
0.11267979781880175 -0.3128064861515678
0.11142508490451125 -0.3411805429235974
0.11003796092220902 -0.3677921148255923
0.10851827690742366 -0.392464684515573
0.1068652501227242 -0.41502108897051043
0.10507669446913573 -0.4352837108101577
0.1031480618828651 -0.45307566136877003
0.10107045688942423 -0.4682262063532177
0.09883245635834531 -0.4805877749752812
0.09646776552963164 -0.4900521609105123
0.09419185698748994 -0.496444798749983
0.09231726720314769 -0.49902595349028295
0.0904426774188054 -0.49644479874998304
0.08816676887666375 -0.4900521609105122
0.08580207804795006 -0.4805877749752812
0.08356407751687114 -0.46822620635321766
0.0814864725234303 -0.4530756613687699
0.07955783993715966 -0.4352837108101576
0.07776928428357117 -0.41502108897051027
0.07611625749887176 -0.3924646845155729
0.07459657348408638 -0.3677921148255922
0.07320944950178415 -0.3411805429235974
0.07195473658749364 -0.31280648615156775
0.07083229507240424 -0.28284571786233337
0.06984115103840229 -0.2514729014949644
0.06897791007995828 -0.2188609985963955
0.0682344640289923 -0.1851810683232299
0.06759802164097246 -0.1506047373817551
0.06706326987582771 -0.11531635141717109
0.06666678170754453 -0.0795516721851968
0.06650834612308064 -0.04369351538789271
0.06661321688210445 -0.008433611714733245
0.12667238488139437 -0.008537324612552025
0.12672697324009366 -0.04375252918907534
0.12652863960286587 -0.07953034339646192
0.12606097638412622 -0.11525267881617529
0.12540010175828825 -0.15052454428044207
0.12457953029541242 -0.1850906624467369
0.12359909892274197 -0.2187587914643863
0.12245087568007652 -0.2513564405876932
0.12112935568255405 -0.28271353648826314
0.11963218690724467 -0.3126579668671674
0.11795870943121918 -0.3410154873776502
0.11610884429550525 -0.36761044411040655
0.11408250765697561 -0.3922662512871894
0.11187919785983823 -0.4148055103323873
0.10949740654429242 -0.43505023330860926
0.10693401108665143 -0.4528231892335076
0.1041824917714945 -0.46795329917043366
0.10122724560474775 -0.4802964830513237
0.09807832978451066 -0.489775241719015
0.09495956801206167 -0.49630073340412917
0.09231726720314769 -0.4991031114343418
0.0896749663942337 -0.4963007334041292
0.08655620462178475 -0.48977524171901493
0.08340728880154762 -0.4802964830513237
0.08045204263480087 -0.4679532991704337
0.07770052331964399 -0.4528231892335076
0.07513712786200295 -0.4350502333086091
0.07275533654645715 -0.41480551033238705
0.07055202674931979 -0.3922662512871893
0.06852569011079014 -0.3676104441104064
0.06667582497507622 -0.34101548737765025
0.06500234749905072 -0.31265796686716735
0.06350517872374134 -0.2827135364882631
0.06218365872621888 -0.2513564405876931
0.061035435483553425 -0.2187587914643861
0.06005500411088298 -0.18509066244673697
0.05923443264800715 -0.1505245442804421
0.058573558022169174 -0.11525267881617543
0.0581058948034295 -0.07953034339646185
0.057907561166201736 -0.04375252918907524
0.05796214952490103 -0.008537324612552046
0.13533996127306616 -0.008605167117562157
0.1353497079274682 -0.04379552982464029
0.13511095176215546 -0.07950186034614724
0.1345730951088321 -0.11518038399147096
0.13378837809523395 -0.15042952206164914
0.1327852915092435 -0.18497865784960205
0.13156848818362255 -0.2186290069373129
0.13013535010712063 -0.25120712656210875
0.12848336512708827 -0.2825435928713727
0.1266113837162695 -0.31246692348019695
0.12451908527107255 -0.34080319282156724
0.12220643814185608 -0.36737683807233773
0.11967341036115899 -0.39201122435531827
0.11691980473412039 -0.41452878371609403
0.11394493972424151 -0.4347512222226209
0.11074722497759103 -0.4525011314852492
0.10732392772532517 -0.46760703900585965
0.10365990744896096 -0.47992443004267743
0.09973302707431317 -0.4894013662586378
0.09574559009665651 -0.496064413772176
0.0923172672031477 -0.499169159160846
0.08888894430963885 -0.496064413772176
0.08490150733198218 -0.4894013662586377
0.08097462695733441 -0.47992443004267743
0.07731060668097019 -0.4676070390058596
0.07388730942870438 -0.45250113148524923
0.07068959468205385 -0.43475122222262075
0.067714729672175 -0.4145287837160939
0.0649611240451364 -0.39201122435531816
0.06242809626443932 -0.3673768380723376
0.060115449135222855 -0.34080319282156724
0.05802315069002588 -0.3124669234801969
0.05615116927920713 -0.28254359287137265
0.05449918429917477 -0.2512071265621087
0.05306604622267283 -0.21862900693731274
0.0518492428970519 -0.18497865784960216
0.050846156311061444 -0.15042952206164914
0.05006143929746329 -0.11518038399147108
0.04952358264413992 -0.07950186034614719
0.04928482647882718 -0.0437955298246402
0.04929457313322922 -0.008605167117562176
0.1440291390782956 -0.00864398299159234
0.1440010774658196 -0.04382311082145949
0.1437237356458423 -0.07946560534095488
0.14311744007588947 -0.1150994317393809
0.1422101899198704 -0.15031987081720033
0.14102502415754478 -0.18484518980168613
0.13957178896627528 -0.21847168712895024
0.1378535400478546 -0.25102495610675113
0.13587093167292374 -0.28233587464990134
0.13362405139568873 -0.3122333466673785
0.1311128900271165 -0.34054365282139676
0.12833742758478925 -0.36709129204158414
0.12529766164799283 -0.3916995978343692
0.12199366263844375 -0.41419091450736895
0.11842571184553487 -0.4343867344151623
0.1145938214767412 -0.45210953548384464
0.11049930206311098 -0.46718816920321465
0.10613564934890958 -0.4794741843900822
0.10144778996039043 -0.4889280170002922
0.09656441530695588 -0.4957205529003911
0.09231726720314772 -0.4992413835862603
0.08807011909933946 -0.4957205529003911
0.08318674444590493 -0.48892801700029215
0.07849888505738582 -0.4794741843900822
0.07413523234318438 -0.4671881692032146
0.07004071292955417 -0.4521095354838447
0.06620882256076048 -0.4343867344151622
0.06264087176785164 -0.41419091450736883
0.05933687275830257 -0.39169959783436914
0.056297106821506154 -0.367091292041584
0.05352164437917891 -0.3405436528213967
0.05101048301060668 -0.31223334666737845
0.04876360273337165 -0.2823358746499013
0.04678099435844077 -0.2510249561067511
0.0450627454400201 -0.21847168712895007
0.0436095102487506 -0.18484518980168618
0.04242434448642502 -0.15031987081720033
0.0415170943304059 -0.11509943173938102
0.04091079876045309 -0.07946560534095483
0.040633456940475765 -0.04382311082145939
0.04060539532799979 -0.008643982991592363
0.15274308859119606 -0.0086610065126577
0.1526865118412664 -0.043836426220953684
0.152375912939326 -0.0794215684844114
0.15170417167590444 -0.11500982700611546
0.15067459482755988 -0.1501955454253641
0.1493064649013555 -0.1846901958780263
0.14761600181081136 -0.2182867805518595
0.14561216278768652 -0.2508098943706676
0.14329870613747756 -0.28209036385815917
0.1406768467126173 -0.3119572292842491
0.1377468010028152 -0.34023686368290224
0.13450850067228315 -0.3667538006745119
0.13096194063070785 -0.39133136226392373
0.1271073931510178 -0.4137918683894177
0.1229460373021192 -0.4339567988863992
0.11848003649758031 -0.45164834189536135
0.11371304275462432 -0.4666967809850087
0.10865561969302814 -0.4789496470317711
0.10324034170413136 -0.4883562887563965
0.09744262852101274 -0.49524620843181577
0.0923172672031477 -0.4993415987573226
0.08719190588528264 -0.49524620843181577
0.081394192702164 -0.4883562887563965
0.07597891471326725 -0.47894964703177106
0.07092149165167104 -0.46669678098500866
0.06615449790871505 -0.4516483418953614
0.06168849710417614 -0.43395679888639915
0.05752714125527759 -0.4137918683894177
0.05367259377558754 -0.3913313622639238
0.05012603373401226 -0.3667538006745118
0.04688773340348023 -0.3402368636829022
0.04395768769367811 -0.311957229284249
0.04133582826881782 -0.2820903638581591
0.03902237161860885 -0.25080989437066753
0.037018532595484016 -0.21828678055185935
0.035328069504939885 -0.18469019587802638
0.03395993957873551 -0.1501955454253641
0.03293036273039095 -0.11500982700611559
0.03225862146696938 -0.07942156848441133
0.031948022565029 -0.04383642622095358
0.03189144581509933 -0.008661006512657731
0.16148228339048962 -0.008663873504102549
0.16140998212835245 -0.04383733799833404
0.16107678901076014 -0.07937052858852627
0.16034400001234675 -0.11491158740888023
0.1591907751625775 -0.15005620831116556
0.15763733627297816 -0.18451340335953972
0.1557080881581478 -0.2180741381876923
0.15341790344141065 -0.25056187577384864
0.150773322468713 -0.28180703908384264
0.1477764208982352 -0.31163856736071044
0.14442749343726893 -0.339882826480507
0.14072635698735797 -0.3663643565343148
0.13667291748435048 -0.39090650729141396
0.13226767510980877 -0.4133315835722011
0.12751221961359038 -0.43346132879449834
0.122411772196963 -0.4511176514215393
0.11697125611031532 -0.46613178042201653
0.11121479615854869 -0.47835484024548514
0.10512387141423002 -0.4876957004018969
0.09843296530081162 -0.4946082443493299
0.09231726720314769 -0.49949470050530487
0.08620156910548377 -0.4946082443493299
0.07951066299206534 -0.48769570040189686
0.0734197382477467 -0.4783548402454851
0.06766327829598004 -0.4661317804220164
0.06222276220933236 -0.45111765142153926
0.05712231479270496 -0.4334613287944984
0.05236685929648658 -0.4133315835722011
0.04796161692194491 -0.39090650729141396
0.043908177418937405 -0.3663643565343147
0.040207040969026504 -0.33988282648050694
0.03685811350806017 -0.3116385673607104
0.03386121193758238 -0.28180703908384264
0.031216630964884733 -0.2505618757738486
0.02892644624814757 -0.21807413818769217
0.02699719813331723 -0.18451340335953983
0.025443759243717886 -0.15005620831116553
0.024290534393948657 -0.11491158740888033
0.02355774539553524 -0.0793705285885262
0.023224552277942918 -0.04383733799833393
0.023152251015805765 -0.008663873504102583
0.1702431197676573 -0.008660470765096599
0.17017377155472443 -0.043828845482506276
0.1698370048233762 -0.07931427258327214
0.16904834051695034 -0.11480458375069107
0.16776790989527993 -0.14990116795186634
0.16602526957648034 -0.1843143260080949
0.1638549202067922 -0.21783351563287098
0.16127739986613285 -0.2502808099367778
0.15830139495440423 -0.28148587852311147
0.15492941891353348 -0.3112773628812811
0.15116164660754713 -0.33948154461132013
0.1469976896424247 -0.3659229627037285
0.14243732517854146 -0.39042498805926046
0.13748103856651475 -0.4128100687818491
0.13213118826819573 -0.43289991834225255
0.12639332433850892 -0.4505179090252313
0.12028324818977225 -0.46549164137002397
0.11380676866499674 -0.47768864812880296
0.10708124199048655 -0.4869734288542643
0.0996496781525878 -0.49376275465028413
0.09231726720314769 -0.49972025227676564
0.08498485625370758 -0.49376275465028413
0.07755329241580881 -0.48697342885426426
0.07082776574129863 -0.47768864812880285
0.06435128621652311 -0.4654916413700239
0.05824121006778645 -0.45051790902523137
0.05250334613809966 -0.43289991834225267
0.04715349583978059 -0.41281006878184917
0.042197209227753905 -0.39042498805926046
0.03763684476387066 -0.36592296270372837
0.033472887798748255 -0.3394815446113202
0.02970511549276192 -0.311277362881281
0.02633313945189115 -0.2814858785231115
0.023357134540162527 -0.25028080993677776
0.020779614199503145 -0.2178335156328708
0.018609264829815057 -0.18431432600809503
0.016866624511015463 -0.1499011679518663
0.015586193889345061 -0.11480458375069116
0.014797529582919203 -0.07931427258327207
0.014460762851570955 -0.04382884548250617
0.014391414638638092 -0.008660470765096628
0.1790154045931198 -0.008658501583598698
0.17897833390392234 -0.04381608173576283
0.1786704373882891 -0.07925577260974903
0.17782902365298903 -0.11468814842046815
0.1764151238491511 -0.14972936625600486
0.17447769041296096 -0.18409225104932594
0.17206323694212236 -0.2175645891668169
0.16919722784564445 -0.24996659072777938
0.16588951646906028 -0.2811268654020159
0.16214248182829127 -0.3108736244344322
0.1579559394739951 -0.3390330299881397
0.15332920967018493 -0.36542961388449025
0.14826186418818782 -0.38988680463212944
0.14275427633814614 -0.4122271291076108
0.13680898204109906 -0.4322728027350008
0.13043299853767032 -0.4498469086068698
0.12364368088395719 -0.4647824665277218
0.11647344731742786 -0.4769278837050059
0.10896607942685067 -0.48625028356999567
0.10136802136347302 -0.4926664473051352
0.09231726720314769 -0.5
0.08326651304282236 -0.49266644730513526
0.07566845497944467 -0.4862502835699956
0.06816108708886753 -0.4769278837050057
0.0609908535223382 -0.4647824665277218
0.05420153586862507 -0.4498469086068698
0.04782555236519636 -0.43227280273500085
0.041880258068149184 -0.4122271291076109
0.03637267021810752 -0.38988680463212955
0.03130532473611045 -0.36542961388449013
0.026678594932300258 -0.3390330299881397
0.02249205257800415 -0.3108736244344321
0.018745017937235126 -0.2811268654020159
0.015437306560650918 -0.2499665907277793
0.012571297464172992 -0.21756458916681673
0.01015684399333442 -0.18409225104932606
0.00821941055714429 -0.14972936625600483
0.006805510753306378 -0.11468814842046825
0.005964097018006277 -0.07925577260974896
0.005656200502373021 -0.04381608173576273
0.0056191298131756115 -0.008658501583598733
SCALARS Stress float 6
LOOKUP_TABLE default
-102.19920516874613 -3251.6419217179146 -1006.1523380659983 -75.54765634789986 0.0 0.0
1540.1097015893627 910.1094166056528 735.0657354585046 -117.35065189870619 0.0 0.0
875.6788314312595 -77.66643193728925 239.40371984819097 -50.18954913158024 0.0 0.0
896.0367230156069 68.21468897655754 289.2754235976493 -7.475071136905117 0.0 0.0
1028.7575859965175 24.820689733078293 316.0734827188787 -17.227894314076178 0.0 0.0
1238.2389114920484 35.07138560084137 381.9930891278669 -17.75268801863949 0.0 0.0
1469.5136112382163 38.21457977528651 452.31845730405075 -18.824568941656324 0.0 0.0
1711.5814221471237 44.50878005372357 526.8270606602543 -19.232437949525423 0.0 0.0
1956.4739600304329 50.700870033097864 602.1524490190593 -19.37747372444519 0.0 0.0
2201.91289329687 57.09683006023778 677.7029170071322 -19.41522139751018 0.0 0.0
2447.0769045034153 63.473820403613246 753.1652174721086 -19.415219027954475 0.0 0.0
2691.9388018615664 69.84726431810692 828.5358198539019 -19.41951876080252 0.0 0.0
2936.82246195978 76.242905973622 903.9196103800203 -19.457341295371293 0.0 0.0
3182.613367311983 82.75049447080109 979.6091585348354 -19.56876277092732 0.0 0.0
3431.2566710825317 89.52404391442984 1056.2342144990885 -19.796887590089096 0.0 0.0
3686.0393368287814 96.7227304931289 1134.8286201965734 -20.120401295766875 0.0 0.0
3950.1510961873587 104.26123931272926 1216.3237006500265 -20.266897733770275 0.0 0.0
4220.924598531625 111.34340128502885 1299.6803999449955 -19.42682122652078 0.0 0.0
4478.3557432457255 116.20598972268468 1378.3685198905227 -16.203547075510045 0.0 0.0
4675.2291524128605 117.39107464099281 1437.786068116157 -9.478951690900075 0.0 0.0
4750.642989465882 116.72327110008641 1460.2098781697903 -4.945377440890297e-12 0.0 0.0
4675.229152412787 117.39107464084279 1437.7860681160887 9.47895169089724 0.0 0.0
4478.355743245731 116.20598972273595 1378.3685198905396 16.203547075521747 0.0 0.0
4220.924598531754 111.34340128533657 1299.6803999451272 19.426821226492706 0.0 0.0
3950.1510961871763 104.2612393123294 1216.323700649852 20.26689773374998 0.0 0.0
3686.0393368287896 96.72273049317569 1134.8286201965896 20.12040129574133 0.0 0.0
3431.256671082569 89.52404391451148 1056.2342144991242 19.79688759010316 0.0 0.0
3182.6133673120817 82.75049447098853 979.6091585349213 19.5687627709477 0.0 0.0
2936.822461959779 76.24290597361035 903.9196103800169 19.457341295325655 0.0 0.0
2691.9388018615796 69.84726431817045 828.535819853925 19.41951876079279 0.0 0.0
2447.0769045034385 63.47382040370191 753.1652174721421 19.415219027942324 0.0 0.0
2201.9128932968683 57.09683006021491 677.702917007125 19.415221397512642 0.0 0.0
1956.4739600304179 50.70087003304859 602.1524490190396 19.377473724414088 0.0 0.0
1711.581422147159 44.50878005383889 526.8270606602993 19.232437949487238 0.0 0.0
1469.513611238193 38.214579775253895 452.3184573040342 18.824568941651506 0.0 0.0
1238.2389114919959 35.07138560071574 381.9930891278136 17.75268801861201 0.0 0.0
1028.7575859965164 24.82068973305916 316.0734827188725 17.22789431407991 0.0 0.0
896.0367230155898 68.21468897649513 289.27542359762555 7.4750711369301115 0.0 0.0
875.6788314312727 -77.6664319372521 239.40371984820618 50.18954913154988 0.0 0.0
1540.1097015893604 910.1094166056383 735.0657354584998 117.35065189869697 0.0 0.0
-102.19920516871512 -3251.6419217179064 -1006.1523380659864 75.54765634789531 0.0 0.0
-580.3001288039184 -3230.3456564163243 -1143.1937355660727 -51.62711984611498 0.0 0.0
947.2198392970146 622.6801307043349 470.9699910004048 -93.56543448211328 0.0 0.0
615.7240271422021 -87.38351280437436 158.5021543013484 -35.080579890942836 0.0 0.0
799.2076419717042 30.896236537315193 249.0311635527058 -29.036289850041538 0.0 0.0
914.625610317189 3.8359106238095664 275.53845628229953 -41.86432324314329 0.0 0.0
1104.614296968076 3.0531798210893646 332.3002430367497 -47.42428533188577 0.0 0.0
1309.6490215178062 1.0209530492621124 393.20099237012045 -49.91708058617261 0.0 0.0
1524.202094003746 0.3120442995326159 457.3542414909835 -50.93755341378365 0.0 0.0
1741.6324355878146 0.03261859122543426 522.4995162537123 -51.2177107778361 0.0 0.0
1959.8064836888673 -0.041639467865655644 587.9294532663005 -51.24639247216572 0.0 0.0
2177.9271652135385 -0.04214401187867067 653.3655063604981 -51.2073243863112 0.0 0.0
2395.8972160343446 -0.006459888161948646 718.7672268438546 -51.18812463505776 0.0 0.0
2613.984986741319 0.08981325785806704 784.2224399997531 -51.25911067342845 0.0 0.0
2832.932252689406 0.3179782577433923 849.9750692841446 -51.5445539750955 0.0 0.0
3054.249248876241 0.7471854152584152 916.4989302874498 -52.23939342244278 0.0 0.0
3280.192994195438 1.2683404020083002 984.438400379234 -53.4702361834144 0.0 0.0
3512.1887205858516 1.2132128668614257 1054.020580035814 -54.785783391656025 0.0 0.0
3745.838200569766 -1.044229707544769 1123.4381912586666 -54.16326982695892 0.0 0.0
3962.296748890195 -7.574699267859318 1186.4166148867007 -47.21449868641689 0.0 0.0
4123.031948839832 -17.75224183620822 1231.5839121010872 -28.93353504877982 0.0 0.0
4183.176535967754 -23.89140653208483 1247.7855388307007 -1.7124079931818414e-12 0.0 0.0
4123.031948839806 -17.752241836240696 1231.5839121010697 28.93353504876231 0.0 0.0
3962.296748890144 -7.574699267926782 1186.4166148866652 47.21449868644661 0.0 0.0
3745.8382005697717 -1.0442297075020797 1123.4381912586812 54.163269826931554 0.0 0.0
3512.188720585754 1.2132128666322792 1054.0205800357157 54.785783391654434 0.0 0.0
3280.1929941954377 1.2683404019759728 984.4384003792243 53.470236183398335 0.0 0.0
3054.249248876276 0.7471854153470847 916.4989302874868 52.23939342245694 0.0 0.0
2832.9322526894302 0.31797825783050726 849.9750692841783 51.544553975136424 0.0 0.0
2613.9849867413177 0.08981325785563676 784.2224399997522 51.2591106734008 0.0 0.0
2395.897216034378 -0.006459888083977461 718.7672268438882 51.18812463507193 0.0 0.0
2177.9271652135703 -0.0421440117951164 653.3655063605327 51.20732438632382 0.0 0.0
1959.806483688852 -0.041639467892652604 587.9294532662879 51.246392472166576 0.0 0.0
1741.632435587743 0.03261859106582499 522.4995162536426 51.21771077783741 0.0 0.0
1524.202094003777 0.31204429960958 457.35424149101607 50.93755341375355 0.0 0.0
1309.6490215177898 1.0209530492230323 393.2009923701038 49.917080586177136 0.0 0.0
1104.614296968039 3.0531798209873773 332.3002430367079 47.424285331877726 0.0 0.0
914.6256103172188 3.8359106238580383 275.538456282323 41.86432324315119 0.0 0.0
799.2076419716863 30.896236537279375 249.03116355268978 29.036289850045286 0.0 0.0
615.7240271421895 -87.38351280438286 158.50215430134202 35.08057989091894 0.0 0.0
947.2198392970175 622.6801307043451 470.96999100040887 93.56543448211198 0.0 0.0
-580.3001288039135 -3230.3456564163275 -1143.1937355660723 51.62711984610932 0.0 0.0
-634.965656666385 -2827.3838827218915 -1038.704861816483 -237.7661605540385 0.0 0.0
599.041357874481 375.3913721254969 292.32981899999334 -169.19620048477395 0.0 0.0
456.64119539233843 15.65701985841572 141.68946457522622 -23.788065976319828 0.0 0.0
666.845718312939 5.060507327722597 201.5718676921984 -66.9821253312667 0.0 0.0
813.8012286163446 11.93318561633973 247.7203242698053 -83.35773912259897 0.0 0.0
980.4899565774112 2.969125693390314 295.03772468124055 -95.53573340508116 0.0 0.0
1165.1766908017535 1.6217299898627568 350.03952623748484 -100.29549910619424 0.0 0.0
1355.397873992188 0.40226681970683176 406.74004224356855 -102.21904656521711 0.0 0.0
1548.4619670827444 0.04732820580642255 464.5527885865653 -102.73583366696478 0.0 0.0
1742.2052324719198 -0.06023622609467849 522.6434988737476 -102.76572534408493 0.0 0.0
1936.024276594012 -0.05988732797548657 580.7893167798111 -102.67738530354474 0.0 0.0
2129.7881180603536 -0.010734897768111873 638.9332149487757 -102.6297328566493 0.0 0.0
2323.697184592497 0.12208337523921653 697.1457803903211 -102.75659016113384 0.0 0.0
2518.312085105928 0.44169952733218265 755.6261353899781 -103.30449265213555 0.0 0.0
2714.7229407562268 1.0581216966593374 814.7343187358658 -104.68152723354689 0.0 0.0
2914.419038346534 1.8409980049198085 874.8780109054361 -107.20755752804354 0.0 0.0
3117.882392889954 1.845760838960044 935.9184461186744 -110.11596468011305 0.0 0.0
3320.4750531122418 -1.3644668786182406 995.7331758700872 -109.48571502700565 0.0 0.0
3505.58525869339 -11.183488133084891 1048.3205311680917 -96.31288870987343 0.0 0.0
3640.9104531368175 -27.3144515082844 1084.0788004885603 -59.61428587169405 0.0 0.0
3690.607274235942 -37.65206521453635 1095.8865627064217 8.419931418757187e-13 0.0 0.0
3640.910453136839 -27.314451508216695 1084.0788004885862 59.614285871678575 0.0 0.0
3505.58525869334 -11.183488133204254 1048.3205311680408 96.31288870988926 0.0 0.0
3320.475053112173 -1.364466878761366 995.7331758700236 109.485715027008 0.0 0.0
3117.8823928899187 1.8457608388663331 935.9184461186355 110.11596468015469 0.0 0.0
2914.4190383465243 1.8409980048903574 874.8780109054243 107.20755752803929 0.0 0.0
2714.722940756269 1.0581216967549114 814.7343187359073 104.68152723356036 0.0 0.0
2518.312085105938 0.44169952735291496 755.6261353899872 103.30449265214803 0.0 0.0
2323.6971845924545 0.12208337515677137 697.1457803902831 102.75659016113363 0.0 0.0
2129.7881180603313 -0.0107348978123607 638.9332149487559 102.62973285664242 0.0 0.0
1936.024276594001 -0.05988732799093199 580.789316779803 102.67738530354876 0.0 0.0
1742.2052324719227 -0.06023622609691337 522.6434988737477 102.76572534410317 0.0 0.0
1548.4619670827226 0.047328205737607654 464.5527885865381 102.73583366698523 0.0 0.0
1355.3978739921697 0.402266819654284 406.7400422435476 102.21904656523357 0.0 0.0
1165.1766908017203 1.6217299897901043 350.039526237453 100.29549910618765 0.0 0.0
980.489956577436 2.969125693430264 295.0377246812598 95.53573340507978 0.0 0.0
813.8012286163593 11.93318561635516 247.72032426981434 83.35773912261293 0.0 0.0
666.8457183129485 5.060507327759117 201.57186769221227 66.98212533125444 0.0 0.0
456.6411953923083 15.657019858352319 141.68946457519817 23.78806597631931 0.0 0.0
599.0413578744935 375.3913721255396 292.3298190000099 169.1962004847858 0.0 0.0
-634.9656566664031 -2827.3838827219042 -1038.7048618164922 237.76616055404597 0.0 0.0
-583.5110807409708 -2430.541666837321 -904.2158242734874 -296.82315347594 0.0 0.0
373.96683450184497 152.773678677488 158.02215395379991 -231.70925329568783 0.0 0.0
333.81264776154165 72.30505037406617 121.83530944068235 -70.50234649717896 0.0 0.0
539.5416368101936 10.362604951281206 164.97127252844243 -96.82921219644025 0.0 0.0
703.6052624115288 12.84045096789282 214.9337140138265 -124.00241191308879 0.0 0.0
856.4619206220536 5.668942289533681 258.6392588734762 -137.9142285786073 0.0 0.0
1019.3872167512212 2.0198949110214675 306.42213349867285 -144.84765666014863 0.0 0.0
1186.4047499896349 0.6544840641882423 356.117770216147 -147.39077682906927 0.0 0.0
1355.1842543616183 0.0477378033084872 406.5695976494781 -148.14275102815142 0.0 0.0
1524.6065233829297 -0.08925102362124204 457.35518170779267 -148.19733920913853 0.0 0.0
1694.130087047089 -0.09066822547175901 508.2118256464853 -148.0874104214905 0.0 0.0
1863.6641548112677 -0.0186817890146731 559.093641906676 -148.02949765992204 0.0 0.0
2033.3246512599992 0.1739761648459499 610.0495882274533 -148.2083073692679 0.0 0.0
2203.4686775024697 0.6442972935371754 661.2338924388018 -148.95497037949264 0.0 0.0
2374.7736527659426 1.5714866726790415 712.9035418315868 -150.8127937458072 0.0 0.0
2548.123420095122 2.795991771488135 765.2758235599831 -154.2004433463589 0.0 0.0
2723.569250949665 2.9223119345360797 817.9474688652601 -158.04354783685963 0.0 0.0
2897.1396742348934 -1.850190668336034 868.586845069967 -156.86996887002644 0.0 0.0
3055.0152246133553 -17.16144381497027 911.356134239516 -137.95927122959665 0.0 0.0
3169.660682623518 -43.15592097615891 937.9514284942078 -85.48853131817067 0.0 0.0
3210.942935869587 -60.23781330011026 945.2115367708434 -3.7836400679225335e-12 0.0 0.0
3169.6606826235097 -43.15592097616539 937.9514284942037 85.48853131817827 0.0 0.0
3055.0152246133025 -17.161443815112253 911.3561342394571 137.95927122958526 0.0 0.0
2897.1396742348916 -1.8501906683347453 868.5868450699668 156.86996887001146 0.0 0.0
2723.5692509496293 2.922311934464086 817.9474688652281 158.04354783688683 0.0 0.0
2548.123420095145 2.795991771500381 765.2758235599933 154.20044334635708 0.0 0.0
2374.773652765908 1.571486672605257 712.9035418315541 150.81279374581175 0.0 0.0
2203.4686775024647 0.6442972935773099 661.2338924388126 148.95497037946382 0.0 0.0
2033.324651259981 0.17397616481052047 610.0495882274374 148.20830736927797 0.0 0.0
1863.6641548112282 -0.018681789139341376 559.0936419066267 148.02949765992972 0.0 0.0
1694.1300870471189 -0.09066822541914554 508.2118256465099 148.08741042150174 0.0 0.0
1524.6065233829197 -0.08925102361460091 457.3551817077916 148.19733920915473 0.0 0.0
1355.1842543616374 0.04773780338263034 406.569597649506 148.14275102814108 0.0 0.0
1186.4047499896083 0.6544840641412568 356.1177702161248 147.39077682908223 0.0 0.0
1019.3872167512175 2.0198949110281914 306.4221334986737 144.8476566601205 0.0 0.0
856.4619206220859 5.66894228960721 258.63925887350797 137.9142285786067 0.0 0.0
703.6052624115305 12.840450967897063 214.93371401382834 124.00241191308605 0.0 0.0
539.5416368102225 10.362604951335594 164.9712725284675 96.82921219644643 0.0 0.0
333.8126477615369 72.3050503740496 121.83530944067596 70.50234649717876 0.0 0.0
373.9668345018361 152.7736786774874 158.02215395379707 231.70925329569448 0.0 0.0
-583.5110807409739 -2430.541666837322 -904.2158242734886 296.8231534759572 0.0 0.0
-500.0808855359393 -2069.128111928372 -770.7626992392936 -303.59737723308615 0.0 0.0
227.23151209300056 -18.816885039334753 62.524388116099765 -273.9919063711786 0.0 0.0
238.06124434909356 90.21331125598275 98.48236668152289 -133.59023626293742 0.0 0.0
423.6247748012213 25.36693749448384 134.69751368871155 -132.13105816539755 0.0 0.0
589.7985805535508 15.166878978691283 181.48963785967268 -160.26953215507993 0.0 0.0
731.202820613626 8.033601967012855 221.77092677419165 -175.76067753573454 0.0 0.0
873.1303108332933 2.925398548430281 262.816712814517 -183.49637379066252 0.0 0.0
1017.0813818855179 0.8728281505416506 305.38626301081774 -186.5593452400643 0.0 0.0
1161.8403886928882 0.0809426342330124 348.5763993981364 -187.45342569605182 0.0 0.0
1306.9845254481559 -0.1298038079619983 392.0564164920582 -187.5487065866648 0.0 0.0
1452.234866547247 -0.12678231284877484 435.63242527031946 -187.43547653676802 0.0 0.0
1597.520125142849 -0.027327464992495276 479.2478393033569 -187.37952126984848 0.0 0.0
1742.8826774897964 0.24187887743099035 522.937366910168 -187.595458740502 0.0 0.0
1888.4667008436388 0.9011535356305256 566.8103563137809 -188.45970351837576 0.0 0.0
2034.5620717292345 2.215196229811271 611.033180387714 -190.5831428595202 0.0 0.0
2181.5914871457703 3.989605041092138 655.6743276560587 -194.43337434981413 0.0 0.0
2329.577315458225 4.2573029809222245 700.1503855317442 -198.74061195957387 0.0 0.0
2475.8815495737153 -2.5621778652707246 741.9958115125337 -196.9558747456387 0.0 0.0
2609.8183596294557 -25.109786680023106 775.4125718848301 -173.43670932136425 0.0 0.0
2707.3949368163835 -64.24225307309837 792.9458051229855 -107.89595101620088 0.0 0.0
2741.6482928262994 -90.51725658828754 795.3393108714037 1.0409451078885468e-12 0.0 0.0
2707.3949368163485 -64.24225307316358 792.9458051229556 107.89595101620333 0.0 0.0
2609.8183596294707 -25.109786679986666 775.412571884845 173.43670932136354 0.0 0.0
2475.881549573748 -2.562177865215304 741.9958115125597 196.9558747456329 0.0 0.0
2329.57731545822 4.257302980927777 700.1503855317443 198.74061195958228 0.0 0.0
2181.591487145741 3.9896050410152775 655.6743276560271 194.43337434981177 0.0 0.0
2034.5620717292336 2.215196229827269 611.0331803877184 190.5831428594993 0.0 0.0
1888.466700843603 0.9011535355806419 566.8103563137553 188.45970351837735 0.0 0.0
1742.8826774898487 0.24187887754799675 522.9373669102189 187.59545874049496 0.0 0.0
1597.5201251428086 -0.027327465094997727 479.24783930331404 187.3795212698684 0.0 0.0
1452.2348665473137 -0.12678231268457196 435.6324252703888 187.43547653674236 0.0 0.0
1306.9845254481302 -0.12980380800282632 392.05641649203835 187.5487065866537 0.0 0.0
1161.8403886929148 0.08094263427492354 348.57639939815687 187.4534256960388 0.0 0.0
1017.0813818855481 0.8728281506083926 305.3862630108471 186.55934524004164 0.0 0.0
873.1303108332714 2.9253985483851332 262.81671281449695 183.49637379064208 0.0 0.0
731.2028206136389 8.033601967044254 221.77092677420495 175.76067753576598 0.0 0.0
589.7985805535932 15.16687897878778 181.48963785971426 160.26953215506492 0.0 0.0
423.6247748012107 25.366937494479913 134.6975136887072 132.13105816541002 0.0 0.0
238.06124434908466 90.21331125598056 98.48236668151954 133.5902362629372 0.0 0.0
227.23151209298783 -18.816885039371947 62.52438811608476 273.9919063711847 0.0 0.0
-500.0808855359411 -2069.1281119283726 -770.7626992392942 303.59737723309223 0.0 0.0
-414.2673557893545 -1750.6947801093108 -649.4886407695996 -289.6430645095074 0.0 0.0
130.55336652222377 -139.12120786625962 -2.57035240321078 -298.98105616982315 0.0 0.0
162.18897558719135 83.80393622250723 73.79787354290957 -194.62660624602162 0.0 0.0
320.0809572735375 39.44880091928374 107.85892745784636 -171.59458229890404 0.0 0.0
476.3814877741635 19.633270356710927 148.8044274392623 -193.19669417873013 0.0 0.0
604.9929556444569 10.167108920710175 184.54801936955013 -208.709584634882 0.0 0.0
726.581114911198 3.9805166507315493 219.16848946857885 -216.49322954735263 0.0 0.0
847.5416890754258 1.1447430922414932 254.60592965030025 -219.7248990097661 0.0 0.0
968.4114680143848 0.11387168604377695 290.5576019101285 -220.69987306412563 0.0 0.0
1089.3367604236587 -0.1669751770849679 326.750935573972 -220.8232965318964 0.0 0.0
1210.326865729054 -0.16561537610017263 363.0483751058863 -220.72160961973086 0.0 0.0
1331.3549309065797 -0.03427530447757876 399.3961966806306 -220.6737212670162 0.0 0.0
1452.390416372903 0.31905185809554304 435.81284046929954 -220.9052122658029 0.0 0.0
1573.3740017632545 1.1832590363162083 472.3671782398712 -221.79806536808886 0.0 0.0
1694.241045281199 2.9144674248706917 509.14665381182107 -223.97283983655973 0.0 0.0
1815.0649792409158 5.2907219488496935 546.1067103569296 -227.92698115880336 0.0 0.0
1936.1200495009875 5.72775006951168 582.5543398711498 -232.37898901018167 0.0 0.0
2056.577578834917 -3.4044217656184337 615.9519471207897 -230.2669438518608 0.0 0.0
2169.163540273006 -34.442584236456184 640.4162868109651 -203.73657291024276 0.0 0.0
2252.446666350837 -89.67606923926448 648.8311791334717 -127.83831631901519 0.0 0.0
2280.5249569617295 -127.89841609896001 645.7879622588312 8.810729923425242e-13 0.0 0.0
2252.4466663508097 -89.67606923932705 648.831179133445 127.83831631901288 0.0 0.0
2169.163540273147 -34.44258423611686 640.4162868111089 203.7365729102617 0.0 0.0
2056.5775788349397 -3.4044217655844893 615.9519471208065 230.2669438518493 0.0 0.0
1936.12004950105 5.727750069670064 582.5543398712163 232.37898901018892 0.0 0.0
1815.064979240907 5.290721948809039 546.106710356915 227.9269811588417 0.0 0.0
1694.241045281197 2.914467424854525 509.1466538118156 223.97283983653296 0.0 0.0
1573.3740017632042 1.1832590362583844 472.3671782398388 221.7980653680779 0.0 0.0
1452.3904163728823 0.31905185806343006 435.8128404692838 220.90521226580398 0.0 0.0
1331.3549309066043 -0.034275304435460896 399.39619668065063 220.67372126702543 0.0 0.0
1210.3268657290307 -0.16561537615633615 363.0483751058624 220.72160961971503 0.0 0.0
1089.3367604236628 -0.16697517707025167 326.75093557397764 220.8232965318955 0.0 0.0
968.4114680143362 0.11387168593576291 290.55760191008153 220.69987306412565 0.0 0.0
847.5416890754183 1.1447430922279969 254.6059296502939 219.7248990097427 0.0 0.0
726.5811149111817 3.9805166506620657 219.16848946855313 216.49322954735058 0.0 0.0
604.9929556444889 10.167108920749847 184.54801936957165 208.70958463490228 0.0 0.0
476.3814877741668 19.633270356738905 148.80442743927173 193.19669417872524 0.0 0.0
320.080957273532 39.44880091928527 107.85892745784518 171.59458229891334 0.0 0.0
162.18897558719883 83.803936222491 73.79787354290697 194.6266062460371 0.0 0.0
130.55336652222883 -139.12120786626593 -2.570352403211121 298.98105616981064 0.0 0.0
-414.26735578937024 -1750.6947801093258 -649.4886407696087 289.64306450951824 0.0 0.0
-337.021044231194 -1473.6041720111461 -543.1875648727021 -268.54183588424223 0.0 0.0
65.84419985033463 -216.1231456935664 -45.08368375296954 -311.0449056473038 0.0 0.0
100.68258850746253 65.03064085474828 49.71396880866326 -246.16139797852165 0.0 0.0
227.76828782767657 48.72016928370938 82.9465371334158 -211.12089026633478 0.0 0.0
365.65740118673443 24.89504840266951 117.16573487682122 -223.17443569098097 0.0 0.0
478.6067362955026 12.302399483088697 147.27274073357742 -236.6605251218032 0.0 0.0
579.8640298236669 4.981494236499698 175.4536572180499 -243.86778854328767 0.0 0.0
677.8827022278904 1.4507264048566362 203.80002858982408 -246.92929906315032 0.0 0.0
774.9054003418289 0.14890732296184606 232.51629229943723 -247.8918028809986 0.0 0.0
871.6562817182219 -0.20019531472734453 261.4368259210483 -248.02903480242705 0.0 0.0
968.3996156782455 -0.2019724153435698 290.4592929788707 -247.94558598117607 0.0 0.0
1065.1687267922225 -0.039250200162938675 319.53884297761783 -247.9085220478839 0.0 0.0
1161.8687944285025 0.39745451299317214 348.6798746824487 -248.130809999402 0.0 0.0
1258.256683922815 1.4605575337820933 377.91517243697916 -248.96445623348842 0.0 0.0
1353.9513908448862 3.596655663134607 407.26441395240624 -250.98921667871284 0.0 0.0
1448.7477393482413 6.580714546198259 436.598536168332 -254.72844649930292 0.0 0.0
1543.3263964542714 7.255489732259035 465.17456585595914 -259.1100032840473 0.0 0.0
1638.9892981804746 -4.169866762325286 490.4458294254449 -257.1905220519512 0.0 0.0
1732.1902359883416 -44.437786892216906 506.3257347288376 -229.59533213155254 0.0 0.0
1803.3207962470933 -118.63774968248498 505.40491396938245 -146.10997617146523 0.0 0.0
1825.5839399324232 -172.2383443884909 496.0036786631796 4.817479748453479e-12 0.0 0.0
1803.3207962471267 -118.63774968241628 505.40491396941303 146.10997617147504 0.0 0.0
1732.1902359883409 -44.437786892193 506.3257347288443 229.59533213156237 0.0 0.0
1638.989298180453 -4.1698667623697485 490.44582942542513 257.190522051951 0.0 0.0
1543.3263964543082 7.255489732332591 465.1745658559923 259.1100032840478 0.0 0.0
1448.7477393482488 6.580714546226066 436.59853616834266 254.72844649930235 0.0 0.0
1353.9513908448184 3.596655663006067 407.26441395234747 250.98921667871804 0.0 0.0
1258.2566839228257 1.4605575338153711 377.9151724369922 248.96445623348933 0.0 0.0
1161.868794428488 0.39745451297246603 348.6798746824381 248.13080999941744 0.0 0.0
1065.1687267922102 -0.039250200161562 319.53884297761465 247.90852204787126 0.0 0.0
968.3996156782246 -0.20197241541252176 290.45929297884356 247.94558598117877 0.0 0.0
871.6562817182416 -0.20019531471484608 261.436825921058 248.02903480242264 0.0 0.0
774.9054003418144 0.14890732292828712 232.51629229942273 247.89180288100033 0.0 0.0
677.8827022278858 1.4507264048599744 203.80002858982385 246.92929906313492 0.0 0.0
579.8640298236867 4.981494236553461 175.45365721807212 243.86778854329012 0.0 0.0
478.6067362955118 12.302399483116492 147.27274073358845 236.66052512179618 0.0 0.0
365.65740118671556 24.8950484026233 117.16573487680166 223.17443569098276 0.0 0.0
227.7682878276785 48.720169283729085 82.94653713342228 211.12089026633174 0.0 0.0
100.68258850745275 65.0306408547492 49.71396880866059 246.16139797853708 0.0 0.0
65.84419985032777 -216.1231456935683 -45.083683752972185 311.0449056472943 0.0 0.0
-337.0210442312037 -1473.6041720111573 -543.1875648727081 268.5418358842451 0.0 0.0
-271.42646862242907 -1232.9670318515077 -451.31805014218116 -246.02338135052082 0.0 0.0
21.45556213588964 -259.3120906742919 -71.35695856152067 -313.7922698626741 0.0 0.0
49.40928079093412 42.00236112336644 27.423492574290172 -285.8514917349319 0.0 0.0
144.8500931534969 52.68757071932873 59.26129916184769 -247.11223808349092 0.0 0.0
258.69526679935444 29.60549160565218 86.49022752150199 -249.71610213824624 0.0 0.0
352.8061552376403 14.37003403678545 110.15285678232772 -259.582566614419 0.0 0.0
433.1561617058613 5.855882751614789 131.70361333724279 -265.57979719465663 0.0 0.0
508.1739857005616 1.7406804151885351 152.97439983472498 -268.19157324996263 0.0 0.0
581.3410200384986 0.1872309956018392 174.45847531023017 -269.0382090121101 0.0 0.0
653.9384935810928 -0.22828734267940654 196.11306187152397 -269.1710921539785 0.0 0.0
726.4484097363306 -0.2328095537366499 217.86468005477815 -269.1086912579664 0.0 0.0
798.963133303086 -0.04232233979131994 239.67624328898842 -269.0823539943833 0.0 0.0
871.3378090154516 0.46863675595632603 261.5419337314223 -269.2713563286231 0.0 0.0
943.1749408321011 1.705146684682998 283.4640262550353 -269.9668342027464 0.0 0.0
1013.8187990445301 4.195488971758148 305.4042864048866 -271.66356570425955 0.0 0.0
1082.8136838148691 7.751755785305597 327.16963188005246 -274.9057544517057 0.0 0.0
1151.271931999236 8.785451460553166 348.0172150379367 -279.05320290231793 0.0 0.0
1222.8086126942055 -4.586486075085631 365.4666379857359 -277.9662851382823 0.0 0.0
1298.0267072276138 -54.255780651605164 373.13127797280265 -251.52197174395874 0.0 0.0
1358.6568886378711 -150.31426565371262 362.50278689524754 -163.37845073733396 0.0 0.0
1374.935455563836 -223.8278605127602 345.3322785153227 3.623767952376511e-13 0.0 0.0
1358.6568886379039 -150.31426565362733 362.50278689528295 163.37845073732598 0.0 0.0
1298.026707227542 -54.255780651768234 373.1312779727321 251.52197174394868 0.0 0.0
1222.8086126941437 -4.586486075263165 365.466637985664 277.9662851382916 0.0 0.0
1151.2719319991738 8.785451460413906 348.0172150378764 279.0532029023208 0.0 0.0
1082.8136838148857 7.75175578533984 327.1696318800677 274.90575445171527 0.0 0.0
1013.8187990445598 4.195488971835685 305.4042864049186 271.6635657042495 0.0 0.0
943.1749408321042 1.705146684709673 283.4640262550442 269.96683420274746 0.0 0.0
871.3378090154744 0.4686367560073039 261.5419337314446 269.27135632863343 0.0 0.0
798.9631333030973 -0.04232233974704691 239.67624328900507 269.08235399438576 0.0 0.0
726.4484097363234 -0.23280955375863677 217.8646800547694 269.1086912579853 0.0 0.0
653.9384935811211 -0.22828734263228068 196.11306187154665 269.17109215396704 0.0 0.0
581.3410200385193 0.18723099566394552 174.45847531025495 269.03820901210736 0.0 0.0
508.1739857005743 1.7406804152293223 152.9743998347411 268.1915732499519 0.0 0.0
433.15616170583394 5.855882751538109 131.70361333721166 265.57979719465516 0.0 0.0
352.8061552376571 14.37003403680803 110.15285678233955 259.58256661441885 0.0 0.0
258.6952667993493 29.60549160562022 86.49022752149088 249.71610213824738 0.0 0.0
144.85009315351525 52.68757071937048 59.26129916186573 247.11223808348385 0.0 0.0
49.4092807909639 42.00236112341413 27.423492574313414 285.85149173493073 0.0 0.0
21.455562135884385 -259.31209067431814 -71.35695856153012 313.79226986267537 0.0 0.0
-271.42646862243436 -1232.9670318515082 -451.31805014218287 246.02338135050942 0.0 0.0
-217.36711445856469 -1023.3497908340249 -372.21507158777695 -224.27342115993767 0.0 0.0
-10.13258323116792 -277.30163978875146 -86.23026690597581 -309.76767670908515 0.0 0.0
5.3212316973331495 19.623938824734577 7.483551156620317 -313.6149013187558 0.0 0.0
69.42774091310068 52.27707626743746 36.511445154161436 -277.1064451430388 0.0 0.0
155.77226777013 32.934927454756995 56.6121585674661 -271.93146431693435 0.0 0.0
228.1539139058286 16.135118575694396 73.2867097444569 -277.34341243349445 0.0 0.0
286.65609942315035 6.560364803703331 87.9649392680561 -281.5716831382896 0.0 0.0
338.4733376832466 1.9756491497229351 102.13469604989082 -283.50441599536566 0.0 0.0
387.7364705397515 0.2231570910478502 116.38788828923981 -284.145028825087 0.0 0.0
436.18210836741514 -0.24929497212648855 130.77984401858663 -284.25342645973586 0.0 0.0
484.46979210004673 -0.2562858216466104 145.26405188352004 -284.21280813556535 0.0 0.0
532.7403145870916 -0.04398659309913011 159.80889839819775 -284.19571856146734 0.0 0.0
580.8145909102975 0.5249710644308907 174.40186859241854 -284.330960638686 0.0 0.0
628.1792183605178 1.893825002942406 189.0219130090381 -284.8245861172922 0.0 0.0
673.9510652947276 4.6552058660899505 203.58188134824528 -286.0480826608305 0.0 0.0
717.4153656040342 8.705287748387128 217.8361960057264 -288.54601876379377 0.0 0.0
760.0099582813373 10.261510148748485 231.08144052902568 -292.2944993427938 0.0 0.0
807.697422032535 -4.364099538180957 240.99999674830627 -292.6802017652987 0.0 0.0
865.7999722932183 -62.94155366337323 240.85752558895354 -269.80764058095247 0.0 0.0
917.2039507013933 -183.8112710713426 220.01780388901517 -180.23665041513004 0.0 0.0
926.680584134141 -283.43484476393206 192.97372181106272 1.6427748050773516e-11 0.0 0.0
917.203950701346 -183.8112710714508 220.01780388896853 180.23665041512092 0.0 0.0
865.7999722931919 -62.941553663441084 240.85752558892526 269.80764058093575 0.0 0.0
807.6974220325201 -4.364099538251681 240.99999674828052 292.6802017652916 0.0 0.0
760.0099582813044 10.26151014864832 231.0814405289858 292.29449934276687 0.0 0.0
717.4153656040401 8.705287748375866 217.8361960057248 288.5460187638082 0.0 0.0
673.9510652947368 4.655205866116562 203.58188134825602 286.04808266081955 0.0 0.0
628.1792183605342 1.8938250029959658 189.021913009059 284.8245861172931 0.0 0.0
580.8145909102825 0.5249710644149657 174.4018685924093 284.33096063867833 0.0 0.0
532.7403145870887 -0.0439865930846528 159.80889839820122 284.19571856144876 0.0 0.0
484.46979210002746 -0.25628582170423986 145.264051883497 284.2128081355634 0.0 0.0
436.1821083673746 -0.24929497222337194 130.7798440185454 284.25342645972063 0.0 0.0
387.73647053976913 0.2231570910999361 116.38788828926074 284.1450288250704 0.0 0.0
338.47333768323193 1.975649149691438 102.13469604987704 283.5044159953555 0.0 0.0
286.6560994231792 6.56036480376244 87.96493926808252 281.5716831382924 0.0 0.0
228.15391390580112 16.135118575615643 73.28670974442502 277.34341243349814 0.0 0.0
155.77226777015332 32.934927454788955 56.61215856748269 271.9314643169352 0.0 0.0
69.4277409131145 52.27707626747683 36.51144515417741 277.1064451430295 0.0 0.0
5.321231697344775 19.62393882477233 7.483551156635135 313.6149013187698 0.0 0.0
-10.132583231188423 -277.3016397887824 -86.23026690599127 309.7676767090736 0.0 0.0
-217.36711445858586 -1023.3497908340291 -372.2150715877845 224.2734211599467 0.0 0.0
-173.58328186384534 -839.9132356490103 -304.0489552538567 -203.86674043928886 0.0 0.0
-33.7658463645202 -277.17283120819957 -93.28160327181592 -300.6283754037999 0.0 0.0
-33.79784468518268 0.5390343953889882 -9.977643086938109 -330.263798511904 0.0 0.0
-0.19988388978909732 48.81459876356506 14.584414462132786 -299.64793482231966 0.0 0.0
56.70532364911276 34.552208877541126 27.37725975799617 -288.8834465810626 0.0 0.0
104.97825088496042 17.3547844003117 36.699910585581634 -289.6920889079497 0.0 0.0
140.5378737962396 7.0462424393826675 44.27523487068669 -291.76591592834404 0.0 0.0
168.83123363485606 2.131903641153548 51.288941182802894 -292.8447346022034 0.0 0.0
194.10582896784464 0.24941188314530294 58.30657225529699 -293.2128264085624 0.0 0.0
218.3875384082881 -0.262042474151321 65.43764878024103 -293.2794583495058 0.0 0.0
242.4615650847828 -0.27106127337882846 72.65715114342119 -293.2601738842635 0.0 0.0
266.50221191719737 -0.04492271064101416 79.93718676196691 -293.25080423858924 0.0 0.0
290.3118814684113 0.5604274345606024 87.2616926708916 -293.3176719887265 0.0 0.0
313.3068723271649 2.009983360844341 94.59505670640274 -293.56572832901577 0.0 0.0
334.4347386014129 4.934792653378067 101.81085937643735 -294.2124723714063 0.0 0.0
352.69119952562215 9.352680018314372 108.61316386318094 -295.7575478914913 0.0 0.0
369.6023525733246 11.602352255246444 114.36141144857132 -298.8948234435335 0.0 0.0
393.3263665856888 -3.2466581004048702 117.02391254558519 -301.2627811314341 0.0 0.0
434.64202583273646 -69.4226709476418 109.56580646552838 -284.51384178122976 0.0 0.0
477.8076013917316 -218.03601329287474 77.93147642965705 -197.235543223853 0.0 0.0
478.78948043071455 -352.4058742861071 37.9150818433822 3.055333763768431e-12 0.0 0.0
477.80760139165454 -218.0360132930321 77.93147642958675 197.23554322384572 0.0 0.0
434.6420258327051 -69.42267094772397 109.56580646549435 284.51384178124033 0.0 0.0
393.3263665856575 -3.246658100505549 117.02391254554557 301.2627811314305 0.0 0.0
369.6023525733742 11.602352255353818 114.3614114486184 298.894823443524 0.0 0.0
352.6911995256232 9.352680018319905 108.61316386318295 295.7575478914974 0.0 0.0
334.43473860135106 4.934792653247069 101.81085937637944 294.2124723714138 0.0 0.0
313.3068723271962 2.009983360926089 94.59505670643668 293.5657283290119 0.0 0.0
290.3118814684154 0.5604274345873224 87.26169267090081 293.31767198872427 0.0 0.0
266.5022119171518 -0.04492271073494347 79.93718676192506 293.2508042386054 0.0 0.0
242.46156508477685 -0.27106127339951236 72.6571511434132 293.26017388428045 0.0 0.0
218.3875384081487 -0.2620424744671439 65.43764878010445 293.27945834951356 0.0 0.0
194.10582896786693 0.24941188322450802 58.306572255327445 293.2128264085706 0.0 0.0
168.83123363484356 2.1319036411258514 51.28894118279083 292.84473460219095 0.0 0.0
140.5378737963264 7.046242439577075 44.27523487077104 291.76591592834376 0.0 0.0
104.97825088492606 17.354784400243844 36.69991058555097 289.6920889079451 0.0 0.0
56.70532364910843 34.55220887753669 27.37725975799354 288.88344658106223 0.0 0.0
-0.19988388978853422 48.81459876355137 14.584414462128853 299.64793482229834 0.0 0.0
-33.79784468516816 0.5390343954344452 -9.97764308692011 330.26379851189927 0.0 0.0
-33.76584636453118 -277.17283120820804 -93.28160327182178 300.62837540379985 0.0 0.0
-173.58328186383304 -839.913235649003 -304.0489552538508 203.86674043930645 0.0 0.0
-138.57000358939058 -678.8069930123481 -245.21309898052164 -184.66785707687146 0.0 0.0
-52.54076135356722 -264.47382798460876 -95.1043768014528 -287.39111350069135 0.0 0.0
-69.53297266237595 -14.077740011290484 -25.083213802099927 -336.8661323954742 0.0 0.0
-65.45068851217096 43.55518969465446 -6.568649645254954 -314.0032800006927 0.0 0.0
-38.925720135513885 34.469996004674336 -1.3367172392518585 -299.76136276069224 0.0 0.0
-16.599793123205608 17.861598692625737 0.3785416708260376 -296.30553485725716 0.0 0.0
-5.079618380948901 7.265293739090833 0.6557026074425796 -296.0600256585808 0.0 0.0
-0.7133161277495361 2.196345469537688 0.44490880253644516 -296.18049010608183 0.0 0.0
0.4584909343879957 0.2609133541817781 0.21582128657093147 -296.23773645915765 0.0 0.0
0.5555273910127916 -0.26624827076743607 0.08678373607360079 -296.25200850013243 0.0 0.0
0.4225722172692308 -0.27624913163188936 0.04389692569120207 -296.25333656149627 0.0 0.0
0.2500894369007334 -0.04561834609613857 0.061341327241381194 -296.25095245054433 0.0 0.0
-0.16293699504526415 0.5710500719809692 0.12243392308071854 -296.24223651968583 0.0 0.0
-1.4205354187903296 2.0444847199236893 0.18718479034000524 -296.2236439141846 0.0 0.0
-4.6695709205162 5.012139009739224 0.10277042676690584 -296.23947478144515 0.0 0.0
-11.230965353395575 9.620490622732337 -0.48314241919896617 -296.6744292015636 0.0 0.0
-19.850015882535082 12.680889597414694 -2.1507378855361203 -298.91103853481076 0.0 0.0
-20.581727605398058 -1.0765110149120254 -6.497471586093027 -303.49418911735194 0.0 0.0
3.6958278960032303 -72.516368427696 -20.64616215950782 -295.43521712222685 0.0 0.0
39.412577784582304 -251.5316024978773 -63.63570741398852 -214.898280539963 0.0 0.0
28.94781758626364 -432.8363254590767 -121.16655236184391 3.055333763768431e-13 0.0 0.0
39.41257778451471 -251.53160249801851 -63.63570741405114 214.8982805399491 0.0 0.0
3.6958278960040616 -72.51636842768878 -20.646162159505415 295.43521712221184 0.0 0.0
-20.581727605481326 -1.07651101513488 -6.497471586184854 303.49418911734364 0.0 0.0
-19.85001588251904 12.680889597444498 -2.1507378855223642 298.91103853480854 0.0 0.0
-11.23096535341407 9.62049062269185 -0.48314241921665335 296.67442920154906 0.0 0.0
-4.669570920593223 5.012139009540741 0.10277042668425374 296.2394747814646 0.0 0.0
-1.4205354188061676 2.044484719871374 0.1871847903195576 296.22364391418023 0.0 0.0
-0.16293699503055947 0.5710500720217873 0.12243392309736478 296.2422365196864 0.0 0.0
0.2500894368679738 -0.045618346166277135 0.06134132721050456 296.2509524505483 0.0 0.0
0.42257221727887284 -0.2762491316155531 0.0438969256989985 296.25333656149 0.0 0.0
0.5555273910431318 -0.2662482706967082 0.08678373610392853 296.2520085001354 0.0 0.0
0.45849093437058386 0.26091335414931915 0.21582128655596478 296.23773645917515 0.0 0.0
-0.7133161277332363 2.196345469577694 0.4449088025533312 296.1804901060917 0.0 0.0
-5.079618380905792 7.265293739193672 0.6557026074863623 296.0600256585645 0.0 0.0
-16.59979312320894 17.861598692609274 0.37854167082010015 296.3055348572605 0.0 0.0
-38.92572013551822 34.46999600464139 -1.3367172392630469 299.7613627606827 0.0 0.0
-65.45068851217596 43.5551896946572 -6.568649645255623 314.003280000695 0.0 0.0
-69.53297266237868 -14.077740011280325 -25.083213802097706 336.86613239545534 0.0 0.0
-52.54076135357135 -264.4738279846232 -95.10437680145836 287.3911135007038 0.0 0.0
-138.57000358938484 -678.8069930123513 -245.21309898052087 184.66785707686913 0.0 0.0
-110.94510619195555 -537.2266069998831 -194.4515139575516 -166.2602700690707 0.0 0.0
-68.39463930483345 -243.43628781051473 -93.54927813460445 -270.64266821357035 0.0 0.0
-102.98703850419648 -23.952347989337124 -38.081815948060076 -334.46465686605336 0.0 0.0
-127.45095747249295 37.50002992662814 -26.985278263759447 -319.9002552286341 0.0 0.0
-131.63840361575535 32.89428141132782 -29.62323666132828 -303.9328411915566 0.0 0.0
-136.62089615645417 17.588083436471713 -35.70984381599475 -296.8413512849166 0.0 0.0
-150.14580996872562 7.185550778336504 -42.88807775711675 -294.3317269704373 0.0 0.0
-170.13904109435583 2.1639445177035403 -50.392528972995684 -293.47451411921514 0.0 0.0
-193.20121219227525 0.25585492313259284 -57.88360718074281 -293.2135545462591 0.0 0.0
-217.31348319372722 -0.262035559333091 -65.2726556259181 -293.1733999063146 0.0 0.0
-241.64757655422824 -0.2715030440711512 -72.5757238794898 -293.19502775799623 0.0 0.0
-266.01572891651216 -0.04610304597280823 -79.8185495887455 -293.2000533481182 0.0 0.0
-290.6081449742235 0.5553295641341656 -87.01584462302677 -293.11678447996763 0.0 0.0
-315.99889517654503 1.9952897253361366 -94.20108163536267 -292.83372117308056 0.0 0.0
-343.3336447802605 4.887057424965785 -101.53397620658842 -292.21849115335203 0.0 0.0
-374.2368841994362 9.462726457262807 -109.43224732265203 -291.46084349778926 0.0 0.0
-408.1784644021555 13.313488260237122 -118.45949284257553 -292.43127412281916 0.0 0.0
-434.19707944267566 2.1223422526255415 -129.62242115701508 -299.0243328294026 0.0 0.0
-427.87517355373404 -70.96583620624855 -149.65230292799473 -302.0315060689976 0.0 0.0
-398.91321863617725 -282.2337735173037 -204.34409764604433 -233.708683585204 0.0 0.0
-425.6536309774348 -527.8274403187874 -286.0443213888667 -2.1387336346379016e-12 0.0 0.0
-398.91321863623574 -282.2337735174468 -204.34409764610479 233.70868358518368 0.0 0.0
-427.87517355364844 -70.96583620604731 -149.65230292790872 302.03150606899027 0.0 0.0
-434.1970794427888 2.1223422523560487 -129.62242115712974 299.0243328294142 0.0 0.0
-408.17846440218284 13.313488260170093 -118.45949284260377 292.4312741228138 0.0 0.0
-374.236884199446 9.462726457220503 -109.43224732266765 291.46084349778437 0.0 0.0
-343.33364478032485 4.887057424802256 -101.53397620665679 292.2184911533505 0.0 0.0
-315.9988951765747 1.9952897252566864 -94.20108163539545 292.8337211730843 0.0 0.0
-290.6081449741949 0.5553295641964535 -87.0158446229995 293.1167844799549 0.0 0.0
-266.0157289164932 -0.046103045901419115 -79.81854958871835 293.20005334810605 0.0 0.0
-241.64757655422224 -0.27150304403766956 -72.57572387947798 293.19502775799475 0.0 0.0
-217.3134831936348 -0.26203555911400667 -65.27265562582465 293.17339990631655 0.0 0.0
-193.20121219230666 0.2558549230340139 -57.883607180781766 293.213554546266 0.0 0.0
-170.13904109433597 2.163944517758494 -50.392528972973246 293.47451411921816 0.0 0.0
-150.14580996874076 7.185550778324144 -42.88807775712499 294.33172697042215 0.0 0.0
-136.62089615645527 17.588083436475944 -35.7098438159938 296.8413512849081 0.0 0.0
-131.638403615757 32.89428141133695 -29.623236661326022 303.9328411915652 0.0 0.0
-127.45095747247842 37.50002992666578 -26.9852782637438 319.90025522863823 0.0 0.0
-102.98703850420675 -23.952347989363385 -38.081815948071046 334.46465686604984 0.0 0.0
-68.39463930482592 -243.43628781051174 -93.54927813460132 270.64266821358683 0.0 0.0
-110.94510619195029 -537.2266069998894 -194.45151395755187 166.2602700690635 0.0 0.0
-89.57173029774768 -413.32957138603103 -150.87039050513363 -148.1548743054206 0.0 0.0
-82.47695345236548 -217.23158324610353 -89.91256100954067 -250.69931627003334 0.0 0.0
-134.8853539036108 -29.3363956536244 -49.26652486717057 -323.96752817532297 0.0 0.0
-187.05746294428369 31.353460024599556 -46.71120087590524 -317.32777219788886 0.0 0.0
-221.96692180531255 30.116143729828863 -57.55523342264512 -300.9328059245681 0.0 0.0
-255.24390330021646 16.560574259275487 -71.60499871228228 -290.97651358960127 0.0 0.0
-294.67947125625346 6.803232543464364 -86.36287161383673 -286.4511606516733 0.0 0.0
-339.44701386505716 2.037791054173116 -101.22276684326525 -284.68808883343047 0.0 0.0
-386.87448034033775 0.23547181745634838 -115.99170255686442 -284.13378511511684 0.0 0.0
-435.2194632866386 -0.24958526907327716 -130.64071456671357 -284.04582699215484 0.0 0.0
-483.74862941245067 -0.2570738609825325 -145.20171098203 -284.08800084868733 0.0 0.0
-532.2960090327346 -0.045901134126948406 -159.70257305005848 -284.1018721075069 0.0 0.0
-581.0274020683948 0.5146798758764897 -174.15381665775547 -283.9534466955617 0.0 0.0
-630.4414602055072 1.866021218518612 -188.57263169609664 -283.4305057269766 0.0 0.0
-681.5694449298379 4.5808357513367035 -203.0965827535504 -282.2370180385641 0.0 0.0
-736.2394445088271 8.881191367540263 -218.20747594238603 -280.3098818275631 0.0 0.0
-795.1228431502282 13.270685987651795 -234.55564714877295 -279.62567213995993 0.0 0.0
-847.508362457366 6.036846526336721 -252.44145477930874 -287.4249596485036 0.0 0.0
-860.8685060517287 -63.54100542884342 -277.3228534441715 -303.32274573086755 0.0 0.0
-837.9220227318601 -307.10789387498016 -343.508974982052 -254.05392561002736 0.0 0.0
-888.6236259230121 -641.8553674231473 -459.1436980038479 -3.375077994860476e-12 0.0 0.0
-837.9220227319099 -307.10789387509817 -343.5089749821024 254.05392561001412 0.0 0.0
-860.8685060516482 -63.54100542867451 -277.32285344409684 303.3227457308743 0.0 0.0
-847.5083624574386 6.0368465261371975 -252.44145477939037 287.4249596484885 0.0 0.0
-795.122843150165 13.270685987801677 -234.55564714870894 279.62567213995277 0.0 0.0
-736.2394445087381 8.881191367739994 -218.20747594229937 280.30988182756494 0.0 0.0
-681.5694449298404 4.580835751302802 -203.09658275356125 282.2370180385683 0.0 0.0
-630.4414602055004 1.8660212185065124 -188.5726316960982 283.43050572698996 0.0 0.0
-581.0274020683917 0.5146798758800135 -174.1538166577535 283.9534466955591 0.0 0.0
-532.2960090327133 -0.04590113406400764 -159.7025730500332 284.1018721075016 0.0 0.0
-483.74862941243856 -0.25707386096119667 -145.2017109820199 284.0880008486876 0.0 0.0
-435.21946328663535 -0.24958526906682899 -130.64071456671067 284.045826992165 0.0 0.0
-386.8744803403847 0.23547181736019285 -115.99170255690736 284.13378511510746 0.0 0.0
-339.44701386510667 2.0377910540764983 -101.22276684330906 284.6880888334167 0.0 0.0
-294.6794712562968 6.803232543371426 -86.36287161387762 286.4511606516697 0.0 0.0
-255.24390330019634 16.560574259301045 -71.60499871226861 290.97651358959325 0.0 0.0
-221.96692180530582 30.116143729843934 -57.55523342263855 300.9328059245718 0.0 0.0
-187.05746294429235 31.353460024588227 -46.71120087591126 317.3277721978874 0.0 0.0
-134.8853539036162 -29.33639565364186 -49.266524867177424 323.9675281753194 0.0 0.0
-82.47695345235584 -217.23158324608178 -89.91256100953129 250.6993162700391 0.0 0.0
-89.57173029774637 -413.32957138603865 -150.87039050513548 148.15487430540333 0.0 0.0
-73.56430293467795 -306.0997312370917 -113.89921025153087 -129.89739370568046 0.0 0.0
-95.37401790954199 -188.20294855811042 -85.07308994029572 -227.72487019645894 0.0 0.0
-165.6424134570839 -30.778610408158038 -58.92630715957256 -306.11570469242383 0.0 0.0
-244.88829909948464 25.542644042177866 -65.80369651719201 -306.3903034663126 0.0 0.0
-310.4217927417159 26.447966400469817 -85.19214790237382 -290.4262820067603 0.0 0.0
-372.71212045601584 14.882256747377083 -107.34895911259166 -278.4304240988181 0.0 0.0
-438.7628809087132 6.147514680935398 -129.78460986833332 -272.2953582021261 0.0 0.0
-508.66220129570604 1.829858801020145 -152.04970274840576 -269.7853510294374 0.0 0.0
-580.5681885216251 0.20342491837144117 -174.1094290809761 -268.99344546818526 0.0 0.0
-653.1625958569253 -0.22911508930217472 -196.01751328386825 -268.8718037945484 0.0 0.0
-725.8795761422623 -0.23382087507344806 -217.8340191052007 -268.93489252455225 0.0 0.0
-798.5926253391243 -0.04433278643784622 -239.59108743766868 -268.9594070942253 0.0 0.0
-871.429247801432 0.4540624920531906 -261.2925555928137 -268.7626905464979 0.0 0.0
-944.7762181698802 1.6647462497383634 -282.9334415760426 -268.04593293424176 0.0 0.0
-1019.4360750781475 4.128799086316699 -304.59218279754936 -266.37144738098374 0.0 0.0
-1097.207413191736 7.950381854848512 -326.7771094010661 -263.428702929978 0.0 0.0
-1180.3216088335284 12.33004382418893 -350.3974695028019 -260.8075390407126 0.0 0.0
-1260.2170649829459 9.936694394012559 -375.08411117668 -268.30593995104 0.0 0.0
-1296.0054279942383 -49.26947887415072 -403.58247206051675 -297.74661946594904 0.0 0.0
-1278.077991002223 -321.6061286949619 -479.9052359091555 -276.07505716096387 0.0 0.0
-1364.8275549567318 -781.277391896131 -643.8314840558588 -5.8903992794512305e-12 0.0 0.0
-1278.0779910022227 -321.6061286949683 -479.90523590915745 276.0750571609721 0.0 0.0
-1296.0054279943377 -49.26947887437781 -403.58247206061463 297.7466194659645 0.0 0.0
-1260.2170649829566 9.936694394001503 -375.0841111766865 268.30593995102316 0.0 0.0
-1180.3216088335337 12.330043824162694 -350.39746950281136 260.8075390407223 0.0 0.0
-1097.2074131917393 7.950381854842703 -326.7771094010689 263.4287029299898 0.0 0.0
-1019.4360750781182 4.128799086391457 -304.59218279751803 266.3714473809692 0.0 0.0
-944.7762181698762 1.664746249715951 -282.9334415760481 268.0459329342311 0.0 0.0
-871.4292478013817 0.4540624921525449 -261.29255559276885 268.7626905464962 0.0 0.0
-798.5926253391548 -0.044332786486444675 -239.59108743769227 268.95940709423263 0.0 0.0
-725.8795761422998 -0.23382087514333705 -217.83401910523293 268.9348925245558 0.0 0.0
-653.1625958569449 -0.22911508933896352 -196.01751328388525 268.87180379455833 0.0 0.0
-580.5681885216409 0.2034249183158865 -174.10942908099747 268.99344546818094 0.0 0.0
-508.66220129570127 1.8298588010217696 -152.04970274840383 269.7853510294475 0.0 0.0
-438.7628809087402 6.147514680874968 -129.78460986835958 272.29535820213465 0.0 0.0
-372.7121204560288 14.88225674735546 -107.34895911260202 278.4304240988274 0.0 0.0
-310.4217927417427 26.447966400423795 -85.19214790239566 290.426282006743 0.0 0.0
-244.88829909951238 25.54264404212418 -65.80369651721648 306.3903034663029 0.0 0.0
-165.642413457082 -30.77861040815109 -58.92630715956992 306.11570469241747 0.0 0.0
-95.3740179095422 -188.2029485581146 -85.07308994029705 227.72487019645698 0.0 0.0
-73.56430293468593 -306.09973123710284 -113.89921025153662 129.89739370568162 0.0 0.0
-62.23210635371177 -215.1933234141523 -83.22762893035923 -111.13789976398888 0.0 0.0
-107.23029762832854 -158.059618486288 -79.58697483438497 -201.82117374000939 0.0 0.0
-195.39595784503277 -29.002840120822377 -67.31963938975657 -281.4762859116769 0.0 0.0
-301.35364440591974 20.26319162824301 -84.32713583330305 -287.19986255022457 0.0 0.0
-397.4778259483184 22.19666811661372 -112.5843473495114 -272.16560681899034 0.0 0.0
-489.3314502543774 12.71561321817142 -142.98475111086182 -258.9771784790772 0.0 0.0
-582.5328076133437 5.278971553418657 -173.17615081797754 -251.76179921292578 0.0 0.0
-677.831898415731 1.5609807401771456 -202.8812753026661 -248.7382756698761 0.0 0.0
-774.2943037641434 0.16506867332617947 -232.23877052724518 -247.79068333515553 0.0 0.0
-871.1428703314313 -0.2011517125177118 -261.4032066131847 -247.65454803037687 0.0 0.0
-968.0383200872191 -0.2031239602956063 -290.47243321425435 -247.73805548019575 0.0 0.0
-1064.9082394543293 -0.04116498089073595 -319.4848213305661 -247.77452220681528 0.0 0.0
-1161.8270733948257 0.3819798140135209 -348.4335280742437 -247.5511929845645 0.0 0.0
-1259.0406122973518 1.4059512313009268 -377.2903983198154 -246.70803613800146 0.0 0.0
-1357.0405943204446 3.5634678592143416 -406.043137938369 -244.6824885285857 0.0 0.0
-1457.21369266035 6.831366355292457 -435.11469789151727 -241.0012964346804 0.0 0.0
-1563.3341444725925 10.40333078426827 -465.87924410649737 -236.48177636656013 0.0 0.0
-1671.5862845019767 12.556353459392623 -497.7089793127754 -241.55174866525218 0.0 0.0
-1733.8561214571387 -27.92223680635242 -528.5335074790473 -283.000401353776 0.0 0.0
-1719.366266146983 -318.86578680259834 -611.4696158848744 -299.32089217889524 0.0 0.0
-1861.0903544015107 -954.9790206368773 -844.8208125115162 5.6772364587232005e-12 0.0 0.0
-1719.3662661469561 -318.86578680255656 -611.4696158848537 299.3208921789113 0.0 0.0
-1733.8561214571896 -27.922236806467595 -528.5335074790972 283.0004013537662 0.0 0.0
-1671.5862845020076 12.556353459346077 -497.70897931279853 241.55174866525118 0.0 0.0
-1563.334144472573 10.40333078427977 -465.87924410648793 236.4817763665656 0.0 0.0
-1457.2136926604458 6.831366355063311 -435.11469789161464 241.00129643470171 0.0 0.0
-1357.0405943204544 3.563467859223814 -406.0431379383691 244.68248852858417 0.0 0.0
-1259.0406122974432 1.4059512310829252 -377.2903983199081 246.70803613798984 0.0 0.0
-1161.8270733947636 0.3819798141501609 -348.4335280741842 247.55119298453428 0.0 0.0
-1064.9082394543243 -0.04116498088415588 -319.48482133056245 247.77452220680055 0.0 0.0
-968.0383200872061 -0.20312396026143853 -290.4724332142404 247.7380554801721 0.0 0.0
-871.1428703314365 -0.2011517125327993 -261.40320661319083 247.65454803038085 0.0 0.0
-774.2943037641238 0.16506867334959963 -232.23877052723228 247.79068333516256 0.0 0.0
-677.8318984157207 1.5609807401852729 -202.8812753026607 248.73827566987873 0.0 0.0
-582.5328076133911 5.278971553313315 -173.17615081802336 251.76179921291936 0.0 0.0
-489.33145025440314 12.715613218110676 -142.98475111088774 258.9771784790855 0.0 0.0
-397.4778259483151 22.19666811662229 -112.58434734950784 272.16560681898187 0.0 0.0
-301.35364440594185 20.26319162821442 -84.32713583331822 287.19986255022945 0.0 0.0
-195.39595784503123 -29.00284012082084 -67.31963938975562 281.47628591167097 0.0 0.0
-107.23029762832803 -158.0596184863046 -79.58697483438979 201.821173739997 0.0 0.0
-62.232106353707884 -215.19332341415267 -83.22762893035815 111.13789976400336 0.0 0.0
-54.9734320603557 -140.76705224599365 -58.72214529190481 -91.70275255301236 0.0 0.0
-117.79068100889336 -128.0439538215663 -73.75039044913791 -173.10349285396742 0.0 0.0
-224.01120501769597 -24.864081813024743 -74.66258604921617 -250.42980720432564 0.0 0.0
-356.68513206336627 15.538324494141253 -102.3440422707675 -259.7891296585327 0.0 0.0
-483.5838287605517 17.665681346282334 -139.77544422428088 -245.95396267332987 0.0 0.0
-605.4595019553117 10.267515701316558 -178.55759587619855 -232.45282953213393 0.0 0.0
-726.170086039779 4.283518550044026 -216.56597024692056 -224.7796671512944 0.0 0.0
-847.0215204055309 1.2594373449595393 -253.72862491817142 -221.53158297571113 0.0 0.0
-968.0683978661516 0.12655296045708653 -290.3825534717083 -220.52816890473343 0.0 0.0
-1089.1594516655325 -0.1670179787340027 -326.79794089328004 -220.39826888638612 0.0 0.0
-1210.221362781402 -0.1667859685062858 -363.1164446249725 -220.49925082224834 0.0 0.0
-1331.2451703618503 -0.036865515109968605 -399.384610763088 -220.54792082837366 0.0 0.0
-1452.2400202070717 0.307521911510948 -435.5797494886681 -220.32016150841008 0.0 0.0
-1573.276180682806 1.118807200052971 -471.64721204482595 -219.43641854621072 0.0 0.0
-1694.5226718433246 2.895660910052438 -507.48810327998166 -217.2237080947503 0.0 0.0
-1816.5018748297468 5.73408624105312 -543.2303365766084 -213.13223296919782 0.0 0.0
-1943.7338025857034 7.773389242358073 -580.7881240030035 -207.3132106694538 0.0 0.0
-2080.226952989667 12.099065467695013 -620.4383662565918 -207.76079578180494 0.0 0.0
-2174.688694300911 -0.9932659941448065 -652.7045880885166 -255.97529095956642 0.0 0.0
-2160.968896793324 -288.56853407835393 -734.8612292615037 -321.9618964068669 0.0 0.0
-2387.297419814669 -1175.0748853254702 -1068.711691542042 1.1581846592889633e-11 0.0 0.0
-2160.968896793332 -288.56853407834035 -734.8612292615016 321.9618964068682 0.0 0.0
-2174.6886943008694 -0.9932659940484116 -652.7045880884754 255.97529095956156 0.0 0.0
-2080.226952989678 12.099065467671121 -620.438366256602 207.76079578182316 0.0 0.0
-1943.7338025856934 7.773389242374505 -580.7881240029957 207.31321066945128 0.0 0.0
-1816.5018748297518 5.734086241048767 -543.2303365766107 213.13223296919784 0.0 0.0
-1694.5226718433578 2.895660909964673 -507.488103280018 217.2237080947492 0.0 0.0
-1573.2761806829385 1.1188071997235327 -471.64721204496465 219.43641854620955 0.0 0.0
-1452.2400202071124 0.30752191141594665 -435.5797494887088 220.3201615084103 0.0 0.0
-1331.2451703618779 -0.036865515180211084 -399.38461076311745 220.54792082837997 0.0 0.0
-1210.221362781316 -0.16678596829664194 -363.1164446248837 220.49925082226133 0.0 0.0
-1089.1594516655473 -0.1670179787631232 -326.79794089329306 220.3982688863832 0.0 0.0
-968.0683978661249 0.1265529605167115 -290.38255347168257 220.52816890475023 0.0 0.0
-847.021520405561 1.2594373449007623 -253.7286249181982 221.5315829757037 0.0 0.0
-726.1700860397888 4.2835185500264945 -216.5659702469287 224.77966715128292 0.0 0.0
-605.45950195531 10.267515701327042 -178.55759587619482 232.45282953213393 0.0 0.0
-483.58382876052946 17.66568134633936 -139.77544422425703 245.95396267332194 0.0 0.0
-356.6851320633628 15.538324494160317 -102.34404227076081 259.78912965853743 0.0 0.0
-224.01120501771732 -24.864081813063937 -74.66258604923439 250.4298072043259 0.0 0.0
-117.79068100887741 -128.04395382154863 -73.75039044912782 173.1034928539645 0.0 0.0
-54.97343206034854 -140.7670522459949 -58.72214529190303 91.7027525530091 0.0 0.0
-51.10265941397172 -83.26311238131252 -40.30973153858527 -71.70638338603774 0.0 0.0
-126.37407610259575 -99.10141317957473 -67.64264678465116 -141.76987443941476 0.0 0.0
-251.05573984040603 -19.362501980102415 -81.12547254615252 -213.12271242685512 0.0 0.0
-410.96808930469496 11.296077501816832 -119.90160354086342 -224.03453922654927 0.0 0.0
-569.1919131246409 13.177791391682266 -166.80423651988758 -211.6241474040139 0.0 0.0
-721.5030296277207 7.775593429622251 -214.1182308594295 -198.76180224056623 0.0 0.0
-869.8880837687627 3.2637722896741694 -259.9872934437266 -191.3184419528697 0.0 0.0
-1016.3084017387725 0.9581480912745741 -304.60507609424934 -188.1669998738149 0.0 0.0
-1161.9073272403016 0.09357757124681854 -348.54412490071655 -187.21408837213056 0.0 0.0
-1307.20967159985 -0.12920436938338042 -392.20166279077 -187.10828712542698 0.0 0.0
-1452.4238948229236 -0.12767067689218337 -435.7654696499447 -187.21946608027596 0.0 0.0
-1597.6033596132652 -0.03067299268749757 -479.2902097817861 -187.2783549292635 0.0 0.0
-1742.6927657540396 0.23287115436264294 -522.7379683799029 -187.0674411143792 0.0 0.0
-1887.5319565908685 0.8547951712941764 -566.0031484258722 -186.22912626958149 0.0 0.0
-2032.0100046758591 2.131246591301009 -608.9636274253673 -184.06064086201494 0.0 0.0
-2175.547759534293 4.753806230168938 -651.2381859912372 -179.8258373168545 0.0 0.0
-2321.3513771447056 5.418663477483419 -694.7798141001667 -173.8643066385674 0.0 0.0
-2483.807143661941 6.7013460199170805 -743.1317392926072 -168.94219430854037 0.0 0.0
-2618.15905128752 26.36865081226143 -777.5371201425777 -213.1836529842311 0.0 0.0
-2600.730539248897 -215.47205488670272 -844.8607782406802 -338.96277774453716 0.0 0.0
-2958.1417601457983 -1457.2691021245391 -1324.6232586811013 -4.362732397567015e-12 0.0 0.0
-2600.7305392488893 -215.47205488665728 -844.8607782406644 338.96277774454387 0.0 0.0
-2618.1590512875327 26.36865081218003 -777.5371201426062 213.18365298424646 0.0 0.0
-2483.8071436618825 6.7013460200523784 -743.1317392925488 168.94219430854264 0.0 0.0
-2321.351377144794 5.418663477298025 -694.7798141002487 173.86430663854804 0.0 0.0
-2175.547759534272 4.753806230228397 -651.2381859912127 179.82583731684954 0.0 0.0
-2032.0100046759162 2.131246591156969 -608.9636274254277 184.06064086201906 0.0 0.0
-1887.5319565909372 0.854795171097654 -566.0031484259517 186.22912626957137 0.0 0.0
-1742.6927657541428 0.23287115412067871 -522.7379683800066 187.0674411143769 0.0 0.0
-1597.6033596132543 -0.030672992673145938 -479.2902097817781 187.27835492926755 0.0 0.0
-1452.423894822869 -0.12767067676551624 -435.76546964989035 187.21946608030527 0.0 0.0
-1307.2096715998337 -0.12920436931702706 -392.20166279074516 187.1082871254234 0.0 0.0
-1161.9073272403302 0.0935775712213045 -348.5441249007326 187.21408837213676 0.0 0.0
-1016.3084017387769 0.9581480912805549 -304.60507609424906 188.16699987379354 0.0 0.0
-869.8880837687589 3.263772289672943 -259.9872934437258 191.31844195287394 0.0 0.0
-721.503029627711 7.775593429627548 -214.118230859425 198.76180224057018 0.0 0.0
-569.1919131246344 13.177791391682774 -166.80423651988554 211.62414740399106 0.0 0.0
-410.9680893046923 11.29607750182306 -119.90160354086078 224.03453922655493 0.0 0.0
-251.05573984040785 -19.362501980098536 -81.12547254615193 213.12271242686177 0.0 0.0
-126.37407610257756 -99.10141317954361 -67.64264678463636 141.7698744394219 0.0 0.0
-51.102659413954946 -83.26311238131504 -40.309731538581 71.70638338603995 0.0 0.0
-49.555800439323605 -43.09590624345462 -27.79551200483347 -51.75597767461975 0.0 0.0
-131.77671565313221 -72.10999558162206 -61.166013370426285 -108.16762707908293 0.0 0.0
-275.7432754033848 -13.69574173483953 -86.83170514146731 -169.34493514330498 0.0 0.0
-464.1872507862827 7.484948015414933 -137.01069083126032 -179.59011491573744 0.0 0.0
-654.8075648762092 9.107204102271979 -193.71010823218126 -169.04114433485532 0.0 0.0
-837.9189332443682 5.492371627586696 -249.7279684850345 -157.883333150185 0.0 0.0
-1013.9195913744097 2.3300006834276603 -303.47687720729465 -151.39439664917026 0.0 0.0
-1185.774313389745 0.6904952533109059 -355.52514544093026 -148.66632039187027 0.0 0.0
-1355.8262371529313 0.06959732857339063 -406.72699194730745 -147.8626663869525 0.0 0.0
-1525.287704933663 -0.09109698471491523 -457.61364057551356 -147.79055909203333 0.0 0.0
-1694.6397207529917 -0.09137385048624225 -508.41932838104344 -147.8997836204917 0.0 0.0
-1863.9806018038112 -0.01860157597264589 -559.199761013935 -147.95970872563862 0.0 0.0
-2033.2051025670667 0.1544537956619596 -609.9151946314215 -147.79272783416687 0.0 0.0
-2201.8919268320287 0.6517403333644953 -660.3720559495994 -147.0564170207224 0.0 0.0
-2369.5494772161082 1.4080489556885336 -710.4424284781262 -145.23484939630475 0.0 0.0
-2535.016975230754 3.5466395223992375 -759.4411007125062 -141.17107862715903 0.0 0.0
-2696.839050840762 5.078627879346257 -807.5281268884247 -135.91239880696006 0.0 0.0
-2878.6912316484186 -3.676303017497352 -864.7102603997748 -129.126974310706 0.0 0.0
-3062.6509145847917 41.629386491517195 -906.3064584279823 -153.09957545061434 0.0 0.0
-3034.3182160649926 -78.10500352108868 -933.7269658758246 -337.60673322145726 0.0 0.0
-3595.9068018579305 -1819.4731557902292 -1624.6139872944475 -1.7038814803527202e-11 0.0 0.0
-3034.3182160650035 -78.10500352110213 -933.7269658758316 337.60673322145857 0.0 0.0
-3062.6509145847886 41.62938649151717 -906.3064584279816 153.09957545062028 0.0 0.0
-2878.691231648375 -3.6763030173816844 -864.710260399727 129.12697431070038 0.0 0.0
-2696.8390508407674 5.078627879351719 -807.5281268884249 135.91239880694826 0.0 0.0
-2535.016975230691 3.5466395225460183 -759.4411007124435 141.17107862714207 0.0 0.0
-2369.5494772162297 1.4080489553713083 -710.4424284782574 145.23484939630333 0.0 0.0
-2201.891926832065 0.6517403332607297 -660.3720559496415 147.05641702070028 0.0 0.0
-2033.2051025671108 0.15445379554590888 -609.9151946314694 147.7927278341672 0.0 0.0
-1863.9806018037777 -0.018601575916221913 -559.1997610139081 147.95970872564493 0.0 0.0
-1694.6397207529735 -0.09137385042395163 -508.4193283810193 147.89978362050252 0.0 0.0
-1525.2877049336748 -0.09109698472591476 -457.6136405755201 147.79055909202214 0.0 0.0
-1355.8262371529663 0.06959732849826802 -406.7269919473405 147.86266638696833 0.0 0.0
-1185.774313389752 0.6904952532710081 -355.52514544094424 148.66632039187607 0.0 0.0
-1013.9195913744147 2.330000683400052 -303.47687720730437 151.39439664915494 0.0 0.0
-837.9189332443977 5.492371627502504 -249.7279684850687 157.88333315018903 0.0 0.0
-654.8075648761996 9.107204102287437 -193.71010823217372 169.041144334838 0.0 0.0
-464.18725078627244 7.484948015448128 -137.0106908312473 179.5901149157505 0.0 0.0
-275.7432754033694 -13.695741734823446 -86.83170514145787 169.3449351433177 0.0 0.0
-131.77671565311877 -72.10999558160593 -61.166013370417396 108.167627079076 0.0 0.0
-49.55580043932748 -43.09590624347144 -27.795512004839672 51.75597767460658 0.0 0.0
-48.3552259224492 -20.134934668842366 -20.547048177387467 -33.34656563636366 0.0 0.0
-132.0909517662232 -48.27992608948153 -54.111263356711426 -72.84771447996036 0.0 0.0
-296.8424999215782 -9.310630582602219 -91.84593915125414 -118.25787253321452 0.0 0.0
-516.3066284704614 4.2677695834134575 -153.6116576661144 -125.86580369767269 0.0 0.0
-741.0632929618549 5.893174991931688 -220.551035390977 -118.1303538249289 0.0 0.0
-955.2101246072599 3.6680454226235693 -285.462623755391 -109.87607461803769 0.0 0.0
-1158.5024419764457 1.5922710084816227 -347.07305129038923 -105.07681061398539 0.0 0.0
-1355.4974336233856 0.48399426003438695 -406.50403180900537 -103.07236368894581 0.0 0.0
-1549.8343164257574 0.05489191390613435 -464.93382735355533 -102.49387684181875 0.0 0.0
-1743.384922331399 -0.05902938604781838 -523.033185515234 -102.45178778843018 0.0 0.0
-1936.8566594786264 -0.06046770833244963 -581.0751381560876 -102.53911102660493 0.0 0.0
-2130.3834625494196 -0.012724847078979806 -639.1188562189499 -102.5889356096874 0.0 0.0
-2323.763590715619 0.11692778483537047 -697.0939988792354 -102.47008139921078 0.0 0.0
-2516.5043175238848 0.39881729049059444 -754.831650070018 -101.94613856698892 0.0 0.0
-2707.151627892304 1.1993508447427796 -811.7856831142684 -100.52538317616064 0.0 0.0
-2895.2668308348166 1.4052814335353716 -868.1584648203844 -97.81733305806127 0.0 0.0
-3072.9402350520722 7.354860785100817 -919.6756122800914 -91.9583733994309 0.0 0.0
-3259.6012517778818 -11.258884862943246 -981.2580409922476 -92.24270115441293 0.0 0.0
-3503.773902816044 18.0088791581169 -1045.729507097378 -85.55797677153558 0.0 0.0
-3454.076158615193 149.85063700194823 -991.2676564839737 -285.6539977988177 0.0 0.0
-4334.7892115678815 -2273.8695735764218 -1982.5976355432917 6.920686246303376e-12 0.0 0.0
-3454.076158615209 149.8506370019071 -991.2676564839908 285.6539977988283 0.0 0.0
-3503.7739028160117 18.00887915819922 -1045.7295070973437 85.55797677155033 0.0 0.0
-3259.6012517778454 -11.258884862852963 -981.2580409922097 92.24270115442597 0.0 0.0
-3072.94023505207 7.354860785129288 -919.6756122800825 91.95837339943257 0.0 0.0
-2895.2668308348652 1.4052814334512016 -868.1584648204241 97.81733305803508 0.0 0.0
-2707.1516278924582 1.199350844377419 -811.7856831144242 100.52538317617473 0.0 0.0
-2516.5043175239107 0.39881729040043323 -754.8316500700531 101.94613856697065 0.0 0.0
-2323.7635907156146 0.11692778483768995 -697.093998879233 102.47008139922602 0.0 0.0
-2130.3834625493937 -0.012724847040656906 -639.1188562189305 102.5889356096747 0.0 0.0
-1936.856659478699 -0.06046770847121763 -581.0751381561512 102.53911102658171 0.0 0.0
-1743.3849223314087 -0.05902938603140184 -523.0331855152322 102.45178778840649 0.0 0.0
-1549.834316425819 0.05489191374921776 -464.933827353621 102.49387684183269 0.0 0.0
-1355.497433623389 0.4839942600420786 -406.5040318090042 103.07236368895316 0.0 0.0
-1158.5024419764238 1.5922710085458704 -347.07305129036337 105.07681061398647 0.0 0.0
-955.2101246072868 3.668045422546697 -285.46262375542204 109.87607461803363 0.0 0.0
-741.0632929618494 5.89317499194854 -220.55103539097018 118.13035382493926 0.0 0.0
-516.3066284704558 4.267769583450964 -153.61165766610145 125.86580369766895 0.0 0.0
-296.8424999216063 -9.31063058263595 -91.84593915127266 118.25787253322099 0.0 0.0
-132.09095176622412 -48.27992608947319 -54.111263356709195 72.84771447995575 0.0 0.0
-48.35522592244989 -20.134934668851567 -20.547048177390433 33.34656563634791 0.0 0.0
-43.57749687566766 -12.77286074467614 -16.905107286103142 -19.64082925948037 0.0 0.0
-124.4100701496835 -29.960071194701353 -46.31104240331546 -36.57641498998273 0.0 0.0
-312.5454576486477 -7.842582094230151 -96.1164119228634 -57.802380583542785 0.0 0.0
-567.4229151792675 2.3561005408362528 -169.52004439152938 -62.192385194705395 0.0 0.0
-828.8169192962234 3.9598424562386416 -247.45712305199552 -58.879568375896646 0.0 0.0
-1073.8990431177128 2.562289448211706 -321.40102610085034 -54.89722318012584 0.0 0.0
-1303.8701789388126 1.142473724489812 -390.8183115642969 -52.48930699850905 0.0 0.0
-1525.541164129099 0.35603522954158073 -457.55553866986725 -51.44858397165753 0.0 0.0
-1743.9318503016657 0.04424198800480994 -523.1662824940983 -51.13239837634112 0.0 0.0
-1961.4866977241563 -0.040533883874473986 -588.4581694824093 -51.098304613880664 0.0 0.0
-2179.0647591035886 -0.04259745403127191 -653.7322069672861 -51.136122648305786 0.0 0.0
-2396.7951060165597 -0.008177496545188845 -719.0409850539316 -51.156991983886215 0.0 0.0
-2614.4291163440275 0.08275154981274291 -784.3039094382648 -51.08839065106865 0.0 0.0
-2831.2261921795757 0.3035710333876409 -849.2767863438568 -50.81974708102854 0.0 0.0
-3045.754177022613 0.7493741304730719 -913.501440867642 -50.07601282185914 0.0 0.0
-3254.1666717754447 1.777816128756454 -975.7166566940067 -48.732467782892364 0.0 0.0
-3457.4097588004292 1.015481717043457 -1036.9182831250157 -46.25384701963415 0.0 0.0
-3619.7386975600166 16.76752574822099 -1080.891351543539 -42.99835083881295 0.0 0.0
-3930.511134810007 -96.13462711504906 -1207.993728577517 -67.81485298062827 0.0 0.0
-3848.3778356266957 484.53811901135987 -1009.1519149846009 -96.78838190920072 0.0 0.0
-5226.795539831859 -2795.329401351109 -2406.6374823548895 -5.229594535194337e-12 0.0 0.0
-3848.377835626727 484.5381190112618 -1009.1519149846397 96.78838190920237 0.0 0.0
-3930.511134809978 -96.13462711497537 -1207.9937285774859 67.81485298062341 0.0 0.0
-3619.738697559953 16.767525748390693 -1080.8913515434685 42.99835083880923 0.0 0.0
-3457.409758800487 1.0154817169345396 -1036.9182831250657 46.25384701963114 0.0 0.0
-3254.1666717755274 1.777816128542029 -975.7166566940956 48.732467782895654 0.0 0.0
-3045.754177022625 0.7493741304461932 -913.5014408676539 50.076012821898416 0.0 0.0
-2831.2261921796953 0.30357103312818334 -849.2767863439701 50.81974708102955 0.0 0.0
-2614.429116344083 0.08275154966361553 -784.303909438326 51.08839065108825 0.0 0.0
-2396.7951060165615 -0.008177496551639074 -719.0409850539338 51.156991983897626 0.0 0.0
-2179.064759103592 -0.042597454056271356 -653.7322069672946 51.136122648314114 0.0 0.0
-1961.4866977240947 -0.040533883723656516 -588.4581694823457 51.09830461389816 0.0 0.0
-1743.9318503016798 0.044241987995464305 -523.1662824941054 51.13239837635482 0.0 0.0
-1525.5411641290752 0.3560352295894067 -457.55553866984576 51.44858397165901 0.0 0.0
-1303.87017893879 1.1424737245383163 -390.8183115642756 52.489306998506464 0.0 0.0
-1073.8990431177197 2.5622894482017826 -321.4010261008554 54.89722318012471 0.0 0.0
-828.8169192962343 3.959842456219688 -247.4571230520044 58.879568375907034 0.0 0.0
-567.4229151792872 2.356100540802501 -169.52004439154547 62.19238519471007 0.0 0.0
-312.54545764866003 -7.842582094244557 -96.11641192287136 57.80238058354134 0.0 0.0
-124.4100701496802 -29.960071194695917 -46.31104240331283 36.576414989986304 0.0 0.0
-43.57749687566469 -12.772860744676128 -16.905107286102247 19.640829259483482 0.0 0.0
-22.67929292376889 -5.391825543370932 -8.42133554014195 -13.16170198347691 0.0 0.0
-101.36733230634007 -15.390951772076898 -35.02748522352508 -15.458868516028637 0.0 0.0
-319.2871342297449 -8.265972860885888 -98.26593212718925 -19.673669750184438 0.0 0.0
-624.6512907988432 -11.80587139088344 -190.937148656918 -21.935438264040396 0.0 0.0
-929.6198067077428 -20.822343838534543 -285.1326451638832 -21.76836518156501 0.0 0.0
-1208.336987439765 -29.78187644357253 -371.4356591650013 -20.755405669868804 0.0 0.0
-1466.7789800922176 -37.57238475585534 -451.3054094544218 -19.981326520386954 0.0 0.0
-1715.1337642054018 -44.46565938819068 -527.8798270780778 -19.58196145249198 0.0 0.0
-1959.9474622682867 -50.93765724574224 -603.2655358542088 -19.42899898118103 0.0 0.0
-2204.1017423598432 -57.27778661834169 -678.4138586934554 -19.390506544369515 0.0 0.0
-2448.4881803084536 -63.60565270282068 -753.6281499033823 -19.389088314793753 0.0 0.0
-2693.180545140974 -69.93711442682773 -828.9352978703405 -19.386002106535116 0.0 0.0
-2937.8909169773365 -76.27538830686176 -904.2498915852595 -19.34645634130058 0.0 0.0
-3181.7126369182365 -82.40503288053043 -979.2353009396303 -19.23999325194825 0.0 0.0
-3422.9889437157844 -88.71920169850779 -1053.5124436242877 -18.98358808002584 0.0 0.0
-3656.398945159397 -92.30192515279992 -1124.6102610936596 -18.487519175937805 0.0 0.0
-3879.6472272330166 -104.07992749086586 -1195.118146417165 -18.991686986205522 0.0 0.0
-4061.7723090680247 -68.74983839815386 -1239.1566442398537 -12.921906040851056 0.0 0.0
-4249.158406501747 -231.7375934048452 -1344.268799971978 -63.44847204004179 0.0 0.0
-4337.9956385743335 550.3257046746188 -1136.300980169915 -0.285648357938328 0.0 0.0
-6414.639596258585 -3363.9614164939553 -2933.5803038257623 -6.252776074688882e-12 0.0 0.0
-4337.995638574417 550.3257046744322 -1136.3009801699955 0.2856483579450355 0.0 0.0
-4249.158406501682 -231.73759340468376 -1344.26879997191 63.44847204003315 0.0 0.0
-4061.77230906794 -68.74983839797572 -1239.1566442397752 12.921906040856072 0.0 0.0
-3879.6472272330775 -104.07992749099249 -1195.118146417221 18.991686986194253 0.0 0.0
-3656.398945159409 -92.30192515282276 -1124.6102610936696 18.487519175937507 0.0 0.0
-3422.988943715729 -88.71920169832559 -1053.5124436242163 18.98358808003084 0.0 0.0
-3181.7126369184016 -82.40503288085856 -979.2353009397781 19.23999325192179 0.0 0.0
-2937.890916977431 -76.27538830712098 -904.2498915853656 19.34645634130314 0.0 0.0
-2693.180545140977 -69.93711442685259 -828.9352978703489 19.386002106546172 0.0 0.0
-2448.4881803083304 -63.60565270256759 -753.6281499032693 19.38908831479526 0.0 0.0
-2204.101742359792 -57.27778661828222 -678.4138586934221 19.390506544362268 0.0 0.0
-1959.9474622682 -50.93765724553167 -603.2655358541194 19.428998981184563 0.0 0.0
-1715.1337642053986 -44.465659388161114 -527.879827078068 19.581961452496415 0.0 0.0
-1466.7789800922196 -37.57238475588033 -451.3054094544301 19.981326520384243 0.0 0.0
-1208.3369874397104 -29.7818764434832 -371.43565916495805 20.755405669880204 0.0 0.0
-929.6198067077426 -20.822343838553657 -285.1326451638889 21.7683651815584 0.0 0.0
-624.6512907988734 -11.805871390951516 -190.93714865694747 21.93543826404575 0.0 0.0
-319.28713422975864 -8.26597286087754 -98.26593212719084 19.673669750156243 0.0 0.0
-101.3673323063504 -15.390951772083781 -35.02748522353025 15.458868516020921 0.0 0.0
-22.67929292375818 -5.391825543372157 -8.421335540139097 13.161701983476828 0.0 0.0
SCALARS Strain float 6
LOOKUP_TABLE default
0.00587569536383214 -0.01459568229373746 0.0 -0.0009821195325226983 0.0 0.0
0.005232785779850579 0.0011377839274564624 0.0 -0.00152555847468318 0.0 0.0
0.004135788225289945 -0.002060955986605622 0.0 -0.000652464138710543 0.0 0.0
0.003943948446216725 -0.0014368947750370972 0.0 -9.717592477976658e-05 0.0 0.0
0.004632446671304653 -0.0018931431544077027 0.0 -0.00022396262608299024 0.0 0.0
0.005565597845367182 -0.002254991072925667 0.0 -0.00023078494424231324 0.0 0.0
0.006611768500572079 -0.0026916752039369695 0.0 -0.0002447193962415322 0.0 0.0
0.007700903349664655 -0.003135068823942451 0.0 -0.0002500216933438305 0.0 0.0
0.008803089821573934 -0.00358443526340875 0.0 -0.00025190715841778757 0.0 0.0
0.0099073648458833 -0.004033939565154816 0.0 -0.0002523978781676324 0.0 0.0
0.011010425965703494 -0.004482994080945221 0.0 -0.00025239784736340824 0.0 0.0
0.012112119383049824 -0.004931475610982669 0.0 -0.0002524537438904327 0.0 0.0
0.013213868535268437 -0.005379898578641592 0.0 -0.0002529454368398272 0.0 0.0
0.014319527357051463 -0.005829581316416223 0.0 -0.0002543939160220554 0.0 0.0
0.015437645967792388 -0.006283616108800285 0.0 -0.0002573595386711581 0.0 0.0
0.01658286965810936 -0.006747688283072388 0.0 -0.000261565216844969 0.0 0.0
0.017769878070992666 -0.007228405998692433 0.0 -0.0002634696705390133 0.0 0.0
0.018988087290813086 -0.0077241904912897855 0.0 -0.0002525486759447704 0.0 0.0
0.020149916951808816 -0.00820405644609095 0.0 -0.00021064611198163055 0.0 0.0
0.021043380047928592 -0.008582567457588565 0.0 -0.0001232263719817008 0.0 0.0
0.021387815223424603 -0.008732662945953078 0.0 -6.429318882839041e-17 0.0 0.0
0.021043380047928547 -0.008582567457589101 0.0 0.00012322637198166437 0.0 0.0
0.020149916951808743 -0.008204056446090726 0.0 0.00021064611198178278 0.0 0.0
0.018988087290813072 -0.007724190491288639 0.0 0.0002525486759444059 0.0 0.0
0.017769878070992617 -0.007228405998693899 0.0 0.00026346967053874997 0.0 0.0
0.0165828696581093 -0.006747688283072191 0.0 0.00026156521684463714 0.0 0.0
0.015437645967792402 -0.006283616108799987 0.0 0.0002573595386713407 0.0 0.0
0.014319527357051543 -0.005829581316415561 0.0 0.0002543939160223203 0.0 0.0
0.013213868535268458 -0.0053798985786416426 0.0 0.0002529454368392336 0.0 0.0
0.01211211938304976 -0.0049314756109824056 0.0 0.00025245374389030605 0.0 0.0
0.011010425965703428 -0.004482994080944862 0.0 0.0002523978473632502 0.0 0.0
0.009907364845883336 -0.004033939565154916 0.0 0.00025239787816766425 0.0 0.0
0.008803089821573955 -0.0035844352634089426 0.0 0.0002519071584173831 0.0 0.0
0.007700903349664586 -0.0031350688239419923 0.0 0.0002500216933433343 0.0 0.0
0.0066117685005720375 -0.002691675203937073 0.0 0.0002447193962414696 0.0 0.0
0.005565597845367188 -0.0022549910729261365 0.0 0.00023078494424195605 0.0 0.0
0.004632446671304684 -0.0018931431544077881 0.0 0.0002239626260830389 0.0 0.0
0.0039439484462167685 -0.0014368947750373474 0.0 9.717592478009142e-05 0.0 0.0
0.004135788225289933 -0.0020609559866054793 0.0 0.0006524641387101484 0.0 0.0
0.005232785779850598 0.001137783927456401 0.0 0.001525558474683061 0.0 0.0
0.005875695363832264 -0.014595682293737477 0.0 0.000982119532522638 0.0 0.0
0.003658808443954005 -0.013566487485526635 0.0 -0.000671152557999495 0.0 0.0
0.0030956240139279638 0.000986115908075545 0.0 -0.001216350648267471 0.0 0.0
0.002971942173465551 -0.001598256836187198 0.0 -0.0004560475385822568 0.0 0.0
0.0035761471097234907 -0.0014178770256000393 0.0 -0.00037747176805054004 0.0 0.0
0.004154066501226781 -0.001766066546780185 0.0 -0.0005442362021608627 0.0 0.0
0.005020041350553624 -0.002140105910901793 0.0 -0.0006165157093145149 0.0 0.0
0.0059569121894599555 -0.002549170255585579 0.0 -0.0006489220476202442 0.0 0.0
0.006934511041332958 -0.0029707742817444314 0.0 -0.0006621881943791871 0.0 0.0
0.007924363975671669 -0.003396034834806164 0.0 -0.0006658302401118693 0.0 0.0
0.008917200697746683 -0.00382181210277208 0.0 -0.0006662031021381547 0.0 0.0
0.009909650782544768 -0.00424714972742045 0.0 -0.0006656952170220456 0.0 0.0
0.010901344929738184 -0.00467202896375811 0.0 -0.0006654456202557504 0.0 0.0
0.011893456553820179 -0.005096862073822319 0.0 -0.00066636843875457 0.0 0.0
0.012889221692134198 -0.0055227710916716105 0.0 -0.0006700792016762413 0.0 0.0
0.013895377070827138 -0.005952386341669245 0.0 -0.0006791121144917561 0.0 0.0
0.01492240485980533 -0.006390605389851968 0.0 -0.0006951130703843875 0.0 0.0
0.01597809291357525 -0.006843247886598193 0.0 -0.0007122151840915285 0.0 0.0
0.017045600060522147 -0.007309135736280373 0.0 -0.0007041225077504659 0.0 0.0
0.018043220871022714 -0.007760943542004642 0.0 -0.0006137884829234201 0.0 0.0
0.018794412238801846 -0.008120685000592423 0.0 -0.00037613595563413806 0.0 0.0
0.019080041481390846 -0.008265900144858106 0.0 -2.233456475320139e-17 0.0 0.0
0.018794412238801784 -0.008120685000592518 0.0 0.00037613595563391 0.0 0.0
0.018043220871022614 -0.00776094354200485 0.0 0.0006137884829238062 0.0 0.0
0.017045600060522095 -0.007309135736280191 0.0 0.0007041225077501105 0.0 0.0
0.01597809291357525 -0.0068432478865990435 0.0 0.0007122151840915073 0.0 0.0
0.014922404859805394 -0.006390605389852114 0.0 0.0006951130703841787 0.0 0.0
0.01389537707082713 -0.005952386341668911 0.0 0.0006791121144919406 0.0 0.0
0.012889221692134144 -0.00552277109167126 0.0 0.0006700792016767734 0.0 0.0
0.011893456553820183 -0.0050968620738223265 0.0 0.0006663684387542106 0.0 0.0
0.010901344929738188 -0.004672028963757821 0.0 0.0006654456202559351 0.0 0.0
0.009909650782544745 -0.0042471497274201315 0.0 0.0006656952170222097 0.0 0.0
0.008917200697746668 -0.0038218121027721735 0.0 0.0006662031021381655 0.0 0.0
0.007924363975671655 -0.00339603483480675 0.0 0.0006658302401118862 0.0 0.0
0.0069345110413329475 -0.0029707742817441417 0.0 0.000662188194378796 0.0 0.0
0.005956912189459959 -0.0025491702555857257 0.0 0.0006489220476203028 0.0 0.0
0.005020041350553653 -0.002140105910902184 0.0 0.0006165157093144108 0.0 0.0
0.004154066501226822 -0.001766066546780023 0.0 0.0005442362021609653 0.0 0.0
0.0035761471097234786 -0.0014178770256001677 0.0 0.00037747176805058883 0.0 0.0
0.0029719421734655097 -0.001598256836187212 0.0 0.0004560475385819463 0.0 0.0
0.003095624013927958 0.0009861159080755862 0.0 0.001216350648267455 0.0 0.0
0.0036588084439540336 -0.01356648748552666 0.0 0.0006711525579994204 0.0 0.0
0.0026243048334756375 -0.01162641363588516 0.0 -0.0030909600872025015 0.0 0.0
0.00199362500268417 0.0005399000953157725 0.0 -0.0021995506063020604 0.0 0.0
0.002047186250311229 -0.0008192108906592684 0.0 -0.0003092448576921576 0.0 0.0
0.003024280029034814 -0.0012773238423690934 0.0 -0.0008707676293064671 0.0 0.0
0.0036795258782525066 -0.0015326164012475264 0.0 -0.0010836506085937867 0.0 0.0
0.004455439507325112 -0.0018984458934210272 0.0 -0.001241964534266055 0.0 0.0
0.0052983915696677465 -0.002264715675609543 0.0 -0.0013038414883805253 0.0 0.0
0.006166275906366028 -0.0026411955402551013 0.0 -0.0013288476053478228 0.0 0.0
0.007045409660225165 -0.003019285492474933 0.0 -0.0013355658376705422 0.0 0.0
0.007927151268388121 -0.003397574278148976 0.0 -0.0013359544294731045 0.0 0.0
0.008809027238792308 -0.003775519826700613 0.0 -0.0013348060089460815 0.0 0.0
0.009690556870225256 -0.004153135674002535 0.0 -0.0013341865271364413 0.0 0.0
0.010572584127314147 -0.004530654030598032 0.0 -0.0013358356720947393 0.0 0.0
0.011457458673153677 -0.004908698833107199 0.0 -0.0013429584044777614 0.0 0.0
0.01234992604313235 -0.005288895280754842 0.0 -0.0013608598540361097 0.0 0.0
0.013257016678367142 -0.005674740583853357 0.0 -0.0013936982478645653 0.0 0.0
0.014182765654013323 -0.006071472454318144 0.0 -0.001431507540841469 0.0 0.0
0.01511082220207401 -0.0064811346778665836 0.0 -0.0014233142953510728 0.0 0.0
0.015972220728914445 -0.0068867761254576484 0.0 -0.001252067553228355 0.0 0.0
0.01661940574221368 -0.0072240561379794885 0.0 -0.0007749857163320221 0.0 0.0
0.016865684624941885 -0.007368001081486232 0.0 1.0516761073109393e-17 0.0 0.0
0.01661940574221364 -0.007224056137979223 0.0 0.0007749857163318212 0.0 0.0
0.015972220728914445 -0.0068867761254580925 0.0 0.0012520675532285606 0.0 0.0
0.015110822202073979 -0.006481134677867104 0.0 0.0014233142953511036 0.0 0.0
0.014182765654013343 -0.006071472454318501 0.0 0.0014315075408420108 0.0 0.0
0.013257016678367149 -0.00567474058385347 0.0 0.0013936982478645107 0.0 0.0
0.012349926043132354 -0.005288895280754491 0.0 0.0013608598540362847 0.0 0.0
0.011457458673153677 -0.004908698833107123 0.0 0.0013429584044779238 0.0 0.0
0.010572584127314112 -0.004530654030598322 0.0 0.0013358356720947367 0.0 0.0
0.009690556870225244 -0.004153135674002694 0.0 0.0013341865271363513 0.0 0.0
0.00880902723879229 -0.0037755198267006617 0.0 0.0013348060089461342 0.0 0.0
0.007927151268388138 -0.00339757427814899 0.0 0.0013359544294733417 0.0 0.0
0.007045409660225199 -0.003019285492475203 0.0 0.0013355658376708085 0.0 0.0
0.006166275906366049 -0.0026411955402553056 0.0 0.0013288476053480364 0.0 0.0
0.005298391569667736 -0.0022647156756098095 0.0 0.0013038414883804394 0.0 0.0
0.004455439507325145 -0.0018984458934208927 0.0 0.001241964534266037 0.0 0.0
0.003679525878252542 -0.0015326164012474848 0.0 0.001083650608593968 0.0 0.0
0.0030242800290347857 -0.0012773238423689458 0.0 0.0008707676293063082 0.0 0.0
0.0020471862503112156 -0.0008192108906594982 0.0 0.00030924485769215094 0.0 0.0
0.001993625002684143 0.0005399000953159431 0.0 0.0021995506063022152 0.0 0.0
0.0026243048334755803 -0.011626413635885182 0.0 0.0030909600872025974 0.0 0.0
0.0020845808329613587 -0.009921117976664917 0.0 -0.0038587009951872205 0.0 0.0
0.001403640423562294 -3.411508929602785e-05 0.0 -0.003012220292843942 0.0 0.0
0.0013778526990855862 -0.0003219466839330054 0.0 -0.0009165305044633265 0.0 0.0
0.0024347073678313833 -0.0010049563392515483 0.0 -0.0012587797585537233 0.0 0.0
0.0031763650645850656 -0.001313606209798569 0.0 -0.0016120313548701542 0.0 0.0
0.0038858473013657522 -0.0016443070577956264 0.0 -0.0017928849715218953 0.0 0.0
0.004634273041141566 -0.001978614550819734 0.0 -0.0018830195365819322 0.0 0.0
0.0053968653685276735 -0.002310511359987732 0.0 -0.0019160800987779005 0.0 0.0
0.006165995268628911 -0.0026423920890001028 0.0 -0.0019258557633659687 0.0 0.0
0.006937133720888393 -0.00297338881275419 0.0 -0.0019265654097188009 0.0 0.0
0.007708468699103929 -0.0033039662101677215 0.0 -0.001925136335479377 0.0 0.0
0.008479708333879848 -0.0036342301040219885 0.0 -0.0019243834695789868 0.0 0.0
0.009251287909711546 -0.00396419147840695 0.0 -0.001926707995800483 0.0 0.0
0.010024526102913841 -0.004293832368444223 0.0 -0.001936414614933405 0.0 0.0
0.010802155721073316 -0.0046236583585329 0.0 -0.001960566318695494 0.0 0.0
0.011588509377478406 -0.004956118906625219 0.0 -0.0020046057635026648 0.0 0.0
0.012386541583548634 -0.005297663520049708 0.0 -0.002054566121879175 0.0 0.0
0.013185593389572023 -0.005657840732298972 0.0 -0.002039309595310343 0.0 0.0
0.013933784087429967 -0.006035364257354161 0.0 -0.0017934705259847572 0.0 0.0
0.014506110151840518 -0.006377197771557383 0.0 -0.0011113509071362187 0.0 0.0
0.014727254094141839 -0.0065354207754612 0.0 -4.92227786308419e-17 0.0 0.0
0.014506110151840494 -0.006377197771557399 0.0 0.0011113509071363175 0.0 0.0
0.013933784087429997 -0.006035364257354701 0.0 0.0017934705259846076 0.0 0.0
0.013185593389572007 -0.005657840732298962 0.0 0.0020393095953101493 0.0 0.0
0.01238654158354861 -0.005297663520049967 0.0 0.002054566121879529 0.0 0.0
0.011588509377478483 -0.004956118906625204 0.0 0.002004605763502642 0.0 0.0
0.010802155721073306 -0.004623658358533168 0.0 0.001960566318695553 0.0 0.0
0.010024526102913739 -0.0042938323684440305 0.0 0.0019364146149330294 0.0 0.0
0.009251287909711536 -0.003964191478407076 0.0 0.0019267079958006144 0.0 0.0
0.008479708333879914 -0.0036342301040224794 0.0 0.0019243834695790865 0.0 0.0
0.00770846869910396 -0.00330396621016754 0.0 0.0019251363354795235 0.0 0.0
0.006937133720888334 -0.0029733888127541405 0.0 0.0019265654097190108 0.0 0.0
0.006165995268628854 -0.002642392088999802 0.0 0.0019258557633658334 0.0 0.0
0.005396865368527643 -0.0023105113599878936 0.0 0.00191608009877807 0.0 0.0
0.004634273041141535 -0.0019786145508196963 0.0 0.0018830195365815666 0.0 0.0
0.0038858473013657566 -0.0016443070577953547 0.0 0.0017928849715218875 0.0 0.0
0.0031763650645850656 -0.0013136062097985532 0.0 0.0016120313548701186 0.0 0.0
0.0024347073678314085 -0.0010049563392513572 0.0 0.0012587797585538036 0.0 0.0
0.0013778526990855964 -0.00032194668393307124 0.0 0.0009165305044633242 0.0 0.0
0.0014036404235622546 -3.4115089296013164e-05 0.0 0.003012220292844028 0.0 0.0
0.002084580832961345 -0.009921117976664912 0.0 0.0038587009951874442 0.0 0.0
0.0017594317890718037 -0.008439375182479013 0.0 -0.003946765904030121 0.0 0.0
0.0010705963058498555 -0.0005287182755103243 0.0 -0.0035618947828253223 0.0 0.0
0.0009072627048392096 -5.3748860266011016e-05 0.0 -0.0017366730714181871 0.0 0.0
0.0018780271972313142 -0.0007106487452624803 0.0 -0.0017177037561501686 0.0 0.0
0.0026540081275102084 -0.001081097932726379 0.0 -0.00208350391801604 0.0 0.0
0.0033113073099563235 -0.0013892926112466625 0.0 -0.002284888807964549 0.0 0.0
0.003967038387122045 -0.001689293542729564 0.0 -0.0023854528592786133 0.0 0.0
0.00462601827268555 -0.001979337326591795 0.0 -0.002425271488120836 0.0 0.0
0.005286215930415887 -0.0022652204689653723 0.0 -0.002436894534048673 0.0 0.0
0.005947032708214635 -0.0025492104319501307 0.0 -0.002438133185626643 0.0 0.0
0.00660791586830003 -0.0028324348492905944 0.0 -0.002436661194977984 0.0 0.0
0.0072687698579567 -0.0031152885839942717 0.0 -0.002435933776508031 0.0 0.0
0.007929644518767582 -0.0033975206722127917 0.0 -0.002438740963626526 0.0 0.0
0.008590766239444077 -0.003678409818057977 0.0 -0.0024499761457388853 0.0 0.0
0.009252937793719886 -0.003957316897026367 0.0 -0.002477580857173762 0.0 0.0
0.009918461536683127 -0.004235950696997283 0.0 -0.0025276338665475846 0.0 0.0
0.010591275044522123 -0.004523305036580342 0.0 -0.0025836279554744593 0.0 0.0
0.011270257297397689 -0.004839626930955728 0.0 -0.002560426371693303 0.0 0.0
0.011923637620340072 -0.005203395330671544 0.0 -0.002254677221177736 0.0 0.0
0.01244391935600709 -0.005571722378274548 0.0 -0.0014026473632106108 0.0 0.0
0.012651008382706826 -0.0057580676884879944 0.0 1.3877787807814457e-17 0.0 0.0
0.012443919356007057 -0.005571722378274775 0.0 0.0014026473632106438 0.0 0.0
0.011923637620340067 -0.005203395330671408 0.0 0.0022546772211777264 0.0 0.0
0.011270257297397725 -0.004839626930955538 0.0 0.0025604263716932285 0.0 0.0
0.01059127504452209 -0.004523305036580307 0.0 0.0025836279554745704 0.0 0.0
0.009918461536683144 -0.004235950696997577 0.0 0.0025276338665475534 0.0 0.0
0.009252937793719855 -0.003957316897026293 0.0 0.0024775808571734915 0.0 0.0
0.008590766239444015 -0.003678409818058134 0.0 0.002449976145738906 0.0 0.0
0.007929644518767594 -0.0033975206722123624 0.0 0.0024387409636264343 0.0 0.0
0.007268769857956716 -0.0031152885839946603 0.0 0.0024359337765082903 0.0 0.0
0.006607915868300012 -0.002832434849289977 0.0 0.00243666119497765 0.0 0.0
0.0059470327082145995 -0.0025492104319502678 0.0 0.0024381331856264976 0.0 0.0
0.005286215930415925 -0.0022652204689652335 0.0 0.0024368945340485044 0.0 0.0
0.004626018272685559 -0.0019793373265915514 0.0 0.0024252714881205415 0.0 0.0
0.003967038387122034 -0.001689293542729727 0.0 0.002385452859278347 0.0 0.0
0.0033113073099563213 -0.0013892926112465446 0.0 0.002284888807964958 0.0 0.0
0.0026540081275102127 -0.0010810979327260223 0.0 0.002083503918015844 0.0 0.0
0.0018780271972312738 -0.0007106487452624776 0.0 0.00171770375615033 0.0 0.0
0.0009072627048391732 -5.374886026600356e-05 0.0 0.0017366730714181845 0.0 0.0
0.0010705963058498702 -0.0005287182755104691 0.0 0.0035618947828254003 0.0 0.0
0.0017594317890717943 -0.00843937518247901 0.0 0.0039467659040301984 0.0 0.0
0.001528938352371593 -0.007157839905708122 0.0 -0.003765359838623596 0.0 0.0
0.0008653041730153247 -0.000887580560509818 0.0 -0.0038867537302076996 0.0 0.0
0.0005745421632878318 6.503940741738478e-05 0.0 -0.0025301458811982807 0.0 0.0
0.0013794431938019928 -0.0004446658225006572 0.0 -0.002230729569885753 0.0 0.0
0.002129250892176857 -0.0008396125210365841 0.0 -0.0025115570243234918 0.0 0.0
0.002732892085786894 -0.0011334759179174598 0.0 -0.0027132246002534656 0.0 0.0
0.003298182065377025 -0.001398721823316008 0.0 -0.0028144119841155835 0.0 0.0
0.003854082436263318 -0.0016474977126273822 0.0 -0.0028564236871269594 0.0 0.0
0.004406050129677666 -0.001887884246456552 0.0 -0.0028690983498336343 0.0 0.0
0.004956807861522964 -0.0021249664198818713 0.0 -0.002870702854914653 0.0 0.0
0.005507310189050593 -0.0023608909381329125 0.0 -0.002869380925056501 0.0 0.0
0.00605773177246867 -0.0025962980679032042 0.0 -0.002868758376471211 0.0 0.0
0.006607754243373424 -0.002830709625972827 0.0 -0.002871767759455438 0.0 0.0
0.007156544352901995 -0.003062695474823108 0.0 -0.0028833748497851556 0.0 0.0
0.007703113544550959 -0.003290509211515177 0.0 -0.002911646917875277 0.0 0.0
0.008248228747745912 -0.0035153039246525204 0.0 -0.0029630507550644446 0.0 0.0
0.008798177112593949 -0.003749372833710648 0.0 -0.003020926857132363 0.0 0.0
0.00936406660614183 -0.004025816397761652 0.0 -0.0029934702700741903 0.0 0.0
0.009936857147503267 -0.004386582661808238 0.0 -0.002648575447833157 0.0 0.0
0.010423500666912878 -0.004800297114422787 0.0 -0.0016618981121471978 0.0 0.0
0.010625790465568845 -0.005028961459325642 0.0 1.1655173354219173e-17 0.0 0.0
0.010423500666912876 -0.00480029711442302 0.0 0.001661898112147168 0.0 0.0
0.009936857147503246 -0.004386582661806969 0.0 0.0026485754478334025 0.0 0.0
0.009364066606141868 -0.004025816397761542 0.0 0.0029934702700740398 0.0 0.0
0.008798177112593921 -0.0037493728337100497 0.0 0.0030209268571324568 0.0 0.0
0.008248228747745954 -0.0035153039246526895 0.0 0.002963050755064943 0.0 0.0
0.0077031135445509834 -0.003290509211515247 0.0 0.0029116469178749283 0.0 0.0
0.007156544352901877 -0.003062695474823273 0.0 0.002883374849785013 0.0 0.0
0.006607754243373391 -0.0028307096259729335 0.0 0.0028717677594554524 0.0 0.0
0.0060577317724687 -0.0025962980679030603 0.0 0.002868758376471331 0.0 0.0
0.005507310189050597 -0.0023608909381331224 0.0 0.0028693809250562954 0.0 0.0
0.004956807861522952 -0.0021249664198818123 0.0 0.0028707028549146405 0.0 0.0
0.004406050129677656 -0.0018878842464569489 0.0 0.002869098349833634 0.0 0.0
0.0038540824362633093 -0.0016474977126274288 0.0 0.0028564236871266553 0.0 0.0
0.0032981820653770863 -0.0013987218233162916 0.0 0.002814411984115558 0.0 0.0
0.002732892085786963 -0.0011334759179173419 0.0 0.0027132246002537297 0.0 0.0
0.0021292508921768186 -0.0008396125210364635 0.0 0.002511557024323428 0.0 0.0
0.001379443193801965 -0.00044466582250063955 0.0 0.0022307295698858727 0.0 0.0
0.0005745421632878972 6.503940741729644e-05 0.0 0.002530145881198482 0.0 0.0
0.0008653041730153602 -0.0008875805605098562 0.0 0.0038867537302075374 0.0 0.0
0.0015289383523715502 -0.0071578399057081596 0.0 0.003765359838623738 0.0 0.0
0.0013400823841698028 -0.0060477079463998875 0.0 -0.003491043866495149 0.0 0.0
0.0007210312434214773 -0.0011117565026138804 0.0 -0.004043583773414948 0.0 0.0
0.0003312960280421956 9.955836829955273e-05 0.0 -0.003200098173720782 0.0 0.0
0.0009413413795126954 -0.0002224713910230918 0.0 -0.002744571573462352 0.0 0.0
0.0016151958310144366 -0.0005997594620819862 0.0 -0.0029012676639827524 0.0 0.0
0.0021536709711525146 -0.0008773072181281767 0.0 -0.0030765868265834415 0.0 0.0
0.0026286674219365104 -0.0011080690593800772 0.0 -0.0031702812510627405 0.0 0.0
0.003081537378647431 -0.0013152704642022887 0.0 -0.003210080887820953 0.0 0.0
0.0035255292022755478 -0.0015103880023470905 0.0 -0.0032225934374529824 0.0 0.0
0.003966426462681629 -0.0017006406380325426 0.0 -0.003224377452431551 0.0 0.0
0.004406612097545938 -0.0018892982250623925 0.0 -0.003223292617755289 0.0 0.0
0.00484659424479493 -0.0020772576056555755 0.0 -0.0032228107866224915 0.0 0.0
0.005285727978349351 -0.002263835731101461 0.0 -0.0032257005299922274 0.0 0.0
0.0057222198246579346 -0.002446954996870781 0.0 -0.0032365379310353493 0.0 0.0
0.006153465349801121 -0.0026238404288802656 0.0 -0.0032628598168232665 0.0 0.0
0.006578969820669414 -0.00279511584054387 0.0 -0.003311469804490939 0.0 0.0
0.007007986898889032 -0.002976473994804051 0.0 -0.003368430042692615 0.0 0.0
0.007465532546907697 -0.0032150020252205065 0.0 -0.003343476786675365 0.0 0.0
0.00796811925818678 -0.0035799628905368542 0.0 -0.002984739317710182 0.0 0.0
0.008436453234805122 -0.004056277313737138 0.0 -0.0018994296902290482 0.0 0.0
0.008642271698250083 -0.00434357314983586 0.0 6.223320470066795e-17 0.0 0.0
0.008436453234805139 -0.004056277313736892 0.0 0.0018994296902291757 0.0 0.0
0.007968119258186726 -0.003579962890536743 0.0 0.0029847393177103113 0.0 0.0
0.007465532546907683 -0.003215002025220667 0.0 0.0033434767866753635 0.0 0.0
0.007007986898889056 -0.002976473994803789 0.0 0.0033684300426926207 0.0 0.0
0.006578969820669395 -0.002795115840543758 0.0 0.0033114698044909314 0.0 0.0
0.006153465349801063 -0.0026238404288807192 0.0 0.0032628598168233337 0.0 0.0
0.005722219824657917 -0.00244695499687065 0.0 0.0032365379310353615 0.0 0.0
0.005285727978349324 -0.002263835731101527 0.0 0.0032257005299924264 0.0 0.0
0.004846594244794871 -0.002077257605655545 0.0 0.003222810786622326 0.0 0.0
0.004406612097545976 -0.0018892982250626653 0.0 0.0032232926177553243 0.0 0.0
0.003966426462681694 -0.0017006406380325242 0.0 0.003224377452431494 0.0 0.0
0.0035255292022755456 -0.0015103880023472139 0.0 0.003222593437453005 0.0 0.0
0.0030815373786474047 -0.001315270464202265 0.0 0.003210080887820753 0.0 0.0
0.002628667421936496 -0.0011080690593798714 0.0 0.003170281251062771 0.0 0.0
0.0021536709711525016 -0.0008773072181280681 0.0 0.0030765868265833505 0.0 0.0
0.0016151958310144402 -0.0005997594620821596 0.0 0.0029012676639827754 0.0 0.0
0.0009413413795126653 -0.0002224713910230058 0.0 0.002744571573462313 0.0 0.0
0.00033129602804214914 9.955836829957603e-05 0.0 0.003200098173720982 0.0 0.0
0.0007210312434214498 -0.001111756502613875 0.0 0.004043583773414825 0.0 0.0
0.0013400823841697798 -0.006047707946399916 0.0 0.0034910438664951865 0.0 0.0
0.001169295279878389 -0.005080718381110626 0.0 -0.0031983039575567713 0.0 0.0
0.0006032813845331669 -0.001221708358733013 0.0 -0.0040792995082147634 0.0 0.0
0.00014290762340818565 9.476264556899587e-05 0.0 -0.003716069392554114 0.0 0.0
0.0005563271609457202 -4.272923487637333e-05 0.0 -0.0032124590950853814 0.0 0.0
0.0011193327553060415 -0.00036975078345302393 0.0 -0.0032463093277972006 0.0 0.0
0.001577246439959532 -0.000622588347846025 0.0 -0.003374573365987446 0.0 0.0
0.001959441564396019 -0.0008180102488065821 0.0 -0.0034525373635305354 0.0 0.0
0.002308797308127937 -0.0009830191762269871 0.0 -0.0034864904522495153 0.0 0.0
0.002644736540733746 -0.0011327630880450842 0.0 -0.0034974967171574308 0.0 0.0
0.002975865306112197 -0.0012762187698923224 0.0 -0.003499224198001721 0.0 0.0
0.0033057942429300913 -0.0014176336824553463 0.0 -0.003498412986353565 0.0 0.0
0.0036353647850916352 -0.0015581706765870685 0.0 -0.0034980706019269838 0.0 0.0
0.003963673189346191 -0.00169697643034053 0.0 -0.0035005276322721017 0.0 0.0
0.00428812094475093 -0.0018314327172072905 0.0 -0.0035095688446357045 0.0 0.0
0.004604694332157685 -0.001957857183315335 0.0 -0.0035316263541553747 0.0 0.0
0.00491168633757631 -0.0020762161946158556 0.0 -0.003573774807872175 0.0 0.0
0.005221155660248446 -0.002205006463252994 0.0 -0.0036276916377301345 0.0 0.0
0.0055727228356050535 -0.002405345306395341 0.0 -0.003613561706797669 0.0 0.0
0.006011820290156274 -0.002778015881058651 0.0 -0.003269785632671464 0.0 0.0
0.006475001661327052 -0.003333310841568241 0.0 -0.0021239198595853414 0.0 0.0
0.006692420650815337 -0.0036995409036825397 0.0 4.553649124439119e-18 0.0 0.0
0.006475001661327037 -0.0033333108415679177 0.0 0.0021239198595852378 0.0 0.0
0.006011820290156264 -0.002778015881059252 0.0 0.0032697856326713336 0.0 0.0
0.005572722835605117 -0.0024053453063960276 0.0 0.0036135617067977917 0.0 0.0
0.005221155660248435 -0.0022050064632535065 0.0 0.0036276916377301696 0.0 0.0
0.004911686337576318 -0.0020762161946157316 0.0 0.0035737748078722995 0.0 0.0
0.004604694332157668 -0.0019578571833150397 0.0 0.003531626354155242 0.0 0.0
0.0042881209447508915 -0.0018314327172071748 0.0 0.0035095688446357175 0.0 0.0
0.003963673189346196 -0.0016969764303403432 0.0 0.0035005276322722352 0.0 0.0
0.0036353647850916005 -0.001558170676586889 0.0 0.003498070601927015 0.0 0.0
0.0033057942429301004 -0.0014176336824554326 0.0 0.0034984129863538087 0.0 0.0
0.0029758653061122335 -0.0012762187698921632 0.0 0.003499224198001572 0.0 0.0
0.002644736540733718 -0.001132763088044842 0.0 0.0034974967171573943 0.0 0.0
0.002308797308127916 -0.0009830191762268267 0.0 0.0034864904522493734 0.0 0.0
0.0019594415643960452 -0.0008180102488068779 0.0 0.0034525373635305168 0.0 0.0
0.001577246439959565 -0.0006225883478459551 0.0 0.0033745733659874444 0.0 0.0
0.0011193327553060803 -0.0003697507834531594 0.0 0.0032463093277972158 0.0 0.0
0.0005563271609457223 -4.272923487621916e-05 0.0 0.0032124590950852903 0.0 0.0
0.00014290762340822815 9.476264556915477e-05 0.0 0.0037160693925540984 0.0 0.0
0.0006032813845331943 -0.0012217083587331224 0.0 0.004079299508214781 0.0 0.0
0.0011692952798783654 -0.005080718381110616 0.0 0.003198303957556622 0.0 0.0
0.00100651172133988 -0.004232375675100614 0.0 -0.0029155544750791903 0.0 0.0
0.0004946349438862514 -0.001241963923738042 0.0 -0.004026979797218107 0.0 0.0
-1.4055076485366584e-05 7.891251984274268e-05 0.0 -0.004076993717143825 0.0 0.0
0.00021395592243310505 0.00010247660223629414 0.0 -0.0036023837868595036 0.0 0.0
0.0006445407098173153 -0.0001539020022326091 0.0 -0.0035351090361201484 0.0 0.0
0.0010066368270489163 -0.0003714853425969564 0.0 -0.0036054643616354283 0.0 0.0
0.0012914925410081133 -0.0005291297340182933 0.0 -0.003660431880797765 0.0 0.0
0.001536201170616812 -0.0006510338048510913 0.0 -0.003685557407939753 0.0 0.0
0.0017637657846283263 -0.000755070752788248 0.0 -0.003693885374726132 0.0 0.0
0.001985114718267387 -0.0008516894034396355 0.0 -0.003695294543976566 0.0 0.0
0.0022048373114074236 -0.0009458821950835835 0.0 -0.003694766505762349 0.0 0.0
0.0024240542052278106 -0.0010390437524434297 0.0 -0.0036945443412990777 0.0 0.0
0.002641682695066213 -0.0011301998339319197 0.0 -0.003696302488302919 0.0 0.0
0.002854522484784619 -0.001216332572039622 0.0 -0.0037027196195247997 0.0 0.0
0.0030573996956521363 -0.00129302339063401 0.0 -0.0037186250745907977 0.0 0.0
0.003247264602389001 -0.0013593509036727053 0.0 -0.003751098243929318 0.0 0.0
0.003438035365390026 -0.0014353295474718024 0.0 -0.003799828491456319 0.0 0.0
0.0036835332643474876 -0.001594866625862167 0.0 -0.0038048426229488827 0.0 0.0
0.004062125903577723 -0.001974694015140124 0.0 -0.003507499327552384 0.0 0.0
0.004531709954280458 -0.0026248889872423267 0.0 -0.00234307645539669 0.0 0.0
0.004769094605100011 -0.003096655682737467 0.0 2.1402150884863858e-16 0.0 0.0
0.004531709954280453 -0.0026248889872427256 0.0 0.0023430764553965724 0.0 0.0
0.004062125903577733 -0.0019746940151403815 0.0 0.003507499327552164 0.0 0.0
0.003683533264347557 -0.0015948666258624594 0.0 0.0038048426229487925 0.0 0.0
0.0034380353653900705 -0.0014353295474721938 0.0 0.0037998284914559704 0.0 0.0
0.00324726460238905 -0.0013593509036727682 0.0 0.003751098243929508 0.0 0.0
0.0030573996956521255 -0.0012930233906339066 0.0 0.0037186250745906537 0.0 0.0
0.0028545224847845887 -0.0012163325720394103 0.0 0.00370271961952481 0.0 0.0
0.0026416826950661763 -0.001130199833931963 0.0 0.0036963024883028177 0.0 0.0
0.0024240542052277694 -0.0010390437524433586 0.0 0.003694544341298835 0.0 0.0
0.0022048373114074487 -0.0009458821950838079 0.0 0.003694766505762324 0.0 0.0
0.0019851147182673905 -0.000851689403439997 0.0 0.003695294543976369 0.0 0.0
0.0017637657846283053 -0.0007550707527880455 0.0 0.0036938853747259153 0.0 0.0
0.0015362011706168074 -0.0006510338048512065 0.0 0.003685557407939621 0.0 0.0
0.001291492541008129 -0.0005291297340180806 0.0 0.0036604318807978015 0.0 0.0
0.0010066368270489447 -0.0003714853425972611 0.0 0.0036054643616354742 0.0 0.0
0.0006445407098173594 -0.00015390200223250924 0.0 0.003535109036120158 0.0 0.0
0.00021395592243309122 0.00010247660223644626 0.0 0.003602383786859383 0.0 0.0
-1.4055076485387297e-05 7.891251984289179e-05 0.0 0.004076993717144008 0.0 0.0
0.0004946349438862184 -0.0012419639237381428 0.0 0.0040269797972179566 0.0 0.0
0.001006511721339791 -0.004232375675100591 0.0 0.002915554475079308 0.0 0.0
0.0008480268770350743 -0.0034831178225684985 0.0 -0.002650267625710755 0.0 0.0
0.0003868524198974224 -0.0011952929815864937 0.0 -0.0039081688802493995 0.0 0.0
-0.00015483131038858974 6.835840363512613e-05 0.0 -0.004293429380654751 0.0 0.0
-9.60979392874923e-05 0.00022249619795930978 0.0 -0.003895423152690155 0.0 0.0
0.0001906324152922579 4.663716927704229e-05 0.0 -0.0037554848055538145 0.0 0.0
0.0004438092119459622 -0.00012574332020425465 0.0 -0.003765997155803347 0.0 0.0
0.0006257071530160941 -0.0002419884508034762 0.0 -0.0037929569070684734 0.0 0.0
0.0007640249009383459 -0.0003195207440207208 0.0 -0.0038069815498286436 0.0 0.0
0.0008826951686315601 -0.0003773715424189862 0.0 -0.0038117667433113112 0.0 0.0
0.0009941742825823059 -0.00042704799315355035 0.0 -0.003812632958543576 0.0 0.0
0.0011037286906188505 -0.0004740333807092002 0.0 -0.003812382260495426 0.0 0.0
0.0012126726635089985 -0.0005198837115719516 0.0 -0.003812260455101661 0.0 0.0
0.0013198262271838788 -0.0005635582240361514 0.0 -0.0038131297358534443 0.0 0.0
0.0014216268015349537 -0.0006018029767461299 0.0 -0.003816354468277206 0.0 0.0
0.001512055214962342 -0.0006296944336998853 0.0 -0.003824762140828282 0.0 0.0
0.0015865072318058677 -0.0006451931449916328 0.0 -0.003844848122589389 0.0 0.0
0.001659066117310897 -0.0006679338847566119 0.0 -0.0038856327047659357 0.0 0.0
0.0017959659512606734 -0.0007817587091989357 0.0 -0.0039164161547086416 0.0 0.0
0.0021129954258868526 -0.0011634251031856066 0.0 -0.003698679943155987 0.0 0.0
0.002599194812253485 -0.001923788683196457 0.0 -0.0025640620619100897 0.0 0.0
0.002865683590817661 -0.002537086214841682 0.0 3.9302328752599536e-17 0.0 0.0
0.002599194812253441 -0.0019237886831970229 0.0 0.0025640620619099943 0.0 0.0
0.00211299542588687 -0.0011634251031859193 0.0 0.0036986799431561242 0.0 0.0
0.0017959659512607272 -0.0007817587091993323 0.0 0.003916416154708597 0.0 0.0
0.0016590661173109128 -0.00066793388475622 0.0 0.0038856327047658125 0.0 0.0
0.001586507231805862 -0.0006451931449916096 0.0 0.003844848122589466 0.0 0.0
0.001512055214962316 -0.0006296944337003607 0.0 0.00382476214082838 0.0 0.0
0.0014216268015349368 -0.0006018029767458191 0.0 0.003816354468277156 0.0 0.0
0.0013198262271838447 -0.0005635582240360378 0.0 0.0038131297358534166 0.0 0.0
0.001212672663508974 -0.0005198837115722902 0.0 0.0038122604551018707 0.0 0.0
0.001103728690618864 -0.0004740333807092828 0.0 0.0038123822604956455 0.0 0.0
0.0009941742825822877 -0.00042704799315471554 0.0 0.0038126329585436774 0.0 0.0
0.0008826951686315073 -0.0003773715424186692 0.0 0.0038117667433114196 0.0 0.0
0.0007640249009383429 -0.0003195207440208225 0.0 0.0038069815498284814 0.0 0.0
0.00062570715301611 -0.00024198845080276084 0.0 0.003792956907068468 0.0 0.0
0.0004438092119459381 -0.00012574332020449637 0.0 0.003765997155803286 0.0 0.0
0.00019063241529224687 4.663716927703043e-05 0.0 0.00375548480555381 0.0 0.0
-9.609793928746305e-05 0.00022249619795924647 0.0 0.0038954231526898767 0.0 0.0
-0.00015483131038861238 6.835840363530472e-05 0.0 0.0042934293806546914 0.0 0.0
0.00038685241989738897 -0.001195292981586511 0.0 0.003908168880249399 0.0 0.0
0.0008480268770351156 -0.0034831178225684903 0.0 0.002650267625710984 0.0 0.0
0.0006931801200423521 -0.0028183603112068726 0.0 -0.0024006821419993284 0.0 0.0
0.00027666350041125596 -0.0011009014326905135 0.0 -0.003736084475508988 0.0 0.0
-0.0002889234325917941 7.153557964026139e-05 0.0 -0.004379259721141164 0.0 0.0
-0.00038273325263495425 0.0003258049557094113 0.0 -0.004082042640009005 0.0 0.0
-0.00024432851882570325 0.0002327436360855204 0.0 -0.003896897715888999 0.0 0.0
-0.0001103591761612057 0.00011363987064169802 0.0 -0.003851971953144343 0.0 0.0
-3.727958642454463e-05 4.296234235571368e-05 0.0 -0.0038487803335615495 0.0 0.0
-7.528462046858822e-06 1.1384338335508042e-05 0.0 -0.003850346371379065 0.0 0.0
1.5773527108108504e-06 2.930984394705257e-07 0.0 -0.003851090573969051 0.0 0.0
3.046833757104736e-06 -2.2947080444668466e-06 0.0 -0.003851276110501722 0.0 0.0
2.4613893952572384e-06 -2.080949372600083e-06 0.0 -0.0038512933752994517 0.0 0.0
1.2268627127857631e-06 -6.952378766938465e-07 0.0 -0.0038512623818570775 0.0 0.0
-1.854910967818811e-06 2.916004967851655e-06 0.0 -0.0038511490747559158 0.0 0.0
-1.0450181359347282e-05 1.2072449542293875e-05 0.0 -0.003850907370884401 0.0 0.0
-3.1020218757340135e-05 3.191089578932e-05 0.0 -0.003851113172158786 0.0 0.0
-6.9860849072278e-05 6.567361477255354e-05 0.0 -0.0038567675796203262 0.0 0.0
-0.00011504530698049341 9.640557863918032e-05 0.0 -0.00388584350095254 0.0 0.0
-9.154766412548273e-05 3.5236243712676504e-05 0.0 -0.003945424458525576 0.0 0.0
0.00015822293536082207 -0.0003371563407432231 0.0 -0.003840657822588949 0.0 0.0
0.0006698138537907102 -0.0012213233180452773 0.0 -0.0027936776470195196 0.0 0.0
0.0009757434046626993 -0.002025853525132013 0.0 4.119968255444917e-18 0.0 0.0
0.000669813853790678 -0.0012213233180457877 0.0 0.002793677647019338 0.0 0.0
0.00015822293536081183 -0.00033715634074319193 0.0 0.003840657822588755 0.0 0.0
-9.154766412542689e-05 3.523624371182488e-05 0.0 0.003945424458525467 0.0 0.0
-0.00011504530698047853 9.640557863928465e-05 0.0 0.0038858435009525103 0.0 0.0
-6.986084907228306e-05 6.567361477240537e-05 0.0 0.0038567675796201363 0.0 0.0
-3.102021875730373e-05 3.191089578856715e-05 0.0 0.0038511131721590403 0.0 0.0
-1.045018135931725e-05 1.2072449542086711e-05 0.0 0.003850907370884344 0.0 0.0
-1.8549109678316046e-06 2.9160049680087286e-06 0.0 0.0038511490747559227 0.0 0.0
1.2268627127734846e-06 -6.95237876949088e-07 0.0 0.0038512623818571286 0.0 0.0
2.4613893952692324e-06 -2.0809493725446056e-06 0.0 0.003851293375299371 0.0 0.0
3.046833757104899e-06 -2.294708044204148e-06 0.0 0.0038512761105017586 0.0 0.0
1.5773527107949126e-06 2.930984393567624e-07 0.0 0.003851090573969278 0.0 0.0
-7.528462046862806e-06 1.1384338335658333e-05 0.0 0.003850346371379194 0.0 0.0
-3.7279586424549023e-05 4.29623423560975e-05 0.0 0.003848780333561338 0.0 0.0
-0.00011035917616118876 0.00011363987064162969 0.0 0.0038519719531443855 0.0 0.0
-0.00024432851882565863 0.0002327436360853789 0.0 0.003896897715888874 0.0 0.0
-0.00038273325263498217 0.0003258049557094334 0.0 0.004082042640009034 0.0 0.0
-0.00028892343259182647 7.153557964031303e-05 0.0 0.0043792597211409195 0.0 0.0
0.00027666350041126566 -0.0011009014326905714 0.0 0.00373608447550915 0.0 0.0
0.0006931801200423845 -0.0028183603112068986 0.0 0.0024006821419992985 0.0 0.0
0.0005427916504763746 -0.0022280381047751555 0.0 -0.002161383510897919 0.0 0.0
0.0001635051523935116 -0.000974265562893417 0.0 -0.003518354686776413 0.0 0.0
-0.0004218839466148868 9.184154173169924e-05 0.0 -0.004348040539258694 0.0 0.0
-0.0006530269148567679 0.00041915450323751934 0.0 -0.004158703317972244 0.0 0.0
-0.0006630985852037766 0.00040636386747226473 0.0 -0.003951126935490236 0.0 0.0
-0.0006559218402129869 0.00034643652714103215 0.0 -0.003858937566703916 0.0 0.0
-0.0006971752593754579 0.00032547858548044616 0.0 -0.003826312450615683 0.0 0.0
-0.0007783523287888412 0.00034161707768954507 0.0 -0.0038151686835497965 0.0 0.0
-0.0008795644325749609 0.0003779065036751901 0.0 -0.00381177620910137 0.0 0.0
-0.0009882653791907603 0.0004225690304328028 0.0 -0.0038112541987820915 0.0 0.0
-0.0010989670423858 0.0004699774354302214 0.0 -0.0038115353608539513 0.0 0.0
-0.0012102816656304836 0.0005185209025280225 0.0 -0.0038116006935255365 0.0 0.0
-0.0013233499522827786 0.0005692126322165462 0.0 -0.00381051819823958 0.0 0.0
-0.0014416857880176857 0.0006252764138445422 0.0 -0.003806838375250048 0.0 0.0
-0.0015716978457288693 0.0006917367186051026 0.0 -0.0037988403849935773 0.0 0.0
-0.0017212301396990976 0.0007728173295694467 0.0 -0.003788990965471261 0.0 0.0
-0.0018831733151372702 0.0008565243771682825 0.0 -0.0038016065635966493 0.0 0.0
-0.001979735278856795 0.0008563409621626639 0.0 -0.003887316326782234 0.0 0.0
-0.0018084486590673053 0.0005114620336913506 0.0 -0.00392640957889697 0.0 0.0
-0.001264699286435864 -0.0005062828931631869 0.0 -0.0030382128866076534 0.0 0.0
-0.0009074605123256924 -0.0015715902730444856 0.0 -2.7972416050126014e-17 0.0 0.0
-0.0012646992864358518 -0.0005062828931637231 0.0 0.0030382128866073867 0.0 0.0
-0.0018084486590673088 0.0005114620336920994 0.0 0.003926409578896873 0.0 0.0
-0.0019797352788567834 0.0008563409621616582 0.0 0.003887316326782384 0.0 0.0
-0.0018831733151372645 0.0008565243771680305 0.0 0.00380160656359658 0.0 0.0
-0.0017212301396990599 0.0007728173295692735 0.0 0.0037889909654711977 0.0 0.0
-0.0015716978457288424 0.0006917367186044837 0.0 0.0037988403849935556 0.0 0.0
-0.0014416857880176666 0.0006252764138442391 0.0 0.0038068383752500965 0.0 0.0
-0.0013233499522827695 0.000569212632216774 0.0 0.0038105181982394133 0.0 0.0
-0.0012102816656305365 0.0005185209025283103 0.0 0.003811600693525378 0.0 0.0
-0.0010989670423858383 0.00046997743543036223 0.0 0.0038115353608539314 0.0 0.0
-0.0009882653791907663 0.0004225690304336193 0.0 0.003811254198782115 0.0 0.0
-0.0008795644325749117 0.00037790650367480294 0.0 0.003811776209101457 0.0 0.0
-0.0007783523287888579 0.0003416170776897563 0.0 0.0038151686835498346 0.0 0.0
-0.0006971752593755029 0.00032547858548041944 0.0 0.003826312450615487 0.0 0.0
-0.0006559218402129998 0.00034643652714105345 0.0 0.003858937566703805 0.0 0.0
-0.0006630985852038016 0.00040636386747230945 0.0 0.003951126935490349 0.0 0.0
-0.000653026914856775 0.00041915450323766224 0.0 0.0041587033179722975 0.0 0.0
-0.00042188394661488225 9.184154173159977e-05 0.0 0.004348040539258648 0.0 0.0
0.00016350515239353989 -0.0009742655628934181 0.0 0.003518354686776629 0.0 0.0
0.0005427916504764102 -0.0022280381047751936 0.0 0.002161383510897825 0.0 0.0
0.0003984412913480087 -0.0017059846757258336 0.0 -0.0019260133659704686 0.0 0.0
4.833144912163882e-05 -0.000827573644537658 0.0 -0.003259091111510434 0.0 0.0
-0.0005565223887368617 0.0001295458398880501 0.0 -0.004211577866279196 0.0 0.0
-0.0009122507034444603 0.0005074202958532814 0.0 -0.004125261038572556 0.0 0.0
-0.0010686759744873385 0.0005698639514910809 0.0 -0.003912126477019386 0.0 0.0
-0.0011936528798215723 0.0005730762243151257 0.0 -0.0037826946766648167 0.0 0.0
-0.0013540578976757092 0.0006055796770224572 0.0 -0.003723865088471754 0.0 0.0
-0.0015484576056416482 0.0006711936263333495 0.0 -0.0037009451548345963 0.0 0.0
-0.001760738055592577 0.0007554766334330851 0.0 -0.0036937392064965192 0.0 0.0
-0.001979761866679513 0.000847542340434662 0.0 -0.003692595750898014 0.0 0.0
-0.002200554969797735 0.0009421401412868084 0.0 -0.0036931440110329365 0.0 0.0
-0.0024218573338873946 0.0010377683674535553 0.0 -0.0036933243373975903 0.0 0.0
-0.0026446783051691557 0.0011353452274686082 0.0 -0.0036913948070423025 0.0 0.0
-0.0028721473853111704 0.001237851243944999 0.0 -0.0036845965744506954 0.0 0.0
-0.003110073604145869 0.0013499032202817663 0.0 -0.003669081234501335 0.0 0.0
-0.0033672077956818673 0.0014760763375145213 0.0 -0.003644028463758322 0.0 0.0
-0.003643686774009461 0.0016108711653867605 0.0 -0.0036351337378194787 0.0 0.0
-0.0038679348999073734 0.0016801089584866965 0.0 -0.0037365244754305462 0.0 0.0
-0.0037930467419491198 0.0013895820120996332 0.0 -0.003943195694501279 0.0 0.0
-0.0032136848103737525 0.00023660702719596765 0.0 -0.0033027010329303554 0.0 0.0
-0.0027916195314745687 -0.001187625851225447 0.0 -4.466912950640278e-17 0.0 0.0
-0.003213684810373749 0.0002366070271955277 0.0 0.0033027010329301837 0.0 0.0
-0.003793046741949085 0.0013895820121002454 0.0 0.003943195694501365 0.0 0.0
-0.0038679348999073127 0.0016801089584859298 0.0 0.003736524475430351 0.0 0.0
-0.0036436867740094643 0.0016108711653873198 0.0 0.0036351337378193868 0.0 0.0
-0.003367207795681851 0.0014760763375152564 0.0 0.0036440284637583448 0.0 0.0
-0.0031100736041458138 0.001349903220281617 0.0 0.0036690812345013873 0.0 0.0
-0.0028721473853111157 0.0012378512439449308 0.0 0.0036845965744508697 0.0 0.0
-0.002644678305169149 0.0011353452274686187 0.0 0.003691394807042268 0.0 0.0
-0.002421857333887422 0.0010377683674538001 0.0 0.003693324337397521 0.0 0.0
-0.0022005549697977213 0.0009421401412868817 0.0 0.003693144011032939 0.0 0.0
-0.0019797618666795107 0.0008475423404346852 0.0 0.003692595750898144 0.0 0.0
-0.0017607380555926034 0.0007554766334327394 0.0 0.003693739206496396 0.0 0.0
-0.0015484576056416849 0.0006711936263330063 0.0 0.0037009451548344176 0.0 0.0
-0.0013540578976757246 0.0006055796770221187 0.0 0.0037238650884717063 0.0 0.0
-0.0011936528798215309 0.000573076224315203 0.0 0.0037826946766647126 0.0 0.0
-0.0010686759744873372 0.0005698639514911363 0.0 0.003912126477019434 0.0 0.0
-0.0009122507034444774 0.0005074202958532467 0.0 0.004125261038572536 0.0 0.0
-0.0005565223887368521 0.00012954583988798122 0.0 0.004211577866279152 0.0 0.0
4.833144912164027e-05 -0.0008275736445375782 0.0 0.003259091111510509 0.0 0.0
0.00039844129134802944 -0.0017059846757258705 0.0 0.001926013365970243 0.0 0.0
0.0002621768975595441 -0.001249303386406145 0.0 -0.0016886661181738463 0.0 0.0
-6.69560318001007e-05 -0.0006703440810157955 0.0 -0.002960423312553965 0.0 0.0
-0.0006936546909338236 0.00018296002888419454 0.0 -0.00397950416100151 0.0 0.0
-0.001164049916784902 0.0005937512136359044 0.0 -0.0039830739450620635 0.0 0.0
-0.0014639926914557237 0.0007256607429684839 0.0 -0.003775541666087885 0.0 0.0
-0.001724860548732258 0.0007945029030897969 0.0 -0.003619595513284634 0.0 0.0
-0.00200835876176247 0.0008835588095702472 0.0 -0.0035398396566276393 0.0 0.0
-0.0023179812405574518 0.0010002171500712686 0.0 -0.003507209563382686 0.0 0.0
-0.0026419819363642186 0.0011330335509957595 0.0 -0.0034969147910864085 0.0 0.0
-0.0029714430367248712 0.0012726245882646794 0.0 -0.003495333449329129 0.0 0.0
-0.0033022961207409005 0.0014144012884958277 0.0 -0.00349615360281918 0.0 0.0
-0.003633509996359462 0.0015570539052330004 0.0 -0.003496472292224931 0.0 0.0
-0.00396588849935602 0.0017013530175516356 0.0 -0.003493914977104472 0.0 0.0
-0.004301978047859944 0.0018498882208675756 0.0 -0.0034845971281451424 0.0 0.0
-0.004646485299823889 0.0020066863822451294 0.0 -0.0034628288159527882 0.0 0.0
-0.005007796974639355 0.0021757286931634464 0.0 -0.0034245731380897143 0.0 0.0
-0.005394506905649725 0.002357728836625441 0.0 -0.0033904980075292637 0.0 0.0
-0.005753364199740729 0.0025026352362095034 0.0 -0.0034879772193635206 0.0 0.0
-0.005800749213569192 0.0023030344557113795 0.0 -0.003870706053057337 0.0 0.0
-0.005188122908104941 0.001028944196892259 0.0 -0.003588975743092532 0.0 0.0
-0.004686474460855675 -0.0008933984009617695 0.0 -7.643625316022806e-17 0.0 0.0
-0.005188122908104928 0.001028944196892229 0.0 0.003588975743092638 0.0 0.0
-0.005800749213569201 0.0023030344557105394 0.0 0.003870706053057539 0.0 0.0
-0.005753364199740757 0.0025026352362094726 0.0 0.0034879772193633024 0.0 0.0
-0.005394506905649697 0.0023577288366253327 0.0 0.0033904980075293908 0.0 0.0
-0.005007796974639358 0.002175728693163426 0.0 0.003424573138089868 0.0 0.0
-0.004646485299823902 0.0020066863822454117 0.0 0.003462828815952601 0.0 0.0
-0.004301978047859885 0.0018498882208674667 0.0 0.003484597128145003 0.0 0.0
-0.003965888499355985 0.0017013530175519894 0.0 0.00349391497710445 0.0 0.0
-0.0036335099963595054 0.001557053905232838 0.0 0.003496472292225024 0.0 0.0
-0.003302296120740935 0.001414401288495583 0.0 0.003496153602819225 0.0 0.0
-0.00297144303672489 0.0012726245882645512 0.0 0.0034953334493292576 0.0 0.0
-0.002641981936364182 0.0011330335509955375 0.0 0.003496914791086353 0.0 0.0
-0.0023179812405574336 0.0010002171500712667 0.0 0.0035072095633828177 0.0 0.0
-0.0020083587617624747 0.0008835588095700247 0.0 0.00353983965662775 0.0 0.0
-0.0017248605487322748 0.000794502903089724 0.0 0.0036195955132847573 0.0 0.0
-0.001463992691455756 0.0007256607429683268 0.0 0.0037755416660876584 0.0 0.0
-0.0011640499167849237 0.0005937512136357144 0.0 0.003983073945061939 0.0 0.0
-0.0006936546909338286 0.0001829600288842225 0.0 0.003979504161001427 0.0 0.0
-6.695603180009351e-05 -0.0006703440810158142 0.0 0.0029604233125539417 0.0 0.0
0.0002621768975595294 -0.0012493033864061803 0.0 0.0016886661181738601 0.0 0.0
0.00013647089674820846 -0.0008577770141446552 0.0 -0.0014447926969318554 0.0 0.0
-0.00017968159816063312 -0.00051007218373737 0.0 -0.002623675258620123 0.0 0.0
-0.0008324960699592958 0.00024905919524807226 0.0 -0.0036591917168518 0.0 0.0
-0.001410672305722009 0.0006798371285000494 0.0 -0.0037335982131529184 0.0 0.0
-0.001851807610892246 0.0008760766005298135 0.0 -0.003538152888646875 0.0 0.0
-0.0022512535444328525 0.0010120523681387164 0.0 -0.003366703320228004 0.0 0.0
-0.002660818269169881 0.0011599582954140754 0.0 -0.0032729033897680353 0.0 0.0
-0.003087179050234922 0.0013288746642784815 0.0 -0.0032335975837083906 0.0 0.0
-0.003523360966039839 0.0015106249548037143 0.0 -0.0032212788833570222 0.0 0.0
-0.0039633078141686024 0.0016978133568543354 0.0 -0.0032195091243948995 0.0 0.0
-0.00440417826467427 0.001886750510150732 0.0 -0.0032205947212425447 0.0 0.0
-0.004845252217804462 0.0020763837662728904 0.0 -0.0032210687886885993 0.0 0.0
-0.005287058044583785 0.0022673008012736727 0.0 -0.0032181655087993384 0.0 0.0
-0.005731376390853989 0.002461526272082256 0.0 -0.0032072044697940205 0.0 0.0
-0.006181483466483492 0.0026624429376842923 0.0 -0.0031808723508716143 0.0 0.0
-0.006643643465997414 0.0028726494176042634 0.0 -0.003133016853650846 0.0 0.0
-0.00713345685237962 0.0030958367367899774 0.0 -0.0030742630927652827 0.0 0.0
-0.0076302024837298105 0.003316724663019092 0.0 -0.003140172732648277 0.0 0.0
-0.007834596990857597 0.0032539732593725185 0.0 -0.003679005217599088 0.0 0.0
-0.007201328226703708 0.0019019248890347956 0.0 -0.0038911715983256396 0.0 0.0
-0.006605752022284963 -0.000716028352814846 0.0 7.32920668600201e-17 0.0 0.0
-0.007201328226703666 0.0019019248890349326 0.0 0.0038911715983258495 0.0 0.0
-0.0078345969908576 0.0032539732593720927 0.0 0.0036790052175989614 0.0 0.0
-0.007630202483729863 0.00331672466301894 0.0 0.0031401727326482655 0.0 0.0
-0.007133456852379554 0.0030958367367899912 0.0 0.0030742630927653525 0.0 0.0
-0.006643643465997402 0.002872649417603407 0.0 0.003133016853651122 0.0 0.0
-0.006181483466483554 0.0026624429376843547 0.0 0.003180872350871594 0.0 0.0
-0.005731376390853979 0.0024615262720814424 0.0 0.0032072044697938687 0.0 0.0
-0.005287058044583768 0.0022673008012741736 0.0 0.003218165508798946 0.0 0.0
-0.004845252217804451 0.00207638376627291 0.0 0.0032210687886884072 0.0 0.0
-0.004404178264674281 0.0018867505101508634 0.0 0.003220594721242237 0.0 0.0
-0.003963307814168598 0.001697813356854277 0.0 0.003219509124394951 0.0 0.0
-0.0035233609660397965 0.0015106249548037828 0.0 0.0032212788833571133 0.0 0.0
-0.003087179050234891 0.0013288746642784984 0.0 0.0032335975837084244 0.0 0.0
-0.002660818269169891 0.0011599582954136892 0.0 0.003272903389767951 0.0 0.0
-0.0022512535444328507 0.0010120523681384898 0.0 0.0033667033202281122 0.0 0.0
-0.001851807610892247 0.0008760766005298461 0.0 0.0035381528886467657 0.0 0.0
-0.0014106723057220535 0.0006798371284999623 0.0 0.0037335982131529834 0.0 0.0
-0.0008324960699592918 0.00024905919524807616 0.0 0.003659191716851723 0.0 0.0
-0.00017968159816059837 -0.0005100721837374466 0.0 0.0026236752586199603 0.0 0.0
0.00013647089674822686 -0.0008577770141446643 0.0 0.0014447926969320438 0.0 0.0
2.436663600506918e-05 -0.0005332918952015776 0.0 -0.001192135783189161 0.0 0.0
-0.0002862618886384108 -0.0003529081619207847 0.0 -0.0022503454071015764 0.0 0.0
-0.0009707660232951185 0.00032369027753524464 0.0 -0.0032555874936562334 0.0 0.0
-0.001653217083651892 0.0007662353839719071 0.0 -0.003377258685560925 0.0 0.0
-0.0022347544994857616 0.0010233673162086609 0.0 -0.003197401514753289 0.0 0.0
-0.0027748623895142367 0.0012273632252538483 0.0 -0.0030218867839177416 0.0 0.0
-0.003312426752653581 0.00143552167718027 0.0 -0.0029221356729668274 0.0 0.0
-0.003856403820667838 0.0016574224047103516 0.0 -0.0028799105786842453 0.0 0.0
-0.004404957988563881 0.0018883091918090755 0.0 -0.0028668661957615346 0.0 0.0
-0.004955349820019643 0.0021231009989445496 0.0 -0.0028651774955230198 0.0 0.0
-0.005506181968016792 0.0023591727812670308 0.0 -0.002866490260689228 0.0 0.0
-0.006057093637391954 0.0025957603441118583 0.0 -0.0028671229707688583 0.0 0.0
-0.006608291759669622 0.0028332672641011645 0.0 -0.0028641620996093316 0.0 0.0
-0.007160588296146873 0.0030729791250917135 0.0 -0.0028526734411007393 0.0 0.0
-0.007715724695661733 0.0033174944672352226 0.0 -0.002823908205231754 0.0 0.0
-0.008276264998645404 0.0035682687483147993 0.0 -0.0027707190285995715 0.0 0.0
-0.00885914691078755 0.0038256498360948517 0.0 -0.0026950717387029003 0.0 0.0
-0.009488625813764995 0.004111493306207864 0.0 -0.002700890345163464 0.0 0.0
-0.009892896690380562 0.004236123593613419 0.0 -0.003327678782474363 0.0 0.0
-0.00926969983895684 0.0029009025186904737 0.0 -0.0041855046532892695 0.0 0.0
-0.008570807233772078 -0.0006913607595922832 0.0 1.4994516045474526e-16 0.0 0.0
-0.009269699838956896 0.0029009025186905496 0.0 0.004185504653289288 0.0 0.0
-0.009892896690380565 0.004236123593613777 0.0 0.003327678782474301 0.0 0.0
-0.009488625813764999 0.004111493306207778 0.0 0.0027008903451637015 0.0 0.0
-0.008859146910787536 0.0038256498360949073 0.0 0.002695071738702867 0.0 0.0
-0.008276264998645413 0.003568268748314788 0.0 0.0027707190285995715 0.0 0.0
-0.007715724695661711 0.003317494467234888 0.0 0.0028239082052317396 0.0 0.0
-0.007160588296146832 0.0030729791250904736 0.0 0.002852673441100724 0.0 0.0
-0.006608291759669623 0.002833267264100812 0.0 0.0028641620996093346 0.0 0.0
-0.006057093637391943 0.0025957603441115924 0.0 0.002867122970768939 0.0 0.0
-0.00550618196801681 0.002359172781267817 0.0 0.0028664902606893973 0.0 0.0
-0.0049553498200196515 0.002123100998944445 0.0 0.002865177495522981 0.0 0.0
-0.004404957988563878 0.0018883091918092954 0.0 0.0028668661957617528 0.0 0.0
-0.0038564038206678614 0.0016574224047101428 0.0 0.0028799105786841478 0.0 0.0
-0.0033124267526535916 0.001435521677180209 0.0 0.0029221356729666782 0.0 0.0
-0.0027748623895142476 0.0012273632252538928 0.0 0.0030218867839177416 0.0 0.0
-0.0022347544994857703 0.0010233673162088769 0.0 0.0031974015147531857 0.0 0.0
-0.0016532170836519142 0.0007662353839719872 0.0 0.0033772586855609866 0.0 0.0
-0.0009707660232951393 0.00032369027753510797 0.0 0.003255587493656237 0.0 0.0
-0.00028626188863837247 -0.0003529081619207354 0.0 0.0022503454071015386 0.0 0.0
2.436663600510415e-05 -0.0005332918952015973 0.0 0.0011921357831891177 0.0 0.0
-7.015403119001195e-05 -0.00027919697547772713 0.0 -0.000932182984018491 0.0 0.0
-0.00038175429056663997 -0.00020448198156700336 0.0 -0.001843008367712392 0.0 0.0
-0.0011045467374126477 0.0004014593086793257 0.0 -0.0027705952615491164 0.0 0.0
-0.001891932157464905 0.0008527849267774216 0.0 -0.0029124490099451416 0.0 0.0
-0.002615519897930897 0.0011698831814252043 0.0 -0.0027511139162521812 0.0 0.0
-0.0032980011919938926 0.0014423098578788365 0.0 -0.00258390342912736 0.0 0.0
-0.003964355137112737 0.001711131927267106 0.0 -0.002487139745387306 0.0 0.0
-0.0046260716166894 0.0019861609572059055 0.0 -0.0024461709983595935 0.0 0.0
-0.005286860815207306 0.0022661450660677626 0.0 -0.0024337831488376975 0.0 0.0
-0.00594755205725902 0.002548470979739013 0.0 -0.002432407732630551 0.0 0.0
-0.006608279763624365 0.0028316456933248422 0.0 -0.0024338530590435874 0.0 0.0
-0.007269035473904617 0.00311518698912914 0.0 -0.0024346186140804253 0.0 0.0
-0.007929706182931887 0.003399310456972727 0.0 -0.00243187673448693 0.0 0.0
-0.008589937253072477 0.0036845766333815835 0.0 -0.0024209786415045585 0.0 0.0
-0.009249801452128198 0.003972116681108346 0.0 -0.0023927883312061943 0.0 0.0
-0.009908012228029863 0.004263947949439141 0.0 -0.002337735885119108 0.0 0.0
-0.010572715159789508 0.0045512901042547285 0.0 -0.0022602359863013763 0.0 0.0
-0.01131439012840067 0.004873915054531408 0.0 -0.0021962485260110247 0.0 0.0
-0.011964042552442126 0.005225387511206456 0.0 -0.002771387488795004 0.0 0.0
-0.011413153446553415 0.004091026701800854 0.0 -0.004406516110678984 0.0 0.0
-0.010617870259520537 -0.000862197982382344 0.0 -5.616167253474913e-17 0.0 0.0
-0.011413153446553468 0.004091026701801047 0.0 0.004406516110679071 0.0 0.0
-0.011964042552442029 0.005225387511206111 0.0 0.0027713874887952037 0.0 0.0
-0.011314390128400667 0.00487391505453191 0.0 0.0021962485260110546 0.0 0.0
-0.010572715159789543 0.0045512901042540545 0.0 0.002260235986301125 0.0 0.0
-0.00990801222802988 0.004263947949439369 0.0 0.0023377358851190437 0.0 0.0
-0.009249801452128175 0.003972116681107801 0.0 0.0023927883312062476 0.0 0.0
-0.008589937253072404 0.003684576633380822 0.0 0.0024209786415044275 0.0 0.0
-0.007929706182931888 0.0033993104569718276 0.0 0.002431876734486899 0.0 0.0
-0.0072690354739045945 0.0031151869891291838 0.0 0.0024346186140804782 0.0 0.0
-0.006608279763624363 0.0028316456933253123 0.0 0.002433853059043968 0.0 0.0
-0.005947552057259076 0.0025484709797392842 0.0 0.0024324077326305046 0.0 0.0
-0.005286860815207383 0.0022661450660677014 0.0 0.0024337831488377773 0.0 0.0
-0.004626071616689434 0.001986160957205943 0.0 0.0024461709983593155 0.0 0.0
-0.003964355137112715 0.0017111319272670917 0.0 0.002487139745387361 0.0 0.0
-0.003298001191993859 0.0014423098578788414 0.0 0.0025839034291274127 0.0 0.0
-0.0026155198979308687 0.0011698831814251946 0.0 0.0027511139162518833 0.0 0.0
-0.0018919321574649055 0.0008527849267774451 0.0 0.002912449009945214 0.0 0.0
-0.0011045467374126634 0.00040145930867934706 0.0 0.0027705952615492036 0.0 0.0
-0.000381754290566618 -0.00020448198156689727 0.0 0.0018430083677124852 0.0 0.0
-7.015403118993061e-05 -0.00027919697547777137 0.0 0.0009321829840185188 0.0 0.0
-0.00014144187482418593 -9.945256255103747e-05 0.0 -0.0006728277097700568 0.0 0.0
-0.00045896956483758864 -7.113588437277251e-05 0.0 -0.0014061791520280783 0.0 0.0
-0.0012279252067024643 0.00047538376214308075 0.0 -0.0022014841568629645 0.0 0.0
-0.002126647639707646 0.0009392216525033895 0.0 -0.002334671493904587 0.0 0.0
-0.0029971334681861837 0.001318312530173946 0.0 -0.0021975348763531187 0.0 0.0
-0.0038232412709356704 0.0016589322107320376 0.0 -0.0020524833309524047 0.0 0.0
-0.004617877642086249 0.001987744706289695 0.0 -0.0019681271564392137 0.0 0.0
-0.005396619591667296 0.0023154016645125677 0.0 -0.0019326621650943136 0.0 0.0
-0.006169145093836556 0.0026441778302932254 0.0 -0.001922214663030383 0.0 0.0
-0.006939881418327975 0.002973896533340191 0.0 -0.0019212772681964341 0.0 0.0
-0.007710432550417666 0.0033041317044486223 0.0 -0.001922697187066392 0.0 0.0
-0.008481075465134194 0.0036346775363467563 0.0 -0.0019234762134333022 0.0 0.0
-0.009251384401581693 0.0039654527147760426 0.0 -0.0019213054618441693 0.0 0.0
-0.01001987916073579 0.004296654675839265 0.0 -0.0019117334212693912 0.0 0.0
-0.010784195816796887 0.004627028103319796 0.0 -0.0018880530421519627 0.0 0.0
-0.011541243184368609 0.004959420311526887 0.0 -0.001835224022153068 0.0 0.0
-0.012280521005690192 0.005281943905990511 0.0 -0.0017668611844904802 0.0 0.0
-0.01309087631311619 0.005596720722984804 0.0 -0.0016786506660391783 0.0 0.0
-0.014016238965019263 0.0061615829919767495 0.0 -0.0019902944808579868 0.0 0.0
-0.013653843126229595 0.005561542755305783 0.0 -0.004388887531878945 0.0 0.0
-0.012813403294662639 -0.0012665845952225783 0.0 -2.2139408362154e-16 0.0 0.0
-0.013653843126229616 0.0055615427553057425 0.0 0.004388887531878962 0.0 0.0
-0.014016238965019249 0.0061615829919767435 0.0 0.0019902944808580635 0.0 0.0
-0.013090876313116215 0.005596720722985245 0.0 0.0016786506660391048 0.0 0.0
-0.012280521005690232 0.005281943905990549 0.0 0.0017668611844903264 0.0 0.0
-0.011541243184368612 0.004959420311527435 0.0 0.0018352240221528471 0.0 0.0
-0.010784195816796818 0.004627028103318588 0.0 0.0018880530421519432 0.0 0.0
-0.010019879160735757 0.004296654675838865 0.0 0.0019117334212691035 0.0 0.0
-0.009251384401581669 0.003965452714775599 0.0 0.001921305461844174 0.0 0.0
-0.008481075465134153 0.003634677536346948 0.0 0.0019234762134333842 0.0 0.0
-0.007710432550417704 0.0033041317044488704 0.0 0.001922697187066533 0.0 0.0
-0.006939881418328006 0.002973896533340164 0.0 0.001921277268196287 0.0 0.0
-0.0061691450938365705 0.002644177830292952 0.0 0.001922214663030589 0.0 0.0
-0.005396619591667249 0.0023154016645124 0.0 0.0019326621650943886 0.0 0.0
-0.004617877642086219 0.0019877447062895794 0.0 0.0019681271564390146 0.0 0.0
-0.003823241270935641 0.0016589322107317134 0.0 0.002052483330952457 0.0 0.0
-0.0029971334681861703 0.0013183125301739979 0.0 0.002197534876352894 0.0 0.0
-0.002126647639707664 0.0009392216525035207 0.0 0.0023346714939047565 0.0 0.0
-0.0012279252067024255 0.000475383762143124 0.0 0.0022014841568631306 0.0 0.0
-0.00045896956483755893 -7.113588437272532e-05 0.0 0.001406179152027988 0.0 0.0
-0.0001414418748241708 -9.945256255110643e-05 0.0 0.0006728277097698856 0.0 0.0
-0.00018075315534290127 2.678737805543181e-06 0.0 -0.0004335053532727275 0.0 0.0
-0.0005068679746618267 3.790369223699433e-05 0.0 -0.0009470202882394848 0.0 0.0
-0.0013324776450071073 0.0005364795056962378 0.0 -0.001537352342931789 0.0 0.0
-0.002357517310228257 0.0010262162771219315 0.0 -0.001636255448069745 0.0 0.0
-0.003383329674210708 0.001471887367488907 0.0 -0.0015356945997240757 0.0 0.0
-0.004353358755537149 0.0018793493496570947 0.0 -0.00142838897003449 0.0 0.0
-0.005274291039459368 0.0022663245949426612 0.0 -0.0013659985379818097 0.0 0.0
-0.006168457111793472 0.002645422169448759 0.0 -0.0013399407279562955 0.0 0.0
-0.007051853178969315 0.0030224266752384996 0.0 -0.001332420398943644 0.0 0.0
-0.00793228628930507 0.003399332014839711 0.0 -0.0013318732412495918 0.0 0.0
-0.008812579888596505 0.0037765953579104103 0.0 -0.0013330084433458643 0.0 0.0
-0.00969321994114806 0.004154189853917163 0.0 -0.0013336561629259359 0.0 0.0
-0.0105733523469365 0.0045318710233164606 0.0 -0.0013321110581897399 0.0 0.0
-0.01145087233845013 0.004908998037843306 0.0 -0.001325299801370856 0.0 0.0
-0.012319878641057233 0.005284402720733573 0.0 -0.0013068299812900883 0.0 0.0
-0.013176204379093814 0.0056521643506504795 0.0 -0.0012716253297547957 0.0 0.0
-0.013996220048017882 0.0060256980749237524 0.0 -0.0011954588541926022 0.0 0.0
-0.014809230870106629 0.006304994514840481 0.0 -0.001199155115007367 0.0 0.0
-0.015977288572171327 0.006914299510660717 0.0 -0.0011122536980299627 0.0 0.0
-0.016008255263852935 0.007417268907658495 0.0 -0.0037135019713846317 0.0 0.0
-0.015289245244159849 -0.0018932675972153457 0.0 8.955509944730267e-17 0.0 0.0
-0.016008255263852928 0.007417268907658337 0.0 0.0037135019713847688 0.0 0.0
-0.015977288572171344 0.006914299510661031 0.0 0.0011122536980301542 0.0 0.0
-0.014809230870106632 0.006304994514840819 0.0 0.0011991551150075377 0.0 0.0
-0.013996220048017923 0.006025698074923879 0.0 0.001195458854192623 0.0 0.0
-0.013176204379093864 0.005652164350650189 0.0 0.001271625329754456 0.0 0.0
-0.012319878641057219 0.0052844027207322114 0.0 0.0013068299812902715 0.0 0.0
-0.011450872338450078 0.00490899803784295 0.0 0.0013252998013706186 0.0 0.0
-0.01057335234693648 0.004531871023316461 0.0 0.001332111058189938 0.0 0.0
-0.009693219941148013 0.004154189853917282 0.0 0.0013336561629257713 0.0 0.0
-0.008812579888596564 0.0037765953579099202 0.0 0.0013330084433455624 0.0 0.0
-0.00793228628930515 0.0033993320148398053 0.0 0.0013318732412492848 0.0 0.0
-0.007051853178969289 0.0030224266752379068 0.0 0.0013324203989438245 0.0 0.0
-0.006168457111793505 0.0026454221694488 0.0 0.001339940727956391 0.0 0.0
-0.005274291039459392 0.00226632459494291 0.0 0.0013659985379818236 0.0 0.0
-0.004353358755537122 0.0018793493496567972 0.0 0.0014283889700344372 0.0 0.0
-0.003383329674210715 0.0014718873674889725 0.0 0.0015356945997242106 0.0 0.0
-0.002357517310228304 0.0010262162771220908 0.0 0.0016362554480696965 0.0 0.0
-0.0013324776450071684 0.0005364795056961387 0.0 0.0015373523429318726 0.0 0.0
-0.000506867974661847 3.7903692237034024e-05 0.0 0.0009470202882394248 0.0 0.0
-0.00018075315534288642 2.678737805502629e-06 0.0 0.00043350535327252277 0.0 0.0
-0.00017337053233216945 2.6859602519275508e-05 0.0 -0.0002553307803732448 0.0 0.0
-0.0005076436803513923 0.00010628131285599174 0.0 -0.00047549339486977556 0.0 0.0
-0.0014067887972175988 0.0005737798938861161 0.0 -0.0007514309475860562 0.0 0.0
-0.0025863686601202986 0.001117194942060377 0.0 -0.00080850100753117 0.0 0.0
-0.003778838675587483 0.0016342102758035225 0.0 -0.0007654343888866561 0.0 0.0
-0.004891237110609607 0.0021057615510689043 0.0 -0.0007136639013416358 0.0 0.0
-0.005934837137934353 0.0025477451043771143 0.0 -0.0006823609909806176 0.0 0.0
-0.006941906565485007 0.0029764252303461584 0.0 -0.0006688315916315477 0.0 0.0
-0.00793497619074919 0.003400868409133671 0.0 -0.0006647211788924346 0.0 0.0
-0.00892468543357136 0.003824714631390477 0.0 -0.0006642779599804486 0.0 0.0
-0.00991466158888597 0.004248982461836156 0.0 -0.0006647695944279753 0.0 0.0
-0.010905401786257086 0.004673713249123011 0.0 -0.0006650408957905209 0.0 0.0
-0.011895813844887465 0.0050985132964225036 0.0 -0.0006641490784638924 0.0 0.0
-0.012882671137932181 0.005522272322952089 0.0 -0.0006606567120533715 0.0 0.0
-0.013859642785007315 0.00594263029748775 0.0 -0.0006509881666841684 0.0 0.0
-0.014809925098029354 0.006353714073347961 0.0 -0.0006335220811776003 0.0 0.0
-0.015733194591890192 0.006746569471473387 0.0 -0.0006013000112552443 0.0 0.0
-0.016502507749107113 0.007134782702396441 0.0 -0.0005589785609045688 0.0 0.0
-0.017696363140511186 0.007227084159506044 0.0 -0.0008815930887481676 0.0 0.0
-0.01845496848417362 0.009708985220973746 0.0 -0.0012582489648196092 0.0 0.0
-0.018331027373600293 -0.002526497473475423 0.0 -6.895525817007808e-17 0.0 0.0
-0.018454968484173575 0.009708985220973361 0.0 0.0012582489648196307 0.0 0.0
-0.017696363140511203 0.007227084159506321 0.0 0.0008815930887481047 0.0 0.0
-0.01650250774910715 0.007134782702397088 0.0 0.0005589785609045198 0.0 0.0
-0.015733194591890237 0.006746569471473003 0.0 0.0006013000112552044 0.0 0.0
-0.014809925098029308 0.006353714073347146 0.0 0.0006335220811776439 0.0 0.0
-0.013859642785007316 0.005942630297487651 0.0 0.0006509881666846794 0.0 0.0
-0.012882671137932213 0.005522272322951139 0.0 0.0006606567120533841 0.0 0.0
-0.011895813844887424 0.005098513296421933 0.0 0.000664149078464147 0.0 0.0
-0.010905401786257077 0.004673713249122984 0.0 0.0006650408957906691 0.0 0.0
-0.009914661588885937 0.0042489824618360495 0.0 0.0006647695944280837 0.0 0.0
-0.008924685433571371 0.0038247146313910426 0.0 0.0006642779599806761 0.0 0.0
-0.007934976190749234 0.0034008684091336554 0.0 0.0006647211788926127 0.0 0.0
-0.006941906565484991 0.002976425230346329 0.0 0.000668831591631567 0.0 0.0
-0.005934837137934346 0.002547745104377291 0.0 0.0006823609909805841 0.0 0.0
-0.004891237110609619 0.0021057615510688722 0.0 0.0007136639013416213 0.0 0.0
-0.0037788386755874953 0.0016342102758034566 0.0 0.0007654343888867916 0.0 0.0
-0.0025863686601203225 0.001117194942060262 0.0 0.0008085010075312309 0.0 0.0
-0.0014067887972176267 0.0005737798938860745 0.0 0.0007514309475860374 0.0 0.0
-0.0005076436803513879 0.00010628131285601001 0.0 0.000475493394869822 0.0 0.0
-0.00017337053233215595 2.6859602519269793e-05 0.0 0.00025533078037328526 0.0 0.0
-9.267672299357514e-05 1.9691814979011616e-05 0.0 -0.00017110212578519982 0.0 0.0
-0.00043120900603829746 0.00012763746743441325 0.0 -0.00020096529070837225 0.0 0.0
-0.001436637813666612 0.0005849997352309718 0.0 -0.0002557577067523977 0.0 0.0
-0.0028191419239225147 0.0011643533022292249 0.0 -0.00028516069743252505 0.0 0.0
-0.004189166550035087 0.0017180169586147665 0.0 -0.00028298874736034524 0.0 0.0
-0.0054398586337859635 0.0022207495876892863 0.0 -0.0002698202737082945 0.0 0.0
-0.006600578209145672 0.002689264660540683 0.0 -0.0002597572447650302 0.0 0.0
-0.007717150591327607 0.003142192089984267 0.0 -0.000254565498882396 0.0 0.0
-0.00881843252169151 0.003590131210955033 0.0 -0.00025257698675535333 0.0 0.0
-0.009916971243831523 0.00403738446848824 0.0 -0.0002520765850768036 0.0 0.0
-0.011016590197632965 0.0044851462318036515 0.0 -0.00025205814809231867 0.0 0.0
-0.012117594107259119 0.004933488192382833 0.0 -0.0002520180273849566 0.0 0.0
-0.013218666665048506 0.005381834271309586 0.0 -0.0002515039324369078 0.0 0.0
-0.014316102683860948 0.005829396742384151 0.0 -0.0002501199122753267 0.0 0.0
-0.015401597250594732 0.006271156072517572 0.0 -0.00024678664504033617 0.0 0.0
-0.0164566264464273 0.006710004183615586 0.0 -0.00024033774928719173 0.0 0.0
-0.01744943902530304 0.0070917484230209465 0.0 -0.0002468919308206718 0.0 0.0
-0.018347001821383113 0.007607644237971049 0.0 -0.00016798477853106376 0.0 0.0
-0.01888178244244351 0.0072314528426863645 0.0 -0.0008248301365205431 0.0 0.0
-0.020811015279628732 0.010963073451489471 0.0 -3.713428653197813e-06 0.0 0.0
-0.022626885400813347 -0.002797477232343256 0.0 -8.326672684688674e-17 0.0 0.0
-0.020811015279628742 0.010963073451488784 0.0 3.7134286532854166e-06 0.0 0.0
-0.018881782442443526 0.007231452842686972 0.0 0.0008248301365204305 0.0 0.0
-0.01834700182138308 0.007607644237971696 0.0 0.00016798477853112968 0.0 0.0
-0.01744943902530307 0.007091748423020485 0.0 0.0002468919308205254 0.0 0.0
-0.016456626446427307 0.006710004183615505 0.0 0.00024033774928718782 0.0 0.0
-0.01540159725059483 0.006271156072518291 0.0 0.0002467866450404012 0.0 0.0
-0.014316102683861054 0.005829396742382977 0.0 0.0002501199122749828 0.0 0.0
-0.01321866666504843 0.005381834271308592 0.0 0.0002515039324369403 0.0 0.0
-0.012117594107259088 0.004933488192382728 0.0 0.00025201802738509973 0.0 0.0
-0.011016590197632894 0.004485146231804562 0.0 0.0002520581480923386 0.0 0.0
-0.009916971243831403 0.00403738446848841 0.0 0.00025207658507670925 0.0 0.0
-0.008818432521691524 0.003590131210955821 0.0 0.0002525769867553992 0.0 0.0
-0.0077171505913276525 0.003142192089984395 0.0 0.00025456549888245336 0.0 0.0
-0.006600578209145634 0.0026892646605405734 0.0 0.00025975724476499506 0.0 0.0
-0.005439858633785891 0.0022207495876895873 0.0 0.00026982027370844267 0.0 0.0
-0.004189166550035049 0.0017180169586146793 0.0 0.00028298874736025926 0.0 0.0
-0.002819141923922518 0.0011643533022289735 0.0 0.00028516069743259476 0.0 0.0
-0.0014366378136666904 0.0005849997352310365 0.0 0.00025575770675203115 0.0 0.0
-0.00043120900603833097 0.0001276374674344021 0.0 0.00020096529070827196 0.0 0.0
-9.2676722993524e-05 1.969181497898514e-05 0.0 0.0001711021257851988 0.0 0.0