# vtk DataFile Version 3.0
Some data
ASCII
DATASET UNSTRUCTURED_GRID
POINTS 861 float
0.0 0.0 0.0
0.4 0.0 0.0
0.8 0.0 0.0
1.2000000000000002 0.0 0.0
1.6 0.0 0.0
2.0 0.0 0.0
2.4000000000000004 0.0 0.0
2.8000000000000003 0.0 0.0
3.2 0.0 0.0
3.6 0.0 0.0
4.0 0.0 0.0
4.4 0.0 0.0
4.800000000000001 0.0 0.0
5.2 0.0 0.0
5.6000000000000005 0.0 0.0
6.0 0.0 0.0
6.4 0.0 0.0
6.800000000000001 0.0 0.0
7.2 0.0 0.0
7.6000000000000005 0.0 0.0
8.0 0.0 0.0
8.4 0.0 0.0
8.8 0.0 0.0
9.200000000000001 0.0 0.0
9.600000000000001 0.0 0.0
10.0 0.0 0.0
10.4 0.0 0.0
10.8 0.0 0.0
11.200000000000001 0.0 0.0
11.600000000000001 0.0 0.0
12.0 0.0 0.0
12.4 0.0 0.0
12.8 0.0 0.0
13.200000000000001 0.0 0.0
13.600000000000001 0.0 0.0
14.0 0.0 0.0
14.4 0.0 0.0
14.8 0.0 0.0
15.200000000000001 0.0 0.0
15.600000000000001 0.0 0.0
16.0 0.0 0.0
0.0 0.1 0.0
0.4 0.1 0.0
0.8 0.1 0.0
1.2000000000000002 0.1 0.0
1.6 0.1 0.0
2.0 0.1 0.0
2.4000000000000004 0.1 0.0
2.8000000000000003 0.1 0.0
3.2 0.1 0.0
3.6 0.1 0.0
4.0 0.1 0.0
4.4 0.1 0.0
4.800000000000001 0.1 0.0
5.2 0.1 0.0
5.6000000000000005 0.1 0.0
6.0 0.1 0.0
6.4 0.1 0.0
6.800000000000001 0.1 0.0
7.2 0.1 0.0
7.6000000000000005 0.1 0.0
8.0 0.1 0.0
8.4 0.1 0.0
8.8 0.1 0.0
9.200000000000001 0.1 0.0
9.600000000000001 0.1 0.0
10.0 0.1 0.0
10.4 0.1 0.0
10.8 0.1 0.0
11.200000000000001 0.1 0.0
11.600000000000001 0.1 0.0
12.0 0.1 0.0
12.4 0.1 0.0
12.8 0.1 0.0
13.200000000000001 0.1 0.0
13.600000000000001 0.1 0.0
14.0 0.1 0.0
14.4 0.1 0.0
14.8 0.1 0.0
15.200000000000001 0.1 0.0
15.600000000000001 0.1 0.0
16.0 0.1 0.0
0.0 0.2 0.0
0.4 0.2 0.0
0.8 0.2 0.0
1.2000000000000002 0.2 0.0
1.6 0.2 0.0
2.0 0.2 0.0
2.4000000000000004 0.2 0.0
2.8000000000000003 0.2 0.0
3.2 0.2 0.0
3.6 0.2 0.0
4.0 0.2 0.0
4.4 0.2 0.0
4.800000000000001 0.2 0.0
5.2 0.2 0.0
5.6000000000000005 0.2 0.0
6.0 0.2 0.0
6.4 0.2 0.0
6.800000000000001 0.2 0.0
7.2 0.2 0.0
7.6000000000000005 0.2 0.0
8.0 0.2 0.0
8.4 0.2 0.0
8.8 0.2 0.0
9.200000000000001 0.2 0.0
9.600000000000001 0.2 0.0
10.0 0.2 0.0
10.4 0.2 0.0
10.8 0.2 0.0
11.200000000000001 0.2 0.0
11.600000000000001 0.2 0.0
12.0 0.2 0.0
12.4 0.2 0.0
12.8 0.2 0.0
13.200000000000001 0.2 0.0
13.600000000000001 0.2 0.0
14.0 0.2 0.0
14.4 0.2 0.0
14.8 0.2 0.0
15.200000000000001 0.2 0.0
15.600000000000001 0.2 0.0
16.0 0.2 0.0
0.0 0.30000000000000004 0.0
0.4 0.30000000000000004 0.0
0.8 0.30000000000000004 0.0
1.2000000000000002 0.30000000000000004 0.0
1.6 0.30000000000000004 0.0
2.0 0.30000000000000004 0.0
2.4000000000000004 0.30000000000000004 0.0
2.8000000000000003 0.30000000000000004 0.0
3.2 0.30000000000000004 0.0
3.6 0.30000000000000004 0.0
4.0 0.30000000000000004 0.0
4.4 0.30000000000000004 0.0
4.800000000000001 0.30000000000000004 0.0
5.2 0.30000000000000004 0.0
5.6000000000000005 0.30000000000000004 0.0
6.0 0.30000000000000004 0.0
6.4 0.30000000000000004 0.0
6.800000000000001 0.30000000000000004 0.0
7.2 0.30000000000000004 0.0
7.6000000000000005 0.30000000000000004 0.0
8.0 0.30000000000000004 0.0
8.4 0.30000000000000004 0.0
8.8 0.30000000000000004 0.0
9.200000000000001 0.30000000000000004 0.0
9.600000000000001 0.30000000000000004 0.0
10.0 0.30000000000000004 0.0
10.4 0.30000000000000004 0.0
10.8 0.30000000000000004 0.0
11.200000000000001 0.30000000000000004 0.0
11.600000000000001 0.30000000000000004 0.0
12.0 0.30000000000000004 0.0
12.4 0.30000000000000004 0.0
12.8 0.30000000000000004 0.0
13.200000000000001 0.30000000000000004 0.0
13.600000000000001 0.30000000000000004 0.0
14.0 0.30000000000000004 0.0
14.4 0.30000000000000004 0.0
14.8 0.30000000000000004 0.0
15.200000000000001 0.30000000000000004 0.0
15.600000000000001 0.30000000000000004 0.0
16.0 0.30000000000000004 0.0
0.0 0.4 0.0
0.4 0.4 0.0
0.8 0.4 0.0
1.2000000000000002 0.4 0.0
1.6 0.4 0.0
2.0 0.4 0.0
2.4000000000000004 0.4 0.0
2.8000000000000003 0.4 0.0
3.2 0.4 0.0
3.6 0.4 0.0
4.0 0.4 0.0
4.4 0.4 0.0
4.800000000000001 0.4 0.0
5.2 0.4 0.0
5.6000000000000005 0.4 0.0
6.0 0.4 0.0
6.4 0.4 0.0
6.800000000000001 0.4 0.0
7.2 0.4 0.0
7.6000000000000005 0.4 0.0
8.0 0.4 0.0
8.4 0.4 0.0
8.8 0.4 0.0
9.200000000000001 0.4 0.0
9.600000000000001 0.4 0.0
10.0 0.4 0.0
10.4 0.4 0.0
10.8 0.4 0.0
11.200000000000001 0.4 0.0
11.600000000000001 0.4 0.0
12.0 0.4 0.0
12.4 0.4 0.0
12.8 0.4 0.0
13.200000000000001 0.4 0.0
13.600000000000001 0.4 0.0
14.0 0.4 0.0
14.4 0.4 0.0
14.8 0.4 0.0
15.200000000000001 0.4 0.0
15.600000000000001 0.4 0.0
16.0 0.4 0.0
0.0 0.5 0.0
0.4 0.5 0.0
0.8 0.5 0.0
1.2000000000000002 0.5 0.0
1.6 0.5 0.0
2.0 0.5 0.0
2.4000000000000004 0.5 0.0
2.8000000000000003 0.5 0.0
3.2 0.5 0.0
3.6 0.5 0.0
4.0 0.5 0.0
4.4 0.5 0.0
4.800000000000001 0.5 0.0
5.2 0.5 0.0
5.6000000000000005 0.5 0.0
6.0 0.5 0.0
6.4 0.5 0.0
6.800000000000001 0.5 0.0
7.2 0.5 0.0
7.6000000000000005 0.5 0.0
8.0 0.5 0.0
8.4 0.5 0.0
8.8 0.5 0.0
9.200000000000001 0.5 0.0
9.600000000000001 0.5 0.0
10.0 0.5 0.0
10.4 0.5 0.0
10.8 0.5 0.0
11.200000000000001 0.5 0.0
11.600000000000001 0.5 0.0
12.0 0.5 0.0
12.4 0.5 0.0
12.8 0.5 0.0
13.200000000000001 0.5 0.0
13.600000000000001 0.5 0.0
14.0 0.5 0.0
14.4 0.5 0.0
14.8 0.5 0.0
15.200000000000001 0.5 0.0
15.600000000000001 0.5 0.0
16.0 0.5 0.0
0.0 0.6000000000000001 0.0
0.4 0.6000000000000001 0.0
0.8 0.6000000000000001 0.0
1.2000000000000002 0.6000000000000001 0.0
1.6 0.6000000000000001 0.0
2.0 0.6000000000000001 0.0
2.4000000000000004 0.6000000000000001 0.0
2.8000000000000003 0.6000000000000001 0.0
3.2 0.6000000000000001 0.0
3.6 0.6000000000000001 0.0
4.0 0.6000000000000001 0.0
4.4 0.6000000000000001 0.0
4.800000000000001 0.6000000000000001 0.0
5.2 0.6000000000000001 0.0
5.6000000000000005 0.6000000000000001 0.0
6.0 0.6000000000000001 0.0
6.4 0.6000000000000001 0.0
6.800000000000001 0.6000000000000001 0.0
7.2 0.6000000000000001 0.0
7.6000000000000005 0.6000000000000001 0.0
8.0 0.6000000000000001 0.0
8.4 0.6000000000000001 0.0
8.8 0.6000000000000001 0.0
9.200000000000001 0.6000000000000001 0.0
9.600000000000001 0.6000000000000001 0.0
10.0 0.6000000000000001 0.0
10.4 0.6000000000000001 0.0
10.8 0.6000000000000001 0.0
11.200000000000001 0.6000000000000001 0.0
11.600000000000001 0.6000000000000001 0.0
12.0 0.6000000000000001 0.0
12.4 0.6000000000000001 0.0
12.8 0.6000000000000001 0.0
13.200000000000001 0.6000000000000001 0.0
13.600000000000001 0.6000000000000001 0.0
14.0 0.6000000000000001 0.0
14.4 0.6000000000000001 0.0
14.8 0.6000000000000001 0.0
15.200000000000001 0.6000000000000001 0.0
15.600000000000001 0.6000000000000001 0.0
16.0 0.6000000000000001 0.0
0.0 0.7000000000000001 0.0
0.4 0.7000000000000001 0.0
0.8 0.7000000000000001 0.0
1.2000000000000002 0.7000000000000001 0.0
1.6 0.7000000000000001 0.0
2.0 0.7000000000000001 0.0
2.4000000000000004 0.7000000000000001 0.0
2.8000000000000003 0.7000000000000001 0.0
3.2 0.7000000000000001 0.0
3.6 0.7000000000000001 0.0
4.0 0.7000000000000001 0.0
4.4 0.7000000000000001 0.0
4.800000000000001 0.7000000000000001 0.0
5.2 0.7000000000000001 0.0
5.6000000000000005 0.7000000000000001 0.0
6.0 0.7000000000000001 0.0
6.4 0.7000000000000001 0.0
6.800000000000001 0.7000000000000001 0.0
7.2 0.7000000000000001 0.0
7.6000000000000005 0.7000000000000001 0.0
8.0 0.7000000000000001 0.0
8.4 0.7000000000000001 0.0
8.8 0.7000000000000001 0.0
9.200000000000001 0.7000000000000001 0.0
9.600000000000001 0.7000000000000001 0.0
10.0 0.7000000000000001 0.0
10.4 0.7000000000000001 0.0
10.8 0.7000000000000001 0.0
11.200000000000001 0.7000000000000001 0.0
11.600000000000001 0.7000000000000001 0.0
12.0 0.7000000000000001 0.0
12.4 0.7000000000000001 0.0
12.8 0.7000000000000001 0.0
13.200000000000001 0.7000000000000001 0.0
13.600000000000001 0.7000000000000001 0.0
14.0 0.7000000000000001 0.0
14.4 0.7000000000000001 0.0
14.8 0.7000000000000001 0.0
15.200000000000001 0.7000000000000001 0.0
15.600000000000001 0.7000000000000001 0.0
16.0 0.7000000000000001 0.0
0.0 0.8 0.0
0.4 0.8 0.0
0.8 0.8 0.0
1.2000000000000002 0.8 0.0
1.6 0.8 0.0
2.0 0.8 0.0
2.4000000000000004 0.8 0.0
2.8000000000000003 0.8 0.0
3.2 0.8 0.0
3.6 0.8 0.0
4.0 0.8 0.0
4.4 0.8 0.0
4.800000000000001 0.8 0.0
5.2 0.8 0.0
5.6000000000000005 0.8 0.0
6.0 0.8 0.0
6.4 0.8 0.0
6.800000000000001 0.8 0.0
7.2 0.8 0.0
7.6000000000000005 0.8 0.0
8.0 0.8 0.0
8.4 0.8 0.0
8.8 0.8 0.0
9.200000000000001 0.8 0.0
9.600000000000001 0.8 0.0
10.0 0.8 0.0
10.4 0.8 0.0
10.8 0.8 0.0
11.200000000000001 0.8 0.0
11.600000000000001 0.8 0.0
12.0 0.8 0.0
12.4 0.8 0.0
12.8 0.8 0.0
13.200000000000001 0.8 0.0
13.600000000000001 0.8 0.0
14.0 0.8 0.0
14.4 0.8 0.0
14.8 0.8 0.0
15.200000000000001 0.8 0.0
15.600000000000001 0.8 0.0
16.0 0.8 0.0
0.0 0.9 0.0
0.4 0.9 0.0
0.8 0.9 0.0
1.2000000000000002 0.9 0.0
1.6 0.9 0.0
2.0 0.9 0.0
2.4000000000000004 0.9 0.0
2.8000000000000003 0.9 0.0
3.2 0.9 0.0
3.6 0.9 0.0
4.0 0.9 0.0
4.4 0.9 0.0
4.800000000000001 0.9 0.0
5.2 0.9 0.0
5.6000000000000005 0.9 0.0
6.0 0.9 0.0
6.4 0.9 0.0
6.800000000000001 0.9 0.0
7.2 0.9 0.0
7.6000000000000005 0.9 0.0
8.0 0.9 0.0
8.4 0.9 0.0
8.8 0.9 0.0
9.200000000000001 0.9 0.0
9.600000000000001 0.9 0.0
10.0 0.9 0.0
10.4 0.9 0.0
10.8 0.9 0.0
11.200000000000001 0.9 0.0
11.600000000000001 0.9 0.0
12.0 0.9 0.0
12.4 0.9 0.0
12.8 0.9 0.0
13.200000000000001 0.9 0.0
13.600000000000001 0.9 0.0
14.0 0.9 0.0
14.4 0.9 0.0
14.8 0.9 0.0
15.200000000000001 0.9 0.0
15.600000000000001 0.9 0.0
16.0 0.9 0.0
0.0 1.0 0.0
0.4 1.0 0.0
0.8 1.0 0.0
1.2000000000000002 1.0 0.0
1.6 1.0 0.0
2.0 1.0 0.0
2.4000000000000004 1.0 0.0
2.8000000000000003 1.0 0.0
3.2 1.0 0.0
3.6 1.0 0.0
4.0 1.0 0.0
4.4 1.0 0.0
4.800000000000001 1.0 0.0
5.2 1.0 0.0
5.6000000000000005 1.0 0.0
6.0 1.0 0.0
6.4 1.0 0.0
6.800000000000001 1.0 0.0
7.2 1.0 0.0
7.6000000000000005 1.0 0.0
8.0 1.0 0.0
8.4 1.0 0.0
8.8 1.0 0.0
9.200000000000001 1.0 0.0
9.600000000000001 1.0 0.0
10.0 1.0 0.0
10.4 1.0 0.0
10.8 1.0 0.0
11.200000000000001 1.0 0.0
11.600000000000001 1.0 0.0
12.0 1.0 0.0
12.4 1.0 0.0
12.8 1.0 0.0
13.200000000000001 1.0 0.0
13.600000000000001 1.0 0.0
14.0 1.0 0.0
14.4 1.0 0.0
14.8 1.0 0.0
15.200000000000001 1.0 0.0
15.600000000000001 1.0 0.0
16.0 1.0 0.0
0.0 1.1 0.0
0.4 1.1 0.0
0.8 1.1 0.0
1.2000000000000002 1.1 0.0
1.6 1.1 0.0
2.0 1.1 0.0
2.4000000000000004 1.1 0.0
2.8000000000000003 1.1 0.0
3.2 1.1 0.0
3.6 1.1 0.0
4.0 1.1 0.0
4.4 1.1 0.0
4.800000000000001 1.1 0.0
5.2 1.1 0.0
5.6000000000000005 1.1 0.0
6.0 1.1 0.0
6.4 1.1 0.0
6.800000000000001 1.1 0.0
7.2 1.1 0.0
7.6000000000000005 1.1 0.0
8.0 1.1 0.0
8.4 1.1 0.0
8.8 1.1 0.0
9.200000000000001 1.1 0.0
9.600000000000001 1.1 0.0
10.0 1.1 0.0
10.4 1.1 0.0
10.8 1.1 0.0
11.200000000000001 1.1 0.0
11.600000000000001 1.1 0.0
12.0 1.1 0.0
12.4 1.1 0.0
12.8 1.1 0.0
13.200000000000001 1.1 0.0
13.600000000000001 1.1 0.0
14.0 1.1 0.0
14.4 1.1 0.0
14.8 1.1 0.0
15.200000000000001 1.1 0.0
15.600000000000001 1.1 0.0
16.0 1.1 0.0
0.0 1.2000000000000002 0.0
0.4 1.2000000000000002 0.0
0.8 1.2000000000000002 0.0
1.2000000000000002 1.2000000000000002 0.0
1.6 1.2000000000000002 0.0
2.0 1.2000000000000002 0.0
2.4000000000000004 1.2000000000000002 0.0
2.8000000000000003 1.2000000000000002 0.0
3.2 1.2000000000000002 0.0
3.6 1.2000000000000002 0.0
4.0 1.2000000000000002 0.0
4.4 1.2000000000000002 0.0
4.800000000000001 1.2000000000000002 0.0
5.2 1.2000000000000002 0.0
5.6000000000000005 1.2000000000000002 0.0
6.0 1.2000000000000002 0.0
6.4 1.2000000000000002 0.0
6.800000000000001 1.2000000000000002 0.0
7.2 1.2000000000000002 0.0
7.6000000000000005 1.2000000000000002 0.0
8.0 1.2000000000000002 0.0
8.4 1.2000000000000002 0.0
8.8 1.2000000000000002 0.0
9.200000000000001 1.2000000000000002 0.0
9.600000000000001 1.2000000000000002 0.0
10.0 1.2000000000000002 0.0
10.4 1.2000000000000002 0.0
10.8 1.2000000000000002 0.0
11.200000000000001 1.2000000000000002 0.0
11.600000000000001 1.2000000000000002 0.0
12.0 1.2000000000000002 0.0
12.4 1.2000000000000002 0.0
12.8 1.2000000000000002 0.0
13.200000000000001 1.2000000000000002 0.0
13.600000000000001 1.2000000000000002 0.0
14.0 1.2000000000000002 0.0
14.4 1.2000000000000002 0.0
14.8 1.2000000000000002 0.0
15.200000000000001 1.2000000000000002 0.0
15.600000000000001 1.2000000000000002 0.0
16.0 1.2000000000000002 0.0
0.0 1.3 0.0
0.4 1.3 0.0
0.8 1.3 0.0
1.2000000000000002 1.3 0.0
1.6 1.3 0.0
2.0 1.3 0.0
2.4000000000000004 1.3 0.0
2.8000000000000003 1.3 0.0
3.2 1.3 0.0
3.6 1.3 0.0
4.0 1.3 0.0
4.4 1.3 0.0
4.800000000000001 1.3 0.0
5.2 1.3 0.0
5.6000000000000005 1.3 0.0
6.0 1.3 0.0
6.4 1.3 0.0
6.800000000000001 1.3 0.0
7.2 1.3 0.0
7.6000000000000005 1.3 0.0
8.0 1.3 0.0
8.4 1.3 0.0
8.8 1.3 0.0
9.200000000000001 1.3 0.0
9.600000000000001 1.3 0.0
10.0 1.3 0.0
10.4 1.3 0.0
10.8 1.3 0.0
11.200000000000001 1.3 0.0
11.600000000000001 1.3 0.0
12.0 1.3 0.0
12.4 1.3 0.0
12.8 1.3 0.0
13.200000000000001 1.3 0.0
13.600000000000001 1.3 0.0
14.0 1.3 0.0
14.4 1.3 0.0
14.8 1.3 0.0
15.200000000000001 1.3 0.0
15.600000000000001 1.3 0.0
16.0 1.3 0.0
0.0 1.4000000000000001 0.0
0.4 1.4000000000000001 0.0
0.8 1.4000000000000001 0.0
1.2000000000000002 1.4000000000000001 0.0
1.6 1.4000000000000001 0.0
2.0 1.4000000000000001 0.0
2.4000000000000004 1.4000000000000001 0.0
2.8000000000000003 1.4000000000000001 0.0
3.2 1.4000000000000001 0.0
3.6 1.4000000000000001 0.0
4.0 1.4000000000000001 0.0
4.4 1.4000000000000001 0.0
4.800000000000001 1.4000000000000001 0.0
5.2 1.4000000000000001 0.0
5.6000000000000005 1.4000000000000001 0.0
6.0 1.4000000000000001 0.0
6.4 1.4000000000000001 0.0
6.800000000000001 1.4000000000000001 0.0
7.2 1.4000000000000001 0.0
7.6000000000000005 1.4000000000000001 0.0
8.0 1.4000000000000001 0.0
8.4 1.4000000000000001 0.0
8.8 1.4000000000000001 0.0
9.200000000000001 1.4000000000000001 0.0
9.600000000000001 1.4000000000000001 0.0
10.0 1.4000000000000001 0.0
10.4 1.4000000000000001 0.0
10.8 1.4000000000000001 0.0
11.200000000000001 1.4000000000000001 0.0
11.600000000000001 1.4000000000000001 0.0
12.0 1.4000000000000001 0.0
12.4 1.4000000000000001 0.0
12.8 1.4000000000000001 0.0
13.200000000000001 1.4000000000000001 0.0
13.600000000000001 1.4000000000000001 0.0
14.0 1.4000000000000001 0.0
14.4 1.4000000000000001 0.0
14.8 1.4000000000000001 0.0
15.200000000000001 1.4000000000000001 0.0
15.600000000000001 1.4000000000000001 0.0
16.0 1.4000000000000001 0.0
0.0 1.5 0.0
0.4 1.5 0.0
0.8 1.5 0.0
1.2000000000000002 1.5 0.0
1.6 1.5 0.0
2.0 1.5 0.0
2.4000000000000004 1.5 0.0
2.8000000000000003 1.5 0.0
3.2 1.5 0.0
3.6 1.5 0.0
4.0 1.5 0.0
4.4 1.5 0.0
4.800000000000001 1.5 0.0
5.2 1.5 0.0
5.6000000000000005 1.5 0.0
6.0 1.5 0.0
6.4 1.5 0.0
6.800000000000001 1.5 0.0
7.2 1.5 0.0
7.6000000000000005 1.5 0.0
8.0 1.5 0.0
8.4 1.5 0.0
8.8 1.5 0.0
9.200000000000001 1.5 0.0
9.600000000000001 1.5 0.0
10.0 1.5 0.0
10.4 1.5 0.0
10.8 1.5 0.0
11.200000000000001 1.5 0.0
11.600000000000001 1.5 0.0
12.0 1.5 0.0
12.4 1.5 0.0
12.8 1.5 0.0
13.200000000000001 1.5 0.0
13.600000000000001 1.5 0.0
14.0 1.5 0.0
14.4 1.5 0.0
14.8 1.5 0.0
15.200000000000001 1.5 0.0
15.600000000000001 1.5 0.0
16.0 1.5 0.0
0.0 1.6 0.0
0.4 1.6 0.0
0.8 1.6 0.0
1.2000000000000002 1.6 0.0
1.6 1.6 0.0
2.0 1.6 0.0
2.4000000000000004 1.6 0.0
2.8000000000000003 1.6 0.0
3.2 1.6 0.0
3.6 1.6 0.0
4.0 1.6 0.0
4.4 1.6 0.0
4.800000000000001 1.6 0.0
5.2 1.6 0.0
5.6000000000000005 1.6 0.0
6.0 1.6 0.0
6.4 1.6 0.0
6.800000000000001 1.6 0.0
7.2 1.6 0.0
7.6000000000000005 1.6 0.0
8.0 1.6 0.0
8.4 1.6 0.0
8.8 1.6 0.0
9.200000000000001 1.6 0.0
9.600000000000001 1.6 0.0
10.0 1.6 0.0
10.4 1.6 0.0
10.8 1.6 0.0
11.200000000000001 1.6 0.0
11.600000000000001 1.6 0.0
12.0 1.6 0.0
12.4 1.6 0.0
12.8 1.6 0.0
13.200000000000001 1.6 0.0
13.600000000000001 1.6 0.0
14.0 1.6 0.0
14.4 1.6 0.0
14.8 1.6 0.0
15.200000000000001 1.6 0.0
15.600000000000001 1.6 0.0
16.0 1.6 0.0
0.0 1.7000000000000002 0.0
0.4 1.7000000000000002 0.0
0.8 1.7000000000000002 0.0
1.2000000000000002 1.7000000000000002 0.0
1.6 1.7000000000000002 0.0
2.0 1.7000000000000002 0.0
2.4000000000000004 1.7000000000000002 0.0
2.8000000000000003 1.7000000000000002 0.0
3.2 1.7000000000000002 0.0
3.6 1.7000000000000002 0.0
4.0 1.7000000000000002 0.0
4.4 1.7000000000000002 0.0
4.800000000000001 1.7000000000000002 0.0
5.2 1.7000000000000002 0.0
5.6000000000000005 1.7000000000000002 0.0
6.0 1.7000000000000002 0.0
6.4 1.7000000000000002 0.0
6.800000000000001 1.7000000000000002 0.0
7.2 1.7000000000000002 0.0
7.6000000000000005 1.7000000000000002 0.0
8.0 1.7000000000000002 0.0
8.4 1.7000000000000002 0.0
8.8 1.7000000000000002 0.0
9.200000000000001 1.7000000000000002 0.0
9.600000000000001 1.7000000000000002 0.0
10.0 1.7000000000000002 0.0
10.4 1.7000000000000002 0.0
10.8 1.7000000000000002 0.0
11.200000000000001 1.7000000000000002 0.0
11.600000000000001 1.7000000000000002 0.0
12.0 1.7000000000000002 0.0
12.4 1.7000000000000002 0.0
12.8 1.7000000000000002 0.0
13.200000000000001 1.7000000000000002 0.0
13.600000000000001 1.7000000000000002 0.0
14.0 1.7000000000000002 0.0
14.4 1.7000000000000002 0.0
14.8 1.7000000000000002 0.0
15.200000000000001 1.7000000000000002 0.0
15.600000000000001 1.7000000000000002 0.0
16.0 1.7000000000000002 0.0
0.0 1.8 0.0
0.4 1.8 0.0
0.8 1.8 0.0
1.2000000000000002 1.8 0.0
1.6 1.8 0.0
2.0 1.8 0.0
2.4000000000000004 1.8 0.0
2.8000000000000003 1.8 0.0
3.2 1.8 0.0
3.6 1.8 0.0
4.0 1.8 0.0
4.4 1.8 0.0
4.800000000000001 1.8 0.0
5.2 1.8 0.0
5.6000000000000005 1.8 0.0
6.0 1.8 0.0
6.4 1.8 0.0
6.800000000000001 1.8 0.0
7.2 1.8 0.0
7.6000000000000005 1.8 0.0
8.0 1.8 0.0
8.4 1.8 0.0
8.8 1.8 0.0
9.200000000000001 1.8 0.0
9.600000000000001 1.8 0.0
10.0 1.8 0.0
10.4 1.8 0.0
10.8 1.8 0.0
11.200000000000001 1.8 0.0
11.600000000000001 1.8 0.0
12.0 1.8 0.0
12.4 1.8 0.0
12.8 1.8 0.0
13.200000000000001 1.8 0.0
13.600000000000001 1.8 0.0
14.0 1.8 0.0
14.4 1.8 0.0
14.8 1.8 0.0
15.200000000000001 1.8 0.0
15.600000000000001 1.8 0.0
16.0 1.8 0.0
0.0 1.9000000000000001 0.0
0.4 1.9000000000000001 0.0
0.8 1.9000000000000001 0.0
1.2000000000000002 1.9000000000000001 0.0
1.6 1.9000000000000001 0.0
2.0 1.9000000000000001 0.0
2.4000000000000004 1.9000000000000001 0.0
2.8000000000000003 1.9000000000000001 0.0
3.2 1.9000000000000001 0.0
3.6 1.9000000000000001 0.0
4.0 1.9000000000000001 0.0
4.4 1.9000000000000001 0.0
4.800000000000001 1.9000000000000001 0.0
5.2 1.9000000000000001 0.0
5.6000000000000005 1.9000000000000001 0.0
6.0 1.9000000000000001 0.0
6.4 1.9000000000000001 0.0
6.800000000000001 1.9000000000000001 0.0
7.2 1.9000000000000001 0.0
7.6000000000000005 1.9000000000000001 0.0
8.0 1.9000000000000001 0.0
8.4 1.9000000000000001 0.0
8.8 1.9000000000000001 0.0
9.200000000000001 1.9000000000000001 0.0
9.600000000000001 1.9000000000000001 0.0
10.0 1.9000000000000001 0.0
10.4 1.9000000000000001 0.0
10.8 1.9000000000000001 0.0
11.200000000000001 1.9000000000000001 0.0
11.600000000000001 1.9000000000000001 0.0
12.0 1.9000000000000001 0.0
12.4 1.9000000000000001 0.0
12.8 1.9000000000000001 0.0
13.200000000000001 1.9000000000000001 0.0
13.600000000000001 1.9000000000000001 0.0
14.0 1.9000000000000001 0.0
14.4 1.9000000000000001 0.0
14.8 1.9000000000000001 0.0
15.200000000000001 1.9000000000000001 0.0
15.600000000000001 1.9000000000000001 0.0
16.0 1.9000000000000001 0.0
0.0 2.0 0.0
0.4 2.0 0.0
0.8 2.0 0.0
1.2000000000000002 2.0 0.0
1.6 2.0 0.0
2.0 2.0 0.0
2.4000000000000004 2.0 0.0
2.8000000000000003 2.0 0.0
3.2 2.0 0.0
3.6 2.0 0.0
4.0 2.0 0.0
4.4 2.0 0.0
4.800000000000001 2.0 0.0
5.2 2.0 0.0
5.6000000000000005 2.0 0.0
6.0 2.0 0.0
6.4 2.0 0.0
6.800000000000001 2.0 0.0
7.2 2.0 0.0
7.6000000000000005 2.0 0.0
8.0 2.0 0.0
8.4 2.0 0.0
8.8 2.0 0.0
9.200000000000001 2.0 0.0
9.600000000000001 2.0 0.0
10.0 2.0 0.0
10.4 2.0 0.0
10.8 2.0 0.0
11.200000000000001 2.0 0.0
11.600000000000001 2.0 0.0
12.0 2.0 0.0
12.4 2.0 0.0
12.8 2.0 0.0
13.200000000000001 2.0 0.0
13.600000000000001 2.0 0.0
14.0 2.0 0.0
14.4 2.0 0.0
14.8 2.0 0.0
15.200000000000001 2.0 0.0
15.600000000000001 2.0 0.0
16.0 2.0 0.0
CELLS 800 4000
4 0 1 42 41
4 1 2 43 42
4 2 3 44 43
4 3 4 45 44
4 4 5 46 45
4 5 6 47 46
4 6 7 48 47
4 7 8 49 48
4 8 9 50 49
4 9 10 51 50
4 10 11 52 51
4 11 12 53 52
4 12 13 54 53
4 13 14 55 54
4 14 15 56 55
4 15 16 57 56
4 16 17 58 57
4 17 18 59 58
4 18 19 60 59
4 19 20 61 60
4 20 21 62 61
4 21 22 63 62
4 22 23 64 63
4 23 24 65 64
4 24 25 66 65
4 25 26 67 66
4 26 27 68 67
4 27 28 69 68
4 28 29 70 69
4 29 30 71 70
4 30 31 72 71
4 31 32 73 72
4 32 33 74 73
4 33 34 75 74
4 34 35 76 75
4 35 36 77 76
4 36 37 78 77
4 37 38 79 78
4 38 39 80 79
4 39 40 81 80
4 41 42 83 82
4 42 43 84 83
4 43 44 85 84
4 44 45 86 85
4 45 46 87 86
4 46 47 88 87
4 47 48 89 88
4 48 49 90 89
4 49 50 91 90
4 50 51 92 91
4 51 52 93 92
4 52 53 94 93
4 53 54 95 94
4 54 55 96 95
4 55 56 97 96
4 56 57 98 97
4 57 58 99 98
4 58 59 100 99
4 59 60 101 100
4 60 61 102 101
4 61 62 103 102
4 62 63 104 103
4 63 64 105 104
4 64 65 106 105
4 65 66 107 106
4 66 67 108 107
4 67 68 109 108
4 68 69 110 109
4 69 70 111 110
4 70 71 112 111
4 71 72 113 112
4 72 73 114 113
4 73 74 115 114
4 74 75 116 115
4 75 76 117 116
4 76 77 118 117
4 77 78 119 118
4 78 79 120 119
4 79 80 121 120
4 80 81 122 121
4 82 83 124 123
4 83 84 125 124
4 84 85 126 125
4 85 86 127 126
4 86 87 128 127
4 87 88 129 128
4 88 89 130 129
4 89 90 131 130
4 90 91 132 131
4 91 92 133 132
4 92 93 134 133
4 93 94 135 134
4 94 95 136 135
4 95 96 137 136
4 96 97 138 137
4 97 98 139 138
4 98 99 140 139
4 99 100 141 140
4 100 101 142 141
4 101 102 143 142
4 102 103 144 143
4 103 104 145 144
4 104 105 146 145
4 105 106 147 146
4 106 107 148 147
4 107 108 149 148
4 108 109 150 149
4 109 110 151 150
4 110 111 152 151
4 111 112 153 152
4 112 113 154 153
4 113 114 155 154
4 114 115 156 155
4 115 116 157 156
4 116 117 158 157
4 117 118 159 158
4 118 119 160 159
4 119 120 161 160
4 120 121 162 161
4 121 122 163 162
4 123 124 165 164
4 124 125 166 165
4 125 126 167 166
4 126 127 168 167
4 127 128 169 168
4 128 129 170 169
4 129 130 171 170
4 130 131 172 171
4 131 132 173 172
4 132 133 174 173
4 133 134 175 174
4 134 135 176 175
4 135 136 177 176
4 136 137 178 177
4 137 138 179 178
4 138 139 180 179
4 139 140 181 180
4 140 141 182 181
4 141 142 183 182
4 142 143 184 183
4 143 144 185 184
4 144 145 186 185
4 145 146 187 186
4 146 147 188 187
4 147 148 189 188
4 148 149 190 189
4 149 150 191 190
4 150 151 192 191
4 151 152 193 192
4 152 153 194 193
4 153 154 195 194
4 154 155 196 195
4 155 156 197 196
4 156 157 198 197
4 157 158 199 198
4 158 159 200 199
4 159 160 201 200
4 160 161 202 201
4 161 162 203 202
4 162 163 204 203
4 164 165 206 205
4 165 166 207 206
4 166 167 208 207
4 167 168 209 208
4 168 169 210 209
4 169 170 211 210
4 170 171 212 211
4 171 172 213 212
4 172 173 214 213
4 173 174 215 214
4 174 175 216 215
4 175 176 217 216
4 176 177 218 217
4 177 178 219 218
4 178 179 220 219
4 179 180 221 220
4 180 181 222 221
4 181 182 223 222
4 182 183 224 223
4 183 184 225 224
4 184 185 226 225
4 185 186 227 226
4 186 187 228 227
4 187 188 229 228
4 188 189 230 229
4 189 190 231 230
4 190 191 232 231
4 191 192 233 232
4 192 193 234 233
4 193 194 235 234
4 194 195 236 235
4 195 196 237 236
4 196 197 238 237
4 197 198 239 238
4 198 199 240 239
4 199 200 241 240
4 200 201 242 241
4 201 202 243 242
4 202 203 244 243
4 203 204 245 244
4 205 206 247 246
4 206 207 248 247
4 207 208 249 248
4 208 209 250 249
4 209 210 251 250
4 210 211 252 251
4 211 212 253 252
4 212 213 254 253
4 213 214 255 254
4 214 215 256 255
4 215 216 257 256
4 216 217 258 257
4 217 218 259 258
4 218 219 260 259
4 219 220 261 260
4 220 221 262 261
4 221 222 263 262
4 222 223 264 263
4 223 224 265 264
4 224 225 266 265
4 225 226 267 266
4 226 227 268 267
4 227 228 269 268
4 228 229 270 269
4 229 230 271 270
4 230 231 272 271
4 231 232 273 272
4 232 233 274 273
4 233 234 275 274
4 234 235 276 275
4 235 236 277 276
4 236 237 278 277
4 237 238 279 278
4 238 239 280 279
4 239 240 281 280
4 240 241 282 281
4 241 242 283 282
4 242 243 284 283
4 243 244 285 284
4 244 245 286 285
4 246 247 288 287
4 247 248 289 288
4 248 249 290 289
4 249 250 291 290
4 250 251 292 291
4 251 252 293 292
4 252 253 294 293
4 253 254 295 294
4 254 255 296 295
4 255 256 297 296
4 256 257 298 297
4 257 258 299 298
4 258 259 300 299
4 259 260 301 300
4 260 261 302 301
4 261 262 303 302
4 262 263 304 303
4 263 264 305 304
4 264 265 306 305
4 265 266 307 306
4 266 267 308 307
4 267 268 309 308
4 268 269 310 309
4 269 270 311 310
4 270 271 312 311
4 271 272 313 312
4 272 273 314 313
4 273 274 315 314
4 274 275 316 315
4 275 276 317 316
4 276 277 318 317
4 277 278 319 318
4 278 279 320 319
4 279 280 321 320
4 280 281 322 321
4 281 282 323 322
4 282 283 324 323
4 283 284 325 324
4 284 285 326 325
4 285 286 327 326
4 287 288 329 328
4 288 289 330 329
4 289 290 331 330
4 290 291 332 331
4 291 292 333 332
4 292 293 334 333
4 293 294 335 334
4 294 295 336 335
4 295 296 337 336
4 296 297 338 337
4 297 298 339 338
4 298 299 340 339
4 299 300 341 340
4 300 301 342 341
4 301 302 343 342
4 302 303 344 343
4 303 304 345 344
4 304 305 346 345
4 305 306 347 346
4 306 307 348 347
4 307 308 349 348
4 308 309 350 349
4 309 310 351 350
4 310 311 352 351
4 311 312 353 352
4 312 313 354 353
4 313 314 355 354
4 314 315 356 355
4 315 316 357 356
4 316 317 358 357
4 317 318 359 358
4 318 319 360 359
4 319 320 361 360
4 320 321 362 361
4 321 322 363 362
4 322 323 364 363
4 323 324 365 364
4 324 325 366 365
4 325 326 367 366
4 326 327 368 367
4 328 329 370 369
4 329 330 371 370
4 330 331 372 371
4 331 332 373 372
4 332 333 374 373
4 333 334 375 374
4 334 335 376 375
4 335 336 377 376
4 336 337 378 377
4 337 338 379 378
4 338 339 380 379
4 339 340 381 380
4 340 341 382 381
4 341 342 383 382
4 342 343 384 383
4 343 344 385 384
4 344 345 386 385
4 345 346 387 386
4 346 347 388 387
4 347 348 389 388
4 348 349 390 389
4 349 350 391 390
4 350 351 392 391
4 351 352 393 392
4 352 353 394 393
4 353 354 395 394
4 354 355 396 395
4 355 356 397 396
4 356 357 398 397
4 357 358 399 398
4 358 359 400 399
4 359 360 401 400
4 360 361 402 401
4 361 362 403 402
4 362 363 404 403
4 363 364 405 404
4 364 365 406 405
4 365 366 407 406
4 366 367 408 407
4 367 368 409 408
4 369 370 411 410
4 370 371 412 411
4 371 372 413 412
4 372 373 414 413
4 373 374 415 414
4 374 375 416 415
4 375 376 417 416
4 376 377 418 417
4 377 378 419 418
4 378 379 420 419
4 379 380 421 420
4 380 381 422 421
4 381 382 423 422
4 382 383 424 423
4 383 384 425 424
4 384 385 426 425
4 385 386 427 426
4 386 387 428 427
4 387 388 429 428
4 388 389 430 429
4 389 390 431 430
4 390 391 432 431
4 391 392 433 432
4 392 393 434 433
4 393 394 435 434
4 394 395 436 435
4 395 396 437 436
4 396 397 438 437
4 397 398 439 438
4 398 399 440 439
4 399 400 441 440
4 400 401 442 441
4 401 402 443 442
4 402 403 444 443
4 403 404 445 444
4 404 405 446 445
4 405 406 447 446
4 406 407 448 447
4 407 408 449 448
4 408 409 450 449
4 410 411 452 451
4 411 412 453 452
4 412 413 454 453
4 413 414 455 454
4 414 415 456 455
4 415 416 457 456
4 416 417 458 457
4 417 418 459 458
4 418 419 460 459
4 419 420 461 460
4 420 421 462 461
4 421 422 463 462
4 422 423 464 463
4 423 424 465 464
4 424 425 466 465
4 425 426 467 466
4 426 427 468 467
4 427 428 469 468
4 428 429 470 469
4 429 430 471 470
4 430 431 472 471
4 431 432 473 472
4 432 433 474 473
4 433 434 475 474
4 434 435 476 475
4 435 436 477 476
4 436 437 478 477
4 437 438 479 478
4 438 439 480 479
4 439 440 481 480
4 440 441 482 481
4 441 442 483 482
4 442 443 484 483
4 443 444 485 484
4 444 445 486 485
4 445 446 487 486
4 446 447 488 487
4 447 448 489 488
4 448 449 490 489
4 449 450 491 490
4 451 452 493 492
4 452 453 494 493
4 453 454 495 494
4 454 455 496 495
4 455 456 497 496
4 456 457 498 497
4 457 458 499 498
4 458 459 500 499
4 459 460 501 500
4 460 461 502 501
4 461 462 503 502
4 462 463 504 503
4 463 464 505 504
4 464 465 506 505
4 465 466 507 506
4 466 467 508 507
4 467 468 509 508
4 468 469 510 509
4 469 470 511 510
4 470 471 512 511
4 471 472 513 512
4 472 473 514 513
4 473 474 515 514
4 474 475 516 515
4 475 476 517 516
4 476 477 518 517
4 477 478 519 518
4 478 479 520 519
4 479 480 521 520
4 480 481 522 521
4 481 482 523 522
4 482 483 524 523
4 483 484 525 524
4 484 485 526 525
4 485 486 527 526
4 486 487 528 527
4 487 488 529 528
4 488 489 530 529
4 489 490 531 530
4 490 491 532 531
4 492 493 534 533
4 493 494 535 534
4 494 495 536 535
4 495 496 537 536
4 496 497 538 537
4 497 498 539 538
4 498 499 540 539
4 499 500 541 540
4 500 501 542 541
4 501 502 543 542
4 502 503 544 543
4 503 504 545 544
4 504 505 546 545
4 505 506 547 546
4 506 507 548 547
4 507 508 549 548
4 508 509 550 549
4 509 510 551 550
4 510 511 552 551
4 511 512 553 552
4 512 513 554 553
4 513 514 555 554
4 514 515 556 555
4 515 516 557 556
4 516 517 558 557
4 517 518 559 558
4 518 519 560 559
4 519 520 561 560
4 520 521 562 561
4 521 522 563 562
4 522 523 564 563
4 523 524 565 564
4 524 525 566 565
4 525 526 567 566
4 526 527 568 567
4 527 528 569 568
4 528 529 570 569
4 529 530 571 570
4 530 531 572 571
4 531 532 573 572
4 533 534 575 574
4 534 535 576 575
4 535 536 577 576
4 536 537 578 577
4 537 538 579 578
4 538 539 580 579
4 539 540 581 580
4 540 541 582 581
4 541 542 583 582
4 542 543 584 583
4 543 544 585 584
4 544 545 586 585
4 545 546 587 586
4 546 547 588 587
4 547 548 589 588
4 548 549 590 589
4 549 550 591 590
4 550 551 592 591
4 551 552 593 592
4 552 553 594 593
4 553 554 595 594
4 554 555 596 595
4 555 556 597 596
4 556 557 598 597
4 557 558 599 598
4 558 559 600 599
4 559 560 601 600
4 560 561 602 601
4 561 562 603 602
4 562 563 604 603
4 563 564 605 604
4 564 565 606 605
4 565 566 607 606
4 566 567 608 607
4 567 568 609 608
4 568 569 610 609
4 569 570 611 610
4 570 571 612 611
4 571 572 613 612
4 572 573 614 613
4 574 575 616 615
4 575 576 617 616
4 576 577 618 617
4 577 578 619 618
4 578 579 620 619
4 579 580 621 620
4 580 581 622 621
4 581 582 623 622
4 582 583 624 623
4 583 584 625 624
4 584 585 626 625
4 585 586 627 626
4 586 587 628 627
4 587 588 629 628
4 588 589 630 629
4 589 590 631 630
4 590 591 632 631
4 591 592 633 632
4 592 593 634 633
4 593 594 635 634
4 594 595 636 635
4 595 596 637 636
4 596 597 638 637
4 597 598 639 638
4 598 599 640 639
4 599 600 641 640
4 600 601 642 641
4 601 602 643 642
4 602 603 644 643
4 603 604 645 644
4 604 605 646 645
4 605 606 647 646
4 606 607 648 647
4 607 608 649 648
4 608 609 650 649
4 609 610 651 650
4 610 611 652 651
4 611 612 653 652
4 612 613 654 653
4 613 614 655 654
4 615 616 657 656
4 616 617 658 657
4 617 618 659 658
4 618 619 660 659
4 619 620 661 660
4 620 621 662 661
4 621 622 663 662
4 622 623 664 663
4 623 624 665 664
4 624 625 666 665
4 625 626 667 666
4 626 627 668 667
4 627 628 669 668
4 628 629 670 669
4 629 630 671 670
4 630 631 672 671
4 631 632 673 672
4 632 633 674 673
4 633 634 675 674
4 634 635 676 675
4 635 636 677 676
4 636 637 678 677
4 637 638 679 678
4 638 639 680 679
4 639 640 681 680
4 640 641 682 681
4 641 642 683 682
4 642 643 684 683
4 643 644 685 684
4 644 645 686 685
4 645 646 687 686
4 646 647 688 687
4 647 648 689 688
4 648 649 690 689
4 649 650 691 690
4 650 651 692 691
4 651 652 693 692
4 652 653 694 693
4 653 654 695 694
4 654 655 696 695
4 656 657 698 697
4 657 658 699 698
4 658 659 700 699
4 659 660 701 700
4 660 661 702 701
4 661 662 703 702
4 662 663 704 703
4 663 664 705 704
4 664 665 706 705
4 665 666 707 706
4 666 667 708 707
4 667 668 709 708
4 668 669 710 709
4 669 670 711 710
4 670 671 712 711
4 671 672 713 712
4 672 673 714 713
4 673 674 715 714
4 674 675 716 715
4 675 676 717 716
4 676 677 718 717
4 677 678 719 718
4 678 679 720 719
4 679 680 721 720
4 680 681 722 721
4 681 682 723 722
4 682 683 724 723
4 683 684 725 724
4 684 685 726 725
4 685 686 727 726
4 686 687 728 727
4 687 688 729 728
4 688 689 730 729
4 689 690 731 730
4 690 691 732 731
4 691 692 733 732
4 692 693 734 733
4 693 694 735 734
4 694 695 736 735
4 695 696 737 736
4 697 698 739 738
4 698 699 740 739
4 699 700 741 740
4 700 701 742 741
4 701 702 743 742
4 702 703 744 743
4 703 704 745 744
4 704 705 746 745
4 705 706 747 746
4 706 707 748 747
4 707 708 749 748
4 708 709 750 749
4 709 710 751 750
4 710 711 752 751
4 711 712 753 752
4 712 713 754 753
4 713 714 755 754
4 714 715 756 755
4 715 716 757 756
4 716 717 758 757
4 717 718 759 758
4 718 719 760 759
4 719 720 761 760
4 720 721 762 761
4 721 722 763 762
4 722 723 764 763
4 723 724 765 764
4 724 725 766 765
4 725 726 767 766
4 726 727 768 767
4 727 728 769 768
4 728 729 770 769
4 729 730 771 770
4 730 731 772 771
4 731 732 773 772
4 732 733 774 773
4 733 734 775 774
4 734 735 776 775
4 735 736 777 776
4 736 737 778 777
4 738 739 780 779
4 739 740 781 780
4 740 741 782 781
4 741 742 783 782
4 742 743 784 783
4 743 744 785 784
4 744 745 786 785
4 745 746 787 786
4 746 747 788 787
4 747 748 789 788
4 748 749 790 789
4 749 750 791 790
4 750 751 792 791
4 751 752 793 792
4 752 753 794 793
4 753 754 795 794
4 754 755 796 795
4 755 756 797 796
4 756 757 798 797
4 757 758 799 798
4 758 759 800 799
4 759 760 801 800
4 760 761 802 801
4 761 762 803 802
4 762 763 804 803
4 763 764 805 804
4 764 765 806 805
4 765 766 807 806
4 766 767 808 807
4 767 768 809 808
4 768 769 810 809
4 769 770 811 810
4 770 771 812 811
4 771 772 813 812
4 772 773 814 813
4 773 774 815 814
4 774 775 816 815
4 775 776 817 816
4 776 777 818 817
4 777 778 819 818
4 779 780 821 820
4 780 781 822 821
4 781 782 823 822
4 782 783 824 823
4 783 784 825 824
4 784 785 826 825
4 785 786 827 826
4 786 787 828 827
4 787 788 829 828
4 788 789 830 829
4 789 790 831 830
4 790 791 832 831
4 791 792 833 832
4 792 793 834 833
4 793 794 835 834
4 794 795 836 835
4 795 796 837 836
4 796 797 838 837
4 797 798 839 838
4 798 799 840 839
4 799 800 841 840
4 800 801 842 841
4 801 802 843 842
4 802 803 844 843
4 803 804 845 844
4 804 805 846 845
4 805 806 847 846
4 806 807 848 847
4 807 808 849 848
4 808 809 850 849
4 809 810 851 850
4 810 811 852 851
4 811 812 853 852
4 812 813 854 853
4 813 814 855 854
4 814 815 856 855
4 815 816 857 856
4 816 817 858 857
4 817 818 859 858
4 818 819 860 859
CELL_TYPES 800
9
9
9
9
9
9
9
9
9
9
9
9
9
9
9
9
9
9
9
9
9
9
9
9
9
9
9
9
9
9
9
9
9
9
9
9
9
9
9
9
9
9
9
9
9
9
9
9
9
9
9
9
9
9
9
9
9
9
9
9
9
9
9
9
9
9
9
9
9
9
9
9
9
9
9
9
9
9
9
9
9
9
9
9
9
9
9
9
9
9
9
9
9
9
9
9
9
9
9
9
9
9
9
9
9
9
9
9
9
9
9
9
9
9
9
9
9
9
9
9
9
9
9
9
9
9
9
9
9
9
9
9
9
9
9
9
9
9
9
9
9
9
9
9
9
9
9
9
9
9
9
9
9
9
9
9
9
9
9
9
9
9
9
9
9
9
9
9
9
9
9
9
9
9
9
9
9
9
9
9
9
9
9
9
9
9
9
9
9
9
9
9
9
9
9
9
9
9
9
9
9
9
9
9
9
9
9
9
9
9
9
9
9
9
9
9
9
9
9
9
9
9
9
9
9
9
9
9
9
9
9
9
9
9
9
9
9
9
9
9
9
9
9
9
9
9
9
9
9
9
9
9
9
9
9
9
9
9
9
9
9
9
9
9
9
9
9
9
9
9
9
9
9
9
9
9
9
9
9
9
9
9
9
9
9
9
9
9
9
9
9
9
9
9
9
9
9
9
9
9
9
9
9
9
9
9
9
9
9
9
9
9
9
9
9
9
9
9
9
9
9
9
9
9
9
9
9
9
9
9
9
9
9
9
9
9
9
9
9
9
9
9
9
9
9
9
9
9
9
9
9
9
9
9
9
9
9
9
9
9
9
9
9
9
9
9
9
9
9
9
9
9
9
9
9
9
9
9
9
9
9
9
9
9
9
9
9
9
9
9
9
9
9
9
9
9
9
9
9
9
9
9
9
9
9
9
9
9
9
9
9
9
9
9
9
9
9
9
9
9
9
9
9
9
9
9
9
9
9
9
9
9
9
9
9
9
9
9
9
9
9
9
9
9
9
9
9
9
9
9
9
9
9
9
9
9
9
9
9
9
9
9
9
9
9
9
9
9
9
9
9
9
9
9
9
9
9
9
9
9
9
9
9
9
9
9
9
9
9
9
9
9
9
9
9
9
9
9
9
9
9
9
9
9
9
9
9
9
9
9
9
9
9
9
9
9
9
9
9
9
9
9
9
9
9
9
9
9
9
9
9
9
9
9
9
9
9
9
9
9
9
9
9
9
9
9
9
9
9
9
9
9
9
9
9
9
9
9
9
9
9
9
9
9
9
9
9
9
9
9
9
9
9
9
9
9
9
9
9
9
9
9
9
9
9
9
9
9
9
9
9
9
9
9
9
9
9
9
9
9
9
9
9
9
9
9
9
9
9
9
9
9
9
9
9
9
9
9
9
9
9
9
9
9
9
9
9
9
9
9
9
9
9
9
9
9
9
9
9
9
9
9
9
9
9
9
9
9
9
9
9
9
9
9
9
9
9
9
9
9
9
9
9
9
9
9
9
9
9
9
9
9
9
9
9
9
9
9
9
9
9
9
9
9
9
9
9
9
9
9
9
9
9
9
9
9
9
9
9
9
9
9
9
9
9
9
9
9
9
9
9
9
9
9
9
9
9
9
9
9
9
9
9
9
9
9
9
9
9
9
9
9
9
9
9
9
9
9
9
9
9
9
9
9
9
9
9
9
9
9
9
9
9
9
9
9
9
9
9
9
9
9
9
9
9
9
9
9
9
9
9
9
9
9
9
9
9
9
9
9
9
9
9
9
9
9
9
9
9
9
9
9
9
9
9
9
9
9
9
9
POINT_DATA 861
SCALARS Disp float 2
LOOKUP_TABLE default
0.0 0.0
0.004497686232528244 -0.14440709048301717
0.005543505002603392 -0.2814192481141791
0.0062685673218428085 -0.41770367296982747
0.007144067643079663 -0.5536920653804622
0.008384941337086187 -0.6891383974082259
0.010335548834588053 -0.8237318563263671
0.013358090297215238 -0.957107242717709
0.017861479262286 -1.0888142737926363
0.024283217496983967 -1.218274684679984
0.03307441471661557 -1.3447139221829703
0.04471782993155304 -1.467105093142497
0.05974726005430545 -1.584155980277173
0.07874000748684402 -1.694349461766164
0.10231326337360003 -1.795982411709932
0.13105056707575388 -1.8871958344191158
0.1653678147923998 -1.966010528483348
0.20534459924008452 -2.030388660848357
0.25057072720364515 -2.0783696670763687
0.3000704983128851 -2.1082964900013814
0.3522376435060797 -2.1190351226904642
0.4044047886992725 -2.1082964900013237
0.453904559808504 -2.0783696670762497
0.49913068777204955 -2.0303886608481845
0.5391074722197159 -1.9660105284831324
0.573424719936342 -1.8871958344188704
0.6021620236384759 -1.7959824117096623
0.6257352795252119 -1.6943494617658779
0.64472802695773 -1.584155980276879
0.6597574570804623 -1.4671050931422047
0.671400872295382 -1.3447139221826874
0.6801920695149989 -1.2182746846797166
0.6866138077496853 -1.0888142737923878
0.6911171967147468 -0.9571072427174834
0.6941397381773674 -0.8237318563261672
0.6960903456748652 -0.6891383974080554
0.6973312193688699 -0.5536920653803212
0.6982067196901061 -0.41770367296971833
0.6989317820093454 -0.28141924811410096
0.6999776007794195 -0.14440709048297196
0.7044752870119446 0.0
0.036033139291348236 -0.001953245254301214
0.039076088842479595 -0.14455458135039173
0.03964664637067767 -0.2814816536228481
0.040298466724898924 -0.41778375259893574
0.04108003659756267 -0.5537986484467625
0.042154523558157936 -0.6893401785100411
0.0438506675620821 -0.8241144939146274
0.046514071053104136 -0.957764544119612
0.050528014726234576 -1.0898497564237697
0.05628842184572416 -1.219792252985134
0.06419464725293958 -1.3468200829469483
0.07466430330684533 -1.4699164690646502
0.08816294863557804 -1.5878039189250022
0.10522135529513546 -1.6989785483228068
0.12640796448354877 -1.8017426415210838
0.15226974659787484 -1.8942168419079695
0.1832036854017653 -1.974363096644151
0.21930305323732302 -2.040044520862326
0.26022173402752313 -2.0891710305762574
0.30506721811963006 -2.1199413109583487
0.35223764350607273 -2.131016156668832
0.3994080688925131 -2.11994131095829
0.4442535529846123 -2.0891710305761357
0.4851722337747994 -2.0400445208621503
0.5212716016103411 -1.974363096643931
0.5522055404142142 -1.8942168419077199
0.5780673225285221 -1.8017426415208098
0.5992539317169174 -1.698978548322516
0.6163123383764565 -1.5878039189247035
0.6298109837051712 -1.4699164690643536
0.640280639759061 -1.3468200829466614
0.648186865166263 -1.2197922529848635
0.6539472722857419 -1.0898497564235188
0.6579612159588639 -0.9577645441193848
0.66062461944988 -0.8241144939144263
0.6623207634538008 -0.6893401785098701
0.6633952504143945 -0.5537986484466214
0.6641768202870578 -0.41778375259882666
0.664828640641279 -0.28148165362277
0.6653991981694771 -0.14455458135034627
0.6684421477206038 -0.0019532452542989492
0.07125439266021014 -0.0034797906370028137
0.07344028569562007 -0.14462298410663454
0.0737722106656955 -0.2815196519226724
0.07430554698315227 -0.41785610930627015
0.07499975113656551 -0.5538880602068733
0.07592557513553493 -0.6895009649322706
0.07736827987395875 -0.8244307028556703
0.07967215404288472 -0.9583249877772535
0.08318848638295806 -1.09075045464091
0.088275172181816 -1.2211267509789303
0.09528189750833793 -1.3486816422555343
0.10456785961857192 -1.4724053137078252
0.11653314588329663 -1.5910357595817544
0.13164546073317046 -1.703086298354024
0.15042905673533735 -1.806864804041146
0.17338794148047781 -1.9004751728868596
0.2009037683260501 -1.981828151050385
0.23309947842470916 -2.0486989950500263
0.2697008900109898 -2.0988787028919558
0.30989150287146194 -2.130411462979907
0.352237643506066 -2.1417976098671714
0.3945837841406677 -2.130411462979847
0.4347743970011327 -2.098878702891832
0.4713758085874022 -2.048698995049847
0.5035715186860472 -1.9818281510501614
0.5310873455316042 -1.9004751728866056
0.5540462302767283 -1.8068648040408677
0.5728298262788792 -1.7030862983537292
0.5879421411287368 -1.5910357595814517
0.5999074273934457 -1.4724053137075246
0.6091933895036654 -1.348681642255244
0.6162001148301753 -1.2211267509786572
0.6212868006290236 -1.090750454640657
0.6248031329690894 -0.9583249877770249
0.6271070071380102 -0.8244307028554683
0.6285497118764312 -0.6895009649320991
0.6294755358753995 -0.553888060206732
0.6301697400288124 -0.41785610930616096
0.6307030763462691 -0.28151965192259437
0.6310350013163446 -0.14462298410658878
0.6332208943517503 -0.003479790636998216
0.10605260862959598 -0.004697246035189086
0.10767480694946545 -0.14466893801897923
0.1078784195484431 -0.281541107736612
0.1082957732675269 -0.4179160473247149
0.10889746578882203 -0.5539655798596842
0.10969407541093872 -0.6896265998263381
0.1108964194129683 -0.8246818574101344
0.11284069418224221 -0.9587897699985181
0.11585574045223009 -1.091515490499855
0.1202606969514903 -1.2222765173886172
0.12635920765102684 -1.3502968717257327
0.13445446465866276 -1.4745717228514026
0.14488513151481835 -1.5938526354640599
0.1580542392891195 -1.706671503728367
0.17442399896519778 -1.8113455462829426
0.1944618080449041 -1.9059652378306038
0.2185356294910232 -1.9883992707638702
0.2467994365225418 -2.056347594222201
0.2790566878651084 -2.107489409231744
0.3146163810863226 -2.1397262652377935
0.3522376435060595 -2.1514234686559024
0.3898589059257941 -2.139726265237732
0.4254185991470019 -2.107489409231618
0.45767585048955867 -2.0563475942220184
0.4859396575210649 -1.9883992707636433
0.5100134789671706 -1.905965237830346
0.5300512880468626 -1.8113455462826606
0.546421047722927 -1.7066715037280686
0.5595901554972138 -1.5938526354637537
0.5700208223533557 -1.4745717228510986
0.5781160793609792 -1.3502968717254396
0.584214590060505 -1.2222765173883419
0.5886195465597567 -1.0915154904996003
0.591634592829738 -0.9587897699982881
0.5935788675990075 -0.8246818574099316
0.5947812116010348 -0.6896265998261664
0.5955778212231507 -0.5539655798595429
0.5961795137444456 -0.4179160473246057
0.5965968674635294 -0.281541107736534
0.5968004800625071 -0.1446689380189332
0.5984226783823727 -0.004697246035182383
0.14060575207125384 -0.0056732530108910975
0.14181681478906077 -0.1447079714138808
0.14194959239240135 -0.2815532083991763
0.14226721295645778 -0.4179625072216637
0.14277199275092534 -0.5540325822227752
0.14345060161364553 -0.6897264339359882
0.14444046722563098 -0.8248733114815426
0.1460283422321338 -0.9591604237232376
0.14854289139706334 -1.09214581095413
0.1522629228085614 -1.2232412822495808
0.1574488197510688 -1.3516658844723228
0.1643522624669775 -1.4764163085353108
0.17324989542665356 -1.5962564145867717
0.18447929345363748 -1.7097363256492508
0.19844290343769097 -1.8151842721672526
0.21555382480631297 -1.9106840372630758
0.23616685968397316 -1.9940715111978193
0.26047006616664 -2.0629834999108736
0.2883548599746551 -2.1150009916051875
0.31928828831874967 -2.1478989466317833
0.35223764350605313 -2.159918804922212
0.38518699869335443 -2.1478989466317207
0.41612042703744323 -2.1150009916050596
0.44400522084544974 -2.0629834999106884
0.4683084273281059 -1.9940715111975895
0.48892146220575433 -1.9106840372628149
0.506032383574364 -1.8151842721669675
0.5199959935584056 -1.7097363256489488
0.5312253915853773 -1.5962564145864624
0.5401230245450417 -1.4764163085350042
0.5470264672609397 -1.351665884472027
0.5522123642034379 -1.2232412822493033
0.5559323956149287 -1.0921458109538735
0.5584469447798526 -0.9591604237230067
0.5600348197863518 -0.8248733114813392
0.5610246853983356 -0.6897264339358162
0.5617032942610551 -0.5540325822226339
0.5622080740555225 -0.4179625072215545
0.5625256946195789 -0.2815532083990983
0.5626584722229195 -0.1447079714138346
0.5638695349407232 -0.005673253010882558
0.17499602513401274 -0.006450974304791016
0.17589308816480856 -0.1447446814939195
0.17598359130576766 -0.28156087851058276
0.17621753575489135 -0.41799640324775966
0.17662346292056189 -0.554088878881165
0.17718962589054135 -0.6898066949731572
0.17799128010842805 -0.8250155995131752
0.1792508779902351 -0.959439726239708
0.18126375268406528 -1.0926435917336725
0.18430043771065552 -1.2240226180206477
0.18857426670561103 -1.352789861105561
0.19428793942207417 -1.4779413510577382
0.20166000820151034 -1.5982502752128591
0.21096189343931843 -1.7122841485895994
0.22252675103350517 -1.818384465930973
0.23672151941176173 -1.9146323823464597
0.2538718627760504 -1.998841283645323
0.2741864066916287 -2.068599652265041
0.2976616021519995 -2.1214087764768537
0.3239476798112576 -2.1549342518798063
0.35223764350604675 -2.167297552897926
0.38052760720083384 -2.1549342518797423
0.40681368486008684 -2.121408776476724
0.43028888032045026 -2.0685996522648535
0.4506034242360196 -1.998841283645091
0.46775376760029813 -1.9146323823461964
0.48194853597854437 -1.8183844659306854
0.49351339357272117 -1.7122841485892952
0.5028152788105194 -1.5982502752125474
0.5101873475899457 -1.477941351057429
0.5159010203064 -1.3527898611052633
0.5201748493013478 -1.2240226180203684
0.5232115343279319 -1.0926435917334147
0.5252244090217574 -0.9594397262394762
0.5264840069035617 -0.8250155995129713
0.5272856611214473 -0.6898066949729851
0.5278518240914264 -0.5540888788810236
0.5282577512570967 -0.41799640324765047
0.5284916957062203 -0.28156087851050476
0.5285821988471795 -0.14474468149387315
0.5294792618779728 -0.006450974304780951
0.20926801621344743 -0.00706384661620267
0.20992258993529642 -0.14478016590487802
0.2099841323828764 -0.28156666043332085
0.21014605346598264 -0.4180192300659294
0.21045426056810868 -0.554133582849116
0.2109073906513164 -0.6898713849102095
0.21153818679480016 -0.8251201566508943
0.21250239190699 -0.9596392296768649
0.21403837835402206 -1.093012208732337
0.2163931682010084 -1.224623696656231
0.2197606593884423 -1.3536719894202243
0.22429114736619063 -1.4791504237481954
0.23014843965438903 -1.5998390900339332
0.23753913265007745 -1.714320989693602
0.2467286592364953 -1.820951210874909
0.2580211278670124 -1.9178146538349778
0.2717153943921851 -2.0027090871937676
0.28803107787538607 -2.073189757828133
0.30705258738004226 -2.1267037486482114
0.32863694667148735 -2.1608278058926493
0.3522376435060402 -2.173564006976901
0.37583834034059127 -2.1608278058925845
0.397422699632032 -2.1267037486480804
0.416444209136682 -2.073189757827944
0.4327598926198756 -2.002709087193533
0.44645415914503994 -1.917814653834712
0.4577466277755486 -1.8209512108746193
0.46693615436195857 -1.7143209896932958
0.4743268473576394 -1.5998390900336195
0.48018413964582995 -1.479150423747884
0.4847146276235711 -1.353671989419925
0.48808211881099894 -1.22462369665595
0.4904369086579803 -1.0930122087320784
0.491972895105009 -0.9596392296766324
0.49293710021719683 -0.8251201566506903
0.4935678963606799 -0.6898713849100373
0.4940210264438873 -0.5541335828489746
0.4943292335460132 -0.4180192300658202
0.49449115462911936 -0.28156666043324285
0.4945526970766993 -0.14478016590483153
0.4952072707985464 -0.00706384661619136
0.24345224998341478 -0.0075382730800613645
0.24391912625851267 -0.1448155705612226
0.24395686750356868 -0.28157114284956264
0.24405390147961287 -0.4180324340822649
0.2442671133760735 -0.5541659227616228
0.2446029927650014 -0.6899221963534967
0.24507727674618426 -0.825194626710938
0.24577411586412184 -0.9597735372252686
0.24687125854929498 -1.0932629794750695
0.2485675054989251 -1.2250500019221913
0.2510355665502422 -1.3543174072614506
0.2543926223990941 -1.4800490627590388
0.25875055677971326 -1.6010297025725442
0.2642526988784001 -1.7158551746606125
0.27109381842516667 -1.8228937940250107
0.27951392260584534 -1.920237942237379
0.28976980618196346 -2.005678564766233
0.3020807257613865 -2.0767508610901064
0.3166068598317228 -2.1308734692401816
0.33340510733957823 -2.165565052148113
0.3522376435060333 -2.178712260644187
0.37107017967248734 -2.165565052148047
0.3878684271803392 -2.1308734692400493
0.4023945612506706 -2.0767508610899164
0.4147054808300877 -2.0056785647659976
0.42496136440619936 -1.9202379422371114
0.43338146858687177 -1.8228937940247194
0.44022258813363246 -1.7158551746603046
0.44572473023231385 -1.6010297025722287
0.4500826646129272 -1.480049062758726
0.4534397204617739 -1.3543174072611497
0.45590778151308636 -1.225050001921909
0.45760402846271303 -1.0932629794748099
0.4587011711478837 -0.9597735372250358
0.45939801026582006 -0.8251946267107338
0.4598722942470025 -0.6899221963533246
0.4602081736359302 -0.5541659227614815
0.46042138553239065 -0.41803243408215573
0.4605184195084348 -0.2815711428494846
0.46055616075349065 -0.14481557056117605
0.46102303702858727 -0.007538273080049094
0.27756576669617156 -0.007900244385789979
0.27789548088073784 -0.14485167358369802
0.2779067265349141 -0.28157374782311073
0.27794370703062354 -0.41803711416522715
0.2780652142384384 -0.5541858265569077
0.2782807199076011 -0.6899580051785096
0.2785978925289054 -0.8252468797201349
0.27905742385118437 -0.9598569418658637
0.279756882493898 -1.0934139119913862
0.28083676604893204 -1.2253152249931047
0.28243044681848783 -1.3547351106072314
0.2846303123082683 -1.480646180476872
0.2875056580507451 -1.601832043163379
0.2911450389372602 -1.716898490557664
0.2956730136837306 -1.8242250471375576
0.30125800292722266 -1.921914124983084
0.30810293812455963 -2.0077583001066297
0.3164234274628109 -2.0792837709242873
0.3264168457193423 -2.133904127911738
0.33831127193442345 -2.169121144020809
0.3522376435060262 -2.182725675401362
0.36616401507762836 -2.169121144020743
0.37805844129270716 -2.133904127911605
0.38805185954923477 -2.079283770924096
0.3963723488874819 -2.007758300106393
0.4032172840848144 -1.9219141249828153
0.4088022733283023 -1.8242250471372652
0.41333024807476904 -1.7168984905573552
0.4169696289612807 -1.6018320431630626
0.419844974703754 -1.4806461804765583
0.4220448401935309 -1.3547351106069296
0.4236385209630837 -1.225315224992822
0.4247184045181158 -1.0934139119911261
0.425417863160828 -0.9598569418656306
0.42587739448310635 -0.8252468797199307
0.4261945671044103 -0.6899580051783374
0.42641007277357296 -0.5541858265567664
0.4265315799813877 -0.41803711416511796
0.4265685604770971 -0.2815737478230327
0.4265798061312732 -0.14485167358365147
0.4269095203158388 -0.007900244385777
0.31161977458241036 -0.008177171218691978
0.31185497183898325 -0.14488945254381258
0.31183888392114995 -0.2815733501707313
0.3118190202730568 -0.4180341228228521
0.3118519609669741 -0.5541935280069364
0.31194625637525814 -0.6899776450165825
0.3121013395460212 -0.8252783212242829
0.3123320663022929 -0.9599043558075525
0.3126763326870791 -1.0934894891143052
0.3131977903130089 -1.2254445067755961
0.3139652502030512 -1.3549458798943081
0.3150411524605384 -1.4809592647928138
0.3164575908930874 -1.60226304563867
0.31825934567202147 -1.7174694921438554
0.32051015222576257 -1.8249652004468122
0.3233008412496703 -1.9228627914200045
0.32676852743082974 -2.0089634285819593
0.33110870678354054 -2.0807996321792297
0.3365734115147806 -2.135788924258445
0.34344697346772535 -2.1714606627294364
0.3522376435060189 -2.1855718546594063
0.3610283135443121 -2.17146066272937
0.36790187549725584 -2.135788924258312
0.3733665802284932 -2.0807996321790383
0.37770675958120176 -2.008963428581722
0.3811744457623592 -1.922862791419735
0.383965134786265 -1.8249652004465189
0.3862159413400046 -1.7174694921435458
0.3880176961189375 -1.6022630456383529
0.3894341345514851 -1.4809592647924994
0.3905100368089706 -1.3549458798940062
0.39127749669901174 -1.225444506775313
0.3917989543249408 -1.0934894891140454
0.39214322070972646 -0.9599043558073191
0.3923739474659978 -0.8252783212240787
0.3925290306367608 -0.6899776450164103
0.39262332604504485 -0.5541935280067952
0.39265626673896215 -0.4180341228227429
0.39263640309086895 -0.2815733501706532
0.39262031517303564 -0.1448894525437661
0.39285551242960803 -0.008177171218678512
0.34562987049742405 -0.008390687264065926
0.345798528634155 -0.14492862729668615
0.34575772497860313 -0.28156946457742166
0.3456839832143058 -0.41802398215086856
0.3456313934553459 -0.554189331158837
0.3456051816496944 -0.6899808311684155
0.345595723079715 -0.8252879904345674
0.34559352650428055 -0.9599201040691037
0.3455933520829137 -1.0935133897030822
0.34559365281843185 -1.2254817154711835
0.3455937993191367 -1.3550015053021391
0.34559425430179425 -1.4810403357965032
0.34559237825878697 -1.6023749120879256
0.34558650353338555 -1.7176180595776525
0.3455771420373899 -1.8251623880614454
0.3455817732372053 -1.923129099209255
0.3456750320271 -2.009334118611081
0.34603848377188484 -2.0813324685314027
0.346981963798121 -2.136560405052763
0.3488716852775792 -2.172563190403113
0.35223764350601117 -2.1872071533662214
0.3556036017344435 -2.1725631904030465
0.3574933232139015 -2.13656040505263
0.35843680324013666 -2.0813324685312105
0.3588002549849213 -2.0093341186108438
0.3588935137748167 -1.9231290992089851
0.3588981449746324 -1.8251623880611518
0.3588887834786373 -1.717618059577343
0.3588829087532368 -1.6023749120876085
0.3588810327102304 -1.4810403357961888
0.3588814876928885 -1.3550015053018367
0.35888163419359387 -1.2254817154709003
0.3588819349291123 -1.0935133897028224
0.3588817605077457 -0.9599201040688702
0.3588795639323113 -0.8252879904343632
0.3588701053623321 -0.6899808311682433
0.3588438935566806 -0.5541893311586956
0.35879130379772073 -0.41802398215075937
0.35871756203342353 -0.28156946457734355
0.3586767583778716 -0.14492862729663966
0.35884541651460244 -0.008390687264052177
0.37960753075140247 -0.008558128476617303
0.3797305821716891 -0.1449666853332529
0.37966719877106975 -0.2815624167789641
0.37954301857562806 -0.4180070043182897
0.3794079140895309 -0.5541736919645703
0.37926337743994876 -0.6899676729406284
0.37909038279419266 -0.8252755346442952
0.37885479945227973 -0.9599038658640552
0.37851035240501574 -1.093489604492214
0.3779895043772838 -1.225444547248399
0.37722300070291753 -1.354946237236712
0.37614755007373785 -1.4809589332346584
0.3747272487161326 -1.6022615062107706
0.3729137802920995 -1.7174663223083835
0.37064390546909315 -1.8249624544218448
0.36786349367205184 -1.922878233067296
0.3645754283429165 -2.0090497823915334
0.3609085676105639 -2.081063203943675
0.35717130978406725 -2.136380025857593
0.35386766517311447 -2.1725382200007903
0.35223764350600373 -2.1877466769620257
0.35060762183889277 -2.172538220000724
0.34730397722793993 -2.1363800258574592
0.34356671940144456 -2.0810632039434838
0.33989985866909467 -2.0090497823912967
0.33661179333996244 -1.9228782330670267
0.3338313815429237 -1.8249624544215515
0.3315615067199201 -1.7174663223080744
0.32974803829589006 -1.6022615062104542
0.32832773693828804 -1.4809589332343445
0.32725228630911096 -1.35494623723641
0.3264857826347471 -1.225444547248116
0.3259649346070165 -1.0934896044919542
0.3256204875597533 -0.9599038658638219
0.32538490421784094 -0.825275534644091
0.32521190957208523 -0.6899676729404562
0.32506737292250326 -0.5541736919644289
0.3249322684364062 -0.4180070043181805
0.3248080882409647 -0.281562416778886
0.3247447048403454 -0.14496668533320642
0.3248677562606319 -0.008558128476603347
0.41356879493788457 -0.008687376090584174
0.41365594629521213 -0.14500184572581323
0.41357193630665184 -0.28155233713809125
0.4134005464531478 -0.41798357277803766
0.41318619358877107 -0.5541472065133877
0.4129264832844895 -0.6899385033049662
0.41259269657825837 -0.8252413524481654
0.4121292944190269 -0.9598559989767754
0.4114296558190263 -1.0934141332659024
0.4103509014415423 -1.2253155026888436
0.4087580559033522 -1.3547355521215894
0.4065580366562582 -1.4806454323287606
0.40367969076949906 -1.6018287090009218
0.4000302390649584 -1.7168912402266934
0.39548415088395983 -1.8242189538696425
0.38990481073613625 -1.921945038693566
0.38321581317417974 -2.007929855055446
0.3754937619937896 -2.079803656004076
0.3670621711793455 -2.135085808237516
0.35875684464885754 -2.1714732115367075
0.35223764350599635 -2.187340828944117
0.34571844236313487 -2.1714732115366413
0.3374131158326479 -2.135085808237383
0.32898152501820666 -2.0798036560038855
0.32125947383782144 -2.0079298550552105
0.31457047627587026 -1.9219450386932975
0.3089911361280516 -1.82421895386935
0.3044450479470576 -1.7168912402263854
0.30079559624252206 -1.6018287090006063
0.2979172503557683 -1.4806454323284475
0.2957172311086792 -1.3547355521212883
0.2941243855704932 -1.225315502688561
0.2930456311930121 -1.0934141332656429
0.29234599259301297 -0.9598559989765422
0.2918825904337826 -0.8252413524479614
0.291548803727552 -0.6899385033047941
0.29128909342327075 -0.5541472065132463
0.29107474055889426 -0.41798357277792847
0.2909033507053903 -0.28155233713801314
0.2908193407168302 -0.14500184572576677
0.29090649207415764 -0.00868737609057006
0.4475247279734365 -0.00878389717800799
0.4475806317715817 -0.14503253206516642
0.44747683315035847 -0.28153925521620193
0.4472611055433682 -0.41795412787285013
0.44697108176938316 -0.5541104270870006
0.44660005534994246 -0.6898942869387112
0.4461125744323154 -0.825186329498402
0.44541192791388384 -0.959772188211302
0.44431562522622653 -1.093263476989396
0.4426206910335871 -1.2250505764577442
0.4401529682695552 -1.3543177977987406
0.43679530858936855 -1.4800479301882228
0.43243577854947807 -1.6010250766850957
0.42692839367844354 -1.715844750793655
0.4200757869671794 -1.8228845633337722
0.41165622289356835 -1.9202798997721762
0.40150313581763764 -2.0059184052904366
0.3896390177367825 -2.0774873080719805
0.3764961431795887 -2.132623174910902
0.3632326947237285 -2.1692166036541756
0.35223764350598913 -2.1859984828284347
0.3412425922882498 -2.1692166036541094
0.32797914383239146 -2.132623174910769
0.3148362692752021 -2.0774873080717904
0.30297215119435367 -2.0059184052902026
0.29281906411843034 -1.9202798997719093
0.2843995000448264 -1.822884563333481
0.2775468933335688 -1.715844750793348
0.2720395084625417 -1.6010250766847818
0.2676799784226586 -1.480047930187911
0.2643223187424787 -1.3543177977984406
0.26185459597845284 -1.2250505764574626
0.2601596617858176 -1.093263476989137
0.25906335909816297 -0.959772188211069
0.2583627125797329 -0.8251863294981978
0.2578752316621066 -0.6898942869385393
0.2575042052426663 -0.5541104270868594
0.2572141814686816 -0.41795412787274094
0.25699845386169146 -0.2815392552161238
0.2568946552404684 -0.14503253206511996
0.2569505590386136 -0.008783897177993747
0.48148258883684775 -0.008852588186772321
0.481510533250254 -0.14505751229990543
0.4813869270529835 -0.28152305828516144
0.4811293323518163 -0.41791906690105785
0.48076693820177663 -0.5540641886387203
0.48029127657646153 -0.6898362978615653
0.47964959568837384 -0.8251090715975015
0.4786838155985504 -0.9596377542720212
0.4771492546752333 -1.0930131474659428
0.4747954996576314 -1.2246244793503849
0.4714276543536875 -1.3536721684258788
0.46689630334512217 -1.4791489726618015
0.46103914461213424 -1.5998340557230875
0.4536508726641344 -1.7143096616634645
0.44446345115930924 -1.8209406372701855
0.43316924942252155 -1.9178610686642006
0.41950371468714714 -2.0029878125292497
0.40345501637437425 -2.0740926079429487
0.38558942557475784 -2.1289784388154462
0.3674698905597114 -2.1658084995443594
0.35223764350598213 -2.1837617550899626
0.3370053964522533 -2.1658084995442937
0.31888586143720976 -2.1289784388153143
0.30102027063759906 -2.0740926079427604
0.2849715723248345 -2.0029878125290175
0.2713060375894694 -1.917861068663936
0.26001183585269083 -1.820940637269896
0.2508244143478744 -1.7143096616631597
0.24343614239988398 -1.5998340557227757
0.23757898366690536 -1.4791489726614917
0.2330476326583487 -1.3536721684255806
0.22967978735441244 -1.2246244793501049
0.2273260323368162 -1.0930131474656846
0.225791471413503 -0.9596377542717887
0.22482569132368183 -0.8251090715972974
0.22418401043559513 -0.6898362978613934
0.22370834881028057 -0.5540641886385791
0.22334595466024118 -0.41791906690094865
0.22308835995907428 -0.28152305828508334
0.22296475376180389 -0.14505751229985894
0.22299269817521014 -0.008852588186758
0.5154476480982769 -0.00889807082655125
0.5154508347953006 -0.14507601655674693
0.5153073282831124 -0.28150353570519787
0.5150099174261245 -0.4178787981022838
0.5145790252406979 -0.5540093624000378
0.5140047993304686 -0.6897659953126517
0.5131960734917292 -0.8250021926979741
0.5119361490177227 -0.9594384651471909
0.5099249472535805 -1.0926449847048212
0.5068885142977956 -1.2240234297053936
0.5026138125933427 -1.352789723732413
0.49689914509961136 -1.4779396728164778
0.48952918373927623 -1.5982459138513807
0.48023858331696073 -1.7122751393138604
0.46869370331474663 -1.818376042382082
0.454501306979889 -1.9146765093719458
0.43731517305441864 -1.9991276334901145
0.41709241243824896 -2.069612481096483
0.39453588766999964 -2.124156882719044
0.3716425062517562 -2.1612766834781225
0.35223764350597514 -2.180649183385375
0.33283278076019507 -2.1612766834780563
0.3099393993419559 -2.1241568827189132
0.28738287457371353 -2.0696124810962964
0.2671601139575535 -1.9991276334898844
0.24997398003209428 -1.9146765093716833
0.23578158369724758 -1.818376042381795
0.2242367036950446 -1.7122751393135578
0.2149461032727404 -1.5982459138510714
0.20757614191241652 -1.4779396728161702
0.20186147441869573 -1.3527897237321171
0.197586772714252 -1.2240234297051154
0.19455033975847405 -1.092644984704564
0.1925391379943371 -0.959438465146959
0.1912792135203336 -0.8250021926977705
0.19047048768159575 -0.68976599531248
0.18989626177136695 -0.5540093623998967
0.18946536958594076 -0.41787879810217465
0.18916795872895317 -0.28150353570511977
0.18902445221676517 -0.14507601655670044
0.18902763891378882 -0.008898070826536878
0.5494237547999788 -0.008924875630159135
0.549405923816258 -0.14508773004226347
0.5492430911366415 -0.2814804994268878
0.54890762546077 -0.41783368625464395
0.548412061775068 -0.553947078246507
0.5477381924131254 -0.6896811286221026
0.5467473711472259 -0.8248583105350052
0.5451607776496679 -0.9591596168220503
0.5426467698108154 -1.0921474396765314
0.5389261062460974 -1.223241943451912
0.5337389546329507 -1.3516653768811162
0.5268348356432743 -1.476414580510357
0.5179416297614071 -1.5962538363375556
0.5067313371989403 -1.709732889155412
0.4928042185290451 -1.8151824589174355
0.4757117436238054 -1.910723371779704
0.4550369917956376 -1.9943414383228102
0.43070028116241926 -2.064054450465995
0.403524289247586 -2.1181694185435638
0.37588085216079625 -2.1556245145000714
0.3522376435059682 -2.1766468239067995
0.32859443485114187 -2.1556245145000066
0.30095099776435746 -2.118169418543435
0.2737750058495327 -2.06405445046581
0.24943829521632538 -1.9943414383225828
0.22876354338817043 -1.9107233717794447
0.21167106848294379 -1.8151824589171512
0.19774394981306154 -1.7097328891551125
0.18653365725060797 -1.5962538363372494
0.17764045136875414 -1.4764145805100521
0.17073633237908986 -1.351665376880823
0.16554918076595393 -1.2232419434516355
0.16182851720124425 -1.0921474396762756
0.15931450936239808 -0.9591596168218195
0.15772791586484394 -0.8248583105348021
0.1567370945989466 -0.6896811286219309
0.15606322523700475 -0.5539470782463658
0.15556766155130305 -0.4178336862545349
0.1552321958754319 -0.28148049942680975
0.1550693631958155 -0.145087730042217
0.1550515322120947 -0.008924875630144729
0.5834134012343387 -0.00893757653127159
0.5833793898213386 -0.14509276761000373
0.5831992008667098 -0.28145392416728815
0.5828276055191403 -0.4177840248018356
0.5822694068343844 -0.5538782439687743
0.5814910305795953 -0.6895787380882845
0.5802946655790588 -0.8246666349543051
0.5783509941491708 -0.9587891468787916
0.5753346728482808 -1.0915170121059856
0.5709281975697346 -1.2222768840502358
0.5648282956918709 -1.3502960197197356
0.5567332064983634 -1.4745702735524044
0.5463096775809919 -1.5938528636261877
0.533164918641616 -1.706675939465871
0.5168420771040119 -1.8113546287041087
0.49684854204653267 -1.9060046064772993
0.47275160928500476 -1.9886464980529297
0.4444360884368355 -2.057442872599275
0.4127437729459357 -2.111025930964349
0.3803080761955832 -2.1488300928314072
0.3522376435059615 -2.1717110155781745
0.3241672108163417 -2.1488300928313433
0.29173151406599557 -2.111025930964222
0.2600391985751057 -2.0574428725990925
0.23172367772694927 -1.9886464980527054
0.20762674496543584 -1.906004606477043
0.18763320990797167 -1.8113546287038278
0.17131036837038238 -1.706675939465575
0.1581656094310217 -1.593852863625885
0.1477420805136655 -1.4745702735521031
0.139646991320172 -1.3502960197194454
0.13354708944232044 -1.2222768840499618
0.1291406141637838 -1.0915170121057316
0.12612429286290117 -0.958789146878562
0.124180621433018 -0.8246666349541026
0.12298425643248417 -0.689578738088113
0.12220588017769603 -0.5538782439686333
0.12164768149294061 -0.41778402480172655
0.12127608614537129 -0.2814539241672102
0.12109589719074275 -0.14509276760995726
0.12106188577774264 -0.008937576531257178
0.6174174684161897 -0.00894085385248043
0.6173739470017434 -0.14509173636775377
0.6171809268108368 -0.2814240236071761
0.6167750418265027 -0.41773017689505076
0.6161539889892732 -0.5538023246440242
0.6152599223365114 -0.6894539456083064
0.6138275944156794 -0.8244159746236857
0.6115221325172737 -0.9583239067729992
0.60800237203018 -1.090751511579023
0.6029134899834357 -1.2211267248725273
0.5959054436787334 -1.3486805563036868
0.5866209810904409 -1.4724046216706173
0.5746656708433459 -1.5910396480939992
0.5595803556500536 -1.70309963700406
0.5408473622427276 -1.8068876929941973
0.5179594176636536 -1.9005256730998505
0.4905206466469693 -1.9820739633717985
0.4584341742715594 -2.0498215714202206
0.4223941959974767 -2.102738021173131
0.3850861757590892 -2.1408455999965343
0.35223764350595466 -2.1657605659644563
0.3193891112528222 -2.140845599996471
0.28208109101444234 -2.1027380211730056
0.24604111274037102 -2.0498215714200416
0.21395464036497586 -1.982073963371578
0.18651586934830774 -1.9005256730995976
0.16362792476925084 -1.8068876929939202
0.1448949313619415 -1.7030996370037679
0.12980961616866668 -1.5910396480937006
0.1178543059215888 -1.4724046216703197
0.10856984333331181 -1.3486805563034
0.1015617970286228 -1.221126724872256
0.09647291498188952 -1.0907515115787711
0.09295315449480422 -0.9583239067727709
0.09064769259640429 -0.824415974623484
0.08921536467557555 -0.6894539456081351
0.08832129802281499 -0.5538023246438832
0.08770024518558603 -0.41773017689494185
0.08729436020125224 -0.2814240236070981
0.08710134001034575 -0.14509173636770728
0.08705781859589953 -0.00894085385246602
0.6514345566753231 -0.008939479673357197
0.651391367649844 -0.14508591955620284
0.6511942825476583 -0.281391456330543
0.6507556102180478 -0.4176721534669176
0.6500667018212759 -0.5537179489099281
0.6490355809645826 -0.6892971702385556
0.6473506910060518 -0.8241001413192007
0.644682246161917 -0.9577622216750794
0.6406631909774702 -1.0898500501392423
0.6349000035079208 -1.2197917697354872
0.6269926994263589 -1.3468189426088348
0.6165261364035249 -1.4699170975267268
0.6030401044051266 -1.58781211962204
0.5860096705070271 -1.699000896248265
0.5648738778197794 -1.8017808157617545
0.5391071075787693 -1.8942919653131876
0.5083749175950667 -1.97465230005904
0.47271905418864485 -2.041264228802142
0.4327500372510735 -2.093345167335843
0.3904913966435572 -2.1315886276713485
0.35223764350594744 -2.15865076012101
0.31398389036834057 -2.1315886276712863
0.2717252497608328 -2.0933451673357206
0.23175623282327457 -2.0412642288019662
0.19610036941686945 -1.9746523000588232
0.16536817943318488 -1.8942919653129389
0.13960140919219402 -1.8017808157614816
0.11846561650496498 -1.6990008962479768
0.10143518260688497 -1.587812119621746
0.08794915060850565 -1.4699170975264335
0.07748258758568903 -1.3468189426085515
0.06957528350414162 -1.2197917697352187
0.06381209603460437 -1.0898500501389927
0.05979304085016679 -0.9577622216748529
0.05712459600603844 -0.8241001413190002
0.05543970604751176 -0.6892971702383849
0.05440858519082011 -0.5537179489097872
0.0537196767940487 -0.4176721534668088
0.05328100446443855 -0.2813914563304651
0.053083919362253075 -0.1450859195561564
0.05304073033677396 -0.008939479673342786
0.6854596408646387 -0.008938146568983578
0.6854324676371865 -0.14507778859714354
0.6852469955222639 -0.2813574024237668
0.6847756001741689 -0.4176095956845895
0.6840052471762001 -0.5536207100957641
0.6828136845501543 -0.6891020685717983
0.6808701970686197 -0.8237166092513697
0.6778399024909962 -0.9571032543264391
0.6733301382237282 -1.0888135334753795
0.666905019223582 -1.2182737005017876
0.6581131525755287 -1.3447129468413883
0.6464743351979584 -1.467107583570277
0.6314596975219116 -1.5841689853526326
0.6124956867559349 -1.6943806358696512
0.5889745355374308 -1.796037094033159
0.5603581722619843 -1.8873092413107797
0.5263672882766708 -1.9663963489352816
0.48721372655259737 -2.031832194343316
0.4437774537282812 -2.083010572535505
0.3975004320462079 -2.1209833066595905
0.3522376435059399 -2.1500000000000004
0.30697485496567534 -2.1209833066595296
0.2606978332836116 -2.083010572535385
0.2172615604593108 -2.0318321943431448
0.17810799873525626 -1.9663963489350695
0.14411711474996294 -1.8873092413105357
0.1155007514745375 -1.796037094032891
0.09197960025605441 -1.6943806358693676
0.07301558949009929 -1.5841689853523435
0.058000951814073144 -1.4671075835699883
0.04636213443652188 -1.344712946841109
0.03757026778848436 -1.2182737005015225
0.031145148788351312 -1.0888135334751325
0.02663538452109366 -0.9571032543262147
0.02360508994347716 -0.8237166092511703
0.021661602461947285 -0.6891020685716281
0.02047003983590359 -0.5536207100956234
0.01969968683793553 -0.41760959568448064
0.019228291489840815 -0.2813574024236889
0.01904281937491845 -0.1450777885970971
0.019015646147466182 -0.008938146568969156
SCALARS Stress float 6
LOOKUP_TABLE default
-1016.0105541281798 -1798.6955556431028 -1329.4123710744693 -9.736732427746716 0.0 0.0
1192.2295066321678 689.8979737860941 845.1088093360856 -24.94836330470266 0.0 0.0
519.3151055946537 90.49593793735191 184.96209394463543 -35.46143776885811 0.0 0.0
445.04537790850696 16.07693258132369 138.83119426642324 -3.694450934127324 0.0 0.0
549.0070148108382 47.27844850079311 193.53296471407566 -0.17250090424236397 0.0 0.0
631.0967096484331 78.81324159527992 275.8602843727244 0.5271673503743517 0.0 0.0
726.4319797117874 103.39649171799569 365.2016873499877 0.05690597336322867 0.0 0.0
819.0050201783017 143.80804511116364 454.3864425068832 -0.6766317270747697 0.0 0.0
915.9523791069357 195.15650450599227 539.682460575867 -1.6455922033919086 0.0 0.0
1025.093987686852 262.94631227620994 632.2028332418032 -2.7595071963410778 0.0 0.0
1150.747444840978 350.28082452234355 739.8006823509252 -3.91839626331953 0.0 0.0
1292.4893440092405 457.09612496894005 864.0632563118238 -5.022977106295974 0.0 0.0
1446.4146885559676 577.1762833795419 1000.5767609759913 -5.72871092053422 0.0 0.0
1607.72550550516 705.6857279200165 1144.9080579195556 -6.328535408780921 0.0 0.0
1768.6576246943823 834.9218148240652 1289.3712477896768 -6.7858976045799295 0.0 0.0
1920.9612465009673 957.093026004435 1426.0029199759713 -7.074390777972738 0.0 0.0
2057.203818047309 1065.7672946466414 1547.9581859962432 -7.0360041349451645 0.0 0.0
2169.7759588635595 1154.4680270996837 1648.2762012213068 -6.486662027730808 0.0 0.0
2254.1438752814483 1219.7773845867296 1722.9481611896122 -5.368626432201428 0.0 0.0
2300.9042870188796 1253.5830652943641 1763.2305518729945 -4.904610860844478 0.0 0.0
2297.577120448996 1247.3833496861148 1758.8011295194094 1.56035184772918e-11 0.0 0.0
2300.9042870174367 1253.58306529294 1763.230551871809 4.904610860876396 0.0 0.0
2254.1438752812605 1219.777384586593 1722.948161189391 5.368626432293015 0.0 0.0
2169.7759588611234 1154.4680270972735 1648.2762012194282 6.4866620277873395 0.0 0.0
2057.2038180474406 1065.7672946468765 1547.9581859961318 7.036004134854187 0.0 0.0
1920.9612464990323 957.0930260025814 1426.0029199744733 7.074390778002751 0.0 0.0
1768.657624693862 834.9218148236777 1289.3712477891395 6.785897604604578 0.0 0.0
1607.72550550476 705.6857279197611 1144.9080579191184 6.32853540884067 0.0 0.0
1446.414688554912 577.1762833786527 1000.5767609751414 5.728710920535914 0.0 0.0
1292.4893440088051 457.0961249687053 864.0632563113984 5.022977106316134 0.0 0.0
1150.7474448409548 350.28082452254125 739.8006823507686 3.918396263325702 0.0 0.0
1025.0939876870732 262.94631227668526 632.2028332417849 2.7595071963628186 0.0 0.0
915.9523791064784 195.1565045057682 539.6824605753795 1.6455922035005202 0.0 0.0
819.0050201772706 143.8080451103349 454.38644250610497 0.676631726956856 0.0 0.0
726.431979711169 103.39649171763256 365.20168734943456 -0.05690597336433889 0.0 0.0
631.0967096481309 78.81324159527867 275.86028437238417 -0.5271673503461223 0.0 0.0
549.0070148103227 47.27844850049333 193.53296471373682 0.17250090418454533 0.0 0.0
445.04537790814356 16.076932581021552 138.831194266228 3.6944509341215204 0.0 0.0
519.3151055942905 90.49593793708189 184.96209394442965 35.461437768790844 0.0 0.0
1192.2295066317306 689.8979737856928 845.1088093355302 24.948363304704166 0.0 0.0
-1016.010554125707 -1798.6955556406167 -1329.412371071978 9.736732427250125 0.0 0.0
-1294.821599950141 -2046.1339397146048 -1554.834113928068 -8.381423797128434 0.0 0.0
806.0113728370499 387.2362756640671 525.460217036381 -37.2833863491381 0.0 0.0
358.4514594495899 36.928551932179886 117.59664389700328 -28.50697880670192 0.0 0.0
394.24419316691296 1.681991830613684 118.85186569887462 -16.494014699717738 0.0 0.0
489.69264036914177 19.707761365343117 160.64805302468926 -15.025170986471377 0.0 0.0
575.3364856348643 26.35914537075722 223.5299117068898 -18.45526483737696 0.0 0.0
645.0031785971457 36.3814008745812 296.2162816119853 -20.730788445624576 0.0 0.0
714.4972723342922 51.64963939052055 362.8324170093144 -21.605504305531895 0.0 0.0
780.0831202462853 70.8784334441752 417.5555710129507 -21.81755131637089 0.0 0.0
846.7521456699026 96.37328433741486 468.3541518164462 -21.903972187658596 0.0 0.0
916.4510856641721 128.41562285382662 520.759023272293 -21.766646008374412 0.0 0.0
988.8163985752892 165.10242204672522 575.7181302064 -21.477480160691933 0.0 0.0
1061.4251843577156 205.18746940297115 632.0965774672435 -20.928998205079395 0.0 0.0
1131.8225322961177 243.07796569637512 686.1429373393177 -20.311639050911268 0.0 0.0
1193.6016184726818 273.52769541859067 732.1344222846722 -19.746391146443667 0.0 0.0
1241.7646255463155 291.9219451205085 765.2928338591138 -19.034892748388156 0.0 0.0
1273.067526943684 295.8580985326667 782.8346065856174 -17.885829061260004 0.0 0.0
1287.8945281761894 286.8235723747223 785.7267863744718 -16.037919368870195 0.0 0.0
1287.2609219611663 267.07651524161145 775.6760752728733 -13.477090690164651 0.0 0.0
1257.7038398226664 224.5701299581445 740.2370079986983 -11.109609998138751 0.0 0.0
1203.4677654990296 167.65739035222728 685.6886354337076 2.0513368781394092e-11 0.0 0.0
1257.7038398223472 224.5701299578627 740.2370079984686 11.109609998181536 0.0 0.0
1287.2609219610408 267.076515241512 775.6760752727968 13.477090690156121 0.0 0.0
1287.8945281757638 286.823572374385 785.7267863741428 16.037919368956914 0.0 0.0
1273.0675269436342 295.8580985326781 782.8346065855386 17.88582906121348 0.0 0.0
1241.7646255457887 291.9219451200972 765.2928338586933 19.034892748414702 0.0 0.0
1193.6016184726454 273.5276954186804 732.1344222846084 19.74639114646654 0.0 0.0
1131.8225322957546 243.07796569615869 686.1429373390341 20.311639051010808 0.0 0.0
1061.4251843572952 205.1874694027121 632.0965774669339 20.92899820506337 0.0 0.0
988.8163985753145 165.10242204694077 575.7181302064103 21.477480160693627 0.0 0.0
916.4510856644246 128.41562285429342 520.7590232723879 21.766646008314932 0.0 0.0
846.7521456698881 96.37328433762964 468.3541518163957 21.90397218764257 0.0 0.0
780.0831202459848 70.87843344410707 417.5555710126715 21.817551316428478 0.0 0.0
714.4972723336157 51.649639390067804 362.83241700879347 21.6055043054571 0.0 0.0
645.0031785967377 36.38140087442008 296.21628161159117 20.73078844559437 0.0 0.0
575.3364856347525 26.359145370985743 223.529911706719 18.455264837386004 0.0 0.0
489.69264036883715 19.70776136539716 160.64805302455082 15.02517098641448 0.0 0.0
394.2441931667001 1.6819918305728578 118.85186569880979 16.494014699706728 0.0 0.0
358.45145944957545 36.92855193221346 117.59664389701442 28.50697880663536 0.0 0.0
806.0113728365594 387.23627566364473 525.4602170358017 37.28338634909828 0.0 0.0
-1294.8215999483298 -2046.1339397126799 -1554.8341139260806 8.381423796676197 0.0 0.0
-1059.359523131143 -1776.4919761659685 -1291.7841586601348 -47.63414575074076 0.0 0.0
608.0822382422791 294.45345527084794 385.2088884464964 -101.93044315846515 0.0 0.0
256.8934627196479 44.76275725137939 90.49680032683128 -29.426238329718863 0.0 0.0
336.7206434936307 -0.9844316676788856 100.73976802002585 -36.43189641113168 0.0 0.0
443.15465857724666 12.868741990877785 139.16566236669627 -37.052396395640855 0.0 0.0
543.730932761727 22.792860995906924 197.75337637064928 -36.572902620076675 0.0 0.0
616.7506358717628 34.50847591389726 271.943966540615 -39.28496629175061 0.0 0.0
688.4046522197602 45.82581137669227 340.33390726319954 -40.820495257883 0.0 0.0
753.0042113034655 62.81202715836849 396.73490815651405 -41.447967716364296 0.0 0.0
816.8816859208491 84.76160773997475 446.077650993014 -41.69946447478781 0.0 0.0
882.6412820447954 112.98456720061543 495.3318517669126 -41.45127916446067 0.0 0.0
950.5142169765165 146.5995785171 546.7819719745985 -40.60904507182057 0.0 0.0
1019.880802011671 182.33984498848156 599.4887019792474 -39.51448840215786 0.0 0.0
1085.6953147315564 217.1135301532667 649.7469237405771 -38.32441847736621 0.0 0.0
1144.2877858111353 244.75203995369208 692.7487366545092 -37.18183312203516 0.0 0.0
1190.3527237098656 261.37626641751916 723.975947482864 -35.79180463733366 0.0 0.0
1221.8333515166432 265.6517435680299 741.7901957609854 -33.63004732405156 0.0 0.0
1237.5186718757702 257.4364040193795 745.5625775043252 -30.367407689276142 0.0 0.0
1233.2611202478734 233.87940672795105 731.9281135282147 -26.009010259653802 0.0 0.0
1214.309985357811 201.9280001049159 706.8472503472836 -20.507730184141245 0.0 0.0
1145.5031256398363 130.6905767969726 638.2021231413485 4.036415646169189e-11 0.0 0.0
1214.309985358772 201.92800010592634 706.8472503480051 20.507730184305387 0.0 0.0
1233.2611202480755 233.8794067282152 731.9281135283813 26.00901025974699 0.0 0.0
1237.5186718763557 257.4364040200248 745.5625775047611 30.367407689424315 0.0 0.0
1221.833351516691 265.6517435681562 741.790195760984 33.63004732400472 0.0 0.0
1190.3527237097915 261.3762664175503 723.9759474827729 35.791804637344455 0.0 0.0
1144.2877858111942 244.75203995387255 692.7487366544842 37.18183312203682 0.0 0.0
1085.6953147308693 217.11353015274278 649.7469237400787 38.32441847747072 0.0 0.0
1019.880802011462 182.33984498842537 599.4887019790422 39.514488402159515 0.0 0.0
950.5142169764438 146.5995785172281 546.7819719745646 40.6090450718498 0.0 0.0
882.6412820442424 112.98456720022116 495.33185176648624 41.45127916438766 0.0 0.0
816.88168592046 84.76160773979811 446.07765099273155 41.69946447472146 0.0 0.0
753.0042113029748 62.812027158102765 396.734908156142 41.44796771636099 0.0 0.0
688.4046522193095 45.825811376510416 340.33390726280635 40.82049525787307 0.0 0.0
616.7506358711705 34.50847591354001 271.94396654009927 39.2849662916923 0.0 0.0
543.7309327614274 22.79286099592972 197.75337637040553 36.57290262011966 0.0 0.0
443.1546585769455 12.868741991032483 139.16566236663562 37.05239639555979 0.0 0.0
336.72064349348074 -0.9844316677243887 100.73976801996743 36.431896411077275 0.0 0.0
256.8934627196232 44.76275725132422 90.49680032680742 29.426238329651632 0.0 0.0
608.082238241818 294.4534552705989 385.20888844601217 101.93044315829546 0.0 0.0
-1059.3595231292998 -1776.4919761640585 -1291.7841586581478 47.63414575039519 0.0 0.0
-854.082110865694 -1540.1817335193673 -1061.6441904988137 -61.5292082362453 0.0 0.0
455.4554942984642 200.5252166952079 272.68284517011597 -143.32557008543483 0.0 0.0
189.61954367229572 44.39026981135448 70.20294404509507 -51.69061528002365 0.0 0.0
281.5572679027004 3.7553559057481296 85.59648794447264 -55.55483151194481 0.0 0.0
389.1808275048292 5.492901100052892 117.96007127282209 -60.685435835470535 0.0 0.0
497.34359041315065 18.323942285707194 170.00597309873285 -56.71838045356917 0.0 0.0
587.4186966835815 29.744858322694444 242.95161237774127 -59.35053510970082 0.0 0.0
657.1597440537835 40.29760329047811 313.5284372339297 -60.39431364717213 0.0 0.0
721.8955852632912 54.79288956234774 372.4224729045198 -60.92809286766743 0.0 0.0
783.3510215356926 73.58895456764836 421.3988465183399 -61.03790494126042 0.0 0.0
844.9101955833039 97.88004164192854 467.7090377866582 -60.41589634690408 0.0 0.0
908.7804766563621 127.05315162080966 515.381717878531 -59.1058482726511 0.0 0.0
973.6134906248325 159.98217253789846 564.6259683293181 -57.39642750674173 0.0 0.0
1035.8792228275904 190.02199727054014 610.8226983221531 -55.818688590817445 0.0 0.0
1090.734097076577 214.7851738540896 650.5408861678368 -54.198718685914535 0.0 0.0
1135.6269721362253 230.99063659252968 680.9905293721521 -52.15870909749327 0.0 0.0
1167.681156251718 235.63787222565367 699.2984014588789 -49.20736510907018 0.0 0.0
1183.678322095789 227.4380411064695 703.2829684831665 -44.909142538801404 0.0 0.0
1181.9410992775684 205.97327802226098 691.9541919833778 -38.78468873358279 0.0 0.0
1168.5420586958512 178.8788058053311 671.9672814022344 -29.23781473691613 0.0 0.0
1070.469382992189 78.31370921285705 574.8072948638181 2.2710722191732202e-11 0.0 0.0
1168.5420586961884 178.8788058057027 671.9672814024675 29.237814737032263 0.0 0.0
1181.941099278207 205.9732780229778 691.9541919838401 38.78468873370362 0.0 0.0
1183.678322095424 227.43804110617208 703.2829684829178 44.9091425389497 0.0 0.0
1167.681156252405 235.63787222643927 699.2984014593345 49.2073651091477 0.0 0.0
1135.6269721358058 230.99063659219527 680.9905293718454 52.15870909746168 0.0 0.0
1090.734097076262 214.78517385389813 650.5408861675207 54.198718685937145 0.0 0.0
1035.8792228274126 190.02199727052624 610.8226983220027 55.81868859090682 0.0 0.0
973.613490624574 159.98217253779526 564.6259683291189 57.39642750676198 0.0 0.0
908.7804766557293 127.05315162033017 515.3817178780852 59.10584827262678 0.0 0.0
844.9101955826325 97.8800416414122 467.7090377861746 60.41589634679155 0.0 0.0
783.3510215354598 73.58895456764456 421.39884651811883 61.03790494122012 0.0 0.0
721.8955852627872 54.7928895620682 372.42247290412996 60.92809286764292 0.0 0.0
657.1597440535389 40.29760329050234 313.5284372336434 60.39431364713175 0.0 0.0
587.4186966830309 29.744858322426694 242.95161237727467 59.350535109658864 0.0 0.0
497.3435904128355 18.323942285757692 170.00597309854092 56.71838045352089 0.0 0.0
389.18082750442 5.492901099946319 117.96007127268703 60.68543583534063 0.0 0.0
281.55726790258404 3.755355905695333 85.59648794441942 55.554831511885624 0.0 0.0
189.6195436722279 44.39026981115424 70.20294404501462 51.6906152799009 0.0 0.0
455.455494298001 200.52521669499762 272.68284516969373 143.32557008531833 0.0 0.0
-854.082110864078 -1540.1817335176715 -1061.6441904970368 61.52920823596881 0.0 0.0
-677.1624083628932 -1333.1129473439137 -860.216921039337 -62.663711331786715 0.0 0.0
343.7212645507453 119.66650151372566 187.15374730207725 -172.12481701941857 0.0 0.0
140.17009058316114 38.34677072160391 53.55505839142951 -80.17776716199424 0.0 0.0
230.40720713573734 10.446378333006512 72.25683099681504 -76.18310828399484 0.0 0.0
327.7498340566897 4.210193713053122 99.4103292708229 -82.89697728496444 0.0 0.0
445.2333138882532 6.91057614479297 140.41478961032342 -83.08859055284869 0.0 0.0
545.003270847731 23.219367434522574 208.50999067116896 -79.62449504154588 0.0 0.0
620.0815383999583 36.37069598671733 282.67226978361225 -80.1072906885084 0.0 0.0
685.559307185064 47.18090773323829 343.6195608058177 -80.28572832990368 0.0 0.0
745.0528337466249 62.70404592647844 393.19676150342366 -79.89249068326897 0.0 0.0
803.2286915801835 82.75883423655905 437.3763111225496 -78.75314565163612 0.0 0.0
862.5998664650137 107.59143259685472 481.4104823400551 -76.87400247760452 0.0 0.0
923.236918637337 135.61976003701983 526.4383159904414 -74.77026834247586 0.0 0.0
981.1130420319589 163.41927111996998 569.4855406661104 -72.73177322590892 0.0 0.0
1033.0799127052471 184.98480301455305 606.2182596267164 -70.72559230856616 0.0 0.0
1076.1195152390123 198.8852209344241 634.6066281122613 -68.24405542713698 0.0 0.0
1108.882802221619 204.79925393351743 653.9365904172392 -64.6673549898027 0.0 0.0
1127.701596712189 199.08176125755713 660.5717166058158 -59.58842116142623 0.0 0.0
1129.7773466553756 180.5758669398511 652.6175187011221 -51.70828352916495 0.0 0.0
1118.5480621541508 154.1818103614642 634.0432295765553 -38.32354239456899 0.0 0.0
983.6825072518304 16.669186964278047 501.1316848538838 2.5849544726952445e-11 0.0 0.0
1118.5480621539352 154.18181036129357 634.0432295764178 38.32354239463173 0.0 0.0
1129.7773466551473 180.57586693969625 652.6175187009551 51.708283529325314 0.0 0.0
1127.7015967120403 199.0817612574724 660.5717166057049 59.58842116153433 0.0 0.0
1108.8828022210826 204.79925393305297 653.9365904168458 64.66735498985811 0.0 0.0
1076.119515238969 198.88522093446045 634.6066281122211 68.24405542709104 0.0 0.0
1033.079912704443 184.98480301386775 606.2182596260816 70.72559230858309 0.0 0.0
981.113042031202 163.41927111932014 569.4855406655562 72.73177322592922 0.0 0.0
923.2369186368819 135.6197600367131 526.4383159901192 74.77026834250049 0.0 0.0
862.5998664642656 107.59143259623741 481.41048233950954 76.87400247752957 0.0 0.0
803.228691579844 82.75883423638048 437.3763111222574 78.75314565155188 0.0 0.0
745.0528337467066 62.70404592683592 393.1967615034195 79.89249068331121 0.0 0.0
685.5593071848459 47.18090773330168 343.6195608055956 80.28572832996043 0.0 0.0
620.0815383994365 36.37069598642283 282.6722697831347 80.1072906883671 0.0 0.0
545.0032708473477 23.21936743446092 208.50999067082552 79.62449504150233 0.0 0.0
445.23331388799227 6.910576144990863 140.4147896102282 83.08859055272151 0.0 0.0
327.7498340563698 4.2101937128885165 99.41032927068335 82.8969772848731 0.0 0.0
230.4072071357298 10.446378333048619 72.25683099682493 76.18310828391404 0.0 0.0
140.17009058310126 38.34677072149936 53.555058391380165 80.17776716184638 0.0 0.0
343.721264550186 119.6665015134521 187.1537473016609 172.1248170193245 0.0 0.0
-677.1624083615897 -1333.1129473424219 -860.2169210378 62.66371133165417 0.0 0.0
-522.6224683566604 -1149.3989191020978 -683.1338373254149 -63.58678218503687 0.0 0.0
255.90222662621866 57.862996937847015 122.97740628974985 -186.97112608064236 0.0 0.0
101.42830388672547 28.686817990305858 39.03453656310939 -107.07324922502409 0.0 0.0
182.61681190881924 15.931407932305426 59.564428741206655 -97.36916110977289 0.0 0.0
269.0865260030011 4.072975776034125 81.89526715016218 -104.09501641992094 0.0 0.0
376.04145883906256 2.36842834695039 114.09841967729409 -107.15400502357589 0.0 0.0
483.1107257227132 16.709221956384045 171.34969125027993 -102.0544411639981 0.0 0.0
576.343632491053 28.26063313274083 243.6762100815996 -101.38576557440263 0.0 0.0
640.3534781628869 40.79785419927213 308.8290473831954 -99.00088285100503 0.0 0.0
701.1258820908515 51.87824269289075 360.0311220567171 -98.3699338574609 0.0 0.0
756.1070524211361 67.71783932460215 403.10130813770417 -96.47887233399236 0.0 0.0
811.1752617661596 88.09754298691882 444.02759797282175 -93.95524531080609 0.0 0.0
867.1801906610281 112.03565522000534 485.31679699367413 -91.37991630321942 0.0 0.0
920.9132212517796 134.9857386710386 524.1551991959145 -89.08922805033532 0.0 0.0
969.6731725237851 154.4172101947475 558.3290809176954 -86.82435179633443 0.0 0.0
1011.0143100079284 167.5580566579011 585.5810426690095 -83.85560847860074 0.0 0.0
1044.2312286799918 172.6417241311967 604.7416072346984 -79.92008086760927 0.0 0.0
1067.05278689903 170.6840959747483 615.2054339462949 -74.32048411766371 0.0 0.0
1074.614259344239 156.91812587140438 612.3707069938173 -65.01279183364154 0.0 0.0
1064.569220521636 129.4236561925212 593.8848174018236 -48.310484746329216 0.0 0.0
884.8312690000696 -53.039482539904256 417.6576953024264 8.144596108650148e-11 0.0 0.0
1064.5692205215923 129.4236561925291 593.8848174017925 48.310484746506354 0.0 0.0
1074.614259343262 156.91812587047284 612.3707069931423 65.01279183377272 0.0 0.0
1067.0527868987022 170.68409597444838 615.2054339460477 74.32048411770276 0.0 0.0
1044.2312286796923 172.6417241310158 604.7416072344481 79.92008086766108 0.0 0.0
1011.0143100083023 167.5580566583982 585.5810426692638 83.85560847861716 0.0 0.0
969.6731725228633 154.41721019390138 558.3290809170113 86.82435179634827 0.0 0.0
920.9132212512245 134.98573867061188 524.1551991954661 89.08922805029108 0.0 0.0
867.1801906602324 112.03565521937871 485.31679699312207 91.37991630330077 0.0 0.0
811.1752617660044 88.09754298695452 444.02759797269096 93.95524531082137 0.0 0.0
756.1070524206126 67.71783932422345 403.1013081372874 96.47887233391087 0.0 0.0
701.1258820906278 51.878242692930385 360.0311220565309 98.36993385748896 0.0 0.0
640.353478162508 40.797854199136054 308.82904738285004 99.00088285099831 0.0 0.0
576.3436324904338 28.26063313237649 243.6762100810764 101.38576557431504 0.0 0.0
483.11072572228977 16.70922195624398 171.3496912499642 102.0544411639407 0.0 0.0
376.04145883874537 2.368428347129983 114.09841967724148 107.1540050233979 0.0 0.0
269.0865260027927 4.0729757759712335 81.89526715008193 104.09501641982834 0.0 0.0
182.61681190864834 15.931407932135766 59.56442874110455 97.3691611096459 0.0 0.0
101.4283038867984 28.686817990486958 39.03453656318561 107.07324922488093 0.0 0.0
255.90222662583446 57.862996937693936 122.97740628947136 186.97112608052277 0.0 0.0
-522.6224683554809 -1149.3989191007095 -683.1338373240542 63.58678218497788 0.0 0.0
-391.1877259681898 -979.8545045696137 -528.9875553268135 -65.61348392163768 0.0 0.0
187.15217817648264 8.411387941177333 74.78637151763068 -194.81426250217663 0.0 0.0
69.2823388002608 18.412937529929714 26.30858289905716 -129.41917017764618 0.0 0.0
137.42919627704313 19.303903343682666 47.01992988621775 -117.44803047202849 0.0 0.0
211.73623594865788 6.122617745818894 65.3671859946075 -122.79800370907297 0.0 0.0
301.041161603388 -1.473719123650695 89.13299835372484 -130.76781244108918 0.0 0.0
411.5471351315606 5.423282795647254 132.33737246140328 -129.23917811135541 0.0 0.0
508.1363663787675 21.962731233449254 197.99316300018995 -122.06952778625407 0.0 0.0
589.4269721597428 29.793774963623967 264.0450831464933 -120.58188680564622 0.0 0.0
647.0470925100435 41.73994850148252 319.1788516423363 -116.00600031532917 0.0 0.0
701.8834004656078 52.721818825632084 362.7663692241134 -113.55767823417976 0.0 0.0
753.0833241461248 68.41763572563063 401.58245309352543 -110.43996527995169 0.0 0.0
804.3025547146226 87.74076655569903 439.37908194676515 -107.39028458143989 0.0 0.0
853.459029183452 106.94777370141541 474.6652583979777 -104.78633460118768 0.0 0.0
898.6430821409958 123.41390758876373 505.86978575983755 -102.32419277431315 0.0 0.0
938.1446828499123 133.74794559299306 530.9171165649916 -99.41712179428836 0.0 0.0
971.2744909647438 140.6880894655306 551.0533725277024 -94.79078162553213 0.0 0.0
999.344495897632 142.46232317955477 565.9167356701716 -88.86703213265834 0.0 0.0
1014.0937339787138 133.69965209026753 569.1427031742893 -78.97510106139049 0.0 0.0
1006.1880331726705 105.7991461574612 551.6722286525879 -59.80088506879976 0.0 0.0
771.7656861476562 -130.98623573776783 323.3222271271153 5.2656545790341625e-11 0.0 0.0
1006.1880331727502 105.79914615761331 551.6722286526192 59.80088506903061 0.0 0.0
1014.0937339782857 133.69965208991215 569.1427031740702 78.97510106150429 0.0 0.0
999.3444958969791 142.46232317900154 565.9167356696976 88.8670321328148 0.0 0.0
971.2744909647431 140.68808946560506 551.0533725276518 94.79078162563941 0.0 0.0
938.1446828499984 133.74794559316626 530.9171165650886 99.41712179425159 0.0 0.0
898.6430821401857 123.41390758810729 505.8697857592804 102.32419277437614 0.0 0.0
853.4590291840724 106.94777370222522 474.66525839839204 104.78633460127772 0.0 0.0
804.3025547139783 87.74076655523146 439.37908194627806 107.3902845814859 0.0 0.0
753.0833241457628 68.4176357254185 401.58245309330715 110.43996527996352 0.0 0.0
701.8834004653728 52.721818825615344 362.766369223855 113.5576782341621 0.0 0.0
647.0470925098817 41.73994850159796 319.1788516421707 116.00600031531891 0.0 0.0
589.4269721591337 29.793774963228028 264.045083145987 120.5818868055843 0.0 0.0
508.1363663781532 21.962731233116042 197.99316299974006 122.06952778621705 0.0 0.0
411.54713513106117 5.423282795489296 132.33737246112915 129.23917811130752 0.0 0.0
301.04116160296047 -1.4737191238849099 89.13299835353882 130.76781244097225 0.0 0.0
211.7362359484877 6.122617745655357 65.36718599450695 122.79800370893346 0.0 0.0
137.42919627692243 19.30390334355429 47.019929886143004 117.44803047183939 0.0 0.0
69.28233880027211 18.412937530070245 26.308582899102692 129.4191701774881 0.0 0.0
187.15217817609997 8.411387941028067 74.786371517391 194.8142625020056 0.0 0.0
-391.18772596731293 -979.8545045684705 -528.9875553257243 65.6134839216113 0.0 0.0
-275.2681840215954 -836.2563898678238 -395.8745062064392 -78.37143964753366 0.0 0.0
127.57518693268091 -28.29940773427127 37.34097384766404 -193.54690986288023 0.0 0.0
41.26830442799811 9.89786021678947 15.349874068277781 -146.7798880345325 0.0 0.0
94.08974247259391 20.673817018846524 34.42986257966817 -135.00971402358908 0.0 0.0
154.6831017079501 8.841226916385665 49.04845526425034 -139.0887617290027 0.0 0.0
223.7203410921649 -0.5839627743964935 66.66505725130827 -149.038639617537 0.0 0.0
320.57373183826616 -1.5088964985843167 96.07942850916427 -155.44432654135935 0.0 0.0
421.3499319974663 9.695863839378127 145.91235861055492 -146.1432092752333 0.0 0.0
511.3557716454977 21.7835032009802 208.47109928282816 -139.6507850183643 0.0 0.0
581.603821450416 27.519210372697888 264.7486265841333 -135.7756422131407 0.0 0.0
635.0914788085357 36.8359013481653 310.9677149312186 -129.9376453494834 0.0 0.0
683.7719465514837 48.78919031704641 349.915934859952 -126.02901357336874 0.0 0.0
731.1465712439749 63.40508346666234 385.6133212403015 -122.62440156359048 0.0 0.0
775.2091717346426 78.09133144669237 417.4858650729111 -119.75190270568552 0.0 0.0
816.7571764346517 91.06942381024837 445.8475727864087 -117.28159122173942 0.0 0.0
853.6315990345859 100.59204805965527 469.5908306386669 -114.35850554863164 0.0 0.0
886.6216324132301 105.62797833698792 488.97007930715694 -109.72583695283535 0.0 0.0
918.8413295371588 111.46716147000703 507.8172997055959 -103.14159460828006 0.0 0.0
943.7649848689996 112.20153564935073 520.8238070354089 -93.21689620777398 0.0 0.0
941.8770840089754 86.32462452057868 507.692767515489 -73.5164493886392 0.0 0.0
638.7066172244814 -217.50158932446664 215.2941190160453 9.278267043555388e-11 0.0 0.0
941.8770840091072 86.32462452081506 507.69276751559266 73.51644938891565 0.0 0.0
943.7649848685065 112.20153564893553 520.8238070351663 93.21689620801942 0.0 0.0
918.8413295374855 111.46716147046888 507.8172997058104 103.14159460845426 0.0 0.0
886.6216324127739 105.6279783366601 488.97007930675875 109.72583695295981 0.0 0.0
853.6315990340354 100.59204805918789 469.5908306383091 114.35850554865024 0.0 0.0
816.7571764342189 91.06942380995685 445.8475727861098 117.28159122180038 0.0 0.0
775.2091717341456 78.09133144626307 417.48586507257653 119.75190270568342 0.0 0.0
731.1465712438909 63.405083466725515 385.61332124018355 122.62440156359716 0.0 0.0
683.7719465506829 48.789190316330135 349.91593485940683 126.02901357331444 0.0 0.0
635.0914788084439 36.835901348271804 310.9677149310557 129.93764534947059 0.0 0.0
581.6038214502968 27.51921037282518 264.74862658397916 135.77564221307736 0.0 0.0
511.35577164509186 21.783503201025134 208.4710992825354 139.65078501845204 0.0 0.0
421.34993199684067 9.695863839065296 145.91235861016818 146.14320927520237 0.0 0.0
320.57373183783886 -1.508896498626365 96.07942850900778 155.44432654130978 0.0 0.0
223.72034109182897 -0.5839627745651272 66.66505725117342 149.0386396173067 0.0 0.0
154.6831017078315 8.841226916306937 49.048455264188995 139.08876172885465 0.0 0.0
94.0897424725043 20.673817018764193 34.42986257961636 135.00971402339619 0.0 0.0
41.26830442794668 9.897860216804789 15.349874068266914 146.77988803439024 0.0 0.0
127.57518693230584 -28.299407734417525 37.3409738474627 193.54690986266172 0.0 0.0
-275.2681840209463 -836.2563898668162 -395.87450620560634 78.37143964761115 0.0 0.0
-194.3616897029449 -695.473225062883 -295.26770110287583 -89.19376618530157 0.0 0.0
76.12040580590971 -56.907875461319264 9.182412394542741 -186.23073128541873 0.0 0.0
14.95705713061565 3.982590165976511 5.683393460400049 -159.4010380722709 0.0 0.0
52.36318660889096 20.585530842673755 21.884245783167913 -149.20517532495546 0.0 0.0
97.49974950558274 11.441172017944902 32.67901330322611 -152.1020729531801 0.0 0.0
147.49669985848982 2.0077821706244103 44.79779179856331 -162.79392190575282 0.0 0.0
215.31599223220874 -2.4213985485046905 63.30908769359289 -176.48882206458813 0.0 0.0
308.27909996984454 -3.948000819966481 92.99117326067059 -177.80463018126747 0.0 0.0
402.08103764740633 4.819020297320976 138.91471755758994 -163.51054358348733 0.0 0.0
481.29024807509643 12.923020068321044 190.5023012134232 -153.08325029998318 0.0 0.0
542.0010821126612 19.932742358435178 237.85100546976722 -144.82389414330746 0.0 0.0
591.9708413119762 27.205398921010392 277.32569549032723 -140.11526192521336 0.0 0.0
636.7052662149246 38.32905276413372 313.31215882619125 -136.4983405926107 0.0 0.0
676.4387036080855 48.636035449593265 343.7288234519475 -133.63830560720453 0.0 0.0
713.5898342576645 58.2041643488135 370.29244061603345 -131.34494910507232 0.0 0.0
747.9822703611951 65.5887711754872 393.0087774175274 -128.8545441822936 0.0 0.0
781.1706635201112 71.32851839290737 413.73161351307465 -124.51677558875694 0.0 0.0
814.0854707205649 76.83715161809491 433.3419015919713 -117.31994207952181 0.0 0.0
850.1977618499857 85.36059461935898 455.7068926298105 -107.34198519656069 0.0 0.0
866.8560910816342 72.96855288367104 459.14751940415226 -90.51807276905411 0.0 0.0
477.40555406962386 -309.74041366711526 91.3142860523445 1.1005951705556072e-10 0.0 0.0
866.8560910813201 72.968552883335 459.1475194040197 90.51807276917052 0.0 0.0
850.1977618495894 85.36059461918455 455.70689262957524 107.3419851968408 0.0 0.0
814.0854707201444 76.83715161757628 433.3419015917124 117.31994207961826 0.0 0.0
781.1706635199155 71.32851839273101 413.7316135128572 124.51677558878728 0.0 0.0
747.9822703610884 65.58877117550787 393.0087774174299 128.8545441822481 0.0 0.0
713.5898342577714 58.204164349035835 370.2924406160919 131.34494910503813 0.0 0.0
676.4387036074902 48.636035449126595 343.7288234514805 133.63830560723284 0.0 0.0
636.7052662148305 38.32905276419255 313.3121588261045 136.49834059269864 0.0 0.0
591.9708413115054 27.20539892078506 277.32569548997526 140.11526192528578 0.0 0.0
542.0010821122804 19.93274235809623 237.8510054694364 144.8238941432289 0.0 0.0
481.2902480747506 12.923020068122137 190.50230121311137 153.0832502998702 0.0 0.0
402.08103764684773 4.819020297018165 138.91471755727096 163.51054358355665 0.0 0.0
308.2790999696847 -3.9480008194884286 92.99117326072465 177.80463018126756 0.0 0.0
215.31599223188798 -2.4213985483875353 63.30908769355235 176.48882206436383 0.0 0.0
147.49669985834805 2.0077821706284746 44.7977917985288 162.79392190549896 0.0 0.0
97.49974950553974 11.441172017934504 32.67901330320906 152.1020729529928 0.0 0.0
52.36318660887064 20.585530842684374 21.884245783164992 149.2051753247737 0.0 0.0
14.957057130588906 3.982590166057596 5.683393460416054 159.40103807210204 0.0 0.0
76.12040580553544 -56.90787546148997 9.182412394353893 186.2307312851778 0.0 0.0
-194.36168970239035 -695.4732250619239 -295.26770110224305 89.19376618543386 0.0 0.0
-134.23609812011316 -578.1569790524618 -219.71754780112877 -105.64309810525008 0.0 0.0
31.042380931209145 -74.3380744237661 -12.145252265501203 -173.06589308332042 0.0 0.0
-9.627995837295808 0.5803487764026496 -2.713967420329079 -167.38064201271706 0.0 0.0
11.975566779255008 19.565115731408998 9.46250702601292 -159.53248947456402 0.0 0.0
40.79194433787717 13.638248047565725 16.33086666713067 -161.41600747521747 0.0 0.0
70.95416574563015 5.087649892749051 22.754821501866086 -172.76725184195462 0.0 0.0
106.69060480174845 -0.15840857957499588 31.822222093121304 -187.62182777168698 0.0 0.0
156.95897786121478 -2.031197292425892 46.53742449254285 -193.82796805388418 0.0 0.0
230.47575328712063 -5.947002585854917 67.85447675563691 -191.07201290735114 0.0 0.0
309.49028210479116 -13.357659787710759 93.21462996944683 -179.88854399886785 0.0 0.0
382.66312499501896 -17.759603387593934 121.21108332879867 -169.87840782893633 0.0 0.0
435.0711647049007 -13.723156554022427 150.97662404336123 -158.01648464854796 0.0 0.0
476.3960305433158 -3.1636212485641373 180.96603651650443 -151.45578149743895 0.0 0.0
512.9785263433416 10.865614791021304 210.0841418164476 -147.45705111536444 0.0 0.0
547.2091166827101 22.07251274246822 238.30079688533303 -145.85053531532165 0.0 0.0
579.3235271444885 29.957130773733738 264.7682798206674 -146.71058036975205 0.0 0.0
613.2050817339856 35.68679117406534 291.4778246330494 -144.8977912567288 0.0 0.0
649.7952022879226 39.296832877960114 317.2164995142825 -137.40378015874305 0.0 0.0
688.8277268772836 40.95949052390979 340.9366076516455 -124.97296536530718 0.0 0.0
745.8468428802929 58.328886173218365 380.8533097102644 -112.41749009637743 0.0 0.0
255.1982052275973 -407.78211840707644 -62.77345110288263 5.858424856342026e-11 0.0 0.0
745.8468428802906 58.3288861735108 380.85330971032647 112.41749009658915 0.0 0.0
688.8277268771425 40.95949052391798 340.9366076516231 124.97296536570732 0.0 0.0
649.7952022875882 39.29683287778573 317.21649951407164 137.40378015893862 0.0 0.0
613.2050817332173 35.68679117303942 291.47782463246665 144.89779125675568 0.0 0.0
579.3235271449187 29.95713077452182 264.7682798210161 146.7105803698494 0.0 0.0
547.2091166830721 22.072512742888684 238.3007968855535 145.85053531535095 0.0 0.0
512.9785263436486 10.865614791552053 210.08414181663775 147.45705111544464 0.0 0.0
476.39603054297817 -3.1636212488657662 180.96603651627967 151.4557814974952 0.0 0.0
435.07116470456384 -13.723156554258798 150.9766240431574 158.01648464857806 0.0 0.0
382.6631249950856 -17.759603387056064 121.21108332889706 169.87840782890436 0.0 0.0
309.4902821043982 -13.357659787820046 93.2146299692807 179.88854399882692 0.0 0.0
230.47575328663893 -5.947002586238797 67.85447675537277 191.07201290734753 0.0 0.0
156.95897786105786 -2.0311972922092107 46.5374244925602 193.82796805386212 0.0 0.0
106.69060480164522 -0.15840857947183173 31.822222093122722 187.6218277714266 0.0 0.0
70.95416574550904 5.087649892520854 22.754821501760595 172.7672518417572 0.0 0.0
40.79194433793415 13.638248047680415 16.330866667182704 161.4160074749513 0.0 0.0
11.975566779222289 19.56511573140792 9.46250702600269 159.5324894743775 0.0 0.0
-9.627995837304432 0.5803487764398745 -2.7139674203207655 167.38064201250245 0.0 0.0
31.042380930950713 -74.33807442398383 -12.145252265653877 173.0658930830973 0.0 0.0
-134.23609811988877 -578.1569790516954 -219.71754780076833 105.64309810530204 0.0 0.0
-106.92071452068382 -463.146850858928 -171.5029085200463 -107.65793378982039 0.0 0.0
-1.4433164804661143 -85.66195185903662 -26.06765452431835 -161.2358231305983 0.0 0.0
-32.24282355609437 -1.8039033440676027 -10.210681087624039 -171.41462485601429 0.0 0.0
-26.873658178560422 18.287761578547276 -2.575044029462981 -165.7766148979082 0.0 0.0
-15.080619109488998 15.3411960886176 0.07855105383384098 -166.65506904925775 0.0 0.0
-6.258742740093998 8.286058094120673 0.6088897621987166 -176.82759705541386 0.0 0.0
-2.2835106092499498 2.0420680216860516 -0.07657332645042736 -192.07624548880307 0.0 0.0
-0.45990342716017096 0.2614957395838049 -0.05860656979708079 -198.5474296480421 0.0 0.0
-0.019400862931203022 -0.1416939401933348 -0.04840362468682713 -195.62048565099622 0.0 0.0
0.10467494622792373 0.024988000329077664 0.04867768591230792 -184.08263404529987 0.0 0.0
0.29911900112692535 -0.5772867149723737 -0.2392611945568568 -178.25054966050945 0.0 0.0
-0.5514248996205282 0.44349691761388677 0.04866065108253892 -175.50395217365616 0.0 0.0
-2.1311677595786165 1.2391786926991664 -0.10367143964737835 -174.14639592630763 0.0 0.0
-2.3122963786907462 0.7665402285707579 -0.05229354310363732 -170.67703145183697 0.0 0.0
1.4622513238831942 1.6080377914208768 0.8383381904462937 -163.9003832208918 0.0 0.0
14.361733314783365 5.3731496231105496 2.842242401751278 -156.47731782817078 0.0 0.0
48.353082864662355 13.252996779223288 7.953480595853463 -150.52553775638665 0.0 0.0
130.19669602238096 13.793627765230568 13.91262198708965 -144.68109392128886 0.0 0.0
307.73067504987057 -48.67177915187664 33.93804729121474 -140.39440755171003 0.0 0.0
464.25012308154305 -28.09929179603005 154.7558077603746 -155.26032360896394 0.0 0.0
-283.30764361207673 -583.0285879454614 -363.27173945204066 -3.054623221032671e-11 0.0 0.0
464.2501230817941 -28.099291795938655 154.75580776052072 155.2603236091373 0.0 0.0
307.73067504979355 -48.6717791513108 33.938047291352945 140.3944075522227 0.0 0.0
130.1966960223148 13.793627764845581 13.91262198701422 144.6810939219676 0.0 0.0
48.353082864216816 13.252996778440824 7.953480595418078 150.52553775647584 0.0 0.0
14.361733315222779 5.373149623641481 2.8422424020474892 156.47731782818818 0.0 0.0
1.4622513243280792 1.6080377918444526 0.8383381907490133 163.90038322083183 0.0 0.0
-2.3122963784586688 0.7665402283064218 -0.05229354310667844 170.67703145190887 0.0 0.0
-2.1311677593017393 1.2391786920370222 -0.10367143977615356 174.14639592652338 0.0 0.0
-0.551424899441983 0.44349691699597216 0.04866065093834138 175.50395217362288 0.0 0.0
0.299119001693505 -0.5772867142284763 -0.23926119415467895 178.25054966044036 0.0 0.0
0.1046749464115706 0.024988000338619365 0.048677685969700235 184.08263404524615 0.0 0.0
-0.019400862649639805 -0.14169393980152156 -0.0484036244806072 195.62048565096006 0.0 0.0
-0.45990342734221734 0.2614957389903263 -0.05860657002809955 198.5474296480572 0.0 0.0
-2.2835106091086494 2.042068021791619 -0.07657332637638747 192.07624548859573 0.0 0.0
-6.258742740031259 8.286058094067036 0.6088897622014193 176.82759705517046 0.0 0.0
-15.080619109369113 15.341196088922327 0.07855105396107143 166.65506904905115 0.0 0.0
-26.873658178552464 18.287761578527473 -2.5750440294668264 165.77661489772993 0.0 0.0
-32.24282355606405 -1.8039033440006214 -10.210681087595063 171.41462485583463 0.0 0.0
-1.4433164805490863 -85.66195185914724 -26.067654524374046 161.2358231304455 0.0 0.0
-106.9207145204978 -463.1468508582319 -171.50290851980412 107.65793378969812 0.0 0.0
-88.33203448898294 -363.9113069204967 -135.66444952783075 -102.07031321749095 0.0 0.0
-22.16246045186254 -89.95516011412492 -33.635939959610965 -151.4084194671682 0.0 0.0
-53.238925259171786 -3.997762433094535 -17.171961520129017 -171.47139020174757 0.0 0.0
-63.95352461554691 17.00641116793166 -14.082380436805714 -167.81758878228592 0.0 0.0
-69.84022047723467 16.4032018302195 -16.027077529529024 -167.554850385027 0.0 0.0
-82.45658607228344 11.187006675024266 -21.367821566115445 -174.9682480770007 0.0 0.0
-111.35556023533499 4.448397733890827 -31.859113786180746 -189.4962141243004 0.0 0.0
-157.96068444499025 2.4318655661635606 -46.72744353646149 -194.0538448031655 0.0 0.0
-230.37791244528285 5.641983618863611 -67.93240009646235 -191.04596231671056 0.0 0.0
-309.2570099370939 13.335324650933826 -93.1411726753189 -179.83755479011947 0.0 0.0
-383.8819940826214 18.388867572940526 -120.84536183167856 -170.1224619523425 0.0 0.0
-434.8907829332522 13.538977759418493 -151.23451721094213 -157.8904817259898 0.0 0.0
-477.1023363163968 3.137535699082491 -181.63359539721145 -150.88460367926356 0.0 0.0
-514.1778158630469 -10.098874599487871 -210.7644615393773 -146.78616740497526 0.0 0.0
-545.2966457767848 -17.442165788738407 -235.10484645624877 -145.73896330521723 0.0 0.0
-566.4256279532573 -17.536001677521043 -248.68528500696613 -148.2438417937308 0.0 0.0
-575.1358366343294 -12.271847990847618 -248.76221471752797 -154.00755211993607 0.0 0.0
-572.2030009028169 -2.487093601789212 -230.8526864585932 -165.1367009557936 0.0 0.0
-557.7972354197136 33.95108159523586 -190.22583146517377 -173.0916273090297 0.0 0.0
-335.79844514132884 59.00079138860606 -81.79660402284509 -116.98967656368411 0.0 0.0
-797.9355801270428 -792.9176439756998 -780.8628045257972 -1.2882850342066376e-10 0.0 0.0
-335.798445141653 59.000791387900485 -81.79660402313041 116.98967656422033 0.0 0.0
-557.7972354189012 33.95108159616217 -190.22583146466354 173.09162730931948 0.0 0.0
-572.2030009034653 -2.487093603008887 -230.85268645905 165.1367009560724 0.0 0.0
-575.1358366346187 -12.271847991272068 -248.7622147177209 154.00755212017813 0.0 0.0
-566.4256279531916 -17.53600167746069 -248.68528500687313 148.24384179369437 0.0 0.0
-545.2966457766559 -17.442165788791314 -235.10484645613747 145.73896330529112 0.0 0.0
-514.1778158628697 -10.098874599535407 -210.76446153921734 146.78616740498973 0.0 0.0
-477.1023363161189 3.137535699232899 -181.6335953969658 150.88460367926217 0.0 0.0
-434.8907829329102 13.538977759546679 -151.23451721064575 157.89048172595903 0.0 0.0
-383.88199408261926 18.388867572191714 -120.84536183180775 170.12246195238205 0.0 0.0
-309.25700993628027 13.335324651253307 -93.14117267496144 179.83755479002352 0.0 0.0
-230.3779124447696 5.641983618853672 -67.9324000963039 191.0459623167375 0.0 0.0
-157.96068444468366 2.43186556600239 -46.72744353641282 194.05384480310028 0.0 0.0
-111.35556023510847 4.448397733825375 -31.85911378613525 189.49621412413921 0.0 0.0
-82.45658607213343 11.187006674977102 -21.367821566086818 174.96824807679357 0.0 0.0
-69.84022047712959 16.4032018302019 -16.027077529502808 167.5548503849101 0.0 0.0
-63.95352461544866 17.006411167971226 -14.082380436763813 167.81758878211113 0.0 0.0
-53.238925259036655 -3.997762432921728 -17.171961520036895 171.4713902016053 0.0 0.0
-22.162460451905428 -89.95516011420192 -33.635939959647345 151.4084194670743 0.0 0.0
-88.33203448887065 -363.9113069200305 -135.66444952766219 102.07031321734564 0.0 0.0
-71.59160644722803 -278.77959110451405 -105.11135926552262 -92.32215214633571 0.0 0.0
-36.930808258739376 -88.18703875236645 -37.53562729315229 -140.83880802682347 0.0 0.0
-72.58891032278088 -5.658391896687733 -23.473692165405726 -167.6213852365369 0.0 0.0
-99.29977257176773 15.534049879570775 -25.13236238433869 -165.59797701981304 0.0 0.0
-123.03333488824501 16.78448469345521 -31.878436292384293 -163.70057363552027 0.0 0.0
-158.45914470785192 14.047678665282971 -43.059160735071096 -170.28828371036744 0.0 0.0
-217.77345732053163 5.857277477818142 -63.31399633820526 -175.81753019493044 0.0 0.0
-308.537495024429 4.002106680534441 -93.1709542932067 -177.98015449623597 0.0 0.0
-402.0875646267858 -5.097808150237887 -138.99148110604372 -163.51262947832464 0.0 0.0
-481.2859088190178 -13.036782217148811 -190.50027962278807 -153.01462899034777 0.0 0.0
-541.869534323985 -19.815043082386417 -237.75731846733305 -144.74282413243293 0.0 0.0
-591.9996390930664 -27.105574453252743 -277.36537902335783 -139.98567312283026 0.0 0.0
-637.1444072349282 -38.099389394138235 -313.55588374619265 -135.87464631527382 0.0 0.0
-676.8740206266631 -47.713170127116726 -343.6964508869857 -132.59664190686075 0.0 0.0
-711.4340758889618 -54.564487590766944 -367.66642185206064 -130.80449919308387 0.0 0.0
-735.8004405749082 -54.43210479000162 -381.6452854481132 -131.31246824285006 0.0 0.0
-747.0501564915673 -47.097485193874874 -384.31506953933035 -135.4249251136277 0.0 0.0
-743.6653875737599 -35.539045586459 -377.0821343732106 -143.5761179763832 0.0 0.0
-713.0109463159588 -6.395468962849705 -349.03955857668467 -153.24820409204912 0.0 0.0
-669.746591439323 23.453213236062012 -314.99555110219455 -155.79089741999832 0.0 0.0
-1496.0640947426052 -1056.3009596620777 -1226.1510401938904 -9.759304475664976e-12 0.0 0.0
-669.7465914396046 23.45321323556753 -314.99555110244614 155.79089742020057 0.0 0.0
-713.010946315288 -6.395468962229273 -349.0395585762002 153.24820409228997 0.0 0.0
-743.6653875735817 -35.53904558652678 -377.0821343731601 143.5761179765763 0.0 0.0
-747.0501564916901 -47.09748519423081 -384.3150695394254 135.4249251138098 0.0 0.0
-735.8004405746599 -54.432104789807504 -381.64528544790426 131.31246824287217 0.0 0.0
-711.4340758891253 -54.56448759118953 -367.66642185213425 130.80449919319628 0.0 0.0
-676.874020626074 -47.71317012659882 -343.69645088656046 132.5966419067991 0.0 0.0
-637.1444072346357 -38.09938939399022 -313.5558837459807 135.87464631528084 0.0 0.0
-591.9996390923966 -27.105574452724 -277.3653790228286 139.98567312273556 0.0 0.0
-541.8695343238068 -19.815043082593025 -237.75731846714976 144.74282413236497 0.0 0.0
-481.28590881870144 -13.036782217315315 -190.50027962256132 153.01462899039402 0.0 0.0
-402.0875646264718 -5.097808150519389 -138.99148110588976 163.51262947843423 0.0 0.0
-308.53749502380305 4.002106680689311 -93.17095429293559 177.98015449628178 0.0 0.0
-217.773457319976 5.857277477933192 -63.31399633801347 175.81753019473615 0.0 0.0
-158.45914470768824 14.047678665123485 -43.05916073507011 170.28828371018426 0.0 0.0
-123.03333488817903 16.78448469325452 -31.878436292424993 163.7005736353628 0.0 0.0
-99.29977257164471 15.534049879592372 -25.13236238429974 165.59797701960002 0.0 0.0
-72.58891032264411 -5.658391896551963 -23.473692165323477 167.62138523638313 0.0 0.0
-36.93080825871349 -88.18703875235818 -37.535627293141694 140.83880802669074 0.0 0.0
-71.59160644712166 -278.7795911041494 -105.1113592653813 92.32215214626149 0.0 0.0
-57.68711443389622 -206.27480309600043 -79.188575258969 -80.9705940830491 0.0 0.0
-48.23388329698771 -81.84361743160767 -39.02319892565415 -128.5594071680689 0.0 0.0
-90.63675831557185 -6.675214294970568 -29.194787698258185 -159.75955021182884 0.0 0.0
-133.00781907480723 13.904739703106374 -35.72684128832962 -159.27391941353108 0.0 0.0
-174.84543531348464 16.63082610444126 -47.39707501380298 -155.94113108051292 0.0 0.0
-230.06244053191247 13.847007988624451 -64.83804462188557 -155.26608724836285 0.0 0.0
-322.4810916627132 6.011666282039496 -95.4080954964738 -158.84515450785455 0.0 0.0
-421.61312203038403 -9.82102065854644 -146.04734923115217 -146.6371517982351 0.0 0.0
-511.4279349026707 -22.07772300153249 -208.55289238263194 -139.61113236615464 0.0 0.0
-581.6677099741454 -27.626143979108008 -264.8083978191696 -135.7267352386311 0.0 0.0
-634.8987799623814 -36.66557920218425 -310.8404291958474 -129.87123117293257 0.0 0.0
-683.6856453373953 -48.59664981346989 -349.8121124995216 -125.86011884680897 0.0 0.0
-731.3411021486774 -63.19024207331918 -385.6572805196826 -121.97355643253852 0.0 0.0
-775.7421388669466 -77.66603253117553 -417.64015946706286 -118.44465192565565 0.0 0.0
-815.8377616618818 -88.96493010034717 -444.5125501422005 -116.2607098799503 0.0 0.0
-844.6994213371182 -92.11730712052045 -461.16516659295394 -116.69449138304786 0.0 0.0
-858.0472176557885 -83.63457523083873 -463.96511461391935 -121.16568341343765 0.0 0.0
-846.7370770609356 -58.55010427969626 -446.46306462205587 -128.8138320751783 0.0 0.0
-809.400131211232 -17.336095178207756 -408.7921015940051 -136.1248712830799 0.0 0.0
-722.4343372345647 57.00761743766688 -334.35559533180833 -141.6119234753737 0.0 0.0
-1930.9760290666713 -1293.1633926084157 -1571.9899651124192 5.781686240879935e-11 0.0 0.0
-722.4343372350174 57.00761743700485 -334.35559533221726 141.61192347564372 0.0 0.0
-809.4001312109585 -17.336095177988184 -408.79210159378465 136.12487128326708 0.0 0.0
-846.7370770603443 -58.55010427916774 -446.46306462168184 128.81383207526588 0.0 0.0
-858.0472176552098 -83.63457523038781 -463.9651146135635 121.16568341348116 0.0 0.0
-844.6994213371228 -92.11730712067089 -461.1651665929755 116.69449138318441 0.0 0.0
-815.8377616614088 -88.96493009999305 -444.51255014182044 116.26070987999299 0.0 0.0
-775.7421388660816 -77.66603253039185 -417.64015946646504 118.444651925586 0.0 0.0
-731.3411021488184 -63.19024207375021 -385.6572805197805 121.97355643265321 0.0 0.0
-683.6856453370212 -48.59664981326333 -349.8121124992291 125.86011884678632 0.0 0.0
-634.8987799619752 -36.66557920198579 -310.8404291955724 129.8712311728773 0.0 0.0
-581.6677099743645 -27.626143979843285 -264.80839781923464 135.72673523869517 0.0 0.0
-511.4279349021857 -22.077723001465746 -208.55289238222912 139.61113236615074 0.0 0.0
-421.61312202980616 -9.821020658407061 -146.047349230804 146.6371517982958 0.0 0.0
-322.4810916619099 6.011666282559149 -95.40809549606485 158.8451545077915 0.0 0.0
-230.06244053154649 13.847007988413843 -64.83804462186619 155.26608724810686 0.0 0.0
-174.84543531322677 16.630826104471943 -47.397075013722024 155.94113108031678 0.0 0.0
-133.007819074626 13.904739703198318 -35.72684128824698 159.27391941345473 0.0 0.0
-90.63675831552095 -6.675214295034101 -29.194787698261546 159.75955021171848 0.0 0.0
-48.233883296934685 -81.84361743152665 -39.02319892561398 128.55940716795507 0.0 0.0
-57.68711443378808 -206.27480309572994 -79.18857525885541 80.97059408299627 0.0 0.0
-47.0606728284462 -145.63440763335575 -57.80852413854058 -69.05458912540647 0.0 0.0
-57.28107625075985 -72.33418826187393 -38.88457935379014 -114.39019264548207 0.0 0.0
-107.6792625476355 -6.898608989285168 -34.37391247653451 -148.03173599067503 0.0 0.0
-165.16048411024468 11.959613457258607 -45.96773493543664 -148.60255570207883 0.0 0.0
-223.94043039248444 15.342170588997647 -62.52488238633701 -143.09758224643417 0.0 0.0
-305.773154880818 14.558727312762048 -86.39557815972952 -140.41454450050472 0.0 0.0
-408.7031454800354 -3.7040495765639676 -131.91391506838696 -129.64189425135953 0.0 0.0
-508.12805795460554 -22.25376168904233 -198.0236532914791 -122.36618461544764 0.0 0.0
-589.6226553928643 -30.127405205123367 -264.21669103946675 -120.5127191315328 0.0 0.0
-647.0925741119396 -41.79539079536583 -319.2453551820521 -115.9670307497875 0.0 0.0
-701.7029940991983 -52.498432621117445 -362.61110277824787 -113.52280020962591 0.0 0.0
-752.8069643011804 -68.06936607813097 -401.2988287285133 -110.27207805316529 0.0 0.0
-804.0950783418584 -87.30299303973891 -439.0890199481715 -106.77117973991311 0.0 0.0
-853.9805282448142 -106.86565348261568 -474.9335268022986 -103.4303412547521 0.0 0.0
-899.6548231582043 -123.54740011350594 -506.5099235113594 -101.05499471684767 0.0 0.0
-934.2711844774218 -129.866085528438 -527.2220245199749 -101.28596388878077 0.0 0.0
-946.3824168704001 -119.55809328494217 -528.5256441310186 -104.8552167892359 0.0 0.0
-926.5821314862508 -82.15535564419237 -500.6257693694322 -111.46822367710844 0.0 0.0
-868.044616264762 -16.64441313226476 -440.284125121155 -118.18990965173484 0.0 0.0
-750.825110791362 89.45439072136591 -333.6926327824372 -124.22786413672935 0.0 0.0
-2269.3251574757983 -1530.450746708171 -1867.2843053285821 4.829914246329281e-11 0.0 0.0
-750.8251107905966 89.45439072197887 -333.6926327818876 124.22786413691276 0.0 0.0
-868.0446162650903 -16.64441313271344 -440.2841251213298 118.18990965202325 0.0 0.0
-926.5821314856493 -82.15535564367745 -500.6257693690099 111.46822367719575 0.0 0.0
-946.3824168701267 -119.5580932847946 -528.5256441308677 104.85521678933851 0.0 0.0
-934.2711844772198 -129.8660855283907 -527.22202451978 101.28596388886939 0.0 0.0
-899.6548231577517 -123.54740011313694 -506.5099235109943 101.05499471683967 0.0 0.0
-853.9805282440706 -106.86565348199409 -474.93352680180743 103.4303412547553 0.0 0.0
-804.0950783419106 -87.30299304000994 -439.08901994817603 106.77117973996337 0.0 0.0
-752.8069643009205 -68.06936607802334 -401.29882872828995 110.27207805308645 0.0 0.0
-701.7029940993727 -52.498432621611386 -362.61110277836883 113.52280020967852 0.0 0.0
-647.0925741120009 -41.795390795755175 -319.2453551820046 115.96703074972945 0.0 0.0
-589.6226553923212 -30.127405204840798 -264.2166910389633 120.5127191314538 0.0 0.0
-508.12805795393797 -22.253761688751577 -198.0236532909857 122.36618461544951 0.0 0.0
-408.7031454795964 -3.704049576563338 -131.91391506815825 129.64189425135316 0.0 0.0
-305.7731548803601 14.558727312619729 -86.3955781596579 140.414544500362 0.0 0.0
-223.94043039229706 15.342170588913504 -62.52488238630778 143.09758224629172 0.0 0.0
-165.16048411006426 11.959613457302268 -45.967734935369826 148.6025557019336 0.0 0.0
-107.67926254754973 -6.898608989330235 -34.373912476522044 148.03173599061452 0.0 0.0
-57.281076250708985 -72.33418826180964 -38.88457935375558 114.39019264545928 0.0 0.0
-47.060672828371395 -145.63440763318712 -57.80852413846754 69.05458912530038 0.0 0.0
-39.55940203411918 -96.39078041770749 -40.785054735548 -56.84880844875632 0.0 0.0
-64.65632761767407 -60.916164976877475 -37.67174777836546 -98.45217448366203 0.0 0.0
-123.8313765289835 -6.303943225916122 -39.04089029614808 -132.51019618877888 0.0 0.0
-195.8404293247366 9.888570499976122 -55.78592664966304 -133.90521185774224 0.0 0.0
-270.54077814719346 12.561768314902588 -77.44381941917537 -125.55947830904674 0.0 0.0
-375.42292605475467 9.365667122849185 -110.36448551661368 -117.7891853689794 0.0 0.0
-481.45481678193295 -14.291766142313444 -170.25720630126423 -104.10078172858553 0.0 0.0
-576.5408575515714 -28.747707916572562 -243.8217084472103 -101.46802734362215 0.0 0.0
-640.5228335907221 -41.0020941972964 -308.9772986379222 -98.9322080726558 0.0 0.0
-701.1524028489082 -51.88875401452361 -360.07825960324254 -98.35340773933001 0.0 0.0
-755.9270388975302 -67.50476384397686 -402.94508421615683 -96.44432289459687 0.0 0.0
-810.7273477583551 -87.6006756959504 -443.58463172644576 -93.78492933359321 0.0 0.0
-866.4717154336911 -111.23714745159197 -484.59378744167327 -90.82743180770159 0.0 0.0
-921.092283726166 -134.92254215884373 -524.2291693142836 -87.90610830390027 0.0 0.0
-972.5570760077362 -156.83027847099947 -560.9644743162672 -85.6124447464898 0.0 0.0
-1012.2101487366247 -168.399016837597 -586.7300358902129 -84.95189835578462 0.0 0.0
-1024.3373145836438 -154.18856554461067 -586.0976922973335 -87.45735660135003 0.0 0.0
-992.5064292887787 -103.52842657224292 -545.6248170146611 -92.92805679375414 0.0 0.0
-909.7985533826334 -13.19252996447878 -460.64960350548847 -99.42195633410476 0.0 0.0
-767.496177510504 118.45168940255498 -327.3955036887098 -108.44956220837763 0.0 0.0
-2567.7666941138145 -1762.8785275700777 -2138.105252633024 4.815348120246199e-11 0.0 0.0
-767.4961775102107 118.45168940284412 -327.39550368853895 108.44956220848368 0.0 0.0
-909.7985533823437 -13.192529964329466 -460.64960350520346 99.4219563342514 0.0 0.0
-992.5064292880218 -103.52842657158394 -545.6248170141324 92.92805679392082 0.0 0.0
-1024.337314583703 -154.1885655448017 -586.0976922973882 87.45735660149344 0.0 0.0
-1012.2101487362219 -168.39901683731492 -586.7300358898779 84.95189835585691 0.0 0.0
-972.5570760076827 -156.83027847109426 -560.9644743161916 85.61244474653985 0.0 0.0
-921.0922837261005 -134.92254215893374 -524.2291693141896 87.90610830396928 0.0 0.0
-866.4717154336785 -111.23714745175711 -484.5937874416587 90.82743180771025 0.0 0.0
-810.727347757944 -87.60067569569749 -443.5846317261431 93.78492933353154 0.0 0.0
-755.9270388978355 -67.50476384458901 -402.9450842163505 96.44432289463754 0.0 0.0
-701.1524028484015 -51.888754014247 -360.07825960284134 98.35340773923284 0.0 0.0
-640.5228335901561 -41.00209419700944 -308.97729863742717 98.93220807267159 0.0 0.0
-576.5408575512181 -28.7477079165786 -243.8217084468468 101.46802734360855 0.0 0.0
-481.45481678168176 -14.291766142508003 -170.25720630104598 104.10078172852394 0.0 0.0
-375.4229260542122 9.365667122963465 -110.36448551640628 117.78918536891881 0.0 0.0
-270.54077814688486 12.561768314946878 -77.44381941908817 125.55947830896706 0.0 0.0
-195.84042932454474 9.888570499943242 -55.78592664961632 133.90521185761503 0.0 0.0
-123.83137652882817 -6.3039432258783075 -39.04089029609 132.51019618868307 0.0 0.0
-64.656327617654 -60.91616497686071 -37.6717477783544 98.45217448362258 0.0 0.0
-39.55940203412227 -96.3907804176291 -40.785054735525414 56.848808448663235 0.0 0.0
-34.793376381519046 -58.324309350686036 -27.935305719661525 -44.49002691939558 0.0 0.0
-70.46434050206575 -48.606753904014546 -35.72132832182409 -80.90420120925984 0.0 0.0
-139.07452084125848 -5.085192547632548 -43.24791401666731 -113.31402672990798 0.0 0.0
-224.97152286415934 7.699559241094085 -65.18813623983905 -114.9628629063441 0.0 0.0
-320.1406832341086 9.611907443249647 -92.57080082811967 -105.70300040200031 0.0 0.0
-430.8945767991522 -3.8093361691812646 -137.5846685148131 -88.46879075315665 0.0 0.0
-543.5369385617616 -21.263642624206405 -207.18928680274075 -81.17154520576132 0.0 0.0
-620.1883070245319 -36.65353481013246 -282.7383224235435 -79.99661771672886 0.0 0.0
-685.7072614164928 -47.284732856110644 -343.7461358701791 -80.22690852232355 0.0 0.0
-745.0791057890385 -62.70428682857929 -393.23695565412595 -79.89901091261238 0.0 0.0
-803.038757092074 -82.54058795062272 -437.20475002763385 -78.72002450649552 0.0 0.0
-862.012806080977 -106.97699180108624 -480.84008664943883 -76.6960794047699 0.0 0.0
-922.1414861888647 -134.53868136139636 -525.3807971759292 -74.3073655994318 0.0 0.0
-980.7036056777418 -163.0668582918634 -569.1119362830373 -71.88354166531239 0.0 0.0
-1036.2638433400361 -188.11197186224445 -609.3359743239052 -69.82188732060416 0.0 0.0
-1081.3449909127787 -203.71531320209553 -639.699167648189 -68.50332165083543 0.0 0.0
-1095.9842636171275 -191.83895629952227 -641.5022254876915 -69.08825434108655 0.0 0.0
-1053.4479793176934 -128.52583700093217 -589.4440331940057 -73.28856396517895 0.0 0.0
-945.3672827843623 -11.279651391328741 -478.1168051022756 -81.00715737557108 0.0 0.0
-773.1214293898163 149.52905691366772 -314.08459924775514 -94.64875380566221 0.0 0.0
-2837.0512209196186 -1983.869863794798 -2387.670215816308 -2.6211921522190096e-11 0.0 0.0
-773.1214293902938 149.5290569131027 -314.08459924814895 94.6487538057972 0.0 0.0
-945.3672827838175 -11.279651390847292 -478.1168051018768 81.00715737567943 0.0 0.0
-1053.4479793167977 -128.5258370000958 -589.4440331933847 73.2885639652476 0.0 0.0
-1095.9842636166431 -191.8389562991301 -641.5022254873389 69.08825434115741 0.0 0.0
-1081.3449909130443 -203.7153132025225 -639.6991676483424 68.5033216509224 0.0 0.0
-1036.2638433395098 -188.11197186184808 -609.3359743234995 69.8218873206931 0.0 0.0
-980.7036056784258 -163.06685829274602 -569.1119362834187 71.88354166541166 0.0 0.0
-922.1414861887137 -134.5386813614155 -525.3807971758619 74.30736559943556 0.0 0.0
-862.0128060812639 -106.97699180159123 -480.84008664959794 76.69607940479273 0.0 0.0
-803.0387570921176 -82.54058795092669 -437.2047500276217 78.72002450648779 0.0 0.0
-745.0791057882717 -62.704286828020635 -393.2369556535688 79.89901091251738 0.0 0.0
-685.7072614159863 -47.28473285585821 -343.7461358697364 80.22690852232667 0.0 0.0
-620.1883070244013 -36.653534810347985 -282.7383224232932 79.99661771663693 0.0 0.0
-543.5369385611583 -21.263642623970973 -207.1892868022534 81.17154520576217 0.0 0.0
-430.8945767985253 -3.8093361690470786 -137.5846685145292 88.46879075309582 0.0 0.0
-320.14068323375096 9.61190744344897 -92.57080082795406 105.70300040202847 0.0 0.0
-224.97152286405867 7.699559240989544 -65.18813623984079 114.96286290626708 0.0 0.0
-139.07452084128346 -5.085192547884458 -43.24791401675037 113.31402672979 0.0 0.0
-70.46434050202546 -48.606753903957355 -35.72132832179484 80.90420120924577 0.0 0.0
-34.79337638147193 -58.32430935063476 -27.935305719631998 44.49002691933552 0.0 0.0
-32.11050239696803 -31.32012995177417 -19.02918970462266 -32.26227813661873 0.0 0.0
-74.39800381181567 -36.28741426034788 -33.20562542164907 -61.94758596875528 0.0 0.0
-153.11443648307073 -3.5591324358914425 -47.00207067568864 -90.37639375487377 0.0 0.0
-253.19511756101366 5.235185081395565 -74.38793874096314 -91.79652297922601 0.0 0.0
-368.7103532856358 4.054428550466428 -108.81940627355704 -80.58208694852289 0.0 0.0
-489.097747351354 -11.979764958121681 -165.17823777849495 -63.86994388303501 0.0 0.0
-585.7697535890655 -28.94239010894477 -241.97084701865361 -59.972017947700046 0.0 0.0
-657.1067992359277 -40.178833270508186 -313.43470160174974 -60.228027559707975 0.0 0.0
-722.0368137867292 -54.85413255920759 -372.5366720306341 -60.88645466946067 0.0 0.0
-783.3929321829376 -73.59957517771647 -421.4467669338418 -61.059980732611095 0.0 0.0
-844.6841743191181 -97.63443478570395 -467.4993669283405 -60.3815831802365 0.0 0.0
-908.1112881001106 -126.38614442916696 -514.7417874203962 -58.92903592807433 0.0 0.0
-972.3866335134071 -158.84790072914421 -563.4747673339284 -57.04392063179619 0.0 0.0
-1034.8892026308795 -189.26361301134034 -609.9671040902172 -55.331481530031944 0.0 0.0
-1092.1964549669528 -216.501590586859 -652.1225182781893 -53.70887984513144 0.0 0.0
-1140.5641346684802 -235.83110330130967 -685.9004492758487 -51.91885719401735 0.0 0.0
-1163.3045307145253 -230.76467258205597 -695.0269252353057 -50.56558881816514 0.0 0.0
-1118.668725706598 -163.84659925083645 -640.1847725253792 -52.870348625969086 0.0 0.0
-983.1312520609881 -17.749927477455756 -500.6330451625697 -62.451040511241075 0.0 0.0
-766.4061849453518 188.12753208168212 -290.76598827800274 -81.6299707299754 0.0 0.0
-3077.2528037220454 -2183.6456888732796 -2611.4975135723394 4.562394906315603e-11 0.0 0.0
-766.4061849445571 188.12753208244095 -290.7659882774015 81.62997073006724 0.0 0.0
-983.131252060501 -17.749927477051756 -500.63304516217454 62.451040511379 0.0 0.0
-1118.6687257067188 -163.84659925100954 -640.1847725254969 52.870348626009445 0.0 0.0
-1163.3045307140887 -230.76467258170706 -695.0269252349764 50.565588818217094 0.0 0.0
-1140.5641346680225 -235.83110330095062 -685.9004492754893 51.918857193999514 0.0 0.0
-1092.1964549660247 -216.50159058604433 -652.1225182774803 53.708879845155955 0.0 0.0
-1034.8892026311541 -189.26361301181313 -609.9671040903079 55.331481530128954 0.0 0.0
-972.3866335131445 -158.8479007290466 -563.4747673337802 57.043920631804056 0.0 0.0
-908.1112881003869 -126.38614442966143 -514.741787420518 58.92903592807205 0.0 0.0
-844.6841743187523 -97.63443478554744 -467.49936692808603 60.381583180161634 0.0 0.0
-783.3929321824203 -73.59957517742637 -421.446766933488 61.059980732539536 0.0 0.0
-722.0368137866905 -54.854132559453475 -372.53667203051737 60.8864546694929 0.0 0.0
-657.1067992355175 -40.178833270404986 -313.4347016013518 60.22802755966801 0.0 0.0
-585.769753588425 -28.94239010861855 -241.97084701811121 59.97201794768042 0.0 0.0
-489.0977473508074 -11.979764957939405 -165.178237778154 63.86994388295921 0.0 0.0
-368.71035328515256 4.054428550424347 -108.81940627344098 80.58208694845194 0.0 0.0
-253.19511756087522 5.235185081239125 -74.38793874096794 91.79652297919624 0.0 0.0
-153.11443648294528 -3.5591324359369096 -47.002070675664655 90.37639375479444 0.0 0.0
-74.39800381172402 -36.2874142602769 -33.205625421600274 61.94758596871548 0.0 0.0
-32.11050239696851 -31.320129951763054 -19.02918970461946 32.26227813660833 0.0 0.0
-30.391226311331913 -15.11617620552926 -13.652220755058348 -20.879160250900107 0.0 0.0
-75.65454768553658 -24.898043732341037 -30.165777425363295 -41.85177314177888 0.0 0.0
-165.51548969921598 -2.289235425938738 -50.341417537546405 -63.28017341377338 0.0 0.0
-281.07573890370634 2.489346649646566 -83.57140892825728 -64.06949609334488 0.0 0.0
-412.4655051305847 -6.101923988425262 -127.64460501012272 -51.811524466614394 0.0 0.0
-536.38620335747 -20.00118501180267 -193.6895958049885 -40.706403126986125 0.0 0.0
-615.2701757573791 -33.62711173542503 -270.98726176965226 -39.44306581882187 0.0 0.0
-688.1533159299593 -45.29584675695068 -340.00181896960083 -40.68207144946436 0.0 0.0
-753.190312828805 -62.912825978720655 -396.89352798225303 -41.424977881229346 0.0 0.0
-816.9197234883219 -84.76188664058415 -446.1128226534347 -41.72322672352753 0.0 0.0
-882.3605078630878 -112.69620140049295 -495.0685716060369 -41.41866973172243 0.0 0.0
-949.8277145674997 -145.9517597236777 -546.1384836324595 -40.45886835797204 0.0 0.0
-1018.7404665625959 -181.34190274046512 -598.4485205695754 -39.28460134948236 0.0 0.0
-1084.2955657865477 -216.0085431424887 -648.5307224424671 -38.11937731361898 0.0 0.0
-1142.9907438669175 -243.86108074643226 -691.7020610010475 -37.02891357537174 0.0 0.0
-1189.1122733406385 -260.5001395639065 -722.9819241652759 -35.47623911950086 0.0 0.0
-1217.861856517646 -261.8463479172325 -738.0739308993537 -33.033870773485674 0.0 0.0
-1200.7220482173097 -221.58443876586475 -710.1156761179681 -32.37563653920777 0.0 0.0
-1042.8248684910354 -50.61967441738136 -547.1454561214614 -41.9523675549006 0.0 0.0
-739.4171996317581 244.05269275926923 -248.81790018174667 -68.11057304499606 0.0 0.0
-3273.280191819887 -2343.7397593082 -2793.0067223766964 5.283240511744225e-11 0.0 0.0
-739.4171996311386 244.05269275987024 -248.81790018127498 68.11057304506059 0.0 0.0
-1042.8248684907392 -50.61967441713471 -547.1454561212524 41.95236755494928 0.0 0.0
-1200.722048217337 -221.58443876597352 -710.1156761179493 32.375636539246685 0.0 0.0
-1217.8618565176166 -261.84634791730286 -738.0739308993526 33.03387077359195 0.0 0.0
-1189.1122733402149 -260.50013956356696 -722.9819241648922 35.47623911947038 0.0 0.0
-1142.9907438662417 -243.86108074586986 -691.7020610005615 37.02891357536771 0.0 0.0
-1084.2955657857042 -216.00854314180313 -648.5307224418078 38.11937731366961 0.0 0.0
-1018.7404665626929 -181.3419027407484 -598.4485205696337 39.284601349531954 0.0 0.0
-949.8277145671545 -145.95175972354465 -546.1384836322142 40.458868357977636 0.0 0.0
-882.3605078627595 -112.69620140039018 -495.06857160581626 41.418669731767814 0.0 0.0
-816.9197234873992 -84.7618866398534 -446.11282265277475 41.723226723397474 0.0 0.0
-753.190312828693 -62.912825978909275 -396.89352798209734 41.424977881289244 0.0 0.0
-688.1533159295365 -45.295846756808 -340.0018189692018 40.68207144949242 0.0 0.0
-615.2701757570089 -33.6271117353556 -270.9872617692563 39.443065818692176 0.0 0.0
-536.3862033569277 -20.001185011556434 -193.68959580458207 40.7064031269908 0.0 0.0
-412.4655051301893 -6.101923988460221 -127.64460500999871 51.81152446663522 0.0 0.0
-281.0757389035756 2.4893466494074827 -83.5714089282917 64.06949609332122 0.0 0.0
-165.5154896990339 -2.289235425776026 -50.34141753744297 63.280173413728484 0.0 0.0
-75.65454768552446 -24.898043732433713 -30.165777425387454 41.85177314171362 0.0 0.0
-30.391226311259043 -15.116176205482823 -13.65222075502256 20.879160250844592 0.0 0.0
-27.507642055048795 -8.813952642445102 -10.896478409248168 -11.941343451454365 0.0 0.0
-72.81469453507047 -15.879077207033097 -26.608131522631073 -20.951357251299545 0.0 0.0
-175.52152988756183 -2.013421150393626 -53.26048531138663 -30.9576024044366 0.0 0.0
-309.9959292276738 -0.2350995036376995 -93.05389910457909 -31.208605962325727 0.0 0.0
-459.93481248592127 -13.48117731944784 -147.56592296039364 -23.155595804853256 0.0 0.0
-569.8272547409881 -26.91198959622178 -221.07492390789187 -19.916504830499598 0.0 0.0
-642.9983093536329 -34.657791114563125 -294.7647204076178 -20.837925001656934 0.0 0.0
-714.2003715396193 -51.25470260852927 -362.60132731466354 -21.545630034907436 0.0 0.0
-780.314855010728 -70.93891775737099 -417.70262686969033 -21.806502777324305 0.0 0.0
-846.7746420906781 -96.35370713685487 -468.36794336777996 -21.916393723345557 0.0 0.0
-916.1149445524393 -128.08489923404477 -520.4434407145136 -21.743036132542613 0.0 0.0
-988.1538912646523 -164.51161157216927 -575.1111345829013 -21.386245839341072 0.0 0.0
-1060.4708513867595 -204.40488367698828 -631.2585968313138 -20.821199992730044 0.0 0.0
-1130.1062463179178 -241.65470720097807 -684.6278263014678 -20.271520334224235 0.0 0.0
-1189.4581963230328 -269.836023607433 -728.310207633821 -19.74374296419518 0.0 0.0
-1231.9321072164553 -282.84746045839324 -755.9911000937161 -18.789405417781918 0.0 0.0
-1254.553170395323 -278.7378219418258 -765.2062851977191 -16.853379926380253 0.0 0.0
-1263.711676682545 -265.21115887832275 -763.1846871742109 -14.385167825898206 0.0 0.0
-1198.3012919711964 -184.1958390000233 -691.1672406433673 -18.803632996945215 0.0 0.0
-726.9357312850781 284.4892429545015 -222.0662600132396 -48.17195246222075 0.0 0.0
-3291.486081911011 -2326.717846053037 -2797.5725829056873 -4.758859972753271e-12 0.0 0.0
-726.9357312846545 284.48924295488246 -222.0662600129242 48.17195246233437 0.0 0.0
-1198.3012919708854 -184.19583899975356 -691.1672406432061 18.803632996961603 0.0 0.0
-1263.7116766829038 -265.21115887875555 -763.1846871744441 14.38516782590063 0.0 0.0
-1254.5531703954134 -278.73782194199646 -765.206285197791 16.853379926366202 0.0 0.0
-1231.9321072159878 -282.8474604580349 -755.9911000932922 18.7894054177603 0.0 0.0
-1189.458196323018 -269.836023607537 -728.3102076337946 19.743742964169744 0.0 0.0
-1130.1062463167316 -241.65470719993087 -684.6278263005904 20.271520334216973 0.0 0.0
-1060.4708513865432 -204.40488367695153 -631.2585968311303 20.82119999274977 0.0 0.0
-988.1538912644502 -164.51161157216615 -575.1111345827788 21.386245839270018 0.0 0.0
-916.1149445520325 -128.0848992338665 -520.4434407142355 21.743036132540926 0.0 0.0
-846.7746420898361 -96.35370713622748 -468.3679433671595 21.916393723316638 0.0 0.0
-780.314855010509 -70.93891775741119 -417.7026268694822 21.80650277731813 0.0 0.0
-714.2003715398705 -51.25470260907744 -362.60132731469525 21.545630034921274 0.0 0.0
-642.9983093532558 -34.657791114488624 -294.7647204072163 20.837925001493314 0.0 0.0
-569.8272547405198 -26.91198959611357 -221.07492390749078 19.91650483054076 0.0 0.0
-459.93481248553627 -13.481177319539476 -147.56592296023794 23.155595804849888 0.0 0.0
-309.99592922734456 -0.23509950365662835 -93.05389910450502 31.20860596232222 0.0 0.0
-175.5215298874318 -2.013421150402468 -53.26048531135027 30.957602404369585 0.0 0.0
-72.81469453510176 -15.87907720716578 -26.608131522680257 20.951357251257157 0.0 0.0
-27.507642055063933 -8.813952642427676 -10.896478409247482 11.941343451377808 0.0 0.0
-16.75147496953088 -4.24930383614711 -6.300233641703397 -7.558705941750295 0.0 0.0
-62.18146053853521 -8.77895768282654 -21.28812546640852 -8.69768808105308 0.0 0.0
-181.76819608141673 -3.056904306887727 -55.44753011649132 -10.58685486544249 0.0 0.0
-346.0113059598878 -10.451863176606285 -106.84063551274781 -9.949670000400074 0.0 0.0
-518.9053346526051 -41.50280301815805 -179.59505651843304 -3.371634129601606 0.0 0.0
-635.985866846339 -75.08813065448896 -272.8239859504896 -0.3102217933205189 0.0 0.0
-724.857549340335 -101.96450564795126 -364.1313928300778 0.07876719110918984 0.0 0.0
-819.3098029994275 -143.78427759304185 -454.60595426215207 -0.6544827905924144 0.0 0.0
-916.3217204967539 -195.40269810226988 -539.9943042200688 -1.6484878942968333 0.0 0.0
-1025.1192065072553 -262.92774990951017 -632.2229052099103 -2.7706174631101295 0.0 0.0
-1150.1894242177377 -349.7369351392301 -739.2723194259515 -3.9138798681400058 0.0 0.0
-1291.5012989611714 -456.1980641296707 -863.1402631701571 -4.98722122900476 0.0 0.0
-1445.254332165148 -576.1931425775219 -999.5364544862658 -5.706870944940295 0.0 0.0
-1605.4281937387866 -703.6638183147481 -1142.8323351782342 -6.393198722888867 0.0 0.0
-1759.8121898770573 -826.5493389186106 -1280.9763869442622 -6.913561272783657 0.0 0.0
-1890.9209073083837 -928.0570225784005 -1396.9315960497313 -7.050123436114529 0.0 0.0
-1977.3045873261453 -988.1191353176325 -1470.0992269308229 -6.454709923230038 0.0 0.0
-1995.673800887667 -984.8467612714148 -1477.9537364533735 -4.515342052496759 0.0 0.0
-1983.5439814354213 -956.6728457881011 -1457.6182375791018 -6.082066747190405 0.0 0.0
-1915.7121150350988 -885.4584692739546 -1384.60574586378 -35.657314359810414 0.0 0.0
-4947.627712128761 -3954.606632576074 -4422.45072558041 -8.857625743985409e-11 0.0 0.0
-1915.7121150342327 -885.4584692731103 -1384.6057458631117 35.65731435982221 0.0 0.0
-1983.5439814341635 -956.6728457868791 -1457.6182375781427 6.082066747125957 0.0 0.0
-1995.6738008890168 -984.8467612728755 -1477.9537364542832 4.515342052517418 0.0 0.0
-1977.3045873260198 -988.1191353175927 -1470.0992269305793 6.454709923216317 0.0 0.0
-1890.920907306809 -928.0570225769134 -1396.9315960484514 7.050123436100634 0.0 0.0
-1759.8121898770319 -826.5493389187332 -1280.9763869440458 6.9135612727442535 0.0 0.0
-1605.4281937371811 -703.6638183132699 -1142.8323351769543 6.393198722860738 0.0 0.0
-1445.2543321641338 -576.1931425766868 -999.5364544854308 5.706870944944665 0.0 0.0
-1291.5012989608426 -456.1980641295566 -863.1402631698255 4.9872212289542475 0.0 0.0
-1150.1894242167364 -349.7369351384291 -739.272319425172 3.913879867991138 0.0 0.0
-1025.1192065065848 -262.9277499090944 -632.2229052093522 2.7706174631648075 0.0 0.0
-916.3217204962851 -195.40269810205172 -539.9943042196563 1.6484878942366166 0.0 0.0
-819.309802999943 -143.78427759390388 -454.6059542622987 0.6544827905841331 0.0 0.0
-724.8575493396729 -101.96450564756546 -364.1313928294879 -0.0787671912490211 0.0 0.0
-635.9858668458725 -75.08813065434742 -272.82398595002803 0.31022179334956235 0.0 0.0
-518.9053346522312 -41.50280301819896 -179.59505651822352 3.371634129584276 0.0 0.0
-346.01130595958415 -10.451863176389931 -106.84063551258765 9.949670000451302 0.0 0.0
-181.7681960813073 -3.0569043069780086 -55.44753011648558 10.586854865377813 0.0 0.0
-62.18146053843155 -8.778957682855866 -21.288125466386212 8.697688080983761 0.0 0.0
-16.75147496945332 -4.249303836069826 -6.300233641656943 7.558705941699473 0.0 0.0
SCALARS Strain float 6
LOOKUP_TABLE default
0.011244215581320618 -0.019532452543012113 0.0 -0.0006863332940605761 0.0 0.0
0.006929381253254243 -0.001474908673745542 0.0 -0.005990034043210394 0.0 0.0
0.0022136013616432075 -0.0006240550866899255 0.0 -0.0005893144277699439 0.0 0.0
0.00200070330059534 -0.0008007962910828318 0.0 -4.2027552292633836e-05 0.0 0.0
0.002645467519054223 -0.001065830663002809 0.0 6.628399683215912e-05 0.0 0.0
0.003989351489385487 -0.002017811018152612 0.0 0.00014608352833666487 0.0 0.0
0.006216436200161319 -0.003826375882601773 0.0 0.00019013063808665092 0.0 0.0
0.009407413034622445 -0.006573014019029747 0.0 0.00020678572605248034 0.0 0.0
0.013656408999710913 -0.010354826311333326 0.0 0.00020605218664255503 0.0 0.0
0.019016169317911974 -0.015175683051502242 0.0 0.00017748299948485596 0.0 0.0
0.025543265543211353 -0.021061607639782848 0.0 0.000164314785099193 0.0 0.0
0.03334105667211238 -0.028113759221532364 0.0 0.0001621611351699197 0.0 0.0
0.042527721944113764 -0.036479386478290736 0.0 0.00010142503314197824 0.0 0.0
0.053207504149118276 -0.04629086556642881 0.0 3.0438791965436843e-05 0.0 0.0
0.06538819948613744 -0.05760229811152115 0.0 -0.00011095471670254098 0.0 0.0
0.0788181892734998 -0.07021007488853702 0.0 -0.0003433507455605307 0.0 0.0
0.09286754020541327 -0.08352568160803293 0.0 -0.0006323269428962892 0.0 0.0
0.10650364051405672 -0.09655860013968745 0.0 -0.0008643832688908103 0.0 0.0
0.11840737384100075 -0.10801363499888528 0.0 -0.0008747182025002609 0.0 0.0
0.12708364537804348 -0.116448209569671 0.0 -0.000864621450169465 0.0 0.0
0.13041786298298452 -0.1198103397836755 0.0 2.0903417885520525e-15 0.0 0.0
0.12708364537803044 -0.1164482095696659 0.0 0.0008646214501747095 0.0 0.0
0.11840737384097141 -0.10801363499885697 0.0 0.0008747182025072298 0.0 0.0
0.10650364051401492 -0.09655860013965922 0.0 0.000864383268895875 0.0 0.0
0.09286754020536561 -0.08352568160798475 0.0 0.0006323269428945592 0.0 0.0
0.07881818927345001 -0.07021007488849781 0.0 0.00034335074555915876 0.0 0.0
0.06538819948608737 -0.05760229811147399 0.0 0.00011095471670255702 0.0 0.0
0.05320750414906776 -0.04629086556638048 0.0 -3.0438791965558924e-05 0.0 0.0
0.04252772194406298 -0.03647938647824554 0.0 -0.00010142503314298059 0.0 0.0
0.033341056672065085 -0.028113759221487275 0.0 -0.00016216113517140474 0.0 0.0
0.02554326554317088 -0.021061607639742352 0.0 -0.00016431478510020624 0.0 0.0
0.019016169317879132 -0.015175683051468061 0.0 -0.00017748299948526687 0.0 0.0
0.013656408999684896 -0.010354826311309625 0.0 -0.00020605218664139757 0.0 0.0
0.009407413034602633 -0.006573014019015206 0.0 -0.0002067857260540331 0.0 0.0
0.006216436200148015 -0.0038263758825915397 0.0 -0.00019013063808676834 0.0 0.0
0.003989351489377981 -0.0020178110181463937 0.0 -0.0001460835283357539 0.0 0.0
0.002645467519050949 -0.0010658306630018423 0.0 -6.628399683247041e-05 0.0 0.0
0.0020007033005943766 -0.0008007962910835903 0.0 4.202755229258998e-05 0.0 0.0
0.0022136013616418063 -0.0006240550866902016 0.0 0.0005893144277683201 0.0 0.0
0.006929381253249068 -0.001474908673743152 0.0 0.005990034043201758 0.0 0.0
0.011244215581312889 -0.01953245254298951 0.0 0.0006863332940245774 0.0 0.0
0.007607373877828394 -0.01739895318501403 0.0 -0.00023137693917558966 0.0 0.0
0.00451688384916179 -0.0010794681180867913 0.0 -0.004697513145224474 0.0 0.0
0.0015279723530241549 -0.0005020190424666078 0.0 -0.0003929357452193509 0.0 0.0
0.0017917377836062474 -0.0007621816822134445 0.0 -0.00021134522334562115 0.0 0.0
0.0023200710415737665 -0.000979974132055418 0.0 -0.0001671149214525739 0.0 0.0
0.003463288705649276 -0.0018128376202242564 0.0 -0.00019163784258732428 0.0 0.0
0.005449434368682744 -0.003494232646515316 0.0 -0.00036680181510984815 0.0 0.0
0.008346683955190594 -0.006088725297722341 0.0 -0.0005987594080804676 0.0 0.0
0.01221793849077503 -0.009680904241368202 0.0 -0.0008996004785421601 0.0 0.0
0.01708329065838126 -0.014260331494733724 0.0 -0.0012531347298133837 0.0 0.0
0.022969851826401447 -0.019838600362820875 0.0 -0.0016178561407839073 0.0 0.0
0.029960376728298054 -0.02650110282664121 0.0 -0.001979646537473035 0.0 0.0
0.03819631498536267 -0.03439889652290679 0.0 -0.0023981699277397348 0.0 0.0
0.04780626980996348 -0.04368418293929984 0.0 -0.0028961370134700758 0.0 0.0
0.05881048912842434 -0.054411961656072434 0.0 -0.0034689001727673885 0.0 0.0
0.07099465114777065 -0.06639669233871877 0.0 -0.004088696880214683 0.0 0.0
0.08379163329931005 -0.07908811283518608 0.0 -0.004604831024693951 0.0 0.0
0.09627256078219719 -0.09155167100834646 0.0 -0.004735521492009545 0.0 0.0
0.10720520610288382 -0.10254517907793242 0.0 -0.00422017358330513 0.0 0.0
0.11501988684818727 -0.11057486489262823 0.0 -0.0032013848228340924 0.0 0.0
0.11792606346610401 -0.1138124358835341 0.0 4.522424101871536e-15 0.0 0.0
0.11501988684817428 -0.11057486489261695 0.0 0.0032013848228462064 0.0 0.0
0.10720520610285782 -0.10254517907790703 0.0 0.004220173583317444 0.0 0.0
0.09627256078216105 -0.09155167100831246 0.0 0.004735521492019126 0.0 0.0
0.08379163329926853 -0.07908811283514484 0.0 0.004604831024694589 0.0 0.0
0.0709946511477262 -0.0663966923386769 0.0 0.004088696880212279 0.0 0.0
0.0588104891283789 -0.054411961656027075 0.0 0.0034689001727668677 0.0 0.0
0.047806269809918055 -0.04368418293925613 0.0 0.0028961370134705493 0.0 0.0
0.03819631498531733 -0.03439889652286345 0.0 0.0023981699277369007 0.0 0.0
0.029960376728255703 -0.026501102826598334 0.0 0.0019796465374694637 0.0 0.0
0.02296985182636481 -0.019838600362782628 0.0 0.0016178561407791383 0.0 0.0
0.017083290658351027 -0.014260331494703182 0.0 0.0012531347298100452 0.0 0.0
0.012217938490751094 -0.009680904241345573 0.0 0.0008996004785407473 0.0 0.0
0.008346683955172858 -0.006088725297707899 0.0 0.0005987594080778104 0.0 0.0
0.005449434368671177 -0.0034942326465056783 0.0 0.0003668018151084383 0.0 0.0
0.0034632887056431153 -0.0018128376202182 0.0 0.00019163784258729508 0.0 0.0
0.0023200710415712767 -0.0009799741320537065 0.0 0.00016711492145212006 0.0 0.0
0.0017917377836055813 -0.0007621816822134155 0.0 0.00021134522334548592 0.0 0.0
0.0015279723530242176 -0.0005020190424666109 0.0 0.000392935745218346 0.0 0.0
0.004516883849156134 -0.0010794681180841211 0.0 0.004697513145213999 0.0 0.0
0.007607373877816912 -0.017398953184991107 0.0 0.00023137693914835667 0.0 0.0
0.0054647325885248494 -0.013720003904439344 0.0 -0.00276063698284075 0.0 0.0
0.003147272506856717 -0.0005717833429374696 0.0 -0.0045562360721578925 0.0 0.0
0.0010815766094152547 -0.0002972705688195373 0.0 -0.00038254061071736156 0.0 0.0
0.0015344255885875234 -0.0006614736288955682 0.0 -0.0004739776421113052 0.0 0.0
0.002025035190478333 -0.0008346570646086919 0.0 -0.0004689235762037529 0.0 0.0
0.0029606609217415485 -0.0014321065814849807 0.0 -0.0004805440470922012 0.0 0.0
0.004683223634187226 -0.0028368174775346765 0.0 -0.0008012693017974523 0.0 0.0
0.007275258136249128 -0.005126129394529821 0.0 -0.0012665740858591526 0.0 0.0
0.01075377267366411 -0.00832867038042741 0.0 -0.0018635753721186039 0.0 0.0
0.015116763906724829 -0.012421322017417155 0.0 -0.002552608989450186 0.0 0.0
0.020365859295944852 -0.017383943893920194 0.0 -0.0032754014206825685 0.0 0.0
0.026564060468698372 -0.023276268933761925 0.0 -0.003991839898688088 0.0 0.0
0.0338470013932482 -0.030243582695289428 0.0 -0.00474031641154698 0.0 0.0
0.04236988856505092 -0.038464777027800094 0.0 -0.00562188560431942 0.0 0.0
0.052178100934134275 -0.04801452380929561 0.0 -0.006655920757799481 0.0 0.0
0.06309338948839094 -0.058741979613170375 0.0 -0.007743876526402469 0.0 0.0
0.07463942118028905 -0.0701808705985977 0.0 -0.008620057257668881 0.0 0.0
0.08599640210617455 -0.08151536679937563 0.0 -0.008831273375869027 0.0 0.0
0.09599003055844096 -0.09159189327743288 0.0 -0.007965815724423977 0.0 0.0
0.10317094186884537 -0.09892477139722528 0.0 -0.0059028188855557535 0.0 0.0
0.10586535158650726 -0.10203655993535084 0.0 9.299418873842669e-15 0.0 0.0
0.10317094186883324 -0.09892477139720786 0.0 0.005902818885579468 0.0 0.0
0.09599003055841815 -0.09159189327740887 0.0 0.007965815724447989 0.0 0.0
0.08599640210614314 -0.08151536679934082 0.0 0.00883127337588465 0.0 0.0
0.0746394211802526 -0.07018087059856096 0.0 0.008620057257670262 0.0 0.0
0.06309338948835153 -0.05874197961313128 0.0 0.0077438765263992265 0.0 0.0
0.052178100934093724 -0.048014523809254625 0.0 0.00665592075779769 0.0 0.0
0.04236988856501051 -0.03846477702776311 0.0 0.005621885604318706 0.0 0.0
0.03384700139320806 -0.03024358269525019 0.0 0.004740316411542134 0.0 0.0
0.026564060468660933 -0.02327626893372445 0.0 0.003991839898682369 0.0 0.0
0.020365859295912274 -0.017383943893890356 0.0 0.003275401420675183 0.0 0.0
0.015116763906697729 -0.012421322017391751 0.0 0.0025526089894435423 0.0 0.0
0.01075377267364257 -0.008328670380408132 0.0 0.0018635753721146474 0.0 0.0
0.007275258136233146 -0.005126129394515893 0.0 0.001266574085855692 0.0 0.0
0.0046832236341771034 -0.002836817477527484 0.0 0.0008012693017950771 0.0 0.0
0.0029606609217366475 -0.0014321065814811207 0.0 0.000480544047092401 0.0 0.0
0.002025035190476449 -0.0008346570646072214 0.0 0.0004689235762029316 0.0 0.0
0.0015344255885869288 -0.0006614736288954808 0.0 0.0004739776421105818 0.0 0.0
0.001081576609415251 -0.00029727056881974123 0.0 0.0003825406107164877 0.0 0.0
0.0031472725068515035 -0.0005717833429346428 0.0 0.0045562360721450946 0.0 0.0
0.005464732588514208 -0.013720003904417218 0.0 0.0027606369828217232 0.0 0.0
0.004055495799673682 -0.010967311869441438 0.0 -0.0031724329042568146 0.0 0.0
0.002282263648558897 -0.0004249365362313205 0.0 -0.004172181659575337 0.0 0.0
0.0007762078975768043 -0.00016778238251931378 0.0 -0.000671977998640307 0.0 0.0
0.0012738078004736685 -0.000531989576967826 0.0 -0.0007222602873127812 0.0 0.0
0.001747877679264773 -0.000722610079509364 0.0 -0.0007769825552300639 0.0 0.0
0.0024986920301828296 -0.001127345018587647 0.0 -0.0007702145475098974 0.0 0.0
0.003933273464129378 -0.002213043129361343 0.0 -0.001093025956863873 0.0 0.0
0.0061991512990772326 -0.004177179729920852 0.0 -0.0017611004159056372 0.0 0.0
0.009275003461560101 -0.0069767815660997864 0.0 -0.002586409167097677 0.0 0.0
0.013129333998495973 -0.010572656353252604 0.0 -0.0035379733986201684 0.0 0.0
0.017742209633965573 -0.014921211083941784 0.0 -0.004534395614827087 0.0 0.0
0.02315740482973937 -0.02005497413742795 0.0 -0.0055226904308806795 0.0 0.0
0.029499718288070916 -0.026103275025086813 0.0 -0.006540978379420985 0.0 0.0
0.036923584312974336 -0.03325013647613376 0.0 -0.0076969749212683035 0.0 0.0
0.04550946094473083 -0.04159734063053382 0.0 -0.009047934116028222 0.0 0.0
0.05513953815728177 -0.05104432188107995 0.0 -0.010487738971984045 0.0 0.0
0.065422035597047 -0.06121680073717453 0.0 -0.011662488699880992 0.0 0.0
0.07565132296760639 -0.07142252430423558 0.0 -0.012009734375188074 0.0 0.0
0.08477118070472596 -0.08061144356615943 0.0 -0.010953488951164308 0.0 0.0
0.09147619455118901 -0.08743741825938225 0.0 -0.007933647043759167 0.0 0.0
0.09405315604933942 -0.09060597527520177 0.0 1.2108369862318114e-14 0.0 0.0
0.09147619455117793 -0.08743741825936921 0.0 0.007933647043789141 0.0 0.0
0.08477118070470574 -0.08061144356613567 0.0 0.010953488951194409 0.0 0.0
0.07565132296757875 -0.07142252430420969 0.0 0.012009734375206738 0.0 0.0
0.06542203559701491 -0.06121680073713859 0.0 0.011662488699884753 0.0 0.0
0.0551395381572472 -0.05104432188104748 0.0 0.010487738971979363 0.0 0.0
0.04550946094469539 -0.041597340630500045 0.0 0.009047934116025046 0.0 0.0
0.03692358431293903 -0.03325013647609915 0.0 0.007696974921266232 0.0 0.0
0.02949971828803604 -0.02610327502505306 0.0 0.006540978379415261 0.0 0.0
0.02315740482970681 -0.020054974137398537 0.0 0.005522690430872665 0.0 0.0
0.017742209633936717 -0.01492121108391627 0.0 0.0045343956148174176 0.0 0.0
0.013129333998471847 -0.010572656353229399 0.0 0.003537973398611798 0.0 0.0
0.009275003461541195 -0.006976781566083224 0.0 0.00258640916709211 0.0 0.0
0.006199151299063567 -0.004177179729908197 0.0 0.0017611004159008223 0.0 0.0
0.003933273464121189 -0.0022130431293557245 0.0 0.001093025956861346 0.0 0.0
0.0024986920301792366 -0.0011273450185849676 0.0 0.0007702145475089481 0.0 0.0
0.0017478776792635331 -0.0007226100795094262 0.0 0.000776982555228711 0.0 0.0
0.0012738078004731878 -0.00053198957696779 0.0 0.0007222602873119676 0.0 0.0
0.000776207897576886 -0.00016778238252009248 0.0 0.0006719779986387117 0.0 0.0
0.0022822636485543275 -0.00042493653622894433 0.0 0.004172181659564946 0.0 0.0
0.004055495799664183 -0.010967311869421752 0.0 0.0031724329042423696 0.0 0.0
0.00302765679451739 -0.008768641348009677 0.0 -0.0028697134853903506 0.0 0.0
0.0016798004014344089 -0.00037871737470131163 0.0 -0.0037585381586411346 0.0 0.0
0.0005629977092462558 -9.885386985386642e-05 0.0 -0.0010423109731059253 0.0 0.0
0.0010280004481549821 -0.0004017796152238642 0.0 -0.0009904048426762702 0.0 0.0
0.0014792358214846992 -0.0006164951074035677 0.0 -0.0010749227342064592 0.0 0.0
0.0020855930933820575 -0.0009004757340953184 0.0 -0.0010731591754460192 0.0 0.0
0.003222175773110315 -0.0016687105152034694 0.0 -0.001318183756762737 0.0 0.0
0.0051280302142904825 -0.003249781205949904 0.0 -0.0020397053007697582 0.0 0.0
0.007793225720534544 -0.005640506169086302 0.0 -0.003061011998752667 0.0 0.0
0.011132410442506832 -0.008730503160153776 0.0 -0.00420138810191483 0.0 0.0
0.01511167457302014 -0.012464946899141557 0.0 -0.005393487584241889 0.0 0.0
0.01975134459448095 -0.016848141031677092 0.0 -0.0065707888260042825 0.0 0.0
0.025158788733324975 -0.021988198743995352 0.0 -0.007775637958965489 0.0 0.0
0.0314912600137968 -0.02806322430616072 0.0 -0.009121551224606594 0.0 0.0
0.03884316419084442 -0.03519459824015139 0.0 -0.010670879175744717 0.0 0.0
0.0471549453078528 -0.0433357225792814 0.0 -0.012310491953920465 0.0 0.0
0.056145301700408726 -0.05221006440726394 0.0 -0.013693161884610635 0.0 0.0
0.06523500036335236 -0.06126029021420125 0.0 -0.014226999663775197 0.0 0.0
0.07352277769013708 -0.06959683622554443 0.0 -0.013119736966682049 0.0 0.0
0.07985347941424771 -0.0760399332100633 0.0 -0.009490773021606554 0.0 0.0
0.08237338796825615 -0.07937042121011616 0.0 1.3736407844522347e-14 0.0 0.0
0.07985347941423757 -0.07603993321005414 0.0 0.009490773021639528 0.0 0.0
0.07352277769011914 -0.06959683622552754 0.0 0.013119736966715083 0.0 0.0
0.06523500036332834 -0.06126029021417792 0.0 0.014226999663795429 0.0 0.0
0.05614530170038076 -0.05221006440723881 0.0 0.013693161884615751 0.0 0.0
0.04715494530782265 -0.043335722579251335 0.0 0.012310491953914886 0.0 0.0
0.03884316419081407 -0.035194598240125295 0.0 0.010670879175740928 0.0 0.0
0.03149126001376671 -0.02806322430613454 0.0 0.00912155122460297 0.0 0.0
0.02515878873329522 -0.02198819874396778 0.0 0.007775637958959301 0.0 0.0
0.019751344594453085 -0.01684814103165307 0.0 0.006570788825993939 0.0 0.0
0.015111674572995261 -0.012464946899118302 0.0 0.005393487584229653 0.0 0.0
0.011132410442486232 -0.008730503160132307 0.0 0.004201388101906275 0.0 0.0
0.007793225720518278 -0.0056405061690707895 0.0 0.0030610119987467483 0.0 0.0
0.005128030214278706 -0.003249781205940717 0.0 0.002039705300763223 0.0 0.0
0.003222175773103646 -0.0016687105151983784 0.0 0.001318183756759999 0.0 0.0
0.002085593093379107 -0.0009004757340926835 0.0 0.001073159175443855 0.0 0.0
0.0014792358214837033 -0.0006164951074038198 0.0 0.0010749227342054478 0.0 0.0
0.0010280004481548555 -0.00040177961522364883 0.0 0.0009904048426752057 0.0 0.0
0.000562997709246187 -9.885386985422536e-05 0.0 0.0010423109731040033 0.0 0.0
0.0016798004014302289 -0.00037871737469962944 0.0 0.0037585381586328114 0.0 0.0
0.0030276567945091777 -0.008768641347992805 0.0 0.0028697134853808625 0.0 0.0
0.002242657576989548 -0.006952968026557895 0.0 -0.0024229472618534317 0.0 0.0
0.0012344577146936272 -0.0003609724549859965 0.0 -0.003358504526061667 0.0 0.0
0.0004055594876035046 -6.726017072322297e-05 0.0 -0.0013919522399253128 0.0 0.0
0.0007998395184928411 -0.0002836142213281783 0.0 -0.0012657979156034398 0.0 0.0
0.0012151126695625501 -0.0005050031317041552 0.0 -0.0013515255708303005 0.0 0.0
0.001709771484832723 -0.0007247548711061088 0.0 -0.00137445560165826 0.0 0.0
0.0025765651246171693 -0.0012342258467584152 0.0 -0.0015526912373423761 0.0 0.0
0.00409059071954652 -0.0023940297681357327 0.0 -0.0021647419013409185 0.0 0.0
0.006311949650525499 -0.004331988891034787 0.0 -0.003251179941380974 0.0 0.0
0.009138142526932205 -0.0069120720332512845 0.0 -0.00453160975262565 0.0 0.0
0.012484377139273346 -0.010030524739506462 0.0 -0.005839218109495495 0.0 0.0
0.016357176869874125 -0.013670576064422324 0.0 -0.007131093138056732 0.0 0.0
0.0208424425215553 -0.017913377235805893 0.0 -0.00843577577614956 0.0 0.0
0.026083428539993538 -0.02292332022175609 0.0 -0.00986854241544288 0.0 0.0
0.03219953246555418 -0.028834693538281726 0.0 -0.011506513202054001 0.0 0.0
0.03918138967818158 -0.03565308285951188 0.0 -0.013234506839440628 0.0 0.0
0.04683110909983365 -0.04318787997974189 0.0 -0.014716413857166644 0.0 0.0
0.05473717421993632 -0.05103128958629618 0.0 -0.01540430749568366 0.0 0.0
0.062201591399536085 -0.05851378521511712 0.0 -0.014429612491521355 0.0 0.0
0.06822005169255911 -0.06464429630432714 0.0 -0.010617678762652258 0.0 0.0
0.07072490923697036 -0.06822601027344513 0.0 1.5043088302801877e-14 0.0 0.0
0.06822005169255008 -0.06464429630431832 0.0 0.010617678762687204 0.0 0.0
0.06220159139952053 -0.058513785215106764 0.0 0.014429612491554764 0.0 0.0
0.054737174219915995 -0.05103128958627757 0.0 0.015404307495703162 0.0 0.0
0.04683110909980987 -0.04318787997971954 0.0 0.014716413857169982 0.0 0.0
0.039181389678155924 -0.03565308285948401 0.0 0.013234506839435067 0.0 0.0
0.032199532465528764 -0.028834693538261222 0.0 0.011506513202049266 0.0 0.0
0.026083428539968746 -0.022923320221734156 0.0 0.009868542415437552 0.0 0.0
0.020842442521530575 -0.017913377235785097 0.0 0.00843577577614435 0.0 0.0
0.016357176869850817 -0.01367057606439951 0.0 0.007131093138046904 0.0 0.0
0.012484377139252866 -0.010030524739488622 0.0 0.0058392181094828405 0.0 0.0
0.009138142526914932 -0.00691207203323475 0.0 0.004531609752616043 0.0 0.0
0.006311949650511813 -0.004331988891022827 0.0 0.003251179941373626 0.0 0.0
0.004090590719537241 -0.002394029768129468 0.0 0.0021647419013357773 0.0 0.0
0.0025765651246124357 -0.0012342258467554395 0.0 0.0015526912373397285 0.0 0.0
0.001709771484830788 -0.0007247548711045544 0.0 0.0013744556016561606 0.0 0.0
0.0012151126695617413 -0.0005050031317040495 0.0 0.0013515255708290985 0.0 0.0
0.0007998395184923957 -0.00028361422132861837 0.0 0.0012657979156017918 0.0 0.0
0.00040555948760348314 -6.726017072254124e-05 0.0 0.0013919522399234519 0.0 0.0
0.0012344577146907124 -0.00036097245498471227 0.0 0.003358504526054893 0.0 0.0
0.002242657576983458 -0.006952968026543951 0.0 0.002422947261846949 0.0 0.0
0.0016364343046224605 -0.005436493876351696 0.0 -0.0020096739746783025 0.0 0.0
0.0008951452117862101 -0.00035444533651562813 0.0 -0.0029983268028771787 0.0 0.0
0.0002793294133578238 -5.132169489932836e-05 0.0 -0.0016824492123094005 0.0 0.0
0.0005876602315403653 -0.00018015417252647794 0.0 -0.0015268243961363704 0.0 0.0
0.0009516714816671635 -0.00038521940228899494 0.0 -0.0015969412777922932 0.0 0.0
0.0013549077833643482 -0.0005775069016974237 0.0 -0.001666382879922985 0.0 0.0
0.00199375156959199 -0.0008951359888147677 0.0 -0.0017798227695383353 0.0 0.0
0.003125239449027369 -0.0016690549278025558 0.0 -0.0022488757323697642 0.0 0.0
0.004863470367523002 -0.003096938706983282 0.0 -0.0031930543980591653 0.0 0.0
0.007152851293025276 -0.005136919507717554 0.0 -0.004489386918511146 0.0 0.0
0.009872473956477753 -0.007637730779447042 0.0 -0.005851909641799735 0.0 0.0
0.012984725332433403 -0.010538558506502834 0.0 -0.007185460882036499 0.0 0.0
0.016559981604858526 -0.01389713679842436 0.0 -0.008510464540743964 0.0 0.0
0.02072527447763288 -0.017855130355067184 0.0 -0.009936123855811918 0.0 0.0
0.025602494021168758 -0.022546640470189554 0.0 -0.011531743218412483 0.0 0.0
0.031233418944612262 -0.028027799454596464 0.0 -0.01323532942815561 0.0 0.0
0.037512437510467046 -0.03418640560455109 0.0 -0.01472916296187812 0.0 0.0
0.0441714912348214 -0.04075604412532665 0.0 -0.015521731469265575 0.0 0.0
0.05075733599512654 -0.04732346381663999 0.0 -0.014821271682029206 0.0 0.0
0.05648132015749753 -0.053154001341532094 0.0 -0.011288185269259081 0.0 0.0
0.05900174208638005 -0.05707353873130605 0.0 1.3435433321440371e-14 0.0 0.0
0.056481320157489696 -0.05315400134152367 0.0 0.011288185269292983 0.0 0.0
0.05075733599511342 -0.047323463816628886 0.0 0.014821271682061248 0.0 0.0
0.044171491234804496 -0.04075604412531312 0.0 0.015521731469285732 0.0 0.0
0.03751243751044737 -0.034186405604531345 0.0 0.014729162961880628 0.0 0.0
0.031233418944591286 -0.028027799454574773 0.0 0.013235329428148111 0.0 0.0
0.025602494021148305 -0.022546640470173133 0.0 0.01153174321840757 0.0 0.0
0.020725274477613565 -0.017855130355044185 0.0 0.009936123855806916 0.0 0.0
0.016559981604839253 -0.013897136798408267 0.0 0.008510464540738068 0.0 0.0
0.012984725332414553 -0.010538558506485584 0.0 0.0071854608820266525 0.0 0.0
0.00987247395646119 -0.007637730779431499 0.0 0.005851909641787749 0.0 0.0
0.007152851293011498 -0.0051369195077041975 0.0 0.004489386918500977 0.0 0.0
0.0048634703675126045 -0.003096938706975905 0.0 0.0031930543980524893 0.0 0.0
0.0031252394490206654 -0.0016690549277986455 0.0 0.002248875732365792 0.0 0.0
0.0019937515695885987 -0.0008951359888132392 0.0 0.0017798227695365234 0.0 0.0
0.0013549077833631183 -0.0005775069016978897 0.0 0.0016663828799217922 0.0 0.0
0.000951671481666704 -0.00038521940228940395 0.0 0.0015969412777904904 0.0 0.0
0.0005876602315400662 -0.0001801541725268267 0.0 0.0015268243961339119 0.0 0.0
0.0002793294133576011 -5.1321694898710926e-05 0.0 0.0016824492123073459 0.0 0.0
0.0008951452117837619 -0.00035444533651472385 0.0 0.00299832680287109 0.0 0.0
0.0016364343046176401 -0.005436493876340656 0.0 0.002009673974673757 0.0 0.0
0.0011671906877447561 -0.004181988847936474 0.0 -0.0017044912892823058 0.0 0.0
0.0006307719001923627 -0.00035753839410021526 0.0 -0.0026766324846692795 0.0 0.0
0.0001684690263752441 -3.5436948949113324e-05 0.0 -0.001908108641114078 0.0 0.0
0.0003878073406310603 -8.942049648884299e-05 0.0 -0.001755207066870329 0.0 0.0
0.0006863641067356612 -0.0002612185389584889 0.0 -0.0018074344873910092 0.0 0.0
0.0010127042126384178 -0.0004331013415002646 0.0 -0.0019192336552203149 0.0 0.0
0.001463903873900556 -0.0006336153462028641 0.0 -0.002015647419188513 0.0 0.0
0.002242477253888412 -0.0010885609449936137 0.0 -0.0023102812341920585 0.0 0.0
0.003491737043504065 -0.002008516295245452 0.0 -0.0030030601717729337 0.0 0.0
0.005205385001184004 -0.0034576416843695094 0.0 -0.0041000454933578625 0.0 0.0
0.007281396125211248 -0.005315605935035404 0.0 -0.005399888895831819 0.0 0.0
0.009643737786838868 -0.007478783643381913 0.0 -0.006694544428478116 0.0 0.0
0.012325095599132557 -0.009964765647230672 0.0 -0.007971547895186872 0.0 0.0
0.015429077056816818 -0.012887504320308326 0.0 -0.009300582879670111 0.0 0.0
0.019076529659306674 -0.01636918131324405 0.0 -0.010756687234781745 0.0 0.0
0.023344984695996017 -0.020497355740530184 0.0 -0.01229658812547669 0.0 0.0
0.02820850394442629 -0.025246064564311537 0.0 -0.013703429904036429 0.0 0.0
0.033546317062199085 -0.030470065480773537 0.0 -0.014531882655312151 0.0 0.0
0.03915547697273968 -0.0360018963176322 0.0 -0.01419644712600784 0.0 0.0
0.04453847959288825 -0.04146669064079817 0.0 -0.01142686294032668 0.0 0.0
0.04708134041613647 -0.04580834212230433 0.0 1.190887666258078e-14 0.0 0.0
0.04453847959288233 -0.04146669064079127 0.0 0.011426862940357854 0.0 0.0
0.039155476972729086 -0.03600189631762388 0.0 0.014196447126040151 0.0 0.0
0.03354631706218562 -0.03047006548075811 0.0 0.014531882655328784 0.0 0.0
0.028208503944410986 -0.025246064564298596 0.0 0.013703429904038868 0.0 0.0
0.023344984695980182 -0.020497355740517132 0.0 0.012296588125470609 0.0 0.0
0.019076529659291352 -0.016369181313230785 0.0 0.01075668723477671 0.0 0.0
0.01542907705680258 -0.012887504320296608 0.0 0.009300582879665521 0.0 0.0
0.012325095599118426 -0.009964765647216822 0.0 0.00797154789518015 0.0 0.0
0.009643737786825092 -0.007478783643372249 0.0 0.006694544428469078 0.0 0.0
0.007281396125199071 -0.0053156059350235214 0.0 0.005399888895820508 0.0 0.0
0.00520538500117391 -0.0034576416843597065 0.0 0.004100045493348251 0.0 0.0
0.00349173704349663 -0.002008516295239324 0.0 0.003003060171769243 0.0 0.0
0.0022424772538837717 -0.0010885609449916233 0.0 0.0023102812341891338 0.0 0.0
0.0014639038738983872 -0.0006336153462019463 0.0 0.0020156474191873096 0.0 0.0
0.0010127042126376 -0.000433101341500725 0.0 0.0019192336552184496 0.0 0.0
0.0006863641067352169 -0.000261218538958562 0.0 0.0018074344873889327 0.0 0.0
0.0003878073406308098 -8.942049648904002e-05 0.0 0.0017552070668678016 0.0 0.0
0.00016846902637498225 -3.543694894894543e-05 0.0 0.001908108641112292 0.0 0.0
0.0006307719001904942 -0.0003575383940997923 0.0 0.0026766324846642783 0.0 0.0
0.001167190687741441 -0.004181988847928179 0.0 0.0017044912892802508 0.0 0.0
0.000824285461415612 -0.0031944906931530197 0.0 -0.0015409499997918069 0.0 0.0
0.000426199798428212 -0.0003694099129499458 0.0 -0.0024126513942982555 0.0 0.0
6.028268735719036e-05 -1.1036605843205923e-05 0.0 -0.0020717186390050123 0.0 0.0
0.00019810962940536195 -8.443702935896658e-06 0.0 -0.0019395044500262588 0.0 0.0
0.0004212660962219928 -0.00013802622656848521 0.0 -0.0019768758121002203 0.0 0.0
0.0006658478630838322 -0.00027724331542847705 0.0 -0.002109998402750052 0.0 0.0
0.0009708799294791519 -0.0004184725667245577 0.0 -0.002253356860007693 0.0 0.0
0.0014487374562407865 -0.0006540929114196887 0.0 -0.002419038148209297 0.0 0.0
0.002224177747184576 -0.0011325481961799407 0.0 -0.002797483220130674 0.0 0.0
0.0033419554057372205 -0.00197252426702354 0.0 -0.003500074199387726 0.0 0.0
0.004741932824170283 -0.0031423631642885537 0.0 -0.0045152760906639645 0.0 0.0
0.006344014040321613 -0.004551010168874982 0.0 -0.005628515387962726 0.0 0.0
0.00814340828623982 -0.006166715330629316 0.0 -0.00678021703411938 0.0 0.0
0.01020919454123185 -0.008071587416212587 0.0 -0.007958020999616575 0.0 0.0
0.012641204987453091 -0.010357032109008074 0.0 -0.009187874028796141 0.0 0.0
0.015537405551036228 -0.013124245913127813 0.0 -0.01048197299221612 0.0 0.0
0.01895678066948522 -0.016424319078633023 0.0 -0.011718451182172913 0.0 0.0
0.022892384493478385 -0.02024385544561715 0.0 -0.012542379645615068 0.0 0.0
0.027359805589515753 -0.02457727509131741 0.0 -0.012463957955363083 0.0 0.0
0.032275997233354864 -0.029478052906615933 0.0 -0.0108176037212946 0.0 0.0
0.03481592892900612 -0.03429797007609644 0.0 1.0732300464999511e-14 0.0 0.0
0.03227599723335116 -0.02947805290661381 0.0 0.010817603721319194 0.0 0.0
0.02735980558950799 -0.024577275091311253 0.0 0.012463957955391194 0.0 0.0
0.022892384493468334 -0.020243855445609457 0.0 0.012542379645627644 0.0 0.0
0.018956780669474458 -0.01642431907862345 0.0 0.011718451182170589 0.0 0.0
0.015537405551025497 -0.013124245913117423 0.0 0.010481972992208537 0.0 0.0
0.012641204987443318 -0.010357032108997515 0.0 0.009187874028790477 0.0 0.0
0.010209194541222998 -0.008071587416206808 0.0 0.007958020999614498 0.0 0.0
0.00814340828623117 -0.006166715330620916 0.0 0.006780217034114914 0.0 0.0
0.006344014040312765 -0.004551010168868233 0.0 0.00562851538795664 0.0 0.0
0.004741932824162145 -0.0031423631642825173 0.0 0.00451527609065432 0.0 0.0
0.0033419554057311854 -0.0019725242670192173 0.0 0.0035000741993807772 0.0 0.0
0.0022241777471805006 -0.0011325481961782268 0.0 0.0027974832201283525 0.0 0.0
0.0014487374562382543 -0.0006540929114164122 0.0 0.002419038148207462 0.0 0.0
0.0009708799294779078 -0.0004184725667238023 0.0 0.002253356860005738 0.0 0.0
0.0006658478630833009 -0.00027724331542829014 0.0 0.0021099984027476487 0.0 0.0
0.0004212660962217991 -0.00013802622656843241 0.0 0.0019768758120976998 0.0 0.0
0.000198109629405246 -8.443702935805951e-06 0.0 0.0019395044500239195 0.0 0.0
6.028268735691261e-05 -1.103660584278749e-05 0.0 0.002071718639002949 0.0 0.0
0.0004261997984270706 -0.0003694099129502717 0.0 0.002412651394295219 0.0 0.0
0.0008242854614139347 -0.0031944906931470497 0.0 0.001540949999791244 0.0 0.0
0.0005879931414322992 -0.0024522143913797067 0.0 -0.0014601843065386241 0.0 0.0
0.00027388667342447334 -0.0003847685649405898 0.0 -0.002229984922963454 0.0 0.0
-4.493945740806364e-05 2.1416228445619144e-05 0.0 -0.0021758456303547003 0.0 0.0
1.6346307280254863e-05 6.566007179309899e-05 0.0 -0.0020738413768444535 0.0 0.0
0.0001590451277516783 -1.7523009646531097e-05 0.0 -0.0020985066576258123 0.0 0.0
0.0003117232238088868 -0.00011412994952839622 0.0 -0.0022336828112166237 0.0 0.0
0.0004822624087934071 -0.00020555357216281753 0.0 -0.002419235734664304 0.0 0.0
0.0007187414263223748 -0.00031581101619971127 0.0 -0.0025834465970471475 0.0 0.0
0.0010821550133949924 -0.0004973885584811872 0.0 -0.0027428407649759848 0.0 0.0
0.001611146894965141 -0.0008324523903920864 0.0 -0.0030360546275040364 0.0 0.0
0.002304202684411895 -0.0013319734745394474 0.0 -0.003576685018277847 0.0 0.0
0.0031154258625451714 -0.001970776598156692 0.0 -0.004326747212822156 0.0 0.0
0.0040227415143538866 -0.0027143446227313726 0.0 -0.00520418314859297 0.0 0.0
0.005065701665843994 -0.003597845099942376 0.0 -0.006170370529551238 0.0 0.0
0.00630186947206106 -0.004686704619440035 0.0 -0.0072209823268904755 0.0 0.0
0.007822969006334005 -0.006074871130856226 0.0 -0.00837893361902068 0.0 0.0
0.009759831917337786 -0.007879092522255587 0.0 -0.009560581436329854 0.0 0.0
0.012256105104938575 -0.01024348803557824 0.0 -0.010456588050237435 0.0 0.0
0.015422833355231005 -0.013281385705125336 0.0 -0.010500697793864647 0.0 0.0
0.019580289989047865 -0.0172102319115203 0.0 -0.00942659628542264 0.0 0.0
0.021976675095733412 -0.02240738982429815 0.0 7.549516567451064e-15 0.0 0.0
0.01958028998904618 -0.017210231911517913 0.0 0.009426596285443796 0.0 0.0
0.0154228333552264 -0.013281385705121038 0.0 0.010500697793886835 0.0 0.0
0.012256105104932354 -0.010243488035573473 0.0 0.010456588050247144 0.0 0.0
0.0097598319173325 -0.007879092522255052 0.0 0.009560581436326284 0.0 0.0
0.00782296900632907 -0.006074871130848155 0.0 0.00837893361901563 0.0 0.0
0.006301869472056724 -0.004686704619433697 0.0 0.007220982326886486 0.0 0.0
0.005065701665840576 -0.0035978450999369 0.0 0.006170370529548993 0.0 0.0
0.004022741514350645 -0.0027143446227298616 0.0 0.005204183148588894 0.0 0.0
0.003115425862541451 -0.0019707765981545264 0.0 0.004326747212815876 0.0 0.0
0.0023042026844082406 -0.0013319734745343861 0.0 0.003576685018271221 0.0 0.0
0.0016111468949626944 -0.0008324523903909762 0.0 0.0030360546275016538 0.0 0.0
0.0010821550133934428 -0.000497388558481897 0.0 0.0027428407649746143 0.0 0.0
0.0007187414263211913 -0.0003158110161983735 0.0 0.0025834465970458313 0.0 0.0
0.0004822624087927734 -0.0002055535721621812 0.0 0.0024192357346611245 0.0 0.0
0.00031172322380877075 -0.00011412994952918971 0.0 0.0022336828112140953 0.0 0.0
0.00015904512775172073 -1.7523009646126184e-05 0.0 0.0020985066576224864 0.0 0.0
1.634630728010387e-05 6.566007179316196e-05 0.0 0.002073841376842124 0.0 0.0
-4.493945740817463e-05 2.1416228445803987e-05 0.0 0.00217584563035198 0.0 0.0
0.00027388667342387806 -0.00038476856494125205 0.0 0.002229984922960825 0.0 0.0
0.0005879931414310447 -0.0024522143913757503 0.0 0.0014601843065383834 0.0 0.0
0.0004216453418273105 -0.0019047862896266273 0.0 -0.0014060692365900104 0.0 0.0
0.00015981810147387105 -0.0003861639472015133 0.0 -0.0020954199781655267 0.0 0.0
-0.00014318177481140797 5.466695883583592e-05 0.0 -0.0022276193181292605 0.0 0.0
-0.0001579144040714735 0.00013559252281252125 0.0 -0.0021548417139125417 0.0 0.0
-9.850195576423324e-05 9.918021183015815e-05 0.0 -0.002166295659149674 0.0 0.0
-4.458796953871451e-05 4.986037977116532e-05 0.0 -0.002287718771209896 0.0 0.0
-1.4568931767363176e-05 1.3932899939334518e-05 0.0 -0.0024788748850027792 0.0 0.0
-2.9637460015898123e-06 2.449717486842894e-06 0.0 -0.002668083335709206 0.0 0.0
1.5789268918305044e-07 -5.768895448057516e-07 0.0 -0.0027819156629166632 0.0 0.0
5.590452787735073e-07 -2.023640138350887e-07 0.0 -0.002901574177446124 0.0 0.0
7.518542029868341e-07 -1.7867120197914607e-06 0.0 -0.0031595229073176274 0.0 0.0
-1.7763254371407143e-06 1.6577907752928368e-06 0.0 -0.00368477041623542 0.0 0.0
-9.688460510890752e-06 7.697139497837548e-06 0.0 -0.0043738656112107584 0.0 0.0
-1.904527674645505e-05 1.584917736000799e-05 0.0 -0.005212171866510278 0.0 0.0
-5.912870225402217e-06 1.3730124836902743e-05 0.0 -0.0062200333228511736 0.0 0.0
0.000122362487137551 -7.720823645826079e-05 0.0 -0.0074014010751367884 0.0 0.0
0.0005708881683494109 -0.0004317690478699317 0.0 -0.008719707092250856 0.0 0.0
0.0016336647137762809 -0.0013178588222268806 0.0 -0.010033553916986288 0.0 0.0
0.0035415018821178873 -0.0029555079957394683 0.0 -0.011048910993204888 0.0 0.0
0.006569599634862687 -0.005387786356770911 0.0 -0.011204976864877654 0.0 0.0
0.008414895571080333 -0.010874111513099484 0.0 7.349156005975743e-15 0.0 0.0
0.006569599634862834 -0.0053877863567700825 0.0 0.01120497686489268 0.0 0.0
0.0035415018821163503 -0.0029555079957366785 0.0 0.011048910993216098 0.0 0.0
0.0016336647137747053 -0.0013178588222263555 0.0 0.01003355391698984 0.0 0.0
0.0005708881683500472 -0.0004317690478738967 0.0 0.008719707092246664 0.0 0.0
0.00012236248713885063 -7.720823645702567e-05 0.0 0.0074014010751308895 0.0 0.0
-5.912870224254914e-06 1.3730124838097154e-05 0.0 0.006220033322846565 0.0 0.0
-1.9045276744446076e-05 1.584917735792776e-05 0.0 0.005212171866507228 0.0 0.0
-9.688460508577878e-06 7.697139494495711e-06 0.0 0.004373865611206583 0.0 0.0
-1.776325435367068e-06 1.6577907723515318e-06 0.0 0.0036847704162298383 0.0 0.0
7.518542043077176e-07 -1.7867120176869971e-06 0.0 0.0031595229073125364 0.0 0.0
5.590452796701967e-07 -2.02364014230504e-07 0.0 0.002901574177444409 0.0 0.0
1.5789268970714022e-07 -5.768895435706827e-07 0.0 0.002781915662915881 0.0 0.0
-2.963746001265541e-06 2.4497174845055913e-06 0.0 0.0026680833357080177 0.0 0.0
-1.4568931766924474e-05 1.3932899939537694e-05 0.0 0.0024788748850004165 0.0 0.0
-4.4587969538361804e-05 4.9860379770836225e-05 0.0 0.002287718771207577 0.0 0.0
-9.85019557642791e-05 9.91802118313077e-05 0.0 0.0021662956591469154 0.0 0.0
-0.00015791440407140803 0.00013559252281242435 0.0 0.0021548417139103365 0.0 0.0
-0.00014318177481139986 5.466695883608039e-05 0.0 0.0022276193181269928 0.0 0.0
0.0001598181014736708 -0.00038616394720181153 0.0 0.002095419978163502 0.0 0.0
0.00042164534182707154 -0.0019047862896241397 0.0 0.0014060692365888922 0.0 0.0
0.0003076285507166614 -0.0014834441325912826 0.0 -0.0013267699392864847 0.0 0.0
7.45850245841308e-05 -0.00036609214563532774 0.0 -0.00196827207264804 0.0 0.0
-0.00023445449507628378 8.563719665149306e-05 0.0 -0.002229342091052466 0.0 0.0
-0.00032410585192363 0.00020204686415478803 0.0 -0.0021812777877982625 0.0 0.0
-0.00034955141959924654 0.00021062322724615815 0.0 -0.0021768351107972752 0.0 0.0
-0.000396914119172793 0.00021163931724604374 0.0 -0.0022707951756805087 0.0 0.0
-0.0005107224845862689 0.00023318993201101895 0.0 -0.0024353736615661905 0.0 0.0
-0.0007250379864711389 0.0003205254616405626 0.0 -0.0025887477361670372 0.0 0.0
-0.0010816188437448703 0.0004962821858991067 0.0 -0.0027443330498669333 0.0 0.0
-0.0016091896276226795 0.0008310639116997222 0.0 -0.003034547815070152 0.0 0.0
-0.00230244287943243 0.0013297659027497106 0.0 -0.0035716995617472783 0.0 0.0
-0.0031196899834811578 0.0019745173387116055 0.0 -0.004325174445253642 0.0 0.0
-0.004042212227047931 0.002731015435018875 0.0 -0.005197673788596447 0.0 0.0
-0.005104179058799313 0.003634096754795489 0.0 -0.006157507605979063 0.0 0.0
-0.00631285827505954 0.004717170959015997 0.0 -0.007229844215791334 0.0 0.0
-0.0075855964077208085 0.0059203025784453165 0.0 -0.00849397246745604 0.0 0.0
-0.008693657576859927 0.007021317778174515 0.0 -0.010027307860074728 0.0 0.0
-0.009255148198561595 0.007644062636635191 0.0 -0.011886413223049981 0.0 0.0
-0.0088011280468118 0.007372984076232502 0.0 -0.013942733165270978 0.0 0.0
-0.006167082847579462 0.005449894332028326 0.0 -0.014782517024149115 0.0 0.0
-0.004075054167777172 -0.0006683778894799084 0.0 8.913442900437829e-15 0.0 0.0
-0.006167082847579726 0.005449894332025961 0.0 0.0147825170241653 0.0 0.0
-0.008801128046810222 0.007372984076235423 0.0 0.013942733165283692 0.0 0.0
-0.009255148198556506 0.007644062636625454 0.0 0.011886413223053977 0.0 0.0
-0.008693657576852615 0.007021317778165391 0.0 0.010027307860072067 0.0 0.0
-0.007585596407713719 0.005920302578438666 0.0 0.008493972467449134 0.0 0.0
-0.006312858275052935 0.004717170959009768 0.0 0.007229844215786513 0.0 0.0
-0.005104179058792063 0.0036340967547888172 0.0 0.006157507605973623 0.0 0.0
-0.004042212227040123 0.0027310154350124174 0.0 0.005197673788588626 0.0 0.0
-0.0031196899834738958 0.0019745173387058753 0.0 0.004325174445244977 0.0 0.0
-0.0023024428794261604 0.0013297659027416892 0.0 0.003571699561739517 0.0 0.0
-0.001609189627618129 0.0008310639116981518 0.0 0.003034547815066304 0.0 0.0
-0.0010816188437421956 0.0004962821858977553 0.0 0.002744333049866013 0.0 0.0
-0.0007250379864693968 0.00032052546163920847 0.0 0.002588747736165259 0.0 0.0
-0.0005107224845851639 0.00023318993201032706 0.0 0.002435373661564392 0.0 0.0
-0.00039691411917209136 0.00021163931724560512 0.0 0.002270795175678313 0.0 0.0
-0.00034955141959873334 0.0002106232272458724 0.0 0.002176835110795786 0.0 0.0
-0.0003241058519232475 0.00020204686415476505 0.0 0.0021812777877959185 0.0 0.0
-0.0002344544950760111 8.563719665202051e-05 0.0 0.002229342091050694 0.0 0.0
7.458502458408041e-05 -0.0003660921456355899 0.0 0.0019682720726468725 0.0 0.0
0.0003076285507163167 -0.0014834441325894438 0.0 0.0013267699392846876 0.0 0.0
0.00021787839331891494 -0.0011288435069534445 0.0 -0.0012001879779023642 0.0 0.0
3.926710959060842e-06 -0.00032923365956757705 0.0 -0.0018309533099210287 0.0 0.0
-0.00031924980258050056 0.00011580781381075191 0.0 -0.0021789869188370437 0.0 0.0
-0.0004821783973509371 0.00026438222719786574 0.0 -0.0021531518804199282 0.0 0.0
-0.000592578960822799 0.0003163243878484508 0.0 -0.0021278247593992062 0.0 0.0
-0.0007418712631408703 0.00036693000958559015 0.0 -0.0021842928685036223 0.0 0.0
-0.0009964860818282714 0.0004460257294664336 0.0 -0.002285911399147758 0.0 0.0
-0.001453800949040157 0.0006583882637659549 0.0 -0.0024303337141509894 0.0 0.0
-0.0022229912218557704 0.0011306375140896345 0.0 -0.0027980155340310313 0.0 0.0
-0.003339499894592644 0.0019698539532747336 0.0 -0.0034958402880919406 0.0 0.0
-0.004741080981605081 0.003142197189857671 0.0 -0.004512574216708727 0.0 0.0
-0.006347956417316385 0.00455501523217703 0.0 -0.005627653521012095 0.0 0.0
-0.008159746989124824 0.006182147628374304 0.0 -0.006764610705689229 0.0 0.0
-0.010244424856924065 0.008107857573642534 0.0 -0.007914739154180938 0.0 0.0
-0.0126567854110277 0.010389455440364117 0.0 -0.009157840593159699 0.0 0.0
-0.015335422137225111 0.012991666475599068 0.0 -0.010674980374671825 0.0 0.0
-0.018013810927933298 0.01565688550548374 0.0 -0.012684734264531483 0.0 0.0
-0.020192052493542757 0.01787947935847591 0.0 -0.015292690846494598 0.0 0.0
-0.02092114668116492 0.018784254733453937 0.0 -0.01796277743818208 0.0 0.0
-0.018530659591686434 0.016608081733075514 0.0 -0.018493628130181686 0.0 0.0
-0.01629800285715341 0.008740970667956262 0.0 9.326740768589303e-15 0.0 0.0
-0.018530659591685584 0.01660808173307262 0.0 0.0184936281302032 0.0 0.0
-0.020921146681160276 0.018784254733452833 0.0 0.017962777438202685 0.0 0.0
-0.020192052493533105 0.017879479358466562 0.0 0.015292690846503473 0.0 0.0
-0.018013810927920544 0.015656885505469852 0.0 0.012684734264529991 0.0 0.0
-0.015335422137212288 0.012991666475587547 0.0 0.010674980374665041 0.0 0.0
-0.012656785411015831 0.010389455440350932 0.0 0.009157840593153319 0.0 0.0
-0.010244424856912019 0.008107857573633548 0.0 0.007914739154173914 0.0 0.0
-0.008159746989111646 0.006182147628362431 0.0 0.0067646107056810265 0.0 0.0
-0.0063479564173036076 0.004555015232167709 0.0 0.005627653521000944 0.0 0.0
-0.004741080981593916 0.003142197189846818 0.0 0.004512574216697331 0.0 0.0
-0.0033394998945838555 0.0019698539532666992 0.0 0.003495840288085316 0.0 0.0
-0.002222991221850361 0.0011306375140845981 0.0 0.0027980155340286907 0.0 0.0
-0.0014538009490368243 0.0006583882637647256 0.0 0.0024303337141496706 0.0 0.0
-0.0009964860818261687 0.00044602572946605577 0.0 0.0022859113991456907 0.0 0.0
-0.0007418712631398351 0.00036693000958456536 0.0 0.0021842928685015476 0.0 0.0
-0.0005925789608221222 0.0003163243878474232 0.0 0.002127824759397243 0.0 0.0
-0.00048217839735052715 0.00026438222719782307 0.0 0.0021531518804179806 0.0 0.0
-0.0003192498025801194 0.00011580781381108025 0.0 0.0021789869188349456 0.0 0.0
3.926710959164492e-06 -0.0003292336595675913 0.0 0.001830953309919258 0.0 0.0
0.00021787839331868778 -0.0011288435069519926 0.0 0.0012001879779013995 0.0 0.0
0.00013975949536297288 -0.0008260604809407042 0.0 -0.0010526177230796383 0.0 0.0
-5.986852884751229e-05 -0.0002783328704609868 0.0 -0.0016712627725329744 0.0 0.0
-0.0003994077852668982 0.00014639426464929683 0.0 -0.0020770410279462672 0.0 0.0
-0.0006321892262192606 0.0003225293848991996 0.0 -0.0020700353451551744 0.0 0.0
-0.0008263127417821887 0.00041508937333649567 0.0 -0.002021475767298412 0.0 0.0
-0.0010731341713347026 0.0005110272170043553 0.0 -0.0020209115543911725 0.0 0.0
-0.0014851592950733265 0.0006614042533190311 0.0 -0.002062881040160408 0.0 0.0
-0.0022461865076110962 0.0010912235237709304 0.0 -0.002323828466125632 0.0 0.0
-0.003489046100370998 0.002004928999797326 0.0 -0.0029999910270177145 0.0 0.0
-0.005203321195839186 0.0034551166922943384 0.0 -0.004094909931234969 0.0 0.0
-0.00728172805527314 0.005316918478552312 0.0 -0.005398699911421906 0.0 0.0
-0.009646487150096392 0.007482298334795618 0.0 -0.006692765163623689 0.0 0.0
-0.01233364363865625 0.00997326638917289 0.0 -0.007948756543614306 0.0 0.0
-0.01544998947787337 0.012907892816142998 0.0 -0.009221190314965532 0.0 0.0
-0.019090213481094055 0.01639158299728519 0.0 -0.010647434846404553 0.0 0.0
-0.02321581393692723 0.020419850146826058 0.0 -0.012470109013903701 0.0 0.0
-0.027521506445982315 0.024710212630981214 0.0 -0.015069752809917802 0.0 0.0
-0.03125874079756122 0.028555240305635818 0.0 -0.01857469012265807 0.0 0.0
-0.033007903766317535 0.030536847110350658 0.0 -0.02202534750068227 0.0 0.0
-0.030323124591999477 0.02832355996174206 0.0 -0.023153905342646896 0.0 0.0
-0.027487628044348296 0.017895369270773273 0.0 1.1351163065054237e-14 0.0 0.0
-0.03032312459199698 0.028323559961736522 0.0 0.023153905342674183 0.0 0.0
-0.03300790376630966 0.030536847110344163 0.0 0.022025347500707924 0.0 0.0
-0.031258740797547264 0.028555240305624868 0.0 0.018574690122669647 0.0 0.0
-0.02752150644596467 0.024710212630966365 0.0 0.015069752809916535 0.0 0.0
-0.023215813936909024 0.020419850146807483 0.0 0.012470109013897866 0.0 0.0
-0.019090213481076847 0.016391582997270396 0.0 0.010647434846397335 0.0 0.0
-0.015449989477855846 0.012907892816129966 0.0 0.00922119031495751 0.0 0.0
-0.012333643638637728 0.009973266389153029 0.0 0.00794875654360615 0.0 0.0
-0.00964648715007877 0.007482298334779742 0.0 0.006692765163611777 0.0 0.0
-0.00728172805525726 0.005316918478538195 0.0 0.005398699911408336 0.0 0.0
-0.005203321195826331 0.003455116692279445 0.0 0.00409490993122509 0.0 0.0
-0.003489046100362319 0.0020049289997905568 0.0 0.0029999910270122054 0.0 0.0
-0.0022461865076059072 0.0010912235237678731 0.0 0.002323828466123684 0.0 0.0
-0.001485159295070492 0.0006614042533196609 0.0 0.002062881040159225 0.0 0.0
-0.0010731341713331951 0.0005110272170031975 0.0 0.0020209115543893177 0.0 0.0
-0.0008263127417812353 0.0004150893733362818 0.0 0.0020214757672964534 0.0 0.0
-0.0006321892262185925 0.000322529384899243 0.0 0.0020700353451541423 0.0 0.0
-0.0003994077852665338 0.00014639426464890066 0.0 0.002077041027944772 0.0 0.0
-5.986852884742934e-05 -0.0002783328704607214 0.0 0.0016712627725315003 0.0 0.0
0.0001397594953629377 -0.0008260604809396847 0.0 0.0010526177230789507 0.0 0.0
6.986103351561348e-05 -0.0005708682427162988 0.0 -0.0008977096586302842 0.0 0.0
-0.00011957722983030317 -0.00021742245790254479 0.0 -0.0014870725043912673 0.0 0.0
-0.00047650112304714696 0.0001785975550202364 0.0 -0.0019244675876699318 0.0 0.0
-0.0007749860640086146 0.000376648852831769 0.0 -0.001932353528166765 0.0 0.0
-0.0010475697191934712 0.0005053234348138234 0.0 -0.001856821344060457 0.0 0.0
-0.0013966781417534399 0.0006414581302978685 0.0 -0.0017823837958451734 0.0 0.0
-0.0020093262223888266 0.0009206840021388542 0.0 -0.0018343252159997011 0.0 0.0
-0.0031254262664257163 0.001668615320555462 0.0 -0.0022589893163572476 0.0 0.0
-0.004860394926148708 0.003092461422873797 0.0 -0.0031867962111849623 0.0 0.0
-0.007152000401932156 0.005135733761753444 0.0 -0.004484659878877203 0.0 0.0
-0.00987399539063646 0.007640370331639328 0.0 -0.005851395020332519 0.0 0.0
-0.012985637176941489 0.010541286858725836 0.0 -0.007183176570296722 0.0 0.0
-0.016556788351234683 0.013895814168575146 0.0 -0.008483835303087859 0.0 0.0
-0.020719616816031242 0.017848057398971776 0.0 -0.009832278741286575 0.0 0.0
-0.025602029052016115 0.022542604758449967 0.0 -0.01134967701308418 0.0 0.0
-0.031199670590202684 0.028016952001151 0.0 -0.013333548642226462 0.0 0.0
-0.03714279131018408 0.03395385900161131 0.0 -0.01622923791452924 0.0 0.0
-0.042392861390486564 0.03937413487748684 0.0 -0.020221309350412768 0.0 0.0
-0.044981407268328534 0.042331460959292126 0.0 -0.02444614204970842 0.0 0.0
-0.041689727585969644 0.039699600880264786 0.0 -0.026430087703006682 0.0 0.0
-0.038080617634322675 0.02674649721529756 0.0 1.2187299780475058e-14 0.0 0.0
-0.041689727585965466 0.03969960088026447 0.0 0.026430087703036627 0.0 0.0
-0.04498140726831784 0.04233146095927958 0.0 0.024446142049738537 0.0 0.0
-0.042392861390469085 0.03937413487747237 0.0 0.020221309350427798 0.0 0.0
-0.03714279131016205 0.033953859001590474 0.0 0.01622923791452996 0.0 0.0
-0.03119967059017962 0.028016952001128838 0.0 0.013333548642221124 0.0 0.0
-0.025602029051993772 0.022542604758430004 0.0 0.011349677013075776 0.0 0.0
-0.020719616816008556 0.017848057398952795 0.0 0.009832278741279147 0.0 0.0
-0.016556788351211327 0.013895814168551117 0.0 0.008483835303078604 0.0 0.0
-0.012985637176919083 0.010541286858704627 0.0 0.0071831765702836566 0.0 0.0
-0.009873995390616138 0.007640370331617432 0.0 0.005851395020318837 0.0 0.0
-0.007152000401915616 0.005135733761736093 0.0 0.00448465987886513 0.0 0.0
-0.004860394926136764 0.0030924614228645146 0.0 0.0031867962111769093 0.0 0.0
-0.00312542626641796 0.0016686153205506095 0.0 0.002258989316353566 0.0 0.0
-0.0020093262223848316 0.0009206840021361948 0.0 0.001834325215997897 0.0 0.0
-0.001396678141751601 0.0006414581302968043 0.0 0.0017823837958442649 0.0 0.0
-0.0010475697191924792 0.0005053234348130963 0.0 0.0018568213440586187 0.0 0.0
-0.0007749860640078918 0.0003766488528316282 0.0 0.0019323535281649583 0.0 0.0
-0.00047650112304666275 0.0001785975550198586 0.0 0.0019244675876691204 0.0 0.0
-0.00011957722983019713 -0.0002174224579023514 0.0 0.0014870725043909705 0.0 0.0
6.986103351562497e-05 -0.0005708682427156772 0.0 0.0008977096586289048 0.0 0.0
7.966742559287326e-06 -0.00036143721693403675 0.0 -0.0007390345098338322 0.0 0.0
-0.0001753997689555059 -0.00015108871179032814 0.0 -0.0012798782682876062 0.0 0.0
-0.0005511467114701198 0.00021279429136802425 0.0 -0.0017226565136307902 0.0 0.0
-0.0009103788030181265 0.00042690323206927955 0.0 -0.001740817823781842 0.0 0.0
-0.0012563976195696545 0.000585551961066722 0.0 -0.0016333786465030575 0.0 0.0
-0.0017286896862106402 0.0007758461973136014 0.0 -0.0015064586891008743 0.0 0.0
-0.002585812890932355 0.0012538053124813338 0.0 -0.001601709998913332 0.0 0.0
-0.004088907797685801 0.002390687249855091 0.0 -0.0021686797529716106 0.0 0.0
-0.006309543399908715 0.004328538947056835 0.0 -0.0032436300198425646 0.0 0.0
-0.009138918325297214 0.006912679492363868 0.0 -0.004527890842160023 0.0 0.0
-0.012486711497730304 0.010033957723814971 0.0 -0.005838802492537999 0.0 0.0
-0.016355786067583058 0.01367196075722155 0.0 -0.007127576157949144 0.0 0.0
-0.020825702228313234 0.0179010969276593 0.0 -0.008406907375363594 0.0 0.0
-0.02604435053066203 0.022883862540263453 0.0 -0.009760337989347544 0.0 0.0
-0.032171595421339676 0.02879089176374966 0.0 -0.011297875723927906 0.0 0.0
-0.03922316282541002 0.03568848442248116 0.0 -0.013227017878621064 0.0 0.0
-0.04676111817705001 0.04323187103219886 0.0 -0.016003579113218275 0.0 0.0
-0.05347410673052366 0.05019078738477226 0.0 -0.020060237595936184 0.0 0.0
-0.05681238273311587 0.054045101359410715 0.0 -0.024905934612909065 0.0 0.0
-0.05287280520503077 0.050919925221437436 0.0 -0.028560567827490883 0.0 0.0
-0.04851215686445161 0.035574655915817766 0.0 1.3177826885257815e-14 0.0 0.0
-0.05287280520502402 0.05091992522143219 0.0 0.028560567827520304 0.0 0.0
-0.05681238273310191 0.05404510135939818 0.0 0.024905934612938087 0.0 0.0
-0.053474106730502985 0.050190787384755506 0.0 0.020060237595954405 0.0 0.0
-0.0467611181770241 0.04323187103217224 0.0 0.016003579113220832 0.0 0.0
-0.039223162825382456 0.035688484422455674 0.0 0.01322701787861709 0.0 0.0
-0.0321715954213121 0.028790891763722168 0.0 0.011297875723921894 0.0 0.0
-0.026044350530634006 0.022883862540235566 0.0 0.009760337989340652 0.0 0.0
-0.020825702228285177 0.01790109692763099 0.0 0.008406907375354966 0.0 0.0
-0.016355786067555923 0.013671960757196329 0.0 0.007127576157936896 0.0 0.0
-0.012486711497705697 0.010033957723788145 0.0 0.005838802492524324 0.0 0.0
-0.009138918325277126 0.006912679492346148 0.0 0.004527890842148429 0.0 0.0
-0.006309543399893609 0.004328538947044422 0.0 0.003243630019835482 0.0 0.0
-0.004088907797675504 0.002390687249846215 0.0 0.002168679752966373 0.0 0.0
-0.002585812890926686 0.0012538053124762155 0.0 0.0016017099989099038 0.0 0.0
-0.001728689686208334 0.0007758461973130233 0.0 0.0015064586891003666 0.0 0.0
-0.0012563976195687273 0.0005855519610666747 0.0 0.0016333786465025045 0.0 0.0
-0.0009103788030172075 0.0004269032320687719 0.0 0.0017408178237802402 0.0 0.0
-0.0005511467114694839 0.0002127942913678909 0.0 0.0017226565136295347 0.0 0.0
-0.0001753997689554473 -0.00015108871179029097 0.0 0.0012798782682870938 0.0 0.0
7.966742559120417e-06 -0.00036143721693367403 0.0 0.0007390345098326224 0.0 0.0
-4.457745930207396e-05 -0.00019752852360165933 0.0 -0.0005783703499521425 0.0 0.0
-0.00022582957917157082 -8.375526628423801e-05 0.0 -0.0010517546157203781 0.0 0.0
-0.0006228729443598426 0.0002480576895487259 0.0 -0.0014730823474888033 0.0 0.0
-0.0010387867019667207 0.0004738665022409118 0.0 -0.001494783059445669 0.0 0.0
-0.0014617913095556353 0.0006555921563176774 0.0 -0.0013573949908907922 0.0 0.0
-0.0020808632848025913 0.0009362861218362973 0.0 -0.0012078841149896905 0.0 0.0
-0.0032217684543219887 0.0016777887183445704 0.0 -0.0013551498132864407 0.0 0.0
-0.005125751670513253 0.0032465913419968385 0.0 -0.0020371857696685988 0.0 0.0
-0.007793339254463214 0.005639862994177651 0.0 -0.0030542803138259265 0.0 0.0
-0.01113476897233098 0.008732728275787489 0.0 -0.004199005146037506 0.0 0.0
-0.015114088253529105 0.012468520063388437 0.0 -0.00539338083041549 0.0 0.0
-0.01974665608942961 0.016846996320366608 0.0 -0.0065652673267893895 0.0 0.0
-0.025129373055417535 0.021965251125965157 0.0 -0.007745416597740966 0.0 0.0
-0.03142176404045255 0.027995999239947264 0.0 -0.009029101601573268 0.0 0.0
-0.03877449196891859 0.03510706838986624 0.0 -0.010496234334039565 0.0 0.0
-0.04720903341675936 0.04335951447323319 0.0 -0.012212548923500403 0.0 0.0
-0.056264328076732636 0.052405677185923906 0.0 -0.014481667204932313 0.0 0.0
-0.06439087818506456 0.06084804248603934 0.0 -0.01806659528300901 0.0 0.0
-0.06852428625202876 0.0656547587734728 0.0 -0.023423153662915547 0.0 0.0
-0.06410830717702232 0.06223295323357447 0.0 -0.029768906984909943 0.0 0.0
-0.05910802163706806 0.04469083903600659 0.0 1.1975663516405888e-14 0.0 0.0
-0.06410830717701337 0.06223295323356269 0.0 0.029768906984938406 0.0 0.0
-0.06852428625201151 0.0656547587734583 0.0 0.023423153662943733 0.0 0.0
-0.06439087818504018 0.060848042486019605 0.0 0.01806659528302562 0.0 0.0
-0.05626432807670289 0.05240567718589672 0.0 0.01448166720493545 0.0 0.0
-0.04720903341672699 0.04335951447319912 0.0 0.012212548923497768 0.0 0.0
-0.038774491968886125 0.035107068389836404 0.0 0.010496234334036141 0.0 0.0
-0.03142176404041982 0.02799599923991062 0.0 0.009029101601566787 0.0 0.0
-0.025129373055384267 0.0219652511259323 0.0 0.007745416597732563 0.0 0.0
-0.019746656089397678 0.016846996320332777 0.0 0.006565267326778779 0.0 0.0
-0.015114088253500274 0.012468520063358936 0.0 0.00539338083040306 0.0 0.0
-0.01113476897230698 0.008732728275767255 0.0 0.004199005146026567 0.0 0.0
-0.007793339254444828 0.005639862994161663 0.0 0.003054280313818845 0.0 0.0
-0.005125751670500385 0.0032465913419843003 0.0 0.0020371857696619327 0.0 0.0
-0.0032217684543143247 0.0016777887183395566 0.0 0.0013551498132840958 0.0 0.0
-0.002080863284798978 0.0009362861218347742 0.0 0.0012078841149887405 0.0 0.0
-0.001461791309554444 0.0006555921563179319 0.0 0.001357394990891182 0.0 0.0
-0.0010387867019660704 0.00047386650224025034 0.0 0.0014947830594446848 0.0 0.0
-0.0006228729443594651 0.0002480576895476284 0.0 0.0014730823474872702 0.0 0.0
-0.00022582957917149904 -8.375526628405637e-05 0.0 0.0010517546157201951 0.0 0.0
-4.457745930195951e-05 -0.00019752852360151787 0.0 0.0005783703499513618 0.0 0.0
-8.502853250024495e-05 -7.989111160648483e-05 0.0 -0.0004194096157760436 0.0 0.0
-0.000267750459536083 -2.00316274515423e-05 0.0 -0.0008053186175938186 0.0 0.0
-0.0006897303777479834 0.0002823790985586818 0.0 -0.0011748931188133587 0.0 0.0
-0.0011622425404068859 0.0005175467979657237 0.0 -0.0011933179231942465 0.0 0.0
-0.0016707186744313162 0.0007237680124138631 0.0 -0.0010337555370351422 0.0 0.0
-0.0024684265691569166 0.0011359150689809754 0.0 -0.0008768391149840039 0.0 0.0
-0.003925045538030617 0.0022116795565972867 0.0 -0.001111894645866756 0.0 0.0
-0.0061999909134725925 0.004178550245256221 0.0 -0.0017561971015715397 0.0 0.0
-0.009278495724295208 0.006979640487542063 0.0 -0.0025816603674821414 0.0 0.0
-0.013132971445512382 0.010576092896923392 0.0 -0.0035368408304964315 0.0 0.0
-0.01774373883921374 0.014924102887147406 0.0 -0.004534291648797989 0.0 0.0
-0.02314827263859853 0.020049794198699174 0.0 -0.005515327647232407 0.0 0.0
-0.029460359820934374 0.026070941217781397 0.0 -0.006511876982140522 0.0 0.0
-0.036834500596225055 0.0331662607567602 0.0 -0.007632114091833893 0.0 0.0
-0.04539547074385418 0.04147382961619014 0.0 -0.00894511519587393 0.0 0.0
-0.05511308477375901 0.05098849339926781 0.0 -0.010376466486785751 0.0 0.0
-0.0655155670121214 0.06133737475505756 0.0 -0.011879558395810895 0.0 0.0
-0.07500979542383623 0.07116439522887064 0.0 -0.014304825593573212 0.0 0.0
-0.0801600153015654 0.07715698685216342 0.0 -0.019884491540711962 0.0 0.0
-0.07563266179996794 0.07389457251768473 0.0 -0.029829737775817676 0.0 0.0
-0.07017608172405197 0.05443128971171664 0.0 1.2215922717828676e-14 0.0 0.0
-0.07563266179995733 0.07389457251767831 0.0 0.029829737775842545 0.0 0.0
-0.08016001530154508 0.0771569868521456 0.0 0.01988449154073842 0.0 0.0
-0.07500979542380787 0.07116439522884137 0.0 0.01430482559358743 0.0 0.0
-0.06551556701208731 0.06133737475502571 0.0 0.011879558395814309 0.0 0.0
-0.055113084773722024 0.0509884933992331 0.0 0.010376466486783618 0.0 0.0
-0.04539547074381678 0.041473829616157656 0.0 0.008945115195870323 0.0 0.0
-0.0368345005961875 0.03316626075672093 0.0 0.00763211409182863 0.0 0.0
-0.02946035982089616 0.026070941217744222 0.0 0.006511876982133897 0.0 0.0
-0.023148272638562124 0.020049794198660993 0.0 0.005515327647223957 0.0 0.0
-0.017743738839181344 0.014924102887116562 0.0 0.004534291648786985 0.0 0.0
-0.013132971445485262 0.010576092896898585 0.0 0.003536840830486764 0.0 0.0
-0.009278495724274062 0.006979640487520733 0.0 0.0025816603674762213 0.0 0.0
-0.006199990913457197 0.004178550245242648 0.0 0.001756197101566465 0.0 0.0
-0.003925045538021231 0.002211679556590921 0.0 0.001111894645864243 0.0 0.0
-0.0024684265691524683 0.001135915068978666 0.0 0.000876839114982394 0.0 0.0
-0.0016707186744294431 0.0007237680124131051 0.0 0.0010337555370347913 0.0 0.0
-0.0011622425404059277 0.0005175467979647188 0.0 0.0011933179231937967 0.0 0.0
-0.0006897303777473239 0.00028237909855823024 0.0 0.0011748931188123274 0.0 0.0
-0.0002677504595358044 -2.003162745139806e-05 0.0 0.0008053186175933011 0.0 0.0
-8.50285325002688e-05 -7.989111160643332e-05 0.0 0.00041940961577590816 0.0 0.0
-0.00010880353611577811 -9.515710428060924e-06 0.0 -0.00027142908326170136 0.0 0.0
-0.00029567700669112654 3.424026900464462e-05 0.0 -0.0005440730508431255 0.0 0.0
-0.0007486314690508522 0.0003123391837254499 0.0 -0.0008226422543790539 0.0 0.0
-0.0012836722769544505 0.0005593566745898162 0.0 -0.0008328528015220136 0.0 0.0
-0.001893899362488976 0.0008014752942307105 0.0 -0.0006682359571117521 0.0 0.0
-0.0029079932169921423 0.0014078392486436193 0.0 -0.0005443105496399206 0.0 0.0
-0.004672237274046955 0.0028324681755220425 0.0 -0.0008073243209016365 0.0 0.0
-0.007281527981874161 0.005134626018561142 0.0 -0.0012631611304396435 0.0 0.0
-0.010760803167297588 0.008334809833718024 0.0 -0.0018609319784627359 0.0 0.0
-0.015121160439308303 0.012425571573743624 0.0 -0.0025522762148994056 0.0 0.0
-0.020365636116243622 0.017385385554504366 0.0 -0.003275352325172196 0.0 0.0
-0.02654971604423453 0.023265880128387255 0.0 -0.003984215212082648 0.0 0.0
-0.03380078180048402 0.03020372002073874 0.0 -0.004716635046130808 0.0 0.0
-0.04227288575077285 0.03837521608802979 0.0 -0.005586296798191732 0.0 0.0
-0.05202617248300015 0.047869064711771415 0.0 -0.006623541540901548 0.0 0.0
-0.06290839449469783 0.058563205820558115 0.0 -0.0076900103108184 0.0 0.0
-0.07440655424011762 0.06997098996944928 0.0 -0.008503331350151995 0.0 0.0
-0.0851580633118657 0.08089321898566341 0.0 -0.009415243492618764 0.0 0.0
-0.09168499814058774 0.088403818142528 0.0 -0.013748714194703603 0.0 0.0
-0.08769569061440265 0.08620732580029403 0.0 -0.027861578749287273 0.0 0.0
-0.08212133063283386 0.06530127728582419 0.0 8.843620280529763e-15 0.0 0.0
-0.08769569061439034 0.08620732580028527 0.0 0.027861578749307406 0.0 0.0
-0.09168499814056408 0.0884038181425059 0.0 0.0137487141947234 0.0 0.0
-0.08515806331183319 0.08089321898563064 0.0 0.009415243492629373 0.0 0.0
-0.07440655424007912 0.06997098996941056 0.0 0.008503331350156157 0.0 0.0
-0.06290839449465634 0.05856320582051902 0.0 0.007690010310817688 0.0 0.0
-0.052026172482957767 0.04786906471173244 0.0 0.006623541540898566 0.0 0.0
-0.042272885750730245 0.038375216087991604 0.0 0.005586296798187667 0.0 0.0
-0.03380078180044098 0.030203720020694817 0.0 0.0047166350461271 0.0 0.0
-0.026549716044193643 0.023265880128347766 0.0 0.0039842152120775545 0.0 0.0
-0.020365636116207536 0.017385385554469616 0.0 0.0032753523251650603 0.0 0.0
-0.015121160439277848 0.01242557157371779 0.0 0.0025522762148913894 0.0 0.0
-0.01076080316727322 0.008334809833693824 0.0 0.0018609319784588687 0.0 0.0
-0.007281527981856533 0.005134626018545438 0.0 0.0012631611304365548 0.0 0.0
-0.0046722372740358445 0.0028324681755126013 0.0 0.0008073243208978342 0.0 0.0
-0.0029079932169866264 0.0014078392486404929 0.0 0.0005443105496396553 0.0 0.0
-0.0018938993624868956 0.0008014752942295989 0.0 0.0006682359571121744 0.0 0.0
-0.0012836722769534225 0.0005593566745885028 0.0 0.000832852801521718 0.0 0.0
-0.0007486314690503412 0.0003123391837258352 0.0 0.0008226422543784702 0.0 0.0
-0.00029567700669089057 3.4240269004199284e-05 0.0 0.0005440730508422772 0.0 0.0
-0.00010880353611553716 -9.515710427991716e-06 0.0 0.0002714290832609797 0.0 0.0
-0.00010797256369770409 1.3536417484219933e-05 0.0 -0.00015523746486890676 0.0 0.0
-0.0003003426595808562 6.973885305138681e-05 0.0 -0.00027236764426689415 0.0 0.0
-0.0007946967897451388 0.0003331059170464545 0.0 -0.0004024488312576757 0.0 0.0
-0.00140947590797815 0.0006029060523063685 0.0 -0.00040532398589931495 0.0 0.0
-0.0021500365668317943 0.0009080727413002681 0.0 -0.00027498002991238916 0.0 0.0
-0.0033950135190303357 0.001759385182540131 0.0 -0.00020892944337481349 0.0 0.0
-0.005441668503331975 0.0034968268615803476 0.0 -0.000368301030953266 0.0 0.0
-0.008359375035727043 0.0061032622328014135 0.0 -0.0005985361564386494 0.0 0.0
-0.012227803317495223 0.009689890518219653 0.0 -0.0008981041077680531 0.0 0.0
-0.017088114438888854 0.014265121853698215 0.0 -0.0012534693862593 0.0 0.0
-0.022967333880494625 0.01983804731149263 0.0 -0.0016181152550733323 0.0 0.0
-0.02994074377654036 0.02648519050170091 0.0 -0.0019747007289191995 0.0 0.0
-0.03814558237062231 0.034353313706832186 0.0 -0.002384615009093944 0.0 0.0
-0.04770778323168405 0.043595005672043316 0.0 -0.002884214645236016 0.0 0.0
-0.058628203660322356 0.054252994805193765 0.0 -0.003477969857637251 0.0 0.0
-0.07062370028089085 0.06608215894535378 0.0 -0.004095582379953227 0.0 0.0
-0.08298506673765549 0.0783880721825857 0.0 -0.004482121212685867 0.0 0.0
-0.09453110042999138 0.08994688538452134 0.0 -0.004468322690814763 0.0 0.0
-0.10278457193135945 0.09863724318813019 0.0 -0.005989209932485209 0.0 0.0
-0.10064049218140762 0.09931146668472 0.0 -0.01956070954586462 0.0 0.0
-0.09563438284402083 0.07880282982228128 0.0 3.5752650839881994e-15 0.0 0.0
-0.10064049218139325 0.09931146668470783 0.0 0.019560709545877533 0.0 0.0
-0.10278457193133253 0.09863724318810467 0.0 0.0059892099324962466 0.0 0.0
-0.09453110042995415 0.08994688538448199 0.0 0.004468322690820625 0.0 0.0
-0.08298506673761213 0.07838807218254179 0.0 0.004482121212686188 0.0 0.0
-0.0706237002808443 0.06608215894530965 0.0 0.004095582379952916 0.0 0.0
-0.058628203660274804 0.05425299480514613 0.0 0.0034779698576352424 0.0 0.0
-0.04770778323163635 0.0435950056720018 0.0 0.00288421464523387 0.0 0.0
-0.03814558237057422 0.03435331370678497 0.0 0.00238461500909209 0.0 0.0
-0.029940743776494933 0.026485190501656142 0.0 0.001974700728914915 0.0 0.0
-0.022967333880455056 0.019838047311454783 0.0 0.0016181152550689857 0.0 0.0
-0.017088114438855807 0.014265121853669353 0.0 0.0012534693862557406 0.0 0.0
-0.012227803317468538 0.009689890518193732 0.0 0.0008981041077654342 0.0 0.0
-0.008359375035707405 0.006103262232780118 0.0 0.0005985361564368043 0.0 0.0
-0.005441668503318804 0.003496826861568881 0.0 0.0003683010309499131 0.0 0.0
-0.0033950135190229267 0.0017593851825346775 0.0 0.00020892944337528435 0.0 0.0
-0.002150036566828817 0.0009080727412981897 0.0 0.0002749800299126531 0.0 0.0
-0.0014094759079769583 0.0006029060523059455 0.0 0.000405323985899286 0.0 0.0
-0.0007946967897445298 0.0003331059170461608 0.0 0.0004024488312568045 0.0 0.0
-0.00030034265958073974 6.97388530508441e-05 0.0 0.0002723676442663431 0.0 0.0
-0.00010797256369780697 1.3536417484328734e-05 0.0 0.00015523746486791152 0.0 0.0
-6.793306863087869e-05 1.3331043736115876e-05 0.0 -9.826317724275383e-05 0.0 0.0
-0.00026580667796882344 8.130959059328289e-05 0.0 -0.00011306994505369002 0.0 0.0
-0.000821084328772015 0.0003405390677624234 0.0 -0.0001376291132507524 0.0 0.0
-0.0015521854325794937 0.0006255778232810097 0.0 -0.00012923502878419194 0.0 0.0
-0.002452394530018139 0.0009723881416397474 0.0 1.9862440232239816e-05 0.0 0.0
-0.003918812634475433 0.0019510166675727964 0.0 0.00016116191121265128 0.0 0.0
-0.006217227573947498 0.0038353206783107692 0.0 0.00019357843237827036 0.0 0.0
-0.009425073556114388 0.006589673486405143 0.0 0.00020540801078069288 0.0 0.0
-0.0136686040842679 0.010365166638629712 0.0 0.00020641474339604094 0.0 0.0
-0.019021232060249388 0.015180692336996026 0.0 0.00017589044910298304 0.0 0.0
-0.025538355032029423 0.021059957674463576 0.0 0.0001621776560857568 0.0 0.0
-0.033316818817021476 0.02809513956449948 0.0 0.00016193980527948876 0.0 0.0
-0.042473310552529335 0.03643134269407142 0.0 0.00010461579363321098 0.0 0.0
-0.053106452480600926 0.046202603786137365 0.0 2.50266384208735e-05 0.0 0.0
-0.06517189311743835 0.057437217285958415 0.0 -0.0001541796248952041 0.0 0.0
-0.07825905907595 0.06982724002407693 0.0 -0.0004384217955031222 0.0 0.0
-0.09143055713673359 0.08255951123758427 0.0 -0.0007299844746294151 0.0 0.0
-0.103237293185487 0.09432034458826195 0.0 -0.0008210558607535459 0.0 0.0
-0.11214161813298686 0.10334594800338168 0.0 -0.0011647256232659876 0.0 0.0
-0.11442476277792682 0.10605321011758118 0.0 -0.013646430304112485 0.0 0.0
-0.11315697135066582 0.08650760121009526 0.0 -8.951173136040325e-16 0.0 0.0
-0.11442476277791021 0.10605321011756924 0.0 0.013646430304116232 0.0 0.0
-0.11214161813295567 0.10334594800335738 0.0 0.0011647256232679218 0.0 0.0
-0.10323729318544421 0.09432034458821191 0.0 0.0008210558607561688 0.0 0.0
-0.0914305571366848 0.08255951123753612 0.0 0.0007299844746291514 0.0 0.0
-0.07825905907589842 0.06982724002403412 0.0 0.00043842179550319764 0.0 0.0
-0.06517189311738555 0.05743721728590592 0.0 0.000154179624893825 0.0 0.0
-0.053106452480547794 0.04620260378609299 0.0 -2.5026638421996733e-05 0.0 0.0
-0.042473310552476606 0.03643134269402411 0.0 -0.00010461579363338792 0.0 0.0
-0.03331681881697177 0.028095139564451303 0.0 -0.00016193980528231202 0.0 0.0
-0.025538355031986024 0.021059957674425346 0.0 -0.00016217765608979523 0.0 0.0
-0.01902123206021318 0.015180692336963127 0.0 -0.00017589044910301752 0.0 0.0
-0.013668604084238343 0.010365166638602362 0.0 -0.00020641474339730815 0.0 0.0
-0.009425073556092666 0.006589673486380376 0.0 -0.00020540801078064398 0.0 0.0
-0.006217227573932972 0.0038353206782995204 0.0 -0.00019357843238009518 0.0 0.0
-0.0039188126344669744 0.001951016667566479 0.0 -0.00016116191121170282 0.0 0.0
-0.002452394530014693 0.000972388141637386 0.0 -1.9862440231965405e-05 0.0 0.0
-0.001552185432578464 0.0006255778232813402 0.0 0.00012923502878486924 0.0 0.0
-0.0008210843287713412 0.00034053906776179926 0.0 0.00013762911324991157 0.0 0.0
-0.0002658066779682946 8.130959059294731e-05 0.0 0.00011306994505278894 0.0 0.0
-6.793306863067645e-05 1.3331043736316257e-05 0.0 9.826317724209313e-05 0.0 0.0
SCALARS Statev float 8
LOOKUP_TABLE default
0.0 0.014676726372902623 0.011632106461885162 -0.014057109152600583 0.0024250026907154227 -0.0005597557724998685 0.0 0.0
0.0 0.004565499791201455 0.0032707438947766725 -0.0018683910687236314 -0.0014023528260530367 -0.005665705320249258 0.0 0.0
0.0 -8.322603776812858e-06 3.0212881492920352e-05 -2.011897706775149e-05 -1.0093904425169087e-05 -0.00012831573677478842 0.0 0.0
0.0 9.082989859892309e-05 7.838601324425443e-06 -5.366095727055241e-06 -2.472505597370271e-06 6.000309851021344e-06 0.0 0.0
0.0 0.0005613214505881972 0.0002616495648223356 -0.00018841293621940403 -7.32366286029318e-05 6.85265085873099e-05 0.0 0.0
0.0 0.0013131360782738244 0.0013658782300953278 -0.0010514417350972753 -0.00031443649499805293 0.00013923035278179836 0.0 0.0
0.0 0.003547326854560465 0.0032871735702043542 -0.002705907840599089 -0.0005812657296052635 0.00018939086043292904 0.0 0.0
0.0 0.006781962764333916 0.006209679665158004 -0.00538196705055779 -0.0008277126146002185 0.0002155819385044524 0.0 0.0
0.0 0.011258420761114423 0.010178905551799025 -0.009147156574339083 -0.0010317489774599427 0.0002274448852866498 0.0 0.0
0.0 0.017058069979897686 0.01523342309775474 -0.014004469381490308 -0.0012289537162644235 0.00021335659303729011 0.0 0.0
0.0 0.02422589802131648 0.021424650579316355 -0.019977189571606713 -0.0014474610077096434 0.00021525393652234692 0.0 0.0
0.0 0.03255172689602688 0.028860349023987302 -0.027164410945895473 -0.0016959380780918484 0.00022745983755176818 0.0 0.0
0.0 0.04253524064239461 0.03766227806786722 -0.0356947807208905 -0.001967497346976692 0.00017589827510892367 0.0 0.0
0.0 0.05424609632020492 0.04794476730035184 -0.045690343860891824 -0.002254423439460016 0.00011270975227958878 0.0 0.0
0.0 0.06771605800812053 0.05973135095658613 -0.05718986387691539 -0.002541487079670714 -2.2738047843000623e-05 0.0 0.0
0.0 0.0827190889107701 0.07278802695996557 -0.06997509376884378 -0.0028129331911217544 -0.0002513836654468842 0.0 0.0
0.0 0.09851183887051396 0.08650210933614105 -0.08344677507520085 -0.0030553342609402896 -0.0005408588891420009 0.0 0.0
0.0 0.11391097732666852 0.09985887706222042 -0.09660386203505861 -0.0032550150271616705 -0.0007800566625303087 0.0 0.0
0.0 0.12739997820556298 0.111550742783258 -0.10814688386711241 -0.0034038589161457956 -0.0008049260588816423 0.0 0.0
0.0 0.13706396396491122 0.1201043443687001 -0.11661992263780505 -0.0034844217308951085 -0.000800861508978486 0.0 0.0
0.0 0.14084468037997774 0.12343925409954781 -0.11996268915715347 -0.0034765649423943814 1.8882465036007545e-15 0.0 0.0
0.0 0.13706396396490092 0.12010434436869033 -0.1166199226377968 -0.003484421730893478 0.0008008615089833146 0.0 0.0
0.0 0.12739997820552967 0.11155074278322911 -0.10814688386708396 -0.0034038589161451745 0.0008049260588874202 0.0 0.0
0.0 0.11391097732662803 0.09985887706218435 -0.09660386203502477 -0.003255015027159547 0.0007800566625346412 0.0 0.0
0.0 0.09851183887045854 0.0865021093360929 -0.08344677507515373 -0.003055334260939183 0.0005408588891414553 0.0 0.0
0.0 0.08271908891071918 0.07278802695992043 -0.06997509376880047 -0.0028129331911199472 0.00025138366544512217 0.0 0.0
0.0 0.06771605800806478 0.059731350956537296 -0.05718986387686789 -0.0025414870796693885 2.2738047842697697e-05 0.0 0.0
0.0 0.054246096320148214 0.04794476730030228 -0.04569034386084348 -0.00225442343945881 -0.00011270975228048737 0.0 0.0
0.0 0.04253524064233961 0.03766227806781911 -0.03569478072084373 -0.0019674973469753602 -0.00017589827510994705 0.0 0.0
0.0 0.032551726895974346 0.028860349023941214 -0.027164410945850495 -0.0016959380780907274 -0.00022745983755351478 0.0 0.0
0.0 0.02422589802127057 0.021424650579276068 -0.01997718957156747 -0.0014474610077085995 -0.00021525393652344017 0.0 0.0
0.0 0.017058069979859685 0.01523342309772147 -0.0140044693814582 -0.001228953716263288 -0.00021335659303798335 0.0 0.0
0.0 0.01125842076108686 0.010178905551774222 -0.009147156574315684 -0.001031748977458528 -0.000227444885286904 0.0 0.0
0.0 0.0067819627643154485 0.00620967966514094 -0.00538196705054182 -0.0008277126145991175 -0.00021558193850447228 0.0 0.0
0.0 0.0035473268545487178 0.00328717357019277 -0.002705907840588797 -0.0005812657296039706 -0.00018939086043303185 0.0 0.0
0.0 0.0013131360782677867 0.0013658782300888218 -0.0010514417350920157 -0.0003144364949968065 -0.00013923035278125433 0.0 0.0
0.0 0.000561321450585311 0.0002616495648206801 -0.00018841293621821962 -7.323662860245985e-05 -6.852650858686949e-05 0.0 0.0
0.0 9.082989859817556e-05 7.83860132453325e-06 -5.366095727140651e-06 -2.472505597392087e-06 -6.000309850989751e-06 0.0 0.0
0.0 -8.322603777354703e-06 3.0212881492621987e-05 -2.0118977067531252e-05 -1.009390442509025e-05 0.00012831573677403918 0.0 0.0
0.0 0.00456549979119301 0.0032707438947722467 -0.0018683910687207232 -0.0014023528260515168 0.005665705320240602 0.0 0.0
0.0 0.014676726372884192 0.011632106461872533 -0.014057109152582953 0.002425002690710404 0.0005597557724703255 0.0 0.0
0.0 0.011781815355209453 0.00868002979711509 -0.01144276705725832 0.0027627372601432233 -0.00012241842981291953 0.0 0.0
0.0 0.0026030559381714276 0.0018558717240272128 -0.0010184421115969813 -0.00083742961243023 -0.0042128291226856815 0.0 0.0
0.0 -2.0090140297835997e-05 -3.249715048002034e-05 2.741035289238231e-05 5.086797587638069e-06 -2.234502073222597e-05 0.0 0.0
0.0 9.68119549602636e-06 1.317604065915091e-06 -9.475530678318513e-07 -3.7005099808328904e-07 3.0769677507094113e-06 0.0 0.0
0.0 0.0002433439411381553 0.0001421415613131058 -0.00010300189879138699 -3.913966252171873e-05 2.821230137155401e-05 0.0 0.0
0.0 0.001181033506532819 0.0009614398630914272 -0.0007463337510654119 -0.00021510611202601703 4.8280600298576275e-05 0.0 0.0
0.0 0.00293510140002129 0.0027233149994268634 -0.002264310460574525 -0.0004590045388523362 -9.730156531672867e-05 0.0 0.0
0.0 0.005935422362319101 0.005395920678118885 -0.004730978960659533 -0.0006649417174593536 -0.0003178878521085528 0.0 0.0
0.0 0.010106780796012925 0.009050173896229292 -0.008238838371700226 -0.0008113355245290627 -0.0006159723114293383 0.0 0.0
0.0 0.015435102223344896 0.01369662108426254 -0.012769538470191279 -0.0009270826140712556 -0.0009683830913738225 0.0 0.0
0.0 0.021976335146440845 0.019361358367269765 -0.018324863313685314 -0.001036495053584467 -0.0013348897426750396 0.0 0.0
0.0 0.029925644992466128 0.026127525563801303 -0.024979813143702304 -0.0011477124200989777 -0.001700439295384041 0.0 0.0
0.0 0.03886815988221828 0.034145115133879425 -0.0328845512271842 -0.0012605639066951874 -0.0021260929510737024 0.0 0.0
0.0 0.04969262423386338 0.04354098850303643 -0.04217262456332857 -0.001368363939707849 -0.0026320857058082284 0.0 0.0
0.0 0.062141974109185934 0.0543509742126158 -0.052890996072029364 -0.0014599781405864524 -0.00321219708786362 0.0 0.0
0.0 0.07601675526103271 0.06637165018850852 -0.06484571587521316 -0.001525934313295334 -0.003841243274485637 0.0 0.0
0.0 0.09070037236035017 0.07904433472226907 -0.07748355012755545 -0.0015607845947135616 -0.004372315246897572 0.0 0.0
0.0 0.10511569769164678 0.09144191367944002 -0.0898753568983941 -0.0015665567810459918 -0.004527028540214231 0.0 0.0
0.0 0.11778202412615166 0.1023330303788497 -0.10078615615828944 -0.001546874220560201 -0.004044971404332991 0.0 0.0
0.0 0.12696276533676298 0.11017857835600922 -0.10870080427068693 -0.001477774085322276 -0.0030569598928582905 0.0 0.0
0.0 0.13069066193184117 0.11318874367728776 -0.11181698823389613 -0.001371755443391653 4.258312452654067e-15 0.0 0.0
0.0 0.12696276533674952 0.11017857835599706 -0.10870080427067504 -0.001477774085322028 0.0030569598928698446 0.0 0.0
0.0 0.117782024126122 0.10233303037882406 -0.10078615615826383 -0.0015468742205601552 0.004044971404345413 0.0 0.0
0.0 0.10511569769160659 0.09144191367940503 -0.08987535689835953 -0.0015665567810454909 0.004527028540222687 0.0 0.0
0.0 0.09070037236030211 0.07904433472222766 -0.07748355012751446 -0.0015607845947132246 0.004372315246898812 0.0 0.0
0.0 0.07601675526098337 0.06637165018846543 -0.06484571587517067 -0.001525934313294639 0.0038412432744828894 0.0 0.0
0.0 0.062141974109133934 0.054350974212570596 -0.05289099607198461 -0.001459978140586053 0.003212197087862802 0.0 0.0
0.0 0.049692624233812335 0.04354098850299208 -0.04217262456328476 -0.0013683639397073007 0.0026320857058074088 0.0 0.0
0.0 0.03886815988216744 0.03414511513383532 -0.032884551227140665 -0.0012605639066946596 0.0021260929510710765 0.0 0.0
0.0 0.029925644992417903 0.02612752556375915 -0.02497981314366044 -0.0011477124200986685 0.0017004392953804473 0.0 0.0
0.0 0.021976335146398268 0.01936135836723272 -0.01832486331364887 -0.0010364950535838632 0.0013348897426710446 0.0 0.0
0.0 0.015435102223311247 0.01369662108423262 -0.012769538470161906 -0.0009270826140707012 0.0009683830913706918 0.0 0.0
0.0 0.010106780795987735 0.009050173896206342 -0.008238838371678122 -0.0008113355245282201 0.000615972311427177 0.0 0.0
0.0 0.005935422362302031 0.005395920678103069 -0.004730978960644626 -0.0006649417174584419 0.0003178878521068681 0.0 0.0
0.0 0.002935101400010506 0.0027233149994165063 -0.002264310460565286 -0.0004590045388512193 9.730156531571153e-05 0.0 0.0
0.0 0.001181033506526448 0.0009614398630859102 -0.0007463337510609216 -0.00021510611202498793 -4.828060029872301e-05 0.0 0.0
0.0 0.00024334394113608877 0.00014214156131201277 -0.00010300189879061044 -3.91396625214026e-05 -2.8212301371268266e-05 0.0 0.0
0.0 9.681195495572087e-06 1.3176040661552413e-06 -9.47553068015284e-07 -3.700509981398012e-07 -3.0769677507015305e-06 0.0 0.0
0.0 -2.0090140297766415e-05 -3.249715047981783e-05 2.7410352892206573e-05 5.086797587611135e-06 2.2345020732086353e-05 0.0 0.0
0.0 0.002603055938163086 0.0018558717240225065 -0.0010184421115938035 -0.0008374296124287024 0.004212829122675722 0.0 0.0
0.0 0.011781815355190227 0.008680029797100423 -0.011442767057239322 0.002762737260138888 0.00012241842979156655 0.0 0.0
0.0 0.008551932586717588 0.0061591160019414115 -0.00836425954629642 0.0022051435443550074 -0.00214139308808112 0.0 0.0
0.0 0.0018031223977187816 0.0011263548312213376 -0.0005541139292585459 -0.0005722409019627916 -0.0032311403110978467 0.0 0.0
0.0 1.2634912319597936e-08 -1.3678156687548327e-09 1.0394932843731892e-09 3.2832238438154863e-10 4.875689838480855e-10 0.0 0.0
0.0 2.4611334633452777e-06 4.55375647890154e-07 -3.6085328668872203e-07 -9.452236120155783e-08 -3.629887665935138e-07 0.0 0.0
0.0 6.98782467162935e-05 3.7313504128460704e-05 -2.552029314716623e-05 -1.1793210981294727e-05 1.2757576939578314e-05 0.0 0.0
0.0 0.0007858947016894499 0.0005728256139827476 -0.0004338444227659512 -0.0001389811912167957 -5.096313031204439e-06 0.0 0.0
0.0 0.0021556524051762707 0.0020591491185101797 -0.0016763179534855957 -0.0003828311650245846 -0.00029056474000469456 0.0 0.0
0.0 0.004846190106659753 0.0044124744531101635 -0.0038121506121888446 -0.0006003238409213194 -0.0007359076475066734 0.0 0.0
0.0 0.0085409320837331 0.007678072020119107 -0.006918121837029282 -0.0007599501830898191 -0.0013247517918058677 0.0 0.0
0.0 0.013352274568303997 0.011828614365220064 -0.010950691050746236 -0.000877923314473834 -0.002010515951277944 0.0 0.0
0.0 0.019198887825433473 0.01686512751417217 -0.01588190702920571 -0.0009832204849664463 -0.0027365347915445787 0.0 0.0
0.0 0.026038101312192915 0.022851561709553332 -0.02176332254292075 -0.0010882391666325677 -0.0034639223127544212 0.0 0.0
0.0 0.034374308229025034 0.029920340203641427 -0.02872622766424545 -0.0011941125393960085 -0.004226628062318928 0.0 0.0
0.0 0.043701241576784414 0.03824170267223389 -0.036947181320858224 -0.0012945213513756515 -0.00512366816411366 0.0 0.0
0.0 0.05481269129516728 0.047862913169990896 -0.04648272922536561 -0.001380183944625305 -0.006172556927213023 0.0 0.0
0.0 0.06723838640332314 0.05861965419069217 -0.05717736793846888 -0.0014422862522232435 -0.0072785830661171325 0.0 0.0
0.0 0.08045238908449454 0.07004141733169936 -0.0685636939955214 -0.0014777233361779165 -0.00818286664245621 0.0 0.0
0.0 0.09350042667742839 0.08131330721908127 -0.07982792694540236 -0.0014853802736789024 -0.00843649707590844 0.0 0.0
0.0 0.10506098024164232 0.09127243623758582 -0.08981350646040852 -0.0014589297771773362 -0.007627698591048473 0.0 0.0
0.0 0.11344388709745963 0.09846255481773462 -0.09705267554419222 -0.0014098792735423294 -0.00563621839316192 0.0 0.0
0.0 0.11695700570048526 0.10129117500821552 -0.10001445494616393 -0.0012767200620515293 8.774665022359684e-15 0.0 0.0
0.0 0.1134438870974437 0.09846255481772027 -0.09705267554417732 -0.0014098792735429784 0.0056362183931835 0.0 0.0
0.0 0.10506098024161567 0.09127243623756266 -0.08981350646038525 -0.0014589297771774698 0.0076276985910712775 0.0 0.0
0.0 0.09350042667739052 0.08131330721904857 -0.07982792694536928 -0.0014853802736792348 0.008436497075922134 0.0 0.0
0.0 0.08045238908445211 0.07004141733166289 -0.06856369399548524 -0.001477723336177649 0.0081828666424582 0.0 0.0
0.0 0.0672383864032782 0.058619654190653035 -0.057177367938430174 -0.0014422862522228516 0.00727858306611375 0.0 0.0
0.0 0.05481269129512053 0.04786291316995029 -0.04648272922532549 -0.0013801839446248205 0.0061725569272112115 0.0 0.0
0.0 0.04370124157674028 0.03824170267219539 -0.03694718132082041 -0.0012945213513749763 0.005123668164111587 0.0 0.0
0.0 0.034374308228979675 0.029920340203601948 -0.028726227664206554 -0.0011941125393953804 0.004226628062314061 0.0 0.0
0.0 0.026038101312150157 0.022851561709516407 -0.021763322542884087 -0.0010882391666323155 0.0034639223127483202 0.0 0.0
0.0 0.01919888782539857 0.01686512751414112 -0.01588190702917537 -0.0009832204849657361 0.002736534791538143 0.0 0.0
0.0 0.01335227456827515 0.01182861436519422 -0.010950691050720954 -0.000877923314473271 0.0020105159512721635 0.0 0.0
0.0 0.008540932083710819 0.007678072020099065 -0.006918121837009971 -0.0007599501830890951 0.001324751791801954 0.0 0.0
0.0 0.0048461901066435675 0.004412474453095577 -0.0038121506121752712 -0.0006003238409203025 0.000735907647503342 0.0 0.0
0.0 0.0021556524051676127 0.00205914911850171 -0.0016763179534782786 -0.00038283116502343104 0.0002905647400030772 0.0 0.0
0.0 0.0007858947016847627 0.0005728256139790118 -0.0004338444227630199 -0.0001389811912159916 5.09631303084546e-06 0.0 0.0
0.0 6.987824671520962e-05 3.7313504128223365e-05 -2.5520293147012083e-05 -1.1793210981211258e-05 -1.2757576939345634e-05 0.0 0.0
0.0 2.461133463037674e-06 4.5537564788916085e-07 -3.6085328668650836e-07 -9.452236120263067e-08 3.6298876657727293e-07 0.0 0.0
0.0 1.2634912310065045e-08 -1.367815667713223e-09 1.0394932835817643e-09 3.283223841315191e-10 -4.875689834762404e-10 0.0 0.0
0.0 0.0018031223977121396 0.0011263548312173298 -0.0005541139292558925 -0.0005722409019614356 0.003231140311087252 0.0 0.0
0.0 0.008551932586698542 0.006159116001927397 -0.008364259546278096 0.002205143544350702 0.0021413930880665863 0.0 0.0
0.0 0.006326051878788298 0.004423167467974881 -0.00613999265389136 0.001716825185916477 -0.0023725531971856262 0.0 0.0
0.0 0.001221468857794728 0.0007147982698645621 -0.00033535511050448985 -0.0003794431593600721 -0.0023089492484646827 0.0 0.0
0.0 0.0 0.0 0.0 0.0 0.0 0.0 0.0
0.0 -2.7410491881921585e-07 4.9226735497612785e-08 -3.572272580703969e-08 -1.3504009690576683e-08 -4.7477657498466366e-08 0.0 0.0
0.0 1.0458760680019608e-05 -1.284699970006106e-05 1.0636763156848647e-05 2.210236543212661e-06 1.1928110631053075e-05 0.0 0.0
0.0 0.0003752100750581978 0.00029446895119373574 -0.00021794038474835776 -7.652856644537747e-05 -3.287560161349781e-05 0.0 0.0
0.0 0.0016450771066775414 0.0014052246867621247 -0.001116211957382831 -0.0002890127293792922 -0.00032146900043776203 0.0 0.0
0.0 0.0037893719175266577 0.003444091639594926 -0.002922635474441671 -0.000521456165153256 -0.0009759743384923996 0.0 0.0
0.0 0.007046444834008415 0.006306348578943947 -0.005609268926659809 -0.0006970796522841406 -0.0017943439598180004 0.0 0.0
0.0 0.01127844384400582 0.009955060592446493 -0.009133476324009794 -0.0008215842684366889 -0.0027444806343837826 0.0 0.0
0.0 0.016356373813006742 0.014366042275191936 -0.013441682442096484 -0.0009243598330954423 -0.0037489889623173334 0.0 0.0
0.0 0.022456560376325346 0.019577154750706566 -0.018553996603729667 -0.0010231581469768976 -0.004754314403336216 0.0 0.0
0.0 0.02942023995155991 0.025718563046247575 -0.024595826699345087 -0.0011227363469024938 -0.0057948248218333415 0.0 0.0
0.0 0.03801044334141058 0.03294545524222542 -0.03173019358076184 -0.00121526166146357 -0.0069713319695876765 0.0 0.0
0.0 0.04763141059988471 0.04135377954938085 -0.040059354024937655 -0.0012944255244431843 -0.008343350773111333 0.0 0.0
0.0 0.05840810119542772 0.05082937504554766 -0.049474348811780026 -0.001355026233767628 -0.009809675753716636 0.0 0.0
0.0 0.07023961322295684 0.06098603422631525 -0.059594520761736894 -0.0013915134645783372 -0.011022792953463078 0.0 0.0
0.0 0.0819849671946896 0.07112901287151194 -0.06972927257389949 -0.001399740297612446 -0.011425915522183654 0.0 0.0
0.0 0.09247532659681507 0.08020836641334658 -0.0788304670193793 -0.001377899393967144 -0.010449287997627732 0.0 0.0
0.0 0.10019345948026816 0.08690975338852108 -0.08557104827826179 -0.0013387051102593996 -0.007553555452179256 0.0 0.0
0.0 0.10366204139680525 0.08968049064049353 -0.08852962880448202 -0.0011508618360115221 1.1808262700974126e-14 0.0 0.0
0.0 0.10019345948025563 0.08690975338850926 -0.08557104827824971 -0.0013387051102595018 0.007553555452207721 0.0 0.0
0.0 0.09247532659679078 0.08020836641332496 -0.07883046701935748 -0.001377899393967424 0.010449287997656261 0.0 0.0
0.0 0.08198496719465931 0.07112901287148526 -0.06972927257387303 -0.0013997402976121944 0.011425915522200389 0.0 0.0
0.0 0.07023961322291745 0.06098603422628155 -0.05959452076170316 -0.0013915134645784075 0.011022792953465834 0.0 0.0
0.0 0.05840810119538923 0.05082937504551424 -0.04947434881174699 -0.0013550262337672268 0.009809675753712358 0.0 0.0
0.0 0.04763141059984511 0.04135377954934621 -0.04005935402490386 -0.001294425524442363 0.008343350773107862 0.0 0.0
0.0 0.03801044334137098 0.032945455242190766 -0.03173019358072766 -0.0012152616614631065 0.006971331969584441 0.0 0.0
0.0 0.029420239951520353 0.025718563046213533 -0.024595826699311495 -0.0011227363469020403 0.005794824821827355 0.0 0.0
0.0 0.02245656037629054 0.019577154750675785 -0.01855399660369946 -0.0010231581469763368 0.004754314403328517 0.0 0.0
0.0 0.016356373812976124 0.014366042275164933 -0.01344168244207012 -0.0009243598330948056 0.0037489889623091273 0.0 0.0
0.0 0.011278443843979467 0.009955060592423199 -0.00913347632398725 -0.0008215842684359381 0.002744480634375936 0.0 0.0
0.0 0.007046444833988821 0.0063063485789265575 -0.005609268926643192 -0.0006970796522833665 0.0017943439598127522 0.0 0.0
0.0 0.0037893719175131884 0.00344409163958209 -0.002922635474429935 -0.0005214561651521551 0.0009759743384881094 0.0 0.0
0.0 0.0016450771066695553 0.0014052246867555858 -0.0011162119573773991 -0.00028901272937818654 0.00032146900043578087 0.0 0.0
0.0 0.00037521007505483735 0.0002944689511915061 -0.00021794038474669118 -7.652856644481474e-05 3.2875601613176214e-05 0.0 0.0
0.0 1.0458760679594267e-05 -1.2846999699616957e-05 1.0636763156502618e-05 2.210236543114307e-06 -1.1928110630717029e-05 0.0 0.0
0.0 -2.7410491873742323e-07 4.92267354394928e-08 -3.572272576143666e-08 -1.3504009678043638e-08 4.7477657454460225e-08 0.0 0.0
0.0 0.0 0.0 0.0 0.0 0.0 0.0 0.0
0.0 0.001221468857789099 0.0007147982698613594 -0.0003353551105023904 -0.0003794431593589711 0.0023089492484558074 0.0 0.0
0.0 0.006326051878772385 0.00442316746796251 -0.006139992653875066 0.0017168251859125598 0.0023725531971747755 0.0 0.0
0.0 0.004479045838739769 0.0031234740337569805 -0.004409145605393455 0.0012856715716364757 -0.0020550852380771226 0.0 0.0
0.0 0.0009760682397881743 0.0004214244519043867 -0.00018073736449070632 -0.00024068708741367995 -0.001520915537388693 0.0 0.0
0.0 0.0 0.0 0.0 0.0 0.0 0.0 0.0
0.0 -2.1175026786527247e-07 1.9226471027512064e-08 -1.544969006812908e-08 -3.77678095938152e-09 -2.443498433731356e-08 0.0 0.0
0.0 -1.1266931683202405e-05 -4.08256432293499e-06 3.194169022435349e-06 8.883953004996393e-07 2.737970498078543e-06 0.0 0.0
0.0 0.0001509740443584577 8.04145725734664e-05 -5.655645957141824e-05 -2.3858113002048017e-05 6.992501741013659e-06 0.0 0.0
0.0 0.0011403016661282106 0.0008447534560301976 -0.0006545374600977327 -0.00019021599593246465 -0.00028306532122264065 0.0 0.0
0.0 0.002791091565015349 0.0025061869709461842 -0.0020775039736081356 -0.00042868299733804754 -0.0009983105218191492 0.0 0.0
0.0 0.005584778462658171 0.004951629887417805 -0.004332642405766171 -0.0006189874816516352 -0.0020172975304639197 0.0 0.0
0.0 0.009207367041298471 0.00809099748491856 -0.007336648996911098 -0.0007543484880074632 -0.003162785723032333 0.0 0.0
0.0 0.013616199942603296 0.011875733833157886 -0.011017833566270252 -0.0008579002668876349 -0.004369696690770618 0.0 0.0
0.0 0.01881945795233026 0.01632184813456124 -0.015370082671453768 -0.000951765463107474 -0.0055714267937954235 0.0 0.0
0.0 0.024988837665285465 0.021535691254179486 -0.020491784692238783 -0.0010439065619406716 -0.006803624470513303 0.0 0.0
0.0 0.03192144560154444 0.027685052021316128 -0.026554422787713465 -0.0011306292336026582 -0.008176038172669778 0.0 0.0
0.0 0.04036633561533742 0.0348645692212801 -0.033660574996726214 -0.0012039942245538823 -0.009751446475733356 0.0 0.0
0.0 0.04993165691405497 0.04302458550522777 -0.04176405946892661 -0.001260526036301153 -0.011423319233367684 0.0 0.0
0.0 0.06005595631713812 0.05188899145582675 -0.050589831587973255 -0.0012991598678534927 -0.012852486269743202 0.0 0.0
0.0 0.07044613094075251 0.0608859725965865 -0.05957328905051204 -0.0013126835460744609 -0.013452350188676656 0.0 0.0
0.0 0.07993988026189552 0.06912368103532165 -0.06782612326220892 -0.0012975577731127702 -0.012447529280802906 0.0 0.0
0.0 0.0871826299257183 0.07544307666338398 -0.07418195532427455 -0.0012611213391093552 -0.008992566970477156 0.0 0.0
0.0 0.0907158998655002 0.07823167673972427 -0.07722654585677899 -0.0010051308829452568 1.3402039894527817e-14 0.0 0.0
0.0 0.08718262992570908 0.07544307666337446 -0.07418195532426511 -0.0012611213391092457 0.008992566970509312 0.0 0.0
0.0 0.07993988026187704 0.06912368103530439 -0.06782612326219187 -0.0012975577731125102 0.012447529280833852 0.0 0.0
0.0 0.07044613094072617 0.06088597259656292 -0.05957328905048867 -0.0013126835460742549 0.013452350188695481 0.0 0.0
0.0 0.0600559563171074 0.0518889914558002 -0.05058983158794718 -0.0012991598678530252 0.012852486269747594 0.0 0.0
0.0 0.04993165691402039 0.04302458550519783 -0.04176405946889684 -0.001260526036300961 0.011423319233362702 0.0 0.0
0.0 0.040366335615305185 0.034864569221251786 -0.03366057499669883 -0.0012039942245529423 0.009751446475729343 0.0 0.0
0.0 0.03192144560151237 0.02768505202128801 -0.026554422787686004 -0.001130629233601998 0.008176038172665892 0.0 0.0
0.0 0.024988837665253068 0.021535691254151064 -0.020491784692210847 -0.0010439065619402036 0.006803624470506793 0.0 0.0
0.0 0.018819457952300857 0.016321848134535383 -0.015370082671428592 -0.0009517654631067936 0.005571426793786056 0.0 0.0
0.0 0.013616199942575694 0.011875733833133997 -0.011017833566247052 -0.0008579002668869497 0.004369696690759478 0.0 0.0
0.0 0.009207367041274974 0.008090997484898084 -0.007336648996891297 -0.0007543484880067839 0.0031627857230232294 0.0 0.0
0.0 0.005584778462640892 0.004951629887402394 -0.004332642405751635 -0.0006189874816507562 0.0020172975304572627 0.0 0.0
0.0 0.0027910915650039485 0.0025061869709358596 -0.002077503973598974 -0.0004286829973368845 0.0009983105218144507 0.0 0.0
0.0 0.001140301666121158 0.0008447534560248375 -0.0006545374600934237 -0.00019021599593141439 0.0002830653212204685 0.0 0.0
0.0 0.00015097404435579755 8.041457257197435e-05 -5.65564595703073e-05 -2.3858113001666602e-05 -6.9925017415250035e-06 0.0 0.0
0.0 -1.1266931683739915e-05 -4.082564322788043e-06 3.19416902231736e-06 8.883953004706154e-07 -2.7379704979026617e-06 0.0 0.0
0.0 -2.117502677458955e-07 1.9226471016883667e-08 -1.5449690059872236e-08 -3.776780957015529e-09 2.4434984322558555e-08 0.0 0.0
0.0 0.0 0.0 0.0 0.0 0.0 0.0 0.0
0.0 0.000976068239782809 0.00042142445190196804 -0.00018073736448912003 -0.0002406870874128473 0.001520915537381593 0.0 0.0
0.0 0.004479045838726674 0.0031234740337467933 -0.00440914560537978 0.0012856715716329824 0.0020550852380693584 0.0 0.0
0.0 0.0031499426352268245 0.002106970784131582 -0.003014607889570517 0.0009076371054389368 -0.0015963190934479522 0.0 0.0
0.0 0.0005040284339281654 0.00022620718640392918 -8.196799030127884e-05 -0.00014423919610265077 -0.0009278798870133152 0.0 0.0
0.0 0.0 0.0 0.0 0.0 0.0 0.0 0.0
0.0 9.284367499638105e-09 -7.860409871244372e-10 5.99985333389106e-10 1.8605565373520125e-10 1.1788236078775784e-09 0.0 0.0
0.0 -2.339440277588319e-06 -1.367596063160923e-06 1.104679145419035e-06 2.629169177419021e-07 1.709642628671586e-06 0.0 0.0
0.0 4.006600471337975e-06 4.264462673777047e-06 -1.3871950663258952e-06 -2.8772676074512575e-06 1.8546463648226872e-05 0.0 0.0
0.0 0.0005083222986894519 0.0004430998658135995 -0.0003360813310808457 -0.00010701853473275373 -0.00022598350221040062 0.0 0.0
0.0 0.0021306299370125823 0.0016167778219127655 -0.0013053031699404585 -0.0003114746519723075 -0.0008467269488736843 0.0 0.0
0.0 0.004045952041339717 0.0036346226120847654 -0.003112204373712025 -0.0005224182383727384 -0.001964168464317909 0.0 0.0
0.0 0.007216315093228787 0.006250377163602358 -0.005579727740494385 -0.0006706494231079726 -0.003252800612478658 0.0 0.0
0.0 0.010897982305049524 0.009410070598361124 -0.008630301395291215 -0.0007797692030699134 -0.004584992769153594 0.0 0.0
0.0 0.015211775057644714 0.01309948827248294 -0.012228259489748447 -0.0008712287827344917 -0.0059096749490162494 0.0 0.0
0.0 0.020252380122495618 0.017402570246570683 -0.016444810030423865 -0.0009577602161468207 -0.0072478368642077086 0.0 0.0
0.0 0.026265516788542047 0.022467573840535077 -0.021430646284439744 -0.0010369275560953458 -0.008710382450788524 0.0 0.0
0.0 0.03317086232567856 0.028420286039603927 -0.027314776209093245 -0.0011055098305106782 -0.010377796628701653 0.0 0.0
0.0 0.04100888232570817 0.03525602677713231 -0.03409598011378599 -0.0011600466633463042 -0.01214438392921882 0.0 0.0
0.0 0.05004750985334932 0.04277602795348253 -0.04157762934652585 -0.0011983986069567098 -0.013677452805887726 0.0 0.0
0.0 0.05898777914021587 0.05058074458032274 -0.049361322734901944 -0.0012194218454208052 -0.014438141202154028 0.0 0.0
0.0 0.067305635580084 0.05798245335211272 -0.056767898394967056 -0.0012145549571456226 -0.013584446197684013 0.0 0.0
0.0 0.07420259882874067 0.06398216830034244 -0.06280373352840454 -0.0011784347719378827 -0.009989642460949978 0.0 0.0
0.0 0.07790510714532636 0.0668476802111138 -0.06600707941429189 -0.0008406007968218836 1.3984906982456025e-14 0.0 0.0
0.0 0.07420259882873276 0.06398216830033358 -0.06280373352839588 -0.001178434771937782 0.00998964246098262 0.0 0.0
0.0 0.06730563558007108 0.05798245335209966 -0.056767898394954545 -0.0012145549571451093 0.013584446197715715 0.0 0.0
0.0 0.058987779140194346 0.050580744580303226 -0.04936132273488269 -0.0012194218454205127 0.014438141202173023 0.0 0.0
0.0 0.05004750985332267 0.0427760279534596 -0.04157762934650341 -0.0011983986069561794 0.013677452805890389 0.0 0.0
0.0 0.04100888232567749 0.03525602677710592 -0.034095980113759645 -0.0011600466633462673 0.012144383929213047 0.0 0.0
0.0 0.033170862325652244 0.02842028603958082 -0.02731477620907092 -0.0011055098305099093 0.010377796628696737 0.0 0.0
0.0 0.02626551678851587 0.022467573840511738 -0.021430646284417182 -0.0010369275560945758 0.00871038245078377 0.0 0.0
0.0 0.02025238012246955 0.017402570246548156 -0.01644481003040196 -0.0009577602161461941 0.0072478368642014375 0.0 0.0
0.0 0.015211775057618353 0.013099488272460266 -0.012228259489726242 -0.0008712287827340172 0.0059096749490062245 0.0 0.0
0.0 0.010897982305026935 0.009410070598342072 -0.008630301395272889 -0.0007797692030691834 0.0045849927691420005 0.0 0.0
0.0 0.007216315093210045 0.006250377163585987 -0.005579727740478667 -0.0006706494231073176 0.0032528006124686874 0.0 0.0
0.0 0.004045952041326006 0.003634622612072252 -0.00311220437370047 -0.0005224182383717843 0.0019641684643106477 0.0 0.0
0.0 0.0021306299370030157 0.001616777821905252 -0.0013053031699340849 -0.00031147465197116684 0.0008467269488696812 0.0 0.0
0.0 0.0005083222986849205 0.0004430998658102985 -0.00033608133107827814 -0.00010701853473202033 0.00022598350220849882 0.0 0.0
0.0 4.006600470439415e-06 4.2644626736186746e-06 -1.3871950662242193e-06 -2.8772676073944436e-06 -1.8546463648012126e-05 0.0 0.0
0.0 -2.3394402780081004e-06 -1.367596063142003e-06 1.1046791454059666e-06 2.6291691773602246e-07 -1.7096426286696839e-06 0.0 0.0
0.0 9.284367478450311e-09 -7.860409853173938e-10 5.99985332009828e-10 1.8605565330757216e-10 -1.1788236051675036e-09 0.0 0.0
0.0 0.0 0.0 0.0 0.0 0.0 0.0 0.0
0.0 0.0005040284339240984 0.00022620718640228805 -8.196799030022324e-05 -0.00014423919610206422 0.0009278798870080967 0.0 0.0
0.0 0.00314994263521668 0.002106970784123716 -0.0030146078895597044 0.0009076371054359857 0.0015963190934422365 0.0 0.0
0.0 0.0019478748122331163 0.0013291098446187688 -0.0019174842754461328 0.000588374430827363 -0.0011566986836970127 0.0 0.0
0.0 0.0002595233136992103 8.418096009200873e-05 -3.5944516803450695e-06 -8.058650841166352e-05 -0.0004657413903488831 0.0 0.0
0.0 0.0 0.0 0.0 0.0 0.0 0.0 0.0
0.0 0.0 0.0 0.0 0.0 0.0 0.0 0.0
0.0 -2.304262148551391e-06 2.2500753451393904e-07 -1.7735810319146817e-07 -4.764943132246077e-08 -5.672295743450574e-07 0.0 0.0
0.0 -2.2336373729493466e-05 -1.8809105807480598e-05 1.5122933856499029e-05 3.686171950981655e-06 3.3598681811173464e-05 0.0 0.0
0.0 0.00020709879260898744 0.00014265687681976267 -0.00010642564140355821 -3.6231235416204664e-05 -9.971345409071465e-05 0.0 0.0
0.0 0.0010838632511640598 0.0009144914584839902 -0.0007196742899013659 -0.00019481716858262463 -0.0006619718711484609 0.0 0.0
0.0 0.0031120036642376596 0.0023570937938894644 -0.001965699498842047 -0.00039139429504741644 -0.0016254898695857636 0.0 0.0
0.0 0.005147023608022196 0.004458994030690787 -0.003896280333996396 -0.000562713696694393 -0.0029813089144118668 0.0 0.0
0.0 0.00825122986589954 0.006986289236224332 -0.006304365219040622 -0.0006819240171837082 -0.004375659824755397 0.0 0.0
0.0 0.011722195112135578 0.009924308844931513 -0.009148648019271514 -0.0007756608256599945 -0.005749741333397125 0.0 0.0
0.0 0.01572332955770322 0.013329148604039111 -0.012470318176210771 -0.0008588304278283436 -0.007114390841185243 0.0 0.0
0.0 0.020438572070271506 0.017330398879864713 -0.016397682792202113 -0.0009327160876625868 -0.008573901505996476 0.0 0.0
0.0 0.025954423492701637 0.022053204150486682 -0.021056940706282123 -0.000996263444204549 -0.010201528712346409 0.0 0.0
0.0 0.03264968690464091 0.02753969312359968 -0.026492946483439066 -0.0010467466401606002 -0.011942906844829862 0.0 0.0
0.0 0.03949472285918197 0.033693677248633175 -0.032606354256640074 -0.0010873229919931005 -0.013496882800746204 0.0 0.0
0.0 0.04729218322902819 0.04023733734360782 -0.03912046389387272 -0.0011168734497350795 -0.014366460051541016 0.0 0.0
0.0 0.05490794770150777 0.046741130858129816 -0.04561710742136182 -0.0011240234367679756 -0.013794595368231133 0.0 0.0
0.0 0.06131326164309075 0.05243658705384924 -0.051346206679581494 -0.0010903803742677415 -0.01051077376336468 0.0 0.0
0.0 0.06531372726892423 0.05543141764272578 -0.05477597568270504 -0.0006554419600207437 1.2752819633643497e-14 0.0 0.0
0.0 0.06131326164308428 0.052436587053841285 -0.051346206679573694 -0.0010903803742675498 0.010510773763395587 0.0 0.0
0.0 0.05490794770149635 0.04674113085811797 -0.04561710742134992 -0.0011240234367680547 0.013794595368261688 0.0 0.0
0.0 0.04729218322901221 0.040237337343592645 -0.03912046389385811 -0.0011168734497345187 0.014366460051559145 0.0 0.0
0.0 0.039494722859158754 0.03369367724861354 -0.032606354256620784 -0.001087322991992737 0.013496882800747317 0.0 0.0
0.0 0.032649686904616115 0.027539693123578676 -0.026492946483417972 -0.0010467466401606958 0.011942906844822838 0.0 0.0
0.0 0.025954423492681115 0.022053204150468457 -0.021056940706264474 -0.0009962634442039627 0.010201528712340681 0.0 0.0
0.0 0.02043857207024774 0.01733039887984413 -0.016397682792181612 -0.000932716087662514 0.008573901505990304 0.0 0.0
0.0 0.0157233295576828 0.013329148604021622 -0.012470318176194038 -0.0008588304278275761 0.007114390841178751 0.0 0.0
0.0 0.011722195112114302 0.009924308844913831 -0.009148648019254075 -0.000775660825659765 0.005749741333387127 0.0 0.0
0.0 0.008251229865880625 0.0069862892362085325 -0.006304365219025736 -0.0006819240171827923 0.00437565982474364 0.0 0.0
0.0 0.005147023608006737 0.0044589940306777424 -0.003896280333984109 -0.0005627136966936338 0.002981308914401832 0.0 0.0
0.0 0.0031120036642261627 0.0023570937938807586 -0.001965699498834365 -0.0003913942950463927 0.0016254898695798922 0.0 0.0
0.0 0.001083863251157861 0.0009144914584791825 -0.0007196742898973858 -0.0001948171685817961 0.0006619718711449706 0.0 0.0
0.0 0.00020709879260606725 0.00014265687681822053 -0.00010642564140240039 -3.6231235415820185e-05 9.97134540895261e-05 0.0 0.0
0.0 -2.2336373730149358e-05 -1.8809105807203042e-05 1.5122933856283835e-05 3.6861719509191227e-06 -3.359868181084658e-05 0.0 0.0
0.0 -2.3042621482747847e-06 2.2500753450911564e-07 -1.7735810318881174e-07 -4.764943132030077e-08 5.672295743549303e-07 0.0 0.0
0.0 0.0 0.0 0.0 0.0 0.0 0.0 0.0
0.0 0.0 0.0 0.0 0.0 0.0 0.0 0.0
0.0 0.00025952331369607986 8.41809600908905e-05 -3.5944516796276665e-06 -8.058650841126299e-05 0.0004657413903450172 0.0 0.0
0.0 0.0019478748122254775 0.0013291098446129134 -0.0019174842754378595 0.0005883744308249466 0.00115669868369281 0.0 0.0
0.0 0.0014672324116410367 0.0006953352637413386 -0.0010074209339394058 0.00031208567019806727 -0.0006856625738643679 0.0 0.0
0.0 6.070716115606421e-06 6.458314699047256e-06 3.133288574165842e-05 -3.779120044070567e-05 -0.00016052265645183635 0.0 0.0
0.0 1.501239477888374e-07 -8.943371455963241e-10 1.017711353153143e-09 -1.233742075570957e-10 2.99033348444305e-08 0.0 0.0
0.0 -4.0385216131657434e-07 1.4147665862676704e-08 -1.0174004682524616e-08 -3.973661180153169e-09 -8.078456367062322e-08 0.0 0.0
0.0 5.356669333395832e-07 -2.168785331353403e-07 1.7266191788341188e-07 4.4216615251938334e-08 7.194150860261938e-07 0.0 0.0
0.0 -1.1100599908769486e-05 -6.775851107038874e-06 5.396569886927661e-06 1.3792812201111813e-06 1.8268659807666906e-05 0.0 0.0
0.0 1.6061710731581397e-05 2.8910127250958878e-06 -1.0911231887971015e-06 -1.7998895362988913e-06 5.12882584915858e-06 0.0 0.0
0.0 0.0004546758004126597 0.00036913992757598005 -0.0002861468282784724 -8.299309929750771e-05 -0.0004104195136140252 0.0 0.0
0.0 0.0016169290720200948 0.0012803400890022882 -0.0010376935048578642 -0.00024264658414442403 -0.001187599966534197 0.0 0.0
0.0 0.003644035520786147 0.0027357676493671716 -0.0023257090641811747 -0.00041005858518599643 -0.0023349621445870323 0.0 0.0
0.0 0.005693881278720635 0.0046276441555876445 -0.0040806966511666 -0.0005469475044210415 -0.003710699506288535 0.0 0.0
0.0 0.008262274763920763 0.006822935741846948 -0.006172197772849992 -0.0006507379689969647 -0.005056167252024321 0.0 0.0
0.0 0.011302908250645925 0.009342890349973132 -0.008606651225837569 -0.0007362391241355516 -0.006377430674860194 0.0 0.0
0.0 0.014810771651384677 0.012296396992923009 -0.011488918422330454 -0.0008074785705925538 -0.007743808144496201 0.0 0.0
0.0 0.019060167602027403 0.015798119272028396 -0.014930621308463695 -0.0008674979635646938 -0.00923202654889913 0.0 0.0
0.0 0.0239298631915584 0.01993210101887057 -0.01901548233631858 -0.0009166186825519721 -0.010809927553344477 0.0 0.0
0.0 0.029705749599861997 0.02466729286882636 -0.02371081688841589 -0.0009564759804104585 -0.012276994023649566 0.0 0.0
0.0 0.035735645101848866 0.029881037106276702 -0.02888741334425945 -0.0009936237620172318 -0.013191041925404514 0.0 0.0
0.0 0.04189087255200825 0.03538619006242182 -0.03436602080802234 -0.0010201692543995204 -0.012984627475306775 0.0 0.0
0.0 0.048059970157872146 0.04072012026089748 -0.039723958986114374 -0.000996161274783114 -0.01047114909827437 0.0 0.0
0.0 0.05252468330886453 0.04388449612455143 -0.04343983307132121 -0.00044466305323020435 1.0701509123300923e-14 0.0 0.0
0.0 0.04805997015786838 0.040720120260891404 -0.039723958986108296 -0.0009961612747830806 0.010471149098301952 0.0 0.0
0.0 0.04189087255200041 0.035386190062412705 -0.03436602080801305 -0.0010201692543996687 0.012984627475335901 0.0 0.0
0.0 0.03573564510183355 0.029881037106262612 -0.02888741334424551 -0.0009936237620171216 0.013191041925418878 0.0 0.0
0.0 0.029705749599845604 0.024667292868812245 -0.023710816888402597 -0.0009564759804096428 0.012276994023650388 0.0 0.0
0.0 0.023929863191541095 0.019932101018856254 -0.019015482336304557 -0.0009166186825517113 0.010809927553338152 0.0 0.0
0.0 0.01906016760201122 0.015798119272014362 -0.014930621308450074 -0.0008674979635642855 0.009232026548893305 0.0 0.0
0.0 0.014810771651369492 0.012296396992910111 -0.011488918422317845 -0.0008074785705922695 0.007743808144491636 0.0 0.0
0.0 0.0113029082506294 0.009342890349959335 -0.00860665122582434 -0.000736239124134993 0.0063774306748533875 0.0 0.0
0.0 0.008262274763906811 0.006822935741835284 -0.006172197772838765 -0.0006507379689965145 0.00505616725201599 0.0 0.0
0.0 0.005693881278705874 0.00462764415557584 -0.004080696651155631 -0.0005469475044202053 0.003710699506277392 0.0 0.0
0.0 0.0036440355207737873 0.0027357676493576324 -0.002325709064172419 -0.00041005858518521326 0.0023349621445782455 0.0 0.0
0.0 0.0016169290720125155 0.0012803400889965107 -0.001037693504853009 -0.00024264658414350154 0.0011875999665293656 0.0 0.0
0.0 0.00045467580040901205 0.00036913992757341856 -0.00028614682827643673 -8.2993099296982e-05 0.00041041951361150324 0.0 0.0
0.0 1.606171073068259e-05 2.8910127247646835e-06 -1.0911231885444616e-06 -1.7998895362202756e-06 -5.128825849717414e-06 0.0 0.0
0.0 -1.110059990944062e-05 -6.775851106632844e-06 5.396569886604234e-06 1.3792812200286531e-06 -1.8268659806536917e-05 0.0 0.0
0.0 5.356669330640104e-07 -2.1687853319653596e-07 1.7266191793396852e-07 4.4216615262557004e-08 -7.19415086178002e-07 0.0 0.0
0.0 -4.0385216122886154e-07 1.4147665859095061e-08 -1.0174004680004456e-08 -3.973661179089202e-09 8.078456365178302e-08 0.0 0.0
0.0 1.5012394747879627e-07 -8.94337143643398e-10 1.0177113510135556e-09 -1.2337420737023362e-10 -2.990333478189685e-08 0.0 0.0
0.0 6.070716113982904e-06 6.4583146985326976e-06 3.133288574194826e-05 -3.779120044048109e-05 0.00016052265644967578 0.0 0.0
0.0 0.0014672324116341902 0.0006953352637375391 -0.0010074209339339265 0.00031208567019638784 0.0006856625738613065 0.0 0.0
0.0 0.0005861144186689069 0.0003099825206816985 -0.0004515686540473357 0.00014158613336563784 -0.0003814310393828863 0.0 0.0
0.0 -4.6638784375944895e-05 -2.5990425201501386e-05 4.3083691657329386e-05 -1.709326645582806e-05 8.348112412187989e-06 0.0 0.0
0.0 2.2756234019458266e-06 -3.622856323065417e-09 1.1119213435067454e-08 -7.496357112000574e-09 4.94855934509731e-07 0.0 0.0
0.0 7.864306231303351e-07 -1.6387003304045022e-09 -2.085611771306629e-10 1.847261507534281e-09 1.628291981626507e-07 0.0 0.0
0.0 7.676168384531021e-08 -5.2373324164438224e-08 3.605755500350279e-08 1.631576916093442e-08 4.511362911218838e-07 0.0 0.0
0.0 -1.3427783761094879e-05 -1.4272752548352275e-06 1.159511203980576e-06 2.6776405085465623e-07 6.322582024734457e-06 0.0 0.0
0.0 -6.395664470260828e-06 -1.4368497964259735e-05 1.1572045906668114e-05 2.796452057591586e-06 4.0997826831952413e-05 0.0 0.0
0.0 0.00014614578965939357 4.090671505261974e-05 -3.244749747408366e-05 -8.459217578536024e-06 -0.0001075779558528193 0.0 0.0
0.0 0.0006540584406906867 0.0004293731657299098 -0.0003451496648590513 -8.422350087085863e-05 -0.0006718461535453399 0.0 0.0
0.0 0.0017907126718543476 0.0012406421472843552 -0.0010294505434323654 -0.00021119160385198985 -0.0015099919454879447 0.0 0.0
0.0 0.003155212088055407 0.00241860303534928 -0.002072248744707087 -0.0003463542906421916 -0.0026325654668009667 0.0 0.0
0.0 0.004967925251759523 0.0038409564753787376 -0.00338309235827658 -0.00045786411710215647 -0.0038070169829349486 0.0 0.0
0.0 0.007007472587588998 0.005487343772550684 -0.004933334456888311 -0.0005540093156623688 -0.005005738606415442 0.0 0.0
0.0 0.009369916261261704 0.007415548311543731 -0.006784516302870504 -0.0006310320086732194 -0.006220723026722914 0.0 0.0
0.0 0.012225811227906412 0.00971600072361204 -0.009022229518441595 -0.0006937712051704502 -0.0074803896904302 0.0 0.0
0.0 0.015677731434265412 0.012485390522119775 -0.011740703197337166 -0.0007446873247826145 -0.008806863917846299 0.0 0.0
0.0 0.019721417815736997 0.01577851754974364 -0.014988608255047777 -0.0007899092946958453 -0.010099733099519075 0.0 0.0
0.0 0.024138127911256253 0.01958722571969066 -0.018756900145238814 -0.0008303255744518675 -0.011017220398581287 0.0 0.0
0.0 0.029126223047243476 0.02392041801113958 -0.023045221082694516 -0.0008751969284450357 -0.011068512147807795 0.0 0.0
0.0 0.03485304226719727 0.02873989088637843 -0.027853890255305606 -0.0008860006310728032 -0.009640868775296898 0.0 0.0
0.0 0.03962111034830779 0.03210126196723583 -0.031896188247577915 -0.00020507371965796008 9.302020959056634e-15 0.0 0.0
0.0 0.034853042267197536 0.02873989088637558 -0.02785389025530248 -0.0008860006310731161 0.009640868775319977 0.0 0.0
0.0 0.02912622304723902 0.023920418011133177 -0.02304522108268843 -0.000875196928444716 0.011068512147832266 0.0 0.0
0.0 0.02413812791124589 0.019587225719681547 -0.01875690014522955 -0.0008303255744519812 0.011017220398592608 0.0 0.0
0.0 0.01972141781572381 0.015778517549733268 -0.014988608255037946 -0.0007899092946953163 0.010099733099516357 0.0 0.0
0.0 0.015677731434252502 0.012485390522109459 -0.011740703197327187 -0.0007446873247822538 0.008806863917839311 0.0 0.0
0.0 0.012225811227894541 0.009716000723602153 -0.009022229518431901 -0.0006937712051702494 0.007480389690424981 0.0 0.0
0.0 0.009369916261253278 0.007415548311536461 -0.006784516302863986 -0.0006310320086724778 0.0062207230267204705 0.0 0.0
0.0 0.007007472587578971 0.005487343772542465 -0.0049333344568804754 -0.0005540093156619884 0.005005738606409832 0.0 0.0
0.0 0.004967925251749502 0.003840956475371378 -0.003383092358269937 -0.0004578641171014407 0.003807016982927924 0.0 0.0
0.0 0.003155212088045995 0.002418603035342041 -0.0020722487447004238 -0.0003463542906416169 0.0026325654667923447 0.0 0.0
0.0 0.0017907126718470813 0.0012406421472792835 -0.0010294505434280355 -0.0002111916038512479 0.001509991945482464 0.0 0.0
0.0 0.0006540584406869301 0.0004293731657276963 -0.0003451496648571399 -8.422350087055609e-05 0.0006718461535421159 0.0 0.0
0.0 0.00014614578965735977 4.0906715051685104e-05 -3.2447497473356023e-05 -8.459217578329e-06 0.00010757795585098327 0.0 0.0
0.0 -6.395664471346385e-06 -1.4368497963784331e-05 1.1572045906295638e-05 2.796452057488751e-06 -4.099782683099136e-05 0.0 0.0
0.0 -1.3427783761118684e-05 -1.4272752547036052e-06 1.1595112038827394e-06 2.677640508208313e-07 -6.322582023837196e-06 0.0 0.0
0.0 7.676168322028587e-08 -5.2373324184288984e-08 3.605755501824171e-08 1.6315769166058888e-08 -4.511362912063254e-07 0.0 0.0
0.0 7.864306230353753e-07 -1.6387003332195712e-09 -2.0856117435996048e-10 1.847261507578611e-09 -1.6282919813890725e-07 0.0 0.0
0.0 2.2756234013447927e-06 -3.6228563214464765e-09 1.1119213431972399e-08 -7.496357110524799e-09 -4.948559343785076e-07 0.0 0.0
0.0 -4.663878437632346e-05 -2.599042520131083e-05 4.308369165701214e-05 -1.7093266455701298e-05 -8.348112412091651e-06 0.0 0.0
0.0 0.0005861144186645425 0.0003099825206796362 -0.00045156865404438073 0.0001415861333647443 0.000381431039380604 0.0 0.0
0.0 0.00018261493741273952 6.23618417524793e-05 -9.235996499926081e-05 2.9998123246781656e-05 -8.682403117037299e-05 0.0 0.0
0.0 -2.4664103387898174e-05 -1.105022126547338e-05 1.526750017680279e-05 -4.217278911329412e-06 1.987168711971181e-05 0.0 0.0
0.0 5.096525743868014e-07 9.381252579871773e-11 1.5396771685514519e-09 -1.6334896943491657e-09 1.0271581062143611e-07 0.0 0.0
0.0 4.096640072979324e-07 9.90752011270457e-09 -8.396156044114786e-09 -1.5113640685919163e-09 8.098632487915903e-08 0.0 0.0
0.0 1.968026710799645e-07 3.9078134337016216e-08 -3.003337684797751e-08 -9.044757489030346e-09 -9.856044798506735e-08 0.0 0.0
0.0 -4.375130770209213e-06 -1.2838978273412786e-06 9.95281879102883e-07 2.886159482383705e-07 1.2291462728786403e-05 0.0 0.0
0.0 -9.099053542318563e-07 -3.6948949450156538e-06 3.007711077362051e-06 6.871838676536246e-07 1.9848026367627053e-05 0.0 0.0
0.0 5.890656465218095e-05 7.058778164763104e-07 -4.1042620694542303e-07 -2.9545160953091107e-07 -6.368301234665314e-05 0.0 0.0
0.0 0.00017161077129140365 2.263745821406252e-05 -2.0158200487776407e-05 -2.4792577262860984e-06 -0.00025890459718041906 0.0 0.0
0.0 0.0004992797658555032 0.00018348093971378907 -0.00016160672334217564 -2.1874216371613627e-05 -0.0006975035555187548 0.0 0.0
0.0 0.0012215193109734693 0.0005460642793486075 -0.00048736414511575145 -5.8700134232856076e-05 -0.0013682657165016749 0.0 0.0
0.0 0.0019899090047478894 0.0011459502402546761 -0.0010230891322641873 -0.0001228611079904887 -0.002272532912391033 0.0 0.0
0.0 0.00308487978960022 0.0019074649845392173 -0.0017124834158988216 -0.0001949815686403946 -0.0032352579891262623 0.0 0.0
0.0 0.004419741597238466 0.0028322336690384904 -0.002567579171657798 -0.0002646544973806941 -0.0042534288650515 0.0 0.0
0.0 0.005984294908361922 0.003956383853089212 -0.0036188023128003117 -0.0003375815402888976 -0.005324925367791293 0.0 0.0
0.0 0.007912055198420939 0.005368439486503164 -0.00495851907427716 -0.00040992041222600374 -0.006471696074213906 0.0 0.0
0.0 0.010370730770643502 0.0071845534323785295 -0.006700502118575362 -0.00048405131380317067 -0.007676910149992378 0.0 0.0
0.0 0.01348469360581731 0.009541899092087325 -0.00898945464726473 -0.0005524444448225883 -0.008670338908173775 0.0 0.0
0.0 0.01708525635471762 0.012551538868107918 -0.011941536655951492 -0.0006100022121564381 -0.008876049244115652 0.0 0.0
0.0 0.0214490881669671 0.016509829068471624 -0.015811826113500554 -0.0006980029549710551 -0.007965168914169731 0.0 0.0
0.0 0.027439119599181522 0.019994850715330487 -0.020079842101075697 8.499138574519398e-05 6.789274004104229e-15 0.0 0.0
0.0 0.021449088166970085 0.016509829068470476 -0.015811826113499544 -0.0006980029549709301 0.007965168914188138 0.0 0.0
0.0 0.017085256354714817 0.012551538868104001 -0.01194153665594748 -0.0006100022121565253 0.00887604924413264 0.0 0.0
0.0 0.013484693605810975 0.009541899092082199 -0.008989454647259911 -0.0005524444448222975 0.00867033890818094 0.0 0.0
0.0 0.010370730770636164 0.007184553432374674 -0.006700502118571724 -0.0004840513138029485 0.00767691014998846 0.0 0.0
0.0 0.007912055198413133 0.005368439486497782 -0.004958519074271863 -0.00040992041222591966 0.006471696074207587 0.0 0.0
0.0 0.005984294908355336 0.003956383853084028 -0.0036188023127952016 -0.00033758154028882626 0.005324925367786924 0.0 0.0
0.0 0.004419741597232444 0.0028322336690346176 -0.0025675791716542316 -0.0002646544973803882 0.004253428865048212 0.0 0.0
0.0 0.0030848797895958262 0.0019074649845368758 -0.001712483415896646 -0.0001949815686402301 0.0032352579891214562 0.0 0.0
0.0 0.0019899090047424584 0.0011459502402519795 -0.0010230891322616502 -0.00012286110799032923 0.0022725329123843606 0.0 0.0
0.0 0.0012215193109679056 0.000546064279345573 -0.0004873641451131317 -5.870013423244084e-05 0.0013682657164954632 0.0 0.0
0.0 0.0004992797658529294 0.00018348093971289403 -0.00016160672334135763 -2.1874216371536367e-05 0.0006975035555169038 0.0 0.0
0.0 0.00017161077129064278 2.263745821394947e-05 -2.0158200487685592e-05 -2.4792577262637867e-06 0.00025890459717909574 0.0 0.0
0.0 5.890656465105303e-05 7.058778164283991e-07 -4.1042620690042197e-07 -2.9545160952801744e-07 6.368301234562388e-05 0.0 0.0
0.0 -9.09905354758995e-07 -3.694894944976339e-06 3.007711077329894e-06 6.871838676464582e-07 -1.9848026367421254e-05 0.0 0.0
0.0 -4.37513077070508e-06 -1.2838978273522422e-06 9.95281879110433e-07 2.886159482418101e-07 -1.2291462728747507e-05 0.0 0.0
0.0 1.968026706979674e-07 3.9078134344672156e-08 -3.00333768530178e-08 -9.044757491657547e-09 9.856044811997718e-08 0.0 0.0
0.0 4.096640068308793e-07 9.90752010832275e-09 -8.39615604017302e-09 -1.5113640681489081e-09 -8.098632478345155e-08 0.0 0.0
0.0 5.096525740515149e-07 9.381252618957887e-11 1.539677166806176e-09 -1.6334896929998106e-09 -1.0271581055161462e-07 0.0 0.0
0.0 -2.466410338825459e-05 -1.1050221265332145e-05 1.5267500176612498e-05 -4.21727891128035e-06 -1.987168711943971e-05 0.0 0.0
0.0 0.00018261493741058259 6.236184175179299e-05 -9.235996499825832e-05 2.9998123246465242e-05 8.682403116945689e-05 0.0 0.0
0.0 5.277879438598982e-06 4.274275362267977e-06 -6.687469893081707e-06 2.413194530813684e-06 -6.5160973223450494e-06 0.0 0.0
0.0 -1.80219441926924e-06 -5.597256988307637e-07 8.793555864930524e-07 -3.196298876622737e-07 6.457225322519954e-07 0.0 0.0
0.0 3.5637643855583632e-06 1.0466321526454694e-08 6.2185905963190185e-09 -1.668491212277834e-08 7.708049989247887e-07 0.0 0.0
0.0 1.2405663355666563e-06 2.296314495505155e-08 -1.9338392250235115e-08 -3.624752704813151e-09 2.542797602654144e-07 0.0 0.0
0.0 -5.3216947148440233e-08 3.076049688895648e-08 -2.887069641264373e-08 -1.8898004763129085e-09 2.2023849067661637e-07 0.0 0.0
0.0 -4.898205429641347e-06 4.8165946234558324e-08 -4.469016628098299e-08 -3.4757799535723707e-09 1.103999051048417e-05 0.0 0.0
0.0 3.5138599433372305e-06 -2.0313667825997185e-07 1.824339273536733e-07 2.0702750906288715e-08 1.811630635166115e-05 0.0 0.0
0.0 4.9312977434966866e-05 -3.598951111088239e-07 3.644737934879919e-07 -4.578682379163617e-09 -8.696675028465865e-05 0.0 0.0
0.0 0.00018827429885169745 -3.0249343481231276e-08 2.9873424733926105e-08 3.7591874734598966e-10 -0.00023884934945371219 0.0 0.0
0.0 0.0003007327778149875 1.461690769961108e-07 -9.727506727006971e-08 -4.889400972607289e-08 -0.0005084999348572255 0.0 0.0
0.0 0.0005727699872219444 -1.968562666941731e-06 1.189508264925551e-06 7.79054402016131e-07 -0.0008422657617310041 0.0 0.0
0.0 0.0007373540500330594 1.7190354140065678e-06 -1.3138401855837433e-06 -4.0519522842265335e-07 -0.0014032190379778882 0.0 0.0
0.0 0.001045209857834289 2.670639166579825e-06 -1.851012764497514e-06 -8.196264020822092e-07 -0.0021099624641687607 0.0 0.0
0.0 0.0014425415448578195 -6.41242482480071e-06 8.469591334462451e-06 -2.057166509661803e-06 -0.0029933704576363966 0.0 0.0
0.0 0.002110661067661953 -9.554562872017493e-06 9.140820151292783e-06 4.1374272072465523e-07 -0.004089328340979579 0.0 0.0
0.0 0.0029570625080893274 6.287690860092682e-05 -7.826802099901217e-05 1.5391112398084603e-05 -0.005367195943370571 0.0 0.0
0.0 0.004032135033955602 0.0003609324700887144 -0.00041357418657527427 5.2641716486561066e-05 -0.006762875101417828 0.0 0.0
0.0 0.005332435419457722 0.001024240608292857 -0.0011706629840388277 0.000146422375745969 -0.008152699696009536 0.0 0.0
0.0 0.007332278300608939 0.001980747909077541 -0.002199646016468457 0.0002188981073909174 -0.009223783695032661 0.0 0.0
0.0 0.010788149653927534 0.0044383337934014895 -0.004318781001527884 -0.00011955279187360382 -0.009186592657961127 0.0 0.0
0.0 0.018703604089983377 0.008411983298044464 -0.008928837647968353 0.0005168543499238958 7.74727504371242e-15 0.0 0.0
0.0 0.010788149653930514 0.0044383337934007375 -0.0043187810015269164 -0.00011955279187382097 0.009186592657973891 0.0 0.0
0.0 0.007332278300609038 0.001980747909077446 -0.0021996460164684043 0.00021889810739095925 0.0092237836950372 0.0 0.0
0.0 0.005332435419449997 0.0010242406082909207 -0.0011706629840365892 0.00014642237574566934 0.008152699696004264 0.0 0.0
0.0 0.004032135033951163 0.0003609324700897514 -0.0004135741865766482 5.26417164868961e-05 0.006762875101412478 0.0 0.0
0.0 0.0029570625080850193 6.287690860127003e-05 -7.826802099932794e-05 1.5391112398058866e-05 0.00536719594336444 0.0 0.0
0.0 0.0021106610676582937 -9.554562872004916e-06 9.140820151490732e-06 4.1374272051368304e-07 0.004089328340975751 0.0 0.0
0.0 0.0014425415448562115 -6.412424824352961e-06 8.469591334047907e-06 -2.057166509694905e-06 0.0029933704576324115 0.0 0.0
0.0 0.001045209857829528 2.670639166322381e-06 -1.8510127643059761e-06 -8.196264020163033e-07 0.0021099624641617793 0.0 0.0
0.0 0.0007373540500307443 1.7190354137443264e-06 -1.313840185383525e-06 -4.051952283607539e-07 0.0014032190379727413 0.0 0.0
0.0 0.0005727699872193589 -1.968562666734452e-06 1.1895082647635542e-06 7.790544019709216e-07 0.0008422657617268112 0.0 0.0
0.0 0.0003007327778147683 1.4616907707484545e-07 -9.727506735162305e-08 -4.8894009723212236e-08 0.0005084999348562083 0.0 0.0
0.0 0.0001882742988513048 -3.0249343467817245e-08 2.9873424741517704e-08 3.759187262830238e-10 0.0002388493494533995 0.0 0.0
0.0 4.931297743379535e-05 -3.5989511111116067e-07 3.6447379349850745e-07 -4.578682387331321e-09 8.69667502832741e-05 0.0 0.0
0.0 3.5138599429070818e-06 -2.0313667825842443e-07 1.8243392735204053e-07 2.070275090639298e-08 -1.811630635132865e-05 0.0 0.0
0.0 -4.898205429806658e-06 4.8165946197128666e-08 -4.469016624371144e-08 -3.4757799534234765e-09 -1.1039990509638915e-05 0.0 0.0
0.0 -5.321694773274701e-08 3.076049689151981e-08 -2.8870696415984382e-08 -1.8898004755321687e-09 -2.2023849074976878e-07 0.0 0.0
0.0 1.2405663350389034e-06 2.2963144945294832e-08 -1.9338392241929008e-08 -3.624752703366745e-09 -2.542797601527055e-07 0.0 0.0
0.0 3.5637643852961112e-06 1.0466321526893375e-08 6.218590594824565e-09 -1.6684912121708747e-08 -7.708049988575556e-07 0.0 0.0
0.0 -1.802194419281808e-06 -5.59725698865723e-07 8.793555865399251e-07 -3.1962988767421776e-07 -6.457225322895988e-07 0.0 0.0
0.0 5.2778794376399e-06 4.274275362506487e-06 -6.687469893432547e-06 2.413194530926165e-06 6.5160973228162285e-06 0.0 0.0
0.0 1.2392568618169737e-06 -7.491151091484791e-08 1.1767598598030642e-07 -4.2764475065472074e-08 1.441325408975938e-07 0.0 0.0
0.0 1.0193361657633564e-07 1.0676732839692013e-08 -1.3945681913414806e-08 3.26894907372364e-09 3.7380425146472035e-08 0.0 0.0
0.0 -9.403289785027621e-07 -1.4454710260147892e-08 9.678648014527985e-09 4.7760622456198785e-09 -2.1401842974757225e-07 0.0 0.0
0.0 1.467357504444194e-06 4.781725079345532e-08 -3.9049263399181345e-08 -8.767987394275571e-09 3.508663714547112e-07 0.0 0.0
0.0 -1.8864666217804388e-06 2.1386923796255456e-07 -1.9372891508493206e-07 -2.014032287762044e-08 1.3779442080763643e-06 0.0 0.0
0.0 -5.1413091502976675e-06 9.758885198742752e-08 -3.2327586675870886e-08 -6.526126531152382e-08 3.7920493205013466e-06 0.0 0.0
0.0 1.41244157033701e-05 4.939242511971103e-06 -3.87406769070875e-06 -1.0651748212624098e-06 2.8077122049715497e-05 0.0 0.0
0.0 6.48339489105194e-05 -1.6779312016344502e-06 1.3339418375671073e-06 3.4398936406736736e-07 -6.604775372588623e-05 0.0 0.0
0.0 0.0001721262975988145 -2.3164906234853765e-05 2.0606798992170733e-05 2.5581072426828347e-06 -0.00026073553974969595 0.0 0.0
0.0 0.00049720039628213 -0.00018261334997378756 0.0001607900145264335 2.1823335447354394e-05 -0.0006966596027985987 0.0 0.0
0.0 0.001222023785718773 -0.0005367176504074294 0.0004807305310135577 5.598711939387181e-05 -0.001360107556366827 0.0 0.0
0.0 0.0020039538775803558 -0.0011517793779921828 0.001027634499698221 0.00012414487829396034 -0.0022725981828157758 0.0 0.0
0.0 0.0031051308982298397 -0.001924444635013138 0.001727223858953051 0.00019722077606008554 -0.003236173940766021 0.0 0.0
0.0 0.004459645575789366 -0.002864584983692376 0.002597177711689292 0.0002674072720030845 -0.004249287429714385 0.0 0.0
0.0 0.005982144599171362 -0.003965195564543098 0.0036337795496101393 0.0003314160149329591 -0.00533523769282351 0.0 0.0
0.0 0.007673520378156135 -0.005152800197981251 0.004785316217392586 0.0003674839805886634 -0.006566802524137538 0.0 0.0
0.0 0.009295256365021154 -0.0062095294877508415 0.005846829941100966 0.0003626995466498742 -0.00802520968251556 0.0 0.0
0.0 0.01067217152855366 -0.006744142864138084 0.006451914573602023 0.0002922282905360573 -0.009739636110624662 0.0 0.0
0.0 0.010897024181526343 -0.006246553994518138 0.006081194067928995 0.0001653599265891525 -0.011692542010253592 0.0 0.0
0.0 0.009153692438884534 -0.004522284340824177 0.004528497801339034 -6.2134605148588885e-06 -0.01326165122882122 0.0 0.0
0.0 0.017767087424030426 -0.0024460469398942036 0.0009280127534193309 0.0015180341864748728 1.0587884735624442e-14 0.0 0.0
0.0 0.009153692438888878 -0.0045222843408243025 0.0045284978013392825 -6.2134605149765515e-06 0.01326165122883044 0.0 0.0
0.0 0.010897024181527553 -0.0062465539945184695 0.0060811940679292645 0.00016535992658920937 0.011692542010262541 0.0 0.0
0.0 0.010672171528545597 -0.0067441428641322665 0.006451914573596723 0.0002922282905355394 0.009739636110625036 0.0 0.0
0.0 0.009295256365010541 -0.006209529487743005 0.00584682994109324 0.00036269954664976817 0.008025209682509754 0.0 0.0
0.0 0.0076735203781469336 -0.00515280019797426 0.004785316217385871 0.000367483980588388 0.006566802524131106 0.0 0.0
0.0 0.005982144599164239 -0.003965195564537049 0.003633779549604537 0.00033141601493251677 0.0053352376928177256 0.0 0.0
0.0 0.004459645575780968 -0.0028645849836858414 0.0025971777116833633 0.0002674072720024791 0.004249287429708758 0.0 0.0
0.0 0.0031051308982201547 -0.0019244446350061273 0.0017272238589466258 0.0001972207760595002 0.003236173940758216 0.0 0.0
0.0 0.0020039538775709137 -0.0011517793779859927 0.0010276344996928085 0.00012414487829318386 0.0022725981828075094 0.0 0.0
0.0 0.0012220237857097276 -0.0005367176504024883 0.00048073053100908996 5.598711939339753e-05 0.001360107556358551 0.0 0.0
0.0 0.0004972003962780053 -0.0001826133499722886 0.00016079001452502225 2.1823335447266424e-05 0.0006966596027959977 0.0 0.0
0.0 0.00017212629759744613 -2.3164906234522392e-05 2.0606798991876806e-05 2.558107242645604e-06 0.0002607355397484253 0.0 0.0
0.0 6.483394890927549e-05 -1.6779312015941661e-06 1.3339418375518598e-06 3.439893640422843e-07 6.604775372495575e-05 0.0 0.0
0.0 1.4124415702462362e-05 4.939242511913838e-06 -3.874067690665459e-06 -1.0651748212483615e-06 -2.8077122049417735e-05 0.0 0.0
0.0 -5.141309150677724e-06 9.758885191121539e-08 -3.232758661078811e-08 -6.526126530042396e-08 -3.792049320003787e-06 0.0 0.0
0.0 -1.8864666223438317e-06 2.1386923796320323e-07 -1.9372891508572287e-07 -2.0140322877484444e-08 -1.3779442080451996e-06 0.0 0.0
0.0 1.4673575037624284e-06 4.7817250806842006e-08 -3.904926340980467e-08 -8.767987397037011e-09 -3.5086637152668623e-07 0.0 0.0
0.0 -9.403289786263171e-07 -1.4454710265742827e-08 9.678648018834885e-09 4.776062246904967e-09 2.1401842982527423e-07 0.0 0.0
0.0 1.0193361634669551e-07 1.0676732833700947e-08 -1.3945681909328034e-08 3.2689490756309226e-09 -3.7380425093418424e-08 0.0 0.0
0.0 1.2392568610875138e-06 -7.491151086901853e-08 1.1767598590977797e-07 -4.276447504077999e-08 -1.441325408055337e-07 0.0 0.0
0.0 0.0 0.0 0.0 0.0 0.0 0.0 0.0
0.0 -2.421719605901748e-07 -3.2468155202972983e-09 1.8808664176063756e-09 1.3659491026902043e-09 -4.880557232414907e-08 0.0 0.0
0.0 2.54764336227146e-07 -3.377059736528364e-09 5.869561910721048e-09 -2.4925021741913318e-09 9.108923793550783e-08 0.0 0.0
0.0 -8.216152200087978e-07 -7.70032492501194e-08 6.377536585213193e-08 1.3227883397978614e-08 -3.781791623586003e-07 0.0 0.0
0.0 7.72227794148555e-06 -5.321377996759372e-08 3.430761023082387e-08 1.8906169736818583e-08 2.826978625571549e-07 0.0 0.0
0.0 1.632507435141094e-06 6.907237293706885e-06 -5.5858419052090475e-06 -1.3213953884978196e-06 2.9454819731153534e-05 0.0 0.0
0.0 -6.552421913888772e-06 6.196126483806642e-06 -4.891838410762548e-06 -1.3042880730440108e-06 -2.835066136626331e-07 0.0 0.0
0.0 0.00015693296250819742 -4.4866745337021174e-05 3.581505638682919e-05 9.05168895019183e-06 -0.00011659170569992093 0.0 0.0
0.0 0.0006529293956363831 -0.00042868733260626227 0.0003445079862415796 8.417934636468297e-05 -0.0006723513508128106 0.0 0.0
0.0 0.0017863597779634818 -0.0012383759432574592 0.0010273585816977686 0.0002110173615596901 -0.001506650111217419 0.0 0.0
0.0 0.0031536423573325484 -0.0024180918523097343 0.002071832126082626 0.0003462597262271083 -0.002630917502987096 0.0 0.0
0.0 0.0049726918375797985 -0.0038446646520659674 0.0033864955772686584 0.0004581690747973104 -0.003807839770415299 0.0 0.0
0.0 0.007023334649992042 -0.005501507862660678 0.0049465941388733125 0.0005549137237873641 -0.004998240303590669 0.0 0.0
0.0 0.009400139847128005 -0.0074471691853119 0.006815567717007645 0.0006316014683042595 -0.006190982809391749 0.0 0.0
0.0 0.012232879033606042 -0.009732961395747131 0.009043627131706419 0.0006893342640407101 -0.0074573821036496065 0.0 0.0
0.0 0.015475353841393012 -0.012310536019707746 0.011587658410514548 0.000722877609193202 -0.008967918287514772 0.0 0.0
0.0 0.01880676463550942 -0.014925678977575275 0.014195325092406771 0.0007303538851684884 -0.010924210238054321 0.0 0.0
0.0 0.021522571677870844 -0.017092657325613454 0.016376053303487747 0.0007166040221257253 -0.013426201312801615 0.0 0.0
0.0 0.0230915913825043 -0.017889244490894435 0.017223156320929224 0.0006660881699652104 -0.015970550784985438 0.0 0.0
0.0 0.021378426707725405 -0.015619240141289011 0.015013702453082922 0.0006055376882060817 -0.016468346463721712 0.0 0.0
0.0 0.02204612536817596 -0.012241360383224337 0.009939152763861907 0.0023022076193624282 9.454676624942593e-15 0.0 0.0
0.0 0.021378426707729103 -0.015619240141287878 0.015013702453081704 0.0006055376882061752 0.016468346463740596 0.0 0.0
0.0 0.023091591382504256 -0.01788924449089148 0.01722315632092674 0.000666088169964725 0.015970550785002913 0.0 0.0
0.0 0.021522571677861042 -0.017092657325604714 0.016376053303479077 0.0007166040221256373 0.013426201312807973 0.0 0.0
0.0 0.018806764635493876 -0.014925678977562579 0.01419532509239433 0.0007303538851682456 0.010924210238050467 0.0 0.0
0.0 0.015475353841378247 -0.012310536019695553 0.011587658410502737 0.0007228776091928201 0.008967918287507703 0.0 0.0
0.0 0.01223287903359138 -0.009732961395735191 0.009043627131694989 0.0006893342640401994 0.007457382103641768 0.0 0.0
0.0 0.009400139847116145 -0.00744716918530139 0.00681556771699759 0.0006316014683037937 0.006190982809385526 0.0 0.0
0.0 0.00702333464997678 -0.005501507862648421 0.0049465941388614565 0.0005549137237869643 0.0049982403035823755 0.0 0.0
0.0 0.004972691837565548 -0.0038446646520549545 0.0033864955772584904 0.0004581690747964626 0.00380783977040538 0.0 0.0
0.0 0.0031536423573195636 -0.002418091852299497 0.0020718321260733475 0.00034625972622614895 0.002630917502976587 0.0 0.0
0.0 0.0017863597779532966 -0.0012383759432501636 0.0010273585816913816 0.00021101736155878208 0.0015066501112101943 0.0 0.0
0.0 0.0006529293956311289 -0.0004286873326026146 0.00034450798623865224 8.417934636396218e-05 0.0006723513508090459 0.0 0.0
0.0 0.00015693296250620344 -4.486674533617864e-05 3.581505638617117e-05 9.051688950007426e-06 0.0001165917056980073 0.0 0.0
0.0 -6.5524219151437315e-06 6.196126483591166e-06 -4.891838410594302e-06 -1.30428807299689e-06 2.835066141204214e-07 0.0 0.0
0.0 1.6325074343845543e-06 6.907237293686154e-06 -5.5858419051896895e-06 -1.3213953884965489e-06 -2.9454819730846756e-05 0.0 0.0
0.0 7.72227794092682e-06 -5.3213779982740326e-08 3.4307610244519665e-08 1.8906169738218884e-08 -2.8269786247393747e-07 0.0 0.0
0.0 -8.216152201457295e-07 -7.700324936476168e-08 6.37753659445434e-08 1.322788342022978e-08 3.7817916317997306e-07 0.0 0.0
0.0 2.5476433566676156e-07 -3.377059711960252e-09 5.869561888699252e-09 -2.492502176738803e-09 -9.108923803533522e-08 0.0 0.0
0.0 -2.421719603617441e-07 -3.246815517878595e-09 1.8808664168966315e-09 1.3659491009815945e-09 4.8805572277769595e-08 0.0 0.0
0.0 0.0 0.0 0.0 0.0 0.0 0.0 0.0
0.0 0.0 0.0 0.0 0.0 0.0 0.0 0.0
0.0 4.708975586266584e-08 6.631015335524161e-10 -4.066369113317879e-10 -2.56464622220512e-10 9.52065192162231e-09 0.0 0.0
0.0 -8.431200303313022e-07 -2.8996678881907022e-08 2.3017103404619397e-08 5.97957547729079e-09 -1.6687519249258124e-07 0.0 0.0
0.0 1.768697326194944e-06 1.1671677694066513e-07 -9.63041610374883e-08 -2.0412615903183087e-08 5.25607220729858e-07 0.0 0.0
0.0 -7.616206790281258e-07 1.7650614211922642e-06 -1.4285226766420667e-06 -3.365387445502396e-07 5.758936748255937e-06 0.0 0.0
0.0 -1.4266095958612777e-05 6.914763749682652e-07 -5.58550669464102e-07 -1.3292570550410583e-07 -2.452420162456482e-06 0.0 0.0
0.0 6.552448688380396e-05 -6.848480581411847e-06 4.512141170053098e-06 2.3363394113585413e-06 2.1059684417017956e-06 0.0 0.0
0.0 0.00046739999964206846 -0.00037192345229372306 0.0002888379201713582 8.308553212236518e-05 -0.00041754549274857606 0.0 0.0
0.0 0.0016136278366953194 -0.0012778523489338908 0.0010353463738770347 0.00024250597505685515 -0.001185046306257704 0.0 0.0
0.0 0.003641058068653247 -0.002733634458665874 0.002323533250499906 0.00041010120816596803 -0.002330462373132764 0.0 0.0
0.0 0.005689973307365502 -0.004628493168058281 0.004081637560825892 0.0005468556072323889 -0.0037103739061737826 0.0 0.0
0.0 0.008266238020532984 -0.006825672066878903 0.006175034947107591 0.0006506371197713104 -0.005056583618615174 0.0 0.0
0.0 0.011310277635373088 -0.009350209411802363 0.00861372002553694 0.0007364893862654181 -0.0063631003099913035 0.0 0.0
0.0 0.014822088788844555 -0.012314238071535992 0.011506149531297865 0.0008080885402381313 -0.007681409839932009 0.0 0.0
0.0 0.019052056026500935 -0.01581124089314846 0.014945882180080805 0.0008653587130676593 -0.0091360456179652 0.0 0.0
0.0 0.023789568432381294 -0.019822240540811845 0.01892163980053355 0.0009006007402783114 -0.010953080625924073 0.0 0.0
0.0 0.029093804833035156 -0.024052669892470506 0.02314536700873085 0.0009073028837396563 -0.01349459892554311 0.0 0.0
0.0 0.033736636111057906 -0.027782575165609162 0.026908190614509813 0.0008743845510993315 -0.016900110305680748 0.0 0.0
0.0 0.03634025572755713 -0.0296000954054197 0.02879623923703384 0.0008038561683858665 -0.02025572417400223 0.0 0.0
0.0 0.03397374042618029 -0.02712697487266787 0.026453336975704168 0.0006736378969636953 -0.021312950337467034 0.0 0.0
0.0 0.03128030060335372 -0.02213047793559619 0.019106737242546717 0.0030237406930494655 1.0602629885170245e-14 0.0 0.0
0.0 0.033973740426181856 -0.02712697487266472 0.02645333697570065 0.0006736378969640677 0.021312950337490803 0.0 0.0
0.0 0.03634025572755289 -0.02960009540541252 0.028796239237026993 0.000803856168385503 0.020255724174025446 0.0 0.0
0.0 0.03373663611104486 -0.027782575165596814 0.02690819061449766 0.0008743845510991422 0.016900110305691184 0.0 0.0
0.0 0.029093804833016275 -0.024052669892454553 0.023145367008715136 0.0009073028837394214 0.013494598925541279 0.0 0.0
0.0 0.023789568432360055 -0.019822240540793887 0.018921639800515682 0.0009006007402781873 0.01095308062591647 0.0 0.0
0.0 0.019052056026481873 -0.015811240893132517 0.014945882180065515 0.0008653587130669999 0.009136045617957422 0.0 0.0
0.0 0.014822088788826699 -0.012314238071520722 0.011506149531283108 0.000808088540237615 0.007681409839924891 0.0 0.0
0.0 0.011310277635350877 -0.009350209411783932 0.008613720025518882 0.00073648938626505 0.006363100309981658 0.0 0.0
0.0 0.008266238020512524 -0.0068256720668624015 0.006175034947091683 0.000650637119770719 0.005056583618603554 0.0 0.0
0.0 0.005689973307347081 -0.004628493168043722 0.004081637560811804 0.0005468556072319202 0.0037103739061609313 0.0 0.0
0.0 0.0036410580686371376 -0.002733634458653125 0.002323533250488263 0.0004101012081648615 0.0023304623731220525 0.0 0.0
0.0 0.0016136278366861174 -0.001277852348926933 0.0010353463738712635 0.00024250597505566849 0.001185046306252246 0.0 0.0
0.0 0.00046739999963790236 -0.00037192345229069326 0.00028883792016899315 8.30855321217e-05 0.0004175454927458384 0.0 0.0
0.0 6.552448688244788e-05 -6.848480581200877e-06 4.512141169903001e-06 2.336339411298041e-06 -2.105968442064583e-06 0.0 0.0
0.0 -1.4266095958863728e-05 6.914763743586994e-07 -5.58550668990748e-07 -1.3292570536793396e-07 2.4524201639289986e-06 0.0 0.0
0.0 -7.616206795185417e-07 1.7650614210231396e-06 -1.428522676501045e-06 -3.365387445220914e-07 -5.7589367476644665e-06 0.0 0.0
0.0 1.7686973255700748e-06 1.1671677696470889e-07 -9.6304161058095e-08 -2.0412615906621502e-08 -5.256072207690691e-07 0.0 0.0
0.0 -8.431200300362501e-07 -2.8996678872773777e-08 2.301710339753103e-08 5.979575475243381e-09 1.6687519243153147e-07 0.0 0.0
0.0 4.708975583477513e-08 6.631015331494612e-10 -4.066369110840808e-10 -2.5646462206536185e-10 -9.520651915847124e-09 0.0 0.0
0.0 0.0 0.0 0.0 0.0 0.0 0.0 0.0
0.0 0.0 0.0 0.0 0.0 0.0 0.0 0.0
0.0 0.0 0.0 0.0 0.0 0.0 0.0 0.0
0.0 -2.95889627028445e-07 -1.3592507698731995e-08 1.083743040721265e-08 2.7550772915178707e-09 -5.501979115714737e-08 0.0 0.0
0.0 -2.3577970969390916e-06 -1.958256746581189e-07 1.5845697695410362e-07 3.7368697704017325e-08 -5.203040397406589e-07 0.0 0.0
0.0 7.7268598371535e-06 1.3583650729420234e-06 -1.0853872993970357e-06 -2.7297777354498255e-07 3.4472251431876657e-06 0.0 0.0
0.0 5.867054167019945e-06 2.4432356380199147e-05 -1.958860582676298e-05 -4.843750553436243e-06 4.300528266138776e-05 0.0 0.0
0.0 0.00022505363823434484 -0.00016923744195607588 0.00012827865919904017 4.095878275703581e-05 -0.00014898059073202737 0.0 0.0
0.0 0.0010920583476458257 -0.0009152020991234712 0.0007206565621315468 0.00019454553699192395 -0.0006682289163564279 0.0 0.0
0.0 0.0031072541679017535 -0.00235379779355127 0.001962339429250918 0.00039145836430035206 -0.0016201308624750352 0.0 0.0
0.0 0.005144282861688624 -0.0044580986503385866 0.003895203821789286 0.0005628948285493021 -0.0029770884791299654 0.0 0.0
0.0 0.008254095616766603 -0.006988144723239518 0.006306391349428745 0.0006817533738107662 -0.0043755986176073815 0.0 0.0
0.0 0.011724265961751143 -0.009925654647645553 0.009150474999571948 0.0007751796480735992 -0.005749639555605572 0.0 0.0
0.0 0.015719256015558448 -0.013325900979007262 0.012467552986338797 0.0008583479926684622 -0.007095809966468988 0.0 0.0
0.0 0.02042107544573808 -0.017322412945234542 0.016389014583814185 0.0009333983614203481 -0.008487684304974796 0.0 0.0
0.0 0.025922306570963366 -0.02204884092166239 0.02105109463901315 0.0009977462826492318 -0.010035962081765158 0.0 0.0
0.0 0.03259109387172502 -0.027513946832888186 0.026474042615297094 0.0010399042175910857 -0.012016831111672312 0.0 0.0
0.0 0.0392157198760287 -0.033383004831956026 0.032339287376533896 0.0010437174554220794 -0.014866120096269173 0.0 0.0
0.0 0.045841743384775674 -0.03863412242057574 0.03764409980442428 0.0009900226161514965 -0.018772222442610356 0.0 0.0
0.0 0.04965641681094436 -0.04132657699438485 0.04045218991287456 0.0008743870815102355 -0.02290967322423586 0.0 0.0
0.0 0.04666627657175334 -0.03830195939510446 0.03762555231129725 0.0006764070838071918 -0.0248151254692292 0.0 0.0
0.0 0.041293847443328285 -0.031830594424998804 0.02819383675463184 0.0036367576703669573 1.156193196738542e-14 0.0 0.0
0.0 0.046666276571756496 -0.03830195939510234 0.03762555231129584 0.0006764070838065108 0.02481512546925676 0.0 0.0
0.0 0.04965641681093519 -0.04132657699437346 0.040452189912863507 0.000874387081509943 0.02290967322426223 0.0 0.0
0.0 0.04584174338475892 -0.03863412242055987 0.03764409980440876 0.0009900226161510596 0.018772222442624244 0.0 0.0
0.0 0.039215719876004265 -0.03338300483193491 0.03233928737651296 0.0010437174554219562 0.014866120096268552 0.0 0.0
0.0 0.032591093871699076 -0.027513946832865777 0.02647404261527528 0.001039904217590485 0.012016831111665821 0.0 0.0
0.0 0.025922306570938834 -0.022048840921641215 0.021051094638992567 0.000997746282648639 0.01003596208175686 0.0 0.0
0.0 0.020421075445714216 -0.01732241294521391 0.01638901458379395 0.0009333983614199402 0.008487684304967328 0.0 0.0
0.0 0.01571925601553109 -0.013325900978984045 0.01246755298631604 0.0008583479926679996 0.00709580996645908 0.0 0.0
0.0 0.011724265961725794 -0.009925654647623955 0.009150474999550929 0.0007751796480730337 0.005749639555593531 0.0 0.0
0.0 0.008254095616742414 -0.006988144723219247 0.006306391349408877 0.0006817533738103678 0.004375598617593015 0.0 0.0
0.0 0.005144282861669635 -0.004458098650322247 0.0038952038217738606 0.0005628948285483885 0.002977088479118648 0.0 0.0
0.0 0.003107254167888162 -0.0023537977935408644 0.0019623394292417923 0.0003914583642990736 0.001620130862468009 0.0 0.0
0.0 0.0010920583476384809 -0.0009152020991178761 0.0007206565621269819 0.00019454553699089415 0.0006682289163527226 0.0 0.0
0.0 0.00022505363823063725 -0.00016923744195393136 0.00012827865919737963 4.095878275655154e-05 0.00014898059073030565 0.0 0.0
0.0 5.867054166690737e-06 2.4432356379642206e-05 -1.958860582632124e-05 -4.843750553321008e-06 -4.3005282660441385e-05 0.0 0.0
0.0 7.726859835751861e-06 1.358365072914851e-06 -1.0853872993784685e-06 -2.7297777353635886e-07 -3.447225143172837e-06 0.0 0.0
0.0 -2.3577970971394746e-06 -1.9582567467190325e-07 1.5845697696582852e-07 3.736869770607841e-08 5.203040398208765e-07 0.0 0.0
0.0 -2.9588962689353585e-07 -1.3592507692400482e-08 1.0837430402124616e-08 2.755077290274585e-09 5.50197911312241e-08 0.0 0.0
0.0 0.0 0.0 0.0 0.0 0.0 0.0 0.0
0.0 0.0 0.0 0.0 0.0 0.0 0.0 0.0
0.0 0.0 0.0 0.0 0.0 0.0 0.0 0.0
0.0 0.0 0.0 0.0 0.0 0.0 0.0 0.0
0.0 -1.336041538324973e-07 -7.0791082984345225e-09 5.607259907490537e-09 1.4718483909442396e-09 -2.3963176664436898e-08 0.0 0.0
0.0 -1.555711219258034e-07 -2.2690618974109305e-08 2.0845607799569463e-08 1.8450111745549255e-09 -5.006963119288666e-08 0.0 0.0
0.0 -8.068985008632817e-06 -1.0168054900962248e-06 7.662231426557379e-07 2.5058234744048053e-07 -1.1054284854503008e-06 0.0 0.0
0.0 6.401049560474365e-05 -3.0732835275130207e-06 3.3674434230302584e-07 2.7365391852102083e-06 2.480072069585792e-05 0.0 0.0
0.0 0.0005468175769680846 -0.00045536226568805647 0.00034769610856810485 0.00010766615711995186 -0.00024839983644171977 0.0 0.0
0.0 0.0021333963676357015 -0.001615057634473617 0.0013038819404397814 0.00031117569403383584 -0.0008495953975045222 0.0 0.0
0.0 0.004042896321456665 -0.0036318983212079332 0.0031092992197003493 0.0005225991015075836 -0.001957511314898039 0.0 0.0
0.0 0.007216007230226265 -0.0062511068314793205 0.00558027726875826 0.0006708295627210652 -0.0032492965415487317 0.0 0.0
0.0 0.010900872012654248 -0.009412751075332855 0.008633173358364325 0.0007795777169685237 -0.004585026294908241 0.0 0.0
0.0 0.015211483665058959 -0.013098927289924876 0.0122284961664741 0.0008704311234507709 -0.005908372076612432 0.0 0.0
0.0 0.0202345048294736 -0.017387090053484676 0.01643068441060421 0.0009564056428804423 -0.007226150761863475 0.0 0.0
0.0 0.02621317332865695 -0.02242761667924089 0.021390493071497006 0.001037123607743903 -0.008617558581396841 0.0 0.0
0.0 0.03310671396028542 -0.02838550217048191 0.02727476083061865 0.001110741339863233 -0.010184913942223543 0.0 0.0
0.0 0.041021530769488716 -0.035294805660818614 0.03413206922972888 0.0011627364310897326 -0.012122643199995863 0.0 0.0
0.0 0.05005473649584192 -0.042749860990894714 0.04158716134960044 0.0011626996412942867 -0.014866633477400724 0.0 0.0
0.0 0.0580313995424904 -0.04948530444946014 0.04840123264817831 0.0010840718012817727 -0.01885217285761738 0.0 0.0
0.0 0.06236483215104781 -0.05297415316640766 0.05205539177390092 0.0009187613925067746 -0.0236134491805657 0.0 0.0
0.0 0.05902331303583254 -0.04934874003890748 0.04868532925262583 0.0006634107862816261 -0.027150723518781974 0.0 0.0
0.0 0.05214213385438939 -0.041524799064187184 0.037330240633547895 0.004194558430639284 1.2553326433906165e-14 0.0 0.0
0.0 0.05902331303583025 -0.04934874003890151 0.048685329252619834 0.0006634107862816458 0.027150723518810017 0.0 0.0
0.0 0.06236483215103636 -0.05297415316639449 0.0520553917738885 0.000918761392506007 0.02361344918059282 0.0 0.0
0.0 0.05803139954247044 -0.04948530444944144 0.04840123264816019 0.0010840718012812538 0.018852172857633433 0.0 0.0
0.0 0.05005473649581201 -0.04274986099086887 0.04158716134957462 0.0011626996412941856 0.014866633477401416 0.0 0.0
0.0 0.041021530769458324 -0.03529480566079214 0.03413206922970309 0.001162736431089085 0.012122643199990948 0.0 0.0
0.0 0.03310671396025376 -0.028385502170454616 0.027274760830591827 0.001110741339862793 0.010184913942216873 0.0 0.0
0.0 0.026213173328625397 -0.022427616679213187 0.021390493071469792 0.0010371236077433958 0.008617558581389049 0.0 0.0
0.0 0.020234504829441547 -0.017387090053456917 0.01643068441057677 0.0009564056428801407 0.007226150761854733 0.0 0.0
0.0 0.015211483665028652 -0.013098927289898957 0.012228496166448688 0.0008704311234502532 0.005908372076600988 0.0 0.0
0.0 0.010900872012624838 -0.009412751075307932 0.008633173358339814 0.0007795777169681162 0.004585026294894037 0.0 0.0
0.0 0.007216007230204624 -0.00625110683146075 0.00558027726874052 0.0006708295627202347 0.003249296541538402 0.0 0.0
0.0 0.004042896321442496 -0.003631898321194484 0.0031092992196880935 0.0005225991015063879 0.0019575113148907514 0.0 0.0
0.0 0.0021333963676240636 -0.0016150576344645515 0.0013038819404320114 0.0003111756940325391 0.0008495953974994618 0.0 0.0
0.0 0.0005468175769622627 -0.0004553622656836079 0.0003476961085646637 0.00010766615711894498 0.0002483998364390926 0.0 0.0
0.0 6.401049560338009e-05 -3.073283527436886e-06 3.36744342278306e-07 2.736539185158358e-06 -2.4800720695577733e-05 0.0 0.0
0.0 -8.068985009085901e-06 -1.0168054905145367e-06 7.662231429806068e-07 2.5058234753389805e-07 1.105428485932907e-06 0.0 0.0
0.0 -1.5557112224163688e-07 -2.2690618993482742e-08 2.084560781404829e-08 1.8450111794521656e-09 5.006963124489742e-08 0.0 0.0
0.0 -1.3360415377959937e-07 -7.079108295548217e-09 5.6072599052097004e-09 1.4718483903391005e-09 2.396317665472527e-08 0.0 0.0
0.0 0.0 0.0 0.0 0.0 0.0 0.0 0.0
0.0 0.0 0.0 0.0 0.0 0.0 0.0 0.0
0.0 0.0 0.0 0.0 0.0 0.0 0.0 0.0
0.0 0.0 0.0 0.0 0.0 0.0 0.0 0.0
0.0 0.0 0.0 0.0 0.0 0.0 0.0 0.0
0.0 -1.5710497401240377e-06 -1.6195314404105528e-07 1.2921737944372095e-07 3.273576459731126e-08 -2.6584166319579844e-07 0.0 0.0
0.0 7.708480652069417e-07 1.4473766537603777e-05 -1.1534606991913533e-05 -2.939159545690196e-06 1.6744014335211994e-05 0.0 0.0
0.0 0.00013312019658705108 -0.0001384814078328211 0.0001026139347112555 3.586747312156521e-05 -5.7789835198654226e-05 0.0 0.0
0.0 0.0011699289818377957 -0.0008467631556536 0.0006580175934188482 0.00018874556223475163 -0.00029991972561154334 0.0 0.0
0.0 0.0027894199173310423 -0.002503897921241107 0.002075469071875387 0.00042842884936572056 -0.0009972297393511236 0.0 0.0
0.0 0.005584615117599246 -0.004951349250470185 0.0043321065625281955 0.0006192426879419904 -0.0020113305030357203 0.0 0.0
0.0 0.009209573677904398 -0.008093285307109845 0.007338775617765637 0.0007545096893442032 -0.0031603180041735457 0.0 0.0
0.0 0.01361944482017499 -0.01187851247503612 0.011020857742461993 0.0008576547325741244 -0.004370020511831049 0.0 0.0
0.0 0.018815800063681 -0.01631831767670051 0.015367601940276414 0.0009507157364240992 -0.00556821829452738 0.0 0.0
0.0 0.024957587985411915 -0.021508544842279195 0.02046666110772495 0.001041883734554255 -0.006779420844948351 0.0 0.0
0.0 0.03183878170616272 -0.02761651420392619 0.026486610218465403 0.0011299039854607783 -0.008094615559924207 0.0 0.0
0.0 0.040264959765917624 -0.034789344671497635 0.03357922852268154 0.0012101161488161064 -0.009588549798871708 0.0 0.0
0.0 0.04995107403196 -0.0430674301834709 0.04179652480140222 0.0012709053820686345 -0.011322005742039544 0.0 0.0
0.0 0.0602195704580393 -0.05203441853132779 0.05075864223376429 0.0012757762975634836 -0.013583519898498188 0.0 0.0
0.0 0.06982589630698932 -0.06020059309376851 0.05902633365227644 0.0011742594414920907 -0.01711384395146168 0.0 0.0
0.0 0.07527269771805772 -0.06453154452284734 0.06357593089859948 0.000955613624247842 -0.02237006061703312 0.0 0.0
0.0 0.07140666614314929 -0.06048953334357436 0.059854498906049776 0.0006350344375245534 -0.028538473185436328 0.0 0.0
0.0 0.06308984334353779 -0.05148007565188663 0.0467731061998767 0.004706969452009915 1.2325210296815214e-14 0.0 0.0
0.0 0.07140666614314159 -0.06048953334356445 0.05985449890603952 0.0006350344375249579 0.02853847318546304 0.0 0.0
0.0 0.07527269771804229 -0.06453154452283151 0.06357593089858402 0.0009556136242473874 0.0223700606170599 0.0 0.0
0.0 0.06982589630696477 -0.06020059309374642 0.05902633365225482 0.0011742594414915837 0.017113843951477404 0.0 0.0
0.0 0.06021957045800697 -0.05203441853129937 0.05075864223373639 0.0012757762975630345 0.013583519898500405 0.0 0.0
0.0 0.049951074031922255 -0.043067430183438074 0.04179652480136965 0.0012709053820683623 0.011322005742035778 0.0 0.0
0.0 0.04026495976588197 -0.034789344671466584 0.03357922852265112 0.0012101161488154608 0.00958854979886713 0.0 0.0
0.0 0.031838781706123136 -0.027616514203891947 0.026486610218431586 0.001129903985460335 0.008094615559916434 0.0 0.0
0.0 0.024957587985374577 -0.021508544842246617 0.02046666110769252 0.0010418837345541154 0.006779420844939901 0.0 0.0
0.0 0.018815800063643626 -0.016318317676668144 0.015367601940244432 0.0009507157364237072 0.005568218294516473 0.0 0.0
0.0 0.013619444820142023 -0.011878512475007503 0.011020857742433958 0.0008576547325735417 0.004370020511818719 0.0 0.0
0.0 0.009209573677879624 -0.008093285307088006 0.007338775617744598 0.0007545096893434054 0.003160318004163841 0.0 0.0
0.0 0.005584615117580623 -0.004951349250453285 0.004332106562512369 0.0006192426879409153 0.0020113305030285984 0.0 0.0
0.0 0.0027894199173172517 -0.0025038979212288408 0.0020754690718644987 0.0004284288493643421 0.000997229739345652 0.0 0.0
0.0 0.0011699289818300905 -0.0008467631556478679 0.0006580175934142939 0.00018874556223357278 0.00029991972560918786 0.0 0.0
0.0 0.00013312019658483118 -0.00013848140783171572 0.00010261393471042798 3.5867473121287394e-05 5.7789835198494835e-05 0.0 0.0
0.0 7.708480640136726e-07 1.4473766537552933e-05 -1.1534606991870127e-05 -2.939159545682673e-06 -1.6744014335187664e-05 0.0 0.0
0.0 -1.5710497400430211e-06 -1.61953144053843e-07 1.2921737945350484e-07 3.27357646003392e-08 2.658416632122814e-07 0.0 0.0
0.0 0.0 0.0 0.0 0.0 0.0 0.0 0.0
0.0 0.0 0.0 0.0 0.0 0.0 0.0 0.0
0.0 0.0 0.0 0.0 0.0 0.0 0.0 0.0
0.0 0.0 0.0 0.0 0.0 0.0 0.0 0.0
0.0 0.0 0.0 0.0 0.0 0.0 0.0 0.0
0.0 0.0 0.0 0.0 0.0 0.0 0.0 0.0
0.0 -7.757887066778378e-07 3.916908830707107e-09 -3.7118942192992716e-09 -2.0501461139940303e-10 3.687553569173269e-08 0.0 0.0
0.0 1.0087469922243405e-05 1.568562541222759e-05 -1.2798769677258446e-05 -2.8868557349689278e-06 1.3811593295655738e-05 0.0 0.0
0.0 0.0003904428881619219 -0.0002886748365050718 0.00021439991607681056 7.427492042826133e-05 -4.652984450454873e-05 0.0 0.0
0.0 0.0016474578298517136 -0.001402566625776686 0.0011147806062304319 0.0002877860195462525 -0.00033225841254665546 0.0 0.0
0.0 0.0037920415516841154 -0.003444877219601344 0.002923632160352247 0.0005212450592490955 -0.000973232743295336 0.0 0.0
0.0 0.007050196819636043 -0.006309397862246325 0.005612050921612057 0.0006973469406342651 -0.0017901364567791522 0.0 0.0
0.0 0.011282522904867967 -0.009958576297765032 0.009136831224136804 0.0008217450736282288 -0.002743061080972487 0.0 0.0
0.0 0.01635897335205428 -0.014368018670189215 0.013443999749204735 0.0009240189209844699 -0.0037493310674549143 0.0 0.0
0.0 0.022448084500518217 -0.019569408095872317 0.01854744530756425 0.001021962788308065 -0.004749250180167441 0.0 0.0
0.0 0.02937799897967338 -0.02568191065546195 0.024561388620156117 0.0011205220353058154 -0.005770306013927172 0.0 0.0
0.0 0.03790929529652742 -0.032858900658722996 0.03164529436173526 0.0012136062969877563 -0.006912804831943476 0.0 0.0
0.0 0.047492142608725474 -0.041237424632317 0.039939859109256716 0.0012975655230602304 -0.008246899757887222 0.0 0.0
0.0 0.05835187579368357 -0.050792861429282354 0.04942795203985785 0.0013649093894245595 -0.009701521343263525 0.0 0.0
0.0 0.0703308650727662 -0.06108773175527479 0.05970370093404307 0.001384030821231657 -0.011222205741174749 0.0 0.0
0.0 0.08143800127949004 -0.07062249885296758 0.06934534797777687 0.0012771508751907455 -0.013617511061435612 0.0 0.0
0.0 0.08801100596670605 -0.07602193350022049 0.07502009004371536 0.0010018434565051827 -0.019072628014065826 0.0 0.0
0.0 0.08425153948937068 -0.07195458855953567 0.07136817659744127 0.0005864119620945096 -0.028768548156327997 0.0 0.0
0.0 0.07515246518736939 -0.06198253250911016 0.05681639268014146 0.005166139828968708 1.162091256556863e-14 0.0 0.0
0.0 0.08425153948936398 -0.07195458855952697 0.07136817659743318 0.0005864119620938333 0.02876854815635168 0.0 0.0
0.0 0.08801100596668608 -0.07602193350020142 0.07502009004369686 0.0010018434565045435 0.019072628014090494 0.0 0.0
0.0 0.08143800127945726 -0.07062249885293904 0.06934534797774809 0.0012771508751908923 0.013617511061449306 0.0 0.0
0.0 0.0703308650727285 -0.061087731755241875 0.059703700934010666 0.0013840308212311886 0.011222205741177486 0.0 0.0
0.0 0.05835187579364249 -0.050792861429246584 0.04942795203982259 0.001364909389423988 0.009701521343261623 0.0 0.0
0.0 0.04749214260868526 -0.041237424632281944 0.039939859109222625 0.0012975655230592978 0.008246899757883296 0.0 0.0
0.0 0.03790929529648373 -0.03285890065868491 0.031645294361697815 0.0012136062969870876 0.006912804831936953 0.0 0.0
0.0 0.02937799897963022 -0.025681910655424675 0.02456138862011907 0.0011205220353056153 0.005770306013920443 0.0 0.0
0.0 0.02244808450047639 -0.019569408095835458 0.018547445307527936 0.0010219627883075175 0.004749250180159021 0.0 0.0
0.0 0.016358973352018684 -0.014368018670158033 0.013443999749174039 0.0009240189209839813 0.003749331067444883 0.0 0.0
0.0 0.011282522904838799 -0.009958576297739535 0.009136831224111856 0.0008217450736276706 0.0027430610809637494 0.0 0.0
0.0 0.00705019681961298 -0.006309397862225565 0.005612050921592188 0.0006973469406333708 0.0017901364567728133 0.0 0.0
0.0 0.0037920415516691105 -0.0034448772195872436 0.002923632160339369 0.0005212450592478756 0.0009732327432907809 0.0 0.0
0.0 0.001647457829842826 -0.001402566625769199 0.0011147806062242094 0.00028778601954499025 0.0003322584125443975 0.0 0.0
0.0 0.0003904428881580711 -0.00028867483650257017 0.00021439991607492034 7.427492042764996e-05 4.652984450392405e-05 0.0 0.0
0.0 1.0087469921872455e-05 1.5685625411794194e-05 -1.2798769676907029e-05 -2.8868557348873094e-06 -1.381159329508394e-05 0.0 0.0
0.0 -7.757887072745439e-07 3.916908855847174e-09 -3.7118942413953056e-09 -2.050146144464382e-10 -3.6875535753923915e-08 0.0 0.0
0.0 0.0 0.0 0.0 0.0 0.0 0.0 0.0
0.0 0.0 0.0 0.0 0.0 0.0 0.0 0.0
0.0 0.0 0.0 0.0 0.0 0.0 0.0 0.0
0.0 0.0 0.0 0.0 0.0 0.0 0.0 0.0
0.0 0.0 0.0 0.0 0.0 0.0 0.0 0.0
0.0 0.0 0.0 0.0 0.0 0.0 0.0 0.0
0.0 7.057468504689983e-07 8.332414616530687e-08 -6.078040636205438e-08 -2.2543739803267386e-08 5.064769146995253e-08 0.0 0.0
0.0 3.18963762849333e-05 -3.2191630333874395e-05 2.1819748961775688e-05 1.0371881372098727e-05 5.313860954234812e-06 0.0 0.0
0.0 0.0007515752750684647 -0.0005465983714299787 0.00041273147495894484 0.00013386689647103356 -1.5127308989101169e-05 0.0 0.0
0.0 0.0021488785396389797 -0.0020528079555176774 0.0016712175779086203 0.0003815903776090558 -0.0002945644652569523 0.0 0.0
0.0 0.004862492756498709 -0.004418707900814191 0.0038188725499965553 0.0005998353508176393 -0.0007342942015966068 0.0 0.0
0.0 0.008547510025255707 -0.007684561134095024 0.006924248202395038 0.0007603129316999771 -0.0013224072660067544 0.0 0.0
0.0 0.013357697874977951 -0.011832873885807723 0.01095483218773391 0.0008780416980738141 -0.0020098742674935477 0.0 0.0
0.0 0.019199871873914285 -0.016865480736437982 0.015882722942303147 0.0009827577941348138 -0.0027369096186598036 0.0 0.0
0.0 0.026023825456993527 -0.022838712836431234 0.021751689629705716 0.0010870232067255322 -0.0034582499234290104 0.0 0.0
0.0 0.03432439753274415 -0.0298767651026361 0.028684646053742803 0.0011921190488932863 -0.004205935228587537 0.0 0.0
0.0 0.043593999626007185 -0.03814821682021755 0.03685601937139871 0.001292197448818781 -0.005090744893114687 0.0 0.0
0.0 0.054643779436212056 -0.04771456347628677 0.04633633090820163 0.001378232568085214 -0.0061421656644217145 0.0 0.0
0.0 0.06703013937413346 -0.0584380562235884 0.05699756522211879 0.0014404910014695627 -0.007228819202264888 0.0 0.0
0.0 0.08017829192110726 -0.06981712537575427 0.06834631802790993 0.0014708073478444507 -0.008073891030096682 0.0 0.0
0.0 0.09257324797606033 -0.0805520032431049 0.0791348845929898 0.0014171186501150787 -0.008994360217609066 0.0 0.0
0.0 0.10065576858138478 -0.08736752149394084 0.08627196102769616 0.0010955604662446824 -0.013203333416489898 0.0 0.0
0.0 0.09772142614655718 -0.08400575242737757 0.08350470968677744 0.0005010427406000001 -0.026976141299702328 0.0 0.0
0.0 0.08838959210424858 -0.07346004939626176 0.0679205457110703 0.005539503685191355 8.158404507518924e-15 0.0 0.0
0.0 0.0977214261465469 -0.08400575242736677 0.08350470968676729 0.0005010427405994724 0.026976141299721618 0.0 0.0
0.0 0.10065576858135941 -0.08736752149391798 0.08627196102767361 0.0010955604662444523 0.01320333341650906 0.0 0.0
0.0 0.09257324797602284 -0.08055200324307238 0.07913488459295756 0.0014171186501147806 0.008994360217619166 0.0 0.0
0.0 0.08017829192106306 -0.06981712537571601 0.06834631802787162 0.0014708073478443828 0.008073891030099457 0.0 0.0
0.0 0.06703013937408711 -0.05843805622354795 0.056997565222079195 0.0014404910014687892 0.0072288192022645715 0.0 0.0
0.0 0.05464377943616523 -0.0477145634762462 0.04633633090816158 0.0013782325680846395 0.006142165664418786 0.0 0.0
0.0 0.043593999625960916 -0.03814821682017714 0.03685601937135936 0.0012921974488177789 0.0050907448931099605 0.0 0.0
0.0 0.034324397532694784 -0.02987676510259309 0.02868464605370008 0.0011921190488930074 0.004205935228583183 0.0 0.0
0.0 0.0260238254569476 -0.022838712836391502 0.02175168962966644 0.0010870232067250226 0.003458249923423845 0.0 0.0
0.0 0.01919987187387498 -0.016865480736403052 0.015882722942268702 0.000982757794134357 0.0027369096186520793 0.0 0.0
0.0 0.013357697874946915 -0.011832873885779796 0.010954832187706803 0.0008780416980729953 0.0020098742674872225 0.0 0.0
0.0 0.008547510025229564 -0.007684561134071263 0.006924248202372187 0.0007603129316990833 0.0013224072660021088 0.0 0.0
0.0 0.00486249275648115 -0.004418707900797866 0.0038188725499813713 0.0005998353508164931 0.0007342942015931532 0.0 0.0
0.0 0.00214887853962853 -0.0020528079555077175 0.001671217577899982 0.00038159037760773475 0.00029456446525483605 0.0 0.0
0.0 0.0007515752750636722 -0.0005465983714261953 0.0004127314749560103 0.00013386689647018442 1.5127308988774951e-05 0.0 0.0
0.0 3.1896376283623164e-05 -3.219163033363755e-05 2.1819748961617957e-05 1.0371881372019458e-05 -5.313860954083557e-06 0.0 0.0
0.0 7.057468501500707e-07 8.332414612900931e-08 -6.078040633557378e-08 -2.2543739793456353e-08 -5.064769145797312e-08 0.0 0.0
0.0 0.0 0.0 0.0 0.0 0.0 0.0 0.0
0.0 0.0 0.0 0.0 0.0 0.0 0.0 0.0
0.0 0.0 0.0 0.0 0.0 0.0 0.0 0.0
0.0 0.0 0.0 0.0 0.0 0.0 0.0 0.0
0.0 0.0 0.0 0.0 0.0 0.0 0.0 0.0
0.0 0.0 0.0 0.0 0.0 0.0 0.0 0.0
0.0 -1.3144396760192757e-06 5.702402478941244e-07 -4.931926738222315e-07 -7.704757407189162e-08 3.878916109193005e-07 0.0 0.0
0.0 0.0001647319370152489 -9.193315482194952e-05 6.42275247280349e-05 2.7705630093914578e-05 2.6042715550703138e-05 0.0 0.0
0.0 0.0010829735059992636 -0.0009178576155815653 0.0007075918625479202 0.00021026575303364462 4.998511942168138e-05 0.0 0.0
0.0 0.002924474482984419 -0.002720810723847082 0.0022634712725112882 0.0004573394513357953 -9.740800593172595e-05 0.0 0.0
0.0 0.0059387564847814866 -0.005409157222913734 0.0047443331975626345 0.000664824025351095 -0.00031844296598485254 0.0 0.0
0.0 0.010123245752842229 -0.009059191359382178 0.008247558884185878 0.0008116324751963029 -0.000614619571662837 0.0 0.0
0.0 0.015441275240883425 -0.013701323704192412 0.012774176511194805 0.0009271471929976 -0.000968556267855808 0.0 0.0
0.0 0.021974952552662325 -0.01935955166765526 0.018323634229762426 0.0010359174378928417 -0.0013354557853502784 0.0 0.0
0.0 0.02990545903487274 -0.0261094084394497 0.024962851020790423 0.0011465574186592755 -0.001696679533007765 0.0 0.0
0.0 0.03881273069805245 -0.03409672333445096 0.032837743952890006 0.0012589793815609462 -0.0021139394091884535 0.0 0.0
0.0 0.04958540395710622 -0.04344667580034813 0.042081178099119126 0.0013654977012289952 -0.0026206848808911012 0.0 0.0
0.0 0.06194868137758154 -0.054178132025569065 0.05272552231729565 0.0014526097082734073 -0.0032213011991027137 0.0 0.0
0.0 0.07562422305845755 -0.06602229758563673 0.0645145114366805 0.0015077861489563083 -0.0038513201095220603 0.0 0.0
0.0 0.08981330845522584 -0.07827821704638821 0.07675212210890527 0.0015260949374828732 -0.004263027273642925 0.0 0.0
0.0 0.1031013183709088 -0.08975513581565747 0.08823259663312781 0.0015225391825297529 -0.004281315509078086 0.0 0.0
0.0 0.11276129129455927 -0.09810611009096855 0.09672401958420845 0.0013820905067600067 -0.005744762703524922 0.0 0.0
0.0 0.11207768835226155 -0.0969121790505703 0.09646551748300002 0.00044666156757033274 -0.01893447416385576 0.0 0.0
0.0 0.10384768805785971 -0.08686338807790386 0.08130283105532142 0.005560557022582369 3.6463887465032485e-15 0.0 0.0
0.0 0.11207768835224748 -0.09691217905055705 0.09646551748298705 0.0004466615675699629 0.01893447416386719 0.0 0.0
0.0 0.11276129129452933 -0.09810611009094256 0.09672401958418225 0.001382090506760073 0.005744762703535747 0.0 0.0
0.0 0.10310131837086461 -0.08975513581561946 0.08823259663308972 0.0015225391825297331 0.004281315509083916 0.0 0.0
0.0 0.0898133084551757 -0.07827821704634473 0.07675212210886198 0.0015260949374828405 0.004263027273643428 0.0 0.0
0.0 0.07562422305840552 -0.06602229758559135 0.06451451143663592 0.0015077861489554264 0.003851320109522031 0.0 0.0
0.0 0.06194868137752686 -0.0541781320255217 0.052725522317248585 0.0014526097082731414 0.0032213011991010353 0.0 0.0
0.0 0.04958540395705505 -0.043446675800303494 0.042081178099075474 0.0013654977012279585 0.002620684880889049 0.0 0.0
0.0 0.03881273069799803 -0.034096723334403625 0.03283774395284321 0.001258979381560409 0.002113939409186343 0.0 0.0
0.0 0.02990545903482159 -0.0261094084394051 0.024962851020746128 0.0011465574186589704 0.001696679533004405 0.0 0.0
0.0 0.021974952552618388 -0.019359551667617044 0.01832363422972471 0.0010359174378923302 0.0013354557853459538 0.0 0.0
0.0 0.015441275240849029 -0.013701323704161704 0.012774176511165001 0.0009271471929967024 0.0009685562678526242 0.0 0.0
0.0 0.010123245752813759 -0.00905919135935634 0.008247558884160802 0.0008116324751955308 0.0006146195716602985 0.0 0.0
0.0 0.005938756484759794 -0.0054091572228937125 0.004744333197543657 0.0006648240253500545 0.0003184429659828277 0.0 0.0
0.0 0.002924474482971952 -0.002720810723835082 0.002263471272500617 0.0004573394513344648 9.74080059305e-05 0.0 0.0
0.0 0.0010829735059924921 -0.0009178576155757335 0.0007075918625432297 0.00021026575303250387 -4.998511942174551e-05 0.0 0.0
0.0 0.0001647319370130073 -9.193315482080238e-05 6.422752472722613e-05 2.7705630093576317e-05 -2.6042715550395533e-05 0.0 0.0
0.0 -1.3144396761404641e-06 5.702402475224832e-07 -4.931926735457976e-07 -7.704757397662726e-08 -3.8789161090282603e-07 0.0 0.0
0.0 0.0 0.0 0.0 0.0 0.0 0.0 0.0
0.0 0.0 0.0 0.0 0.0 0.0 0.0 0.0
0.0 0.0 0.0 0.0 0.0 0.0 0.0 0.0
0.0 0.0 0.0 0.0 0.0 0.0 0.0 0.0
0.0 0.0 0.0 0.0 0.0 0.0 0.0 0.0
0.0 0.0 0.0 0.0 0.0 0.0 0.0 0.0
0.0 -3.7312232968863003e-07 1.9323491859144306e-06 -1.4407730449122525e-06 -4.915761410020527e-07 1.1068122100904461e-07 0.0 0.0
0.0 0.00034492267413660857 -0.00018951464606000072 0.00013215156997398042 5.736307608602074e-05 6.369368391706072e-05 0.0 0.0
0.0 0.001475071048477355 -0.0012607514751512042 0.0009632425416499979 0.0002975089335012059 0.00016519479452581793 0.0 0.0
0.0 0.003533499557493499 -0.003292083674962866 0.0027116597932949063 0.0005804238816679599 0.00019255445889385082 0.0 0.0
0.0 0.006806899663227133 -0.006226109888900043 0.0053977212384779824 0.0008283886504220566 0.0002139162870583944 0.0 0.0
0.0 0.01127270905818438 -0.010190090985267637 0.009157706092065827 0.0010323848932018086 0.00022784508602189985 0.0 0.0
0.0 0.01706462209615276 -0.015238362010392243 0.01400931791896783 0.0012290440914244046 0.00021190847612341523 0.0 0.0
0.0 0.024222480189091476 -0.021420921792788504 0.019974449734694196 0.001446472058094306 0.00021305809437157687 0.0 0.0
0.0 0.032527123126038705 -0.028838319813165366 0.027144167541950842 0.001694152271214523 0.00022677368125655073 0.0 0.0
0.0 0.042476527554852525 -0.037610633287299286 0.035645122226981914 0.0019655110603173246 0.0001788051159174347 0.0 0.0
0.0 0.05413799688490434 -0.04784905574214647 0.04559853208433558 0.002250523657810868 0.00010813822181842802 0.0 0.0
0.0 0.06749592046727866 -0.05953412075684737 0.05700878111531949 0.002525339641527811 -6.43033283490137e-05 0.0 0.0
0.0 0.08216948544529672 -0.07229193746735027 0.06953574638193176 0.0027561910854184807 -0.00034677019083363333 0.0 0.0
0.0 0.09710319443326201 -0.08523136174347554 0.082329001192787 0.0029023605506884476 -0.0006460732456274234 0.0 0.0
0.0 0.11067657299515683 -0.09695312492763584 0.09403413708860747 0.0029189878390282454 -0.0007623564140710887 0.0 0.0
0.0 0.12086201556134547 -0.10584533485086056 0.10296756890380039 0.0028777659470602263 -0.0010856587555525127 0.0 0.0
0.0 0.1231336256104609 -0.10825129852545794 0.10553002567260263 0.0027212728528553205 -0.013182885217434949 0.0 0.0
0.0 0.11899465359495737 -0.10098441882725674 0.09222551671641188 0.008758902110844798 2.5673907444456745e-16 0.0 0.0
0.0 0.12313362561044457 -0.10825129852544337 0.10553002567258878 0.002721272852854544 0.013182885217438543 0.0 0.0
0.0 0.12086201556131324 -0.10584533485083239 0.10296756890377332 0.00287776594705915 0.001085658755555283 0.0 0.0
0.0 0.11067657299510353 -0.09695312492758984 0.09403413708856134 0.002918987839028579 0.0007623564140734427 0.0 0.0
0.0 0.09710319443320643 -0.08523136174342696 0.0823290011927392 0.002902360550687479 0.0006460732456273384 0.0 0.0
0.0 0.08216948544524241 -0.07229193746730242 0.06953574638188578 0.0027561910854166745 0.00034677019083388834 0.0 0.0
0.0 0.06749592046721845 -0.05953412075679456 0.05700878111526797 0.002525339641526583 6.430332834815068e-05 0.0 0.0
0.0 0.05413799688484832 -0.047849055742097225 0.045598532084288136 0.0022505236578090945 -0.00010813822181918523 0.0 0.0
0.0 0.042476527554795404 -0.03761063328724911 0.035645122226933196 0.0019655110603159238 -0.00017880511591766932 0.0 0.0
0.0 0.03252712312598282 -0.02883831981311663 0.02714416754190309 0.0016941522712135282 -0.00022677368125871653 0.0 0.0
0.0 0.02422248018904517 -0.021420921792747738 0.01997444973465463 0.0014464720580931124 -0.00021305809437368022 0.0 0.0
0.0 0.01706462209611344 -0.015238362010357928 0.014009317918934696 0.0012290440914232421 -0.00021190847612416008 0.0 0.0
0.0 0.01127270905815273 -0.01019009098523948 0.00915770609203871 0.001032384893200777 -0.00022784508602238405 0.0 0.0
0.0 0.006806899663202311 -0.006226109888877255 0.0053977212384565335 0.0008283886504207223 -0.0002139162870582375 0.0 0.0
0.0 0.0035334995574803595 -0.0032920836749501894 0.002711659793283608 0.0005804238816665827 -0.00019255445889385786 0.0 0.0
0.0 0.0014750710484701807 -0.001260751475144175 0.0009632425416443654 0.0002975089334998106 -0.00016519479452524726 0.0 0.0
0.0 0.0003449226741337362 -0.00018951464605817034 0.00013215156997269903 5.736307608547256e-05 -6.369368391656096e-05 0.0 0.0
0.0 -3.73122329984419e-07 1.9323491859908055e-06 -1.4407730449678276e-06 -4.915761410229919e-07 -1.1068122099761541e-07 0.0 0.0
0.0 0.0 0.0 0.0 0.0 0.0 0.0 0.0
0.0 0.0 0.0 0.0 0.0 0.0 0.0 0.0
0.0 0.0 0.0 0.0 0.0 0.0 0.0 0.0
SCALARS Wm float 4
LOOKUP_TABLE default
10.23515179105493 1.925220335217861 4.021203771230692 4.288727684606373
4.632661593439735 2.3055095677247355 1.0081170356241536 1.319034990090848
0.5255679646095266 0.5255856593015307 -0.004219477650352863 0.0042017829583488354
0.4444740763030443 0.44029078022166845 0.0012828973615415587 0.002900398719834093
0.7813347648665638 0.6556807444815732 0.04427170556023065 0.08138231482475984
1.5150049721560257 0.8714992265112481 0.21299226934566737 0.4305134762991099
2.9277080724065083 1.1822005759538836 0.6911519712163203 1.0543555252363062
5.1209353626521255 1.5330272218829126 1.5573144696120031 2.0305936711572046
8.254249640079905 1.945379095869875 2.9346333985446984 3.374237145665332
12.477763471632977 2.4525948957161128 4.929034102293531 5.096134473623344
17.936906684190735 3.0981354010511213 7.630617273349861 7.20815400978975
24.713480223318463 3.915006578763448 11.053824840751677 9.744648803803361
33.10375643176755 4.9072999587641695 15.44602534165243 12.75043113135096
43.27699260909779 6.078784494082222 20.929315773281594 16.268892341733974
55.26460251262222 7.347373562622628 27.615759879217954 20.301469070781636
68.78958077388344 8.55351750807377 35.47035266016233 24.765710605647364
83.07964327173568 9.486262365554708 44.11581765270976 29.47756325347121
96.92439822378597 9.962838104564588 52.88779807484888 34.07376204437244
108.89679425126732 9.974888222413409 60.819896382029874 38.10200964682406
117.24551047678275 9.544274667734106 66.63559553625541 41.065640272793274
120.07317242670034 8.85694160148267 68.94265116719188 42.2735796580258
117.24551047676015 9.544274667720574 66.6355955362492 41.06564027279039
108.89679425124204 9.97488822241787 60.81989638200995 38.10200964681419
96.92439822373134 9.962838104545892 52.8877980748254 34.07376204436008
83.07964327168936 9.48626236555582 44.115817652678714 29.477563253454782
68.78958077382914 8.553517508062155 35.470352660135035 24.76571060563199
55.26460251257357 7.34737356261923 27.615759879189508 20.301469070764824
43.27699260905208 6.078784494080827 20.929315773254256 16.26889234171697
33.103756431720285 4.9072999587584505 15.446025341627433 12.750431131334443
24.71348022327675 3.9150065787598782 11.05382484072933 9.744648803787538
17.93690668415784 3.098135401050197 7.630617273331722 7.208154009775907
12.477763471608021 2.4525948957162003 4.929034102279819 5.09613447361201
8.254249640060731 1.9453790958680641 2.934633398535713 3.3742371456569558
5.1209353626375185 1.5330272218793484 1.557314469606704 2.0305936711514665
2.9277080723976106 1.182200575951681 0.6911519712134223 1.0543555252325074
1.5150049721516834 0.8714992265101975 0.21299226934468674 0.4305134762967989
0.7813347648647306 0.6556807444805491 0.04427170555993222 0.0813823148242495
0.4444740763025638 0.4402907802211566 0.0012828973615451535 0.00290039871986223
0.5255679646088123 0.5255856593008844 -0.0042194776503555196 0.0042017829582829585
4.63266159343521 2.305509567725044 1.0081170356218938 1.3190349900882732
10.235151791031845 1.925220335206702 4.021203771224275 4.28872768460087
11.901210970909059 5.367625510616955 3.0595943321557377 3.4739911281363707
1.6769482116096235 0.37559325185644143 0.5188093948017393 0.7825455649514427
0.2296256604800115 0.24587188576157817 -0.004001000264248918 -0.012245225017317785
0.3552733685913901 0.35491713282601683 -1.9599580722112552e-05 0.00037583534609528257
0.6013025548205265 0.5396573571244782 0.017387063706611902 0.04425813398943671
1.2220059419367795 0.7631592931601562 0.15668930217019209 0.30215734660643134
2.4096191141692964 0.9885805896828801 0.5443907871853011 0.8766477373011157
4.3407953000561506 1.2512602830416757 1.3156109010148003 1.7739241159996766
7.111286614882846 1.5302568094311426 2.561400830050055 3.0196289754016497
10.802647568956957 1.8390154043448272 4.348815648855142 4.614816515756986
15.520885693931586 2.1929769210187664 6.762829451377798 6.565079321535018
21.441194096899867 2.6127113441800507 9.933916369670996 8.894566383048819
28.57209878400848 3.1110822779781313 13.802928555012333 11.658087951018022
37.33688749133735 3.6783801684776174 18.75906884264486 14.899438480214863
47.71475764125121 4.277575597453462 24.799657169972033 18.63752487382571
59.50857320699868 4.81266187659851 31.89878319570757 22.797128134692603
72.11740090363965 5.158470669529926 39.787372047348946 27.17155818676076
84.52476361086632 5.222309892762788 47.841905244075335 31.46054847402819
95.35691875021276 4.972452948525984 55.14538893535246 35.23907686633429
102.99153945446324 4.459006577681693 60.56437096552692 37.96816191125459
105.7919363156967 3.9283555638658494 62.79309678153218 39.07048397029872
102.99153945445707 4.459006577687565 60.56437096551895 37.96816191125053
95.35691875018662 4.972452948526183 55.14538893533507 35.23907686632542
84.52476361083828 5.222309892769632 47.84190524405242 31.460548474016214
72.11740090359429 5.15847066952544 39.78737204732263 27.171558186746214
59.50857320695986 4.8126618766003375 31.898783195681627 22.797128134677898
47.71475764120838 4.277575597452208 24.799657169946045 18.63752487381012
37.33688749129525 3.6783801684749275 18.75906884262075 14.899438480199574
28.572098783968393 3.1110822779759175 13.802928554989741 11.658087951002717
21.441194096863654 2.6127113441785412 9.933916369650886 8.894566383034233
15.520885693902159 2.1929769210185652 6.762829451361396 6.565079321522197
10.802647568933669 1.8390154043437288 4.348815648843226 4.61481651574671
7.111286614865728 1.5302568094299076 2.5614008300420155 3.019628975393804
4.340795300043854 1.2512602830394537 1.315610901010066 1.7739241159943364
2.4096191141619405 0.9885805896814238 0.5443907871828341 0.8766477372976829
1.2220059419332105 0.7631592931594382 0.15668930216907168 0.30215734660470045
0.6013025548192945 0.5396573571237521 0.017387063706439533 0.04425813398910287
0.3552733685911147 0.3549171328256563 -1.959958070910948e-05 0.0003758353461675768
0.22962566048013378 0.2458718857615867 -0.004001000264214056 -0.012245225017238867
1.676948211604582 0.3755932518559408 0.5188093947996317 0.7825455649490098
11.901210970886972 5.367625510607008 3.059594332149408 3.4739911281305518
8.794316263811988 4.198418780491339 2.0534066745271855 2.5424908087934606
1.0101181344945893 0.13287468313567205 0.3360398746390617 0.5412035767198562
0.14447715235347994 0.14447758881113834 -1.80369121587346e-08 -4.1842074621861334e-07
0.2687532439188923 0.26854672623526327 5.904843501143298e-05 0.00014746924861762834
0.4672497256112076 0.4532649206006041 0.0027814656405545112 0.011203339370048979
0.9529107007698382 0.6854764764337508 0.08849237472519733 0.17894184961089069
1.9411350207921108 0.9047168134928187 0.3759931018618635 0.6604251054374282
3.6268697322786068 1.159525361142709 1.0189500589854426 1.4483943121504534
6.058538378779047 1.4209304245287613 2.075368137018252 2.5622398172320335
9.316316367488865 1.7000503286639876 3.6261601909136787 3.9901058479111997
13.447085660169304 2.0125325656381277 5.7075496902556235 5.727003404275552
18.530648227938656 2.374935412583991 8.362192721327366 7.793520094027299
24.857564628756762 2.8105537229953534 11.81630221229612 10.230708693465292
32.39808476788541 3.3139968552441346 15.97689968048066 13.107188232160603
41.48219777291207 3.84546433606899 21.20208350706949 16.43464992977359
51.865728208919705 4.338201926811891 27.365104518981372 20.16242176312646
63.05432343776647 4.692461996256712 34.22957996845242 24.132281473057347
74.14590624209305 4.80384337483433 41.30937144004273 28.032691427216
83.873405555349 4.6035053765082905 47.79724030255413 31.472659876286592
90.77542853880053 4.201189228076636 52.62266905356185 33.95157025716207
93.25136530354388 3.5863336729568003 54.66285158295983 35.00218004762727
90.77542853879204 4.201189228082314 52.62266905355261 33.95157025715709
83.87340555532954 4.603505376511953 47.79724030253894 31.47265987627861
74.1459062420622 4.803843374835799 41.30937144002191 28.032691427204526
63.05432343773467 4.692461996260319 34.2295799684298 24.132281473044532
51.865728208881094 4.338201926809637 27.365104518958493 20.162421763112963
41.48219777287441 3.845464336067958 21.202083507046872 16.434649929759573
32.398084767849824 3.3139968552420154 15.976899680460468 13.107188232147347
24.857564628722045 2.810553722993862 11.816302212276554 10.230708693451621
18.530648227907086 2.3749354125824382 8.362192721310198 7.7935200940144576
13.44708566014241 2.0125325656350657 5.707549690242546 5.7270034042648
9.31631636746822 1.7000503286621027 3.6261601909038284 3.9901058479022855
6.0585383787634965 1.4209304245268926 2.0753681370114636 2.562239817225141
3.6268697322678256 1.1595253611410847 1.0189500589812197 1.4483943121455223
1.9411350207857083 0.9047168134910808 0.37599310186007784 0.6604251054345497
0.9529107007670493 0.6854764764328389 0.08849237472450244 0.17894184960970774
0.46724972561024847 0.4532649205997616 0.0027814656405095502 0.01120333936997722
0.26875324391864436 0.26854672623501896 5.9048435009717715e-05 0.0001474692486156629
0.1444771523534005 0.14447758881105854 -1.8036912141597065e-08 -4.184207459031903e-07
1.0101181344910068 0.1328746831358177 0.33603987463743984 0.541203576717749
8.794316263790908 4.198418780481937 2.0534066745213533 2.5424908087876195
6.549840897116807 3.2577170084835796 1.4071751357286888 1.884948752904541
0.6554645719206103 0.07621659718969884 0.20594062041107328 0.3733073543198378
0.10213588578463186 0.10213588578463186 0.0 0.0
0.2028427945670777 0.20282305249099372 3.4030859179099448e-06 1.6338990166084123e-05
0.3661081426653741 0.3722964951908716 -0.0016567272188719407 -0.004531625306625467
0.7150340071440398 0.5869359344308971 0.03613797444977666 0.09196009826336604
1.5270137988764785 0.8292390968419285 0.24632723576352855 0.45144746627102067
2.9404958775349734 1.061758614141456 0.7467440139874996 1.1319932494060176
5.046933776437125 1.307302363663581 1.6284131905957122 2.1112182221778304
7.865178660194947 1.5600982235654175 2.9342574584111287 3.3708229782184023
11.404018427562264 1.8323320314256997 4.673865274125774 4.897821122010787
15.791295139608167 2.1479803801937454 6.94148602853605 6.701828730878375
21.091809037745396 2.520559440828325 9.744739213075462 8.826510383841606
27.680966440822733 2.9553117243509357 13.400981792602305 11.324672923869505
35.44754669554272 3.429095655433572 17.777178650015248 14.241272390093876
44.37526995537218 3.883480862452797 22.95728975135006 17.534499341569326
54.19830685364549 4.241564416322088 28.896549688282157 21.060192749041242
64.03064290762154 4.400814372110229 35.04882023495283 24.581008300558462
72.7448472576256 4.283795712003004 40.7284691530762 27.732582392546384
79.02944897610259 3.960869698045644 45.01543823483701 30.05314104321996
81.29013963176264 3.227369858731524 46.986595022757676 31.076174750273402
79.0294489760902 3.9608696980439366 45.01543823482998 30.053141043216257
72.74484725760692 4.28379571200505 40.72846915306281 27.732582392539065
64.03064290759256 4.400814372106515 35.04882023493659 24.58100830054943
54.19830685361542 4.24156441632412 28.8965496882619 21.06019274902941
44.375269955341075 3.8834808624521684 22.95728975133115 17.53449934155778
35.44754669550864 3.4290956554299012 17.77717864999674 14.241272390081992
27.68096644079343 2.9553117243510965 13.400981792584806 11.324672923857529
21.091809037715787 2.520559440826947 9.744739213059107 8.826510383829733
15.791295139580708 2.1479803801905395 6.941486028522499 6.701828730867672
11.404018427540091 1.8323320314239466 4.673865274114791 4.897821122001355
7.865178660177025 1.5600982235641656 2.9342574584025103 3.3708229782103487
5.046933776423911 1.3073023636620256 1.6284131905900543 2.1112182221718307
2.9404958775260988 1.0617586141402573 0.746744013984239 1.131993249401603
1.5270137988714245 0.8292390968405017 0.24632723576201704 0.45144746626890503
0.7150340071421017 0.586935934430039 0.03613797444939701 0.09196009826266578
0.36610814266477376 0.3722964951900921 -0.0016567272188434629 -0.0045316253064748655
0.2028427945669023 0.2028230524908397 3.4030859160450175e-06 1.6338990146550774e-05
0.10213588578449993 0.10213588578449993 0.0 0.0
0.6554645719177492 0.07621659718977634 0.2059406204098108 0.3733073543181619
6.549840897099769 3.2577170084762876 1.40717513572414 1.8849487528993416
4.798767354821622 2.505513299689907 0.9247636682849361 1.3684903868467757
0.481032522208274 0.10685859173171698 0.13932545670744922 0.23484847376910836
0.09274806447030168 0.09274806447030168 0.0 0.0
0.16065581103795634 0.1606483822194381 4.1024249203392503e-07 7.018576026238409e-06
0.290151439031918 0.2920014925004808 -0.00042468084182420874 -0.0014253726267386977
0.5352775870170728 0.505648182342915 0.006335379347308752 0.0232940253268488
1.1520594862106786 0.732626723600398 0.14686885797315166 0.2725639046371294
2.29273381419928 0.9591014823392617 0.5052066562135068 0.8284256756465129
4.069329582849111 1.1872841971158712 1.2132930830860047 1.6687523026472368
6.4513488790783775 1.4161860186926973 2.2757503498070206 2.7594125105786587
9.44711625403823 1.655846870952335 3.7141126786422842 4.077156704443606
13.112921935727215 1.924799455513911 5.564900378284255 5.623222101929056
17.602039100561036 2.2434788382694335 7.924937187295183 7.4336230749964205
22.96771320367102 2.6147325240626866 10.78395485339303 9.569025826215302
29.53984775021113 3.021947478688492 14.454218322343712 12.063681949178937
37.191420349523675 3.4393714566960676 18.847486278027976 14.904562614799627
45.55261697896491 3.8032317285804846 23.75404618377774 17.9953390666067
54.13253534029704 4.015671414303906 28.99929022522567 21.11757370076745
61.913223313291894 3.989426429386719 33.96000579062654 23.963791093278616
67.71278155158456 3.7337362680618273 37.84455564867346 26.134489634849242
69.8303462948979 2.8661121555003763 39.76994761053392 27.194286528863636
67.71278155157725 3.733736268062267 37.84455564866849 26.134489634846496
61.91322331327191 3.9894264293821173 33.9600057906167 23.963791093273077
54.132535340278224 4.015671414306601 28.99929022521209 21.11757370075954
45.552616978934346 3.803231728574363 23.75404618376251 17.995339066597467
37.19142034949764 3.439371456696746 18.847486278011623 14.904562614789274
29.53984775018306 3.021947478684542 14.454218322329279 12.063681949169245
22.967713203642496 2.6147325240573975 10.783954853379456 9.569025826205635
17.602039100536093 2.2434788382674116 7.924937187282214 7.433623074986469
13.112921935705348 1.9247994555120356 5.564900378273304 5.623222101920003
9.447116254017972 1.6558468709500396 3.7141126786328122 4.077156704435121
6.451348879063561 1.4161860186922755 2.2757503497997584 2.7594125105715293
4.069329582838194 1.1872841971150245 1.2132930830813458 1.6687523026418234
2.2927338141915046 0.9591014823375914 0.5052066562109058 0.8284256756430062
1.1520594862066074 0.732626723599256 0.14686885797198898 0.27256390463536284
0.5352775870154834 0.5056481823420065 0.006335379347106399 0.023294025326370642
0.290151439031481 0.2920014924999755 -0.00042468084180980045 -0.001425372626684776
0.16065581103782975 0.1606483822193157 4.1024249179030226e-07 7.018576022264267e-06
0.09274806447013852 0.09274806447013852 0.0 0.0
0.4810325222059026 0.10685859173164959 0.1393254567064396 0.23484847376781384
4.798767354808501 2.5055132996845577 0.9247636682814723 1.36849038684247
3.4459704372170377 1.9151224597191856 0.5863554066755798 0.9444925708222729
0.34104020584598516 0.14306306845428043 0.06142812931161404 0.13654900808009032
0.10381081627329328 0.10381081627329328 0.0 0.0
0.13928818153696707 0.13928850099964735 -1.2239768657509634e-08 -3.072229116306911e-07
0.2373990186053723 0.23801994845791954 -9.147830660061757e-05 -0.0005294515459466833
0.40310057157406953 0.40625598365479715 -0.0025971453321133263 -0.0005582667486140839
0.8139989827424863 0.612772983583279 0.055831654504256256 0.1453943446549512
1.7283004469683434 0.8531990247828323 0.3331949823728638 0.5419064398126472
3.115821974534906 1.055640463233991 0.8222518139310457 1.2379296973698688
5.097942256729029 1.2681819264204792 1.6720258420265888 2.157734488281962
7.553364929673494 1.4775578913004253 2.809221167348181 3.266585871024883
10.53056758519795 1.7063602011434635 4.265423004080657 4.558784379973833
14.134013171019664 1.9732770067835501 6.099839727801085 6.060896436435023
18.55082606390831 2.284207812323035 8.437477810689826 7.829140440895447
23.84567314346252 2.639178720829722 11.297556844793402 9.908937577839401
30.05695132978472 3.006535557230277 14.752690827642096 12.297724944912353
37.17795979210175 3.360545805383014 18.898987526373755 14.918426460344984
44.49227615587939 3.6359758716053703 23.21618887807432 17.6401114061997
51.306769117863055 3.709265363708467 27.39666096725022 20.200842786904367
56.710232817803906 3.520771439544216 30.94561123495707 22.24385014330263
58.750126346449235 2.5092712584258 32.888073525296114 23.352781562727312
56.7102328177977 3.5207714395445238 30.945611234952963 22.243850143300186
51.30676911784898 3.709265363704873 27.396660967243637 20.200842786900495
44.492276155857674 3.6359758716006865 23.216188878063683 17.640111406193295
37.17795979208443 3.360545805386187 18.898987526361196 14.91842646033705
30.05695132976355 3.0065355572321466 14.752690827628282 12.297724944903134
23.845673143439708 2.639178720826055 11.297556844782157 9.908937577831491
18.550826063890245 2.2842078123235323 8.437477810679264 7.8291404408874445
14.134013170998504 1.9732770067801286 6.0998397277912435 6.060896436427134
10.5305675851799 1.7063602011427397 4.265423004071385 4.558784379965776
7.553364929657624 1.4775578912987413 2.809221167340887 3.2665858710179982
5.097942256716318 1.2681819264190382 1.6720258420211451 2.157734488276133
3.115821974525665 1.0556404632326686 0.8222518139275269 1.2379296973654688
1.7283004469623409 0.853199024781311 0.333194982370936 0.5419064398100938
0.8139989827396501 0.6127729835821817 0.055831654503640235 0.14539434465382847
0.4031005715730909 0.4062559836538554 -0.0025971453321228387 -0.0005582667486414708
0.23739901860501553 0.2380199484575579 -9.147830659989312e-05 -0.0005294515459425438
0.1392881815367119 0.1392885009993915 -1.2239768622387086e-08 -3.0722291093115194e-07
0.10381081627308959 0.10381081627308959 0.0 0.0
0.34104020584435474 0.14306306845424996 0.061428129310952914 0.13654900807915207
3.445970437206836 1.915122459714783 0.5863554066731395 0.9444925708189135
2.3807354849097973 1.4415032683723916 0.3298646663914141 0.6093675501459914
0.2633649390603139 0.18284205458565472 0.021330116314544973 0.05919276816011426
0.12427508937281338 0.12427508937281338 0.0 0.0
0.1342465611181657 0.1342465611181657 0.0 0.0
0.20171440602749086 0.2015891313866972 1.188894845623752e-05 0.0001133856923374196
0.3143570225473105 0.3254498898753735 -0.0027273180959219616 -0.008365549232140864
0.571897856428242 0.5115781279767448 0.012352215953389747 0.04796751249810733
1.1723901699004244 0.7072906424366976 0.14854395349453375 0.3165555739691932
2.2991912456115684 0.9297283280067595 0.5467574789055288 0.8227054386992803
3.7795984682408905 1.107536551973436 1.1048764243042672 1.567185491963187
5.741567654374858 1.2950997581739525 1.9776038231869164 2.4688640730139895
8.073268867311095 1.4892501589891414 3.0749748226126616 3.5090438857092945
10.860310862135321 1.7098748202084355 4.441668021227029 4.708768020699857
14.249422154037592 1.966478054431926 6.167113174971673 6.115830924633995
18.360958822852922 2.2611283669615108 8.320393943617756 7.779436512273658
23.361106203046024 2.591244407433837 11.060228742544147 9.709633053068028
28.869736108054155 2.9231981814880355 14.073251170877787 11.873286755688332
34.998452155510314 3.236350896620587 17.617849978696277 14.144251280193457
41.03948628010051 3.424798544434053 21.222258682469764 16.392429053196686
46.031014946785675 3.325379369701348 24.368480758134346 18.33715481895
48.071198717394715 2.1656899376207797 26.373532820263307 19.531975959510635
46.03101494678208 3.325379369702883 24.368480758131106 18.337154818948086
41.03948628009406 3.4247985444365714 21.222258682464226 16.39242905319325
34.99845215549775 3.2363508966202774 17.617849978688803 14.144251280188666
28.869736108031994 2.9231981814831864 14.073251170867405 11.873286755681406
23.36110620302571 2.591244407431539 11.060228742533587 9.70963305306058
18.36095882283543 2.261128366958546 8.320393943609496 7.779436512267382
14.2494221540221 1.9664780544326608 6.167113174962671 6.11583092462677
10.860310862120485 1.7098748202070018 4.441668021219807 4.70876802069368
8.073268867295509 1.489250158986993 3.074974822605652 3.509043885702863
5.741567654362443 1.295099758173062 1.9776038231812292 2.4688640730081493
3.779598468231571 1.1075365519729605 1.1048764243001181 1.5671854919584918
2.2991912456043764 0.9297283280052197 0.5467574789029599 0.8227054386961977
1.1723901698962624 0.7072906424353047 0.14854395349344943 0.31655557396750905
0.5718978564263879 0.511578127975699 0.012352215953122565 0.047967512497566485
0.3143570225467397 0.3254498898746575 -0.0027273180958772925 -0.008365549232040373
0.2017144060271431 0.20158913138634832 1.1888948456075677e-05 0.00011338569233872036
0.13424656111782546 0.13424656111782546 0.0 0.0
0.12427508937253265 0.12427508937253265 0.0 0.0
0.26336493905896086 0.1828420545853775 0.021330116314131304 0.05919276815945197
2.3807354849025195 1.4415032683693296 0.3298646663897764 0.6093675501434148
1.6312699022906187 1.1163893144700758 0.18656095466327663 0.32831963315726675
0.20363937207295219 0.19636089745183752 -0.004969439988643539 0.012247914609758145
0.14678683986166222 0.14679202530751514 -2.1719582759986377e-07 -4.968250025342334e-06
0.14034595849559528 0.14033127083588826 1.0481594009914824e-06 1.3639500306005479e-05
0.1804060586321685 0.18056382940544113 -1.6093102595345447e-05 -0.00014167767067726914
0.2578356630533991 0.2628196128306198 -0.0011457324322269435 -0.0038382173449937416
0.40086668868512554 0.4042989035245083 -0.003728612083873712 0.0002963972444910925
0.7542226212023493 0.567071838883732 0.04735584065291467 0.13979494166570267
1.4712820551918595 0.7555602823770996 0.2460897771938629 0.4696319956208969
2.619056174150339 0.9430856765367438 0.6781920506816537 0.9977784469319404
4.018165779364576 1.099741888787934 1.2332513333681303 1.6851725572085114
5.72606834418932 1.2628304577491507 1.9840869197928963 2.479150966647273
7.762271306390819 1.444978902368714 2.9355909130924056 3.3817014909296956
10.206582073543274 1.6508131111559894 4.120310051755779 4.435458910631507
13.22327534341028 1.8947795104654015 5.64438141657139 5.684114416373492
16.840457212882583 2.175815399763154 7.507066862104699 7.157574951014736
21.14762190818783 2.483660883037391 9.83249397286587 8.831467052284571
25.86813073572377 2.8151020362683106 12.385862852436059 10.667165847019398
30.815127252295497 3.105255539450921 15.140820186629119 12.56905152621546
35.49830789701153 3.136828439195602 17.975554675884506 14.385924781931422
37.635280228663845 1.8380119894298226 20.09633566824159 15.700932570992428
35.498307897008694 3.13682843919565 17.97555467588269 14.385924781930356
30.815127252285315 3.1052555394467407 15.140820186625474 12.569051526213107
25.868130735715145 2.8151020362709724 12.385862852429394 10.667165847014793
21.147621908176852 2.4836608830382003 9.832493972859055 8.831467052279597
16.84045721286788 2.1758153997603986 7.5070668620979095 7.157574951009572
13.223275343397813 1.8947795104638454 5.644381416565368 5.684114416368602
10.206582073529173 1.6508131111517734 4.120310051750456 4.435458910626939
7.762271306380377 1.444978902368668 2.935590913087019 3.381701490924693
5.7260683441786435 1.2628304577470781 1.9840869197886586 2.4791509666429072
4.018165779355165 1.0997418887871022 1.2332513333640929 1.6851725572039675
2.6190561741429037 0.9430856765358109 0.6781920506786766 0.9977784469284161
1.4712820551875196 0.7555602823763111 0.2460897771924109 0.4696319956187976
0.7542226211998071 0.5670718388826375 0.047355840652424014 0.13979494166474513
0.40086668868410363 0.4042989035236673 -0.0037286120839051798 0.0002963972443414296
0.25783566305296046 0.2628196128299156 -0.0011457324321927156 -0.0038382173447625567
0.18040605863181955 0.1805638294051278 -1.609310259795302e-05 -0.00014167767071024808
0.14034595849521941 0.1403312708355159 1.0481594006314481e-06 1.3639500302894402e-05
0.14678683986139238 0.14679202530723445 -2.171958270000216e-07 -4.968250015090288e-06
0.20363937207205518 0.1963608974514324 -0.0049694399887879985 0.012247914609410706
1.6312699022855917 1.1163893144679025 0.18656095466211553 0.32831963315557394
1.0493494342809973 0.8307836512901904 0.06453195147475838 0.1540338315160486
0.1773125791854296 0.19563469036148276 -0.0070563189453217694 -0.011265792230731464
0.16690837120679716 0.1669944402633988 -7.296353753386552e-06 -7.877270284823133e-05
0.15291874632930702 0.15294704808448473 -1.911838206656354e-06 -2.6389916971011686e-05
0.17176089479987833 0.17185124765450904 -1.1316211215811749e-05 -7.903664341489612e-05
0.2210015141002712 0.22267934619250196 -0.0004564826281765182 -0.0012213494640543584
0.3024128642575435 0.3145854559159829 -0.003823869432781228 -0.008348722225658222
0.47021429287945704 0.4418065995855723 0.004553454891682092 0.0238542384022028
0.8375990195982904 0.5767766392530129 0.07355482604309717 0.18726755430218017
1.5016754978521343 0.7285178564579643 0.2749187784649814 0.49823886292918923
2.4036941455868175 0.8662751169840723 0.5908058615397777 0.9466131670629678
3.530127792868503 1.0065516967633112 1.0421424293450756 1.4814336667601167
4.8598829314853225 1.1546295832922835 1.6105437788079977 2.094709569385041
6.444766416849729 1.3164181369119012 2.320982734854654 2.807365545083173
8.398568553842853 1.50897550066169 3.2371197633812145 3.6524732897999503
10.822296090264558 1.7427008996690168 4.4149152146808 4.66467997591474
13.766180862834453 2.0257176740545897 5.880326147252778 5.860137041527082
17.14287384693662 2.330468425506663 7.59360305902503 7.218802362404937
21.02908916873877 2.692867508231464 9.607369355192564 8.728852305314739
25.332238299408083 2.942123650155651 12.007347353028717 10.382767296223712
27.595949756996482 1.5541567612585263 14.12477016556754 11.917022830170414
25.332238299405777 2.942123650153224 12.007347353028793 10.382767296223777
21.029089168738924 2.692867508234846 9.607369355190706 8.728852305313376
17.142873846922168 2.330468425499385 7.59360305902089 7.218802362401887
13.766180862823596 2.025717674052702 5.880326147247796 5.860137041523098
10.822296090257343 1.7427008996702165 4.414915214676241 4.664679975910884
8.398568553835942 1.5089755006622259 3.237119763377295 3.6524732897964176
6.444766416845154 1.3164181369124188 2.320982734852066 2.807365545080671
4.859882931478062 1.1546295832912221 1.610543778805023 2.094709569381819
3.530127792862523 1.0065516967628414 1.0421424293424568 1.4814336667572245
2.403694145580325 0.8662751169828776 0.5908058615374698 0.9466131670599773
1.501675497847996 0.7285178564571579 0.2749187784635831 0.4982388629272549
0.8375990195956858 0.5767766392519368 0.07355482604253125 0.18726755430121786
0.47021429287833016 0.4418065995850543 0.004553454891520219 0.023854238401755688
0.3024128642568841 0.31458545591506376 -0.0038238694327394165 -0.008348722225440282
0.2210015140997772 0.22267934619182275 -0.00045648262814977555 -0.001221349463895786
0.17176089479946352 0.17185124765411441 -1.1316211219693648e-05 -7.903664343119424e-05
0.15291874632895108 0.15294704808412468 -1.91183820609508e-06 -2.638991696751545e-05
0.16690837120646418 0.1669944402630429 -7.2963537516321735e-06 -7.877270282710897e-05
0.17731257918507926 0.195634690361019 -0.0070563189452951145 -0.01126579223064463
1.0493494342777288 0.8307836512884907 0.06453195147418835 0.1540338315150498
0.6811819579949767 0.6375037138685231 0.011190762190866576 0.03248748193558692
0.1681357328543567 0.17608783221137791 -0.0018884364884858699 -0.006063662868535342
0.18214008085992112 0.18215747489558673 -9.224449329999089e-07 -1.6471590732581265e-05
0.16820595475345565 0.16822003820458867 -6.269657850398564e-07 -1.3456485347957748e-05
0.17341125714964833 0.17339004017048126 4.489078906832625e-06 1.6727900260213176e-05
0.20212693893694642 0.2048411715964269 -0.0005517806392065178 -0.002162452020273902
0.25058761784956135 0.2559152490975903 -0.0017683053878723607 -0.0035593258601566225
0.3180362865733357 0.30538091869885653 0.0020652407552869726 0.010590127119192152
0.4313933874724207 0.3748388902361994 0.013061957461940176 0.043492539774280976
0.6591922415704855 0.464262122312533 0.055621703543340464 0.13930841571461203
1.070384653869558 0.5808612734789396 0.17333007113209548 0.3161933092585226
1.5938479552098321 0.6721576351813713 0.33433296882451 0.5873573512039509
2.262437371145544 0.7659375320106263 0.5786070875441689 0.9178927515907493
3.0916178118152566 0.8749563961158288 0.904625322606365 1.3120360930930635
4.115734434484907 1.00973251671088 1.324129703629176 1.7818722141448506
5.430637825210776 1.1870754006856645 1.8795387903449416 2.364023634180169
7.155068665162243 1.426884361184804 2.633029142869956 3.095155161107484
9.37038475861769 1.7208616923439113 3.6540033947387776 3.9955196715350043
11.989226432064356 2.0210565237670375 4.907219747383049 5.060950160914272
15.48855215479743 2.5511566467158353 6.537474567599281 6.399920940482314
18.467784279833168 1.3564767615404927 8.91144434209889 8.199863176193784
15.488552154803415 2.5511566467197895 6.537474567600438 6.399920940483181
11.98922643205953 2.021056523764072 4.907219747381993 5.060950160913459
9.370384758618782 1.7208616923490199 3.6540033947366566 3.995519671533109
7.155068665153842 1.4268843611808895 2.6330291428675707 3.0951551611053816
5.430637825206256 1.1870754006859079 1.8795387903425858 2.364023634177763
4.115734434481017 1.009732516710906 1.3241297036273398 1.7818722141427707
3.0916178118122177 0.874956396115905 0.9046253226048921 1.3120360930914194
2.262437371142175 0.765937532009778 0.5786070875430357 0.917892751589361
1.5938479552060896 0.6721576351804547 0.3343329688232844 0.5873573512023507
1.0703846538672237 0.5808612734791961 0.17333007113109822 0.3161933092569297
0.6591922415690933 0.4642621223118454 0.05562170354309724 0.13930841571415079
0.4313933874719044 0.3748388902360139 0.013061957461826826 0.043492539774063754
0.31803628657264915 0.30538091869842315 0.0020652407552066553 0.010590127119019377
0.25058761784887246 0.25591524909685653 -0.001768305387862231 -0.003559325860121838
0.20212693893650824 0.20484117159597787 -0.0005517806391999726 -0.002162452020269651
0.1734112571491374 0.17339004016994558 4.489078909123215e-06 1.6727900282745052e-05
0.16820595475307448 0.16822003820419093 -6.269657839693201e-07 -1.3456485332418166e-05
0.18214008085946515 0.18215747489511866 -9.224449321673981e-07 -1.6471590721401528e-05
0.1681357328541092 0.17608783221102467 -0.0018884364884565364 -0.006063662868458963
0.6811819579931834 0.6375037138672409 0.01119076219070824 0.03248748193523441
0.4473278865535168 0.44486361360523735 0.00016879079261391462 0.002295482155665638
0.16466413138554617 0.16495280065433277 -1.895659241089899e-05 -0.0002697126763756971
0.19197629572048974 0.1921102765016109 -1.105474144848618e-05 -0.00012292603967267707
0.18334306570738368 0.18338767057864264 -3.0090264717618683e-06 -4.159584478721377e-05
0.18260210258354462 0.18264812548945789 -5.785654720954063e-06 -4.023725119231122e-05
0.2006159628191004 0.20303782080416136 -0.0005115647892539886 -0.0019102931958069297
0.23479421442049914 0.23932178831738365 -0.001458943557702454 -0.0030686303391820042
0.27450746752181754 0.2564003984125514 0.0030405419349672606 0.0150665271742989
0.3094051078034179 0.2515041590372435 0.016377952220891053 0.041522996545283554
0.3453204491743561 0.22141967289638123 0.03596180092307912 0.08793897535489587
0.421522306909973 0.20214091971519987 0.07660903068996693 0.14277235650480635
0.5426958477688566 0.2018432069141078 0.1204061937964492 0.2204464470582995
0.7306413040577873 0.22862793152806155 0.1893808029803084 0.31263256954941776
0.9848909264273233 0.27736447713261214 0.281185922387148 0.42634052690756297
1.3422174690624225 0.28841606128417013 0.42808780816435316 0.625713599613899
1.8072198635808465 0.2951381327649415 0.625896751719024 0.8861849790968818
2.4255991489612163 0.31539163029466666 0.9065185344672275 1.2036889841993224
3.2422819026001504 0.3608646792041565 1.287654275416501 1.593762947979492
4.563116909612312 0.5348915331754504 1.8584956067052878 2.1697297697315756
7.368329231090518 1.3943906559598125 2.768746877077007 3.2051916980536985
12.157380025880446 1.2019634131545454 5.386643601909243 5.568773010816658
7.368329231088779 1.3943906559561565 2.768746877078054 3.2051916980545725
4.563116909615671 0.5348915331789121 1.8584956067052225 2.1697297697315365
3.242281902590192 0.36086467919814685 1.2876542754145275 1.5937629479775202
2.4255991489605817 0.3153916302963301 0.9065185344661 1.2036889841981502
1.8072198635776675 0.29513813276434664 0.6258967517179141 0.8861849790954065
1.342217469060813 0.28841606128408004 0.4280878081636639 0.6257135996130693
0.9848909264252752 0.27736447713135315 0.2811859223868068 0.42634052690711555
0.7306413040559571 0.22862793152801447 0.1893808029795081 0.31263256954843427
0.5426958477676261 0.20184320691413085 0.12040619379597403 0.220446447057522
0.4215223069081846 0.2021409197145157 0.07660903068948384 0.1427723565041846
0.3453204491742747 0.2214196728965634 0.03596180092299609 0.08793897535471537
0.3094051078032901 0.25150415903720025 0.016377952220861608 0.04152299654522823
0.2745074675214015 0.25640039841248996 0.003040541934854655 0.015066527174056786
0.23479421442004322 0.2393217883168572 -0.0014589435576868534 -0.0030686303391270365
0.20061596281869065 0.20303782080357857 -0.0005115647892254786 -0.0019102931956624892
0.18260210258308715 0.18264812548901818 -5.7856547250309585e-06 -4.0237251206057855e-05
0.18334306570703265 0.18338767057827185 -3.009026470089872e-06 -4.1595844769073125e-05
0.19197629572009842 0.19211027650120782 -1.105474144691902e-05 -0.00012292603966245578
0.16466413138536004 0.1649528006541609 -1.8956592411583787e-05 -0.00026971267638928515
0.44732788655240835 0.4448636136039929 0.00016879079261789077 0.0022954821557975014
0.2986518480507498 0.298695276759145 -2.4699665670363174e-06 -4.095874182818501e-05
0.15634997901132022 0.15635404650446877 -3.861226354782416e-07 -3.6813705130687944e-06
0.19581926158083945 0.19578144232848294 3.3208299057517252e-06 3.449842245075539e-05
0.1962406361453889 0.19630404497756243 -5.183858251265439e-06 -5.822497392230191e-05
0.19704764257458782 0.1973446812983576 -4.2539322263142204e-05 -0.00025449940150662557
0.21544133909370083 0.21645834945115577 -0.00035711275639246915 -0.0006598976010624822
0.2574566638622765 0.2643045885562041 -0.001880465771480767 -0.004967458922446847
0.3202334282467877 0.3067059766377135 0.002440887684795034 0.011086563924279024
0.4316576454658818 0.37452794645985094 0.013265364703907597 0.043864334302123005
0.6581542064325845 0.4637226836863712 0.055415587357444486 0.13901593538876889
1.0692185441525015 0.5840221983607855 0.1720036446125094 0.3131927011792067
1.598593164278859 0.6726779051408122 0.3373435053506673 0.5885717537873789
2.274033993281623 0.7679689379414683 0.5826842136469633 0.923380841693191
3.113612359495968 0.8790596512837806 0.9133534754481977 1.3211992327639899
4.1105685198926665 1.0050801590894682 1.3245324554507634 1.7809559053524353
5.246104245408591 1.1450262515470593 1.8126629407528436 2.288415053108687
6.383170914926022 1.2904337672415283 2.312809187121735 2.7799279605627594
7.332319956278586 1.431857084189806 2.764099887710208 3.1363629843785743
7.6698348559966405 1.5115358493048834 2.9293171812960863 3.228981825395672
6.146676689065022 0.7813855787394334 2.612612423431511 2.7526786868940785
12.301024495999556 2.172727238695461 4.873344581520479 5.254952675783618
6.146676689069024 0.781385578740507 2.612612423433135 2.752678686895377
7.669834855994539 1.5115358493020086 2.92931718129642 3.2289818253961116
7.332319956276074 1.4318570841924678 2.7640998877075074 3.1363629843761
6.383170914917188 1.2904337672394035 2.312809187118321 2.779927960559467
5.2461042454016535 1.1450262515456657 1.8126629407501083 2.2884150531058784
4.1105685198864395 1.005080159087795 1.3245324554486477 1.7809559053499968
3.1136123594918925 0.8790596512843234 0.9133534754460437 1.3211992327615254
2.274033993275939 0.767968937941154 0.582684213644591 0.9233808416901936
1.5985931642735716 0.672677905140111 0.33734350534875307 0.5885717537847068
1.0692185441476396 0.5840221983598267 0.17200364461092665 0.31319270117688636
0.658154206430332 0.4637226836851846 0.05541558735707317 0.13901593538807402
0.43165764546491847 0.37452794645922693 0.01326536470381284 0.04386433430187858
0.3202334282461488 0.30670597663730736 0.0024408876847194943 0.011086563924121945
0.2574566638617617 0.26430458855562416 -0.0018804657714665773 -0.004967458922395959
0.21544133909323762 0.2164583494505941 -0.00035711275638089106 -0.0006598976009755954
0.19704764257427715 0.1973446812980423 -4.253932226239252e-05 -0.0002544994015027497
0.19624063614497506 0.19630404497716508 -5.1838582530454125e-06 -5.822497393700439e-05
0.19581926158051077 0.1957814423281398 3.320829906502604e-06 3.449842246442952e-05
0.15634997901120412 0.15635404650434476 -3.861226352988379e-07 -3.681370505393053e-06
0.29865184805001743 0.29869527675838586 -2.4699665649585164e-06 -4.095874180351584e-05
0.1926421527874832 0.1926421527874832 0.0 0.0
0.14256749884052433 0.1425589913893902 4.6505239045753023e-07 8.042398743661904e-06
0.19286788665343096 0.19288375480139636 -5.48872507590181e-07 -1.5319275457843716e-05
0.20566625692894808 0.20559238804563612 9.378505831877138e-06 6.44903774800859e-05
0.21499528915482571 0.21499194032534077 1.880758396695558e-05 -1.5458754482055404e-05
0.2463333791767828 0.2531467905096881 -0.00132836882607721 -0.005485042506828138
0.31330846423296166 0.3164035636174043 -0.0021450834405508366 -0.0009500159438916395
0.47412888442502044 0.44266289617954746 0.005582930385086576 0.025883057860386194
0.837157007175271 0.5765236767964067 0.07347141477915568 0.18716191559970904
1.4997004096699942 0.7283037342348224 0.2740934686477295 0.49730320678744167
2.402936438862294 0.8661162656169463 0.5904636091302727 0.9463565641150744
3.5331520177768794 1.0069343876322085 1.0433722428171148 1.4828453873275556
4.870130121838175 1.1558702651917607 1.6150382801301488 2.0992215765162654
6.463603660811329 1.3176296527372635 2.3302222400267785 2.815751768047284
8.393443312119691 1.5012899140821656 3.239299403885392 3.6528539941521316
10.64410884843499 1.6978485639307566 4.344271698739773 4.601988585764463
13.035557061715629 1.8988364563898619 5.546012106677962 5.590708498647807
15.184176942338436 2.1124214956689666 6.601643796876619 6.470111649792854
16.335926954843092 2.1783572727125686 7.22488138401714 6.9326882981133835
15.10781543810608 2.177905124179493 6.617518272495694 6.312392041430891
18.200720101669404 4.817438789343886 6.759524819026625 6.62375649329889
15.107815438107448 2.177905124178255 6.6175182724972235 6.312392041431967
16.335926954841742 2.17835727271125 7.224881384017099 6.932688298113392
15.184176942333782 2.112421495670998 6.6016437968728265 6.470111649789954
13.035557061707701 1.898836456392337 5.546012106672201 5.5907084986431625
10.644108848425564 1.6978485639309815 4.3442716987345715 4.601988585760018
8.393443312110552 1.5012899140823304 3.239299403880509 3.6528539941477076
6.4636036608022795 1.317629652735655 2.330222240023044 2.8157517680435813
4.870130121827692 1.1558702651903197 1.61503828012571 2.0992215765116637
3.5331520177675415 1.0069343876308412 1.0433722428133612 1.482845387323339
2.4029364388552046 0.8661162656169421 0.5904636091271724 0.9463565641110895
1.499700409664002 0.7283037342335972 0.27409346864571427 0.49730320678469153
0.837157007172437 0.5765236767957033 0.07347141477839678 0.187161915598337
0.4741288844235889 0.4426628961787362 0.005582930384905312 0.02588305785994743
0.31330846423209396 0.3164035636164231 -0.002145083440532846 -0.0009500159437963516
0.2463333791762707 0.25314679050910277 -0.001328368826049829 -0.005485042506782123
0.21499528915439586 0.21499194032489816 1.8807583966789853e-05 -1.545875446909572e-05
0.2056662569285842 0.20559238804511298 9.37850584574473e-06 6.449037762548625e-05
0.19286788665304774 0.1928837548010351 -5.488725100853382e-07 -1.5319275477234848e-05
0.14256749884029749 0.14255899138917147 4.6505239000204435e-07 8.042398736028437e-06
0.19264215278706193 0.19264215278706193 0.0 0.0
0.11857491495143288 0.11857491495143288 0.0 0.0
0.12364128090806363 0.12364294182953241 -9.533615641300818e-08 -1.565585312364224e-06
0.18344145968341302 0.18341099846861247 2.1056555596612594e-06 2.83555592408956e-05
0.21110643380325222 0.21121001301930498 -9.411308054237127e-06 -9.416790799852727e-05
0.2359754968641279 0.2373418910258449 -0.00022906499707955717 -0.0011373291646375153
0.28790716220756135 0.2884076661147043 -0.0006576106384326081 0.00015710673128978037
0.4176110870734773 0.41795026046399153 -0.0020888086164178336 0.001749635225903821
0.7585300883791296 0.5682774929300126 0.04887765531172933 0.14137494013738774
1.4696419980248185 0.7554833594493571 0.24542148809434158 0.46873715048111964
2.617504938235026 0.9431814151198801 0.6777069191314717 0.9966166039836744
4.017417001276789 1.0994417215348307 1.2318520362838485 1.6861232434581117
5.7282822838562 1.2627816061807808 1.985263508866875 2.4802371688085443
7.767400344220688 1.445432124533266 2.938050416263925 3.3839178034234982
10.21435355992883 1.6512738072440722 4.124335758367119 4.43874399431764
13.210091634548768 1.8875022936259516 5.641344605676165 5.681244735246651
16.701755085320634 2.13563316236563 7.451781992110307 7.1143399308447
20.608758159349417 2.3818161634895123 9.580091928121995 8.646850067737914
24.14407528862731 2.5409624343980397 11.531965867020794 10.071146987208483
26.080927558355874 2.5226809054924524 12.687493479308898 10.870753173554533
24.146898644235762 2.243928106715093 11.71971140055005 10.18325913697061
27.129232787070105 7.277727094881451 10.499922690226565 9.351583001962103
24.146898644237638 2.243928106715763 11.719711400550777 10.183259136971097
26.08092755834889 2.52268090548859 12.687493479307012 10.870753173553284
24.14407528861566 2.540962434395896 11.531965867015188 10.071146987204576
20.608758159333775 2.3818161634872808 9.580091928114191 8.646850067732295
16.701755085303258 2.1356331623630185 7.451781992101935 7.1143399308383
13.210091634535358 1.8875022936253194 5.641344605669099 5.681244735240941
10.21435355991525 1.6512738072420643 4.124335758360887 4.438743994312296
7.7674003442063135 1.445432124532836 2.938050416256658 3.3839178034168205
5.728282283842026 1.2627816061788932 1.985263508860707 2.4802371688024243
4.017417001264229 1.0994417215328225 1.2318520362787975 1.6861232434526086
2.6175049382263023 0.9431814151196662 0.6777069191275926 0.9966166039790416
1.4696419980194895 0.7554833594482656 0.24542148809259268 0.4687371504786319
0.7585300883765094 0.5682774929290487 0.04887765531117365 0.14137494013628712
0.41761108707225586 0.41795026046289296 -0.002088808616443884 0.0017496352258067034
0.2879071622068976 0.28840766611368573 -0.0006576106383939941 0.00015710673160581907
0.23597549686365044 0.23734189102523795 -0.00022906499706359823 -0.0011373291645239312
0.2111064338029977 0.21121001301906356 -9.411308056406171e-06 -9.416790800945496e-05
0.1834414596831348 0.1834109984683453 2.1056555587426653e-06 2.835555923076314e-05
0.12364128090786941 0.12364294182933716 -9.533615634106578e-08 -1.565585311427026e-06
0.11857491495119063 0.11857491495119063 0.0 0.0
0.06922571314141189 0.06922571314141189 0.0 0.0
0.10177327890070849 0.10177327890070849 0.0 0.0
0.1686414833119659 0.16863104248651695 6.169848764971448e-07 9.823840572470336e-06
0.21296406546057267 0.21285269142718527 1.3179812487613017e-05 9.81942208997839e-05
0.25881365499153164 0.2596681940366756 -0.00013442534737851904 -0.0007201136977654559
0.3453306837738034 0.35930732828946693 -0.00333746867734194 -0.01063917583832166
0.5855271370891129 0.5087593174250747 0.01674354750394709 0.06002427216009111
1.1748800628574063 0.7077739729841825 0.14968014882420425 0.3174259410490201
2.296992317555967 0.9299702347886958 0.545642412717371 0.8213796700499002
3.7785562751856165 1.1077530697804538 1.104107505213561 1.5666957001916015
5.742672822610628 1.2948171272174336 1.9785329140105972 2.469322781382596
8.07385780550563 1.4885268470088244 3.075675972660638 3.5096549858361685
10.856252311320572 1.708481504447286 4.440299195494003 4.707471611379285
14.236121145630861 1.9651082905769948 6.160617897743775 6.1103949573100955
18.336165285433914 2.2588929445892294 8.307544959655521 7.769727381189178
23.305616615739737 2.5776027556167325 11.035412571211682 9.692601288911318
28.575856555744316 2.837835823280239 13.948412480848091 11.789608251616002
33.570802645962196 2.914453210412443 16.946044573317273 13.710304862232476
36.23239381810924 2.6913338725809286 18.73029457709376 14.810765368434566
33.63382981999101 2.313178821784027 17.370497365631532 13.950153632575446
36.89327828027781 9.638318920713292 14.873625032783107 12.381334326781417
33.63382981999661 2.3131788217871745 17.370497365633078 13.950153632576358
36.2323938181029 2.6913338725817164 18.730294577089374 14.810765368431817
33.5708026459482 2.9144532104111995 16.94604457330948 13.710304862227517
28.575856555723526 2.837835823277717 13.948412480837193 11.789608251608616
23.305616615723054 2.577602755618849 11.035412571200673 9.692601288903527
18.33616528541318 2.2588929445858685 8.307544959645625 7.769727381181678
14.236121145611857 1.9651082905742394 6.16061789773472 6.110394957302897
10.856252311303198 1.7084815044478399 4.440299195484312 4.707471611371045
8.073857805488771 1.4885268470081332 3.075675972652267 3.50965498582837
5.742672822595386 1.2948171272169682 1.978532914003305 2.4693227813751117
3.7785562751742727 1.1077530697800562 1.1041075052084495 1.5666957001857673
2.296992317547653 0.929970234787074 0.5456424127143322 0.8213796700462472
1.174880062852771 0.7077739729827599 0.14968014882293515 0.3174259410470768
0.5855271370869156 0.508759317424007 0.016743547503571116 0.060024272159337276
0.3453306837731119 0.3593073282884577 -0.003337468677261824 -0.01063917583808388
0.25881365499099046 0.259668194036134 -0.00013442534738054336 -0.0007201136977629432
0.21296406546018906 0.2128526914267866 1.317981248862739e-05 9.819422091388097e-05
0.1686414833117971 0.16863104248635308 6.169848761276928e-07 9.823840567913113e-06
0.10177327890065929 0.10177327890065929 0.0 0.0
0.06922571314122442 0.06922571314122442 0.0 0.0
0.038056953346414374 0.038056953346414374 0.0 0.0
0.07949367616982922 0.07949367616982922 0.0 0.0
0.15022349758095424 0.15021878389582566 2.7264122338958563e-07 4.441043905202767e-06
0.21237170841644248 0.2123608232286945 2.7243248821822685e-06 8.160862865767281e-06
0.2832401419961291 0.2829019485899185 2.6750821444770538e-05 0.0003114425847658036
0.4291487645966737 0.4323634385999882 -0.001966538114978973 -0.0012481358883355085
0.8260877621720085 0.6149916161968587 0.0600783606209511 0.15101778535419846
1.7286784057624645 0.8536842368286648 0.33326231032630954 0.5417318586074907
3.1143514459240156 1.056152206236175 0.8214776497131474 1.2367215899746935
5.098117455034869 1.2683837835068366 1.6719521363851677 2.1577815351428637
7.554889726010975 1.477229831299979 2.8101660094371956 3.267493885273802
10.528835861398314 1.7047739463801843 4.265346210749355 4.558715704268773
14.117463090965385 1.968845452465432 6.093151797746769 6.055465840753186
18.50892401530747 2.2790755018835167 8.416518266261066 7.813330247162886
23.80677314057933 2.64643411562706 11.270484585136579 9.889854439815684
30.087163962972966 3.0269718156007013 14.758191274238984 12.30200087313328
37.1250645446182 3.3018876588391333 18.901910724092534 14.921266161686525
43.3494022036 3.252589671292866 22.744691868052527 17.35212066425462
46.41134290413711 2.7729505053039794 24.911822035363866 18.726570363469243
43.356627635917974 2.4137855175961436 23.28120186775989 17.661640250561945
47.54236058242485 12.084455018430459 19.902417750248482 15.555487813745911
43.356627635905234 2.4137855175852674 23.281201867758696 17.66164025056127
46.4113429041302 2.772950505306256 24.911822035358178 18.726570363465765
43.34940220358248 3.25258967129117 22.744691868042707 17.352120664248616
37.125064544595055 3.3018876588390027 18.901910724078377 14.92126616167768
30.087163962945095 3.0269718155956946 14.758191274225283 12.302000873124115
23.806773140555883 2.646434115626674 11.270484585123059 9.889854439806149
18.50892401528355 2.2790755018819757 8.4165182662483 7.8133302471532815
14.117463090943001 1.9688454524649395 6.09315179773465 6.055465840743412
10.528835861376361 1.704773946378118 4.265346210738691 4.558715704259556
7.554889725992181 1.4772298312996643 2.8101660094276832 3.26749388526483
5.09811745502072 1.2683837835054794 1.6719521363789145 2.157781535136327
3.1143514459140946 1.0561522062345643 0.8214776497095083 1.236721589970022
1.7286784057556388 0.8536842368273063 0.3332623103239415 0.5417318586043903
0.8260877621688221 0.614991616195996 0.06007836062013798 0.15101778535268817
0.42914876459568824 0.43236343859899484 -0.0019665381149729733 -0.001248135888333612
0.28324014199579617 0.28290194858941503 2.6750821461355613e-05 0.00031144258491979206
0.2123717084160379 0.21236082322827907 2.7243248828526515e-06 8.160862875989513e-06
0.15022349758069575 0.15021878389556909 2.726412232514537e-07 4.441043903424872e-06
0.0794936761697612 0.0794936761697612 0.0 0.0
0.03805695334631667 0.03805695334631667 0.0 0.0
0.01964550141921367 0.01964550141921367 0.0 0.0
0.058918855670182846 0.058918855670182846 0.0 0.0
0.1304334283915741 0.1304334283915741 0.0 0.0
0.21093186157682653 0.21086174838234303 6.621431030877323e-06 6.349176345261992e-05
0.31527672866034984 0.32203421043881497 -0.0013538669478096207 -0.0054036148306554985
0.5446462531065249 0.48935357957881565 0.010926675121091758 0.044365998406617396
1.1577078756364272 0.733803797049855 0.14952070704762205 0.2743833715389501
2.2923875023128444 0.9596937905080498 0.5046307361352538 0.8280629756695411
4.069393908971298 1.187788880683012 1.213306129070795 1.6682988992174919
6.452846985894317 1.4163766251054266 2.2764346336005725 2.760035727188319
9.448741764479328 1.6553743503090947 3.715230772385789 4.078136641784443
13.107877693905237 1.9222113929998186 5.563561342710327 5.622104958195092
17.572559694935517 2.2358269032528857 7.91253818370696 7.424194607975664
22.898357037344546 2.6050451301399224 10.749132182982754 9.544179724221866
29.475971572635594 3.033530598504159 14.409007934086091 12.033433040045342
37.25848421826817 3.4899720715160227 18.857155233268013 14.911356913484141
45.65887705219518 3.7787019821901486 23.83488505667751 18.04529001332753
53.17588079456595 3.5666147010685525 28.678231570609363 20.931034522888037
56.894523843995465 2.8317399158906 31.500047679864807 22.56273624824008
53.44708344289726 2.5108835397597113 29.52261184289955 21.41358806023799
58.81122430809269 14.607911500117192 25.272879969285274 18.930432838690223
53.447083442895675 2.5108835397643747 29.522611842895618 21.413588060235668
56.894523843979016 2.8317399158869003 31.50004767985667 22.562736248235435
53.175880794543346 3.5666147010658023 28.678231570596775 20.93103452288076
45.658877052169814 3.778701982190626 23.834885056661456 18.045290013317743
37.25848421823779 3.4899720715148526 18.857155233250143 14.911356913472805
29.475971572607655 3.0335305985029217 14.409007934070118 12.033433040034613
22.89835703731685 2.6050451301408706 10.74913218296603 9.544179724209956
17.57255969490873 2.235826903252397 7.91253818369206 7.424194607964276
13.107877693879212 1.922211392999105 5.563561342696434 5.622104958183674
9.448741764457857 1.6553743503089937 3.71523077237451 4.078136641774348
6.452846985876523 1.4163766251029255 2.2764346335928902 2.7600357271807066
4.06939390895829 1.1877888806809402 1.213306129065773 1.6682988992115775
2.292387502304373 0.9596937905068914 0.5046307361320721 0.828062975665409
1.1577078756319807 0.7338037970485213 0.14952070704638093 0.2743833715370779
0.5446462531046666 0.4893535795774943 0.010926675120904991 0.0443659984062674
0.31527672865997725 0.3220342104384135 -0.0013538669477937703 -0.005403614830642521
0.21093186157655552 0.2108617483820662 6.621431031299077e-06 6.349176345799819e-05
0.13043342839133654 0.13043342839133654 0.0 0.0
0.058918855670165304 0.058918855670165304 0.0 0.0
0.019645501419160927 0.019645501419160927 0.0 0.0
0.009654779484927253 0.009654779484927253 0.0 0.0
0.04161248587646954 0.04161248587646954 0.0 0.0
0.11157108044131442 0.11157108044131442 0.0 0.0
0.21156782117602543 0.21157627819882158 -2.0646837159399442e-06 -6.392339080233695e-06
0.3604123416976502 0.3678003839185368 -0.0019068138315794904 -0.005481228389307166
0.7109094757714179 0.5838686487989077 0.03628905810583481 0.09075176886667576
1.526274271635884 0.8284543336241045 0.24636022366850782 0.45145971434327226
2.9420220782426787 1.062195267868053 0.7474804621526365 1.1323463482219875
5.04927755228209 1.3077203961991568 1.6294598736026549 2.1120972824802804
7.867745256172919 1.5602464392890014 2.9355651068962647 3.371933709987653
11.404884329577497 1.8315395757649136 4.674790926997282 4.898553826815304
15.781759719938222 2.1443086139054097 6.938203932100562 6.699247173932246
21.0519285518462 2.510847966799586 9.727265730272613 8.813814854774005
27.59288847520771 2.942105159953753 13.356394364381153 11.29438895087281
35.34526124315703 3.433137581496227 17.71241122311331 14.199712438547486
44.380991231764895 3.933078567151834 22.93023206176887 17.5176806028442
54.27962079205818 4.247273827093332 28.94445278760684 21.087894177358002
63.08882294603271 3.917718020324517 34.7549857436746 24.416119182033604
67.57633169473836 2.904650187756854 38.275321146386126 26.396360360595388
64.10103483729999 2.562546191127833 36.28050930754207 25.25797933863008
71.13399208842928 17.159087392201936 31.44867940167909 22.526225294548237
64.10103483729196 2.5625461911252927 36.280509307538495 25.257979338628175
67.57633169472197 2.9046501877572646 38.27532114637529 26.39636036058942
63.08882294600106 3.9177180203201987 34.75498574365703 24.416119182023813
54.27962079202381 4.247273827089715 28.944452787587426 21.087894177346683
44.38099123173247 3.9330785671518327 22.930232061748708 17.517680602831927
35.345261243120454 3.4331375814904947 17.71241122309456 14.199712438535412
27.59288847517744 2.942105159955916 13.35639436436185 11.29438895085966
21.051928551813372 2.5108479667975976 9.72726573025477 8.813814854761016
15.781759719909411 2.1443086139057383 6.938203932084292 6.699247173919379
11.404884329552521 1.8315395757635864 4.67479092698453 4.898553826804408
7.867745256152304 1.5602464392867714 2.9355651068867448 3.3719337099787876
5.049277552267192 1.307720396198095 1.6294598735959498 2.112097282473144
2.9420220782327613 1.0621952678666164 0.7474804621491031 1.132346348217042
1.5262742716301083 0.8284543336224575 0.2463602236668084 0.45145971434084314
0.7109094757689868 0.5838686487977024 0.03628905810540749 0.09075176886587669
0.3604123416968852 0.3678003839175674 -0.0019068138315428708 -0.005481228389139446
0.21156782117571893 0.21157627819853156 -2.0646837193263383e-06 -6.392339093242131e-06
0.11157108044112465 0.11157108044112465 0.0 0.0
0.04161248587641336 0.04161248587641336 0.0 0.0
0.009654779484922047 0.009654779484922047 0.0 0.0
0.004715600934118118 0.004715600934118118 0.0 0.0
0.02844264104245161 0.02844264104245161 0.0 0.0
0.09612688932627085 0.09612688932627085 0.0 0.0
0.2184283708388714 0.2184558860244754 -2.1316268488690114e-06 -2.538355875508836e-05
0.42582542585957556 0.41479988459489603 0.0015628099024486376 0.009462731362231011
0.9315705653238623 0.6769589108086216 0.08381415129186641 0.17079750322337417
1.9379534636539455 0.9041606128285143 0.37414042388099705 0.6596524269444339
3.6331722210552595 1.1596689227237222 1.0231588620267156 1.450344436304822
6.0630258280921066 1.421206390462452 2.0774523429806266 2.5643670946490285
9.319589272886532 1.7001090046138523 3.6279511265328193 3.9915291417398597
13.446282754479821 2.011200723400515 5.707886930298785 5.72719510078052
18.515904595051822 2.3702818312979907 8.356444328778107 7.789178434975725
24.810824623652174 2.8003606217407033 11.794786189736051 10.215677812175414
32.30221401465336 3.2993115618835716 15.927899369112323 13.07500308365747
41.3379962580166 3.8334043423524284 21.12059117422804 16.38400074143614
51.692997384179854 4.333124742626577 27.2599549233314 20.099917718221867
62.791432398240296 4.656717872702615 34.088393054884904 24.046321470652796
72.94287589475769 4.39087752040787 40.78908461047013 27.762913763879723
78.48361576944505 3.0374221249858184 45.30006549188077 30.146128152578445
75.42983730882833 2.4938891394240796 43.67544171146949 29.26050645793472
84.59630787215822 19.590791590139286 38.498984604897814 26.50653167712114
75.42983730881153 2.493889139416069 43.675441711463804 29.26050645793166
78.48361576941927 3.0374221249821387 45.30006549186641 30.146128152570746
72.94287589473201 4.390877520414047 40.78908461044948 27.762913763868493
62.79143239820379 4.656717872702837 34.088393054861356 24.046321470639622
51.69299738413809 4.3331247426222985 27.25995492330784 20.09991771820795
41.33799625797517 3.83340434234761 21.1205911742054 16.384000741422128
32.30221401461534 3.299311561880599 15.92789936909119 13.075003083643555
24.81082462361539 2.8003606217400723 11.794786189714781 10.215677812160534
18.515904595017684 2.3702818312960696 8.356444328759679 7.789178434961938
13.446282754451095 2.011200723398661 5.707886930284058 5.727195100768375
9.319589272863446 1.700109004610972 3.6279511265222157 3.991529141730257
6.063025828074881 1.4212063904613488 2.0774523429726637 2.564367094640869
3.6331722210431696 1.1596689227218149 1.0231588620220715 1.4503444362992826
1.9379534636470879 0.9041606128271908 0.3741404238789371 0.659652426940959
0.9315705653207345 0.6769589108073794 0.08381415129117423 0.17079750322218076
0.4258254258586477 0.41479988459408484 0.0015628099024065597 0.00946273136215639
0.21842837083854838 0.21845588602414096 -2.1316268480825383e-06 -2.538355874447839e-05
0.09612688932613382 0.09612688932613382 0.0 0.0
0.028442641042396844 0.028442641042396844 0.0 0.0
0.004715600934098911 0.004715600934098911 0.0 0.0
0.00223819241427671 0.00223819241427671 0.0 0.0
0.01938461303098346 0.01938461303098346 0.0 0.0
0.0873727054531881 0.0873727054531881 0.0 0.0
0.2381527682774159 0.23839148115848396 -4.4828877648168e-05 -0.00019388400341990904
0.5294256086545086 0.4905948927262453 0.010617067931575625 0.028213647996687633
1.1868443411768945 0.7536144538667748 0.14498364039770706 0.2882462469124123
2.4058173884049516 0.9873664158100379 0.5422996792072553 0.8761512933876587
4.346157541756745 1.2506298147159827 1.316916220560876 1.7786115064798862
7.119389018596948 1.5305453891577023 2.5661256951595908 3.0227179342796533
10.806246649502414 1.8388946310082972 4.350928549440418 4.616423469053696
15.517752435189804 2.190959583055589 6.762254509350193 6.5645383427840205
21.42116108356223 2.607279359795429 9.925468166032372 8.888413557734427
28.521303369686315 3.1015520474708147 13.778301728326113 11.641449593889396
37.23909443526079 3.6633546492328746 18.70847504580509 14.867264740222824
47.52822964618571 4.245435875847171 24.703590596548803 18.579203173789733
59.09500138680393 4.721708162808838 31.693246643648205 22.680046580346893
71.14692894604985 4.934809312457972 39.30024536765291 26.91187426593897
82.36891789806216 4.803564714056992 46.700590558897375 30.86476262510775
89.56193942370716 3.6042167436552215 52.2188813524508 33.73884132760111
87.47880868754217 2.1539460550873883 51.82570724594046 33.49915538651437
99.15381571347051 20.931763368814067 47.12834401797055 31.093708326685896
87.47880868752632 2.153946055083968 51.825707245932264 33.49915538651006
89.5619394236827 3.604216743657096 52.2188813524335 33.73884132759213
82.36891789802085 4.803564714053945 46.700590558872335 30.864762625094592
71.14692894600597 4.934809312456752 39.300245367625486 26.911874265923732
59.09500138676196 4.7217081628096835 31.693246643620927 22.680046580331346
47.528229646140254 4.2454358758453985 24.703590596521515 18.57920317377334
37.23909443521701 3.663354649228569 18.708475045780943 14.867264740207487
28.521303369644727 3.101552047469729 13.778301728301933 11.641449593873066
21.421161083523835 2.6072793597938513 9.925468166011054 8.88841355771893
15.517752435157279 2.1909595830531705 6.762254509333291 6.564538342770829
10.806246649476263 1.8388946310048433 4.3509285494282395 4.616423469043179
7.119389018577426 1.5305453891561525 2.5661256951504834 3.0227179342707906
4.3461575417431595 1.250629814715216 1.3169162205548577 1.778611506473088
2.4058173883970553 0.9873664158089631 0.5422996792044242 0.8761512933836683
1.1868443411726017 0.753614453865468 0.14498364039653985 0.28824624691059353
0.5294256086530313 0.49059489272529916 0.010617067931395753 0.028213647996336605
0.23815276827703666 0.23839148115797945 -4.482887763763589e-05 -0.00019388400330524073
0.087372705453031 0.087372705453031 0.0 0.0
0.019384613030960784 0.019384613030960784 0.0 0.0
0.002238192414267735 0.002238192414267735 0.0 0.0
0.0006061122710846891 0.0006061122710846891 0.0 0.0
0.013874127366665268 0.013874127366665268 0.0 0.0
0.08990621106247934 0.08990621106247934 0.0 0.0
0.28256059209939355 0.28332239682982946 -0.00015126991025206032 -0.0006105348201837746
0.6830109935338594 0.5968226004253991 0.027736649212732948 0.05845174389572723
1.503410889464806 0.8930311971992548 0.21497920869083711 0.3954004835747142
2.925009991093834 1.180184186477158 0.688249153283745 1.056576651332931
5.133892058582992 1.5335749115544242 1.5640688211946885 2.036248325833877
8.263011376290065 1.945788750066013 2.939178425341433 3.3780442008826252
12.481106618599448 2.451955664438259 4.931318016734186 5.0978329374269995
17.930326558063683 3.094140332065087 7.629198744296367 7.2069874817022335
24.686978124095518 3.9064032885318447 11.043336488708526 9.737238346855149
33.04744490024444 4.895306179492262 15.419327822417621 12.73281089833456
43.16693896575086 6.053328735981671 20.87715985282133 16.236450376947865
54.984059133399576 7.24425157558788 27.502597409723343 20.237210148088323
67.97231936918035 8.19263055705986 35.175900215939315 24.603788596181165
80.93524050672418 8.546074118932228 43.32921213114168 29.05995425665028
92.23047524134122 8.100862307040453 51.01861850436288 33.110994429937975
100.47443721954028 7.373317010807675 56.94675130462793 36.15436890410467
97.35229336471397 2.1626848265376686 58.2797910380959 36.90981750008035
142.65178678311793 51.31817584110159 55.832235335664194 35.501375606352156
97.3522933646942 2.1626848265323924 58.27979103808626 36.90981750007553
100.47443721950384 7.373317010799713 56.94675130460902 36.154368904095094
92.23047524130848 8.100862307054753 51.018618504332125 33.110994429921654
80.93524050667703 8.546074118932587 43.32921213111065 29.059954256633763
67.97231936912519 8.192630557050094 35.17590021591025 24.603788596164804
54.98405913335118 7.244251575588424 27.50259740969262 20.23721014807014
43.166938965698925 6.053328735973615 20.877159852794264 16.236450376931067
33.04744490019529 4.895306179486256 15.419327822391665 12.732810898317354
24.686978124053333 3.90640328853016 11.043336488684783 9.737238346838382
17.93032655802518 3.0941403320587897 7.629198744278103 7.206987481688284
12.481106618570458 2.451955664435152 4.931318016720022 5.097832937415283
8.263011376267865 1.9457887500637634 2.939178425331087 3.378044200873017
5.1338920585684775 1.5335749115547412 1.5640688211875413 2.036248325826193
2.925009991084604 1.1801841864752527 0.6882491532805977 1.0565766513287542
1.5034108894597673 0.8930311971978068 0.21497920868956272 0.3954004835723983
0.6830109935319868 0.5968226004243871 0.027736649212434187 0.05845174389516533
0.28256059209900225 0.28332239682946003 -0.00015126991024940492 -0.0006105348202083416
0.08990621106236223 0.08990621106236223 0.0 0.0
0.013874127366607182 0.013874127366607182 0.0 0.0
0.0006061122710771113 0.0006061122710771113 0.0 0.0
CELL_DATA 800
SCALARS Stress float 6
LOOKUP_TABLE default
149.0364507997743 -504.46281040792616 -183.51657979399963 -106.12001851990048 0.0 0.0
394.24531644744644 -26.972833174196154 118.22176303861062 59.94297935814271 0.0 0.0
381.90240870562593 6.201447044164654 116.23497072003245 -5.270228248571836 0.0 0.0
443.33795887671783 -7.1197309650355365 132.79390475482973 -12.996106587996499 0.0 0.0
515.4253642971353 -12.241917498400174 173.00654203839932 -11.066160457481534 0.0 0.0
583.6714547305093 -3.951494059791628 238.45300253189077 -9.427915677947109 0.0 0.0
649.4121421379798 4.3353408980474235 300.1206375868678 -9.422826965950815 0.0 0.0
714.9797708704095 20.81080824982753 355.5822371647653 -10.325904008690948 0.0 0.0
781.3054990374541 43.53108528341909 406.37692133762846 -11.473018997027154 0.0 0.0
848.7782069631191 71.41147868518703 456.37678330980884 -12.32273927165296 0.0 0.0
917.0113357963971 102.7855943701167 507.03089753182087 -12.719686612011941 0.0 0.0
985.5505875482054 137.273689487112 558.9364551869669 -12.66122118881242 0.0 0.0
1054.5769171241973 173.2001449748273 611.6312342809063 -12.461738138031937 0.0 0.0
1124.7233658534465 211.11351983361652 665.7878668066057 -12.230820314716473 0.0 0.0
1196.7220320145636 252.2010208475468 722.4123324236056 -11.90898970439152 0.0 0.0
1270.0837054141473 296.61306970706323 781.355676070918 -11.333716713099681 0.0 0.0
1342.5033016464022 343.14648264347863 840.8749558069696 -10.30067926885972 0.0 0.0
1410.2905555804482 389.3008892200366 897.8552416562197 -8.72611092263943 0.0 0.0
1469.3503810751586 432.19890167622117 948.7740759515565 -7.189672100652571 0.0 0.0
1530.916113966673 484.98256881809795 1005.445591151755 -8.39872802017997 0.0 0.0
1530.91611396629 484.98256881772363 1005.4455911514129 8.398728020177469 0.0 0.0
1469.350381074795 432.19890167589045 948.7740759512037 7.1896721007368045 0.0 0.0
1410.2905555792402 389.30088921887693 897.8552416552902 8.7261109226848 0.0 0.0
1342.503301645379 343.1464826425311 840.8749558061393 10.300679268844743 0.0 0.0
1270.0837054139529 296.6130697069559 781.3556760707221 11.333716713090475 0.0 0.0
1196.7220320136407 252.20102084673275 722.4123324229367 11.908989704389917 0.0 0.0
1124.723365853234 211.1135198335391 665.7878668064083 12.230820314796585 0.0 0.0
1054.5769171237628 173.20014497455108 611.6312342805485 12.461738138075996 0.0 0.0
985.5505875477668 137.2736894868607 558.9364551866304 12.661221188809993 0.0 0.0
917.0113357966014 102.78559437053221 507.0308975319184 12.719686612006825 0.0 0.0
848.7782069634577 71.41147868575678 456.37678330995794 12.322739271651571 0.0 0.0
781.3054990374159 43.53108528360711 406.37692133751614 11.47301899709571 0.0 0.0
714.9797708696979 20.810808249335516 355.58223716425056 10.32590400865194 0.0 0.0
649.4121421373804 4.335340897669724 300.1206375864031 9.422826965869525 0.0 0.0
583.6714547303326 -3.9514940596869863 238.4530025316697 9.427915677938525 0.0 0.0
515.4253642969137 -12.241917498349686 173.0065420382336 11.066160457439294 0.0 0.0
443.337958876313 -7.119730965187591 132.7939047546633 12.996106587934024 0.0 0.0
381.9024087055109 6.201447043983748 116.23497071994674 5.270228248545485 0.0 0.0
394.2453164473595 -26.972833174164624 118.22176303855686 -59.942979358097475 0.0 0.0
149.03645080025123 -504.46281040744407 -183.51657979350955 106.12001851957417 0.0 0.0
53.590921793654985 -534.0277288048078 -238.90692376156773 -147.7411818501974 0.0 0.0
242.33484688025973 -13.066445916257742 68.78052028920058 13.010048474898507 0.0 0.0
335.18602337930935 22.38004741163185 107.26933111095443 -10.382794039623176 0.0 0.0
402.8841412811253 -4.567373095392089 119.62082949927898 -32.52263202670141 0.0 0.0
485.26813341011535 -13.62199187478018 153.05275234164577 -31.64150755191252 0.0 0.0
558.4830258501147 -5.507141906069476 216.3161718423505 -28.053007014104825 0.0 0.0
628.6111772638019 2.5130536440384503 281.7928098484595 -28.37594559323786 0.0 0.0
695.1843765406009 18.0353701802554 340.3480745771937 -29.758045363676413 0.0 0.0
760.3888885911782 39.20488632313356 391.84877171073737 -31.463254503295712 0.0 0.0
825.2986680615337 64.76658099239287 440.3857035759808 -32.54458469373916 0.0 0.0
889.8928285924189 93.17776667388651 488.1808779187078 -32.656972039174356 0.0 0.0
954.1949082673492 123.15050673231171 535.898581092805 -32.05053016167212 0.0 0.0
1018.3714350995065 155.09607932352577 584.256709047969 -31.178625036919186 0.0 0.0
1083.7002851077093 188.90024365756858 633.9963371489654 -30.32161541274123 0.0 0.0
1150.6165045671082 225.2987075733418 685.7678276453985 -29.343552129816082 0.0 0.0
1218.5612521189 264.6022338264744 739.4765821584225 -27.83257372419202 0.0 0.0
1285.7634487417938 306.0029612081896 793.8358140999625 -25.43346778991377 0.0 0.0
1349.6752397664793 348.14937257659005 846.8668644608842 -22.159405218772232 0.0 0.0
1410.614464089382 392.86041132824425 899.5248768028708 -18.712188847648147 0.0 0.0
1453.924510688737 426.91066068355565 938.0055420375272 -14.235064423423388 0.0 0.0
1453.9245106890714 426.9106606839089 938.0055420378634 14.235064423503488 0.0 0.0
1410.6144640894831 392.86041132838864 899.5248768030243 18.71218884776092 0.0 0.0
1349.6752397669134 348.1493725770857 846.8668644611373 22.15940521887138 0.0 0.0
1285.7634487414475 306.00296120792643 793.8358140995982 25.43346778996034 0.0 0.0
1218.5612521186265 264.60223382628146 739.4765821581408 27.832573724139497 0.0 0.0
1150.6165045670225 225.29870757337346 685.7678276453006 29.343552129831732 0.0 0.0
1083.7002851075188 188.90024365750628 633.996337148793 30.321615412780254 0.0 0.0
1018.3714350989999 155.09607932318747 584.2567090475469 31.178625036987263 0.0 0.0
954.1949082671651 123.15050673229979 535.8985810926167 32.05053016162441 0.0 0.0
889.8928285925974 93.1777666742787 488.1808779187326 32.65697203917825 0.0 0.0
825.298668061353 64.76658099241196 440.38570357580346 32.54458469366107 0.0 0.0
760.3888885909219 39.204886323111964 391.8487717105575 31.463254503366592 0.0 0.0
695.1843765400566 18.03537017994855 340.3480745767806 29.75804536366431 0.0 0.0
628.6111772634523 2.5130536439578393 281.792809848126 28.375945593262465 0.0 0.0
558.483025849911 -5.507141905976187 216.31617184212607 28.05300701411023 0.0 0.0
485.2681334101089 -13.621991874379612 153.0527523416663 31.64150755196375 0.0 0.0
402.884141281069 -4.5673730949563165 119.62082949939537 32.52263202666864 0.0 0.0
335.18602337931543 22.38004741173352 107.26933111098714 10.382794039601613 0.0 0.0
242.33484688047386 -13.066445915848755 68.78052028938752 -13.010048475058637 0.0 0.0
53.590921793992294 -534.0277288044474 -238.90692376119773 147.74118184995288 0.0 0.0
9.02211908777744 -534.955624728769 -252.53267363677858 -161.6120735319732 0.0 0.0
141.33876288270565 -13.502866769250577 38.350768834036515 -39.030479547977976 0.0 0.0
272.9857820756059 27.55013475297396 90.16077504857397 -31.313106078044544 0.0 0.0
356.7427530484016 1.9267468774649892 107.62174362778168 -50.90507344172148 0.0 0.0
445.2126842996929 -11.424952352175614 134.84691403550846 -54.22963341694468 0.0 0.0
530.5423571228698 -9.85358082593006 190.49306515774333 -49.092177295251474 0.0 0.0
603.4083767859725 1.6544178787674788 260.18835238888505 -47.62715598043152 0.0 0.0
670.8924016686461 15.234779929680421 321.43924916574065 -49.17345660742087 0.0 0.0
735.6965458794085 34.93883586888132 374.6353829954818 -51.09176505970439 0.0 0.0
798.1820100163234 57.98572173172315 422.115084825802 -52.15491068555774 0.0 0.0
859.164668502098 82.97124064596136 467.02950508175917 -51.93232287720865 0.0 0.0
918.9659958643422 109.32580737980359 510.96633259880156 -50.755144368665064 0.0 0.0
978.8852987002463 136.7412039253147 555.0594958622162 -49.39400036200896 0.0 0.0
1039.3221287201168 166.33403569123976 600.3220941427196 -47.986466480505044 0.0 0.0
1100.9245213542981 197.92002356500504 647.0711317580772 -46.394923268354475 0.0 0.0
1163.3746389491641 231.82879730934604 695.3651029745378 -44.09450273671794 0.0 0.0
1225.4251541934705 267.95106104466277 744.5247769721336 -40.630896664432115 0.0 0.0
1286.6213744439178 307.10031574185683 794.678860435584 -35.983371967922395 0.0 0.0
1342.3161877608004 345.99588576391005 841.857733341994 -29.69815754004187 0.0 0.0
1380.0809559896325 373.52864626033136 874.3646901692307 -19.53171866982612 0.0 0.0
1380.0809559904383 373.5286462611522 874.3646901697529 19.53171866988083 0.0 0.0
1342.3161877612895 345.99588576445433 841.8577333423043 29.698157540165425 0.0 0.0
1286.6213744443075 307.10031574232494 794.6788604358413 35.983371968105615 0.0 0.0
1225.4251541938486 267.95106104512615 744.5247769723844 40.63089666447851 0.0 0.0
1163.3746389493037 231.82879730958095 695.3651029745602 44.09450273672795 0.0 0.0
1100.9245213539618 197.92002356477803 647.071131757792 46.39492326836639 0.0 0.0
1039.322128719985 166.33403569124653 600.3220941425684 47.98646648058013 0.0 0.0
978.8852986997633 136.74120392499998 555.0594958618552 49.39400036209538 0.0 0.0
918.9659958638314 109.32580737946859 510.96633259841354 50.75514436868103 0.0 0.0
859.1646685013544 82.97124064539118 467.0295050812555 51.932322877172496 0.0 0.0
798.1820100153734 57.98572173093261 422.11508482513256 52.15491068541856 0.0 0.0
735.6965458789011 34.93883586857485 374.6353829951019 51.091765059637254 0.0 0.0
670.8924016681152 15.234779929371918 321.4392491653154 49.17345660735573 0.0 0.0
603.4083767854081 1.6544178784544172 260.18835238842115 47.62715598039831 0.0 0.0
530.5423571224401 -9.85358082610066 190.4930651574053 49.09217729519327 0.0 0.0
445.21268429927346 -11.424952352340124 134.8469140353048 54.22963341690203 0.0 0.0
356.7427530481407 1.9267468774247805 107.62174362770288 50.90507344158465 0.0 0.0
272.98578207546757 27.550134752756048 90.16077504846706 31.313106077939928 0.0 0.0
141.3387628828994 -13.50286676894793 38.35076883418543 39.0304795478029 0.0 0.0
9.022119088024553 -534.9556247284413 -252.5326736364365 161.61207353177278 0.0 0.0
-6.873551197588398 -518.0656804018216 -241.8735463617869 -164.2023232628128 0.0 0.0
83.70782339600431 -20.31649048510225 19.01739987327062 -83.14268929943137 0.0 0.0
213.56217633770905 27.174383800655498 72.22096804150935 -59.0181037532436 0.0 0.0
306.9389097571825 6.828484141879473 94.12215335309973 -70.75876808171223 0.0 0.0
395.5851033264148 -8.174455567343704 117.50972341130692 -77.98576617167285 0.0 0.0
489.81394622703993 -11.68354915005114 163.7801590366443 -72.34584351911991 0.0 0.0
570.7421771873842 -0.9889109985514182 232.57085335190536 -67.84776962571242 0.0 0.0
641.8208872336653 13.079206156968592 298.6616059466856 -68.77725549884005 0.0 0.0
706.2282275082284 30.501927516870953 353.674001102715 -70.35557265014076 0.0 0.0
766.6028221686583 50.928445083331404 400.7794901407072 -71.17743633894652 0.0 0.0
824.2216008619412 72.61009421164366 443.35955589568005 -70.54888679843845 0.0 0.0
880.1828800895867 95.16958008310942 483.92290817206276 -68.88619726246532 0.0 0.0
935.2802628021067 118.51434237125696 523.7689116409383 -67.03814451622002 0.0 0.0
991.2309832229319 143.60379478938938 564.6517465855767 -65.23653724130173 0.0 0.0
1047.6733197918215 170.11892092067154 606.350997537404 -63.1275327374206 0.0 0.0
1104.138891129413 198.58433539543543 648.9623097842497 -60.14655750271751 0.0 0.0
1161.320557485399 229.56246775969663 693.1351145659602 -55.93013870129132 0.0 0.0
1218.0251354400316 263.5479685444119 738.484959839224 -49.9646239274479 0.0 0.0
1269.546611293985 297.0739605923083 780.9209878492924 -40.702300432132766 0.0 0.0
1305.2197655419334 320.8529086884344 810.5191794215332 -25.17495972817884 0.0 0.0
1305.2197655415694 320.85290868808454 810.519179421274 25.17495972822116 0.0 0.0
1269.546611293788 297.073960592153 780.9209878491405 40.70230043222831 0.0 0.0
1218.0251354398727 263.5479685443353 738.4849598390628 49.96462392761734 0.0 0.0
1161.3205574854978 229.56246775988748 693.1351145659814 55.930138701384394 0.0 0.0
1104.1388911292813 198.58433539540155 648.9623097840893 60.146557502733884 0.0 0.0
1047.6733197911763 170.11892092012025 606.3509975368802 63.127532737399896 0.0 0.0
991.2309832228689 143.6037947894674 564.6517465854766 65.23653724136146 0.0 0.0
935.2802628019693 118.51434237129172 523.7689116408328 67.03814451628955 0.0 0.0
880.1828800888695 95.16958008253934 483.9229081715104 68.88619726243331 0.0 0.0
824.2216008613572 72.61009421121298 443.35955589519995 70.54888679835103 0.0 0.0
766.602822168729 50.92844508359251 400.77949014068537 71.17743633885222 0.0 0.0
706.2282275080181 30.501927516918983 353.674001102509 70.35557265019027 0.0 0.0
641.8208872332476 13.079206156811303 298.6616059463256 68.77725549879919 0.0 0.0
570.7421771870779 -0.9889109985287021 232.57085335161304 67.84776962574269 0.0 0.0
489.81394622679943 -11.683549149878747 163.78015903649396 72.34584351913384 0.0 0.0
395.58510332617476 -8.174455567129865 117.50972341129159 77.98576617161281 0.0 0.0
306.9389097570397 6.8284841418237745 94.12215335304151 70.7587680816244 0.0 0.0
213.5621763376906 27.174383800623204 72.22096804149415 59.01810375315179 0.0 0.0
83.70782339612708 -20.31649048487273 19.017399873376306 83.14268929927123 0.0 0.0
-6.873551197498983 -518.0656804015432 -241.8735463614984 164.20232326268936 0.0 0.0
-9.228657956448728 -490.8665337695611 -218.40465024376311 -162.57591359208632 0.0 0.0
49.53860157477865 -27.538611902217227 6.599996901768426 -117.34085052908728 0.0 0.0
161.64237703040342 23.598230263149546 55.57218218806588 -87.26314542930302 0.0 0.0
254.45458085699846 9.938047311999192 79.31751070303818 -91.86401935804203 0.0 0.0
339.314967483137 -3.6421494593142976 100.9153385168134 -100.4081110465627 0.0 0.0
437.6736329097538 -11.820608057818326 137.47419681460963 -98.28482070193743 0.0 0.0
530.0662621435648 -4.618659268052905 200.24658206131303 -90.65873592985946 0.0 0.0
606.2661035663346 10.531179058135878 270.1343890680821 -88.50674440074488 0.0 0.0
671.0626204624818 26.119101650645646 327.9746751682908 -89.38244823696868 0.0 0.0
729.8418571554682 43.63382035712989 375.5720226388875 -89.68138825492663 0.0 0.0
784.55915717828 62.01835522891999 416.5717436620398 -88.57088340006412 0.0 0.0
836.5277402957752 80.78931263761227 453.98866272524475 -86.41839535790452 0.0 0.0
887.4938672564126 100.18117840014315 490.1680787490491 -84.23195478060522 0.0 0.0
938.1326959977584 120.78648865211488 526.331291578638 -82.01999105528813 0.0 0.0
989.3199253602347 142.36422137483697 563.0248273031067 -79.50267772269143 0.0 0.0
1040.979808323525 165.30513654400977 600.5326291306062 -76.09901177350307 0.0 0.0
1092.1658299564644 190.33791838571625 638.778246383391 -71.2535050968259 0.0 0.0
1143.5350171081684 218.1873879414488 678.4278231078249 -64.15142684402028 0.0 0.0
1191.5901184653176 246.38728605762518 716.4885483515635 -52.18444952593362 0.0 0.0
1227.1724747287815 267.54825700806373 744.7205102300242 -31.61471826699506 0.0 0.0
1227.172474728556 267.54825700786427 744.7205102298394 31.614718267115073 0.0 0.0
1191.5901184649447 246.38728605730805 716.4885483512521 52.18444952609532 0.0 0.0
1143.5350171080634 218.18738794142368 678.4278231077539 64.15142684415731 0.0 0.0
1092.1658299556316 190.33791838493096 638.7782463828148 71.25350509681397 0.0 0.0
1040.97980832297 165.3051365435301 600.5326291301996 76.0990117734856 0.0 0.0
989.3199253595538 142.36422137425944 563.0248273026002 79.50267772272446 0.0 0.0
938.1326959964781 120.78648865092794 526.3312915776659 82.01999105528279 0.0 0.0
887.4938672553031 100.18117839913774 490.16807874824156 84.2319547805984 0.0 0.0
836.5277402952706 80.78931263727576 453.98866272486015 86.41839535790353 0.0 0.0
784.5591571775756 62.01835522836777 416.5717436615075 88.57088340001135 0.0 0.0
729.8418571551333 43.63382035699127 375.5720226386021 89.68138825488865 0.0 0.0
671.0626204624391 26.11910165091807 327.97467516820905 89.38244823707356 0.0 0.0
606.2661035659752 10.531179058045268 270.1343890677305 88.50674440064361 0.0 0.0
530.0662621430985 -4.61865926827344 200.2465820609072 90.65873592973813 0.0 0.0
437.6736329095303 -11.820608057680431 137.47419681449048 98.284820701766 0.0 0.0
339.3149674828358 -3.642149459318369 100.91533851672315 100.40811104641826 0.0 0.0
254.454580856863 9.938047311931381 79.31751070297783 91.86401935787609 0.0 0.0
161.64237703032177 23.59823026306575 55.57218218801626 87.2631454291728 0.0 0.0
49.53860157491022 -27.53861190197783 6.599996901879717 117.34085052893356 0.0 0.0
-9.228657956425366 -490.8665337692949 -218.40465024350027 162.5759135920158 0.0 0.0
-5.6047072975003545 -456.88223813162756 -188.63189009331734 -159.5095187731725 0.0 0.0
27.361688241037662 -33.62118162928557 -1.8778480164743714 -142.55001487693073 0.0 0.0
116.71893436132777 18.584223618739344 40.590947394020134 -112.67877086399511 0.0 0.0
201.37357890031188 12.093307308063203 64.04006586251252 -112.45836365767353 0.0 0.0
280.0675940862039 -0.3617649500195965 83.86756659738205 -121.42359732775407 0.0 0.0
369.9121022143384 -9.691411046991112 111.9430977605351 -124.23578755481688 0.0 0.0
471.6306158333842 -6.609160092847672 164.70397831718464 -116.73350155475903 0.0 0.0
558.5677287314566 6.188192777490302 232.98120197691333 -110.07824058821168 0.0 0.0
628.4112969864233 21.411334839859254 295.6100785397849 -108.45648259637369 0.0 0.0
686.5514149518514 36.26159773676578 344.9947256888879 -107.74586768024068 0.0 0.0
738.4409384805049 51.04109411376179 385.115888486697 -106.02550549708684 0.0 0.0
787.0208735441307 66.24825488624272 420.36276001327565 -103.46195637482825 0.0 0.0
833.6735688128751 81.86922094139672 453.17879348944535 -100.88613755864263 0.0 0.0
879.5594444433383 97.91619097116573 485.0493576156085 -98.4624740054807 0.0 0.0
925.5934037971084 114.5320328507398 516.8566127004566 -95.68828222183184 0.0 0.0
971.3582965033024 132.38339023492594 548.951901768186 -91.8020339336403 0.0 0.0
1017.0098267312155 150.8721778891024 581.2373407756866 -86.55716254764481 0.0 0.0
1062.300751142786 171.26248345009654 614.1830324256322 -78.67885313267833 0.0 0.0
1106.618192204234 193.61484351828986 647.474597965683 -64.51224575660183 0.0 0.0
1143.6857024772319 212.62003992540562 675.3368588911022 -39.32924092688295 0.0 0.0
1143.6857024770045 212.6200399252135 675.3368588909817 39.3292409270691 0.0 0.0
1106.6181922034314 193.61484351754228 647.4745979651199 64.51224575673581 0.0 0.0
1062.3007511418828 171.26248344926853 614.1830324249656 78.67885313281673 0.0 0.0
1017.0098267309804 150.87217788894344 581.2373407754413 86.55716254769803 0.0 0.0
971.3582965039174 132.38339023567974 548.9519017685733 91.8020339336994 0.0 0.0
925.5934037967477 114.53203285049037 516.8566127001577 95.68828222185067 0.0 0.0
879.5594444433667 97.91619097130591 485.0493576155975 98.46247400546312 0.0 0.0
833.6735688125368 81.8692209412223 453.178793489172 100.88613755870557 0.0 0.0
787.0208735437625 66.24825488608234 420.3627600130126 103.46195637489845 0.0 0.0
738.4409384804055 51.041094113858975 385.11588848658363 106.02550549705461 0.0 0.0
686.5514149513909 36.261597736464815 344.99472568850683 107.74586768015007 0.0 0.0
628.4112969859316 21.411334839576426 295.6100785393794 108.45648259631409 0.0 0.0
558.5677287307982 6.188192777048975 232.98120197638184 110.07824058815066 0.0 0.0
471.63061583280603 -6.609160093014575 164.70397831683 116.73350155484425 0.0 0.0
369.9121022140312 -9.691411046858411 111.94309776045633 124.23578755471026 0.0 0.0
280.0675940860511 -0.3617649499036606 83.86756659737382 121.42359732763543 0.0 0.0
201.3735789001771 12.093307307944444 64.04006586243646 112.4583636575262 0.0 0.0
116.7189343612728 18.58422361878898 40.59094739401853 112.67877086386702 0.0 0.0
27.361688241169503 -33.621181628985056 -1.877848016344667 142.55001487678126 0.0 0.0
-5.604707297441749 -456.8822381312735 -188.63189009302297 159.50951877309885 0.0 0.0
0.04395154041183247 -417.40776451378883 -156.30773944303877 -155.9483295733431 0.0 0.0
10.401008529621617 -39.37437281291903 -8.692009284989222 -160.0943308796864 0.0 0.0
76.94462611181382 13.540628138797297 27.145576275183334 -133.80080077120806 0.0 0.0
149.20220403841222 13.895528277664 48.92931969482286 -131.25367078501085 0.0 0.0
217.5369980254323 1.8853769015483568 65.83015567271512 -140.37114036011204 0.0 0.0
295.57508644208485 -6.042575621521692 87.93880876879604 -147.897676022525 0.0 0.0
395.21357495117354 -6.835259198485161 127.83030695845525 -144.68173041541968 0.0 0.0
492.56037782163344 2.1558136338392555 188.29378833319916 -134.9265078192149 0.0 0.0
571.5422274790324 15.341464910944959 252.3242837638618 -128.70092846239345 0.0 0.0
633.3840614000327 28.637289595367548 305.8910302574146 -125.69575132540456 0.0 0.0
683.3702396620153 39.73276629781137 346.4697554914893 -123.03469680012252 0.0 0.0
729.0191940991994 51.56523027754015 380.80336999839517 -120.04375657411498 0.0 0.0
771.657391533427 63.326401359816366 411.0443770374708 -117.15608293738882 0.0 0.0
812.6924807900551 75.30144600681504 439.23961366200086 -114.51463879619774 0.0 0.0
852.8901704917965 86.80947192407864 465.97948332446174 -111.65213307313739 0.0 0.0
894.0280188623485 99.52440993146035 493.376447346588 -107.55210515171949 0.0 0.0
933.6404784783166 111.85838115151876 519.675968411932 -101.69700702056461 0.0 0.0
971.6057573931971 123.77282505253788 544.8390170656598 -93.42982753033334 0.0 0.0
1011.6524307356667 138.04286303614617 572.0168372055106 -78.09867951384909 0.0 0.0
1051.8925972555326 154.82691943230282 600.3013020678623 -49.04555213361013 0.0 0.0
1051.892597255724 154.8269194325292 600.3013020680089 49.04555213380707 0.0 0.0
1011.6524307362039 138.04286303682287 572.0168372059717 78.09867951413227 0.0 0.0
971.6057573927221 123.7728250521671 544.8390170653663 93.42982753051949 0.0 0.0
933.6404784777511 111.85838115106685 519.6759684115316 101.69700702068951 0.0 0.0
894.028018861406 99.52440993057081 493.37644734590674 107.55210515168883 0.0 0.0
852.8901704913134 86.80947192372999 465.9794833241513 111.6521330732167 0.0 0.0
812.6924807900585 75.3014460070297 439.2396136620158 114.51463879633434 0.0 0.0
771.6573915335958 63.32640136019096 411.04437703757526 117.15608293748339 0.0 0.0
729.0191940986404 51.56523027713261 380.80336999800073 120.04375657410385 0.0 0.0
683.3702396616715 39.732766297626355 346.4697554911914 123.03469680010318 0.0 0.0
633.3840614000433 28.63728959567689 305.8910302573305 125.69575132542965 0.0 0.0
571.5422274787576 15.34146491103126 252.32428376364055 128.70092846246047 0.0 0.0
492.5603778209282 2.1558136334182088 188.29378833270212 134.9265078191928 0.0 0.0
395.2135749506811 -6.83525919856292 127.83030695820644 144.68173041541075 0.0 0.0
295.57508644160004 -6.042575621986648 87.9388087685036 147.89767602236708 0.0 0.0
217.53699802511832 1.8853769012008037 65.83015567252318 140.37114035995813 0.0 0.0
149.20220403823393 13.895528277404583 48.92931969469154 131.25367078482083 0.0 0.0
76.94462611176044 13.540628138786623 27.14557627516412 133.8008007710095 0.0 0.0
10.401008529579448 -39.3743728128822 -8.692009284990824 160.0943308794601 0.0 0.0
0.04395154041124982 -417.40776451349745 -156.30773944281432 155.94832957324567 0.0 0.0
3.2461645103792094 -374.043200579123 -126.51974715127048 -152.39830396888263 0.0 0.0
-5.84545165235731 -45.04163044983575 -15.266095936417905 -170.4626971872751 0.0 0.0
40.89810693037661 9.522203508295737 15.126093131601708 -150.57685051864752 0.0 0.0
98.46744219939595 15.17978958295948 34.09251277195948 -147.18405866570447 0.0 0.0
153.44184801450362 4.51263638122248 47.37962616623767 -156.30875216071667 0.0 0.0
213.7705900302708 -2.994429331828945 63.729630332001875 -167.19831205533356 0.0 0.0
296.4694317409475 -4.362825100991459 91.48079401530055 -171.13366925001142 0.0 0.0
399.4325546283477 -0.17203371655351507 137.7724167376288 -163.47672536778353 0.0 0.0
490.54860086908 8.597286266221062 195.54671020422032 -152.4237132216118 0.0 0.0
560.0190216323447 19.943415696565232 251.31015898048838 -144.53309531175472 0.0 0.0
613.101096572277 28.011459709382315 294.91062132876687 -140.2390070024783 0.0 0.0
656.1795066445054 36.34610189889894 329.62869672123924 -136.32604155019325 0.0 0.0
695.3194759719364 44.83915562733642 359.1520144360884 -133.08044455751894 0.0 0.0
731.7723568842516 52.683568676416314 384.8054837169602 -130.2934518059584 0.0 0.0
766.9297532411337 59.711835447432485 407.9521557888081 -127.50524105012232 0.0 0.0
801.8990125436935 66.46207248799763 429.8554331235189 -123.36902161369746 0.0 0.0
837.6147558246148 73.59560708757343 451.8072741895307 -116.95770374861358 0.0 0.0
868.8256450472581 77.24702807507967 469.7262668271701 -108.10339913312774 0.0 0.0
900.0561416871051 79.35115044773106 486.6374240696676 -92.86065803749665 0.0 0.0
943.9116300336735 92.05244966792714 514.5866819075179 -61.743755297207606 0.0 0.0
943.9116300337988 92.05244966813262 514.5866819076195 61.74375529746298 0.0 0.0
900.0561416864302 79.3511504471347 486.6374240692531 92.86065803774356 0.0 0.0
868.8256450469827 77.24702807495015 469.72626682697324 108.10339913334653 0.0 0.0
837.6147558250524 73.5956070881621 451.8072741897619 116.95770374877134 0.0 0.0
801.8990125432208 66.46207248761115 429.8554331231468 123.3690216136778 0.0 0.0
766.9297532403795 59.71183544669546 407.9521557882298 127.50524105004189 0.0 0.0
731.7723568836037 52.68356867583023 384.8054837165118 130.29345180593316 0.0 0.0
695.3194759714873 44.83915562694486 359.15201443573636 133.08044455751119 0.0 0.0
656.1795066440966 36.34610189863289 329.62869672091546 136.3260415502056 0.0 0.0
613.1010965717235 28.01145970894963 294.910621328317 140.2390070024034 0.0 0.0
560.019021632035 19.9434156963547 251.3101589801688 144.53309531158928 0.0 0.0
490.5486008686148 8.59728626595102 195.5467102038456 152.4237132215882 0.0 0.0
399.43255462797333 -0.17203371641183196 137.7724167374522 163.4767253678256 0.0 0.0
296.46943174065024 -4.3628251006969325 91.48079401528253 171.13366925000471 0.0 0.0
213.7705900300826 -2.994429331777109 63.729630331957836 167.19831205512395 0.0 0.0
153.4418480145902 4.5126363815567725 47.379626166365 156.30875216052482 0.0 0.0
98.46744219931819 15.17978958297791 34.092512771942495 147.18405866550412 0.0 0.0
40.898106930375555 9.52220350830748 15.126093131604907 150.57685051850234 0.0 0.0
-5.845451652469279 -45.041630449846444 -15.266095936454834 170.462697187103 0.0 0.0
3.2461645103749426 -374.04320057873247 -126.51974715106861 152.3983039688218 0.0 0.0
-1.7079123339235487 -327.7831547863175 -104.20376470915423 -146.44207271415007 0.0 0.0
-23.195104394657136 -51.02099130761977 -22.263588421165004 -176.89277139344125 0.0 0.0
7.715816533683371 7.03096230350537 4.423737809299643 -162.92210522786849 0.0 0.0
49.262935971932265 15.933820314101412 19.55791316230967 -159.6258002162108 0.0 0.0
88.47950098157561 7.88159684020181 28.911355328513345 -167.98853802636 0.0 0.0
128.72115333604006 -0.06124735308532858 38.79660850687431 -181.86140061005966 0.0 0.0
181.2641082148179 -2.1899441100260533 55.198520396893194 -191.22413772831268 0.0 0.0
260.4450765352263 0.7468788782648703 83.65852525409849 -190.68983879473828 0.0 0.0
359.1690286935935 4.447924434281999 125.0740214488215 -181.45210621360667 0.0 0.0
443.1552401089226 9.830470206349297 172.59952801354078 -167.76283217164863 0.0 0.0
504.35731508813967 16.375589154825594 216.98793025216423 -158.65766174018174 0.0 0.0
549.1262128610622 20.559024600513435 252.46289384786792 -153.2738487004691 0.0 0.0
586.6579703668864 25.904945471969974 283.1367213616637 -149.17894434931716 0.0 0.0
619.5167161989257 30.322234922610015 309.0121228955646 -145.95317251493125 0.0 0.0
649.3128449022646 32.94388895049103 330.49281783354564 -143.05870231188229 0.0 0.0
678.2436566911324 33.86468982151665 348.79273442189935 -139.2698353744935 0.0 0.0
709.6423443701387 34.41390045287032 366.38736134821346 -132.7489528759754 0.0 0.0
741.9733601713776 34.21885626173187 383.4906467997754 -122.54122663789275 0.0 0.0
762.1431217850683 19.499442522914336 387.56240237127514 -107.93215272389622 0.0 0.0
805.7024936185499 19.396274768275475 408.80732111948197 -78.79545324056889 0.0 0.0
805.7024936181693 19.396274767975513 408.8073211192763 78.79545324079771 0.0 0.0
762.1431217851831 19.499442523105103 387.56240237136865 107.93215272413491 0.0 0.0
741.973360170558 34.218856261109465 383.4906467992989 122.54122663816378 0.0 0.0
709.6423443691288 34.41390045171616 366.38736134749377 132.74895287590516 0.0 0.0
678.2436566910613 33.864689821438574 348.79273442180937 139.2698353744515 0.0 0.0
649.3128449028459 32.94388895135451 330.4928178339448 143.058702312001 0.0 0.0
619.5167161991466 30.32223492300639 309.0121228956979 145.95317251504284 0.0 0.0
586.6579703666938 25.904945471974358 283.1367213615343 149.1789443494437 0.0 0.0
549.126212861015 20.559024600697576 252.46289384777356 153.27384870054928 0.0 0.0
504.3573150878226 16.375589154795613 216.987930251935 158.65766174020558 0.0 0.0
443.1552401083786 9.830470205965085 172.59952801314358 167.76283217158013 0.0 0.0
359.1690286928386 4.447924433586248 125.07402144834306 181.4521062136143 0.0 0.0
260.44507653486914 0.7468788783786025 83.65852525399501 190.68983879470707 0.0 0.0
181.2641082148511 -2.1899441094270014 55.19852039707285 191.22413772818655 0.0 0.0
128.72115333581465 -0.06124735331238984 38.79660850673695 181.86140060982416 0.0 0.0
88.47950098144395 7.881596839962368 28.911355328405662 167.98853802611964 0.0 0.0
49.26293597186723 15.93382031403803 19.557913162271554 159.62580021603188 0.0 0.0
7.715816533704712 7.030962303612041 4.423737809338165 162.92210522763494 0.0 0.0
-23.19510439473962 -51.02099130769701 -22.26358842121345 176.89277139329943 0.0 0.0
-1.7079123340131588 -327.7831547860416 -104.20376470906037 146.4420727140473 0.0 0.0
-10.92659364989649 -280.3807042727343 -88.01007688123468 -137.1085437130679 0.0 0.0
-39.50543304343425 -55.71216735312011 -28.562531878910917 -180.33973636266373 0.0 0.0
-23.411092627148186 5.381960214943784 -5.408587098754499 -171.17396289332717 0.0 0.0
1.6584442336169118 16.46722058328205 5.437469739200684 -168.0137338165971 0.0 0.0
23.49873306930596 11.178856840227752 10.401402402425058 -175.30509884111987 0.0 0.0
41.35689039796039 3.880376388773474 13.639703409660921 -189.46245480370092 0.0 0.0
60.543613349423346 0.09318731985248307 18.650882765044507 -202.30275311160497 0.0 0.0
88.08827497586815 0.09918017693731151 27.747896163577767 -208.672816732398 0.0 0.0
128.91683249119168 2.099096946608489 42.30983555626291 -203.51240710888328 0.0 0.0
182.0734883821984 3.9655891458606582 61.62965814349188 -193.4247395142079 0.0 0.0
239.87033729843148 6.20334383303431 84.90856515761412 -180.7905911678545 0.0 0.0
286.93595259532765 6.767845542984077 108.05406296237462 -172.31656410530522 0.0 0.0
328.8979558138599 9.416591857636298 133.02577815511304 -166.87044794484783 0.0 0.0
369.5662733121428 8.89570004218443 158.05356666097725 -162.77245146055859 0.0 0.0
401.39174660266673 7.142162828938396 179.80272068554257 -158.3846890391949 0.0 0.0
432.0171394876358 1.9554186946003114 199.12350279654004 -154.4860553211198 0.0 0.0
468.1601438138627 -5.344987784398512 218.13832666869882 -148.7030518925553 0.0 0.0
514.1694896116363 -11.408689360718071 241.56180694408891 -138.7612311378262 0.0 0.0
558.0331970944592 -26.59495771583886 260.5927358864963 -120.84545234458619 0.0 0.0
582.1068252224533 -77.75486468778246 248.97475493904153 -98.4892478946126 0.0 0.0
582.1068252226776 -77.75486468752283 248.974754939189 98.48924789481774 0.0 0.0
558.0331970944842 -26.59495771554907 260.59273588656254 120.84545234506412 0.0 0.0
514.1694896115617 -11.408689360541757 241.5618069441043 138.76123113825304 0.0 0.0
468.1601438138882 -5.344987783905353 218.13832666884628 148.70305189278264 0.0 0.0
432.0171394878043 1.9554186945509429 199.12350279654606 154.4860553210733 0.0 0.0
401.39174660288415 7.142162829316462 179.80272068568212 158.38468903923768 0.0 0.0
369.56627331219204 8.89570004225186 158.0535666609855 162.7724514606178 0.0 0.0
328.89795581381577 9.41659185749144 133.02577815503815 166.87044794497066 0.0 0.0
286.93595259523687 6.767845542695518 108.05406296224047 172.31656410527017 0.0 0.0
239.87033729863697 6.203343833630562 84.90856515780457 180.79059116781582 0.0 0.0
182.073488382243 3.965589146217223 61.62965814360414 193.42473951419038 0.0 0.0
128.916832491107 2.0990969466427654 42.30983555623693 203.51240710886856 0.0 0.0
88.08827497579512 0.09918017692837289 27.747896163548752 208.67281673241743 0.0 0.0
60.543613349318235 0.0931873197675781 18.65088276498472 202.30275311143066 0.0 0.0
41.356890397970254 3.8803763886784917 13.639703409635038 189.46245480349276 0.0 0.0
23.498733069371855 11.178856840353859 10.40140240248286 175.30509884088207 0.0 0.0
1.6584442336786829 16.467220583417742 5.437469739259963 168.01373381631532 0.0 0.0
-23.411092627193316 5.381960214850216 -5.408587098796216 171.17396289310005 0.0 0.0
-39.50543304347276 -55.71216735316625 -28.56253187893728 180.33973636247538 0.0 0.0
-10.926593649958793 -280.3807042724783 -88.01007688117943 137.1085437129077 0.0 0.0
-20.36914716978297 -234.58474278606707 -76.47575970347046 -125.7528432727711 0.0 0.0
-52.95451903130747 -56.77220428325532 -32.915782065478936 -179.8830428034667 0.0 0.0
-52.750303166066864 3.7982454281346936 -14.685089507774823 -175.50316934426877 0.0 0.0
-44.352733835388115 16.839723311660862 -8.25332552339994 -172.11919142286698 0.0 0.0
-40.8646923924768 14.150373410297913 -8.009910404760978 -177.63591311730482 0.0 0.0
-46.33226332476879 7.924100984354471 -11.590052345766718 -190.41676682415945 0.0 0.0
-61.67018783446174 2.8912781837217265 -18.098550389546574 -202.41128639033514 0.0 0.0
-88.05284361849914 0.3309179874700101 -27.607952471461665 -208.77766705155176 0.0 0.0
-128.6465684853265 -2.0931604245254487 -42.218744592025445 -203.51515908849274 0.0 0.0
-181.9788999294684 -4.229495058165954 -61.67411802220642 -193.37569126452647 0.0 0.0
-240.18156146247387 -5.542222218262449 -84.47192721654054 -180.79552817052675 0.0 0.0
-287.862619032647 -5.892245411000943 -108.08491344004801 -172.01669841943504 0.0 0.0
-332.00804165098873 -8.321429998992862 -133.90213068605195 -166.4214965316062 0.0 0.0
-374.7728048962442 -9.901924145023912 -160.67069816088983 -162.34826495134755 0.0 0.0
-406.2183819151551 -15.99348014417302 -185.65155730769845 -159.45601953364377 0.0 0.0
-425.4544408419903 -26.024098313923005 -207.26964410352173 -159.26750437189182 0.0 0.0
-422.26320017234 -38.43290283535249 -219.93249603379928 -161.09448465829908 0.0 0.0
-368.9956706412605 -41.07841511741415 -211.92758216029182 -162.99889145071484 0.0 0.0
-196.25014185151096 -35.58977394784144 -138.48804765301023 -164.29588942149886 0.0 0.0
26.800198620559243 -167.78553847682088 -60.437293022869056 -127.89857678644131 0.0 0.0
26.80019862031193 -167.78553847733997 -60.437293023101944 127.89857678682614 0.0 0.0
-196.2501418514632 -35.589773947828064 -138.48804765302268 164.29588942195394 0.0 0.0
-368.99567064157554 -41.07841511769939 -211.92758216041335 162.9988914510117 0.0 0.0
-422.263200172673 -38.43290283625875 -219.9324960340873 161.09448465848567 0.0 0.0
-425.45444084169253 -26.02409831379424 -207.2696441033455 159.26750437186197 0.0 0.0
-406.21838191488905 -15.99348014397421 -185.65155730749046 159.45601953357658 0.0 0.0
-374.77280489587844 -9.901924144977812 -160.67069816066348 162.34826495134337 0.0 0.0
-332.0080416507432 -8.321429999594436 -133.90213068603595 166.42149653179314 0.0 0.0
-287.8626190324023 -5.892245411618092 -108.08491344005014 172.01669841946494 0.0 0.0
-240.18156146201108 -5.542222218427877 -84.47192721637992 180.79552817048096 0.0 0.0
-181.9788999287711 -4.22949505794163 -61.67411802190677 193.3756912644524 0.0 0.0
-128.64656848489147 -2.093160424318164 -42.218744591821206 203.51515908851536 0.0 0.0
-88.05284361826767 0.33091798739995504 -27.60795247140797 208.77766705155233 0.0 0.0
-61.67018783428273 2.8912781837884194 -18.098550389466162 202.4112863902152 0.0 0.0
-46.33226332461959 7.924100984322034 -11.590052345730825 190.41676682394575 0.0 0.0
-40.86469239232454 14.150373410503507 -8.009910404653914 177.63591311708538 0.0 0.0
-44.35273383524836 16.839723311889607 -8.25332552328965 172.11919142267115 0.0 0.0
-52.7503031659812 3.798245428193428 -14.685089507731886 175.5031693441395 0.0 0.0
-52.95451903131359 -56.77220428326951 -32.91578206548638 179.88304280335802 0.0 0.0
-20.369147169748906 -234.58474278581093 -76.47575970338674 125.75284327262881 0.0 0.0
-24.10945360706454 -191.00076201532949 -64.5330646867182 -113.12627421577375 0.0 0.0
-64.07370550511274 -55.020988473050934 -35.72805347802241 -175.56436121247677 0.0 0.0
-80.14014701635466 2.483328653041358 -23.296509415609577 -175.66199912201665 0.0 0.0
-88.83221443260784 16.813677132584314 -21.59982815955937 -171.90973355104722 0.0 0.0
-103.87720736220442 16.562153338264995 -26.201575028892236 -174.75935744587562 0.0 0.0
-132.75989355698596 11.200156457032556 -36.799028412051825 -184.17434125704742 0.0 0.0
-182.19334762570728 5.082001917528192 -54.631883983516616 -192.1382599221385 0.0 0.0
-260.32149210809837 -0.3679176958195818 -83.51883575785291 -190.87235296924047 0.0 0.0
-358.918410075413 -4.53827307654994 -125.00535544015449 -181.45645927570473 0.0 0.0
-442.98327493860893 -9.794197979955488 -172.49159823367688 -167.70937198797313 0.0 0.0
-504.0548030672925 -15.935980613072218 -216.71283643893645 -158.5214867831099 0.0 0.0
-549.0570426103976 -19.714252883435947 -252.137942867228 -152.87638194554245 0.0 0.0
-587.0217713620515 -24.737441673463373 -282.8676384763269 -148.29934721659313 0.0 0.0
-621.8820867843167 -31.15586572762831 -310.4823402601214 -145.12045658336802 0.0 0.0
-655.4960259033728 -40.730660264031314 -336.88096454147546 -144.23750045700652 0.0 0.0
-686.5883921186714 -54.076977032991635 -362.1946632371744 -146.33851338855695 0.0 0.0
-712.3166069382585 -71.19741408317299 -385.86773522579085 -152.45721439249192 0.0 0.0
-727.3065877122506 -89.22360432673065 -404.5863093587575 -162.4351372648667 0.0 0.0
-763.6929516480565 -144.12465397453593 -449.72414737966693 -171.9068296107961 0.0 0.0
-738.6615810619899 -209.80597290448648 -467.65549728662666 -182.3921902731932 0.0 0.0
-738.6615810621262 -209.80597290467375 -467.655497286755 182.39219027340937 0.0 0.0
-763.6929516476895 -144.12465397435 -449.72414737948446 171.90682961112063 0.0 0.0
-727.3065877124925 -89.2236043270901 -404.5863093589094 162.4351372650375 0.0 0.0
-712.3166069386045 -71.19741408379224 -385.86773522603244 152.45721439272776 0.0 0.0
-686.5883921189215 -54.076977033537034 -362.1946632373444 146.3385133887027 0.0 0.0
-655.4960259033584 -40.73066026414389 -336.8809645414405 144.23750045703838 0.0 0.0
-621.882086784206 -31.155865727809086 -310.4823402600642 145.12045658344923 0.0 0.0
-587.0217713615624 -24.737441673075608 -282.86763847598195 148.29934721651853 0.0 0.0
-549.0570426099641 -19.714252883082153 -252.13794286685618 152.87638194539443 0.0 0.0
-504.05480306736763 -15.935980613512655 -216.71283643889274 158.52148678307304 0.0 0.0
-442.98327493815464 -9.794197980067864 -172.49159823339423 167.70937198798603 0.0 0.0
-358.9184100749555 -4.538273076708448 -125.00535543996088 181.45645927575902 0.0 0.0
-260.3214921076642 -0.367917695934306 -83.51883575772831 190.87235296927872 0.0 0.0
-182.19334762516965 5.082001917782307 -54.63188398326749 192.1382599219989 0.0 0.0
-132.75989355687008 11.200156456797819 -36.79902841208563 184.1743412568949 0.0 0.0
-103.87720736214334 16.562153338003665 -26.20157502895563 174.7593574457073 0.0 0.0
-88.8322144325396 16.81367713250051 -21.59982815956462 171.90973355088326 0.0 0.0
-80.14014701626593 2.4833286530666694 -23.296509415577923 175.6619991218215 0.0 0.0
-64.07370550501665 -55.02098847299173 -35.728053477976474 175.5643612123354 0.0 0.0
-24.109453607059862 -191.00076201518337 -64.53306468667296 113.12627421564136 0.0 0.0
-25.245338125697426 -150.60781169892357 -52.7559449473863 -100.06062256748271 0.0 0.0
-73.36197674586273 -50.78556758484257 -37.24388044361139 -167.20597437497682 0.0 0.0
-105.75767362521874 1.4236003502491887 -31.29727184187241 -171.60290847413313 0.0 0.0
-131.58362070068358 16.441050220816624 -34.53199955975511 -167.2376318703915 0.0 0.0
-165.2696384598137 17.84906299030754 -44.30039525187841 -166.9861828507373 0.0 0.0
-216.60878530588934 13.111682462475786 -61.696872021841244 -171.11779459728808 0.0 0.0
-296.6654323293154 7.074325836703991 -90.85502895430562 -172.21639689702025 0.0 0.0
-399.06845390045476 0.38190810372343265 -137.6091540400257 -163.7833390578874 0.0 0.0
-490.44936781304455 -8.660038131315705 -195.4896813686197 -152.375367441713 0.0 0.0
-559.9610095001949 -19.920057688321172 -251.27273682985015 -144.47714998034456 0.0 0.0
-612.940513587923 -27.7184614942756 -294.7491960024334 -140.1171272275458 0.0 0.0
-655.9605380524811 -35.632849963259844 -329.24292523087877 -135.9059547687436 0.0 0.0
-695.3087869533731 -43.76664118100816 -358.6430594385489 -132.04948549108428 0.0 0.0
-733.3357701982998 -53.02192651495676 -385.6266886785876 -128.98762044003615 0.0 0.0
-771.9965264140044 -65.47979290541822 -413.0151759277731 -128.0418211038297 0.0 0.0
-810.5481260839881 -82.50513965023758 -441.77791694752693 -130.45980445512012 0.0 0.0
-846.8335210515323 -103.7422801748379 -471.2857442884004 -137.18149400504413 0.0 0.0
-888.273723547648 -138.35533014361022 -509.95865680750586 -145.24590793510896 0.0 0.0
-933.3572707994622 -190.13570209627014 -558.8883707060658 -153.13921533960325 0.0 0.0
-1000.4706169196464 -303.15127920448515 -645.4008337152143 -163.9293870745146 0.0 0.0
-1000.4706169198541 -303.1512792047748 -645.4008337154562 163.9293870746778 0.0 0.0
-933.3572707990406 -190.13570209603805 -558.8883707058507 153.13921533988736 0.0 0.0
-888.2737235468285 -138.3553301428807 -509.958656806934 145.24590793525215 0.0 0.0
-846.8335210509099 -103.74228017437201 -471.2857442880016 137.18149400516535 0.0 0.0
-810.5481260836096 -82.50513964999767 -441.7779169472852 130.45980445520834 0.0 0.0
-771.9965264134262 -65.47979290491114 -413.01517592738526 128.04182110383599 0.0 0.0
-733.3357701980226 -53.021926514813536 -385.6266886783686 128.98762044002729 0.0 0.0
-695.3087869531702 -43.766641181008104 -358.6430594383761 132.04948549116847 0.0 0.0
-655.9605380518809 -35.63284996292548 -329.2429252304526 135.9059547687986 0.0 0.0
-612.940513587002 -27.71846149346934 -294.7491960017517 140.11712722741834 0.0 0.0
-559.9610094999321 -19.920057688377984 -251.27273682959205 144.47714998031302 0.0 0.0
-490.4493678128107 -8.660038131670351 -195.4896813684645 152.3753674418403 0.0 0.0
-399.06845390007834 0.3819081034427301 -137.60915403987855 163.78333905802097 0.0 0.0
-296.6654323286494 7.074325836836101 -90.85502895404214 172.21639689698506 0.0 0.0
-216.60878530544667 13.111682462646039 -61.696872021663125 171.11779459703337 0.0 0.0
-165.26963845963644 17.849062990201556 -44.30039525185944 166.9861828505623 0.0 0.0
-131.58362070055634 16.44105022074354 -34.53199955973987 167.23763187022783 0.0 0.0
-105.75767362505312 1.4236003504258017 -31.297271841770552 171.60290847399511 0.0 0.0
-73.36197674574376 -50.785567584737166 -37.24388044354432 167.20597437481126 0.0 0.0
-25.245338125661792 -150.60781169875506 -52.75594494732505 100.06062256736314 0.0 0.0
-25.82295390288522 -114.00241266534078 -41.947609970467795 -86.77977230354426 0.0 0.0
-81.59775835759095 -44.62244995382796 -37.86606249342567 -155.0276549136275 0.0 0.0
-129.73071763543027 0.7426580593300303 -38.69362594039335 -163.25714880969406 0.0 0.0
-172.69007123066606 15.366245245710381 -47.188826348998944 -158.22862061645134 0.0 0.0
-224.4383678788893 17.879786702928683 -62.05263323111673 -154.08748115059285 0.0 0.0
-295.98311413706256 14.427230314078376 -86.05279963285469 -152.5192224838961 0.0 0.0
-394.44730931912 9.188399142774095 -127.02811953025251 -146.2155564410376 0.0 0.0
-492.25566480240605 -2.0268519275884067 -188.0985832943926 -135.09025076615652 0.0 0.0
-571.577032314646 -15.442951917386942 -252.344195137565 -128.60978418964723 0.0 0.0
-633.3693253114752 -28.64134943126333 -305.9031671890632 -125.64840974728787 0.0 0.0
-683.2715378012936 -39.53206883390283 -346.3608256266235 -122.93882213347112 0.0 0.0
-728.86479041503 -51.08768105359273 -380.53179050575864 -119.64581194329692 0.0 0.0
-771.5250784475481 -62.439940680007915 -410.5452622726142 -116.06350630173405 0.0 0.0
-813.2850268239133 -74.91916085470396 -439.2754629350262 -112.91049554799105 0.0 0.0
-855.6650511904072 -89.83498683708987 -468.7106645663947 -111.70556656112024 0.0 0.0
-900.5498069410562 -110.62282826425975 -501.90632395382494 -113.99779800314619 0.0 0.0
-949.555413729433 -140.9577970686561 -541.7648096738488 -119.87002546926196 0.0 0.0
-1004.808087642406 -185.0475961676503 -591.8446029783947 -126.91845631450997 0.0 0.0
-1070.8683796773116 -252.65905691809309 -658.736719540459 -132.418735748074 0.0 0.0
-1152.6543449040098 -370.6651110220625 -756.6623430208349 -142.01138672836427 0.0 0.0
-1152.6543449045503 -370.6651110227568 -756.6623430212215 142.01138672859486 0.0 0.0
-1070.8683796777516 -252.65905691877873 -658.736719540829 132.4187357484384 0.0 0.0
-1004.8080876422317 -185.04759616755086 -591.8446029783277 126.91845631459276 0.0 0.0
-949.5554137286587 -140.95779706793383 -541.7648096733074 119.87002546927619 0.0 0.0
-900.5498069411053 -110.62282826447907 -501.90632395380555 113.99779800330195 0.0 0.0
-855.665051190066 -89.83498683693054 -468.7106645661563 111.70556656122987 0.0 0.0
-813.2850268233417 -74.91916085422733 -439.27546293461097 112.910495547973 0.0 0.0
-771.5250784472152 -62.439940679814626 -410.5452622723985 116.06350630172463 0.0 0.0
-728.8647904150299 -51.08768105384469 -380.53179050574215 119.64581194334404 0.0 0.0
-683.271537801262 -39.532068834096485 -346.36082562654235 122.93882213343917 0.0 0.0
-633.3693253115255 -28.64134943161856 -305.90316718900146 125.64840974722554 0.0 0.0
-571.5770323143742 -15.442951917507369 -252.34419513730637 128.6097841896693 0.0 0.0
-492.2556648018919 -2.0268519274692904 -188.09858329399896 135.09025076617934 0.0 0.0
-394.44730931836796 9.188399143125658 -127.02811952983993 146.21555644103057 0.0 0.0
-295.98311413656995 14.427230314181731 -86.05279963267358 152.51922248374777 0.0 0.0
-224.43836787856833 17.879786702988664 -62.05263323100844 154.08748115048647 0.0 0.0
-172.69007123047697 15.366245245732557 -47.18882634893956 158.22862061629905 0.0 0.0
-129.73071763527992 0.7426580593296808 -38.69362594034911 163.2571488096251 0.0 0.0
-81.5977583575688 -44.622449953879475 -37.86606249343448 155.02765491356772 0.0 0.0
-25.822953902832374 -114.00241266521748 -41.94760997041495 86.77977230345459 0.0 0.0
-26.43870127092849 -81.64614298471952 -32.4254532766944 -73.21409782936519 0.0 0.0
-89.30620618968871 -37.15505196914184 -37.93837744764916 -139.44750317347706 0.0 0.0
-152.29057838986586 0.44345588290151294 -45.55290449607465 -150.71316782407084 0.0 0.0
-212.19283000807658 13.663656450090654 -59.5371924669617 -144.8185766704913 0.0 0.0
-281.1939886238257 17.056387338227697 -79.22013943913592 -137.22293585821242 0.0 0.0
-369.2018957788715 15.989916213677068 -110.33860359903778 -129.42608406141701 0.0 0.0
-470.260215882527 8.389982321494593 -163.77505793852217 -117.86986103765952 0.0 0.0
-558.4529401305108 -6.1674800811023545 -232.8515445702459 -110.07142644659339 0.0 0.0
-628.5515258717495 -21.560609543157256 -295.72433266940607 -108.34833820980707 0.0 0.0
-686.5732692857389 -36.25958045113657 -345.02318436750113 -107.72323571708496 0.0 0.0
-738.407176679766 -50.928601652532755 -385.06443862917 -105.93896251043222 0.0 0.0
-787.0186282838423 -66.04689179168348 -420.28024567568144 -103.09769911763325 0.0 0.0
-833.53060852217 -81.27973490266375 -452.8243347453416 -99.8607628377407 0.0 0.0
-878.986006903818 -96.73648784877264 -484.17285287782056 -96.85512383598093 0.0 0.0
-925.3662630356855 -114.29495561894198 -516.5771252286229 -95.35274117502802 0.0 0.0
-976.2030723931139 -139.53316424288158 -554.7108479173576 -96.74107311215148 0.0 0.0
-1036.5161146388868 -178.20023375057718 -604.1807681954313 -101.62478513254226 0.0 0.0
-1106.922749288565 -234.8461941386157 -667.8459293180158 -107.62169254227459 0.0 0.0
-1186.7944493441205 -314.95985191926854 -747.8880629444353 -112.71082455380756 0.0 0.0
-1265.7151226322417 -428.43066342481075 -843.0784115771012 -125.6417077490142 0.0 0.0
-1265.7151226314388 -428.43066342403 -843.0784115765398 125.64170774908379 0.0 0.0
-1186.7944493433035 -314.9598519184898 -747.8880629438094 112.7108245539394 0.0 0.0
-1106.9227492880873 -234.84619413828645 -667.8459293176063 107.62169254249233 0.0 0.0
-1036.5161146387463 -178.2002337505704 -604.1807681952438 101.62478513267092 0.0 0.0
-976.2030723923785 -139.53316424226477 -554.7108479168048 96.74107311219804 0.0 0.0
-925.3662630352632 -114.29495561861847 -516.5771252282673 95.35274117501578 0.0 0.0
-878.9860069036565 -96.73648784874408 -484.17285287769243 96.85512383600194 0.0 0.0
-833.5306085218568 -81.27973490252602 -452.8243347450689 99.86076283777483 0.0 0.0
-787.0186282831291 -66.04689179112765 -420.28024567514194 103.0976991175813 0.0 0.0
-738.4071766793847 -50.92860165231923 -385.0644386288808 105.93896251034116 0.0 0.0
-686.5732692857835 -36.25958045148976 -345.0231843674929 107.72323571707935 0.0 0.0
-628.5515258715108 -21.560609543218252 -295.7243326691704 108.34833820980101 0.0 0.0
-558.4529401300092 -6.167480080898104 -232.85154456980706 110.0714264465499 0.0 0.0
-470.2602158821931 8.389982321320591 -163.77505793828652 117.86986103767956 0.0 0.0
-369.2018957785988 15.989916213342344 -110.33860359901041 129.42608406132769 0.0 0.0
-281.1939886236415 17.05638733798661 -79.22013943915887 137.22293585808035 0.0 0.0
-212.1928300079261 13.663656450011185 -59.53719246694253 144.81857667031073 0.0 0.0
-152.29057838965832 0.4434558829266244 -45.55290449600544 150.71316782392793 0.0 0.0
-89.30620618960918 -37.15505196907725 -37.93837744760592 139.4475031734322 0.0 0.0
-26.438701270919218 -81.64614298464807 -32.42545327667018 73.21409782932037 0.0 0.0
-27.150455594868802 -53.963699787288824 -24.334246614647284 -59.23242804448114 0.0 0.0
-96.56253986106272 -28.94131621132235 -37.65115682171552 -120.85394568553184 0.0 0.0
-173.67106820276737 0.4575926931687775 -51.96404265287957 -134.09285309074352 0.0 0.0
-249.86888415698382 10.980108824124969 -71.65614119575392 -127.0568437624323 0.0 0.0
-333.2566946442866 16.57702243403148 -95.50276269742123 -116.52975517914338 0.0 0.0
-433.34988198765967 16.139851337156863 -135.6347759540132 -103.57623804747176 0.0 0.0
-528.8301859364799 5.920850372755044 -199.33817639048533 -91.408869724593 0.0 0.0
-606.4097577941454 -10.6734173638026 -270.18944313769765 -88.29242977703423 0.0 0.0
-671.2226671120262 -26.26183910785567 -328.122614666207 -89.3058125681941 0.0 0.0
-729.8613226686944 -43.62473479048675 -375.5895040945393 -89.67416573728936 0.0 0.0
-784.5865049204506 -61.982368752221745 -416.5747849134224 -88.4820302025496 0.0 0.0
-836.6599988624215 -80.82037178352051 -454.07460586540697 -86.0904441640123 0.0 0.0
-887.3638073620175 -99.89605009631231 -489.97907734640717 -83.40407986530819 0.0 0.0
-936.6068402312771 -119.05811032591407 -524.7501617741333 -80.69759349671682 0.0 0.0
-986.5509997380329 -139.47470152379137 -560.2161815775271 -78.81104834080952 0.0 0.0
-1043.3157894036242 -168.36042651918726 -603.0454812356576 -79.0213836885352 0.0 0.0
-1112.9609715130084 -215.09378408233155 -661.0502807911938 -82.38657078743599 0.0 0.0
-1197.0958649164932 -284.31027593501335 -737.6797711552931 -87.97694007368312 0.0 0.0
-1286.1874822052605 -373.37863591235254 -826.8625637016041 -94.9559689472085 0.0 0.0
-1363.6898427805472 -484.32993961723315 -920.7037014157679 -113.1225325053491 0.0 0.0
-1363.6898427810188 -484.329939617764 -920.7037014162158 113.12253250548696 0.0 0.0
-1286.1874822053778 -373.37863591254455 -826.8625637017708 94.95596894731158 0.0 0.0
-1197.0958649159268 -284.3102759345452 -737.6797711548816 87.97694007386276 0.0 0.0
-1112.9609715120896 -215.09378408149735 -661.0502807904975 82.38657078752733 0.0 0.0
-1043.3157894035662 -168.36042651925476 -603.0454812355752 79.02138368861534 0.0 0.0
-986.5509997383641 -139.47470152431242 -560.2161815777251 78.81104834099057 0.0 0.0
-936.606840231436 -119.05811032624734 -524.7501617741945 80.69759349681587 0.0 0.0
-887.3638073623058 -99.89605009679161 -489.9790773465786 83.40407986536546 0.0 0.0
-836.6599988622424 -80.82037178353255 -454.0746058652711 86.09044416400401 0.0 0.0
-784.5865049204319 -61.982368752425046 -416.5747849133383 88.48203020251265 0.0 0.0
-729.8613226683619 -43.62473479039842 -375.58950409425614 89.67416573724019 0.0 0.0
-671.2226671112549 -26.261839107334616 -328.12261466561654 89.30581256821463 0.0 0.0
-606.409757793752 -10.67341736374046 -270.1894431373128 88.2924297770171 0.0 0.0
-528.8301859362919 5.920850372532309 -199.33817639025995 91.40886972458549 0.0 0.0
-433.3498819870198 16.139851337446565 -135.63477595364853 103.57623804741196 0.0 0.0
-333.25669464378205 16.57702243430478 -95.50276269720322 116.52975517915593 0.0 0.0
-249.86888415675116 10.980108824288855 -71.65614119563693 127.05684376239962 0.0 0.0
-173.67106820260804 0.4575926931028591 -51.964042652851546 134.09285309067093 0.0 0.0
-96.56253986104082 -28.94131621139227 -37.65115682172993 120.85394568541656 0.0 0.0
-27.15045559485573 -53.963699787272546 -24.33424661463848 59.23242804440641 0.0 0.0
-27.680692465350024 -31.355976828820822 -17.71100078825125 -44.76882048794526 0.0 0.0
-103.0143816059163 -20.481227436141037 -37.04868271261719 -99.57913474163159 0.0 0.0
-193.97051034570214 0.6463883222520233 -57.997236607035035 -113.35849120663022 0.0 0.0
-286.28370253655277 7.540864716542601 -83.61931736354128 -105.61976432684602 0.0 0.0
-384.1402993810269 16.371466872651915 -111.82264907152737 -92.6910903390076 0.0 0.0
-485.76925582465026 15.301513031980964 -161.35838743432868 -76.8172584786962 0.0 0.0
-570.3123286546836 1.4091459203784567 -232.1485870222697 -67.89127705989169 0.0 0.0
-642.0880444754573 -13.262660820839507 -298.86122253159687 -68.52273933035555 0.0 0.0
-706.3581732020338 -30.593965229227322 -353.7922080543883 -70.3134553365476 0.0 0.0
-766.6351074406243 -50.92999238566576 -400.80192441304143 -71.17873554196302 0.0 0.0
-824.2955011323319 -72.63930554231285 -443.41000948191993 -70.4513160878582 0.0 0.0
-880.3541310440603 -95.3217605710285 -484.0841846076457 -68.603209915194 0.0 0.0
-935.086430369757 -118.38473136731834 -523.6300246432019 -66.47309555873389 0.0 0.0
-989.4160600573452 -141.90733376793185 -562.9519786927465 -64.3616910726287 0.0 0.0
-1043.7085330380796 -166.1289793619138 -602.4299249697228 -62.2803264954171 0.0 0.0
-1103.0110630014594 -197.3497408085681 -647.6781340372418 -60.91804459042874 0.0 0.0
-1179.8495515677434 -249.58513648692673 -711.9146463123009 -62.508060188218174 0.0 0.0
-1275.8707402337545 -329.4816505872043 -799.6761229263183 -68.27463572814138 0.0 0.0
-1375.8782225892178 -429.164217344327 -899.6430885828634 -78.61228850164392 0.0 0.0
-1456.4653135100034 -542.3873649923127 -996.5981685558413 -102.60539688346286 0.0 0.0
-1456.4653135098938 -542.3873649922257 -996.5981685557788 102.60539688354012 0.0 0.0
-1375.8782225887965 -429.16421734395436 -899.6430885825812 78.61228850173973 0.0 0.0
-1275.8707402327582 -329.48165058627524 -799.6761229255872 68.27463572822276 0.0 0.0
-1179.8495515670834 -249.5851364863438 -711.9146463117602 62.508060188273134 0.0 0.0
-1103.0110630004974 -197.3497408076862 -647.678134036498 60.918044590399745 0.0 0.0
-1043.7085330377995 -166.1289793617614 -602.4299249694855 62.280326495486804 0.0 0.0
-989.4160600575682 -141.90733376829309 -562.9519786928133 64.36169107262984 0.0 0.0
-935.0864303696544 -118.38473136740248 -523.6300246430811 66.47309555879147 0.0 0.0
-880.3541310443821 -95.32176057156201 -484.0841846078086 68.60320991522045 0.0 0.0
-824.2955011325179 -72.63930554272265 -443.4100094820035 70.45131608783498 0.0 0.0
-766.6351074402118 -50.929992385490124 -400.80192441274573 71.17873554192992 0.0 0.0
-706.3581732015533 -30.5939652289875 -353.79220805400234 70.31345533651131 0.0 0.0
-642.0880444751579 -13.262660820797601 -298.86122253127934 68.52273933024738 0.0 0.0
-570.3123286544137 1.4091459202891627 -232.14858702197455 67.89127705991906 0.0 0.0
-485.7692558240771 15.301513032193137 -161.35838743395513 76.81725847862602 0.0 0.0
-384.14029938082376 16.371466872272936 -111.82264907156302 92.69109033893015 0.0 0.0
-286.28370253637223 7.5408647164114235 -83.61931736353513 105.61976432676487 0.0 0.0
-193.97051034563037 0.64638832203878 -57.997236607077475 113.3584912065555 0.0 0.0
-103.01438160593418 -20.4812274363073 -37.04868271267244 99.57913474158889 0.0 0.0
-27.680692465326405 -31.355976828776384 -17.711000788230834 44.76882048795167 0.0 0.0
-27.388593251510933 -14.206187172498165 -12.478434127202728 -29.95924470986596 0.0 0.0
-107.75396107707256 -12.18927742640134 -35.98297155104217 -75.79916332497994 0.0 0.0
-213.33561156555606 0.6017344904200765 -63.820163122540784 -88.42354966006947 0.0 0.0
-322.04739271703744 4.641063356615904 -95.2077930433239 -80.62973388291157 0.0 0.0
-431.4831801362068 16.57669476453783 -128.59082002774883 -66.25750531964609 0.0 0.0
-527.5398349733764 11.616513412785086 -188.37772780102503 -51.75421289139654 0.0 0.0
-603.681076252567 -1.8949454316721628 -260.38121746958313 -47.361481933016435 0.0 0.0
-671.1624834939212 -15.369176687397172 -321.6678754205504 -48.95949660854501 0.0 0.0
-735.7779734318607 -34.969289801019144 -374.7018033955212 -51.073887848458334 0.0 0.0
-798.2397920637623 -58.013431303277045 -422.15790634325003 -52.157769832357445 0.0 0.0
-859.2634974687886 -83.05244432198188 -467.1156772442084 -51.83485776163502 0.0 0.0
-919.0562468026254 -109.46624127274286 -511.0834547771429 -50.536124499829185 0.0 0.0
-978.5578304873418 -136.59772778389168 -554.8457896474995 -49.07273331269779 0.0 0.0
-1037.7674645795692 -165.07490765170053 -598.9590390438732 -47.54106784875442 0.0 0.0
-1097.585318975163 -194.78356415600595 -643.8831713149503 -45.692035604977654 0.0 0.0
-1160.286011297676 -228.64569203307582 -692.2130116022693 -43.240536054614914 0.0 0.0
-1234.8862018067025 -277.91771507607 -753.8521973904641 -42.41956805957929 0.0 0.0
-1341.385170604121 -367.0519048035293 -851.2191020255341 -47.97319611340848 0.0 0.0
-1458.5449804981179 -482.5857037681764 -967.6858684694032 -62.488042355851235 0.0 0.0
-1552.4821250690845 -607.1624529902272 -1077.3523896858508 -92.8461902055206 0.0 0.0
-1552.4821250684795 -607.162452989676 -1077.3523896853958 92.8461902056445 0.0 0.0
-1458.5449804969676 -482.5857037670487 -967.6858684685012 62.488042355865076 0.0 0.0
-1341.3851706042929 -367.0519048037763 -851.2191020255983 47.97319611350086 0.0 0.0
-1234.8862018069099 -277.91771507636196 -753.8521973905595 42.41956805964829 0.0 0.0
-1160.2860112972303 -228.645692032737 -692.2130116019289 43.240536054684554 0.0 0.0
-1097.585318973826 -194.78356415476512 -643.8831713139812 45.69203560497262 0.0 0.0
-1037.7674645792467 -165.07490765151047 -598.9590390435714 47.541067848775185 0.0 0.0
-978.5578304871271 -136.59772778387182 -554.8457896472993 49.07273331282558 0.0 0.0
-919.0562468021203 -109.46624127243149 -511.08345477674027 50.53612449982205 0.0 0.0
-859.2634974684992 -83.05244432190429 -467.11567724398884 51.83485776160449 0.0 0.0
-798.2397920632152 -58.013431302936645 -422.1579063428801 52.15776983226591 0.0 0.0
-735.7779734317386 -34.96928980115082 -374.7018033954077 51.07388784843765 0.0 0.0
-671.1624834935816 -15.369176687347235 -321.667875420259 48.95949660856368 0.0 0.0
-603.6810762519974 -1.8949454314058016 -260.38121746910934 47.36148193301567 0.0 0.0
-527.5398349728285 11.616513413022096 -188.37772780061064 51.75421289138939 0.0 0.0
-431.48318013562505 16.57669476478754 -128.59082002747547 66.25750531961788 0.0 0.0
-322.0473927168348 4.641063356432042 -95.20779304332186 80.62973388286977 0.0 0.0
-213.3356115654066 0.6017344903987216 -63.82016312250236 88.42354965999473 0.0 0.0
-107.7539610769386 -12.189277426295124 -35.98297155097012 75.7991633249287 0.0 0.0
-27.388593251474504 -14.206187172461203 -12.478434127180709 29.959244709786965 0.0 0.0
-25.032749585941012 -2.8261336970764876 -8.357664984905249 -15.316035498401488 0.0 0.0
-109.14076891528302 -4.5942985637216704 -34.12052024370141 -49.49216096870131 0.0 0.0
-231.96215098162259 0.13787459712172634 -69.54728291535025 -58.76479911370004 0.0 0.0
-358.836980879382 2.861078279605554 -106.75196307797125 -52.42869827639716 0.0 0.0
-471.78284330267564 17.36218265047579 -145.9437731402387 -39.47123244897977 0.0 0.0
-557.2391821006946 5.598274377405982 -215.09858128922437 -28.977417738692647 0.0 0.0
-629.3255804903338 -3.114035604729139 -282.45609198031127 -28.100083880585572 0.0 0.0
-695.3038918124853 -18.09286708415643 -340.4966915646785 -29.62528467712111 0.0 0.0
-760.4375022900078 -39.18890049312347 -391.8756028480254 -31.4533286156224 0.0 0.0
-825.3862950323987 -64.82844533731854 -440.45717131487356 -32.543840023728904 0.0 0.0
-889.9846536225326 -93.2841263285756 -488.2776301467717 -32.58109173471525 0.0 0.0
-954.1301998783983 -123.18673062997468 -535.890433301274 -31.91372300837922 0.0 0.0
-1017.900861241736 -154.85260608633686 -583.9166454060501 -31.039260949093936 0.0 0.0
-1082.6365227098763 -188.18048635530764 -633.1293294492779 -30.146484482889022 0.0 0.0
-1149.0826647893596 -224.18668004274647 -684.4648699554305 -28.88435135507759 0.0 0.0
-1216.9024339107941 -263.4491968505344 -738.0712459263345 -26.485829900135304 0.0 0.0
-1287.231618567217 -308.5394538323787 -795.673964152744 -23.489499869383994 0.0 0.0
-1376.359005641153 -378.9546990081308 -874.8171642199018 -26.306671456520107 0.0 0.0
-1536.935600573892 -534.8500837530198 -1032.8119381787967 -44.34096670409025 0.0 0.0
-1662.1736393922606 -687.2557049637124 -1172.5536032770185 -82.7736767236594 0.0 0.0
-1662.173639392569 -687.255704964073 -1172.5536032772668 82.77367672378745 0.0 0.0
-1536.9356005736076 -534.8500837527814 -1032.8119381785868 44.34096670414979 0.0 0.0
-1376.3590056406981 -378.9546990077309 -874.8171642195 26.30667145652435 0.0 0.0
-1287.231618566357 -308.53945383159737 -795.6739641520201 23.48949986943777 0.0 0.0
-1216.9024339106227 -263.4491968504597 -738.0712459261204 26.485829900121665 0.0 0.0
-1149.0826647891543 -224.18668004265228 -684.4648699552445 28.884351355077243 0.0 0.0
-1082.6365227090887 -188.18048635464118 -633.1293294486942 30.146484482878417 0.0 0.0
-1017.9008612411883 -154.85260608594854 -583.9166454056088 31.03926094908161 0.0 0.0
-954.130199878198 -123.18673062996957 -535.8904333011121 31.913723008378852 0.0 0.0
-889.9846536220881 -93.2841263283478 -488.27763014642215 32.58109173476691 0.0 0.0
-825.3862950316704 -64.82844533682939 -440.4571713143207 32.543840023792804 0.0 0.0
-760.4375022892345 -39.18890049257578 -391.8756028474545 31.453328615557854 0.0 0.0
-695.3038918120824 -18.09286708402888 -340.4966915643212 29.625284677129677 0.0 0.0
-629.3255804904419 -3.1140356051621296 -282.4560919802253 28.100083880493212 0.0 0.0
-557.2391821003392 5.598274377447336 -215.09858128887612 28.977417738629615 0.0 0.0
-471.7828433024214 17.362182650300284 -145.94377314012556 39.471232449042304 0.0 0.0
-358.8369808791398 2.8610782794218013 -106.75196307795862 52.42869827637148 0.0 0.0
-231.96215098145728 0.13787459707054772 -69.54728291531602 58.76479911366374 0.0 0.0
-109.14076891523271 -4.594298563773309 -34.120520243701804 49.492160968654346 0.0 0.0
-25.03274958595769 -2.8261336971465445 -8.357664984931269 15.316035498369462 0.0 0.0
-18.21956775599807 2.591683525391709 -4.688365269181908 -2.0524234973677666 0.0 0.0
-104.40779469862181 1.6107976957109553 -30.839099100873252 -20.18257242023621 0.0 0.0
-250.53526320604607 -1.2055643362687878 -75.52224826269445 -23.276795604790877 0.0 0.0
-398.2624871319166 4.123079064081451 -118.40747241486802 -21.306142417579885 0.0 0.0
-507.4179344320436 15.109131619924867 -166.017171596797 -13.681037072168433 0.0 0.0
-584.4265365903163 2.172905018613285 -238.8979319981463 -9.242832192756065 0.0 0.0
-649.9660666278161 -4.784213668035541 -300.71331712426445 -9.349637042347782 0.0 0.0
-715.1949002734088 -20.84348629759232 -355.7637394921878 -10.266263622309117 0.0 0.0
-781.3438672564905 -43.49553464540784 -406.3873977514612 -11.45937018561512 0.0 0.0
-848.8732039701988 -71.48783629346926 -456.4581628802929 -12.3186753644144 0.0 0.0
-917.0770213527865 -102.89320582581055 -507.1182133336615 -12.688436084319184 0.0 0.0
-985.3277893824213 -137.18173761491838 -558.7884548883836 -12.617518908564831 0.0 0.0
-1054.0043617214446 -172.85432508860046 -611.1826081848335 -12.431205703832836 0.0 0.0
-1124.222921007934 -210.94975644022566 -665.4619956228985 -12.146279944994252 0.0 0.0
-1197.1018985024361 -253.16548691506375 -723.0767348595068 -11.542351940198689 0.0 0.0
-1271.8675864098357 -299.6397865275715 -783.726042281741 -10.22008269812683 0.0 0.0
-1344.3423738836382 -347.6352008337444 -843.9491753812244 -7.567001859619703 0.0 0.0
-1412.4033302699527 -396.9492911879795 -902.3803318107103 -5.668768054085316 0.0 0.0
-1508.2588793951377 -483.86987791022153 -992.8706434469213 -19.492318483403523 0.0 0.0
-1856.2588260546502 -850.2802830462579 -1351.0966076535287 -66.68254492830874 0.0 0.0
-1856.2588260544644 -850.2802830460673 -1351.0966076534605 66.68254492829496 0.0 0.0
-1508.2588793944028 -483.8698779095181 -992.8706434463938 19.492318483395664 0.0 0.0
-1412.403330270192 -396.949291188284 -902.380331810843 5.668768054019545 0.0 0.0
-1344.3423738840816 -347.6352008342783 -843.9491753815016 7.567001859692095 0.0 0.0
-1271.867586409758 -299.6397865275869 -783.7260422816574 10.220082698123578 0.0 0.0
-1197.1018985019334 -253.16548691467764 -723.0767348590929 11.542351940141497 0.0 0.0
-1124.2229210076198 -210.94975644004393 -665.4619956226095 12.146279945005483 0.0 0.0
-1054.0043617204658 -172.85432508777689 -611.1826081841043 12.431205703802304 0.0 0.0
-985.3277893819427 -137.18173761463584 -558.7884548879945 12.617518908523078 0.0 0.0
-917.077021352003 -102.893205825233 -507.11821333309854 12.688436084242754 0.0 0.0
-848.87320396997 -71.48783629346084 -456.4581628801159 12.318675364329163 0.0 0.0
-781.343867256267 -43.495534645445446 -406.38739775128397 11.459370185626355 0.0 0.0
-715.1949002735364 -20.843486298014497 -355.76373949220374 10.266263622260439 0.0 0.0
-649.9660666278788 -4.784213668401531 -300.713317124211 9.349637042310489 0.0 0.0
-584.4265365899012 2.172905018734074 -238.897931997762 9.2428321927216 0.0 0.0
-507.41793443177005 15.10913161983765 -166.017171596609 13.681037072198965 0.0 0.0
-398.26248713157577 4.123079063968984 -118.40747241481091 21.306142417521574 0.0 0.0
-250.53526320587494 -1.2055643362320545 -75.52224826263209 23.276795604756714 0.0 0.0
-104.40779469850955 1.610797695679766 -30.839099100848927 20.182572420174296 0.0 0.0
-18.21956775599984 2.591683525352444 -4.688365269194217 2.05242349730585 0.0 0.0
SCALARS Strain float 6
LOOKUP_TABLE default
0.009425794729574506 -0.010503680608378807 0.0 -0.005702823717386674 0.0 0.0
0.0020204703728415284 -0.0010494818802178063 0.0 0.0009836825106052383 0.0 0.0
0.0017211033418258331 -0.0007124256888861868 0.0 -6.79509340178186e-05 0.0 0.0
0.002071337742375754 -0.0009333134770427298 0.0 -0.00017476853538125892 0.0 0.0
0.0028942008182522364 -0.0015418208405779676 0.0 -0.00020707173602912965 0.0 0.0
0.004558439376782523 -0.0029220934503773055 0.0 -0.0002862131605800844 0.0 0.0
0.007107431192061527 -0.005199694950815736 0.0 -0.00042629832849347404 0.0 0.0
0.0106466657977515 -0.008463920165181493 0.0 -0.0006277231246688275 0.0 0.0
0.015227681692734434 -0.012765254681417426 0.0 -0.0008949352474457717 0.0 0.0
0.02087177828355879 -0.01811864534564256 0.0 -0.0012066499056801738 0.0 0.0
0.027641339086053988 -0.024587683430657314 0.0 -0.001525916788454068 0.0 0.0
0.03566009431435642 -0.03229657284991183 0.0 -0.0018621114609605194 0.0 0.0
0.045063942615119985 -0.04138512602236011 0.0 -0.0022249566606746263 0.0 0.0
0.055949831343961726 -0.05194658183897438 0.0 -0.0026160593363555584 0.0 0.0
0.06824885727060001 -0.06390618650002855 0.0 -0.0030401257097390777 0.0 0.0
0.08156398315067034 -0.07686787824828611 0.0 -0.0034259353430847184 0.0 0.0
0.09509519035405288 -0.0900421408738592 0.0 -0.0036028226959594623 0.0 0.0
0.10768101094220095 -0.10228611756928752 0.0 -0.0033370908218466333 0.0 0.0
0.11793156900168356 -0.11223092228427767 0.0 -0.002632745980764739 0.0 0.0
0.12417196322454707 -0.118129274676674 0.0 -0.0022832489657680366 0.0 0.0
0.12417196322454133 -0.11812927467667045 0.0 0.0022832489657712562 0.0 0.0
0.11793156900166324 -0.11223092228425946 0.0 0.002632745980779505 0.0 0.0
0.10768101094216592 -0.1022861175692591 0.0 0.003337090821854072 0.0 0.0
0.09509519035401004 -0.0900421408738219 0.0 0.0036028226959644583 0.0 0.0
0.08156398315062408 -0.07686787824824082 0.0 0.0034259353430786676 0.0 0.0
0.0682488572705521 -0.06390618649998547 0.0 0.003040125709739161 0.0 0.0
0.055949831343914125 -0.05194658183892775 0.0 0.002616059336356613 0.0 0.0
0.045063942615071656 -0.04138512602231392 0.0 0.0022249566606749593 0.0 0.0
0.03566009431430861 -0.03229657284986609 0.0 0.0018621114609568834 0.0 0.0
0.02764133908601213 -0.024587683430614016 0.0 0.001525916788452042 0.0 0.0
0.0208717782835236 -0.018118645345605255 0.0 0.0012066499056760382 0.0 0.0
0.015227681692706524 -0.012765254681389449 0.0 0.0008949352474453831 0.0 0.0
0.01064666579772941 -0.008463920165162842 0.0 0.0006277231246665793 0.0 0.0
0.007107431192046099 -0.005199694950803191 0.0 0.0004262983284915589 0.0 0.0
0.004558439376773055 -0.0029220934503684237 0.0 0.00028621316057916846 0.0 0.0
0.0028942008182480106 -0.001541820840574415 0.0 0.00020707173602821372 0.0 0.0
0.0020713377423741963 -0.0009333134770426188 0.0 0.0001747685353803985 0.0 0.0
0.001721103341825736 -0.000712425688886853 0.0 6.795093401748553e-05 0.0 0.0
0.002020470372840283 -0.0010494818802167794 0.0 -0.0009836825106034897 0.0 0.0
0.009425794729564868 -0.010503680608366275 0.0 0.005702823717359667 0.0 0.0
0.006536053233176624 -0.007974740694722066 0.0 -0.0067534108471409005 0.0 0.0
0.0011281031228418843 -0.0005320052803354791 0.0 0.00016913063017368057 0.0 0.0
0.0014814458395975248 -0.0005517750357937334 0.0 -0.00013497268325066147 0.0 0.0
0.0018447175325962475 -0.0008088423372262232 0.0 -0.00042458444925649874 0.0 0.0
0.00250038869945585 -0.001250990911701888 0.0 -0.000489212903945685 0.0 0.0
0.003923560927934975 -0.002384976816362183 0.0 -0.0006867472137137842 0.0 0.0
0.006209097074934999 -0.004383262993422399 0.0 -0.0010519423999234556 0.0 0.0
0.00941284501650472 -0.00730570937390862 0.0 -0.001545575727247256 0.0 0.0
0.013558866147934414 -0.011175981054684314 0.0 -0.0021623811601541587 0.0 0.0
0.01864118841717168 -0.015980286511911856 0.0 -0.002858398590572492 0.0 0.0
0.024694522705174624 -0.021752019758804586 0.0 -0.00357103912686621 0.0 0.0
0.031829914491821806 -0.028603426499636875 0.0 -0.004278601870625509 0.0 0.0
0.040213401886789055 -0.03669795343984705 0.0 -0.0050599467838249035 0.0 0.0
0.04996275648822532 -0.04614956275639681 0.0 -0.005952260157630784 0.0 0.0
0.061025833574333256 -0.05690246749476158 0.0 -0.006909275868791698 0.0 0.0
0.07306220706182831 -0.06861692692562071 0.0 -0.007782652090194686 0.0 0.0
0.08536884741777079 -0.08059764296967087 0.0 -0.008207794713915584 0.0 0.0
0.09690011547060096 -0.09181073251699301 0.0 -0.007754866090561474 0.0 0.0
0.10629512119072379 -0.10088912168628283 0.0 -0.006361596911060308 0.0 0.0
0.11189570752630881 -0.1062580260994892 0.0 -0.0039548169880584405 0.0 0.0
0.11189570752630247 -0.10625802609948076 0.0 0.00395481698807254 0.0 0.0
0.10629512119070508 -0.1008891216862633 0.0 0.006361596911086842 0.0 0.0
0.09690011547057088 -0.09181073251696059 0.0 0.007754866090579182 0.0 0.0
0.08536884741773333 -0.08059764296963534 0.0 0.008207794713925298 0.0 0.0
0.07306220706178776 -0.06861692692558163 0.0 0.007782652090189135 0.0 0.0
0.061025833574289895 -0.0569024674947185 0.0 0.0069092758687903655 0.0 0.0
0.04996275648818274 -0.04614956275635507 0.0 0.005952260157630285 0.0 0.0
0.04021340188674588 -0.03669795343980642 0.0 0.005059946783824321 0.0 0.0
0.03182991449177952 -0.028603426499595352 0.0 0.004278601870619014 0.0 0.0
0.024694522705137167 -0.02175201975876595 0.0 0.0035710391268608532 0.0 0.0
0.01864118841713991 -0.01598028651188077 0.0 0.002858398590563971 0.0 0.0
0.013558866147908855 -0.011175981054659667 0.0 0.0021623811601518272 0.0 0.0
0.009412845016484872 -0.0073057093738913 0.0 0.0015455757272433979 0.0 0.0
0.006209097074921149 -0.004383262993410075 0.0 0.0010519423999215682 0.0 0.0
0.0039235609279272 -0.0023849768163550777 0.0 0.0006867472137122854 0.0 0.0
0.0025003886994525715 -0.0012509909116977802 0.0 0.0004892129039456294 0.0 0.0
0.001844717532595186 -0.0008088423372241693 0.0 0.0004245844492560824 0.0 0.0
0.0014814458395973618 -0.0005517750357932893 0.0 0.00013497268325038392 0.0 0.0
0.0011281031228420613 -0.0005320052803340358 0.0 -0.00016913063017576224 0.0 0.0
0.006536053233165584 -0.00797474069470889 0.0 0.006753410847118058 0.0 0.0
0.004760114194099264 -0.006317046552654804 0.0 -0.006229920700621422 0.0 0.0
0.0006694219613163493 -0.0003370486314213661 0.0 -0.0005073962341237137 0.0 0.0
0.0011883625456757078 -0.0004069691619214 0.0 -0.0004070703790145791 0.0 0.0
0.0016198708433854785 -0.0006872883562781817 0.0 -0.0006621496113099479 0.0 0.0
0.0021530420263576253 -0.0010157727343915735 0.0 -0.0007613312267627514 0.0 0.0
0.0033063109255667585 -0.001883947242657391 0.0 -0.0009980453119283195 0.0 0.0
0.005310186172749854 -0.0035796838786426033 0.0 -0.0015193484956234349 0.0 0.0
0.008164223262576521 -0.006149090401048385 0.0 -0.0022600131630943765 0.0 0.0
0.011864552872647705 -0.00957401134316016 0.0 -0.0031577598387468875 0.0 0.0
0.016381545032573094 -0.013824979399425397 0.0 -0.004154882455333575 0.0 0.0
0.021726523897337334 -0.0189081930688777 0.0 -0.005178577308552174 0.0 0.0
0.0279949414011004 -0.0249164251294145 0.0 -0.006196244750170415 0.0 0.0
0.0353517782802187 -0.03201040628324314 0.0 -0.007282937858367283 0.0 0.0
0.043941694597806565 -0.040329738080698396 0.0 -0.008547081373074916 0.0 0.0
0.05374586728105855 -0.049854035927703766 0.0 -0.009943531520285376 0.0 0.0
0.06448706036461416 -0.06030592328614803 0.0 -0.011205125223992807 0.0 0.0
0.07557439641272193 -0.07109859442830135 0.0 -0.011864863008436366 0.0 0.0
0.08607332866105906 -0.08129652755981631 0.0 -0.011373123804584162 0.0 0.0
0.09468788260210785 -0.08962754298837439 0.0 -0.009308639772604377 0.0 0.0
0.09995925381792656 -0.09470330523308812 0.0 -0.005229796807445508 0.0 0.0
0.09995925381792017 -0.09470330523307746 0.0 0.005229796807467824 0.0 0.0
0.09468788260209096 -0.08962754298835485 0.0 0.009308639772638572 0.0 0.0
0.08607332866103291 -0.08129652755978789 0.0 0.011373123804609642 0.0 0.0
0.07557439641268897 -0.07109859442826627 0.0 0.011864863008446802 0.0 0.0
0.06448706036457852 -0.06030592328611162 0.0 0.011205125223987755 0.0 0.0
0.05374586728102018 -0.04985403592766713 0.0 0.009943531520283266 0.0 0.0
0.04394169459776892 -0.040329738080661315 0.0 0.008547081373073417 0.0 0.0
0.03535177828018063 -0.03201040628320739 0.0 0.007282937858365368 0.0 0.0
0.02799494140106351 -0.024916425129380082 0.0 0.006196244750162561 0.0 0.0
0.021726523897304173 -0.018908193068848167 0.0 0.00517857730854443 0.0 0.0
0.016381545032544742 -0.01382497939940186 0.0 0.004154882455322528 0.0 0.0
0.01186455287262489 -0.009574011343139732 0.0 0.003157759838740337 0.0 0.0
0.00816422326255889 -0.006149090401033286 0.0 0.002260013163088548 0.0 0.0
0.005310186172737735 -0.0035796838786331664 0.0 0.0015193484956197711 0.0 0.0
0.0033063109255605516 -0.0018839472426530612 0.0 0.0009980453119256272 0.0 0.0
0.002153042026355384 -0.0010157727343909073 0.0 0.0007613312267618355 0.0 0.0
0.0016198708433846076 -0.0006872883562780707 0.0 0.000662149611308338 0.0 0.0
0.0011883625456755031 -0.0004069691619221216 0.0 0.0004070703790132191 0.0 0.0
0.0006694219613166408 -0.0003370486314203669 0.0 0.0005073962341214378 0.0 0.0
0.004760114194089254 -0.006317046552642961 0.0 0.006229920700602465 0.0 0.0
0.0035415762970955403 -0.0050752018530179355 0.0 -0.005282256577208877 0.0 0.0
0.0004204877528977691 -0.00025567028732942365 0.0 -0.0010808549608926077 0.0 0.0
0.000918717853925298 -0.00029280279756555005 0.0 -0.0007672353487921668 0.0 0.0
0.0013830903947033707 -0.0005673113001990471 0.0 -0.00091967616493005 0.0 0.0
0.0018440231060461165 -0.0008341823637053603 0.0 -0.0010383237757831676 0.0 0.0
0.0027402620175187783 -0.0014564409052915117 0.0 -0.0012497988348407763 0.0 0.0
0.004415187219720909 -0.002810538980639432 0.0 -0.001835301724826932 0.0 0.0
0.006911994293646785 -0.0050048708949721465 0.0 -0.00276488969166247 0.0 0.0
0.010156234888447843 -0.007975426576192213 0.0 -0.003873738720744424 0.0 0.0
0.014105509552554955 -0.011668888037769554 0.0 -0.005097005914256575 0.0 0.0
0.01874837465443075 -0.016067992152492216 0.0 -0.006344544444038702 0.0 0.0
0.024160374769789564 -0.021241824033100043 0.0 -0.007588464729398003 0.0 0.0
0.03049813225160633 -0.027343005217977723 0.0 -0.008924383776716671 0.0 0.0
0.037916712075164796 -0.034517739025968996 0.0 -0.010432693155666084 0.0 0.0
0.04643591306041046 -0.042787626583910665 0.0 -0.012094714634845433 0.0 0.0
0.05585857040472411 -0.051955199332105906 0.0 -0.013660648813218185 0.0 0.0
0.06570876689273161 -0.061540730613109496 0.0 -0.014566091028990091 0.0 0.0
0.07517755643822716 -0.07073744031057982 0.0 -0.014105124611596964 0.0 0.0
0.08311640195663592 -0.07842131883716474 0.0 -0.011568117080937801 0.0 0.0
0.0882132720088008 -0.08334008830149697 0.0 -0.006286790973569323 0.0 0.0
0.08821327200879482 -0.08334008830149298 0.0 0.006286790973597245 0.0 0.0
0.08311640195662072 -0.07842131883715053 0.0 0.011568117080976714 0.0 0.0
0.07517755643820419 -0.07073744031055762 0.0 0.014105124611625497 0.0 0.0
0.06570876689270291 -0.061540730613080186 0.0 0.014566091029003081 0.0 0.0
0.05585857040469282 -0.051955199332075264 0.0 0.013660648813213938 0.0 0.0
0.04643591306037706 -0.04278762658388069 0.0 0.012094714634840797 0.0 0.0
0.03791671207513242 -0.0345177390259368 0.0 0.010432693155663197 0.0 0.0
0.030498132251573273 -0.027343005217945082 0.0 0.008924383776713285 0.0 0.0
0.02416037476975791 -0.021241824033072065 0.0 0.0075884647293884555 0.0 0.0
0.01874837465440199 -0.01606799215246646 0.0 0.00634454444402871 0.0 0.0
0.014105509552530038 -0.011668888037744019 0.0 0.005097005914243502 0.0 0.0
0.010156234888428012 -0.007975426576173117 0.0 0.0038737387207384844 0.0 0.0
0.006911994293631374 -0.005004870894958602 0.0 0.002764889691655781 0.0 0.0
0.0044151872197108755 -0.0028105389806305503 0.0 0.0018353017248233239 0.0 0.0
0.0027402620175139003 -0.0014564409052870708 0.0 0.0012497988348388056 0.0 0.0
0.001844023106044368 -0.0008341823637036949 0.0 0.0010383237757821129 0.0 0.0
0.0013830903947028572 -0.0005673113001990471 0.0 0.0009196761649289398 0.0 0.0
0.0009187178539252772 -0.0002928027975656611 0.0 0.0007672353487909733 0.0 0.0
0.0004204877528978801 -0.00025567028732861874 0.0 0.001080854960890526 0.0 0.0
0.0035415762970866793 -0.005075201853007763 0.0 0.005282256577194666 0.0 0.0
0.0026351571857534603 -0.0040721568696930055 0.0 -0.0043277997976143845 0.0 0.0
0.00027910093037456646 -0.00022190095722590675 0.0 -0.0015254310568781349 0.0 0.0
0.0006894562664751941 -0.00020783068751195621 0.0 -0.0011344208905809394 0.0 0.0
0.001138383700172635 -0.000450963422428563 0.0 -0.001194223452795351 0.0 0.0
0.0015559647908746227 -0.0006827884777933502 0.0 -0.0013121125238446107 0.0 0.0
0.0022393997873401614 -0.0011127453440070711 0.0 -0.0014955418085007 0.0 0.0
0.003559341110387325 -0.0021079527405136744 0.0 -0.0020223055057927986 0.0 0.0
0.00565927982344968 -0.003885416480064574 0.0 -0.0030195806805550507 0.0 0.0
0.008445895547610362 -0.006395582753047524 0.0 -0.00430124103255175 0.0 0.0
0.011824657421828658 -0.009526562021525686 0.0 -0.005674997351387684 0.0 0.0
0.015771394290464813 -0.013245095778326332 0.0 -0.007071772970761697 0.0 0.0
0.020337127173890246 -0.01759451574257298 0.0 -0.008457339108460443 0.0 0.0
0.025664104080990013 -0.022708417832178807 0.0 -0.009928666746335829 0.0 0.0
0.03191058447280032 -0.028740083520343296 0.0 -0.01160309191674383 0.0 0.0
0.03913211218359828 -0.0357426942355219 0.0 -0.01342689088282295 0.0 0.0
0.047204222802436094 -0.043590587654439794 0.0 -0.01513198055437831 0.0 0.0
0.055772187997806255 -0.0519296240083551 0.0 -0.016231228580635193 0.0 0.0
0.0641999865854824 -0.060119686129167516 0.0 -0.015917856370993078 0.0 0.0
0.07152438250419073 -0.0672154505984417 0.0 -0.013198619687674218 0.0 0.0
0.07654914860261605 -0.07207026611868228 0.0 -0.007181991673178345 0.0 0.0
0.07654914860261042 -0.07207026611867784 0.0 0.007181991673208821 0.0 0.0
0.07152438250417718 -0.06721545059843015 0.0 0.013198619687714352 0.0 0.0
0.06419998658546247 -0.060119686129147976 0.0 0.015917856371022887 0.0 0.0
0.05577218799778186 -0.05192962400833512 0.0 0.01623122858064774 0.0 0.0
0.04720422280240877 -0.04359058765441537 0.0 0.015131980554374536 0.0 0.0
0.039132112183569864 -0.03574269423549703 0.0 0.013426890882818954 0.0 0.0
0.03191058447277301 -0.028740083520322868 0.0 0.011603091916740471 0.0 0.0
0.025664104080962424 -0.022708417832157046 0.0 0.009928666746332304 0.0 0.0
0.02033712717386338 -0.017594515742548555 0.0 0.008457339108450701 0.0 0.0
0.015771394290440582 -0.013245095778305682 0.0 0.007071772970750179 0.0 0.0
0.011824657421807605 -0.009526562021506146 0.0 0.005674997351373945 0.0 0.0
0.008445895547593563 -0.0063955827530304266 0.0 0.004301241032545089 0.0 0.0
0.0056592798234365305 -0.0038854164800530278 0.0 0.0030195806805465297 0.0 0.0
0.003559341110379477 -0.0021079527405080123 0.0 0.002022305505787303 0.0 0.0
0.0022393997873366434 -0.0011127453440039625 0.0 0.0014955418084963978 0.0 0.0
0.0015559647908732765 -0.0006827884777927951 0.0 0.0013121125238427511 0.0 0.0
0.001138383700172163 -0.00045096342242861853 0.0 0.0011942234527932138 0.0 0.0
0.0006894562664749859 -0.00020783068751217826 0.0 0.0011344208905792463 0.0 0.0
0.0002791009303746983 -0.00022190095722507408 0.0 0.0015254310568761364 0.0 0.0
0.0026351571857463063 -0.004072156869684748 0.0 0.004327799797603948 0.0 0.0
0.0019395459408060103 -0.0032417836118509014 0.0 -0.003505068847642401 0.0 0.0
0.00019005698567382823 -0.00020633166848327278 0.0 -0.0018531501934000993 0.0 0.0
0.0004948319152874997 -0.00014304370453932513 0.0 -0.0014648240212319363 0.0 0.0
0.0008926678347456959 -0.00033765393060392057 0.0 -0.0014619587275497559 0.0 0.0
0.0012741163164840044 -0.0005469695250168716 0.0 -0.0015767106497483196 0.0 0.0
0.001790562951713072 -0.000846235373857307 0.0 -0.001748738115142895 0.0 0.0
0.0027797537424960952 -0.0015203028743806524 0.0 -0.0021868966749942764 0.0 0.0
0.004436076426077809 -0.0028406021791060887 0.0 -0.0030903577532378768 0.0 0.0
0.006739343591970703 -0.004848478171238568 0.0 -0.0044013619620378586 0.0 0.0
0.00955165022798677 -0.007416034751231759 0.0 -0.005873803945212808 0.0 0.0
0.012805200867764328 -0.0104560050256024 0.0 -0.007339402215446517 0.0 0.0
0.016536701334543213 -0.013989437557655915 0.0 -0.00878879106609795 0.0 0.0
0.02086572279187064 -0.018128279625383215 0.0 -0.010316362977323579 0.0 0.0
0.025942980225755793 -0.02301793023969556 0.0 -0.012017436084605315 0.0 0.0
0.031859046260967167 -0.028745082162270563 0.0 -0.013881615928241053 0.0 0.0
0.0385557623618267 -0.03525037518481389 0.0 -0.0156634679651394 0.0 0.0
0.045787784248473976 -0.04228954555768194 0.0 -0.016857785068143838 0.0 0.0
0.05312088120628372 -0.04942538867224666 0.0 -0.0167256117308639 0.0 0.0
0.05983804618837893 -0.05594263092100249 0.0 -0.014160655367875863 0.0 0.0
0.06486332566167775 -0.060800040459090265 0.0 -0.007928043326849099 0.0 0.0
0.06486332566167265 -0.06080004045908627 0.0 0.00792804332688013 0.0 0.0
0.05983804618836712 -0.05594263092099494 0.0 0.014160655367915054 0.0 0.0
0.05312088120626689 -0.04942538867223467 0.0 0.016725611730893264 0.0 0.0
0.0457877842484536 -0.042289545557662844 0.0 0.016857785068155773 0.0 0.0
0.03855576236180361 -0.03525037518478724 0.0 0.015663467965133848 0.0 0.0
0.0318590462609436 -0.028745082162248803 0.0 0.013881615928234337 0.0 0.0
0.02594298022573345 -0.023017930239672912 0.0 0.01201743608459982 0.0 0.0
0.020865722791848867 -0.01812827962536301 0.0 0.010316362977319249 0.0 0.0
0.01653670133452098 -0.013989437557635265 0.0 0.008788791066089263 0.0 0.0
0.012805200867744337 -0.010456005025582638 0.0 0.007339402215434554 0.0 0.0
0.00955165022796961 -0.007416034751216882 0.0 0.005873803945198597 0.0 0.0
0.006739343591956798 -0.004848478171227022 0.0 0.004401361962028949 0.0 0.0
0.004436076426067664 -0.0028406021790992053 0.0 0.003090357753230799 0.0 0.0
0.002779753742490232 -0.0015203028743769886 0.0 0.0021868966749921115 0.0 0.0
0.001790562951710789 -0.0008462353738555306 0.0 0.0017487381151405634 0.0 0.0
0.001274116316483137 -0.0005469695250160944 0.0 0.0015767106497468764 0.0 0.0
0.0008926678347453143 -0.0003376539306041981 0.0 0.0014619587275478407 0.0 0.0
0.0004948319152871528 -0.00014304370453899207 0.0 0.001464824021230271 0.0 0.0
0.0001900569856738421 -0.00020633166848216256 0.0 0.0018531501933981565 0.0 0.0
0.00193954594080048 -0.0032417836118439564 0.0 0.003505068847634296 0.0 0.0
0.0014018124961835965 -0.0025491556010164285 0.0 -0.002838170496377468 0.0 0.0
0.00012410461579497045 -0.00019943536293154374 0.0 -0.0020812263014359234 0.0 0.0
0.0003236938239380982 -8.843216288650924e-05 0.0 -0.0017394104100257046 0.0 0.0
0.0006517737482333308 -0.00022771964421153257 0.0 -0.001706297720205141 0.0 0.0
0.0009862618401694917 -0.0004157567789701 0.0 -0.0018253199579601753 0.0 0.0
0.0013813501558332664 -0.000626407516654548 0.0 -0.0019780422973120493 0.0 0.0
0.002076305287659272 -0.0010438880422369845 0.0 -0.0023184098827964406 0.0 0.0
0.003291411415256504 -0.0019253914556791596 0.0 -0.0030550058695671956 0.0 0.0
0.005063795995770573 -0.0033853800434628933 0.0 -0.004212050497821196 0.0 0.0
0.0072944402984387174 -0.005358615535933087 0.0 -0.005648400330482972 0.0 0.0
0.009859429783250287 -0.007720284260347654 0.0 -0.007130701308432019 0.0 0.0
0.012769033336021973 -0.010446257747271703 0.0 -0.008568671832915098 0.0 0.0
0.01611604386796911 -0.013623987528107673 0.0 -0.010055797916437403 0.0 0.0
0.020038307666480612 -0.01738384058556286 0.0 -0.011692423597161605 0.0 0.0
0.02464071601399484 -0.021829357762514157 0.0 -0.01346971932802521 0.0 0.0
0.02993768762661346 -0.026963829874332657 0.0 -0.015182787216497962 0.0 0.0
0.03578325382827989 -0.03265290417219635 0.0 -0.016420910318904136 0.0 0.0
0.04193455446874063 -0.038654119269717846 0.0 -0.016526147024287063 0.0 0.0
0.04797825849912564 -0.04453483423717097 0.0 -0.0144073845916044 0.0 0.0
0.05304154125126011 -0.049427499613748704 0.0 -0.008513458634988369 0.0 0.0
0.05304154125125636 -0.04942749961374382 0.0 0.008513458635016846 0.0 0.0
0.04797825849911565 -0.04453483423715765 0.0 0.014407384591643813 0.0 0.0
0.04193455446872682 -0.0386541192697063 0.0 0.016526147024315596 0.0 0.0
0.03578325382826328 -0.032652904172182584 0.0 0.016420910318915405 0.0 0.0
0.029937687626595114 -0.026963829874319334 0.0 0.015182787216492355 0.0 0.0
0.02464071601397634 -0.021829357762497947 0.0 0.013469719328018936 0.0 0.0
0.020038307666463306 -0.017383840585545096 0.0 0.01169242359715833 0.0 0.0
0.01611604386795286 -0.013623987528090131 0.0 0.010055797916433185 0.0 0.0
0.01276903333600482 -0.01044625774725727 0.0 0.008568671832905439 0.0 0.0
0.009859429783234869 -0.007720284260333887 0.0 0.007130701308420639 0.0 0.0
0.0072944402984254225 -0.00535861553591932 0.0 0.005648400330470316 0.0 0.0
0.005063795995759984 -0.0033853800434531234 0.0 0.004212050497814035 0.0 0.0
0.0032914114152492596 -0.0019253914556751628 0.0 0.003055005869561811 0.0 0.0
0.002076305287655192 -0.001043888042234542 0.0 0.0023184098827934985 0.0 0.0
0.0013813501558317814 -0.0006264075166555472 0.0 0.0019780422973095513 0.0 0.0
0.000986261840168895 -0.0004157567789712102 0.0 0.0018253199579586488 0.0 0.0
0.0006517737482330255 -0.00022771964421236524 0.0 0.0017062977202026708 0.0 0.0
0.00032369382393787616 -8.843216288645372e-05 0.0 0.0017394104100231234 0.0 0.0
0.00012410461579470677 -0.00019943536293129394 0.0 0.0020812263014329813 0.0 0.0
0.001401812496179572 -0.0025491556010113735 0.0 0.002838170496371195 0.0 0.0
0.0009957380745801714 -0.0019903716410202 0.0 -0.00233655167392674 0.0 0.0
6.123362404039656e-05 -0.00019353998011761853 0.0 -0.002215989891837855 0.0 0.0
0.00016751808969203696 -3.64252825514888e-05 0.0 -0.0019574990567424178 0.0 0.0
0.000418398880344395 -0.00012291939123576512 0.0 -0.0019132192719199526 0.0 0.0
0.000689231322613254 -0.0002785631014893264 0.0 -0.002031425242021573 0.0 0.0
0.0009893207531089798 -0.0004403091710480922 0.0 -0.0022099164972287366 0.0 0.0
0.001445463050270726 -0.0006782882489602127 0.0 -0.0024665969761559214 0.0 0.0
0.0022457516598584637 -0.0011716857845596174 0.0 -0.002963355810826185 0.0 0.0
0.0034701631308301784 -0.0020807779361511347 0.0 -0.003835996838000455 0.0 0.0
0.005077177276091055 -0.0034146320834722577 0.0 -0.005038409600469751 0.0 0.0
0.0069461516732904766 -0.005074105318069622 0.0 -0.006390555821935984 0.0 0.0
0.00904160015387001 -0.006997291543340722 0.0 -0.007744172223985046 0.0 0.0
0.01142690373150236 -0.009228282439431634 0.0 -0.009127692703482126 0.0 0.0
0.014211367866546282 -0.01187284504799102 0.0 -0.010598793343245205 0.0 0.0
0.017506366780213445 -0.015037179291258695 0.0 -0.012175154672662891 0.0 0.0
0.021376023466818786 -0.018779590430508364 0.0 -0.01371993574563235 0.0 0.0
0.025789261147092776 -0.023063225872889337 0.0 -0.014868040706811081 0.0 0.0
0.03064944040858472 -0.027817842528685688 0.0 -0.015165268476688143 0.0 0.0
0.03586584215367067 -0.032933752721261644 0.0 -0.013804996358929233 0.0 0.0
0.040948634672572426 -0.037847533149354184 0.0 -0.008908851871593848 0.0 0.0
0.04094863467257019 -0.037847533149351076 0.0 0.008908851871618773 0.0 0.0
0.035865842153663285 -0.03293375272125765 0.0 0.013804996358963983 0.0 0.0
0.03064944040857373 -0.027817842528675918 0.0 0.015165268476713623 0.0 0.0
0.02578926114708019 -0.023063225872874238 0.0 0.014868040706818852 0.0 0.0
0.021376023466805227 -0.01877959043049726 0.0 0.013719935745626077 0.0 0.0
0.017506366780200427 -0.015037179291249814 0.0 0.012175154672655175 0.0 0.0
0.01421136786653425 -0.011872845047982361 0.0 0.010598793343240875 0.0 0.0
0.011426903731491314 -0.009228282439422975 0.0 0.009127692703478851 0.0 0.0
0.009041600153858242 -0.006997291543330952 0.0 0.007744172223976942 0.0 0.0
0.00694615167327961 -0.005074105318061628 0.0 0.006390555821925992 0.0 0.0
0.005077177276081604 -0.003414632083464486 0.0 0.005038409600457094 0.0 0.0
0.003470163130823517 -0.002080777936146694 0.0 0.0038359968379942933 0.0 0.0
0.002245751659853648 -0.0011716857845556206 0.0 0.0029633558108222435 0.0 0.0
0.001445463050268353 -0.0006782882489578812 0.0 0.002466596976154617 0.0 0.0
0.0009893207531079529 -0.00044030917104742606 0.0 0.0022099164972257668 0.0 0.0
0.0006892313226130181 -0.0002785631014879941 0.0 0.002031425242019186 0.0 0.0
0.0004183988803440203 -0.00012291939123554307 0.0 0.0019132192719174546 0.0 0.0
0.0001675180896920092 -3.642528255143329e-05 0.0 0.0019574990567405304 0.0 0.0
6.123362403991084e-05 -0.000193539980117452 0.0 0.002215989891835718 0.0 0.0
0.0009957380745776873 -0.0019903716410165397 0.0 0.0023365516739235204 0.0 0.0
0.0007061393014239636 -0.0015735289650827544 0.0 -0.002012143931364646 0.0 0.0
-6.05282957129305e-06 -0.00018690653867559082 0.0 -0.0022992231105084804 0.0 0.0
2.1396059520395472e-05 1.6944973772581307e-05 0.0 -0.0021178205994512034 0.0 0.0
0.0001930598771652109 -2.3550538268524157e-05 0.0 -0.0020748471148613334 0.0 0.0
0.00038725134680847595 -0.00013670644050789438 0.0 -0.002183953558096474 0.0 0.0
0.0005903197400842358 -0.0002554067111045777 0.0 -0.0023920210127926778 0.0 0.0
0.0008628225981883175 -0.00039427722918494723 0.0 -0.00265467357012672 0.0 0.0
0.0013046562843748583 -0.0006149553230396787 0.0 -0.0029571660688962886 0.0 0.0
0.0020016764762047223 -0.0010242945270513282 0.0 -0.0034180410424720087 0.0 0.0
0.0029514258244976443 -0.0017002553478400184 0.0 -0.004172435172847655 0.0 0.0
0.004094709684084527 -0.002619268015094267 0.0 -0.0051773507760152215 0.0 0.0
0.005364730218782282 -0.0037204339561633937 0.0 -0.006298189442392466 0.0 0.0
0.0068014195818114215 -0.005010020307410379 0.0 -0.007509919488820294 0.0 0.0
0.008473476625264417 -0.006555774477230214 0.0 -0.00877060471959723 0.0 0.0
0.01046959783424975 -0.008444098730877148 0.0 -0.010083451701001056 0.0 0.0
0.012890776723120459 -0.010768974561251365 0.0 -0.01138887721328713 0.0 0.0
0.015825835863702523 -0.013604948651360083 0.0 -0.01244774988366093 0.0 0.0
0.01932265373471445 -0.017003288008248685 0.0 -0.01280283575249308 0.0 0.0
0.023459985210032314 -0.0211215752766738 0.0 -0.012149606581376649 0.0 0.0
0.028396302012370436 -0.025928489833357826 0.0 -0.008966146471681147 0.0 0.0
0.028396302012369104 -0.02592848983335827 0.0 0.008966146471701353 0.0 0.0
0.023459985210028234 -0.021121575276668914 0.0 0.01214960658140668 0.0 0.0
0.01932265373470618 -0.017003288008244244 0.0 0.012802835752514286 0.0 0.0
0.015825835863694543 -0.013604948651357862 0.0 0.012447749883664927 0.0 0.0
0.012890776723112438 -0.010768974561243816 0.0 0.011388877213279636 0.0 0.0
0.010469597834242117 -0.008444098730865823 0.0 0.010083451700994894 0.0 0.0
0.008473476625257922 -0.00655577447722222 0.0 0.008770604719594899 0.0 0.0
0.006801419581805676 -0.005010020307405272 0.0 0.007509919488819516 0.0 0.0
0.005364730218776148 -0.0037204339561571764 0.0 0.006298189442386748 0.0 0.0
0.004094709684078046 -0.002619268015088938 0.0 0.005177350776007672 0.0 0.0
0.002951425824492329 -0.0017002553478373539 0.0 0.004172435172839661 0.0 0.0
0.0020016764762015304 -0.0010242945270519943 0.0 0.0034180410424692886 0.0 0.0
0.001304656284372388 -0.0006149553230379023 0.0 0.002957166068893957 0.0 0.0
0.0008628225981870546 -0.00039427722918206065 0.0 0.0026546735701238333 0.0 0.0
0.0005903197400836113 -0.0002554067111051328 0.0 0.002392021012789375 0.0 0.0
0.00038725134680840656 -0.00013670644050878256 0.0 0.0021839535580938374 0.0 0.0
0.00019305987716504436 -2.355053826869069e-05 0.0 0.002074847114859113 0.0 0.0
2.139605952028445e-05 1.6944973773025396e-05 0.0 0.0021178205994482613 0.0 0.0
-6.052829571515095e-06 -0.0001869065386757851 0.0 0.0022992231105067595 0.0 0.0
0.0007061393014224926 -0.001573528965080723 0.0 0.002012143931362703 0.0 0.0
0.0005048192416298031 -0.0012634539912375342 0.0 -0.0017945131462486497 0.0 0.0
-7.11144667314284e-05 -0.0001764457978195022 0.0 -0.00234392937144301 0.0 0.0
-0.00011700676548802302 7.01313264661052e-05 0.0 -0.002225092788448263 0.0 0.0
-2.456133130322724e-05 7.168760041542654e-05 0.0 -0.002183965591961795 0.0 0.0
8.51045032906339e-05 5.053481333283649e-06 0.0 -0.0022777324599903004 0.0 0.0
0.00018203075097952826 -6.427681058673862e-05 0.0 -0.0024932503016646124 0.0 0.0
0.00028566272604652054 -0.00012708735917787983 0.0 -0.0027934665938498526 0.0 0.0
0.00043011495427426605 -0.0001982442516414995 0.0 -0.0030806256868025628 0.0 0.0
0.0006521979518099158 -0.0003055464218217896 0.0 -0.003339769780451751 0.0 0.0
0.0009595079884340135 -0.0004641705170909116 0.0 -0.003654395579541836 0.0 0.0
0.0013454465501808732 -0.0006834820576027134 0.0 -0.004157014454379937 0.0 0.0
0.0017682029869271337 -0.0009646872647257609 0.0 -0.004858500386820508 0.0 0.0
0.0022448500669158405 -0.0013021694152626218 0.0 -0.005752266358322489 0.0 0.0
0.002801806322181702 -0.0017287752421510927 0.0 -0.006829307618480773 0.0 0.0
0.0034941502796539403 -0.002317477019419645 0.0 -0.008090768655441005 0.0 0.0
0.004451181213817601 -0.0031849890918600465 0.0 -0.009444887785699407 0.0 0.0
0.00587953887186958 -0.004517631906473252 0.0 -0.01061178397391721 0.0 0.0
0.00801023094684522 -0.006521585732455204 0.0 -0.011079889392296316 0.0 0.0
0.010954104290503641 -0.009370042339973406 0.0 -0.010426834310704902 0.0 0.0
0.015195785333406889 -0.013689131902459462 0.0 -0.008820384567117479 0.0 0.0
0.01519578533340682 -0.01368913190245813 0.0 0.008820384567132467 0.0 0.0
0.010954104290502184 -0.009370042339971185 0.0 0.010426834310728994 0.0 0.0
0.008010230946840571 -0.006521585732450319 0.0 0.011079889392312525 0.0 0.0
0.0058795388718664715 -0.004517631906468811 0.0 0.010611783973918654 0.0 0.0
0.0044511812138160745 -0.00318498909185827 0.0 0.009444887785693135 0.0 0.0
0.0034941502796518586 -0.002317477019416092 0.0 0.00809076865543601 0.0 0.0
0.0028018063221806194 -0.0017287752421497604 0.0 0.00682930761847772 0.0 0.0
0.0022448500669155352 -0.0013021694152628438 0.0 0.005752266358320435 0.0 0.0
0.0017682029869265509 -0.000964687264726205 0.0 0.004858500386814291 0.0 0.0
0.001345446550179527 -0.0006834820575993827 0.0 0.004157014454373331 0.0 0.0
0.0009595079884330421 -0.0004641705170889132 0.0 0.0036543955795368954 0.0 0.0
0.000652197951809319 -0.0003055464218213455 0.0 0.0033397697804496973 0.0 0.0
0.00043011495427382196 -0.00019824425164127746 0.0 0.003080625686801397 0.0 0.0
0.00028566272604613197 -0.00012708735917799086 0.0 0.0027934665938463554 0.0 0.0
0.0001820307509797503 -6.427681058718271e-05 0.0 0.002493250301661726 0.0 0.0
8.510450329068941e-05 5.0534813337277384e-06 0.0 0.0022777324599873305 0.0 0.0
-2.4561331303213363e-05 7.168760041592614e-05 0.0 0.0021839655919582424 0.0 0.0
-0.00011700676548805078 7.013132646577214e-05 0.0 0.002225092788445404 0.0 0.0
-7.111446673151167e-05 -0.00017644579781964098 0.0 0.002343929371440706 0.0 0.0
0.0005048192416290537 -0.001263453991236287 0.0 0.0017945131462466513 0.0 0.0
0.0003646369462720067 -0.0010274962455906478 0.0 -0.001634552154007679 0.0 0.0
-0.00013023382021398744 -0.00015505119054609606 0.0 -0.0023380742580552394 0.0 0.0
-0.0002474024496737226 0.00012012815518230857 0.0 -0.0022813356220212633 0.0 0.0
-0.00023461780632139106 0.00016308513422713666 0.0 -0.0022372658402754486 0.0 0.0
-0.00021343556904207528 0.00014398711026819555 0.0 -0.0023082691098492425 0.0 0.0
-0.00022806651966938984 0.00012807009029702776 0.0 -0.0025044986886131326 0.0 0.0
-0.0002972248966842117 0.00014346997660363847 0.0 -0.0027958927554861124 0.0 0.0
-0.0004307768357885433 0.00020011707958356162 0.0 -0.00308241397716591 0.0 0.0
-0.0006506841152671972 0.0003047671682634423 0.0 -0.003339826250587763 0.0 0.0
-0.0009579464670767118 0.0004621814410570302 0.0 -0.0036515850609222245 0.0 0.0
-0.0013437445581526986 0.0006833531363581447 0.0 -0.0041519223367659785 0.0 0.0
-0.0017777217507655846 0.0009740421949981926 0.0 -0.004855605437972366 0.0 0.0
-0.002274178936793214 0.0013257157321211466 0.0 -0.005749218403877432 0.0 0.0
-0.002849045398752567 0.0017583545443482507 0.0 -0.00683037479448273 0.0 0.0
-0.0034697257465323705 0.002253998907798316 0.0 -0.008110692908827488 0.0 0.0
-0.003993508174050836 0.002676011807531964 0.0 -0.009560127154263798 0.0 0.0
-0.004129261234459655 0.00276800403637667 0.0 -0.011162313568101767 0.0 0.0
-0.0034922222503256106 0.0022482189144876763 0.0 -0.012883798920970857 0.0 0.0
-0.0017674039143682208 0.0010267479874634944 0.0 -0.014274594959526599 0.0 0.0
0.0021699207016514788 -0.0025727659674097403 0.0 -0.012335625427790708 0.0 0.0
0.002169920701651701 -0.0025727659674119607 0.0 0.01233562542780492 0.0 0.0
-0.0017674039143685677 0.0010267479874639385 0.0 0.014274594959540976 0.0 0.0
-0.0034922222503252776 0.0022482189144859 0.0 0.012883798920976575 0.0 0.0
-0.004129261234456491 0.0027680040363704528 0.0 0.011162313568098658 0.0 0.0
-0.003993508174046076 0.002676011807528411 0.0 0.009560127154256581 0.0 0.0
-0.003469725746528804 0.0022539989077960954 0.0 0.008110692908820438 0.0 0.0
-0.002849045398748404 0.001758354544345364 0.0 0.006830374794477845 0.0 0.0
-0.002274178936788121 0.0013257157321153734 0.0 0.0057492184038752114 0.0 0.0
-0.0017777217507605608 0.0009740421949924194 0.0 0.00485560543796576 0.0 0.0
-0.001343744558148674 0.000683353136355036 0.0 0.004151922336759428 0.0 0.0
-0.0009579464670731591 0.00046218144105591996 0.0 0.003651585060916396 0.0 0.0
-0.000650684115265282 0.00030476716826322026 0.0 0.0033398262505863197 0.0 0.0
-0.0004307768357872249 0.00020011707958267344 0.0 0.0030824139771651327 0.0 0.0
-0.0002972248966834484 0.00014346997660352745 0.0 0.002795892755483337 0.0 0.0
-0.00022806651966864044 0.00012807009029658367 0.0 0.002504498688610246 0.0 0.0
-0.0002134355690418116 0.00014398711026886168 0.0 0.0023082691098468833 0.0 0.0
-0.00023461780632121065 0.00016308513422791382 0.0 0.002237265840273006 0.0 0.0
-0.0002474024496734589 0.0001201281551824196 0.0 0.002281335622019709 0.0 0.0
-0.00013023382021398744 -0.00015505119054615157 0.0 0.0023380742580539904 0.0 0.0
0.0003646369462717014 -0.0010274962455895948 0.0 0.0016345521540059027 0.0 0.0
0.0002627534720177488 -0.0008220400326359734 0.0 -0.0014706415648050586 0.0 0.0
-0.0001842417364745913 -0.00012540375843778095 0.0 -0.002282270276960874 0.0 0.0
-0.000369462561182185 0.0001675559056243392 0.0 -0.0022834519085808136 0.0 0.0
-0.00043682168809236477 0.00024958495717319895 0.0 -0.002233864843238731 0.0 0.0
-0.0005053086923296479 0.0002782754342239846 0.0 -0.0022746704906407567 0.0 0.0
-0.0006334766899840222 0.0003167591589600116 0.0 -0.0024362904155496856 0.0 0.0
-0.0008737318764305418 0.00041024541704715034 0.0 -0.0026696784313981203 0.0 0.0
-0.001305107059080754 0.0006166905679572121 0.0 -0.002960849242818697 0.0 0.0
-0.0019995030065198954 0.0010225789293356602 0.0 -0.003416887832562443 0.0 0.0
-0.002949186515695437 0.001698648373390954 0.0 -0.0041699129528580126 0.0 0.0
-0.00409433734534205 0.0026209301051034473 0.0 -0.005175511341621919 0.0 0.0
-0.005373309055455466 0.003731490578733343 0.0 -0.006292668880907959 0.0 0.0
-0.0068286501607172645 0.005039396457693579 0.0 -0.007489680023104295 0.0 0.0
-0.00851995375500611 0.006592913169461978 0.0 -0.008746286256885727 0.0 0.0
-0.01044968993108114 0.008383474629663379 0.0 -0.010144516941963277 0.0 0.0
-0.012471328613864768 0.01026560854908709 0.0 -0.011786947630907929 0.0 0.0
-0.014236139890928465 0.011897376378434021 0.0 -0.013731132053520001 0.0 0.0
-0.015211060801175874 0.0127688277983804 0.0 -0.015868438791677153 0.0 0.0
-0.014511213926800826 0.011796130420796302 0.0 -0.016781792447879418 0.0 0.0
-0.010186528512465043 0.007354282409958834 0.0 -0.014399195582127988 0.0 0.0
-0.0101865285124655 0.00735428240995839 0.0 0.014399195582145474 0.0 0.0
-0.014511213926799799 0.011796130420796747 0.0 0.01678179244790462 0.0 0.0
-0.015211060801170725 0.012768827798373739 0.0 0.01586843879169164 0.0 0.0
-0.014236139890918889 0.011897376378422031 0.0 0.013731132053521555 0.0 0.0
-0.012471328613854263 0.010265608549074656 0.0 0.011786947630901823 0.0 0.0
-0.010449689931071718 0.008383474629653831 0.0 0.010144516941956783 0.0 0.0
-0.008519953754997034 0.006592913169452874 0.0 0.008746286256879565 0.0 0.0
-0.0068286501607070504 0.0050393964576858075 0.0 0.007489680023097911 0.0 0.0
-0.005373309055444711 0.0037314905787249053 0.0 0.006292668880896302 0.0 0.0
-0.00409433734533278 0.002620930105093233 0.0 0.005175511341610817 0.0 0.0
-0.002949186515687305 0.0016986483733840707 0.0 0.00416991295284852 0.0 0.0
-0.0019995030065146913 0.0010225789293314413 0.0 0.0034168878325579466 0.0 0.0
-0.0013051070590778674 0.0006166905679552137 0.0 0.0029608492428173094 0.0 0.0
-0.0008737318764283492 0.0004102454170470393 0.0 0.0026696784313951782 0.0 0.0
-0.0006334766899829952 0.00031675915895867934 0.0 0.002436290415547493 0.0 0.0
-0.000505308692328954 0.00027827543422276335 0.0 0.0022746704906391746 0.0 0.0
-0.0004368216880919068 0.00024958495717269935 0.0 0.0022338648432367048 0.0 0.0
-0.0003694625611818936 0.0001675559056243392 0.0 0.0022834519085787597 0.0 0.0
-0.0001842417364742721 -0.0001254037584376977 0.0 0.002282270276959125 0.0 0.0
0.0002627534720174851 -0.0008220400326353176 0.0 0.0014706415648033377 0.0 0.0
0.00017881894434097767 -0.0006360371338849924 0.0 -0.0013007880933772753 0.0 0.0
-0.00023476076222940512 -8.802208731922834e-05 0.0 -0.0021736066037613133 0.0 0.0
-0.0004838968256179882 0.0002126341353843042 0.0 -0.002230355701108022 0.0 0.0
-0.0006304707979522123 0.0003311216578729681 0.0 -0.002172679832713076 0.0 0.0
-0.0007884209046527813 0.00040497896321001203 0.0 -0.002176644573786246 0.0 0.0
-0.001026584529822766 0.0004961965800922563 0.0 -0.002276365031062544 0.0 0.0
-0.0014550608470788179 0.0006941685761849836 0.0 -0.002488074807317664 0.0 0.0
-0.0022449266095724146 0.0011723352098989004 0.0 -0.0029687643237406025 0.0 0.0
-0.00346711071265432 0.002077912538028359 0.0 -0.0038317911178863406 0.0 0.0
-0.005075710377777515 0.003413402769740781 0.0 -0.0050355786759391785 0.0 0.0
-0.006947098659100731 0.005076282316931469 0.0 -0.006389094249249994 0.0 0.0
-0.00904734490831205 0.007005672281818809 0.0 -0.007733730395846072 0.0 0.0
-0.011446045719469014 0.009250608744323152 0.0 -0.009081544700592747 0.0 0.0
-0.01424836861532841 0.011904399844544722 0.0 -0.010510454245309608 0.0 0.0
-0.017498630276793325 0.014997647286298932 0.0 -0.012186535374650698 0.0 0.0
-0.021052605797359042 0.018382943431995535 0.0 -0.014335478345725294 0.0 0.0
-0.024482711576556584 0.021638988485527033 0.0 -0.017140487730463227 0.0 0.0
-0.02696808171454737 0.023894906293549845 0.0 -0.020126385124271284 0.0 0.0
-0.02696096873293513 0.023596206045731538 0.0 -0.02167692967751078 0.0 0.0
-0.02189281545075078 0.01799476999107208 0.0 -0.018432620352767826 0.0 0.0
-0.02189281545075092 0.017994769991070747 0.0 0.01843262035279003 0.0 0.0
-0.026960968732931634 0.023596206045729762 0.0 0.021676929677541146 0.0 0.0
-0.026968081714538253 0.02389490629354496 0.0 0.020126385124290658 0.0 0.0
-0.024482711576542054 0.021638988485515487 0.0 0.017140487730466836 0.0 0.0
-0.02105260579734311 0.018382943431981325 0.0 0.014335478345719688 0.0 0.0
-0.01749863027677817 0.01499764728628672 0.0 0.01218653537464398 0.0 0.0
-0.014248368615314477 0.011904399844532065 0.0 0.01051045424530106 0.0 0.0
-0.011446045719453388 0.009250608744308275 0.0 0.009081544700587085 0.0 0.0
-0.009047344908296007 0.007005672281805486 0.0 0.00773373039583658 0.0 0.0
-0.006947098659086368 0.005076282316921921 0.0 0.0063890942492370595 0.0 0.0
-0.005075710377764817 0.0034134027697290126 0.0 0.005035578675926744 0.0 0.0
-0.0034671107126453687 0.0020779125380194774 0.0 0.003831791117880401 0.0 0.0
-0.002244926609567266 0.0011723352098942375 0.0 0.00296876432373816 0.0 0.0
-0.0014550608470754733 0.0006941685761837624 0.0 0.002488074807315749 0.0 0.0
-0.001026584529821184 0.0004961965800922563 0.0 0.002276365031059352 0.0 0.0
-0.0007884209046518237 0.0004049789632092349 0.0 0.002176644573784192 0.0 0.0
-0.0006304707979515184 0.000331121657872413 0.0 0.0021726798327110775 0.0 0.0
-0.0004838968256175996 0.0002126341353848038 0.0 0.002230355701106357 0.0 0.0
-0.00023476076222907205 -8.802208731897854e-05 0.0 0.002173606603759204 0.0 0.0
0.00017881894434081114 -0.000636037133884295 0.0 0.001300788093375721 0.0 0.0
0.00010481026443928676 -0.00046835621751667444 0.0 -0.0011281370399460755 0.0 0.0
-0.0002842560231170743 -4.391651849261491e-05 0.0 -0.0020153595138771574 0.0 0.0
-0.0005916528851969416 0.0002562895141639543 0.0 -0.0021219980353140433 0.0 0.0
-0.0008155224050309107 0.00040649710036300135 0.0 -0.0020563599855576986 0.0 0.0
-0.0010583600559447293 0.0005211376271305745 0.0 -0.0020095730486312524 0.0 0.0
-0.0014114522571433974 0.0006762348902317195 0.0 -0.0020648079566450983 0.0 0.0
-0.002083033260318723 0.001058459200905526 0.0 -0.002348632030649639 0.0 0.0
-0.0032885795137180818 0.001923817313669307 0.0 -0.0030557667966532587 0.0 0.0
-0.005060861512801634 0.003382133154062439 0.0 -0.004205848825731773 0.0 0.0
-0.007294460084969728 0.005358632401106123 0.0 -0.005646164479730209 0.0 0.0
-0.009861263360939898 0.007722934496416256 0.0 -0.00713026658232585 0.0 0.0
-0.012770860966097988 0.010449892442149222 0.0 -0.008555982855649236 0.0 0.0
-0.01611957102379294 0.013630550460992596 0.0 -0.009989874819435252 0.0 0.0
-0.020050035270111635 0.017395075968884344 0.0 -0.011537769294444555 0.0 0.0
-0.024642207262998483 0.021813785857810686 0.0 -0.013391256185108669 0.0 0.0
-0.02977327726413137 0.026747119345813086 0.0 -0.015888534736822557 0.0 0.0
-0.03489102049203496 0.031626464451091074 0.0 -0.019259235208546666 0.0 0.0
-0.03876058169601278 0.03519718112243586 0.0 -0.02298071697546883 0.0 0.0
-0.039228729338633264 0.03526420102636152 0.0 -0.025126970684472616 0.0 0.0
-0.03278412283933588 0.02822415924144206 0.0 -0.022232939219948622 0.0 0.0
-0.03278412283933513 0.028224159241438063 0.0 0.02223293921997499 0.0 0.0
-0.03922872933862735 0.03526420102635264 0.0 0.025126970684508365 0.0 0.0
-0.03876058169600011 0.03519718112242387 0.0 0.0229807169754917 0.0 0.0
-0.03489102049201623 0.03162646445107642 0.0 0.019259235208551828 0.0 0.0
-0.029773277264110554 0.02674711934579177 0.0 0.01588853473681845 0.0 0.0
-0.024642207262978125 0.021813785857791812 0.0 0.013391256185102618 0.0 0.0
-0.020050035270092498 0.017395075968868134 0.0 0.011537769294435729 0.0 0.0
-0.016119571023771914 0.013630550460973057 0.0 0.009989874819427536 0.0 0.0
-0.012770860966077144 0.010449892442127906 0.0 0.008555982855638133 0.0 0.0
-0.00986126336092074 0.007722934496396938 0.0 0.0071302665823115285 0.0 0.0
-0.007294460084952652 0.005358632401088359 0.0 0.005646164479714416 0.0 0.0
-0.005060861512789269 0.0033821331540508925 0.0 0.004205848825722863 0.0 0.0
-0.0032885795137098106 0.0019238173136630898 0.0 0.0030557667966474578 0.0 0.0
-0.0020830332603140253 0.0010584592009038607 0.0 0.002348632030646669 0.0 0.0
-0.001411452257141288 0.0006762348902311643 0.0 0.002064807956642961 0.0 0.0
-0.0010583600559435288 0.0005211376271303525 0.0 0.002009573048630253 0.0 0.0
-0.0008155224050302029 0.0004064971003628348 0.0 0.0020563599855561165 0.0 0.0
-0.0005916528851962755 0.00025628951416367673 0.0 0.0021219980353132384 0.0 0.0
-0.0002842560231168731 -4.3916518492892465e-05 0.0 0.0020153595138763802 0.0 0.0
0.00010481026443928676 -0.0004683562175162165 0.0 0.0011281370399449098 0.0 0.0
3.891388803747842e-05 -0.0003199344831021633 0.0 -0.0009517832717817476 0.0 0.0
-0.00033389088682325707 5.091615610297584e-06 0.0 -0.0018128175412552017 0.0 0.0
-0.0006937569476939964 0.00029895689368791833 0.0 -0.0019591572440420535 0.0 0.0
-0.0009916079193327543 0.00047547518728285887 0.0 -0.0018812469781234187 0.0 0.0
-0.0013123594194303922 0.0006256439379809242 0.0 -0.0017828787046817451 0.0 0.0
-0.0018130084085337395 0.000885907242205275 0.0 -0.00183621111476015 0.0 0.0
-0.0027821307047875 0.0015308401217883905 0.0 -0.0022121377920316376 0.0 0.0
-0.004432203359324038 0.0028372594297603193 0.0 -0.0030872609518423078 0.0 0.0
-0.0067377349667334385 0.004846062030564813 0.0 -0.004393685013710458 0.0 0.0
-0.009553183760495992 0.007417471692287236 0.0 -0.005871614479044052 0.0 0.0
-0.012807523127870812 0.010458722693947875 0.0 -0.007338441679261676 0.0 0.0
-0.01653390011665376 0.013987208585151345 0.0 -0.008774750712079893 0.0 0.0
-0.020848590462894195 0.018113321106553837 0.0 -0.010242290353729255 0.0 0.0
-0.02591537688379908 0.022995586188538253 0.0 -0.011825034302359982 0.0 0.0
-0.0318582475895567 0.028745770901790202 0.0 -0.013714574415824243 0.0 0.0
-0.038564585826055986 0.035223691656949274 0.0 -0.016254755355826378 0.0 0.0
-0.0453393236611781 0.04170152942800831 0.0 -0.019742781619352945 0.0 0.0
-0.05052764445983214 0.04650841471434175 0.0 -0.023868499823239964 0.0 0.0
-0.051266145541612254 0.04676686081319659 0.0 -0.026841937923557158 0.0 0.0
-0.043296387249388155 0.03822193885411984 0.0 -0.02579411585588176 0.0 0.0
-0.04329638724938609 0.03822193885412206 0.0 0.025794115855909128 0.0 0.0
-0.05126614554160336 0.046766860813192146 0.0 0.026841937923591963 0.0 0.0
-0.05052764445981639 0.04650841471432843 0.0 0.023868499823266498 0.0 0.0
-0.0453393236611557 0.04170152942798655 0.0 0.019742781619360494 0.0 0.0
-0.03856458582603042 0.035223691656927514 0.0 0.016254755355822548 0.0 0.0
-0.031858247589531624 0.02874577090176733 0.0 0.013714574415818165 0.0 0.0
-0.025915376883774238 0.02299558618851405 0.0 0.011825034302350934 0.0 0.0
-0.020848590462868313 0.018113321106529412 0.0 0.010242290353722011 0.0 0.0
-0.016533900116628163 0.013987208585129363 0.0 0.00877475071206893 0.0 0.0
-0.012807523127846845 0.01045872269392567 0.0 0.00733844167924666 0.0 0.0
-0.00955318376047501 0.007417471692265476 0.0 0.005871614479029064 0.0 0.0
-0.006737734966717736 0.004846062030549936 0.0 0.004393685013701187 0.0 0.0
-0.004432203359312645 0.0028372594297512155 0.0 0.003087260951835036 0.0 0.0
-0.0027821307047808247 0.0015308401217825063 0.0 0.0022121377920274743 0.0 0.0
-0.0018130084085307002 0.0008859072422021663 0.0 0.0018362111147573468 0.0 0.0
-0.0013123594194292196 0.000625643937979592 0.0 0.0017828787046803019 0.0 0.0
-0.0009916079193319632 0.00047547518728224825 0.0 0.0018812469781211982 0.0 0.0
-0.0006937569476931152 0.0002989568936876408 0.0 0.0019591572440402494 0.0 0.0
-0.00033389088682302115 5.091615610436362e-06 0.0 0.0018128175412546188 0.0 0.0
3.891388803738127e-05 -0.0003199344831018563 0.0 0.0009517832717811647 0.0 0.0
-1.8305358371439873e-05 -0.00019259144562217 0.0 -0.0007700215645782549 0.0 0.0
-0.0003829239897557568 5.661396396755558e-05 0.0 -0.001571101293911914 0.0 0.0
-0.0007910956660742707 0.0003407406297493143 0.0 -0.001743207090179666 0.0 0.0
-0.0011580698389105637 0.000536980005853338 0.0 -0.0016512225169437733 0.0 0.0
-0.001560119090214751 0.0007357542203993983 0.0 -0.0015312060251274073 0.0 0.0
-0.002249433880798485 0.0011437442675894527 0.0 -0.0015932704320140711 0.0 0.0
-0.0035581474644558186 0.0021136524405473978 0.0 -0.002042341983118423 0.0 0.0
-0.005656512003743203 0.003881966767151912 0.0 -0.003010672069239162 0.0 0.0
-0.008446370650628643 0.006395156408856462 0.0 -0.00429411344225783 0.0 0.0
-0.011827316646999486 0.009529165523892047 0.0 -0.005673489380731034 0.0 0.0
-0.015773483104259856 0.013247195787087662 0.0 -0.007069777975277081 0.0 0.0
-0.020328959052752754 0.017585849099730044 0.0 -0.008441188248658804 0.0 0.0
-0.02562611623097802 0.02267163836136854 0.0 -0.0098593483298679 0.0 0.0
-0.03183999834013654 0.028679168115473885 0.0 -0.011421745556416563 0.0 0.0
-0.03910608905012172 0.035733605284443026 0.0 -0.01319696552409122 0.0 0.0
-0.047326107192047676 0.04369666379773074 0.0 -0.015425211400916294 0.0 0.0
-0.05569933906173494 0.05172112898896186 0.0 -0.018598887359994765 0.0 0.0
-0.062165645853853285 0.05772747402983969 0.0 -0.022842860616378746 0.0 0.0
-0.06317102313129136 0.05819816576765291 0.0 -0.027084883461351295 0.0 0.0
-0.05381008925076168 0.04827264228313455 0.0 -0.02930178209731099 0.0 0.0
-0.05381008925075792 0.04827264228312789 0.0 0.0293017820973393 0.0 0.0
-0.06317102313127942 0.05819816576764003 0.0 0.027084883461384546 0.0 0.0
-0.062165645853833995 0.057727474029823256 0.0 0.022842860616406113 0.0 0.0
-0.05569933906170915 0.05172112898894099 0.0 0.01859888736000398 0.0 0.0
-0.04732610719201779 0.043696663797700985 0.0 0.01542521140091449 0.0 0.0
-0.03910608905009164 0.03573360528441083 0.0 0.013196965524089471 0.0 0.0
-0.03183999834010655 0.0286791681154428 0.0 0.0114217455564109 0.0 0.0
-0.025626116230947266 0.0226716383613359 0.0 0.009859348329860546 0.0 0.0
-0.020328959052722168 0.01758584909970007 0.0 0.008441188248648784 0.0 0.0
-0.015773483104231413 0.013247195787059018 0.0 0.007069777975262842 0.0 0.0
-0.011827316646974548 0.00952916552386851 0.0 0.005673489380716684 0.0 0.0
-0.008446370650609554 0.0063951564088411406 0.0 0.004294113442249725 0.0 0.0
-0.005656512003728867 0.0038819667671392555 0.0 0.003010672069232112 0.0 0.0
-0.0035581474644469993 0.00211365244053896 0.0 0.0020423419831131218 0.0 0.0
-0.0022494338807940092 0.0011437442675875653 0.0 0.0015932704320111846 0.0 0.0
-0.0015601190902133147 0.0007357542203999534 0.0 0.0015312060251279902 0.0 0.0
-0.0011580698389098698 0.0005369800058536711 0.0 0.0016512225169434402 0.0 0.0
-0.0007910956660734172 0.00034074062974870367 0.0 0.0017432070901787222 0.0 0.0
-0.0003829239897555209 5.661396396719476e-05 0.0 0.0015711012939104152 0.0 0.0
-1.8305358371412117e-05 -0.00019259144562212144 0.0 0.0007700215645772834 0.0 0.0
-6.480299590114202e-05 -8.86923442637022e-05 0.0 -0.0005819946663432884 0.0 0.0
-0.00042877704280644413 0.00010768845929709503 0.0 -0.0012945287516412107 0.0 0.0
-0.0008838262793013363 0.00038118356204036585 0.0 -0.001473660385686193 0.0 0.0
-0.0013172029630722781 0.0005924786527051751 0.0 -0.0013728883600691022 0.0 0.0
-0.0018153070209146194 0.0008561240577548146 0.0 -0.0012422644899514057 0.0 0.0
-0.0027339828330448235 0.0014703305725908278 0.0 -0.0013306854821406866 0.0 0.0
-0.004412831159307767 0.0028107276197946174 0.0 -0.0018422181077357436 0.0 0.0
-0.006912911424678064 0.005004487569022276 0.0 -0.002754012417253593 0.0 0.0
-0.010158923554080324 0.007977434861109023 0.0 -0.0038679978440265272 0.0 0.0
-0.014108816863762974 0.011672082815284313 0.0 -0.005096049460594443 0.0 0.0
-0.018749010228979873 0.01606832059666674 0.0 -0.006340762257340982 0.0 0.0
-0.024145918499048263 0.02122639834660278 0.0 -0.007570214002858011 0.0 0.0
-0.030443814377303507 0.02728961200454294 0.0 -0.008869514510622178 0.0 0.0
-0.03781245025937405 0.034423899514338 0.0 -0.010303123662114888 0.0 0.0
-0.04635751245339878 0.04273297757865935 0.0 -0.011865328305854683 0.0 0.0
-0.05596460573711959 0.05206852786142502 0.0 -0.013567868087948909 0.0 0.0
-0.06581528935173436 0.06153259068300043 0.0 -0.015884609542995087 0.0 0.0
-0.07358538425716638 0.06877532722967183 0.0 -0.019846078189474092 0.0 0.0
-0.07509891729642774 0.06968954623939494 0.0 -0.02584053361377414 0.0 0.0
-0.0646420516805625 0.05865114998644616 0.0 -0.03274292001796869 0.0 0.0
-0.06464205168055752 0.05865114998644172 0.0 0.0327429200179955 0.0 0.0
-0.07509891729641317 0.0696895462393825 0.0 0.025840533613805783 0.0 0.0
-0.07358538425714338 0.06877532722965407 0.0 0.019846078189498406 0.0 0.0
-0.06581528935170461 0.06153259068297423 0.0 0.015884609543002498 0.0 0.0
-0.05596460573708555 0.05206852786139615 0.0 0.013567868087947715 0.0 0.0
-0.04635751245336348 0.042732977578625375 0.0 0.011865328305852685 0.0 0.0
-0.0378124502593394 0.034423899514302025 0.0 0.010303123662108338 0.0 0.0
-0.03044381437726791 0.027289612004507635 0.0 0.008869514510615434 0.0 0.0
-0.024145918499012528 0.021226398346565034 0.0 0.007570214002849768 0.0 0.0
-0.018749010228947267 0.016068320596632768 0.0 0.006340762257328103 0.0 0.0
-0.014108816863734344 0.011672082815257445 0.0 0.005096049460582341 0.0 0.0
-0.010158923554057904 0.007977434861088817 0.0 0.003867997844018284 0.0 0.0
-0.006912911424660981 0.0050044875690065105 0.0 0.0027540124172456826 0.0 0.0
-0.004412831159296603 0.0028107276197844033 0.0 0.0018422181077313582 0.0 0.0
-0.002733982833038953 0.001470330572587275 0.0 0.0013306854821374392 0.0 0.0
-0.0018153070209124891 0.0008561240577522611 0.0 0.0012422644899499347 0.0 0.0
-0.00131720296307139 0.0005924786527043979 0.0 0.001372888360068325 0.0 0.0
-0.0008838262793005938 0.00038118356203925563 0.0 0.0014736603856852215 0.0 0.0
-0.00042877704280620127 0.00010768845929637338 0.0 0.0012945287516406556 0.0 0.0
-6.480299590112121e-05 -8.869234426354608e-05 0.0 0.0005819946663433717 0.0 0.0
-9.691603430800333e-05 -1.123039479442034e-05 0.0 -0.0003894701812282575 0.0 0.0
-0.00046651143191919764 0.0001546590118101654 0.0 -0.0009853891232247391 0.0 0.0
-0.0009718504148795992 0.0004187423344842456 0.0 -0.001149506145580903 0.0 0.0
-0.001474064402481684 0.000648836157674193 0.0 -0.0010478663336337124 0.0 0.0
-0.0020905536344386355 0.0010035590236397995 0.0 -0.0009227742957157725 0.0 0.0
-0.0032858661517105037 0.0018772640529872708 0.0 -0.001053304384066478 0.0 0.0
-0.005311416660367135 0.0035795021820594908 0.0 -0.0015177190686322117 0.0 0.0
-0.008170102234979687 0.006153703163775948 0.0 -0.0022501497915108915 0.0 0.0
-0.011869196656613151 0.009578298523356343 0.0 -0.003153898569190683 0.0 0.0
-0.016384935228207526 0.013828112968786943 0.0 -0.004154006873005378 0.0 0.0
-0.021724439727249856 0.0189055764891799 0.0 -0.005173286104799224 0.0 0.0
-0.02797354895558324 0.024894337069878203 0.0 -0.00617818134930026 0.0 0.0
-0.03528759266583517 0.03194758996999769 0.0 -0.007246679583222115 0.0 0.0
-0.04381979368116279 0.0402161908586125 0.0 -0.00847982079970222 0.0 0.0
-0.05360184954569153 0.0497293454367993 0.0 -0.009779143569372095 0.0 0.0
-0.06441962972276524 0.0602573402928992 0.0 -0.010838162414045005 0.0 0.0
-0.07550249152947376 0.07096917930092728 0.0 -0.011844362260016617 0.0 0.0
-0.08466536720622818 0.07954605485136179 0.0 -0.014881840716155892 0.0 0.0
-0.0871796462359249 0.08136201313045355 0.0 -0.02274706278784344 0.0 0.0
-0.07614870617844564 0.0696747122429553 0.0 -0.03585436307586598 0.0 0.0
-0.07614870617844015 0.06967471224295307 0.0 0.03585436307588907 0.0 0.0
-0.08717964623590749 0.08136201313044245 0.0 0.022747062787869976 0.0 0.0
-0.08466536720620164 0.07954605485133426 0.0 0.014881840716177874 0.0 0.0
-0.07550249152943941 0.07096917930089175 0.0 0.011844362260023 0.0 0.0
-0.064419629722727 0.060257340292863226 0.0 0.010838162414045949 0.0 0.0
-0.05360184954565135 0.049729345436766215 0.0 0.00977914356937104 0.0 0.0
-0.0438197936811232 0.04021619085857453 0.0 0.008479820799697252 0.0 0.0
-0.03528759266579454 0.031947589969957946 0.0 0.0072466795832177855 0.0 0.0
-0.027973548955542597 0.02489433706984001 0.0 0.006178181349294987 0.0 0.0
-0.021724439727213163 0.01890557648914437 0.0 0.005173286104788788 0.0 0.0
-0.016384935228175697 0.013828112968757633 0.0 0.004154006872994415 0.0 0.0
-0.011869196656587404 0.009578298523330808 0.0 0.0031538985691837995 0.0 0.0
-0.008170102234959894 0.006153703163757518 0.0 0.002250149791505729 0.0 0.0
-0.005311416660353858 0.0035795021820488326 0.0 0.0015177190686284092 0.0 0.0
-0.0032858661517032213 0.0018772640529823859 0.0 0.0010533043840640632 0.0 0.0
-0.0020905536344358704 0.0010035590236392444 0.0 0.0009227742957150231 0.0 0.0
-0.0014740644024804767 0.0006488361576730273 0.0 0.0010478663336332406 0.0 0.0
-0.0009718504148788776 0.000418742334483857 0.0 0.0011495061455799316 0.0 0.0
-0.0004665114319187952 0.00015465901181038744 0.0 0.000985389123224073 0.0 0.0
-9.691603430790965e-05 -1.1230394794323195e-05 0.0 0.00038947018122723054 0.0 0.0
-0.00010838804990673245 3.5954953370886944e-05 0.0 -0.00019910846147921935 0.0 0.0
-0.0004876316163652805 0.00019192044091986826 0.0 -0.0006433980925931171 0.0 0.0
-0.00105569664243077 0.0004529535238310678 0.0 -0.0007639423884781005 0.0 0.0
-0.0016374515425018332 0.0007119958111463376 0.0 -0.0006810228722403666 0.0 0.0
-0.0024064843868189523 0.0012057555192340752 0.0 -0.0005966955657676631 0.0 0.0
-0.0038965223492035683 0.0023630433711785415 0.0 -0.0007124740278127428 0.0 0.0
-0.006217383428175405 0.004387592012024655 0.0 -0.001046464456411711 0.0 0.0
-0.009423519589425805 0.007315732688503163 0.0 -0.0015396286280658367 0.0 0.0
-0.013565086895367034 0.011182082884104716 0.0 -0.0021595037533116423 0.0 0.0
-0.01864418798283013 0.01598284415946094 0.0 -0.002857409020081747 0.0 0.0
-0.02468878201390798 0.021745689193712225 0.0 -0.003565720052480348 0.0 0.0
-0.031801677806866824 0.028575263079247515 0.0 -0.004264616274045396 0.0 0.0
-0.04014468636423954 0.03663134613877128 0.0 -0.005042214826586788 0.0 0.0
-0.049835982618217395 0.046028089941188455 0.0 -0.0059308172094075795 0.0 0.0
-0.06081839352510504 0.05670292509552999 0.0 -0.0068153846105207805 0.0 0.0
-0.0727137012504836 0.06827685549710827 0.0 -0.007375976956184638 0.0 0.0
-0.08467791972728957 0.07989502965418493 0.0 -0.00725366666349081 0.0 0.0
-0.09501124401456755 0.0897509822768292 0.0 -0.008043129504853086 0.0 0.0
-0.09945832605737966 0.09324913081236819 0.0 -0.016633488258312068 0.0 0.0
-0.08887785673843061 0.08183389084316461 0.0 -0.037945268599675286 0.0 0.0
-0.08887785673842404 0.08183389084315618 0.0 0.037945268599691884 0.0 0.0
-0.09945832605735953 0.09324913081234953 0.0 0.016633488258332885 0.0 0.0
-0.09501124401453707 0.08975098227680123 0.0 0.008043129504868407 0.0 0.0
-0.08467791972725028 0.0798950296541503 0.0 0.007253666663494113 0.0 0.0
-0.07271370125044094 0.06827685549706652 0.0 0.007375976956184915 0.0 0.0
-0.06081839352505967 0.05670292509548558 0.0 0.00681538461051992 0.0 0.0
-0.0498359826181729 0.04602808994114804 0.0 0.005930817209404499 0.0 0.0
-0.0401446863641937 0.036631346138728205 0.0 0.005042214826582514 0.0 0.0
-0.03180167780682146 0.028575263079202884 0.0 0.00426461627404251 0.0 0.0
-0.024688782013867094 0.021745689193673368 0.0 0.0035657200524742416 0.0 0.0
-0.01864418798279549 0.015982844159429854 0.0 0.0028574090200761404 0.0 0.0
-0.013565086895338155 0.011182082884079625 0.0 0.002159503753306924 0.0 0.0
-0.0094235195894036 0.0073157326884827345 0.0 0.0015396286280622284 0.0 0.0
-0.006217383428160328 0.0043875920120086676 0.0 0.0010464644564074088 0.0 0.0
-0.0038965223491943066 0.00236304337117077 0.0 0.0007124740278100228 0.0 0.0
-0.0024064843868152382 0.0012057555192307445 0.0 0.0005966955657677742 0.0 0.0
-0.0016374515425004697 0.0007119958111451163 0.0 0.0006810228722400891 0.0 0.0
-0.0010556966424299184 0.0004529535238305127 0.0 0.0007639423884776286 0.0 0.0
-0.0004876316163649509 0.0001919204409195352 0.0 0.0006433980925925065 0.0 0.0
-0.00010838804990667174 3.5954953370600715e-05 0.0 0.000199108461478803 0.0 0.0
-8.795281616430506e-05 4.732031716472851e-05 0.0 -2.6681505465780964e-05 0.0 0.0
-0.0004781965213853656 0.00021092432917779735 0.0 -0.00026237344146307073 0.0 0.0
-0.0011375845971317855 0.0004830584455217668 0.0 -0.0003025983428622814 0.0 0.0
-0.001824076743425912 0.0007989829824605055 0.0 -0.0002784607625036517 0.0 0.0
-0.002778354353424023 0.001461702404606191 0.0 -0.00024248005334581713 0.0 0.0
-0.004535471800081681 0.0028931686729419814 0.0 -0.00028384145957074947 0.0 0.0
-0.007123424277197726 0.005212497082357492 0.0 -0.00042509483044889107 0.0 0.0
-0.010661024314643663 0.008477420062517282 0.0 -0.0006246166396916553 0.0 0.0
-0.015235383087119442 0.012772929487812723 0.0 -0.0008925434687183653 0.0 0.0
-0.02087396341201883 0.01812032500573091 0.0 -0.0012056796920300594 0.0 0.0
-0.027631725500505327 0.024577548619480805 0.0 -0.0015227298404589806 0.0 0.0
-0.035625837093056584 0.032263241129285136 0.0 -0.0018565702909937865 0.0 0.0
-0.04499305583009508 0.041316973240105304 0.0 -0.0022224871005892544 0.0 0.0
-0.055821179882189875 0.05181991053604773 0.0 -0.0026121022634491564 0.0 0.0
-0.06797891689557084 0.06363222865501683 0.0 -0.002970509031985147 0.0 0.0
-0.08090384246127003 0.07619337563083173 0.0 -0.003092126138847018 0.0 0.0
-0.09351178141311903 0.08843992791292177 0.0 -0.0026245024611373236 0.0 0.0
-0.10425661220235938 0.09883314629582207 0.0 -0.0014637017015614595 0.0 0.0
-0.11066957786198696 0.10469957906048233 0.0 -0.0050879836751966945 0.0 0.0
-0.10439567709734754 0.09628040566383866 0.0 -0.035053355224373695 0.0 0.0
-0.10439567709733916 0.09628040566383111 0.0 0.035053355224378246 0.0 0.0
-0.11066957786196434 0.10469957906046368 0.0 0.005087983675205299 0.0 0.0
-0.1042566122023239 0.09883314629578521 0.0 0.0014637017015682041 0.0 0.0
-0.09351178141307447 0.0884399279128747 0.0 0.00262450246113774 0.0 0.0
-0.08090384246122247 0.07619337563078443 0.0 0.0030921261388469345 0.0 0.0
-0.0679789168955203 0.06363222865496887 0.0 0.0029705090319840505 0.0 0.0
-0.055821179882140096 0.05181991053599955 0.0 0.002612102263448768 0.0 0.0
-0.04499305583004407 0.04131697324005934 0.0 0.0022224871005872004 0.0 0.0
-0.03562583709300678 0.03226324112923762 0.0 0.00185657029099226 0.0 0.0
-0.02763172550045995 0.024577548619439282 0.0 0.0015227298404535128 0.0 0.0
-0.02087396341198114 0.01812032500569405 0.0 0.0012056796920258128 0.0 0.0
-0.015235383087087854 0.012772929487781859 0.0 0.0008925434687170608 0.0 0.0
-0.010661024314619034 0.008477420062491525 0.0 0.0006246166396894626 0.0 0.0
-0.0071234242771810435 0.005212497082340062 0.0 0.00042509483044714247 0.0 0.0
-0.004535471800070736 0.0028931686729328776 0.0 0.0002838414595694727 0.0 0.0
-0.0027783543534191657 0.0014617024046020832 0.0 0.00024248005334581713 0.0 0.0
-0.001824076743424342 0.0007989829824595063 0.0 0.0002784607625029023 0.0 0.0
-0.0011375845971310786 0.00048305844552160027 0.0 0.0003025983428618373 0.0 0.0
-0.000478196521384794 0.00021092432917743653 0.0 0.0002623734414622658 0.0 0.0
-8.795281616423654e-05 4.73203171645533e-05 0.0 2.6681505464976052e-05 0.0 0.0
SCALARS Statev float 8
LOOKUP_TABLE default
0.0 0.01002677487054018 0.0076486433902727465 -0.008033086749830515 0.00038444335955777043 -0.004323263476627967 0.0 0.0
0.0 0.0003175737480378462 0.0001861171854009177 -0.00014591709511773998 -4.020009028317775e-05 0.00020442377894938293 0.0 0.0
0.0 3.342380937738801e-05 -4.754075056001044e-06 3.773145031477424e-06 9.809300245235895e-07 5.62033213615258e-07 0.0 0.0
0.0 0.00011456466558618642 4.315920867685588e-05 -3.351702677023082e-05 -9.642181906625153e-06 -5.819149737304416e-06 0.0 0.0
0.0 0.0007891146907208493 0.0005582209335765587 -0.00044796339358266506 -0.00011025753999389413 -6.321165008186966e-05 0.0 0.0
0.0 0.0021623152324213584 0.001991834365838125 -0.0016691492941847475 -0.0003226850716533776 -0.00016365025676677198 0.0 0.0
0.0 0.0047592815473960475 0.004317054449099002 -0.0037970724857187025 -0.0005199819633802985 -0.00030380157793611344 0.0 0.0
0.0 0.008530653790840982 0.007636356511521342 -0.006962131194377869 -0.0006742253171434711 -0.0004934863725558452 0.0 0.0
0.0 0.013539504432322736 0.011996016207478734 -0.011201386477271898 -0.000794629730206833 -0.0007457860004844187 0.0 0.0
0.0 0.01980979316074151 0.017419569641735688 -0.0165179702536591 -0.0009015993880765849 -0.0010464542951486853 0.0 0.0
0.0 0.027433750984246167 0.023971007144924908 -0.022965548052515574 -0.0010054590924093337 -0.001360560862497913 0.0 0.0
0.0 0.03626940170074252 0.0317766565936265 -0.030666210733244634 -0.0011104458603818585 -0.0016975155855059579 0.0 0.0
0.0 0.046776886645219964 0.040968305098382604 -0.03975181452012659 -0.001216490578255995 -0.002062954064880211 0.0 0.0
0.0 0.05906435558051358 0.051641566594654825 -0.050316382589152386 -0.0013251840055024345 -0.002457058672264244 0.0 0.0
0.0 0.07298831097304023 0.06372716714043392 -0.06228849005760903 -0.0014386770828248626 -0.0028853088435819886 0.0 0.0
0.0 0.08812880550078799 0.0768305177422666 -0.07527378452459384 -0.0015567332176727742 -0.003278597025814423 0.0 0.0
0.0 0.10353777738353458 0.09015870600349654 -0.08848280590089654 -0.0016759001026000278 -0.0034689138654642863 0.0 0.0
0.0 0.1178673176422478 0.10256029236061309 -0.1007704033195327 -0.0017898890410803713 -0.003223651379852321 0.0 0.0
0.0 0.1295255782915748 0.11265627656274943 -0.11076473010711871 -0.0018915464556307135 -0.0025392802434562553 0.0 0.0
0.0 0.1364045725090031 0.11875302489466849 -0.11674964496308685 -0.0020033799315816204 -0.002174065501505697 0.0 0.0
0.0 0.13640457250899776 0.11875302489466359 -0.1167496449630825 -0.0020033799315810445 0.002174065501508949 0.0 0.0
0.0 0.1295255782915527 0.11265627656272992 -0.11076473010709992 -0.0018915464556299904 0.0025392802434699266 0.0 0.0
0.0 0.11786731764221116 0.10256029236058098 -0.10077040331950168 -0.0017898890410792759 0.0032236513798591694 0.0 0.0
0.0 0.10353777738348854 0.09015870600345614 -0.08848280590085728 -0.0016759001025988321 0.0034689138654694766 0.0 0.0
0.0 0.08812880550073539 0.07683051774222083 -0.07527378452454858 -0.0015567332176722474 0.0032785970258084915 0.0 0.0
0.0 0.07298831097298805 0.0637271671403884 -0.06228849005756427 -0.0014386770828241245 0.002885308843582092 0.0 0.0
0.0 0.059064355580459575 0.05164156659460787 -0.050316382589105986 -0.0013251840055018822 0.0024570586722642575 0.0 0.0
0.0 0.04677688664516587 0.04096830509833549 -0.03975181452008021 -0.0012164905782552718 0.0020629540648799713 0.0 0.0
0.0 0.036269401700689145 0.03177665659358001 -0.0306662107331988 -0.0011104458603812106 0.0016975155855023535 0.0 0.0
0.0 0.027433750984198053 0.023971007144882796 -0.022965548052473896 -0.0010054590924088915 0.0013605608624959532 0.0 0.0
0.0 0.0198097931607004 0.017419569641699884 -0.016517970253623917 -0.0009015993880759683 0.001046454295144568 0.0 0.0
0.0 0.013539504432291816 0.011996016207451131 -0.011201386477245084 -0.0007946297302060465 0.0007457860004831388 0.0 0.0
0.0 0.008530653790819069 0.0076363565115013 -0.006962131194358597 -0.000674225317142703 0.0004934863725541041 0.0 0.0
0.0 0.004759281547381429 0.004317054449085306 -0.0037970724857058647 -0.0005199819633794404 0.0003038015779352551 0.0 0.0
0.0 0.0021623152324124007 0.0019918343658293656 -0.0016691492941769855 -0.0003226850716523802 0.00016365025676596764 0.0 0.0
0.0 0.0007891146907166317 0.0005582209335732679 -0.00044796339357994566 -0.00011025753999332216 6.321165008150289e-05 0.0 0.0
0.0 0.00011456466558512366 4.31592086768449e-05 -3.3517026770216494e-05 -9.6421819066284e-06 5.8191497372561625e-06 0.0 0.0
0.0 3.342380937687491e-05 -4.754075055922566e-06 3.7731450314146314e-06 9.80930024507978e-07 -5.620332136057866e-07 0.0 0.0
0.0 0.00031757374803610905 0.0001861171854000736 -0.00014591709511708174 -4.020009028299207e-05 -0.0002044237789482224 0.0 0.0
0.0 0.010026774870524582 0.007648643390262182 -0.008033086749818943 0.00038444335955675844 0.004323263476605203 0.0 0.0
0.0 0.007144940191048837 0.005108696645358786 -0.005582576053649896 0.00047387940829110933 -0.004832775483088335 0.0 0.0
0.0 0.0 0.0 0.0 0.0 0.0 0.0 0.0
0.0 9.430826945183483e-08 -1.020951514236367e-08 7.758883502814768e-09 2.450631639548195e-09 3.6392644398315674e-09 0.0 0.0
0.0 3.5474087680676846e-05 2.877010796451431e-06 -2.2480155786564597e-06 -6.289952177952082e-07 -1.79023290938035e-06 0.0 0.0
0.0 0.00047359219305231437 0.00028319417310557167 -0.00022539962370034548 -5.779454940522619e-05 -7.787330577082216e-05 0.0 0.0
0.0 0.001568899212196751 0.0014473593435888228 -0.001195242310293138 -0.0002521170332956848 -0.00032205812253042153 0.0 0.0
0.0 0.0038506471211231454 0.0034924999838547364 -0.0030302222809741987 -0.0004622777028805374 -0.0006830551072113635 0.0 0.0
0.0 0.007235065065959903 0.00647449830093789 -0.005842587548133205 -0.0006319107528046841 -0.0011587211375194625 0.0 0.0
0.0 0.01173711297033185 0.010403502192029328 -0.009643648995847109 -0.0007598531961822192 -0.0017533588516113145 0.0 0.0
0.0 0.01734968267255809 0.01527242350371657 -0.01440559285941755 -0.0008668306442990142 -0.002435318989553883 0.0 0.0
0.0 0.02411125895075251 0.02111709652910142 -0.02015079803240733 -0.0009662984966940808 -0.0031464984903569436 0.0 0.0
0.0 0.03219096314298631 0.028047513582222735 -0.0269840387992582 -0.001063474782964534 -0.0038619449785237715 0.0 0.0
0.0 0.04148558324473581 0.03623057389384877 -0.03506949162024347 -0.0011610822736052972 -0.004654624658344954 0.0 0.0
0.0 0.05242345525198707 0.045778599933896574 -0.04451751904129964 -0.0012610808925969104 -0.005558079157265148 0.0 0.0
0.0 0.06494284048375354 0.05663935085432583 -0.05527438453430952 -0.0013649663200163177 -0.006527809691104089 0.0 0.0
0.0 0.07858121482882421 0.06847551902521117 -0.0670028813433371 -0.001472637681874051 -0.00742082863178019 0.0 0.0
0.0 0.09254537340105051 0.08058978833702406 -0.07900825888144919 -0.0015815294555748373 -0.007877159632646704 0.0 0.0
0.0 0.10564415426200059 0.09194426362732476 -0.09025666622353491 -0.001687597403789817 -0.007466793822717435 0.0 0.0
0.0 0.11628338047562217 0.10118062680247356 -0.09938821473158568 -0.001792412070887915 -0.006118338456040882 0.0 0.0
0.0 0.12258949439448792 0.10667345927694674 -0.10480468432381759 -0.0018687749531291979 -0.003769761150553936 0.0 0.0
0.0 0.12258949439447961 0.10667345927693976 -0.1048046843238099 -0.0018687749531298469 0.003769761150566995 0.0 0.0
0.0 0.11628338047560062 0.10118062680245479 -0.09938821473156648 -0.001792412070888314 0.00611833845606595 0.0 0.0
0.0 0.10564415426196504 0.09194426362729366 -0.09025666622350394 -0.0016875974037896886 0.007466793822733854 0.0 0.0
0.0 0.09254537340100892 0.08058978833698738 -0.07900825888141341 -0.001581529455573931 0.007877159632655815 0.0 0.0
0.0 0.0785812148287783 0.06847551902517127 -0.06700288134329789 -0.0014726376818733422 0.007420828631775322 0.0 0.0
0.0 0.06494284048370398 0.05663935085428279 -0.055274384534266884 -0.0013649663200159096 0.006527809691102553 0.0 0.0
0.0 0.05242345525193877 0.045778599933854594 -0.044517519041258134 -0.0012610808925964281 0.0055580791572641414 0.0 0.0
0.0 0.04148558324468801 0.03623057389380698 -0.035069491620202536 -0.0011610822736044543 0.004654624658343486 0.0 0.0
0.0 0.03219096314293861 0.02804751358218107 -0.02698403879921718 -0.0010634747829638865 0.003861944978517897 0.0 0.0
0.0 0.02411125895070937 0.021117096529063697 -0.02015079803237035 -0.0009662984966933491 0.0031464984903515356 0.0 0.0
0.0 0.01734968267252276 0.015272423503685465 -0.014405592859387096 -0.0008668306442983697 0.002435318989546377 0.0 0.0
0.0 0.01173711297030448 0.01040350219200475 -0.009643648995823009 -0.0007598531961817372 0.0017533588516080614 0.0 0.0
0.0 0.007235065065939781 0.006474498300919682 -0.005842587548115787 -0.0006319107528038954 0.001158721137515762 0.0 0.0
0.0 0.0038506471211096167 0.0034924999838420135 -0.003030222280962497 -0.0004622777028795151 0.0006830551072091562 0.0 0.0
0.0 0.001568899212189125 0.0014473593435818703 -0.0011952423102871415 -0.0002521170332947284 0.0003220581225288525 0.0 0.0
0.0 0.00047359219304848616 0.00028319417310295717 -0.00022539962369821952 -5.779454940473765e-05 7.787330577010073e-05 0.0 0.0
0.0 3.54740876800253e-05 2.877010796499201e-06 -2.248015578691222e-06 -6.289952178078383e-07 1.7902329093900355e-06 0.0 0.0
0.0 9.430826938068039e-08 -1.0209515134588993e-08 7.758883496907494e-09 2.4506316376819497e-09 -3.6392644370560787e-09 0.0 0.0
0.0 0.0 0.0 0.0 0.0 0.0 0.0 0.0
0.0 0.007144940191031315 0.005108696645347155 -0.005582576053637461 0.00047387940829030583 0.004832775483068669 0.0 0.0
0.0 0.005244362945050952 0.003533771151112055 -0.00400753426083446 0.00047376310972240584 -0.00412896374470577 0.0 0.0
0.0 0.0 0.0 0.0 0.0 0.0 0.0 0.0
0.0 0.0 0.0 0.0 0.0 0.0 0.0 0.0
0.0 3.66833500011997e-06 4.798139013404329e-07 -3.753456512318263e-07 -1.0446825010862773e-07 -3.836565675686465e-07 0.0 0.0
0.0 0.0002038320093061884 0.00011211154738415985 -8.85585751278934e-05 -2.3552972256266352e-05 -5.6345992342470644e-05 0.0 0.0
0.0 0.0011844319821574464 0.0009245583664501289 -0.0007531262051068212 -0.00017143216134330694 -0.00035984700709005033 0.0 0.0
0.0 0.002977712150511931 0.0026859084442214707 -0.0022925608742741547 -0.00039334756994731574 -0.0009001954678778251 0.0 0.0
0.0 0.005958447383494384 0.005314772297876423 -0.0047367668244452064 -0.0005780054734312136 -0.0016207582271979052 0.0 0.0
0.0 0.009966804575749694 0.008800431471547207 -0.008083207629192232 -0.0007172238423549744 -0.0024935668929707304 0.0 0.0
0.0 0.014942271410301727 0.013110786192327766 -0.012284462365820824 -0.0008263238265069407 -0.0034768686164213247 0.0 0.0
0.0 0.02092076890653091 0.018255701673418424 -0.017333758011731717 -0.0009219436616867069 -0.004503457111148461 0.0 0.0
0.0 0.027920589283529 0.024330549631746596 -0.0233181556736188 -0.0010123939581277895 -0.005536427873377769 0.0 0.0
0.0 0.0362946548587436 0.031495052836398765 -0.03039319511102602 -0.0011018577253727399 -0.006640815853661167 0.0 0.0
0.0 0.04587597107224931 0.03989506814895692 -0.038701941924860345 -0.0011931262240965634 -0.007923257308828351 0.0 0.0
0.0 0.056918272188845126 0.04950873140727168 -0.04822164256586023 -0.0012870888414114312 -0.009340397517796768 0.0 0.0
0.0 0.06909356875478119 0.060060978020294156 -0.05867695765980921 -0.0013840203604849235 -0.010631896688415472 0.0 0.0
0.0 0.08164341475232158 0.07096598439877977 -0.06948342483677626 -0.0014825595620034685 -0.011336661351798748 0.0 0.0
0.0 0.09347875024809205 0.08129289055310562 -0.07971007878620634 -0.0015828117668992582 -0.010905339969001171 0.0 0.0
0.0 0.10314480321334538 0.0897580820919627 -0.08808126153553975 -0.0016768205564229052 -0.008922563724583832 0.0 0.0
0.0 0.1090074350372513 0.09493068904262272 -0.09318927999515147 -0.0017414090474712081 -0.004975884464737769 0.0 0.0
0.0 0.10900743503724186 0.09493068904261434 -0.09318927999514293 -0.0017414090474713794 0.004975884464759373 0.0 0.0
0.0 0.10314480321332546 0.08975808209194465 -0.08808126153552173 -0.0016768205564229065 0.00892256372461642 0.0 0.0
0.0 0.09347875024806176 0.08129289055307862 -0.07971007878617929 -0.0015828117668992576 0.010905339969024269 0.0 0.0
0.0 0.08164341475228305 0.07096598439874599 -0.06948342483674255 -0.0014825595620034605 0.01133666135180858 0.0 0.0
0.0 0.06909356875473971 0.06006097802025821 -0.058676957659773724 -0.0013840203604844738 0.010631896688410292 0.0 0.0
0.0 0.05691827218880218 0.04950873140723423 -0.04822164256582339 -0.0012870888414108503 0.009340397517794504 0.0 0.0
0.0 0.04587597107220667 0.039895068148919716 -0.03870194192482372 -0.0011931262240959955 0.007923257308825876 0.0 0.0
0.0 0.036294654858701716 0.03149505283636209 -0.030393195110989965 -0.0011018577253721314 0.006640815853658128 0.0 0.0
0.0 0.027920589283488208 0.024330549631711176 -0.023318155673584057 -0.0010123939581271177 0.005536427873369707 0.0 0.0
0.0 0.0209207689064957 0.01825570167338737 -0.017333758011701207 -0.000921943661686159 0.004503457111141187 0.0 0.0
0.0 0.014942271410272642 0.013110786192301972 -0.012284462365795765 -0.0008263238265062039 0.0034768686164120865 0.0 0.0
0.0 0.009966804575725761 0.008800431471525899 -0.008083207629171602 -0.0007172238423542958 0.0024935668929650526 0.0 0.0
0.0 0.005958447383476644 0.005314772297860344 -0.00473676682443 -0.0005780054734303465 0.0016207582271929232 0.0 0.0
0.0 0.0029777121505006427 0.0026859084442110077 -0.0022925608742646944 -0.00039334756994631215 0.0009001954678745931 0.0 0.0
0.0 0.0011844319821514432 0.0009245583664453077 -0.0007531262051027898 -0.0001714321613425174 0.0003598470070881147 0.0 0.0
0.0 0.0002038320093046306 0.00011211154738346364 -8.855857512733932e-05 -2.3552972256124186e-05 5.63459923421091e-05 0.0 0.0
0.0 3.6683349998150783e-06 4.798139015957062e-07 -3.7534565142937046e-07 -1.044682501663554e-07 3.836565677376277e-07 0.0 0.0
0.0 0.0 0.0 0.0 0.0 0.0 0.0 0.0
0.0 0.0 0.0 0.0 0.0 0.0 0.0 0.0
0.0 0.005244362945036042 0.003533771151101815 -0.004007534260823372 0.0004737631097215574 0.004128963744689419 0.0 0.0
0.0 0.003793424509925051 0.0024360352129380695 -0.00285799409734789 0.00042195888440981996 -0.0031476263747923106 0.0 0.0
0.0 0.0 0.0 0.0 0.0 0.0 0.0 0.0
0.0 0.0 0.0 0.0 0.0 0.0 0.0 0.0
0.0 1.7764958665315978e-06 -1.7819784007305854e-07 1.3787375697884427e-07 4.03240830942293e-08 1.8782013220909485e-07 0.0 0.0
0.0 7.037701243325486e-05 3.010049117998726e-05 -2.36678457620592e-05 -6.432645417927952e-06 -2.450881555142051e-05 0.0 0.0
0.0 0.0007244247284482122 0.0005193372012134679 -0.0004176320016457296 -0.00010170519956773834 -0.0003093028690922174 0.0 0.0
0.0 0.002199349103654904 0.0019088492473140189 -0.0016006248798377406 -0.00030822436747627766 -0.0009532807196926706 0.0 0.0
0.0 0.004720162112450583 0.00417050107563394 -0.0036595431859864636 -0.0005109578896474772 -0.0018707853701775492 0.0 0.0
0.0 0.00821886461398218 0.00720135764383608 -0.006538082870860153 -0.0006632747729759258 -0.002959116276292594 0.0 0.0
0.0 0.012554587301302553 0.010950057344547721 -0.010172456794722163 -0.0007776005498255517 -0.00417169924185027 0.0 0.0
0.0 0.017735051745929112 0.015401221125282031 -0.014529670888414004 -0.0008715502368680233 -0.0054274089156590025 0.0 0.0
0.0 0.02382439035638276 0.020628099101724386 -0.019671513251123117 -0.0009565858506012697 -0.006692944164985955 0.0 0.0
0.0 0.03097622776603991 0.02678515581861409 -0.02574700316816944 -0.0010381526504446461 -0.00805288789800581 0.0 0.0
0.0 0.039406885264636225 0.03402294047111259 -0.032901933905203185 -0.001121006565909402 -0.009584618171529162 0.0 0.0
0.0 0.049101079558470505 0.042362251339138464 -0.04115718471252018 -0.001205066626618281 -0.011274056709258965 0.0 0.0
0.0 0.05960841138162133 0.05160919591684658 -0.05031846920771259 -0.0012907267091339762 -0.012878743565682858 0.0 0.0
0.0 0.07074827334864223 0.06128621047879311 -0.059906859443830944 -0.001379351034962158 -0.013838999225873304 0.0 0.0
0.0 0.08138123082783774 0.07059048015360245 -0.06912041501038299 -0.0014700651432194545 -0.013455584500540142 0.0 0.0
0.0 0.09019734240832988 0.0783856613228284 -0.07683098724141137 -0.001554674081417022 -0.011038987175320075 0.0 0.0
0.0 0.09576320223238724 0.08338423131325609 -0.08177074442749395 -0.0016134868857621144 -0.005959516497102997 0.0 0.0
0.0 0.09576320223238205 0.08338423131325101 -0.08177074442748913 -0.0016134868857618895 0.00595951649713037 0.0 0.0
0.0 0.09019734240831459 0.07838566132281372 -0.0768309872413969 -0.0015546740814167909 0.011038987175357746 0.0 0.0
0.0 0.08138123082781347 0.07059048015357992 -0.0691204150103609 -0.0014700651432190015 0.013455584500566472 0.0 0.0
0.0 0.07074827334860992 0.06128621047876422 -0.059906859443802404 -0.0013793510349618297 0.013838999225885083 0.0 0.0
0.0 0.059608411381585735 0.05160919591681565 -0.050318469207682216 -0.0012907267091334228 0.012878743565678398 0.0 0.0
0.0 0.049101079558434055 0.04236225133910668 -0.041157184712489206 -0.0012050666266174564 0.011274056709254599 0.0 0.0
0.0 0.0394068852645995 0.03402294047108049 -0.03290193390517162 -0.0011210065659088791 0.009584618171525498 0.0 0.0
0.0 0.030976227766002812 0.026785155818581614 -0.025747003168137335 -0.001038152650444273 0.00805288789800152 0.0 0.0
0.0 0.023824390356348934 0.020628099101694636 -0.019671513251094192 -0.0009565858506004392 0.006692944164976823 0.0 0.0
0.0 0.01773505174589845 0.015401221125254822 -0.01452967088838769 -0.0008715502368671446 0.005427408915650148 0.0 0.0
0.0 0.012554587301273831 0.01095005734452281 -0.010172456794697861 -0.0007776005498249449 0.0041716992418384235 0.0 0.0
0.0 0.008218864613960809 0.007201357643817062 -0.006538082870841922 -0.0006632747729751396 0.002959116276286011 0.0 0.0
0.0 0.004720162112434836 0.004170501075619841 -0.0036595431859732987 -0.0005109578896465396 0.0018707853701713914 0.0 0.0
0.0 0.002199349103644723 0.0019088492473051124 -0.0016006248798298706 -0.0003082243674752415 0.0009532807196886689 0.0 0.0
0.0 0.0007244247284428636 0.0005193372012098259 -0.00041763200164273703 -0.00010170519956708894 0.0003093028690900659 0.0 0.0
0.0 7.03770124319201e-05 3.0100491179736813e-05 -2.3667845761846183e-05 -6.432645417890715e-06 2.4508815551146266e-05 0.0 0.0
0.0 1.7764958662467406e-06 -1.7819784004332652e-07 1.3787375695581053e-07 4.032408308752122e-08 -1.8782013217738892e-07 0.0 0.0
0.0 0.0 0.0 0.0 0.0 0.0 0.0 0.0
0.0 0.0 0.0 0.0 0.0 0.0 0.0 0.0
0.0 0.0037934245099121118 0.0024360352129296115 -0.0028579940973385417 0.00042195888440892885 0.0031476263747797044 0.0 0.0
0.0 0.0026328075264665123 0.0016173936995157177 -0.0019592741631455175 0.00034188046362980103 -0.002214312920917262 0.0 0.0
0.0 0.0 0.0 0.0 0.0 0.0 0.0 0.0
0.0 0.0 0.0 0.0 0.0 0.0 0.0 0.0
0.0 6.929946244958124e-08 -5.867089801559984e-09 4.478351496008589e-09 1.388738305550426e-09 8.798859195521545e-09 0.0 0.0
0.0 2.2667180889668585e-05 5.299737045186086e-06 -4.2322714968530546e-06 -1.067465548333054e-06 -6.8070802392956615e-06 0.0 0.0
0.0 0.0003668626695060352 0.00023951200592657934 -0.0001909205591314344 -4.859144679514507e-05 -0.0002178391393755134 0.0 0.0
0.0 0.001575352190352848 0.0012024516838593912 -0.0009893901778660933 -0.00021306150599329757 -0.0008437419387046255 0.0 0.0
0.0 0.0035763593491880876 0.0030489476578073335 -0.002623471636403628 -0.000425476021403705 -0.0018689930033453672 0.0 0.0
0.0 0.006506557610101525 0.005621723110526357 -0.005027622317854594 -0.000594100792671763 -0.0031392692054711575 0.0 0.0
0.0 0.0102104881262733 0.008804256900545343 -0.008086610303619802 -0.0007176465969255406 -0.0045091393040736375 0.0 0.0
0.0 0.014613862533100284 0.012566483652909853 -0.011753491203210453 -0.0008129924496993993 -0.0059203514865608636 0.0 0.0
0.0 0.01974107082567261 0.016956655435455655 -0.01606268770122951 -0.000893967734226143 -0.007333899968807684 0.0 0.0
0.0 0.02582052769146146 0.022112158630431738 -0.02114283080517133 -0.0009693278252604117 -0.008833651334187962 0.0 0.0
0.0 0.03283571998372598 0.028190597663157655 -0.027147319982239272 -0.0010432776809183803 -0.010536832033025084 0.0 0.0
0.0 0.04107044706095833 0.03524359612981402 -0.03412599821340107 -0.0011175979164129261 -0.01239335607242796 0.0 0.0
0.0 0.050351375393619405 0.043148080409330394 -0.04195484468097865 -0.001193235728351729 -0.01414269340132277 0.0 0.0
0.0 0.05989084474400005 0.051555033095177595 -0.0502848974857739 -0.0012701356094036837 -0.015304933014376456 0.0 0.0
0.0 0.06925062628500421 0.05982723431651547 -0.05847767880855077 -0.0013495555079646988 -0.015083887822020815 0.0 0.0
0.0 0.07729945921152473 0.06701074566347792 -0.0655852690285045 -0.0014254766349734032 -0.012520221843837082 0.0 0.0
0.0 0.08268728192873193 0.07193168937982927 -0.07045016792628439 -0.0014815214535448533 -0.006771000335707408 0.0 0.0
0.0 0.08268728192872699 0.07193168937982419 -0.07045016792627957 -0.0014815214535445673 0.006771000335736324 0.0 0.0
0.0 0.07729945921151257 0.06701074566346531 -0.06558526902849239 -0.0014254766349728815 0.012520221843875114 0.0 0.0
0.0 0.06925062628498382 0.05982723431649592 -0.05847767880853137 -0.0013495555079645386 0.015083887822048843 0.0 0.0
0.0 0.059890844743975775 0.05155503309515532 -0.0502848974857521 -0.0012701356094032305 0.015304933014389156 0.0 0.0
0.0 0.0503513753935898 0.04314808040930451 -0.04195484468095327 -0.0011932357283512475 0.014142693401319222 0.0 0.0
0.0 0.04107044706092793 0.035243596129787384 -0.03412599821337509 -0.0011175979164122813 0.012393356072423537 0.0 0.0
0.0 0.03283571998369884 0.028190597663133508 -0.02714731998221629 -0.00104327768091722 0.010536832033021795 0.0 0.0
0.0 0.025820527691433802 0.022112158630406976 -0.021142830805147415 -0.000969327825259547 0.008833651334184525 0.0 0.0
0.0 0.01974107082564353 0.016956655435430228 -0.01606268770120474 -0.0008939677342254814 0.007333899968797955 0.0 0.0
0.0 0.014613862533074628 0.012566483652887518 -0.011753491203188898 -0.000812992449698623 0.005920351486550031 0.0 0.0
0.0 0.01021048812624955 0.008804256900525328 -0.0080866103036005 -0.000717646596924824 0.004509139304060392 0.0 0.0
0.0 0.00650655761008289 0.005621723110510057 -0.005027622317839045 -0.0005941007926710093 0.0031392692054631327 0.0 0.0
0.0 0.0035763593491739735 0.0030489476577953175 -0.0026234716363926955 -0.00042547602140262185 0.0018689930033381629 0.0 0.0
0.0 0.001575352190344732 0.0012024516838529352 -0.0009893901778606365 -0.00021306150599229858 0.0008437419387007073 0.0 0.0
0.0 0.0003668626695022501 0.00023951200592420692 -0.00019092055912952932 -4.859144679467762e-05 0.00021783913937343993 0.0 0.0
0.0 2.2667180888868336e-05 5.299737045204623e-06 -4.232271496864885e-06 -1.0674655483396663e-06 6.80708023931369e-06 0.0 0.0
0.0 6.92994622914334e-08 -5.86708978807203e-09 4.478351485713519e-09 1.3887383023585593e-09 -8.798859175293273e-09 0.0 0.0
0.0 0.0 0.0 0.0 0.0 0.0 0.0 0.0
0.0 0.0 0.0 0.0 0.0 0.0 0.0 0.0
0.0 0.0026328075264561686 0.0016173936995092406 -0.0019592741631381623 0.0003418804636289208 0.002214312920907743 0.0 0.0
0.0 0.0016847960862964233 0.0009992982849560948 -0.00124872731727899 0.0002494290323228949 -0.0014314451035911582 0.0 0.0
0.0 0.0 0.0 0.0 0.0 0.0 0.0 0.0
0.0 0.0 0.0 0.0 0.0 0.0 0.0 0.0
0.0 0.0 0.0 0.0 0.0 0.0 0.0 0.0
0.0 1.0357222223247195e-05 -9.629514759713054e-07 7.42040758605245e-07 2.2091071736606066e-07 1.7961155124832236e-06 0.0 0.0
0.0 0.00014585462217891242 9.437997071169589e-05 -7.499551866004122e-05 -1.9384452051654606e-05 -0.0001336728769302754 0.0 0.0
0.0 0.0009053448229558329 0.00065874289066568 -0.0005327551826905609 -0.00012598770797511862 -0.000669361154782409 0.0 0.0
0.0 0.0025145376937733884 0.0020019918745521315 -0.0016842197469309854 -0.0003177721276211466 -0.0016593406255911247 0.0 0.0
0.0 0.0048884487205595305 0.004072819227108053 -0.003569502782148552 -0.0005033164449595011 -0.0029914276882850002 0.0 0.0
0.0 0.007922102275768901 0.006690777638365994 -0.00605002352895448 -0.0006407541094115141 -0.004473107665369679 0.0 0.0
0.0 0.011531420063465341 0.009767231649262492 -0.009025875255720406 -0.0007413563935420849 -0.005961070643984387 0.0 0.0
0.0 0.015737388768485475 0.013331513489171838 -0.012509603381751019 -0.0008219101074208179 -0.007443785633225184 0.0 0.0
0.0 0.02065263065899289 0.017499926969452528 -0.016607347186636718 -0.000892579782815819 -0.009004843189061223 0.0 0.0
0.0 0.026453842606471205 0.022419631326419262 -0.021460597991462972 -0.0009590333349562868 -0.010737423922534066 0.0 0.0
0.0 0.03327024579166955 0.02817816221030842 -0.027154067301777912 -0.0010240949085305112 -0.012637668259357238 0.0 0.0
0.0 0.04075881928910169 0.03472097381731486 -0.033631826838581284 -0.0010891469787335877 -0.014470041524002076 0.0 0.0
0.0 0.049030017686070224 0.04180089939281508 -0.0406465356958671 -0.0011543636969479566 -0.015732541955024455 0.0 0.0
0.0 0.057230761329462095 0.04898754572438338 -0.04776697541414452 -0.0012205703102388377 -0.01570278664013908 0.0 0.0
0.0 0.06436097926639145 0.055566589389583726 -0.05427956595333906 -0.0012870234362446294 -0.01332199617304004 0.0 0.0
0.0 0.06964382926788738 0.060476832497516356 -0.0591346068166648 -0.0013422256808515557 -0.007416763194799621 0.0 0.0
0.0 0.06964382926788326 0.060476832497511915 -0.05913460681666036 -0.001342225680851582 0.0074167631948282315 0.0 0.0
0.0 0.06436097926638315 0.055566589389573956 -0.05427956595332983 -0.0012870234362441393 0.013321996173077489 0.0 0.0
0.0 0.05723076132944832 0.04898754572436882 -0.04776697541413074 -0.0012205703102381013 0.015702786640166645 0.0 0.0
0.0 0.04903001768604904 0.04180089939279528 -0.04064653569584793 -0.0011543636969473215 0.0157325419550357 0.0 0.0
0.0 0.04075881928907308 0.034720973817290404 -0.03363182683855691 -0.001089146978733471 0.014470041523995756 0.0 0.0
0.0 0.03327024579164352 0.028178162210285837 -0.027154067301755895 -0.0010240949085299318 0.012637668259350279 0.0 0.0
0.0 0.026453842606445763 0.022419631326396974 -0.021460597991440993 -0.000959033334955979 0.0107374239225288 0.0 0.0
0.0 0.020652630658969266 0.017499926969431777 -0.016607347186616557 -0.0008925797828152218 0.009004843189056077 0.0 0.0
0.0 0.01573738876846087 0.013331513489150812 -0.012509603381730515 -0.0008219101074202959 0.007443785633215584 0.0 0.0
0.0 0.011531420063442278 0.009767231649242973 -0.009025875255701449 -0.0007413563935415217 0.005961070643972844 0.0 0.0
0.0 0.007922102275749882 0.006690777638350113 -0.00605002352893936 -0.0006407541094107507 0.004473107665356646 0.0 0.0
0.0 0.004888448720545048 0.004072819227095573 -0.0035695027821369377 -0.0005033164449586353 0.0029914276882768657 0.0 0.0
0.0 0.002514537693763212 0.002001991874543819 -0.00168421974692368 -0.00031777212762013865 0.0016593406255848405 0.0 0.0
0.0 0.0009053448229505964 0.0006587428906619246 -0.0005327551826874617 -0.00012598770797446284 0.0006693611547791361 0.0 0.0
0.0 0.00014585462217706877 9.437997071102958e-05 -7.499551865950718e-05 -1.9384452051522445e-05 0.00013367287692933003 0.0 0.0
0.0 1.035722222266242e-05 -9.62951475913127e-07 7.420407585612027e-07 2.2091071735193387e-07 -1.7961155123846205e-06 0.0 0.0
0.0 0.0 0.0 0.0 0.0 0.0 0.0 0.0
0.0 0.0 0.0 0.0 0.0 0.0 0.0 0.0
0.0 0.0 0.0 0.0 0.0 0.0 0.0 0.0
0.0 0.001684796086288271 0.000999298284951244 -0.0012487273172732858 0.0002494290323220422 0.0014314451035840115 0.0 0.0
0.0 0.0009742259070653816 0.000541019482546296 -0.0006965124603014244 0.00015549297775512835 -0.0008108422119240077 0.0 0.0
0.0 0.0 0.0 0.0 0.0 0.0 0.0 0.0
0.0 0.0 0.0 0.0 0.0 0.0 0.0 0.0
0.0 0.0 0.0 0.0 0.0 0.0 0.0 0.0
0.0 3.903796121558885e-06 1.5014890372535624e-07 -1.32932930620666e-07 -1.721597310469451e-08 -4.951332787187425e-07 0.0 0.0
0.0 7.682572054417298e-05 2.6319073343753773e-05 -2.0923795730618278e-05 -5.395277613135538e-06 -5.537250901922456e-05 0.0 0.0
0.0 0.0004416585366785762 0.0002817299845433595 -0.00022514592338011567 -5.6584061163243726e-05 -0.00043754738739598475 0.0 0.0
0.0 0.0015272138396202459 0.001114283929098894 -0.000914889274616107 -0.0001993946544827867 -0.001300961267917402 0.0 0.0
0.0 0.0033428006850592306 0.002607583481387621 -0.002226287601153277 -0.00038129588023434334 -0.002538938427810081 0.0 0.0
0.0 0.00570559792910156 0.004629312471217727 -0.004092889346423753 -0.0005364231247939729 -0.004014355563252713 0.0 0.0
0.0 0.008528060561517758 0.007021882367624161 -0.006374188099106453 -0.0006476942685177069 -0.005531250250030427 0.0 0.0
0.0 0.011800868893465424 0.00977249026593988 -0.009039350052513011 -0.0007331402134268671 -0.0070081029974516035 0.0 0.0
0.0 0.01563085383476445 0.012969313077897905 -0.012166566882050407 -0.0008027461958474892 -0.008532768838251348 0.0 0.0
0.0 0.0201028111991815 0.01674665685203356 -0.01588244967391885 -0.0008642071781146991 -0.010203733292811035 0.0 0.0
0.0 0.02540603969279446 0.021205448594408666 -0.02028510064141016 -0.0009203479529984962 -0.012018241598074424 0.0 0.0
0.0 0.03147756708116058 0.026356898818218788 -0.025380345224676554 -0.0009765535935422268 -0.013784609849525608 0.0 0.0
0.0 0.038044441460577824 0.032062352960233485 -0.03103222140761857 -0.0010301315526149073 -0.015098849227636798 0.0 0.0
0.0 0.04486775162309978 0.03807944344495194 -0.03699831623329225 -0.0010811272116596968 -0.01531155926639273 0.0 0.0
0.0 0.051457033733407154 0.04398508589580979 -0.04284954465043994 -0.0011355412453698342 -0.013392101757924362 0.0 0.0
0.0 0.05674019664594209 0.04891477059723269 -0.04772334336192513 -0.0011914272353075578 -0.007875866457251439 0.0 0.0
0.0 0.05674019664593829 0.04891477059722855 -0.04772334336192087 -0.0011914272353076652 0.007875866457277354 0.0 0.0
0.0 0.05145703373339738 0.043985085895798824 -0.042849544650428506 -0.0011355412453703184 0.013392101757960092 0.0 0.0
0.0 0.04486775162308868 0.03807944344493951 -0.03699831623328 -0.001081127211659498 0.015311559266418842 0.0 0.0
0.0 0.03804444146056235 0.03206235296021842 -0.031032221407603994 -0.0010301315526144313 0.015098849227646441 0.0 0.0
0.0 0.03147756708114219 0.0263568988182028 -0.02538034522466122 -0.0009765535935415693 0.0137846098495204 0.0 0.0
0.0 0.02540603969277442 0.021205448594391593 -0.0202851006413934 -0.0009203479529981915 0.012018241598067119 0.0 0.0
0.0 0.020102811199161966 0.01674665685201658 -0.015882449673902132 -0.0008642071781144463 0.010203733292805984 0.0 0.0
0.0 0.01563085383474557 0.012969313077881529 -0.01216656688203433 -0.0008027461958471967 0.0085327688382459 0.0 0.0
0.0 0.011800868893447 0.009772490265924319 -0.009039350052497973 -0.0007331402134263444 0.0070081029974420886 0.0 0.0
0.0 0.00852806056150024 0.007021882367609739 -0.006374188099092725 -0.0006476942685170106 0.005531250250019298 0.0 0.0
0.0 0.00570559792908516 0.004629312471204718 -0.004092889346411644 -0.0005364231247930726 0.00401435556323973 0.0 0.0
0.0 0.003342800685047191 0.002607583481378204 -0.0022262876011446826 -0.0003812958802335198 0.002538938427802049 0.0 0.0
0.0 0.0015272138396132807 0.001114283929093799 -0.0009148892746118084 -0.0001993946544819911 0.0013009612679123045 0.0 0.0
0.0 0.00044165853667508663 0.0002817299845412514 -0.00022514592337839612 -5.6584061162855006e-05 0.00043754738739315894 0.0 0.0
0.0 7.682572054289167e-05 2.63190733435565e-05 -2.0923795730458497e-05 -5.395277613097928e-06 5.537250901877941e-05 0.0 0.0
0.0 3.90379612129697e-06 1.5014890388920804e-07 -1.3293293075203286e-07 -1.721597313718136e-08 4.951332791930285e-07 0.0 0.0
0.0 0.0 0.0 0.0 0.0 0.0 0.0 0.0
0.0 0.0 0.0 0.0 0.0 0.0 0.0 0.0
0.0 0.0 0.0 0.0 0.0 0.0 0.0 0.0
0.0 0.000974225907059287 0.000541019482543048 -0.0006965124602974904 0.00015549297775444235 0.0008108422119190014 0.0 0.0
0.0 0.00046779495228684503 0.00022866283043268516 -0.0003050660120859217 7.640318165323687e-05 -0.0003553737223312659 0.0 0.0
0.0 1.266647607192392e-07 -7.072771973675951e-10 8.507483974345466e-10 -1.4347120006705642e-10 2.5171596720899338e-08 0.0 0.0
0.0 0.0 0.0 0.0 0.0 0.0 0.0 0.0
0.0 8.694762653476193e-07 -2.987712020632065e-08 2.159330647060148e-08 8.283813735721381e-09 1.7349073420562356e-07 0.0 0.0
0.0 2.941446764786285e-06 -1.3952363807393717e-07 1.0592787567314353e-07 3.3595762400780106e-08 5.885360677433528e-07 0.0 0.0
0.0 4.423896264559116e-05 1.1570604457885105e-05 -9.086693845538452e-06 -2.4839106123466516e-06 -3.633844050940043e-05 0.0 0.0
0.0 0.0002038945903167939 9.379284493745202e-05 -7.454878482088334e-05 -1.92440601165687e-05 -0.0002418592759057729 0.0 0.0
0.0 0.00074758477986526 0.00045498946124833807 -0.0003650181589278851 -8.997130232045281e-05 -0.0008381583810449989 0.0 0.0
0.0 0.0019407277297485354 0.0013236361211904403 -0.0010946214008722896 -0.0002290147203181502 -0.0018544885661195014 0.0 0.0
0.0 0.00354327960705063 0.002683962529944912 -0.0022973553910358344 -0.000386607138909077 -0.003159479361416939 0.0 0.0
0.0 0.005665955758898675 0.004365029311986315 -0.0038521450397649678 -0.0005128842722213454 -0.0045674487309037655 0.0 0.0
0.0 0.007982183331260355 0.006309664818577691 -0.0057003097477866 -0.0006093550707910898 -0.0059719336838325345 0.0 0.0
0.0 0.0106929692389914 0.008556293106737816 -0.00787077098195628 -0.000685522124781533 -0.00739764692423438 0.0 0.0
0.0 0.013914796113308283 0.011208739660715087 -0.010461396130471284 -0.0007473435302437992 -0.008904978469767746 0.0 0.0
0.0 0.017790441163646184 0.014373214000862137 -0.013573415604950945 -0.0007997983959111913 -0.010517586539011302 0.0 0.0
0.0 0.022250881255299875 0.018111004662517593 -0.017264269124447534 -0.0008467355380700577 -0.012116138464654282 0.0 0.0
0.0 0.027307212832860313 0.02238929168988536 -0.021497070863305986 -0.0008922208265793716 -0.013347590558079105 0.0 0.0
0.0 0.032620420677157154 0.027125772125701803 -0.026196249801249443 -0.0009295223244523439 -0.01375992428795748 0.0 0.0
0.0 0.03813641896623563 0.03221454430701124 -0.03125046812486514 -0.0009640761821460837 -0.012597807804441778 0.0 0.0
0.0 0.04329059743756876 0.037139035219767226 -0.03612004792978203 -0.0010189872899851894 -0.00810618305273015 0.0 0.0
0.0 0.04329059743756733 0.037139035219764825 -0.03612004792977961 -0.0010189872899852006 0.008106183052751754 0.0 0.0
0.0 0.03813641896623288 0.03221454430700572 -0.03125046812485979 -0.0009640761821459184 0.012597807804473317 0.0 0.0
0.0 0.03262042067714899 0.027125772125691703 -0.026196249801239736 -0.0009295223244519669 0.013759924287980119 0.0 0.0
0.0 0.027307212832846064 0.02238929168987181 -0.021497070863292826 -0.0008922208265789878 0.013347590558084824 0.0 0.0
0.0 0.022250881255285203 0.01811100466250526 -0.017264269124435766 -0.0008467355380694864 0.012116138464648266 0.0 0.0
0.0 0.017790441163632674 0.014373214000850919 -0.013573415604940377 -0.000799798395910537 0.010517586539004632 0.0 0.0
0.0 0.013914796113296171 0.011208739660704745 -0.010461396130461341 -0.0007473435302434088 0.008904978469763744 0.0 0.0
0.0 0.010692969238980143 0.008556293106727899 -0.007870770981946863 -0.0006855221247810335 0.007397646924231205 0.0 0.0
0.0 0.007982183331247329 0.006309664818567082 -0.005700309747776599 -0.0006093550707904831 0.0059719336838242685 0.0 0.0
0.0 0.005665955758886755 0.004365029311976892 -0.003852145039756315 -0.0005128842722205753 0.0045674487308947475 0.0 0.0
0.0 0.0035432796070387278 0.0026839625299362145 -0.002297355391027954 -0.0003866071389082597 0.0031594793614064336 0.0 0.0
0.0 0.0019407277297412654 0.0013236361211851377 -0.0010946214008677583 -0.0002290147203173794 0.0018544885661136465 0.0 0.0
0.0 0.0007475847798606419 0.00045498946124534215 -0.0003650181589254232 -8.99713023199188e-05 0.0008381583810405108 0.0 0.0
0.0 0.00020389459031512343 9.379284493698029e-05 -7.454878482049752e-05 -1.9244060116482804e-05 0.0002418592759045555 0.0 0.0
0.0 4.4238962644660077e-05 1.1570604457810962e-05 -9.086693845479934e-06 -2.483910612331006e-06 3.633844050915552e-05 0.0 0.0
0.0 2.9414467642801842e-06 -1.3952363805020315e-07 1.0592787565476392e-07 3.359576239544616e-08 -5.885360676368125e-07 0.0 0.0
0.0 8.694762648168817e-07 -2.987712019000699e-08 2.1593306458356525e-08 8.283813731647456e-09 -1.7349073409897767e-07 0.0 0.0
0.0 0.0 0.0 0.0 0.0 0.0 0.0 0.0
0.0 1.2666476022059354e-07 -7.072771946710994e-10 8.50748394078545e-10 -1.4347119940746084e-10 -2.5171596621278046e-08 0.0 0.0
0.0 0.0004677949522830981 0.00022866283043111095 -0.00030506601208391785 7.640318165280694e-05 0.00035537372232883696 0.0 0.0
0.0 0.00014115151121842892 6.66984838503738e-05 -9.348070671578353e-05 2.6782222865409733e-05 -0.00010839698608069515 0.0 0.0
0.0 1.8030073051673429e-06 -4.177191184509683e-09 1.0378638774830307e-08 -6.201447590320216e-09 3.8291760625588695e-07 0.0 0.0
0.0 8.129603515550081e-07 -9.729788138728575e-10 -5.062304710215263e-10 1.479209284894036e-09 1.6676851108718092e-07 0.0 0.0
0.0 1.3942118126280809e-06 -1.7202479833820512e-08 1.1633862331670308e-08 5.568617502153395e-09 2.882879494068393e-07 0.0 0.0
0.0 3.51710019670298e-06 4.3270153670639344e-08 -2.8140243770031042e-08 -1.5129909900612484e-08 -1.0256375379437809e-07 0.0 0.0
0.0 3.6050948618362704e-05 4.817015134719044e-06 -3.823831574779556e-06 -9.931835599394932e-07 -2.7822804861902128e-05 0.0 0.0
0.0 0.00013586223597067095 3.601492154452863e-05 -2.863356571725035e-05 -7.381355827278247e-06 -0.00016875977965865506 0.0 0.0
0.0 0.00032595472052481884 0.00012903900789727166 -0.00010253431474701586 -2.6504693150255742e-05 -0.00047819816456469113 0.0 0.0
0.0 0.0008241268487659088 0.00040011425156141 -0.0003201695740091157 -7.99446775522942e-05 -0.0010591636616951222 0.0 0.0
0.0 0.001698600520947143 0.001009294621282866 -0.0008257755466880699 -0.00018351907459479604 -0.001991518354616223 0.0 0.0
0.0 0.0028843172001443477 0.0019229683877543136 -0.0016191280928579395 -0.0003038402948963733 -0.0031148011733928595 0.0 0.0
0.0 0.004375214689106439 0.0030286320321495433 -0.0026208454191025657 -0.00040778661304697656 -0.004305629409286367 0.0 0.0
0.0 0.006067244059834909 0.00433169223022744 -0.0038348529971774037 -0.0004968392330500342 -0.00557059321227917 0.0 0.0
0.0 0.008070868782496299 0.005884894580997051 -0.0053145923932015286 -0.0005703021877955195 -0.006873213476903124 0.0 0.0
0.0 0.010467402222543885 0.007768188669914482 -0.007139109681525887 -0.0006290789883885951 -0.008223688570946587 0.0 0.0
0.0 0.013336530704256066 0.01007354457602992 -0.009397743423689401 -0.0006758011523405236 -0.009578369353418714 0.0 0.0
0.0 0.01675660259260345 0.012878826034553455 -0.012162973595046906 -0.0007158524395065536 -0.01072201349627325 0.0 0.0
0.0 0.020630990575176318 0.016239351188449824 -0.015486186279100615 -0.0007531649093492129 -0.011209799806200474 0.0 0.0
0.0 0.025069658065081823 0.020259862368448255 -0.019494514203053856 -0.000765348165394402 -0.010746488595965997 0.0 0.0
0.0 0.029942720201685098 0.025010094938109323 -0.024203706485092152 -0.0008063884530171721 -0.00794180557955375 0.0 0.0
0.0 0.02994272020168645 0.025010094938109136 -0.02420370648509198 -0.0008063884530171642 0.007941805579570983 0.0 0.0
0.0 0.025069658065080595 0.02025986236844403 -0.01949451420304961 -0.0007653481653944112 0.010746488595992927 0.0 0.0
0.0 0.02063099057517293 0.016239351188444003 -0.015486186279095007 -0.0007531649093489935 0.011209799806218156 0.0 0.0
0.0 0.0167566025925981 0.012878826034547713 -0.01216297359504151 -0.0007158524395062019 0.01072201349627816 0.0 0.0
0.0 0.013336530704245397 0.010073544576022003 -0.009397743423681703 -0.000675801152340297 0.009578369353411765 0.0 0.0
0.0 0.01046740222253239 0.007768188669905836 -0.00713910968151741 -0.0006290789883884237 0.008223688570938881 0.0 0.0
0.0 0.008070868782487993 0.005884894580990246 -0.005314592393194987 -0.0005703021877952602 0.006873213476899342 0.0 0.0
0.0 0.006067244059829132 0.004331692230222469 -0.0038348529971728015 -0.0004968392330496691 0.005570593212276749 0.0 0.0
0.0 0.004375214689098386 0.0030286320321437792 -0.0026208454190974817 -0.00040778661304629893 0.004305629409279607 0.0 0.0
0.0 0.0028843172001363944 0.001922968387749029 -0.0016191280928532798 -0.0003038402948957477 0.0031148011733849994 0.0 0.0
0.0 0.0016986005209406248 0.0010092946212790987 -0.0008257755466848961 -0.00018351907459420233 0.00199151835460912 0.0 0.0
0.0 0.0008241268487635509 0.00040011425156023144 -0.00032016957400815316 -7.994467755207812e-05 0.001059163661692303 0.0 0.0
0.0 0.0003259547205229818 0.00012903900789660287 -0.00010253431474649924 -2.6504693150103564e-05 0.0004781981645627654 0.0 0.0
0.0 0.0001358622359691858 3.601492154426794e-05 -2.8633565717039757e-05 -7.381355827228174e-06 0.00016875977965740828 0.0 0.0
0.0 3.6050948617654205e-05 4.817015134674882e-06 -3.823831574743469e-06 -9.931835599314015e-07 2.7822804861660886e-05 0.0 0.0
0.0 3.5171001964128583e-06 4.3270153738877536e-08 -2.814024382001283e-08 -1.512990991886653e-08 1.0256375428196753e-07 0.0 0.0
0.0 1.3942118121365584e-06 -1.7202479827439693e-08 1.1633862327329383e-08 5.568617500112952e-09 -2.8828794930130727e-07 0.0 0.0
0.0 8.12960351106587e-07 -9.729788137991681e-10 -5.062304704954294e-10 1.479209284295063e-09 -1.667685109932312e-07 0.0 0.0
0.0 1.8030073045943297e-06 -4.1771911826671024e-09 1.0378638770354691e-08 -6.201447587687759e-09 -3.8291760613307903e-07 0.0 0.0
0.0 0.0001411515112165812 6.669848384990555e-05 -9.348070671512546e-05 2.6782222865219842e-05 0.00010839698608008824 0.0 0.0
0.0 2.11384914677557e-05 6.866038148332121e-06 -9.955475670559296e-06 3.0894375222271797e-06 -1.210207797876707e-05 0.0 0.0
0.0 2.3409661729961703e-06 6.496376963596438e-10 1.3091562580591183e-08 -1.3741200276949575e-08 4.872012716183131e-07 0.0 0.0
0.0 8.28283976103979e-07 8.757322001854407e-09 -7.994197467743662e-09 -7.631245341108108e-10 1.6872916499049268e-07 0.0 0.0
0.0 1.0341171999299922e-06 3.4830124123105497e-09 -4.631541757330647e-09 1.1485293450206947e-09 2.129476539670559e-07 0.0 0.0
0.0 5.455561020512527e-06 -1.877319191668789e-08 9.400339741409076e-09 9.372852175272426e-09 1.2338249442580408e-06 0.0 0.0
0.0 3.20105173613341e-05 1.5264186873778498e-06 -1.18380181917403e-06 -3.426168682038095e-07 -3.023838921650004e-05 0.0 0.0
0.0 0.00011151126042728714 1.1060764426749276e-05 -8.761551605440459e-06 -2.2992128213088203e-06 -0.00016353080339898813 0.0 0.0
0.0 0.000267486947219864 3.14441939056979e-05 -2.4985895817017187e-05 -6.458298088680679e-06 -0.0003678790692813889 0.0 0.0
0.0 0.0004457427280210129 7.422718810826451e-05 -5.920190448365017e-05 -1.5025283624614367e-05 -0.0006941084880362687 0.0 0.0
0.0 0.000767722235515053 0.00014753341745705036 -0.00011844374303167954 -2.9089674425370845e-05 -0.0011398739658571334 0.0 0.0
0.0 0.0011037039711963043 0.00028276272717468856 -0.0002273304230838166 -5.543230409087204e-05 -0.0018067367691978287 0.0 0.0
0.0 0.0016665253049921076 0.0005057560867085337 -0.00040604146910412794 -9.971461760440567e-05 -0.0026183850534515396 0.0 0.0
0.0 0.0023769544463372637 0.0008140238428656649 -0.000656366773597344 -0.00015765706926832088 -0.0035829505350394664 0.0 0.0
0.0 0.00326861166701752 0.0012043988556757305 -0.0009818239824023348 -0.00022257487327339567 -0.004713265749493512 0.0 0.0
0.0 0.004386629993338491 0.0017676088719123277 -0.0014813961326320228 -0.0002862127392803053 -0.006031767697931472 0.0 0.0
0.0 0.005827406841488824 0.0025927138986161324 -0.0022480552219067847 -0.00034465867670934613 -0.0074365690665248495 0.0 0.0
0.0 0.007622245653675566 0.0038579281611267166 -0.003461459261827417 -0.000396468899299298 -0.008678644299313991 0.0 0.0
0.0 0.009865726039101672 0.005784613175162095 -0.005330945340818027 -0.0004536678343440674 -0.009275993387504573 0.0 0.0
0.0 0.012723584956329297 0.008514934972287332 -0.008009128651922779 -0.0005058063203645516 -0.008855843430225281 0.0 0.0
0.0 0.016781021001354736 0.012542081042671512 -0.012053735208778307 -0.0004883458338932018 -0.007540024344487515 0.0 0.0
0.0 0.016781021001355416 0.01254208104267093 -0.012053735208777715 -0.000488345833893213 0.007540024344499836 0.0 0.0
0.0 0.012723584956331297 0.008514934972286283 -0.008009128651921868 -0.0005058063203644102 0.00885584343024316 0.0 0.0
0.0 0.009865726039099399 0.005784613175158107 -0.0053309453408141114 -0.000453667834343992 0.009275993387515235 0.0 0.0
0.0 0.007622245653672022 0.0038579281611244415 -0.0034614592618251823 -0.0003964688992992571 0.00867864429931248 0.0 0.0
0.0 0.005827406841483813 0.002592713898613698 -0.0022480552219044997 -0.0003446586767091974 0.007436569066519181 0.0 0.0
0.0 0.004386629993333574 0.0017676088719099357 -0.001481396132629825 -0.0002862127392801099 0.006031767697925919 0.0 0.0
0.0 0.0032686116670144396 0.0012043988556745154 -0.0009818239824012534 -0.00022257487327326188 0.0047132657494896885 0.0 0.0
0.0 0.0023769544463349964 0.000814023842865251 -0.0006563667735970202 -0.0001576570692682302 0.003582950535035816 0.0 0.0
0.0 0.0016665253049885918 0.0005057560867077705 -0.00040604146910346657 -9.971461760430384e-05 0.002618385053445778 0.0 0.0
0.0 0.001103703971192525 0.00028276272717349475 -0.00022733042308287324 -5.543230409062162e-05 0.0018067367691917255 0.0 0.0
0.0 0.0007677222355116984 0.00014753341745655905 -0.00011844374303122864 -2.9089674425330394e-05 0.0011398739658524206 0.0 0.0
0.0 0.00044574272801983826 7.422718810810355e-05 -5.9201904483543446e-05 -1.5025283624560037e-05 0.000694108488034406 0.0 0.0
0.0 0.0002674869472189356 3.144419390556213e-05 -2.498589581690356e-05 -6.458298088658558e-06 0.0003678790692799702 0.0 0.0
0.0 0.00011151126042622427 1.1060764426669189e-05 -8.761551605374316e-06 -2.299212821294864e-06 0.0001635308033977569 0.0 0.0
0.0 3.2010517360704747e-05 1.526418687369317e-06 -1.1838018191672402e-06 -3.4261686820208126e-07 3.023838921631991e-05 0.0 0.0
0.0 5.4555610200182124e-06 -1.87731919147807e-08 9.400339740515117e-09 9.372852174262189e-09 -1.2338249441362645e-06 0.0 0.0
0.0 1.0341171994111593e-06 3.4830124097744975e-09 -4.63154175459075e-09 1.1485293448161685e-09 -2.1294765385734702e-07 0.0 0.0
0.0 8.282839756553083e-07 8.757321996808003e-09 -7.99419746324245e-09 -7.631245335657651e-10 -1.687291648967851e-07 0.0 0.0
0.0 2.340966172321822e-06 6.496376968874008e-10 1.3091562575233056e-08 -1.3741200272117913e-08 -4.87201271473837e-07 0.0 0.0
0.0 2.1138491467133164e-05 6.866038148361147e-06 -9.955475670602806e-06 3.0894375222416076e-06 1.2102077978851156e-05 0.0 0.0
0.0 1.746363269014452e-06 -1.080716133846742e-07 1.601080298073669e-07 -5.203641642269867e-08 2.3480853834527648e-07 0.0 0.0
0.0 1.9028631458580495e-06 6.795419448546787e-09 4.3792250009357676e-09 -1.1174644449477697e-08 4.0529838982822875e-07 0.0 0.0
0.0 1.006612653282911e-06 1.8800037151531995e-08 -1.6160969127413305e-08 -2.6390680241173787e-09 2.0557945423080885e-07 0.0 0.0
0.0 1.3830639415008088e-06 2.5459537940910303e-08 -2.257136934973081e-08 -2.8881685911793595e-09 2.8364822182210734e-07 0.0 0.0
0.0 6.5924415677252435e-06 9.858742861409863e-08 -7.666097915066837e-08 -2.192644946342085e-08 9.977606757205976e-07 0.0 0.0
0.0 3.599711022512548e-05 -1.904130087664304e-06 1.5661118694521541e-06 3.380182182121444e-07 -2.9080719899059628e-05 0.0 0.0
0.0 0.00011355800623569055 -1.1684865820640253e-05 9.36047834901737e-06 2.324387471622865e-06 -0.00016454603241175552 0.0 0.0
0.0 0.0002682369787493012 -3.14281694220351e-05 2.4971295511270377e-05 6.45687391076466e-06 -0.0003683043054957368 0.0 0.0
0.0 0.0004453785132723671 -7.391913036539099e-05 5.893500077004166e-05 1.4984129595349317e-05 -0.0006941291824373574 0.0 0.0
0.0 0.0007659321068966646 -0.00014690738704992824 0.00011784938942034774 2.905799762958058e-05 -0.0011377010744833805 0.0 0.0
0.0 0.0011070362903108243 -0.00027785797499253366 0.00022408401443093536 5.3773960561598254e-05 -0.0018015804705491304 0.0 0.0
0.0 0.001669344601647234 -0.0005093743938789232 0.00040958212334415485 9.979227053476833e-05 -0.00261938835851971 0.0 0.0
0.0 0.0023879514487187567 -0.0008274740695658376 0.0006684576236105499 0.0001590164459552874 -0.0035857389489665514 0.0 0.0
0.0 0.00328903025224054 -0.0012310403077302162 0.001004698910487669 0.00022634139724254693 -0.004719847350115212 0.0 0.0
0.0 0.0043675830956033815 -0.0017411013931344023 0.0014461613996849007 0.0002949399934495001 -0.006037764654890118 0.0 0.0
0.0 0.005566811564126889 -0.002216176583467052 0.0018570461716833112 0.00035913041178373866 -0.007489649597429204 0.0 0.0
0.0 0.006637952867280984 -0.0024054933319016822 0.0019968750062442234 0.0004086183256574576 -0.00906808526754388 0.0 0.0
0.0 0.007414104632312507 -0.002026752893035867 0.0015822261108724186 0.0004445267821634473 -0.010764813332111564 0.0 0.0
0.0 0.007748417641901326 -0.0010472699375119433 0.0007025895729459199 0.0003446803645660225 -0.012138748397047113 0.0 0.0
0.0 0.007287321718750894 0.0016935854612991476 -0.0017842939166291007 9.070845532995289e-05 -0.010672943929566971 0.0 0.0
0.0 0.007287321718755146 0.001693585461299478 -0.001784293916629446 9.070845532996774e-05 0.01067294392957618 0.0 0.0
0.0 0.00774841764190526 -0.0010472699375125277 0.0007025895729463501 0.0003446803645661765 0.012138748397055574 0.0 0.0
0.0 0.00741410463231054 -0.0020267528930345688 0.001582226110871414 0.00044452678216315433 0.010764813332113423 0.0 0.0
0.0 0.006637952867274837 -0.002405493331898645 0.001996875006241606 0.00040861832565703907 0.009068085267538346 0.0 0.0
0.0 0.005566811564120441 -0.0022161765834633226 0.001857046171679825 0.0003591304117834974 0.007489649597422376 0.0 0.0
0.0 0.004367583095597668 -0.0017411013931315556 0.0014461613996823973 0.00029493999344915744 0.006037764654883943 0.0 0.0
0.0 0.00328903025223534 -0.0012310403077274734 0.0010046989104854403 0.00022634139724203307 0.004719847350110381 0.0 0.0
0.0 0.0023879514487133123 -0.0008274740695628503 0.0006684576236081769 0.0001590164459546733 0.003585738948961901 0.0 0.0
0.0 0.0016693446016415201 -0.0005093743938760516 0.00040958212334183124 9.979227053422023e-05 0.0026193883585127154 0.0 0.0
0.0 0.0011070362903065696 -0.0002778579749908303 0.00022408401442958894 5.377396056124129e-05 0.0018015804705431755 0.0 0.0
0.0 0.0007659321068926708 -0.00014690738704907621 0.00011784938941961132 2.9057997629464834e-05 0.0011377010744785146 0.0 0.0
0.0 0.0004453785132710085 -7.391913036503366e-05 5.8935000769742055e-05 1.49841295952916e-05 0.0006941291824356201 0.0 0.0
0.0 0.00026823697874839373 -3.142816942189852e-05 2.497129551116021e-05 6.456873910738289e-06 0.00036830430549495243 0.0 0.0
0.0 0.000113558006234633 -1.1684865820551397e-05 9.360478348962029e-06 2.3243874715893597e-06 0.00016454603241053927 0.0 0.0
0.0 3.5997110224418664e-05 -1.9041300876556908e-06 1.5661118694478931e-06 3.38018218207809e-07 2.908071989895112e-05 0.0 0.0
0.0 6.592441567306519e-06 9.858742858552215e-08 -7.666097912353544e-08 -2.192644946199057e-08 -9.977606752266317e-07 0.0 0.0
0.0 1.38306394101384e-06 2.5459537931086613e-08 -2.257136934122153e-08 -2.8881685898646692e-09 -2.8364822171881803e-07 0.0 0.0
0.0 1.0066126526757192e-06 1.8800037139368483e-08 -1.616096911716342e-08 -2.639068022204588e-09 -2.0557945410441137e-07 0.0 0.0
0.0 1.9028631450714174e-06 6.795419446720134e-09 4.37922499599115e-09 -1.1174644442706392e-08 -4.052983896639658e-07 0.0 0.0
0.0 1.7463632684856744e-06 -1.0807161335057875e-07 1.601080297566021e-07 -5.2036416406020456e-08 -2.3480853827189452e-07 0.0 0.0
0.0 0.0 0.0 0.0 0.0 0.0 0.0 0.0
0.0 3.3206270015814023e-07 3.228124362425176e-09 -1.4545472289870203e-09 -1.773577133437446e-09 6.641880132428198e-08 0.0 0.0
0.0 1.1817738999744398e-06 1.8402755735970203e-08 -1.572228881391855e-08 -2.680466922052665e-09 1.5408000540292246e-07 0.0 0.0
0.0 4.433390297608247e-06 1.6015753021184142e-07 -1.3149237797340506e-07 -2.8665152238422848e-08 9.6169292488308e-07 0.0 0.0
0.0 8.022897360205339e-06 -3.817880545667035e-07 3.464939460146553e-07 3.5294108552055927e-08 -2.7988438443736377e-06 0.0 0.0
0.0 4.319332291298078e-05 -8.075530131621274e-06 6.419993721292183e-06 1.6555364103290537e-06 -4.202397920806882e-05 0.0 0.0
0.0 0.00014364586957725585 -3.7089961400988025e-05 2.9597560045673558e-05 7.492401355314469e-06 -0.00017188105241031993 0.0 0.0
0.0 0.00032756244674114553 -0.00012932972872077084 0.00010276966463738314 2.6560064083387668e-05 -0.00047950865421857115 0.0 0.0
0.0 0.0008215633995046469 -0.00039922639891788676 0.00031938464644505865 7.984175247282801e-05 -0.0010579538619782812 0.0 0.0
0.0 0.001695591867441242 -0.0010076988353228413 0.0008244070535323029 0.000183291781790538 -0.0019896911170143618 0.0 0.0
0.0 0.002884005189967678 -0.0019230365555836003 0.001619458548909465 0.0003035780066741352 -0.0031147320134414904 0.0 0.0
0.0 0.004381704198379427 -0.003035802136029474 0.0026282693649340846 0.0004075327710953896 -0.004305275915615907 0.0 0.0
0.0 0.006088119243444113 -0.004354948924131692 0.0038582495513033287 0.0004966993728283621 -0.005561788509288584 0.0 0.0
0.0 0.00810717890313904 -0.005923000630066151 0.005350145857533462 0.0005728547725326898 -0.006859720321301942 0.0 0.0
0.0 0.010453594742367777 -0.007738627238772536 0.007098562445316263 0.0006400647934562711 -0.008269429436022192 0.0 0.0
0.0 0.012996638867074783 -0.00966279411367666 0.00896281885121828 0.0006999752624583775 -0.009884546956856689 0.0 0.0
0.0 0.015430365253105769 -0.011360154580200617 0.010606086935603812 0.0007540676445968072 -0.011749188266417607 0.0 0.0
0.0 0.017161383182633806 -0.012315242733142853 0.01151710647440754 0.0007981362587353158 -0.013756782007233886 0.0 0.0
0.0 0.016809217080531652 -0.011583522370591848 0.010696628042127397 0.0008868943284644464 -0.014547003662939068 0.0 0.0
0.0 0.012571765837264548 -0.007509412812441763 0.006593836656958342 0.000915576155483419 -0.012028097108576477 0.0 0.0
0.0 0.012571765837268958 -0.007509412812442013 0.006593836656958438 0.0009155761554835758 0.012028097108591153 0.0 0.0
0.0 0.016809217080537092 -0.011583522370592103 0.010696628042127735 0.0008868943284643631 0.01454700366296005 0.0 0.0
0.0 0.017161383182630302 -0.012315242733137262 0.011517106474402086 0.0007981362587351733 0.013756782007246154 0.0 0.0
0.0 0.015430365253094349 -0.011360154580190603 0.010606086935594037 0.0007540676445965672 0.011749188266416095 0.0 0.0
0.0 0.012996638867061485 -0.009662794113665978 0.008962818851207942 0.0006999752624580342 0.009884546956848688 0.0 0.0
0.0 0.010453594742356204 -0.007738627238763302 0.007098562445307353 0.000640064793455949 0.008269429436015283 0.0 0.0
0.0 0.008107178903128263 -0.0059230006300578135 0.005350145857525515 0.0005728547725322985 0.006859720321294725 0.0 0.0
0.0 0.006088119243433589 -0.004354948924122825 0.003858249551294869 0.0004966993728279527 0.005561788509283169 0.0 0.0
0.0 0.004381704198366343 -0.0030358021360197976 0.0026282693649250857 0.00040753277109471147 0.004305275915606174 0.0 0.0
0.0 0.0028840051899549054 -0.0019230365555745494 0.001619458548901406 0.0003035780066731433 0.003114732013430867 0.0 0.0
0.0 0.001695591867431622 -0.0010076988353167247 0.0008244070535270868 0.00018329178178963734 0.001989691117004702 0.0 0.0
0.0 0.00082156339949986 -0.00039922639891491795 0.0003193846464426091 7.984175247230872e-05 0.0010579538619730792 0.0 0.0
0.0 0.00032756244673941563 -0.0001293297287200405 0.00010276966463679659 2.656006408324393e-05 0.000479508654216686 0.0 0.0
0.0 0.0001436458695755907 -3.708996140072862e-05 2.9597560045472083e-05 7.492401355256482e-06 0.0001718810524091922 0.0 0.0
0.0 4.3193322912239135e-05 -8.075530131576544e-06 6.419993721256724e-06 1.6555364103198212e-06 4.202397920785903e-05 0.0 0.0
0.0 8.022897359961568e-06 -3.8178805466523846e-07 3.464939460965871e-07 3.529410856863471e-08 2.7988438449797706e-06 0.0 0.0
0.0 4.433390297146278e-06 1.6015753019507324e-07 -1.3149237795953612e-07 -2.8665152235533242e-08 -9.61692924777465e-07 0.0 0.0
0.0 1.1817738997094739e-06 1.840275566915139e-08 -1.5722288759892185e-08 -2.6804669092593065e-09 -1.5408000492025013e-07 0.0 0.0
0.0 3.3206269971330245e-07 3.2281243589135146e-09 -1.4545472286881782e-09 -1.7735771302251563e-09 -6.64188012348373e-08 0.0 0.0
0.0 0.0 0.0 0.0 0.0 0.0 0.0 0.0
0.0 0.0 0.0 0.0 0.0 0.0 0.0 0.0
0.0 3.514827227909665e-07 4.949457227588909e-09 -3.035179226646225e-09 -1.914278000941817e-09 7.106311338534543e-08 0.0 0.0
0.0 2.3595770756542535e-06 8.103527067074457e-08 -6.628456757845172e-08 -1.4750703092293867e-08 4.821090557083344e-07 0.0 0.0
0.0 6.5906872819304125e-06 3.108815427979235e-07 -2.5702362177301864e-07 -5.385792102489637e-08 1.4093816020137892e-06 0.0 0.0
0.0 1.2516834711958468e-05 -1.7497107460690338e-06 1.3785976909361795e-06 3.7111305513286306e-07 -5.82419672666127e-06 0.0 0.0
0.0 5.874484235437445e-05 -1.6418387632367442e-05 1.317968178828151e-05 3.2387058440859167e-06 -5.1833701297798645e-05 0.0 0.0
0.0 0.00021618595023672893 -9.740474010864309e-05 7.75162550760321e-05 1.9888485032610985e-05 -0.0002492616476564007 0.0 0.0
0.0 0.0007493985859386614 -0.00045542520897459416 0.0003654092574695627 9.001595150503157e-05 -0.0008395809159880665 0.0 0.0
0.0 0.0019357973085752725 -0.0013210884528389998 0.0010923041549124415 0.000228784297926558 -0.0018509113411440715 0.0 0.0
0.0 0.0035404836494820043 -0.002682694522053797 0.002296152438687319 0.0003865420833664766 -0.0031573757261946995 0.0 0.0
0.0 0.0056668498497473435 -0.0043660975774061795 0.003853340060017312 0.0005127575173888693 -0.0045675715952918985 0.0 0.0
0.0 0.007986793972001634 -0.006314855880840853 0.005706031336710068 0.0006088245441307825 -0.005966952983852405 0.0 0.0
0.0 0.010702877776333258 -0.008573116335631483 0.00788851418064031 0.0006846021549911728 -0.007364901389208652 0.0 0.0
0.0 0.013930954064535194 -0.011239662687127228 0.010491065788804174 0.0007485968983230531 -0.008833615179589138 0.0 0.0
0.0 0.01777244500645525 -0.01435639009797309 0.013547528697313356 0.0008088614006597316 -0.01052199170030091 0.0 0.0
0.0 0.02200660519218099 -0.01778628975183575 0.01691698006569945 0.0008693096861362966 -0.012639500887808734 0.0 0.0
0.0 0.026307664768702454 -0.02111108600799378 0.020180520988391324 0.0009305650196024468 -0.015357128308397654 0.0 0.0
0.0 0.029438379189076776 -0.023499184077235804 0.022489334373735168 0.001009849703500642 -0.01823818832111487 0.0 0.0
0.0 0.029795865805168128 -0.023417718488141323 0.022308516093954598 0.0011092023941867307 -0.019686119878095938 0.0 0.0
0.0 0.023633393945351865 -0.018313290535532094 0.017041719211142215 0.0012715713243898739 -0.016301538320799135 0.0 0.0
0.0 0.02363339394535597 -0.018313290535531993 0.017041719211141657 0.001271571324390338 0.01630153832081922 0.0 0.0
0.0 0.029795865805171504 -0.023417718488139262 0.022308516093952617 0.001109202394186636 0.01968611987812261 0.0 0.0
0.0 0.02943837918907269 -0.02349918407722883 0.02248933437372872 0.0010098497035001066 0.01823818832113238 0.0 0.0
0.0 0.02630766476868882 -0.02111108600798107 0.02018052098837898 0.0009305650196020851 0.015357128308399685 0.0 0.0
0.0 0.022006605192163513 -0.017786289751820988 0.01691698006568497 0.0008693096861360152 0.01263950088780198 0.0 0.0
0.0 0.01777244500643905 -0.014356390097959484 0.01354752869730006 0.0008088614006594203 0.010521991700294112 0.0 0.0
0.0 0.013930954064519382 -0.011239662687114137 0.010491065788791547 0.0007485968983225891 0.008833615179580704 0.0 0.0
0.0 0.010702877776316013 -0.008573116335616613 0.007888514180625996 0.0006846021549906134 0.007364901389201895 0.0 0.0
0.0 0.00798679397198434 -0.006314855880826669 0.005706031336696613 0.0006088245441300536 0.005966952983842198 0.0 0.0
0.0 0.00566684984973219 -0.004366097577394188 0.003853340060006137 0.0005127575173880516 0.004567571595280621 0.0 0.0
0.0 0.003540483649466608 -0.0026826945220421116 0.002296152438676617 0.0003865420833654954 0.0031573757261826743 0.0 0.0
0.0 0.0019357973085655181 -0.001321088452831517 0.0010923041549059165 0.00022878429792560074 0.0018509113411364771 0.0 0.0
0.0 0.0007493985859339482 -0.0004554252089715279 0.00036540925746708847 9.001595150443943e-05 0.0008395809159838874 0.0 0.0
0.0 0.00021618595023453996 -9.740474010803549e-05 7.751625507554464e-05 1.9888485032490815e-05 0.0002492616476549432 0.0 0.0
0.0 5.8744842353268964e-05 -1.6418387632476252e-05 1.3179681788361453e-05 3.238705844114759e-06 5.183370129791804e-05 0.0 0.0
0.0 1.2516834711559875e-05 -1.7497107461282355e-06 1.3785976909832953e-06 3.711130551448976e-07 5.824196726882107e-06 0.0 0.0
0.0 6.590687281374371e-06 3.1088154276881837e-07 -2.570236217490074e-07 -5.385792101982278e-08 -1.4093816018841068e-06 0.0 0.0
0.0 2.3595770750547986e-06 8.103527064889636e-08 -6.628456756069521e-08 -1.4750703088195763e-08 -4.821090555798598e-07 0.0 0.0
0.0 3.5148272258278746e-07 4.949457224581214e-09 -3.0351792247973143e-09 -1.914277999783761e-09 -7.106311334223886e-08 0.0 0.0
0.0 0.0 0.0 0.0 0.0 0.0 0.0 0.0
0.0 0.0 0.0 0.0 0.0 0.0 0.0 0.0
0.0 0.0 0.0 0.0 0.0 0.0 0.0 0.0
0.0 1.762862297087584e-06 7.425115861487428e-08 -6.029149643128876e-08 -1.3959662183589334e-08 3.448992119798501e-07 0.0 0.0
0.0 4.766958193411029e-06 1.9407946748679325e-07 -1.5247223504804495e-07 -4.160723243875238e-08 6.120824561684692e-07 0.0 0.0
0.0 1.8680082082438717e-05 -2.42748634256487e-06 2.0021919509221337e-06 4.252943916427678e-07 -6.4357936735454304e-06 0.0 0.0
0.0 9.067485261123051e-05 -3.897504043624895e-05 3.1044868006451746e-05 7.930172429797209e-06 -8.205806435444883e-05 0.0 0.0
0.0 0.0004629808673171102 -0.00028755629430434035 0.00023030406191759683 5.7252232386743685e-05 -0.0004478297969161503 0.0 0.0
0.0 0.001526368566683844 -0.001112489342539023 0.0009134202011620512 0.00019906914137697153 -0.0012995935366932236 0.0 0.0
0.0 0.003337599243773703 -0.0026046570718108323 0.0022234660724710573 0.00038119099933977586 -0.002533921631266359 0.0 0.0
0.0 0.005702355498047344 -0.004629430233342842 0.004092930409511631 0.0005364998238312084 -0.0040127351530154665 0.0 0.0
0.0 0.008530313534973383 -0.0070237450136242194 0.006376146295443895 0.0006475987181803231 -0.005532061894590726 0.0 0.0
0.0 0.01180116330464722 -0.009773966221361865 0.009041235976036004 0.0007327302453258592 -0.007000587300386376 0.0 0.0
0.0 0.015623340720365222 -0.012971423435984132 0.012169644653312392 0.000801778782671737 -0.008481049237512708 0.0 0.0
0.0 0.02008699726651502 -0.01675490207167666 0.015890831038519456 0.0008640710331572052 -0.01006993285232067 0.0 0.0
0.0 0.025387002529530408 -0.021201700484151674 0.02027639721836093 0.0009253032657907281 -0.011939083819814105 0.0 0.0
0.0 0.03139371186175745 -0.026189321957753215 0.025196549290792063 0.000992772666961151 -0.014406563362781658 0.0 0.0
0.0 0.03744543826325151 -0.031167327333501554 0.030094273101329436 0.001073054232172111 -0.01770092487744626 0.0 0.0
0.0 0.04218296755593853 -0.03490187955651982 0.03372744006734291 0.0011744394891768897 -0.021330777043380197 0.0 0.0
0.0 0.04290848570181946 -0.03524148110493454 0.03393308866212533 0.0013083924428091878 -0.02340552711974765 0.0 0.0
0.0 0.03517935894505873 -0.028711842295880172 0.027213509764665106 0.0014983325312150665 -0.020386791192479888 0.0 0.0
0.0 0.035179358945061065 -0.028711842295878344 0.02721350976466319 0.0014983325312151472 0.020386791192503258 0.0 0.0
0.0 0.042908485701817406 -0.03524148110492801 0.033933088662118666 0.0013083924428093493 0.02340552711977867 0.0 0.0
0.0 0.042182967555928534 -0.03490187955650777 0.033727440067330784 0.0011744394891769648 0.021330777043401992 0.0 0.0
0.0 0.03744543826323366 -0.031167327333484797 0.030094273101313143 0.001073054232171648 0.017700924877451236 0.0 0.0
0.0 0.031393711861733495 -0.026189321957732454 0.0251965492907718 0.0009927726669606515 0.014406563362775524 0.0 0.0
0.0 0.02538700252950796 -0.021201700484132426 0.02027639721834213 0.0009253032657902871 0.01193908381980663 0.0 0.0
0.0 0.02008699726649426 -0.016754902071659045 0.01589083103850234 0.0008640710331567015 0.01006993285231208 0.0 0.0
0.0 0.015623340720341886 -0.012971423435964156 0.012169644653292708 0.000801778782671448 0.008481049237505115 0.0 0.0
0.0 0.011801163304622993 -0.009773966221341374 0.009041235976015971 0.0007327302453253989 0.007000587300374662 0.0 0.0
0.0 0.008530313534950505 -0.007023745013605388 0.006376146295425714 0.0006475987181796742 0.005532061894576819 0.0 0.0
0.0 0.005702355498026345 -0.004629430233325954 0.004092930409495661 0.0005364998238302913 0.004012735153000484 0.0 0.0
0.0 0.0033375992437594893 -0.002604657071799619 0.0022234660724609087 0.00038119099933870977 0.002533921631257162 0.0 0.0
0.0 0.0015263685666753895 -0.0011124893425325532 0.0009134202011566 0.0001990691413759529 0.001299593536687126 0.0 0.0
0.0 0.0004629808673134042 -0.00028755629430225684 0.00023030406191592066 5.725223238633625e-05 0.00044782979691327193 0.0 0.0
0.0 9.067485260984725e-05 -3.8975040436176175e-05 3.10448680063905e-05 7.930172429785718e-06 8.205806435424004e-05 0.0 0.0
0.0 1.8680082081680507e-05 -2.4274863427168955e-06 2.0021919510440662e-06 4.252943916727842e-07 6.435793673929174e-06 0.0 0.0
0.0 4.766958193134479e-06 1.9407946737157636e-07 -1.5247223495278262e-07 -4.1607232418803607e-08 -6.120824557710719e-07 0.0 0.0
0.0 1.7628622966370727e-06 7.425115859493936e-08 -6.029149641515662e-08 -1.3959662179784548e-08 -3.4489921188806817e-07 0.0 0.0
0.0 0.0 0.0 0.0 0.0 0.0 0.0 0.0
0.0 0.0 0.0 0.0 0.0 0.0 0.0 0.0
0.0 0.0 0.0 0.0 0.0 0.0 0.0 0.0
0.0 0.0 0.0 0.0 0.0 0.0 0.0 0.0
0.0 6.301117771691601e-07 3.177133557320747e-08 -2.5610055499987776e-08 -6.161280073216576e-09 1.139376708674144e-07 0.0 0.0
0.0 7.479034888138472e-06 5.4592668232219e-07 -4.381286801518101e-07 -1.0779800217037303e-07 1.3945185929680183e-06 0.0 0.0
0.0 2.8399525288135313e-05 3.6489553737407993e-07 -2.591908046567003e-07 -1.057047327173765e-07 1.0194614750163268e-06 0.0 0.0
0.0 0.00018365807563956455 -0.00010852196071742311 8.664691207002577e-05 2.187504864739738e-05 -0.0001536720219617289 0.0 0.0
0.0 0.0009230158857683746 -0.0006639072388004062 0.0005378372994493439 0.00012606993935106235 -0.0006798295985420642 0.0 0.0
0.0 0.002511527632124382 -0.0019984671956485064 0.001681140103114696 0.0003173270925338098 -0.0016563324080365936 0.0 0.0
0.0 0.00488465642056846 -0.004070904750693535 0.0035674512904688657 0.0005034534602246703 -0.002985156616982966 0.0 0.0
0.0 0.007923219076075275 -0.006692241561295254 0.00605137491406306 0.0006408666472321927 -0.004471212414721947 0.0 0.0
0.0 0.011533863097942663 -0.009769476804894536 0.009028158279247136 0.000741318525647402 -0.005961235166626056 0.0 0.0
0.0 0.015732290674445752 -0.013328297681435595 0.012506494733170477 0.0008218029482651189 -0.007434480623550661 0.0 0.0
0.0 0.02062341057806799 -0.017482093524755354 0.01659018736616589 0.0008919061585894577 -0.008944100436838626 0.0 0.0
0.0 0.026398201643289095 -0.022391810860369878 0.02143453033810966 0.000957280522260217 -0.010565917692492231 0.0 0.0
0.0 0.03324789120181035 -0.02817772439564962 0.02715433059748845 0.001023393798161173 -0.012474988780548878 0.0 0.0
0.0 0.040830222943643926 -0.03472493648233078 0.03362498659769798 0.0010999498846327954 -0.01499712140536841 0.0 0.0
0.0 0.048822942019695434 -0.041330314590902674 0.04013148527250972 0.0011988293183929606 -0.018421659412629895 0.0 0.0
0.0 0.05501526079751037 -0.04634706889857426 0.045020492667124955 0.0013265762314493084 -0.022469417820190393 0.0 0.0
0.0 0.055983145374922876 -0.046926445167187206 0.04543963630436009 0.0014868088628270937 -0.02537669720435766 0.0 0.0
0.0 0.046759543497336 -0.038875075248729817 0.03720090186992989 0.0016741733787999282 -0.024160773655144577 0.0 0.0
0.0 0.0467595434973407 -0.03887507524872975 0.03720090186993025 0.0016741733787994967 0.02416077365517104 0.0 0.0
0.0 0.05598314537492031 -0.04692644516718029 0.04543963630435392 0.001486808862826357 0.02537669720439075 0.0 0.0
0.0 0.05501526079749754 -0.04634706889855979 0.04502049266711132 0.0013265762314484714 0.022469417820214097 0.0 0.0
0.0 0.048822942019671633 -0.04133031459088069 0.040131485272488415 0.0011988293183922444 0.018421659412635773 0.0 0.0
0.0 0.04083022294361701 -0.03472493648230713 0.033624986597675065 0.0010999498846320593 0.014997121405363974 0.0 0.0
0.0 0.03324789120178293 -0.028177724395625638 0.02715433059746513 0.0010233937981605139 0.01247498878054296 0.0 0.0
0.0 0.026398201643260878 -0.02239181086034561 0.021434530338085747 0.0009572805222598611 0.010565917692482909 0.0 0.0
0.0 0.02062341057803947 -0.017482093524730423 0.016590187366141654 0.0008919061585887703 0.00894410043683094 0.0 0.0
0.0 0.015732290674418482 -0.013328297681411923 0.012506494733147595 0.0008218029482643249 0.007434480623540372 0.0 0.0
0.0 0.011533863097915634 -0.00976947680487172 0.009028158279224869 0.000741318525646848 0.0059612351666122245 0.0 0.0
0.0 0.00792321907605079 -0.006692241561274567 0.0060513749140430105 0.0006408666472315552 0.004471212414707031 0.0 0.0
0.0 0.004884656420551027 -0.004070904750678765 0.0035674512904550052 0.0005034534602237586 0.0029851566169737742 0.0 0.0
0.0 0.0025115276321124496 -0.0019984671956386566 0.0016811401031059819 0.00031732709253267467 0.0016563324080298867 0.0 0.0
0.0 0.0009230158857613692 -0.0006639072387953081 0.000537837299445184 0.00012606993935012397 0.0006798295985376401 0.0 0.0
0.0 0.0001836580756367825 -0.00010852196071620825 8.664691206904084e-05 2.187504864716745e-05 0.0001536720219600869 0.0 0.0
0.0 2.839952528721925e-05 3.6489553722928843e-07 -2.591908045415392e-07 -1.0570473268785044e-07 -1.0194614747428538e-06 0.0 0.0
0.0 7.479034887487536e-06 5.459266822702636e-07 -4.3812868011058e-07 -1.0779800215968128e-07 -1.3945185928411796e-06 0.0 0.0
0.0 6.301117768796378e-07 3.177133555832444e-08 -2.5610055487985994e-08 -6.161280070339225e-09 -1.1393767081387647e-07 0.0 0.0
0.0 0.0 0.0 0.0 0.0 0.0 0.0 0.0
0.0 0.0 0.0 0.0 0.0 0.0 0.0 0.0
0.0 0.0 0.0 0.0 0.0 0.0 0.0 0.0
0.0 0.0 0.0 0.0 0.0 0.0 0.0 0.0
0.0 0.0 0.0 0.0 0.0 0.0 0.0 0.0
0.0 3.241628952765024e-06 2.6053331691204254e-07 -2.0807629639336721e-07 -5.2457020518637325e-08 5.164519678466237e-07 0.0 0.0
0.0 4.196760179835586e-05 -1.2224227388402763e-05 9.729922216679224e-06 2.4943051717235485e-06 -1.631920779854324e-05 0.0 0.0
0.0 0.0003954381438720838 -0.00026192685778547075 0.0002095680239911591 5.235883379431186e-05 -0.0002467793373969383 0.0 0.0
0.0 0.0015850967323318421 -0.0012041225238000153 0.0009917956451931749 0.0002123268786068397 -0.000854026676698714 0.0 0.0
0.0 0.003572729954122642 -0.003045757505524726 0.0026204350525731606 0.0004253224529515663 -0.0018628704821377169 0.0 0.0
0.0 0.006505640637293301 -0.005621833995729605 0.005027447681728391 0.0005943863140012123 -0.0031331378788713067 0.0 0.0
0.0 0.010213136522113834 -0.00880683139198355 0.00808911295769963 0.000717718434283925 -0.0045077252261462725 0.0 0.0
0.0 0.014615800460538274 -0.012568386310156068 0.011755365696097963 0.0008130206140581039 -0.005919511582643936 0.0 0.0
0.0 0.019729530870386255 -0.01694800152491404 0.016053849051555904 0.0008941524733581221 -0.007322012474526645 0.0 0.0
0.0 0.025770285682323812 -0.02207410988533201 0.021105104284787464 0.0009690056005445416 -0.008775095291618894 0.0 0.0
0.0 0.03274097102135325 -0.028122676547130222 0.02708242316409534 0.0010402533830348797 -0.010372676840959242 0.0 0.0
0.0 0.04102547443302236 -0.035222870376083536 0.03411082802008865 0.001112042355994899 -0.012172421895660694 0.0 0.0
0.0 0.050507325361901 -0.043266637106661815 0.04206892402436775 0.001197713082294071 -0.014397933412965337 0.0 0.0
0.0 0.059968531356508765 -0.05144875030148018 0.05013558103091721 0.001313169270562959 -0.0175278619397581 0.0 0.0
0.0 0.06740966754205477 -0.05771315159990628 0.056246861955407075 0.0014662896444992066 -0.021699160395420865 0.0 0.0
0.0 0.06878105636721199 -0.058540447519685984 0.05689548387835437 0.0016449636413316013 -0.025850455865037585 0.0 0.0
0.0 0.05859807788243032 -0.04909919049840845 0.047267701664926234 0.0018314888334821696 -0.027831189174741457 0.0 0.0
0.0 0.05859807788242874 -0.04909919049840379 0.04726770166492086 0.0018314888334829056 0.02783118917476797 0.0 0.0
0.0 0.06878105636720212 -0.05854044751967401 0.056895483878342035 0.0016449636413319708 0.025850455865069497 0.0 0.0
0.0 0.06740966754203731 -0.057713151599888504 0.05624686195538977 0.0014662896444987 0.021699160395445897 0.0 0.0
0.0 0.05996853135648317 -0.051448750301456694 0.0501355810308946 0.001313169270562107 0.017527861939766125 0.0 0.0
0.0 0.05050732536186708 -0.04326663710663221 0.04206892402433855 0.0011977130822936443 0.01439793341296249 0.0 0.0
0.0 0.04102547443298719 -0.03522287037605288 0.034110828020058256 0.0011120423559946111 0.012172421895656593 0.0 0.0
0.0 0.03274097102131861 -0.02812267654710003 0.027082423164065592 0.0010402533830344476 0.010372676840952295 0.0 0.0
0.0 0.025770285682288105 -0.022074109885300792 0.02110510428475653 0.000969005600544247 0.008775095291610795 0.0 0.0
0.0 0.019729530870351984 -0.01694800152488416 0.016053849051526462 0.0008941524733576932 0.0073220124745167325 0.0 0.0
0.0 0.014615800460505545 -0.012568386310127898 0.01175536569607049 0.000813020614057406 0.005919511582630177 0.0 0.0
0.0 0.010213136522086025 -0.00880683139195972 0.008089112957676576 0.0007177184342831405 0.004507725226132562 0.0 0.0
0.0 0.006505640637274157 -0.005621833995712706 0.005027447681712507 0.0005943863140001987 0.003133137878862935 0.0 0.0
0.0 0.003572729954107772 -0.003045757505511687 0.0026204350525613606 0.0004253224529503256 0.0018628704821308899 0.0 0.0
0.0 0.0015850967323219791 -0.0012041225237921316 0.0009917956451864708 0.00021232687860566052 0.0008540266766935104 0.0 0.0
0.0 0.0003954381438682912 -0.00026192685778321317 0.00020956802398933015 5.23588337938829e-05 0.00024677933739482896 0.0 0.0
0.0 4.1967601797671036e-05 -1.2224227388751825e-05 9.72992221695157e-06 2.4943051718002714e-06 1.6319207798963313e-05 0.0 0.0
0.0 3.2416289522024286e-06 2.6053331686397295e-07 -2.080762963552667e-07 -5.245702050872393e-08 -5.164519677547741e-07 0.0 0.0
0.0 0.0 0.0 0.0 0.0 0.0 0.0 0.0
0.0 0.0 0.0 0.0 0.0 0.0 0.0 0.0
0.0 0.0 0.0 0.0 0.0 0.0 0.0 0.0
0.0 0.0 0.0 0.0 0.0 0.0 0.0 0.0
0.0 0.0 0.0 0.0 0.0 0.0 0.0 0.0
0.0 0.0 0.0 0.0 0.0 0.0 0.0 0.0
0.0 2.8740049825360452e-06 9.78706399876855e-08 -8.020072767894025e-08 -1.7669912308727062e-08 1.685761798961769e-07 0.0 0.0
0.0 8.414025909837301e-05 -3.778229730779791e-05 3.0322300712723618e-05 7.459996595074435e-06 -3.728031554430675e-05 0.0 0.0
0.0 0.000744271021855116 -0.0005242218655250937 0.00042313154254245463 0.00010109032298263952 -0.00033206112191763574 0.0 0.0
0.0 0.002200419495750051 -0.0019073786776871863 0.0015999905166772953 0.0003073881610098909 -0.0009596315059571515 0.0 0.0
0.0 0.004720704804982014 -0.004170657027329432 0.003659376972615892 0.0005112800547135393 -0.0018632168059589706 0.0 0.0
0.0 0.008221392925156746 -0.007203711947995578 0.0065401791153705275 0.00066353283262505 -0.0029539229246514083 0.0 0.0
0.0 0.01255821842475916 -0.010953239201757912 0.010175577229432143 0.0007776619723257725 -0.004170725898548924 0.0 0.0
0.0 0.017735168894020714 -0.015401606695854563 0.014529958858456926 0.0008716478373976329 -0.0054248951481988255 0.0 0.0
0.0 0.02380573392223976 -0.020613256761595974 0.019656349675980365 0.0009569070856155952 -0.00667837227396049 0.0 0.0
0.0 0.030910437029536338 -0.026731404359470506 0.025693460978860095 0.0010379433806103964 -0.008005364268358638 0.0 0.0
0.0 0.039283382043363645 -0.033922658927778335 0.03280488412505252 0.0011177748027258174 -0.009466421678170715 0.0 0.0
0.0 0.04900464162400934 -0.042291808144705845 0.04109441478845721 0.001197393356248625 -0.011055684061414262 0.0 0.0
0.0 0.059722015689009283 -0.05171709223438101 0.0504292427699098 0.0012878494644711675 -0.012775933508273335 0.0 0.0
0.0 0.070897910218256 -0.061358291268094486 0.059942870068615 0.0014154211994794991 -0.015072004760548251 0.0 0.0
0.0 0.0797702846781362 -0.0688997672162679 0.06730941518786775 0.0015903520284001537 -0.018958507925008253 0.0 0.0
0.0 0.08174442117641403 -0.07021273714237244 0.06842208535935845 0.0017906517830139999 -0.02481857386325277 0.0 0.0
0.0 0.07072203617674486 -0.05966820341333472 0.057683491588308954 0.0019847118250257336 -0.031409049858483674 0.0 0.0
0.0 0.07072203617674348 -0.059668203413330054 0.05768349158830434 0.0019847118250257145 0.03140904985850948 0.0 0.0
0.0 0.0817444211764018 -0.070212737142359 0.06842208535934521 0.0017906517830137804 0.024818573863283164 0.0 0.0
0.0 0.07977028467811478 -0.06889976721624738 0.06730941518784793 0.0015903520283993863 0.01895850792503151 0.0 0.0
0.0 0.07089791021822456 -0.06135829126806635 0.059942870068587686 0.0014154211994786602 0.015072004760554949 0.0 0.0
0.0 0.059722015688973375 -0.05171709223434934 0.05042924276987909 0.0012878494644702149 0.012775933508272518 0.0 0.0
0.0 0.04900464162396983 -0.04229180814467136 0.04109441478842325 0.0011973933562480867 0.011055684061411357 0.0 0.0
0.0 0.03928338204332314 -0.033922658927743224 0.03280488412501792 0.001117774802725275 0.009466421678164149 0.0 0.0
0.0 0.030910437029495967 -0.026731404359435364 0.025693460978825543 0.001037943380609821 0.008005364268351144 0.0 0.0
0.0 0.023805733922198317 -0.020613256761559673 0.01965634967594456 0.000956907085615127 0.006678372273951902 0.0 0.0
0.0 0.0177351688939831 -0.015401606695821768 0.0145299588584246 0.000871647837397157 0.005424895148186249 0.0 0.0
0.0 0.012558218424727987 -0.01095323920173064 0.01017557722940546 0.0007776619723251761 0.0041707258985372525 0.0 0.0
0.0 0.008221392925133289 -0.007203711947974622 0.006540179115350421 0.0006635328326242008 0.0029539229246436363 0.0 0.0
0.0 0.004720704804964137 -0.0041706570273133065 0.0036593769726008425 0.0005112800547124636 0.0018632168059524667 0.0 0.0
0.0 0.002200419495738498 -0.001907378677677062 0.0015999905166683753 0.00030738816100868595 0.0009596315059524105 0.0 0.0
0.0 0.0007442710218494129 -0.0005242218655212111 0.0004231315425392612 0.00010109032298194995 0.0003320611219153009 0.0 0.0
0.0 8.414025909657235e-05 -3.778229730730539e-05 3.0322300712316307e-05 7.459996594988965e-06 3.728031554384257e-05 0.0 0.0
0.0 2.8740049821603683e-06 9.787063978567952e-08 -8.02007275201797e-08 -1.7669912265487225e-08 -1.685761796182635e-07 0.0 0.0
0.0 0.0 0.0 0.0 0.0 0.0 0.0 0.0
0.0 0.0 0.0 0.0 0.0 0.0 0.0 0.0
0.0 0.0 0.0 0.0 0.0 0.0 0.0 0.0
0.0 0.0 0.0 0.0 0.0 0.0 0.0 0.0
0.0 0.0 0.0 0.0 0.0 0.0 0.0 0.0
0.0 0.0 0.0 0.0 0.0 0.0 0.0 0.0
0.0 3.1544660817836454e-06 3.224665734412443e-07 -2.5193774942845495e-07 -7.052882401279964e-08 3.202068441379336e-07 0.0 0.0
0.0 0.00018740410379622797 -0.00010115892165241801 8.056454957117706e-05 2.059437208124084e-05 -6.142672656037337e-05 0.0 0.0
0.0 0.001174646301775686 -0.0009133087984259817 0.0007453051417617434 0.00016800365666423843 -0.000380499616478323 0.0 0.0
0.0 0.002978065571528055 -0.0026864255234561834 0.0022928834686346262 0.0003935420548215571 -0.0009020198035029981 0.0 0.0
0.0 0.005965245182308979 -0.005319845395672002 0.004741303508841226 0.0005785418868307745 -0.0016136763355998063 0.0 0.0
0.0 0.00997207523205253 -0.008804813429248657 0.008087425307120366 0.0007173881221282867 -0.0024899380271607248 0.0 0.0
0.0 0.01494619646449856 -0.013113993274358506 0.012287583577692811 0.0008264096966656915 -0.0034759558651847313 0.0 0.0
0.0 0.020917794251700962 -0.0182533744222552 0.017331269948720314 0.0009221044735348868 -0.004499432953897969 0.0 0.0
0.0 0.027894681690161953 -0.024309092265644937 0.023296458723872267 0.0010126335417726625 -0.005521211730802481 0.0 0.0
0.0 0.03622040426459994 -0.03143196878954555 0.03033047317871489 0.0011014956108306476 -0.006608734050157044 0.0 0.0
0.0 0.0457382526085867 -0.0397770072783083 0.03858647564143584 0.0011905316368724618 -0.007861786917668413 0.0 0.0
0.0 0.056753737529583306 -0.049371923054022146 0.04809106052214416 0.001280862531877999 -0.009185147106507386 0.0 0.0
0.0 0.06899780425970861 -0.059999487721729874 0.05862182021871466 0.0013776675030152184 -0.010276035445335011 0.0 0.0
0.0 0.08151033087668733 -0.07087571538914005 0.06937566027751188 0.0015000551116281615 -0.011292907875242085 0.0 0.0
0.0 0.09184080808655232 -0.07978584786345116 0.07809240796643495 0.0016934398970161956 -0.014258189166681581 0.0 0.0
0.0 0.09491454043933367 -0.08206232869179068 0.08013559537584315 0.0019267333159475749 -0.021934718237217377 0.0 0.0
0.0 0.08373003432504637 -0.07091306781711434 0.06876577273577403 0.002147295081340287 -0.03464736260319421 0.0 0.0
0.0 0.08373003432504514 -0.07091306781711035 0.06876577273577064 0.002147295081339746 0.034647362603215694 0.0 0.0
0.0 0.0949145404393193 -0.08206232869177597 0.08013559537582948 0.0019267333159464818 0.02193471823724373 0.0 0.0
0.0 0.0918408080865225 -0.07978584786342424 0.0780924079664083 0.0016934398970158884 0.014258189166702363 0.0 0.0
0.0 0.08151033087664752 -0.07087571538910524 0.06937566027747735 0.00150005511162789 0.011292907875247574 0.0 0.0
0.0 0.0689978042596662 -0.05999948772169285 0.05862182021867817 0.0013776675030146937 0.01027603544533505 0.0 0.0
0.0 0.05675373752954136 -0.049371923053985335 0.04809106052210833 0.0012808625318770194 0.009185147106506395 0.0 0.0
0.0 0.045738252608542286 -0.03977700727826959 0.03858647564139786 0.001190531636871721 0.007861786917663174 0.0 0.0
0.0 0.03622040426455425 -0.03143196878950566 0.030330473178675665 0.0011014956108299982 0.006608734050151053 0.0 0.0
0.0 0.027894681690117107 -0.024309092265605754 0.02329645872383388 0.001012633541771874 0.0055212117307973 0.0 0.0
0.0 0.02091779425166043 -0.018253374422219505 0.01733126994868516 0.0009221044735343392 0.00449943295388793 0.0 0.0
0.0 0.014946196464464365 -0.013113993274328346 0.012287583577663175 0.0008264096966651728 0.003475955865174958 0.0 0.0
0.0 0.00997207523202432 -0.00880481342922355 0.008087425307095844 0.0007173881221277044 0.0024899380271541103 0.0 0.0
0.0 0.005965245182288468 -0.005319845395653395 0.0047413035088234926 0.0005785418868299018 0.001613676335594401 0.0 0.0
0.0 0.002978065571515558 -0.0026864255234446428 0.0022928834686242014 0.0003935420548204418 0.0009020198034992055 0.0 0.0
0.0 0.0011746463017688472 -0.0009133087984204615 0.0007453051417571168 0.00016800365666334386 0.0003804996164760011 0.0 0.0
0.0 0.00018740410379439139 -0.0001011589216517771 8.056454957065597e-05 2.059437208112123e-05 6.14267265599906e-05 0.0 0.0
0.0 3.1544660810424034e-06 3.224665733627379e-07 -2.519377493679251e-07 -7.05288239948042e-08 -3.2020684406640237e-07 0.0 0.0
0.0 0.0 0.0 0.0 0.0 0.0 0.0 0.0
0.0 0.0 0.0 0.0 0.0 0.0 0.0 0.0
0.0 0.0 0.0 0.0 0.0 0.0 0.0 0.0
0.0 0.0 0.0 0.0 0.0 0.0 0.0 0.0
0.0 0.0 0.0 0.0 0.0 0.0 0.0 0.0
0.0 0.0 0.0 0.0 0.0 0.0 0.0 0.0
0.0 7.480929744594875e-06 8.970346975284954e-07 -6.929961877200582e-07 -2.0403850980840786e-07 5.50205352796341e-07 0.0 0.0
0.0 0.00039615153678952306 -0.00024044255604021837 0.00019235468131732476 4.80878747228939e-05 -8.356954393092606e-05 0.0 0.0
0.0 0.001547209310436865 -0.0014245768990678222 0.0011765453542066332 0.00024803154486118884 -0.0003357675972097385 0.0 0.0
0.0 0.0038566900203760427 -0.0034991107171012965 0.003035489681342333 0.00046362103575896203 -0.0006811633659640985 0.0 0.0
0.0 0.007239228969220317 -0.00648488446833663 0.005852496148858199 0.0006323883194784297 -0.0011544999272632623 0.0 0.0
0.0 0.011744873272375788 -0.010409496138928718 0.009649557728863284 0.0007599384100654301 -0.0017506104813085513 0.0 0.0
0.0 0.017353236253448527 -0.015275184932646423 0.014408221186626626 0.0008669637460197921 -0.0024343390997732714 0.0 0.0
0.0 0.024104301970222623 -0.021111201380508336 0.020144716399701147 0.0009664849808071965 -0.00314216585992905 0.0 0.0
0.0 0.03215831117632438 -0.028019642553371703 0.026956165782627876 0.0010634767707438106 -0.0038497378749364664 0.0 0.0
0.0 0.04140791602641863 -0.03616333593526944 0.03500288290923129 0.0011604530260381414 -0.004638704434248567 0.0 0.0
0.0 0.052281407588428384 -0.04565476472837489 0.044395343594726265 0.0012594211336486136 -0.005538912911130022 0.0 0.0
0.0 0.06470506181320025 -0.05643595752615551 0.05507353719362654 0.001362420332528994 -0.006439888042904771 0.0 0.0
0.0 0.07816206019169988 -0.06813146974509493 0.06666164096160523 0.00146982878348968 -0.007031661167482879 0.0 0.0
0.0 0.09167838215393213 -0.07989808176143116 0.07831336854926688 0.0015847132121643262 -0.006948303165188817 0.0 0.0
0.0 0.10332108239383077 -0.09001010678120383 0.08826899151707826 0.0017411152641255835 -0.007701142775918325 0.0 0.0
0.0 0.10841048723033017 -0.09412514108740791 0.09206875992300424 0.0020563811644036156 -0.016057055691158895 0.0 0.0
0.0 0.09804257160810832 -0.0833567025038304 0.08101807850397925 0.002338623999851133 -0.03686921080226772 0.0 0.0
0.0 0.09804257160810176 -0.0833567025038232 0.08101807850397179 0.0023386239998513716 0.03686921080228264 0.0 0.0
0.0 0.10841048723030891 -0.09412514108738855 0.09206875992298513 0.0020563811644033507 0.016057055691178938 0.0 0.0
0.0 0.10332108239379756 -0.09001010678117444 0.08826899151704959 0.0017411152641248573 0.00770114277593359 0.0 0.0
0.0 0.09167838215388979 -0.07989808176139393 0.07831336854923072 0.0015847132121631692 0.006948303165191422 0.0 0.0
0.0 0.07816206019165142 -0.06813146974505269 0.06666164096156371 0.0014698287834889786 0.007031661167483334 0.0 0.0
0.0 0.06470506181314876 -0.05643595752611074 0.055073537193582246 0.001362420332528513 0.006439888042903916 0.0 0.0
0.0 0.052281407588379646 -0.045654764728332464 0.04439534359468457 0.0012594211336478768 0.005538912911127079 0.0 0.0
0.0 0.0414079160263678 -0.0361633359352251 0.03500288290918775 0.0011604530260373395 0.004638704434244453 0.0 0.0
0.0 0.03215831117627345 -0.028019642553327086 0.026956165782583766 0.0010634767707433093 0.003849737874933585 0.0 0.0
0.0 0.02410430197017746 -0.02111120138046881 0.02014471639966234 0.0009664849808064575 0.003142165859922272 0.0 0.0
0.0 0.017353236253411744 -0.015275184932613864 0.014408221186595014 0.0008669637460188542 0.002434339099766834 0.0 0.0
0.0 0.011744873272346298 -0.010409496138902026 0.00964955772883747 0.000759938410064557 0.001750610481304672 0.0 0.0
0.0 0.00723922896919734 -0.006484884468315713 0.005852496148838274 0.0006323883194774394 0.0011544999272595428 0.0 0.0
0.0 0.0038566900203598924 -0.0034991107170862 0.0030354896813284773 0.00046362103575772073 0.000681163365960997 0.0 0.0
0.0 0.001547209310428253 -0.0014245768990597532 0.0011765453541997101 0.0002480315448600426 0.0003357675972078378 0.0 0.0
0.0 0.0003961515367858577 -0.00024044255603786912 0.00019235468131542272 4.808787472244625e-05 8.356954393022421e-05 0.0 0.0
0.0 7.48092974373735e-06 8.970346974239649e-07 -6.929961876401887e-07 -2.040385097838224e-07 -5.502053527401145e-07 0.0 0.0
0.0 0.0 0.0 0.0 0.0 0.0 0.0 0.0
0.0 0.0 0.0 0.0 0.0 0.0 0.0 0.0
0.0 0.0 0.0 0.0 0.0 0.0 0.0 0.0
0.0 0.0 0.0 0.0 0.0 0.0 0.0 0.0
0.0 0.0 0.0 0.0 0.0 0.0 0.0 0.0
0.0 0.0 0.0 0.0 0.0 0.0 0.0 0.0
0.0 1.9638209431955028e-05 -4.190897792508612e-06 3.362647819921292e-06 8.282499725874656e-07 -1.4809110751131728e-06 0.0 0.0
0.0 0.0007276660598013712 -0.000467626741229113 0.0003760040874633059 9.162265376580696e-05 -6.46265714076275e-05 0.0 0.0
0.0 0.0021367615612478442 -0.0019684266575993982 0.0016473174449662211 0.000321109212633177 -0.00016368464106492064 0.0 0.0
0.0 0.004766987651945176 -0.004331840240247096 0.0038103990750695494 0.000521441165177545 -0.0003035495488983699 0.0 0.0
0.0 0.008548043005422726 -0.007649960651961289 0.006975199534356848 0.0006747611176044373 -0.0004911552126016368 0.0 0.0
0.0 0.013549330371857283 -0.012003488149432294 0.011208810263527835 0.0007946778859044589 -0.0007435716563053687 0.0 0.0
0.0 0.019812536088278054 -0.017421516390928482 0.01651976713692252 0.0009017492540059627 -0.001045536912292672 0.0 0.0
0.0 0.027422628181087566 -0.023961357522480603 0.022955721796580186 0.0010056357259004122 -0.0013577801713628313 0.0 0.0
0.0 0.036230632619049505 -0.03174315343489943 0.03063297545095352 0.0011101779839459089 -0.0016925425451824435 0.0 0.0
0.0 0.046697467512051206 -0.040899089421398006 0.03968346441068889 0.0012156250107091004 -0.0020608814264394277 0.0 0.0
0.0 0.05891845324128135 -0.051514682905244885 0.05019013194330261 0.0013245509619422531 -0.0024542006241642313 0.0 0.0
0.0 0.07267190206022311 -0.06345777073572051 0.06201778813954924 0.0014399825961712849 -0.0028204584567625636 0.0 0.0
0.0 0.08733683622148397 -0.07616955327243483 0.07460818412043221 0.001561369152002594 -0.0029592650637713692 0.0 0.0
0.0 0.10164448554345178 -0.08857744610802329 0.0868956665931932 0.001681779514830049 -0.002526131436962267 0.0 0.0
0.0 0.11378530497057662 -0.09914358998550764 0.09734571725864097 0.001797872726866654 -0.0013900077168583504 0.0 0.0
0.0 0.12102166234175879 -0.10534339424704699 0.10336723416577034 0.001976160081276568 -0.004834583534912449 0.0 0.0
0.0 0.11487317350256615 -0.09841644830312396 0.0957207739285077 0.0026956743746162815 -0.03418648214030568 0.0 0.0
0.0 0.1148731735025575 -0.09841644830311612 0.09572077392849956 0.002695674374616506 0.03418648214031041 0.0 0.0
0.0 0.12102166234173514 -0.10534339424702618 0.10336723416575007 0.001976160081276088 0.004834583534921155 0.0 0.0
0.0 0.11378530497053502 -0.09914358998547164 0.09734571725860508 0.0017978727268665017 0.00139000771686595 0.0 0.0
0.0 0.10164448554339917 -0.08857744610797773 0.08689566659314771 0.001681779514829969 0.002526131436961743 0.0 0.0
0.0 0.08733683622142951 -0.07616955327238756 0.07460818412038525 0.0015613691520022703 0.002959265063771328 0.0 0.0
0.0 0.0726719020601666 -0.06345777073567128 0.06201778813950072 0.001439982596170549 0.002820458456762211 0.0 0.0
0.0 0.05891845324122516 -0.05151468290519598 0.050190131943254425 0.0013245509619415519 0.0024542006241636966 0.0 0.0
0.0 0.04669746751199569 -0.040899089421349566 0.03968346441064137 0.0012156250107081574 0.00206088142643777 0.0 0.0
0.0 0.03623063261899402 -0.03174315343485101 0.030632975450905892 0.0011101779839451048 0.0016925425451814599 0.0 0.0
0.0 0.027422628181038283 -0.023961357522437433 0.022955721796537792 0.0010056357258996392 0.001357780171358357 0.0 0.0
0.0 0.019812536088235688 -0.017421516390891657 0.016519767136886226 0.0009017492540054335 0.0010455369122895335 0.0 0.0
0.0 0.013549330371822738 -0.012003488149401612 0.01120881026349776 0.0007946778859038516 0.0007435716563039183 0.0 0.0
0.0 0.00854804300539563 -0.007649960651936679 0.006975199534332987 0.0006747611176036927 0.0004911552126000769 0.0 0.0
0.0 0.004766987651927256 -0.004331840240230568 0.0038103990750539343 0.0005214411651766348 0.0003035495488971061 0.0 0.0
0.0 0.0021367615612379676 -0.0019684266575897722 0.0016473174449577127 0.0003211092126320594 0.00016368464106409193 0.0 0.0
0.0 0.0007276660597962832 -0.00046762674122547256 0.00037600408746032657 9.162265376514651e-05 6.462657140723056e-05 0.0 0.0
0.0 1.9638209431419703e-05 -4.190897792725788e-06 3.3626478200813423e-06 8.282499726444358e-07 1.4809110751218276e-06 0.0 0.0
0.0 0.0 0.0 0.0 0.0 0.0 0.0 0.0
0.0 0.0 0.0 0.0 0.0 0.0 0.0 0.0
0.0 0.0 0.0 0.0 0.0 0.0 0.0 0.0