# vtk DataFile Version 3.0
Some data
ASCII
DATASET UNSTRUCTURED_GRID
POINTS 861 float
0.0 0.0 0.0
0.4 0.0 0.0
0.8 0.0 0.0
1.2000000000000002 0.0 0.0
1.6 0.0 0.0
2.0 0.0 0.0
2.4000000000000004 0.0 0.0
2.8000000000000003 0.0 0.0
3.2 0.0 0.0
3.6 0.0 0.0
4.0 0.0 0.0
4.4 0.0 0.0
4.800000000000001 0.0 0.0
5.2 0.0 0.0
5.6000000000000005 0.0 0.0
6.0 0.0 0.0
6.4 0.0 0.0
6.800000000000001 0.0 0.0
7.2 0.0 0.0
7.6000000000000005 0.0 0.0
8.0 0.0 0.0
8.4 0.0 0.0
8.8 0.0 0.0
9.200000000000001 0.0 0.0
9.600000000000001 0.0 0.0
10.0 0.0 0.0
10.4 0.0 0.0
10.8 0.0 0.0
11.200000000000001 0.0 0.0
11.600000000000001 0.0 0.0
12.0 0.0 0.0
12.4 0.0 0.0
12.8 0.0 0.0
13.200000000000001 0.0 0.0
13.600000000000001 0.0 0.0
14.0 0.0 0.0
14.4 0.0 0.0
14.8 0.0 0.0
15.200000000000001 0.0 0.0
15.600000000000001 0.0 0.0
16.0 0.0 0.0
0.0 0.1 0.0
0.4 0.1 0.0
0.8 0.1 0.0
1.2000000000000002 0.1 0.0
1.6 0.1 0.0
2.0 0.1 0.0
2.4000000000000004 0.1 0.0
2.8000000000000003 0.1 0.0
3.2 0.1 0.0
3.6 0.1 0.0
4.0 0.1 0.0
4.4 0.1 0.0
4.800000000000001 0.1 0.0
5.2 0.1 0.0
5.6000000000000005 0.1 0.0
6.0 0.1 0.0
6.4 0.1 0.0
6.800000000000001 0.1 0.0
7.2 0.1 0.0
7.6000000000000005 0.1 0.0
8.0 0.1 0.0
8.4 0.1 0.0
8.8 0.1 0.0
9.200000000000001 0.1 0.0
9.600000000000001 0.1 0.0
10.0 0.1 0.0
10.4 0.1 0.0
10.8 0.1 0.0
11.200000000000001 0.1 0.0
11.600000000000001 0.1 0.0
12.0 0.1 0.0
12.4 0.1 0.0
12.8 0.1 0.0
13.200000000000001 0.1 0.0
13.600000000000001 0.1 0.0
14.0 0.1 0.0
14.4 0.1 0.0
14.8 0.1 0.0
15.200000000000001 0.1 0.0
15.600000000000001 0.1 0.0
16.0 0.1 0.0
0.0 0.2 0.0
0.4 0.2 0.0
0.8 0.2 0.0
1.2000000000000002 0.2 0.0
1.6 0.2 0.0
2.0 0.2 0.0
2.4000000000000004 0.2 0.0
2.8000000000000003 0.2 0.0
3.2 0.2 0.0
3.6 0.2 0.0
4.0 0.2 0.0
4.4 0.2 0.0
4.800000000000001 0.2 0.0
5.2 0.2 0.0
5.6000000000000005 0.2 0.0
6.0 0.2 0.0
6.4 0.2 0.0
6.800000000000001 0.2 0.0
7.2 0.2 0.0
7.6000000000000005 0.2 0.0
8.0 0.2 0.0
8.4 0.2 0.0
8.8 0.2 0.0
9.200000000000001 0.2 0.0
9.600000000000001 0.2 0.0
10.0 0.2 0.0
10.4 0.2 0.0
10.8 0.2 0.0
11.200000000000001 0.2 0.0
11.600000000000001 0.2 0.0
12.0 0.2 0.0
12.4 0.2 0.0
12.8 0.2 0.0
13.200000000000001 0.2 0.0
13.600000000000001 0.2 0.0
14.0 0.2 0.0
14.4 0.2 0.0
14.8 0.2 0.0
15.200000000000001 0.2 0.0
15.600000000000001 0.2 0.0
16.0 0.2 0.0
0.0 0.30000000000000004 0.0
0.4 0.30000000000000004 0.0
0.8 0.30000000000000004 0.0
1.2000000000000002 0.30000000000000004 0.0
1.6 0.30000000000000004 0.0
2.0 0.30000000000000004 0.0
2.4000000000000004 0.30000000000000004 0.0
2.8000000000000003 0.30000000000000004 0.0
3.2 0.30000000000000004 0.0
3.6 0.30000000000000004 0.0
4.0 0.30000000000000004 0.0
4.4 0.30000000000000004 0.0
4.800000000000001 0.30000000000000004 0.0
5.2 0.30000000000000004 0.0
5.6000000000000005 0.30000000000000004 0.0
6.0 0.30000000000000004 0.0
6.4 0.30000000000000004 0.0
6.800000000000001 0.30000000000000004 0.0
7.2 0.30000000000000004 0.0
7.6000000000000005 0.30000000000000004 0.0
8.0 0.30000000000000004 0.0
8.4 0.30000000000000004 0.0
8.8 0.30000000000000004 0.0
9.200000000000001 0.30000000000000004 0.0
9.600000000000001 0.30000000000000004 0.0
10.0 0.30000000000000004 0.0
10.4 0.30000000000000004 0.0
10.8 0.30000000000000004 0.0
11.200000000000001 0.30000000000000004 0.0
11.600000000000001 0.30000000000000004 0.0
12.0 0.30000000000000004 0.0
12.4 0.30000000000000004 0.0
12.8 0.30000000000000004 0.0
13.200000000000001 0.30000000000000004 0.0
13.600000000000001 0.30000000000000004 0.0
14.0 0.30000000000000004 0.0
14.4 0.30000000000000004 0.0
14.8 0.30000000000000004 0.0
15.200000000000001 0.30000000000000004 0.0
15.600000000000001 0.30000000000000004 0.0
16.0 0.30000000000000004 0.0
0.0 0.4 0.0
0.4 0.4 0.0
0.8 0.4 0.0
1.2000000000000002 0.4 0.0
1.6 0.4 0.0
2.0 0.4 0.0
2.4000000000000004 0.4 0.0
2.8000000000000003 0.4 0.0
3.2 0.4 0.0
3.6 0.4 0.0
4.0 0.4 0.0
4.4 0.4 0.0
4.800000000000001 0.4 0.0
5.2 0.4 0.0
5.6000000000000005 0.4 0.0
6.0 0.4 0.0
6.4 0.4 0.0
6.800000000000001 0.4 0.0
7.2 0.4 0.0
7.6000000000000005 0.4 0.0
8.0 0.4 0.0
8.4 0.4 0.0
8.8 0.4 0.0
9.200000000000001 0.4 0.0
9.600000000000001 0.4 0.0
10.0 0.4 0.0
10.4 0.4 0.0
10.8 0.4 0.0
11.200000000000001 0.4 0.0
11.600000000000001 0.4 0.0
12.0 0.4 0.0
12.4 0.4 0.0
12.8 0.4 0.0
13.200000000000001 0.4 0.0
13.600000000000001 0.4 0.0
14.0 0.4 0.0
14.4 0.4 0.0
14.8 0.4 0.0
15.200000000000001 0.4 0.0
15.600000000000001 0.4 0.0
16.0 0.4 0.0
0.0 0.5 0.0
0.4 0.5 0.0
0.8 0.5 0.0
1.2000000000000002 0.5 0.0
1.6 0.5 0.0
2.0 0.5 0.0
2.4000000000000004 0.5 0.0
2.8000000000000003 0.5 0.0
3.2 0.5 0.0
3.6 0.5 0.0
4.0 0.5 0.0
4.4 0.5 0.0
4.800000000000001 0.5 0.0
5.2 0.5 0.0
5.6000000000000005 0.5 0.0
6.0 0.5 0.0
6.4 0.5 0.0
6.800000000000001 0.5 0.0
7.2 0.5 0.0
7.6000000000000005 0.5 0.0
8.0 0.5 0.0
8.4 0.5 0.0
8.8 0.5 0.0
9.200000000000001 0.5 0.0
9.600000000000001 0.5 0.0
10.0 0.5 0.0
10.4 0.5 0.0
10.8 0.5 0.0
11.200000000000001 0.5 0.0
11.600000000000001 0.5 0.0
12.0 0.5 0.0
12.4 0.5 0.0
12.8 0.5 0.0
13.200000000000001 0.5 0.0
13.600000000000001 0.5 0.0
14.0 0.5 0.0
14.4 0.5 0.0
14.8 0.5 0.0
15.200000000000001 0.5 0.0
15.600000000000001 0.5 0.0
16.0 0.5 0.0
0.0 0.6000000000000001 0.0
0.4 0.6000000000000001 0.0
0.8 0.6000000000000001 0.0
1.2000000000000002 0.6000000000000001 0.0
1.6 0.6000000000000001 0.0
2.0 0.6000000000000001 0.0
2.4000000000000004 0.6000000000000001 0.0
2.8000000000000003 0.6000000000000001 0.0
3.2 0.6000000000000001 0.0
3.6 0.6000000000000001 0.0
4.0 0.6000000000000001 0.0
4.4 0.6000000000000001 0.0
4.800000000000001 0.6000000000000001 0.0
5.2 0.6000000000000001 0.0
5.6000000000000005 0.6000000000000001 0.0
6.0 0.6000000000000001 0.0
6.4 0.6000000000000001 0.0
6.800000000000001 0.6000000000000001 0.0
7.2 0.6000000000000001 0.0
7.6000000000000005 0.6000000000000001 0.0
8.0 0.6000000000000001 0.0
8.4 0.6000000000000001 0.0
8.8 0.6000000000000001 0.0
9.200000000000001 0.6000000000000001 0.0
9.600000000000001 0.6000000000000001 0.0
10.0 0.6000000000000001 0.0
10.4 0.6000000000000001 0.0
10.8 0.6000000000000001 0.0
11.200000000000001 0.6000000000000001 0.0
11.600000000000001 0.6000000000000001 0.0
12.0 0.6000000000000001 0.0
12.4 0.6000000000000001 0.0
12.8 0.6000000000000001 0.0
13.200000000000001 0.6000000000000001 0.0
13.600000000000001 0.6000000000000001 0.0
14.0 0.6000000000000001 0.0
14.4 0.6000000000000001 0.0
14.8 0.6000000000000001 0.0
15.200000000000001 0.6000000000000001 0.0
15.600000000000001 0.6000000000000001 0.0
16.0 0.6000000000000001 0.0
0.0 0.7000000000000001 0.0
0.4 0.7000000000000001 0.0
0.8 0.7000000000000001 0.0
1.2000000000000002 0.7000000000000001 0.0
1.6 0.7000000000000001 0.0
2.0 0.7000000000000001 0.0
2.4000000000000004 0.7000000000000001 0.0
2.8000000000000003 0.7000000000000001 0.0
3.2 0.7000000000000001 0.0
3.6 0.7000000000000001 0.0
4.0 0.7000000000000001 0.0
4.4 0.7000000000000001 0.0
4.800000000000001 0.7000000000000001 0.0
5.2 0.7000000000000001 0.0
5.6000000000000005 0.7000000000000001 0.0
6.0 0.7000000000000001 0.0
6.4 0.7000000000000001 0.0
6.800000000000001 0.7000000000000001 0.0
7.2 0.7000000000000001 0.0
7.6000000000000005 0.7000000000000001 0.0
8.0 0.7000000000000001 0.0
8.4 0.7000000000000001 0.0
8.8 0.7000000000000001 0.0
9.200000000000001 0.7000000000000001 0.0
9.600000000000001 0.7000000000000001 0.0
10.0 0.7000000000000001 0.0
10.4 0.7000000000000001 0.0
10.8 0.7000000000000001 0.0
11.200000000000001 0.7000000000000001 0.0
11.600000000000001 0.7000000000000001 0.0
12.0 0.7000000000000001 0.0
12.4 0.7000000000000001 0.0
12.8 0.7000000000000001 0.0
13.200000000000001 0.7000000000000001 0.0
13.600000000000001 0.7000000000000001 0.0
14.0 0.7000000000000001 0.0
14.4 0.7000000000000001 0.0
14.8 0.7000000000000001 0.0
15.200000000000001 0.7000000000000001 0.0
15.600000000000001 0.7000000000000001 0.0
16.0 0.7000000000000001 0.0
0.0 0.8 0.0
0.4 0.8 0.0
0.8 0.8 0.0
1.2000000000000002 0.8 0.0
1.6 0.8 0.0
2.0 0.8 0.0
2.4000000000000004 0.8 0.0
2.8000000000000003 0.8 0.0
3.2 0.8 0.0
3.6 0.8 0.0
4.0 0.8 0.0
4.4 0.8 0.0
4.800000000000001 0.8 0.0
5.2 0.8 0.0
5.6000000000000005 0.8 0.0
6.0 0.8 0.0
6.4 0.8 0.0
6.800000000000001 0.8 0.0
7.2 0.8 0.0
7.6000000000000005 0.8 0.0
8.0 0.8 0.0
8.4 0.8 0.0
8.8 0.8 0.0
9.200000000000001 0.8 0.0
9.600000000000001 0.8 0.0
10.0 0.8 0.0
10.4 0.8 0.0
10.8 0.8 0.0
11.200000000000001 0.8 0.0
11.600000000000001 0.8 0.0
12.0 0.8 0.0
12.4 0.8 0.0
12.8 0.8 0.0
13.200000000000001 0.8 0.0
13.600000000000001 0.8 0.0
14.0 0.8 0.0
14.4 0.8 0.0
14.8 0.8 0.0
15.200000000000001 0.8 0.0
15.600000000000001 0.8 0.0
16.0 0.8 0.0
0.0 0.9 0.0
0.4 0.9 0.0
0.8 0.9 0.0
1.2000000000000002 0.9 0.0
1.6 0.9 0.0
2.0 0.9 0.0
2.4000000000000004 0.9 0.0
2.8000000000000003 0.9 0.0
3.2 0.9 0.0
3.6 0.9 0.0
4.0 0.9 0.0
4.4 0.9 0.0
4.800000000000001 0.9 0.0
5.2 0.9 0.0
5.6000000000000005 0.9 0.0
6.0 0.9 0.0
6.4 0.9 0.0
6.800000000000001 0.9 0.0
7.2 0.9 0.0
7.6000000000000005 0.9 0.0
8.0 0.9 0.0
8.4 0.9 0.0
8.8 0.9 0.0
9.200000000000001 0.9 0.0
9.600000000000001 0.9 0.0
10.0 0.9 0.0
10.4 0.9 0.0
10.8 0.9 0.0
11.200000000000001 0.9 0.0
11.600000000000001 0.9 0.0
12.0 0.9 0.0
12.4 0.9 0.0
12.8 0.9 0.0
13.200000000000001 0.9 0.0
13.600000000000001 0.9 0.0
14.0 0.9 0.0
14.4 0.9 0.0
14.8 0.9 0.0
15.200000000000001 0.9 0.0
15.600000000000001 0.9 0.0
16.0 0.9 0.0
0.0 1.0 0.0
0.4 1.0 0.0
0.8 1.0 0.0
1.2000000000000002 1.0 0.0
1.6 1.0 0.0
2.0 1.0 0.0
2.4000000000000004 1.0 0.0
2.8000000000000003 1.0 0.0
3.2 1.0 0.0
3.6 1.0 0.0
4.0 1.0 0.0
4.4 1.0 0.0
4.800000000000001 1.0 0.0
5.2 1.0 0.0
5.6000000000000005 1.0 0.0
6.0 1.0 0.0
6.4 1.0 0.0
6.800000000000001 1.0 0.0
7.2 1.0 0.0
7.6000000000000005 1.0 0.0
8.0 1.0 0.0
8.4 1.0 0.0
8.8 1.0 0.0
9.200000000000001 1.0 0.0
9.600000000000001 1.0 0.0
10.0 1.0 0.0
10.4 1.0 0.0
10.8 1.0 0.0
11.200000000000001 1.0 0.0
11.600000000000001 1.0 0.0
12.0 1.0 0.0
12.4 1.0 0.0
12.8 1.0 0.0
13.200000000000001 1.0 0.0
13.600000000000001 1.0 0.0
14.0 1.0 0.0
14.4 1.0 0.0
14.8 1.0 0.0
15.200000000000001 1.0 0.0
15.600000000000001 1.0 0.0
16.0 1.0 0.0
0.0 1.1 0.0
0.4 1.1 0.0
0.8 1.1 0.0
1.2000000000000002 1.1 0.0
1.6 1.1 0.0
2.0 1.1 0.0
2.4000000000000004 1.1 0.0
2.8000000000000003 1.1 0.0
3.2 1.1 0.0
3.6 1.1 0.0
4.0 1.1 0.0
4.4 1.1 0.0
4.800000000000001 1.1 0.0
5.2 1.1 0.0
5.6000000000000005 1.1 0.0
6.0 1.1 0.0
6.4 1.1 0.0
6.800000000000001 1.1 0.0
7.2 1.1 0.0
7.6000000000000005 1.1 0.0
8.0 1.1 0.0
8.4 1.1 0.0
8.8 1.1 0.0
9.200000000000001 1.1 0.0
9.600000000000001 1.1 0.0
10.0 1.1 0.0
10.4 1.1 0.0
10.8 1.1 0.0
11.200000000000001 1.1 0.0
11.600000000000001 1.1 0.0
12.0 1.1 0.0
12.4 1.1 0.0
12.8 1.1 0.0
13.200000000000001 1.1 0.0
13.600000000000001 1.1 0.0
14.0 1.1 0.0
14.4 1.1 0.0
14.8 1.1 0.0
15.200000000000001 1.1 0.0
15.600000000000001 1.1 0.0
16.0 1.1 0.0
0.0 1.2000000000000002 0.0
0.4 1.2000000000000002 0.0
0.8 1.2000000000000002 0.0
1.2000000000000002 1.2000000000000002 0.0
1.6 1.2000000000000002 0.0
2.0 1.2000000000000002 0.0
2.4000000000000004 1.2000000000000002 0.0
2.8000000000000003 1.2000000000000002 0.0
3.2 1.2000000000000002 0.0
3.6 1.2000000000000002 0.0
4.0 1.2000000000000002 0.0
4.4 1.2000000000000002 0.0
4.800000000000001 1.2000000000000002 0.0
5.2 1.2000000000000002 0.0
5.6000000000000005 1.2000000000000002 0.0
6.0 1.2000000000000002 0.0
6.4 1.2000000000000002 0.0
6.800000000000001 1.2000000000000002 0.0
7.2 1.2000000000000002 0.0
7.6000000000000005 1.2000000000000002 0.0
8.0 1.2000000000000002 0.0
8.4 1.2000000000000002 0.0
8.8 1.2000000000000002 0.0
9.200000000000001 1.2000000000000002 0.0
9.600000000000001 1.2000000000000002 0.0
10.0 1.2000000000000002 0.0
10.4 1.2000000000000002 0.0
10.8 1.2000000000000002 0.0
11.200000000000001 1.2000000000000002 0.0
11.600000000000001 1.2000000000000002 0.0
12.0 1.2000000000000002 0.0
12.4 1.2000000000000002 0.0
12.8 1.2000000000000002 0.0
13.200000000000001 1.2000000000000002 0.0
13.600000000000001 1.2000000000000002 0.0
14.0 1.2000000000000002 0.0
14.4 1.2000000000000002 0.0
14.8 1.2000000000000002 0.0
15.200000000000001 1.2000000000000002 0.0
15.600000000000001 1.2000000000000002 0.0
16.0 1.2000000000000002 0.0
0.0 1.3 0.0
0.4 1.3 0.0
0.8 1.3 0.0
1.2000000000000002 1.3 0.0
1.6 1.3 0.0
2.0 1.3 0.0
2.4000000000000004 1.3 0.0
2.8000000000000003 1.3 0.0
3.2 1.3 0.0
3.6 1.3 0.0
4.0 1.3 0.0
4.4 1.3 0.0
4.800000000000001 1.3 0.0
5.2 1.3 0.0
5.6000000000000005 1.3 0.0
6.0 1.3 0.0
6.4 1.3 0.0
6.800000000000001 1.3 0.0
7.2 1.3 0.0
7.6000000000000005 1.3 0.0
8.0 1.3 0.0
8.4 1.3 0.0
8.8 1.3 0.0
9.200000000000001 1.3 0.0
9.600000000000001 1.3 0.0
10.0 1.3 0.0
10.4 1.3 0.0
10.8 1.3 0.0
11.200000000000001 1.3 0.0
11.600000000000001 1.3 0.0
12.0 1.3 0.0
12.4 1.3 0.0
12.8 1.3 0.0
13.200000000000001 1.3 0.0
13.600000000000001 1.3 0.0
14.0 1.3 0.0
14.4 1.3 0.0
14.8 1.3 0.0
15.200000000000001 1.3 0.0
15.600000000000001 1.3 0.0
16.0 1.3 0.0
0.0 1.4000000000000001 0.0
0.4 1.4000000000000001 0.0
0.8 1.4000000000000001 0.0
1.2000000000000002 1.4000000000000001 0.0
1.6 1.4000000000000001 0.0
2.0 1.4000000000000001 0.0
2.4000000000000004 1.4000000000000001 0.0
2.8000000000000003 1.4000000000000001 0.0
3.2 1.4000000000000001 0.0
3.6 1.4000000000000001 0.0
4.0 1.4000000000000001 0.0
4.4 1.4000000000000001 0.0
4.800000000000001 1.4000000000000001 0.0
5.2 1.4000000000000001 0.0
5.6000000000000005 1.4000000000000001 0.0
6.0 1.4000000000000001 0.0
6.4 1.4000000000000001 0.0
6.800000000000001 1.4000000000000001 0.0
7.2 1.4000000000000001 0.0
7.6000000000000005 1.4000000000000001 0.0
8.0 1.4000000000000001 0.0
8.4 1.4000000000000001 0.0
8.8 1.4000000000000001 0.0
9.200000000000001 1.4000000000000001 0.0
9.600000000000001 1.4000000000000001 0.0
10.0 1.4000000000000001 0.0
10.4 1.4000000000000001 0.0
10.8 1.4000000000000001 0.0
11.200000000000001 1.4000000000000001 0.0
11.600000000000001 1.4000000000000001 0.0
12.0 1.4000000000000001 0.0
12.4 1.4000000000000001 0.0
12.8 1.4000000000000001 0.0
13.200000000000001 1.4000000000000001 0.0
13.600000000000001 1.4000000000000001 0.0
14.0 1.4000000000000001 0.0
14.4 1.4000000000000001 0.0
14.8 1.4000000000000001 0.0
15.200000000000001 1.4000000000000001 0.0
15.600000000000001 1.4000000000000001 0.0
16.0 1.4000000000000001 0.0
0.0 1.5 0.0
0.4 1.5 0.0
0.8 1.5 0.0
1.2000000000000002 1.5 0.0
1.6 1.5 0.0
2.0 1.5 0.0
2.4000000000000004 1.5 0.0
2.8000000000000003 1.5 0.0
3.2 1.5 0.0
3.6 1.5 0.0
4.0 1.5 0.0
4.4 1.5 0.0
4.800000000000001 1.5 0.0
5.2 1.5 0.0
5.6000000000000005 1.5 0.0
6.0 1.5 0.0
6.4 1.5 0.0
6.800000000000001 1.5 0.0
7.2 1.5 0.0
7.6000000000000005 1.5 0.0
8.0 1.5 0.0
8.4 1.5 0.0
8.8 1.5 0.0
9.200000000000001 1.5 0.0
9.600000000000001 1.5 0.0
10.0 1.5 0.0
10.4 1.5 0.0
10.8 1.5 0.0
11.200000000000001 1.5 0.0
11.600000000000001 1.5 0.0
12.0 1.5 0.0
12.4 1.5 0.0
12.8 1.5 0.0
13.200000000000001 1.5 0.0
13.600000000000001 1.5 0.0
14.0 1.5 0.0
14.4 1.5 0.0
14.8 1.5 0.0
15.200000000000001 1.5 0.0
15.600000000000001 1.5 0.0
16.0 1.5 0.0
0.0 1.6 0.0
0.4 1.6 0.0
0.8 1.6 0.0
1.2000000000000002 1.6 0.0
1.6 1.6 0.0
2.0 1.6 0.0
2.4000000000000004 1.6 0.0
2.8000000000000003 1.6 0.0
3.2 1.6 0.0
3.6 1.6 0.0
4.0 1.6 0.0
4.4 1.6 0.0
4.800000000000001 1.6 0.0
5.2 1.6 0.0
5.6000000000000005 1.6 0.0
6.0 1.6 0.0
6.4 1.6 0.0
6.800000000000001 1.6 0.0
7.2 1.6 0.0
7.6000000000000005 1.6 0.0
8.0 1.6 0.0
8.4 1.6 0.0
8.8 1.6 0.0
9.200000000000001 1.6 0.0
9.600000000000001 1.6 0.0
10.0 1.6 0.0
10.4 1.6 0.0
10.8 1.6 0.0
11.200000000000001 1.6 0.0
11.600000000000001 1.6 0.0
12.0 1.6 0.0
12.4 1.6 0.0
12.8 1.6 0.0
13.200000000000001 1.6 0.0
13.600000000000001 1.6 0.0
14.0 1.6 0.0
14.4 1.6 0.0
14.8 1.6 0.0
15.200000000000001 1.6 0.0
15.600000000000001 1.6 0.0
16.0 1.6 0.0
0.0 1.7000000000000002 0.0
0.4 1.7000000000000002 0.0
0.8 1.7000000000000002 0.0
1.2000000000000002 1.7000000000000002 0.0
1.6 1.7000000000000002 0.0
2.0 1.7000000000000002 0.0
2.4000000000000004 1.7000000000000002 0.0
2.8000000000000003 1.7000000000000002 0.0
3.2 1.7000000000000002 0.0
3.6 1.7000000000000002 0.0
4.0 1.7000000000000002 0.0
4.4 1.7000000000000002 0.0
4.800000000000001 1.7000000000000002 0.0
5.2 1.7000000000000002 0.0
5.6000000000000005 1.7000000000000002 0.0
6.0 1.7000000000000002 0.0
6.4 1.7000000000000002 0.0
6.800000000000001 1.7000000000000002 0.0
7.2 1.7000000000000002 0.0
7.6000000000000005 1.7000000000000002 0.0
8.0 1.7000000000000002 0.0
8.4 1.7000000000000002 0.0
8.8 1.7000000000000002 0.0
9.200000000000001 1.7000000000000002 0.0
9.600000000000001 1.7000000000000002 0.0
10.0 1.7000000000000002 0.0
10.4 1.7000000000000002 0.0
10.8 1.7000000000000002 0.0
11.200000000000001 1.7000000000000002 0.0
11.600000000000001 1.7000000000000002 0.0
12.0 1.7000000000000002 0.0
12.4 1.7000000000000002 0.0
12.8 1.7000000000000002 0.0
13.200000000000001 1.7000000000000002 0.0
13.600000000000001 1.7000000000000002 0.0
14.0 1.7000000000000002 0.0
14.4 1.7000000000000002 0.0
14.8 1.7000000000000002 0.0
15.200000000000001 1.7000000000000002 0.0
15.600000000000001 1.7000000000000002 0.0
16.0 1.7000000000000002 0.0
0.0 1.8 0.0
0.4 1.8 0.0
0.8 1.8 0.0
1.2000000000000002 1.8 0.0
1.6 1.8 0.0
2.0 1.8 0.0
2.4000000000000004 1.8 0.0
2.8000000000000003 1.8 0.0
3.2 1.8 0.0
3.6 1.8 0.0
4.0 1.8 0.0
4.4 1.8 0.0
4.800000000000001 1.8 0.0
5.2 1.8 0.0
5.6000000000000005 1.8 0.0
6.0 1.8 0.0
6.4 1.8 0.0
6.800000000000001 1.8 0.0
7.2 1.8 0.0
7.6000000000000005 1.8 0.0
8.0 1.8 0.0
8.4 1.8 0.0
8.8 1.8 0.0
9.200000000000001 1.8 0.0
9.600000000000001 1.8 0.0
10.0 1.8 0.0
10.4 1.8 0.0
10.8 1.8 0.0
11.200000000000001 1.8 0.0
11.600000000000001 1.8 0.0
12.0 1.8 0.0
12.4 1.8 0.0
12.8 1.8 0.0
13.200000000000001 1.8 0.0
13.600000000000001 1.8 0.0
14.0 1.8 0.0
14.4 1.8 0.0
14.8 1.8 0.0
15.200000000000001 1.8 0.0
15.600000000000001 1.8 0.0
16.0 1.8 0.0
0.0 1.9000000000000001 0.0
0.4 1.9000000000000001 0.0
0.8 1.9000000000000001 0.0
1.2000000000000002 1.9000000000000001 0.0
1.6 1.9000000000000001 0.0
2.0 1.9000000000000001 0.0
2.4000000000000004 1.9000000000000001 0.0
2.8000000000000003 1.9000000000000001 0.0
3.2 1.9000000000000001 0.0
3.6 1.9000000000000001 0.0
4.0 1.9000000000000001 0.0
4.4 1.9000000000000001 0.0
4.800000000000001 1.9000000000000001 0.0
5.2 1.9000000000000001 0.0
5.6000000000000005 1.9000000000000001 0.0
6.0 1.9000000000000001 0.0
6.4 1.9000000000000001 0.0
6.800000000000001 1.9000000000000001 0.0
7.2 1.9000000000000001 0.0
7.6000000000000005 1.9000000000000001 0.0
8.0 1.9000000000000001 0.0
8.4 1.9000000000000001 0.0
8.8 1.9000000000000001 0.0
9.200000000000001 1.9000000000000001 0.0
9.600000000000001 1.9000000000000001 0.0
10.0 1.9000000000000001 0.0
10.4 1.9000000000000001 0.0
10.8 1.9000000000000001 0.0
11.200000000000001 1.9000000000000001 0.0
11.600000000000001 1.9000000000000001 0.0
12.0 1.9000000000000001 0.0
12.4 1.9000000000000001 0.0
12.8 1.9000000000000001 0.0
13.200000000000001 1.9000000000000001 0.0
13.600000000000001 1.9000000000000001 0.0
14.0 1.9000000000000001 0.0
14.4 1.9000000000000001 0.0
14.8 1.9000000000000001 0.0
15.200000000000001 1.9000000000000001 0.0
15.600000000000001 1.9000000000000001 0.0
16.0 1.9000000000000001 0.0
0.0 2.0 0.0
0.4 2.0 0.0
0.8 2.0 0.0
1.2000000000000002 2.0 0.0
1.6 2.0 0.0
2.0 2.0 0.0
2.4000000000000004 2.0 0.0
2.8000000000000003 2.0 0.0
3.2 2.0 0.0
3.6 2.0 0.0
4.0 2.0 0.0
4.4 2.0 0.0
4.800000000000001 2.0 0.0
5.2 2.0 0.0
5.6000000000000005 2.0 0.0
6.0 2.0 0.0
6.4 2.0 0.0
6.800000000000001 2.0 0.0
7.2 2.0 0.0
7.6000000000000005 2.0 0.0
8.0 2.0 0.0
8.4 2.0 0.0
8.8 2.0 0.0
9.200000000000001 2.0 0.0
9.600000000000001 2.0 0.0
10.0 2.0 0.0
10.4 2.0 0.0
10.8 2.0 0.0
11.200000000000001 2.0 0.0
11.600000000000001 2.0 0.0
12.0 2.0 0.0
12.4 2.0 0.0
12.8 2.0 0.0
13.200000000000001 2.0 0.0
13.600000000000001 2.0 0.0
14.0 2.0 0.0
14.4 2.0 0.0
14.8 2.0 0.0
15.200000000000001 2.0 0.0
15.600000000000001 2.0 0.0
16.0 2.0 0.0
CELLS 800 4000
4 0 1 42 41
4 1 2 43 42
4 2 3 44 43
4 3 4 45 44
4 4 5 46 45
4 5 6 47 46
4 6 7 48 47
4 7 8 49 48
4 8 9 50 49
4 9 10 51 50
4 10 11 52 51
4 11 12 53 52
4 12 13 54 53
4 13 14 55 54
4 14 15 56 55
4 15 16 57 56
4 16 17 58 57
4 17 18 59 58
4 18 19 60 59
4 19 20 61 60
4 20 21 62 61
4 21 22 63 62
4 22 23 64 63
4 23 24 65 64
4 24 25 66 65
4 25 26 67 66
4 26 27 68 67
4 27 28 69 68
4 28 29 70 69
4 29 30 71 70
4 30 31 72 71
4 31 32 73 72
4 32 33 74 73
4 33 34 75 74
4 34 35 76 75
4 35 36 77 76
4 36 37 78 77
4 37 38 79 78
4 38 39 80 79
4 39 40 81 80
4 41 42 83 82
4 42 43 84 83
4 43 44 85 84
4 44 45 86 85
4 45 46 87 86
4 46 47 88 87
4 47 48 89 88
4 48 49 90 89
4 49 50 91 90
4 50 51 92 91
4 51 52 93 92
4 52 53 94 93
4 53 54 95 94
4 54 55 96 95
4 55 56 97 96
4 56 57 98 97
4 57 58 99 98
4 58 59 100 99
4 59 60 101 100
4 60 61 102 101
4 61 62 103 102
4 62 63 104 103
4 63 64 105 104
4 64 65 106 105
4 65 66 107 106
4 66 67 108 107
4 67 68 109 108
4 68 69 110 109
4 69 70 111 110
4 70 71 112 111
4 71 72 113 112
4 72 73 114 113
4 73 74 115 114
4 74 75 116 115
4 75 76 117 116
4 76 77 118 117
4 77 78 119 118
4 78 79 120 119
4 79 80 121 120
4 80 81 122 121
4 82 83 124 123
4 83 84 125 124
4 84 85 126 125
4 85 86 127 126
4 86 87 128 127
4 87 88 129 128
4 88 89 130 129
4 89 90 131 130
4 90 91 132 131
4 91 92 133 132
4 92 93 134 133
4 93 94 135 134
4 94 95 136 135
4 95 96 137 136
4 96 97 138 137
4 97 98 139 138
4 98 99 140 139
4 99 100 141 140
4 100 101 142 141
4 101 102 143 142
4 102 103 144 143
4 103 104 145 144
4 104 105 146 145
4 105 106 147 146
4 106 107 148 147
4 107 108 149 148
4 108 109 150 149
4 109 110 151 150
4 110 111 152 151
4 111 112 153 152
4 112 113 154 153
4 113 114 155 154
4 114 115 156 155
4 115 116 157 156
4 116 117 158 157
4 117 118 159 158
4 118 119 160 159
4 119 120 161 160
4 120 121 162 161
4 121 122 163 162
4 123 124 165 164
4 124 125 166 165
4 125 126 167 166
4 126 127 168 167
4 127 128 169 168
4 128 129 170 169
4 129 130 171 170
4 130 131 172 171
4 131 132 173 172
4 132 133 174 173
4 133 134 175 174
4 134 135 176 175
4 135 136 177 176
4 136 137 178 177
4 137 138 179 178
4 138 139 180 179
4 139 140 181 180
4 140 141 182 181
4 141 142 183 182
4 142 143 184 183
4 143 144 185 184
4 144 145 186 185
4 145 146 187 186
4 146 147 188 187
4 147 148 189 188
4 148 149 190 189
4 149 150 191 190
4 150 151 192 191
4 151 152 193 192
4 152 153 194 193
4 153 154 195 194
4 154 155 196 195
4 155 156 197 196
4 156 157 198 197
4 157 158 199 198
4 158 159 200 199
4 159 160 201 200
4 160 161 202 201
4 161 162 203 202
4 162 163 204 203
4 164 165 206 205
4 165 166 207 206
4 166 167 208 207
4 167 168 209 208
4 168 169 210 209
4 169 170 211 210
4 170 171 212 211
4 171 172 213 212
4 172 173 214 213
4 173 174 215 214
4 174 175 216 215
4 175 176 217 216
4 176 177 218 217
4 177 178 219 218
4 178 179 220 219
4 179 180 221 220
4 180 181 222 221
4 181 182 223 222
4 182 183 224 223
4 183 184 225 224
4 184 185 226 225
4 185 186 227 226
4 186 187 228 227
4 187 188 229 228
4 188 189 230 229
4 189 190 231 230
4 190 191 232 231
4 191 192 233 232
4 192 193 234 233
4 193 194 235 234
4 194 195 236 235
4 195 196 237 236
4 196 197 238 237
4 197 198 239 238
4 198 199 240 239
4 199 200 241 240
4 200 201 242 241
4 201 202 243 242
4 202 203 244 243
4 203 204 245 244
4 205 206 247 246
4 206 207 248 247
4 207 208 249 248
4 208 209 250 249
4 209 210 251 250
4 210 211 252 251
4 211 212 253 252
4 212 213 254 253
4 213 214 255 254
4 214 215 256 255
4 215 216 257 256
4 216 217 258 257
4 217 218 259 258
4 218 219 260 259
4 219 220 261 260
4 220 221 262 261
4 221 222 263 262
4 222 223 264 263
4 223 224 265 264
4 224 225 266 265
4 225 226 267 266
4 226 227 268 267
4 227 228 269 268
4 228 229 270 269
4 229 230 271 270
4 230 231 272 271
4 231 232 273 272
4 232 233 274 273
4 233 234 275 274
4 234 235 276 275
4 235 236 277 276
4 236 237 278 277
4 237 238 279 278
4 238 239 280 279
4 239 240 281 280
4 240 241 282 281
4 241 242 283 282
4 242 243 284 283
4 243 244 285 284
4 244 245 286 285
4 246 247 288 287
4 247 248 289 288
4 248 249 290 289
4 249 250 291 290
4 250 251 292 291
4 251 252 293 292
4 252 253 294 293
4 253 254 295 294
4 254 255 296 295
4 255 256 297 296
4 256 257 298 297
4 257 258 299 298
4 258 259 300 299
4 259 260 301 300
4 260 261 302 301
4 261 262 303 302
4 262 263 304 303
4 263 264 305 304
4 264 265 306 305
4 265 266 307 306
4 266 267 308 307
4 267 268 309 308
4 268 269 310 309
4 269 270 311 310
4 270 271 312 311
4 271 272 313 312
4 272 273 314 313
4 273 274 315 314
4 274 275 316 315
4 275 276 317 316
4 276 277 318 317
4 277 278 319 318
4 278 279 320 319
4 279 280 321 320
4 280 281 322 321
4 281 282 323 322
4 282 283 324 323
4 283 284 325 324
4 284 285 326 325
4 285 286 327 326
4 287 288 329 328
4 288 289 330 329
4 289 290 331 330
4 290 291 332 331
4 291 292 333 332
4 292 293 334 333
4 293 294 335 334
4 294 295 336 335
4 295 296 337 336
4 296 297 338 337
4 297 298 339 338
4 298 299 340 339
4 299 300 341 340
4 300 301 342 341
4 301 302 343 342
4 302 303 344 343
4 303 304 345 344
4 304 305 346 345
4 305 306 347 346
4 306 307 348 347
4 307 308 349 348
4 308 309 350 349
4 309 310 351 350
4 310 311 352 351
4 311 312 353 352
4 312 313 354 353
4 313 314 355 354
4 314 315 356 355
4 315 316 357 356
4 316 317 358 357
4 317 318 359 358
4 318 319 360 359
4 319 320 361 360
4 320 321 362 361
4 321 322 363 362
4 322 323 364 363
4 323 324 365 364
4 324 325 366 365
4 325 326 367 366
4 326 327 368 367
4 328 329 370 369
4 329 330 371 370
4 330 331 372 371
4 331 332 373 372
4 332 333 374 373
4 333 334 375 374
4 334 335 376 375
4 335 336 377 376
4 336 337 378 377
4 337 338 379 378
4 338 339 380 379
4 339 340 381 380
4 340 341 382 381
4 341 342 383 382
4 342 343 384 383
4 343 344 385 384
4 344 345 386 385
4 345 346 387 386
4 346 347 388 387
4 347 348 389 388
4 348 349 390 389
4 349 350 391 390
4 350 351 392 391
4 351 352 393 392
4 352 353 394 393
4 353 354 395 394
4 354 355 396 395
4 355 356 397 396
4 356 357 398 397
4 357 358 399 398
4 358 359 400 399
4 359 360 401 400
4 360 361 402 401
4 361 362 403 402
4 362 363 404 403
4 363 364 405 404
4 364 365 406 405
4 365 366 407 406
4 366 367 408 407
4 367 368 409 408
4 369 370 411 410
4 370 371 412 411
4 371 372 413 412
4 372 373 414 413
4 373 374 415 414
4 374 375 416 415
4 375 376 417 416
4 376 377 418 417
4 377 378 419 418
4 378 379 420 419
4 379 380 421 420
4 380 381 422 421
4 381 382 423 422
4 382 383 424 423
4 383 384 425 424
4 384 385 426 425
4 385 386 427 426
4 386 387 428 427
4 387 388 429 428
4 388 389 430 429
4 389 390 431 430
4 390 391 432 431
4 391 392 433 432
4 392 393 434 433
4 393 394 435 434
4 394 395 436 435
4 395 396 437 436
4 396 397 438 437
4 397 398 439 438
4 398 399 440 439
4 399 400 441 440
4 400 401 442 441
4 401 402 443 442
4 402 403 444 443
4 403 404 445 444
4 404 405 446 445
4 405 406 447 446
4 406 407 448 447
4 407 408 449 448
4 408 409 450 449
4 410 411 452 451
4 411 412 453 452
4 412 413 454 453
4 413 414 455 454
4 414 415 456 455
4 415 416 457 456
4 416 417 458 457
4 417 418 459 458
4 418 419 460 459
4 419 420 461 460
4 420 421 462 461
4 421 422 463 462
4 422 423 464 463
4 423 424 465 464
4 424 425 466 465
4 425 426 467 466
4 426 427 468 467
4 427 428 469 468
4 428 429 470 469
4 429 430 471 470
4 430 431 472 471
4 431 432 473 472
4 432 433 474 473
4 433 434 475 474
4 434 435 476 475
4 435 436 477 476
4 436 437 478 477
4 437 438 479 478
4 438 439 480 479
4 439 440 481 480
4 440 441 482 481
4 441 442 483 482
4 442 443 484 483
4 443 444 485 484
4 444 445 486 485
4 445 446 487 486
4 446 447 488 487
4 447 448 489 488
4 448 449 490 489
4 449 450 491 490
4 451 452 493 492
4 452 453 494 493
4 453 454 495 494
4 454 455 496 495
4 455 456 497 496
4 456 457 498 497
4 457 458 499 498
4 458 459 500 499
4 459 460 501 500
4 460 461 502 501
4 461 462 503 502
4 462 463 504 503
4 463 464 505 504
4 464 465 506 505
4 465 466 507 506
4 466 467 508 507
4 467 468 509 508
4 468 469 510 509
4 469 470 511 510
4 470 471 512 511
4 471 472 513 512
4 472 473 514 513
4 473 474 515 514
4 474 475 516 515
4 475 476 517 516
4 476 477 518 517
4 477 478 519 518
4 478 479 520 519
4 479 480 521 520
4 480 481 522 521
4 481 482 523 522
4 482 483 524 523
4 483 484 525 524
4 484 485 526 525
4 485 486 527 526
4 486 487 528 527
4 487 488 529 528
4 488 489 530 529
4 489 490 531 530
4 490 491 532 531
4 492 493 534 533
4 493 494 535 534
4 494 495 536 535
4 495 496 537 536
4 496 497 538 537
4 497 498 539 538
4 498 499 540 539
4 499 500 541 540
4 500 501 542 541
4 501 502 543 542
4 502 503 544 543
4 503 504 545 544
4 504 505 546 545
4 505 506 547 546
4 506 507 548 547
4 507 508 549 548
4 508 509 550 549
4 509 510 551 550
4 510 511 552 551
4 511 512 553 552
4 512 513 554 553
4 513 514 555 554
4 514 515 556 555
4 515 516 557 556
4 516 517 558 557
4 517 518 559 558
4 518 519 560 559
4 519 520 561 560
4 520 521 562 561
4 521 522 563 562
4 522 523 564 563
4 523 524 565 564
4 524 525 566 565
4 525 526 567 566
4 526 527 568 567
4 527 528 569 568
4 528 529 570 569
4 529 530 571 570
4 530 531 572 571
4 531 532 573 572
4 533 534 575 574
4 534 535 576 575
4 535 536 577 576
4 536 537 578 577
4 537 538 579 578
4 538 539 580 579
4 539 540 581 580
4 540 541 582 581
4 541 542 583 582
4 542 543 584 583
4 543 544 585 584
4 544 545 586 585
4 545 546 587 586
4 546 547 588 587
4 547 548 589 588
4 548 549 590 589
4 549 550 591 590
4 550 551 592 591
4 551 552 593 592
4 552 553 594 593
4 553 554 595 594
4 554 555 596 595
4 555 556 597 596
4 556 557 598 597
4 557 558 599 598
4 558 559 600 599
4 559 560 601 600
4 560 561 602 601
4 561 562 603 602
4 562 563 604 603
4 563 564 605 604
4 564 565 606 605
4 565 566 607 606
4 566 567 608 607
4 567 568 609 608
4 568 569 610 609
4 569 570 611 610
4 570 571 612 611
4 571 572 613 612
4 572 573 614 613
4 574 575 616 615
4 575 576 617 616
4 576 577 618 617
4 577 578 619 618
4 578 579 620 619
4 579 580 621 620
4 580 581 622 621
4 581 582 623 622
4 582 583 624 623
4 583 584 625 624
4 584 585 626 625
4 585 586 627 626
4 586 587 628 627
4 587 588 629 628
4 588 589 630 629
4 589 590 631 630
4 590 591 632 631
4 591 592 633 632
4 592 593 634 633
4 593 594 635 634
4 594 595 636 635
4 595 596 637 636
4 596 597 638 637
4 597 598 639 638
4 598 599 640 639
4 599 600 641 640
4 600 601 642 641
4 601 602 643 642
4 602 603 644 643
4 603 604 645 644
4 604 605 646 645
4 605 606 647 646
4 606 607 648 647
4 607 608 649 648
4 608 609 650 649
4 609 610 651 650
4 610 611 652 651
4 611 612 653 652
4 612 613 654 653
4 613 614 655 654
4 615 616 657 656
4 616 617 658 657
4 617 618 659 658
4 618 619 660 659
4 619 620 661 660
4 620 621 662 661
4 621 622 663 662
4 622 623 664 663
4 623 624 665 664
4 624 625 666 665
4 625 626 667 666
4 626 627 668 667
4 627 628 669 668
4 628 629 670 669
4 629 630 671 670
4 630 631 672 671
4 631 632 673 672
4 632 633 674 673
4 633 634 675 674
4 634 635 676 675
4 635 636 677 676
4 636 637 678 677
4 637 638 679 678
4 638 639 680 679
4 639 640 681 680
4 640 641 682 681
4 641 642 683 682
4 642 643 684 683
4 643 644 685 684
4 644 645 686 685
4 645 646 687 686
4 646 647 688 687
4 647 648 689 688
4 648 649 690 689
4 649 650 691 690
4 650 651 692 691
4 651 652 693 692
4 652 653 694 693
4 653 654 695 694
4 654 655 696 695
4 656 657 698 697
4 657 658 699 698
4 658 659 700 699
4 659 660 701 700
4 660 661 702 701
4 661 662 703 702
4 662 663 704 703
4 663 664 705 704
4 664 665 706 705
4 665 666 707 706
4 666 667 708 707
4 667 668 709 708
4 668 669 710 709
4 669 670 711 710
4 670 671 712 711
4 671 672 713 712
4 672 673 714 713
4 673 674 715 714
4 674 675 716 715
4 675 676 717 716
4 676 677 718 717
4 677 678 719 718
4 678 679 720 719
4 679 680 721 720
4 680 681 722 721
4 681 682 723 722
4 682 683 724 723
4 683 684 725 724
4 684 685 726 725
4 685 686 727 726
4 686 687 728 727
4 687 688 729 728
4 688 689 730 729
4 689 690 731 730
4 690 691 732 731
4 691 692 733 732
4 692 693 734 733
4 693 694 735 734
4 694 695 736 735
4 695 696 737 736
4 697 698 739 738
4 698 699 740 739
4 699 700 741 740
4 700 701 742 741
4 701 702 743 742
4 702 703 744 743
4 703 704 745 744
4 704 705 746 745
4 705 706 747 746
4 706 707 748 747
4 707 708 749 748
4 708 709 750 749
4 709 710 751 750
4 710 711 752 751
4 711 712 753 752
4 712 713 754 753
4 713 714 755 754
4 714 715 756 755
4 715 716 757 756
4 716 717 758 757
4 717 718 759 758
4 718 719 760 759
4 719 720 761 760
4 720 721 762 761
4 721 722 763 762
4 722 723 764 763
4 723 724 765 764
4 724 725 766 765
4 725 726 767 766
4 726 727 768 767
4 727 728 769 768
4 728 729 770 769
4 729 730 771 770
4 730 731 772 771
4 731 732 773 772
4 732 733 774 773
4 733 734 775 774
4 734 735 776 775
4 735 736 777 776
4 736 737 778 777
4 738 739 780 779
4 739 740 781 780
4 740 741 782 781
4 741 742 783 782
4 742 743 784 783
4 743 744 785 784
4 744 745 786 785
4 745 746 787 786
4 746 747 788 787
4 747 748 789 788
4 748 749 790 789
4 749 750 791 790
4 750 751 792 791
4 751 752 793 792
4 752 753 794 793
4 753 754 795 794
4 754 755 796 795
4 755 756 797 796
4 756 757 798 797
4 757 758 799 798
4 758 759 800 799
4 759 760 801 800
4 760 761 802 801
4 761 762 803 802
4 762 763 804 803
4 763 764 805 804
4 764 765 806 805
4 765 766 807 806
4 766 767 808 807
4 767 768 809 808
4 768 769 810 809
4 769 770 811 810
4 770 771 812 811
4 771 772 813 812
4 772 773 814 813
4 773 774 815 814
4 774 775 816 815
4 775 776 817 816
4 776 777 818 817
4 777 778 819 818
4 779 780 821 820
4 780 781 822 821
4 781 782 823 822
4 782 783 824 823
4 783 784 825 824
4 784 785 826 825
4 785 786 827 826
4 786 787 828 827
4 787 788 829 828
4 788 789 830 829
4 789 790 831 830
4 790 791 832 831
4 791 792 833 832
4 792 793 834 833
4 793 794 835 834
4 794 795 836 835
4 795 796 837 836
4 796 797 838 837
4 797 798 839 838
4 798 799 840 839
4 799 800 841 840
4 800 801 842 841
4 801 802 843 842
4 802 803 844 843
4 803 804 845 844
4 804 805 846 845
4 805 806 847 846
4 806 807 848 847
4 807 808 849 848
4 808 809 850 849
4 809 810 851 850
4 810 811 852 851
4 811 812 853 852
4 812 813 854 853
4 813 814 855 854
4 814 815 856 855
4 815 816 857 856
4 816 817 858 857
4 817 818 859 858
4 818 819 860 859
CELL_TYPES 800
9
9
9
9
9
9
9
9
9
9
9
9
9
9
9
9
9
9
9
9
9
9
9
9
9
9
9
9
9
9
9
9
9
9
9
9
9
9
9
9
9
9
9
9
9
9
9
9
9
9
9
9
9
9
9
9
9
9
9
9
9
9
9
9
9
9
9
9
9
9
9
9
9
9
9
9
9
9
9
9
9
9
9
9
9
9
9
9
9
9
9
9
9
9
9
9
9
9
9
9
9
9
9
9
9
9
9
9
9
9
9
9
9
9
9
9
9
9
9
9
9
9
9
9
9
9
9
9
9
9
9
9
9
9
9
9
9
9
9
9
9
9
9
9
9
9
9
9
9
9
9
9
9
9
9
9
9
9
9
9
9
9
9
9
9
9
9
9
9
9
9
9
9
9
9
9
9
9
9
9
9
9
9
9
9
9
9
9
9
9
9
9
9
9
9
9
9
9
9
9
9
9
9
9
9
9
9
9
9
9
9
9
9
9
9
9
9
9
9
9
9
9
9
9
9
9
9
9
9
9
9
9
9
9
9
9
9
9
9
9
9
9
9
9
9
9
9
9
9
9
9
9
9
9
9
9
9
9
9
9
9
9
9
9
9
9
9
9
9
9
9
9
9
9
9
9
9
9
9
9
9
9
9
9
9
9
9
9
9
9
9
9
9
9
9
9
9
9
9
9
9
9
9
9
9
9
9
9
9
9
9
9
9
9
9
9
9
9
9
9
9
9
9
9
9
9
9
9
9
9
9
9
9
9
9
9
9
9
9
9
9
9
9
9
9
9
9
9
9
9
9
9
9
9
9
9
9
9
9
9
9
9
9
9
9
9
9
9
9
9
9
9
9
9
9
9
9
9
9
9
9
9
9
9
9
9
9
9
9
9
9
9
9
9
9
9
9
9
9
9
9
9
9
9
9
9
9
9
9
9
9
9
9
9
9
9
9
9
9
9
9
9
9
9
9
9
9
9
9
9
9
9
9
9
9
9
9
9
9
9
9
9
9
9
9
9
9
9
9
9
9
9
9
9
9
9
9
9
9
9
9
9
9
9
9
9
9
9
9
9
9
9
9
9
9
9
9
9
9
9
9
9
9
9
9
9
9
9
9
9
9
9
9
9
9
9
9
9
9
9
9
9
9
9
9
9
9
9
9
9
9
9
9
9
9
9
9
9
9
9
9
9
9
9
9
9
9
9
9
9
9
9
9
9
9
9
9
9
9
9
9
9
9
9
9
9
9
9
9
9
9
9
9
9
9
9
9
9
9
9
9
9
9
9
9
9
9
9
9
9
9
9
9
9
9
9
9
9
9
9
9
9
9
9
9
9
9
9
9
9
9
9
9
9
9
9
9
9
9
9
9
9
9
9
9
9
9
9
9
9
9
9
9
9
9
9
9
9
9
9
9
9
9
9
9
9
9
9
9
9
9
9
9
9
9
9
9
9
9
9
9
9
9
9
9
9
9
9
9
9
9
9
9
9
9
9
9
9
9
9
9
9
9
9
9
9
9
9
9
9
9
9
9
9
9
9
9
9
9
9
9
9
9
9
9
9
9
9
9
9
9
9
9
9
9
9
9
9
9
9
9
9
9
9
9
9
9
9
9
9
9
9
9
9
9
9
9
9
9
9
9
9
9
9
9
9
9
9
9
9
9
9
9
9
9
9
9
9
9
9
9
9
9
9
9
9
9
9
9
9
9
9
9
9
9
9
9
9
9
9
9
9
9
9
9
9
9
9
9
9
9
9
9
9
9
9
9
9
9
9
9
9
9
9
9
9
9
9
9
9
9
9
9
9
9
9
9
9
9
9
POINT_DATA 861
SCALARS Disp float 2
LOOKUP_TABLE default
0.0 0.0
0.005859346631710567 -0.25570783687705906
0.00720038966535577 -0.5021322841639495
0.007988480806615563 -0.7474932506895144
0.009010790523289488 -0.9924839527586428
0.010675334717675816 -1.236685701476503
0.013615531917433222 -1.479540412448462
0.01860641291592174 -1.7203449380830897
0.026560871660052755 -1.9582197018480128
0.03847427839065107 -2.192018217171409
0.055339806944345586 -2.4201929491564558
0.07809205264629109 -2.6407153252484004
0.10758075922719523 -2.8511043535736116
0.14456192647717286 -3.0485432945867137
0.18969438958544188 -3.2299643324845655
0.24347214006942156 -3.3921158127416504
0.3061021841949778 -3.5316486199948387
0.3773580190218325 -3.6452555429349376
0.45645470719452863 -3.7298976475897443
0.5419978481166302 -3.7830518573541587
0.631772353040069 -3.803004621067572
0.7215468579635022 -3.783051857354039
0.8070899988855856 -3.729897647589502
0.8861866870582509 -3.6452555429345868
0.9574425218850657 -3.531648619994398
1.0200725660105785 -3.3921158127411473
1.073850316494515 -3.229964332484015
1.1189827796027407 -3.0485432945861293
1.1559639468526757 -2.851104353573014
1.1854526534335381 -2.640715325247807
1.2082048991354468 -2.420192949155883
1.225070427689111 -2.19201821717087
1.2369838344196848 -1.958219701847515
1.2449382931637987 -1.7203449380826412
1.2499291741622756 -1.4795404124480662
1.2528693713620254 -1.2366857014761676
1.2545339155564084 -0.9924839527583681
1.2555562252730814 -0.7474932506893044
1.256344316414341 -0.5021322841638024
1.2576853594479847 -0.25570783687697796
1.263544706079692 0.0
0.06378259701545849 -0.0024346441335345195
0.06788689484717164 -0.2559777574882862
0.06858532482745637 -0.5021945280844945
0.0692835389501927 -0.747583280524184
0.07017925001842165 -0.9926314805528873
0.07159297394282663 -1.2370144744662632
0.0741201258526856 -1.480225005414104
0.07849254363307649 -1.7215940648971828
0.08556758262820367 -1.9602666675124907
0.09625418880167386 -2.195100751010385
0.11143856965636294 -2.424537686414289
0.1319393973264837 -2.646530705440831
0.15850577826191592 -2.8585800111391566
0.19182499368512354 -3.0578493855541926
0.2324987113626088 -3.241243931974113
0.28098773562752044 -3.4054619364482015
0.33750264262626983 -3.5470707882069754
0.4018735578580407 -3.662645833801953
0.4734296603288262 -3.7490034042839904
0.5508474747815508 -3.8034499286294134
0.6317723530400542 -3.8239372448761735
0.7126972312985521 -3.803449928629291
0.7901150457512599 -3.7490034042837417
0.8616711482220185 -3.6626458338015935
0.9260420634537546 -3.547070788206525
0.9825569704524655 -3.405461936447688
1.0310459947173378 -3.2412439319735515
1.0717197123947841 -3.0578493855535984
1.1050389278179533 -2.8585800111385486
1.1316053087533482 -2.6465307054402287
1.1521061364234357 -2.4245376864137085
1.167290517278097 -2.19510075100984
1.1779771234515453 -1.9602666675119884
1.1850521624466568 -1.7215940648967305
1.1894245802270371 -1.4802250054137063
1.1919517321368898 -1.2370144744659268
1.1933654560612919 -0.9926314805526124
1.1942611671295202 -0.7475832805239739
1.1949593812522565 -0.5021945280843474
1.1956578112325411 -0.25597775748820467
1.1997621090642487 -0.0024346441335320254
0.12657686026181475 -0.004369325005237558
0.1295903217420065 -0.2561118865040082
0.12999005886153073 -0.5022271463862292
0.13055948797457975 -0.7476625234924943
0.1313386241233464 -0.9927489266937234
0.1325269702616752 -1.2372745829342566
0.13465116975653973 -1.4807920507690298
0.1384080252579755 -1.72266576007129
0.14458840280682309 -1.9620597036275693
0.15401765680891613 -2.197829695557075
0.1674800542904526 -2.4284021539294955
0.18568832894689347 -2.651712224830585
0.20929317085143584 -2.8652462453624286
0.23890090004180553 -3.0661549443757514
0.2750603990474538 -3.2513202659138356
0.318200361545763 -3.4173981825512034
0.36854533025966985 -3.560885203847089
0.4259985490220971 -3.6782531161410086
0.48999347958588385 -3.7661795307664603
0.559273931517075 -3.821765821219945
0.6317723530400399 -3.8427346575223855
0.7042707745629997 -3.82176582121982
0.7735512264941755 -3.7661795307662063
0.8375461570579383 -3.6782531161406418
0.8949993758203355 -3.56088520384663
0.9453443445342085 -3.417398182550681
0.9884843070324825 -3.2513202659132654
1.024643806038096 -3.066154944375149
1.0542515352284312 -2.865246245361812
1.077856377132941 -2.651712224829975
1.0960646517893522 -2.428402153928908
1.109527049270864 -2.1978296955565244
1.1189563032729373 -1.9620597036270626
1.1251366808217707 -1.7226657600708348
1.128893536323197 -1.4807920507686303
1.1310177358180564 -1.2372745829339196
1.132206081956383 -0.9927489266934483
1.1329852181051492 -0.747662523492284
1.1335546472181983 -0.5022271463860822
1.1339543843377224 -0.25611188650392624
1.1369678458179087 -0.004369325005232316
0.18884928481674926 -0.005925017008529749
0.19112904598141686 -0.2562033613188232
0.19137264602151194 -0.5022451055555393
0.19181803081911192 -0.74772650089444
0.19248394715000777 -0.9928444221780606
0.1934740157229357 -1.2374741639276703
0.19521869845020465 -1.481245599723737
0.19836741831430005 -1.7235610999908475
0.2036480311435167 -1.9635954638861481
0.21180212504260362 -2.200198802864649
0.22351681547171276 -2.4317786546530518
0.23940317842988415 -2.656252627586057
0.2600177748485868 -2.8710956226978257
0.28588472645730223 -3.0734501113054042
0.31748877577474727 -3.2601817105682014
0.35523363360213694 -3.4279125029124358
0.3993618859018221 -3.573081430628602
0.44984868884744955 -3.692070071713116
0.5062395768773328 -3.7814187359277636
0.5674641331894759 -3.838045644419892
0.631772353040026 -3.8595006955476525
0.6960805728905716 -3.8380456444197644
0.7573051292027009 -3.7814187359275055
0.8136960172325627 -3.692070071712743
0.864182820178164 -3.573081430628136
0.9083110724778197 -3.427912502911906
0.9460559303051784 -3.260181710567623
0.9776599796225929 -3.073450111304793
1.003526931231278 -2.8710956226972018
1.0241415276499524 -2.65625262758544
1.040027890608098 -2.4317786546524576
1.0517425810371854 -2.2001988028640933
1.0598966749362548 -1.9635954638856377
1.0651772877654588 -1.7235610999903899
1.0683260076295464 -1.481245599723336
1.0700706903568111 -1.2374741639273326
1.0710607589297374 -0.9928444221777853
1.0717266752606331 -0.7477265008942298
1.0721720600582332 -0.5022451055553921
1.0724156600983281 -0.2562033613187409
1.074695421262991 -0.005925017008522001
0.25082415506250844 -0.007182744523238287
0.2525550971567033 -0.2562744774862539
0.252713950622023 -0.5022554152309392
0.25305490815889026 -0.7477760992697196
0.2536115112926081 -0.9929221138649468
0.25442634251868196 -1.2376251483344842
0.2558295360526685 -1.4815937621188549
0.25838437294201366 -1.7242830212838423
0.2627714082405488 -1.964874069991167
0.2696451210206003 -2.2022053511953064
0.2795998425901561 -2.4346633929843096
0.29314966435018386 -2.660147483714153
0.31075657173367893 -2.8761236652563382
0.33286368844567293 -3.079729988361836
0.3598953642103235 -3.26782129573644
0.3922168963888364 -3.436996017168251
0.43008516587097245 -3.583648705704664
0.47354932966765406 -3.704084110109782
0.5223012030114206 -3.7947221765836763
0.575514685467366 -3.852324079323448
0.6317723530400124 -3.87429230368802
0.6880300206126546 -3.852324079323319
0.7412435030685877 -3.794722176583414
0.7899953764123352 -3.7040841101094033
0.8334595402089946 -3.583648705704192
0.8713278096911051 -3.436996017167714
0.9036493418695911 -3.267821295735854
0.9306810176342154 -3.0797299883612186
0.9527881343461837 -2.876123665255707
0.9703950417296545 -2.660147483713529
0.9839448634896606 -2.43466339298371
0.9938995850591975 -2.2022053511947464
1.000773297839234 -1.964874069990653
1.0051603331377583 -1.7242830212833824
1.007715170027097 -1.4815937621184525
1.0091183635610803 -1.2376251483341463
1.009933194787153 -0.9929221138646717
1.010489797920871 -0.7477760992695093
1.010830755457738 -0.5022554152307922
1.0109896089230577 -0.25627447748617127
1.0127205510172483 -0.0071827445232283075
0.3126025809870753 -0.008193590727194342
0.3139025184558191 -0.2563328703565331
0.31401216569346835 -0.5022628051008761
0.3142670670656056 -0.747812862619863
0.3147171065803167 -0.9929851793618113
0.3153778545386273 -1.2377381880723695
0.31647644884029436 -1.4818499812665409
0.3184790388289227 -1.724837581334215
0.3219835803509861 -1.9658985215459281
0.32758426458686035 -2.2038503632803663
0.3357801844336105 -2.437055962264592
0.34699139591673084 -2.6633961332838183
0.3615887725697415 -2.8803293797196554
0.37993317513465186 -3.0849931691283508
0.4023843064794025 -3.2742374599373187
0.4292751858880901 -3.444644339256006
0.46085811917011543 -3.592576909242339
0.4972455811828341 -3.7142826097569
0.5383066866020649 -3.806086873115022
0.5835040614098097 -3.864618572702531
0.6317723530399986 -3.887143242143981
0.680040644670184 -3.8646185727023994
0.7252380194779177 -3.806086873114756
0.7662991248971327 -3.7142826097565163
0.8026865869098326 -3.5925769092418616
0.8342695201918361 -3.4446443392554635
0.861160399600501 -3.2742374599367268
0.88361153094523 -3.0849931691277277
0.9019559335101189 -2.8803293797190186
0.9165533101631096 -2.6633961332831886
0.9277645216462116 -2.4370559622639885
0.935960441492946 -2.2038503632798023
0.941561125728808 -1.9658985215454117
0.9450656672508625 -1.7248375813337533
0.9470682572394857 -1.4818499812661377
0.9481668515411503 -1.2377381880720313
0.9488275994994604 -0.9929851793615361
0.9492776390141713 -0.7478128626196527
0.9495325403863085 -0.5022628051007291
0.9496421876239577 -0.25633287035645025
0.9509421250926982 -0.008193590727182476
0.37423757602372554 -0.008996627220874217
0.3751946713014645 -0.2563814872546956
0.3752724990822454 -0.5022696642551598
0.3754542888778876 -0.7478382472200296
0.37579950080115393 -0.9930353197004341
0.3763210179168332 -1.237822214627221
0.37715035578197414 -1.4820303279043006
0.3786495199460149 -1.7252394168401823
0.38131353105871113 -1.9666753518621178
0.3856580355482066 -2.205138331298951
0.39210980255512207 -2.4389598765959666
0.4009942601258004 -2.66600158754081
0.41259333438935175 -2.883715879928094
0.42718706683801627 -3.089242691199771
0.4450703069594133 -3.279432194610448
0.46653322581849427 -3.450857820070228
0.4918217079071658 -3.5998606697589266
0.5210962492100648 -3.722652999737602
0.5543957424063495 -3.815501057259224
0.5915106795623144 -3.87492913445184
0.6317723530399844 -3.8980681056542994
0.6720340265176521 -3.8749291344517065
0.7091489636736074 -3.8155010572589547
0.7424484568698793 -3.7226529997372144
0.7717229981727626 -3.5998606697584448
0.7970114802614164 -3.4508578200696807
0.8184743991204789 -3.2794321946098517
0.8363576392418587 -3.0892426911991424
0.8509513716905066 -2.8837158799274523
0.8625504459540421 -2.666001587540176
0.8714349035247057 -2.438959876595359
0.8778866705316087 -2.205138331298384
0.8822311750210944 -1.966675351861599
0.884895186133784 -1.725239416839719
0.8863943502978209 -1.482030327903897
0.8872236881629603 -1.2378222146268825
0.887745205278639 -0.9930353197001589
0.8880904172019052 -0.7478382472198193
0.8882722069975473 -0.5022696642550128
0.8883500347783282 -0.2563814872546126
0.8893071300560645 -0.008996627220860792
0.43576453833216733 -0.009623275690443966
0.4364490060206431 -0.256422584570849
0.4365024741339293 -0.5022764966779598
0.4366184346094929 -0.7478535508054336
0.4368603497602797 -0.9930725150552144
0.43724823263723694 -1.2378841289023923
0.43784566698999455 -1.4821501191127258
0.438891444724544 -1.725508344694024
0.4407745646652282 -1.967219894331896
0.44390867517571697 -2.2060782764238844
0.4486429729696024 -2.44038251848924
0.4552244359393842 -2.667970950532554
0.46385181795884256 -2.886290772997799
0.47472329933571095 -3.092486273122688
0.4880639458587523 -3.283412598640397
0.5041207123815575 -3.4556413599204636
0.5231258685119607 -3.6055001395462343
0.5452647896960977 -3.7291850853305197
0.5707202200854157 -3.8229438402551086
0.5996232683277506 -3.883236636299662
0.63177235303997 -3.9070620193520478
0.663921437752188 -3.8832366362995265
0.6928244859945156 -3.8229438402548364
0.7182799163838236 -3.729185085330129
0.740418837567948 -3.605500139545749
0.7594239936983376 -3.455641359919912
0.7754807602211287 -3.283412598639797
0.7888214067441573 -3.092486273122056
0.7996928881210137 -2.886290772997154
0.8083202701404604 -2.6679709505319167
0.8149017331102311 -2.4403825184886303
0.8196360309041073 -2.206078276423315
0.8227701414145892 -1.9672198943313757
0.8246532613552686 -1.7255083446935595
0.8256990390898155 -1.4821501191123216
0.8262964734425721 -1.2378841289020537
0.826684356319529 -0.9930725150549393
0.8269262714703157 -0.7478535508052234
0.8270422319458793 -0.5022764966778128
0.8270957000591653 -0.25642258457076583
0.8277801677476393 -0.009623275690429303
0.49720514776625263 -0.010103058625028404
0.4976817215843634 -0.2564581731516247
0.49770902422328295 -0.502282481849093
0.4977627365421593 -0.7478598019782983
0.49790386266086845 -0.9930960956742072
0.49815582578240997 -1.2379274935895184
0.4985471589054939 -1.4822253703202326
0.499199115326747 -1.7256679646428956
0.5003710127339189 -1.967556362444815
0.5023651929808318 -2.206688584137589
0.5054354263323927 -2.4413371089423457
0.5097552054709222 -2.6693165432577133
0.5154490838456377 -2.8880669236343923
0.5226410653515728 -3.0947374222959074
0.5314832774851054 -3.286191143317287
0.5421677443727919 -3.4590053644544065
0.5549136545702209 -3.6095032668719766
0.5699315368266978 -3.7338745662846864
0.5874652970182574 -3.828387129848438
0.6079533341065404 -3.889500274698111
0.6317723530399554 -3.914098268143987
0.6555913719733691 -3.8895002746979745
0.6760794090616475 -3.8283871298481644
0.6936131692531998 -3.733874566284293
0.7086310515096679 -3.6095032668714895
0.7213769617070872 -3.4590053644538523
0.7320614285947644 -3.286191143316684
0.740903640728289 -3.0947374222952733
0.7480956222342166 -2.8880669236337453
0.753789500608925 -2.669316543257074
0.7581092797474472 -2.4413371089417337
0.7611795130990019 -2.2066885841370185
0.7631736933459109 -1.9675563624442933
0.7643455907530797 -1.7256679646424307
0.7649975471743314 -1.4822253703198285
0.7653888802974149 -1.2379274935891795
0.7656408434189561 -0.9930960956739319
0.7657819695376652 -0.7478598019780881
0.7658356818565416 -0.502282481848946
0.765862984495461 -0.2564581731515416
0.7663395583135705 -0.010103058625012777
0.5585747470593525 -0.010465635591935816
0.5589023628383772 -0.2564908069422009
0.5588985496630268 -0.5022858327952395
0.5588913142493043 -0.7478577613273916
0.5589345248667247 -0.9931058472558923
0.5590469849605659 -1.2379521267259417
0.5592396630159769 -1.4822680189592574
0.559554338201933 -1.7257465841567718
0.5600988180029456 -1.9677197768526993
0.5610447649880286 -2.207001263782955
0.5625315541287488 -2.4418496486965284
0.5646553804791942 -2.6700605302129667
0.567469698946312 -2.889065444194734
0.5710347249623997 -3.096018188619969
0.5754342976902527 -3.2877894952472215
0.5807942475381153 -3.4609678025756585
0.5873050099315595 -3.611885047280328
0.5952205576716514 -3.73673339892432
0.6048369514620549 -3.8318087288824887
0.6166720316537941 -3.8936537974377994
0.6317723530399402 -3.919118979422038
0.6468726744260856 -3.893653797437662
0.6587077546178233 -3.831808728882214
0.668324148408222 -3.7367333989239246
0.6762396961483083 -3.611885047279839
0.6827504585417481 -3.460967802575102
0.6881104083896062 -3.287789495246617
0.6925099811174562 -3.0960181886193334
0.6960750071335409 -2.8890654441940855
0.6988893256006556 -2.6700605302123264
0.7010131519510979 -2.441849648695915
0.7024999410918156 -2.207001263782383
0.7034458880768969 -1.9677197768521772
0.7039903678779081 -1.7257465841563069
0.7043050430638637 -1.482268018958853
0.7044977211192744 -1.2379521267256028
0.7046101812131158 -0.993105847255617
0.7046533918305361 -0.7478577613271814
0.7046461564168136 -0.5022858327950924
0.7046423432414629 -0.2564908069421178
0.704969959020487 -0.010465635591919467
0.6198904619096081 -0.010736694991930784
0.6201131513553073 -0.2565233828212815
0.620076121738413 -0.502284707464983
0.62000869789432 -0.7478479142467133
0.6199565258316732 -0.9931019009415295
0.6199298334926048 -1.2379571935362688
0.6199196127269421 -1.4822814365399377
0.61991604644997 -1.7257703788297145
0.619914868215348 -1.9677628972683525
0.6199148231416212 -2.2070802814168995
0.6199149663035264 -2.441980421104516
0.6199138125633681 -2.670256530330407
0.6199056498267043 -2.889337303444441
0.6198875141558972 -3.0963776327053467
0.6198729716109668 -3.288254863064633
0.6199251444043548 -3.4615709712927263
0.6202022879058673 -3.6126804571147035
0.6210075007905864 -3.737799838323501
0.6227670728209088 -3.833239811723639
0.6259556401523918 -3.8956350169354788
0.6317723530399243 -3.922027064195654
0.6375890659274577 -3.895635016935342
0.6407776332589401 -3.833239811723364
0.6425372052892611 -3.737799838323105
0.6433424181739799 -3.612680457114214
0.643619561675493 -3.461570971292169
0.6436717344688817 -3.288254863064028
0.6436571919239525 -3.0963776327047112
0.6436390562531471 -2.8893373034437926
0.643630893516485 -2.6702565303297665
0.643629739776328 -2.4419804211039025
0.643629882938234 -2.2070802814163275
0.6436298378645077 -1.9677628972678305
0.6436286596298859 -1.7257703788292493
0.6436250933529141 -1.4822814365395331
0.6436148725872514 -1.2379571935359301
0.643588180248183 -0.9931019009412543
0.6435360081855362 -0.7478479142465031
0.6434685843414434 -0.5022847074648358
0.6434315547245488 -0.2565233828211985
0.6436542441702477 -0.010736694991913976
0.6811633929790858 -0.01094125004128008
0.68131352929845 -0.256556175086078
0.6812459767624464 -0.5022785490079109
0.6811199361823419 -0.7478304269355287
0.6809751095370512 -0.9930846631952699
0.6808114372483233 -1.2379424868601103
0.6805988644809642 -1.482265469241114
0.6802770142354866 -1.725745883331509
0.6797304902243043 -1.9677196265756913
0.6787848084952746 -2.2070012788784075
0.6772986731822499 -2.4418496070116746
0.6751711514813156 -2.670058414491922
0.6723397354613824 -2.8890591871445603
0.6687393406315881 -3.0960090029469276
0.6643146692959033 -3.2877926447809775
0.6590645771952429 -3.4610306805329762
0.6531009459344587 -3.6121091833029055
0.6467136415911262 -3.737287777695318
0.6403666112434553 -3.8328834329401382
0.6347299961005672 -3.8955590079782842
0.6317723530399084 -3.9229215596575346
0.6288147099792493 -3.895559007978147
0.6231780948363616 -3.832883432939863
0.616831064488694 -3.737287777694923
0.6104437601453672 -3.612109183302417
0.6044801288845891 -3.4610306805324202
0.5992300367839343 -3.2877926447803736
0.5948053654482552 -3.0960090029462926
0.591204970618467 -2.8890591871439133
0.5883735545985403 -2.6700584144912822
0.5862460328976117 -2.441849607011062
0.5847598975845916 -2.207001278877836
0.5838142158555645 -1.9677196265751693
0.5832676918443839 -1.7257458833310437
0.5829458415989073 -1.4822654692407096
0.5827332688315484 -1.237942486859772
0.5825695965428208 -0.9930846631949948
0.5824247698975303 -0.7478304269353185
0.5822987293174258 -0.5022785490077638
0.5822311767814222 -0.25655617508599493
0.5823813131007862 -0.010941250041263064
0.7424056407198886 -0.011097541386772188
0.742506755840252 -0.25658735230085505
0.7424119440186581 -0.5022677539250273
0.7422302979426755 -0.7478054746651263
0.7419962085034195 -0.993054742265736
0.7416991722175562 -1.2379084540891396
0.741288689248303 -1.482220153160844
0.7406301100746161 -1.7256663911450885
0.7394574697055265 -1.9675561352719135
0.7374646235546485 -2.206688791292451
0.734394444634313 -2.441336651378948
0.7300701104970283 -2.6693119498601625
0.7243610729116536 -2.8880542205691992
0.7171397160018341 -3.0947194348175184
0.708280483247452 -3.2861989791856385
0.6977078007934471 -3.4591342215705003
0.6854811262199071 -3.6099509492010613
0.6718652004935801 -3.7349601347783987
0.6573975564534082 -3.830535730816768
0.6432376889283796 -3.8935393232207653
0.631772353039893 -3.9219765250658947
0.6203070171514063 -3.8935393232206277
0.6061471496263802 -3.830535730816494
0.5916795055862147 -3.7349601347780053
0.5780635798598975 -3.609950949200575
0.5658369052863687 -3.4591342215699465
0.5552642228323744 -3.286198979185036
0.5464049900780025 -3.0947194348168856
0.5391836331681936 -2.8880542205685544
0.5334745955828296 -2.669311949859525
0.5291502614455548 -2.4413366513783363
0.5260800825252276 -2.2066887912918802
0.5240872363743553 -1.9675561352713922
0.5229145960052689 -1.7256663911446237
0.5222560168315837 -1.4822201531604398
0.5218455338623312 -1.237908454088801
0.5215484975764684 -0.9930547422654609
0.5213144081372125 -0.747805474664916
0.52113276206123 -0.5022677539248802
0.5210379502396362 -0.25658735230077206
0.5211390653599995 -0.01109754138675497
0.8036346635075046 -0.011214171010456943
0.8036978422847669 -0.2566152867639278
0.8035788257624961 -0.50225278026952
0.8033451148474368 -0.747773442209777
0.8030255391783977 -0.9930129299361077
0.8026006359753521 -1.237856122781785
0.8019857016540757 -1.4821417027113055
0.8009352917839041 -1.7255061184233815
0.7990540736257765 -1.9672200194514164
0.7959214370720671 -2.2060786333072215
0.7911860551058306 -2.440381364273868
0.7845999898013517 -2.6679641404785563
0.7759631760121668 -2.8862733301173225
0.7650772534935675 -3.092462506150645
0.7517363892278678 -3.2834269085754793
0.735780164367106 -3.455829762602029
0.7171930982386144 -3.6061432389326926
0.6962309775149081 -3.7307482231213953
0.6736416658305212 -3.8261512674707925
0.6510312853769633 -3.88945474042594
0.6317723530398781 -3.9192439501681124
0.6125134207027935 -3.889454740425802
0.5899030402492402 -3.826151267470519
0.5673137285648622 -3.730748223121004
0.5463516078411698 -3.6061432389322094
0.5277645417126935 -3.455829762601479
0.511808316851947 -3.2834269085748797
0.4984674525862626 -3.092462506150015
0.4875815300676782 -2.8862733301166807
0.47894471627850815 -2.6679641404779213
0.47235865097404306 -2.4403813642732595
0.46762326900781825 -2.2060786333066527
0.46449063245411726 -1.9672200194508962
0.46260941429599484 -1.7255061184229172
0.4615590044258263 -1.4821417027109012
0.46094407010455113 -1.2378561227814466
0.46051916690150596 -0.9930129299358323
0.46019959123246723 -0.7477734422095668
0.45996588031740804 -0.5022527802693728
0.45984686379513723 -0.2566152867638448
0.4599100425723996 -0.011214171010439568
0.8648622337023412 -0.011297356880901084
0.8648930988015796 -0.25663850065790295
0.8647513958410162 -0.5022339190971822
0.8644690096056106 -0.7477348677345677
0.8640681749559935 -0.9929602468887085
0.8635198276248961 -1.2377855281686325
0.862675810566943 -1.4820186782897868
0.8611768021963899 -1.7252374621507158
0.858515915130381 -1.966676081975727
0.8541721231204412 -2.2051385818232245
0.8477179933272668 -2.4389577908595736
0.8388299089478164 -2.6659933168935184
0.8272305079443724 -2.8836969714713057
0.8126456495803668 -3.0892189500518343
0.794788349542592 -3.2794554930009006
0.7734037185583162 -3.4510903657461474
0.7483916276259024 -3.600651284444505
0.7200374214928467 -3.7246293095428338
0.6893367794492007 -3.8197244878493315
0.6585031170543617 -3.883383174181133
0.6317723530398631 -3.914813225383945
0.6050415890253666 -3.8833831741809965
0.5742079266305343 -3.81972448784906
0.5435072845869005 -3.724629309542445
0.5151530784538615 -3.6006512844440257
0.49014098752146695 -3.4510903657456016
0.46875635653721115 -3.279455493000305
0.45089905649945594 -3.0892189500512086
0.4363141981354699 -2.883696971470668
0.424714797132045 -2.665993316892887
0.4158267127526123 -2.438957790858969
0.409372582959453 -2.205138581822659
0.4050287909495242 -1.9666760819752083
0.4023679038835227 -1.7252374621502526
0.4008688955129741 -1.4820186782893832
0.40002487845502277 -1.2377855281682941
0.3994765311239261 -0.9929602468884334
0.3990756964743094 -0.7477348677343575
0.39879331023890385 -0.5022339190970351
0.3986516072783406 -0.25663850065782007
0.39868247237757903 -0.011297356880883576
0.9260959123445616 -0.011352771138957662
0.9260987035571975 -0.25665583663763775
0.9259349043281921 -0.5022112779200899
0.9256069715421137 -0.7476903267356304
0.9251301933797301 -0.9928979969279754
0.9244547822697387 -1.2376938933141006
0.9233484164160327 -1.481836242660177
0.921348296084049 -1.7248366403599906
0.9178468564719249 -1.9658997537145342
0.9122455956854754 -2.203850185004417
0.9040464891725496 -2.437052865780398
0.8928337305942641 -2.6633875666438223
0.8782471988239697 -2.8803133338451365
0.8599389953684774 -3.084977288919956
0.837546070913845 -3.274273415171877
0.8107180173352737 -3.4449030588092775
0.7792826033282959 -3.5934639903487637
0.7435614996659901 -3.71659951250498
0.7048354008362551 -3.8112788536703737
0.6659198659008254 -3.875372078633614
0.6317723530398486 -3.9087024949240177
0.5976248401788745 -3.8753720786334784
0.558709305243454 -3.811278853670105
0.5199832064137343 -3.7165995125045956
0.4842621027514483 -3.5934639903482903
0.4528266887444935 -3.444903058808737
0.42599863516594666 -3.2742734151712867
0.4036057107113385 -3.084977288919336
0.38529750725586964 -2.880313333844504
0.3707109754855987 -2.6633875666431956
0.3594982169073348 -2.4370528657797976
0.351299110394427 -2.2038501850038545
0.3456978496079915 -1.9658997537140181
0.342196409995877 -1.7248366403595288
0.3401962896638992 -1.481836242659774
0.3390899238101959 -1.2376938933137627
0.3384145127002054 -0.9928979969277004
0.33793773453782217 -0.7476903267354202
0.3376098017517439 -0.5022112779199428
0.33744600252273865 -0.25665583663755487
0.3374487937353746 -0.011352771138940055
0.9873409290220247 -0.01138586029231708
0.9873199824741284 -0.2566666263499776
0.9871348143263452 -0.5021848191133744
0.9867639178552193 -0.7476405262414239
0.9862143189928031 -0.9928265017558435
0.9853998311049786 -1.2375752273583764
0.9839966942892806 -1.4815793949945395
0.981445316323017 -1.7242831597550596
0.9770597308897003 -1.9648754850397603
0.9701841025683102 -2.20220446483509
0.960226075803594 -2.4346594445767376
0.9466782234798146 -2.6601401297203697
0.9290937274398059 -2.876114986421468
0.9070474983753025 -3.0797300980431457
0.8801087446628689 -3.267876016199175
0.847864657747051 -3.437270216943592
0.8100742876287399 -3.5845903622302107
0.7670857301750841 -3.7066752589754244
0.7204382833943733 -3.800836216232118
0.6734630122070282 -3.865425358929548
0.6317723530398341 -3.9008811976752185
0.5900816938726438 -3.8654253589294143
0.5431064226853102 -3.800836216231852
0.49645897590461774 -3.7066752589750442
0.45347041845098496 -3.584590362229743
0.4156800483327006 -3.4372702169430576
0.38343596141691166 -3.267876016198591
0.35649720770450616 -3.079730098042532
0.334450978640031 -2.876114986420842
0.3168664826000497 -2.660140129719749
0.3033186302762958 -2.434659444576142
0.2933606035116004 -2.2022044648345322
0.286484975190227 -1.9648754850392476
0.2820993897569221 -1.7242831597546
0.279548011790666 -1.4815793949941376
0.2781448749749714 -1.2375752273580387
0.2773303870871484 -0.9928265017555685
0.27678078822473245 -0.7476405262412136
0.2764098917536068 -0.5021848191132273
0.2762247236058238 -0.2566666263498947
0.2762037770579275 -0.011385860292299429
1.0486006666156884 -0.011402034852456604
1.0485613277368162 -0.256670714718148
1.048356663639507 -0.5021545418081949
1.0479450583592853 -0.7475860974512788
1.047322841085649 -0.9927452564564023
1.0463503942426757 -1.2374219928633081
1.0446119514265193 -1.4812317735425446
1.0414650383605852 -1.7235617817086446
1.036183447572439 -1.963596619560536
1.0280261996103295 -2.200197043952581
1.0163090738932836 -2.4317743196120816
1.0004294581826954 -2.6562482432260186
0.979847730319841 -2.8710981387715897
0.9540593237438894 -3.073472867338142
0.9225802209922535 -3.260264426076443
0.884967224658246 -3.42820695698717
0.840958853818703 -3.574060733523312
0.7908884713161624 -3.6948893272049106
0.7364276433049917 -3.7884060828404396
0.6812991293014591 -3.853507798639094
0.6317723530398199 -3.8912789326141595
0.5822455767781849 -3.8535077986389625
0.5271170627746662 -3.788406082840178
0.47265623476351654 -3.6948893272045367
0.4225858522610027 -3.5740607335228507
0.37857748142149067 -3.428206956986643
0.3409644850875159 -3.2602644260758664
0.3094853823359125 -3.0734728673375353
0.2836969757599933 -2.871098138770971
0.2631152478971704 -2.6562482432254044
0.2472356321866112 -2.4317743196114923
0.2355185064695896 -2.200197043952028
0.22736125850749914 -1.963596619560027
0.22207966771936657 -1.7235617817081874
0.21893275465344136 -1.4812317735421443
0.21719431183728974 -1.2374219928629708
0.21622186499431828 -0.9927452564561277
0.2155996477206823 -0.7475860974510684
0.21518804244046108 -0.5021545418080479
0.21498337834315193 -0.2566707147180651
0.21494403946427992 -0.011402034852438956
1.109876558759183 -0.011406769009788171
1.109826114832407 -0.25666853820351554
1.1096063986807456 -0.5021206038513448
1.109155782004372 -0.7475276204453775
1.1084559233210367 -0.9926517162292443
1.107300382120548 -1.2372240867730322
1.1051852604153547 -1.4807788723928073
1.1014272028078205 -1.722666164026794
1.095242973141285 -1.9620601119682262
1.0858097499118338 -2.197827059223997
1.072346685480209 -2.428398182585
1.0541506077784255 -2.6517126268287043
1.0305871830071114 -2.8652627496871936
1.0010688427679308 -3.0662047919046937
0.9650597943883699 -3.25144175533029
0.9221343244901538 -3.417736070107486
0.8720869517956792 -3.561927913020371
0.8152268329982351 -3.6812938721600768
0.7531013499736869 -3.7739891118158937
0.6896419010302476 -3.839545624810505
0.6317723530398053 -3.879776562930959
0.5739028050493682 -3.839545624810376
0.5104433561059449 -3.773989111815637
0.44831787308142107 -3.681293872159709
0.39145775428400775 -3.561927913019918
0.3414103815895682 -3.417736070106967
0.2984849116913888 -3.251441755329722
0.26247586331186445 -3.0662047919040956
0.23295752307272063 -2.8652627496865835
0.20939409830144223 -2.651712626828098
0.19119802059969102 -2.428398182584417
0.17773495616809354 -2.197827059223449
0.1683017329386639 -1.9620601119677212
0.1621175032721439 -1.7226661640263397
0.1583594456646202 -1.4807788723924082
0.1562443239594328 -1.2372240867726958
0.15508878275894647 -0.9926517162289696
0.1543889240756117 -0.7475276204451673
0.15393830739923844 -0.5021206038511977
0.15371859124757745 -0.2566685382034326
0.15366814732080128 -0.0114067690097705
1.171167455828223 -0.011405608846599427
1.1711166195664207 -0.25666132071031905
1.1708909303576662 -0.5020836037431023
1.1704017353105125 -0.7474649014137635
1.169611317591801 -0.9925418603224654
1.1682407359728013 -1.2369683631665096
1.165722670335686 -1.4802119296834941
1.1613448162519153 -1.7215932345948295
1.1542634673741798 -1.96026590613341
1.1435725655924647 -2.195097382727467
1.1283897710854187 -2.4245349905201703
1.1079065055864152 -2.6465375839995544
1.0813882940379154 -2.858612419447718
1.0481656405266364 -3.057929147638912
1.0076643517166346 -3.2414148552285083
0.9594814995380749 -3.405878981994606
0.9035310099437084 -3.548250639119406
0.8402357716550353 -3.665982843169137
0.7708935868530405 -3.75760525655286
0.6988383449535954 -3.8234115810948337
0.6317723530397903 -3.86617832490731
0.5647063611259919 -3.8234115810947076
0.49265111922656474 -3.757605256552609
0.4233089344245978 -3.665982843168777
0.36001369613595985 -3.5482506391189617
0.3040632065416326 -3.405878981994097
0.25588035436311385 -3.2414148552279496
0.21537906555315303 -3.057929147638323
0.18215641204191493 -2.8586124194471165
0.15563820049345492 -2.6465375839989567
0.13515493499448722 -2.424534990519595
0.1199721404874714 -2.1950973827269253
0.10928123870577988 -1.9602659061329097
0.10219988982806157 -1.7215932345943783
0.09782203574430283 -1.4802119296830971
0.09530397010719463 -1.236968363166174
0.09393338848819778 -0.9925418603221908
0.09314297076948717 -0.7474649014135535
0.0926537757223339 -0.5020836037429554
0.09242808651357964 -0.25666132071023606
0.09237725025177726 -0.011405608846581757
1.232468293117227 -0.01140398968752947
1.2324338983389849 -0.25665161596949165
1.2322193992056232 -0.5020448123581478
1.2316881084379694 -0.7473961033053619
1.2307834555293173 -0.9924078532619447
1.229168073120048 -1.2366454484717482
1.2262325227730404 -1.4795261978515672
1.2212323926517077 -1.7203421321919858
1.2132699463318235 -1.9582174744717835
1.2013522564836165 -2.1920143464131554
1.184490581315924 -2.4201924331374722
1.1617604898008334 -2.64073013263084
1.1323256895146185 -2.851154159152844
1.0954487549278924 -3.0486555262506214
1.0505142131968035 -3.2301957145012636
0.9971390076526502 -3.3926517328078605
0.9353564276858618 -3.533067567136265
0.8658294288378217 -3.649064014844676
0.789993614507075 -3.7394228837530443
0.7101493651831347 -3.80495544684937
0.6317723530397751 -3.8499999999999943
0.5533953408964228 -3.804955446849247
0.47355109157250236 -3.739422883752799
0.39771527724178796 -3.649064014844324
0.32818827839378795 -3.533067567135831
0.2664056984270429 -3.392651732807362
0.21303049288293496 -3.2301957145007156
0.16809595115189135 -3.048655526250043
0.1312190165652102 -2.8511541591522533
0.10178421627903918 -2.640730132630252
0.07905412476398815 -2.420192433136905
0.062192449596328525 -2.1920143464126203
0.050274759748147366 -1.9582174744712888
0.042312313428281824 -1.7203421321915386
0.037312183306962635 -1.4795261978511727
0.03437663295996283 -1.2366454484714138
0.03276125055069705 -0.9924078532616704
0.03185659764204632 -0.7473961033051519
0.03132530687439289 -0.5020448123580007
0.031110807741031303 -0.2566516159694087
0.0310764129627895 -0.011403989687511832
SCALARS Stress float 6
LOOKUP_TABLE default
-1241.1672724465852 -2042.3099655560677 -1565.5601400317391 -26.20796005948073 0.0 0.0
1350.5556907544492 792.863056795524 1007.2217371617921 -21.014039644334893 0.0 0.0
611.3745588061686 159.84497579776078 248.26972198648454 -41.14067489779258 0.0 0.0
491.5607958130567 28.625711861115313 161.16485518670456 -1.3920669983908616 0.0 0.0
614.6822911851743 77.97326633506222 248.98916567000157 2.586861267998154 0.0 0.0
733.1212392960335 128.0911416685903 372.88604157371117 1.8071296729878936 0.0 0.0
860.246341235028 180.4803159990108 493.23238845980745 0.5841861421753936 0.0 0.0
990.2629445887637 249.74036734576126 605.1999567362736 -0.8392044488908846 0.0 0.0
1129.293527814691 333.61653020661936 719.6775412955691 -2.482918983381973 0.0 0.0
1284.9097779837948 438.68344405878156 850.5721357570496 -4.263869740714417 0.0 0.0
1462.540904633751 569.9842046411749 1004.8975113342829 -5.968687895360227 0.0 0.0
1662.3189915848495 727.9678639111305 1183.4073591327956 -7.3105082471355525 0.0 0.0
1879.0270899932834 906.0117958322803 1380.3444307491113 -8.133820924729712 0.0 0.0
2105.4223358064214 1096.686802068041 1588.4549986355628 -8.762034371220377 0.0 0.0
2332.143799259681 1290.4616701124005 1798.2805780447193 -9.169256995170091 0.0 0.0
2548.4514575122316 1476.6594765434868 1999.1421641481065 -9.282922806462638 0.0 0.0
2743.1723399452085 1644.532976507819 2180.1279681202077 -8.937101959461934 0.0 0.0
2905.101289273754 1783.434722861709 2330.336527507121 -8.06671644894429 0.0 0.0
3031.883863366798 1891.6191714735871 2447.6066781782342 -6.964322358783191 0.0 0.0
3109.296308691015 1955.7229414838635 2518.1530270141366 -8.78132616804519 0.0 0.0
3100.4326582517783 1945.6676852407386 2508.9117677940485 -4.945377440890297e-11 0.0 0.0
3109.296308689804 1955.7229414826775 2518.1530270132353 8.781326168037763 0.0 0.0
3031.8838633664764 1891.6191714733277 2447.6066781777845 6.964322358793451 0.0 0.0
2905.1012892731824 1783.43472286125 2330.336527506455 8.066716449089155 0.0 0.0
2743.172339944145 1644.532976506856 2180.12796811932 8.937101959419865 0.0 0.0
2548.4514575112253 1476.6594765426055 1999.1421641470884 9.282922806414478 0.0 0.0
2332.1437992603564 1290.4616701133004 1798.2805780447775 9.16925699511303 0.0 0.0
2105.422335803925 1096.6868020656839 1588.4549986335555 8.762034371264216 0.0 0.0
1879.0270899929023 906.0117958321489 1380.3444307485493 8.133820924780212 0.0 0.0
1662.3189915833025 727.9678639097921 1183.40735913173 7.310508247273434 0.0 0.0
1462.5409046317773 569.9842046394267 1004.8975113327276 5.968687895199002 0.0 0.0
1284.9097779832541 438.6834440585239 850.5721357565792 4.263869740460491 0.0 0.0
1129.2935278133991 333.6165302055724 719.6775412945585 2.4829189834125653 0.0 0.0
990.2629445888306 249.740367346133 605.1999567361812 0.839204448800217 0.0 0.0
860.2463412339337 180.48031599819424 493.2323884589167 -0.5841861422082921 0.0 0.0
733.121239295218 128.09114166807177 372.8860415729753 -1.807129672910234 0.0 0.0
614.6822911844565 77.97326633454861 248.9891656694408 -2.586861267904002 0.0 0.0
491.5607958127365 28.625711860939614 161.16485518653212 1.392066998303937 0.0 0.0
611.3745588057229 159.84497579743024 248.26972198617557 41.14067489779742 0.0 0.0
1350.5556907542189 792.8630567954199 1007.2217371614358 21.014039644396895 0.0 0.0
-1241.167272443698 -2042.309965553255 -1565.5601400289593 26.2079600589569 0.0 0.0
-1580.6522677624657 -2353.0794065652217 -1859.208549124759 -27.93657201073112 0.0 0.0
921.5303798309692 437.8784927435487 632.1719425514135 -29.032549130658115 0.0 0.0
426.76702867820075 63.21811410677678 145.7618659038495 -35.51634549666883 0.0 0.0
433.1153327083552 6.09779101063331 133.8081131843891 -15.732689209411994 0.0 0.0
545.4263889462987 34.83346636186583 200.70217738651522 -16.40075917313158 0.0 0.0
646.4846854263924 49.93222104948052 294.4268455551822 -21.91953083320028 0.0 0.0
732.9817044996096 68.21621324754541 381.93733723914 -23.64971536517429 0.0 0.0
816.0583169450175 88.88245821176479 447.6647390404317 -24.055994815834037 0.0 0.0
892.3743117920351 109.4091933781769 499.24027631243234 -24.635082222841543 0.0 0.0
963.8367908002933 130.57051722484016 546.2636204078938 -25.386216005601153 0.0 0.0
1033.124139064112 154.19763403089382 592.9216223113583 -25.79763239408048 0.0 0.0
1102.245915323821 181.38498391559585 641.1255237698841 -25.779965534437164 0.0 0.0
1170.7202492734289 212.24206300974006 690.8059398236577 -25.370547632263396 0.0 0.0
1235.920981345799 242.16581902233185 738.371914970177 -24.77253871655532 0.0 0.0
1292.3042638685026 266.0631548940729 778.5127220596108 -24.014585878521903 0.0 0.0
1335.3701550316223 279.4311239324908 806.7312369396666 -22.881076724017575 0.0 0.0
1362.22602805004 279.67230234133234 820.280933059338 -21.122222266002407 0.0 0.0
1373.1517431637546 267.5986354185492 819.7026703381556 -18.749578367888848 0.0 0.0
1363.584312630688 239.45738213255297 800.9484406408378 -16.41324991815033 0.0 0.0
1294.8796453933744 157.88403571667644 726.5095989418971 -16.662572177661957 0.0 0.0
1178.634861108405 41.19618896349891 611.1756360208916 -5.03508346128001e-12 0.0 0.0
1294.879645392798 157.88403571614103 726.5095989413749 16.662572177723828 0.0 0.0
1363.5843126301572 239.45738213206877 800.9484406404747 16.413249918204166 0.0 0.0
1373.1517431637649 267.59863541865866 819.7026703381282 18.749578367967793 0.0 0.0
1362.2260280494243 279.67230234082706 820.2809330590119 21.122222266036207 0.0 0.0
1335.3701550320934 279.4311239330894 806.7312369400881 22.881076724045062 0.0 0.0
1292.3042638690106 266.06315489474935 778.5127220599215 24.014585878499638 0.0 0.0
1235.9209813446435 242.16581902137057 738.3719149693502 24.772538716605666 0.0 0.0
1170.7202492732295 212.24206300973108 690.8059398235657 25.37054763227949 0.0 0.0
1102.2459153231039 181.38498391511462 641.1255237694797 25.77996553451589 0.0 0.0
1033.1241390633088 154.19763403033636 592.9216223108691 25.797632394054816 0.0 0.0
963.8367907995951 130.5705172244041 546.2636204074529 25.386216005576195 0.0 0.0
892.3743117911598 109.40919337757208 499.2402763118258 24.635082223024842 0.0 0.0
816.0583169451028 88.88245821211643 447.66473904043585 24.05599481580603 0.0 0.0
732.981704499115 68.21621324736672 381.93733723871236 23.6497153651949 0.0 0.0
646.4846854254656 49.93222104879324 294.4268455544511 21.919530833191025 0.0 0.0
545.4263889458229 34.833466361660015 200.70217738617464 16.40075917321583 0.0 0.0
433.11533270842267 6.097791011151929 133.80811318455287 15.732689209289749 0.0 0.0
426.7670286779996 63.218114106576564 145.76186590372848 35.51634549668696 0.0 0.0
921.5303798305359 437.8784927432859 632.1719425508737 29.032549130596223 0.0 0.0
-1580.652267760452 -2353.0794065632017 -1859.2085491226649 27.936572010205367 0.0 0.0
-1323.341410660883 -2060.99973086412 -1574.7641957233836 -66.23984837326346 0.0 0.0
734.226722359796 346.89025565397725 488.122570466293 -97.33409356026924 0.0 0.0
296.819856210879 71.84151941525394 110.62384212024826 -38.64239753188608 0.0 0.0
371.58129780370814 1.362733002586522 111.85833218816386 -37.313431260749034 0.0 0.0
500.30217497113404 25.237668926341858 171.7825226039606 -38.816670113059494 0.0 0.0
613.0861487687562 44.584731248925976 263.4464872104335 -41.71203190380408 0.0 0.0
703.2626237038733 63.36126109276751 357.5497138084068 -43.93404653764043 0.0 0.0
786.5384319698777 80.37171202066958 426.2727782740272 -44.873924933011416 0.0 0.0
860.0728461140551 97.4579426045286 476.49799647629465 -46.13786438889338 0.0 0.0
927.6689512610387 114.61446460386111 519.869125743848 -47.27241810202793 0.0 0.0
993.402230364416 135.126816319433 563.2204426444376 -47.549325663607426 0.0 0.0
1059.3080615845304 160.28345854645806 608.8009674168032 -47.012018241432706 0.0 0.0
1125.058951579697 188.1326597045245 655.6364263628634 -46.09018436130876 0.0 0.0
1186.7217231314876 215.70231108963168 700.279210260935 -44.88794348688382 0.0 0.0
1241.0559593878772 238.04577454948225 738.6152208143627 -43.38866275153941 0.0 0.0
1283.7059950403652 251.36998268695135 766.589869321867 -41.319077067691154 0.0 0.0
1312.1349717476573 253.33561511721868 781.7905317784359 -38.32458598914364 0.0 0.0
1322.7127830125885 240.86982452362378 780.9159434407296 -34.54979396702576 0.0 0.0
1303.344049268971 202.916132237366 752.5247684217592 -30.880016891020333 0.0 0.0
1264.1131505788483 151.05618188414687 707.3371001888573 -28.25751360027813 0.0 0.0
1127.5310507115885 14.674539971553472 572.1946343234889 -3.730349362740526e-13 0.0 0.0
1264.1131505785131 151.05618188386632 707.337100188485 28.25751360043931 0.0 0.0
1303.344049268161 202.9161322365984 752.5247684212702 30.880016891092463 0.0 0.0
1322.7127830119898 240.8698245230993 780.9159434402555 34.54979396703863 0.0 0.0
1312.1349717466207 253.3356151162817 781.7905317776888 38.324585989073896 0.0 0.0
1283.7059950399464 251.3699826866382 766.5898693217387 41.31907706763794 0.0 0.0
1241.055959387641 238.04577454943131 738.6152208140857 43.388662751626384 0.0 0.0
1186.7217231310449 215.70231108935792 700.2792102606413 44.887943486882854 0.0 0.0
1125.0589515792058 188.13265970423714 655.6364263625951 46.09018436129064 0.0 0.0
1059.3080615847412 160.28345854691733 608.8009674169837 47.012018241520636 0.0 0.0
993.4022303644923 135.1268163197405 563.2204426444963 47.54932566356304 0.0 0.0
927.6689512600959 114.61446460320559 519.8691257432184 47.27241810205224 0.0 0.0
860.072846113402 97.45794260418964 476.4979964758577 46.13786438907884 0.0 0.0
786.5384319695081 80.37171202056876 426.27277827374405 44.87392493298264 0.0 0.0
703.2626237031742 63.361261092339866 357.5497138078498 43.934046537588216 0.0 0.0
613.0861487681076 44.58473124859893 263.44648720986476 41.71203190381019 0.0 0.0
500.30217497062364 25.23766892613494 171.7825226036532 38.81667011313094 0.0 0.0
371.5812978038163 1.362733003119352 111.85833218835734 37.31343126068048 0.0 0.0
296.81985621079843 71.84151941525954 110.62384212022609 38.64239753183212 0.0 0.0
734.2267223591062 346.8902556537323 488.1225704656726 97.33409356012274 0.0 0.0
-1323.3414106588627 -2060.9997308620113 -1574.7641957212413 66.23984837296803 0.0 0.0
-1082.3033994597167 -1789.3006952166375 -1312.2432444908966 -79.86841666204558 0.0 0.0
560.5115999211721 251.02433830872582 359.0873591324172 -145.49783302214877 0.0 0.0
215.56094843005246 61.31859909636833 83.06386425792623 -60.34351285074032 0.0 0.0
308.96945100008645 7.001099566427834 94.65321168025324 -59.57023348259384 0.0 0.0
444.89540283201364 14.296020658182861 142.83121334109254 -63.666153315071256 0.0 0.0
567.1581511127217 37.79972201329147 227.84818892790776 -62.844176541778204 0.0 0.0
670.269413378588 56.526900355573915 327.30193130650923 -65.5547373425279 0.0 0.0
752.1222996628162 72.03233663419718 401.025265641984 -65.92666153534032 0.0 0.0
823.6845172748851 85.73396795247022 451.3573109678904 -67.30048730897094 0.0 0.0
887.8005355562052 99.26999886608417 491.7805751230016 -68.42664050530344 0.0 0.0
949.6396975417283 116.36537356353955 531.5556589090115 -68.3766127438698 0.0 0.0
1012.4110428325656 138.48846846680647 574.0528903251816 -67.42726044006903 0.0 0.0
1074.8267092853032 164.3371144882386 618.2539585897808 -65.99225677049824 0.0 0.0
1133.5065302882465 188.52622527753493 659.732858073013 -64.30746246734414 0.0 0.0
1185.3920634386711 209.12955255252587 695.970793018447 -62.139663837751534 0.0 0.0
1228.3211453520373 223.28711038119098 724.4990310718636 -59.23572978311718 0.0 0.0
1258.1219585716087 226.5042656915635 741.0286601179049 -55.39097821493768 0.0 0.0
1268.177984277996 213.30123917809135 739.5927143050222 -50.701604763173236 0.0 0.0
1254.8614059614504 181.10490902719204 717.0718557373984 -45.33126398805692 0.0 0.0
1231.2101186572177 144.16059303738086 686.9691312327059 -38.38652804973258 0.0 0.0
1039.832277192167 -46.62980827179183 497.95693017875936 -3.468869635980809e-11 0.0 0.0
1231.2101186560062 144.16059303619804 686.9691312318374 38.38652804979774 0.0 0.0
1254.8614059618124 181.10490902763533 717.0718557377357 45.33126398812798 0.0 0.0
1268.177984277587 213.30123917778883 739.5927143048434 50.70160476329656 0.0 0.0
1258.1219585714648 226.504265691539 741.028660117692 55.39097821506494 0.0 0.0
1228.3211453510514 223.28711038033788 724.4990310712312 59.23572978310438 0.0 0.0
1185.392063439176 209.12955255318286 695.9707930187374 62.13966383780347 0.0 0.0
1133.5065302877304 188.52622527716022 659.7328580726985 64.30746246726528 0.0 0.0
1074.8267092846393 164.33711448774667 618.2539585892566 65.99225677046223 0.0 0.0
1012.411042834178 138.4884684687584 574.0528903263141 67.42726044024143 0.0 0.0
949.6396975419653 116.36537356397986 531.5556589091681 68.37661274390919 0.0 0.0
887.8005355552821 99.26999886539753 491.7805751224203 68.42664050515785 0.0 0.0
823.6845172746881 85.73396795260263 451.3573109677572 67.30048730910104 0.0 0.0
752.1222996623328 72.03233663398419 401.0252656415897 65.92666153529507 0.0 0.0
670.269413378103 56.52690035539702 327.3019313060256 65.55473734241525 0.0 0.0
567.1581511120586 37.79972201292945 227.84818892739403 62.84417654181895 0.0 0.0
444.89540283160136 14.296020658064053 142.83121334090242 63.66615331504411 0.0 0.0
308.96945100007747 7.001099566351344 94.65321168022659 59.57023348258235 0.0 0.0
215.56094843012926 61.31859909651401 83.06386425799296 60.343512850518195 0.0 0.0
560.5115999206715 251.02433830861213 359.0873591319534 145.4978330220867 0.0 0.0
-1082.3033994577547 -1789.30069521462 -1312.2432444888868 79.86841666183683 0.0 0.0
-872.7494092397905 -1553.4378314846188 -1081.5694381934666 -78.59279978965544 0.0 0.0
432.3377758962999 166.7016434196636 258.31021110576285 -177.639238468488 0.0 0.0
157.99434958017198 48.26181428516853 61.876849159602145 -90.7252976576974 0.0 0.0
252.23751286478782 13.200916986993269 79.63267570650997 -83.7128597482867 0.0 0.0
379.9469862711356 8.208412141538936 117.09811708010847 -89.4545346884246 0.0 0.0
512.3833587936488 25.354627441350747 188.4671270546796 -88.20527816429755 0.0 0.0
625.6204627312319 48.334490590896905 288.860204250608 -87.39191210043472 0.0 0.0
711.8831662257455 64.3971371705497 371.18645561058827 -87.3979308869305 0.0 0.0
782.513370729584 74.587824314857 423.22220462156184 -88.07069180584298 0.0 0.0
843.3053894045919 84.29474694208875 461.2702928652614 -88.80745191071428 0.0 0.0
901.6563420607399 97.73855710638989 497.6756529708186 -88.3148378257821 0.0 0.0
960.7630079984056 116.66083674142094 536.7676255593103 -86.93091371107639 0.0 0.0
1019.9239044412495 139.22322121940815 577.7253794464492 -85.1593782513218 0.0 0.0
1075.4557199648425 161.78746442444785 616.8575561464855 -82.9746734541634 0.0 0.0
1125.2018713065036 180.22243182910762 650.9572385467239 -80.1998886792368 0.0 0.0
1167.2586030203747 193.28699975555566 678.4895762035723 -76.68753415184531 0.0 0.0
1198.7089775280685 198.50871143660834 696.8565759531908 -72.31225354429262 0.0 0.0
1213.630976835313 189.89350339593503 700.1536230896768 -66.95049773097676 0.0 0.0
1208.1806001882148 164.75362027941756 685.0701862051213 -59.68517054681864 0.0 0.0
1191.9156040270136 133.6901097347577 661.5423475101161 -48.77557513524805 0.0 0.0
933.2006626845957 -123.9421094353797 406.4594217357407 -4.96243046654854e-11 0.0 0.0
1191.9156040274509 133.69010973529 661.5423475105442 48.7755751354165 0.0 0.0
1208.180600188739 164.7536202800024 685.070186205584 59.68517054691201 0.0 0.0
1213.630976835223 189.89350339595796 700.153623089745 66.95049773108227 0.0 0.0
1198.7089775284421 198.50871143712268 696.8565759533556 72.31225354450982 0.0 0.0
1167.2586030198718 193.28699975519794 678.4895762032502 76.68753415185063 0.0 0.0
1125.2018713072016 180.22243182993347 650.9572385472487 80.19988867922996 0.0 0.0
1075.455719964348 161.78746442413404 616.8575561461512 82.97467345413651 0.0 0.0
1019.9239044407788 139.2232212191718 577.7253794460655 85.15937825139811 0.0 0.0
960.7630079996372 116.66083674295584 536.767625560082 86.93091371130123 0.0 0.0
901.656342060167 97.7385571059732 497.6756529704137 88.31483782569774 0.0 0.0
843.3053894043093 84.29474694201289 461.270292865091 88.80745191047859 0.0 0.0
782.5133707294812 74.58782431509235 423.22220462149795 88.07069180594968 0.0 0.0
711.8831662250151 64.39713717014143 371.18645561004115 87.39793088692825 0.0 0.0
625.6204627309808 48.334490590978646 288.86020425027067 87.3919121004361 0.0 0.0
512.3833587929805 25.35462744093229 188.46712705418372 88.20527816410018 0.0 0.0
379.94698627068186 8.20841214142612 117.09811707995108 89.45453468845103 0.0 0.0
252.23751286473728 13.200916986932953 79.63267570647182 83.71285974815896 0.0 0.0
157.99434957998363 48.261814284897916 61.876849159464456 90.7252976574214 0.0 0.0
432.3377758956857 166.70164341941475 258.31021110526535 177.6392384684044 0.0 0.0
-872.7494092382292 -1553.437831482944 -1081.5694381917308 78.5927997894625 0.0 0.0
-688.4416502213453 -1344.975548206522 -876.3677097321065 -74.71660128778888 0.0 0.0
331.5627378690383 101.16393108557384 180.73935143689357 -196.46826739439902 0.0 0.0
114.46403739702555 33.39774765305027 44.35853551502275 -119.78830985004961 0.0 0.0
201.37434575100218 18.021712838691723 65.82211991556315 -108.14941502706013 0.0 0.0
311.02870630288027 5.761911674519293 94.43696394250989 -114.76683125799917 0.0 0.0
442.82093583430424 14.25050281598456 149.85174199327628 -114.62914371553533 0.0 0.0
564.4517387945131 39.36786903199951 243.00610999394672 -110.56853988040207 0.0 0.0
664.1290659256911 54.19927400431078 332.63996340246644 -109.92695358997662 0.0 0.0
733.6328451315112 63.900202141425694 390.0283740613368 -108.41265475254504 0.0 0.0
793.3882996924146 69.50451589974932 427.5344769362837 -108.42093296803827 0.0 0.0
848.2080005761579 79.21941059663327 460.8206408536589 -107.34124272121754 0.0 0.0
903.6880259492073 94.88007349480594 496.53991899671274 -105.48477084778989 0.0 0.0
959.2185502626048 114.57001660023724 534.2867649479484 -103.35859941920567 0.0 0.0
1011.4919486935813 133.8000008358696 570.1596491715746 -100.89144645868735 0.0 0.0
1058.7732502080055 150.52886019502674 602.2074254753126 -97.64415321601565 0.0 0.0
1099.6821312130076 163.0335030175838 628.910042522561 -93.50160783855304 0.0 0.0
1133.16421087262 169.5320719054895 648.8906407806619 -88.85384017595983 0.0 0.0
1155.5349654121183 168.1189072295993 659.4767027774343 -83.14149234295412 0.0 0.0
1159.504186347927 151.47663291471315 653.3676337268589 -74.4179405808017 0.0 0.0
1147.717664630948 122.53828213614295 633.1477559606867 -60.17081246282823 0.0 0.0
809.3607820735898 -213.8062213253728 300.3050612868767 -1.0771472602755239e-10 0.0 0.0
1147.7176646320436 122.53828213734016 633.1477559615739 60.170812463042445 0.0 0.0
1159.5041863483893 151.4766329152468 653.3676337272426 74.41794058084105 0.0 0.0
1155.5349654120848 168.11890722973206 659.4767027774586 83.14149234319683 0.0 0.0
1133.1642108728843 169.5320719058635 648.8906407807904 88.85384017606404 0.0 0.0
1099.6821312118568 163.03350301653884 628.9100425218769 93.50160783852517 0.0 0.0
1058.7732502075462 150.5288601946443 602.207425474946 97.64415321600225 0.0 0.0
1011.4919486941075 133.8000008367012 570.1596491719125 100.89144645875976 0.0 0.0
959.2185502624981 114.57001660031906 534.2867649478426 103.35859941935766 0.0 0.0
903.6880259491888 94.88007349496876 496.5399189966784 105.48477084774949 0.0 0.0
848.2080005756854 79.21941059633554 460.8206408532739 107.34124272109422 0.0 0.0
793.3882996927084 69.50451590026982 427.5344769364481 108.42093296791896 0.0 0.0
733.6328451315647 63.90020214182846 390.0283740613538 108.41265475259442 0.0 0.0
664.1290659254083 54.19927400453621 332.6399634022195 109.92695359013163 0.0 0.0
564.4517387935191 39.36786903124639 243.0061099931971 110.56853988040706 0.0 0.0
442.8209358343767 14.250502816612993 149.85174199333983 114.62914371541812 0.0 0.0
311.0287063025 5.761911674472392 94.43696394241033 114.76683125797253 0.0 0.0
201.37434575091405 18.0217128386 65.82211991550935 108.14941502691411 0.0 0.0
114.46403739700743 33.39774765293057 44.358535514981405 119.78830984980401 0.0 0.0
331.56273786847527 101.1639310852326 180.73935143644061 196.46826739425273 0.0 0.0
-688.4416502200241 -1344.9755482050039 -876.3677097305773 74.71660128768671 0.0 0.0
-529.0473556869263 -1154.8351290987912 -693.9608261645735 -71.24925381028152 0.0 0.0
251.82734502936466 49.43893430317799 121.27509645272713 -208.16411399141845 0.0 0.0
79.47284357561979 19.013461242110097 29.545737737447517 -143.8051077126683 0.0 0.0
153.87885436282875 21.24002351045585 52.536732517948295 -130.78157228284732 0.0 0.0
242.48899920051048 6.493454629471748 74.38396200298321 -136.93043863850377 0.0 0.0
362.75852896183693 3.5020066591490755 113.17175233466196 -143.5522848290873 0.0 0.0
489.0814128055123 25.332668534753513 190.5550714365242 -137.1376342901046 0.0 0.0
597.4342331682084 44.86983519472133 282.772080074565 -132.22048362766702 0.0 0.0
677.9210768335311 50.426325578253156 348.54288403954104 -130.15386925107825 0.0 0.0
734.7237438327069 54.91262151011166 388.2504611192224 -127.13858485362373 0.0 0.0
787.9032375509474 60.8941275670615 419.9524342593967 -125.36242872083963 0.0 0.0
839.7363003140628 73.06962422405014 452.3583500156543 -123.04690120651742 0.0 0.0
891.1811166843586 89.37307316516748 486.4668099271843 -120.58285593193393 0.0 0.0
939.9467732139509 106.04843675262694 519.3526604778715 -117.8833746190055 0.0 0.0
984.2698133753208 120.42243032263131 548.8103614058531 -114.40588244418011 0.0 0.0
1023.2831915019657 130.43826370037877 573.3524760012758 -109.94756717439229 0.0 0.0
1058.4646592694382 139.78482004433022 595.5643806796202 -104.68802146604206 0.0 0.0
1090.4379945520816 146.97658493418672 615.1680484550749 -99.01322509795213 0.0 0.0
1106.298585468698 140.30446958760962 619.9980648820485 -89.92435523022347 0.0 0.0
1099.0953908784256 113.09279505510766 603.0344672621891 -73.3751073399152 0.0 0.0
666.5267934971338 -315.4372999505058 179.05933337262684 -5.059064278611913e-12 0.0 0.0
1099.0953908779568 113.0927950547862 603.0344672619038 73.37510734013279 0.0 0.0
1106.298585470483 140.30446958960113 619.9980648832881 89.92435523059726 0.0 0.0
1090.4379945517742 146.97658493406377 615.1680484548684 99.01322509826423 0.0 0.0
1058.464659269596 139.7848200445094 595.5643806796653 104.6880214660651 0.0 0.0
1023.2831915010003 130.43826369957316 573.3524760007804 109.94756717437258 0.0 0.0
984.2698133741405 120.42243032154711 548.8103614049894 114.40588244422042 0.0 0.0
939.9467732145891 106.04843675354816 519.3526604783023 117.8833746191151 0.0 0.0
891.1811166838356 89.37307316480582 486.4668099267786 120.58285593203746 0.0 0.0
839.7363003139244 73.06962422408415 452.3583500155554 123.04690120645016 0.0 0.0
787.9032375499012 60.894127566107024 419.9524342586967 125.36242872071288 0.0 0.0
734.7237438323787 54.9126215099614 388.250461119012 127.13858485349279 0.0 0.0
677.9210768330299 50.42632557795863 348.54288403914586 130.15386925099432 0.0 0.0
597.4342331686954 44.869835195833616 282.7720800747904 132.2204836277955 0.0 0.0
489.08141280462917 25.332668534132583 190.5550714358664 137.13763429002333 0.0 0.0
362.7585289616605 3.5020066595470687 113.1717523346782 143.55228482899946 0.0 0.0
242.4889992002186 6.493454629238085 74.38396200282877 136.9304386383031 0.0 0.0
153.8788543626435 21.24002351017274 52.53673251780738 130.78157228270032 0.0 0.0
79.47284357549097 19.013461241963434 29.54573773736505 143.8051077124053 0.0 0.0
251.8273450288572 49.43893430291294 121.27509645236722 208.16411399127793 0.0 0.0
-529.0473556858517 -1154.8351290974701 -693.960826163279 71.24925381024433 0.0 0.0
-388.57347683505463 -989.1894594847524 -532.7309634709078 -75.94253395862992 0.0 0.0
184.1963028382392 10.314095702530725 74.98473523764775 -211.65825194972558 0.0 0.0
49.61938965597076 7.187539544198288 17.04195399803276 -161.95561448173802 0.0 0.0
107.99830306576719 22.604666283720764 39.18240144749283 -150.19774556104642 0.0 0.0
177.51769418027857 8.524085681100832 55.642053046407376 -156.16419103740537 0.0 0.0
272.40146185320134 -1.0569381853961093 81.28133916058944 -169.1301083223501 0.0 0.0
393.11807867924375 10.196080607099837 136.08735545064218 -165.96033450133783 0.0 0.0
510.092396875465 30.155854222705802 218.9432891395178 -156.12662922864328 0.0 0.0
601.5520419126639 38.6538400947842 293.0366932337716 -150.51555984595606 0.0 0.0
665.4450676806996 37.8235258001557 338.85450015685706 -146.405701719789 0.0 0.0
716.2274301900366 41.835474976801 371.2067061794108 -142.26639272116793 0.0 0.0
765.0916157856344 51.37267821933652 401.674532008977 -139.36083273124774 0.0 0.0
812.6076723470204 64.21140698513307 432.36127762712704 -136.56073704776114 0.0 0.0
856.874061622801 77.4866462118946 461.3914892658289 -133.73815797098032 0.0 0.0
898.2374353788163 89.51958904314705 488.25436213532936 -130.381065634531 0.0 0.0
935.0401867850497 98.50377937730583 511.29673164695066 -125.79537043148292 0.0 0.0
969.8612067762617 106.15624646345807 532.5380857215349 -120.03945206562693 0.0 0.0
1010.4302425980104 121.70927259327004 560.4138505083536 -114.14637784542674 0.0 0.0
1044.1420424093897 132.06816682890113 582.6574625089428 -106.05679171653911 0.0 0.0
1046.3066930419561 110.1258845601291 573.299903317308 -89.38614766197475 0.0 0.0
499.04370814828417 -428.3774070554956 40.28336496203042 1.368363200526801e-10 0.0 0.0
1046.3066930421235 110.12588456034007 573.2999033174384 89.38614766207613 0.0 0.0
1044.142042409927 132.06816682960252 582.657462509379 106.05679171686936 0.0 0.0
1010.4302425979008 121.70927259324947 560.4138505081992 114.14637784549566 0.0 0.0
969.8612067763339 106.15624646366933 532.5380857215283 120.0394520657432 0.0 0.0
935.0401867846837 98.5037793770947 511.29673164676205 125.79537043151758 0.0 0.0
898.237435378748 89.51958904323871 488.254362135244 130.3810656345571 0.0 0.0
856.8740616226935 77.48664621195573 461.3914892657358 133.73815797098703 0.0 0.0
812.6076723458525 64.21140698392692 432.36127762629314 136.56073704761087 0.0 0.0
765.0916157863892 51.372678220442026 401.6745320094802 139.3608327313658 0.0 0.0
716.2274301888665 41.83547497576132 371.2067061785858 142.2663927210551 0.0 0.0
665.4450676803611 37.82352579996132 338.85450015664566 146.40570171966573 0.0 0.0
601.5520419119298 38.65384009433187 293.03669323320895 150.51555984593008 0.0 0.0
510.09239687525593 30.155854222851183 218.94328913931312 156.12662922864067 0.0 0.0
393.1180786785878 10.196080606596553 136.0873554501697 165.9603345012372 0.0 0.0
272.4014618530059 -1.056938184956158 81.28133916066973 169.13010832215227 0.0 0.0
177.5176941801679 8.524085681054938 55.642053046364566 156.16419103723214 0.0 0.0
107.99830306573672 22.604666283709427 39.18240144748092 150.19774556084212 0.0 0.0
49.61938965592012 7.187539544215447 17.04195399802263 161.95561448153163 0.0 0.0
184.19630283779662 10.314095702257063 74.98473523735221 211.65825194963438 0.0 0.0
-388.5734768341217 -989.1894594835211 -532.7309634698105 75.94253395863838 0.0 0.0
-279.6543131402149 -830.1081347250488 -400.42003322593246 -81.75574453112549 0.0 0.0
126.22289297200194 -21.438635093205296 39.582599385340636 -208.80742903077788 0.0 0.0
21.87846094107209 -0.8845553052526298 6.300149787154607 -174.78410390368745 0.0 0.0
63.15461974659113 22.42455399550593 25.668544854007358 -165.67372349065866 0.0 0.0
113.38530793962668 11.568656213357249 37.396309308737315 -171.15632780373568 0.0 0.0
178.70839682484583 0.03654645548340807 53.32065073744309 -187.705737335622 0.0 0.0
274.62936387648153 -1.953946099654782 84.63093110457277 -196.75733380437708 0.0 0.0
392.11319697655904 9.340606865096975 142.85618205462333 -185.39099059294762 0.0 0.0
495.42259166237704 20.17061928339472 213.49902084813692 -171.07360323681985 0.0 0.0
569.2296769077394 20.68422126460948 267.8762031976499 -163.19080617243412 0.0 0.0
623.0658043245742 22.294549238169363 305.57193452382216 -157.40479984264732 0.0 0.0
670.0958205181295 28.550670703187517 335.94025352357306 -153.92650980022987 0.0 0.0
713.7324204674242 38.71088901914749 364.54112358339694 -150.85134021184427 0.0 0.0
753.1194858005342 48.57743447451841 389.88536119004414 -148.01167996326612 0.0 0.0
790.2480948501848 58.08769968347805 413.597076666613 -145.0882709667035 0.0 0.0
825.6575436714269 66.40605302073861 435.81544351720396 -141.1202442392096 0.0 0.0
859.8769511130982 73.38662894114104 456.83736840044446 -135.20734014516907 0.0 0.0
901.1707665361466 88.06746808569808 484.7543109013084 -128.22704064713872 0.0 0.0
956.7088270629285 117.60010399437074 527.0928003933687 -122.0240732493135 0.0 0.0
986.6779295025699 118.60653073493336 543.7227079800119 -109.86827408451663 0.0 0.0
297.80436065607825 -548.3772598198588 -118.05360904403501 6.301448252088448e-11 0.0 0.0
986.6779295031208 118.60653073559016 543.7227079805336 109.86827408456234 0.0 0.0
956.7088270623004 117.60010399397754 527.0928003929539 122.02407324975307 0.0 0.0
901.170766536185 88.06746808573385 484.75431090132366 128.22704064727623 0.0 0.0
859.8769511133917 73.38662894169312 456.83736840069855 135.20734014535793 0.0 0.0
825.6575436720668 66.40605302158548 435.81544351766735 141.12024423921807 0.0 0.0
790.2480948504412 58.087699683846566 413.59707666677906 145.0882709667012 0.0 0.0
753.1194857999342 48.577434474036 389.8853611896443 148.01167996327408 0.0 0.0
713.7324204663386 38.71088901795887 364.5411235825776 150.8513402117021 0.0 0.0
670.095820518564 28.5506707038069 335.9402535239026 153.92650980027912 0.0 0.0
623.065804324514 22.29454923835729 305.57193452376663 157.40479984261756 0.0 0.0
569.2296769072171 20.684221264129903 267.87620319724925 163.19080617223187 0.0 0.0
495.4225916623922 20.170619284014045 213.4990208481408 171.07360323694985 0.0 0.0
392.1131969757344 9.340606864432502 142.8561820540599 185.39099059291883 0.0 0.0
274.62936387594647 -1.9539460999170277 84.63093110431488 196.75733380424697 0.0 0.0
178.70839682458086 0.036546455599569816 53.32065073741768 187.70573733534707 0.0 0.0
113.38530793967752 11.568656213753487 37.396309308879346 171.15632780346914 0.0 0.0
63.15461974664489 22.424553995515353 25.668544854024184 165.67372349055177 0.0 0.0
21.87846094118596 -0.8845553049788428 6.300149787270176 174.7841039035057 0.0 0.0
126.22289297155928 -21.43863509353034 39.582599385059645 208.80742903062136 0.0 0.0
-279.6543131395229 -830.1081347239526 -400.42003322507077 81.75574453119658 0.0 0.0
-192.16289319558712 -689.4015264545283 -293.00677382484275 -95.59481652134747 0.0 0.0
74.03386184584888 -46.339950349579844 11.65854165814659 -199.93929116645387 0.0 0.0
-5.006245105286704 -4.5795868347316855 -2.8835759557035168 -182.39944446332035 0.0 0.0
18.975400195098707 21.182684815149933 12.045746263925942 -176.475149523501 0.0 0.0
49.172944356809396 14.527985644725648 19.080096230686575 -181.7692487905915 0.0 0.0
86.16998615516371 3.510670519546073 26.780819732520307 -199.95261704372743 0.0 0.0
138.26078859828434 -2.243065105510334 40.912503098220355 -216.1902138558951 0.0 0.0
220.63616803184212 -6.030482917079724 66.33071469284523 -217.67837048042855 0.0 0.0
325.1416906011943 -12.7339010062218 102.77189287014578 -201.9171481252708 0.0 0.0
413.19875550429435 -15.63158276446385 143.64970761276675 -180.01624770410922 0.0 0.0
472.56527232359315 -7.04878882946894 182.83779305820693 -168.19426152877128 0.0 0.0
517.6486437850766 2.772807127513282 215.95137833115993 -164.25296548672915 0.0 0.0
555.6280641037707 11.300598804746741 244.21211397354244 -163.02838274974002 0.0 0.0
589.3318934117375 19.306544590149805 268.7097533626781 -162.1738443317922 0.0 0.0
621.2712480217788 27.3115593484997 291.8194340862044 -161.18228457592906 0.0 0.0
654.3665490589534 35.31272935431314 315.4987766033019 -159.33104302620535 0.0 0.0
690.3615882494586 42.54825310512431 340.5583852883741 -154.57753898840173 0.0 0.0
729.3313767668297 48.56239288663372 366.3895898690361 -146.4575205050131 0.0 0.0
790.6412594878105 74.55184607291272 410.2734452764963 -139.08530352978553 0.0 0.0
883.3530153155173 128.35313178094745 486.06424566256896 -137.17479187708184 0.0 0.0
29.598074572716357 -669.0115083772728 -307.17496268168645 1.0518874660192523e-10 0.0 0.0
883.3530153156908 128.35313178108456 486.0642456628265 137.1747918772348 0.0 0.0
790.6412594875327 74.55184607268393 410.2734452763757 139.08530353009948 0.0 0.0
729.3313767662795 48.56239288606246 366.3895898687149 146.45752050517575 0.0 0.0
690.3615882488632 42.548253104781026 340.55838528805486 154.57753898855395 0.0 0.0
654.3665490606261 35.31272935651185 315.4987766044631 159.33104302641476 0.0 0.0
621.2712480216867 27.31155934830684 291.8194340861588 161.18228457595404 0.0 0.0
589.3318934109286 19.30654458931967 268.7097533621518 162.1738443317603 0.0 0.0
555.6280641035343 11.30059880449836 244.21211397333298 163.02838274982338 0.0 0.0
517.6486437843364 2.772807126502972 215.95137833064882 164.252965486596 0.0 0.0
472.5652723232755 -7.04878882945297 182.83779305811296 168.19426152887237 0.0 0.0
413.19875550372046 -15.63158276495811 143.64970761239857 180.01624770405056 0.0 0.0
325.1416906008231 -12.73390100626678 102.77189287000333 201.91714812534835 0.0 0.0
220.63616803159596 -6.030482916812765 66.33071469283485 217.67837048039448 0.0 0.0
138.26078859832313 -2.2430651049932706 40.91250309839255 216.19021385579472 0.0 0.0
86.16998615487817 3.5106705189871295 26.780819732280257 199.95261704336548 0.0 0.0
49.172944356861514 14.527985644791745 19.080096230723644 181.76924879030548 0.0 0.0
18.975400194942168 21.182684814845096 12.045746263788056 176.475149523301 0.0 0.0
-5.006245105261265 -4.579586834436441 -2.8835759556104987 182.39944446317634 0.0 0.0
74.03386184541984 -46.33995034991482 11.65854165789375 199.93929116622022 0.0 0.0
-192.16289319500805 -689.4015264535706 -293.0067738241914 95.59481652138116 0.0 0.0
-135.40064993359533 -559.7249748796935 -215.54869142318512 -108.43919236964426 0.0 0.0
26.53752942193632 -63.70953962289253 -10.210956488937725 -184.66268688494534 0.0 0.0
-30.972872172361278 -5.245373291012902 -10.855699332371307 -186.33124765009217 0.0 0.0
-24.452098014591037 19.525207306445296 -1.4845713466545112 -182.78976741069522 0.0 0.0
-14.28140380220653 17.105123982998848 0.846180303211395 -187.42249986423639 0.0 0.0
-6.706718967055284 7.492635891913245 0.24305719747463428 -204.41624147534247 0.0 0.0
-2.913086030896949 1.187863668297907 -0.517383925301937 -222.12170257855604 0.0 0.0
-1.0072201870538322 0.07995493738538428 -0.28599133962235435 -225.29021873336748 0.0 0.0
-0.28369079390916596 -0.012080143467288806 -0.09310426079015244 -217.25912477263248 0.0 0.0
0.017919398856477642 -0.003887694498828864 0.009534776979926107 -211.93184107924665 0.0 0.0
-0.40033475461564194 0.014718879391320883 -0.14178339904298554 -209.48773212319173 0.0 0.0
-0.8962524715206257 0.15548052922621736 0.20727654076855373 -197.66514316448757 0.0 0.0
-1.962924523671262 0.7739952313932505 0.39505005659519554 -188.09559093746708 0.0 0.0
-0.6789834892738611 2.3002669251664614 0.9190143316135675 -180.9182492560325 0.0 0.0
7.412802091593022 6.043643442619185 2.1886253620208436 -175.83432516930924 0.0 0.0
29.698914128784452 13.122897888811579 5.805978999694105 -171.4888283031673 0.0 0.0
76.34987122417502 25.536696081111245 14.246117646267493 -166.19592096994114 0.0 0.0
162.68788840348657 34.86355391982535 19.492202082378157 -157.05197112778174 0.0 0.0
380.53488348493295 -9.194159399235218 34.48623291926411 -151.38762293431543 0.0 0.0
601.3365393978232 26.512207084685684 237.4250391910381 -197.08221988842342 0.0 0.0
-633.8770220373285 -908.8155889522665 -692.8668683380798 5.015010628994787e-11 0.0 0.0
601.3365393979919 26.512207084876906 237.42503919119108 197.08221988834052 0.0 0.0
380.5348834846901 -9.19415939875472 34.486232919393814 151.3876229350118 0.0 0.0
162.6878884026985 34.86355391900349 19.492202081738796 157.0519711283317 0.0 0.0
76.34987122386937 25.536696080832016 14.246117646078801 166.19592097014694 0.0 0.0
29.698914129439828 13.122897889437567 5.805979000166303 171.48882830338192 0.0 0.0
7.412802091299454 6.04364344222104 2.1886253617419413 175.834325169159 0.0 0.0
-0.6789834895606077 2.3002669245293603 0.9190143312629431 180.91824925608591 0.0 0.0
-1.9629245234600603 0.7739952310549896 0.3950500565216828 188.09559093774615 0.0 0.0
-0.8962524713842157 0.15548052884769703 0.20727654062389433 197.6651431644038 0.0 0.0
-0.4003347546243532 0.014718878530260326 -0.14178339937022244 209.48773212315336 0.0 0.0
0.01791939879208826 -0.0038876957423816805 0.009534776564073866 211.93184107898702 0.0 0.0
-0.2836907938542659 -0.012080143785275332 -0.09310426087920831 217.2591247726487 0.0 0.0
-1.007220186690322 0.07995493811203991 -0.2859913392872855 225.290218733396 0.0 0.0
-2.9130860309686017 1.1878636680639616 -0.5173839253951789 222.12170257841555 0.0 0.0
-6.706718967646166 7.492635890661679 0.24305719692105088 204.41624147509737 0.0 0.0
-14.281403802292733 17.105123982790378 0.8461803031229755 187.42249986395447 0.0 0.0
-24.452098014648975 19.525207306221954 -1.4845713467403765 182.78976741054248 0.0 0.0
-30.9728721724063 -5.245373290958043 -10.855699332367584 186.3312476500268 0.0 0.0
26.537529421643733 -63.709539622929185 -10.210956489049492 184.66268688467423 0.0 0.0
-135.40064993347488 -559.7249748790802 -215.54869142292006 108.4391923697076 0.0 0.0
-107.05357220614204 -442.5046243353411 -164.88739135663755 -112.54570320660592 0.0 0.0
-9.118322318087175 -74.20181930451173 -24.988692711036233 -169.58456721928974 0.0 0.0
-55.386146448764435 -5.077586469263172 -18.148114760344093 -185.5557432184262 0.0 0.0
-66.64650733021327 18.043246850592112 -14.589801424605792 -184.37021770566426 0.0 0.0
-76.55903445719392 18.93464994247903 -17.29075976357002 -187.57546362877216 0.0 0.0
-98.46055739008948 11.266434991365006 -26.110419831652596 -201.68535811518905 0.0 0.0
-143.69683524030586 4.730694000784232 -41.83979404877753 -217.41044625604803 0.0 0.0
-222.02605125475185 6.101014568404332 -66.83966216158912 -218.00909334463 0.0 0.0
-325.33899240876144 12.558421615168534 -102.94302574161787 -201.9446745584838 0.0 0.0
-413.1622732878385 15.629073369982812 -143.62714024419518 -179.98240308308306 0.0 0.0
-473.0436095243862 6.963942181963162 -183.03165246045228 -168.20952473067612 0.0 0.0
-518.3317240059278 -2.7632321871562553 -216.78994373759332 -164.1299833569004 0.0 0.0
-556.8016822903764 -10.218508207907988 -245.15440247700423 -162.4144242666009 0.0 0.0
-588.439496557594 -14.917514590548478 -266.81462270571257 -161.3478394218223 0.0 0.0
-610.9852077749298 -15.991815921645411 -280.0404265320641 -161.44341226272223 0.0 0.0
-622.2820348716375 -12.052742735768902 -282.36801773146414 -163.49046894094198 0.0 0.0
-620.6272682675896 -3.1825496952873493 -271.75515050542157 -168.02102401441883 0.0 0.0
-613.6343548475809 3.952711762151239 -250.0186760347874 -177.55268227232418 0.0 0.0
-592.9982810465771 52.90850820579239 -189.48639157978528 -191.49193746517832 0.0 0.0
-322.1963489784562 162.068442009679 27.950816536338323 -152.95894272629434 0.0 0.0
-1195.0612869789175 -1168.1783394983813 -1207.4663749498332 -1.2373391200526385e-10 0.0 0.0
-322.19634897806634 162.06844201026323 27.950816536674495 152.95894272687133 0.0 0.0
-592.9982810465224 52.90850820536525 -189.48639158011608 191.49193746558518 0.0 0.0
-613.634354847976 3.9527117613333047 -250.0186760350354 177.55268227254612 0.0 0.0
-620.6272682674378 -3.182549695011801 -271.75515050544334 168.02102401454943 0.0 0.0
-622.2820348718617 -12.052742736290398 -282.3680177315853 163.4904689409013 0.0 0.0
-610.9852077747016 -15.991815921448612 -280.0404265317211 161.44341226258382 0.0 0.0
-588.4394965573342 -14.917514590549949 -266.81462270556324 161.34783942193133 0.0 0.0
-556.8016822903243 -10.218508208448732 -245.15440247702975 162.41442426672575 0.0 0.0
-518.3317240054836 -2.7632321869148946 -216.78994373722009 164.12998335688874 0.0 0.0
-473.04360952472786 6.963942181253445 -183.03165246059342 168.20952473069116 0.0 0.0
-413.16227328766456 15.629073369653005 -143.62714024404247 179.98240308303875 0.0 0.0
-325.3389924079584 12.558421615366614 -102.94302574125562 201.94467455861593 0.0 0.0
-222.0260512540875 6.10101456847436 -66.8396621613404 218.0090933446801 0.0 0.0
-143.69683524005296 4.730694000579683 -41.83979404876508 217.41044625587347 0.0 0.0
-98.46055739022111 11.266434990541088 -26.11041983195007 201.6853581148367 0.0 0.0
-76.55903445698316 18.934649942589214 -17.290759763477062 187.5754636285867 0.0 0.0
-66.64650733012422 18.04324685059917 -14.589801424580546 184.37021770547273 0.0 0.0
-55.38614644881686 -5.077586469439404 -18.148114760415197 185.5557432182503 0.0 0.0
-9.118322318034448 -74.2018193043285 -24.988692710962802 169.58456721915724 0.0 0.0
-107.05357220611425 -442.50462433479345 -164.8873913565106 112.5457032064777 0.0 0.0
-89.40120528504448 -338.21830615337177 -128.28901104949315 -105.2377996923334 0.0 0.0
-31.982552775732174 -78.66683071165507 -33.19024940624335 -157.0404017193496 0.0 0.0
-78.22616212918028 -5.140354053165909 -24.99782382572125 -181.59964955464775 0.0 0.0
-106.95803792177267 16.688432032393024 -27.103276755407702 -181.016869979778 0.0 0.0
-137.65660192095314 20.200565759004235 -35.16439413207894 -183.3533556164074 0.0 0.0
-188.69741835193926 14.523523100769388 -52.11544338330395 -193.0884630332195 0.0 0.0
-276.6676869563345 3.384597825923902 -85.4644256859189 -196.2666746409668 0.0 0.0
-392.3535349275328 -9.554408039494085 -143.1920009513108 -185.92833497625762 0.0 0.0
-495.4327022693297 -20.379951678360904 -213.59861034470617 -171.1806384574069 0.0 0.0
-569.1720837156593 -20.72462098407918 -267.88003684339515 -163.17524394645545 0.0 0.0
-623.0886476033667 -22.263699204985677 -305.6114696871182 -157.3397678875814 0.0 0.0
-670.518598396876 -28.45510431280259 -336.19859053901547 -153.4843105304905 0.0 0.0
-714.3105966645172 -37.921165937839774 -364.62222879748003 -149.74640115511045 0.0 0.0
-751.4692174167997 -45.04414851888437 -387.61318348653896 -146.73339535795296 0.0 0.0
-779.811046733785 -47.38837863804031 -403.4070661241117 -145.5802842100111 0.0 0.0
-795.8585564691643 -42.374391580827165 -409.0703667977824 -146.816360391963 0.0 0.0
-799.8145898012444 -31.606209323462707 -405.34346275985 -150.71494839793763 0.0 0.0
-791.9655826966107 -17.56592114335743 -393.8131654155161 -157.22650160874454 0.0 0.0
-743.5076300735795 28.503918887793702 -346.77734369845473 -164.83946256681924 0.0 0.0
-632.2993586932971 123.53043359912891 -246.31432749275234 -172.4738318194043 0.0 0.0
-1982.2931592708646 -1465.6130491643032 -1689.7399286170466 1.2717293884634273e-10 0.0 0.0
-632.2993586920118 123.53043360045847 -246.31432749181693 172.47383181960254 0.0 0.0
-743.5076300740873 28.503918886729878 -346.7773436989016 164.83946256728754 0.0 0.0
-791.9655826961564 -17.565921143046666 -393.81316541510193 157.22650160893727 0.0 0.0
-799.814589801819 -31.606209324249193 -405.3434627602892 150.71494839808724 0.0 0.0
-795.8585564697424 -42.37439158160259 -409.0703667981782 146.81636039207427 0.0 0.0
-779.8110467329612 -47.38837863727623 -403.4070661235279 145.580284209928 0.0 0.0
-751.4692174157462 -45.04414851792143 -387.6131834858063 146.73339535803044 0.0 0.0
-714.310596664803 -37.92116593861631 -364.62222879776937 149.74640115528388 0.0 0.0
-670.5185983961803 -28.455104312390645 -336.19859053851917 153.484310530483 0.0 0.0
-623.0886476032288 -22.26369920516132 -305.6114696870421 157.33976788761424 0.0 0.0
-569.1720837151679 -20.72462098388231 -267.8800368430544 163.1752439463737 0.0 0.0
-495.43270226866554 -20.379951678107908 -213.59861034423068 171.18063845746295 0.0 0.0
-392.35353492670646 -9.554408039054932 -143.19200095076647 185.92833497627822 0.0 0.0
-276.66768695564 3.384597826322858 -85.4644256855538 196.26667464087532 0.0 0.0
-188.69741835141326 14.523523101029713 -52.11544338308821 193.0884630330142 0.0 0.0
-137.65660192059593 20.200565759393594 -35.1643941318605 183.35335561621025 0.0 0.0
-106.95803792159728 16.688432032570145 -27.10327675530631 181.016869979596 0.0 0.0
-78.22616212911367 -5.140354053067673 -24.997823825674267 181.59964955454004 0.0 0.0
-31.98255277573442 -78.66683071164408 -33.190249406239985 157.04040171918885 0.0 0.0
-89.40120528484447 -338.21830615291685 -128.28901104929474 105.23779969219392 0.0 0.0
-72.75399268618933 -250.75774865554047 -97.05352240251892 -93.8326516472809 0.0 0.0
-48.300229718177214 -76.90769825904087 -37.561555272483794 -143.5824265592569 0.0 0.0
-99.23349504912409 -5.290040110760542 -31.344043558683673 -173.24245272145325 0.0 0.0
-145.64583075912628 15.396837303517172 -39.03779520965646 -173.81254426377015 0.0 0.0
-196.36027554676076 20.086914185846645 -52.787491122929595 -172.66691381814394 0.0 0.0
-275.33020631711946 12.703514385515053 -79.95695950259076 -173.18338452329226 0.0 0.0
-393.330183081211 -7.932319983201435 -135.89043894748727 -168.64647297954892 0.0 0.0
-510.22099374423755 -30.595604371652907 -219.12843364079993 -156.75743596424505 0.0 0.0
-601.521212190683 -38.879103016335606 -293.12563922483963 -150.5713714074491 0.0 0.0
-665.3626081952908 -37.790245743162515 -338.83504796058753 -146.42435200281997 0.0 0.0
-716.0617803363467 -41.63353442498098 -371.05793100126743 -142.1932163346489 0.0 0.0
-765.1178256454219 -51.03388055885772 -401.5653107268771 -138.857733768792 0.0 0.0
-812.8621197713105 -63.50630889481853 -432.2190189643378 -135.2337912345722 0.0 0.0
-855.7662702223801 -74.9910609994366 -459.7724947561089 -132.02455269612284 0.0 0.0
-890.2711227834 -81.25761174072409 -480.43650766933285 -130.58382652919707 0.0 0.0
-911.2747847805165 -78.78028089637132 -489.8622417239384 -132.10771885682047 0.0 0.0
-916.8783145272723 -65.90487062470231 -486.29670607903256 -136.7617318211644 0.0 0.0
-897.1432975254331 -34.61217432624724 -460.8266942966215 -142.73981795260394 0.0 0.0
-841.4886228184769 24.082858201726495 -404.2944030077579 -147.46671641279337 0.0 0.0
-686.8039936227568 167.54484140667157 -258.6887428557361 -149.40475415359177 0.0 0.0
-2426.6856287893806 -1700.525980905039 -2038.2046067869267 1.254889525625913e-10 0.0 0.0
-686.8039936217526 167.54484140759672 -258.68874285496577 149.40475415377728 0.0 0.0
-841.4886228185749 24.082858201484697 -404.29440300784023 147.466716413037 0.0 0.0
-897.1432975229698 -34.6121743236897 -460.8266942949034 142.73981795244535 0.0 0.0
-916.8783145278708 -65.90487062545525 -486.29670607953875 136.7617318212567 0.0 0.0
-911.2747847808913 -78.7802808969328 -489.86224172416905 132.1077188568104 0.0 0.0
-890.2711227832476 -81.25761174077793 -480.4365076692387 130.58382652926034 0.0 0.0
-855.7662702210852 -74.99106099804847 -459.7724947551274 132.0245526959738 0.0 0.0
-812.8621197711755 -63.50630889495354 -432.21901896426743 135.2337912345012 0.0 0.0
-765.1178256441143 -51.03388055766824 -401.5653107260047 138.85773376871916 0.0 0.0
-716.0617803356172 -41.63353442444701 -371.0579310008743 142.1932163345581 0.0 0.0
-665.3626081960982 -37.79024574454096 -338.83504796114306 146.42435200299815 0.0 0.0
-601.5212121898403 -38.87910301557799 -293.12563922411516 150.57137140722273 0.0 0.0
-510.2209937431712 -30.595604370792575 -219.12843363998869 156.75743596414517 0.0 0.0
-393.3301830807286 -7.932319983208962 -135.8904389472033 168.64647297956856 0.0 0.0
-275.33020631651743 12.703514385842162 -79.95695950231217 173.18338452310013 0.0 0.0
-196.36027554655254 20.086914185760502 -52.7874911229058 172.6669138180258 0.0 0.0
-145.64583075900097 15.396837303496678 -39.0377952096299 173.81254426362307 0.0 0.0
-99.23349504905808 -5.290040110752811 -31.344043558660506 173.242452721398 0.0 0.0
-48.300229718310376 -76.90769825932952 -37.561555272611244 143.58242655909964 0.0 0.0
-72.75399268608376 -250.75774865513665 -97.05352240236611 93.83265164713299 0.0 0.0
-59.18702657066144 -177.67370204755161 -71.0582185854639 -80.50886593989938 0.0 0.0
-60.69492875007077 -70.57289543888734 -39.38052341404277 -128.1825022277717 0.0 0.0
-118.80982701758296 -5.2735121218456875 -37.21653476591685 -160.84070909504516 0.0 0.0
-182.07304861428682 13.422203037473825 -50.57352219600679 -161.50691814938236 0.0 0.0
-254.06283192541187 18.59863671976184 -70.44202241012113 -157.79291548266124 0.0 0.0
-360.5876475874416 6.860919892279165 -110.9273462508112 -150.26101743521446 0.0 0.0
-486.7319247664848 -24.16835269297436 -189.8404875356932 -138.11320749587227 0.0 0.0
-597.633015166239 -45.59218076716613 -283.01429344088535 -132.54833411291034 0.0 0.0
-677.9521039476496 -50.619146999721174 -348.68882931455323 -130.19699036723134 0.0 0.0
-734.6002351160446 -54.803740106281126 -388.1763947124446 -127.16310642873889 0.0 0.0
-787.5545405983939 -60.47626852138687 -419.60681509618416 -125.2916632414144 0.0 0.0
-839.2031810580252 -72.29633922983069 -451.74425718671523 -122.53801226678927 0.0 0.0
-890.8537407490214 -88.443273414887 -485.87441002719686 -119.23245864786072 0.0 0.0
-939.7024495071374 -104.88032373642642 -518.7231511465819 -116.00701996666659 0.0 0.0
-980.6770003925378 -116.54503990345827 -545.2513394797344 -114.26844888589255 0.0 0.0
-1006.5871062847502 -116.31470638171078 -558.289903385736 -115.69640369764419 0.0 0.0
-1008.021929155278 -97.83037665137778 -549.9619002883065 -119.944095935797 0.0 0.0
-975.8855734357037 -50.93648927123169 -510.6815066955388 -125.19458400737858 0.0 0.0
-892.1213936474243 38.94618542714964 -424.73056478638193 -127.98688894276313 0.0 0.0
-718.0971658246712 204.1638772980682 -257.1787364950851 -127.29279784418392 0.0 0.0
-2777.448596109537 -1942.1102280597543 -2340.2580837162795 2.3842261498430162e-11 0.0 0.0
-718.0971658241763 204.16387729836015 -257.1787364946902 127.29279784442883 0.0 0.0
-892.121393647596 38.94618542680236 -424.73056478662545 127.98688894303237 0.0 0.0
-975.8855734341334 -50.93648926964492 -510.6815066945386 125.19458400742161 0.0 0.0
-1008.0219291564528 -97.8303766526885 -549.9619002892687 119.94409593585338 0.0 0.0
-1006.5871062839786 -116.31470638100646 -558.2899033852302 115.69640369749709 0.0 0.0
-980.6770003922688 -116.54503990338475 -545.2513394794865 114.26844888597367 0.0 0.0
-939.7024495070018 -104.88032373642505 -518.7231511463929 116.00701996664144 0.0 0.0
-890.8537407485358 -88.44327341450989 -485.8744100269511 119.2324586477195 0.0 0.0
-839.2031810569976 -72.29633922887594 -451.7442571860547 122.53801226659127 0.0 0.0
-787.5545405980275 -60.476268521228874 -419.60681509597845 125.29166324132179 0.0 0.0
-734.600235115674 -54.803740106189586 -388.1763947121469 127.16310642857454 0.0 0.0
-677.9521039471125 -50.6191469994404 -348.6888293141368 130.19699036721838 0.0 0.0
-597.6330151655445 -45.59218076687657 -283.0142934403186 132.54833411286035 0.0 0.0
-486.73192476597313 -24.16835269294483 -189.84048753529942 138.11320749591354 0.0 0.0
-360.58764758707633 6.860919892201448 -110.92734625065076 150.26101743512507 0.0 0.0
-254.06283192513672 18.598636719399543 -70.44202241017076 157.792915482546 0.0 0.0
-182.07304861413374 13.42220303741513 -50.57352219599317 161.50691814916334 0.0 0.0
-118.80982701761596 -5.2735121220594365 -37.21653476598975 160.84070909503262 0.0 0.0
-60.6949287500834 -70.57289543899579 -39.38052341407909 128.18250222766514 0.0 0.0
-59.18702657055071 -177.67370204723827 -71.05821858533669 80.5088659398 0.0 0.0
-49.18095961966147 -118.33405018420518 -50.25450294116 -66.47593448318865 0.0 0.0
-70.41175093670515 -61.083818615485626 -39.44867086565723 -110.67039335929341 0.0 0.0
-137.1638624928892 -4.823698625609765 -42.59498878948304 -144.31577985970426 0.0 0.0
-216.70025942638043 11.18590838649802 -61.57625888916985 -145.24214827665148 0.0 0.0
-309.8456216349072 13.428535747057804 -89.33837718412703 -136.2190699903244 0.0 0.0
-437.20170981727375 -4.585905061679334 -146.07096179172595 -122.71006100739012 0.0 0.0
-563.1438670608527 -38.28234992639128 -241.91941094980555 -111.82935508876274 0.0 0.0
-664.6018046534689 -55.011853431568234 -333.10531784102346 -110.06455755259839 0.0 0.0
-733.627501555713 -63.95867245308391 -390.10923518331003 -108.45331304089535 0.0 0.0
-793.2172692239287 -69.32236547037618 -427.39745707889494 -108.44795089362324 0.0 0.0
-847.6599906714036 -78.60845372508147 -460.281530520277 -107.24675812958351 0.0 0.0
-902.5701315230419 -93.6258641752745 -495.3925392928609 -104.9894673677576 0.0 0.0
-958.0677145917603 -113.16152500078218 -533.0176519296439 -102.16695777702617 0.0 0.0
-1011.896216786293 -133.81422606812373 -570.3644792523543 -99.22356550568979 0.0 0.0
-1059.7935752354108 -151.3847422441828 -603.2409489583417 -97.2039696371953 0.0 0.0
-1089.8215070992014 -154.4378265379702 -620.0359009416024 -97.7200608981988 0.0 0.0
-1086.7153896960715 -128.17289329187804 -605.6297245792355 -101.3486680808158 0.0 0.0
-1035.921685845684 -61.28972455962443 -547.1637285963515 -105.79494302850622 0.0 0.0
-926.0593375945909 55.34152093174069 -434.6242435309397 -107.99070153508436 0.0 0.0
-742.9432174243424 229.9329205219908 -256.85644689024883 -109.20219793456107 0.0 0.0
-3076.6661453749903 -2169.8917500371695 -2607.763908990617 8.748557434046234e-11 0.0 0.0
-742.943217424021 229.9329205222332 -256.85644688996723 109.20219793472788 0.0 0.0
-926.0593375945638 55.34152093166699 -434.6242435310595 107.99070153523886 0.0 0.0
-1035.921685845104 -61.28972455916929 -547.1637285959525 105.79494302864754 0.0 0.0
-1086.715389696461 -128.17289329241925 -605.6297245795863 101.34866808089794 0.0 0.0
-1089.821507098959 -154.4378265378667 -620.0359009414286 97.72006089822403 0.0 0.0
-1059.7935752349422 -151.38474224387346 -603.2409489579825 97.20396963725656 0.0 0.0
-1011.8962167866075 -133.814226068652 -570.3644792524677 99.22356550570919 0.0 0.0
-958.0677145915989 -113.16152500086812 -533.0176519296836 102.16695777704552 0.0 0.0
-902.5701315223777 -93.62586417480408 -495.39253929243466 104.98946736769919 0.0 0.0
-847.6599906708276 -78.60845372481728 -460.2815305199421 107.24675812965694 0.0 0.0
-793.2172692233306 -69.32236546993906 -427.39745707856594 108.44795089345446 0.0 0.0
-733.6275015553052 -63.95867245301267 -390.1092351829907 108.45331304090438 0.0 0.0
-664.6018046536547 -55.01185343225633 -333.1053178410367 110.06455755271183 0.0 0.0
-563.1438670604032 -38.282349926434954 -241.91941094935981 111.82935508884306 0.0 0.0
-437.2017098167782 -4.585905061620588 -146.0709617914298 122.71006100732927 0.0 0.0
-309.845621634408 13.428535747160739 -89.3383771839613 136.21906999022204 0.0 0.0
-216.7002594261134 11.185908386743776 -61.576258889017154 145.2421482765385 0.0 0.0
-137.1638624928109 -4.823698625605806 -42.59498878945702 144.3157798596655 0.0 0.0
-70.41175093654765 -61.08381861525249 -39.44867086554004 110.67039335923647 0.0 0.0
-49.180959619532715 -118.33405018401186 -50.254502941063365 66.47593448318646 0.0 0.0
-42.5200111795134 -72.35881083399008 -34.46364660405104 -52.16490680911182 0.0 0.0
-77.94903057112649 -49.75626640991862 -38.311589094313526 -91.19827909449732 0.0 0.0
-154.4028455466131 -3.8276156703505575 -47.46964586356262 -123.7343249026691 0.0 0.0
-249.94162023824225 7.781011661127652 -72.57576400757507 -124.22707676420562 0.0 0.0
-367.84478227846364 6.902491419562241 -109.76074910888639 -111.804591404112 0.0 0.0
-500.62324201198936 -20.91579815962964 -184.72527254854305 -92.59772615859342 0.0 0.0
-624.8235731937589 -47.68374486581624 -287.89162658508496 -88.09287292995704 0.0 0.0
-712.1628694944167 -64.81631675487506 -371.4763101217054 -87.39713564769617 0.0 0.0
-782.5303330050211 -74.60764439431291 -423.2852342974389 -88.10431215842874 0.0 0.0
-843.0767851544988 -84.03904006182779 -461.0659740100317 -88.83460686587281 0.0 0.0
-900.9150550084598 -96.94574059183216 -496.9482139178067 -88.19210425830852 0.0 0.0
-959.1780174302794 -115.03381403791826 -535.1973513912368 -86.4702376662935 0.0 0.0
-1018.0232698671459 -137.35190477779926 -575.8403318084388 -84.25316284770831 0.0 0.0
-1075.5720580261218 -162.0009666921556 -616.9872563313006 -81.79272296625058 0.0 0.0
-1128.623577443359 -183.72400221261154 -654.4550744145715 -79.57825560021959 0.0 0.0
-1164.3527144748177 -190.8222928576916 -676.1060837289114 -78.91604293296459 0.0 0.0
-1158.7324803375193 -161.12126008445068 -658.8339284289692 -81.10091368513304 0.0 0.0
-1090.2116913307686 -74.92751216782773 -581.9001928065884 -85.14220936735539 0.0 0.0
-955.5775951622434 67.27135638330404 -443.9654164195397 -88.91305577287078 0.0 0.0
-758.5776581375173 255.10417499395254 -252.0330021455801 -94.0264822121733 0.0 0.0
-3335.3599892421807 -2375.9585242451244 -2843.0996708565795 1.426343487764825e-10 0.0 0.0
-758.577658136986 255.10417499438876 -252.03300214517952 94.0264822123055 0.0 0.0
-955.5775951629323 67.27135638247594 -443.9654164200857 88.91305577317742 0.0 0.0
-1090.2116913306636 -74.92751216774121 -581.9001928064207 85.14220936734574 0.0 0.0
-1158.7324803366992 -161.12126008373056 -658.8339284284469 81.10091368499981 0.0 0.0
-1164.352714474732 -190.8222928578003 -676.1060837287971 78.91604293308917 0.0 0.0
-1128.6235774432778 -183.72400221267267 -654.4550744145495 79.57825560027398 0.0 0.0
-1075.5720580258946 -162.0009666920525 -616.9872563311174 81.79272296610064 0.0 0.0
-1018.0232698668711 -137.35190477780077 -575.8403318083963 84.2531628477789 0.0 0.0
-959.1780174291175 -115.03381403696392 -535.1973513904669 86.47023766627808 0.0 0.0
-900.9150550078982 -96.94574059152033 -496.9482139175239 88.19210425829354 0.0 0.0
-843.0767851548661 -84.03904006254209 -461.0659740102826 88.83460686591397 0.0 0.0
-782.530333004221 -74.60764439376277 -423.2852342968775 88.1043121583894 0.0 0.0
-712.1628694950235 -64.81631675590924 -371.47631012196183 87.3971356476867 0.0 0.0
-624.823573193541 -47.68374486596265 -287.89162658471787 88.0928729298486 0.0 0.0
-500.6232420112447 -20.91579815922192 -184.72527254802955 92.59772615855323 0.0 0.0
-367.84478227793477 6.902491419684374 -109.76074910867831 111.80459140401085 0.0 0.0
-249.94162023792256 7.781011661474121 -72.57576400738418 124.22707676412668 0.0 0.0
-154.40284554653374 -3.8276156703974875 -47.46964586355282 123.73432490262888 0.0 0.0
-77.94903057110528 -49.75626640989925 -38.31158909430135 91.19827909444173 0.0 0.0
-42.520011179597006 -72.35881083398426 -34.46364660407437 52.16490680908119 0.0 0.0
-38.540813166567155 -39.49410396269877 -23.410475138779788 -37.96545987986522 0.0 0.0
-83.21937864064641 -37.76638594255123 -36.29572937495929 -69.99783871392742 0.0 0.0
-170.35026284966764 -2.442033615736317 -51.83790941732545 -98.94584303681751 0.0 0.0
-283.2462477668964 3.258023105680098 -83.88638138421885 -98.69421401234868 0.0 0.0
-423.01707100339706 -3.6079618036937946 -133.07622357589594 -82.48988620296444 0.0 0.0
-560.0979309864874 -33.003950793744586 -223.35269181448274 -67.24730884348101 0.0 0.0
-669.3466094666568 -56.12812380680707 -326.56618870288037 -65.73293075335482 0.0 0.0
-752.1922910898678 -72.06832863395566 -401.0649684116551 -65.85860703509131 0.0 0.0
-823.7135552133934 -85.72454153149755 -451.40344332952117 -67.32798284426975 0.0 0.0
-887.5120533850167 -98.94751130107971 -491.50995705404966 -68.44867368783295 0.0 0.0
-948.7230211435659 -115.42403843591285 -530.6613533468379 -68.23474611221802 0.0 0.0
-1010.5872058663488 -136.71335090060472 -572.2819474720835 -67.03652700669083 0.0 0.0
-1072.4874609655392 -162.22365375882165 -616.0310738436335 -65.4061692959081 0.0 0.0
-1132.358839933875 -187.7952763820314 -658.7738672953095 -63.661607705249104 0.0 0.0
-1187.3186733005882 -211.47158090755488 -698.1195021055719 -61.597002990462876 0.0 0.0
-1228.733249839398 -223.99283710825407 -725.2613062582539 -59.679909521779074 0.0 0.0
-1229.819139269504 -199.3766015329572 -713.9020734006115 -59.82353536472782 0.0 0.0
-1150.991129997257 -101.51081165615776 -626.0375910490407 -63.59596863451642 0.0 0.0
-987.3688117996403 70.41182601089947 -458.62073283826425 -70.20503851044646 0.0 0.0
-761.1337660544343 287.81881653748974 -236.90616860978594 -80.30327386726366 0.0 0.0
-3553.7982893724316 -2550.9523578453413 -3042.1328191780335 9.669420819591323e-11 0.0 0.0
-761.1337660540476 287.81881653781045 -236.90616860953799 80.3032738674097 0.0 0.0
-987.368811800942 70.41182600948403 -458.62073283924394 70.20503851066758 0.0 0.0
-1150.991129997296 -101.51081165630382 -626.0375910489805 63.59596863456712 0.0 0.0
-1229.8191392700012 -199.37660153352817 -713.9020734009704 59.823535364745595 0.0 0.0
-1228.7332498379137 -223.9928371069343 -725.2613062571397 59.67990952174031 0.0 0.0
-1187.3186733007938 -211.4715809078898 -698.1195021057264 61.59700299045515 0.0 0.0
-1132.3588399335933 -187.79527638192866 -658.7738672950723 63.661607705200225 0.0 0.0
-1072.4874609655174 -162.22365375898684 -616.0310738437017 65.40616929582049 0.0 0.0
-1010.5872058653517 -136.71335089980622 -572.2819474714115 67.0365270066303 0.0 0.0
-948.7230211433663 -115.42403843590738 -530.6613533467787 68.234746111961 0.0 0.0
-887.512053383851 -98.947511300178 -491.5099570532751 68.44867368770865 0.0 0.0
-823.7135552127851 -85.72454153118221 -451.4034433291211 67.32798284434996 0.0 0.0
-752.192291089912 -72.0683286342772 -401.0649684115649 65.85860703490783 0.0 0.0
-669.3466094656948 -56.12812380611863 -326.5661887020827 65.7329307531488 0.0 0.0
-560.0979309864068 -33.00395079418451 -223.35269181430567 67.24730884352407 0.0 0.0
-423.0170710028235 -3.607961803520921 -133.0762235756227 82.48988620298668 0.0 0.0
-283.24624776650995 3.2580231058192095 -83.8863813840866 98.69421401221007 0.0 0.0
-170.35026284951596 -2.442033615715565 -51.83790941727343 98.94584303681854 0.0 0.0
-83.21937864056159 -37.766385942644774 -36.2957293749619 69.99783871388472 0.0 0.0
-38.54081316637271 -39.49410396257622 -23.41047513868467 37.96545987977742 0.0 0.0
-36.01456272019591 -19.362278685401257 -16.613052421679146 -24.652070895824654 0.0 0.0
-85.4996372650364 -26.31961615858328 -33.54577602708591 -47.37187722497786 0.0 0.0
-184.66697188137334 -1.189070265078025 -55.7568126439354 -69.42455473310993 0.0 0.0
-318.20304052705296 -2.0107035505166526 -95.84326195208862 -68.14631449932497 0.0 0.0
-473.9549702805828 -17.326772396413663 -159.8528498701825 -51.80414783261625 0.0 0.0
-607.6192517698961 -42.38659583701559 -260.0842264475924 -44.1131279530447 0.0 0.0
-702.0979355264661 -62.443179649889785 -356.5863076525373 -43.8915761112938 0.0 0.0
-786.4194427837732 -80.08637527450725 -426.0559436969121 -44.788910572501436 0.0 0.0
-860.1238317318531 -97.44856571985065 -476.5520947245783 -46.1649672751119 0.0 0.0
-927.3008148170231 -114.21206711662506 -519.5138434543293 -47.282574789687416 0.0 0.0
-992.3500166231057 -134.08868325096665 -562.2024037272973 -47.414933168020596 0.0 0.0
-1057.4529154013846 -158.5568649219855 -607.0311992017864 -46.72886665702817 0.0 0.0
-1122.5492938549735 -185.95217221144955 -653.3033558133777 -45.77891221960763 0.0 0.0
-1183.9746640587482 -213.51674250100135 -697.8272320788617 -44.64002174453196 0.0 0.0
-1238.1628671776507 -235.86104645526936 -736.1228901400277 -43.07986659847694 0.0 0.0
-1278.7701652084747 -247.1643175827378 -762.1546562312735 -40.79927791879038 0.0 0.0
-1293.0103426935498 -235.3373306022734 -763.598499387736 -38.84208106476106 0.0 0.0
-1238.989127626543 -160.91389551332296 -699.8880261730134 -40.86678960801735 0.0 0.0
-1040.1247710853079 48.05538727588117 -496.4473772341746 -50.33193464855446 0.0 0.0
-736.9762357690975 343.79926825792626 -196.90225551390543 -66.87390507921012 0.0 0.0
-3718.3726125612675 -2677.4593770448237 -3189.5837313192997 1.06350483974893e-11 0.0 0.0
-736.9762357692357 343.79926825770116 -196.90225551408417 66.87390507941709 0.0 0.0
-1040.1247710854213 48.055387275695416 -496.44737723422026 50.331934648634636 0.0 0.0
-1238.9891276263252 -160.91389551317332 -699.8880261728149 40.8667896080034 0.0 0.0
-1293.0103426945093 -235.33733060341527 -763.5984993884365 38.84208106487375 0.0 0.0
-1278.7701652074102 -247.16431758180636 -762.1546562304748 40.799277918929 0.0 0.0
-1238.1628671781903 -235.86104645594153 -736.1228901403607 43.07986659842206 0.0 0.0
-1183.9746640585236 -213.516742500983 -697.8272320786014 44.640021744531616 0.0 0.0
-1122.5492938540226 -185.95217221069652 -653.3033558128091 45.77891221953496 0.0 0.0
-1057.4529154005224 -158.55686492141652 -607.0311992011711 46.72886665714965 0.0 0.0
-992.3500166230476 -134.08868325114508 -562.2024037272856 47.41493316803261 0.0 0.0
-927.3008148155311 -114.21206711540012 -519.5138434533519 47.28257478967285 0.0 0.0
-860.1238317315401 -97.44856571981589 -476.55209472433813 46.16496727507027 0.0 0.0
-786.419442783609 -80.08637527465676 -426.0559436967291 44.7889105723756 0.0 0.0
-702.0979355253954 -62.44317964907036 -356.5863076517089 43.891576111263625 0.0 0.0
-607.6192517699246 -42.386595837508494 -260.0842264473979 44.11312795294285 0.0 0.0
-473.9549702799074 -17.326772396023728 -159.8528498697872 51.80414783255515 0.0 0.0
-318.2030405268955 -2.0107035506747364 -95.84326195210711 68.14631449926625 0.0 0.0
-184.66697188124135 -1.1890702650524074 -55.756812643888125 69.42455473314271 0.0 0.0
-85.49963726502256 -26.319616158656345 -33.54577602710366 47.37187722489781 0.0 0.0
-36.014562720184074 -19.36227868534658 -16.613052421659205 24.6520708957179 0.0 0.0
-32.613259525456904 -10.92291094092542 -13.060851139914693 -13.892913006052378 0.0 0.0
-83.29862911588715 -17.103550913437946 -30.12065400879753 -23.736622133753727 0.0 0.0
-196.86018620161494 -1.0812960676777674 -59.38244468078781 -33.80563499350863 0.0 0.0
-355.0441142280942 -7.123205134977546 -108.79780926364293 -32.10192556895741 0.0 0.0
-523.743903004972 -28.769796014691657 -188.45346880099254 -23.31868220728108 0.0 0.0
-642.219911629744 -49.25100703838093 -292.33786319358546 -22.776156221374734 0.0 0.0
-731.2648121867236 -66.60140436251734 -380.3972559047278 -23.57978299700781 0.0 0.0
-815.8645817567351 -88.61764622439964 -447.4400359393085 -24.01939249042333 0.0 0.0
-892.4418250009031 -109.35284113630024 -499.26825491244784 -24.65557419558097 0.0 0.0
-963.3779460980775 -130.0836594998146 -545.8165477748181 -25.38215159243029 0.0 0.0
-1031.9808885758202 -153.10813219692812 -591.8248641887889 -25.70650224859088 0.0 0.0
-1100.4582829630233 -179.78275323689977 -639.4466238286614 -25.62584824680186 0.0 0.0
-1168.1247955944268 -210.01953512815368 -688.4199957651172 -25.251139616604814 0.0 0.0
-1231.5511383830974 -238.39810793558644 -734.3505693016758 -24.717989833578223 0.0 0.0
-1283.6932829011355 -258.34863930169126 -770.444123080101 -23.846738758432203 0.0 0.0
-1318.2945275297327 -263.7094461924845 -790.4913852931495 -22.169781508670425 0.0 0.0
-1332.89754050311 -252.559166797321 -792.2585093324823 -19.640609044332507 0.0 0.0
-1325.3608280430735 -224.02252387138026 -774.3627912517186 -18.686700304442958 0.0 0.0
-1209.65496491625 -95.33408779165876 -652.8324785690313 -26.590830482754534 0.0 0.0
-713.7182211762681 397.26287678812906 -158.87088605620949 -50.31387254216412 0.0 0.0
-3670.9626951957835 -2593.997029636064 -3126.1228400088607 -2.170708057747106e-12 0.0 0.0
-713.7182211758646 397.26287678847166 -158.8708860558606 50.313872542294625 0.0 0.0
-1209.6549649162064 -95.33408779167469 -652.8324785690061 26.590830482751564 0.0 0.0
-1325.3608280426643 -224.02252387108317 -774.3627912514595 18.686700304575663 0.0 0.0
-1332.8975405042643 -252.55916679858407 -792.2585093334219 19.640609044503663 0.0 0.0
-1318.2945275292263 -263.709446192137 -790.4913852926875 22.169781508728313 0.0 0.0
-1283.6932829011087 -258.3486393018238 -770.4441230801132 23.84673875847923 0.0 0.0
-1231.5511383826208 -238.39810793531558 -734.3505693012487 24.717989833554256 0.0 0.0
-1168.1247955933109 -210.01953512725117 -688.4199957644429 25.251139616680312 0.0 0.0
-1100.458282962339 -179.78275323645425 -639.4466238282471 25.625848246749225 0.0 0.0
-1031.9808885749296 -153.10813219635264 -591.8248641881786 25.706502248763936 0.0 0.0
-963.3779460966771 -130.08365949868414 -545.816547773908 25.382151592546336 0.0 0.0
-892.4418250010422 -109.35284113672361 -499.26825491251816 24.655574195686306 0.0 0.0
-815.864581756706 -88.61764622468584 -447.4400359392395 24.01939249030181 0.0 0.0
-731.2648121863139 -66.60140436243822 -380.3972559043421 23.579782997034975 0.0 0.0
-642.2199116293884 -49.25100703836947 -292.33786319315624 22.77615622122755 0.0 0.0
-523.7439030041447 -28.76979601411021 -188.45346880043263 23.318682207138735 0.0 0.0
-355.04411422767885 -7.123205135101866 -108.79780926356543 32.10192556894774 0.0 0.0
-196.86018620135349 -1.0812960675704626 -59.382444680677175 33.805634993556595 0.0 0.0
-83.29862911585056 -17.10355091350692 -30.12065400880724 23.736622133562282 0.0 0.0
-32.6132595254451 -10.922910940931079 -13.060851139912852 13.892913006018139 0.0 0.0
-21.282071043897783 -5.562296227719532 -8.053310181485195 -8.514831912589946 0.0 0.0
-72.56459621966994 -9.770011945922448 -24.700382449677708 -9.864662509922557 0.0 0.0
-206.22769558642608 -3.1275069994831988 -62.80656077577276 -11.22466848188667 0.0 0.0
-399.6689462326758 -24.58651787081609 -129.2187915792172 -7.857031165703538 0.0 0.0
-593.6066133022074 -74.36651839807757 -237.01363939759668 0.07588001132251776 0.0 0.0
-735.030671205922 -124.203869184203 -370.52495847513546 1.3812843988916939 0.0 0.0
-859.2331696616046 -179.57729401346197 -492.3306694038034 0.6447951075563054 0.0 0.0
-990.6786075918563 -249.93180678792083 -605.4878471629364 -0.839879712094902 0.0 0.0
-1129.4462545407105 -333.66931797305017 -719.8112244099141 -2.507175998362154 0.0 0.0
-1284.1579729884445 -437.9104473420375 -849.8531430491807 -4.277883538320351 0.0 0.0
-1460.7068298939846 -568.2272170337126 -1003.133216320698 -5.941879600401361 0.0 0.0
-1659.5751607331845 -725.4360628829826 -1180.7893086282015 -7.264039274877035 0.0 0.0
-1874.873307634336 -902.2393559086502 -1376.420157675227 -8.144758370921789 0.0 0.0
-2096.241019123573 -1088.1167033527574 -1579.708034706161 -8.852238729580987 0.0 0.0
-2307.2001174733564 -1266.5254855609157 -1774.1628077667021 -9.192716762406778 0.0 0.0
-2485.0561942355653 -1415.0464567639233 -1937.2673596125871 -8.87448082760843 0.0 0.0
-2602.9935060784846 -1507.5945036137014 -2042.5388338666785 -7.493798728344299 0.0 0.0
-2648.2295525627774 -1532.220468472202 -2077.166593403152 -5.9378231209558905 0.0 0.0
-2699.467399472347 -1568.9447900409502 -2119.7635955843916 -12.368962092905614 0.0 0.0
-2774.160524448222 -1642.2192692311996 -2191.2373960663854 -40.01340982080026 0.0 0.0
-6253.678380358599 -5148.8175090677205 -5677.144753188801 -6.721734280290548e-12 0.0 0.0
-2774.1605244470766 -1642.2192692300805 -2191.2373960652317 40.01340982079774 0.0 0.0
-2699.4673994727646 -1568.9447900414357 -2119.7635955846326 12.368962092748845 0.0 0.0
-2648.22955256008 -1532.2204684695707 -2077.1665934009643 5.937823120878122 0.0 0.0
-2602.9935060804664 -1507.5945036158564 -2042.5388338678613 7.493798728465006 0.0 0.0
-2485.0561942334593 -1415.0464567619563 -1937.2673596107556 8.874480827590205 0.0 0.0
-2307.20011747193 -1266.5254855596459 -1774.1628077656057 9.192716762522625 0.0 0.0
-2096.241019122198 -1088.1167033515776 -1579.7080347048206 8.852238729513239 0.0 0.0
-1874.8733076331764 -902.2393559077192 -1376.420157674205 8.144758371088948 0.0 0.0
-1659.575160732471 -725.4360628825345 -1180.7893086276554 7.264039274850205 0.0 0.0
-1460.7068298914503 -568.2272170314252 -1003.1332163188329 5.941879600574836 0.0 0.0
-1284.157972986691 -437.9104473405195 -849.8531430479094 4.277883538168595 0.0 0.0
-1129.4462545410302 -333.66931797368653 -719.8112244099308 2.507175998560637 0.0 0.0
-990.6786075914689 -249.93180678785217 -605.487847162557 0.8398797119560015 0.0 0.0
-859.2331696610102 -179.57729401320742 -492.33066940324477 -0.6447951074814213 0.0 0.0
-735.0306712055528 -124.20386918422008 -370.5249584746657 -1.3812843989135999 0.0 0.0
-593.606613301281 -74.36651839734924 -237.01363939690387 -0.07588001121880694 0.0 0.0
-399.6689462324005 -24.58651787096554 -129.2187915791448 7.8570311656879355 0.0 0.0
-206.22769558622022 -3.1275069992413798 -62.806560775638474 11.224668481916064 0.0 0.0
-72.56459621956444 -9.770011946039197 -24.700382449681083 9.864662509716116 0.0 0.0
-21.282071043608536 -5.562296227647438 -8.053310181376789 8.514831912664967 0.0 0.0
SCALARS Strain float 6
LOOKUP_TABLE default
0.014648366579276428 -0.02434644133534522 0.0 -0.0014436220380626484 0.0 0.0
0.00900048708169472 -0.0026992061122711884 0.0 -0.007389873050326172 0.0 0.0
0.0026614177186312445 -0.0006224392054504166 0.0 -0.0008824156445630955 0.0 0.0
0.002263001072417139 -0.0009002983466953852 0.0 1.0995692404628796e-05 0.0 0.0
0.0033585673888253207 -0.0014752779424448436 0.0 0.0001940314675857667 0.0 0.0
0.005755926742679673 -0.003287729897603008 0.0 0.00035581763923445023 0.0 0.0
0.009913847747807406 -0.0068459296564197004 0.0 0.0004718935942904064 0.0 0.0
0.01618167467827443 -0.012491268140932835 0.0 0.0005121954221089014 0.0 0.0
0.024834831843411675 -0.020469656644777907 0.0 0.0004755108211102666 0.0 0.0
0.03597366910536606 -0.030825338389766845 0.0 0.00033254497467343494 0.0 0.0
0.04952221781955003 -0.043447372578331575 0.0 0.00011624202393342004 0.0 0.0
0.06530119035356205 -0.05815380192430446 0.0 -0.00016580871951911913 0.0 0.0
0.08308734228860229 -0.07475657565545296 0.0 -0.0005347713256848776 0.0 0.0
0.10264203794780849 -0.0930609096747882 0.0 -0.0009443015591857847 0.0 0.0
0.12363776699031115 -0.11279599489547737 0.0 -0.00142242992200219 0.0 0.0
0.14550974326192004 -0.13346123706551252 0.0 -0.0019494038068520983 0.0 0.0
0.16735734869051355 -0.15422168212136714 0.0 -0.002420078428688661 0.0 0.0
0.1879406537494385 -0.1739029086701533 0.0 -0.0026558961315493613 0.0 0.0
0.20579978636849716 -0.19105756694245962 0.0 -0.0024958616810498396 0.0 0.0
0.21914705730692585 -0.20398071275254798 0.0 -0.0028874501980781955 0.0 0.0
0.22443626230859037 -0.20932623808601708 0.0 2.5326962749261384e-15 0.0 0.0
0.21914705730689582 -0.20398071275252444 0.0 0.0028874501980871107 0.0 0.0
0.20579978636843616 -0.19105756694240092 0.0 0.0024958616810569646 0.0 0.0
0.18794065374935043 -0.17390290867006852 0.0 0.0026558961315562516 0.0 0.0
0.16735734869040972 -0.15422168212126927 0.0 0.0024200784286869583 0.0 0.0
0.14550974326181174 -0.13346123706540985 0.0 0.0019494038068481462 0.0 0.0
0.12363776699020274 -0.11279599489536571 0.0 0.0014224299220004398 0.0 0.0
0.10264203794770076 -0.09306090967469455 0.0 0.0009443015591859014 0.0 0.0
0.08308734228849664 -0.07475657565534935 0.0 0.0005347713256818373 0.0 0.0
0.06530119035346373 -0.058153801924213974 0.0 0.00016580871951709774 0.0 0.0
0.04952221781946569 -0.043447372578257835 0.0 -0.00011624202393926975 0.0 0.0
0.035973669105297514 -0.030825338389700863 0.0 -0.0003325449746793348 0.0 0.0
0.02483483184335995 -0.020469656644732853 0.0 -0.00047551082110934605 0.0 0.0
0.01618167467823829 -0.012491268140896006 0.0 -0.000512195422110673 0.0 0.0
0.009913847747783032 -0.006845929656400936 0.0 -0.00047189359429048686 0.0 0.0
0.005755926742665709 -0.0032877298975931774 0.0 -0.00035581763923233885 0.0 0.0
0.0033585673888197123 -0.0014752779424428177 0.0 -0.0001940314675837515 0.0 0.0
0.0022630010724157138 -0.0009002983466952956 0.0 -1.0995692405594258e-05 0.0 0.0
0.002661417718628967 -0.0006224392054503085 0.0 0.0008824156445615989 0.0 0.0
0.009000487081688689 -0.0026992061122665355 0.0 0.007389873050318288 0.0 0.0
0.014648366579268506 -0.024346441335320337 0.0 0.001443622038014552 0.0 0.0
0.010260744579282858 -0.02184662502618777 0.0 -0.0009734820778054202 0.0 0.0
0.006003409764997331 -0.0020202481347454623 0.0 -0.0060449793872204265 0.0 0.0
0.0017458051287763206 -0.0004743111113986665 0.0 -0.0005585578139973164 0.0 0.0
0.0019924064887066077 -0.0008463640148998529 0.0 -0.00019115474566999913 0.0 0.0
0.0028867937407924087 -0.0013248696754030482 0.0 -0.00014982442731438844 0.0 0.0
0.004926094792829936 -0.0029444072887678265 0.0 -0.0002337283565236011 0.0 0.0
0.008624462112812342 -0.006258191602839747 0.0 -0.0005462988431165684 0.0 0.0
0.014309320969397583 -0.011604109941003159 0.0 -0.0010440159127146668 0.0 0.0
0.022202056460746685 -0.019200008897781395 0.0 -0.0017457019076507737 0.0 0.0
0.032338733785199095 -0.029057391928333037 0.0 -0.002621881535922323 0.0 0.0
0.04460651065601231 -0.0410460238651996 0.0 -0.0035862063075223624 0.0 0.0
0.058834010756941266 -0.05498449791092266 0.0 -0.004571524403072767 0.0 0.0
0.07485699544829984 -0.07070945894408609 0.0 -0.0055862920204991125 0.0 0.0
0.09249116637586613 -0.08805824894518952 0.0 -0.006635033220532553 0.0 0.0
0.1114534274279962 -0.10677966714635169 0.0 -0.007685641307452452 0.0 0.0
0.13125491407957626 -0.12641184904776878 0.0 -0.008642462909370603 0.0 0.0
0.15110727778815003 -0.1461829192612485 0.0 -0.009264141368728832 0.0 0.0
0.16990877212819527 -0.16498786603035448 0.0 -0.009213120094945234 0.0 0.0
0.18621739615438754 -0.1814094158835794 0.0 -0.00831125657754952 0.0 0.0
0.19792836588903523 -0.19356981932893133 0.0 -0.007286883738004034 0.0 0.0
0.20231219564625202 -0.1986501822740665 0.0 7.724723638524722e-15 0.0 0.0
0.19792836588900703 -0.19356981932890632 0.0 0.007286883738026687 0.0 0.0
0.18621739615433291 -0.18140941588352721 0.0 0.00831125657757174 0.0 0.0
0.16990877212811825 -0.16498786603027712 0.0 0.009213120094958671 0.0 0.0
0.15110727778805874 -0.14618291926116023 0.0 0.009264141368730591 0.0 0.0
0.1312549140794791 -0.12641184904766825 0.0 0.008642462909365697 0.0 0.0
0.11145342742789817 -0.10677966714625092 0.0 0.007685641307449336 0.0 0.0
0.0924911663757695 -0.0880582489450987 0.0 0.006635033220530304 0.0 0.0
0.07485699544820529 -0.07070945894399217 0.0 0.005586292020492378 0.0 0.0
0.058834010756853336 -0.05498449791083796 0.0 0.004571524403066804 0.0 0.0
0.04460651065593628 -0.041046023865127276 0.0 0.003586206307512749 0.0 0.0
0.03233873378513676 -0.029057391928273814 0.0 0.0026218815359153992 0.0 0.0
0.02220205646069973 -0.01920000889773862 0.0 0.001745701907649723 0.0 0.0
0.014309320969364858 -0.011604109940969567 0.0 0.0010440159127104256 0.0 0.0
0.0086244621127913 -0.006258191602820906 0.0 0.0005462988431148251 0.0 0.0
0.004926094792818482 -0.0029444072887610593 0.0 0.00023372835652314843 0.0 0.0
0.0028867937407881564 -0.0013248696754008416 0.0 0.00014982442731585266 0.0 0.0
0.0019924064887057494 -0.0008463640148974941 0.0 0.0001911547456684975 0.0 0.0
0.0017458051287760005 -0.0004743111113993913 0.0 0.0005585578139971365 0.0 0.0
0.006003409764990288 -0.002020248134740894 0.0 0.006044979387208235 0.0 0.0
0.010260744579268982 -0.021846625026161637 0.0 0.0009734820777675046 0.0 0.0
0.007533653700479391 -0.017451864374976166 0.0 -0.004022964740472847 0.0 0.0
0.0042664982496449936 -0.001128019152684864 0.0 -0.00611152105501369 0.0 0.0
0.0012114577907165749 -0.00025288735522381264 0.0 -0.0005016902653298102 0.0 0.0
0.001685706577269617 -0.0007161018512806997 0.0 -0.00047976603977161673 0.0 0.0
0.002459352858869342 -0.001064708125866469 0.0 -0.000491588644272427 0.0 0.0
0.0041406820414916475 -0.002298447307035414 0.0 -0.0006486961935875737 0.0 0.0
0.007351318745375358 -0.005102971548165261 0.0 -0.0012461084336961724 0.0 0.0
0.012421541312854202 -0.009835175468325049 0.0 -0.002210192667056642 0.0 0.0
0.019512039438675785 -0.01664398186828601 0.0 -0.003552676780665753 0.0 0.0
0.028614564354536902 -0.02549025927131944 0.0 -0.005188381672759093 0.0 0.0
0.03958834017247171 -0.03620484119381509 0.0 -0.006961932515138351 0.0 0.0
0.05226639570122906 -0.04860961072613346 0.0 -0.008736208774163708 0.0 0.0
0.06651571386864011 -0.06257805779334594 0.0 -0.010493416498103854 0.0 0.0
0.08220903524502254 -0.07800362875605842 0.0 -0.0122938618283657 0.0 0.0
0.09912432687994698 -0.09468889297044371 0.0 -0.014103725658623462 0.0 0.0
0.11685616401527014 -0.11225283232117164 0.0 -0.01572668254348455 0.0 0.0
0.13474773434541745 -0.130053212108131 0.0 -0.016772450609494893 0.0 0.0
0.15181018665776744 -0.1471211895558137 0.0 -0.016742253702170334 0.0 0.0
0.16659422811872246 -0.162076658218866 0.0 -0.015341298606138068 0.0 0.0
0.1772235918176953 -0.17297857895239124 0.0 -0.012610616405280559 0.0 0.0
0.18124605380740608 -0.1778172533573928 0.0 1.5589092516865577e-14 0.0 0.0
0.17722359181766945 -0.17297857895236765 0.0 0.0126106164053215 0.0 0.0
0.1665942281186734 -0.16207665821882145 0.0 0.01534129860617722 0.0 0.0
0.15181018665770013 -0.14712118955574932 0.0 0.016742253702191578 0.0 0.0
0.13474773434533774 -0.1300532121080567 0.0 0.01677245060949729 0.0 0.0
0.11685616401518373 -0.11225283232108707 0.0 0.015726682543476183 0.0 0.0
0.09912432687985923 -0.09468889297035687 0.0 0.01410372565861872 0.0 0.0
0.08220903524493609 -0.07800362875597401 0.0 0.012293861828360203 0.0 0.0
0.06651571386855658 -0.06257805779326452 0.0 0.010493416498092394 0.0 0.0
0.05226639570115139 -0.04860961072605401 0.0 0.008736208774152553 0.0 0.0
0.03958834017240402 -0.03620484119374656 0.0 0.006961932515124248 0.0 0.0
0.02861456435448144 -0.025490259271268377 0.0 0.0051883816727481165 0.0 0.0
0.019512039438633152 -0.016643981868246265 0.0 0.0035526767806603916 0.0 0.0
0.012421541312824816 -0.009835175468297163 0.0 0.0022101926670498686 0.0 0.0
0.007351318745357124 -0.0051029715481504 0.0 0.0012461084336917827 0.0 0.0
0.004140682041482151 -0.0022984473070290076 0.0 0.0006486961935866357 0.0 0.0
0.0024593528588658688 -0.0010647081258650449 0.0 0.0004915886442734593 0.0 0.0
0.0016857065772690786 -0.0007161018512784926 0.0 0.000479766039770786 0.0 0.0
0.0012114577907161958 -0.00025288735522362735 0.0 0.0005016902653291106 0.0 0.0
0.0042664982496376245 -0.001128019152680597 0.0 0.006111521054998373 0.0 0.0
0.007533653700465704 -0.017451864374949944 0.0 0.004022964740448654 0.0 0.0
0.005699402911669039 -0.014067097590003557 0.0 -0.004459386772265125 0.0 0.0
0.003154201505953368 -0.000812954911228733 0.0 -0.005576233610278052 0.0 0.0
0.0008612310471188203 -0.00014134422355012623 0.0 -0.000784465667059624 0.0 0.0
0.0013891264106197776 -0.0005678788861262422 0.0 -0.0007720448565991363 0.0 0.0
0.00206998112977975 -0.0008659358561171713 0.0 -0.0008201429452295067 0.0 0.0
0.0034184391252461096 -0.0017528270011382668 0.0 -0.001004610647061511 0.0 0.0
0.006116753239205414 -0.004008556749124073 0.0 -0.001716838598327181 0.0 0.0
0.010536665866640083 -0.008086306062762071 0.0 -0.0030555917828232124 0.0 0.0
0.01679338341037951 -0.01407183181798901 0.0 -0.004882101423623388 0.0 0.0
0.0248359804102451 -0.0218782781911545 0.0 -0.007091667400208763 0.0 0.0
0.03450131673410062 -0.031306195274072 0.0 -0.009468339403243299 0.0 0.0
0.04562619922109248 -0.04217629441784339 0.0 -0.011839533039515841 0.0 0.0
0.058101935034272606 -0.05438709946954596 0.0 -0.014179850237968226 0.0 0.0
0.07183875115770069 -0.06787521993042309 0.0 -0.016543667818632684 0.0 0.0
0.08668613393104355 -0.08250514911302417 0.0 -0.018903163694441987 0.0 0.0
0.10234138765884356 -0.09798917308523339 0.0 -0.021041975860133656 0.0 0.0
0.11826881905664068 -0.1138175092878784 0.0 -0.022497782944336422 0.0 0.0
0.13359711371938826 -0.12915496984386587 0.0 -0.02266772839616734 0.0 0.0
0.14701930542753275 -0.14271322908608072 0.0 -0.020930848755786175 0.0 0.0
0.15691597020336673 -0.15279129051751256 0.0 -0.01639867977340669 0.0 0.0
0.1607705496263699 -0.15778823082817145 0.0 2.0837498393433407e-14 0.0 0.0
0.15691597020334339 -0.1527912905174955 0.0 0.016398679773458064 0.0 0.0
0.1470193054274889 -0.14271322908603448 0.0 0.020930848755836937 0.0 0.0
0.13359711371932895 -0.12915496984380848 0.0 0.022667728396197732 0.0 0.0
0.11826881905657127 -0.11381750928780981 0.0 0.022497782944342303 0.0 0.0
0.10234138765876812 -0.09798917308516282 0.0 0.02104197586012474 0.0 0.0
0.08668613393096634 -0.08250514911294424 0.0 0.01890316369443372 0.0 0.0
0.07183875115762446 -0.0678752199303493 0.0 0.016543667818624302 0.0 0.0
0.05810193503419944 -0.054387099469476057 0.0 0.014179850237954848 0.0 0.0
0.04562619922102504 -0.0421762944177666 0.0 0.011839533039499129 0.0 0.0
0.03450131673404117 -0.03130619527401092 0.0 0.00946833940322627 0.0 0.0
0.0248359804101961 -0.021878278191109903 0.0 0.00709166740019102 0.0 0.0
0.0167933834103419 -0.014071831817951793 0.0 0.004882101423613883 0.0 0.0
0.010536665866614418 -0.008086306062738599 0.0 0.003055591782814292 0.0 0.0
0.006116753239190391 -0.004008556749111338 0.0 0.0017168385983211431 0.0 0.0
0.003418439125238855 -0.0017528270011340913 0.0 0.0010046106470608536 0.0 0.0
0.002069981129777728 -0.0008659358561165919 0.0 0.0008201429452294128 0.0 0.0
0.001389126410619862 -0.000567878886126551 0.0 0.0007720448565989517 0.0 0.0
0.0008612310471188858 -0.00014134422354961324 0.0 0.0007844656670567363 0.0 0.0
0.003154201505947501 -0.0008129549112250279 0.0 0.005576233610266081 0.0 0.0
0.005699402911657439 -0.014067097589979967 0.0 0.0044593867722476635 0.0 0.0
0.004327355235487131 -0.011342868593322881 0.0 -0.00396285155590897 0.0 0.0
0.0023622444493932022 -0.000647545188549747 0.0 -0.004973476012614988 0.0 0.0
0.000624763752733704 -8.849772668381844e-05 0.0 -0.0011794288695500658 0.0 0.0
0.00112195083823135 -0.0004318086271147674 0.0 -0.0010881920600408627 0.0 0.0
0.0017142929497395922 -0.0007037859187540257 0.0 -0.001145514179411031 0.0 0.0
0.0027725309500754476 -0.00132012072349609 0.0 -0.001320366238926725 0.0 0.0
0.004947538029164595 -0.0030219077140191154 0.0 -0.002033589236248432 0.0 0.0
0.008677340234850355 -0.006382406716836595 0.0 -0.003542282267276795 0.0 0.0
0.014075935098233312 -0.011515288298901317 0.0 -0.00572516635198314 0.0 0.0
0.021035542937009148 -0.01825780207858526 0.0 -0.00832595602014466 0.0 0.0
0.029380679161979485 -0.026386538057703593 0.0 -0.011110820839070501 0.0 0.0
0.03894591142940364 -0.03571752848880535 0.0 -0.013884252905802044 0.0 0.0
0.04964253011936141 -0.04616878510914721 0.0 -0.01662314220383007 0.0 0.0
0.06142349059580575 -0.05771528911473425 0.0 -0.019379794713379736 0.0 0.0
0.07419150992895444 -0.07027874684558971 0.0 -0.02210488248474375 0.0 0.0
0.0877372520758112 -0.08365918171785214 0.0 -0.024576501030514883 0.0 0.0
0.10166554159852192 -0.09747739306868619 0.0 -0.026378949835446683 0.0 0.0
0.11527004642556005 -0.11106269021891825 0.0 -0.026857376921842403 0.0 0.0
0.1274566947496397 -0.1233406859362941 0.0 -0.02496441289342208 0.0 0.0
0.13683893753573978 -0.13286464141319604 0.0 -0.019263017778760997 0.0 0.0
0.14064416893161083 -0.1382127329816409 0.0 2.370412893748508e-14 0.0 0.0
0.13683893753571894 -0.13286464141317222 0.0 0.019263017778820737 0.0 0.0
0.12745669474960084 -0.12334068593625205 0.0 0.024964412893478415 0.0 0.0
0.11527004642550864 -0.11106269021886683 0.0 0.026857376921877334 0.0 0.0
0.10166554159846232 -0.09747739306862441 0.0 0.026378949835454787 0.0 0.0
0.08773725207574551 -0.08365918171778887 0.0 0.024576501030504478 0.0 0.0
0.0741915099288878 -0.07027874684551902 0.0 0.022104882484731813 0.0 0.0
0.06142349059574087 -0.05771528911467158 0.0 0.019379794713369536 0.0 0.0
0.04964253011929898 -0.04616878510908689 0.0 0.016623142203816554 0.0 0.0
0.03894591142934618 -0.03571752848874082 0.0 0.01388425290578386 0.0 0.0
0.029380679161928665 -0.026386538057655555 0.0 0.011110820839047561 0.0 0.0
0.021035542936966772 -0.01825780207854394 0.0 0.008325956020122156 0.0 0.0
0.01407593509820106 -0.011515288298868914 0.0 0.005725166351970691 0.0 0.0
0.008677340234828556 -0.006382406716818161 0.0 0.003542282267267603 0.0 0.0
0.004947538029152545 -0.0030219077140080835 0.0 0.0020335892362433163 0.0 0.0
0.002772530950070169 -0.0013201207234939754 0.0 0.001320366238922811 0.0 0.0
0.0017142929497380845 -0.0007037859187539661 0.0 0.0011455141794120436 0.0 0.0
0.0011219508382311369 -0.00043180862711485267 0.0 0.0010881920600390657 0.0 0.0
0.0006247637527333745 -8.849772668468247e-05 0.0 0.0011794288695464786 0.0 0.0
0.0023622444493877114 -0.0006475451885469773 0.0 0.0049734760126042285 0.0 0.0
0.004327355235476499 -0.01134286859330232 0.0 0.003962851555895928 0.0 0.0
0.0032498436718597337 -0.009069413488179684 0.0 -0.0032810942672618125 0.0 0.0
0.0017619808829913914 -0.0005350488422083796 0.0 -0.004388647243296526 0.0 0.0
0.0004556857622330184 -7.124512110282112e-05 0.0 -0.0015572480280506454 0.0 0.0
0.000881176108560418 -0.00031073975154990394 0.0 -0.0014060642311823227 0.0 0.0
0.0013884843412771636 -0.0005660291774373443 0.0 -0.0014667092729043127 0.0 0.0
0.0021991778249719988 -0.0009853314636848688 0.0 -0.0016076253901559454 0.0 0.0
0.0038764803628692284 -0.0021828289272283093 0.0 -0.0022701429307780863 0.0 0.0
0.006883914388364697 -0.004781977781699752 0.0 -0.0037349403292276677 0.0 0.0
0.011381532197422004 -0.009006409354753461 0.0 -0.006055363341877727 0.0 0.0
0.017245755103280445 -0.014664900518223535 0.0 -0.008882228260298466 0.0 0.0
0.024258914162338094 -0.02148241805828519 0.0 -0.011882412679485447 0.0 0.0
0.03226073517016374 -0.029270519133282262 0.0 -0.014868792940746736 0.0 0.0
0.041177224022401246 -0.037961073358779684 0.0 -0.01781248152730136 0.0 0.0
0.0509944173870763 -0.04756351418967427 0.0 -0.02076820831036358 0.0 0.0
0.06167751344179792 -0.058054494370041274 0.0 -0.02368924891412122 0.0 0.0
0.07309226586339115 -0.06930901450988483 0.0 -0.026342664482986385 0.0 0.0
0.08496299411842978 -0.08105982027131219 0.0 -0.028365127945150316 0.0 0.0
0.09681070928993683 -0.0928444481390986 0.0 -0.029152857128799753 0.0 0.0
0.10782310028371955 -0.10389440337774061 0.0 -0.027447256707394903 0.0 0.0
0.11683208304741721 -0.11302527564196152 0.0 -0.021340490811455774 0.0 0.0
0.12067072907546808 -0.11887900983139779 0.0 2.3396215520499197e-14 0.0 0.0
0.11683208304739878 -0.11302527564193698 0.0 0.021340490811517496 0.0 0.0
0.10782310028368591 -0.10389440337770427 0.0 0.02744725670745251 0.0 0.0
0.09681070928989376 -0.09284444813905508 0.0 0.02915285712883866 0.0 0.0
0.0849629941183792 -0.08105982027126009 0.0 0.02836512794515573 0.0 0.0
0.07309226586333535 -0.06930901450983483 0.0 0.02634266448297564 0.0 0.0
0.06167751344174226 -0.05805449436998797 0.0 0.02368924891410788 0.0 0.0
0.05099441738702241 -0.04756351418961701 0.0 0.02076820831035269 0.0 0.0
0.04117722402234941 -0.03796107335872805 0.0 0.01781248152728878 0.0 0.0
0.03226073517011577 -0.0292705191332341 0.0 0.014868792940725427 0.0 0.0
0.024258914162295614 -0.02148241805824504 0.0 0.01188241267945954 0.0 0.0
0.017245755103245563 -0.01466490051818669 0.0 0.008882228260275418 0.0 0.0
0.011381532197395603 -0.009006409354726115 0.0 0.006055363341863258 0.0 0.0
0.006883914388347104 -0.004781977781682774 0.0 0.0037349403292203003 0.0 0.0
0.0038764803628597543 -0.0021828289272238285 0.0 0.002270142930773869 0.0 0.0
0.0021991778249683376 -0.0009853314636796772 0.0 0.0016076253901523697 0.0 0.0
0.001388484341276118 -0.0005660291774373526 0.0 0.0014667092729047243 0.0 0.0
0.0008811761085601987 -0.0003107397515501518 0.0 0.0014060642311804234 0.0 0.0
0.00045568576223316905 -7.124512110333034e-05 0.0 0.0015572480280474528 0.0 0.0
0.001761980882987083 -0.0005350488422067852 0.0 0.0043886472432868705 0.0 0.0
0.0032498436718510944 -0.009069413488162308 0.0 0.0032810942672530665 0.0 0.0
0.0023927381943474636 -0.007148424816248049 0.0 -0.00265236335909327 0.0 0.0
0.0012936538231498212 -0.00044857107157928074 0.0 -0.0038588584687375 0.0 0.0
0.0003245219705288942 -6.845788541853931e-05 0.0 -0.001869407754363281 0.0 0.0
0.000658752148635661 -0.00020344092785319493 0.0 -0.0017002315871567507 0.0 0.0
0.0010834112986819419 -0.00043667846701601063 0.0 -0.0017637433591751327 0.0 0.0
0.0016885687260253558 -0.0007297041501140599 0.0 -0.0018918697617851701 0.0 0.0
0.00291062753647728 -0.0015006892309236994 0.0 -0.0024254120177001942 0.0 0.0
0.005203969095921276 -0.0033538167990462865 0.0 -0.0037442504691655894 0.0 0.0
0.008760644502739593 -0.006606863929836942 0.0 -0.005918721502251192 0.0 0.0
0.013495339370513683 -0.011139565717589605 0.0 -0.008733602973028038 0.0 0.0
0.01917028072199226 -0.01663278112323746 0.0 -0.011765127622364152 0.0 0.0
0.025604414792787075 -0.022874086243679564 0.0 -0.01477980405189281 0.0 0.0
0.03274100839026984 -0.029806966390716373 0.0 -0.01773615262819549 0.0 0.0
0.040596215712576995 -0.03746551997168811 0.0 -0.02069477234764778 0.0 0.0
0.04918269872559755 -0.045875693515389906 0.0 -0.02362071419132316 0.0 0.0
0.05843925118469062 -0.05498510332228342 0.0 -0.02630796146826084 0.0 0.0
0.06820377923946316 -0.06461615151947646 0.0 -0.028405227874990883 0.0 0.0
0.0782175431239795 -0.07451237786809668 0.0 -0.029454441809052295 0.0 0.0
0.08801803794031192 -0.08428483570043532 0.0 -0.028277500976043705 0.0 0.0
0.09672076329204382 -0.09309031798565237 0.0 -0.022612775904138856 0.0 0.0
0.10065418369417233 -0.0995938860403339 0.0 2.4181177893378702e-14 0.0 0.0
0.0967207632920288 -0.09309031798563953 0.0 0.022612775904201098 0.0 0.0
0.08801803794028394 -0.08428483570039724 0.0 0.02827750097610541 0.0 0.0
0.07821754312394388 -0.07451237786806252 0.0 0.029454441809092687 0.0 0.0
0.06820377923942136 -0.06461615151943378 0.0 0.02840522787499425 0.0 0.0
0.05843925118464541 -0.05498510332224271 0.0 0.02630796146824875 0.0 0.0
0.04918269872555277 -0.0458756935153514 0.0 0.023620714191311343 0.0 0.0
0.04059621571253461 -0.03746551997164174 0.0 0.02069477234763683 0.0 0.0
0.03274100839022914 -0.029806966390678327 0.0 0.017736152628183687 0.0 0.0
0.025604414792748643 -0.022874086243641543 0.0 0.014779804051871483 0.0 0.0
0.019170280721958238 -0.016632781123208824 0.0 0.011765127622339024 0.0 0.0
0.013495339370485837 -0.011139565717563133 0.0 0.008733602973005544 0.0 0.0
0.008760644502719133 -0.006606863929818857 0.0 0.005918721502236494 0.0 0.0
0.005203969095908104 -0.003353816799029461 0.0 0.0037442504691568663 0.0 0.0
0.002910627536470403 -0.0015006892309211467 0.0 0.0024254120176959086 0.0 0.0
0.001688568726022801 -0.0007297041501110294 0.0 0.001891869761782862 0.0 0.0
0.0010834112986811697 -0.0004366784670165984 0.0 0.0017637433591728142 0.0 0.0
0.0006587521486353616 -0.0002034409278541143 0.0 0.0017002315871548134 0.0 0.0
0.000324521970528598 -6.845788541895908e-05 0.0 0.001869407754359933 0.0 0.0
0.001293653823146399 -0.0004485710715781236 0.0 0.0038588584687298264 0.0 0.0
0.0023927381943408214 -0.007148424816234027 0.0 0.002652363359087477 0.0 0.0
0.0017111692211895131 -0.005532157020770945 0.0 -0.0021604134883767183 0.0 0.0
0.0009224197522024589 -0.00038342948464562367 0.0 -0.0033812748199003933 0.0 0.0
0.00021178573606222837 -6.408796966582468e-05 0.0 -0.0021060820880428543 0.0 0.0
0.00044734453293802066 -0.00010777379134405914 0.0 -0.0019527846502098473 0.0 0.0
0.0007872475346799585 -0.00030387986886438496 0.0 -0.0020164133226258916 0.0 0.0
0.0012316465371434954 -0.0005263948114867058 0.0 -0.0021729657440047664 0.0 0.0
0.0020540151091338337 -0.0009752120796598614 0.0 -0.002546254121940502 0.0 0.0
0.003661122094041994 -0.0021427390135666156 0.0 -0.003589242120302473 0.0 0.0
0.006271538063966187 -0.004405052913483748 0.0 -0.005425006286286449 0.0 0.0
0.009835510380467762 -0.0077512641931923275 0.0 -0.007917493033553737 0.0 0.0
0.014144700954583967 -0.01188616173189146 0.0 -0.010737723749482961 0.0 0.0
0.019011056236550118 -0.016574778584522235 0.0 -0.013580591410089195 0.0 0.0
0.024373579245408387 -0.021755218531489814 0.0 -0.016365405956238015 0.0 0.0
0.03026515987488717 -0.027473655480686098 0.0 -0.019132289485464922 0.0 0.0
0.0367467663073083 -0.03379474353419371 0.0 -0.021879005868759564 0.0 0.0
0.04382740331651056 -0.040737721920891916 0.0 -0.0244368333608082 0.0 0.0
0.05143009664317503 -0.048212985565252484 0.0 -0.02646992344729498 0.0 0.0
0.059492939466818454 -0.05610783273541915 0.0 -0.027628187802928608 0.0 0.0
0.06794809828956591 -0.06443036294607138 0.0 -0.027216665651888815 0.0 0.0
0.07631516619319297 -0.07285570123135415 0.0 -0.022934451150043077 0.0 0.0
0.08037271178054695 -0.0801508124484374 0.0 2.4255771002845705e-14 0.0 0.0
0.07631516619318188 -0.07285570123134202 0.0 0.022934451150099185 0.0 0.0
0.0679480982895444 -0.06443036294604658 0.0 0.02721666565194828 0.0 0.0
0.059492939466790476 -0.0561078327353918 0.0 0.027628187802961682 0.0 0.0
0.051430096643142444 -0.04821298556521935 0.0 0.02646992344729772 0.0 0.0
0.04382740331647579 -0.04073772192085877 0.0 0.024436833360793865 0.0 0.0
0.03674676630727462 -0.033794743534160114 0.0 0.021879005868747192 0.0 0.0
0.030265159874856236 -0.027473655480655494 0.0 0.01913228948545448 0.0 0.0
0.024373579245378904 -0.02175521853146673 0.0 0.016365405956224356 0.0 0.0
0.019011056236521894 -0.016574778584489275 0.0 0.0135805914100702 0.0 0.0
0.014144700954558739 -0.011886161731872293 0.0 0.010737723749461477 0.0 0.0
0.009835510380447545 -0.007751264193173608 0.0 0.00791749303353375 0.0 0.0
0.006271538063951697 -0.00440505291347276 0.0 0.0054250062862758065 0.0 0.0
0.0036611220940329452 -0.002142739013558105 0.0 0.003589242120294202 0.0 0.0
0.002054015109129244 -0.000975212079658535 0.0 0.002546254121935728 0.0 0.0
0.0012316465371419324 -0.0005263948114844933 0.0 0.002172965744002751 0.0 0.0
0.0007872475346796221 -0.0003038798688644474 0.0 0.002016413322623745 0.0 0.0
0.0004473445329379133 -0.00010777379134405914 0.0 0.0019527846502073207 0.0 0.0
0.0002117857360619922 -6.408796966567574e-05 0.0 0.0021060820880407674 0.0 0.0
0.000922419752200017 -0.00038342948464520506 0.0 0.0033812748198950643 0.0 0.0
0.0017111692211850625 -0.0055321570207599695 0.0 0.002160413488372992 0.0 0.0
0.001191434545276927 -0.004211799507459321 0.0 -0.0018367426805649466 0.0 0.0
0.0006298455712878311 -0.0003411118567595565 0.0 -0.002957494941410024 0.0 0.0
0.00010126869724480458 -4.668058639885645e-05 0.0 -0.002271658387854247 0.0 0.0
0.0002435480469818989 -2.1052609789690064e-05 0.0 -0.002152619082335788 0.0 0.0
0.0004913615503134148 -0.00016666100338997216 0.0 -0.0022137389818006345 0.0 0.0
0.0008041203057818461 -0.00033998911774630155 0.0 -0.0024178316908867086 0.0 0.0
0.0013041119304212328 -0.0005894992326584338 0.0 -0.0027056086868091126 0.0 0.0
0.0022798172855312544 -0.0011911973137386958 0.0 -0.003349272768783082 0.0 0.0
0.003957597067606048 -0.0024994126040182294 0.0 -0.004654507679780095 0.0 0.0
0.006330516998092239 -0.004614936795352241 0.0 -0.006545484060355975 0.0 0.0
0.009237515612613016 -0.007335651036439884 0.0 -0.008842043104423247 0.0 0.0
0.012517071891556163 -0.010447898402066374 0.0 -0.01125754566600889 0.0 0.0
0.016107324850813228 -0.01387335598467328 0.0 -0.0136866938603956 0.0 0.0
0.02004274204933465 -0.017659577486404465 0.0 -0.016098146470174823 0.0 0.0
0.02440834877652384 -0.02188448303412329 0.0 -0.01848316854062288 0.0 0.0
0.029287971356394424 -0.026632213275975675 0.0 -0.020772478660574075 0.0 0.0
0.034704740567382396 -0.03192453867047301 0.0 -0.02269079518985493 0.0 0.0
0.040689553060045555 -0.03774156796899929 0.0 -0.023825988842808118 0.0 0.0
0.04752724659980306 -0.04432444313690169 0.0 -0.0239484786335845 0.0 0.0
0.055383820027122395 -0.05208580569068738 0.0 -0.02189510623921896 0.0 0.0
0.05954754733353597 -0.06028480034995158 0.0 2.0549534296421257e-14 0.0 0.0
0.05538382002711508 -0.05208580569067659 0.0 0.021895106239266174 0.0 0.0
0.04752724659978829 -0.04432444313688979 0.0 0.023948478633641815 0.0 0.0
0.0406895530600254 -0.037741567968978894 0.0 0.023825988842834607 0.0 0.0
0.03470474056735917 -0.03192453867044762 0.0 0.022690795189852238 0.0 0.0
0.02928797135637068 -0.02663221327594802 0.0 0.02077247866055814 0.0 0.0
0.024408348776502102 -0.021884483034099976 0.0 0.01848316854061134 0.0 0.0
0.02004274204931513 -0.017659577486387912 0.0 0.01609814647016813 0.0 0.0
0.016107324850795177 -0.013873355984661422 0.0 0.013686693860385533 0.0 0.0
0.012517071891538516 -0.010447898402045958 0.0 0.011257545665991357 0.0 0.0
0.009237515612596187 -0.007335651036422907 0.0 0.008842043104403861 0.0 0.0
0.006330516998079668 -0.004614936795342476 0.0 0.006545484060340515 0.0 0.0
0.003957597067597374 -0.0024994126040082804 0.0 0.0046545076797730395 0.0 0.0
0.0022798172855257723 -0.0011911973137373182 0.0 0.003349272768777848 0.0 0.0
0.001304111930418974 -0.0005894992326582852 0.0 0.0027056086868065014 0.0 0.0
0.0008041203057807721 -0.00033998911774557594 0.0 0.0024178316908843715 0.0 0.0
0.0004913615503130169 -0.00016666100338839609 0.0 0.0022137389817985104 0.0 0.0
0.0002435480469820861 -2.1052609789717287e-05 0.0 0.0021526190823339683 0.0 0.0
0.00010126869724480765 -4.668058639785305e-05 0.0 0.0022716583878525038 0.0 0.0
0.0006298455712860768 -0.0003411118567598992 0.0 0.0029574949414057404 0.0 0.0
0.0011914345452737043 -0.0042117995074508 0.0 0.0018367426805628495 0.0 0.0
0.0008190394475619347 -0.003168181834511851 0.0 -0.001636357658886227 0.0 0.0
0.0004047532545930246 -0.00032604834828419327 0.0 -0.0026180976494097484 0.0 0.0
-1.3810736341095345e-05 -1.1128079450348484e-05 0.0 -0.0023732054058371744 0.0 0.0
4.49690046222831e-05 5.943865792606611e-05 0.0 -0.002295211315012496 0.0 0.0
0.00019458838907688 -2.9026336612436675e-05 0.0 -0.002354640894164255 0.0 0.0
0.00038142268656527644 -0.00014849973375081628 0.0 -0.002582676078231804 0.0 0.0
0.0006341915517088139 -0.0002803310985268251 0.0 -0.0028808026812958353 0.0 0.0
0.0010739437337107243 -0.000512070934095509 0.0 -0.0032300417506876387 0.0 0.0
0.0018630334826194826 -0.0010326741176892452 0.0 -0.003849072125582968 0.0 0.0
0.003040920157253931 -0.001958486396548737 0.0 -0.0049141890008401875 0.0 0.0
0.0045132693639569135 -0.0032165608108522493 0.0 -0.006426383181846037 0.0 0.0
0.006172681021954137 -0.004699935363466642 0.0 -0.008226708910527866 0.0 0.0
0.007974180604006998 -0.006351899050242872 0.0 -0.010164243103419863 0.0 0.0
0.00995574842992588 -0.008201052047196747 0.0 -0.01217281979398766 0.0 0.0
0.01219940321964455 -0.010318598736731585 0.0 -0.014238546815304462 0.0 0.0
0.014838390301633513 -0.012828034191600371 0.0 -0.016332439883568764 0.0 0.0
0.018032887666919892 -0.015885951213633984 0.0 -0.018263828757594077 0.0 0.0
0.02191492691311884 -0.019626360194073836 0.0 -0.019524782183257813 0.0 0.0
0.026814342477678305 -0.024263409376003887 0.0 -0.01964161912859283 0.0 0.0
0.03366925197235664 -0.03067371118683853 0.0 -0.019126282945180543 0.0 0.0
0.03775080346536434 -0.0396439802583368 0.0 1.6854573292590658e-14 0.0 0.0
0.03366925197235383 -0.03067371118683465 0.0 0.019126282945222745 0.0 0.0
0.026814342477670502 -0.02426340937599734 0.0 0.019641619128634782 0.0 0.0
0.021914926913106383 -0.019626360194064267 0.0 0.019524782183273637 0.0 0.0
0.01803288766690774 -0.015885951213624364 0.0 0.018263828757588432 0.0 0.0
0.014838390301622489 -0.012828034191579282 0.0 0.016332439883556482 0.0 0.0
0.012199403219635129 -0.010318598736722832 0.0 0.014238546815297026 0.0 0.0
0.009955748429918377 -0.008201052047193584 0.0 0.012172819793982423 0.0 0.0
0.007974180603999396 -0.00635189905023667 0.0 0.010164243103412896 0.0 0.0
0.00617268102194631 -0.004699935363463333 0.0 0.008226708910513717 0.0 0.0
0.004513269363949758 -0.0032165608108458863 0.0 0.0064263831818346115 0.0 0.0
0.003040920157248601 -0.0019584863965462786 0.0 0.004914189000832254 0.0 0.0
0.0018630334826156788 -0.001032674117686559 0.0 0.0038490721255782737 0.0 0.0
0.0010739437337084845 -0.0005120709340932482 0.0 0.0032300417506843167 0.0 0.0
0.0006341915517080574 -0.00028033109852461255 0.0 0.002880802681294417 0.0 0.0
0.0003814226865653229 -0.00014849973375303168 0.0 0.0025826760782289037 0.0 0.0
0.00019458838907701167 -2.90263366122578e-05 0.0 0.002354640894161296 0.0 0.0
4.496900462214767e-05 5.943865792500302e-05 0.0 0.00229521131501091 0.0 0.0
-1.381073634154488e-05 -1.1128079449071536e-05 0.0 0.0023732054058362723 0.0 0.0
0.0004047532545917543 -0.00032604834828495676 0.0 0.0026180976494058726 0.0 0.0
0.000819039447560328 -0.003168181834505869 0.0 0.0016363576588844099 0.0 0.0
0.0005567236142482733 -0.0023780722467212217 0.0 -0.0015234899747101852 0.0 0.0
0.00023207478600607232 -0.0003268407193858602 0.0 -0.002379183290951766 0.0 0.0
-0.00013056682623417457 3.641893664268359e-05 0.0 -0.0024185287846909815 0.0 0.0
-0.00014949488342466002 0.0001366719593150595 0.0 -0.002378382180495256 0.0 0.0
-9.858050214398326e-05 0.00010592030311199071 0.0 -0.0024336757603116046 0.0 0.0
-4.6141380913886294e-05 4.819932915855151e-05 0.0 -0.002652158059223484 0.0 0.0
-1.7233803293536008e-05 1.2748590717733982e-05 0.0 -0.0029704742918702912 0.0 0.0
-5.93063949240401e-06 3.504126313822465e-06 0.0 -0.003238445742750381 0.0 0.0
-1.529135435896688e-06 7.513850395636214e-07 0.0 -0.0034790171271873145 0.0 0.0
1.226102230849767e-07 -7.547726040990513e-08 0.0 -0.004071687258974488 0.0 0.0
-1.2632228162723141e-06 2.0842426773758234e-07 0.0 -0.0051347158743787905 0.0 0.0
-1.1645596027749197e-05 1.0578605224697852e-05 0.0 -0.006617247914299569 0.0 0.0
-3.2873009338693334e-05 3.128525086732803e-05 0.0 -0.008301195393323768 0.0 0.0
-4.0847769671997465e-05 4.5928365207010126e-05 0.0 -0.010123871179298425 0.0 0.0
4.703781057194137e-05 -1.5747668779475033e-05 0.0 -0.012089815205971521 0.0 0.0
0.0004116453686257896 -0.0003143897865912098 0.0 -0.014180344276950611 0.0 0.0
0.0013529454827897092 -0.0011206801128865978 0.0 -0.016306403773973528 0.0 0.0
0.003205981143802073 -0.0027718938549907003 0.0 -0.018233773663795486 0.0 0.0
0.006185174202256826 -0.0053735202882468965 0.0 -0.01964567435797007 0.0 0.0
0.01125660027376935 -0.009526052702422254 0.0 -0.020694243356153632 0.0 0.0
0.01454178221883241 -0.01901290117748777 0.0 1.140407213107153e-14 0.0 0.0
0.011256600273769705 -0.009526052702421572 0.0 0.020694243356180295 0.0 0.0
0.006185174202254076 -0.00537352028824342 0.0 0.019645674357988207 0.0 0.0
0.0032059811437996667 -0.002771893854992785 0.0 0.018233773663796807 0.0 0.0
0.0013529454827898994 -0.0011206801128883373 0.0 0.01630640377396562 0.0 0.0
0.0004116453686274287 -0.0003143897865893412 0.0 0.014180344276938914 0.0 0.0
4.703781057448513e-05 -1.5747668783959077e-05 0.0 0.012089815205961786 0.0 0.0
-4.084776966832267e-05 4.592836520078702e-05 0.0 0.01012387117929078 0.0 0.0
-3.287300933445302e-05 3.12852508626864e-05 0.0 0.008301195393312507 0.0 0.0
-1.1645596023964356e-05 1.0578605220138023e-05 0.0 0.00661724791428725 0.0 0.0
-1.263222813780926e-06 2.0842426285273656e-07 0.0 0.005134715874368397 0.0 0.0
1.226102246476373e-07 -7.547726541992205e-08 0.0 0.0040716872589689574 0.0 0.0
-1.5291354351173634e-06 7.513850380795655e-07 0.0 0.0034790171271850013 0.0 0.0
-5.930639492153627e-06 3.504126316422436e-06 0.0 0.003238445742749104 0.0 0.0
-1.7233803293393855e-05 1.2748590716794277e-05 0.0 0.0029704742918685812 0.0 0.0
-4.614138091412057e-05 4.819932915399374e-05 0.0 0.002652158059220241 0.0 0.0
-9.85805021440104e-05 0.00010592030311125164 0.0 0.002433675760308901 0.0 0.0
-0.00014949488342454528 0.0001366719593142105 0.0 0.0023783821804941162 0.0 0.0
-0.00013056682623447383 3.641893664300993e-05 0.0 0.0024185287846897768 0.0 0.0
0.00023207478600518517 -0.0003268407193858551 0.0 0.0023791832909494984 0.0 0.0
0.0005567236142469984 -0.0023780722467179488 0.0 0.001523489974710104 0.0 0.0
0.0003753407984106451 -0.001804231974206887 0.0 -0.0014614185605916251 0.0 0.0
0.0001032297292008439 -0.00031984739786811416 0.0 -0.002203601283565534 0.0 0.0
-0.00024199139513511733 8.476769977837389e-05 0.0 -0.0024137034105877987 0.0 0.0
-0.000338584031744008 0.00021219790793555412 0.0 -0.0023996424924210913 0.0 0.0
-0.0003856236675232476 0.00023579337896667785 0.0 -0.002441661546995227 0.0 0.0
-0.0004703063201086594 0.00024369723564790518 0.0 -0.0026293139325478925 0.0 0.0
-0.000668028766045775 0.00030641689546917684 0.0 -0.0029088629824429975 0.0 0.0
-0.0010854678208249765 0.0005199384231291031 0.0 -0.003247378544991105 0.0 0.0
-0.0018652571752651773 0.0010338099821947555 0.0 -0.0038562369827311645 0.0 0.0
-0.003039771302567968 0.0019574506222438657 0.0 -0.004913473479844063 0.0 0.0
-0.004517071267448698 0.0032188486278429433 0.0 -0.00642402786296069 0.0 0.0
-0.006198672151084425 0.004722902351223069 0.0 -0.008230485497806738 0.0 0.0
-0.008039763562159343 0.006415414376208764 0.0 -0.010161120144009743 0.0 0.0
-0.010031332706848898 0.00829098943914119 0.0 -0.012155812815836158 0.0 0.0
-0.012093454295431516 0.01027941939497423 0.0 -0.014239538800135228 0.0 0.0
-0.014017154201805757 0.012183748611128016 0.0 -0.0164823912069487 0.0 0.0
-0.015438669505145892 0.013647539568209306 0.0 -0.01892717988272802 0.0 0.0
-0.01591791836375433 0.014198517725513907 0.0 -0.021679313531572365 0.0 0.0
-0.014979556863198712 0.013520404534357568 0.0 -0.024686619691210845 0.0 0.0
-0.010742822754433574 0.010478468573568694 0.0 -0.02613741451680637 0.0 0.0
-0.007394107651647586 0.0002526956487933162 0.0 1.38595732113167e-14 0.0 0.0
-0.010742822754433706 0.010478468573571448 0.0 0.026137414516832297 0.0 0.0
-0.014979556863194188 0.013520404534351632 0.0 0.024686619691230947 0.0 0.0
-0.01591791836374283 0.01419851772549947 0.0 0.02167931353157587 0.0 0.0
-0.01543866950513098 0.013647539568195217 0.0 0.018927179882717474 0.0 0.0
-0.014017154201791157 0.012183748611111687 0.0 0.01648239120693333 0.0 0.0
-0.012093454295417362 0.010279419394961617 0.0 0.014239538800122967 0.0 0.0
-0.010031332706834038 0.008290989439127136 0.0 0.012155812815826676 0.0 0.0
-0.008039763562143568 0.006415414376191962 0.0 0.010161120143996383 0.0 0.0
-0.006198672151069075 0.004722902351209831 0.0 0.008230485497788976 0.0 0.0
-0.004517071267435836 0.003218848627827698 0.0 0.0064240278629428445 0.0 0.0
-0.003039771302558989 0.0019574506222348807 0.0 0.004913473479834015 0.0 0.0
-0.001865257175259699 0.0010338099821920043 0.0 0.0038562369827278347 0.0 0.0
-0.0010854678208214992 0.0005199384231275922 0.0 0.003247378544989261 0.0 0.0
-0.0006680287660441807 0.00030641689546770384 0.0 0.002908862982439835 0.0 0.0
-0.00047030632010792127 0.00024369723564466087 0.0 0.0026293139325451807 0.0 0.0
-0.00038562366752259875 0.0002357933789668568 0.0 0.002441661546993635 0.0 0.0
-0.0003385840317437152 0.00021219790793550408 0.0 0.002399642492419518 0.0 0.0
-0.00024199139513502626 8.476769977768324e-05 0.0 0.002413703410586182 0.0 0.0
0.0001032297292006311 -0.0003198473978672825 0.0 0.002203601283563731 0.0 0.0
0.0003753407984102341 -0.0018042319742050713 0.0 0.0014614185605909304 0.0 0.0
0.00025278780090846767 -0.0013646048458842868 0.0 -0.0013681746431135737 0.0 0.0
7.879123461848746e-06 -0.00029555838924911 0.0 -0.0020412007412342246 0.0 0.0
-0.00034557237197061766 0.00012884369195448258 0.0 -0.0023584079550903092 0.0 0.0
-0.0005196693940481649 0.00028492362875859014 0.0 -0.0023578421004109623 0.0 0.0
-0.0006639071563990053 0.00035866629581094946 0.0 -0.0023765760732843266 0.0 0.0
-0.0008843990688955567 0.0004318203916266088 0.0 -0.002510769983739892 0.0 0.0
-0.0013363276786751966 0.0006188326490425376 0.0 -0.0027632354543782774 0.0 0.0
-0.0022890244284706346 0.0011988245406339589 0.0 -0.003378589896749036 0.0 0.0
-0.0039568581499593814 0.0024980356213745876 0.0 -0.004660083176841905 0.0 0.0
-0.006328781339016736 0.004613227855930466 0.0 -0.006542502249830098 0.0 0.0
-0.009243141322025165 0.0073412136890342265 0.0 -0.008842038591734696 0.0 0.0
-0.012541714653324184 0.010471370066826798 0.0 -0.011252769887633112 0.0 0.0
-0.016162993118992625 0.013929285136192935 0.0 -0.013642153442772099 0.0 0.0
-0.02010073708025204 0.01773248398140758 0.0 -0.015991383960652073 0.0 0.0
-0.02428989401048394 0.02182868102749206 0.0 -0.018409883781405276 0.0 0.0
-0.02849919628443117 0.026004589654735597 0.0 -0.02111202665996294 0.0 0.0
-0.03230325037483377 0.029829721851064653 0.0 -0.024321629989093846 0.0 0.0
-0.03510446220812362 0.03269777286961265 0.0 -0.02814429740072266 0.0 0.0
-0.03578438945650051 0.033660827346732 0.0 -0.031848712617628484 0.0 0.0
-0.03203150426689415 0.030521337761720294 0.0 -0.03279454642942818 0.0 0.0
-0.028663339721216645 0.01838804744711219 0.0 2.0507900932997813e-14 0.0 0.0
-0.03203150426689097 0.030521337761724235 0.0 0.032794546429472396 0.0 0.0
-0.035784389456489575 0.03366082734671705 0.0 0.03184871261767206 0.0 0.0
-0.035104462208103274 0.03269777286959469 0.0 0.028144297400739406 0.0 0.0
-0.03230325037480752 0.02982972185103478 0.0 0.02432162998908685 0.0 0.0
-0.028499196284403783 0.026004589654704733 0.0 0.021112026659946072 0.0 0.0
-0.024289894010457676 0.021828681027470164 0.0 0.018409883781390125 0.0 0.0
-0.020100737080226107 0.017732483981387135 0.0 0.01599138396063991 0.0 0.0
-0.01616299311896606 0.013929285136163677 0.0 0.013642153442757127 0.0 0.0
-0.012541714653298583 0.010471370066804401 0.0 0.011252769887612177 0.0 0.0
-0.009243141322002678 0.007341213689011814 0.0 0.008842038591713541 0.0 0.0
-0.00632878133899947 0.004613227855915263 0.0 0.006542502249813316 0.0 0.0
-0.00395685814994832 0.002498035621366312 0.0 0.004660083176833695 0.0 0.0
-0.0022890244284643245 0.0011988245406312672 0.0 0.003378589896744444 0.0 0.0
-0.0013363276786720092 0.000618832649042267 0.0 0.0027632354543750738 0.0 0.0
-0.0008843990688941076 0.00043182039162716393 0.0 0.0025107699837387002 0.0 0.0
-0.0006639071563983018 0.0003586662958121762 0.0 0.0023765760732825736 0.0 0.0
-0.0005196693940478326 0.0002849236287591656 0.0 0.0023578421004094414 0.0 0.0
-0.0003455723719705093 0.00012884369195479802 0.0 0.002358407955089258 0.0 0.0
7.879123461827513e-06 -0.0002955583892490646 0.0 0.0020412007412319777 0.0 0.0
0.00025278780090846697 -0.0013646048458825794 0.0 0.0013681746431117075 0.0 0.0
0.0001579469431561423 -0.00099907747064464 0.0 -0.0012198244714146517 0.0 0.0
-6.979718126051067e-05 -0.0002557417852388932 0.0 -0.0018665467671908475 0.0 0.0
-0.00044090929666276333 0.00016917413922562668 0.0 -0.0022504351955199686 0.0 0.0
-0.0006916082301228713 0.0003530346527923399 0.0 -0.0022566287685588885 0.0 0.0
-0.0009305985901056886 0.0004724768851380011 0.0 -0.0022435184521393567 0.0 0.0
-0.0012997969054025997 0.0006146296025342092 0.0 -0.0023076889322966644 0.0 0.0
-0.0020816802393099918 0.0010073743552861914 0.0 -0.002626887958796113 0.0 0.0
-0.0036645350353739503 0.0021446449718605662 0.0 -0.003614435316269221 0.0 0.0
-0.0062673183897963705 0.0044002664809326495 0.0 -0.005423416480528164 0.0 0.0
-0.009835023149932506 0.007751047346134432 0.0 -0.007914183199100134 0.0 0.0
-0.014151809088394248 0.011894302596869051 0.0 -0.010739140499399684 0.0 0.0
-0.019028598867079808 0.016593164833217496 0.0 -0.013565965050376477 0.0 0.0
-0.024403420384730454 0.021786245489469534 0.0 -0.01627578192651717 0.0 0.0
-0.030283483480373803 0.027502423828417916 0.0 -0.01891230518003362 0.0 0.0
-0.03662136140807682 0.033717430923689944 0.0 -0.02166973908853008 0.0 0.0
-0.043179113736566715 0.04021927912176503 0.0 -0.02491582412217112 0.0 0.0
-0.049436483565247234 0.04649832378278518 0.0 -0.02909556861923027 0.0 0.0
-0.05443929051011635 0.051654126177819754 0.0 -0.03414893067629165 0.0 0.0
-0.056499615172431 0.05405621483718193 0.0 -0.0386870316517179 0.0 0.0
-0.05233664098830398 0.050780745198160324 0.0 -0.04003871274174059 0.0 0.0
-0.0481473308427125 0.03581649840974981 0.0 2.232936058277346e-14 0.0 0.0
-0.052336640988297344 0.050780745198159116 0.0 0.04003871274179282 0.0 0.0
-0.05649961517241407 0.05405621483716416 0.0 0.03868703165176833 0.0 0.0
-0.054439290510088195 0.05165412617780506 0.0 0.0341489306763144 0.0 0.0
-0.04943648356521091 0.0464983237827452 0.0 0.02909556861922548 0.0 0.0
-0.04317911373652843 0.04021927912172443 0.0 0.024915824122153298 0.0 0.0
-0.03662136140803856 0.03371743092365201 0.0 0.021669739088512364 0.0 0.0
-0.03028348348033609 0.027502423828387544 0.0 0.018912305180016166 0.0 0.0
-0.02440342038469318 0.021786245489432386 0.0 0.016275781926498 0.0 0.0
-0.019028598867043993 0.01659316483318841 0.0 0.013565965050353214 0.0 0.0
-0.014151809088362395 0.01189430259684051 0.0 0.010739140499373905 0.0 0.0
-0.00983502314990722 0.007751047346103653 0.0 0.007914183199080107 0.0 0.0
-0.006267318389779312 0.004400266480920243 0.0 0.005423416480513507 0.0 0.0
-0.0036645350353637337 0.002144644971855828 0.0 0.0036144353162612794 0.0 0.0
-0.0020816802393047174 0.0010073743552824353 0.0 0.0026268879587921035 0.0 0.0
-0.0012997969054005308 0.0006146296025345561 0.0 0.0023076889322945953 0.0 0.0
-0.0009305985901049011 0.0004724768851375053 0.0 0.0022435184521388163 0.0 0.0
-0.0006916082301223917 0.0003530346527921233 0.0 0.002256628768557796 0.0 0.0
-0.00044090929666244625 0.00016917413922550346 0.0 0.0022504351955190843 0.0 0.0
-6.979718126055501e-05 -0.0002557417852399474 0.0 0.0018665467671888604 0.0 0.0
0.0001579469431558352 -0.0009990774706430084 0.0 0.001219824471412729 0.0 0.0
7.716274809621616e-05 -0.0006930006425035704 0.0 -0.001046615257218692 0.0 0.0
-0.0001385473266561793 -0.00020274936854982242 0.0 -0.0016663964081978454 0.0 0.0
-0.0005301114949613385 0.00020751174715064768 0.0 -0.00209006601734859 0.0 0.0
-0.0008540261062783285 0.0004155773707326888 0.0 -0.0020986262660227604 0.0 0.0
-0.001186477475893085 0.0005746650406615426 0.0 -0.0020400545359176574 0.0 0.0
-0.0017404554863132368 0.0008111473384212892 0.0 -0.002052307779414159 0.0 0.0
-0.002928781785632695 0.0015273002556423895 0.0 -0.0025013436678180023 0.0 0.0
-0.005199869295702507 0.0033473903169539245 0.0 -0.003756733106700106 0.0 0.0
-0.008755848844935991 0.0066013286844121425 0.0 -0.005912485359892562 0.0 0.0
-0.013497402253892826 0.011142241514023297 0.0 -0.008731343037767203 0.0 0.0
-0.0191777677157812 0.01664249246734927 0.0 -0.011766248504271711 0.0 0.0
-0.025609356728618044 0.022882869173668875 0.0 -0.014755271800102127 0.0 0.0
-0.03273032420931194 0.02979998136092976 0.0 -0.017611927388880157 0.0 0.0
-0.04055269800222557 0.03742608615344524 0.0 -0.020389442537443302 0.0 0.0
-0.049052413777563315 0.04576746701801182 0.0 -0.02329086118800572 0.0 0.0
-0.05799590239586197 0.054633518963757566 0.0 -0.02680547446366701 0.0 0.0
-0.06670787133183678 0.0633962429196468 0.0 -0.03147615429744909 0.0 0.0
-0.07381856022087714 0.07074355308207221 0.0 -0.03718889350062382 0.0 0.0
-0.07691788054810636 0.07436206900209302 0.0 -0.04247365576920446 0.0 0.0
-0.07195553301167222 0.07041330896162888 0.0 -0.044418019298956 0.0 0.0
-0.06682691003624405 0.052707276220472755 0.0 2.2273849431542203e-14 0.0 0.0
-0.07195553301166116 0.07041330896162018 0.0 0.044418019299011034 0.0 0.0
-0.07691788054808299 0.07436206900206804 0.0 0.042473655769258954 0.0 0.0
-0.07381856022084107 0.0707435530820443 0.0 0.037188893500653575 0.0 0.0
-0.0667078713317918 0.06339624291959502 0.0 0.03147615429744628 0.0 0.0
-0.05799590239581294 0.05463351896371247 0.0 0.026805474463649878 0.0 0.0
-0.049052413777513765 0.04576746701796351 0.0 0.02329086118798815 0.0 0.0
-0.0405526980021766 0.03742608615339697 0.0 0.020389442537425525 0.0 0.0
-0.0327303242092637 0.029799981360883694 0.0 0.01761192738885892 0.0 0.0
-0.02560935672857207 0.022882869173628213 0.0 0.014755271800076322 0.0 0.0
-0.01917776771573997 0.016642492467309523 0.0 0.011766248504242726 0.0 0.0
-0.013497402253860058 0.011142241513992047 0.0 0.008731343037743082 0.0 0.0
-0.008755848844912881 0.006601328684391502 0.0 0.005912485359877953 0.0 0.0
-0.005199869295687659 0.0033473903169421774 0.0 0.003756733106690559 0.0 0.0
-0.0029287817856249727 0.001527300255636538 0.0 0.002501343667813506 0.0 0.0
-0.0017404554863099707 0.0008111473384189198 0.0 0.0020523077794113343 0.0 0.0
-0.0011864774758916824 0.0005746650406598665 0.0 0.0020400545359173716 0.0 0.0
-0.0008540261062778307 0.0004155773707324073 0.0 0.0020986262660210126 0.0 0.0
-0.0005301114949610384 0.00020751174714970792 0.0 0.0020900660173482823 0.0 0.0
-0.00013854732665602524 -0.0002027493685502913 0.0 0.001666396408196459 0.0 0.0
7.716274809610883e-05 -0.0006930006425023603 0.0 0.0010466152572174002 0.0 0.0
6.978031589740391e-06 -0.0004425170570797938 0.0 -0.0008641871482814524 0.0 0.0
-0.00020126002046181153 -0.00014062846037388467 0.0 -0.0014387151136708144 0.0 0.0
-0.0006146650188547549 0.00024549991903879086 0.0 -0.001876020195845332 0.0 0.0
-0.001005888685577558 0.0004717074657194534 0.0 -0.0018838575118130664 0.0 0.0
-0.0014402365904688465 0.0006687256643248933 0.0 -0.0017737380390398113 0.0 0.0
-0.002227221204621802 0.0010515040512804438 0.0 -0.0017727897648386792 0.0 0.0
-0.0038831077321121203 0.0021964164762380196 0.0 -0.00232401519567296 0.0 0.0
-0.0068769499301349155 0.004771511978282793 0.0 -0.0037368181848111996 0.0 0.0
-0.011378375498217167 0.009002984679832952 0.0 -0.006047852008935232 0.0 0.0
-0.01725045912421914 0.014670584940672738 0.0 -0.008881492842985268 0.0 0.0
-0.024264831364014014 0.021491731414180478 0.0 -0.011881314667619831 0.0 0.0
-0.03224911293572467 0.029265935865742318 0.0 -0.014834012420931943 0.0 0.0
-0.04111841903223336 0.03790992524918892 0.0 -0.017671055367999115 0.0 0.0
-0.05087640988765612 0.04744426004344263 0.0 -0.020440857683746722 0.0 0.0
-0.06152622254150471 0.05789738400862879 0.0 -0.023305236760268824 0.0 0.0
-0.07282933448193628 0.06910074401277873 0.0 -0.026683523027434135 0.0 0.0
-0.08394564708660437 0.08030461107147 0.0 -0.031207267105439557 0.0 0.0
-0.09305900311505086 0.08977025283704734 0.0 -0.03702703574082542 0.0 0.0
-0.09705204220645561 0.094441358086068 0.0 -0.04295818793492896 0.0 0.0
-0.0913288097455082 0.08978907625792301 0.0 -0.046980075803722154 0.0 0.0
-0.08536878215243869 0.06966013854363311 0.0 2.523155295808266e-14 0.0 0.0
-0.09132880974549311 0.08978907625790968 0.0 0.04698007580377668 0.0 0.0
-0.09705204220642531 0.09444135808603743 0.0 0.04295818793498282 0.0 0.0
-0.09305900311500702 0.08977025283700651 0.0 0.03702703574085519 0.0 0.0
-0.08394564708655104 0.08030461107141403 0.0 0.03120726710544034 0.0 0.0
-0.07282933448187719 0.06910074401272069 0.0 0.026683523027422627 0.0 0.0
-0.06152622254144367 0.05789738400857006 0.0 0.023305236760254186 0.0 0.0
-0.05087640988759626 0.04744426004338077 0.0 0.020440857683729406 0.0 0.0
-0.04111841903217475 0.03790992524913043 0.0 0.017671055367981022 0.0 0.0
-0.0322491129356685 0.02926593586568925 0.0 0.014834012420907504 0.0 0.0
-0.02426483136396468 0.021491731414133502 0.0 0.011881314667594841 0.0 0.0
-0.01725045912417911 0.014670584940635435 0.0 0.008881492842960964 0.0 0.0
-0.011378375498187463 0.009002984679804845 0.0 0.006047852008920052 0.0 0.0
-0.0068769499301153765 0.004771511978261481 0.0 0.0037368181848013706 0.0 0.0
-0.003883107732101325 0.002196416476228929 0.0 0.00232401519566836 0.0 0.0
-0.0022272212046172595 0.0010515040512776009 0.0 0.0017727897648361244 0.0 0.0
-0.0014402365904671861 0.0006687256643247688 0.0 0.0017737380390393273 0.0 0.0
-0.0010058886855768487 0.00047170746572007495 0.0 0.0018838575118118013 0.0 0.0
-0.0006146650188543759 0.0002454999190386284 0.0 0.0018760201958447236 0.0 0.0
-0.0002012600204615494 -0.00014062846037313104 0.0 0.0014387151136700744 0.0 0.0
6.978031589949276e-06 -0.00044251705707916536 0.0 0.0008641871482814238 0.0 0.0
-5.236636974050539e-05 -0.00024631856749460375 0.0 -0.0006781437885184535 0.0 0.0
-0.00025764336959928423 -7.439040255143313e-05 0.0 -0.0011855776282284653 0.0 0.0
-0.0006950807736363152 0.00028368055947526263 0.0 -0.0016085783077345384 0.0 0.0
-0.0011506191669276725 0.0005211464217582928 0.0 -0.0016116692172284612 0.0 0.0
-0.001705108437800953 0.0007637023578653772 0.0 -0.0014551378665975975 0.0 0.0
-0.0027720308794029927 0.001359502253962667 0.0 -0.0014630566836850683 0.0 0.0
-0.004943143477451865 0.0030223455881625448 0.0 -0.0020672404434215787 0.0 0.0
-0.008671204249475255 0.006374293256733258 0.0 -0.0035364011738462145 0.0 0.0
-0.014076517193383306 0.011515670769989755 0.0 -0.005718675847467838 0.0 0.0
-0.02104206885763276 0.018265705259180053 0.0 -0.008326929796951934 0.0 0.0
-0.02938234886061964 0.02639273084158343 0.0 -0.011106657502929019 0.0 0.0
-0.03891543545473538 0.03569661708901651 0.0 -0.01384078936375743 0.0 0.0
-0.0495384063806402 0.04607597536773338 0.0 -0.01648480292411438 0.0 0.0
-0.0612312284711712 0.05752210790907203 0.0 -0.019099645345076337 0.0 0.0
-0.07397855078531454 0.07004494547717356 0.0 -0.021754398233516683 0.0 0.0
-0.08754307129266126 0.08348050911053828 0.0 -0.024646895923933418 0.0 0.0
-0.10097365946495832 0.09701628412725632 0.0 -0.02837505008775495 0.0 0.0
-0.11204500529295802 0.10855092650034773 0.0 -0.033672459251522444 0.0 0.0
-0.11702839746006985 0.1143638541496727 0.0 -0.04047641259897149 0.0 0.0
-0.11083241294317409 0.10932139997259571 0.0 -0.04815990980070728 0.0 0.0
-0.1042266479179806 0.08711781154929286 0.0 2.46226650180148e-14 0.0 0.0
-0.11083241294315485 0.10932139997257924 0.0 0.048159909800759806 0.0 0.0
-0.11702839746003259 0.11436385414963135 0.0 0.04047641259902393 0.0 0.0
-0.1120450052929066 0.10855092650029698 0.0 0.033672459251547514 0.0 0.0
-0.10097365946489639 0.0970162841271986 0.0 0.02837505008775533 0.0 0.0
-0.08754307129259165 0.08348050911046892 0.0 0.024646895923926233 0.0 0.0
-0.07397855078524303 0.07004494547710202 0.0 0.02175439823350433 0.0 0.0
-0.06123122847110096 0.05752210790900282 0.0 0.01909964534505767 0.0 0.0
-0.049538406380570686 0.04607597536766456 0.0 0.01648480292409883 0.0 0.0
-0.038915435454669065 0.035696617088955954 0.0 0.01384078936373535 0.0 0.0
-0.029382348860561708 0.026392730841527844 0.0 0.011106657502904387 0.0 0.0
-0.021042068857586034 0.018265705259130634 0.0 0.008326929796931443 0.0 0.0
-0.014076517193347841 0.01151567076995812 0.0 0.005718675847453592 0.0 0.0
-0.008671204249451135 0.006374293256705341 0.0 0.0035364011738345403 0.0 0.0
-0.004943143477438375 0.003022345588149931 0.0 0.0020672404434145595 0.0 0.0
-0.0027720308793970014 0.0013595022539600085 0.0 0.0014630566836829016 0.0 0.0
-0.0017051084377986904 0.0007637023578648329 0.0 0.001455137866596585 0.0 0.0
-0.0011506191669270606 0.0005211464217593951 0.0 0.0016116692172276612 0.0 0.0
-0.0006950807736358611 0.0002836805594748929 0.0 0.0016085783077340108 0.0 0.0
-0.00025764336959922546 -7.439040255138632e-05 0.0 0.001185577628227743 0.0 0.0
-5.23663697408971e-05 -0.00024631856749441424 0.0 0.0006781437885180555 0.0 0.0
-9.834719718061801e-05 -0.00010454358735547354 0.0 -0.0004935509784382479 0.0 0.0
-0.00030500372022696626 -9.559267689347635e-06 0.0 -0.0009099719032810564 0.0 0.0
-0.0007703367219135951 0.00032107631014813634 0.0 -0.0012863066444114002 0.0 0.0
-0.0012922781923225327 0.000564528980231662 0.0 -0.0012790725644973248 0.0 0.0
-0.0019933301457621525 0.0008739276329961792 0.0 -0.0010868476238684239 0.0 0.0
-0.003388612073912117 0.001755702926722687 0.0 -0.0011053912798317832 0.0 0.0
-0.0061066948526130975 0.004002613008660406 0.0 -0.0017319054263012447 0.0 0.0
-0.01053562981760049 0.008084978641329532 0.0 -0.003046625098473298 0.0 0.0
-0.016798548437819992 0.014076865357671164 0.0 -0.004877866546996268 0.0 0.0
-0.024842967098944624 0.02188702805546432 0.0 -0.007093888346816124 0.0 0.0
-0.03449592678454286 0.031306309958690194 0.0 -0.009460950708723003 0.0 0.0
-0.04557667946680323 0.04213751445832515 0.0 -0.011792852456331408 0.0 0.0
-0.057962668048507526 0.05426118367137163 0.0 -0.014063502303627875 0.0 0.0
-0.07158438665948458 0.06762653069226203 0.0 -0.016351137167926116 0.0 0.0
-0.08636512385705447 0.08217130434442702 0.0 -0.018662363433781318 0.0 0.0
-0.1020267089669383 0.09767073418052659 0.0 -0.02089705059307327 0.0 0.0
-0.11759844167760453 0.11331224604919837 0.0 -0.023289641937479084 0.0 0.0
-0.13066401314213905 0.12690693407673403 0.0 -0.027226172530654284 0.0 0.0
-0.13698667751837904 0.134235522081125 0.0 -0.034957756396162 0.0 0.0
-0.13081911283146488 0.12939867059521157 0.0 -0.04769661810105198 0.0 0.0
-0.12381694065409299 0.10552317372130127 0.0 2.035697999058783e-14 0.0 0.0
-0.13081911283144218 0.1293986705951906 0.0 0.04769661810109877 0.0 0.0
-0.13698667751833563 0.1342355220810741 0.0 0.03495775639620625 0.0 0.0
-0.13066401314207945 0.1269069340766742 0.0 0.02722617253067642 0.0 0.0
-0.11759844167753232 0.11331224604912332 0.0 0.02328964193748096 0.0 0.0
-0.10202670896685843 0.09767073418045452 0.0 0.020897050593068 0.0 0.0
-0.08636512385697265 0.08217130434434379 0.0 0.018662363433770642 0.0 0.0
-0.07158438665940339 0.06762653069218215 0.0 0.016351137167911898 0.0 0.0
-0.05796266804842773 0.05426118367129138 0.0 0.01406350230361307 0.0 0.0
-0.04557667946672759 0.04213751445825448 0.0 0.011792852456312317 0.0 0.0
-0.034495926784476015 0.03130630995862389 0.0 0.009460950708697739 0.0 0.0
-0.02484296709889007 0.021887028055415456 0.0 0.0070938883467969865 0.0 0.0
-0.016798548437778782 0.014076865357632598 0.0 0.0048778665469851315 0.0 0.0
-0.010535629817572195 0.008084978641300691 0.0 0.003046625098461338 0.0 0.0
-0.0061066948525960365 0.004002613008648242 0.0 0.0017319054262937032 0.0 0.0
-0.003388612073903848 0.0017557029267140536 0.0 0.0011053912798300249 0.0 0.0
-0.0019933301457592907 0.000873927632995356 0.0 0.001086847623868893 0.0 0.0
-0.0012922781923215161 0.0005645289802319615 0.0 0.0012790725644959706 0.0 0.0
-0.0007703367219129392 0.00032107631014792915 0.0 0.0012863066444113998 0.0 0.0
-0.0003050037202263978 -9.559267689938712e-06 0.0 0.0009099719032805014 0.0 0.0
-9.834719717997225e-05 -0.00010454358735529501 0.0 0.0004935509784371064 0.0 0.0
-0.00012610981694035896 -1.7869970714193707e-05 0.0 -0.0003204769216457205 0.0 0.0
-0.0003377000980466783 4.697003914526703e-05 0.0 -0.0006158344039247121 0.0 0.0
-0.0008379160350433469 0.0003546903254625729 0.0 -0.0009025192115304291 0.0 0.0
-0.0014380941996356823 0.0006059801875763658 0.0 -0.0008805057162395244 0.0 0.0
-0.0023192498547796826 0.0010169806696853237 0.0 -0.0006782003788085753 0.0 0.0
-0.004088328632102556 0.002268148483993546 0.0 -0.0007072365538273124 0.0 0.0
-0.00734147414090959 0.005099219295251804 0.0 -0.0012490020213686487 0.0 0.0
-0.012427859092587234 0.009842735569076866 0.0 -0.002202660012624232 0.0 0.0
-0.01952181611998324 0.01665356713563067 0.0 -0.0035510199877998123 0.0 0.0
-0.02862035957634452 0.025498306125568592 0.0 -0.005190758360291257 0.0 0.0
-0.03957392766675985 0.03619664545955711 0.0 -0.006953473545209015 0.0 0.0
-0.05219937809137175 0.0485532961323214 0.0 -0.008695471859142928 0.0 0.0
-0.06635220626311827 0.062428596619358706 0.0 -0.010412387754615025 0.0 0.0
-0.08190923577342704 0.07771859849614982 0.0 -0.012192173140135855 0.0 0.0
-0.09866814784722143 0.09424785423967556 0.0 -0.01399344413158574 0.0 0.0
-0.11621605324086323 0.1116398749628183 0.0 -0.01553632271345569 0.0 0.0
-0.1336343643648982 0.12905047201953126 0.0 -0.016586471940711268 0.0 0.0
-0.1487320022774904 0.14453242017886464 0.0 -0.018339996800038297 0.0 0.0
-0.1569811649599842 0.15400413143789674 0.0 -0.025484973072790417 0.0 0.0
-0.15166124616735194 0.1504810877213016 0.0 -0.044538235633149736 0.0 0.0
-0.14467386997609927 0.12550303853424846 0.0 1.3416351363204626e-14 0.0 0.0
-0.15166124616732532 0.15048108772127394 0.0 0.044538235633186735 0.0 0.0
-0.15698116495993394 0.15400413143784628 0.0 0.02548497307282645 0.0 0.0
-0.14873200227742153 0.14453242017879694 0.0 0.018339996800055058 0.0 0.0
-0.1336343643648162 0.1290504720194436 0.0 0.016586471940713724 0.0 0.0
-0.11621605324077382 0.11163987496273448 0.0 0.015536322713455165 0.0 0.0
-0.09866814784712963 0.0942478542395807 0.0 0.01399344413157897 0.0 0.0
-0.0819092357733353 0.07771859849605911 0.0 0.012192173140126807 0.0 0.0
-0.06635220626302787 0.06242859661927276 0.0 0.010412387754605384 0.0 0.0
-0.0521993780912871 0.048553296132240825 0.0 0.008695471859131694 0.0 0.0
-0.03957392766668592 0.03619664545948295 0.0 0.006953473545192702 0.0 0.0
-0.02862035957628384 0.02549830612551527 0.0 0.005190758360278136 0.0 0.0
-0.01952181611993708 0.016653567135585703 0.0 0.0035510199877902063 0.0 0.0
-0.012427859092554625 0.009842735569044633 0.0 0.00220266001261553 0.0 0.0
-0.007341474140888865 0.005099219295236522 0.0 0.0012490020213640311 0.0 0.0
-0.004088328632092205 0.0022681484839825405 0.0 0.0007072365538242366 0.0 0.0
-0.0023192498547763853 0.0010169806696849481 0.0 0.0006782003788082107 0.0 0.0
-0.0014380941996349939 0.0006059801875756387 0.0 0.0008805057162388991 0.0 0.0
-0.000837916035042796 0.00035469032546243213 0.0 0.0009025192115308552 0.0 0.0
-0.00033770009804647276 4.6970039144907557e-05 0.0 0.0006158344039236714 0.0 0.0
-0.00012610981694041176 -1.786997071396799e-05 0.0 0.0003204769216443326 0.0 0.0
-0.00012709065450602436 1.3896611293430299e-05 0.0 -0.00018060786907868093 0.0 0.0
-0.00034565683819608265 8.461117011983728e-05 0.0 -0.0003085760877387985 0.0 0.0
-0.0008936053198853764 0.0003789574659852153 0.0 -0.0004394732549156121 0.0 0.0
-0.0015995159573317897 0.0006575857000783607 0.0 -0.00041118855621600093 0.0 0.0
-0.0027012491721391642 0.0012193148364978519 0.0 -0.00024166614952894757 0.0 0.0
-0.004860809070143695 0.0028931915064202723 0.0 -0.00024913170378574023 0.0 0.0
-0.00861989965110741 0.0062633727061994745 0.0 -0.0005447774969703872 0.0 0.0
-0.014324003701882592 0.011620159174041687 0.0 -0.0010415213429588884 0.0 0.0
-0.02221531332431315 0.019213187482213855 0.0 -0.0017453192131028487 0.0 0.0
-0.03234212036095163 0.02906356405420618 0.0 -0.0026238226245360575 0.0 0.0
-0.044582575007561874 0.04102874723763882 0.0 -0.003580772411531711 0.0 0.0
-0.058751846309379116 0.05491247098932195 0.0 -0.004547376047394241 0.0 0.0
-0.07467608132472374 0.07054295267174826 0.0 -0.00554692201165937 0.0 0.0
-0.09215492790160114 0.08774632827036037 0.0 -0.006603483926180794 0.0 0.0
-0.11085517623570199 0.10623020414513616 0.0 -0.007665198902447829 0.0 0.0
-0.13016667721615785 0.1254216864981269 0.0 -0.008521314051139386 0.0 0.0
-0.1490571598537994 0.14430172942053368 0.0 -0.008782447017248661 0.0 0.0
-0.16579677886333474 0.16114928657700242 0.0 -0.008680292593883403 0.0 0.0
-0.17674678337680005 0.1728311403142459 0.0 -0.012324599740179592 0.0 0.0
-0.17390154226656324 0.17295088980567455 0.0 -0.03317901467862761 0.0 0.0
-0.1676649797845046 0.14888281465482298 0.0 6.3265365168874155e-15 0.0 0.0
-0.17390154226653182 0.1729508898056453 0.0 0.033179014678649206 0.0 0.0
-0.1767467833767427 0.17283114031418886 0.0 0.012324599740200583 0.0 0.0
-0.1657967788632562 0.16114928657692565 0.0 0.008680292593893916 0.0 0.0
-0.14905715985370652 0.144301729420434 0.0 0.008782447017251425 0.0 0.0
-0.13016667721605746 0.12542168649802926 0.0 0.008521314051138085 0.0 0.0
-0.11085517623559935 0.10623020414503334 0.0 0.007665198902446579 0.0 0.0
-0.09215492790149866 0.0877463282702602 0.0 0.00660348392617576 0.0 0.0
-0.07467608132462272 0.07054295267165268 0.0 0.0055469220116558205 0.0 0.0
-0.05875184630928469 0.05491247098923063 0.0 0.0045473760473858605 0.0 0.0
-0.044582575007479475 0.04102874723756055 0.0 0.0035807724115245725 0.0 0.0
-0.03234212036088416 0.02906356405414566 0.0 0.0026238226245305267 0.0 0.0
-0.022215313324262256 0.019213187482161675 0.0 0.001745319213099717 0.0 0.0
-0.014324003701846279 0.011620159174005008 0.0 0.001041521342953648 0.0 0.0
-0.008619899651083686 0.006263372706177495 0.0 0.0005447774969682502 0.0 0.0
-0.004860809070131324 0.002893191506409495 0.0 0.00024913170378341976 0.0 0.0
-0.0027012491721343204 0.0012193148364969448 0.0 0.0002416661495275979 0.0 0.0
-0.0015995159573298655 0.000657585700077173 0.0 0.0004111885562159572 0.0 0.0
-0.000893605319884396 0.00037895746598519365 0.0 0.0004394732549162359 0.0 0.0
-0.0003456568381957817 8.461117011945214e-05 0.0 0.0003085760877363096 0.0 0.0
-0.00012709065450595963 1.3896611293381539e-05 0.0 0.00018060786907823576 0.0 0.0
-8.598694560568184e-05 1.6191590699476808e-05 0.0 -0.0001106928148636693 0.0 0.0
-0.0003111173895049495 9.70474082744092e-05 0.0 -0.00012824061262899328 0.0 0.0
-0.0009322373762692465 0.00038791384954588225 0.0 -0.00014592069026452676 0.0 0.0
-0.001794929595382268 0.0006879810840168501 0.0 -9.006985517606876e-05 0.0 0.0
-0.0031500441474016276 0.001340070605205864 0.0 0.00015969791718384627 0.0 0.0
-0.005688665945346001 0.003229146947615477 0.0 0.00037544073544151964 0.0 0.0
-0.009919600585425334 0.006857318319267597 0.0 0.00047766972324837906 0.0 0.0
-0.01620322055152099 0.012511024028435559 0.0 0.0005116682226541994 0.0 0.0
-0.02485017021011383 0.02048431661626646 0.0 0.0004745217999780906 0.0 0.0
-0.035974206269874076 0.030830363143114693 0.0 0.0003282105794068968 0.0 0.0
-0.04948970835347881 0.04342557382698199 0.0 0.0001133695329519329 0.0 0.0
-0.06520611475163166 0.058074513687142906 0.0 -0.0001623153750310493 0.0 0.0
-0.08288966859117602 0.07458260294873963 0.0 -0.0005327872576906395 0.0 0.0
-0.10226434539726906 0.09273621388290415 0.0 -0.0009708001729637518 0.0 0.0
-0.12288718409405294 0.11219140727245083 0.0 -0.0014966433948571164 0.0 0.0
-0.1439472318886771 0.13227249186745316 0.0 -0.0020147346479988896 0.0 0.0
-0.1641369735185355 0.15183071983141758 0.0 -0.002261175124481884 0.0 0.0
-0.18170351647348346 0.16918828324460694 0.0 -0.002007573943110387 0.0 0.0
-0.19460007956835854 0.1818237279981634 0.0 -0.003864013465524292 0.0 0.0
-0.19777657683412495 0.1845613424546333 0.0 -0.025111193013295778 0.0 0.0
-0.19594253035838985 0.1617832490731593 0.0 8.049116928532385e-16 0.0 0.0
-0.1977765768340905 0.18456134245460562 0.0 0.025111193013302318 0.0 0.0
-0.19460007956829348 0.1818237279980957 0.0 0.0038640134655295276 0.0 0.0
-0.1817035164733929 0.16918828324453186 0.0 0.002007573943109797 0.0 0.0
-0.16413697351843123 0.15183071983130253 0.0 0.0022611751244809297 0.0 0.0
-0.14394723188856628 0.13227249186735374 0.0 0.002014734647996442 0.0 0.0
-0.12288718409393934 0.11219140727234486 0.0 0.0014966433948585857 0.0 0.0
-0.10226434539715601 0.09273621388279872 0.0 0.0009708001729602563 0.0 0.0
-0.08288966859106532 0.07458260294863518 0.0 0.0005327872576906274 0.0 0.0
-0.06520611475152763 0.05807451368704221 0.0 0.00016231537502735434 0.0 0.0
-0.049489708353388374 0.04342557382690498 0.0 -0.00011336953295146366 0.0 0.0
-0.035974206269800926 0.03083036314305067 0.0 -0.0003282105794112358 0.0 0.0
-0.024850170210058357 0.020484316616209065 0.0 -0.00047452179997625873 0.0 0.0
-0.016203220551480893 0.01251102402839713 0.0 -0.0005116682226558962 0.0 0.0
-0.009919600585398753 0.0068573183192438235 0.0 -0.0004776697232467188 0.0 0.0
-0.005688665945331999 0.003229146947603123 0.0 -0.00037544073544051155 0.0 0.0
-0.0031500441473956272 0.0013400706052045593 0.0 -0.0001596979171815088 0.0 0.0
-0.0017949295953802041 0.0006879810840151819 0.0 9.006985517598907e-05 0.0 0.0
-0.0009322373762687814 0.00038791384954658107 0.0 0.00014592069026490883 0.0 0.0
-0.0003111173895042418 9.704740827367224e-05 0.0 0.00012824061262630944 0.0 0.0
-8.598694560450632e-05 1.619159069924079e-05 0.0 0.00011069281486464455 0.0 0.0
SCALARS Statev float 8
LOOKUP_TABLE default
0.0 0.019229831150126726 0.01544239778312764 -0.018344982626282366 0.0029025848431547168 -0.0011029185572893987 0.0 0.0
0.0 0.0066898234975658775 0.004947835818858452 -0.0031268552543744477 -0.001820980564484001 -0.007116690534949818 0.0 0.0
0.0 0.00016404646816566161 0.00021671697127676913 -0.00013219766325024083 -8.451930802652831e-05 -0.0003475868708917918 0.0 0.0
0.0 0.00017503113778933037 8.988294392358497e-05 -6.433842950132014e-05 -2.554451442226514e-05 2.9092563383709996e-05 0.0 0.0
0.0 0.0010966129961853498 0.0007755995809070435 -0.0005696370888373908 -0.0002059624920696529 0.0001604022711017907 0.0 0.0
0.0 0.002896046339133152 0.002841786321062956 -0.0022691746846413424 -0.0005726116364216191 0.0003323249534856078 0.0 0.0
0.0 0.0072383873674642775 0.0066231850983204926 -0.005718113141872504 -0.0009050719564479789 0.00046429917444212616 0.0 0.0
0.0 0.013889461798314486 0.012512770441453663 -0.011346775625674084 -0.0011659948157795802 0.0005231050799444827 0.0 0.0
0.0 0.02329881387899222 0.020768305311591503 -0.01936428269214561 -0.0014040226194458791 0.0005077887678942327 0.0 0.0
0.0 0.03560304593216748 0.03148300358517084 -0.029815532739449487 -0.0016674708457213832 0.0003879752813027222 0.0 0.0
0.0 0.05069483199727253 0.04457183587034444 -0.04259613597758541 -0.001975699892759027 0.00019383496657310285 0.0 0.0
0.0 0.06803685785953144 0.0598566582302037 -0.05752505171778365 -0.0023316065124200083 -7.077211230635582e-05 0.0 0.0
0.0 0.08773935144007292 0.07712174117850797 -0.07439757735350076 -0.0027241638250072127 -0.00042903165366339074 0.0 0.0
0.0 0.10948416377733056 0.09614263896983179 -0.09300352768346541 -0.003139111286366122 -0.0008303951123599187 0.0 0.0
0.0 0.1329212089977515 0.1166101613662484 -0.1130526666800828 -0.0035574946861654756 -0.00130322958106498 0.0 0.0
0.0 0.15747031496827762 0.13798118843539625 -0.13402314401573945 -0.003958044419656958 -0.0018287258103680836 0.0 0.0
0.0 0.18208560779539018 0.1593784784077296 -0.15505939654180811 -0.004319081865921499 -0.002303896103215655 0.0 0.0
0.0 0.20535197415507647 0.179585804178623 -0.17496692555929055 -0.0046188786193324055 -0.0025510288177130855 0.0 0.0
0.0 0.22557607183475123 0.19714920582614093 -0.19229642698751007 -0.0048527788386305915 -0.0024053254903856607 0.0 0.0
0.0 0.2405018319725022 0.2103113897162177 -0.20531815345640955 -0.0049932362598083665 -0.0027732929578936057 0.0 0.0
0.0 0.24685603041385 0.21561596819688367 -0.21064055987315206 -0.004975408323731468 3.17280923756158e-15 0.0 0.0
0.0 0.24050183197247127 0.21031138971619073 -0.20531815345638327 -0.004993236259807453 0.0027732929579026237 0.0 0.0
0.0 0.2255760718346827 0.1971492058260805 -0.19229642698745109 -0.004852778838629218 0.002405325490392657 0.0 0.0
0.0 0.2053519741549772 0.17958580417853603 -0.17496692555920532 -0.004618878619330627 0.002551028817718094 0.0 0.0
0.0 0.18208560779527333 0.15937847840762823 -0.15505939654170842 -0.0043190818659200984 0.0023038961032145018 0.0 0.0
0.0 0.15747031496815667 0.1379811884352902 -0.13402314401563536 -0.003958044419654696 0.0018287258103647577 0.0 0.0
0.0 0.13292120899762516 0.11661016136613808 -0.11305266667997453 -0.0035574946861634 0.001303229581063969 0.0 0.0
0.0 0.10948416377721437 0.09614263896973001 -0.09300352768336678 -0.0031391112863633636 0.0008303951123594657 0.0 0.0
0.0 0.08773935143995268 0.07712174117840316 -0.07439757735339793 -0.002724163825005171 0.00042903165365969654 0.0 0.0
0.0 0.0680368578594232 0.059856658230109494 -0.05752505171769037 -0.002331606512419007 7.077211230254246e-05 0.0 0.0
0.0 0.05069483199718185 0.04457183587026504 -0.042596135977508214 -0.0019756998927568316 -0.00019383496657685625 0.0 0.0
0.0 0.035603045932090724 0.0314830035851039 -0.029815532739383723 -0.00166747084572023 -0.00038797528130532044 0.0 0.0
0.0 0.023298813878937476 0.020768305311543146 -0.01936428269209878 -0.001404022619444337 -0.0005077887678937095 0.0 0.0
0.0 0.013889461798274168 0.012512770441417605 -0.011346775625639153 -0.0011659948157784611 -0.0005231050799450756 0.0 0.0
0.0 0.007238387367441263 0.006623185098299029 -0.005718113141852632 -0.0009050719564463923 -0.0004642991744417791 0.0 0.0
0.0 0.002896046339121291 0.0028417863210511893 -0.002269174684631247 -0.0005726116364199416 -0.00033232495348450587 0.0 0.0
0.0 0.0010966129961803943 0.0007755995809034139 -0.0005696370888347156 -0.00020596249206869687 -0.00016040227110099937 0.0 0.0
0.0 0.0001750311377881202 8.988294392323778e-05 -6.433842950109083e-05 -2.554451442214637e-05 -2.9092563383545445e-05 0.0 0.0
0.0 0.00016404646816446165 0.00021671697127576117 -0.00013219766324961213 -8.45193080261481e-05 0.0003475868708902323 0.0 0.0
0.0 0.0066898234975550745 0.004947835818852875 -0.0031268552543701556 -0.001820980564482721 0.007116690534941128 0.0 0.0
0.0 0.01922983115010572 0.015442397783113673 -0.01834498262626304 0.0029025848431493665 0.001102918557248113 0.0 0.0
0.0 0.015746021850550154 0.011845573984560216 -0.015241019218692493 0.0033954452341322648 -0.0006103066416659167 0.0 0.0
0.0 0.004175645170245575 0.003000833518784928 -0.0018790871148896323 -0.0011217464038952908 -0.005667556248521873 0.0 0.0
0.0 -8.393248960842845e-05 -7.456004459874309e-05 6.83916599405247e-05 6.168384658218417e-06 -9.684532254062149e-05 0.0 0.0
0.0 4.5288575440093203e-05 3.668868145736581e-05 -2.646780111390312e-05 -1.0220880343462698e-05 1.3370214052356815e-05 0.0 0.0
0.0 0.0006271940664382401 0.0005129652616834864 -0.00037984415771315656 -0.00013312110397032949 6.338544193632215e-05 0.0 0.0
0.0 0.0025200975537345138 0.002210209965604966 -0.0017827010975428664 -0.00042750886806210137 5.1225544308002626e-05 0.0 0.0
0.0 0.0061745383901778035 0.00563478391604432 -0.00492689410646935 -0.0007078898095749671 -0.00023885254336930255 0.0 0.0
0.0 0.012347523203974477 0.011033850180550787 -0.01015293764808381 -0.0008809125324669848 -0.0007312879801088241 0.0 0.0
0.0 0.021127911739945843 0.018653159106322426 -0.017659632982515577 -0.0009935261238068446 -0.0014254458387538338 0.0 0.0
0.0 0.03252951139956357 0.028534801037646742 -0.027445093897644966 -0.0010897071400017696 -0.002291860727849508 0.0 0.0
0.0 0.04644822309839835 0.04056156884520512 -0.03937794339329087 -0.0011836254519142836 -0.003250837086399314 0.0 0.0
0.0 0.06277853942454709 0.05455654694185038 -0.05327636567186008 -0.0012801812699902945 -0.004236384851125085 0.0 0.0
0.0 0.0807418715254519 0.07035796620618279 -0.06897837997548914 -0.0013795862306935356 -0.005256474901279688 0.0 0.0
0.0 0.10086878588219592 0.08778236807012589 -0.08630763869582721 -0.0014747293742986898 -0.0063129902172173345 0.0 0.0
0.0 0.12254796045883429 0.10655876992408425 -0.1050037574419299 -0.0015550124821541909 -0.007373451691031669 0.0 0.0
0.0 0.1452593411770812 0.1262073068457264 -0.12459585257947427 -0.0016114542662521646 -0.008345008911958378 0.0 0.0
0.0 0.16812524340360416 0.1459460775010008 -0.14430752033129107 -0.0016385571697096332 -0.008989552479270803 0.0 0.0
0.0 0.18986342586229607 0.16467396537101153 -0.16303657758719436 -0.0016373877838173235 -0.008969375576162689 0.0 0.0
0.0 0.20876699744840363 0.1809600833253942 -0.17935990366433488 -0.0016001796610593281 -0.00809788432861357 0.0 0.0
0.0 0.2225743858534157 0.19278055811405623 -0.19132715564101183 -0.0014534024730444087 -0.007070270299694429 0.0 0.0
0.0 0.22855539757317322 0.19739757907818659 -0.1961714474731901 -0.0012261316049966028 7.787173683659887e-15 0.0 0.0
0.0 0.2225743858533859 0.19278055811402933 -0.1913271556409858 -0.001453402473043468 0.007070270299716279 0.0 0.0
0.0 0.20876699744834215 0.1809600833253409 -0.17935990366428167 -0.001600179661059034 0.008097884328635084 0.0 0.0
0.0 0.18986342586220697 0.16467396537093465 -0.1630365775871176 -0.0016373877838170054 0.008969375576175088 0.0 0.0
0.0 0.16812524340350016 0.14594607750091138 -0.14430752033120167 -0.0016385571697096841 0.00898955247927212 0.0 0.0
0.0 0.14525934117696754 0.1262073068456284 -0.12459585257937543 -0.0016114542662526666 0.008345008911953113 0.0 0.0
0.0 0.12254796045872011 0.10655876992398512 -0.10500375744183124 -0.0015550124821539688 0.007373451691028841 0.0 0.0
0.0 0.10086878588208817 0.08778236807003237 -0.08630763869573456 -0.00147472937429773 0.006312990217214429 0.0 0.0
0.0 0.08074187152534329 0.07035796620608908 -0.06897837997539563 -0.0013795862306933884 0.0052564749012727445 0.0 0.0
0.0 0.06277853942444842 0.054556546941764705 -0.053276365671774656 -0.0012801812699900716 0.004236384851118097 0.0 0.0
0.0 0.04644822309831324 0.04056156884513156 -0.039377943393217686 -0.0011836254519138783 0.0032508370863900365 0.0 0.0
0.0 0.032529511399494844 0.02853480103758657 -0.027445093897585267 -0.0010897071400012663 0.002291860727842909 0.0 0.0
0.0 0.02112791173989581 0.01865315910627803 -0.01765963298247199 -0.000993526123806031 0.0014254458387504003 0.0 0.0
0.0 0.01234752320393779 0.011033850180518178 -0.01015293764805184 -0.0008809125324663511 0.0007312879801049467 0.0 0.0
0.0 0.00617453839015647 0.005634783916024843 -0.0049268941064509976 -0.0007078898095738393 0.00023885254336729128 0.0 0.0
0.0 0.002520097553724303 0.00221020996559602 -0.0017827010975351506 -0.00042750886806086755 -5.1225544308334866e-05 0.0 0.0
0.0 0.000627194066434504 0.0005129652616807946 -0.0003798441577111458 -0.00013312110396964915 -6.338544193595328e-05 0.0 0.0
0.0 4.5288575439181274e-05 3.668868145719321e-05 -2.6467801113790576e-05 -1.022088034340249e-05 -1.3370214052269386e-05 0.0 0.0
0.0 -8.393248960852943e-05 -7.456004459853984e-05 6.839165994031786e-05 6.168384658221787e-06 9.684532254020604e-05 0.0 0.0
0.0 0.004175645170234475 0.003000833518778846 -0.0018790871148852079 -0.0011217464038936371 0.005667556248510484 0.0 0.0
0.0 0.015746021850526894 0.011845573984542446 -0.0152410192186703 0.0033954452341278456 0.000610306641634835 0.0 0.0
0.0 0.0118094757441774 0.008696714863902551 -0.011494024130231966 0.002797309266329413 -0.0031618467116204217 0.0 0.0
0.0 0.002895105421845824 0.0018478838770264194 -0.0010289464917156172 -0.0008189373853108058 -0.0048461778387301905 0.0 0.0
0.0 1.9040742228337491e-07 1.0565519654334387e-06 -9.294048033914634e-07 -1.2714716204197122e-07 6.609025847089602e-07 0.0 0.0
0.0 -5.732190076829669e-07 -2.3683139627985847e-06 2.2439286941757347e-06 1.2438526862271928e-07 5.308566618120755e-06 0.0 0.0
0.0 0.0002907025936626792 0.00025337227130912493 -0.00018276942413553607 -7.060284717358913e-05 1.3028067197346311e-05 0.0 0.0
0.0 0.0018111118224142274 0.0015372981253369059 -0.0012065720093112596 -0.00033072611602564454 -0.00010643977883812063 0.0 0.0
0.0 0.00482053651460799 0.004466372089207751 -0.003828559347360679 -0.0006378127418470734 -0.0006749658287068464 0.0 0.0
0.0 0.010345894232089516 0.00924881588844686 -0.008417817213062537 -0.0008309986753843153 -0.0016268316429274938 0.0 0.0
0.0 0.01820253089514707 0.01607260911672674 -0.015126415317423127 -0.0009461937993035987 -0.002952884543610139 0.0 0.0
0.0 0.028501277464948002 0.024927944983753284 -0.02389202447883142 -0.0010359205049218913 -0.004573840237432727 0.0 0.0
0.0 0.04099007768294609 0.03566884990909543 -0.03454554126589898 -0.0011233086431964151 -0.0063437912815114544 0.0 0.0
0.0 0.05535151879646298 0.048123482032251294 -0.04690886447536374 -0.0012146175568875338 -0.00812505253702508 0.0 0.0
0.0 0.0717775597089823 0.062156072739842715 -0.06084767802495471 -0.0013083947148879841 -0.009894244101406841 0.0 0.0
0.0 0.08943026651092327 0.07764939891139094 -0.07625163891141794 -0.0013977599999729958 -0.011710318563036207 0.0 0.0
0.0 0.1087948517906481 0.09438403857605339 -0.09290961507288778 -0.001474423503165774 -0.01353967304285345 0.0 0.0
0.0 0.12913090498577207 0.11196457381808153 -0.11043423843806305 -0.001530335380018362 -0.015189534541604568 0.0 0.0
0.0 0.14969881290549905 0.12973974870702265 -0.12817900192842793 -0.0015607467785948652 -0.016274230991636024 0.0 0.0
0.0 0.16935156488028705 0.146729301394651 -0.1451700955887518 -0.001559205805899329 -0.016293106380598995 0.0 0.0
0.0 0.18648470131310432 0.1615106692233663 -0.1600074356535168 -0.0015032335698492913 -0.014939858386554806 0.0 0.0
0.0 0.19891538567649203 0.17219061598791052 -0.17077668448566038 -0.0014139315022497962 -0.01224326872847694 0.0 0.0
0.0 0.20455242337486654 0.17648870231529068 -0.17534103752969793 -0.0011476647855927316 1.5595164049031496e-14 0.0 0.0
0.0 0.19891538567646527 0.17219061598788535 -0.17077668448563654 -0.0014139315022488569 0.012243268728515787 0.0 0.0
0.0 0.1864847013130508 0.16151066922331941 -0.1600074356534703 -0.0015032335698492115 0.014939858386593018 0.0 0.0
0.0 0.16935156488021158 0.1467293013945853 -0.1451700955886865 -0.001559205805898643 0.016293106380620075 0.0 0.0
0.0 0.14969881290540948 0.1297397487069456 -0.12817900192835166 -0.0015607467785940892 0.016274230991639327 0.0 0.0
0.0 0.12913090498567362 0.1119645738179966 -0.11043423843797776 -0.0015303353800188162 0.015189534541596886 0.0 0.0
0.0 0.10879485179054782 0.0943840385759663 -0.09290961507280147 -0.0014744235031648194 0.013539673042847575 0.0 0.0
0.0 0.08943026651082504 0.07764939891130584 -0.07625163891133327 -0.0013977599999726023 0.011710318563030727 0.0 0.0
0.0 0.07177755970888723 0.062156072739760794 -0.060847678024872995 -0.001308394714887811 0.009894244101395614 0.0 0.0
0.0 0.05535151879637273 0.04812348203217354 -0.04690886447528603 -0.0012146175568874314 0.008125052537012786 0.0 0.0
0.0 0.04099007768286839 0.035668849909027904 -0.03454554126583178 -0.0011233086431961322 0.006343791281497929 0.0 0.0
0.0 0.02850127746488814 0.02492794498370059 -0.02389202447877943 -0.0010359205049211393 0.004573840237421438 0.0 0.0
0.0 0.01820253089510097 0.01607260911668621 -0.015126415317383318 -0.0009461937993029008 0.0029528845436023665 0.0 0.0
0.0 0.010345894232057416 0.009248815888418747 -0.008417817213035124 -0.0008309986753836052 0.001626831642921094 0.0 0.0
0.0 0.004820536514590268 0.0044663720891915375 -0.0038285593473455608 -0.0006378127418459781 0.0006749658287031358 0.0 0.0
0.0 0.0018111118224053526 0.001537298125329308 -0.0012065720093050432 -0.00033072611602426435 0.00010643977883710326 0.0 0.0
0.0 0.0002907025936600888 0.00025337227130743276 -0.00018276942413430442 -7.060284717312846e-05 -1.3028067197242892e-05 0.0 0.0
0.0 -5.732190078319825e-07 -2.36831396278769e-06 2.2439286941709134e-06 1.243852686168058e-07 -5.308566618060232e-06 0.0 0.0
0.0 1.904074223529539e-07 1.05655196543198e-06 -9.294048033885641e-07 -1.271471620434167e-07 -6.609025847070798e-07 0.0 0.0
0.0 0.002895105421836927 0.0018478838770212003 -0.0010289464917120907 -0.000818937385309105 0.004846177838716777 0.0 0.0
0.0 0.011809475744153915 0.008696714863885142 -0.011494024130210046 0.0027973092663248957 0.0031618467116000695 0.0 0.0
0.0 0.008998893701988593 0.006458603999406321 -0.008712414079846287 0.002253810080439952 -0.0034210973556585336 0.0 0.0
0.0 0.002111809861493337 0.0012668110525092227 -0.0006886781641919784 -0.0005781328883172399 -0.0036847617809901176 0.0 0.0
0.0 0.0 0.0 0.0 0.0 0.0 0.0 0.0
0.0 -3.1668959464349163e-06 -3.2393775106336897e-06 2.549610062128269e-06 6.897674485054175e-07 2.3681786745838687e-06 0.0 0.0
0.0 0.00010400358500269676 8.11949666185955e-05 -5.582603514842672e-05 -2.5368931470168306e-05 7.517047866419544e-06 0.0 0.0
0.0 0.001102419543924529 0.0009811202360943002 -0.0007493161011437797 -0.00023180413495051938 -0.00018763635201839436 0.0 0.0
0.0 0.003783013435519275 0.0033411494198055977 -0.002794834233874296 -0.0005463151859313036 -0.0008646270128743181 0.0 0.0
0.0 0.008395463440975514 0.007485640771740271 -0.006716746397975858 -0.0007688943737644001 -0.0021985451828637876 0.0 0.0
0.0 0.015350210189402975 0.013480597742385622 -0.0125879389153872 -0.0008926588269984189 -0.004007195088606764 0.0 0.0
0.0 0.024468440824121796 0.021283553593447708 -0.020305256519466113 -0.0009782970739815747 -0.006202121073639818 0.0 0.0
0.0 0.03544196923572981 0.030724999795100797 -0.02966622910721359 -0.0010587706878871562 -0.008579443437572993 0.0 0.0
0.0 0.048199471873005495 0.041632956045117624 -0.040489040860440785 -0.0011439151846768492 -0.010962978653794942 0.0 0.0
0.0 0.062308382808885565 0.05390168809746312 -0.052669164040174535 -0.0012325240572885901 -0.013321950899951748 0.0 0.0
0.0 0.0782521413948463 0.06744360713128529 -0.06612799197426887 -0.001315615157016393 -0.015707670806557217 0.0 0.0
0.0 0.09515750037839145 0.08211682413220667 -0.08072875259110114 -0.0013880715411054398 -0.018095348064551216 0.0 0.0
0.0 0.11292977095111452 0.09762146114426297 -0.09617637837250348 -0.0014450827717594759 -0.020271911372953127 0.0 0.0
0.0 0.13129937563558924 0.11342950865249679 -0.11195130468830193 -0.0014782039641947663 -0.021777700227542232 0.0 0.0
0.0 0.14894221832405663 0.12868556472822296 -0.12720981999188183 -0.0014757447363409812 -0.022008607534246088 0.0 0.0
0.0 0.16441632442830534 0.14209226354487242 -0.1406608537386684 -0.001431409806204029 -0.02034154232394143 0.0 0.0
0.0 0.17582151957851833 0.1520066141964858 -0.1506348246078646 -0.0013717895886216304 -0.015899654908760164 0.0 0.0
0.0 0.18146503662079883 0.15624837892326954 -0.15524839797575612 -0.0009999809475132342 2.129286330587732e-14 0.0 0.0
0.0 0.17582151957849743 0.15200661419646544 -0.15063482460784472 -0.0013717895886208816 0.015899654908810693 0.0 0.0
0.0 0.1644163244282553 0.14209226354482793 -0.14066085373862336 -0.001431409806204508 0.020341542323991275 0.0 0.0
0.0 0.14894221832399046 0.12868556472816498 -0.12720981999182374 -0.001475744736341154 0.022008607534274877 0.0 0.0
0.0 0.13129937563550928 0.11342950865242779 -0.11195130468823379 -0.0014782039641939558 0.021777700227546458 0.0 0.0
0.0 0.11292977095103049 0.09762146114419025 -0.09617637837243109 -0.0014450827717590745 0.020271911372944384 0.0 0.0
0.0 0.0951575003783013 0.08211682413212837 -0.08072875259102329 -0.0013880715411051497 0.01809534806454227 0.0 0.0
0.0 0.07825214139476036 0.06744360713121059 -0.06612799197419446 -0.0013156151570161564 0.015707670806549855 0.0 0.0
0.0 0.062308382808802576 0.053901688097391744 -0.05266916404010394 -0.001232524057287705 0.013321950899938838 0.0 0.0
0.0 0.04819947187292328 0.04163295604504676 -0.04048904086036966 -0.0011439151846771654 0.010962978653775988 0.0 0.0
0.0 0.035441969235660585 0.030724999795041064 -0.029666229107154118 -0.0010587706878869229 0.008579443437555448 0.0 0.0
0.0 0.024468440824068384 0.021283553593401415 -0.020305256519420327 -0.000978297073981083 0.006202121073623969 0.0 0.0
0.0 0.015350210189360693 0.013480597742348995 -0.012587938915351139 -0.0008926588269978493 0.004007195088595569 0.0 0.0
0.0 0.008395463440948667 0.007485640771716112 -0.006716746397952635 -0.0007688943737634733 0.0021985451828554553 0.0 0.0
0.0 0.0037830134355031375 0.0033411494197920096 -0.0027948342338621306 -0.0005463151859298785 0.0008646270128697447 0.0 0.0
0.0 0.0011024195439178752 0.0009811202360890485 -0.00074931610113956 -0.00023180413494948822 0.0001876363520172072 0.0 0.0
0.0 0.00010400358500154025 8.119496661817078e-05 -5.582603514815654e-05 -2.5368931470014132e-05 -7.5170478661604e-06 0.0 0.0
0.0 -3.166895946835095e-06 -3.2393775106584387e-06 2.5496100621483354e-06 6.897674485101237e-07 -2.3681786746189528e-06 0.0 0.0
0.0 0.0 0.0 0.0 0.0 0.0 0.0 0.0
0.0 0.002111809861486009 0.0012668110525049909 -0.0006886781641891511 -0.0005781328883158413 0.0036847617809789533 0.0 0.0
0.0 0.008998893701968805 0.006458603999390956 -0.008712414079826833 0.002253810080435871 0.003421097355643785 0.0 0.0
0.0 0.006640089643336398 0.004738591377168955 -0.0065071577070496735 0.0017685663298807202 -0.0029411451586434487 0.0 0.0
0.0 0.0016880825532026424 0.0008380733516998416 -0.00044508142514497104 -0.00039299192655486916 -0.0026641659125246444 0.0 0.0
0.0 0.0 0.0 0.0 0.0 0.0 0.0 0.0
0.0 -4.453685617209187e-07 1.3662947665538074e-08 -7.929192787221364e-09 -5.73375487831539e-09 7.511668686443379e-08 0.0 0.0
0.0 -9.383059609418748e-06 2.517812216384333e-06 7.396755651459466e-07 -3.2574877815302657e-06 1.7394771538488676e-05 0.0 0.0
0.0 0.0006333821807726506 0.0005313467878512492 -0.0003956181319303512 -0.0001357286559208986 -0.00017369762279085695 0.0 0.0
0.0 0.002780104919062286 0.0023252277577706926 -0.00189185916650084 -0.0004333685912698465 -0.0008974943789427803 0.0 0.0
0.0 0.0065328096921853365 0.005771299792893333 -0.005079787969934842 -0.0006915118229584986 -0.0024061091657466985 0.0 0.0
0.0 0.012541352068310514 0.010910083287990018 -0.010079624057448881 -0.0008304592305411476 -0.0045802473585071805 0.0 0.0
0.0 0.020433789338836054 0.017637363549697214 -0.016722412289890926 -0.0009149512598062863 -0.007171459145305374 0.0 0.0
0.0 0.029980097123850937 0.025765518766791597 -0.024776232850688206 -0.0009892859161033975 -0.009962727947335333 0.0 0.0
0.0 0.040962365847600664 0.035122239082862716 -0.034054536722175885 -0.0010677023606868127 -0.012754151027558055 0.0 0.0
0.0 0.0533259723063922 0.04561833349815396 -0.0444684272894127 -0.0011499062087412606 -0.015516070286562884 0.0 0.0
0.0 0.0666305676618563 0.05721417952683795 -0.05598575652268949 -0.0012284230041484932 -0.018301123958475603 0.0 0.0
0.0 0.08139708483885288 0.06981227007798566 -0.06851562033995542 -0.0012966497380302027 -0.021062283931913662 0.0 0.0
0.0 0.0970479670597332 0.08320862392464803 -0.08185699444779401 -0.0013516294768539665 -0.023579563086540894 0.0 0.0
0.0 0.11289042427061535 0.09701504464196628 -0.09562658829564734 -0.00138845634631894 -0.02543889053937088 0.0 0.0
0.0 0.1284918050349935 0.11053696223111195 -0.10914148083601045 -0.0013954813951015108 -0.025987020451339708 0.0 0.0
0.0 0.14247122470607088 0.12269052745842544 -0.12132457785810116 -0.0013659496003241593 -0.024188505676313442 0.0 0.0
0.0 0.15317820253407743 0.13207220820147206 -0.13075290503456413 -0.0013193031669079234 -0.01862893530200278 0.0 0.0
0.0 0.15903739738148098 0.13640194158663843 -0.13558353230783346 -0.0008184092788048798 2.4347711347072476e-14 0.0 0.0
0.0 0.15317820253405515 0.13207220820145044 -0.1307529050345417 -0.0013193031669086108 0.018628935302060324 0.0 0.0
0.0 0.14247122470602722 0.12269052745838555 -0.1213245778580606 -0.0013659496003248079 0.024188505676368554 0.0 0.0
0.0 0.128491805034936 0.11053696223106108 -0.10914148083595919 -0.0013954813951019534 0.025987020451373265 0.0 0.0
0.0 0.11289042427054513 0.0970150446419058 -0.09562658829558734 -0.0013884563463184296 0.025438890539376167 0.0 0.0
0.0 0.09704796705965911 0.08320862392458385 -0.08185699444773016 -0.0013516294768536456 0.02357956308653042 0.0 0.0
0.0 0.08139708483877366 0.06981227007791756 -0.06851562033988699 -0.0012966497380305423 0.021062283931901824 0.0 0.0
0.0 0.06663056766178313 0.057214179526774565 -0.055985756522626495 -0.001228423004148032 0.018301123958465768 0.0 0.0
0.0 0.05332597230632176 0.04561833349809294 -0.04446842728935249 -0.0011499062087404022 0.015516070286548379 0.0 0.0
0.0 0.04096236584753053 0.03512223908280254 -0.034054536722116016 -0.0010677023606865217 0.012754151027536947 0.0 0.0
0.0 0.029980097123793188 0.02576551876674241 -0.024776232850639554 -0.0009892859161028582 0.00996272794731349 0.0 0.0
0.0 0.020433789338787506 0.017637363549655883 -0.016722412289849907 -0.0009149512598059723 0.007171459145285937 0.0 0.0
0.0 0.01254135206827396 0.010910083287958542 -0.01007962405741791 -0.0008304592305406303 0.004580247358493344 0.0 0.0
0.0 0.006532809692162884 0.005771299792873753 -0.005079787969916285 -0.0006915118229574707 0.0024061091657375344 0.0 0.0
0.0 0.002780104919048432 0.0023252277577595136 -0.0018918591664911005 -0.0004333685912684143 0.0008974943789376473 0.0 0.0
0.0 0.0006333821807680296 0.0005313467878479403 -0.00039561813192789074 -0.00013572865592004956 0.00017369762278950852 0.0 0.0
0.0 -9.383059609581065e-06 2.517812216740741e-06 7.396755648526621e-07 -3.257487781593469e-06 -1.739477153781958e-05 0.0 0.0
0.0 -4.4536856160937365e-07 1.3662947557608962e-08 -7.929192703844573e-09 -5.733754853770863e-09 -7.511668700044304e-08 0.0 0.0
0.0 0.0 0.0 0.0 0.0 0.0 0.0 0.0
0.0 0.0016880825531954558 0.000838073351696303 -0.00044508142514262505 -0.0003929919265536759 0.0026641659125149707 0.0 0.0
0.0 0.006640089643319403 0.004738591377155635 -0.0065071577070325405 0.0017685663298768945 0.002941145158632915 0.0 0.0
0.0 0.004863150650533024 0.003360037036058517 -0.004691749787077251 0.0013317127510187325 -0.0023097784505205572 0.0 0.0
0.0 0.0010484482614487505 0.0005270221174299006 -0.00027241536367735123 -0.0002546067537525497 -0.0018345597671693388 0.0 0.0
0.0 0.0 0.0 0.0 0.0 0.0 0.0 0.0
0.0 -3.775153612666555e-07 7.012893678955093e-08 -5.361724351460482e-08 -1.6511693274946128e-08 -1.2183583054113666e-07 0.0 0.0
0.0 -2.178635746282596e-05 -1.6360876811694223e-05 1.3359769558144457e-05 3.0011072535497717e-06 2.525953344967652e-05 0.0 0.0
0.0 0.000251752332515406 0.00023122651301436898 -0.00016757496102342073 -6.365155199094838e-05 -0.00011744652185398586 0.0 0.0
0.0 0.0016724296602679742 0.001477782637435581 -0.0011684814992056172 -0.000309301138229965 -0.0008327519123328593 0.0 0.0
0.0 0.005057032646772916 0.004143527914846407 -0.00355782060772907 -0.0005857073071173294 -0.002305889932557971 0.0 0.0
0.0 0.009673380887964163 0.00839426083606859 -0.007640418536671315 -0.000753842299397279 -0.004645998830094641 0.0 0.0
0.0 0.016484269562972987 0.014024372094072417 -0.013181038932779235 -0.0008433331612931729 -0.007472756131713967 0.0 0.0
0.0 0.02453122521863387 0.02082793423663274 -0.019914972149123633 -0.0009129620875091085 -0.010486976524109622 0.0 0.0
0.0 0.033732394220724625 0.02862942502915499 -0.027644577583337413 -0.0009848474458175435 -0.013497490919725469 0.0 0.0
0.0 0.04400069432094918 0.037354416443410504 -0.03629366546896504 -0.0010607509744454797 -0.016468819734851682 0.0 0.0
0.0 0.055401915218548405 0.04699289711861957 -0.04586003679705588 -0.0011328603215636976 -0.01945661950640065 0.0 0.0
0.0 0.0676648062929638 0.05751275161926339 -0.05631566765749144 -0.0011970839617720143 -0.022419874922313007 0.0 0.0
0.0 0.08067141920023517 0.06878177052563633 -0.0675312937643694 -0.0012504767612669175 -0.0251271435810852 0.0 0.0
0.0 0.09460086579758573 0.0805248071330959 -0.0792343983533597 -0.0012904087797361448 -0.027210028022862837 0.0 0.0
0.0 0.10808028467837981 0.09227442787788678 -0.09096252517296229 -0.001311902704924595 -0.028072017728341354 0.0 0.0
0.0 0.12045236423467343 0.10323284575194228 -0.10193247881220201 -0.0013003669397403344 -0.026479823479844487 0.0 0.0
0.0 0.13068937601021796 0.11222702378140773 -0.11096666892175483 -0.0012603548596527975 -0.020558270249439004 0.0 0.0
0.0 0.13696220272569332 0.1167536734250424 -0.11614547995973025 -0.0006081934653120579 2.4797872089088457e-14 0.0 0.0
0.0 0.13068937601019825 0.11222702378138695 -0.11096666892173326 -0.001260354859653796 0.020558270249497943 0.0 0.0
0.0 0.12045236423463708 0.1032328457519077 -0.10193247881216703 -0.0013003669397407575 0.026479823479901583 0.0 0.0
0.0 0.10808028467833261 0.0922744278778441 -0.09096252517291942 -0.0013119027049245681 0.028072017728377082 0.0 0.0
0.0 0.09460086579752602 0.08052480713304473 -0.07923439835330888 -0.0012904087797358296 0.02721002802286691 0.0 0.0
0.0 0.08067141920017414 0.06878177052558367 -0.06753129376431691 -0.0012504767612667913 0.025127143581074804 0.0 0.0
0.0 0.06766480629290061 0.05751275161920892 -0.05631566765743746 -0.0011970839617714444 0.022419874922299847 0.0 0.0
0.0 0.05540191521848554 0.0469928971185648 -0.045860036797001485 -0.0011328603215633507 0.019456619506388814 0.0 0.0
0.0 0.04400069432088902 0.03735441644335917 -0.03629366546891414 -0.0010607509744449879 0.01646881973483713 0.0 0.0
0.0 0.03373239422066835 0.02862942502910731 -0.027644577583290142 -0.0009848474458171563 0.013497490919704683 0.0 0.0
0.0 0.02453122521858448 0.020827934236591603 -0.019914972149083283 -0.000912962087508339 0.010486976524085312 0.0 0.0
0.0 0.016484269562931215 0.014024372094037094 -0.013181038932744306 -0.0008433331612927734 0.007472756131692471 0.0 0.0
0.0 0.009673380887933921 0.008394260836042554 -0.007640418536645881 -0.0007538422993966794 0.0046459988300795296 0.0 0.0
0.0 0.005057032646752812 0.004143527914830194 -0.0035578206077140125 -0.000585707307116181 0.0023058899325485885 0.0 0.0
0.0 0.001672429660259336 0.001477782637428823 -0.0011684814991999863 -0.0003093011382288374 0.0008327519123285777 0.0 0.0
0.0 0.0002517523325112092 0.0002312265130113823 -0.00016757496102116784 -6.365155199021438e-05 0.00011744652185193474 0.0 0.0
0.0 -2.1786357463041658e-05 -1.636087681105781e-05 1.335976955765089e-05 3.0011072534068904e-06 -2.5259533448918752e-05 0.0 0.0
0.0 -3.775153611008397e-07 7.012893679248136e-08 -5.3617243516774256e-08 -1.6511693275703974e-08 1.2183583053928759e-07 0.0 0.0
0.0 0.0 0.0 0.0 0.0 0.0 0.0 0.0
0.0 0.0010484482614429534 0.0005270221174272169 -0.00027241536367557476 -0.0002546067537516417 0.0018345597671615848 0.0 0.0
0.0 0.004863150650519422 0.0033600370360478433 -0.004691749787063191 0.0013317127510153442 0.002309778450513141 0.0 0.0
0.0 0.003261404539716349 0.0022647810398870477 -0.0032087614435313432 0.0009439804036442921 -0.0017261230595596103 0.0 0.0
0.0 0.0006588053030710282 0.00029058814413685516 -0.00013611208087203295 -0.00015447606326482162 -0.00115272498684906 0.0 0.0
0.0 2.9041076945466384e-07 -3.4488798683329004e-09 2.6803405111441826e-09 7.685393571887485e-10 5.864590140692222e-08 0.0 0.0
0.0 -3.9933846218285653e-07 2.3010864123224606e-08 -1.7665084308602554e-08 -5.345779814626124e-09 -7.114747973550936e-08 0.0 0.0
0.0 -1.163866576275012e-05 -7.717572371928495e-06 6.163701641871194e-06 1.5538707300573469e-06 1.635234312541704e-05 0.0 0.0
0.0 5.5167877387641045e-05 4.978671970688791e-05 -3.33187614650571e-05 -1.646795824183079e-05 -2.56900590070345e-05 0.0 0.0
0.0 0.0009649457721504194 0.0007890520824066345 -0.0006078978472344121 -0.00018115423517222237 -0.0006426227719288344 0.0 0.0
0.0 0.003210748028839487 0.002708260802984163 -0.002257856505155733 -0.00045040429782843054 -0.0020253841820059184 0.0 0.0
0.0 0.007464713640640254 0.005969492932998628 -0.005319299616418598 -0.0006501933165800289 -0.004226721201987176 0.0 0.0
0.0 0.012468593208635944 0.010486465275294152 -0.009729667517712266 -0.0007567977575818843 -0.007080801369930932 0.0 0.0
0.0 0.019152684209090536 0.015952034376977217 -0.015125468253357255 -0.0008265661236199698 -0.010135416048993238 0.0 0.0
0.0 0.026607725484311402 0.022193875252576316 -0.021301292389305233 -0.0008925828632711024 -0.013180194336208081 0.0 0.0
0.0 0.03485753297948075 0.029148862631486576 -0.0281873598666249 -0.0009615027648616323 -0.016168575501080352 0.0 0.0
0.0 0.04396000203153989 0.03683458349235299 -0.035806813004913514 -0.0010277704874394919 -0.0191622884776007 0.0 0.0
0.0 0.053866472006231236 0.045265198846313665 -0.04417818540483131 -0.001087013441482337 -0.02213343771954882 0.0 0.0
0.0 0.06481773285734137 0.05437852133673328 -0.05324234113953045 -0.0011361801972028624 -0.024878643094993734 0.0 0.0
0.0 0.07570458381332461 0.0640144797442019 -0.06283403205977454 -0.0011804476844274475 -0.027044283595932337 0.0 0.0
0.0 0.08735700464443807 0.07390857010130297 -0.07268885172825688 -0.001219718373045972 -0.02816726988277891 0.0 0.0
0.0 0.09863208240612681 0.0836269988146729 -0.08239691307284724 -0.0012300857418257815 -0.0271084843580508 0.0 0.0
0.0 0.1083299958598058 0.09229947723112762 -0.091102587173717 -0.0011968900574106463 -0.02165889950871995 0.0 0.0
0.0 0.1152559546601414 0.09711698277681986 -0.09674832035027672 -0.000368662426543192 2.4245362661989844e-14 0.0 0.0
0.0 0.1083299958597958 0.09229947723111404 -0.09110258717370366 -0.0011968900574104043 0.02165889950877938 0.0 0.0
0.0 0.09863208240609406 0.08362699881464086 -0.08239691307281462 -0.0012300857418263143 0.027108484358107653 0.0 0.0
0.0 0.08735700464440117 0.07390857010126842 -0.07268885172822287 -0.0012197183730455852 0.028167269882815246 0.0 0.0
0.0 0.07570458381327495 0.06401447974415964 -0.06283403205973244 -0.0011804476844271684 0.027044283595935387 0.0 0.0
0.0 0.06481773285729159 0.05437852133669091 -0.05324234113948791 -0.0011361801972030407 0.024878643094981907 0.0 0.0
0.0 0.0538664720061835 0.04526519884627188 -0.044178185404790446 -0.0010870134414814158 0.022133437719536478 0.0 0.0
0.0 0.04396000203148935 0.036834583492309454 -0.035806813004870146 -0.0010277704874393058 0.019162288477588336 0.0 0.0
0.0 0.0348575329794346 0.029148862631447354 -0.028187359866586447 -0.0009615027648609307 0.016168575501067196 0.0 0.0
0.0 0.026607725484265755 0.022193875252538485 -0.021301292389267742 -0.000892582863270764 0.013180194336187633 0.0 0.0
0.0 0.019152684209051918 0.015952034376945937 -0.015125468253326462 -0.0008265661236194714 0.010135416048969758 0.0 0.0
0.0 0.012468593208603345 0.010486465275267403 -0.009729667517685859 -0.0007567977575815501 0.007080801369910138 0.0 0.0
0.0 0.007464713640615828 0.0059694929329796404 -0.005319299616400388 -0.0006501933165792467 0.004226721201973568 0.0 0.0
0.0 0.003210748028822515 0.002708260802970563 -0.002257856505143402 -0.0004504042978271587 0.002025384181995525 0.0 0.0
0.0 0.000964945772144224 0.0007890520824022564 -0.0006078978472310664 -0.00018115423517118948 0.0006426227719256054 0.0 0.0
0.0 5.5167877385430336e-05 4.9786719705836405e-05 -3.3318761464256844e-05 -1.646795824157973e-05 2.5690059005869614e-05 0.0 0.0
0.0 -1.1638665763226938e-05 -7.717572371823395e-06 6.163701641782188e-06 1.55387073004121e-06 -1.6352343125125364e-05 0.0 0.0
0.0 -3.9933846203843063e-07 2.3010864114477826e-08 -1.766508430182229e-08 -5.345779812654833e-09 7.114747970917023e-08 0.0 0.0
0.0 2.9041076910978675e-07 -3.44887986405181e-09 2.6803405077244864e-09 7.685393563274542e-10 -5.8645901335916544e-08 0.0 0.0
0.0 0.0006588053030664926 0.000290588144135033 -0.00013611208087085157 -0.00015447606326418083 0.0011527249868432126 0.0 0.0
0.0 0.0032614045397059456 0.002264781039878956 -0.00320876144352037 0.0009439804036414116 0.0017261230595543 0.0 0.0
0.0 0.0024541466757461603 0.001371155970931296 -0.001968166383806126 0.0005970104128748287 -0.0011731605469145294 0.0 0.0
0.0 0.00026721044367129305 0.00012938648442153064 -4.62284060444468e-05 -8.315807837708394e-05 -0.0006297175445539614 0.0 0.0
0.0 6.42786780898768e-07 3.302809572108739e-08 -3.365190581084655e-08 6.238100897598152e-10 -6.590997802599947e-07 0.0 0.0
0.0 -7.004953798833739e-07 3.361920600522345e-08 -2.6065992772966696e-08 -7.55321323225705e-09 -2.1395791624411315e-07 0.0 0.0
0.0 -5.5662838250106214e-06 -4.0917281301719e-06 3.239323570139738e-06 8.524045600321604e-07 1.3721160860378477e-05 0.0 0.0
0.0 -1.752205927305242e-05 -1.0024170659721415e-05 9.414080960960868e-06 6.100896987605198e-07 2.5725664185785352e-05 0.0 0.0
0.0 0.00041387048737723513 0.0003078498698242279 -0.0002323843315005317 -7.54655383236957e-05 -0.0003887697734231102 0.0 0.0
0.0 0.0018473240822022142 0.0014843088247080043 -0.001199964755657671 -0.0002843440690503329 -0.001559595940330109 0.0 0.0
0.0 0.004709220941725883 0.003761313654395701 -0.0032564390112380156 -0.0005048746431576856 -0.003468304008289019 0.0 0.0
0.0 0.009062417655992201 0.00707330208099978 -0.00643393247043677 -0.0006393696105630024 -0.00601421891119648 0.0 0.0
0.0 0.013873681739102545 0.011183127075368102 -0.010464187902221294 -0.0007189391731467982 -0.00888826064410778 0.0 0.0
0.0 0.019508733691467557 0.01586516897296442 -0.015081492753927 -0.0007836762190374286 -0.011768900584582975 0.0 0.0
0.0 0.025809620700586514 0.02105539991059167 -0.02020882214145426 -0.0008465777691374059 -0.014590116374617124 0.0 0.0
0.0 0.03268954405180067 0.02678910676998974 -0.02588369038541262 -0.000905416384577101 -0.017393693431842182 0.0 0.0
0.0 0.04034812667378403 0.03312224005718193 -0.03216260378313823 -0.0009596362740437026 -0.020184052015510663 0.0 0.0
0.0 0.048564580992419844 0.040066903149121695 -0.03906073544013043 -0.0010061677089912202 -0.022801493545198923 0.0 0.0
0.0 0.05754002250353091 0.04753883210757119 -0.04649016785882307 -0.0010486642487480954 -0.024909410570441826 0.0 0.0
0.0 0.06668722463117371 0.05546397293848081 -0.05436011295872593 -0.0011038599797548467 -0.02614428489093807 0.0 0.0
0.0 0.07607633254716037 0.0637994765215257 -0.0626505045228384 -0.0011489719986872776 -0.025837927359573812 0.0 0.0
0.0 0.08554913402641562 0.07210877140979934 -0.07097692075961592 -0.0011318506501834115 -0.021772431230437393 0.0 0.0
0.0 0.09345652744778782 0.07729535217666533 -0.07719993480349445 -9.541737317096909e-05 2.248114888692143e-14 0.0 0.0
0.0 0.08554913402640912 0.07210877140978794 -0.07097692075960438 -0.001131850650183498 0.021772431230492186 0.0 0.0
0.0 0.07607633254713989 0.06379947652150321 -0.06265050452281563 -0.0011489719986876 0.025837927359628976 0.0 0.0
0.0 0.06668722463114476 0.055463972938453156 -0.054360112958698886 -0.0011038599797542706 0.02614428489097024 0.0 0.0
0.0 0.057540022503492175 0.04753883210753856 -0.0464901678587909 -0.0010486642487476374 0.024909410570443057 0.0 0.0
0.0 0.04856458099237955 0.040066903149088166 -0.039060735440097076 -0.001006167708991143 0.022801493545184133 0.0 0.0
0.0 0.040348126673745016 0.03312224005714859 -0.03216260378310532 -0.0009596362740432397 0.02018405201549795 0.0 0.0
0.0 0.0326895440517649 0.026789106769959298 -0.025883690385382623 -0.0009054163845767058 0.01739369343183164 0.0 0.0
0.0 0.02580962070055433 0.021055399910564966 -0.020208822141428145 -0.0008465777691367968 0.014590116374605411 0.0 0.0
0.0 0.019508733691431183 0.015865168972934836 -0.015081492753897687 -0.0007836762190371536 0.011768900584562442 0.0 0.0
0.0 0.013873681739074321 0.011183127075345923 -0.010464187902199922 -0.0007189391731459874 0.00888826064408776 0.0 0.0
0.0 0.009062417655967258 0.007073302080980649 -0.006433932470417905 -0.0006393696105627442 0.006014218911178097 0.0 0.0
0.0 0.004709220941710044 0.0037613136543833605 -0.0032564390112267117 -0.0005048746431566525 0.0034683040082787147 0.0 0.0
0.0 0.0018473240821914052 0.0014843088246999122 -0.001199964755650507 -0.0002843440690494052 0.0015595959403218733 0.0 0.0
0.0 0.0004138704873731704 0.0003078498698214535 -0.00023238433149838146 -7.54655383230718e-05 0.000388769773419645 0.0 0.0
0.0 -1.7522059273668174e-05 -1.002417065952653e-05 9.414080960800826e-06 6.100896987257598e-07 -2.572566418522849e-05 0.0 0.0
0.0 -5.5662838266896965e-06 -4.091728130087891e-06 3.2393235700765534e-06 8.524045600113207e-07 -1.3721160860273364e-05 0.0 0.0
0.0 -7.004953802154802e-07 3.3619206015238464e-08 -2.6065992779830168e-08 -7.553213235408196e-09 2.1395791637304337e-07 0.0 0.0
0.0 6.427867807180613e-07 3.302809574863768e-08 -3.365190583882621e-08 6.238100901889592e-10 6.590997808553606e-07 0.0 0.0
0.0 0.0002672104436685803 0.00012938648442044744 -4.6228406043767225e-05 -8.315807837668044e-05 0.000629717544549818 0.0 0.0
0.0 0.0024541466757369815 0.0013711559709256743 -0.0019681663837982626 0.0005970104128725881 0.0011731605469106933 0.0 0.0
0.0 0.0012503583693213064 0.0007439138590515298 -0.0010813703533832965 0.0003374564943317665 -0.0007739180016603153 0.0 0.0
0.0 8.203968683266742e-05 2.594705286602452e-05 1.4789557242483748e-05 -4.073661010850815e-05 -0.0002429983640099112 0.0 0.0
0.0 1.972281823163661e-06 -2.157377029174987e-10 1.0106219746771551e-08 -9.890482043853142e-09 5.349628936892002e-07 0.0 0.0
0.0 1.2942504959117193e-06 -8.540347678678024e-08 5.936713367798405e-08 2.603634310879605e-08 1.1393230427746e-06 0.0 0.0
0.0 -6.744415054190194e-06 -2.1175411015769382e-06 1.6681414157876275e-06 4.493996857893122e-07 1.1293279647929686e-05 0.0 0.0
0.0 -2.2817413225216586e-05 -9.38588255299313e-06 7.871721319714753e-06 1.514161233278392e-06 2.2342894476377624e-05 0.0 0.0
0.0 0.0001264042979099385 5.498058854620204e-05 -4.0839059688578475e-05 -1.4141528857623744e-05 -0.00014776334735221072 0.0 0.0
0.0 0.0008861384641063505 0.0005475464840280396 -0.00043544627951740724 -0.00011210020451063274 -0.0009391898910747626 0.0 0.0
0.0 0.002543108244658961 0.0018309885694914607 -0.0015368832816694323 -0.0002941052878220272 -0.002430550837701437 0.0 0.0
0.0 0.0053200033801706036 0.00391720925024693 -0.0034626990815172036 -0.00045451016872972657 -0.0044240035801143334 0.0 0.0
0.0 0.008633284797334039 0.00661398631663313 -0.006054167174358139 -0.0005598191422749957 -0.006795780706468831 0.0 0.0
0.0 0.0125940492261708 0.009713329175305659 -0.009081597644519759 -0.0006317315307858904 -0.009256501038605904 0.0 0.0
0.0 0.016901791077032057 0.013143540767379917 -0.012449500113692787 -0.0006940406536871269 -0.011725626437641625 0.0 0.0
0.0 0.021614477975140097 0.016934838813828818 -0.016187957388291187 -0.000746881425537642 -0.01417399463065236 0.0 0.0
0.0 0.026880987377338086 0.021164635466798056 -0.02036915377526548 -0.0007954816915325714 -0.016597021018055734 0.0 0.0
0.0 0.03276966771186572 0.025913015882844205 -0.025072034060296424 -0.0008409818225477725 -0.01893791548546435 0.0 0.0
0.0 0.039205063317949755 0.03120069180782927 -0.03031640033590841 -0.0008842914719208646 -0.02093309976796773 0.0 0.0
0.0 0.045964496322034434 0.03704293189584532 -0.0361030176932716 -0.0009399142025737744 -0.022159037314395315 0.0 0.0
0.0 0.05361633493506725 0.04371074182107003 -0.042686741215689106 -0.001024000605380895 -0.022362165681343426 0.0 0.0
0.0 0.0626443651003292 0.05144392423768196 -0.050383237388138165 -0.0010606868495438037 -0.02046681867612024 0.0 0.0
0.0 0.0716540613748234 0.05705887922695974 -0.05727328792343424 0.00021440869647450407 1.9723805921856297e-14 0.0 0.0
0.0 0.06264436510032707 0.05144392423767366 -0.05038323738812906 -0.0010606868495446021 0.020466818676166863 0.0 0.0
0.0 0.05361633493505884 0.043710741821057185 -0.04268674121567679 -0.0010240006053803532 0.022362165681395027 0.0 0.0
0.0 0.04596449632201222 0.03704293189582507 -0.0361030176932513 -0.0009399142025737412 0.022159037314420014 0.0 0.0
0.0 0.03920506331791958 0.031200691807805808 -0.03031640033588495 -0.0008842914719208659 0.020933099767962576 0.0 0.0
0.0 0.032769667711834496 0.02591301588281922 -0.025072034060271347 -0.0008409818225478568 0.018937915485448303 0.0 0.0
0.0 0.02688098737731101 0.021164635466775834 -0.020369153775243377 -0.0007954816915324647 0.01659702101804423 0.0 0.0
0.0 0.021614477975118777 0.01693483881381098 -0.016187957388273725 -0.0007468814255372667 0.014173994630645571 0.0 0.0
0.0 0.016901791077012857 0.013143540767364289 -0.01244950011367784 -0.0006940406536864419 0.011725626437633405 0.0 0.0
0.0 0.012594049226145548 0.00971332917528726 -0.009081597644501293 -0.0006317315307859569 0.009256501038587727 0.0 0.0
0.0 0.00863328479731198 0.006613986316616803 -0.0060541671743422724 -0.0005598191422745265 0.006795780706449833 0.0 0.0
0.0 0.005320003380154838 0.003917209250235651 -0.003462699081506426 -0.0004545101687292256 0.004424003580101502 0.0 0.0
0.0 0.002543108244648107 0.0018309885694836466 -0.001536883281662551 -0.0002941052878210948 0.002430550837692692 0.0 0.0
0.0 0.0008861384641011838 0.0005475464840248381 -0.00043544627951478895 -0.00011210020451004937 0.0009391898910699032 0.0 0.0
0.0 0.00012640429790761247 5.498058854583869e-05 -4.083905968830807e-05 -1.4141528857530582e-05 0.00014776334735129072 0.0 0.0
0.0 -2.281741322569278e-05 -9.385882552606241e-06 7.87172131942402e-06 1.5141612331821874e-06 -2.23428944751411e-05 0.0 0.0
0.0 -6.744415053863815e-06 -2.117541101421588e-06 1.668141415671827e-06 4.493996857497728e-07 -1.1293279646588821e-05 0.0 0.0
0.0 1.294250495229533e-06 -8.540347682894676e-08 5.936713370956526e-08 2.603634311938235e-08 -1.1393230432039656e-06 0.0 0.0
0.0 1.972281823100636e-06 -2.157376851155334e-10 1.0106219725358476e-08 -9.890482040242551e-09 -5.349628930703313e-07 0.0 0.0
0.0 8.203968683023633e-05 2.5947052865574278e-05 1.4789557242680752e-05 -4.073661010825489e-05 0.00024299836400766355 0.0 0.0
0.0 0.001250358369314668 0.0007439138590477841 -0.0010813703533779262 0.0003374564943301414 0.0007739180016572947 0.0 0.0
0.0 0.0005850982615419114 0.0003062414631208137 -0.0004489287027698542 0.00014268723964904086 -0.0003936250441087095 0.0 0.0
0.0 -2.237774724892904e-05 -1.7438167673369727e-05 3.419000871969914e-05 -1.675184104632944e-05 -1.888686424584793e-05 0.0 0.0
0.0 2.3424070435088606e-06 2.574499968537405e-08 -6.487686817537814e-08 3.913186849000459e-08 -2.0126278140093685e-06 0.0 0.0
0.0 8.503185131970046e-07 -6.534973459664291e-08 5.695353885337621e-08 8.396195743264783e-09 -1.0343712069827487e-06 0.0 0.0
0.0 -4.7487510195591955e-06 -8.642098940486839e-07 7.132960451790156e-07 1.5091384886967647e-07 8.359340113434551e-06 0.0 0.0
0.0 -7.467804702433483e-06 -3.990008832442538e-06 3.3731224829793793e-06 6.168863494631273e-07 1.6707943336652216e-05 0.0 0.0
0.0 5.290562441986496e-05 8.917657064573134e-07 -3.558354545164091e-07 -5.35930251940854e-07 -7.032990116919836e-05 0.0 0.0
0.0 0.0002637618395028471 6.12132412151621e-05 -5.146819542307945e-05 -9.745045792082725e-06 -0.00040022293444206815 0.0 0.0
0.0 0.0008755962940585815 0.0003723820174093969 -0.0003271342374511262 -4.5247779958270206e-05 -0.001224149199954447 0.0 0.0
0.0 0.002129170949218566 0.0011669535670049134 -0.001045055788050826 -0.00012189777895408822 -0.002573977780686768 0.0 0.0
0.0 0.004082280318830865 0.0024141265086820543 -0.0021982122686322048 -0.0002159142400498482 -0.004239857781972011 0.0 0.0
0.0 0.006118506605642935 0.003912524081216763 -0.0036133993659298535 -0.0002991247152869146 -0.0060914203592003875 0.0 0.0
0.0 0.008526941348817953 0.005579309352655577 -0.0052086417771506355 -0.0003706675755049363 -0.008044874127673244 0.0 0.0
0.0 0.011225999890122995 0.007441113409796434 -0.007010522299985874 -0.00043059110981055927 -0.010064559817674363 0.0 0.0
0.0 0.01423431184511182 0.009571743469687711 -0.009085520510312112 -0.0004862229593756044 -0.012143177115817388 0.0 0.0
0.0 0.017699047203651466 0.012092774815275166 -0.011549799849878554 -0.0005429749653966101 -0.014261136324228093 0.0 0.0
0.0 0.02178837471467067 0.01515573968326285 -0.014552312518852858 -0.0006034271644099969 -0.01625432075074485 0.0 0.0
0.0 0.02654104436218494 0.01889069800341819 -0.018225590708553202 -0.0006651072948649853 -0.017620834416692644 0.0 0.0
0.0 0.032000535462371894 0.023588374117263368 -0.02283479654922199 -0.0007535775680413968 -0.017833510182705615 0.0 0.0
0.0 0.03933781383217735 0.030174112961944336 -0.02926135095427614 -0.000912762007668148 -0.017343010650778475 0.0 0.0
0.0 0.050897854265789286 0.036138533385912316 -0.03671528804861389 0.000576754662701598 1.5485876470044957e-14 0.0 0.0
0.0 0.03933781383218263 0.03017411296194124 -0.02926135095427229 -0.0009127620076689695 0.017343010650818686 0.0 0.0
0.0 0.032000535462368355 0.02358837411725643 -0.022834796549214907 -0.0007535775680415542 0.01783351018274349 0.0 0.0
0.0 0.02654104436217055 0.018890698003407154 -0.018225590708542086 -0.0006651072948650617 0.017620834416706355 0.0 0.0
0.0 0.02178837471465269 0.015155739683252678 -0.014552312518842894 -0.0006034271644098077 0.016254320750737232 0.0 0.0
0.0 0.01769904720363111 0.012092774815260818 -0.011549799849864208 -0.0005429749653966081 0.014261136324213095 0.0 0.0
0.0 0.014234311845099424 0.009571743469678394 -0.009085520510302597 -0.0004862229593758039 0.012143177115809627 0.0 0.0
0.0 0.011225999890114058 0.007441113409790942 -0.007010522299980563 -0.0004305911098103863 0.010064559817669537 0.0 0.0
0.0 0.008526941348806518 0.005579309352648472 -0.005208641777143861 -0.00037066757550461633 0.008044874127665191 0.0 0.0
0.0 0.00611850660563127 0.003912524081210357 -0.0036133993659233704 -0.00029912471528698503 0.006091420359187969 0.0 0.0
0.0 0.004082280318820032 0.0024141265086763705 -0.002198212268626539 -0.00021591424004983146 0.004239857781959271 0.0 0.0
0.0 0.0021291709492114587 0.0011669535670011588 -0.0010450557880473097 -0.00012189777895384944 0.0025739777806795946 0.0 0.0
0.0 0.0008755962940541251 0.0003723820174071685 -0.0003271342374489854 -4.524777995818238e-05 0.0012241491999487445 0.0 0.0
0.0 0.0002637618395005799 6.121324121453734e-05 -5.146819542253795e-05 -9.745045791999418e-06 0.0004002229344391888 0.0 0.0
0.0 5.290562441884139e-05 8.917657065408439e-07 -3.5583545457278836e-07 -5.359302519680482e-07 7.032990116908559e-05 0.0 0.0
0.0 -7.4678047026596805e-06 -3.990008832167023e-06 3.373122482770353e-06 6.168863493966692e-07 -1.6707943334847676e-05 0.0 0.0
0.0 -4.7487510195813505e-06 -8.642098940228539e-07 7.132960451612016e-07 1.5091384886164935e-07 -8.359340112675454e-06 0.0 0.0
0.0 8.50318513322646e-07 -6.534973461348921e-08 5.6953538872871614e-08 8.396195740618306e-09 1.0343712079968244e-06 0.0 0.0
0.0 2.342407043534282e-06 2.5744999691039018e-08 -6.487686819699144e-08 3.913186850594892e-08 2.0126278149798717e-06 0.0 0.0
0.0 -2.237774725001932e-05 -1.743816767337645e-05 3.4190008719587806e-05 -1.6751841046211275e-05 1.8886864245009215e-05 0.0 0.0
0.0 0.0005850982615375362 0.0003062414631187259 -0.00044892870276681563 0.00014268723964808914 0.000393625044106455 0.0 0.0
0.0 0.00012347715639168718 7.081636446193219e-05 -0.0001058713843579246 3.50550198959923e-05 -0.00011378047390480952 0.0 0.0
0.0 -2.0360950591130376e-05 -1.1493605271354704e-05 1.6196838128100395e-05 -4.703232856745673e-06 2.1431638552523048e-05 0.0 0.0
0.0 2.9449900977260908e-06 1.4592569255552441e-07 -9.705415935079284e-08 -4.887153320473542e-08 3.777434760217028e-06 0.0 0.0
0.0 2.0980417057198074e-06 -1.7343941201862105e-07 1.4091874096467434e-07 3.2520671053949224e-08 -2.115204156218446e-06 0.0 0.0
0.0 -8.569377747388927e-07 -2.465267036352556e-07 2.4184794850375366e-07 4.678755131499274e-09 2.816737923468674e-06 0.0 0.0
0.0 1.428273036065366e-06 -1.0042464445280399e-06 1.0406570446142667e-06 -3.6410600086225875e-08 5.253079955968093e-06 0.0 0.0
0.0 6.157791163171595e-05 -1.6626535245572784e-06 1.663567441946146e-06 -9.139173888824685e-10 -8.28921583490633e-05 0.0 0.0
0.0 0.00018018021582547866 -1.2035931604903137e-06 1.1645343368812813e-06 3.905882360909239e-08 -0.0003096728992166033 0.0 0.0
0.0 0.0004200366544702503 -2.6845807273721216e-07 2.465931748510592e-07 2.186489788612287e-08 -0.0006546485051430919 0.0 0.0
0.0 0.0006956978668529916 4.1483852524319134e-08 -1.4857524161275212e-08 -2.6626328363287867e-08 -0.0013165733249442817 0.0 0.0
0.0 0.001270439804348313 5.47854177328661e-07 -6.783473597068171e-07 1.3049318237835257e-07 -0.0024113753567772973 0.0 0.0
0.0 0.002086552671509531 -6.620198065154109e-06 8.767738682438641e-06 -2.147540617284302e-06 -0.004047601053161229 0.0 0.0
0.0 0.00325104036498002 -2.130481878835405e-05 2.506346300974754e-05 -3.758644221393069e-06 -0.005855952711136694 0.0 0.0
0.0 0.0045946732859726705 -3.262393034045806e-05 3.478707684468848e-05 -2.1631465042292798e-06 -0.007771933938970006 0.0 0.0
0.0 0.0060947131453986305 2.2322203320935467e-05 -3.156374481215029e-05 9.241541491214174e-06 -0.0098039689787705 0.0 0.0
0.0 0.007713120902911366 0.0002915441133146254 -0.0003267469363425513 3.5202823027923855e-05 -0.01195098950900944 0.0 0.0
0.0 0.009495856223673516 0.0010308703472599013 -0.0011124696099864902 8.15992627265921e-05 -0.014145856801364296 0.0 0.0
0.0 0.01137320310696903 0.0024740753357879453 -0.0026729414888610283 0.00019886615307307647 -0.016192098039134323 0.0 0.0
0.0 0.013964815179692903 0.004320437895112204 -0.004705017816644424 0.00038457992153222587 -0.01767763525982397 0.0 0.0
0.0 0.020267594957833406 0.008645823446193818 -0.008400471369962394 -0.0002453520762314271 -0.018132174497604136 0.0 0.0
0.0 0.035991710642028725 0.015308643643083536 -0.016458939068289553 0.0011502954252060075 1.0753550827580227e-14 0.0 0.0
0.0 0.020267594957842507 0.008645823446193846 -0.008400471369962184 -0.00024535207623165267 0.018132174497631867 0.0 0.0
0.0 0.013964815179689413 0.004320437895111584 -0.004705017816643521 0.0003845799215319342 0.01767763525983305 0.0 0.0
0.0 0.011373203106956255 0.002474075335787288 -0.0026729414888611467 0.00019886615307385916 0.016192098039128498 0.0 0.0
0.0 0.009495856223666407 0.0010308703472609183 -0.0011124696099875748 8.159926272665802e-05 0.01414585680135371 0.0 0.0
0.0 0.007713120902898867 0.00029154411331463613 -0.00032674693634212064 3.5202823027485e-05 0.011950989508994949 0.0 0.0
0.0 0.006094713145389397 2.2322203323931985e-05 -3.156374481550221e-05 9.241541491570931e-06 0.009803968978762716 0.0 0.0
0.0 0.00459467328596636 -3.2623930336832274e-05 3.4787076840693955e-05 -2.1631465038614913e-06 0.007771933938961662 0.0 0.0
0.0 0.0032510403649696016 -2.130481878578769e-05 2.5063463007003912e-05 -3.7586442212160867e-06 0.005855952711121807 0.0 0.0
0.0 0.0020865526715011682 -6.6201980628357595e-06 8.767738679759225e-06 -2.147540616924374e-06 0.004047601053149998 0.0 0.0
0.0 0.0012704398043420387 5.47854178081016e-07 -6.783473607906534e-07 1.3049318270979995e-07 0.0024113753567674024 0.0 0.0
0.0 0.0006956978668505472 4.148385191966636e-08 -1.4857523673709495e-08 -2.6626328245875548e-08 0.0013165733249421252 0.0 0.0
0.0 0.0004200366544685967 -2.6845807284267624e-07 2.465931749058216e-07 2.1864897936698784e-08 0.0006546485051405679 0.0 0.0
0.0 0.00018018021582455414 -1.2035931604648038e-06 1.1645343368958183e-06 3.9058823568992264e-08 0.00030967289921495595 0.0 0.0
0.0 6.157791163080491e-05 -1.6626535245477785e-06 1.6635674419288601e-06 -9.139173810573002e-10 8.289215834917971e-05 0.0 0.0
0.0 1.4282730349034383e-06 -1.0042464445156508e-06 1.0406570445976462e-06 -3.641060008200327e-08 -5.253079956024781e-06 0.0 0.0
0.0 -8.569377753491001e-07 -2.46526703676667e-07 2.4184794854507653e-07 4.678755131593473e-09 -2.816737922507301e-06 0.0 0.0
0.0 2.0980417058629657e-06 -1.7343941207804324e-07 1.4091874101668746e-07 3.25206710613557e-08 2.115204157064859e-06 0.0 0.0
0.0 2.94499009635405e-06 1.4592569256922393e-07 -9.705415936063932e-08 -4.887153320857575e-08 -3.7774347605711813e-06 0.0 0.0
0.0 -2.0360950591068115e-05 -1.1493605271001422e-05 1.619683812768212e-05 -4.703232856680723e-06 -2.1431638551266153e-05 0.0 0.0
0.0 0.0001234771563897298 7.081636446137256e-05 -0.00010587138435714013 3.505501989576779e-05 0.00011378047390390482 0.0 0.0
0.0 2.4325304140712156e-06 -4.793640966126744e-07 3.797021256495412e-07 9.966197096311922e-08 1.6755810942522675e-06 0.0 0.0
0.0 -2.383155935822638e-07 3.5572767957820984e-08 1.1761107593012628e-09 -3.6748878717125385e-08 9.980902852322406e-07 0.0 0.0
0.0 8.060591291622151e-07 1.007852642939524e-07 -1.4575968897304007e-07 4.497442467908728e-08 -1.478748748259109e-06 0.0 0.0
0.0 4.2476017180721455e-06 -1.7132695396218729e-07 1.272105503649422e-07 4.411640359724542e-08 -2.829662247455197e-06 0.0 0.0
0.0 1.8715960932347348e-06 -3.626599689146778e-07 3.454379231368708e-07 1.722204577780818e-08 -3.1805198211891904e-06 0.0 0.0
0.0 1.360497173683176e-06 -2.69510418643215e-07 5.085948584669898e-07 -2.390844398237305e-07 -7.4042770504345465e-06 0.0 0.0
0.0 8.020362962842609e-05 -5.208239916236068e-06 4.458481531630694e-06 7.497583846052934e-07 -8.252718111437391e-05 0.0 0.0
0.0 0.00027786247852141984 -6.644553594099455e-05 5.613478016257006e-05 1.0310755778424501e-05 -0.0004132603315109149 0.0 0.0
0.0 0.0008795486381947676 -0.00037413911941104323 0.00032859484689334357 4.55442725177e-05 -0.0012309562134708754 0.0 0.0
0.0 0.0021272100382626006 -0.0011659570364400936 0.0010441211350959013 0.00012183590134419221 -0.0025737022397639806 0.0 0.0
0.0 0.004095418865031862 -0.0024159547852445 0.002199916023955871 0.00021603876128862686 -0.004237304041461903 0.0 0.0
0.0 0.006155888574620091 -0.003936343294941911 0.003634036010543568 0.0003023072843983406 -0.0060967957141670305 0.0 0.0
0.0 0.008593031084522054 -0.0056388145167348275 0.005263572790097232 0.0003752417266375946 -0.008049732628543933 0.0 0.0
0.0 0.011295258409980191 -0.007511733430005319 0.007082695833198973 0.0004290375968063493 -0.010058290903352467 0.0 0.0
0.0 0.014098309034730095 -0.00948257662023743 0.009022840023121963 0.0004597365971154578 -0.012140774440719839 0.0 0.0
0.0 0.016856042221411075 -0.011347375168148419 0.010887037245902205 0.00046033792224621105 -0.014357015110716449 0.0 0.0
0.0 0.019175725559794618 -0.012747939714109001 0.012324878688526223 0.000423061025582792 -0.016742906570540568 0.0 0.0
0.0 0.020840621891726564 -0.013218845535925379 0.0128832746203796 0.00033557091554579227 -0.019371128662032153 0.0 0.0
0.0 0.020940677892730675 -0.012219432283026816 0.012082134984389061 0.00013729729863774928 -0.02219722450416353 0.0 0.0
0.0 0.017059856695605655 -0.008846812121722265 0.009226758064857125 -0.00037994594313485734 -0.024148948261364545 0.0 0.0
0.0 0.0347207148808416 -0.004982268288425318 0.002489795853392098 0.002492472435033217 1.5471131320499154e-14 0.0 0.0
0.0 0.017059856695612864 -0.008846812121722971 0.009226758064858046 -0.00037994594313507733 0.024148948261382967 0.0 0.0
0.0 0.020940677892728056 -0.0122194322830237 0.012082134984384846 0.00013729729863884535 0.022197224504178336 0.0 0.0
0.0 0.020840621891710664 -0.013218845535913504 0.012883274620368288 0.0003355709155452135 0.01937112866203277 0.0 0.0
0.0 0.019175725559773447 -0.012747939714094473 0.012324878688510956 0.00042306102558354176 0.016742906570528324 0.0 0.0
0.0 0.016856042221390734 -0.011347375168133656 0.010887037245887968 0.0004603379222456982 0.014357015110701615 0.0 0.0
0.0 0.01409830903471365 -0.009482576620223608 0.009022840023109225 0.00045973659711438103 0.012140774440709375 0.0 0.0
0.0 0.01129525840996264 -0.007511733429991535 0.00708269583318554 0.00042903759680598956 0.010058290903341567 0.0 0.0
0.0 0.008593031084501592 -0.005638814516720161 0.005263572790083174 0.0003752417266369894 0.008049732628528952 0.0 0.0
0.0 0.006155888574599709 -0.003936343294927857 0.003634036010530351 0.00030230728439750314 0.0060967957141494205 0.0 0.0
0.0 0.004095418865011246 -0.002415954785231205 0.0021999160239434485 0.0002160387612877556 0.0042373040414438595 0.0 0.0
0.0 0.002127210038250904 -0.0011659570364322496 0.0010441211350890552 0.00012183590134319487 0.002573702239754512 0.0 0.0
0.0 0.0008795486381902346 -0.0003741391194087407 0.0003285948468913504 4.554427251739051e-05 0.0012309562134658284 0.0 0.0
0.0 0.0002778624785191322 -6.644553594036102e-05 5.613478016207865e-05 1.031075577828241e-05 0.0004132603315084204 0.0 0.0
0.0 8.020362962662065e-05 -5.208239916193957e-06 4.458481531578412e-06 7.497583846155391e-07 8.252718111348076e-05 0.0 0.0
0.0 1.3604971734948838e-06 -2.695104189290211e-07 5.08594858698636e-07 -2.3908443976961324e-07 7.404277052303858e-06 0.0 0.0
0.0 1.8715960927453863e-06 -3.626599690147899e-07 3.454379232203615e-07 1.7222045794417628e-08 3.180519822008262e-06 0.0 0.0
0.0 4.247601717535398e-06 -1.7132695406629134e-07 1.2721055045108514e-07 4.411640361520494e-08 2.8296622483718996e-06 0.0 0.0
0.0 8.06059128787166e-07 1.0078526427627191e-07 -1.457596889678604e-07 4.4974424691584e-08 1.478748748927228e-06 0.0 0.0
0.0 -2.383155936997469e-07 3.557276786638249e-08 1.1761108640283182e-09 -3.6748878730413955e-08 -9.980902853133177e-07 0.0 0.0
0.0 2.4325304127249567e-06 -4.793640961503875e-07 3.797021249587329e-07 9.966197119167233e-08 -1.6755810932799254e-06 0.0 0.0
0.0 -5.791226492451871e-07 3.285152939261595e-08 -4.863961923435168e-08 1.5788089841737027e-08 -8.324711323925468e-08 0.0 0.0
0.0 1.0941609099310358e-06 6.267163661967504e-09 1.6561036202116937e-08 -2.2828199864089234e-08 3.244811173200871e-07 0.0 0.0
0.0 -7.35868416023927e-07 3.5117185695311456e-07 -2.9051671204015304e-07 -6.065514491297063e-08 2.3874891201114386e-06 0.0 0.0
0.0 2.0823939500079685e-06 -5.014715238234964e-07 3.8949658085445637e-07 1.1197494296902848e-07 -4.622790673848067e-06 0.0 0.0
0.0 4.6933275245168e-06 1.930110646148559e-06 -1.5680270636198834e-06 -3.620835825286105e-07 7.017549728969154e-06 0.0 0.0
0.0 2.0378255101406735e-05 2.700142440337876e-06 -2.0165164801029227e-06 -6.836259602349713e-07 -6.199643080380111e-07 0.0 0.0
0.0 0.00014522418426616483 -7.610898568351686e-05 5.8711490949538247e-05 1.739749473397868e-05 -0.00021176868404570838 0.0 0.0
0.0 0.0009060929603545031 -0.000556376367319178 0.0004432782770131639 0.00011309809030601392 -0.0009615215420576869 0.0 0.0
0.0 0.0025435816181674257 -0.0018306624816473334 0.001536388410845338 0.000294274070801995 -0.002434734876895615 0.0 0.0
0.0 0.005316951764897575 -0.003915827907179652 0.00346127278001228 0.00045455512716736837 -0.004421224078526179 0.0 0.0
0.0 0.008639274205388882 -0.006619510837346489 0.006059482009123428 0.0005600288282230625 -0.0067966216091961355 0.0 0.0
0.0 0.012620626628521883 -0.00973610220361753 0.009103569804986979 0.00063253239863056 -0.009257473850736735 0.0 0.0
0.0 0.0169543852405444 -0.01319525522777302 0.01250049172768914 0.0006947635000838652 -0.011695450227755661 0.0 0.0
0.0 0.021655570332000485 -0.01699237699117618 0.016249081122646995 0.0007432958685291693 -0.014083849820998683 0.0 0.0
0.0 0.02673328289656078 -0.021067031943958238 0.020290795751395408 0.0007762361925628199 -0.016517340086675127 0.0 0.0
0.0 0.03195748558751613 -0.025197070639653263 0.024409068227739313 0.0007880024119139242 -0.019203413974867422 0.0 0.0
0.0 0.036828895558877084 -0.028959601933952507 0.02818001581884031 0.0007795861151121894 -0.02236233565992065 0.0 0.0
0.0 0.04054455552536946 -0.03176170292447886 0.031006934353161247 0.0007547685713176287 -0.02610035287980898 0.0 0.0
0.0 0.042398169965560756 -0.032544261443348585 0.03188288029163497 0.0006613811517135951 -0.029705799604259838 0.0 0.0
0.0 0.03947528986156138 -0.029054183314268088 0.028585765064445573 0.0004684182498225095 -0.030552386615775935 0.0 0.0
0.0 0.04260399378280586 -0.023484903391534338 0.02020806306110184 0.0032768403304324835 1.8862515716033812e-14 0.0 0.0
0.0 0.03947528986157258 -0.029054183314267935 0.028585765064446194 0.00046841824982175493 0.03055238661581757 0.0 0.0
0.0 0.04239816996555526 -0.0325442614433374 0.03188288029162392 0.0006613811517134712 0.02970579960429732 0.0 0.0
0.0 0.040544555525348684 -0.03176170292445972 0.031006934353143042 0.0007547685713167061 0.02610035287982322 0.0 0.0
0.0 0.036828895558843146 -0.028959601933925223 0.028180015818812867 0.0007795861151123437 0.022362335659911723 0.0 0.0
0.0 0.03195748558748083 -0.025197070639624723 0.024409068227710863 0.0007880024119138729 0.01920341397484911 0.0 0.0
0.0 0.02673328289653123 -0.021067031943934077 0.02029079575137181 0.0007762361925622839 0.01651734008666106 0.0 0.0
0.0 0.021655570331973507 -0.016992376991152962 0.016249081122624413 0.0007432958685285309 0.014083849820985518 0.0 0.0
0.0 0.016954385240511263 -0.01319525522774662 0.0125004917276629 0.0006947635000837179 0.011695450227738437 0.0 0.0
0.0 0.012620626628491362 -0.009736102203594048 0.009103569804964304 0.0006325323986297395 0.0092574738507159 0.0 0.0
0.0 0.008639274205360682 -0.006619510837324839 0.006059482009102217 0.0005600288282226252 0.006796621609174557 0.0 0.0
0.0 0.005316951764876537 -0.003915827907164036 0.003461272779997342 0.00045455512716669714 0.0044212240785104565 0.0 0.0
0.0 0.0025435816181553963 -0.0018306624816385 0.0015363884108375073 0.00029427407080099324 0.0024347348768866774 0.0 0.0
0.0 0.0009060929603490228 -0.0005563763673155235 0.0004432782770103324 0.00011309809030519042 0.0009615215420528281 0.0 0.0
0.0 0.00014522418426319544 -7.610898568265527e-05 5.8711490948862016e-05 1.7397494733793344e-05 0.00021176868404369477 0.0 0.0
0.0 2.0378255101190938e-05 2.7001424398707025e-06 -2.016516479736708e-06 -6.836259601340962e-07 6.199643095153078e-07 0.0 0.0
0.0 4.693327523635743e-06 1.9301106459773387e-06 -1.5680270634763987e-06 -3.620835825009336e-07 -7.0175497281601105e-06 0.0 0.0
0.0 2.082393949746889e-06 -5.014715239503746e-07 3.8949658095952027e-07 1.119749429908603e-07 4.622790674693474e-06 0.0 0.0
0.0 -7.358684167093439e-07 3.511718569460671e-07 -2.905167120454458e-07 -6.065514490061644e-08 -2.387489119762685e-06 0.0 0.0
0.0 1.0941609095796122e-06 6.267163673533554e-09 1.6561036194243187e-08 -2.2828199867778347e-08 -3.2448111747720066e-07 0.0 0.0
0.0 -5.791226488939735e-07 3.285152937202806e-08 -4.863961920387383e-08 1.57880898318369e-08 8.324711318699175e-08 0.0 0.0
0.0 0.0 0.0 0.0 0.0 0.0 0.0 0.0
0.0 1.2793262250216665e-07 8.703308849541075e-11 4.028570319636627e-09 -4.115603408136257e-09 2.4778079492361678e-08 0.0 0.0
0.0 4.515281557862892e-07 3.070530786908101e-07 -2.419681322822591e-07 -6.50849464085439e-08 1.7166898589233568e-06 0.0 0.0
0.0 1.001064734847343e-06 1.1594868135514174e-06 -9.74972678420058e-07 -1.8451413513136128e-07 2.9343068701235158e-06 0.0 0.0
0.0 2.6534685288101483e-06 2.1519222224909323e-06 -1.679335795767741e-06 -4.725864267232325e-07 1.1514274965143075e-06 0.0 0.0
0.0 2.6484274978129225e-05 -2.402604149261592e-05 1.8181281877068732e-05 5.844759615547258e-06 -5.6304933493864546e-05 0.0 0.0
0.0 0.0004955196154332424 -0.0003307634622999692 0.0002532050221591512 7.755844014081784e-05 -0.00043448381006197664 0.0 0.0
0.0 0.0018640206730070866 -0.00148801612367144 0.0012035988526412737 0.0002844172710301641 -0.0015765886487340358 0.0 0.0
0.0 0.004705103171520327 -0.003757719442204717 0.0032526917188910433 0.0005050277233136706 -0.0034659886522313238 0.0 0.0
0.0 0.009061971877160846 -0.0070731480495116765 0.006433702090616425 0.0006394459588952575 -0.006010666623063474 0.0 0.0
0.0 0.0138780633652575 -0.011190537384851889 0.010471790701987534 0.000718746682864346 -0.00889062868704925 0.0 0.0
0.0 0.01952807881738025 -0.015881908525781297 0.015098309531453332 0.0007835989943279661 -0.011760814511382181 0.0 0.0
0.0 0.025830523262296824 -0.021082697777662633 0.020236155325840156 0.0008465424518224955 -0.014517742640467735 0.0 0.0
0.0 0.03267457646891555 -0.02680679746289522 0.025904070985947367 0.0009027264769478197 -0.01719598599498402 0.0 0.0
0.0 0.04016764546129562 -0.033012546973274916 0.03206765753671447 0.0009448894365604781 -0.01997214934365052 0.0 0.0
0.0 0.04789029395424195 -0.0394757035965946 0.0385114749864902 0.0009642286101043602 -0.02319842377703245 0.0 0.0
0.0 0.05567564542596106 -0.04568039435766648 0.044723085604999234 0.0009573087526672005 -0.027317666105555135 0.0 0.0
0.0 0.062055319622614166 -0.05069673232542348 0.0497902320617179 0.0009065002637055882 -0.0322933130429078 0.0 0.0
0.0 0.06530457063871126 -0.05286248937554765 0.05206712600743395 0.0007953633681136642 -0.036769964338351585 0.0 0.0
0.0 0.06155612334515862 -0.0490393368723638 0.04852478188640923 0.0005145549859545528 -0.03809645093774389 0.0 0.0
0.0 0.0591365024723416 -0.04162199858030353 0.037621792960910554 0.004000205619393006 2.0698720515355262e-14 0.0 0.0
0.0 0.06155612334516526 -0.04903933687235963 0.048524781886406056 0.0005145549859535956 0.03809645093779371 0.0 0.0
0.0 0.06530457063869982 -0.05286248937553073 0.05206712600741713 0.0007953633681135657 0.03676996433839884 0.0 0.0
0.0 0.06205531962259201 -0.05069673232540123 0.04979023206169671 0.000906500263704528 0.032293313042932606 0.0 0.0
0.0 0.055675645425916354 -0.04568039435762903 0.04472308560496136 0.0009573087526677056 0.02731766610554914 0.0 0.0
0.0 0.0478902939541954 -0.03947570359655562 0.03851147498645151 0.0009642286101041097 0.023198423777014764 0.0 0.0
0.0 0.04016764546125036 -0.03301254697323734 0.03206765753667717 0.0009448894365601558 0.019972149343631982 0.0 0.0
0.0 0.03267457646887485 -0.026806797462860424 0.025904070985913477 0.0009027264769469373 0.017195985994968507 0.0 0.0
0.0 0.02583052326225276 -0.021082697777626135 0.020236155325803983 0.0008465424518221445 0.014517742640449485 0.0 0.0
0.0 0.01952807881733994 -0.01588190852574893 0.015098309531421572 0.0007835989943273502 0.011760814511359864 0.0 0.0
0.0 0.013878063365220112 -0.011190537384822292 0.010471790701958004 0.0007187466828642755 0.00889062868702465 0.0 0.0
0.0 0.009061971877127255 -0.007073148049485255 0.006433702090590497 0.0006394459588947568 0.006010666623041132 0.0 0.0
0.0 0.004705103171501052 -0.0037577194421896513 0.0032526917188771994 0.0005050277233124484 0.0034659886522196114 0.0 0.0
0.0 0.0018640206729974658 -0.0014880161236640484 0.001203598852635051 0.000284417271028998 0.0015765886487273928 0.0 0.0
0.0 0.0004955196154278589 -0.0003307634622966926 0.00025320502215658245 7.755844014011014e-05 0.0004344838100577116 0.0 0.0
0.0 2.6484274977077982e-05 -2.402604149264911e-05 1.8181281877101034e-05 5.844759615548063e-06 5.630493349429275e-05 0.0 0.0
0.0 2.653468528601297e-06 2.1519222221435924e-06 -1.6793357954845752e-06 -4.725864266590157e-07 -1.1514274955190033e-06 0.0 0.0
0.0 1.00106473416637e-06 1.1594868134132367e-06 -9.74972678306314e-07 -1.8451413510692136e-07 -2.9343068693036755e-06 0.0 0.0
0.0 4.515281552822102e-07 3.070530787241999e-07 -2.419681323103782e-07 -6.508494641382842e-08 -1.7166898590898147e-06 0.0 0.0
0.0 1.2793262222365965e-07 8.703308583074716e-11 4.028570317766604e-09 -4.115603403594462e-09 -2.4778079435018216e-08 0.0 0.0
0.0 0.0 0.0 0.0 0.0 0.0 0.0 0.0
0.0 0.0 0.0 0.0 0.0 0.0 0.0 0.0
0.0 -1.2025212151614905e-07 -2.8111852206668733e-09 1.9303984439410896e-09 8.807867767261456e-10 -2.3879236813071873e-08 0.0 0.0
0.0 7.283598476862025e-08 2.0256979493233418e-07 -1.6023491537358768e-07 -4.2334879558748916e-08 8.632008869966823e-07 0.0 0.0
0.0 -2.683382485246381e-06 6.121580553062306e-07 -5.035006701207354e-07 -1.0865738518548433e-07 9.63669919210362e-07 0.0 0.0
0.0 8.532999025502222e-07 6.0716051984351065e-06 -5.085424440565889e-06 -9.86180757869215e-07 1.1253365356938733e-05 0.0 0.0
0.0 0.00015566585744817665 -9.361688791382633e-05 6.957024820251393e-05 2.40466397113124e-05 -9.891455275637109e-05 0.0 0.0
0.0 0.0009882543498409566 -0.0008161354221432719 0.0006332834006539945 0.0001828520214892774 -0.0007058719703716627 0.0 0.0
0.0 0.0032152808342912425 -0.002704613931183389 0.002254380257879069 0.0004502336733043196 -0.002033604763232271 0.0 0.0
0.0 0.0074585952056294355 -0.0059650502896691545 0.0053144630195174425 0.0006505872701517099 -0.004219924485118555 0.0 0.0
0.0 0.012469967049310124 -0.010488871280540695 0.009732095269811968 0.0007567760107287348 -0.007078222654193597 0.0 0.0
0.0 0.01916351298383895 -0.015960119638215583 0.015134131776414338 0.0008259878618012499 -0.010137456882133323 0.0 0.0
0.0 0.02661346951392514 -0.022199401717952733 0.02130792971245092 0.0008914720055017919 -0.013162277640633865 0.0 0.0
0.0 0.03483352568805169 -0.029137532030729964 0.028177105501839866 0.0009604265288901217 -0.01606190542645796 0.0 0.0
0.0 0.04387090751988845 -0.03678959096701439 0.0357628493711468 0.0010267415958675637 -0.018881351277876633 0.0 0.0
0.0 0.05366223246771813 -0.04514172334467541 0.04406129970772071 0.001080423636954678 -0.021805371352489115 0.0 0.0
0.0 0.06434475979665892 -0.05397487377908938 0.052867776981160394 0.0011070967979289893 -0.025301421215597635 0.0 0.0
0.0 0.07437648724609777 -0.06263945010146992 0.0615484190587383 0.0010910310427315498 -0.029916881050283742 0.0 0.0
0.0 0.08341102976254006 -0.06978155934764878 0.06876838490823148 0.0010131744394172911 -0.035561363908527904 0.0 0.0
0.0 0.08808103618057606 -0.0730359501489081 0.07219206013730656 0.0008438900116014985 -0.04080982621294855 0.0 0.0
0.0 0.08337660662925515 -0.06844456947134438 0.0679295757216589 0.0005149937496855217 -0.0427632129269816 0.0 0.0
0.0 0.07729585095689813 -0.0593632195233604 0.054741267341032795 0.004621952182327464 2.1963333929342355e-14 0.0 0.0
0.0 0.08337660662925422 -0.06844456947133476 0.06792957572165007 0.0005149937496847268 0.04276321292703345 0.0 0.0
0.0 0.08808103618055632 -0.07303595014888473 0.07219206013728269 0.0008438900116019366 0.040809826212999535 0.0 0.0
0.0 0.08341102976250617 -0.06978155934761669 0.0687683849081995 0.0010131744394170257 0.03556136390855709 0.0 0.0
0.0 0.07437648724604204 -0.06263945010142247 0.0615484190586899 0.001091031042732631 0.02991688105028018 0.0 0.0
0.0 0.06434475979660374 -0.0539748737790424 0.05286777698111368 0.0011070967979286736 0.025301421215582424 0.0 0.0
0.0 0.05366223246766122 -0.04514172334462674 0.044061299707672794 0.0010804236369539525 0.021805371352470494 0.0 0.0
0.0 0.043870907519832025 -0.03678959096696581 0.035762849371098984 0.0010267415958668236 0.018881351277859185 0.0 0.0
0.0 0.034833525687996 -0.02913753203068321 0.028177105501793014 0.0009604265288901878 0.016061905426438563 0.0 0.0
0.0 0.02661346951387341 -0.022199401717909482 0.021307929712408018 0.0008914720055014635 0.013162277640610634 0.0 0.0
0.0 0.01916351298379048 -0.015960119638175643 0.015134131776374652 0.0008259878618010073 0.010137456882105541 0.0 0.0
0.0 0.012469967049272515 -0.010488871280509196 0.009732095269781265 0.0007567760107279398 0.007078222654171614 0.0 0.0
0.0 0.007458595205602082 -0.005965050289647684 0.00531446301949683 0.0006505872701508552 0.004219924485104115 0.0 0.0
0.0 0.003215280834275283 -0.0027046139311707293 0.002254380257867766 0.00045023367330296234 0.0020336047632233747 0.0 0.0
0.0 0.0009882543498328132 -0.0008161354221374737 0.0006332834006493534 0.00018285202148812023 0.0007058719703666299 0.0 0.0
0.0 0.00015566585744513397 -9.361688791226352e-05 6.957024820132206e-05 2.404663971094149e-05 9.891455275470812e-05 0.0 0.0
0.0 8.532999022042017e-07 6.071605197844377e-06 -5.0854244400924725e-06 -9.861807577518747e-07 -1.1253365355725986e-05 0.0 0.0
0.0 -2.683382485188611e-06 6.121580549707033e-07 -5.03500669858672e-07 -1.0865738511201461e-07 -9.636699181109566e-07 0.0 0.0
0.0 7.283598453625448e-08 2.0256979496781584e-07 -1.6023491540346897e-07 -4.23348795643468e-08 -8.632008871423243e-07 0.0 0.0
0.0 -1.2025212151506954e-07 -2.8111852205958148e-09 1.930398443898689e-09 8.807867766964716e-10 2.387923681280424e-08 0.0 0.0
0.0 0.0 0.0 0.0 0.0 0.0 0.0 0.0
0.0 0.0 0.0 0.0 0.0 0.0 0.0 0.0
0.0 0.0 0.0 0.0 0.0 0.0 0.0 0.0
0.0 -2.469322323915338e-07 2.6262487051794192e-08 -1.9864756718569675e-08 -6.397730333225824e-09 8.494233082371572e-08 0.0 0.0
0.0 -2.3766302472644424e-06 2.0270858003362007e-06 -1.6368536863620016e-06 -3.9023211397417525e-07 4.29041578340272e-06 0.0 0.0
0.0 -4.318287972865241e-06 -4.8732444499138825e-06 2.8069873610529054e-06 2.0662570888609503e-06 -2.8901291655935527e-06 0.0 0.0
0.0 0.0003660826788852292 -0.0002671979558155416 0.00019952456917534127 6.767338664020038e-05 -0.00017755897174260833 0.0 0.0
0.0 0.0017133725556390566 -0.00148769103812215 0.0011802333088539879 0.0003074577292681616 -0.0008702335795190436 0.0 0.0
0.0 0.005053388738120735 -0.004136116663776457 0.0035500105616988963 0.0005861061020775612 -0.002305978936627421 0.0 0.0
0.0 0.009669902743944402 -0.008391339851893189 0.007637172936989839 0.0007541669149033547 -0.004637958939403593 0.0 0.0
0.0 0.016489420748918137 -0.014029452511923403 0.013186274678570385 0.0008431778333530181 -0.007471669481368166 0.0 0.0
0.0 0.024539737383073055 -0.020834866387025038 0.01992286140101836 0.0009120049860066577 -0.010487106811935248 0.0 0.0
0.0 0.03372025917057586 -0.028619789883311656 0.02763712118039484 0.0009826687029168301 -0.013469149345151088 0.0 0.0
0.0 0.04392525124239806 -0.037297349224670207 0.03623910482441072 0.0010582444002594062 -0.01634288491689777 0.0 0.0
0.0 0.055232366962384705 -0.046873196861705366 0.04573994012972528 0.0011332567319801467 -0.019150951332172757 0.0 0.0
0.0 0.06743162651477437 -0.05735919320213143 0.05615975593355908 0.0011994372685723178 -0.022041585154985284 0.0 0.0
0.0 0.08037245683823209 -0.06854193753765961 0.06730814703340739 0.001233790504252257 -0.025413162235757555 0.0 0.0
0.0 0.09372207083789072 -0.07961277406493068 0.07840695786651644 0.0012058161984142535 -0.029889734420388957 0.0 0.0
0.0 0.10471164998013587 -0.08879207486555639 0.08770207333818242 0.0010900015273737954 -0.03565170148145484 0.0 0.0
0.0 0.11003485504205877 -0.09299066960238146 0.092123625109721 0.0008670444926604234 -0.04155430881497285 0.0 0.0
0.0 0.10481520991202642 -0.08765447894793887 0.08713971215884116 0.0005147667890977167 -0.04556044723057286 0.0 0.0
0.0 0.09680193798211031 -0.07715193491410545 0.07198295221227057 0.005168982701834849 2.4098778528269804e-14 0.0 0.0
0.0 0.10481520991201865 -0.08765447894792464 0.08713971215882753 0.0005147667890971553 0.045560447230625224 0.0 0.0
0.0 0.11003485504203045 -0.09299066960235156 0.09212362510969062 0.0008670444926609529 0.04155430881502471 0.0 0.0
0.0 0.10471164998008992 -0.08879207486551421 0.08770207333814077 0.0010900015273733509 0.035651701481482764 0.0 0.0
0.0 0.09372207083782827 -0.07961277406487674 0.07840695786646205 0.0012058161984146113 0.029889734420388666 0.0 0.0
0.0 0.08037245683816438 -0.06854193753760135 0.06730814703334942 0.0012337905042519054 0.02541316223574571 0.0 0.0
0.0 0.06743162651470494 -0.05735919320207175 0.056159755933500054 0.0011994372685716881 0.022041585154969845 0.0 0.0
0.0 0.055232366962314795 -0.0468731968616449 0.045739940129665424 0.0011332567319794484 0.01915095133215519 0.0 0.0
0.0 0.04392525124233058 -0.03729734922461259 0.03623910482435286 0.0010582444002597178 0.016342884916879432 0.0 0.0
0.0 0.0337202591705118 -0.02861978988325748 0.027637121180341048 0.0009826687029164008 0.013469149345127412 0.0 0.0
0.0 0.02453973738301669 -0.02083486638697768 0.019922861400971437 0.0009120049860062433 0.010487106811909298 0.0 0.0
0.0 0.016489420748872424 -0.014029452511885213 0.013186274678532287 0.0008431778333529248 0.007471669481346057 0.0 0.0
0.0 0.009669902743912292 -0.008391339851864937 0.007637172936962464 0.0007541669149024769 0.004637958939388295 0.0 0.0
0.0 0.00505338873809654 -0.004136116663757043 0.0035500105616807255 0.0005861061020763171 0.002305978936616115 0.0 0.0
0.0 0.0017133725556277577 -0.0014876910381130012 0.0011802333088464588 0.0003074577292665418 0.0008702335795134008 0.0 0.0
0.0 0.00036608267888093893 -0.0002671979558129436 0.0001995245691733919 6.767338663955127e-05 0.00017755897174084396 0.0 0.0
0.0 -4.318287973197886e-06 -4.87324445034705e-06 2.8069873614112995e-06 2.066257088935709e-06 2.8901291664404603e-06 0.0 0.0
0.0 -2.376630247928179e-06 2.0270858003084036e-06 -1.636853686339814e-06 -3.902321139685838e-07 -4.2904157831997225e-06 0.0 0.0
0.0 -2.469322322212912e-07 2.626248708438536e-08 -1.9864756744472475e-08 -6.397730339911496e-09 -8.494233092808429e-08 0.0 0.0
0.0 0.0 0.0 0.0 0.0 0.0 0.0 0.0
0.0 0.0 0.0 0.0 0.0 0.0 0.0 0.0
0.0 0.0 0.0 0.0 0.0 0.0 0.0 0.0
0.0 0.0 0.0 0.0 0.0 0.0 0.0 0.0
0.0 -1.9259891853480113e-07 -1.2438204119640457e-08 9.900711751953166e-09 2.537492367688598e-09 -3.208399983975565e-08 0.0 0.0
0.0 -3.8123641642112015e-06 1.8968057438681533e-06 -1.5347129160715655e-06 -3.6209282779661677e-07 3.282780706211776e-06 0.0 0.0
0.0 3.754173980610525e-05 -2.0171912942620773e-05 1.2781603686540971e-05 7.390309256079907e-06 -1.678178344141367e-06 0.0 0.0
0.0 0.0006089093164583955 -0.0005773762754053037 0.0004360584729200168 0.00014131780248528673 -0.0002592862436233536 0.0 0.0
0.0 0.002807456798947888 -0.002322388668659423 0.00189169151282336 0.00043069715583606233 -0.0009220330953321373 0.0 0.0
0.0 0.006525931708822095 -0.00576482884231804 0.0050729160710834475 0.0006919127712345896 -0.0024002384104261643 0.0 0.0
0.0 0.01254201245670469 -0.010910704846395823 0.010079985641007629 0.0008307192053881936 -0.0045733197894082655 0.0 0.0
0.0 0.020441984430784977 -0.017644342452968056 0.016729686320742395 0.0009146561322256679 -0.007172079907695588 0.0 0.0
0.0 0.02998432216791957 -0.0257686145173418 0.02478066464115319 0.0009879498761885955 -0.009960160147571007 0.0 0.0
0.0 0.04092987317332614 -0.035094892115727715 0.034030223105973825 0.0010646690097538877 -0.012716676274095617 0.0 0.0
0.0 0.05320334559298612 -0.045518078386183825 0.04437193948910898 0.0011461388970747765 -0.015389511807094169 0.0 0.0
0.0 0.06638840701344588 -0.05702185051557578 0.05579327377099668 0.0012285767445790877 -0.018036339946515084 0.0 0.0
0.0 0.08110537891766746 -0.06959270151303851 0.06828894751044974 0.0013037540025889036 -0.020719880910713827 0.0 0.0
0.0 0.09679590871755946 -0.08302170028516706 0.08167393237752112 0.0013477679076457924 -0.023620987365804882 0.0 0.0
0.0 0.1122630809380086 -0.09640992984604083 0.09509554081452885 0.0013143890315118916 -0.027320738209848233 0.0 0.0
0.0 0.12548561233291264 -0.10757918839376579 0.10641739623498082 0.001161792158785048 -0.032565610529746825 0.0 0.0
0.0 0.13213711863365585 -0.112815550574313 0.11192818285038349 0.0008873677239292896 -0.039320542873924176 0.0 0.0
0.0 0.12640797848634416 -0.10703491789321397 0.10652996310720132 0.0005049547860125536 -0.04693756553194901 0.0 0.0
0.0 0.116835520994916 -0.09537843526442225 0.08972991468037037 0.005648520584051939 2.2756102557863755e-14 0.0 0.0
0.0 0.12640797848633095 -0.10703491789319608 0.10652996310718403 0.0005049547860120004 0.046937565531999834 0.0 0.0
0.0 0.132137118633616 -0.11281555057427435 0.11192818285034446 0.0008873677239297445 0.03932054287397263 0.0 0.0
0.0 0.12548561233285496 -0.10757918839371453 0.10641739623493002 0.0011617921587844967 0.03256561052977202 0.0 0.0
0.0 0.1122630809379401 -0.09640992984598118 0.09509554081446954 0.0013143890315115904 0.02732073820985033 0.0 0.0
0.0 0.09679590871747987 -0.0830217002850979 0.0816739323774526 0.0013477679076451879 0.02362098736579607 0.0 0.0
0.0 0.08110537891758471 -0.06959270151296748 0.06828894751037863 0.0013037540025888218 0.020719880910700768 0.0 0.0
0.0 0.06638840701336518 -0.05702185051550626 0.055793273770927576 0.0012285767445786668 0.01803633994649836 0.0 0.0
0.0 0.05320334559290726 -0.04551807838611563 0.04437193948904065 0.0011461388970749743 0.015389511807077698 0.0 0.0
0.0 0.0409298731732525 -0.03509489211566461 0.034030223105911396 0.001064669009753212 0.012716676274073734 0.0 0.0
0.0 0.029984322167853857 -0.025768614517285786 0.024780664641097308 0.000987949876188492 0.00996016014754657 0.0 0.0
0.0 0.020441984430730063 -0.01764434245292094 0.016729686320695616 0.000914656132225302 0.007172079907674562 0.0 0.0
0.0 0.012542012456666697 -0.010910704846362694 0.01007998564097529 0.0008307192053874118 0.00457331978939453 0.0 0.0
0.0 0.0065259317087928105 -0.005764828842292822 0.00507291607105941 0.0006919127712334101 0.0024002384104146123 0.0 0.0
0.0 0.0028074567989321065 -0.0023223886686466904 0.0018916915128123558 0.00043069715583433406 0.0009220330953265281 0.0 0.0
0.0 0.0006089093164533359 -0.0005773762754016549 0.0004360584729172068 0.00014131780248444786 0.00025928624362170973 0.0 0.0
0.0 3.7541739804914796e-05 -2.017191294250768e-05 1.2781603686491711e-05 7.390309256016103e-06 1.678178344443783e-06 0.0 0.0
0.0 -3.8123641642595446e-06 1.8968057436874254e-06 -1.5347129159356665e-06 -3.6209282775175897e-07 -3.282780705985285e-06 0.0 0.0
0.0 -1.9259891850927365e-07 -1.243820411784055e-08 9.900711750511593e-09 2.5374923673294314e-09 3.208399983580417e-08 0.0 0.0
0.0 0.0 0.0 0.0 0.0 0.0 0.0 0.0
0.0 0.0 0.0 0.0 0.0 0.0 0.0 0.0
0.0 0.0 0.0 0.0 0.0 0.0 0.0 0.0
0.0 0.0 0.0 0.0 0.0 0.0 0.0 0.0
0.0 -7.18462332870173e-08 -5.322214849680892e-09 4.219826328331633e-09 1.102388521349622e-09 -1.0684932772376604e-08 0.0 0.0
0.0 -4.432435215802866e-06 3.010509094141616e-06 -2.46007902341142e-06 -5.504300707301888e-07 3.952217663208125e-06 0.0 0.0
0.0 0.00011223855418627369 -8.327106881455209e-05 5.7827500145708635e-05 2.5443568668843704e-05 -1.4479103229886187e-05 0.0 0.0
0.0 0.001120342757549085 -0.0009726573828920204 0.0007455467464899545 0.00022711063640206596 -0.00023117626486652987 0.0 0.0
0.0 0.0037822872469131497 -0.003334003274044344 0.002789384430440135 0.0005446188436042062 -0.0008773773265076314 0.0 0.0
0.0 0.008395275773799964 -0.007484368307719568 0.006715434395247026 0.0007689339124725403 -0.0021904632070171106 0.0 0.0
0.0 0.015356166476263798 -0.013485672639044554 0.012592812567514277 0.0008928600715302695 -0.004002602770020762 0.0 0.0
0.0 0.024477799131404444 -0.021291093034552233 0.02031323259631112 0.0009778604382411043 -0.006204055588874293 0.0 0.0
0.0 0.035438735423995664 -0.03072143976649914 0.029664353589134145 0.0010570861773649726 -0.008573899009264165 0.0 0.0
0.0 0.048146233548894087 -0.04158723638503049 0.04044677748282053 0.0011404589022099866 -0.010921377605244425 0.0 0.0
0.0 0.06214987125701177 -0.05376761283508351 0.05253952413795197 0.0012280886971316263 -0.013213222102781067 0.0 0.0
0.0 0.0779534109933155 -0.06719244617533118 0.0658788080133284 0.0013136381620026882 -0.015523536267757878 0.0 0.0
0.0 0.09476628596272012 -0.08179291711507121 0.08040050498585555 0.001392412129215646 -0.017861602394905304 0.0 0.0
0.0 0.11253851694496239 -0.09730692393279108 0.09585970653192138 0.0014472174008697907 -0.02012121176929014 0.0 0.0
0.0 0.13058565675744754 -0.11281926399365738 0.11139354723785796 0.0014257167557993654 -0.022511935977737624 0.0 0.0
0.0 0.14600321695356683 -0.12600038009621056 0.12474894505344539 0.0012514350427650814 -0.026399424938405566 0.0 0.0
0.0 0.15415459730568 -0.13263214681962185 0.13171447863411367 0.000917668185508211 -0.034045090895526195 0.0 0.0
0.0 0.1487128247762513 -0.12693707502930116 0.12646251661052776 0.00047455841877351313 -0.046652675540777566 0.0 0.0
0.0 0.13843523773838723 -0.11443757697276585 0.10838403884770229 0.006053538125063508 1.9099305470504646e-14 0.0 0.0
0.0 0.14871282477623188 -0.12693707502927953 0.12646251661050617 0.00047455841877333505 0.04665267554082244 0.0 0.0
0.0 0.15415459730562897 -0.13263214681957552 0.1317144786340664 0.0009176681855090319 0.034045090895567565 0.0 0.0
0.0 0.1460032169534989 -0.12600038009615092 0.12474894505338632 0.0012514350427645041 0.026399424938427046 0.0 0.0
0.0 0.13058565675736272 -0.11281926399358408 0.11139354723778451 0.0014257167557995569 0.022511935977739265 0.0 0.0
0.0 0.11253851694487525 -0.09730692393271502 0.0958597065318466 0.001447217400868427 0.02012121176928537 0.0 0.0
0.0 0.09476628596262468 -0.08179291711498914 0.08040050498577346 0.0013924121292156076 0.017861602394894722 0.0 0.0
0.0 0.07795341099322291 -0.06719244617525094 0.0658788080132488 0.0013136381620020776 0.015523536267744295 0.0 0.0
0.0 0.06214987125691956 -0.05376761283500416 0.05253952413787248 0.0012280886971317508 0.013213222102767406 0.0 0.0
0.0 0.048146233548810174 -0.04158723638495766 0.04044677748274838 0.0011404589022093225 0.010921377605226124 0.0 0.0
0.0 0.035438735423918885 -0.030721439766433208 0.029664353589068205 0.0010570861773649834 0.008573899009242242 0.0 0.0
0.0 0.024477799131345283 -0.021291093034500996 0.020313232596260663 0.0009778604382403326 0.006204055588856775 0.0 0.0
0.0 0.015356166476218876 -0.013485672639005308 0.012592812567475646 0.0008928600715296557 0.004002602770008581 0.0 0.0
0.0 0.008395275773768298 -0.007484368307691397 0.0067154343952198605 0.0007689339124715414 0.0021904632070075362 0.0 0.0
0.0 0.003782287246896193 -0.0033340032740298664 0.00278938443042717 0.0005446188436026931 0.0008773773265027684 0.0 0.0
0.0 0.0011203427575397704 -0.0009726573828845495 0.0007455467464839079 0.00022711063640064162 0.00023117626486421195 0.0 0.0
0.0 0.00011223855418474232 -8.32710688138891e-05 5.782750014529196e-05 2.5443568668597136e-05 1.4479103230065905e-05 0.0 0.0
0.0 -4.432435216084218e-06 3.010509093632733e-06 -2.46007902302951e-06 -5.504300706032142e-07 -3.952217662759928e-06 0.0 0.0
0.0 -7.184623319621463e-08 -5.322214842869262e-09 4.219826322927047e-09 1.1023885199412321e-09 1.0684932758656047e-08 0.0 0.0
0.0 0.0 0.0 0.0 0.0 0.0 0.0 0.0
0.0 0.0 0.0 0.0 0.0 0.0 0.0 0.0
0.0 0.0 0.0 0.0 0.0 0.0 0.0 0.0
0.0 0.0 0.0 0.0 0.0 0.0 0.0 0.0
0.0 0.0 0.0 0.0 0.0 0.0 0.0 0.0
0.0 -6.449235435805724e-06 6.140054745674546e-06 -5.035748389763313e-06 -1.1043063559112544e-06 5.396372251700299e-06 0.0 0.0
0.0 0.0002183779464089162 -0.00021524443677666216 0.00015290280144124408 6.234163533541781e-05 -4.7464569845641096e-06 0.0 0.0
0.0 0.001771401873763275 -0.0015039386066799862 0.0011785262458523912 0.00032541236082759455 -0.00013376589043773105 0.0 0.0
0.0 0.004814342511795256 -0.004459528694230899 0.0038234088287327477 0.0006361198654981526 -0.0006784115319218294 0.0 0.0
0.0 0.010361838222497213 -0.009254975357125501 0.00842445436572837 0.0008305209913971396 -0.0016204041751817127 0.0 0.0
0.0 0.01821267589661963 -0.01608219795199062 0.01513579607454527 0.0009464018774453362 -0.002950875413223357 0.0 0.0
0.0 0.02850988036741143 -0.024934444368115836 0.023899144473744697 0.0010352998943711739 -0.004576084888025319 0.0 0.0
0.0 0.04097714426322488 -0.03565661421411172 0.03453526024528634 0.001121353968825379 -0.006337079414024747 0.0 0.0
0.0 0.05527920015892013 -0.04806049561055048 0.046849354285026575 0.0012111413255238767 -0.008087996592601563 0.0 0.0
0.0 0.07159491761931779 -0.06199834308588065 0.060694578505913414 0.0013037645799672541 -0.009817261895760121 0.0 0.0
0.0 0.08909154127834318 -0.07735637841500308 0.07596347936444836 0.0013928990505546843 -0.011611852857456943 0.0 0.0
0.0 0.10827699527313574 -0.09393530941622613 0.09246573083597538 0.001469578580250759 -0.013433405865805539 0.0 0.0
0.0 0.12839826678918584 -0.1113361808755419 0.10981430931857238 0.00152187155696955 -0.01500593210051141 0.0 0.0
0.0 0.14843155687893114 -0.12866771639641544 0.12714224540942065 0.0015254709869949455 -0.016081524886869373 0.0 0.0
0.0 0.16597853748573943 -0.14382825952188716 0.14242867392573194 0.001399585596155268 -0.017808728535134072 0.0 0.0
0.0 0.1762732942332335 -0.15245312908949515 0.1514589962790381 0.000994132810456733 -0.024830657922359212 0.0 0.0
0.0 0.17203245457204014 -0.14775601946939046 0.14736127364308746 0.00039474582630277236 -0.04366887486712 0.0 0.0
0.0 0.16174836914301877 -0.1348825715758391 0.12852840090365172 0.006354170672187355 1.3293185996410273e-14 0.0 0.0
0.0 0.17203245457201233 -0.1477560194693637 0.14736127364306045 0.0003947458263031178 0.0436688748671543 0.0 0.0
0.0 0.1762732942331774 -0.15245312908944458 0.1514589962789883 0.000994132810456513 0.0248306579223942 0.0 0.0
0.0 0.16597853748566052 -0.14382825952181888 0.14242867392566408 0.0013995855961548285 0.01780872853515101 0.0 0.0
0.0 0.14843155687883375 -0.1286677163963314 0.12714224540933633 0.0015254709869952972 0.016081524886870365 0.0 0.0
0.0 0.12839826678908597 -0.11133618087545522 0.10981430931848668 0.0015218715569685478 0.015005932100509087 0.0 0.0
0.0 0.10827699527302813 -0.09393530941613312 0.09246573083588258 0.001469578580250607 0.013433405865799483 0.0 0.0
0.0 0.0890915412782382 -0.07735637841491207 0.07596347936435835 0.0013928990505537484 0.011611852857447896 0.0 0.0
0.0 0.07159491761921659 -0.06199834308579302 0.06069457850582602 0.001303764579966967 0.009817261895751429 0.0 0.0
0.0 0.055279200158825245 -0.048060495610468365 0.04684935428494538 0.0012111413255229478 0.008087996592588746 0.0 0.0
0.0 0.040977144263140586 -0.03565661421403833 0.03453526024521317 0.0011213539688251389 0.006337079414008279 0.0 0.0
0.0 0.028509880367347137 -0.024934444368059316 0.02389914447368895 0.0010352998943703622 0.0045760848880123895 0.0 0.0
0.0 0.018212675896568643 -0.01608219795194561 0.015135796074500961 0.0009464018774446569 0.0029508754132142926 0.0 0.0
0.0 0.010361838222461436 -0.009254975357093659 0.008424454365697408 0.000830520991396247 0.0016204041751746473 0.0 0.0
0.0 0.004814342511775614 -0.004459528694213056 0.0038234088287162167 0.0006361198654968464 0.0006784115319176042 0.0 0.0
0.0 0.0017714018737516168 -0.0015039386066699428 0.0011785262458440997 0.0003254123608258401 0.00013376589043597966 0.0 0.0
0.0 0.0002183779464067959 -0.00021524443677556454 0.00015290280144052485 6.23416353350394e-05 4.746456984993745e-06 0.0 0.0
0.0 -6.449235435777438e-06 6.140054745311288e-06 -5.035748389491526e-06 -1.1043063558197924e-06 -5.396372251562384e-06 0.0 0.0
0.0 0.0 0.0 0.0 0.0 0.0 0.0 0.0
0.0 0.0 0.0 0.0 0.0 0.0 0.0 0.0
0.0 0.0 0.0 0.0 0.0 0.0 0.0 0.0
0.0 0.0 0.0 0.0 0.0 0.0 0.0 0.0
0.0 0.0 0.0 0.0 0.0 0.0 0.0 0.0
0.0 0.0 0.0 0.0 0.0 0.0 0.0 0.0
0.0 -3.583913560875765e-06 1.823092210750277e-06 -2.5611594843572676e-06 7.380672736069914e-07 6.136476180445334e-06 0.0 0.0
0.0 0.0004894103329787331 -0.00040836455433783034 0.00029486775886236323 0.00011349679547546717 6.14767191657065e-05 0.0 0.0
0.0 0.0024173336131671093 -0.0021620928173429234 0.0017376098793771822 0.0004244829379657399 4.695832709213148e-05 0.0 0.0
0.0 0.0061668633936213385 -0.005634073580574657 0.0049288866258748835 0.0007051869546997775 -0.00023824031800928578 0.0 0.0
0.0 0.012352961761481051 -0.011048767316344478 0.01016829047861962 0.0008804768377248404 -0.0007292692405833855 0.0 0.0
0.0 0.021148871263968312 -0.018666035843381754 0.017672386568025326 0.0009936492753564348 -0.0014247967485602965 0.0 0.0
0.0 0.03253571338998847 -0.02853908094137319 0.027450190610895916 0.0010888903304772525 -0.0022938546538344637 0.0 0.0
0.0 0.04642484037253123 -0.04054007005926133 0.03935857926947654 0.0011814907897848216 -0.0032465878823000295 0.0 0.0
0.0 0.06268966943293748 -0.05447839896016232 0.05320152739531893 0.0012768715648434218 -0.004214240020185816 0.0 0.0
0.0 0.08054148468913395 -0.07018311664309151 0.0688082331603497 0.0013748834827417154 -0.005218657196643508 0.0 0.0
0.0 0.10049645441209687 -0.08745629522554155 0.08598946624851116 0.001466828977030353 -0.006282150058344275 0.0 0.0
0.0 0.12188978777438611 -0.10597989896476899 0.10444074123267277 0.0015391577320962653 -0.007355191298588211 0.0 0.0
0.0 0.1440592176826306 -0.12515650582573765 0.12357705485985503 0.001579450965882421 -0.008233106891526672 0.0 0.0
0.0 0.16582055976655302 -0.14395989866547854 0.14237679117976693 0.0015831074857117653 -0.00852711909967234 0.0 0.0
0.0 0.18514532675341008 -0.16066755269580402 0.15911981376741718 0.0015477389283869132 -0.008437365489925644 0.0 0.0
0.0 0.19807649579763842 -0.17182075840175984 0.17051407958797626 0.0013066788137832926 -0.01197891894390379 0.0 0.0
0.0 0.19682501153855556 -0.16997536317458403 0.16965569176088519 0.00031967141369883777 -0.03252493433557948 0.0 0.0
0.0 0.1880514014213711 -0.15789034611299313 0.1516571715001964 0.006233174612796535 6.3438837516471835e-15 0.0 0.0
0.0 0.19682501153852264 -0.16997536317455358 0.1696556917608554 0.00031967141369821354 0.03252493433559938 0.0 0.0
0.0 0.19807649579757294 -0.17182075840170274 0.17051407958791942 0.0013066788137832091 0.011978918943924806 0.0 0.0
0.0 0.18514532675332057 -0.16066755269572666 0.15911981376733986 0.0015477389283866786 0.008437365489934429 0.0 0.0
0.0 0.16582055976644192 -0.14395989866538322 0.14237679117967042 0.001583107485712837 0.008527119099672877 0.0 0.0
0.0 0.1440592176825169 -0.1251565058256386 0.12357705485975708 0.0015794509658813912 0.008233106891524618 0.0 0.0
0.0 0.12188978777426769 -0.10597989896466671 0.1044407412325706 0.001539157732096166 0.007355191298586347 0.0 0.0
0.0 0.10049645441198041 -0.08745629522544043 0.085989466248411 0.00146682897702934 0.006282150058339555 0.0 0.0
0.0 0.08054148468902106 -0.07018311664299372 0.06880823316025231 0.0013748834827413709 0.0052186571966389775 0.0 0.0
0.0 0.06268966943283097 -0.054478398960070056 0.05320152739522702 0.0012768715648430464 0.00421424002017812 0.0 0.0
0.0 0.0464248403724394 -0.04054007005918163 0.039358579269397655 0.0011814907897839699 0.003246587882290642 0.0 0.0
0.0 0.03253571338991612 -0.028539080941309667 0.0274501906108332 0.001088890330476498 0.0022938546538274237 0.0 0.0
0.0 0.021148871263910726 -0.018666035843330906 0.017672386567974954 0.0009936492753559413 0.0014247967485557953 0.0 0.0
0.0 0.012352961761440857 -0.011048767316308637 0.01016829047858452 0.0008804768377241101 0.0007292692405797246 0.0 0.0
0.0 0.006166863393596792 -0.005634073580552287 0.004928886625853703 0.0007051869546985826 0.0002382403180067955 0.0 0.0
0.0 0.0024173336131543288 -0.00216209281733167 0.0017376098793675252 0.0004244829379641442 -4.695832709253831e-05 0.0 0.0
0.0 0.0004894103329751856 -0.00040836455433541046 0.00029486775886062997 0.00011349679547478047 -6.147671916520554e-05 0.0 0.0
0.0 -3.5839135611426277e-06 1.8230922105282842e-06 -2.561159484184108e-06 7.380672736559029e-07 -6.136476180363448e-06 0.0 0.0
0.0 0.0 0.0 0.0 0.0 0.0 0.0 0.0
0.0 0.0 0.0 0.0 0.0 0.0 0.0 0.0
0.0 0.0 0.0 0.0 0.0 0.0 0.0 0.0
0.0 0.0 0.0 0.0 0.0 0.0 0.0 0.0
0.0 0.0 0.0 0.0 0.0 0.0 0.0 0.0
0.0 0.0 0.0 0.0 0.0 0.0 0.0 0.0
0.0 2.858727136943774e-05 -2.72928283939395e-05 1.7582066653091353e-05 9.710761740848245e-06 1.2071549978077167e-05 0.0 0.0
0.0 0.0008211919023796363 -0.0006490813175841017 0.0004659728181465457 0.0001831084994375561 0.0001587114770366536 0.0 0.0
0.0 0.0030767606115720426 -0.002755605830805398 0.002191832849014905 0.0005637729817904898 0.00035748403825592754 0.0 0.0
0.0 0.007228646363568496 -0.006631296682243211 0.005727859030736795 0.0009034376515064178 0.00046928738685014706 0.0 0.0
0.0 0.01391885834150897 -0.012532956994487995 0.011366433380242975 0.0011665236142450175 0.0005225866589114332 0.0 0.0
0.0 0.023317422994068908 -0.020783159750984718 0.019378776987705775 0.0014043827632789299 0.0005071150879567979 0.0 0.0
0.0 0.03560695666648483 -0.03148506179051868 0.029818898705768447 0.0016661630847501817 0.0003838230654050604 0.0 0.0
0.0 0.05066392409921266 -0.04454321485404051 0.04257094984282854 0.001972265011211944 0.00019061396775715053 0.0 0.0
0.0 0.06793650622509087 -0.05976757700523251 0.057441147297515746 0.002326429707716758 -6.78828644576461e-05 0.0 0.0
0.0 0.0875256406246694 -0.07693329132338014 0.07421685953031854 0.0027164317930616568 -0.000426905398868656 0.0 0.0
0.0 0.10908068354983802 -0.09578487740873956 0.09266287381892332 0.00312200358981631 -0.0008557210694791996 0.0 0.0
0.0 0.1321396421622802 -0.1159122159466776 0.11240199031239533 0.0035102256342821017 -0.0013771380769458247 0.0 0.0
0.0 0.15587494477239225 -0.13655042164206407 0.13271423882050054 0.003836182821563704 -0.0018993663972399818 0.0 0.0
0.0 0.17881699853447347 -0.15644720599436368 0.15240039383956833 0.0040468121547951146 -0.002163755741013412 0.0 0.0
0.0 0.19893788505434162 -0.1738764493034826 0.169761291368019 0.004115157935463291 -0.0019303822425379633 0.0 0.0
0.0 0.21343566204609926 -0.1866358051494348 0.18243960545578303 0.004196199693652014 -0.003703216958316517 0.0 0.0
0.0 0.21631194919957564 -0.18965595920983025 0.18532434192001737 0.004331617289812796 -0.024591018685625375 0.0 0.0
0.0 0.2122169249122985 -0.18091308184998167 0.16963110191817682 0.011281979931804534 8.881784197001252e-16 0.0 0.0
0.0 0.21631194919954017 -0.18965595920979808 0.18532434191998756 0.004331617289810425 0.024591018685631946 0.0 0.0
0.0 0.21343566204602255 -0.18663580514936878 0.1824396054557168 0.004196199693651862 0.003703216958323794 0.0 0.0
0.0 0.19893788505424545 -0.1738764493033983 0.16976129136793816 0.004115157935460348 0.0019303822425383796 0.0 0.0
0.0 0.17881699853434754 -0.15644720599425446 0.15240039383945936 0.004046812154794823 0.0021637557410108844 0.0 0.0
0.0 0.15587494477227123 -0.13655042164195808 0.13271423882039723 0.0038361828215606564 0.0018993663972377665 0.0 0.0
0.0 0.13213964216215407 -0.11591221594656756 0.11240199031228677 0.003510225634280665 0.0013771380769457917 0.0 0.0
0.0 0.10908068354971244 -0.09578487740862962 0.0926628738188161 0.00312200358981344 0.0008557210694765827 0.0 0.0
0.0 0.08752564062454582 -0.07693329132327234 0.07421685953021272 0.0027164317930596844 0.00042690539886646936 0.0 0.0
0.0 0.06793650622497333 -0.059767577005130565 0.05744114729741469 0.002326429707715769 6.788286445430156e-05 0.0 0.0
0.0 0.05066392409911685 -0.04454321485395651 0.042570949842746675 0.001972265011209853 -0.0001906139677589373 0.0 0.0
0.0 0.03560695666640615 -0.031485061790450124 0.029818898705701372 0.0016661630847487306 -0.000383823065407427 0.0 0.0
0.0 0.023317422994005133 -0.020783159750928627 0.01937877698765105 0.00140438276327758 -0.0005071150879575465 0.0 0.0
0.0 0.013918858341465551 -0.012532956994449162 0.011366433380205352 0.0011665236142438039 -0.0005225866589113244 0.0 0.0
0.0 0.007228646363541393 -0.006631296682218379 0.005727859030713478 0.0009034376515048982 -0.00046928738684946076 0.0 0.0
0.0 0.0030767606115584224 -0.0027556058307925636 0.0021918328490038966 0.0005637729817886691 -0.00035748403825463485 0.0 0.0
0.0 0.0008211919023750141 -0.0006490813175806011 0.0004659728181440286 0.00018310849943657393 -0.0001587114770356642 0.0 0.0
0.0 2.858727136863558e-05 -2.7292828393367082e-05 1.7582066652691926e-05 9.710761740675128e-06 -1.2071549977954178e-05 0.0 0.0
0.0 0.0 0.0 0.0 0.0 0.0 0.0 0.0
0.0 0.0 0.0 0.0 0.0 0.0 0.0 0.0
0.0 0.0 0.0 0.0 0.0 0.0 0.0 0.0
SCALARS Wm float 4
LOOKUP_TABLE default
13.358024714673967 2.044472067643337 5.658893615558407 5.654659031472218
6.81521668624599 3.24679057925619 1.6120953983472253 1.9563307086425767
0.7724981014215796 0.7042291098392548 0.012356267497702102 0.055912724084622716
0.567041278138319 0.5280463484592444 0.010834155051480814 0.028160774627594164
1.196100525471183 0.8171477021142723 0.13698305783082043 0.2419697655260894
2.6660695876911764 1.2072204676092855 0.5534629289055332 0.9053861911763568
5.608063051023398 1.7558586940375391 1.69053160141304 2.1616727555728197
10.442049430312434 2.460758565975282 3.8184481381234106 4.16284272621374
17.649301884152546 3.376104951275064 7.286842067446196 6.986354865431283
27.56444305651779 4.530945863145153 12.373870002632017 10.659627190740636
40.317280208118724 5.935897205340928 19.232548873404454 15.148834129373352
55.7672641123789 7.583011123829683 27.794064989576928 20.390187998972323
73.95178966747572 9.443479309993425 38.19664609231494 26.311664265167316
94.69440654397923 11.484656472581264 50.36943760694002 32.84031246445801
117.6009825599133 13.54986940686536 64.18809890702438 39.86301424602353
141.90709093159657 15.378710791037108 79.33730183407184 47.19107830648761
166.3389198615953 16.67224169169641 95.11698433798662 54.54969383191231
189.2581845507294 17.219756416185987 110.53236714815628 61.50606098638697
208.9527504197243 17.10536074115982 124.29255215265698 67.5548375259077
222.791679899136 16.044670108274182 134.65001022004174 72.09699957081992
227.2082601651092 14.018879762246623 139.11239878652626 74.07698161633633
222.7916798990914 16.044670108259893 134.65001022002022 72.0969995708113
208.9527504196637 17.10536074116797 124.29255215260918 67.55483752588644
189.2581845506392 17.21975641619265 110.53236714808938 61.50606098635718
166.33891986148353 16.672241691695973 95.11698433791048 54.54969383187711
141.9070909314807 15.378710791033415 79.3373018339955 47.19107830645182
117.60098255981413 13.549869406880614 64.18809890694816 39.86301424598537
94.69440654385852 11.484656472562444 50.369437606873205 32.84031246442288
73.95178966737075 9.443479309990051 38.19664609224955 26.311664265131157
55.767264112278795 7.583011123817296 27.79406498952161 20.390187998939922
40.317280208033026 5.93589720532541 19.23254887336139 15.148834129346207
27.564443056455946 4.530945863139633 12.373870002598702 10.659627190717632
17.649301884106816 3.3761049512673216 7.286842067424765 6.986354865414733
10.442049430283845 2.460758565972856 3.818448138109564 4.162842726201424
5.608063051005568 1.7558586940336216 1.6905316014063043 2.1616727555656423
2.6660695876818674 1.2072204676066431 0.5534629289029236 0.9053861911722983
1.1961005254674677 0.8171477021124534 0.13698305783005463 0.24196976552495947
0.5670412781375674 0.528046348458673 0.010834155051410815 0.028160774627483454
0.7724981014202513 0.7042291098382936 0.012356267497598538 0.0559127240843587
6.815216686241913 3.246790579258511 1.6120953983441084 1.9563307086392943
13.358024714643602 2.04447206762713 5.658893615550572 5.654659031465909
16.02299698151161 6.947542941474243 4.41220177869449 4.663252261342876
2.79598564434919 0.6144020637493898 0.9270620887095533 1.2545214918902465
0.28190079346252384 0.32989500466646904 -0.016404172211533292 -0.03159003899241197
0.43819427886582035 0.42433137506755275 0.0027488685475895542 0.011114035250678089
0.8990040299907186 0.6663295718080825 0.07326122553131277 0.1594132326513236
2.1261407485309616 0.9884448771584295 0.43381966113169235 0.7038762102408395
4.60037501348302 1.3680524604064674 1.3838447245298882 1.848477828546664
8.83325395572214 1.8436733197887114 3.292027081744908 3.6975535541885174
15.179254201815402 2.4096344067705577 6.443651836160919 6.325967958883932
23.852610869200326 3.059486333052271 11.049985361092599 9.743139175055445
34.93099806390261 3.7786596733360103 17.245692758493597 13.906645632072996
48.44305362752412 4.575338124998129 25.117280888428127 18.750434614097884
64.10456788065879 5.454961065807929 34.42940550480425 24.220201310046633
82.09905672583314 6.380406060799112 45.466363861781154 30.252286803252872
102.02970159895821 7.285619196327259 57.984761810539396 36.75932059209161
123.31375192524509 8.035516878892821 71.70833130025525 43.569903746096955
144.96253281394937 8.470496609221783 86.0930168223785 50.39901938234903
165.5895469110549 8.481208860527577 100.22347124557626 56.88486680495108
183.3434453183289 7.9694534904377825 112.83942325901005 62.53456856888101
195.89572951976857 7.0059746506309475 122.23810839401897 66.65164647511874
200.69052486093685 5.904954764148493 126.35566880249462 68.42990129429386
195.89572951974267 7.005974650634403 122.23810839399852 66.65164647510974
183.34344531826477 7.969453490433714 112.83942325896848 62.534568568862696
165.58954691097134 8.481208860529463 100.22347124551736 56.88486680492458
144.96253281384526 8.470496609215443 86.09301682231191 50.39901938231788
123.31375192514729 8.035516878899385 71.70833130018495 43.56990374606294
102.02970159885356 7.285619196324637 57.98476181047174 36.7593205920572
82.09905672573683 6.380406060795797 45.46636386172042 30.252286803220624
64.10456788056123 5.454961065800871 34.42940550474636 24.220201310013962
48.44305362743817 4.575338124991307 25.117280888378698 18.750434614068148
34.930998063832064 3.7786596733305315 17.245692758454123 13.90664563204741
23.852610869143057 3.0594863330449416 11.049985361063388 9.743139175034717
15.179254201775718 2.4096344067653126 6.443651836141775 6.3259679588686275
8.833253955696245 1.8436733197862767 3.2920270817326767 3.697553554177293
4.600375013468463 1.3680524604044155 1.3838447245239758 1.8484778285400698
2.1261407485233406 0.9884448771559207 0.43381966112946396 0.7038762102379572
0.8990040299881444 0.6663295718068603 0.07326122553079614 0.15941323265048832
0.43819427886548834 0.4243313750673181 0.002748868547545265 0.011114035250624881
0.28190079346255786 0.3298950046663204 -0.01640417221145585 -0.031590038992306536
2.7959856443417466 0.6144020637482716 0.9270620887064642 1.2545214918870116
16.022996981484333 6.947542941462213 4.412201778686262 4.663252261335843
12.14866172363159 5.544584388932871 3.084324402467397 3.5197529322313206
1.7456876530810486 0.2578911834237082 0.6198289368724922 0.8679675327848501
0.17566273242358063 0.1752280750779979 6.98823209095805e-05 0.0003647750246731573
0.32368692457028725 0.3252497063306669 -0.0005906417840919255 -0.0009721399762877828
0.6774488068361484 0.5717973099530009 0.028200905972995006 0.07745059091015254
1.6537990707744097 0.8848101743413817 0.2824821164907133 0.48650677994231584
3.7289024678819542 1.2477664462213516 1.0212466752727307 1.4598893463878708
7.420633277682232 1.6863741965273218 2.635954617708914 3.0983044634459986
12.997276874374991 2.1896618550465274 5.346896046649808 5.460718972678656
20.648359697360277 2.7505811420844273 9.362971993523127 8.534806561752717
30.375498693761187 3.367015949258784 14.744122464491953 12.264360280010454
42.10847808835931 4.049608952213944 21.471323882903967 16.5875452532414
55.963334307637325 4.816361864920905 29.695288426560307 21.45168401615613
71.58891204554226 5.649150569081023 39.11386592909945 26.82589554736175
89.07747072354081 6.4798076239619435 49.96836519218692 32.62929790739191
107.84453080495874 7.216211139189231 61.89814246029613 38.730177205473396
127.06970365164938 7.7210972839065155 74.44239783813869 44.906208529604164
145.47537128792226 7.830272186204404 86.85706634604475 50.788032755673115
161.29790885162515 7.414307413306884 97.98382568446036 55.89977575385791
172.50428001152594 6.684494381524611 106.22676800251993 59.593017627481395
176.58666627098415 5.307286776359681 109.99857780410835 61.280801690516185
172.5042800114992 6.684494381524053 106.22676800250197 59.593017627473046
161.2979088515762 7.414307413309537 97.98382568442517 55.899775753841524
145.47537128785075 7.83027218620379 86.85706634599637 50.78803275565058
127.06970365156516 7.7210972839048955 74.44239783808298 44.90620852957726
107.84453080485909 7.216211139178138 61.89814246023704 38.730177205443916
89.07747072345164 6.479807623960248 49.96836519212934 32.62929790736204
71.58891204545942 5.6491505690814146 39.11386592904574 26.82589554733223
55.96333430755561 4.816361864916999 29.695288426511077 21.45168401612756
42.10847808828958 4.049608952215001 21.471323882860244 16.58754525321436
30.375498693700116 3.367015949256331 14.744122464456945 12.264360279986853
20.6483596973133 2.7505811420803075 9.362971993498485 8.53480656173451
12.997276874340628 2.189661855043182 5.346896046632846 5.460718972664602
7.420633277659379 1.6863741965243693 2.6359546176987214 3.098304463436289
3.7289024678692098 1.2477664462187879 1.0212466752681477 1.4598893463822744
1.653799070768655 0.8848101743398034 0.282482116488975 0.48650677993987645
0.6774488068342496 0.5717973099519096 0.02820090597271143 0.07745059090962826
0.3236869245699708 0.3252497063303479 -0.0005906417840932136 -0.0009721399762837353
0.17566273242357322 0.17522807507799204 6.988232090869155e-05 0.0003647750246725472
1.7456876530752616 0.25789118342305395 0.6198289368700877 0.8679675327821179
12.148661723605196 5.5445843889214625 3.0843244024595995 3.5197529322241454
9.203511916769719 4.32168743029119 2.195023951978518 2.6868005345000148
1.1775953509484485 0.1190498884151377 0.41813576099966404 0.6404097015336452
0.12284255084685915 0.12284255084685915 0.0 0.0
0.24135093657917964 0.24265417947931203 -0.0001921371241465703 -0.0011111057759857497
0.5076621248017624 0.4778737236312127 0.006186982904152436 0.023601418266397108
1.2311008982187033 0.7660655800695937 0.15491245347663 0.3101228646724797
2.9522194483647533 1.1286611976434162 0.7307308001604407 1.092827450560897
6.065740990364171 1.5254327841393511 2.026488863439682 2.513819342785138
10.88871898847483 1.9706355341333641 4.31573641316296 4.602347041178504
17.513176626713634 2.452396730204744 7.732958098577196 7.327821797931688
25.890475219841928 2.9740372075381694 12.292938367924458 10.623499644379303
36.034241349990765 3.5597661896551354 18.049773058866098 14.424702101469535
47.81100157530357 4.2215020215101475 24.896546420396525 18.692953133396916
61.42950433295512 4.9530512026542315 33.079270938547715 23.397182191753174
76.47274972920232 5.722388693925782 42.251261854758965 28.499099180517582
92.69251771564242 6.4477700754744856 52.35374747200462 33.89100016816334
109.58059196227259 7.008448122011111 63.19402244586386 39.378121394397596
125.87140331193768 7.230875601988055 73.97234422266445 44.66818348728519
139.99012920649793 6.987454991459735 83.6877930049915 49.314881210046686
150.14595762566913 6.4031872134778505 91.00121375649479 52.74155665569647
153.85699156326314 4.757741833583664 94.68218035156681 54.41706937811261
150.14595762564315 6.403187213471234 91.00121375648135 52.74155665569053
139.9901292064631 6.987454991471975 83.6877930049596 49.31488121003155
125.87140331188084 7.230875601992179 73.97234422262328 44.668183487265395
109.5805919622044 7.008448122015114 63.19402244581579 39.37812139437343
92.69251771556917 6.447770075475083 52.35374747195587 33.89100016813822
76.47274972912419 5.7223886939251125 42.25126185470885 28.499099180490173
61.42950433288094 4.953051202651502 33.07927093850217 23.397182191727246
47.81100157522846 4.221502021501288 24.896546420355058 18.692953133372107
36.03424134993128 3.55976618965925 18.049773058827487 14.42470210144456
25.890475219789828 2.974037207537139 12.292938367894404 10.623499644358292
17.513176626671502 2.452396730199954 7.732958098556047 7.327821797915494
10.888718988445143 1.9706355341313568 4.31573641314809 4.6023470411657
6.065740990344973 1.5254327841366377 2.026488863431631 2.513819342776702
2.9522194483547786 1.128661197641902 0.7307308001565367 1.0928274505563396
1.2311008982142069 0.766065580067932 0.15491245347548396 0.31012286467079087
0.5076621248007177 0.47787372363036723 0.00618698290406249 0.023601418266287755
0.24135093657917325 0.2426541794793172 -0.00019213712414772185 -0.001111105775996207
0.12284255084673532 0.12284255084673532 0.0 0.0
1.1775953509443764 0.11904988841512894 0.4181357609977887 0.6404097015314593
9.20351191674716 4.321687430281144 2.1950239519723658 2.686800534493654
6.874001931944774 3.3449487075088773 1.5122502774176216 2.0168029470182773
0.8623804923005118 0.114510870274771 0.2994168440615259 0.4484527779642142
0.11181875536032668 0.11181875536032668 0.0 0.0
0.19320530429590954 0.19320600481931993 3.650415078581011e-06 -4.350938488946796e-06
0.3815301182162683 0.38487986643813754 -0.0025112307292300667 -0.0008385174926390364
0.8979829391390908 0.6579859845239325 0.07198045030008865 0.16801650431506882
2.2426994089767733 0.989372663394065 0.4888225127091937 0.7645042328735157
4.789281973485792 1.3630373788241708 1.4753050703783044 1.9509395242833172
8.854422490053437 1.7527770553399293 3.3459222720120625 3.755723162701443
14.460760162846906 2.163638402233976 6.169783067922817 6.127338692690112
21.55773401025481 2.6042692371810037 9.967139088186304 8.986325684887488
30.088233880333878 3.0979380402037187 14.724201455749231 12.266094384380935
40.07329247274034 3.6685945058480076 20.469934594838392 15.934763372053938
51.35933147003907 4.3132921710972525 27.06427697844917 19.981762320492646
64.13021972594 5.00358269662835 34.753730423463566 24.372906605848094
78.03989638151802 5.708641836858585 43.29179896151582 29.039455583143624
92.48732203415929 6.327744392151192 52.31389826533677 33.8456793766713
106.72531720595069 6.689363265878775 61.504678176424754 38.53127576364713
119.32926398869796 6.629035328512374 69.97703479534489 42.723193864840695
128.71288816685163 6.171098787579614 76.60863050524227 45.93315887402965
132.21652881550787 4.237585237449821 80.28821202708806 47.69073155097005
128.7128881668544 6.171098787602724 76.6086305052286 45.93315887402306
119.32926398865511 6.6290353285097385 69.97703479531796 42.72319386482741
106.72531720589697 6.689363265877046 61.50467817639036 38.531275763629566
92.48732203409587 6.327744392149345 52.31389826529606 33.84567937665047
78.03989638144616 5.7086418368505125 43.2917989614744 29.03945558312124
64.13021972587138 5.003582696625803 34.75373042342129 24.372906605824344
51.359331469978855 4.3132921710961165 27.06427697841199 19.981762320470736
40.0732924726834 3.6685945058462863 20.46993459480446 15.934763372032643
30.088233880280814 3.097938040203535 14.72420145571762 12.266094384359654
21.557734010208783 2.604269237176581 9.967139088162256 8.986325684869952
14.460760162812587 2.1636384022326283 6.169783067904505 6.127338692675456
8.854422490028108 1.7527770553379378 3.3459222719999158 3.755723162690252
4.789281973469481 1.363037378821024 1.4753050703719583 1.9509395242764993
2.242699408968243 0.9893726633923805 0.48882251270615623 0.7645042328697067
0.8979829391361154 0.6579859845226368 0.07198045029947556 0.1680165043140031
0.38153011821567223 0.3848798664373634 -0.0025112307292059306 -0.000838517492485241
0.19320530429567306 0.19320600481912822 3.650415074945113e-06 -4.350938530022988e-06
0.11181875535994466 0.11181875535994466 0.0 0.0
0.8623804922967901 0.11451087027450968 0.29941684405991065 0.44845277796237115
6.874001931927375 3.3449487075018767 1.5122502774126902 2.0168029470128035
5.040640137923984 2.566760504373842 1.0154250324716458 1.4584546010784958
0.6118710547697811 0.14369783499062203 0.16829827736818 0.2998749424109788
0.12632083378948167 0.12632083378948167 0.0 0.0
0.17129666444486863 0.17126446014015656 2.6095429011786526e-06 2.9594761810878593e-05
0.30101673636250026 0.3101028575702236 -0.0022604289471526056 -0.006825692260570713
0.638594319072665 0.5438137894869481 0.02103727432656846 0.07374325525914845
1.5929256375423402 0.8353641494374071 0.26293524326114254 0.4946262448437905
3.653092203558278 1.1905310124522914 1.042735549633979 1.4198256414720072
6.889711091310309 1.5353164796119565 2.4282380008902615 2.9261566108080936
11.53133083037619 1.8851621855469334 4.708048772218341 4.938119872610912
17.36085676940132 2.253129974650466 7.7511684076442 7.35655838710665
24.330758100997805 2.6678578838962284 11.54793022721002 10.11496998989156
32.43870353124784 3.1529823790179403 16.100330551148634 13.185390601081275
41.75659325186478 3.7144559355452764 21.472077450234366 16.570059866085135
52.173032235556995 4.343897754432092 27.57201379708238 20.25712068404251
63.57381115944975 5.001510823468038 34.37581439276054 24.19648594322118
75.86424695077676 5.653002618396413 41.92681117088736 28.284433161492988
88.07239335947071 6.1740118775636486 49.530518592064155 32.367862889842904
99.20188690052106 6.320120338726528 56.73690576911616 36.14486079267835
108.00408984112246 5.989234695893794 62.82497451918332 39.18988062604539
111.44192476947016 3.7540188214755874 66.61800025569976 41.06990569229487
108.00408984109801 5.9892346958875 62.82497451917128 39.18988062603916
99.20188690049682 6.320120338734679 56.73690576909478 36.14486079266738
88.07239335942846 6.174011877562403 49.530518592036984 32.36786288982908
75.86424695072698 5.65300261839747 41.92681117085427 28.284433161475214
63.57381115938949 5.001510823458767 34.375814392728074 24.1964859432027
52.17303223549138 4.343897754417574 27.57201379705012 20.25712068402368
41.75659325181888 3.714455935549007 21.47207745020383 16.570059866066035
32.43870353119918 3.152982379014933 16.100330551121075 13.18539060106319
24.330758100954 2.6678578838935936 11.547930227185887 10.114969989874517
17.36085676936523 2.2531299746488362 7.751168407624685 7.356558387091711
11.531330830346466 1.8851621855448903 4.708048772203395 4.938119872598181
6.889711091290724 1.535316479611248 2.428238000880743 2.9261566107987322
3.6530922035461084 1.1905310124510338 1.0427355496287876 1.4198256414662869
1.5929256375359102 0.835364149434992 0.2629352432594822 0.4946262448414355
0.6385943190705012 0.5438137894862669 0.021037274326093033 0.07374325525814131
0.3010167363622405 0.31010285756966566 -0.002260428947093737 -0.006825692260331458
0.17129666444456054 0.17126446013984759 2.609542901153592e-06 2.959476181175227e-05
0.126320833789128 0.126320833789128 0.0 0.0
0.6118710547669223 0.14369783499039543 0.16829827736700623 0.29987494240952095
5.040640137910637 2.56676050436852 1.0154250324680167 1.4584546010741029
3.5685487058727454 1.9400943268315323 0.6250281160809378 1.0034262629602764
0.4563838874499348 0.1877030663701366 0.08975182485570207 0.17892899622409614
0.15184715285256387 0.15185735070480297 -5.595583971474408e-07 -9.638293841952227e-06
0.16749277140549435 0.16747848538937732 9.176681420014073e-07 1.3368347975063384e-05
0.2534882687027258 0.2582119843661454 -0.000970348647565479 -0.003753367015854143
0.4601465827034136 0.4459040720621149 -0.0007955934367689735 0.015038104078067837
1.0921715842224058 0.6919196483770608 0.12493040699208909 0.2753215288532559
2.5452517432133623 0.9927907097748336 0.597841141708596 0.954619891729933
5.15533064666704 1.3189274044296095 1.707887137000801 2.1285161052366286
8.703370571384331 1.6123549574602212 3.3273609264130735 3.7636546875110355
13.337871985789894 1.9198431571697858 5.678729268413009 5.739299560207097
18.81619531943682 2.265290499034505 8.576202150425075 7.974702669977231
25.149267183457198 2.674021072290296 12.026217210907687 10.449028900259215
32.41011004049869 3.1601584933712683 16.077691739375247 13.172259807752175
40.609859515534694 3.719561999188702 20.737246530616318 16.153050985729664
49.80913588938416 4.336275448933533 26.112813680474808 19.360046759975823
59.474723059306896 4.989381745296058 31.74909638254478 22.736244931466064
69.7641764523763 5.637866135467667 37.962612816907935 26.16369750000068
79.71328776225626 6.029258338960908 44.174360617380344 29.509668805914995
87.98708675568211 5.8667704363726605 49.678144125196816 32.44217219411264
91.51821771852114 3.3214600260895883 53.68211838497953 34.51463930745197
87.98708675567347 5.866770436372786 49.67814412519103 32.44217219410966
79.71328776223908 6.029258338971893 44.17436061736199 29.509668805905218
69.76417645234024 5.637866135462826 37.96261281688784 26.163697499989574
59.47472305926472 4.9893817452948905 31.749096382518722 22.736244931451118
49.80913588934166 4.336275448930975 26.112813680449666 19.360046759961012
40.6098595154923 3.7195619991838553 20.737246530593275 16.15305098571517
32.41011004045644 3.160158493367415 16.077691739352083 13.172259807736951
25.149267183421877 2.67402107228889 12.026217210887728 10.449028900245267
18.816195319403683 2.2652904990335454 8.576202150406651 7.974702669963492
13.337871985756582 1.9198431571625802 5.6787292683986506 5.739299560195353
8.703370571361535 1.61235495745817 3.327360926402167 3.763654687501197
5.155330646649882 1.318927404426462 1.7078871369937532 2.1285161052296675
2.5452517432043673 0.9927907097747308 0.5978411417046186 0.9546198917250183
1.0921715842183304 0.6919196483754894 0.12493040699111022 0.27532152885173083
0.4601465827019159 0.4459040720611568 -0.0007955934369142225 0.015038104077673815
0.2534882687022243 0.2582119843655628 -0.0009703486475431998 -0.003753367015795427
0.16749277140515997 0.16747848538904828 9.176681415783688e-07 1.336834797013782e-05
0.15184715285204345 0.15185735070427017 -5.595583963068968e-07 -9.638293830423766e-06
0.4563838874479316 0.1877030663699461 0.0897518248549289 0.1789289962230563
3.56854870586279 1.9400943268274964 0.6250281160784225 1.0034262629568726
2.4966738482962065 1.4788169054099365 0.3934631666753732 0.624393776210897
0.3342277884277903 0.2150601409863486 0.028780962206502562 0.09038668523493902
0.17851607829843555 0.1783886432049802 1.2367175345421167e-05 0.00011506791810989977
0.1751447391579063 0.17510483216729578 3.131523871226503e-06 3.67754667393201e-05
0.22799556149046046 0.2312954301798097 -0.0005981947893221487 -0.0027016739000270138
0.3522820586798317 0.36279338823651314 -0.005043726344818691 -0.005467603211862799
0.7091399012607392 0.551484242760916 0.0380646986821844 0.11959095981763876
1.647957157203565 0.79551483850921 0.29485347123913447 0.5575888474552209
3.4355631369693396 1.0725389259965417 0.9657067557354243 1.3973174552373735
6.153788456771473 1.3407999466450378 2.189698185536534 2.6232903245899024
9.515485238110754 1.5953039604672627 3.781070370719434 4.1391109069240635
13.549115584607149 1.8823522976127975 5.813675539751274 5.8530877472430785
18.210088939235757 2.2236319890960083 8.252742124657034 7.733714825482715
23.531700096359337 2.635712240000925 11.09689741992944 9.79909043642897
29.641282119113853 3.1343331433452533 14.436446965559274 12.070502010209333
36.45856040690917 3.702403631997155 18.20816661665898 14.547990158253043
44.010108758473734 4.322724481822544 22.50563554871299 17.181748727938196
52.06187553276292 5.048171214951393 27.06106488606728 19.952639431744256
60.470902223659145 5.707854429971776 31.938359087767665 22.824688705919684
68.42255920566352 5.805694595259396 36.98419396596307 25.63267064444106
72.25084934080496 2.9546701625607277 41.31569852849501 27.98048064974924
68.4225592056655 5.805694595266596 36.98419396595956 25.632670644439344
60.470902223624265 5.707854429954113 31.93835908775672 22.82468870591346
52.06187553274492 5.04817121495685 27.061064886052556 19.952639431735538
44.010108758441625 4.32272448182115 22.505635548693938 17.181748727926518
36.45856040687445 3.7024036319934113 18.20816661664006 14.54799015824095
29.641282119086178 3.134333143346793 14.436446965541792 12.0705020101976
23.531700096330386 2.635712239997956 11.096897419914233 9.799090436418195
18.210088939206894 2.2236319890897485 8.252742124644103 7.733714825473033
13.549115584583948 1.8823522976142826 5.8136755397376705 5.853087747231992
9.515485238091737 1.59530396046644 3.7810703707098168 4.139110906915478
6.153788456754901 1.340799946643389 2.1896981855289175 2.6232903245825963
3.4355631369590194 1.0725389259948641 0.9657067557313561 1.3973174552327985
1.6479571571967515 0.7955148385077202 0.2948534712369157 0.5575888474521156
0.7091399012579643 0.5514842427597569 0.038064698681659646 0.11959095981654805
0.35228205867900386 0.36279338823556084 -0.005043726344806269 -0.005467603211750949
0.22799556149013714 0.23129543017944942 -0.000598194789308885 -0.0027016739000032997
0.1751447391575371 0.17510483216690345 3.1315238721390436e-06 3.6775466761507916e-05
0.1785160782981036 0.1783886432045371 1.2367175353933943e-05 0.00011506791821261719
0.33422778842664597 0.21506014098631956 0.02878096220609275 0.09038668523423357
2.496673848288756 1.4788169054067404 0.39346316667351305 0.6243937762085026
1.6275586903483892 1.095082929777716 0.1791688848414978 0.3533068757291751
0.2597217945613418 0.22912368143583192 0.0032504397062710225 0.027347673419238824
0.20092253007095195 0.20101912534153266 -1.0376124251351677e-05 -8.621914632933515e-05
0.18914062834956896 0.1893577773835215 -2.1381650128297908e-05 -0.00019576738382420623
0.21681293718943695 0.21938475657330297 -0.0005096374599860825 -0.0020621819238799844
0.2954501567632413 0.3035025084404271 -0.0032710210117206837 -0.004781330665465196
0.46948421078379404 0.4351298298129295 0.0026685489026375916 0.03168583206822674
0.9576609016324251 0.6064709355642601 0.10533812471190224 0.24585184135626317
2.0064322910403054 0.8147866584458792 0.4376646757977287 0.7539809567966966
3.7118758454240712 1.0348152237856865 1.1200374500139683 1.5570231716244178
5.929497882809946 1.250980098408926 2.088485853044909 2.590031931356112
8.614332747143767 1.4918810450858266 3.353183084884235 3.7692686171737044
11.695182298770526 1.776295889103348 4.855882625984889 5.063003783682284
15.211590951788683 2.1187155212994395 6.612142052178376 6.480733378310867
19.282684225263388 2.546638104660024 8.687020369710067 8.049025750893286
23.990637558108645 3.0714625628366283 11.126914446016752 9.792260549255275
29.288145224080168 3.661662765332428 13.921252157644268 11.705230301103473
35.097561642227184 4.325148964809 17.005700298863736 13.766712378554464
41.91199929648669 5.218435368264058 20.61767916062184 16.075884767600783
49.55742985419397 5.810413340893304 25.026856584946472 18.720159928354175
53.86936721018951 2.7087073261839008 29.633756983091335 21.526902900914283
49.55742985419382 5.810413340894858 25.026856584945378 18.720159928353606
41.91199929648415 5.21843536826813 20.617679160617758 16.07588476759824
35.09756164220561 4.325148964804367 17.005700298853373 13.766712378547872
29.2881452240581 3.6616627653329052 13.921252157630796 11.705230301094396
23.990637558090356 3.071462562840941 11.126914446003475 9.792260549245942
19.282684225241034 2.546638104656697 8.687020369699137 8.049025750885198
15.211590951770077 2.1187155212954054 6.612142052170185 6.4807333783044925
11.695182298756032 1.7762958891017877 4.855882625977922 5.063003783676322
8.614332747124827 1.4918810450828484 3.3531830848757465 3.7692686171662353
5.929497882795383 1.2509800984079198 2.0884858530381365 2.5900319313493267
3.711875845413315 1.0348152237835744 1.1200374500098031 1.557023171619935
2.006432291034784 0.8147866584458122 0.43766467579536794 0.7539809567936054
0.957660901628898 0.6064709355629262 0.10533812471109569 0.2458518413548759
0.46948421078256275 0.435129829812045 0.002668548902502632 0.03168583206801499
0.295450156762473 0.30350250843938514 -0.0032710210116903087 -0.00478133066522166
0.21681293718903846 0.21938475657263767 -0.0005096374599561602 -0.0020621819236431456
0.18914062834927 0.18935777738330672 -2.1381650135103495e-05 -0.00019576738390160399
0.20092253007064412 0.2010191253411125 -1.037612424520486e-05 -8.621914622317796e-05
0.259721794560585 0.22912368143560213 0.0032504397060837318 0.02734767341889909
1.6275586903432888 1.0950829297754456 0.17916888484035012 0.3533068757274933
1.038547317946944 0.8200159352704603 0.06536416613279872 0.15316721654368534
0.21285990553066914 0.22351818851075747 -0.005235058839155516 -0.005423224140932725
0.21684256045812292 0.21643930627341423 5.184622772718658e-05 0.00035140795698153094
0.20559390975660558 0.2053942170965474 2.021061955958387e-05 0.00017948204049848918
0.2178242435162713 0.2197437190346536 -0.000452545371785258 -0.0014669301465970257
0.26978976450813497 0.2748460066417612 -0.0019905396100276633 -0.0030657025235984476
0.35839910138397174 0.3461786398420076 0.00038560485117538446 0.011834856690788672
0.5176788739408652 0.42469492426829936 0.020518219793913595 0.07246572987865213
0.9034898942168488 0.5380358653838047 0.11064610898297352 0.2548079198500704
1.6580194862896998 0.6770007104022913 0.35251267322731644 0.628506102660092
2.8057311138288163 0.8297473214303861 0.8013272277072098 1.1746565646912202
4.185989414022708 1.0023291340673282 1.3572403329652212 1.8264199469901576
5.831712117942482 1.2146724191321894 2.066144368779426 2.5508953300308654
7.7538448502803865 1.4812470566747846 2.9188282378617583 3.3537695557438436
10.012920180551603 1.8238513946329642 3.932193633870981 4.256875152047656
12.741296501800184 2.2767495209161313 5.164427144529254 5.300119836354792
16.05350434423128 2.8419728989825637 6.691084543270099 6.520446901978613
19.8948097534728 3.4267760907639895 8.555610423000076 7.912423239708738
24.50480311939578 4.176800849436236 10.792470058086609 9.535532211872932
31.297771683939036 5.554384459646599 13.976854493193132 11.766532731099312
37.273010941983266 2.7409151032203902 19.29461669673345 15.237479142029422
31.29777168393881 5.55438445964255 13.976854493195434 11.766532731100817
24.50480311938631 4.176800849429335 10.792470058085055 9.535532211871917
19.894809753458688 3.4267760907600953 8.555610422994166 7.91242323970443
16.053504344205606 2.8419728989692197 6.691084543263059 6.520446901973329
12.74129650178873 2.2767495209183135 5.164427144521796 5.300119836348618
10.01292018054136 1.8238513946308046 3.932193633866726 4.256875152043832
7.753844850272598 1.4812470566723686 2.9188282378589117 3.3537695557413154
5.831712117935264 1.2146724191319525 2.066144368775904 2.5508953300274047
4.185989414013203 1.0023291340646656 1.3572403329618759 1.826419946986662
2.805731113821209 0.8297473214288242 0.8013272277044005 1.1746565646879858
1.6580194862856996 0.6770007104015322 0.35251267322592406 0.6285061026582435
0.9034898942138408 0.538035865382923 0.11064610898215607 0.2548079198487615
0.5176788739397247 0.42469492426795646 0.020518219793666317 0.07246572987810213
0.3583991013835741 0.3461786398416517 0.00038560485114990913 0.011834856690772224
0.26978976450753134 0.2748460066408006 -0.001990539609993499 -0.0030657025232758393
0.21782424351572846 0.21974371903395956 -0.0004525453717643953 -0.001466930146466722
0.20559390975630965 0.2053942170960582 2.0210619578154516e-05 0.00017948204067324742
0.21684256045795175 0.21643930627305588 5.1846227747570644e-05 0.000351407957148293
0.21285990553016934 0.2235181885103705 -0.0052350588391715915 -0.005423224141029516
1.0385473179436175 0.8200159352687085 0.06536416613222318 0.15316721654268572
0.6472331210275246 0.5994858572294794 0.00971234646123515 0.03803491733681029
0.19121169742855848 0.1992856083354365 -0.0017144915420808122 -0.006359419364797235
0.22621589438865936 0.2269458355923496 -8.609881779163525e-05 -0.0006438423858986191
0.22179986949907585 0.22137954744184252 4.82167822121011e-05 0.0003721052750212338
0.22885055092546902 0.22964833661166892 -0.00031758513532360015 -0.00048020055087627766
0.2667287689802483 0.2690182945771803 -0.0014013762627101563 -0.000888149334221892
0.33168895847821184 0.3146444390916796 0.0026436828132759705 0.014400836573256283
0.3867075028175673 0.31590758957503534 0.01741462496760055 0.05338528827493144
0.43656401487717417 0.2741492001849033 0.05183498407690256 0.11057983061536832
0.5658535262322397 0.2521526820987881 0.10911752460753907 0.20458331952591247
0.8735572675483428 0.29304797490717904 0.2303167593245842 0.35019253331657973
1.343628905260593 0.30719026114760695 0.41281245894989627 0.6236261851630893
1.9777256803537526 0.31170578656839293 0.6930540008938483 0.9729658928915115
2.758364514674516 0.3383658026439304 1.0474892395871827 1.3725094724434033
3.705787675625165 0.40676551252994764 1.4780921730250547 1.8209299900701617
4.822693490788932 0.5380636212097919 1.9716288322344149 2.3130010373447263
6.159817684563766 0.7567619074057517 2.5602521612336266 2.842803615924387
7.69646842840007 1.0447471029883224 3.2457297261314273 3.405991599280318
9.846805703238529 1.5118430673879617 4.176109428341576 4.15885320750899
15.515765200466296 3.3912279135722323 6.075145774557289 6.049391512336776
25.959188576390776 2.9640757223810636 12.240018719701173 10.755094134308546
15.515765200476356 3.391227913576336 6.0751457745607516 6.049391512339268
9.846805703245664 1.511843067396939 4.176109428340514 4.158853207508214
7.69646842838851 1.044747102984436 3.2457297261272364 3.405991599276834
6.159817684566806 0.7567619074133887 2.5602521612309976 2.8428036159224153
4.822693490772894 0.5380636212015106 1.9716288322306046 2.31300103734078
3.7057876756185113 0.4067655125281456 1.4780921730227017 1.8209299900676639
2.758364514671507 0.3383658026444468 1.0474892395854902 1.3725094724415707
1.9777256803468877 0.31170578656725995 0.6930540008911168 0.972965892888511
1.3436289052580788 0.3071902611487271 0.41281245894818785 0.623626185161164
0.8735572675447021 0.2930479749061227 0.23031675932331097 0.3501925333152684
0.5658535262307716 0.2521526820975504 0.10911752460743182 0.20458331952579004
0.43656401487708174 0.2741492001854866 0.05183498407664446 0.11057983061495048
0.3867075028172282 0.31590758957510945 0.017414624967470052 0.05338528827464874
0.33168895847761115 0.3146444390911311 0.0026436828132071523 0.014400836573272726
0.2667287689794742 0.26901829457642773 -0.0014013762627157094 -0.0008881493342378886
0.22885055092496365 0.22964833661097722 -0.0003175851353018307 -0.0004802005507117033
0.2217998694988578 0.22137954744145832 4.8216782231391986e-05 0.0003721052751679982
0.22621589438843703 0.2269458355922 -8.609881779937446e-05 -0.000643842385963581
0.19121169742827288 0.19928560833483566 -0.0017144915420289153 -0.006359419364533946
0.6472331210260733 0.5994858572284985 0.009712346461069249 0.03803491733650615
0.4154612666848867 0.4159268379470055 -0.00019453072076191808 -0.0002710405413568844
0.17939467144453675 0.1795762691973199 -4.853965228154347e-07 -0.00018111235626034459
0.22944256504344812 0.22918483429882147 9.13672847268077e-06 0.00024859401615402857
0.23556918325137582 0.23501380197406396 5.875024691369156e-05 0.000496631030398059
0.24605462866187072 0.24565132224674624 -0.00015916533023231695 0.0005624717453567837
0.2872946715678748 0.28716505944361526 -0.001124820230538233 0.0012544323547977847
0.37028538459338006 0.35378847146050574 0.0022246944547328904 0.014272218678141563
0.524194143434557 0.4267127494032264 0.022273855101069568 0.07520753893026091
0.9055358164215016 0.5379683341541369 0.11147047684478528 0.2560970054225793
1.6571039612709377 0.6766076940088528 0.3522209541559099 0.6282753131061743
2.8099359645706934 0.8316178886309307 0.8028443288148507 1.175473747124912
4.20723461237461 1.005868335412536 1.3672801729436022 1.8340861040184713
5.875617427977873 1.2205376159267172 2.085338470399501 2.569741341651656
7.793822824676874 1.4812326428104228 2.9407090677095864 3.371881114156864
9.894516330987088 1.788501378837669 3.8902111498290504 4.215803802320363
12.061302797171278 2.143683333006837 4.874448635153865 5.043170829010579
14.018364144886306 2.5273839555584883 5.746912022606775 5.744068166721038
15.578162496772036 2.9805021288919598 6.410762973623366 6.18689739425671
16.12363187873889 3.299855632814875 6.581528254621488 6.2422479913025235
13.05927663439472 2.2783616812818175 5.65719657275199 5.123718380360904
26.293104114035472 4.634070530856977 11.317590725323884 10.341442857854606
13.059276634402085 2.2783616812829486 5.657196572755552 5.123718380363574
16.123631878720342 3.2998556327985655 6.581528254620043 6.242247991301743
15.578162496759449 2.9805021288904934 6.410762973617061 6.186897394251881
14.018364144858982 2.527383955545784 5.746912022598615 5.744068166714591
12.061302797158136 2.1436833330071856 4.874448635146514 5.04317082900443
9.894516330979123 1.7885013788406832 3.8902111498233203 4.215803802315123
7.79382282466534 1.4812326428098537 2.940709067703832 3.3718811141516576
5.875617427964505 1.220537615925891 2.085338470393146 2.569741341645467
4.2072346123600735 1.0058683354099378 1.3672801729377724 1.8340861040123642
2.809935964559426 0.8316178886306118 0.8028443288097449 1.175473747119069
1.6571039612659104 0.6766076940091685 0.352220954153701 0.6282753131030406
0.9055358164184688 0.537968334153052 0.11147047684405112 0.25609700542136554
0.5241941434331648 0.4267127494025602 0.022273855100834974 0.07520753892976968
0.37028538459253313 0.3537884714599075 0.0022246944546402804 0.014272218677985095
0.2872946715673353 0.28716505944270654 -0.00112482023050224 0.001254432355130979
0.2460546286615131 0.24565132224623046 -0.00015916533021687838 0.0005624717454995478
0.2355691832510522 0.23501380197356458 5.875024692974001e-05 0.000496631030557965
0.22944256504315935 0.22918483429841083 9.136728479954059e-06 0.0002485940162683909
0.1793946714442265 0.17957626919704706 -4.85396529933521e-07 -0.00018111235629059095
0.41546126668409344 0.4159268379459144 -0.00019453072073014112 -0.00027104054109069493
0.26857306700803474 0.2685523278779125 1.3476233019465938e-06 1.9391506820260498e-05
0.1655525500879019 0.16561104695806803 -3.4894848892446485e-06 -5.500738527686263e-05
0.22625256967794127 0.22675139112613119 -7.118090938254501e-05 -0.00042764053880735563
0.24526918560021163 0.2443891135808406 7.203648440670161e-05 0.0008080355349643723
0.2676582246725157 0.2695163030976561 -0.0005311090385150556 -0.0013269693866253011
0.3299930887510978 0.33146377095286994 -0.0012937825686928322 -0.00017689963307973696
0.48806541797986136 0.4366056596477374 0.0067598334547672185 0.04469992487735674
0.966704126384966 0.6073560418088227 0.10871706183801812 0.2506310227381251
2.006719339610318 0.8144881738470122 0.43787511385340006 0.7543560519099052
3.7105191390298344 1.0347758265621347 1.1192654188046849 1.5564778936630141
5.934273759061702 1.2519266998694754 2.0903039916546056 2.5920430675376203
8.633834490751324 1.4946089166847516 3.3620020179350902 3.7772235561314784
11.732364555469434 1.7790763287384097 4.87475285483414 5.078535371896887
15.23099860547489 2.110525839753943 6.62809258276599 6.49238018295495
19.126796219628574 2.495162361217288 8.628659074833385 8.002974783577901
23.256868983400608 2.922678855364927 10.787562222437098 9.546627905598566
27.282622956153503 3.3972454362905484 12.888029946588144 10.997347573274807
30.698668450373603 3.9427656490630927 14.579196203972836 12.176706597337667
32.364875021337404 4.190934632777992 15.449278786652382 12.72466160190703
30.065992655716315 4.095236541433236 14.22930457019994 11.741451544083143
37.04740275938338 8.842293382798811 15.41399947008269 12.791109906501868
30.065992655723267 4.095236541431735 14.229304570205088 11.741451544086454
32.36487502134487 4.190934632789579 15.449278786649897 12.724661601905382
30.698668450364252 3.942765649069318 14.579196203963459 12.176706597331487
27.2826229561313 3.3972454362934075 12.88802994657323 10.997347573264658
23.256868983369305 2.922678855359247 10.787562222422123 9.546627905587934
19.126796219602678 2.495162361212238 8.628659074821424 8.002974783569012
15.230998605455179 2.1105258397528623 6.6280925827556105 6.492380182946709
11.732364555444885 1.7790763287358393 4.874752854822132 5.078535371886916
8.63383449073115 1.4946089166838687 3.3620020179249055 3.7772235561223773
5.934273759044556 1.2519266998694834 2.090303991645997 2.592043067529075
3.7105191390154832 1.0347758265593832 1.119265418799096 1.556477893657005
2.006719339602744 0.8144881738454669 0.43787511385077643 0.7543560519065001
0.9667041263816696 0.6073560418078766 0.10871706183715314 0.25063102273663995
0.4880654179780583 0.4366056596466357 0.006759833454525022 0.04469992487689777
0.32999308875061056 0.33146377095202145 -0.0012937825686239561 -0.0001768996327870878
0.2676582246721243 0.26951630309709 -0.0005311090384869869 -0.0013269693864787716
0.2452691855998842 0.24438911358035004 7.203648441953203e-05 0.000808035535114545
0.22625256967774293 0.22675139112587067 -7.118090937839806e-05 -0.0004276405387493206
0.16555255008758996 0.1656110469577853 -3.4894848908226374e-06 -5.500738530450068e-05
0.26857306700734757 0.26855232787723843 1.3476233008971399e-06 1.9391506808273514e-05
0.16645406271483254 0.16645406271483254 0.0 0.0
0.14664422717196016 0.14664853140371073 -1.4328105404036436e-07 -4.160950696500454e-06
0.21622042196338354 0.21657831749174716 -4.722970750830126e-05 -0.0003106658208553872
0.25117643794992817 0.25194307155078327 -0.0001584668708014799 -0.0006081667300536488
0.2929203474540827 0.2938935036651231 -0.00048344484938355804 -0.0004897113616570186
0.39399037386239 0.3824677287901817 -0.0009877995049220117 0.012510444577130603
0.737030343084257 0.5590508406726015 0.04723123755803076 0.1307482648536244
1.6541873075163815 0.7959173614646549 0.29790939667121785 0.5603605493805094
3.433314485504286 1.0725416974127726 0.9645951430888389 1.3961776450026715
6.15387600229946 1.3411919146409843 2.189796110947171 2.6228879767113042
9.520764897630201 1.5959683162311413 3.782248102990925 4.142548478408136
13.563238447941862 1.8835073613038897 5.820942585215964 5.858788501422014
18.22435518264892 2.223028592190078 8.261335518822174 7.739991071636665
23.50693027866092 2.6215268956611855 11.09091329244671 9.794490090553033
29.448126172639242 3.0760106542682335 14.356194107984743 12.015921410386257
35.807246934445175 3.5691071739811844 17.893582402327855 14.344557358136136
42.31612804048497 4.0932213402491024 21.601504759468824 16.621401940767033
47.81274564446809 4.498588150353101 24.747405626613336 18.566751867501647
50.57879728040451 4.597469066596434 26.421280743126253 19.56004747068183
47.15491897707615 4.074466731365856 24.62247849258739 18.4579737531229
52.84934892041264 11.843757776744532 23.297156173916726 17.70843496975139
47.154918977071425 4.074466731355801 24.6224784925907 18.4579737531249
50.578797280388834 4.597469066590073 26.421280743120377 19.560047470678395
47.81274564445111 4.498588150353826 24.747405626602244 18.566751867495036
42.316128040444646 4.093221340244008 21.601504759447014 16.621401940753607
35.80724693441426 3.569107173985982 17.89358240230607 14.344557358122186
29.44812617260215 3.0760106542650165 14.356194107964473 12.01592141037265
23.506930278624445 2.621526895654217 11.090913292429388 9.794490090540839
18.2243551826199 2.2230285921919206 8.261335518804525 7.739991071623455
13.563238447910335 1.883507361299461 5.820942585200918 5.858788501409945
9.520764897603122 1.5959683162280713 3.782248102978112 4.142548478396945
6.153876002278343 1.341191914640032 2.1897961109368773 2.622887976701433
3.4333144854917643 1.072541697410683 0.9645951430839228 1.39617764499716
1.6541873075093427 0.7959173614622879 0.29790939666928296 0.560360549377773
0.737030343081186 0.5590508406715372 0.047231237557330635 0.13074826485231789
0.3939903738614001 0.38246772878915 -0.0009877995049405077 0.012510444577190633
0.2929203474537464 0.2938935036645582 -0.00048344484935837354 -0.0004897113614534163
0.25117643794964495 0.25194307155033324 -0.00015846687077943292 -0.0006081667299088489
0.21622042196318594 0.21657831749158613 -4.722970751334589e-05 -0.00031066582088688674
0.14664422717176126 0.14664853140350181 -1.432810533475878e-07 -4.1609506871892085e-06
0.16645406271434587 0.16645406271434587 0.0 0.0
0.09756476973114858 0.09756476973114858 0.0 0.0
0.12317229983115069 0.12316807375742325 2.3276924337965782e-07 3.99330448403657e-06
0.20032826972090206 0.20051232492666374 -2.1934772742370763e-05 -0.00016212043301932046
0.2536110051570025 0.2539836270062943 -0.00012285276940645896 -0.0002497690798852878
0.3213649946854913 0.3254158888305483 -0.0013452480841632296 -0.0027056460608938355
0.506447478510982 0.46416803164239423 0.007978963959075335 0.0343004829095125
1.1095507074548214 0.6887923954366212 0.13177392350385697 0.2889843885143434
2.5461801099782235 0.9932882254436526 0.598500298183462 0.9543915863511087
5.152385555659286 1.3195338410220354 1.7060720736725883 2.126779640964663
8.705152922231221 1.6129779277309744 3.3277757235270853 3.764399270973162
13.344775075446286 1.919787468490111 5.682840427280058 5.7421471796761185
18.818031737835938 2.2629730631215845 8.57864295339013 7.976415721324223
25.124292946997244 2.666397267666494 12.016143309798425 10.441752369532356
32.323686933587595 3.14103610998993 16.037306340673812 13.14534448292382
40.40879404702058 3.6779222015492943 20.63916683288795 16.09170501258334
49.3433867197992 4.249830595340631 25.874855387361297 19.21870073709728
58.132727689174324 4.739786858371304 31.05510289498558 22.337837935817458
65.78510613499384 4.966702956626818 35.83731272534039 24.981090453026606
69.38464890496739 4.670822454349283 38.3756754593846 26.338150991233515
65.0077196077576 4.155892188780049 35.888576804843595 24.963250614133944
70.55572326019993 14.788537201526967 32.58526254998568 23.181923508687248
65.00771960775452 4.155892188777778 35.88857680484315 24.963250614133617
69.38464890495446 4.670822454352937 38.37567545937382 26.338150991227682
65.78510613494235 4.966702956603807 35.83731272532205 24.981090453016474
58.13272768913086 4.739786858373732 31.055102894956466 22.337837935800668
49.34338671975067 4.249830595336489 25.874855387333497 19.21870073708069
40.40879404697625 3.6779222015496114 20.639166832860532 16.091705012566106
32.32368693353875 3.141036109983969 16.03730634064794 13.145344482906838
25.124292946951737 2.666397267661825 12.016143309774328 10.441752369515582
18.81803173779479 2.262973063117074 8.578642953369211 7.97641572130851
13.344775075409691 1.9197874684863114 5.6828404272620325 5.7421471796613455
8.705152922207882 1.612977927731607 3.3277757235145304 3.7643992709617446
5.152385555640797 1.3195338410191924 1.7060720736647204 2.126779640956885
2.5461801099677728 0.9932882254414578 0.5985002981797352 0.9543915863465797
1.109550707449993 0.6887923954352339 0.13177392350250067 0.2889843885122582
0.5064474785092343 0.46416803164146264 0.007978963958835794 0.034300482908935975
0.32136499468506363 0.3254158888297778 -0.0013452480840997465 -0.002705646060614335
0.2536110051566044 0.2539836270056605 -0.00012285276938876264 -0.00024976907966739925
0.20032826972083845 0.2005123249266314 -2.193477274585417e-05 -0.00016212043304703267
0.12317229983101811 0.12316807375729079 2.3276924336996675e-07 3.9933044839934034e-06
0.0975647697308722 0.0975647697308722 0.0 0.0
0.05378423103184587 0.05378423103184587 0.0 0.0
0.09777294167044137 0.09777294167044137 0.0 0.0
0.18000909749536886 0.1800287691968952 -2.371008988955035e-06 -1.7300692537447426e-05
0.25349547261441846 0.2546933506420222 -0.00021283709870922177 -0.0009850409288945509
0.35766656528356766 0.35777295229371275 -0.0015779595602758026 0.0014715725501307847
0.6767161143477315 0.555586123136118 0.03175646505597855 0.08937352615563464
1.6056006850794493 0.835139899368932 0.26947678672408415 0.5009839989864333
3.650696055724521 1.1917605708423795 1.0412075280962698 1.4177279567858707
6.888294272921173 1.5363411662508992 2.4271313431892247 2.92482176348105
11.53546173926076 1.8857460915444184 4.709911011611765 4.939804636104574
17.365527733811856 2.251795466758227 7.754579126810092 7.359153140243539
24.314376299396933 2.660166631021013 11.542861448788688 10.111348219587233
32.36347226499195 3.134726641668959 16.066055934097648 13.16268968922533
41.60188835962674 3.692576091970002 21.39022401372622 16.519088253930533
51.97549344326311 4.334603870370588 27.45356150994933 20.1873280629432
63.28726756652821 4.963694877707955 34.2162943653609 24.10727832345933
74.85283448714057 5.391453643946705 41.43991513443995 28.02146570875391
84.28819345589093 5.3235073381544575 47.6084908931895 31.356195224547
88.36479631087408 4.652337345443164 50.68488196231276 33.027577003118125
83.50609786904664 4.3690631307676515 47.737829037527014 31.39920570075196
89.87137012637336 17.751586365203735 43.16637095456319 28.95341280660643
83.50609786903685 4.369063130764626 47.73782903752262 31.3992057007496
88.364796310846 4.652337345439937 50.68488196229642 33.02757700310964
84.28819345585556 5.323507338159134 47.60849089316331 31.35619522453311
74.85283448709306 5.3914536439526 41.43991513440535 28.02146570873514
63.28726756646542 4.963694877701466 34.21629436532488 24.107278323439054
51.97549344320018 4.334603870363985 27.453561509913897 20.187328062922283
41.60188835957244 3.692576091970744 21.390224013692283 16.519088253909434
32.36347226494087 3.1347266416691677 16.06605593406675 13.162689689204962
24.314376299347273 2.660166631018176 11.542861448761196 10.11134821956789
17.365527733770797 2.251795466756526 7.754579126787791 7.359153140226485
11.535461739224527 1.8857460915383177 4.7099110115954055 4.9398046360908
6.88829427289893 1.5363411662488553 2.427131343179081 2.924821763470994
3.6506960557099646 1.1917605708410084 1.0412075280899538 1.417727956779003
1.6056006850725395 0.8351398993673836 0.2694767867218774 0.5009839989832797
0.6767161143453412 0.5555861231350658 0.03175646505551682 0.08937352615475821
0.3576665652829661 0.3577729522928819 -0.0015779595602453912 0.0014715725503297707
0.253495472614065 0.2546933506416339 -0.00021283709870620796 -0.0009850409288627339
0.18000909749523314 0.1800287691967819 -2.3710089909997217e-06 -1.730069255773285e-05
0.0977729416703148 0.0977729416703148 0.0 0.0
0.053784231031750535 0.053784231031750535 0.0 0.0
0.027797007291813513 0.027797007291813513 0.0 0.0
0.07337885754297944 0.07337885754297944 0.0 0.0
0.1576829468807171 0.15767613011704912 3.960330448053176e-07 6.420730623111643e-06
0.25315950268522425 0.25418798345496796 -0.00019335091859481424 -0.0008351298511487662
0.41506065006797654 0.40948824754791546 -5.156497872103698e-05 0.005623967498782005
0.9065474210769535 0.6444854054739327 0.07495927936418945 0.18710273623883114
2.247382274320954 0.9895998532748788 0.4921413226327943 0.7656410984132813
4.786672175392104 1.3645150721739594 1.473142193138218 1.9490149100799259
8.855640951322254 1.75392750540076 3.3461965706254677 3.7555168752960264
14.466563442181094 2.163916356688222 6.172888638596684 6.129758446896191
21.55740375665542 2.6008648037260906 9.968939279137 8.987599673792328
30.050064426811 3.0840518718261483 14.709685742525522 12.25632681245933
39.94876400762457 3.6396357325492037 20.41120645673633 15.897921818339046
51.137458432797416 4.2867567196114855 26.941634499880074 19.909067213305867
63.89995777072106 5.016007227449687 34.59839190176698 24.28555864150438
77.83392412464795 5.717507478827098 43.15160963612438 28.964807009696493
91.65650636269292 6.047871579566788 51.95029245531798 33.65834232780816
102.96626468671322 5.627672723499797 59.70964356397035 37.628948399243065
107.96641252442258 4.648515297203851 63.69583502139612 39.62206220582262
102.85147160257497 4.632277102358928 60.30521764025672 37.91397685995933
110.38177190315488 20.701924810823158 54.625731855452344 35.054115236879404
102.85147160256031 4.632277102355994 60.30521764024883 37.91397685995541
107.96641252438341 4.648515297200916 63.69583502137199 39.622062205810515
102.96626468664726 5.627672723485494 59.70964356393601 37.62894839922578
91.6565063626348 6.047871579568885 51.950292455278294 33.65834232778763
77.83392412457997 5.717507478827546 43.15160963607983 28.964807009672576
63.899957770649635 5.016007227447164 34.59839190172283 24.28555864147963
51.13745843273062 4.286756719609898 26.941634499839118 19.909067213281592
39.94876400756013 3.6396357325465956 20.411206456698345 15.897921818315151
30.05006442675288 3.08405187182344 14.70968574249238 12.256326812437045
21.557403756602312 2.6008648037203677 9.968939279109565 8.987599673772372
14.46656344214459 2.1639163566891235 6.1728886385759125 6.129758446879559
8.855640951294493 1.753927505397387 3.346196570612816 3.7555168752842887
4.7866721753747985 1.3645150721737795 1.4731421931298752 1.9490149100711467
2.247382274311814 0.9895998532734728 0.49214132262935184 0.7656410984089876
0.9065474210735511 0.6444854054724556 0.07495927936346636 0.18710273623762924
0.4150606500669363 0.40948824754690116 -5.1564978742613224e-05 0.005623967498777563
0.2531595026849825 0.2541879834546548 -0.00019335091859213108 -0.0008351298510801397
0.1576829468805761 0.15767613011690904 3.960330447626668e-07 6.4207306222634735e-06
0.07337885754289587 0.07337885754289587 0.0 0.0
0.027797007291795035 0.027797007291795035 0.0 0.0
0.013618329581338282 0.013618329581338282 0.0 0.0
0.052341397094499545 0.052341397094499545 0.0 0.0
0.13615796361219873 0.136155461287527 1.22441077168008e-07 2.379883594554421e-06
0.2565800595430228 0.25803401069502174 -0.0002729219405011387 -0.0011810292114980312
0.5009523982735862 0.46914130938421034 0.006650114530664271 0.025160974358711907
1.227392747168026 0.7616813194481391 0.15598976940548692 0.3097216583143999
2.950716985009105 1.128742495820099 0.7300668503354815 1.091907638853524
6.066382130984437 1.526563165176893 2.0265037206295933 2.5133152451779495
10.89340161469635 1.9717174840985212 4.317796739894251 4.603887390703583
17.51900956654579 2.4518470416148004 7.736646221304608 7.33051630362637
25.88192818368065 2.9678900137951985 12.291555822717175 10.6224823471683
35.973991692707784 3.540419175281188 18.02488069754184 14.408691819884766
47.6481548962568 4.185291623971013 24.817486825523385 18.645376446762405
61.145568611460064 4.916376676126143 32.92156841050576 23.307623524828152
76.13864743520523 5.722099393719683 42.03459274160105 28.381955299884506
92.3620110977519 6.46058387886989 52.12775446609583 33.7736727527862
108.6440347154812 6.714268186613426 62.765435464284955 39.164331064582825
121.91215900486566 5.976572544109889 72.14990394317726 43.785682517578564
128.12462667045176 4.683036450308077 77.2021530882534 46.239437131890256
123.33717105239059 4.883509327982611 73.8573024778435 44.59635924656448
132.63090587636566 23.593791878238576 67.52608207225373 41.51103192587335
123.33717105236106 4.883509327971101 73.85730247783141 44.59635924655862
128.12462667040737 4.6830364503110875 77.20215308822135 46.23943713187492
121.91215900481536 5.976572544121854 72.14990394313524 43.78568251755827
108.6440347153948 6.714268186603448 62.76543546423403 39.16433106455733
92.36201109767372 6.460583878868185 52.12775446604541 33.773672752760085
76.13864743512012 5.722099393716186 42.034592741548096 28.381955299855864
61.145568611380554 4.916376676123502 32.92156841045678 23.30762352480028
47.64815489618089 4.18529162396881 24.817486825477346 18.645376446734726
35.97399169263674 3.54041917527508 18.024880697502418 14.408691819859236
25.881928183623003 2.967890013794159 12.29155582268382 10.622482347145038
17.519009566499925 2.451847041610215 7.736646221281201 7.330516303608508
10.893401614663164 1.971717484094897 4.317796739878382 4.603887390689886
6.066382130963575 1.526563165175384 2.026503720620189 2.513315245168003
2.9507169849976878 1.128742495817636 0.7300668503313792 1.0919076388486721
1.2273927471628114 0.7616813194469697 0.1559897694038798 0.3097216583119615
0.500952398272359 0.46914130938325027 0.006650114530573083 0.02516097435853543
0.2565800595425742 0.258034010694386 -0.00027292194049013507 -0.0011810292113214717
0.13615796361208277 0.13615546128741424 1.2244107697319608e-07 2.3798835915387224e-06
0.052341397094426104 0.052341397094426104 0.0 0.0
0.013618329581266606 0.013618329581266606 0.0 0.0
0.006582859852892337 0.006582859852892337 0.0 0.0
0.036123750117827265 0.036123750117827265 0.0 0.0
0.11857428536309579 0.11857428536309579 0.0 0.0
0.270343601574302 0.27307431335761423 -0.0005588323568798846 -0.002171879426432284
0.6253212143931115 0.5386037072949889 0.021310352027354384 0.0654071550707683
1.6317511459275358 0.8797301208206277 0.27527574415517364 0.4767452809517345
3.7264197045813074 1.2479372949014995 1.019191781595801 1.4592906280840048
7.428316987434153 1.6872023640553948 2.6409676291202904 3.1001469942584667
13.00484949723418 2.1902111441649668 5.350721986661796 5.463916366407419
20.652359058820334 2.7487172717300314 9.366458053004076 8.537183734086236
30.356476593218936 3.3578177369790243 14.738282115468156 12.26037674077175
42.028533723153224 4.026489837628589 21.436253117287084 16.565790768237566
55.77429553871192 4.776676711341869 29.6007851040428 21.3968337233272
71.25217598021692 5.599092273623503 38.92881828705473 26.724265419538703
88.57148668811598 6.426013148333265 49.671508197519195 32.47396534226348
107.09737333913421 7.126638187365924 61.4603793348009 38.51035581696737
125.55683157733137 7.3747810651809695 73.6597498047717 44.52230070737868
140.98550787717156 6.510965830545981 84.69004267262618 49.784499373999395
148.884871439554 4.734712910310281 91.31877434135554 52.83138418788822
145.22105716817552 5.059740216115953 88.60750746262704 51.553809489432446
156.83178322656246 26.309951382592423 82.00769520844344 48.51413663552657
145.2210571681377 5.059740216103911 88.60750746260922 51.553809489424516
148.88487143951318 4.734712910323292 91.31877434131889 52.83138418787103
140.98550787708817 6.510965830536544 84.69004267257594 49.78449937397573
125.55683157725859 7.374781065197883 73.65974980471127 44.522300707349494
107.09737333903018 7.1266381873514595 61.46037933474116 38.51035581693753
88.57148668802024 6.42601314833166 49.67150819745744 32.47396534223116
71.25217598012891 5.599092273624337 38.928818286997384 26.72426541950721
55.77429553862694 4.776676711339564 29.600785103990518 21.396833723296865
42.028533723074034 4.026489837623992 21.43625311724103 16.565790768209027
30.356476593152927 3.3578177369766773 14.738282115430117 12.260376740746121
20.65235905876733 2.748717271723075 9.36645805297759 8.537183734066662
13.004849497196464 2.1902111441616414 5.350721986643017 5.463916366391806
7.428316987410052 1.6872023640537162 2.6409676291088635 3.100146994247473
3.726419704566018 1.2479372948974237 1.0191917815908245 1.4592906280777707
1.631751145921129 0.8797301208197486 0.275275744152897 0.47674528094848373
0.6253212143913638 0.5386037072937578 0.02131035202715591 0.06540715507045018
0.2703436015740248 0.2730743133572039 -0.0005588323568618562 -0.0021718794263172834
0.11857428536301692 0.11857428536301692 0.0 0.0
0.03612375011777653 0.03612375011777653 0.0 0.0
0.0065828598528546835 0.0065828598528546835 0.0 0.0
0.0031246272479703617 0.0031246272479703617 0.0 0.0
0.025011391409558017 0.025011391409558017 0.0 0.0
0.10920455380240818 0.10920455380240818 0.0 0.0
0.3050898351602615 0.30675074562117816 -0.0007862067042453517 -0.0008747037566714817
0.8127744069005464 0.6317944585710374 0.055362854140121 0.1256170941893878
2.08983212393952 0.9839233025469326 0.4173549127746745 0.6885539086179131
4.598798590484644 1.3679060301520563 1.3820255844573808 1.8488669758752059
8.84054440988016 1.8435096401846314 3.2941624871091735 3.7028722825863505
15.191031171895357 2.4095041899105816 6.451121696319472 6.33040528566531
23.85333497831237 3.0560284114664755 11.052551746810781 9.744754820035116
34.900766933401975 3.7664785538443946 17.234783761610753 13.899504617946814
48.34634285878898 4.549931051077355 25.072735223696892 18.723676584014726
63.89616499540032 5.413500328517709 34.32258900889141 24.160075657991236
81.71108193215501 6.313856149842952 45.25664607273831 30.140579709573725
101.31235335129058 7.154774302649475 57.59604411067051 36.561534937970606
121.92007051791444 7.740788408331012 70.96873725302773 43.210544856555686
142.18499523508825 7.851965663975614 84.6189799775384 49.71404959357423
159.81215056848393 7.212865747733295 97.1213199941102 55.47796482664042
170.02621999658885 5.034490639164009 105.65832887297486 59.33340048444995
168.71285927069428 4.958161499940848 104.83134928153231 58.92334848922112
183.35805024278716 27.964320265637113 99.03893569173582 56.354794285414194
168.71285927065765 4.958161499936206 104.8313492815103 58.923348489211136
170.02621999651754 5.034490639156542 105.65832887293121 59.33340048442975
159.8121505684061 7.212865747741018 97.1213199940515 55.477964826613594
142.18499523497826 7.851965663969553 84.61897997746749 49.71404959354113
121.9200705178084 7.740788408329403 70.96873725295768 43.21054485652141
101.31235335118411 7.1547743026485255 57.59604411060059 36.561534937935015
81.71108193205426 6.313856149842524 45.25664607267277 30.14057970953894
63.89616499529727 5.413500328508801 34.3225890088312 24.16007565795727
48.34634285869315 4.549931051066835 25.072735223643605 18.723676583982716
34.90076693332923 3.7664785538418855 17.234783761568124 13.899504617919217
23.853334978250757 3.0560284114576075 11.052551746779981 9.744754820013165
15.191031171851696 2.4095041899065506 6.451121696297429 6.330405285647715
8.840544409852848 1.843509640183057 3.2941624870957926 3.7028722825739977
4.598798590467728 1.3679060301495587 1.3820255844505747 1.8488669758675964
2.0898321239314956 0.9839233025452974 0.4173549127719076 0.6885539086142916
0.8127744068978655 0.631794458569547 0.05536285413967371 0.1256170941886447
0.3050898351595117 0.30675074562035365 -0.0007862067042410316 -0.0008747037566008153
0.10920455380221407 0.10920455380221407 0.0 0.0
0.02501139140947919 0.02501139140947919 0.0 0.0
0.0031246272479534144 0.0031246272479534144 0.0 0.0
0.0009807373283259755 0.0009807373283259755 0.0 0.0
0.01834760705119226 0.01834760705119226 0.0 0.0
0.11481795294714425 0.11481795294714425 0.0 0.0
0.37966810062992384 0.3701540261462007 0.001436612437166065 0.008077462046557063
1.0806686714834863 0.7760357288173958 0.10330039662926077 0.2013325460368304
2.665793012142167 1.2245496826691529 0.5653364044363278 0.8759069250366844
5.60892797765513 1.755677010630008 1.6881311819516835 2.165119785073438
10.458935333503737 2.4609909428657053 3.8281091092932575 4.169835281344776
17.660294800618423 3.3748397802658556 7.293996856538944 6.991458163813631
27.55906498916324 4.523066877588674 12.375464872295936 10.660533239278609
40.27165367790006 5.9144542013275 19.217778892584555 15.139420583988029
55.646631306184766 7.543835811579872 27.742742310401223 20.360053184203665
73.70317110705915 9.375363157504609 38.08026323984184 26.24754470971268
94.18371669951745 11.327128599262501 50.13733183891103 32.719256261343936
116.47006074016966 13.124274554903938 63.715459629493985 39.630326555771674
139.37496012753556 14.325981361961762 78.33355244247203 46.71542632310179
161.03786496408918 14.475810992064279 92.98795854210744 53.57409542991748
179.37249205878572 13.54797971288393 106.23512403741344 59.58938830848835
192.0666619973868 12.15060720814824 115.9895938737594 63.926460915479204
187.883203912125 5.082015834540069 117.93787496534713 64.8633131122377
259.61338856165565 81.00179109365837 115.14356768664899 63.468029781348356
187.883203912078 5.082015834527663 117.93787496532309 64.86331311222716
192.0666619973322 12.150607208168001 115.98959387370724 63.926460915456914
179.3724920586693 13.54797971286099 106.23512403734944 59.58938830845902
161.03786496399684 14.47581099209178 92.98795854202558 53.57409542987952
139.37496012740593 14.325981361943949 78.33355244239593 46.71542632306591
116.47006074004247 13.124274554891132 63.71545962941779 39.63032655573362
94.18371669940177 11.32712859925659 50.1373318388388 32.71925626130639
73.7031711069437 9.375363157493272 38.08026323977471 26.247544709675758
55.646631306083236 7.543835811573508 27.742742310341285 20.360053184168443
40.2716536778084 5.914454201310081 19.21777889253909 15.139420583959232
27.55906498909028 4.52306687757339 12.37546487226182 10.660533239255082
17.66029480057091 3.374839780262535 7.293996856514008 6.991458163794373
10.458935333472393 2.460990942862508 3.8281091092783672 4.16983528133152
5.60892797763591 1.7556770106270214 1.6881311819438125 2.165119785065078
2.6657930121330127 1.2245496826673345 0.565336404433245 0.8759069250324335
1.080668671479863 0.7760357288155573 0.10330039662856175 0.20133254603574424
0.37966810062893425 0.3701540261454441 0.0014366124371084435 0.008077462046381278
0.11481795294703048 0.11481795294703048 0.0 0.0
0.01834760705114342 0.01834760705114342 0.0 0.0
0.0009807373283023122 0.0009807373283023122 0.0 0.0
CELL_DATA 800
SCALARS Stress float 6
LOOKUP_TABLE default
167.81878938541706 -520.10520903923 -181.84765261052092 -109.95058780555148 0.0 0.0
402.74504394916494 -74.35358205028507 115.86784237697867 55.30665407718294 0.0 0.0
413.0800396912423 8.80656643659523 126.36979583344652 -2.903400876371798 0.0 0.0
472.12824224891204 -14.45791901866076 147.19859504888342 -15.200937675894904 0.0 0.0
549.2709877141806 -20.57875231370595 204.47337883236264 -11.661321030375053 0.0 0.0
623.4709815150048 -16.274837148835413 276.4821606380643 -10.257962972023417 0.0 0.0
695.3109682642169 -10.143539823760854 332.5948590214029 -10.905014841337582 0.0 0.0
767.9213430129458 3.970902979969452 381.31264461586636 -12.643616403273212 0.0 0.0
843.3008967831636 26.33922694589559 431.6191826766177 -14.393021748535643 0.0 0.0
921.1598457685827 55.91499261211271 485.9407998349401 -15.556914890143233 0.0 0.0
999.7229331880269 90.31990017183116 542.8343985225332 -16.03178650102591 0.0 0.0
1077.5874910679242 128.2232507524005 601.024560950528 -15.981188801458654 0.0 0.0
1154.8430301381275 168.51394287445513 660.0108651680782 -15.783373597820146 0.0 0.0
1232.334498112702 211.77137307306782 720.5309773451618 -15.474018867220915 0.0 0.0
1310.624489614414 258.60377891961343 783.1979592762913 -14.91638022228348 0.0 0.0
1388.9937204162584 308.4717692503839 847.399166304634 -13.916812442245023 0.0 0.0
1465.0501709513442 359.5057136084938 911.0152041997123 -12.34298359310132 0.0 0.0
1536.2337576986085 409.82662376204036 971.81486756162 -10.466491661867376 0.0 0.0
1601.8611827998054 459.6574093258427 1029.5085933876665 -9.8270624363825 0.0 0.0
1696.1586316710582 545.2720567913126 1118.9460906117984 -15.661823664856819 0.0 0.0
1696.1586316699734 545.272056790234 1118.9460906110137 15.661823664812717 0.0 0.0
1601.8611827999737 459.6574093260578 1029.5085933877017 9.827062436450953 0.0 0.0
1536.2337576986579 409.8266237621666 971.8148675615844 10.4664916618976 0.0 0.0
1465.0501709513344 359.50571360860334 911.0152041997361 12.342983593228421 0.0 0.0
1388.9937204161538 308.4717692504064 847.3991663045128 13.916812442230412 0.0 0.0
1310.62448961477 258.60377892012366 783.1979592763759 14.916380222135027 0.0 0.0
1232.3344981121606 211.77137307269624 720.5309773447028 15.474018867324098 0.0 0.0
1154.8430301374751 168.51394287399353 660.0108651675432 15.783373597799114 0.0 0.0
1077.5874910673326 128.22325075203327 601.0245609501511 15.981188801594824 0.0 0.0
999.7229331871583 90.31990017120381 542.8343985219897 16.03178650096904 0.0 0.0
921.1598457680155 55.91499261180414 485.94079983457124 15.55691488998859 0.0 0.0
843.3008967826863 26.339226945674056 431.61918267635497 14.393021748514661 0.0 0.0
767.9213430125963 3.9709029798966498 381.3126446156106 12.643616403237598 0.0 0.0
695.3109682641369 -10.143539823565803 332.5948590213197 10.905014841270829 0.0 0.0
623.4709815145203 -16.27483714903198 276.48216063767194 10.2579629720626 0.0 0.0
549.2709877135512 -20.57875231408797 204.4733788319044 11.661321030440572 0.0 0.0
472.12824224870974 -14.457919018608182 147.19859504880392 15.200937675836995 0.0 0.0
413.0800396910885 8.806566436519738 126.36979583338086 2.903400876383877 0.0 0.0
402.7450439491421 -74.35358205016445 115.86784237696267 -55.30665407715618 0.0 0.0
167.81878938605936 -520.1052090385465 -181.84765260991662 109.95058780527344 0.0 0.0
67.24014512675231 -547.6358820742485 -243.02941167445294 -158.82128282018658 0.0 0.0
272.3124615879614 -65.14405831967404 62.317740470524434 9.328045981764749 0.0 0.0
362.0643349027003 32.25887316813852 118.30063918231443 -9.74809441909904 0.0 0.0
436.69143558662756 -12.62833559162219 130.9936377605717 -35.43589824980501 0.0 0.0
521.3828759238113 -20.840866618631527 181.86525782976582 -33.30028356050611 0.0 0.0
599.9661637570932 -17.10020322757973 256.34411012466285 -30.370908220217352 0.0 0.0
675.4638138283701 -10.557740760938024 319.0384054913701 -31.39363538862685 0.0 0.0
749.0534541346211 3.338387941028877 370.41527494372974 -34.02107148803945 0.0 0.0
823.093277722575 24.3329955791761 420.03468200378813 -36.666070672366374 0.0 0.0
897.80677117076 51.23744927042864 471.662084958342 -38.078099674812 0.0 0.0
971.8424012432351 81.87719004739583 524.5021004089522 -38.184397222983435 0.0 0.0
1044.740587175692 115.02485266235935 577.8648025802739 -37.568917816295354 0.0 0.0
1116.7901855393131 150.96987442511502 632.0977114442807 -36.71126298296916 0.0 0.0
1188.8704172630469 189.55452108145147 687.6035854099077 -35.68560932931402 0.0 0.0
1261.1929276306114 230.90361274158641 744.5700798283212 -34.24838912064382 0.0 0.0
1333.2794521259316 274.81867591802137 802.6698345769 -32.00539871137348 0.0 0.0
1404.076303306467 320.69289645228764 861.0695986937122 -28.836615750005084 0.0 0.0
1472.8543354056412 368.60231856885395 919.4169388201582 -25.556473844074368 0.0 0.0
1545.8443486775698 426.04193717189764 984.4825215945618 -23.797567438186796 0.0 0.0
1600.3002033077632 471.6249915944274 1034.3740766565386 -23.455240118803864 0.0 0.0
1600.3002033079974 471.62499159468314 1034.374076656736 23.455240118876958 0.0 0.0
1545.8443486769245 426.04193717130323 984.4825215941142 23.797567438322638 0.0 0.0
1472.8543354049507 368.6023185682349 919.4169388195024 25.55647384409345 0.0 0.0
1404.0763033050748 320.6928964509859 861.0695986925517 28.83661574999472 0.0 0.0
1333.2794521254077 274.818675917624 802.6698345766015 32.00539871140033 0.0 0.0
1261.1929276305132 230.90361274162404 744.570079828358 34.24838912059066 0.0 0.0
1188.8704172624748 189.5545210810567 687.6035854095104 35.68560932938504 0.0 0.0
1116.7901855379594 150.96987442395715 632.0977114433244 36.7112629830318 0.0 0.0
1044.740587174827 115.02485266169498 577.8648025796274 37.56891781626392 0.0 0.0
971.8424012422117 81.87719004661244 524.5021004082471 38.18439722302748 0.0 0.0
897.8067711697624 51.23744926967703 471.66208495769814 38.078099674852986 0.0 0.0
823.0932777216826 24.332995578573332 420.03468200320964 36.66607067258096 0.0 0.0
749.0534541342029 3.33838794091254 370.41527494345166 34.021071488148536 0.0 0.0
675.4638138281545 -10.557740760866182 319.0384054911949 31.39363538865844 0.0 0.0
599.9661637563878 -17.100203228005363 256.3441101241637 30.370908220264234 0.0 0.0
521.3828759232189 -20.840866618958472 181.8652578293562 33.300283560554035 0.0 0.0
436.69143558686784 -12.628335590849908 130.99363776083567 35.43589824975435 0.0 0.0
362.06433490282683 32.25887316849559 118.30063918246222 9.748094419093334 0.0 0.0
272.3124615879796 -65.14405831930986 62.317740470641624 -9.328045981917509 0.0 0.0
67.24014512712407 -547.6358820739055 -243.02941167410893 158.8212828198939 0.0 0.0
14.137506503871208 -556.3017553680932 -267.48864336665895 -173.90985483183664 0.0 0.0
153.3727071074246 -54.525965223260286 29.65402256524929 -45.361396285683924 0.0 0.0
294.2528134362656 36.068160422437806 99.09629215761102 -33.87042568388552 0.0 0.0
390.9758186228113 -3.6471796287402554 117.14694508772993 -55.52955396866396 0.0 0.0
484.5796318829771 -19.616486176301965 158.85485445151917 -57.077628088695704 0.0 0.0
572.9207072164025 -19.294959444283013 231.60077075903536 -52.183032606029805 0.0 0.0
651.5323949404958 -10.133945772411778 302.36396862709057 -52.233917151660876 0.0 0.0
725.7864824590058 2.7961526127260043 356.7859058777782 -55.28272379328365 0.0 0.0
798.7796124700144 22.375548220903696 406.26836216439244 -58.412599514292125 0.0 0.0
870.2662445986348 46.29319467038067 455.10042705882216 -59.81338184287932 0.0 0.0
939.9601841843262 73.01277773202774 503.91684964422336 -59.52370719576841 0.0 0.0
1007.8874731082865 102.03243256911452 552.7788191761249 -58.366730065626015 0.0 0.0
1074.976466447214 133.17646789647517 602.1619024602905 -56.99532029117003 0.0 0.0
1141.4521887385608 166.81215098816256 652.4244021601281 -55.30041439319742 0.0 0.0
1207.6213770359216 202.4760317927233 703.5027557381386 -53.02954063594148 0.0 0.0
1273.5404031897515 240.34513973348703 755.5097337092373 -49.79682066520274 0.0 0.0
1339.4161183022102 281.21213186913 808.9294333114959 -45.55606028926642 0.0 0.0
1406.9982931285808 327.7718469085353 865.9646474794777 -41.09701266426846 0.0 0.0
1470.7679497407607 375.5972061467901 921.6940930717149 -36.42479960644711 0.0 0.0
1516.1826688203953 411.19673637040444 962.1183902229092 -30.06128615161408 0.0 0.0
1516.182668819723 411.19673636973437 962.1183902223605 30.061286151617225 0.0 0.0
1470.767949739803 375.597206145888 921.6940930709745 36.42479960658166 0.0 0.0
1406.9982931276493 327.7718469076764 865.9646474787626 41.09701266433953 0.0 0.0
1339.4161183012898 281.21213186832017 808.9294333107853 45.556060289331484 0.0 0.0
1273.5404031883825 240.34513973220567 755.5097337082013 49.796820665116485 0.0 0.0
1207.6213770345576 202.4760317914811 703.5027557370227 53.029540635918096 0.0 0.0
1141.4521887386695 166.81215098844262 652.4244021601249 55.300414393217125 0.0 0.0
1074.9764664468223 133.17646789625744 602.1619024600319 56.99532029114712 0.0 0.0
1007.8874731085859 102.03243256963938 552.7788191763655 58.36673006565755 0.0 0.0
939.9601841850135 73.01277773298929 503.9168496446584 59.52370719584992 0.0 0.0
870.2662445987714 46.29319467071949 455.1004270588709 59.81338184268414 0.0 0.0
798.779612469612 22.375548220804802 406.26836216412295 58.41259951438618 0.0 0.0
725.7864824582689 2.796152612270376 356.78590587733083 55.282723793262974 0.0 0.0
651.5323949399814 -10.133945772677677 302.3639686267043 52.233917151538954 0.0 0.0
572.9207072160484 -19.294959444306564 231.60077075869884 52.18303260605968 0.0 0.0
484.5796318826409 -19.616486176302196 158.85485445131093 57.077628088690176 0.0 0.0
390.9758186226376 -3.6471796286724523 117.14694508771092 55.52955396864391 0.0 0.0
294.2528134364434 36.06816042266038 99.09629215773111 33.87042568377877 0.0 0.0
153.3727071076416 -54.52596522250848 29.654022565539925 45.36139628555583 0.0 0.0
14.137506504102788 -556.3017553677578 -267.4886433663637 173.90985483170877 0.0 0.0
-6.050119554209687 -544.8509763976722 -264.518572607267 -175.97173111737902 0.0 0.0
88.46463576610445 -51.56553283728146 11.069730878646897 -91.65950752032099 0.0 0.0
230.07210255368983 32.76930694116351 78.85242284845599 -66.28380928107836 0.0 0.0
337.71927502307 5.181718199118381 102.9485167470085 -77.37952598846408 0.0 0.0
438.06208843207514 -17.499197294249207 135.80924898821596 -83.23803944571361 0.0 0.0
535.8930360085228 -19.68252191473352 203.34514436160165 -75.86180387596539 0.0 0.0
620.90109822913 -10.939707578223022 279.5523599683561 -73.78574492692907 0.0 0.0
697.9198189005982 2.8509150727005093 340.1908508367479 -76.52223226000555 0.0 0.0
769.5744604015074 20.252898928761915 389.665725940916 -79.60015086337717 0.0 0.0
838.054650019336 41.12869033893917 435.9825040197142 -80.77286856746083 0.0 0.0
903.6078747288666 64.03422801908015 480.9871977418371 -80.05809495584036 0.0 0.0
966.9198895598552 88.79491821515889 525.4783520781766 -78.44969450665371 0.0 0.0
1028.695269420483 115.34848445429466 569.9499092082626 -76.5559095743472 0.0 0.0
1089.8284504479907 143.83730178131 615.0068624036917 -74.29009864876231 0.0 0.0
1149.9570836302612 173.62566480492058 660.1624451199539 -71.31799740178994 0.0 0.0
1209.4583326236423 205.4425011135181 705.9519502077331 -67.34354004859628 0.0 0.0
1270.4567666553537 241.22831479311571 754.3854506735885 -62.40503361063486 0.0 0.0
1332.7469806680547 281.92519506267007 805.8560513541769 -56.583288603114546 0.0 0.0
1390.8010850634012 322.94023645524965 855.3440098652914 -48.755858200323445 0.0 0.0
1433.0719409225262 353.7082206549 891.7918681118156 -37.02237615907785 0.0 0.0
1433.071940921821 353.7082206542053 891.7918681113615 37.022376159088886 0.0 0.0
1390.8010850631415 322.9402364550459 855.344009865061 48.7558582004219 0.0 0.0
1332.746980668288 281.9251950630012 805.8560513543856 56.58328860324232 0.0 0.0
1270.4567666551268 241.22831479301016 754.385450673419 62.405033610837926 0.0 0.0
1209.4583326235283 205.44250111356035 705.9519502075441 67.34354004868916 0.0 0.0
1149.957083630468 173.62566480530154 660.1624451201494 71.31799740186833 0.0 0.0
1089.8284504482208 143.83730178167565 615.0068624038524 74.29009864869468 0.0 0.0
1028.6952694194506 115.34848445341146 569.9499092074577 76.55590957428404 0.0 0.0
966.919889560409 88.79491821596704 525.4783520783982 78.4496945067747 0.0 0.0
903.6078747292937 64.03422801983604 480.987197742117 80.0580949560939 0.0 0.0
838.0546500186153 41.128690338391664 435.98250401928345 80.77286856725964 0.0 0.0
769.5744604009062 20.252898928423065 389.66572594052053 79.60015086338841 0.0 0.0
697.9198189004422 2.850915072868446 340.19085083658985 76.52223226002225 0.0 0.0
620.9010982290146 -10.93970757794628 279.55235996820096 73.78574492701469 0.0 0.0
535.8930360080547 -19.682521914909543 203.34514436123996 75.86180387589445 0.0 0.0
438.0620884313365 -17.499197294715113 135.80924898781774 83.23803944572963 0.0 0.0
337.71927502292596 5.181718198981377 102.94851674693564 77.37952598838076 0.0 0.0
230.07210255362367 32.76930694103754 78.85242284839835 66.28380928097589 0.0 0.0
88.46463576618719 -51.565532836953196 11.069730878770198 91.65950752015445 0.0 0.0
-6.050119554041331 -544.8509763973334 -264.5185726069724 175.9717311172493 0.0 0.0
-10.742632538389685 -521.6409980580598 -246.41432815498075 -173.39128613886268 0.0 0.0
52.409232605282845 -49.827625824161345 0.7744820343364527 -127.72375065229512 0.0 0.0
175.05642894557917 26.50416176759167 60.46817721395125 -98.96592741582576 0.0 0.0
281.14124700489407 10.833731416906366 87.6045593266682 -100.6746827851361 0.0 0.0
380.77288965752757 -12.879868898022714 114.08088260582565 -109.69838355432492 0.0 0.0
487.83903739402297 -19.531823679539748 172.16296964025506 -102.71256524050631 0.0 0.0
582.9446214040664 -12.081709414759757 250.5808915970341 -96.94820583834637 0.0 0.0
663.7361908129201 2.435501480960408 318.53480774605384 -97.7817866692406 0.0 0.0
734.8715965162971 18.219553479759313 369.7478854048924 -100.25557400370336 0.0 0.0
800.5167891429522 35.776322923377435 413.9043597680321 -101.01027955887238 0.0 0.0
862.255350677555 54.94162003647933 455.401681384675 -99.80844035277002 0.0 0.0
920.8262536474966 75.44198125968934 495.4992054528875 -97.75847297712255 0.0 0.0
977.5025401619657 97.31098617106217 535.1479471506741 -95.4864526486289 0.0 0.0
1032.8854454360287 120.69291752330936 574.8136619312003 -92.64665583020391 0.0 0.0
1087.2265826128337 144.96273934635374 614.3521984534761 -89.05647628530129 0.0 0.0
1140.9190729834984 170.5891395087591 654.1794515335521 -84.63811859892488 0.0 0.0
1195.1232619270506 199.55487876721642 695.8300281992764 -79.17988549869982 0.0 0.0
1251.2000819269854 233.22959231514926 740.6916064717587 -72.15721020524242 0.0 0.0
1305.2004563155388 268.3875349432303 785.2230224757396 -61.505615095809986 0.0 0.0
1347.7017945984155 296.835576470691 820.6075430931412 -44.938081736512714 0.0 0.0
1347.7017945991543 296.83557647141754 820.6075430936419 44.93808173647251 0.0 0.0
1305.2004563158373 268.38753494363044 785.2230224760415 61.50561509600061 0.0 0.0
1251.2000819264936 233.22959231473175 740.6916064714276 72.15721020531782 0.0 0.0
1195.1232619268517 199.55487876716802 695.8300281990851 79.179885498906 0.0 0.0
1140.9190729829595 170.5891395083563 654.1794515331579 84.63811859896077 0.0 0.0
1087.2265826125117 144.9627393461933 614.3521984532334 89.05647628536813 0.0 0.0
1032.8854454366392 120.69291752405718 574.8136619316049 92.64665583014511 0.0 0.0
977.5025401620617 97.31098617143672 535.1479471507465 95.48645264885322 0.0 0.0
920.8262536477872 75.44198126020083 495.4992054530158 97.75847297716302 0.0 0.0
862.2553506770322 54.94162003618652 455.4016813842312 99.80844035276169 0.0 0.0
800.5167891428162 35.776322923384726 413.9043597678422 101.01027955862014 0.0 0.0
734.8715965163984 18.21955348013563 369.74788540497826 100.25557400371315 0.0 0.0
663.7361908121737 2.435501480483353 318.53480774557687 97.7817866691947 0.0 0.0
582.9446214035265 -12.08170941495591 250.58089159661867 96.9482058383878 0.0 0.0
487.8390373938049 -19.531823679432232 172.1629696400459 102.7125652403598 0.0 0.0
380.77288965734016 -12.879868897777678 114.08088260581653 109.69838355428666 0.0 0.0
281.14124700475975 10.833731416849009 87.60455932661695 100.67468278502244 0.0 0.0
175.05642894557172 26.50416176758847 60.46817721394805 98.96592741555247 0.0 0.0
52.409232605350624 -49.82762582392488 0.7744820344277263 127.72375065202185 0.0 0.0
-10.742632538356787 -521.6409980578675 -246.41432815476918 173.3912861387463 0.0 0.0
-8.434889438614036 -490.5256212436652 -219.52750237180211 -169.59357668958262 0.0 0.0
31.087139406553767 -47.639635250160126 -4.965748753081907 -154.63142376132853 0.0 0.0
128.3612077428709 19.579248977310247 44.38213701605434 -127.73266150198572 0.0 0.0
224.0740172108301 13.021196805176086 71.12458774621828 -124.14312951889796 0.0 0.0
315.74776190495265 -6.3232838000898886 94.07395945266418 -134.11137925956888 0.0 0.0
423.61902746762513 -18.506282124872467 138.91187738389922 -132.3956927537273 0.0 0.0
530.8963579982249 -12.194242114146535 214.43887021669929 -122.7205346193303 0.0 0.0
619.438934963297 0.748324540622928 288.49358182886965 -119.86190746965323 0.0 0.0
693.054718876137 15.847781648633188 344.84461589596236 -120.64103126593085 0.0 0.0
756.5463317701966 30.405985514291423 388.14609135869966 -120.53236837485585 0.0 0.0
814.4202709153344 45.659973172723184 426.2914436216171 -118.7972330129609 0.0 0.0
868.5373842698627 62.04875493890169 462.30952006788533 -116.32887749827091 0.0 0.0
919.8912208515733 79.29377807679589 497.0936849094358 -113.66917479753351 0.0 0.0
969.6392731892738 97.36084587854127 531.340185901668 -110.49760494168471 0.0 0.0
1018.5999181740019 116.38790408199176 565.597376723183 -106.40435793364344 0.0 0.0
1065.9447176761548 136.19069458809267 599.3958673993642 -101.42958957778947 0.0 0.0
1112.7888822495488 157.1575885174337 633.42935826903 -95.71221197008678 0.0 0.0
1161.47187336145 182.18222427072106 670.284724804474 -88.02938853048704 0.0 0.0
1211.83362002551 211.4646767982132 710.0319467165127 -75.22564901003054 0.0 0.0
1257.1755506306315 239.10848702296457 746.3810056889157 -54.45758557861277 0.0 0.0
1257.1755506317431 239.10848702407472 746.3810056896724 54.45758557862254 0.0 0.0
1211.8336200254575 211.4646767982788 710.0319467164875 75.22564901025727 0.0 0.0
1161.47187336183 182.18222427121782 670.2847248046816 88.02938853068898 0.0 0.0
1112.788882249908 157.157588517965 633.4293582692735 95.7122119702679 0.0 0.0
1065.9447176748647 136.19069458683248 599.3958673985004 101.42958957763004 0.0 0.0
1018.5999181724985 116.38790408062403 565.5973767221534 106.40435793370722 0.0 0.0
969.6392731897178 97.36084587908562 531.3401859018575 110.49760494158681 0.0 0.0
919.8912208520247 79.2937780776002 497.09368490971787 113.66917479787753 0.0 0.0
868.537384269214 62.04875493841632 462.30952006738204 116.32887749821742 0.0 0.0
814.4202709150375 45.65997317257958 426.29144362139624 118.7972330128488 0.0 0.0
756.5463317701123 30.4059855144357 388.14609135858467 120.53236837478786 0.0 0.0
693.0547188761939 15.847781649000495 344.8446158959338 120.6410312659508 0.0 0.0
619.4389349635114 0.7483245412770714 288.4935818289455 119.86190746979081 0.0 0.0
530.8963579977369 -12.194242114099701 214.43887021639057 122.72053461953456 0.0 0.0
423.6190274673571 -18.50628212459211 138.91187738378972 132.39569275377067 0.0 0.0
315.74776190494947 -6.323283799553775 94.07395945281823 134.1113792594386 0.0 0.0
224.07401721071315 13.021196805131801 71.12458774617134 124.14312951884955 0.0 0.0
128.36120774283563 19.579248977270748 44.38213701603192 127.7326615018448 0.0 0.0
31.08713940652174 -47.63963525014945 -4.965748753088313 154.63142376111503 0.0 0.0
-8.43488943863656 -490.5256212434654 -219.5275023715896 169.5935766895027 0.0 0.0
-2.9084682402803708 -453.1070669141152 -187.37207526911658 -166.01803905765402 0.0 0.0
16.535582208718015 -45.58517755882246 -8.714818241392564 -173.55186001105244 0.0 0.0
87.43364423043609 13.146278072385824 30.17397669084657 -150.88018838335447 0.0 0.0
167.31336973939995 14.00216441451721 54.39153666848796 -145.7940877910579 0.0 0.0
246.6783148158926 -0.5174129336644129 74.44001863646503 -155.45969617407394 0.0 0.0
345.3121657522993 -14.535598304909165 106.69235974853737 -162.21672929109633 0.0 0.0
460.2419934911 -12.490507888154337 171.03954534816452 -152.34512612432695 0.0 0.0
560.7679159895736 -0.6949989590493946 248.20818228285978 -143.82766969094274 0.0 0.0
639.5734888915388 12.432634643763237 310.9092646778944 -141.26482365548333 0.0 0.0
703.4125811053198 24.84284900445622 356.56752487385535 -139.559551060447 0.0 0.0
757.7728279588978 36.19858005585388 392.216717228908 -137.05102591089076 0.0 0.0
807.5978797255111 48.70011140338684 424.5970321297638 -134.15408371845842 0.0 0.0
853.6502649276697 61.29631930195315 454.6245751717629 -131.1635101755449 0.0 0.0
897.3909336661225 74.17652126923792 483.39681567332025 -127.77523233314523 0.0 0.0
940.3501438726431 87.67471013298712 511.9188092118452 -123.40790922668651 0.0 0.0
982.9165686321977 102.29474625338256 540.7884781786861 -117.89617754489929 0.0 0.0
1021.9715909469404 115.42199736571882 567.1320155223806 -111.71587032056635 0.0 0.0
1061.0046486431004 129.77297718147088 593.8781431717374 -104.07434863838563 0.0 0.0
1106.9912482030845 151.1257258627719 627.4117906055387 -90.47244730422226 0.0 0.0
1157.7903143327255 178.9371247379736 666.4575656861889 -66.54375991773178 0.0 0.0
1157.7903143328217 178.9371247381285 666.4575656861648 66.5437599179089 0.0 0.0
1106.9912482035768 151.1257258633953 627.411790605843 90.47244730454774 0.0 0.0
1061.0046486437855 129.7729771824052 593.8781431721635 104.0743486387625 0.0 0.0
1021.9715909462885 115.42199736522423 567.1320155219021 111.71587032073941 0.0 0.0
982.91656863192 102.29474625321166 540.788478178438 117.89617754493042 0.0 0.0
940.3501438719684 87.67471013249053 511.918809211425 123.40790922677368 0.0 0.0
897.3909336656263 74.17652126884221 483.3968156729899 127.77523233309591 0.0 0.0
853.6502649277043 61.29631930224156 454.62457517179394 131.16351017569164 0.0 0.0
807.5978797248653 48.7001114028632 424.5970321292853 134.15408371838765 0.0 0.0
757.7728279577401 36.19858005480674 392.2167172281143 137.05102591075402 0.0 0.0
703.412581104304 24.842849003504213 356.5675248731577 139.5595510602461 0.0 0.0
639.5734888905828 12.432634642896474 310.90926467724256 141.26482365530353 0.0 0.0
560.7679159892268 -0.6949989592118513 248.20818228249502 143.82766969077926 0.0 0.0
460.24199349120363 -12.490507887533987 171.03954534818948 152.34512612430478 0.0 0.0
345.3121657518398 -14.535598305049083 106.69235974830394 162.21672929096587 0.0 0.0
246.6783148156186 -0.5174129338473916 74.44001863632525 155.45969617371946 0.0 0.0
167.31336973919065 14.002164414138601 54.39153666831258 145.79408779081274 0.0 0.0
87.43364423028876 13.146278072127487 30.173976690724874 150.88018838313667 0.0 0.0
16.535582208709645 -45.585177558701965 -8.714818241358978 173.55186001079898 0.0 0.0
-2.908468240239806 -453.10706691382603 -187.37207526887207 166.01803905757674 0.0 0.0
2.3410488949234036 -410.8112074290381 -154.30768824976454 -163.4985784541391 0.0 0.0
3.1946753192116546 -44.31247218023644 -12.334862782768628 -184.6885838556379 0.0 0.0
50.043082728851566 7.999255426176831 17.412298375260974 -168.3720352141855 0.0 0.0
111.6916050195955 15.093143848791396 38.036564923087546 -163.8214145591833 0.0 0.0
175.4303450558632 3.1772183257236355 53.93292038336118 -174.19071375385056 0.0 0.0
252.57976864980938 -7.624820110133527 76.48498727868413 -186.55910566137308 0.0 0.0
362.0526764145893 -10.846774313588346 122.70005433013814 -185.26736757734656 0.0 0.0
477.3664594669349 -2.2821814825299147 194.08140994933177 -172.05545037532357 0.0 0.0
567.3601099103337 8.50480144713842 262.37724545904746 -163.33392281845968 0.0 0.0
633.8658270984578 18.54424548766756 313.1764762914194 -158.4812848597295 0.0 0.0
686.9266267597145 26.490014000755046 349.4017312707609 -154.8506414352545 0.0 0.0
732.2892272958184 35.20022342938745 378.93989125131236 -151.3133810888673 0.0 0.0
773.0192985331862 43.585723068846505 404.8097556183019 -147.9142878357619 0.0 0.0
810.5626668106866 51.290812906586396 428.1985553679246 -144.44332253687418 0.0 0.0
847.1143106255234 59.01328154138676 450.77026230752824 -140.18054284933586 0.0 0.0
884.3305194133611 68.07142599095252 474.1848602768944 -134.24247566799275 0.0 0.0
919.3409326287689 76.0731581982418 496.0673597837916 -127.15425604551085 0.0 0.0
947.0112465724318 78.10041652391794 511.20608121076646 -119.74566751460829 0.0 0.0
982.9987423613026 86.12970177375445 532.9799080541783 -107.39942694890391 0.0 0.0
1041.1595277693505 113.81487934358157 575.3723954374661 -82.60045071519755 0.0 0.0
1041.1595277698184 113.81487934414002 575.3723954378154 82.60045071538798 0.0 0.0
982.9987423606061 86.12970177314281 532.9799080537856 107.39942694910351 0.0 0.0
947.0112465727808 78.10041652445045 511.20608121098047 119.74566751484045 0.0 0.0
919.3409326284805 76.07315819807741 496.0673597835334 127.15425604564632 0.0 0.0
884.330519412471 68.07142599017553 474.1848602762411 134.24247566795566 0.0 0.0
847.114310626382 59.01328154241705 450.77026230804154 140.18054284936142 0.0 0.0
810.5626668107598 51.29081290681955 428.19855536794455 144.44332253686758 0.0 0.0
773.0192985323865 43.58572306814864 404.80975561777336 147.91428783570825 0.0 0.0
732.2892272955044 35.20022342908547 378.9398912510001 151.3133810887958 0.0 0.0
686.9266267603672 26.49001400181112 349.4017312711868 154.85064143538864 0.0 0.0
633.865827098139 18.544245487519348 313.1764762911489 158.48128485960032 0.0 0.0
567.3601099100621 8.504801447110111 262.37724545880724 163.3339228184496 0.0 0.0
477.36645946635065 -2.282181482630115 194.0814099489614 172.05545037542703 0.0 0.0
362.0526764137558 -10.846774314295951 122.70005432959768 185.26736757723035 0.0 0.0
252.57976864953872 -7.624820109918922 76.48498727865693 186.559105661246 0.0 0.0
175.43034505597615 3.177218326366617 53.93292038359057 174.19071375374838 0.0 0.0
111.6916050197076 15.093143849146442 38.03656492323099 163.82141455902186 0.0 0.0
50.04308272899017 7.999255426432809 17.412298375379862 168.3720352140566 0.0 0.0
3.1946753190941832 -44.31247218028871 -12.334862782820927 184.68858385554205 0.0 0.0
2.3410488948731043 -410.81120742881365 -154.3076882495911 163.49857845407635 0.0 0.0
3.574196527719181 -364.39029170635456 -124.59230032056016 -160.37663063910762 0.0 0.0
-12.855557899264731 -45.05306041136049 -17.372308765384957 -190.24369302671357 0.0 0.0
14.88539350672817 4.939583413867488 5.947350701008089 -180.4578246720475 0.0 0.0
57.56895437515004 16.220171288116223 22.14400747117413 -177.5035335740816 0.0 0.0
102.0202661429245 6.883104964750887 32.89934323510039 -188.3831717464683 0.0 0.0
152.53600046254468 -2.1742367146341413 46.4407841912516 -204.53500460506206 0.0 0.0
231.8215480103251 -4.799301788026845 73.9521260304535 -213.55285496826662 0.0 0.0
345.53520904795494 -2.229509833887448 124.34525149914876 -205.9521665505389 0.0 0.0
453.8824881430785 4.870606506819353 188.5912922225607 -190.2235596649574 0.0 0.0
530.0004165982887 11.095609801905077 243.99453240483797 -178.87705161204383 0.0 0.0
584.0445498246352 16.964582515770104 284.9275246794807 -172.4858489415513 0.0 0.0
625.7268606459278 21.40494482261034 314.2224316901811 -168.03175566875103 0.0 0.0
661.1605705735275 25.936655191335575 337.8152644922528 -164.06020807146146 0.0 0.0
692.2628195223083 29.068376224752697 356.9887076284272 -160.37302342757877 0.0 0.0
721.3693406864676 30.86567791807161 373.55031314637836 -156.32335596612268 0.0 0.0
751.688264610377 32.93352069923628 390.25225997624085 -150.8218167138839 0.0 0.0
785.5562220437621 36.87484517482096 409.4300606746481 -142.65874630936256 0.0 0.0
811.8911714177125 34.01796744805185 421.857915650815 -133.85192627494115 0.0 0.0
826.8394933994539 16.621759423721983 420.6826128433705 -124.92841598233552 0.0 0.0
890.0081129671129 37.598468179837994 461.3960742306817 -105.05497608090258 0.0 0.0
890.0081129671357 37.598468179894894 461.3960742307827 105.05497608099435 0.0 0.0
826.8394933996252 16.62175942394731 420.6826128434757 124.92841598266082 0.0 0.0
811.891171417258 34.01796744781524 421.8579156505424 133.85192627525856 0.0 0.0
785.5562220433998 36.87484517444372 409.4300606744355 142.65874630931447 0.0 0.0
751.6882646119111 32.93352070114591 390.2522599774137 150.82181671410183 0.0 0.0
721.3693406868285 30.865677918734747 373.55031314671726 156.32335596625552 0.0 0.0
692.2628195220303 29.068376224539264 356.98870762824464 160.37302342759472 0.0 0.0
661.1605705728284 25.936655190806434 337.81526449181735 164.06020807159655 0.0 0.0
625.7268606454559 21.404944822125486 314.2224316898065 168.0317556686357 0.0 0.0
584.0445498239468 16.964582514929944 284.92752467895525 172.48584894131454 0.0 0.0
530.000416598154 11.09560980216257 243.99453240475594 178.877051612075 0.0 0.0
453.8824881428598 4.870606506865229 188.59129222237277 190.22355966497418 0.0 0.0
345.5352090471982 -2.2295098342898747 124.34525149871216 205.95216655052297 0.0 0.0
231.8215480100971 -4.799301787931828 73.95212603037834 213.55285496814895 0.0 0.0
152.53600046232856 -2.174236714676148 46.44078419117663 204.53500460479708 0.0 0.0
102.02026614285057 6.883104964665339 32.89934323505172 188.38317174617148 0.0 0.0
57.568954375138155 16.22017128816848 22.144007471189255 177.503533573858 0.0 0.0
14.885393506796404 4.939583413969812 5.947350701059575 180.45782467182883 0.0 0.0
-12.855557899393705 -45.05306041131579 -17.372308765411702 190.24369302650143 0.0 0.0
3.5741965277175574 -364.3902917060426 -124.59230032037931 160.37663063900365 0.0 0.0
-0.6039239707629349 -314.62410426676695 -99.91940399899892 -154.26785461572297 0.0 0.0
-31.8897681287064 -48.228405680528994 -24.03494340412432 -192.54941548829848 0.0 0.0
-18.778442923691806 3.98624370373663 -4.438809577446625 -187.7710835363629 0.0 0.0
4.956544640761633 17.255703583916006 6.670336111923205 -186.34262262285094 0.0 0.0
28.036475385144197 10.9845172303698 11.782614207135722 -196.80850217670707 0.0 0.0
49.17185578213059 2.6730557599250044 15.979917031731405 -214.70288339936673 0.0 0.0
77.56859461759424 -0.6497475228206859 24.493586962220267 -229.88401299598826 0.0 0.0
128.84516821619752 0.779126755044798 42.65146253273329 -233.38680293889144 0.0 0.0
208.0109729213101 4.457013823600356 73.37558385884206 -221.47601301110927 0.0 0.0
287.5508787678108 6.799526741508728 110.50717880127483 -205.23534843081174 0.0 0.0
352.5522578531561 8.522577148259046 148.66423285869996 -192.74058858995548 0.0 0.0
396.3794792871056 8.722886624807344 179.09654775382094 -184.8170072722176 0.0 0.0
426.5832444100467 9.250305677498488 202.7145780008293 -179.12899437391388 0.0 0.0
450.483105017844 7.569149025123693 220.56185331050028 -174.65261074345057 0.0 0.0
473.1189934499692 3.553742748581186 234.56257838415968 -170.58359028951136 0.0 0.0
500.43086234545325 -2.1891446149179217 247.7530880087997 -166.1242280174611 0.0 0.0
537.39666143968 -6.267317873438969 264.7229630488366 -159.16488584554187 0.0 0.0
584.2175609472527 -6.244258213200254 288.1997343913297 -147.9038305491146 0.0 0.0
606.5792799425265 -34.35596501476061 286.8005400128364 -137.15544719617978 0.0 0.0
639.9244524866667 -71.75915588246025 281.72044620490766 -133.55694852497757 0.0 0.0
639.9244524869735 -71.7591558819455 281.72044620519677 133.55694852532034 0.0 0.0
606.5792799417643 -34.35596501544137 286.8005400123839 137.1554471965746 0.0 0.0
584.2175609462383 -6.244258214283889 288.19973439069406 147.903830549345 0.0 0.0
537.3966614392115 -6.267317873809617 264.7229630485233 159.1648858457203 0.0 0.0
500.43086234586207 -2.1891446143573887 247.75308800895507 166.12422801757594 0.0 0.0
473.11899345032674 3.553742749347464 234.56257838447993 170.58359028964233 0.0 0.0
450.48310501755 7.569149024726229 220.5618533102899 174.65261074349817 0.0 0.0
426.58324440984353 9.250305677129361 202.7145780006115 179.1289943740535 0.0 0.0
396.3794792867308 8.72288662419136 179.09654775349355 184.81700727218248 0.0 0.0
352.5522578524698 8.52257714725269 148.66423285813053 192.7405885899471 0.0 0.0
287.55087876737645 6.799526741079411 110.507178800959 205.23534843071525 0.0 0.0
208.01097292087664 4.457013823003933 73.37558385851186 221.4760130111692 0.0 0.0
128.84516821594542 0.7791267551086722 42.65146253265788 233.38680293888285 0.0 0.0
77.56859461788406 -0.6497475219704372 24.493586962565125 229.88401299590998 0.0 0.0
49.17185578209674 2.673055760010672 15.979917031748986 214.7028833992138 0.0 0.0
28.036475384935308 10.984517229842087 11.782614206914753 196.80850217648057 0.0 0.0
4.9565446407067 17.255703583767925 6.670336111862539 186.3426226225883 0.0 0.0
-18.778442923607585 3.9862437038878067 -4.438809577376715 187.77108353625962 0.0 0.0
-31.889768128919872 -48.22840568065575 -24.034943404228184 192.54941548819232 0.0 0.0
-0.6039239708739217 -314.624104266583 -99.9194039989392 154.26785461553834 0.0 0.0
-12.418633188669762 -264.34746055290805 -83.5860884581439 -144.06762109690155 0.0 0.0
-50.55569024788521 -50.940537472496544 -30.452137152104402 -192.51296926650386 0.0 0.0
-51.38352681580142 3.8567614896782905 -14.274079155695413 -190.91328175665024 0.0 0.0
-46.075170455308154 18.165799553434802 -8.40217794865831 -190.1045358814199 0.0 0.0
-45.06183016187639 15.050483564870937 -9.105489729924631 -198.98389573712572 0.0 0.0
-55.2329056235932 7.469249777334566 -14.797364835727894 -215.69352860908936 0.0 0.0
-80.13916984861956 2.637811288149692 -24.726975396859967 -230.01196655198845 0.0 0.0
-129.70361208559683 -0.37488064997839743 -42.8199337246715 -233.5504106391173 0.0 0.0
-207.87720631266194 -4.248243923269076 -73.27072360425446 -221.57370648683298 0.0 0.0
-287.3151115942037 -6.548277240634782 -110.3401272801512 -205.2125095467318 0.0 0.0
-352.75418916538865 -7.179115039853464 -148.1640181622226 -192.6026599326272 0.0 0.0
-397.9988838046242 -7.051108760427724 -179.1063843947327 -184.3489565899692 0.0 0.0
-430.9779173302937 -9.19655177250607 -204.54194802327197 -178.65281348153835 0.0 0.0
-456.723941668165 -14.245347141192411 -226.41928138839802 -175.12910135099926 0.0 0.0
-474.3191191617935 -22.85832268377797 -245.2495166859783 -173.64717708230185 0.0 0.0
-480.79398170662733 -34.182798958663625 -260.1666400085276 -173.74756271009167 0.0 0.0
-467.09819186011464 -45.73415656297061 -267.6387132582459 -174.07961580909281 0.0 0.0
-404.0104176401609 -40.18587080194956 -251.8666306913492 -173.94931721736728 0.0 0.0
-221.5050820788358 -37.174693863952484 -190.38075444779045 -176.8562567818807 0.0 0.0
-14.538175414560328 -175.6889358749007 -69.07050862925699 -165.1062396038643 0.0 0.0
-14.538175414273951 -175.68893587454616 -69.07050862909563 165.10623960423246 0.0 0.0
-221.50508207794013 -37.17469386233125 -190.38075444704606 176.85625678235712 0.0 0.0
-404.01041764016753 -40.18587080184565 -251.86663069133493 173.94931721764942 0.0 0.0
-467.0981918594563 -45.73415656259388 -267.6387132578787 174.07961580927167 0.0 0.0
-480.79398170709635 -34.18279895928498 -260.1666400087846 173.7475627101064 0.0 0.0
-474.31911916270093 -22.85832268517899 -245.24951668659733 173.64717708227812 0.0 0.0
-456.72394166789627 -14.245347141070056 -226.41928138819355 175.12910135107234 0.0 0.0
-430.9779173300635 -9.196551772669451 -204.54194802315928 178.65281348162011 0.0 0.0
-397.99888380433697 -7.051108760966798 -179.1063843946755 184.34895659001722 0.0 0.0
-352.7541891648261 -7.179115040067764 -148.1640181619328 192.6026599325453 0.0 0.0
-287.31511159426157 -6.548277241943474 -110.34012728040821 205.2125095466804 0.0 0.0
-207.8772063122119 -4.24824392356464 -73.27072360415912 221.57370648689493 0.0 0.0
-129.70361208527606 -0.37488065010161975 -42.819933724591536 233.55041063910573 0.0 0.0
-80.13916984833745 2.6378112880395763 -24.726975396796078 230.01196655184407 0.0 0.0
-55.232905624087486 7.4692497760546495 -14.797364836257414 215.69352860881642 0.0 0.0
-45.06183016218007 15.050483564010927 -9.105489730273607 198.98389573691836 0.0 0.0
-46.07517045532417 18.16579955317419 -8.402177948742503 190.10453588129303 0.0 0.0
-51.38352681582993 3.85676148952743 -14.274079155751952 190.91328175642636 0.0 0.0
-50.555690247932226 -50.94053747246871 -30.452137152112975 192.51296926636095 0.0 0.0
-12.41863318874654 -264.3474605525552 -83.58608845808 144.0676210967998 0.0 0.0
-23.59411155012133 -216.13081803540024 -71.91432125768812 -131.04859866843498 0.0 0.0
-66.38866646599794 -50.86232922179002 -35.182057544360276 -188.92344193084983 0.0 0.0
-82.76922307227703 3.6143753340610676 -23.780929100931026 -190.18697555360933 0.0 0.0
-95.49187939083107 18.90077542910203 -23.04844903891479 -188.9219161560156 0.0 0.0
-116.4916877999777 18.262919685377984 -29.8298397431786 -194.64717134232333 0.0 0.0
-157.59398576495576 11.827986405559685 -45.27170792177306 -206.90271478970155 0.0 0.0
-233.37291493342127 6.6892069521340325 -74.06401227135206 -214.50028914965864 0.0 0.0
-345.2690505084326 2.547770379373258 -124.29773204503473 -206.4140081021594 0.0 0.0
-453.50823972497415 -4.716270492677282 -188.40819038892917 -190.38777109669618 0.0 0.0
-529.6610213549858 -10.721871169256062 -243.70545661642066 -178.8414503407217 0.0 0.0
-583.6069912823982 -15.942238200891026 -284.3100081861642 -172.21261018924983 0.0 0.0
-625.7400496345645 -19.917963295333678 -313.5474725854558 -167.25636914987885 0.0 0.0
-662.9405226226545 -25.82291184936507 -338.4946408618045 -162.997639449117 0.0 0.0
-697.6127955498049 -34.66087151211474 -362.08207735948724 -160.47002087256598 0.0 0.0
-730.5070686769566 -47.38208440227345 -386.0335490487997 -160.32150890319136 0.0 0.0
-759.7204497778713 -63.04662753814185 -409.44140833664187 -162.53232947942607 0.0 0.0
-780.2783236758539 -78.50314506604423 -428.54477788671846 -167.50053093069263 0.0 0.0
-788.8147335375847 -91.59258255300074 -440.4015755853394 -175.34362978350913 0.0 0.0
-823.005992836469 -145.6221017518605 -485.7063706343985 -184.50363542765956 0.0 0.0
-831.6188952068137 -234.6096680343159 -536.3349070783705 -203.63399491855768 0.0 0.0
-831.6188952066773 -234.60966803441875 -536.3349070784514 203.63399491884655 0.0 0.0
-823.0059928369549 -145.6221017524364 -485.70637063479603 184.50363542795236 0.0 0.0
-788.8147335389319 -91.59258255500123 -440.40157558635093 175.34362978401248 0.0 0.0
-780.2783236762562 -78.50314506678447 -428.54477788696283 167.50053093088624 0.0 0.0
-759.72044977834 -63.046627538760845 -409.4414083370002 162.5323294793942 0.0 0.0
-730.5070686766765 -47.3820844020656 -386.0335490486418 160.32150890313915 0.0 0.0
-697.6127955487956 -34.66087151111013 -362.08207735883366 160.47002087254765 0.0 0.0
-662.9405226220676 -25.822911848874 -338.4946408613671 162.99763944905655 0.0 0.0
-625.7400496344094 -19.91796329564336 -313.54747258538356 167.256369149955 0.0 0.0
-583.6069912827467 -15.942238201737261 -284.31000818638574 172.21261018932395 0.0 0.0
-529.6610213544867 -10.72187116905182 -243.7054566160283 178.84145034060262 0.0 0.0
-453.5082397239946 -4.716270492034564 -188.40819038828988 190.38777109678992 0.0 0.0
-345.2690505080744 2.547770378818198 -124.29773204496279 206.41400810235132 0.0 0.0
-233.3729149327753 6.689206952280443 -74.06401227107578 214.50028914958096 0.0 0.0
-157.59398576456653 11.827986405884927 -45.27170792155775 206.9027147894292 0.0 0.0
-116.49168779960108 18.262919685771216 -29.829839742949243 194.64717134218373 0.0 0.0
-95.49187939062486 18.900775429345973 -23.048449038782103 188.92191615582806 0.0 0.0
-82.76922307220568 3.614375334099018 -23.780929100901552 190.1869755533908 0.0 0.0
-66.38866646597103 -50.86232922176952 -35.18205754435219 188.92344193069567 0.0 0.0
-23.594111550106554 -216.13081803516863 -71.9143212576162 131.04859866826018 0.0 0.0
-28.11114219753418 -170.90926616980207 -59.70612251020087 -116.39324413756583 0.0 0.0
-79.44207622597915 -48.28677477406251 -38.315882829098726 -181.37244511714042 0.0 0.0
-112.54676724557775 3.27334965385145 -32.809424668176085 -185.39231556830293 0.0 0.0
-143.18732041793882 19.10422396583412 -37.34563378842123 -182.68612764796555 0.0 0.0
-185.70625806528324 20.198854634310052 -50.34568468008885 -184.39458993555485 0.0 0.0
-254.90487269504337 16.215146156213326 -75.24168780915974 -190.052601182678 0.0 0.0
-361.3609804525205 12.449813265481456 -122.39905711126549 -186.62110294053474 0.0 0.0
-476.57901157633205 2.614094185146101 -193.72530661075444 -172.64131432706847 0.0 0.0
-567.1115761413282 -8.405239220966301 -262.2253606883673 -163.39655751905318 0.0 0.0
-633.6260773422387 -18.2709859853923 -312.96576500747324 -158.45923273078978 0.0 0.0
-686.5882194058456 -25.752327653939687 -348.9178873282401 -154.58138223779318 0.0 0.0
-732.1459755607796 -33.98525118218443 -378.2762986493917 -150.39164836075267 0.0 0.0
-774.156820844215 -43.24508700513309 -405.099938038082 -146.38769684546565 0.0 0.0
-814.9264572677032 -55.43873983824298 -432.19724786487717 -143.77891946969763 0.0 0.0
-855.7420360557804 -72.13336605284093 -461.36772304443195 -143.71172230432714 0.0 0.0
-894.5198030772644 -92.33720076063923 -491.30784283185335 -146.71917630206 0.0 0.0
-928.699144789395 -113.9020434035624 -519.6230296468975 -152.47781413963133 0.0 0.0
-966.9945807112895 -146.9668430775409 -555.6983966144567 -158.8142743714161 0.0 0.0
-1010.2500609641538 -196.28240200433248 -602.2571716467592 -164.48100970554248 0.0 0.0
-1108.968266258151 -332.0395026159687 -718.7656405884421 -171.34799308358814 0.0 0.0
-1108.9682662576747 -332.0395026158093 -718.7656405882008 171.34799308396194 0.0 0.0
-1010.2500609631395 -196.28240200339394 -602.2571716460582 164.48100970576309 0.0 0.0
-966.9945807102563 -146.96684307667988 -555.6983966137277 158.81427437157726 0.0 0.0
-928.6991447886919 -113.90204340294252 -519.6230296463694 152.4778141397131 0.0 0.0
-894.5198030777159 -92.33720076125783 -491.3078428320555 146.71917630213585 0.0 0.0
-855.7420360562955 -72.133366053627 -461.36772304478166 143.711722304432 0.0 0.0
-814.9264572667063 -55.43873983749093 -432.197247864213 143.77891946987992 0.0 0.0
-774.1568208435644 -43.24508700456799 -405.0999380375856 146.38769684538877 0.0 0.0
-732.1459755603589 -33.98525118216265 -378.27629864915195 150.3916483609212 0.0 0.0
-686.588219405045 -25.752327653397973 -348.91788732771715 154.58138223780182 0.0 0.0
-633.6260773415481 -18.270985984892285 -312.9657650070351 158.45923273066714 0.0 0.0
-567.1115761409765 -8.405239220964672 -262.2253606881168 163.39655751901978 0.0 0.0
-476.5790115754586 2.614094185889946 -193.72530661008184 172.64131432693134 0.0 0.0
-361.3609804516427 12.449813266036948 -122.39905711071415 186.62110294045732 0.0 0.0
-254.9048726945735 16.215146156280316 -75.24168780897497 190.05260118252434 0.0 0.0
-185.70625806481445 20.198854634841076 -50.34568467979107 184.39458993541405 0.0 0.0
-143.18732041768823 19.10422396611019 -37.34563378826786 182.68612764780818 0.0 0.0
-112.54676724541348 3.2733496539640163 -32.80942466809902 185.3923155681454 0.0 0.0
-79.44207622586754 -48.28677477386903 -38.31588282900829 181.3724451170462 0.0 0.0
-28.111142197459657 -170.90926616957836 -59.70612251011139 116.39324413736085 0.0 0.0
-29.735097957894737 -129.66643145362332 -47.82045882345541 -101.05314268029119 0.0 0.0
-90.25463064767281 -43.46229850306284 -40.11455171394501 -169.39101647852186 0.0 0.0
-140.48224607383247 2.824476884829754 -41.3138309837976 -176.3649519558857 0.0 0.0
-188.98443717617616 18.271825310479016 -51.40003077306098 -171.63228440672123 0.0 0.0
-251.46919845524997 21.551763768105 -70.1699977732047 -168.87402714483363 0.0 0.0
-343.55639028784503 21.157354725300422 -105.39798977842821 -166.28740285219004 0.0 0.0
-458.37204892770893 14.196200875570298 -170.00881694020393 -154.03592770899647 0.0 0.0
-560.289925317951 0.8541152579286546 -247.89558413761836 -144.11001911271862 0.0 0.0
-639.4940767348562 -12.426697659494153 -310.87467866972406 -141.27450335263896 0.0 0.0
-703.2726036060002 -24.672350685029386 -356.4376496118924 -139.54880569664897 0.0 0.0
-757.633748997252 -35.767370709793724 -391.9499344187426 -136.7898572131524 0.0 0.0
-807.5763884659343 -47.90711936377511 -424.1951599273087 -133.18127926481512 0.0 0.0
-854.1971995697504 -60.70210260240796 -454.55188738764775 -129.36734801659372 0.0 0.0
-899.7560905726727 -76.2126530554811 -485.45476256970176 -126.58306264109453 0.0 0.0
-945.9406448468067 -96.25822319625064 -518.8049589529289 -126.45507331531749 0.0 0.0
-993.3335066128391 -122.0989517902344 -555.6623444887746 -129.63890504802723 0.0 0.0
-1042.820733637202 -155.40723843121305 -597.3061465352571 -135.01732907903227 0.0 0.0
-1096.4530750357578 -199.29151860487286 -646.2434863233846 -139.93463169852808 0.0 0.0
-1167.9812188142987 -270.9821725682066 -717.6987231965404 -141.04380891483098 0.0 0.0
-1264.772440170826 -395.0310317657851 -828.0291753687296 -142.27666452305746 0.0 0.0
-1264.7724401706323 -395.0310317656844 -828.029175368597 142.2766645232062 0.0 0.0
-1167.981218814035 -270.98217256816906 -717.6987231964052 141.04380891513856 0.0 0.0
-1096.4530750352185 -199.29151860451628 -646.2434863230326 139.9346316987079 0.0 0.0
-1042.8207336358932 -155.40723842987916 -597.3061465343042 135.0173290789256 0.0 0.0
-993.3335066126364 -122.09895179011602 -555.6623444886336 129.63890504792442 0.0 0.0
-945.940644846886 -96.25822319645286 -518.8049589529937 126.45507331532217 0.0 0.0
-899.7560905719124 -76.21265305483949 -485.45476256925673 126.58306264098907 0.0 0.0
-854.1971995690453 -60.7021026016874 -454.5518873870989 129.36734801633935 0.0 0.0
-807.5763884645067 -47.907119362460335 -424.1951599263509 133.18127926470112 0.0 0.0
-757.6337489960852 -35.7673707087347 -391.94993441796515 136.789857212972 0.0 0.0
-703.2726036064005 -24.672350685762176 -356.43764961209047 139.54880569664647 0.0 0.0
-639.4940767350424 -12.42669766018875 -310.8746786698439 141.2745033527546 0.0 0.0
-560.2899253171988 0.8541152585781937 -247.89558413697233 144.1100191124873 0.0 0.0
-458.3720489270702 14.196200875691918 -170.0088169397915 154.03592770906127 0.0 0.0
-343.55639028748715 21.157354725157678 -105.39798977829643 166.28740285208275 0.0 0.0
-251.4691984549811 21.551763767914544 -70.16999777318595 168.87402714471915 0.0 0.0
-188.98443717611877 18.271825310114657 -51.40003077316344 171.63228440664648 0.0 0.0
-140.4822460738659 2.8244768845422046 -41.31383098389988 176.3649519557174 0.0 0.0
-90.25463064772308 -43.462298503316674 -40.114551714036416 169.39101647843012 0.0 0.0
-29.73509795798234 -129.6664314537352 -47.82045882351526 101.05314268019296 0.0 0.0
-30.644647614268372 -93.0787366604705 -37.117015282421654 -85.29573887770067 0.0 0.0
-99.75254609095445 -36.92120397583366 -41.00212502003643 -153.30834139948718 0.0 0.0
-166.61498996865606 2.392707834602893 -49.27166621976798 -162.85720625222675 0.0 0.0
-233.10364284245327 16.661188653521624 -65.08815413564164 -156.26558995402502 0.0 0.0
-313.9482649225171 23.27292663592833 -89.46164923150926 -149.0036799970742 0.0 0.0
-420.21178300970666 23.602762269103586 -137.20408869174307 -137.11122914950198 0.0 0.0
-529.2327688526598 13.619800201591254 -213.19891959634734 -123.6735023098156 0.0 0.0
-619.3438146994818 -0.8204503434279786 -288.4147789952579 -119.91063351121836 0.0 0.0
-693.0690222936728 -15.890211104931382 -344.88606434457165 -120.64995384509874 0.0 0.0
-756.530475157979 -30.32957350370809 -388.10789769315335 -120.51983777341945 0.0 0.0
-814.5155144070982 -45.5449403588005 -426.27807164039524 -118.53432184702216 0.0 0.0
-868.7243472411369 -61.75569974822946 -462.2582469331125 -115.40559660003687 0.0 0.0
-919.7833769506003 -78.49083536019086 -496.6425297572684 -111.90896222358018 0.0 0.0
-969.3289294861061 -96.83921387227167 -530.8747621401956 -109.09390619524329 0.0 0.0
-1020.7267858837322 -120.30003190736846 -568.4391192553256 -108.59257041143405 0.0 0.0
-1076.9952496531055 -153.10853408591268 -613.0842218533716 -111.241250122205 0.0 0.0
-1140.1183908900325 -197.33793958429845 -666.8844576406472 -116.02424329561006 0.0 0.0
-1212.4829746356716 -257.4817028158573 -733.1703263831253 -119.50980472411435 0.0 0.0
-1295.6318812945847 -339.87995490039617 -815.9121790323238 -119.52213175011521 0.0 0.0
-1380.7274482356825 -450.00970077722434 -913.620879543977 -121.73686847355913 0.0 0.0
-1380.7274482349035 -450.00970077648844 -913.6208795435225 121.73686847370396 0.0 0.0
-1295.6318812941697 -339.8799549000843 -815.9121790321362 119.52213175028379 0.0 0.0
-1212.4829746354894 -257.48170281578666 -733.1703263831438 119.50980472425371 0.0 0.0
-1140.1183908902233 -197.3379395846136 -666.8844576407876 116.02424329568288 0.0 0.0
-1076.9952496531205 -153.10853408606943 -613.0842218533412 111.24125012223112 0.0 0.0
-1020.726785883178 -120.30003190697246 -568.4391192549253 108.59257041149901 0.0 0.0
-969.3289294863366 -96.83921387273267 -530.8747621402238 109.0939061953724 0.0 0.0
-919.7833769506806 -78.49083536050566 -496.64252975731347 111.90896222359568 0.0 0.0
-868.7243472409082 -61.75569974822757 -462.2582469329798 115.40559660002901 0.0 0.0
-814.5155144064228 -45.54494035829967 -426.27807163993884 118.53432184690838 0.0 0.0
-756.5304751567181 -30.329573502596443 -388.10789769235134 120.51983777319563 0.0 0.0
-693.0690222925992 -15.890211103981162 -344.88606434383405 120.64995384492576 0.0 0.0
-619.343814699077 -0.8204503433773453 -288.41477899494356 119.91063351121335 0.0 0.0
-529.2327688520691 13.619800201683752 -213.19891959589933 123.67350230991919 0.0 0.0
-420.2117830095825 23.602762268630137 -137.2040886916989 137.11122914949777 0.0 0.0
-313.9482649223116 23.2729266355143 -89.46164923155752 149.0036799970082 0.0 0.0
-233.1036428421928 16.66118865359768 -65.08815413554794 156.26558995391235 0.0 0.0
-166.61498996854377 2.3927078346276733 -49.271666219731564 162.85720625208677 0.0 0.0
-99.75254609085998 -36.92120397580537 -41.0021250199996 153.3083413994231 0.0 0.0
-30.64464761415234 -93.07873666020689 -37.11701528230776 85.29573887758536 0.0 0.0
-31.424698808344495 -61.68626179621173 -27.933288181366866 -69.10088257350715 0.0 0.0
-108.40108197178989 -29.238821531227455 -41.2919710509052 -133.54599860700037 0.0 0.0
-191.19583449447515 1.871049453408201 -56.795248406499596 -144.94770674961313 0.0 0.0
-274.48229316896425 14.479078431786315 -78.24325991645823 -136.56117065658168 0.0 0.0
-371.8189171690504 25.0324585393351 -108.99759536460823 -124.75303213881854 0.0 0.0
-483.2147318870658 23.3948666825221 -169.83524976816116 -106.9081751907585 0.0 0.0
-582.0378148065477 12.868476943414464 -249.69642211941772 -97.21741643590343 0.0 0.0
-663.8159191862585 -2.5852785210394416 -318.616256430461 -97.72114180955057 0.0 0.0
-734.9528303819548 -18.295845133734005 -369.8349066314437 -100.27323959798787 0.0 0.0
-800.6056624517316 -35.795680578066936 -413.95352302774336 -100.97946715238882 0.0 0.0
-862.5418903737543 -55.08990547022822 -455.6047001642978 -99.53917383300413 0.0 0.0
-921.149076718697 -75.56083787533274 -495.7215990433236 -96.97879340153432 0.0 0.0
-976.8366476108692 -96.42811720408795 -534.4098089851881 -94.06646896700073 0.0 0.0
-1030.3597221288683 -118.16766304274736 -572.2968454632055 -91.27467058961113 0.0 0.0
-1086.141465376369 -144.77596728566988 -613.5682803615446 -90.05676210184416 0.0 0.0
-1150.8062208332829 -183.74603261200681 -665.3878642628008 -91.73452979406282 0.0 0.0
-1227.251585832403 -239.88409852786725 -731.6983928428771 -95.56637345748342 0.0 0.0
-1314.5538040649099 -314.1661748445884 -812.5186080895049 -98.91757407544702 0.0 0.0
-1403.8336567157824 -402.9332177429162 -901.5940964711615 -100.73227591393922 0.0 0.0
-1482.035468695123 -504.91997402062503 -991.8596927293088 -106.46292254374346 0.0 0.0
-1482.0354686946355 -504.91997402021445 -991.8596927289851 106.46292254387811 0.0 0.0
-1403.8336567159101 -402.93321774316996 -901.5940964712781 100.73227591418046 0.0 0.0
-1314.5538040634608 -314.16617484327094 -812.5186080884712 98.91757407563176 0.0 0.0
-1227.25158583232 -239.88409852788558 -731.698392842635 95.5663734574826 0.0 0.0
-1150.8062208330052 -183.7460326118703 -665.3878642625028 91.73452979411003 0.0 0.0
-1086.1414653759784 -144.7759672854485 -613.5682803613175 90.05676210190704 0.0 0.0
-1030.3597221288144 -118.16766304284036 -572.2968454631961 91.2746705895319 0.0 0.0
-976.8366476109652 -96.42811720435239 -534.4098089852391 94.06646896696473 0.0 0.0
-921.1490767180488 -75.5608378749657 -495.7215990429336 96.97879340163654 0.0 0.0
-862.5418903726111 -55.08990546933369 -455.60470016357 99.5391738330228 0.0 0.0
-800.6056624515949 -35.79568057824552 -413.9535230276308 100.97946715242276 0.0 0.0
-734.9528303821287 -18.295845134282153 -369.83490663156323 100.27323959804241 0.0 0.0
-663.8159191864943 -2.5852785216298493 -318.6162564305154 97.72114180952022 0.0 0.0
-582.0378148067563 12.868476942688936 -249.6964221194488 97.21741643603738 0.0 0.0
-483.2147318866697 23.394866682518902 -169.83524976788053 106.90817519073615 0.0 0.0
-371.8189171684688 25.032458539567557 -108.99759536433287 124.75303213868979 0.0 0.0
-274.4822931686149 14.47907843199705 -78.24325991630359 136.56117065652785 0.0 0.0
-191.19583449428865 1.8710494536546944 -56.79524840637054 144.94770674954424 0.0 0.0
-108.40108197164362 -29.238821531128174 -41.29197105083154 133.545998607026 0.0 0.0
-31.424698808305866 -61.68626179605754 -27.933288181309017 69.10088257350715 0.0 0.0
-31.9785157259073 -35.97203235498571 -20.3851644242679 -52.41485557186185 0.0 0.0
-116.08454190086098 -20.971466299065554 -41.116802459977954 -110.50399519676373 0.0 0.0
-214.47596283735896 1.1689499413181172 -63.99134338472313 -122.62838248394846 0.0 0.0
-314.86324128639075 12.648530845634227 -90.98515062649942 -113.2543656353131 0.0 0.0
-426.0948549724228 25.51385257025251 -130.05371807281696 -96.82140672428605 0.0 0.0
-532.7333437157813 22.381009175422676 -200.99506771081954 -78.54743908116833 0.0 0.0
-620.7212838583866 11.071995990304508 -279.28386122971693 -73.6023852478933 0.0 0.0
-698.0619604974238 -2.9851914753253794 -340.32917234330796 -76.43983686079119 0.0 0.0
-769.7048594390708 -20.348720801307593 -389.77819261414345 -79.61579607516178 0.0 0.0
-838.2377544690987 -41.246608194176275 -436.1213205254597 -80.72098274242724 0.0 0.0
-903.9809105699235 -64.34460519513422 -481.31335819675354 -79.7952913850988 0.0 0.0
-967.1954061360775 -89.09116644752294 -525.7680061325191 -77.87122042784316 0.0 0.0
-1027.7544809698693 -114.56897028384392 -569.1279368251504 -75.622239700355 0.0 0.0
-1086.4997881115228 -140.76790329085856 -611.8405293006861 -73.18158661436588 0.0 0.0
-1146.3560018595897 -170.49142708702746 -656.7044043078324 -71.16312697312966 0.0 0.0
-1215.818504671916 -213.37715527915893 -712.7957804078516 -71.16936588690166 0.0 0.0
-1303.7265163984564 -279.47453919078566 -789.735223502484 -74.12486028298606 0.0 0.0
-1403.7598438885757 -365.79229816136115 -882.9566973952652 -78.56392815954406 0.0 0.0
-1501.6305451539833 -463.27336806267647 -980.7276257526553 -83.78862759442492 0.0 0.0
-1578.6580318399365 -563.2464975651725 -1069.429234833334 -94.17457725493037 0.0 0.0
-1578.6580318398278 -563.2464975651593 -1069.4292348332829 94.17457725512239 0.0 0.0
-1501.6305451538374 -463.27336806264583 -980.7276257525396 83.78862759468986 0.0 0.0
-1403.7598438899095 -365.7922981628334 -882.9566973961332 78.56392815971358 0.0 0.0
-1303.7265163981447 -279.4745391905451 -789.7352235022504 74.12486028289649 0.0 0.0
-1215.8185046707463 -213.37715527808433 -712.795780406982 71.1693658868528 0.0 0.0
-1146.356001859415 -170.49142708706273 -656.7044043076618 71.16312697333241 0.0 0.0
-1086.4997881110648 -140.76790329052824 -611.8405293003436 73.18158661423561 0.0 0.0
-1027.7544809693181 -114.56897028345335 -569.1279368247904 75.62223970026778 0.0 0.0
-967.1954061353254 -89.0911664470063 -525.7680061320393 77.87122042786942 0.0 0.0
-903.9809105692276 -64.3446051946404 -481.3133581962798 79.79529138492026 0.0 0.0
-838.2377544687446 -41.246608194059306 -436.1213205251942 80.72098274231097 0.0 0.0
-769.7048594381387 -20.348720800663123 -389.77819261355324 79.61579607519629 0.0 0.0
-698.0619604969755 -2.9851914751646618 -340.3291723429656 76.43983686066835 0.0 0.0
-620.7212838584257 11.071995989926641 -279.28386122963497 73.60238524773284 0.0 0.0
-532.7333437154932 22.381009175381713 -200.99506771053512 78.54743908107201 0.0 0.0
-426.09485497198665 25.513852570233595 -130.05371807261292 96.82140672422008 0.0 0.0
-314.86324128609147 12.648530845668729 -90.9851506264169 113.25436563519614 0.0 0.0
-214.47596283717274 1.1689499414181301 -63.99134338463815 122.6283824838894 0.0 0.0
-116.0845419007876 -20.971466299168306 -41.11680245998676 110.5039951966954 0.0 0.0
-31.978515725833706 -35.972032354938534 -20.385164424231668 52.41485557176363 0.0 0.0
-31.690930381125582 -16.392423678781913 -14.425006217972246 -35.35885606515282 0.0 0.0
-121.98500408659824 -12.593055067203837 -40.37341774614062 -84.40424909217796 0.0 0.0
-236.85452611296301 0.04582150248765515 -71.0426113831426 -95.84014344380472 0.0 0.0
-355.06084516420515 12.22226308294438 -103.41580837746704 -86.2680742525891 0.0 0.0
-473.449244335829 24.688147194212476 -152.61563643645712 -67.15426313531532 0.0 0.0
-571.3854873237724 20.107959283870983 -230.18219777021687 -53.350191610355076 0.0 0.0
-651.7302809305096 9.956110938298977 -302.5354219559501 -51.95557852733916 0.0 0.0
-725.9713643558619 -2.912680881287571 -356.9405535374757 -55.195982498697944 0.0 0.0
-798.9384815653311 -22.481959246035103 -406.39325167874415 -58.421364669955764 0.0 0.0
-870.5113757624404 -46.49287966034791 -455.3101983323131 -59.74909380689522 0.0 0.0
-940.3007789197065 -73.36922215770824 -504.2548206647202 -59.29940599182769 0.0 0.0
-1007.9690510757675 -102.28632174027496 -552.9513192632106 -57.99815719374895 0.0 0.0
-1074.0280415401535 -132.60355865598086 -601.4238646512922 -56.50019734310216 0.0 0.0
-1138.710127104364 -164.56561540849123 -649.9532654818406 -54.59693428110736 0.0 0.0
-1203.733050308949 -199.0878202706432 -699.8264599690076 -52.197339251389984 0.0 0.0
-1275.2157095047537 -242.93508503041085 -757.420457663764 -50.41379863993186 0.0 0.0
-1365.0934669651615 -310.0361181128043 -835.744857976059 -51.89767509386228 0.0 0.0
-1480.5836956949497 -410.8789172585092 -943.9166109213407 -57.80291118340394 0.0 0.0
-1592.5158042213202 -521.6733115420966 -1055.425593256061 -67.49493559294083 0.0 0.0
-1678.9708268048112 -629.5611199674962 -1152.8119313040083 -83.47311325674804 0.0 0.0
-1678.9708268053423 -629.5611199680875 -1152.811931304344 83.47311325691717 0.0 0.0
-1592.515804221346 -521.6733115422098 -1055.4255932561305 67.49493559311057 0.0 0.0
-1480.5836956950097 -410.87891725866746 -943.9166109212995 57.80291118348293 0.0 0.0
-1365.093466965479 -310.03611811323333 -835.7448579760312 51.897675093913506 0.0 0.0
-1275.215709504335 -242.93508503014138 -757.420457663307 50.41379863999856 0.0 0.0
-1203.7330503078329 -199.08782026967387 -699.8264599682434 52.19733925137544 0.0 0.0
-1138.7101271047404 -164.56561540901842 -649.9532654820161 54.59693428099912 0.0 0.0
-1074.0280415398292 -132.60355865584165 -601.4238646510147 56.50019734300369 0.0 0.0
-1007.9690510756742 -102.28632174039548 -552.9513192631218 57.998157193700365 0.0 0.0
-940.3007789191197 -73.36922215738468 -504.2548206643501 59.29940599182451 0.0 0.0
-870.5113757610936 -46.49287965917639 -455.310198331449 59.7490938066202 0.0 0.0
-798.9384815648077 -22.481959245809016 -406.3932516783669 58.42136466997076 0.0 0.0
-725.9713643554679 -2.912680881173003 -356.94055353718863 55.19598249855627 0.0 0.0
-651.7302809296066 9.956110938944832 -302.5354219553159 51.955578527256876 0.0 0.0
-571.3854873233217 20.1079592839361 -230.18219776979203 53.35019161034094 0.0 0.0
-473.4492443357776 24.688147193749646 -152.61563643645184 67.15426313540405 0.0 0.0
-355.0608451640069 12.222263082677411 -103.41580837750942 86.26807425257722 0.0 0.0
-236.85452611274283 0.04582150260641393 -71.04261138304092 95.84014344368516 0.0 0.0
-121.98500408652619 -12.593055067185151 -40.3734177461134 84.40424909219931 0.0 0.0
-31.690930381066135 -16.392423678792653 -14.425006217957636 35.3588560651272 0.0 0.0
-29.251415549354974 -3.330105141756516 -9.774456207333445 -18.449408195513158 0.0 0.0
-124.38588007895237 -4.7174635074868885 -38.73100307593177 -55.21183046877013 0.0 0.0
-258.7525185775707 -1.3124641635228738 -78.01949482232808 -64.07445504316925 0.0 0.0
-396.63948412599945 13.11320846515233 -116.45912963609605 -55.70283874132059 0.0 0.0
-512.460518898441 23.405038249093916 -175.82249827698976 -38.78690063613406 0.0 0.0
-599.7850128307257 16.693225472344857 -255.98451199484884 -30.672033386468637 0.0 0.0
-675.9303748590893 10.179286595680779 -319.51336560799143 -31.16669579137968 0.0 0.0
-749.1905639512657 -3.4280500277706665 -370.5298092382252 -33.94061869487791 0.0 0.0
-823.2649761175987 -24.443046975997078 -420.1642805209261 -36.667999821431344 0.0 0.0
-898.0791970366 -51.49445367237985 -471.91678256149066 -38.01871779106556 0.0 0.0
-972.061617260011 -82.18108488319578 -524.7595633987928 -38.03312000562565 0.0 0.0
-1044.5989893452543 -115.13783934846148 -577.8531996258057 -37.382731636870496 0.0 0.0
-1116.0028097959644 -150.63944835665515 -631.5425727411551 -36.50177825217903 0.0 0.0
-1187.4087067504427 -188.73307432301968 -686.4580434935456 -35.29906462673921 0.0 0.0
-1259.4826518082393 -230.00822137759275 -743.2398881438739 -33.3410979213195 0.0 0.0
-1333.3642646315607 -276.1362526577089 -803.258378624827 -30.612942978661682 0.0 0.0
-1416.2787742459495 -335.70904788350043 -874.3531269310271 -29.579424862475584 0.0 0.0
-1525.6260083660713 -428.98791481624835 -975.4678334757818 -35.29088413287753 0.0 0.0
-1684.5674902964229 -584.5131419942356 -1132.8536977508575 -50.094744397678056 0.0 0.0
-1792.3277667964687 -711.2731425724928 -1250.4071824845992 -73.37295792051404 0.0 0.0
-1792.3277667971468 -711.2731425732006 -1250.4071824852076 73.37295792059784 0.0 0.0
-1684.5674902958037 -584.5131419936956 -1132.8536977503381 50.09474439783573 0.0 0.0
-1525.6260083650036 -428.98791481525654 -975.4678334748339 35.290884132934615 0.0 0.0
-1416.2787742458004 -335.7090478834583 -874.3531269309105 29.579424862516092 0.0 0.0
-1333.3642646309147 -276.1362526572017 -803.2583786243118 30.61294297877574 0.0 0.0
-1259.4826518084922 -230.00822137802393 -743.2398881439112 33.34109792145081 0.0 0.0
-1187.4087067505006 -188.73307432324748 -686.4580434934953 35.29906462671163 0.0 0.0
-1116.002809794709 -150.63944835561657 -631.5425727402531 36.501778252307055 0.0 0.0
-1044.5989893433366 -115.1378393467703 -577.853199624421 37.38273163688926 0.0 0.0
-972.0616172595727 -82.18108488304989 -524.7595633983849 38.033120005806495 0.0 0.0
-898.0791970357861 -51.49445367186577 -471.91678256092473 38.01871779123731 0.0 0.0
-823.2649761165425 -24.44304697524707 -420.16428052023764 36.66799982149756 0.0 0.0
-749.1905639512246 -3.4280500280198893 -370.52980923814476 33.940618694759785 0.0 0.0
-675.9303748584955 10.179286595978056 -319.51336560755385 31.1666957913197 0.0 0.0
-599.7850128306103 16.693225472125995 -255.98451199465433 30.672033386295105 0.0 0.0
-512.4605188980838 23.405038249157275 -175.82249827671276 38.78690063593426 0.0 0.0
-396.6394841255526 13.113208465242456 -116.459129635946 55.70283874118064 0.0 0.0
-258.75251857742103 -1.3124641636539116 -78.01949482232246 64.07445504318633 0.0 0.0
-124.38588007885494 -4.7174635075549425 -38.73100307592296 55.21183046875305 0.0 0.0
-29.25141554934063 -3.3301051416981355 -9.774456207311628 18.449408195325272 0.0 0.0
-22.15050392038261 2.950772932360707 -5.75991929640657 -2.9686441738345613 0.0 0.0
-120.16177333794393 1.7945430551600854 -35.51016908483515 -22.354705706977967 0.0 0.0
-281.36186458546433 -2.3534437714659457 -85.11459250707908 -26.27122271328023 0.0 0.0
-436.77655894837915 15.272743452738679 -130.90240430101787 -22.40654411939099 0.0 0.0
-545.1414862943245 20.97632453502542 -199.75796770351735 -13.174962578071947 0.0 0.0
-624.4237262839524 14.894411109534296 -277.3643581815643 -10.22771028701542 0.0 0.0
-695.8033991237575 9.73440424987615 -333.08554638942337 -10.789223386248818 0.0 0.0
-768.0968921035308 -4.014108751670079 -381.4258364820871 -12.591484715667448 0.0 0.0
-843.482700482791 -26.459360649424326 -431.75776772342203 -14.38146656454099 0.0 0.0
-921.4195390001378 -56.18897281116534 -486.200792375742 -15.525316497048294 0.0 0.0
-999.8068887938593 -90.53493451768301 -542.9844319661346 -15.977167257260554 0.0 0.0
-1077.2830372685578 -128.20732067983317 -600.8628797774054 -15.929158547227711 0.0 0.0
-1154.3346694594343 -168.47828278182297 -659.7254011016953 -15.69694041067153 0.0 0.0
-1232.2682114303416 -212.42512585907792 -720.7954620528993 -15.186040502751379 0.0 0.0
-1311.8504716790833 -260.9978263958799 -784.962993644866 -14.11744552797301 0.0 0.0
-1392.1445975744723 -313.70107705529597 -851.519876374746 -12.184904503388708 0.0 0.0
-1471.0095222193775 -369.36428329106093 -918.7736359284238 -9.714518690132355 0.0 0.0
-1554.300235252481 -435.59309918734135 -993.3533128312253 -11.109156135939912 0.0 0.0
-1677.1862788266567 -551.3526180954175 -1112.3755044954187 -27.025513667497027 0.0 0.0
-1995.4532682380652 -882.622221654701 -1437.654163886072 -60.72980595905625 0.0 0.0
-1995.4532682380645 -882.6222216547194 -1437.6541638860417 60.72980595906133 0.0 0.0
-1677.1862788265812 -551.3526180953944 -1112.3755044952325 27.02551366744965 0.0 0.0
-1554.3002352517624 -435.5930991866944 -993.3533128306476 11.109156135934509 0.0 0.0
-1471.0095222193065 -369.3642832910964 -918.7736359283081 9.714518690165914 0.0 0.0
-1392.1445975747533 -313.70107705572326 -851.519876374853 12.184904503476375 0.0 0.0
-1311.8504716783934 -260.99782639534345 -784.9629936444042 14.11744552808188 0.0 0.0
-1232.2682114302174 -212.42512585913718 -720.7954620528144 15.186040502712295 0.0 0.0
-1154.3346694584407 -168.47828278102654 -659.7254011009289 15.696940410699472 0.0 0.0
-1077.2830372680228 -128.20732067954384 -600.8628797770677 15.929158547235275 0.0 0.0
-999.8068887928448 -90.53493451691622 -542.9844319655228 15.977167257322193 0.0 0.0
-921.4195389984027 -56.18897280970786 -486.2007923746427 15.525316497154375 0.0 0.0
-843.4827004826768 -26.459360649598537 -431.757767723338 14.381466564578771 0.0 0.0
-768.0968921039223 -4.014108752381773 -381.42583648232153 12.59148471568082 0.0 0.0
-695.8033991237766 9.734404249525255 -333.08554638942076 10.78922338623512 0.0 0.0
-624.4237262837593 14.894411109371035 -277.3643581813706 10.227710287062393 0.0 0.0
-545.1414862940687 20.97632453495777 -199.75796770328967 13.174962578160969 0.0 0.0
-436.7765589478273 15.272743452910689 -130.90240430077444 22.40654411939768 0.0 0.0
-281.3618645851997 -2.3534437714257024 -85.1145925069876 26.271222713220446 0.0 0.0
-120.16177333783324 1.7945430552075248 -35.51016908478771 22.354705706896837 0.0 0.0
-22.150503920294675 2.9507729322527525 -5.759919296412576 2.9686441737320792 0.0 0.0
SCALARS Strain float 6
LOOKUP_TABLE default
0.012454555579279637 -0.013522823723808308 0.0 -0.0075129616351655715 0.0 0.0
0.0025493412674124118 -0.0016608226588606945 0.0 0.0012608945339349087 0.0 0.0
0.0018578815799951479 -0.0007613687760725796 0.0 -3.7182178179218095e-05 0.0 0.0
0.0023975259811285926 -0.0011877881445703231 0.0 -0.00023103942874319605 0.0 0.0
0.003847835148489128 -0.0023815039200234533 0.0 -0.0003004346876303021 0.0 0.0
0.006834186387020474 -0.005066829777012005 0.0 -0.00047038659773301905 0.0 0.0
0.011704123473599271 -0.009668598898675551 0.0 -0.0007633581350978691 0.0 0.0
0.018786872174072735 -0.016480462392855166 0.0 -0.0012199995487601756 0.0 0.0
0.028250016130085605 -0.025647497517274243 0.0 -0.0018576416307445331 0.0 0.0
0.04006238676047954 -0.037136355484048256 0.0 -0.002621218620988186 0.0 0.0
0.054066341715082775 -0.050800587251317975 0.0 -0.0034137069370588913 0.0 0.0
0.07006885939542051 -0.06645518878987877 0.0 -0.004186098954854833 0.0 0.0
0.08787547834148157 -0.08390874266512016 0.0 -0.004944963071815689 0.0 0.0
0.10725772598219298 -0.10292845228513103 0.0 -0.005682535471627809 0.0 0.0
0.12783346843611432 -0.12312861598049363 0.0 -0.006362269237638107 0.0 0.0
0.1489311889053819 -0.1438414595934394 0.0 -0.006846803817997793 0.0 0.0
0.16953343757328157 -0.16406229539576245 0.0 -0.0068974743313443 0.0 0.0
0.18831598830435206 -0.1824802378063075 0.0 -0.006297134068525612 0.0 0.0
0.20370119421853247 -0.1975191398475058 0.0 -0.005378018641205462 0.0 0.0
0.21337422897742847 -0.20665347541928014 0.0 -0.006301966625687161 0.0 0.0
0.21337422897741373 -0.20665347541927126 0.0 0.006301966625695488 0.0 0.0
0.20370119421848892 -0.1975191398474614 0.0 0.005378018641228999 0.0 0.0
0.18831598830427998 -0.18248023780623512 0.0 0.006297134068538823 0.0 0.0
0.1695334375731886 -0.1640622953956692 0.0 0.006897474331353237 0.0 0.0
0.1489311889052798 -0.14384145959333772 0.0 0.006846803817988523 0.0 0.0
0.12783346843601096 -0.12312861598038838 0.0 0.006362269237634277 0.0 0.0
0.10725772598208982 -0.10292845228503067 0.0 0.005682535471629335 0.0 0.0
0.08787547834138049 -0.08390874266502246 0.0 0.004944963071814246 0.0 0.0
0.07006885939532148 -0.0664551887897824 0.0 0.0041860989548485605 0.0 0.0
0.054066341714995636 -0.05080058725123493 0.0 0.003413706937052563 0.0 0.0
0.04006238676040641 -0.037136355483977646 0.0 0.0026212186209760846 0.0 0.0
0.0282500161300277 -0.025647497517218287 0.0 0.0018576416307417576 0.0 0.0
0.018786872174031854 -0.016480462392815642 0.0 0.0012199995487562343 0.0 0.0
0.01170412347357136 -0.009668598898647573 0.0 0.0007633581350950935 0.0 0.0
0.006834186387003005 -0.005066829776996684 0.0 0.00047038659773207536 0.0 0.0
0.0038478351484810824 -0.0023815039200183463 0.0 0.00030043468763046866 0.0 0.0
0.0023975259811266914 -0.0011877881445688798 0.0 0.00023103942874225236 0.0 0.0
0.001857881579994669 -0.0007613687760726906 0.0 3.718217817938463e-05 0.0 0.0
0.0025493412674101323 -0.001660822658858252 0.0 -0.0012608945339322997 0.0 0.0
0.012454555579268778 -0.01352282372379359 0.0 0.00751296163513171 0.0 0.0
0.008897199139881122 -0.010344049437125025 0.0 -0.009118642860947324 0.0 0.0
0.0013727088747612082 -0.0008337365872835845 0.0 0.00012576654650942043 0.0 0.0
0.0015845540447316925 -0.0005593063502253859 0.0 -0.00012674664013589965 0.0 0.0
0.0020935590212445288 -0.0009834455457333746 0.0 -0.0004916383908564748 0.0 0.0
0.003252587578417225 -0.001887773044147334 0.0 -0.00066896057351995 0.0 0.0
0.0058141892559043645 -0.004135769114596011 0.0 -0.0010847973647531983 0.0 0.0
0.010161591602283332 -0.008193702645165724 0.0 -0.001820833337908112 0.0 0.0
0.01656927067996846 -0.0143236564459297 0.0 -0.0029016736968914825 0.0 0.0
0.025144825219454027 -0.022609903308842938 0.0 -0.0043336533549412914 0.0 0.0
0.03580847292028199 -0.03296706030948293 0.0 -0.005986979013746119 0.0 0.0
0.04838637790820201 -0.04522993452480284 0.0 -0.007676781137042177 0.0 0.0
0.0627140285499683 -0.05923876806513162 0.0 -0.009297536738062995 0.0 0.0
0.07865868076697166 -0.07485896522415425 0.0 -0.010906097054439234 0.0 0.0
0.09604152085391701 -0.09190946380640819 0.0 -0.012511864739871481 0.0 0.0
0.1145362334540262 -0.11006290021362508 0.0 -0.013998333373883731 0.0 0.0
0.1335748446408202 -0.12875330871557855 0.0 -0.015093273560111031 0.0 0.0
0.15228016749274725 -0.14710848989584235 0.0 -0.015340303373839514 0.0 0.0
0.1694387912932154 -0.1639170441076261 0.0 -0.014410929278791396 0.0 0.0
0.18337283297989457 -0.1774600953650065 0.0 -0.012589638535725034 0.0 0.0
0.19177912472683595 -0.1855665261837185 0.0 -0.009687907008950725 0.0 0.0
0.19177912472682213 -0.1855665261837034 0.0 0.009687907008976926 0.0 0.0
0.1833728329798543 -0.17746009536496965 0.0 0.01258963853576911 0.0 0.0
0.16943879129315198 -0.16391704410756658 0.0 0.014410929278818263 0.0 0.0
0.15228016749266648 -0.14710848989576908 0.0 0.015340303373853725 0.0 0.0
0.13357484464072997 -0.12875330871549062 0.0 0.015093273560102038 0.0 0.0
0.11453623345393285 -0.11006290021353182 0.0 0.013998333373877236 0.0 0.0
0.09604152085382461 -0.09190946380631848 0.0 0.012511864739868428 0.0 0.0
0.07865868076688082 -0.07485896522407032 0.0 0.010906097054434682 0.0 0.0
0.0627140285498809 -0.059238768065048575 0.0 0.009297536738050338 0.0 0.0
0.04838637790812372 -0.045229934524729565 0.0 0.007676781137032518 0.0 0.0
0.03580847292021638 -0.03296706030942209 0.0 0.005986979013731908 0.0 0.0
0.025144825219401923 -0.022609903308794976 0.0 0.004333653354937295 0.0 0.0
0.01656927067993108 -0.01432365644589395 0.0 0.002901673696885876 0.0 0.0
0.01016159160225849 -0.00819370264514152 0.0 0.0018208333379039487 0.0 0.0
0.005814189255889779 -0.0041357691145846864 0.0 0.0010847973647506448 0.0 0.0
0.0032525875784107927 -0.0018877730441435592 0.0 0.0006689605735194504 0.0 0.0
0.0020935590212431965 -0.0009834455457294888 0.0 0.0004916383908555311 0.0 0.0
0.001584554044731623 -0.0005593063502240536 0.0 0.00012674664013584414 0.0 0.0
0.0013727088747605976 -0.0008337365872819746 0.0 -0.00012576654651141883 0.0 0.0
0.008897199139867362 -0.010344049437109148 0.0 0.009118642860917181 0.0 0.0
0.006616528306074204 -0.008235834090535965 0.0 -0.008470388289606057 0.0 0.0
0.0008041714495241395 -0.0005471699206253122 0.0 -0.0005896981517138911 0.0 0.0
0.001268517388311255 -0.0004096828562786259 0.0 -0.0004403155338905118 0.0 0.0
0.00180631559957814 -0.0007973644314145378 0.0 -0.0007360762500946416 0.0 0.0
0.002723018389070943 -0.0014753823887545536 0.0 -0.0009824050480695123 0.0 0.0
0.004836102777666815 -0.0032656497406045037 0.0 -0.0015382587639223289 0.0 0.0
0.008631969206913948 -0.006744444371323599 0.0 -0.002601903211766343 0.0 0.0
0.01432623797258032 -0.012155500890681292 0.0 -0.004190277349384319 0.0 0.0
0.021979184876474968 -0.01952433783076435 0.0 -0.006246180783102351 0.0 0.0
0.03147135988830703 -0.028728040155651335 0.0 -0.008584240626291484 0.0 0.0
0.04261829701826528 -0.039584517395144125 0.0 -0.010972001471364456 0.0 0.0
0.05527429790405626 -0.05194890045434919 0.0 -0.013274002153807307 0.0 0.0
0.06934335099885645 -0.06572272132524848 0.0 -0.015536832462888284 0.0 0.0
0.08470443540386674 -0.080783057920093 0.0 -0.01781013528715153 0.0 0.0
0.10110602540712375 -0.09687882507799017 0.0 -0.019952642308666446 0.0 0.0
0.11809152626698992 -0.11355273571372493 0.0 -0.02157079777243326 0.0 0.0
0.13492502713506815 -0.13006591176810245 0.0 -0.022112214385518247 0.0 0.0
0.15048227324208752 -0.14528080366705431 0.0 -0.021112662966117024 0.0 0.0
0.1631312603041677 -0.15759514180624912 0.0 -0.018085003862767457 0.0 0.0
0.17100830171689432 -0.1652293061260668 0.0 -0.012078850925817508 0.0 0.0
0.1710083017168816 -0.1652293061260579 0.0 0.012078850925856921 0.0 0.0
0.16313126030413128 -0.15759514180621803 0.0 0.018085003862827076 0.0 0.0
0.15048227324203112 -0.1452808036670028 0.0 0.021112662966157658 0.0 0.0
0.1349250271349979 -0.13006591176803717 0.0 0.022112214385537454 0.0 0.0
0.11809152626691108 -0.11355273571365343 0.0 0.021570797772422545 0.0 0.0
0.10110602540704078 -0.09687882507791468 0.0 0.01995264230865934 0.0 0.0
0.08470443540378486 -0.08078305792001039 0.0 0.01781013528714659 0.0 0.0
0.0693433509987757 -0.06572272132516943 0.0 0.015536832462880956 0.0 0.0
0.055274297903980196 -0.05194890045427103 0.0 0.013274002153789932 0.0 0.0
0.042618297018196194 -0.03958451739507085 0.0 0.010972001471349246 0.0 0.0
0.031471359888249006 -0.02872804015559227 0.0 0.008584240626268946 0.0 0.0
0.02197918487642858 -0.019524337830719496 0.0 0.006246180783091693 0.0 0.0
0.014326237972546618 -0.012155500890650872 0.0 0.004190277349373994 0.0 0.0
0.008631969206892742 -0.006744444371304725 0.0 0.0026019032117585716 0.0 0.0
0.004836102777654949 -0.0032656497405940677 0.0 0.0015382587639187761 0.0 0.0
0.0027230183890663007 -0.001475382388751001 0.0 0.000982405048067847 0.0 0.0
0.001806315599577446 -0.0007973644314140937 0.0 0.0007360762500944751 0.0 0.0
0.0012685173883116296 -0.00040968285627795975 0.0 0.00044031553388912403 0.0 0.0
0.0008041714495236607 -0.0005471699206223146 0.0 0.0005896981517122257 0.0 0.0
0.00661652830606152 -0.00823583409052156 0.0 0.008470388289583297 0.0 0.0
0.0050133790735781 -0.006644218410696401 0.0 -0.007207989486408051 0.0 0.0
0.0005030668817684741 -0.0004071292141535343 0.0 -0.0011915735977641728 0.0 0.0
0.00098292791808402 -0.0002995402533974012 0.0 -0.0008616895206540187 0.0 0.0
0.0015281493307671007 -0.0006364503108287067 0.0 -0.0010077124366662527 0.0 0.0
0.002256124748752239 -0.0011433804685001547 0.0 -0.0012665155822009222 0.0 0.0
0.003934845326569306 -0.0024957340096585234 0.0 -0.0018592399844954977 0.0 0.0
0.007129445941800691 -0.005350418440562166 0.0 -0.003116988139234611 0.0 0.0
0.012084560159689742 -0.010002636990069647 0.0 -0.005080107129553424 0.0 0.0
0.01878475834892307 -0.016425772178380704 0.0 -0.0075864098531561175 0.0 0.0
0.027086764998331153 -0.024456433309575143 0.0 -0.010417251489558355 0.0 0.0
0.03679523089774896 -0.033897972296769385 0.0 -0.013300014384845849 0.0 0.0
0.04777687975274718 -0.0446144934330408 0.0 -0.016097556790482914 0.0 0.0
0.05996758540088683 -0.056539598074720754 0.0 -0.01886222027403106 0.0 0.0
0.07329465635261964 -0.06959731112335366 0.0 -0.02160088117701786 0.0 0.0
0.08758298750737836 -0.08361549712026806 0.0 -0.024182636108679323 0.0 0.0
0.10249565222727643 -0.09825394665938658 0.0 -0.02624430653647447 0.0 0.0
0.11743870842788615 -0.11290656736364202 0.0 -0.02716045291526481 0.0 0.0
0.13142845171706222 -0.12658739526289242 0.0 -0.026172078589215775 0.0 0.0
0.14304754846011028 -0.13790937779734236 0.0 -0.022225121979986162 0.0 0.0
0.15070735927899623 -0.14535021521961777 0.0 -0.014026332976034395 0.0 0.0
0.1507073592789845 -0.14535021521960978 0.0 0.01402633297608391 0.0 0.0
0.14304754846007786 -0.13790937779731127 0.0 0.02222512198005444 0.0 0.0
0.13142845171701192 -0.12658739526284046 0.0 0.02617207858926318 0.0 0.0
0.11743870842782567 -0.11290656736358251 0.0 0.027160452915288902 0.0 0.0
0.10249565222720791 -0.09825394665931864 0.0 0.026244306536466033 0.0 0.0
0.08758298750730573 -0.0836154971201939 0.0 0.024182636108669442 0.0 0.0
0.07329465635254834 -0.06959731112328083 0.0 0.021600881177007758 0.0 0.0
0.05996758540081701 -0.05653959807465636 0.0 0.01886222027402018 0.0 0.0
0.04777687975268152 -0.04461449343297197 0.0 0.016097556790464984 0.0 0.0
0.03679523089768971 -0.03389797229670721 0.0 0.013300014384827974 0.0 0.0
0.02708676499828022 -0.024456433309527625 0.0 0.010417251489532098 0.0 0.0
0.018784758348882657 -0.016425772178342957 0.0 0.007586409853141518 0.0 0.0
0.01208456015966014 -0.010002636990040337 0.0 0.005080107129540601 0.0 0.0
0.007129445941782719 -0.00535041844054418 0.0 0.0031169881392281162 0.0 0.0
0.003934845326560188 -0.002495734009651418 0.0 0.0018592399844898355 0.0 0.0
0.002256124748748811 -0.0011433804684999327 0.0 0.0012665155822004226 0.0 0.0
0.001528149330766948 -0.0006364503108292618 0.0 0.00100771243666542 0.0 0.0
0.0009829279180839645 -0.0002995402533978453 0.0 0.0008616895206526864 0.0 0.0
0.0005030668817682105 -0.00040712921415220205 0.0 0.0011915735977620079 0.0 0.0
0.005013379073566915 -0.0066442184106836125 0.0 0.007207989486389732 0.0 0.0
0.0037885994536734496 -0.00534619537117631 0.0 -0.005909529622029952 0.0 0.0
0.00033562587871115157 -0.00032891370108023565 0.0 -0.0016604087584798366 0.0 0.0
0.0007448236362555816 -0.00022076610040133726 0.0 -0.001286557056405735 0.0 0.0
0.0012583033105362101 -0.0004991442350392727 0.0 -0.0013091431993497715 0.0 0.0
0.001844473980480557 -0.000880526173749896 0.0 -0.001534517436849292 0.0 0.0
0.0031272347945669188 -0.0018462944278574422 0.0 -0.0021083846853207633 0.0 0.0
0.005696783597466948 -0.004053895990294265 0.0 -0.003388180668152274 0.0 0.0
0.009864471025748126 -0.007895058025668256 0.0 -0.005530796162065532 0.0 0.0
0.015592996269907178 -0.013347318199105285 0.0 -0.008347325289734253 0.0 0.0
0.022688301770382405 -0.020187906826713675 0.0 -0.011482123917964382 0.0 0.0
0.03095129155393514 -0.028206094249737745 0.0 -0.014669960136329652 0.0 0.0
0.0402553550456322 -0.03727182016491204 0.0 -0.017767122959480297 0.0 0.0
0.05056439909613045 -0.04734447614916304 0.0 -0.02082920301753377 0.0 0.0
0.06185350888675162 -0.05839672483697056 0.0 -0.02387735293917642 0.0 0.0
0.07401551448400075 -0.0703224314431754 0.0 -0.02674084209646016 0.0 0.0
0.08681400345520161 -0.08288262812714997 0.0 -0.02907535916144921 0.0 0.0
0.09981453226175008 -0.09563351592396296 0.0 -0.030330357077983483 0.0 0.0
0.11226622345374673 -0.10781598089231892 0.0 -0.029544236760898568 0.0 0.0
0.12301357157961246 -0.1182959495521434 0.0 -0.02519270524366035 0.0 0.0
0.13065744900354462 -0.12572715917522004 0.0 -0.015669237545378634 0.0 0.0
0.13065744900353435 -0.12572715917520583 0.0 0.01566923754543026 0.0 0.0
0.12301357157958334 -0.11829594955211231 0.0 0.02519270524373196 0.0 0.0
0.11226622345370338 -0.10781598089227806 0.0 0.029544236760950415 0.0 0.0
0.09981453226169901 -0.09563351592391278 0.0 0.03033035707800924 0.0 0.0
0.08681400345514245 -0.08288262812709357 0.0 0.029075359161440772 0.0 0.0
0.07401551448393842 -0.07032243144311456 0.0 0.026740842096449224 0.0 0.0
0.061853508886691666 -0.058396724836907055 0.0 0.023877352939164598 0.0 0.0
0.050564399096071605 -0.04734447614910309 0.0 0.020829203017525888 0.0 0.0
0.040255355045576785 -0.03727182016485475 0.0 0.017767122959460036 0.0 0.0
0.030951291553885124 -0.028206094249690228 0.0 0.014669960136305948 0.0 0.0
0.02268830177033912 -0.020187906826671043 0.0 0.011482123917934017 0.0 0.0
0.015592996269873233 -0.013347318199070202 0.0 0.008347325289716712 0.0 0.0
0.00986447102572341 -0.00789505802564694 0.0 0.005530796162051377 0.0 0.0
0.00569678359745221 -0.0040538959902818306 0.0 0.0033881806681448356 0.0 0.0
0.003127234794560063 -0.001846294427851225 0.0 0.0021083846853139354 0.0 0.0
0.0018444739804784338 -0.0008805261737476755 0.0 0.0015345174368476822 0.0 0.0
0.0012583033105358354 -0.0004991442350393838 0.0 0.0013091431993484948 0.0 0.0
0.0007448236362555538 -0.00022076610040133726 0.0 0.0012865570564021822 0.0 0.0
0.0003356258787109989 -0.00032891370107929196 0.0 0.0016604087584762839 0.0 0.0
0.0037885994536638323 -0.005346195371165822 0.0 0.005909529622015075 0.0 0.0
0.002821290933103557 -0.004258266959211721 0.0 -0.004769435167472635 0.0 0.0
0.00023434377303763188 -0.0002773802622310084 0.0 -0.002010208508897271 0.0 0.0
0.0005458639597243076 -0.00016121877225183656 0.0 -0.0016605245995258144 0.0 0.0
0.0009940642974717584 -0.00037762469394730935 0.0 -0.0016136563623455613 0.0 0.0
0.0014778313424873152 -0.000670834467372261 0.0 -0.001797091551466734 0.0 0.0
0.0024099152085100273 -0.001321865963056723 0.0 -0.00231453148963523 0.0 0.0
0.004377192690836473 -0.002910910718634918 0.0 -0.003523920960585014 0.0 0.0
0.007710690793449465 -0.005893329110783885 0.0 -0.005618934917975549 0.0 0.0
0.012431485906712128 -0.010323991673870658 0.0 -0.008499918118733185 0.0 0.0
0.018309608567082025 -0.01595941174979565 0.0 -0.011766984937263136 0.0 0.0
0.02511958631724831 -0.02254684294182896 0.0 -0.01506494080218157 0.0 0.0
0.03274556364570248 -0.029959772327149192 0.0 -0.01827229338550318 0.0 0.0
0.04117266876696862 -0.038180111399293004 0.0 -0.021445983235592048 0.0 0.0
0.05041796433268465 -0.0472212837227457 0.0 -0.02459278185768249 0.0 0.0
0.06044224783471079 -0.05704107743675246 0.0 -0.027570428921009638 0.0 0.0
0.07108926921337101 -0.06748620665404381 0.0 -0.030061131256516993 0.0 0.0
0.08207750414452195 -0.07827075248644988 0.0 -0.03155125429513972 0.0 0.0
0.09295074826939437 -0.08892287062452109 0.0 -0.031116781942103877 0.0 0.0
0.10289038995463701 -0.09862372946755649 0.0 -0.026971351191209636 0.0 0.0
0.11066245638482389 -0.1061771262981388 0.0 -0.017046460042434486 0.0 0.0
0.11066245638481648 -0.10617712629812548 0.0 0.017046460042487777 0.0 0.0
0.10289038995461114 -0.09862372946753073 0.0 0.026971351191283244 0.0 0.0
0.09295074826935878 -0.08892287062448334 0.0 0.03111678194215739 0.0 0.0
0.0820775041444789 -0.07827075248640458 0.0 0.03155125429516281 0.0 0.0
0.07108926921332162 -0.06748620665400118 0.0 0.03006113125650478 0.0 0.0
0.06044224783465907 -0.0570410774367085 0.0 0.02757042892099859 0.0 0.0
0.05041796433263593 -0.04722128372269463 0.0 0.02459278185766889 0.0 0.0
0.04117266876692105 -0.03818011139924238 0.0 0.021445983235584554 0.0 0.0
0.03274556364565748 -0.029959772327107448 0.0 0.018272293385483307 0.0 0.0
0.02511958631720701 -0.02254684294178899 0.0 0.015064940802156701 0.0 0.0
0.01830960856704683 -0.015959411749760566 0.0 0.011766984937234382 0.0 0.0
0.012431485906684497 -0.010323991673842237 0.0 0.008499918118714866 0.0 0.0
0.007710690793430258 -0.0058933291107627905 0.0 0.005618934917962781 0.0 0.0
0.0043771926908249825 -0.002910910718624926 0.0 0.0035239209605795185 0.0 0.0
0.00240991520850517 -0.0013218659630520602 0.0 0.0023145314896320657 0.0 0.0
0.0014778313424860245 -0.0006708344673695965 0.0 0.0017970915514645136 0.0 0.0
0.000994064297471342 -0.00037762469394730935 0.0 0.0016136563623450062 0.0 0.0
0.0005458639597242243 -0.00016121877225194758 0.0 0.0016605245995239826 0.0 0.0
0.00023434377303746534 -0.0002773802622308974 0.0 0.0020102085088944954 0.0 0.0
0.0028212909330959934 -0.004258266959203377 0.0 0.004769435167461755 0.0 0.0
0.0020519537077685057 -0.003338728928615531 0.0 -0.0038237260046809496 0.0 0.0
0.00016411986758378683 -0.00023964869476678086 0.0 -0.0022560625301566994 0.0 0.0
0.0003721878390073319 -0.00011068004101999485 0.0 -0.001961442448983608 0.0 0.0
0.0007339088425663554 -0.00026249470092154503 0.0 -0.0018950724590768853 0.0 0.0
0.0011367499907955492 -0.0004955481497581626 0.0 -0.002057817569808329 0.0 0.0
0.0017834652723732747 -0.0009085274179814196 0.0 -0.0024799997171445765 0.0 0.0
0.003181177373237809 -0.0019435953113355886 0.0 -0.0035229632137274702 0.0 0.0
0.00568391381672545 -0.00406735161809868 0.0 -0.0054195638995290785 0.0 0.0
0.009348268749980307 -0.007422437973553908 0.0 -0.008093335740889995 0.0 0.0
0.013982581001001138 -0.011812935091033872 0.0 -0.011238183993010464 0.0 0.0
0.019332400675575137 -0.016960024425087816 0.0 -0.014470947594874828 0.0 0.0
0.025283070353762066 -0.02272128030724474 0.0 -0.01759934665028856 0.0 0.0
0.03183151728191612 -0.029092374963113343 0.0 -0.020679308909779648 0.0 0.0
0.03902985830554803 -0.03611992976433065 0.0 -0.02374542917531486 0.0 0.0
0.04689960672735782 -0.043819719400922885 0.0 -0.02666235611279677 0.0 0.0
0.05536704777384335 -0.05211504818771484 0.0 -0.029118800803795475 0.0 0.0
0.0642668281087948 -0.060857776901124705 0.0 -0.030733089249561196 0.0 0.0
0.07344365448200313 -0.06987434294401051 0.0 -0.03079342473226776 0.0 0.0
0.08252248174787469 -0.07875142421853187 0.0 -0.027465759323949346 0.0 0.0
0.09051344773736206 -0.08650707772784827 0.0 -0.018142498991446487 0.0 0.0
0.0905134477373572 -0.08650707772784294 0.0 0.018142498991500666 0.0 0.0
0.08252248174785343 -0.07875142421850789 0.0 0.027465759324023398 0.0 0.0
0.07344365448197485 -0.0698743429439781 0.0 0.030793424732322605 0.0 0.0
0.06426682810875953 -0.06085777690109273 0.0 0.030733089249585732 0.0 0.0
0.055367047773804245 -0.05211504818767709 0.0 0.029118800803784817 0.0 0.0
0.04689960672731691 -0.04381971940088514 0.0 0.02666235611278378 0.0 0.0
0.03902985830551048 -0.036119929764295566 0.0 0.023745429175303867 0.0 0.0
0.03183151728188041 -0.029092374963076928 0.0 0.020679308909770433 0.0 0.0
0.025283070353727677 -0.022721280307213654 0.0 0.017599346650269077 0.0 0.0
0.019332400675542954 -0.016960024425061615 0.0 0.014470947594849903 0.0 0.0
0.013982581000974048 -0.011812935091012111 0.0 0.01123818399298282 0.0 0.0
0.009348268749959365 -0.007422437973537921 0.0 0.008093335740872232 0.0 0.0
0.005683913816711489 -0.004067351618086468 0.0 0.00541956389951509 0.0 0.0
0.003181177373229538 -0.0019435953113258186 0.0 0.0035229632137178113 0.0 0.0
0.001783465272370055 -0.0009085274179798652 0.0 0.00247999971714008 0.0 0.0
0.0011367499907945777 -0.0004955481497583847 0.0 0.0020578175698034995 0.0 0.0
0.0007339088425661611 -0.0002624947009228773 0.0 0.0018950724590737766 0.0 0.0
0.00037218783900716534 -0.00011068004102088302 0.0 0.001961442448980777 0.0 0.0
0.00016411986758352315 -0.00023964869476622574 0.0 0.0022560625301535353 0.0 0.0
0.0020519537077629546 -0.0033387289286088313 0.0 0.0038237260046724564 0.0 0.0
0.0014513018832332247 -0.002576857576800984 0.0 -0.003076404269723554 0.0 0.0
0.00010096344025711801 -0.00020786875954470485 0.0 -0.002401447740354057 0.0 0.0
0.00021209099304994594 -6.118171998936717e-05 0.0 -0.0021887077107480835 0.0 0.0
0.0004788015868699702 -0.00014915895928702128 0.0 -0.0021299982658363747 0.0 0.0
0.0007998074981234171 -0.000334726530593521 0.0 -0.002298234474302552 0.0 0.0
0.0012359593448019457 -0.0005930794731652256 0.0 -0.002659408372947203 0.0 0.0
0.0021221676947531243 -0.0011743557818908457 0.0 -0.0034552122914397465 0.0 0.0
0.0038187716848201436 -0.0024804403089526694 0.0 -0.004979340945270194 0.0 0.0
0.00641036344675211 -0.004733879133119068 0.0 -0.0072234253619251065 0.0 0.0
0.009755663931807879 -0.007824490834052789 0.0 -0.009946102748114583 0.0 0.0
0.013626552635389089 -0.011500915891326624 0.0 -0.01284371847670962 0.0 0.0
0.01790157549271723 -0.01560871680876419 0.0 -0.01569757646073955 0.0 0.0
0.02257932860350445 -0.020136499049063783 0.0 -0.018507338969720566 0.0 0.0
0.02772857332071743 -0.025148469250547034 0.0 -0.021289569962786303 0.0 0.0
0.03342654176311474 -0.03071274605416585 0.0 -0.023971909933546587 0.0 0.0
0.03968883290979022 -0.0368356592984278 0.0 -0.026271762306703028 0.0 0.0
0.0464460043007672 -0.0434630413995456 0.0 -0.02779764055194267 0.0 0.0
0.05373648822609678 -0.05066385273748253 0.0 -0.02828002779321659 0.0 0.0
0.06173885666327225 -0.05853463995889374 0.0 -0.02638171255962496 0.0 0.0
0.06996012955704317 -0.06649943595194241 0.0 -0.01887889172895163 0.0 0.0
0.06996012955703973 -0.06649943595193619 0.0 0.01887889172899926 0.0 0.0
0.06173885666325726 -0.058534639958882195 0.0 0.026381712559691017 0.0 0.0
0.053736488226075435 -0.05066385273745899 0.0 0.028280027793265217 0.0 0.0
0.046446004300740446 -0.043463041399520286 0.0 0.027797640551959213 0.0 0.0
0.03968883290976116 -0.03683565929840338 0.0 0.026271762306689705 0.0 0.0
0.03342654176308532 -0.030712746054131657 0.0 0.023971909933530045 0.0 0.0
0.027728573320691424 -0.02514846925052039 0.0 0.0212895699627752 0.0 0.0
0.02257932860347997 -0.020136499049043355 0.0 0.01850733896971124 0.0 0.0
0.017901575492694055 -0.015608716808742873 0.0 0.015697576460723006 0.0 0.0
0.013626552635366274 -0.011500915891299535 0.0 0.012843718476689192 0.0 0.0
0.009755663931788644 -0.007824490834035025 0.0 0.00994610274809038 0.0 0.0
0.006410363446738593 -0.004733879133106633 0.0 0.007223425361911118 0.0 0.0
0.0038187716848104847 -0.00248044030894512 0.0 0.004979340945261923 0.0 0.0
0.002122167694748295 -0.0011743557818901795 0.0 0.0034552122914335848 0.0 0.0
0.0012359593448000028 -0.0005930794731634492 0.0 0.002659408372944483 0.0 0.0
0.0007998074981227232 -0.00033472653059085644 0.0 0.0022982344743014416 0.0 0.0
0.0004788015868698592 -0.000149158959285689 0.0 0.0021299982658348204 0.0 0.0
0.00021209099305008472 -6.118171998847899e-05 0.0 0.002188707710746529 0.0 0.0
0.00010096344025672943 -0.00020786875954476036 0.0 0.002401447740353835 0.0 0.0
0.0014513018832293945 -0.002576857576796458 0.0 0.0030764042697180582 0.0 0.0
0.0010052369964194396 -0.0019760537874178308 0.0 -0.0025241546105079227 0.0 0.0
2.9361829461393985e-05 -0.00017992368361341438 0.0 -0.0024733347193454103 0.0 0.0
5.809613144230896e-05 -6.551476199101458e-06 0.0 -0.0023460450922526133 0.0 0.0
0.00023042092016190008 -3.8554653893019264e-05 0.0 -0.0023092749655065914 0.0 0.0
0.0004555290192284067 -0.0001719235905428551 0.0 -0.0024879898116405563 0.0 0.0
0.0007300139731187261 -0.0003364088772404017 0.0 -0.0028488947618419136 0.0 0.0
0.0012082895090113344 -0.0006063407645058305 0.0 -0.0034128144718769127 0.0 0.0
0.002145471510230701 -0.001210169608804268 0.0 -0.0044118474012451725 0.0 0.0
0.0036751590399949075 -0.00238047026624999 0.0 -0.005980249397670834 0.0 0.0
0.005696278115351311 -0.0041260969977412465 0.0 -0.007992638130148721 0.0 0.0
0.008054506861218613 -0.00628263354717884 0.0 -0.010256380766617501 0.0 0.0
0.01063524605229163 -0.008712537577974189 0.0 -0.012590167403326746 0.0 0.0
0.013446259402528554 -0.011396434422014323 0.0 -0.014957680300931586 0.0 0.0
0.0165522310767319 -0.014395591269980912 0.0 -0.01730788548091955 0.0 0.0
0.020055520919436465 -0.01780395025593462 0.0 -0.019603043729592984 0.0 0.0
0.024070840738591504 -0.021721092648019802 0.0 -0.02167964126948907 0.0 0.0
0.028666787495710777 -0.026203065239924328 0.0 -0.023122682789414872 0.0 0.0
0.03393769247745368 -0.03140215836842053 0.0 -0.023681490458646426 0.0 0.0
0.04040389660002777 -0.03787560886869468 0.0 -0.023246006800974328 0.0 0.0
0.04864917539945127 -0.04587117008869601 0.0 -0.01898548155145141 0.0 0.0
0.04864917539944896 -0.04587117008869335 0.0 0.018985481551491712 0.0 0.0
0.04040389660001992 -0.037875608868685795 0.0 0.023246006801034724 0.0 0.0
0.033937692477438886 -0.03140215836840765 0.0 0.02368149045869039 0.0 0.0
0.028666787495692903 -0.02620306523990834 0.0 0.0231226827894232 0.0 0.0
0.0240708407385741 -0.021721092647993157 0.0 0.02167964126947497 0.0 0.0
0.0200555209194192 -0.017803950255914636 0.0 0.019603043729580105 0.0 0.0
0.016552231076718105 -0.014395591269968477 0.0 0.017307885480912777 0.0 0.0
0.013446259402515454 -0.011396434422004553 0.0 0.014957680300929699 0.0 0.0
0.010635246052279196 -0.008712537577964419 0.0 0.012590167403312869 0.0 0.0
0.008054506861205624 -0.006282633547169958 0.0 0.010256380766597628 0.0 0.0
0.005696278115340292 -0.004126096997730144 0.0 0.007992638130131069 0.0 0.0
0.0036751590399879686 -0.0023804702662437727 0.0 0.005980249397661952 0.0 0.0
0.0021454715102250665 -0.0012101696088018254 0.0 0.0044118474012379005 0.0 0.0
0.0012082895090091417 -0.0006063407645040542 0.0 0.003412814471871528 0.0 0.0
0.0007300139731178379 -0.00033640887724017965 0.0 0.002848894761838139 0.0 0.0
0.00045552901922821243 -0.00017192359054307715 0.0 0.002487989811636504 0.0 0.0
0.00023042092016178906 -3.855465389279722e-05 0.0 0.0023092749655044265 0.0 0.0
5.8096131442419985e-05 -6.551476198768391e-06 0.0 0.0023460450922502263 0.0 0.0
2.936182946072785e-05 -0.0001799236836129703 0.0 0.002473334719343079 0.0 0.0
0.0010052369964169694 -0.0019760537874143787 0.0 0.0025241546105036483 0.0 0.0
0.000687881530905099 -0.0015181763953781569 0.0 -0.002132307138591527 0.0 0.0
-5.105349030601336e-05 -0.0001572527441207061 0.0 -0.0025036351593429873 0.0 0.0
-9.332407226933515e-05 5.4862054674531535e-05 0.0 -0.0024441405403419214 0.0 0.0
-1.120180653310654e-05 6.896697520630823e-05 0.0 -0.002430667729325209 0.0 0.0
0.0001072096934660316 -5.6024798207321425e-06 0.0 -0.002602717596048465 0.0 0.0
0.00022807161218535432 -9.242195503778028e-05 0.0 -0.0029861778312093024 0.0 0.0
0.0003888861362299212 -0.0001860612681159335 0.0 -0.0035010945641025804 0.0 0.0
0.0006791269579883852 -0.00033457544298043373 0.0 -0.004068346616009688 0.0 0.0
0.0011823773891951606 -0.0006106902479876553 0.0 -0.004818047018527505 0.0 0.0
0.0018586653782818596 -0.0010489502096606707 0.0 -0.005918304109636563 0.0 0.0
0.0026533407628588357 -0.0016338626271386048 0.0 -0.007399517133153566 0.0 0.0
0.003507694663067551 -0.002339296835736082 0.0 -0.009135194046920314 0.0 0.0
0.004433612931600689 -0.003156516675423937 0.0 -0.01104764173822781 0.0 0.0
0.005481287728653167 -0.004124059513946232 0.0 -0.013103355662115068 0.0 0.0
0.006765153301563326 -0.005342682672397903 0.0 -0.015270165510895328 0.0 0.0
0.008484882368696045 -0.006992892757217373 0.0 -0.017392538955572023 0.0 0.0
0.010900950781013663 -0.009309246167783503 0.0 -0.019038560599772603 0.0 0.0
0.014219957275907302 -0.012487611201656534 0.0 -0.019558806808938733 0.0 0.0
0.018779559404027812 -0.017061511694146603 0.0 -0.019231692921680033 0.0 0.0
0.026146292842098184 -0.024446521356479956 0.0 -0.018403494062608217 0.0 0.0
0.02614629284209863 -0.02444652135647818 0.0 0.018403494062639747 0.0 0.0
0.018779559404024898 -0.01706151169414749 0.0 0.01923169292172755 0.0 0.0
0.014219957275899614 -0.012487611201654314 0.0 0.019558806808964824 0.0 0.0
0.010900950781006474 -0.009309246167778618 0.0 0.01903856059977327 0.0 0.0
0.008484882368691188 -0.006992892757210267 0.0 0.017392538955561254 0.0 0.0
0.006765153301558663 -0.005342682672390353 0.0 0.01527016551088356 0.0 0.0
0.005481287728650919 -0.004124059513945788 0.0 0.013103355662108851 0.0 0.0
0.004433612931599107 -0.003156516675423937 0.0 0.01104764173822248 0.0 0.0
0.0035076946630658024 -0.0023392968357369703 0.0 0.0091351940469091 0.0 0.0
0.002653340762856532 -0.0016338626271408252 0.0 0.007399517133143463 0.0 0.0
0.0018586653782795004 -0.0010489502096606707 0.0 0.005918304109625794 0.0 0.0
0.0011823773891937728 -0.0006106902479889875 0.0 0.004818047018523064 0.0 0.0
0.0006791269579867476 -0.0003345754429793235 0.0 0.004068346616006024 0.0 0.0
0.00038888613622956036 -0.00018606126811260282 0.0 0.003501094564100804 0.0 0.0
0.000228071612185049 -9.242195503733619e-05 0.0 0.002986177831206971 0.0 0.0
0.00010720969346611486 -5.602479822730544e-06 0.0 0.0026027175960455784 0.0 0.0
-1.1201806533078784e-05 6.896697520575312e-05 0.0 0.0024306677293223777 0.0 0.0
-9.332407226927963e-05 5.486205467508665e-05 0.0 0.002444140540341422 0.0 0.0
-5.1053490306735005e-05 -0.00015725274412087265 0.0 0.002503635159342099 0.0 0.0
0.0006878815309036834 -0.001518176395376476 0.0 0.0021323071385884185 0.0 0.0
0.00046603220632937536 -0.001186736570728819 0.0 -0.0018854710295837518 0.0 0.0
-0.00013072769112248972 -0.00013316903862248264 0.0 -0.0025034583710383806 0.0 0.0
-0.00024183053024673384 0.00011822884128309674 0.0 -0.0024883893264091572 0.0 0.0
-0.00024624838492193213 0.00017362528722086878 0.0 -0.0024861687261973353 0.0 0.0
-0.00023795578474533619 0.00015972211209147602 0.0 -0.00264045801899232 0.0 0.0
-0.00027849191627718484 0.00015336987491321175 0.0 -0.003004754182137581 0.0 0.0
-0.0004067706530621329 0.00020231398514747312 0.0 -0.0035105977775211628 0.0 0.0
-0.0006846278072553391 0.00033883095433484556 0.0 -0.004074878131161308 0.0 0.0
-0.0011821585034457738 0.0006113661557654027 0.0 -0.004820758751031051 0.0 0.0
-0.0018574901888991635 0.0010490831566691838 0.0 -0.005917123614221587 0.0 0.0
-0.0026608443013658445 0.0016446496566309143 0.0 -0.0074009168993181 0.0 0.0
-0.0035494734457462707 0.0023811606918267003 0.0 -0.009144809445213342 0.0 0.0
-0.0045231631257516836 0.003233730291499537 0.0 -0.011058120777245994 0.0 0.0
-0.005549017350769098 0.004154240210373583 0.0 -0.013108469438533166 0.0 0.0
-0.00649739913409042 0.00501254521702732 0.0 -0.015287027595992875 0.0 0.0
-0.007108109699089621 0.005557822857741979 0.0 -0.01754453164248604 0.0 0.0
-0.006977614323266712 0.005416672199904049 0.0 -0.01984847535585621 0.0 0.0
-0.005734322896685684 0.004342197058418762 0.0 -0.022266139690766518 0.0 0.0
-0.00306005976425619 0.0021619387034750304 0.0 -0.024469003458873373 0.0 0.0
0.003573837283592063 -0.004092432523429501 0.0 -0.023321468933484968 0.0 0.0
0.0035738372835927845 -0.004092432523428613 0.0 0.02332146893350251 0.0 0.0
-0.003060059764256773 0.002161938703482136 0.0 0.024469003458892247 0.0 0.0
-0.005734322896683242 0.0043421970584165415 0.0 0.022266139690771403 0.0 0.0
-0.006977614323259912 0.005416672199900052 0.0 0.019848475355847328 0.0 0.0
-0.007108109699081211 0.005557822857730876 0.0 0.01754453164247105 0.0 0.0
-0.00649739913408251 0.005012545217013553 0.0 0.015287027595978775 0.0 0.0
-0.005549017350760355 0.004154240210366034 0.0 0.013108469438523396 0.0 0.0
-0.004523163125741997 0.003233730291490211 0.0 0.011058120777237668 0.0 0.0
-0.003549473445736001 0.002381160691816042 0.0 0.009144809445198354 0.0 0.0
-0.002660844301357018 0.0016446496566233648 0.0 0.0074009168993030006 0.0 0.0
-0.001857490188892641 0.0010490831566594139 0.0 0.005917123614207709 0.0 0.0
-0.0011821585034417215 0.0006113661557618499 0.0 0.004820758751026277 0.0 0.0
-0.0006846278072530076 0.0003388309543330692 0.0 0.004074878131157145 0.0 0.0
-0.0004067706530605508 0.0002023139851463629 0.0 0.0035105977775177766 0.0 0.0
-0.0002784919162769073 0.00015336987490832676 0.0 0.0030047541821331403 0.0 0.0
-0.00023795578474503087 0.00015972211208814535 0.0 0.002640458018989489 0.0 0.0
-0.00024624838492154355 0.00017362528721975856 0.0 0.002486168726196225 0.0 0.0
-0.00024183053024665058 0.00011822884128254163 0.0 0.0024883893264072143 0.0 0.0
-0.00013072769112276728 -0.0001331690386222606 0.0 0.002503458371036993 0.0 0.0
0.00046603220632862596 -0.0011867365707273897 0.0 0.0018854710295831412 0.0 0.0
0.00031406429965963323 -0.0009373428013460527 0.0 -0.0017035485355764157 0.0 0.0
-0.0002029554469968886 -0.00010191065946740796 0.0 -0.0024575004424374214 0.0 0.0
-0.00038460832010883683 0.00017873676643054281 0.0 -0.0024803532519189764 0.0 0.0
-0.0004736451056832902 0.0002743659996820025 0.0 -0.0024720761919289624 0.0 0.0
-0.000575885718238911 0.0003197685025233543 0.0 -0.002595249682298295 0.0 0.0
-0.0007788196707652906 0.00039674425620295217 0.0 -0.0029055531330257067 0.0 0.0
-0.0012255367739556766 0.000624041333450398 0.0 -0.0034437120609571714 0.0 0.0
-0.0021489554753398588 0.0012149174509916705 0.0 -0.004428982612000476 0.0 0.0
-0.003673159849884644 0.0023798944486714824 0.0 -0.005983912701086114 0.0 0.0
-0.005695392791700032 0.004127216093418706 0.0 -0.007992302717520494 0.0 0.0
-0.008064819797773792 0.006297101322434884 0.0 -0.010256480112947663 0.0 0.0
-0.010675567006634828 0.008757156035604119 0.0 -0.01257732187217342 0.0 0.0
-0.01352718967451716 0.011472673523849508 0.0 -0.014910223460770977 0.0 0.0
-0.016604880112583764 0.014416168623740955 0.0 -0.017248036143738932 0.0 0.0
-0.019778468193331677 0.01745062278907561 0.0 -0.019671409922311978 0.0 0.0
-0.022737882292905215 0.020273465321599904 0.0 -0.02225201858234971 0.0 0.0
-0.025004037587074313 0.02242938509381709 0.0 -0.02507602902267514 0.0 0.0
-0.02601834298480346 0.02337672520145162 0.0 -0.028051543541952384 0.0 0.0
-0.0247456033348957 0.021836934404450226 0.0 -0.02940576911385251 0.0 0.0
-0.018028723686432047 0.014823596745793033 0.0 -0.027211227766490542 0.0 0.0
-0.01802872368643213 0.014823596745793033 0.0 0.027211227766526513 0.0 0.0
-0.024745603334892396 0.02183693440444401 0.0 0.029405769113900138 0.0 0.0
-0.02601834298479133 0.023376725201430748 0.0 0.02805154354198347 0.0 0.0
-0.025004037587054884 0.022429385093794885 0.0 0.025076029022675694 0.0 0.0
-0.022737882292883677 0.02027346532157548 0.0 0.02225201858233139 0.0 0.0
-0.019778468193311277 0.017450622789056514 0.0 0.019671409922295213 0.0 0.0
-0.01660488011256378 0.0144161686237263 0.0 0.017248036143726275 0.0 0.0
-0.01352718967449637 0.011472673523831745 0.0 0.014910223460758987 0.0 0.0
-0.010675567006613235 0.008757156035582359 0.0 0.0125773218721551 0.0 0.0
-0.008064819797754419 0.006297101322412679 0.0 0.010256480112925015 0.0 0.0
-0.005695392791684073 0.0041272160934049396 0.0 0.007992302717497846 0.0 0.0
-0.0036731598498743467 0.002379894448665709 0.0 0.005983912701077232 0.0 0.0
-0.0021489554753336693 0.0012149174509852312 0.0 0.004428982611996035 0.0 0.0
-0.0012255367739522072 0.0006240413334490658 0.0 0.00344371206095323 0.0 0.0
-0.0007788196707640971 0.0003967442562036183 0.0 0.0029055531330216544 0.0 0.0
-0.0005758857182380228 0.00031976850252446454 0.0 0.002595249682296852 0.0 0.0
-0.00047364510568290163 0.00027436599968277964 0.0 0.0024720761919270196 0.0 0.0
-0.0003846083201086703 0.00017873676643065384 0.0 0.0024803532519168114 0.0 0.0
-0.0002029554469968331 -0.00010191065946735245 0.0 0.0024575004424362556 0.0 0.0
0.0003140642996592724 -0.0009373428013450553 0.0 0.0017035485355741953 0.0 0.0
0.00020536737203233346 -0.0007228204337874078 0.0 -0.0015131121737883557 0.0 0.0
-0.0002672854298310101 -6.480403782727073e-05 0.0 -0.0023575279704411978 0.0 0.0
-0.0005191962388024496 0.00023503055428264474 0.0 -0.002414485107448461 0.0 0.0
-0.000692081385368637 0.00036922392488758504 0.0 -0.002390206259978378 0.0 0.0
-0.0009024243611360783 0.0004707181849139541 0.0 -0.0024671586724804295 0.0 0.0
-0.0012817716131621193 0.0006539087844661395 0.0 -0.002754217933687908 0.0 0.0
-0.0021362363048230693 0.0011936158562264598 0.0 -0.003502346545098012 0.0 0.0
-0.0038173231590215295 0.0024819427110176484 0.0 -0.004995628295885457 0.0 0.0
-0.006406853380734351 0.004731369028633026 0.0 -0.00722200015708474 0.0 0.0
-0.009756951108215006 0.007827225451544795 0.0 -0.009946118871747789 0.0 0.0
-0.013637999302204523 0.011515482433428481 0.0 -0.012840144478173499 0.0 0.0
-0.01793231421819952 0.01564349916741481 0.0 -0.01565441341057039 0.0 0.0
-0.022634099285523568 0.020189095593748707 0.0 -0.018369784890820195 0.0 0.0
-0.02775012127510232 0.025144996385160656 0.0 -0.021087716130447798 0.0 0.0
-0.033161134143458504 0.03038264789315237 0.0 -0.024031272743892163 0.0 0.0
-0.03851717587753939 0.03556084618419986 0.0 -0.027491076989699437 0.0 0.0
-0.043222558062541494 0.04009810962686178 0.0 -0.03162896700737228 0.0 0.0
-0.046321194655698394 0.04298187501489181 0.0 -0.035673868492502536 0.0 0.0
-0.045962809973233154 0.042345230704002645 0.0 -0.03769530257044795 0.0 0.0
-0.03840533528196502 0.03408578846303989 0.0 -0.03381503224128368 0.0 0.0
-0.03840533528196416 0.03408578846304078 0.0 0.0338150322413332 0.0 0.0
-0.04596280997322427 0.04234523070399909 0.0 0.03769530257050724 0.0 0.0
-0.04632119465567941 0.042981875014878046 0.0 0.03567386849254206 0.0 0.0
-0.04322255806251199 0.04009810962683602 0.0 0.03162896700737883 0.0 0.0
-0.03851717587750639 0.03556084618416433 0.0 0.027491076989684782 0.0 0.0
-0.03316113414342581 0.0303826478931164 0.0 0.0240312727438744 0.0 0.0
-0.0277501212750704 0.025144996385133567 0.0 0.021087716130432255 0.0 0.0
-0.022634099285491732 0.020189095593720285 0.0 0.01836978489080654 0.0 0.0
-0.017932314218167517 0.015643499167384167 0.0 0.015654413410551182 0.0 0.0
-0.013637999302175047 0.011515482433402724 0.0 0.012840144478148685 0.0 0.0
-0.009756951108189985 0.007827225451523034 0.0 0.009946118871722809 0.0 0.0
-0.006406853380716712 0.004731369028616594 0.0 0.007222000157068531 0.0 0.0
-0.0038173231590109546 0.002481942711011653 0.0 0.004995628295873689 0.0 0.0
-0.002136236304817102 0.0011936158562244614 0.0 0.0035023465450912394 0.0 0.0
-0.0012817716131595658 0.0006539087844650293 0.0 0.0027542179336841888 0.0 0.0
-0.0009024243611350374 0.00047071818491550843 0.0 0.0024671586724788197 0.0 0.0
-0.0006920813853681651 0.0003692239248884732 0.0 0.0023902062599769347 0.0 0.0
-0.0005191962388020749 0.0002350305542829778 0.0 0.0024144851074473506 0.0 0.0
-0.0002672854298308852 -6.48040378266046e-05 0.0 0.0023575279704400876 0.0 0.0
0.00020536737203223632 -0.0007228204337865352 0.0 0.0015131121737856912 0.0 0.0
0.00011755484562614438 -0.0005319988220960914 0.0 -0.0013136908548437853 0.0 0.0
-0.00032589935354285227 -2.176360818650913e-05 0.0 -0.002202006954424296 0.0 0.0
-0.0006451214380812087 0.000287178237735608 0.0 -0.0022946890385825425 0.0 0.0
-0.0009005128983200217 0.0004562876130425053 0.0 -0.0022484309217402076 0.0 0.0
-0.0012165631676788191 0.0006163883027581196 0.0 -0.002276455521301457 0.0 0.0
-0.0018236892240370006 0.0009680951733550547 0.0 -0.002601909751285547 0.0 0.0
-0.0031867728009057072 0.001958403470921022 0.0 -0.0035709028394899645 0.0 0.0
-0.005677631530170757 0.0040629687417754745 0.0 -0.005423891480856258 0.0 0.0
-0.00934553570456148 0.007419944798433331 0.0 -0.00808875436423473 0.0 0.0
-0.01398688969926376 0.011818124491457915 0.0 -0.011239303654692945 0.0 0.0
-0.01934268710491166 0.016971984996660083 0.0 -0.014463590958785577 0.0 0.0
-0.025295268490786116 0.02273591115527207 0.0 -0.01752979987733938 0.0 0.0
-0.03183847610325627 0.02909957372413663 0.0 -0.020460303172288974 0.0 0.0
-0.03899770537934316 0.03607485836694746 0.0 -0.023399399709757907 0.0 0.0
-0.04667606980629699 0.04355406215230495 0.0 -0.026669585935073625 0.0 0.0
-0.05449894632613164 0.05115675672034792 0.0 -0.030732575893783753 0.0 0.0
-0.06164540857095238 0.058054340333745014 0.0 -0.03570389478265634 0.0 0.0
-0.06661244216004114 0.06272846600011306 0.0 -0.040614990336777845 0.0 0.0
-0.06680505356049618 0.062491729331338064 0.0 -0.042867972628296225 0.0 0.0
-0.05748712043947998 0.05251145514486932 0.0 -0.039164917794314524 0.0 0.0
-0.05748712043947651 0.05251145514486666 0.0 0.03916491779436315 0.0 0.0
-0.06680505356048197 0.06249172933132474 0.0 0.042867972628361506 0.0 0.0
-0.06661244216001508 0.06272846600008952 0.0 0.0406149903368237 0.0 0.0
-0.061645408570914106 0.05805434033371393 0.0 0.035703894782666556 0.0 0.0
-0.05449894632608851 0.05115675672030573 0.0 0.030732575893768987 0.0 0.0
-0.0466760698062528 0.0435540621522601 0.0 0.02666958593505586 0.0 0.0
-0.0389977053792995 0.03607485836690749 0.0 0.023399399709737145 0.0 0.0
-0.031838476103213206 0.02909957372409755 0.0 0.0204603031722696 0.0 0.0
-0.025295268490743636 0.022735911155236987 0.0 0.017529799877316732 0.0 0.0
-0.019342687104872344 0.016971984996626777 0.0 0.0144635909587561 0.0 0.0
-0.01398688969923001 0.0118181244914215 0.0 0.011239303654663801 0.0 0.0
-0.009345535704537278 0.00741994479840713 0.0 0.008088754364216688 0.0 0.0
-0.005677631530154895 0.004062968741763706 0.0 0.00542389148084077 0.0 0.0
-0.0031867728008964785 0.0019584034709141385 0.0 0.0035709028394828035 0.0 0.0
-0.0018236892240331981 0.0009680951733519461 0.0 0.0026019097512807177 0.0 0.0
-0.0012165631676772926 0.0006163883027567874 0.0 0.0022764555213000692 0.0 0.0
-0.0009005128983192862 0.000456287613040951 0.0 0.0022484309217399856 0.0 0.0
-0.000645121438080945 0.0002871782377344978 0.0 0.0022946890385810437 0.0 0.0
-0.0003258993535425886 -2.1763608187563843e-05 0.0 0.00220200695442313 0.0 0.0
0.00011755484562596397 -0.0005319988220964297 0.0 0.0013136908548425086 0.0 0.0
4.207038984299638e-05 -0.0003637511889573175 0.0 -0.0011088446054101087 0.0 0.0
-0.00038187773696096716 2.652598678731799e-05 0.0 -0.0019930084381933333 0.0 0.0
-0.0007628987768551476 0.00033591088014750525 0.0 -0.0021176446977610452 0.0 0.0
-0.0010970160150007569 0.0005339547983516102 0.0 -0.0020414098819077076 0.0 0.0
-0.0015296980513611613 0.0007694240763249649 0.0 -0.0020416067396645254 0.0 0.0
-0.0024379786395738456 0.0013703524207091533 0.0 -0.002431571864375204 0.0 0.0
-0.004373910878170961 0.0029162871016761294 0.0 -0.003553478267182497 0.0 0.0
-0.007702908347666487 0.00588575025959015 0.0 -0.005614990328426606 0.0 0.0
-0.012431315995486664 0.010323625400000314 0.0 -0.008494094388834306 0.0 0.0
-0.018316545382625254 0.015966609489915573 0.0 -0.011767520213827765 0.0 0.0
-0.025126053697169887 0.022553376644357304 0.0 -0.0150511961630575 0.0 0.0
-0.032732415967172857 0.029946939379327908 0.0 -0.01818421459365116 0.0 0.0
-0.041116327274372505 0.03812649379023636 0.0 -0.02118223373064476 0.0 0.0
-0.05031278061550906 0.04711869480451192 0.0 -0.024160500704416443 0.0 0.0
-0.06026585570355883 0.05684692382946599 0.0 -0.027470544737257296 0.0 0.0
-0.0705593811742394 0.06687300516305461 0.0 -0.03162594040054889 0.0 0.0
-0.08009413724420175 0.07608545566797176 0.0 -0.036816664690496936 0.0 0.0
-0.08678342609172623 0.08237715608405694 0.0 -0.042104651538875326 0.0 0.0
-0.08718649666283565 0.08228364863238102 0.0 -0.04511303795121113 0.0 0.0
-0.07609784609434467 0.0706091300372309 0.0 -0.04386684013427389 0.0 0.0
-0.07609784609433812 0.07060913003722824 0.0 0.043866840134326845 0.0 0.0
-0.08718649666281605 0.08228364863236326 0.0 0.04511303795127475 0.0 0.0
-0.0867834260916921 0.08237715608402318 0.0 0.042104651538922955 0.0 0.0
-0.08009413724415598 0.07608545566792468 0.0 0.036816664690508594 0.0 0.0
-0.07055938117418684 0.06687300516300176 0.0 0.031625940400538344 0.0 0.0
-0.06026585570350328 0.05684692382941314 0.0 0.027470544737243197 0.0 0.0
-0.050312780615454106 0.04711869480445552 0.0 0.02416050070439857 0.0 0.0
-0.04111632727431874 0.03812649379018174 0.0 0.02118223373062733 0.0 0.0
-0.032732415967119746 0.029946939379275506 0.0 0.018184214593628345 0.0 0.0
-0.025126053697120898 0.022553376644311562 0.0 0.01505119616302758 0.0 0.0
-0.018316545382583815 0.01596660948988049 0.0 0.011767520213797289 0.0 0.0
-0.012431315995455383 0.010323625399974556 0.0 0.008494094388814433 0.0 0.0
-0.007702908347644963 0.005885750259570166 0.0 0.005614990328412728 0.0 0.0
-0.004373910878158041 0.0029162871016654712 0.0 0.003553478267174781 0.0 0.0
-0.002437978639568239 0.001370352420702936 0.0 0.0024315718643700968 0.0 0.0
-0.0015296980513590103 0.0007694240763223004 0.0 0.0020416067396629156 0.0 0.0
-0.0010970160149998964 0.0005339547983516102 0.0 0.0020414098819067084 0.0 0.0
-0.0007628987768548007 0.00033591088014750525 0.0 0.0021176446977596575 0.0 0.0
-0.00038187773696059246 2.652598678726248e-05 0.0 0.0019930084381925006 0.0 0.0
4.207038984301026e-05 -0.0003637511889563443 0.0 0.0011088446054086099 0.0 0.0
-2.2694169075354598e-05 -0.00021939432849649165 0.0 -0.000898311473455593 0.0 0.0
-0.00043620922098575043 7.83454718779053e-05 0.0 -0.001736097981891005 0.0 0.0
-0.0008735365715052956 0.0003812965046101624 0.0 -0.0018841633731943586 0.0 0.0
-0.0012829712809998561 0.0006064783316925837 0.0 -0.00178669750256355 0.0 0.0
-0.0018623737472699409 0.0009508056392812936 0.0 -0.0017849052442590607 0.0 0.0
-0.0031368783367549113 0.0018775681068095018 0.0 -0.002216512685359995 0.0 0.0
-0.005689372872809073 0.004051641352843971 0.0 -0.003403712514338686 0.0 0.0
-0.009858781306801068 0.007888746398525548 0.0 -0.0055198250153388195 0.0 0.0
-0.015596111384799438 0.013349944220505172 0.0 -0.008342357353464447 0.0 0.0
-0.022696416597052516 0.020195706864937435 0.0 -0.011481608077639538 0.0 0.0
-0.0309507636275812 0.02820429063556462 0.0 -0.014648834925845677 0.0 0.0
-0.040213784762878846 0.037228921735604104 0.0 -0.017670672371082774 0.0 0.0
-0.050443040649994664 0.047227691502394364 0.0 -0.020573675257315793 0.0 0.0
-0.06166459770883265 0.058222949247562994 0.0 -0.023446671730694257 0.0 0.0
-0.07384017561798659 0.07015120419193943 0.0 -0.026483234673266853 0.0 0.0
-0.08653223015661093 0.08253234992119474 0.0 -0.030159722471523875 0.0 0.0
-0.09838707639495181 0.09398940824054547 0.0 -0.034945949579097246 0.0 0.0
-0.10671693201305713 0.10183445483905906 0.0 -0.04041480769154682 0.0 0.0
-0.10736350765346833 0.10194678571160853 0.0 -0.04512281525423245 0.0 0.0
-0.09479771503521392 0.08884008476432381 0.0 -0.0482670872641513 0.0 0.0
-0.09479771503520534 0.0888400847643176 0.0 0.0482670872642037 0.0 0.0
-0.10736350765344263 0.10194678571158189 0.0 0.04512281525429673 0.0 0.0
-0.10671693201301533 0.10183445483902487 0.0 0.040414807691595556 0.0 0.0
-0.09838707639489834 0.09398940824049262 0.0 0.03494594957910796 0.0 0.0
-0.08653223015654914 0.08253234992113434 0.0 0.030159722471518047 0.0 0.0
-0.0738401756179197 0.07015120419187415 0.0 0.02648323467325675 0.0 0.0
-0.06166459770876699 0.05822294924749727 0.0 0.023446671730676327 0.0 0.0
-0.05044304064993024 0.04722769150232908 0.0 0.02057367525729842 0.0 0.0
-0.040213784762815175 0.03722892173554326 0.0 0.01767067237106429 0.0 0.0
-0.03095076362752236 0.02820429063551133 0.0 0.0146488349258182 0.0 0.0
-0.022696416597003985 0.02019570686488903 0.0 0.011481608077613115 0.0 0.0
-0.01559611138476115 0.013349944220465204 0.0 0.00834235735344574 0.0 0.0
-0.009858781306774186 0.007888746398496904 0.0 0.0055198250153237205 0.0 0.0
-0.00568937287279235 0.004051641352825319 0.0 0.003403712514329804 0.0 0.0
-0.003136878336747348 0.0018775681068032846 0.0 0.0022165126853545547 0.0 0.0
-0.0018623737472668739 0.0009508056392804054 0.0 0.0017849052442562852 0.0 0.0
-0.0012829712809989818 0.0006064783316931388 0.0 0.001786697502563439 0.0 0.0
-0.0008735365715049487 0.00038129650461093956 0.0 0.001884163373193526 0.0 0.0
-0.0004362092209852786 7.834547187807184e-05 0.0 0.001736097981891338 0.0 0.0
-2.2694169075479498e-05 -0.00021939432849586542 0.0 0.000898311473455593 0.0 0.0
-7.535678346065611e-05 -0.00010131464154966574 0.0 -0.000681393122434204 0.0 0.0
-0.00048729030636573967 0.0001309446850459306 0.0 -0.0014365519375579283 0.0 0.0
-0.0009781271891842191 0.00042353047662269105 0.0 -0.0015941293777778087 0.0 0.0
-0.00146477017006591 0.0006783704479313979 0.0 -0.0014831051648709903 0.0 0.0
-0.0022336684134971474 0.0011723989725471728 0.0 -0.0014864013590847325 0.0 0.0
-0.003926974539817996 0.00250427973531564 0.0 -0.0019383340195713306 0.0 0.0
-0.007122863790247014 0.005344997492051418 0.0 -0.003117320284241498 0.0 0.0
-0.012083970276828837 0.010001217628196724 0.0 -0.00506676031920672 0.0 0.0
-0.01879109535437462 0.016431431808665575 0.0 -0.00758268661042949 0.0 0.0
-0.027093940602202715 0.024462729235825265 0.0 -0.01041484359289191 0.0 0.0
-0.03678433504295964 0.03388505729503599 0.0 -0.013272096984110138 0.0 0.0
-0.04770777987857888 0.04454367072114662 0.0 -0.01600475239375887 0.0 0.0
-0.0597932945505687 0.056370391774410944 0.0 -0.018658158992180374 0.0 0.0
-0.07302232058008704 0.06934410413868086 0.0 -0.021255337628058646 0.0 0.0
-0.08732135406228195 0.08337425039577306 0.0 -0.023800698366032158 0.0 0.0
-0.1022484261973175 0.09796444331659959 0.0 -0.026531736772661407 0.0 0.0
-0.1163236749452452 0.11157780238706172 0.0 -0.030205326378308306 0.0 0.0
-0.1263853434898518 0.1210803258109614 0.0 -0.03563663585679555 0.0 0.0
-0.12762973148859705 0.12173846841065838 0.0 -0.04298618809485899 0.0 0.0
-0.1140217942860419 0.10759912675756489 0.0 -0.052353130428836714 0.0 0.0
-0.11402179428603162 0.10759912675755512 0.0 0.052353130428886785 0.0 0.0
-0.1276297314885653 0.1217384684106273 0.0 0.04298618809491905 0.0 0.0
-0.12638534348980285 0.121080325810905 0.0 0.03563663585683635 0.0 0.0
-0.11632367494518318 0.11157780238700132 0.0 0.030205326378316466 0.0 0.0
-0.10224842619724554 0.09796444331653387 0.0 0.026531736772656356 0.0 0.0
-0.08732135406220452 0.08337425039569624 0.0 0.02380069836602572 0.0 0.0
-0.0730223205800111 0.06934410413860714 0.0 0.02125533762804166 0.0 0.0
-0.059793294550493245 0.05637039177433811 0.0 0.018658158992163443 0.0 0.0
-0.04770777987850516 0.044543670721076456 0.0 0.016004752393741162 0.0 0.0
-0.03678433504289147 0.033885057294971155 0.0 0.013272096984082216 0.0 0.0
-0.027093940602146212 0.024462729235770198 0.0 0.010414843592865874 0.0 0.0
-0.01879109535432987 0.016431431808625163 0.0 0.007582686610414557 0.0 0.0
-0.012083970276796738 0.010001217628166525 0.0 0.005066760319192509 0.0 0.0
-0.007122863790226593 0.005344997492030323 0.0 0.0031173202842300074 0.0 0.0
-0.00392697453980783 0.002504279735306536 0.0 0.0019383340195648358 0.0 0.0
-0.0022336684134930188 0.0011723989725442863 0.0 0.0014864013590821235 0.0 0.0
-0.0014647701700649662 0.0006783704479312869 0.0 0.0014831051648699356 0.0 0.0
-0.0009781271891835877 0.0004235304766228021 0.0 0.001594129377777087 0.0 0.0
-0.00048729030636520537 0.00013094468504531998 0.0 0.0014365519375570401 0.0 0.0
-7.535678346041325e-05 -0.00010131464154959462 0.0 0.0006813931224329273 0.0 0.0
-0.0001122285070604967 -1.2788213495262823e-05 0.0 -0.0004596651288469866 0.0 0.0
-0.0005304753112129745 0.00018057235741308908 0.0 -0.0010972552381983136 0.0 0.0
-0.0010777774457438327 0.00046207481375659665 0.0 -0.0012459218647694614 0.0 0.0
-0.0016525949462144474 0.0007600861652969915 0.0 -0.0011350390838668067 0.0 0.0
-0.0026599850543274073 0.0014572315871712593 0.0 -0.0011460331220670694 0.0 0.0
-0.004816955651687271 0.003254036200067034 0.0 -0.0015892235402260035 0.0 0.0
-0.00863121334183542 0.006742594157939097 0.0 -0.002594257569755676 0.0 0.0
-0.014332275568352204 0.012160626370802952 0.0 -0.004177532161248998 0.0 0.0
-0.02198808898945076 0.01953246160447053 0.0 -0.006243835208017301 0.0 0.0
-0.03147523768583832 0.028730608778328115 0.0 -0.008579689333483076 0.0 0.0
-0.042594616765464444 0.03955876712198014 0.0 -0.010941653908772664 0.0 0.0
-0.05518144079271059 0.05185502740855208 0.0 -0.013197011590073027 0.0 0.0
-0.06913343351891538 0.0655173225892205 0.0 -0.01540110492350677 0.0 0.0
-0.08436018891399627 0.08045373089800689 0.0 -0.01759019060408329 0.0 0.0
-0.10067308279027962 0.09646778812918244 0.0 -0.019562690969782692 0.0 0.0
-0.11756967941752192 0.11301853691312402 0.0 -0.021081035266863557 0.0 0.0
-0.13366312662498073 0.12864137773887263 0.0 -0.022910892731385246 0.0 0.0
-0.14573288879464866 0.14006213034689896 0.0 -0.027704652360342807 0.0 0.0
-0.14823495368371462 0.14189572426567576 0.0 -0.03824039400416279 0.0 0.0
-0.1342454053151022 0.12732271755894953 0.0 -0.05578873147552943 0.0 0.0
-0.13424540531509 0.12732271755893443 0.0 0.05578873147556829 0.0 0.0
-0.1482349536836774 0.141895724265638 0.0 0.038240394004214195 0.0 0.0
-0.14573288879459212 0.14006213034684212 0.0 0.02770465236037878 0.0 0.0
-0.1336631266249088 0.12864137773879936 0.0 0.02291089273139374 0.0 0.0
-0.11756967941743966 0.11301853691304409 0.0 0.021081035266861725 0.0 0.0
-0.1006730827901926 0.09646778812910117 0.0 0.019562690969778584 0.0 0.0
-0.08436018891390966 0.08045373089791807 0.0 0.017590190604070965 0.0 0.0
-0.069133433518829 0.06551732258913567 0.0 0.015401104923493752 0.0 0.0
-0.05518144079262656 0.051855027408468146 0.0 0.013197011590059482 0.0 0.0
-0.042594616765388144 0.039558767121906424 0.0 0.010941653908752014 0.0 0.0
-0.031475237685773816 0.028730608778270383 0.0 0.00857968933345854 0.0 0.0
-0.021988088989400092 0.019532461604422124 0.0 0.006243835208003756 0.0 0.0
-0.014332275568315747 0.01216062637076809 0.0 0.004177532161236175 0.0 0.0
-0.008631213341811064 0.006742594157919113 0.0 0.002594257569747127 0.0 0.0
-0.004816955651673845 0.003254036200055488 0.0 0.0015892235402215071 0.0 0.0
-0.002659985054322224 0.0014572315871652641 0.0 0.0011460331220658482 0.0 0.0
-0.0016525949462134482 0.0007600861652957702 0.0 0.0011350390838670288 0.0 0.0
-0.0010777774457430625 0.00046207481375670767 0.0 0.0012459218647679071 0.0 0.0
-0.0005304753112126831 0.00018057235741303357 0.0 0.0010972552381985912 0.0 0.0
-0.00011222850706020526 -1.2788213495427622e-05 0.0 0.00045966512884665356 0.0 0.0
-0.00012660023572313994 4.188828192625005e-05 0.0 -0.00023984230654167105 0.0 0.0
-0.0005567567005196339 0.00022108800719489174 0.0 -0.0007177537960940117 0.0 0.0
-0.0011747646544090773 0.0004985956992822338 0.0 -0.0008329679155612002 0.0 0.0
-0.0018628455025584412 0.0008628746919645547 0.0 -0.000744580481187973 0.0 0.0
-0.003157653524360482 0.0018278975665078079 0.0 -0.0007698511197048452 0.0 0.0
-0.0057914841778857196 0.004113331579179258 0.0 -0.0011091213080278162 0.0 0.0
-0.010169889614131178 0.008199360706388381 0.0 -0.001810628859522434 0.0 0.0
-0.016581973180338494 0.01433567633390398 0.0 -0.002892735965068116 0.0 0.0
-0.025155156263957923 0.02261941165672887 0.0 -0.004331480244655572 0.0 0.0
-0.03580732367333833 0.032964342806797386 0.0 -0.0059814075129303035 0.0 0.0
-0.0483491790009834 0.0451911744698994 0.0 -0.0076513800878628135 0.0 0.0
-0.06260204539976733 0.059126865343128276 0.0 -0.009246153689348335 0.0 0.0
-0.07842624218807459 0.07462987252628706 0.0 -0.01083391906332054 0.0 0.0
-0.0956379214869536 0.09151272183781956 0.0 -0.012396563334140187 0.0 0.0
-0.1138854025959698 0.10941994107331032 0.0 -0.013689390048187589 0.0 0.0
-0.13249732786105134 0.12767181006922312 0.0 -0.014248209067354134 0.0 0.0
-0.1501941963576463 0.1449415144595254 0.0 -0.014107719962648257 0.0 0.0
-0.1643345847831788 0.15847442126986255 0.0 -0.016391188618655406 0.0 0.0
-0.16939336355360546 0.16258949489352226 0.0 -0.029260142907223452 0.0 0.0
-0.15616942488030974 0.1486614086966025 0.0 -0.057764882799499095 0.0 0.0
-0.15616942488029412 0.14866140869658295 0.0 0.057764882799525075 0.0 0.0
-0.16939336355356294 0.16258949489348318 0.0 0.02926014290726442 0.0 0.0
-0.16433458478311364 0.1584744212698035 0.0 0.016391188618683272 0.0 0.0
-0.150194196357564 0.1449415144594437 0.0 0.014107719962652254 0.0 0.0
-0.1324973278609587 0.12767181006913386 0.0 0.01424820906735319 0.0 0.0
-0.11388540259587257 0.10941994107321174 0.0 0.013689390048187644 0.0 0.0
-0.09563792148685639 0.09151272183772186 0.0 0.012396563334134053 0.0 0.0
-0.07842624218797763 0.07462987252619646 0.0 0.010833919063315073 0.0 0.0
-0.06260204539967298 0.0591268653430439 0.0 0.009246153689341119 0.0 0.0
-0.048349179000898815 0.0451911744698168 0.0 0.007651380087850046 0.0 0.0
-0.03580732367326659 0.03296434280672944 0.0 0.005981407512917425 0.0 0.0
-0.025155156263901413 0.022619411656677357 0.0 0.004331480244648467 0.0 0.0
-0.01658197318029791 0.014335676333863123 0.0 0.002892735965059512 0.0 0.0
-0.010169889614102992 0.008199360706362846 0.0 0.0018106288595161613 0.0 0.0
-0.0057914841778695485 0.004113331579163271 0.0 0.001109121308021932 0.0 0.0
-0.0031576535243539802 0.0018278975665027009 0.0 0.0007698511197006819 0.0 0.0
-0.0018628455025567342 0.0008628746919642216 0.0 0.0007445804811861967 0.0 0.0
-0.0011747646544081405 0.0004985956992813456 0.0 0.0008329679155614222 0.0 0.0
-0.000556756700519058 0.00022108800719439214 0.0 0.0007177537960937896 0.0 0.0
-0.00012660023572318851 4.1888281926487705e-05 0.0 0.00023984230653922856 0.0 0.0
-0.00010653880005584426 5.66194994869873e-05 0.0 -3.8592374259849294e-05 0.0 0.0
-0.000550235427645207 0.00024248062890996902 0.0 -0.0002906111741907136 0.0 0.0
-0.0012756072685095043 0.0005379474667814854 0.0 -0.000341525895272643 0.0 0.0
-0.002118838284204505 0.0010140258446111883 0.0 -0.0003183307567370952 0.0 0.0
-0.003732455035336202 0.0022846087764105683 0.0 -0.000332747143491241 0.0 0.0
-0.006817019980153494 0.00504323263344153 0.0 -0.000469446947995944 0.0 0.0
-0.011722480256379286 0.009684171173852674 0.0 -0.000759404878957648 0.0 0.0
-0.01880474399702442 0.016497670322349833 0.0 -0.001214740485791288 0.0 0.0
-0.0282607395374026 0.02565733987969132 0.0 -0.0018545864253065591 0.0 0.0
-0.04005558709342305 0.03712796848504896 0.0 -0.00261711253798691 0.0 0.0
-0.054016696267617625 0.05075004375706227 0.0 -0.0034013939913182245 0.0 0.0
-0.06994126479339319 0.0663285583179416 0.0 -0.004166679007099883 0.0 0.0
-0.08762448512250653 0.08365940841582065 0.0 -0.0049200697214165645 0.0 0.0
-0.10679478817636362 0.10246381057767895 0.0 -0.005617490393172386 0.0 0.0
-0.12694757215339136 0.12223194956995176 0.0 -0.00611333336714559 0.0 0.0
-0.14716633695144363 0.14205160584943455 0.0 -0.006069735032860124 0.0 0.0
-0.16602779642089127 0.16050950153801358 0.0 -0.005065440072976157 0.0 0.0
-0.1814724989159269 0.17550600562138463 0.0 -0.004008178681010444 0.0 0.0
-0.1898743640292317 0.18319253522639656 0.0 -0.012118370130005718 0.0 0.0
-0.18180375507145655 0.1731722957638988 0.0 -0.053209020056256384 0.0 0.0
-0.18180375507143795 0.17317229576388016 0.0 0.05320902005626471 0.0 0.0
-0.18987436402918448 0.18319253522634993 0.0 0.012118370130025258 0.0 0.0
-0.18147249891585188 0.17550600562131358 0.0 0.004008178681022323 0.0 0.0
-0.1660277964207973 0.16050950153791987 0.0 0.005065440072975103 0.0 0.0
-0.14716633695134052 0.14205160584932974 0.0 0.006069735032858292 0.0 0.0
-0.12694757215328328 0.12223194956984695 0.0 0.006113333367148088 0.0 0.0
-0.10679478817625543 0.10246381057757104 0.0 0.005617490393168778 0.0 0.0
-0.08762448512239933 0.0836594084157185 0.0 0.004920069721413456 0.0 0.0
-0.06994126479328876 0.06632855831783946 0.0 0.004166679007096996 0.0 0.0
-0.05401669626752357 0.05075004375697301 0.0 0.0034013939913115077 0.0 0.0
-0.04005558709334428 0.03712796848497879 0.0 0.0026171125379815807 0.0 0.0
-0.028260739537340825 0.025657339879629593 0.0 0.0018545864253037836 0.0 0.0
-0.0188047439969798 0.016497670322302538 0.0 0.0012147404857880129 0.0 0.0
-0.011722480256347378 0.009684171173820033 0.0 0.0007594048789553165 0.0 0.0
-0.006817019980135064 0.0050432326334235444 0.0 0.0004694469479950558 0.0 0.0
-0.0037324550353282637 0.002284608776403463 0.0 0.0003327471434917406 0.0 0.0
-0.0021188382842016826 0.0010140258446103 0.0 0.0003183307567370397 0.0 0.0
-0.0012756072685083785 0.0005379474667811524 0.0 0.00034152589527186583 0.0 0.0
-0.0005502354276447959 0.00024248062890996902 0.0 0.00029061117418965887 0.0 0.0
-0.00010653880005523364 5.661949948632464e-05 0.0 3.8592374258517026e-05 0.0 0.0
SCALARS Statev float 8
LOOKUP_TABLE default
0.0 0.01363609298648488 0.010562532339877926 -0.010943340973449813 0.00038080863357188517 -0.006083603993693403 0.0 0.0
0.0 0.0008370379070274914 0.0005978874381566274 -0.0005111354191200538 -8.675201903657367e-05 0.0005419080309315305 0.0 0.0
0.0 3.342380937738801e-05 -4.754075056001044e-06 3.773145031477424e-06 9.809300245235895e-07 5.62033213615258e-07 0.0 0.0
0.0 0.00031973275346625725 0.0002359957839293666 -0.00018650829353032624 -4.9487490399040355e-05 -3.342723895656232e-05 0.0 0.0
0.0 0.0016829820701103199 0.00137732214969621 -0.0011479936086351088 -0.0002293285410611013 -0.00014883751423542643 0.0 0.0
0.0 0.004543433619790622 0.004107142464679293 -0.0036355258780382243 -0.000471616586641067 -0.00033703307909671457 0.0 0.0
0.0 0.009797398398007959 0.00871124561107465 -0.008076022458628318 -0.0006352231524463307 -0.0006215929421604805 0.0 0.0
0.0 0.017635045295154975 0.01552519078040176 -0.014776465926311797 -0.0007487248540899593 -0.0010556325355176237 0.0 0.0
0.0 0.02824741697157504 0.024720449260603558 -0.02386681353281405 -0.0008536357277894998 -0.00167053234801357 0.0 0.0
0.0 0.04160312272975853 0.036269371220307205 -0.03530527947870354 -0.0009640917416036579 -0.002418978727416324 0.0 0.0
0.0 0.05754740222090965 0.05001745849718418 -0.048938350754611296 -0.0010791077425728796 -0.003205293712545555 0.0 0.0
0.0 0.07557490328963336 0.06577479365763528 -0.06457838696561309 -0.0011964066920221535 -0.00397834350043587 0.0 0.0
0.0 0.09576634962204869 0.08334405040285472 -0.08202903153653313 -0.0013150188663215178 -0.004739779215044027 0.0 0.0
0.0 0.11785257448381153 0.10249450701725682 -0.10105801093730958 -0.0014364960799471546 -0.005481373226353937 0.0 0.0
0.0 0.1413272932039918 0.12284304859533608 -0.12128090120175564 -0.0015621473935804155 -0.006168356294748422 0.0 0.0
0.0 0.16545151534356528 0.14372002670663314 -0.14202922910961 -0.0016907975970232069 -0.006665885256248608 0.0 0.0
0.0 0.18902323240490962 0.16411396809523715 -0.16229572590107832 -0.0018182421941588052 -0.006737015544633983 0.0 0.0
0.0 0.21050215735293232 0.1827072817528445 -0.18076729798722738 -0.001939983765617127 -0.006161069676921335 0.0 0.0
0.0 0.22807701714446602 0.1979256373086037 -0.1958703722298538 -0.0020552650787498596 -0.0052502668295324895 0.0 0.0
0.0 0.23885066565674448 0.20738976304017787 -0.20515717861981242 -0.002232584420365437 -0.006098362918044022 0.0 0.0
0.0 0.23885066565673102 0.20738976304016574 -0.20515717861980093 -0.0022325844203647583 0.006098362918052922 0.0 0.0
0.0 0.22807701714441564 0.1979256373085597 -0.19587037222981016 -0.0020552650787494615 0.005250266829555136 0.0 0.0
0.0 0.21050215735284897 0.18270728175277232 -0.1807672979871556 -0.0019399837656166848 0.0061610696769341545 0.0 0.0
0.0 0.1890232324048026 0.16411396809514442 -0.16229572590098562 -0.0018182421941587744 0.006737015544641268 0.0 0.0
0.0 0.16545151534344785 0.1437200267065314 -0.14202922910950874 -0.0016907975970227242 0.006665885256239528 0.0 0.0
0.0 0.1413272932038719 0.12284304859523185 -0.12128090120165227 -0.0015621473935795384 0.006168356294746522 0.0 0.0
0.0 0.11785257448369449 0.10249450701715512 -0.10105801093720886 -0.001436496079946229 0.005481373226354122 0.0 0.0
0.0 0.09576634962193444 0.08334405040275542 -0.0820290315364349 -0.0013150188663205139 0.004739779215042857 0.0 0.0
0.0 0.07557490328952117 0.0657747936575381 -0.06457838696551635 -0.0011964066920217079 0.003978343500427828 0.0 0.0
0.0 0.0575474022208124 0.05001745849709963 -0.04893835075452723 -0.0010791077425724054 0.0032052937125399655 0.0 0.0
0.0 0.04160312272967619 0.036269371220235894 -0.03530527947863278 -0.0009640917416031273 0.002418978727406233 0.0 0.0
0.0 0.02824741697151072 0.02472044926054731 -0.0238668135327581 -0.0008536357277892347 0.001670532348011067 0.0 0.0
0.0 0.017635045295110348 0.015525190780362134 -0.014776465926272814 -0.0007487248540893141 0.0010556325355141455 0.0 0.0
0.0 0.009797398397977367 0.008711245611047306 -0.00807602245860156 -0.0006352231524457423 0.0006215929421585728 0.0 0.0
0.0 0.004543433619773317 0.004107142464663364 -0.003635525878023236 -0.0004716165866401274 0.0003370330790952616 0.0 0.0
0.0 0.001682982070102867 0.0013773221496900508 -0.001147993608629723 -0.00022932854106032718 0.0001488375142347412 0.0 0.0
0.0 0.00031973275346420605 0.0002359957839284358 -0.00018650829352956843 -4.948749039886734e-05 3.342723895637141e-05 0.0 0.0
0.0 3.342380937687491e-05 -4.754075055922566e-06 3.7731450314146314e-06 9.80930024507978e-07 -5.620332136057866e-07 0.0 0.0
0.0 0.0008370379070241461 0.0005978874381546192 -0.0005111354191182727 -8.675201903634695e-05 -0.0005419080309292694 0.0 0.0
0.0 0.013636092986466527 0.010562532339865786 -0.010943340973436643 0.0003808086335708524 0.006083603993663155 0.0 0.0
0.0 0.010159312070787527 0.007375000473624308 -0.007869553926575333 0.0004945534529510204 -0.007053966184284898 0.0 0.0
0.0 9.825195716219844e-06 6.90709004767668e-06 -6.070992597485495e-06 -8.360974501911898e-07 4.5019487464786605e-06 0.0 0.0
0.0 5.566847844115434e-07 7.16387438705303e-08 -5.325493855654683e-08 -1.8383805313986208e-08 -2.141268761212156e-08 0.0 0.0
0.0 0.000126678573604602 8.764979656481528e-05 -6.877625775446491e-05 -1.887353881035059e-05 -3.097171360900967e-05 0.0 0.0
0.0 0.0011324194884538672 0.0008872097856148697 -0.0007286965104238106 -0.00015851327519105944 -0.00023605688723337054 0.0 0.0
0.0 0.0035066482688525117 0.0031732242974645227 -0.0027658026876354776 -0.0004074216098290442 -0.0006899755578903728 0.0 0.0
0.0 0.008156437238384676 0.007246993530237129 -0.006649160612381423 -0.0005978329178557022 -0.001412716077855963 0.0 0.0
0.0 0.01523025373090412 0.013384633903622493 -0.012661145292017319 -0.0007234886116051738 -0.0024593997675469697 0.0 0.0
0.0 0.024834286617767896 0.0216959103472156 -0.020866876347149274 -0.0008290340000663143 -0.0038569944362005287 0.0 0.0
0.0 0.0368777793009076 0.032103788365771345 -0.031169044271641425 -0.0009347440941299273 -0.005491963717973563 0.0 0.0
0.0 0.05116142574036778 0.044436734837670355 -0.04339480372256154 -0.0010419311151088151 -0.0071803839731433925 0.0 0.0
0.0 0.06753690382820014 0.058529660096953776 -0.05737998424380947 -0.001149675853144293 -0.008809140806451154 0.0 0.0
0.0 0.08555549870145744 0.0742493312180792 -0.07299048275080444 -0.0012588484672747613 -0.010428850635660635 0.0 0.0
0.0 0.10530546109081515 0.09141290592733882 -0.09004252540780601 -0.0013703805195327912 -0.012047951818590398 0.0 0.0
0.0 0.12640555993857064 0.10969347935472801 -0.10820877376614461 -0.0014847055885833101 -0.013553104315315362 0.0 0.0
0.0 0.14812449740192757 0.12852468014593293 -0.1269234781651144 -0.0016012019808185713 -0.014677203376863176 0.0 0.0
0.0 0.16946233707207042 0.14703242971893393 -0.1453142355251035 -0.0017181941938304304 -0.014965427369089446 0.0 0.0
0.0 0.18903401968066377 0.16400654850227073 -0.16217164878913165 -0.0018348997131390488 -0.014078695118818428 0.0 0.0
0.0 0.20487326700165967 0.17775939792465642 -0.1757948147454578 -0.001964583179198608 -0.012280270159028606 0.0 0.0
0.0 0.2143741510621405 0.1860366223126736 -0.18397263972174419 -0.0020639825909294076 -0.009382988887406275 0.0 0.0
0.0 0.2143741510621241 0.18603662231265927 -0.18397263972172972 -0.002063982590929659 0.009382988887431526 0.0 0.0
0.0 0.20487326700161618 0.1777593979246178 -0.1757948147454196 -0.0019645831791982307 0.012280270159070916 0.0 0.0
0.0 0.18903401968059372 0.1640065485022088 -0.16217164878907106 -0.0018348997131377336 0.014078695118845049 0.0 0.0
0.0 0.16946233707198194 0.14703242971885644 -0.1453142355250276 -0.0017181941938286672 0.014965427369103793 0.0 0.0
0.0 0.14812449740182476 0.12852468014584428 -0.12692347816502575 -0.0016012019808184603 0.014677203376853834 0.0 0.0
0.0 0.1264055599384632 0.10969347935463525 -0.10820877376605163 -0.0014847055885835849 0.013553104315309558 0.0 0.0
0.0 0.10530546109071053 0.09141290592724809 -0.09004252540771579 -0.0013703805195322556 0.012047951818586422 0.0 0.0
0.0 0.08555549870135712 0.07424933121799195 -0.07299048275071818 -0.0012588484672737474 0.010428850635655268 0.0 0.0
0.0 0.06753690382810226 0.058529660096868746 -0.05737998424372537 -0.0011496758531433547 0.008809140806438907 0.0 0.0
0.0 0.05116142574028103 0.04443673483759495 -0.043394803722486934 -0.0010419311151079992 0.007180383973133161 0.0 0.0
0.0 0.03687777930083541 0.03210378836570863 -0.031169044271579287 -0.0009347440941293319 0.005491963717958819 0.0 0.0
0.0 0.02483428661771184 0.021695910347166183 -0.020866876347100504 -0.0008290340000656645 0.0038569944361937425 0.0 0.0
0.0 0.01523025373086335 0.013384633903586612 -0.012661145291982031 -0.0007234886116045853 0.002459399767539945 0.0 0.0
0.0 0.008156437238357921 0.00724699353021321 -0.006649160612358165 -0.0005978329178550422 0.001412716077851389 0.0 0.0
0.0 0.0035066482688383685 0.0031732242974520774 -0.0027658026876238324 -0.00040742160982824486 0.0006899755578872097 0.0 0.0
0.0 0.0011324194884478353 0.0008872097856102945 -0.0007286965104199042 -0.0001585132751903904 0.00023605688723224796 0.0 0.0
0.0 0.00012667857360284656 8.764979656383612e-05 -6.87762577536842e-05 -1.8873538810151766e-05 3.097171360872448e-05 0.0 0.0
0.0 5.566847844651345e-07 7.163874392574584e-08 -5.325493859812498e-08 -1.8383805327622754e-08 2.1412687630756727e-08 0.0 0.0
0.0 9.825195715863577e-06 6.907090047697062e-06 -6.0709925974934925e-06 -8.360974502035672e-07 -4.5019487464912194e-06 0.0 0.0
0.0 0.010159312070765382 0.0073750004736097205 -0.007869553926560097 0.0004945534529503727 0.00705396618425856 0.0 0.0
0.0 0.007722189527142699 0.0053101551754527205 -0.005834352018989681 0.0005241968435369618 -0.00620956017679218 0.0 0.0
0.0 0.0 0.0 0.0 0.0 0.0 0.0 0.0
0.0 0.0 0.0 0.0 0.0 0.0 0.0 0.0
0.0 2.7401698969362144e-05 2.168615465256789e-05 -1.694438770502479e-05 -4.741766947543123e-06 -1.4192048502010143e-05 0.0 0.0
0.0 0.0006424627571980127 0.000508977782068883 -0.00041214822837129956 -9.682955369758335e-05 -0.00024039588291646823 0.0 0.0
0.0 0.0027210377225990413 0.0022899579585569305 -0.001962392726419932 -0.0003275652321369977 -0.0008598793400439413 0.0 0.0
0.0 0.006575862179133077 0.005812652266493487 -0.005262930097110161 -0.0005497221693833269 -0.0019228622887947518 0.0 0.0
0.0 0.012849707884727434 0.011236678648021046 -0.010545623071239746 -0.0006910555767812932 -0.0034716019400716316 0.0 0.0
0.0 0.021441925859008837 0.01862825267970284 -0.017828643609917257 -0.000799609069785585 -0.005486816989416553 0.0 0.0
0.0 0.03218241762154216 0.027872119097907662 -0.026971456121517055 -0.0009006629763905878 -0.0078066666623340525 0.0 0.0
0.0 0.04487824097772212 0.03878389053840802 -0.03778376573306144 -0.0010001248053465859 -0.010198193277819467 0.0 0.0
0.0 0.05926742518613601 0.051217077416132684 -0.050118063178768144 -0.0010990142373645236 -0.012515234662954169 0.0 0.0
0.0 0.07540543645449804 0.06507147622215553 -0.06387289611136959 -0.0011985801107859194 -0.014795893299103073 0.0 0.0
0.0 0.09281649127980444 0.08022602928989638 -0.07892630378868577 -0.001299725501210556 -0.017091229900039962 0.0 0.0
0.0 0.11148274691837173 0.09642688670324043 -0.0950245190377927 -0.0014023676654477265 -0.019263258280399206 0.0 0.0
0.0 0.13086030510219548 0.11321760656120525 -0.11171088620704388 -0.001506720354161329 -0.020923439103785624 0.0 0.0
0.0 0.15001562330329488 0.12986315889132802 -0.12824945410002753 -0.0016137047913004697 -0.02151998560175778 0.0 0.0
0.0 0.1676420647657952 0.14523788651802663 -0.1435102184906849 -0.0017276680273417143 -0.020578401801481534 0.0 0.0
0.0 0.18189874638002157 0.15772335750429164 -0.15588443477276434 -0.0018389227315272487 -0.017611481467883647 0.0 0.0
0.0 0.19067548793880956 0.16548736106268233 -0.16356783821935383 -0.0019195228433283463 -0.011688054205846525 0.0 0.0
0.0 0.19067548793879774 0.16548736106267115 -0.16356783821934345 -0.001919522843327618 0.011688054205885898 0.0 0.0
0.0 0.18189874637998477 0.15772335750425753 -0.1558844347727313 -0.0018389227315263365 0.017611481467941514 0.0 0.0
0.0 0.16764206476573487 0.14523788651797254 -0.14351021849063156 -0.0017276680273408253 0.020578401801521245 0.0 0.0
0.0 0.15001562330321788 0.1298631588912601 -0.12824945409996066 -0.0016137047912995117 0.021519985601776148 0.0 0.0
0.0 0.1308603051021086 0.11321760656112978 -0.11171088620696958 -0.001506720354160125 0.02092343910377603 0.0 0.0
0.0 0.11148274691828054 0.09642688670316074 -0.09502451903771471 -0.0014023676654460553 0.019263258280392406 0.0 0.0
0.0 0.09281649127971017 0.08022602928981437 -0.07892630378860442 -0.001299725501209957 0.01709122990003477 0.0 0.0
0.0 0.07540543645440642 0.06507147622207601 -0.06387289611129043 -0.0011985801107855406 0.014795893299096044 0.0 0.0
0.0 0.059267425186047065 0.05121707741605627 -0.0501180631786918 -0.0010990142373644895 0.012515234662936385 0.0 0.0
0.0 0.04487824097764084 0.0387838905383376 -0.03778376573299129 -0.0010001248053462882 0.010198193277803198 0.0 0.0
0.0 0.032182417621475015 0.027872119097849535 -0.026971456121459406 -0.0009006629763901179 0.007806666662314053 0.0 0.0
0.0 0.021441925858957316 0.01862825267965791 -0.017828643609872918 -0.0007996090697849897 0.005486816989404672 0.0 0.0
0.0 0.012849707884691525 0.011236678647989676 -0.010545623071208824 -0.0006910555767808454 0.0034716019400615754 0.0 0.0
0.0 0.0065758621791109275 0.005812652266473875 -0.005262930097091308 -0.0005497221693825662 0.0019228622887885651 0.0 0.0
0.0 0.002721037722586346 0.0022899579585462957 -0.001962392726410414 -0.00032756523213588163 0.0008598793400400003 0.0 0.0
0.0 0.0006424627571935608 0.0005089777820656089 -0.00041214822836856216 -9.682955369704655e-05 0.00024039588291487475 0.0 0.0
0.0 2.740169896903564e-05 2.1686154652815773e-05 -1.6944387705208808e-05 -4.741766947606984e-06 1.4192048502104214e-05 0.0 0.0
0.0 0.0 0.0 0.0 0.0 0.0 0.0 0.0
0.0 0.0 0.0 0.0 0.0 0.0 0.0 0.0
0.0 0.007722189527123894 0.005310155175439824 -0.005834352018976162 0.0005241968435363363 0.006209560176771083 0.0 0.0
0.0 0.005804197393707586 0.00382957534784174 -0.004325816566950255 0.0004962412191085123 -0.004920356981882124 0.0 0.0
0.0 0.0 0.0 0.0 0.0 0.0 0.0 0.0
0.0 0.0 0.0 0.0 0.0 0.0 0.0 0.0
0.0 4.561242300558392e-06 1.7483080709409048e-06 -1.3572141691809552e-06 -3.9109390175993393e-07 -1.7785988162194198e-06 0.0 0.0
0.0 0.00031591681291218333 0.00024327938413281334 -0.00019507747589847215 -4.820190823434097e-05 -0.00018442106940664516 0.0 0.0
0.0 0.001878563658608435 0.0015308740801969934 -0.0012884641295296691 -0.00024240995066732442 -0.0008730365341079475 0.0 0.0
0.0 0.005122082748632117 0.004427859429240242 -0.003945039715374822 -0.0004828197138654202 -0.0021577734551845333 0.0 0.0
0.0 0.010522900783902021 0.009109523714050924 -0.008459725560827129 -0.0006497981532237918 -0.004085318110173352 0.0 0.0
0.0 0.018070598437429933 0.01555176398422005 -0.014788176393510878 -0.0007635875907091765 -0.006551607891932214 0.0 0.0
0.0 0.027492224809193538 0.02361215853977245 -0.022751021030211264 -0.0008611375095611588 -0.009367204198181364 0.0 0.0
0.0 0.038574607638552715 0.033094723662745996 -0.03214125082815873 -0.0009534728345872657 -0.012259259150419925 0.0 0.0
0.0 0.05113849495346082 0.0438636902103879 -0.04281987066165955 -0.0010438195487283623 -0.015077710761896415 0.0 0.0
0.0 0.06508475762618857 0.055852056644278246 -0.05471837272904911 -0.0011336839152291467 -0.017866993449564546 0.0 0.0
0.0 0.08036728620213958 0.0689837803466572 -0.06775924466298268 -0.001224535683674508 -0.02063510989458395 0.0 0.0
0.0 0.09673813920443247 0.08308388425411437 -0.08176844615116734 -0.0013154381029469974 -0.02325550214245605 0.0 0.0
0.0 0.11357530673016068 0.09781545224114009 -0.0964080437407071 -0.0014074085004329258 -0.02536884051584272 0.0 0.0
0.0 0.130556298808168 0.11257984524280944 -0.11107544561161418 -0.0015043996311952382 -0.02634918747832656 0.0 0.0
0.0 0.14633649501036872 0.1263963886833472 -0.12478911669017244 -0.0016072719931747982 -0.025436495837375284 0.0 0.0
0.0 0.1592854923955993 0.1378609694042741 -0.13615486133722557 -0.001706108067048481 -0.021591295823381956 0.0 0.0
0.0 0.1676457765047817 0.1454102497075337 -0.14363146060934076 -0.0017787890981929388 -0.013545042085966382 0.0 0.0
0.0 0.16764577650477153 0.14541024970752373 -0.14363146060933105 -0.001778789098192769 0.013545042086015755 0.0 0.0
0.0 0.15928549239556597 0.1378609694042423 -0.13615486133719418 -0.0017061080670480245 0.021591295823448958 0.0 0.0
0.0 0.14633649501031282 0.12639638868329656 -0.12478911669012147 -0.0016072719931749947 0.025436495837421032 0.0 0.0
0.0 0.1305562988081008 0.11257984524274967 -0.11107544561155475 -0.00150439963119489 0.02634918747834801 0.0 0.0
0.0 0.11357530673008207 0.09781545224107194 -0.09640804374063983 -0.0014074085004320879 0.025368840515833074 0.0 0.0
0.0 0.09673813920434797 0.08308388425404156 -0.08176844615109446 -0.0013154381029470933 0.023255502142445154 0.0 0.0
0.0 0.08036728620205681 0.06898378034658552 -0.0677592446629111 -0.001224535683674418 0.020635109894574725 0.0 0.0
0.0 0.06508475762611164 0.05585205664421106 -0.054718372728983056 -0.0011336839152279955 0.01786699344955449 0.0 0.0
0.0 0.05113849495338366 0.04386369021032103 -0.042819870661593595 -0.0010438195487274269 0.015077710761876913 0.0 0.0
0.0 0.038574607638483284 0.033094723662686176 -0.03214125082809928 -0.0009534728345868907 0.012259259150398754 0.0 0.0
0.0 0.027492224809136174 0.023612158539723656 -0.022751021030162737 -0.0008611375095609071 0.009367204198157722 0.0 0.0
0.0 0.01807059843738535 0.015551763984181542 -0.014788176393472931 -0.0007635875907086089 0.006551607891917469 0.0 0.0
0.0 0.010522900783868722 0.009109523714022117 -0.00845972556079913 -0.0006497981532229833 0.0040853181101603115 0.0 0.0
0.0 0.005122082748612067 0.004427859429223029 -0.003945039715358626 -0.0004828197138644024 0.002157773455176925 0.0 0.0
0.0 0.0018785636585983644 0.00153087408018941 -0.0012884641295229284 -0.00024240995066648218 0.0008730365341032075 0.0 0.0
0.0 0.00031591681290997454 0.00024327938413178243 -0.00019507747589762577 -4.820190823415677e-05 0.00018442106940593747 0.0 0.0
0.0 4.561242300263578e-06 1.748308071193601e-06 -1.3572141693763854e-06 -3.910939018172045e-07 1.7785988164700789e-06 0.0 0.0
0.0 0.0 0.0 0.0 0.0 0.0 0.0 0.0
0.0 0.0 0.0 0.0 0.0 0.0 0.0 0.0
0.0 0.005804197393690926 0.0038295753478306627 -0.0043258165669384655 0.0004962412191077999 0.004920356981865491 0.0 0.0
0.0 0.004229262358383781 0.0026902296270458373 -0.003123725821926066 0.0004334961948802296 -0.0036554429022247377 0.0 0.0
0.0 0.0 0.0 0.0 0.0 0.0 0.0 0.0
0.0 0.0 0.0 0.0 0.0 0.0 0.0 0.0
0.0 6.905878707321573e-07 2.545116271017136e-07 -1.9418262646129245e-07 -6.032900064042137e-08 -3.723231430021513e-07 0.0 0.0
0.0 0.00013231196491695867 9.241105275462346e-05 -7.384617086475255e-05 -1.856488188987098e-05 -0.0001084384506430679 0.0 0.0
0.0 0.0011689377847571916 0.0009169863265378768 -0.0007586322989083264 -0.00015835402762955057 -0.0007731213371941814 0.0 0.0
0.0 0.00386172800390078 0.0031398092637200266 -0.0027431991737188154 -0.0003966100900012105 -0.0021278539922537716 0.0 0.0
0.0 0.008318875421995093 0.007027245535524045 -0.006433829035234597 -0.0005934165002894484 -0.004259632935365404 0.0 0.0
0.0 0.01474282347915345 0.01250058944565267 -0.011781486743622298 -0.0007191027020303775 -0.0070440028276861095 0.0 0.0
0.0 0.02284033497957245 0.019360238848704758 -0.018545156717964088 -0.0008150821307406665 -0.010168990283699041 0.0 0.0
0.0 0.032317686031112805 0.027405529752679098 -0.0265043168018268 -0.0009012129508523235 -0.01337245041174364 0.0 0.0
0.0 0.042991280219673904 0.03650763555746358 -0.03552454188255991 -0.0009830936749036588 -0.016496262810777703 0.0 0.0
0.0 0.05488853799749184 0.046625574795303215 -0.04556205534904939 -0.001063519446253829 -0.019587879133101595 0.0 0.0
0.0 0.06777461167040573 0.05773234152875324 -0.05658864076353626 -0.001143700765216995 -0.02267294641338377 0.0 0.0
0.0 0.08174014437878735 0.06971835397763633 -0.06849487696830771 -0.0012234770093286001 -0.025583107904751243 0.0 0.0
0.0 0.09647627437657721 0.08234656097684759 -0.08104292603791818 -0.0013036349389293751 -0.027975063619663187 0.0 0.0
0.0 0.11109176289445875 0.09518199331256456 -0.09379486038260955 -0.0013871329299549823 -0.029301018566500386 0.0 0.0
0.0 0.1250039586529888 0.10747110484229216 -0.10599429132129655 -0.0014768135209955924 -0.028606193028230417 0.0 0.0
0.0 0.13683312501231504 0.11806798513416322 -0.11650225200867265 -0.0015657331254905458 -0.024393132247414823 0.0 0.0
0.0 0.14499717861412906 0.1255951047098983 -0.12395887305103616 -0.0016362316588620464 -0.01508504248280397 0.0 0.0
0.0 0.14499717861411673 0.12559510470988616 -0.12395887305102372 -0.0016362316588623526 0.015085042482856116 0.0 0.0
0.0 0.13683312501228492 0.11806798513413366 -0.11650225200864264 -0.0015657331254910055 0.024393132247483955 0.0 0.0
0.0 0.12500395865294447 0.10747110484225014 -0.10599429132125485 -0.0014768135209953003 0.028606193028281286 0.0 0.0
0.0 0.11109176289440321 0.09518199331251412 -0.09379486038255973 -0.0013871329299543964 0.02930101856652346 0.0 0.0
0.0 0.0964762743765109 0.08234656097678993 -0.08104292603786117 -0.0013036349389288163 0.02797506361965428 0.0 0.0
0.0 0.08174014437871657 0.069718353977575 -0.06849487696824691 -0.00122347700932811 0.025583107904739437 0.0 0.0
0.0 0.0677746116703348 0.057732341528691965 -0.05658864076347497 -0.0011437007652169793 0.02267294641337271 0.0 0.0
0.0 0.05488853799742455 0.046625574795244575 -0.04556205534899106 -0.0010635194462534853 0.019587879133090798 0.0 0.0
0.0 0.04299128021960879 0.03650763555740767 -0.035524541882504555 -0.0009830936749030974 0.016496262810756918 0.0 0.0
0.0 0.03231768603105601 0.02740552975263059 -0.026504316801779264 -0.0009012129508513281 0.013372450411720046 0.0 0.0
0.0 0.02284033497952105 0.01936023884866188 -0.01854515671792198 -0.0008150821307399101 0.010168990283671955 0.0 0.0
0.0 0.014742823479113563 0.012500589445618913 -0.011781486743588816 -0.0007191027020300902 0.0070440028276684405 0.0 0.0
0.0 0.008318875421968104 0.0070272455355016306 -0.006433829035212731 -0.0005934165002888988 0.004259632935351846 0.0 0.0
0.0 0.003861728003884751 0.0031398092637070713 -0.002743199173706833 -0.00039661009000023766 0.002127853992245794 0.0 0.0
0.0 0.001168937784749148 0.0009169863265319589 -0.0007586322989032875 -0.00015835402762867052 0.0007731213371892582 0.0 0.0
0.0 0.00013231196491503608 9.24110527537912e-05 -7.384617086405214e-05 -1.8564881889739004e-05 0.00010843845064195556 0.0 0.0
0.0 6.905878705770955e-07 2.5451162723543047e-07 -1.9418262656377968e-07 -6.032900067164876e-08 3.7232314320297425e-07 0.0 0.0
0.0 0.0 0.0 0.0 0.0 0.0 0.0 0.0
0.0 0.0 0.0 0.0 0.0 0.0 0.0 0.0
0.0 0.004229262358369628 0.0026902296270366615 -0.0031237258219161735 0.0004334961948795096 0.0036554429022113734 0.0 0.0
0.0 0.002914589710694757 0.001798385694873426 -0.0021475824407090186 0.00034919674583559193 -0.002564718670508061 0.0 0.0
0.0 0.0 0.0 0.0 0.0 0.0 0.0 0.0
0.0 0.0 0.0 0.0 0.0 0.0 0.0 0.0
0.0 1.2459832782016668e-06 -8.711175530045244e-08 6.722946238267231e-08 1.9882292917777628e-08 2.0432140011233723e-07 0.0 0.0
0.0 5.727667228772032e-05 3.071854644141323e-05 -2.448546633538637e-05 -6.233080106026857e-06 -5.3643621092338565e-05 0.0 0.0
0.0 0.000632474559544845 0.0004724284640604415 -0.0003855381951550743 -8.689026890536704e-05 -0.0005933874838367749 0.0 0.0
0.0 0.0025828801150882025 0.0020260778429991785 -0.0017319366657417995 -0.0002941411772573792 -0.0019285540105337202 0.0 0.0
0.0 0.006231599261800684 0.005047358978187218 -0.0045351719582987495 -0.0005121870198884685 -0.004060730120870057 0.0 0.0
0.0 0.011531440455153903 0.009507250908648337 -0.008846381579955676 -0.0006608693286926567 -0.006931584712276085 0.0 0.0
0.0 0.018246626448630492 0.015154705023540528 -0.014394403042673762 -0.0007603019808667665 -0.01020006414839001 0.0 0.0
0.0 0.026089371134688868 0.02175541208786315 -0.020914075235887147 -0.0008413368519759993 -0.013520576773013078 0.0 0.0
0.0 0.03490123340779124 0.02918941413686335 -0.02827374574533708 -0.0009156683915262807 -0.01676001797802566 0.0 0.0
0.0 0.044643651548068215 0.0374377938571901 -0.03645110293103547 -0.0009866909261546258 -0.019968283963224115 0.0 0.0
0.0 0.05533214929278502 0.046512819514408596 -0.04545661876350199 -0.0010562007509066175 -0.023156312993440585 0.0 0.0
0.0 0.06693297573175835 0.05637222616504854 -0.05524672101481665 -0.0011255051502319243 -0.026187172267872275 0.0 0.0
0.0 0.07898756043338614 0.06686292546797142 -0.065669149249371 -0.0011937762186004495 -0.02874254659200573 0.0 0.0
0.0 0.09156372186421113 0.0776994401534539 -0.07643721306825918 -0.0012622270851946765 -0.030306995539528588 0.0 0.0
0.0 0.10375167764968427 0.08842208932619992 -0.08708614684862581 -0.0013359424775741136 -0.029972399891207542 0.0 0.0
0.0 0.11438164665213302 0.09821346678978154 -0.09679825450143452 -0.0014152122883469788 -0.025993417754079238 0.0 0.0
0.0 0.12249902952166321 0.10585481287073854 -0.10436733389877431 -0.0014874789719641845 -0.01633851142991252 0.0 0.0
0.0 0.12249902952165354 0.10585481287072838 -0.10436733389876374 -0.001487478971964636 0.01633851142996568 0.0 0.0
0.0 0.11438164665210912 0.09821346678975601 -0.09679825450140919 -0.0014152122883468328 0.0259934177541499 0.0 0.0
0.0 0.10375167764964759 0.08842208932616348 -0.08708614684858965 -0.0013359424775738363 0.029972399891258432 0.0 0.0
0.0 0.09156372186416359 0.07769944015341021 -0.07643721306821563 -0.0012622270851945585 0.030306995539549332 0.0 0.0
0.0 0.07898756043333262 0.0668629254679253 -0.06566914924932529 -0.0011937762185999564 0.028742546591995592 0.0 0.0
0.0 0.06693297573170323 0.05637222616500074 -0.05524672101476964 -0.001125505150231083 0.026187172267860395 0.0 0.0
0.0 0.05533214929272762 0.046512819514358754 -0.045456618763452694 -0.0010562007509060832 0.02315631299342826 0.0 0.0
0.0 0.04464365154801261 0.0374377938571419 -0.036451102930987765 -0.0009866909261541522 0.019968283963212145 0.0 0.0
0.0 0.03490123340774041 0.029189414136820104 -0.028273745745294634 -0.0009156683915254648 0.01676001797800648 0.0 0.0
0.0 0.02608937113464055 0.021755412087822786 -0.020914075235847242 -0.0008413368519755558 0.013520576772989668 0.0 0.0
0.0 0.018246626448587946 0.015154705023505799 -0.014394403042639699 -0.0007603019808661016 0.01020006414836214 0.0 0.0
0.0 0.011531440455121026 0.00950725090862093 -0.00884638157992905 -0.0006608693286918779 0.006931584712257506 0.0 0.0
0.0 0.006231599261776953 0.0050473589781680345 -0.004535171958280491 -0.0005121870198875448 0.0040607301208555 0.0 0.0
0.0 0.0025828801150758855 0.0020260778429897347 -0.0017319366657332364 -0.0002941411772564973 0.001928554010525569 0.0 0.0
0.0 0.0006324745595397562 0.0004724284640571806 -0.00038553819515237933 -8.689026890480115e-05 0.0005933874838330469 0.0 0.0
0.0 5.727667228642374e-05 3.0718546441173844e-05 -2.448546633517617e-05 -6.233080105997676e-06 5.364362109181207e-05 0.0 0.0
0.0 1.245983277765114e-06 -8.711175526903953e-08 6.722946235833695e-08 1.9882292910690027e-08 -2.0432140003799813e-07 0.0 0.0
0.0 0.0 0.0 0.0 0.0 0.0 0.0 0.0
0.0 0.0 0.0 0.0 0.0 0.0 0.0 0.0
0.0 0.002914589710683794 0.0017983856948665937 -0.002147582440701388 0.00034919674583479493 0.00256471867049822 0.0 0.0
0.0 0.0018781496100993666 0.00110577733569506 -0.00135861440930905 0.00025283707361398953 -0.0016654914969314472 0.0 0.0
0.0 5.610935232125803e-07 -8.037160125762508e-09 8.338978319598262e-09 -3.018181938355691e-10 1.1164998698213293e-07 0.0 0.0
0.0 0.0 0.0 0.0 0.0 0.0 0.0 0.0
0.0 1.343535810957597e-06 -6.745450613659108e-08 5.1836617700734505e-08 1.5617888435866596e-08 2.5068220686766373e-07 0.0 0.0
0.0 3.0778512464557114e-05 1.4242325270287093e-05 -1.1283584911304236e-05 -2.958740358982859e-06 -3.684151954536765e-05 0.0 0.0
0.0 0.0003339218091432988 0.0001951395857772205 -0.00015784263820561888 -3.7296947571601706e-05 -0.0003711822363603241 0.0 0.0
0.0 0.0015585081330360827 0.0011177909619723245 -0.0009342204636359203 -0.0001835704983364043 -0.0015424765741112198 0.0 0.0
0.0 0.004255594522666041 0.0032513440117632976 -0.0028504124758947833 -0.00040093153586851285 -0.003549804193546823 0.0 0.0
0.0 0.008423915811372105 0.006635414154505099 -0.006058877016418575 -0.0005765371380865188 -0.006256893033368712 0.0 0.0
0.0 0.013739391587572054 0.011037633656292007 -0.01034717917708739 -0.000690454479204613 -0.009423909829224654 0.0 0.0
0.0 0.019939050163538953 0.01618615948170779 -0.015416033007585378 -0.0007701264741224127 -0.012689284258033248 0.0 0.0
0.0 0.026866409158989725 0.02195502667043424 -0.021116488496478764 -0.000838538173955472 -0.0158553435619486 0.0 0.0
0.0 0.03452109069617777 0.028337147298988345 -0.02743644429947396 -0.0009007029995143804 -0.018974183277497565 0.0 0.0
0.0 0.04288164795813712 0.035379263642631255 -0.03441963074666768 -0.0009596328959635606 -0.02208435115498397 0.0 0.0
0.0 0.05202138928228825 0.04309724628701185 -0.04207968952196109 -0.00101755676505078 -0.025058053292849845 0.0 0.0
0.0 0.06176971061300879 0.05141708976733046 -0.05034096434876543 -0.0010761254185650605 -0.02758615049571178 0.0 0.0
0.0 0.07184355455362057 0.06018080117339226 -0.05905123147824931 -0.0011295696951429141 -0.02928078293539383 0.0 0.0
0.0 0.08207841905239308 0.06922410791931743 -0.06804088364219561 -0.0011832242771218297 -0.029440458199968746 0.0 0.0
0.0 0.09193056656705406 0.07815533178156173 -0.07690544828963279 -0.0012498834919289089 -0.02628961750899446 0.0 0.0
0.0 0.10017124994470433 0.08599258820133468 -0.08466539153150976 -0.0013271966698248962 -0.017277430112515976 0.0 0.0
0.0 0.10017124994470146 0.08599258820132952 -0.08466539153150511 -0.001327196669824399 0.01727743011256785 0.0 0.0
0.0 0.0919305665670352 0.07815533178153941 -0.07690544828961074 -0.0012498834919287584 0.026289617509064278 0.0 0.0
0.0 0.0820784190523652 0.06922410791928778 -0.0680408836421662 -0.0011832242771215315 0.029440458200018692 0.0 0.0
0.0 0.0718435545535861 0.06018080117335878 -0.059051231478216566 -0.0011295696951422413 0.029280782935416118 0.0 0.0
0.0 0.06176971061296428 0.05141708976729212 -0.05034096434872762 -0.0010761254185644928 0.02758615049570072 0.0 0.0
0.0 0.05202138928224262 0.043097246286972944 -0.042079689521922495 -0.0010175567650504375 0.02505805329283572 0.0 0.0
0.0 0.04288164795809525 0.035379263642595096 -0.03441963074663185 -0.0009596328959632465 0.02208435115497362 0.0 0.0
0.0 0.03452109069613666 0.028337147298952942 -0.02743644429943889 -0.0009007029995140511 0.018974183277486442 0.0 0.0
0.0 0.026866409158950725 0.021955026670401574 -0.021116488496446744 -0.0008385381739548338 0.015855343561930038 0.0 0.0
0.0 0.01993905016350289 0.016186159481678633 -0.015416033007556867 -0.0007701264741217514 0.012689284258010101 0.0 0.0
0.0 0.013739391587540457 0.011037633656267521 -0.01034717917706344 -0.0006904544792040766 0.009423909829199622 0.0 0.0
0.0 0.008423915811348572 0.0066354141544866605 -0.006058877016400665 -0.000576537138085994 0.006256893033353287 0.0 0.0
0.0 0.004255594522649186 0.0032513440117502793 -0.002850412475882826 -0.00040093153586745267 0.003549804193534959 0.0 0.0
0.0 0.0015585081330251782 0.0011177909619645026 -0.0009342204636290589 -0.000183570498335443 0.001542476574101849 0.0 0.0
0.0 0.00033392180914007416 0.00019513958577573794 -0.0001578426382044042 -3.729694757133359e-05 0.0003711822363575237 0.0 0.0
0.0 3.0778512463212025e-05 1.4242325270201424e-05 -1.1283584911232028e-05 -2.9587403589694074e-06 3.684151954514666e-05 0.0 0.0
0.0 1.343535810551308e-06 -6.74545061154224e-08 5.1836617684484416e-08 1.561788843093987e-08 -2.5068220678900275e-07 0.0 0.0
0.0 0.0 0.0 0.0 0.0 0.0 0.0 0.0
0.0 5.610935225658215e-07 -8.037160116491167e-09 8.3389783100577e-09 -3.018181935663175e-10 -1.1164998685127716e-07 0.0 0.0
0.0 0.0018781496100907175 0.0011057773356901069 -0.001358614409303369 0.00025283707361326165 0.0016654914969239589 0.0 0.0
0.0 0.0010759517434955751 0.0005919182952404038 -0.0007507514986880547 0.0001588332034476506 -0.0009509227498197452 0.0 0.0
0.0 1.1166327790613602e-06 1.9061216552147043e-08 -1.667983885812099e-08 -2.3813776940274007e-09 -4.96150230764477e-07 0.0 0.0
0.0 6.305102464673167e-07 -7.0898921551877894e-09 5.074535917472657e-09 2.0153562377156586e-09 1.2874703632778445e-07 0.0 0.0
0.0 1.163237473837045e-06 3.812492981110868e-08 -3.2423616953700855e-08 -5.701312857405646e-09 -3.198765669920663e-07 0.0 0.0
0.0 2.5121754606074525e-05 8.320980907728314e-06 -6.56772406330265e-06 -1.7532568444256768e-06 -3.375519550249434e-05 0.0 0.0
0.0 0.00017899841610945417 7.635075230572469e-05 -6.13582387218177e-05 -1.4992513583906992e-05 -0.00023413999934935304 0.0 0.0
0.0 0.000831022618504727 0.0004796842327050022 -0.0003929928142058128 -8.669141849918926e-05 -0.001046736512934241 0.0 0.0
0.0 0.002535726341377529 0.0017196382301856716 -0.0014618575974156198 -0.0002577806327700515 -0.0027426200903909875 0.0 0.0
0.0 0.0054968889687104045 0.0039798859675597206 -0.0035317971073006884 -0.0004480888602590292 -0.005100084365285131 0.0 0.0
0.0 0.00931107429645079 0.00708391587898422 -0.006496648606406311 -0.0005872672725779092 -0.007885846044938099 0.0 0.0
0.0 0.013944607773265356 0.01075575711949779 -0.010078873424284686 -0.0006768836952131003 -0.010830660138051312 0.0 0.0
0.0 0.018954379514606007 0.014861339528259188 -0.014117874248090431 -0.0007434652801687532 -0.013730502506584273 0.0 0.0
0.0 0.02447750803746216 0.01938682532886924 -0.018587684083180785 -0.00079914124568846 -0.01658445322785566 0.0 0.0
0.0 0.030575353247249037 0.024394994039075763 -0.02354678148181205 -0.0008482125572637141 -0.01941180676980694 0.0 0.0
0.0 0.03733089237727892 0.029955645525760494 -0.029060985602473208 -0.0008946599232872762 -0.022149562876505224 0.0 0.0
0.0 0.04458976385866907 0.03608056474212519 -0.03513824335884719 -0.0009423213832780017 -0.024526610123019123 0.0 0.0
0.0 0.05233846790422653 0.04270751041459641 -0.04172029475191796 -0.000987215662678442 -0.026144635223351028 0.0 0.0
0.0 0.06042038823259541 0.049885391739836644 -0.04886702882842732 -0.0010183629114093075 -0.02672333411552668 0.0 0.0
0.0 0.06894503044149836 0.05775252736620763 -0.05669132049213929 -0.0010612068740683057 -0.02498552000928921 0.0 0.0
0.0 0.07723477756025898 0.06578811283036799 -0.06464371246385009 -0.0011444003665179326 -0.017805085869654062 0.0 0.0
0.0 0.0772347775602572 0.06578811283036357 -0.06464371246384544 -0.0011444003665181393 0.017805085869699214 0.0 0.0
0.0 0.06894503044149092 0.05775252736619463 -0.05669132049212632 -0.0010612068740683046 0.024985520009352672 0.0 0.0
0.0 0.06042038823257714 0.04988539173981467 -0.04886702882840561 -0.001018362911409056 0.02672333411557229 0.0 0.0
0.0 0.05233846790419983 0.04270751041457045 -0.04172029475189265 -0.00098721566267783 0.02614463522336581 0.0 0.0
0.0 0.04458976385863708 0.036080564742098434 -0.03513824335882119 -0.0009423213832772362 0.024526610123006283 0.0 0.0
0.0 0.03733089237724087 0.0299556455257291 -0.029060985602442108 -0.0008946599232870093 0.022149562876488345 0.0 0.0
0.0 0.03057535324721803 0.02439499403904977 -0.02354678148178643 -0.0008482125572633539 0.01941180676979592 0.0 0.0
0.0 0.024477508037435976 0.019386825328846922 -0.01858768408315886 -0.000799141245688064 0.016584453227847032 0.0 0.0
0.0 0.018954379514578297 0.01486133952823666 -0.014117874248068544 -0.0007434652801681157 0.01373050250656866 0.0 0.0
0.0 0.013944607773234679 0.010755757119473935 -0.01007887342426126 -0.0006768836952126667 0.010830660138029139 0.0 0.0
0.0 0.009311074296425643 0.007083915878965951 -0.00649664860638869 -0.0005872672725772571 0.007885846044915575 0.0 0.0
0.0 0.005496888968693393 0.0039798859675471586 -0.0035317971072888798 -0.00044808886025827783 0.005100084365271273 0.0 0.0
0.0 0.002535726341367069 0.0017196382301782286 -0.0014618575974090014 -0.00025778063276922644 0.0027426200903813715 0.0 0.0
0.0 0.0008310226185000509 0.00047968423270246816 -0.00039299281420366954 -8.669141849879866e-05 0.0010467365129295902 0.0 0.0
0.0 0.00017899841610777745 7.635075230541626e-05 -6.135823872156121e-05 -1.4992513583855045e-05 0.000234139999348285 0.0 0.0
0.0 2.5121754605420243e-05 8.320980907778214e-06 -6.567724063339478e-06 -1.7532568444387243e-06 3.375519550271274e-05 0.0 0.0
0.0 1.1632374735666632e-06 3.812492988721803e-08 -3.242361701331886e-08 -5.701312873902142e-09 3.198765675362082e-07 0.0 0.0
0.0 6.305102458760242e-07 -7.089892147158693e-09 5.074535912009278e-09 2.015356235150372e-09 -1.2874703620679312e-07 0.0 0.0
0.0 1.1166327785402812e-06 1.906121659408167e-08 -1.6679838906951584e-08 -2.3813776871301355e-09 4.96150231788502e-07 0.0 0.0
0.0 0.001075951743489554 0.000591918295237422 -0.0007507514986844667 0.0001588332034470449 0.0009509227498150656 0.0 0.0
0.0 0.0004688918423125471 0.00025389212574047167 -0.0003356294845753194 8.173735883484779e-05 -0.0004392584121995236 0.0 0.0
0.0 2.420478451298843e-06 1.5651925994780503e-09 -1.8155358644541272e-10 -1.3836390130324209e-09 -1.6670999813390133e-07 0.0 0.0
0.0 9.63154364247856e-07 -4.3491901851635806e-10 -2.7695683451855e-10 7.118758530345599e-10 -9.337151599573804e-08 0.0 0.0
0.0 2.568267493371802e-06 1.2241642508543202e-07 -8.606756411412792e-08 -3.634886097130085e-08 -1.7290290435309921e-06 0.0 0.0
0.0 2.6616042585714175e-05 5.101360813561093e-06 -3.95970129957222e-06 -1.1416595139888788e-06 -3.9008578936468355e-05 0.0 0.0
0.0 0.0001349087307310031 3.3733792020928785e-05 -2.707251668653656e-05 -6.661275334392227e-06 -0.00018993970197610696 0.0 0.0
0.0 0.0004344968345706997 0.00015291100532334855 -0.0001236837445045284 -2.9227260818820066e-05 -0.0006366273572894468 0.0 0.0
0.0 0.0012231662296323987 0.0006009690774888179 -0.0004942013688141753 -0.0001067677086746426 -0.0017344692360881668 0.0 0.0
0.0 0.002873100455850476 0.0016959394473735846 -0.0014411126282356278 -0.00025482681913795684 -0.0035073431220263877 0.0 0.0
0.0 0.005231867548829739 0.003428911245669982 -0.003020582623246082 -0.0004083286224238994 -0.005667236459192152 0.0 0.0
0.0 0.008066785999959091 0.005587122272888313 -0.005063998348001516 -0.0005231239248867962 -0.008014064730377335 0.0 0.0
0.0 0.011304727750044936 0.008010052813831178 -0.0074096383635830765 -0.0006004144502480984 -0.010405754579632984 0.0 0.0
0.0 0.014806131827065729 0.0106860844291863 -0.01002765394537233 -0.0006584304838139699 -0.012824897596002588 0.0 0.0
0.0 0.018672884947926016 0.013670002604900127 -0.012967055860378572 -0.0007029467445215449 -0.015223036176361025 0.0 0.0
0.0 0.022980503026392422 0.0170552982026008 -0.01631589916477571 -0.0007393990378250832 -0.01757084010203339 0.0 0.0
0.0 0.027786942845484837 0.02094717808655283 -0.02017284946463606 -0.0007743286219167841 -0.019718957652208578 0.0 0.0
0.0 0.03311166701515444 0.02540846374426617 -0.02459496004172082 -0.0008135037025453657 -0.021268119087393157 0.0 0.0
0.0 0.03901028714330568 0.030562050445013415 -0.029721624575058 -0.0008404258699554289 -0.02194141541707219 0.0 0.0
0.0 0.046060813217073386 0.03692565569143114 -0.03608743450644905 -0.0008382211849820886 -0.021621937393203967 0.0 0.0
0.0 0.0542586283738272 0.04494762664823148 -0.04403205614879851 -0.000915570499432982 -0.017619766862399678 0.0 0.0
0.0 0.05425862837382869 0.0449476266482293 -0.04403205614879595 -0.0009155704994333684 0.017619766862438786 0.0 0.0
0.0 0.04606081321707194 0.03692565569142293 -0.03608743450644088 -0.00083822118498202 0.021621937393260134 0.0 0.0
0.0 0.03901028714329774 0.03056205044500013 -0.029721624575045028 -0.0008404258699551022 0.02194141541711203 0.0 0.0
0.0 0.03311166701513703 0.025408463744249224 -0.024594960041703806 -0.0008135037025454126 0.021268119087402112 0.0 0.0
0.0 0.027786942845457414 0.020947178086532386 -0.0201728494646149 -0.0007743286219174833 0.019718957652191647 0.0 0.0
0.0 0.022980503026369094 0.017055298202583235 -0.01631589916475799 -0.0007393990378252414 0.01757084010201878 0.0 0.0
0.0 0.018672884947909762 0.013670002604887129 -0.012967055860365761 -0.0007029467445213688 0.015223036176354045 0.0 0.0
0.0 0.014806131827052697 0.010686084429175246 -0.010027653945361616 -0.0006584304838136347 0.012824897595998943 0.0 0.0
0.0 0.01130472775002915 0.008010052813819814 -0.007409638363572153 -0.0006004144502476605 0.010405754579620605 0.0 0.0
0.0 0.008066785999941713 0.005587122272876718 -0.005063998347990255 -0.0005231239248864616 0.008014064730360539 0.0 0.0
0.0 0.005231867548813302 0.0034289112456598997 -0.0030205826232365925 -0.0004083286224233049 0.005667236459174094 0.0 0.0
0.0 0.0028731004558414375 0.0016959394473675263 -0.00144111262823025 -0.0002548268191372764 0.0035073431220172878 0.0 0.0
0.0 0.001223166229626505 0.0006009690774857091 -0.0004942013688115107 -0.0001067677086741985 0.001734469236081102 0.0 0.0
0.0 0.00043449683456749284 0.00015291100532232582 -0.00012368374450368188 -2.922726081864387e-05 0.0006366273572855916 0.0 0.0
0.0 0.0001349087307296414 3.373379202094565e-05 -2.7072516686541084e-05 -6.661275334404548e-06 0.00018993970197577698 0.0 0.0
0.0 2.6616042585018252e-05 5.1013608135352105e-06 -3.959701299550453e-06 -1.1416595139847597e-06 3.900857893627451e-05 0.0 0.0
0.0 2.568267493250407e-06 1.224164251348636e-07 -8.606756414852559e-08 -3.6348860986335336e-08 1.7290290442726682e-06 0.0 0.0
0.0 9.631543640082e-07 -4.3491901796175703e-10 -2.7695683348165374e-10 7.118758514438759e-10 9.33715164513042e-08 0.0 0.0
0.0 2.420478450754522e-06 1.5651926051361345e-09 -1.8155359941287668e-10 -1.383639005723578e-09 1.667099985599127e-07 0.0 0.0
0.0 0.00046889184230851247 0.00025389212573874876 -0.0003356294845731579 8.173735883440894e-05 0.0004392584121966009 0.0 0.0
0.0 0.00013453549081493386 6.908588836026489e-05 -9.584086599896467e-05 2.6754977638699794e-05 -0.00012682502858712855 0.0 0.0
0.0 2.906889952522623e-06 3.2671053867281717e-10 2.216982692777883e-09 -2.543693231449451e-09 -4.927579951070314e-07 0.0 0.0
0.0 3.6298017225025803e-06 -1.1070646144110812e-07 1.0495740414074388e-07 5.749057300364886e-09 -3.1164543692033287e-06 0.0 0.0
0.0 5.90328844903222e-06 -9.547019315589434e-08 1.2877841575546266e-07 -3.3308222599567687e-08 -8.2136352281467e-06 0.0 0.0
0.0 3.173873375269166e-05 1.1780136965688912e-06 -7.964315841612681e-07 -3.815821124076297e-07 -4.420706775127325e-05 0.0 0.0
0.0 0.00012854884503890428 1.0191792462185988e-05 -8.059574616612327e-06 -2.132217845573647e-06 -0.000195040347017535 0.0 0.0
0.0 0.0003179633546504615 3.680892230104931e-05 -2.9719258132108297e-05 -7.089664168941025e-06 -0.0005126023951547332 0.0 0.0
0.0 0.000662093626680443 0.00010004700083906467 -8.122613063226153e-05 -1.8820870206803012e-05 -0.0010343181778040996 0.0 0.0
0.0 0.0012006538733774729 0.0002590714211122739 -0.00021089548193542885 -4.817593917684478e-05 -0.0019388588493830844 0.0 0.0
0.0 0.0021282823854121813 0.0005968710427569808 -0.0004858607570145859 -0.0001110102857423948 -0.00325024458003601 0.0 0.0
0.0 0.003247751976965343 0.0011263596886034934 -0.0009246507768121161 -0.00020170891179137706 -0.0048938894814841444 0.0 0.0
0.0 0.0047075973394584405 0.0018075264181999652 -0.0015196972282987293 -0.00028782918990123533 -0.006732572952381485 0.0 0.0
0.0 0.006382790147448448 0.002618644035067947 -0.0022588214701951157 -0.00035982256487282894 -0.008718964811366928 0.0 0.0
0.0 0.008300403878675885 0.0035710687070673827 -0.003155337821579334 -0.0004157308854880501 -0.010832871722450212 0.0 0.0
0.0 0.010470599861729733 0.0047567328160125905 -0.004298929028389615 -0.0004578037876229729 -0.01305257883713168 0.0 0.0
0.0 0.013024071218186222 0.006351073972059602 -0.005859671108611404 -0.0004914028634481955 -0.01523292399134503 0.0 0.0
0.0 0.01599423978532193 0.00860165094157836 -0.008074730141683533 -0.0005269207998948218 -0.016969417083780556 0.0 0.0
0.0 0.01945645987790104 0.011721802685438234 -0.01114776396758266 -0.0005740387178555701 -0.017636057011800245 0.0 0.0
0.0 0.024143342740647156 0.016125329866812296 -0.015549662139139754 -0.0005756677276725335 -0.017448672108129698 0.0 0.0
0.0 0.03143111320937077 0.023261612515148522 -0.022705258229030294 -0.000556354286118229 -0.01666725373178351 0.0 0.0
0.0 0.03143111320937406 0.02326161251514864 -0.022705258229030197 -0.000556354286118442 0.016667253731810584 0.0 0.0
0.0 0.024143342740654036 0.01612532986681149 -0.015549662139139062 -0.0005756677276724355 0.01744867210817208 0.0 0.0
0.0 0.019456459877899745 0.011721802685433037 -0.011147763967577497 -0.0005740387178555387 0.017636057011823338 0.0 0.0
0.0 0.01599423978531347 0.008601650941572487 -0.008074730141677967 -0.0005269207998945136 0.016969417083778904 0.0 0.0
0.0 0.013024071218174126 0.006351073972053773 -0.0058596711086062545 -0.0004914028634475183 0.015232923991332768 0.0 0.0
0.0 0.010470599861718501 0.0047567328160077705 -0.00429892902838488 -0.000457803787622889 0.01305257883711821 0.0 0.0
0.0 0.008300403878670332 0.003571068707065693 -0.0031553378215776594 -0.0004157308854880353 0.010832871722443373 0.0 0.0
0.0 0.006382790147442858 0.0026186440350665008 -0.0022588214701939014 -0.00035982256487259855 0.008718964811359784 0.0 0.0
0.0 0.00470759733945153 0.0018075264181986756 -0.0015196972282975909 -0.00028782918990108463 0.006732572952370728 0.0 0.0
0.0 0.0032477519769589748 0.0011263596886022579 -0.0009246507768111882 -0.00020170891179106912 0.004893889481474151 0.0 0.0
0.0 0.002128282385405578 0.0005968710427556756 -0.00048586075701356453 -0.00011101028574211126 0.0032502445800264954 0.0 0.0
0.0 0.001200653873374406 0.00025907142111166316 -0.00021089548193492443 -4.817593917673846e-05 0.0019388588493778648 0.0 0.0
0.0 0.0006620936266782881 0.00010004700083867035 -8.122613063196196e-05 -1.88208702067083e-05 0.0010343181778005475 0.0 0.0
0.0 0.00031796335464908646 3.680892230103209e-05 -2.971925813207687e-05 -7.089664168955198e-06 0.0005126023951539735 0.0 0.0
0.0 0.00012854884503767246 1.0191792462204786e-05 -8.059574616620967e-06 -2.1322178455838165e-06 0.00019504034701719157 0.0 0.0
0.0 3.173873375216069e-05 1.1780136965735805e-06 -7.964315841658997e-07 -3.8158211240768484e-07 4.420706775133088e-05 0.0 0.0
0.0 5.903288448786953e-06 -9.547019316659668e-08 1.2877841576734826e-07 -3.330822260075167e-08 8.213635228729743e-06 0.0 0.0
0.0 3.6298017218666305e-06 -1.107064614750788e-07 1.0495740417116568e-07 5.749057303912459e-09 3.1164543700468545e-06 0.0 0.0
0.0 2.9068899520487214e-06 3.2671053847139083e-10 2.2169826840370408e-09 -2.5436932225058963e-09 4.92757995598643e-07 0.0 0.0
0.0 0.00013453549081319233 6.908588835976985e-05 -9.584086599828063e-05 2.675497763851075e-05 0.00012682502858641989 0.0 0.0
0.0 1.4494345931120802e-05 6.2250487561462105e-06 -9.006350434499015e-06 2.7813016783527912e-06 -1.2591955324031454e-05 0.0 0.0
0.0 2.5943297477956946e-06 -3.8251819965084944e-08 2.1907640015685724e-08 1.63441799494041e-08 -7.897705738303678e-07 0.0 0.0
0.0 5.6779312839461735e-06 -5.388726667524341e-07 4.5862487746005787e-07 8.024778929237701e-08 -6.516663572704088e-06 0.0 0.0
0.0 1.0654152530774215e-05 -1.2271002382266013e-06 1.0802668477450834e-06 1.4683339048151977e-07 -1.4809759738876306e-05 0.0 0.0
0.0 3.9595022089774504e-05 -3.7291431835347925e-06 3.2187144294198e-06 5.104287541149993e-07 -5.366737440968533e-05 0.0 0.0
0.0 0.00013695166408071957 -1.3319560746808817e-05 1.0978220337557287e-05 2.341340409251522e-06 -0.0002007383102194198 0.0 0.0
0.0 0.00032263594354248724 -3.9208549982100445e-05 3.1825710838505375e-05 7.382839143595036e-06 -0.000520442212345313 0.0 0.0
0.0 0.0006641216677985057 -0.00010090196838932979 8.192003886933508e-05 1.8981929519994666e-05 -0.0010387227928527832 0.0 0.0
0.0 0.0012001121314287604 -0.00025905092317374923 0.00021088548050637342 4.816544266737577e-05 -0.0019403005667022223 0.0 0.0
0.0 0.002127049504614104 -0.000596247237709324 0.0004853416845608254 0.00011090555314849834 -0.003249360990114073 0.0 0.0
0.0 0.0032614890161762255 -0.0011300880553420153 0.0009291679208387649 0.00020092013450324979 -0.004897082320193946 0.0 0.0
0.0 0.004733840730870918 -0.0018387152664558902 0.0015507583333298038 0.00028795693312608553 -0.0067482730095437425 0.0 0.0
0.0 0.006439798771008524 -0.0026888812887938826 0.002326433252331719 0.00036244803646216035 -0.008735634201985996 0.0 0.0
0.0 0.00833759332217628 -0.003626394585222658 0.0032007521114947005 0.00042564247372795416 -0.010831791120970175 0.0 0.0
0.0 0.010272740868388499 -0.004527965297336087 0.004047483876674552 0.0004804814206615344 -0.01302961429392295 0.0 0.0
0.0 0.012096718058302501 -0.005145663949007271 0.004617295919962565 0.000528368029044702 -0.015285813327254847 0.0 0.0
0.0 0.0134761068459863 -0.005112182668697963 0.004543237625041361 0.0005689450436566017 -0.017585440350338002 0.0 0.0
0.0 0.014286234982936595 -0.004152349560724827 0.0035593108399312448 0.00059303872079358 -0.02000479856694074 0.0 0.0
0.0 0.014521775470310527 -0.002293867526329625 0.0017299834180048534 0.0005638841083247698 -0.022169872120708922 0.0 0.0
0.0 0.014332928766300582 0.003279388993908627 -0.003339400870120724 6.0011876212093826e-05 -0.021175087818634728 0.0 0.0
0.0 0.014332928766305228 0.003279388993908691 -0.003339400870120936 6.001187621224849e-05 0.021175087818647485 0.0 0.0
0.0 0.014521775470315388 -0.002293867526331138 0.0017299834180063128 0.0005638841083248235 0.022169872120721607 0.0 0.0
0.0 0.014286234982931138 -0.004152349560722175 0.003559310839928516 0.000593038720793655 0.02000479856694196 0.0 0.0
0.0 0.013476106845975826 -0.005112182668693339 0.004543237625037019 0.0005689450436563185 0.017585440350326796 0.0 0.0
0.0 0.0120967180582865 -0.005145663948997833 0.00461729591995348 0.0005283680290443511 0.015285813327239668 0.0 0.0
0.0 0.01027274086837233 -0.0045279652973266695 0.004047483876665501 0.00048048142066116703 0.01302961429390916 0.0 0.0
0.0 0.008337593322163285 -0.003626394585214769 0.0032007521114872494 0.0004256424737275184 0.010831791120959455 0.0 0.0
0.0 0.006439798770995729 -0.002688881288785422 0.002326433252323724 0.00036244803646169686 0.008735634201976606 0.0 0.0
0.0 0.004733840730855466 -0.0018387152664477797 0.0015507583333223575 0.000287956933125422 0.006748273009528131 0.0 0.0
0.0 0.0032614890161640087 -0.0011300880553358887 0.0009291679208335653 0.00020092013450232328 0.004897082320179912 0.0 0.0
0.0 0.0021270495046024143 -0.0005962472377048606 0.00048534168455712667 0.0001109055531477335 0.003249360990100863 0.0 0.0
0.0 0.00120011213142473 -0.00025905092317224756 0.00021088548050511666 4.816544266713084e-05 0.001940300566696643 0.0 0.0
0.0 0.0006641216677957286 -0.00010090196838866708 8.192003886877593e-05 1.8981929519891196e-05 0.0010387227928487703 0.0 0.0
0.0 0.0003226359435407679 -3.9208549981998374e-05 3.182571083846476e-05 7.38283914353361e-06 0.0005204422123438034 0.0 0.0
0.0 0.000136951664079083 -1.3319560746773981e-05 1.097822033753618e-05 2.3413404092378167e-06 0.0002007383102185269 0.0 0.0
0.0 3.959502208834721e-05 -3.72914318352453e-06 3.21871442941019e-06 5.104287541143332e-07 5.366737440955033e-05 0.0 0.0
0.0 1.0654152530517964e-05 -1.227100238275177e-06 1.0802668477876186e-06 1.4683339048755763e-07 1.4809759739415527e-05 0.0 0.0
0.0 5.677931283486874e-06 -5.388726668376808e-07 4.586248775316593e-07 8.024778930602209e-08 6.516663573671735e-06 0.0 0.0
0.0 2.5943297471861337e-06 -3.825181997866165e-08 2.190764001518149e-08 1.6344179963485067e-08 7.897705743006163e-07 0.0 0.0
0.0 1.4494345930726319e-05 6.225048756405871e-06 -9.0063504348532e-06 2.781301678447328e-06 1.2591955324743842e-05 0.0 0.0
0.0 5.791226492451869e-07 -3.285152939261594e-08 4.863961923435166e-08 -1.578808984173702e-08 8.324711323925464e-08 0.0 0.0
0.0 1.7458848139023651e-06 -7.869481612425194e-08 4.490062600480732e-08 3.3794190119443086e-08 -1.4956973363736072e-06 0.0 0.0
0.0 6.841356425545869e-06 -1.0120353977566634e-06 8.396615004254298e-07 1.7237389733122954e-07 -7.922569722055007e-06 0.0 0.0
0.0 1.5138732974475169e-05 -2.407219143853904e-06 2.0516298918735384e-06 3.5558925198037876e-07 -1.6091281900759337e-05 0.0 0.0
0.0 4.65648971063578e-05 -1.0777659325723414e-05 8.971612781729975e-06 1.8060465439934395e-06 -6.483645484809154e-05 0.0 0.0
0.0 0.00015128625043886243 -4.1015324214831746e-05 3.3305783645060545e-05 7.70954056977118e-06 -0.00021581784075958645 0.0 0.0
0.0 0.0004530763260257392 -0.0001597344072673974 0.00012943990788256797 3.0294499384829497e-05 -0.0006552083020116093 0.0 0.0
0.0 0.0012319222683155266 -0.0006052351652961877 0.0004978284252646031 0.00010740674003158462 -0.0017456005066724036 0.0 0.0
0.0 0.0028717565903075165 -0.0016953053425821831 0.0014406011559640142 0.0002547041866181688 -0.0035088716768290635 0.0 0.0
0.0 0.005231027527822743 -0.0034287286766036184 0.003020775732307877 0.0004079529442957405 -0.005667363863091112 0.0 0.0
0.0 0.008077536970825997 -0.005597163210942384 0.0050749370142364955 0.0005222261967058875 -0.008017716180487414 0.0 0.0
0.0 0.01133945063986256 -0.00804706491228319 0.007447814568750757 0.0005992503435324318 -0.010402989073224995 0.0 0.0
0.0 0.014867422004731238 -0.010758963390470642 0.010099635337869646 0.0006593280526009933 -0.012791254147932456 0.0 0.0
0.0 0.01869576117570003 -0.013711930558142143 0.01299993067193759 0.0007119998862045567 -0.015161925872395576 0.0 0.0
0.0 0.022702124787866172 -0.016776056300123507 0.01601272228449834 0.0007633340156251538 -0.01758723030657049 0.0 0.0
0.0 0.026577184199012623 -0.019648012097828033 0.018834955672118844 0.0008130564257091898 -0.02013909829911717 0.0 0.0
0.0 0.02989815321558759 -0.021863217853124187 0.021008666166803452 0.0008545516863207454 -0.022898522120576133 0.0 0.0
0.0 0.032034155619471816 -0.022872260554323044 0.02199086365053224 0.0008813969037908191 -0.025772076354766766 0.0 0.0
0.0 0.031317973869355344 -0.021577566079292742 0.020601976368003226 0.0009755897112894986 -0.027007221853292938 0.0 0.0
0.0 0.025028858401727857 -0.01502704607306701 0.013944714382536836 0.0010823316905301588 -0.024563985832549293 0.0 0.0
0.0 0.02502885840173765 -0.015027046073068047 0.013944714382537433 0.0010823316905306133 0.024563985832581507 0.0 0.0
0.0 0.031317973869361054 -0.02157756607928847 0.020601976367998563 0.0009755897112898935 0.027007221853336757 0.0 0.0
0.0 0.03203415561946156 -0.022872260554308698 0.02199086365051783 0.0008813969037908556 0.025772076354791305 0.0 0.0
0.0 0.029898153215565024 -0.021863217853104223 0.021008666166783978 0.0008545516863202534 0.022898522120574173 0.0 0.0
0.0 0.026577184198983958 -0.019648012097805617 0.018834955672096275 0.00081305642570935 0.020139098299099264 0.0 0.0
0.0 0.022702124787840835 -0.016776056300103957 0.016012722284478864 0.0007633340156250963 0.017587230306554402 0.0 0.0
0.0 0.018695761175677963 -0.013711930558124719 0.012999930671920406 0.0007119998862043099 0.015161925872383155 0.0 0.0
0.0 0.014867422004708116 -0.010758963390451393 0.010099635337850962 0.0006593280526004232 0.012791254147921252 0.0 0.0
0.0 0.011339450639835515 -0.008047064912262727 0.007447814568730886 0.0005992503435318388 0.010402989073205686 0.0 0.0
0.0 0.008077536970798526 -0.00559716321092287 0.005074937014217667 0.0005222261967052032 0.008017716180463803 0.0 0.0
0.0 0.005231027527801362 -0.0034287286765892597 0.0030207757322944263 0.00040795294429483406 0.005667363863070011 0.0 0.0
0.0 0.002871756590297035 -0.0016953053425748602 0.0014406011559574554 0.00025470418661740574 0.003508871676818963 0.0 0.0
0.0 0.0012319222683094733 -0.000605235165292514 0.0004978284252615845 0.00010740674003092969 0.001745600506665468 0.0 0.0
0.0 0.0004530763260228441 -0.00015973440726652365 0.00012943990788188696 3.0294499384636692e-05 0.0006552083020086774 0.0 0.0
0.0 0.00015128625043734126 -4.1015324214773694e-05 3.330578364500728e-05 7.709540569766421e-06 0.0002158178407590747 0.0 0.0
0.0 4.6564897105596376e-05 -1.0777659325784457e-05 8.971612781782998e-06 1.8060465440014446e-06 6.483645484846319e-05 0.0 0.0
0.0 1.513873297381596e-05 -2.4072191439315652e-06 2.051629891939345e-06 3.555892519922218e-07 1.609128190125456e-05 0.0 0.0
0.0 6.841356424885292e-06 -1.0120353978456948e-06 8.396615004979161e-07 1.723738973477784e-07 7.922569722731206e-06 0.0 0.0
0.0 1.7458848136600853e-06 -7.869481616051278e-08 4.490062601035548e-08 3.379419015015765e-08 1.4956973372116912e-06 0.0 0.0
0.0 5.791226488939735e-07 -3.285152937202806e-08 4.863961920387383e-08 -1.57880898318369e-08 -8.324711318699175e-08 0.0 0.0
0.0 0.0 0.0 0.0 0.0 0.0 0.0 0.0
0.0 1.546319917433396e-06 2.096489414379388e-08 -7.102539574969584e-09 -1.3862354568826943e-08 3.138160816275471e-07 0.0 0.0
0.0 6.166030500250087e-06 -7.665150960477847e-07 6.295181427567682e-07 1.3699695329101242e-07 -4.385005060522499e-06 0.0 0.0
0.0 1.772018986653196e-05 -3.506898012823481e-06 2.9033737488743977e-06 6.035242639490932e-07 -1.5286600554825778e-05 0.0 0.0
0.0 5.555957784534214e-05 -1.9113315878330272e-05 1.564599762434578e-05 3.467318253984508e-06 -7.00290033182166e-05 0.0 0.0
0.0 0.0002173180218373778 -9.578706216632219e-05 7.761321292876837e-05 1.817384923755378e-05 -0.0002835341183130942 0.0 0.0
0.0 0.000860942543917203 -0.0004943552683291425 0.00040572673355337356 8.86285347757689e-05 -0.0010762722068710599 0.0 0.0
0.0 0.002540839073806788 -0.0017210949197782816 0.0014634157628112883 0.0002576791569669934 -0.002751291209633567 0.0 0.0
0.0 0.005492292529145275 -0.00397724139989171 0.003529389819493314 0.000447851580398395 -0.005097844909337048 0.0 0.0
0.0 0.00931226194222948 -0.007085675847993111 0.006498692617947189 0.0005869832300459202 -0.007886148846247523 0.0 0.0
0.0 0.013956277219852176 -0.010767063527648564 0.010090984911597052 0.0006760786160515228 -0.010830586509082186 0.0 0.0
0.0 0.01897673454958415 -0.014889976665142985 0.014147792012010475 0.000742184653132513 -0.013699321981880605 0.0 0.0
0.0 0.024499788708818637 -0.019435832718867316 0.018636435890450928 0.0007993968284163882 -0.016466744831829142 0.0 0.0
0.0 0.030541049707804913 -0.02440694297031848 0.023551504526653 0.0008554384436654668 -0.01921859017734173 0.0 0.0
0.0 0.037038960035555436 -0.02968267559682551 0.028767650084766255 0.000915025512059228 -0.02216302035393591 0.0 0.0
0.0 0.043563255044232405 -0.034920044427541805 0.033943790719139375 0.0009762537084024112 -0.025583727697772656 0.0 0.0
0.0 0.04959780252065983 -0.03952934994817021 0.03849513658222515 0.0010342133659450522 -0.029646755423557068 0.0 0.0
0.0 0.053681784766864 -0.04254021961167995 0.0414326697642909 0.0011075498473890383 -0.033609282925674125 0.0 0.0
0.0 0.053823836356190605 -0.042109369028889024 0.04090788186510794 0.0012014871637810666 -0.0355570494442759 0.0 0.0
0.0 0.0448488847767009 -0.034436701665480886 0.03300438511584984 0.001432316549631032 -0.031587508331197035 0.0 0.0
0.0 0.04484888477671209 -0.034436701665481795 0.033004385115851013 0.0014323165496307778 0.03158750833124169 0.0 0.0
0.0 0.05382383635619556 -0.04210936902888275 0.04090788186510226 0.0012014871637804913 0.035557049444332314 0.0 0.0
0.0 0.053681784766853924 -0.04254021961166374 0.04143266976427547 0.0011075498473882349 0.03360928292571156 0.0 0.0
0.0 0.049597802520630424 -0.0395293499481425 0.03849513658219814 0.0010342133659443963 0.029646755423562557 0.0 0.0
0.0 0.043563255044192055 -0.034920044427507776 0.033943790719105964 0.0009762537084018172 0.025583727697757016 0.0 0.0
0.0 0.037038960035514684 -0.02968267559679194 0.028767650084732917 0.0009150255120590246 0.022163020353916783 0.0 0.0
0.0 0.030541049707769677 -0.024406942970289426 0.023551504526624644 0.0008554384436647695 0.019218590177323816 0.0 0.0
0.0 0.024499788708783436 -0.01943583271883714 0.0186364358904214 0.0007993968284157294 0.016466744831816486 0.0 0.0
0.0 0.018976734549546848 -0.014889976665112693 0.014147792011980714 0.0007421846531319777 0.013699321981859205 0.0 0.0
0.0 0.013956277219817568 -0.010767063527621494 0.01009098491157057 0.0006760786160509215 0.010830586509057261 0.0 0.0
0.0 0.009312261942199114 -0.007085675847970135 0.006498692617924621 0.000586983230045515 0.007886148846224137 0.0 0.0
0.0 0.0054922925291242 -0.003977241399875452 0.0035293898194777777 0.0004478515803976723 0.005097844909321274 0.0 0.0
0.0 0.002540839073795256 -0.0017210949197699493 0.0014634157628038928 0.0002576791569660564 0.002751291209623581 0.0 0.0
0.0 0.0008609425439112346 -0.000494355268325904 0.00040572673355074144 8.862853477516224e-05 0.001076272206865294 0.0 0.0
0.0 0.0002173180218349782 -9.578706216574019e-05 7.761321292830509e-05 1.8173849237435054e-05 0.0002835341183113723 0.0 0.0
0.0 5.5559577844329245e-05 -1.9113315878390222e-05 1.5645997624394824e-05 3.467318253995365e-06 7.002900331843764e-05 0.0 0.0
0.0 1.7720189865865576e-05 -3.506898012960528e-06 2.9033737489881983e-06 6.035242639723172e-07 1.5286600555428242e-05 0.0 0.0
0.0 6.166030499899181e-06 -7.665150962098975e-07 6.295181428889808e-07 1.3699695332092308e-07 4.385005061460621e-06 0.0 0.0
0.0 1.5463199168796422e-06 2.0964894136532813e-08 -7.10253957316928e-09 -1.3862354563367244e-08 -3.138160815128601e-07 0.0 0.0
0.0 0.0 0.0 0.0 0.0 0.0 0.0 0.0
0.0 0.0 0.0 0.0 0.0 0.0 0.0 0.0
0.0 3.8538157917848767e-07 8.524370000021943e-09 -5.889213621647465e-09 -2.6351563783748637e-09 7.625979648851619e-08 0.0 0.0
0.0 3.5687303091064326e-06 -4.442388604981149e-07 3.6173772501417506e-07 8.250113548393492e-08 -1.9446631560283476e-06 0.0 0.0
0.0 1.714626213321951e-05 -5.283020633013719e-06 4.351784566254509e-06 9.312360667592026e-07 -1.7211224452831523e-05 0.0 0.0
0.0 7.217229307727921e-05 -3.214452641021863e-05 2.6170689574912584e-05 5.973836835306066e-06 -8.109316841861997e-05 0.0 0.0
0.0 0.0003839312344201209 -0.00023226822517746702 0.00018887682962914274 4.339139554832424e-05 -0.0004401735142070764 0.0 0.0
0.0 0.0015895104288170686 -0.001128631480364113 0.0009448511677413011 0.00018378031262281184 -0.0015684357792730107 0.0 0.0
0.0 0.004252444025277595 -0.0032467441069005364 0.0028464199013024773 0.0004003242055980584 -0.0035504612323909155 0.0 0.0
0.0 0.008419426098825369 -0.006633017385381027 0.006056525153623931 0.0005764922317570951 -0.006252185820650423 0.0 0.0
0.0 0.013741753239479897 -0.011042191681679142 0.010351920865056223 0.0006902708166229179 -0.009425169180636508 0.0 0.0
0.0 0.019948991149832892 -0.016196094317618204 0.01542644632508506 0.0007696479925331445 -0.012685322815014596 0.0 0.0
0.0 0.026865824469835518 -0.02196553996739307 0.02112778942950108 0.0008377505378919796 -0.015798443246896783 0.0 0.0
0.0 0.034485379588968225 -0.0283403710903926 0.027439960606712572 0.0009004104836800015 -0.018778527648073255 0.0 0.0
0.0 0.042777465186115915 -0.03534142604991757 0.034378105352511304 0.0009633206974062782 -0.021753819895423677 0.0 0.0
0.0 0.051764262362988596 -0.04286896135528673 0.0418382348625866 0.0010307264927000587 -0.025025669981974495 0.0 0.0
0.0 0.061056607984761896 -0.05054892073748596 0.04944375770264667 0.0011051630348392631 -0.0290472701281594 0.0 0.0
0.0 0.06966975723649074 -0.05756037498021608 0.05637118620564239 0.0011891887745736633 -0.03394866950462892 0.0 0.0
0.0 0.07586837510738902 -0.062398479292254734 0.06111087875109871 0.0012876005411559773 -0.03879584012469698 0.0 0.0
0.0 0.07631001891096115 -0.0624481688100718 0.06101812028116284 0.0014300485289089448 -0.041034403112403424 0.0 0.0
0.0 0.06528366799964824 -0.052997848549327625 0.05134740788038891 0.0016504406689387314 -0.03731532115551477 0.0 0.0
0.0 0.06528366799965372 -0.05299784854932477 0.051347407880386234 0.00165044066893851 0.03731532115556147 0.0 0.0
0.0 0.07631001891095694 -0.06244816881005866 0.061018120281149925 0.0014300485289087204 0.0410344031124647 0.0 0.0
0.0 0.07586837510736902 -0.0623984792922303 0.061110878751074724 0.0012876005411555612 0.038795840124740494 0.0 0.0
0.0 0.06966975723645358 -0.05756037498018092 0.056371186205608034 0.0011891887745728628 0.033948669504640525 0.0 0.0
0.0 0.061056607984712366 -0.05054892073744345 0.0494437577026044 0.0011051630348390398 0.02904727012814597 0.0 0.0
0.0 0.05176426236293638 -0.04286896135524254 0.041838234862542546 0.0010307264926999607 0.025025669981956676 0.0 0.0
0.0 0.04277746518606649 -0.035341426049876085 0.034378105352469934 0.000963320697406156 0.021753819895404286 0.0 0.0
0.0 0.03448537958891977 -0.02834037109035116 0.02743996060667177 0.0009004104836793957 0.018778527648057187 0.0 0.0
0.0 0.02686582446978949 -0.021965539967354317 0.021127789429463 0.0008377505378913042 0.015798443246875616 0.0 0.0
0.0 0.019948991149788327 -0.01619609431758197 0.015426446325049374 0.0007696479925325963 0.012685322814987465 0.0 0.0
0.0 0.013741753239436931 -0.011042191681644786 0.010351920865022575 0.0006902708166222084 0.009425169180607396 0.0 0.0
0.0 0.008419426098795063 -0.006633017385357114 0.006056525153600744 0.0005764922317563728 0.006252185820630878 0.0 0.0
0.0 0.004252444025259658 -0.003246744106886492 0.002846419901289559 0.00040032420559693105 0.0035504612323784355 0.0 0.0
0.0 0.0015895104288073205 -0.0011286314803572767 0.0009448511677353864 0.00018378031262189019 0.001568435779265007 0.0 0.0
0.0 0.0003839312344159438 -0.00023226822517547038 0.00018887682962748237 4.3391395547987964e-05 0.0004401735142036419 0.0 0.0
0.0 7.217229307634143e-05 -3.2144526410294155e-05 2.6170689574964108e-05 5.973836835329988e-06 8.109316841872049e-05 0.0 0.0
0.0 1.7146262132705592e-05 -5.283020633265504e-06 4.3517845664544295e-06 9.312360668110708e-07 1.721122445358157e-05 0.0 0.0
0.0 3.568730308659349e-06 -4.442388606519383e-07 3.6173772513811864e-07 8.250113551381777e-08 1.9446631567171883e-06 0.0 0.0
0.0 3.8538157904294466e-07 8.52436999717895e-09 -5.889213619678072e-09 -2.6351563774992616e-09 -7.62597964614563e-08 0.0 0.0
0.0 0.0 0.0 0.0 0.0 0.0 0.0 0.0
0.0 0.0 0.0 0.0 0.0 0.0 0.0 0.0
0.0 0.0 0.0 0.0 0.0 0.0 0.0 0.0
0.0 1.4939427996717932e-06 -1.4226458961497035e-07 1.1735669185476816e-07 2.4907897760205682e-08 -5.01016482097452e-07 0.0 0.0
0.0 1.6260319050698018e-05 -4.138249011670543e-06 3.3611596168597373e-06 7.770893948108183e-07 -9.957212505382238e-06 0.0 0.0
0.0 0.00011642237465202778 -5.923981064194674e-05 4.794457191428363e-05 1.129523872766309e-05 -0.00010455889970256119 0.0 0.0
0.0 0.0007006011071579166 -0.0005073217141592717 0.00041621480181146085 9.110691234781088e-05 -0.0006491258854316781 0.0 0.0
0.0 0.0025982857435688615 -0.0020271157129997963 0.0017345405679946627 0.0002925751450051339 -0.0019457227371548944 0.0 0.0
0.0 0.006224201677028171 -0.005040042118177108 0.004528214620765181 0.0005118274974119251 -0.004056152092780767 0.0 0.0
0.0 0.011529792357362139 -0.009507135297192553 0.008846143825567605 0.000660991471624952 -0.006925644988848022 0.0 0.0
0.0 0.018254240022687537 -0.015161549213630651 0.014401299798157415 0.0007602494154732362 -0.01020076232277331 0.0 0.0
0.0 0.026093637675841004 -0.021761210643133192 0.020919910967080065 0.0008412996760531285 -0.013510249979046212 0.0 0.0
0.0 0.0348715305011249 -0.029174815150989186 0.02825924398680768 0.0009155711641815132 -0.01668394183785068 0.0 0.0
0.0 0.04454042092107592 -0.037380110437295694 0.03639430910697551 0.0009858013303201553 -0.01972741722173822 0.0 0.0
0.0 0.055153525200398734 -0.04640770693209724 0.045352585336433826 0.0010551215956634118 -0.02274227992387828 0.0 0.0
0.0 0.06671869584611927 -0.05619533050088421 0.05506467513129425 0.0011306553695899775 -0.026058841321908655 0.0 0.0
0.0 0.07857205035551862 -0.0663236940598828 0.06510342862622447 0.001220265433658331 -0.030179804148960224 0.0 0.0
0.0 0.089926175721758 -0.07568987888558901 0.07436164109309723 0.0013282377924917397 -0.035308349527654 0.0 0.0
0.0 0.0979837090517583 -0.08220698926234635 0.08074608464660803 0.0014609046157383339 -0.04055102407746184 0.0 0.0
0.0 0.09858529547866174 -0.0824420254572618 0.08081573231639265 0.0016262931408691484 -0.04355925023845963 0.0 0.0
0.0 0.08587329130539034 -0.07123965472364806 0.06941765604944754 0.0018219986742005264 -0.04228426084411762 0.0 0.0
0.0 0.08587329130539356 -0.07123965472364362 0.06941765604944306 0.0018219986742005253 0.0422842608441687 0.0 0.0
0.0 0.09858529547864985 -0.08244202545724354 0.08081573231637422 0.0016262931408693006 0.04355925023852106 0.0 0.0
0.0 0.09798370905172638 -0.08220698926231304 0.08074608464657416 0.0014609046157388053 0.04055102407750766 0.0 0.0
0.0 0.08992617572170739 -0.07568987888554296 0.07436164109305124 0.0013282377924916824 0.03530834952766472 0.0 0.0
0.0 0.07857205035545817 -0.06632369405983035 0.06510342862617242 0.0012202654336579217 0.030179804148949337 0.0 0.0
0.0 0.06671869584605673 -0.056195330500830226 0.055064675131240845 0.0011306553695894016 0.026058841321893712 0.0 0.0
0.0 0.05515352520033432 -0.04640770693204186 0.04535258533637934 0.001055121595662515 0.02274227992385873 0.0 0.0
0.0 0.04454042092101355 -0.03738011043724207 0.036394309106922276 0.0009858013303197881 0.019727417221720587 0.0 0.0
0.0 0.03487153050106355 -0.029174815150937013 0.028259243986755812 0.000915571164181195 0.016683941837827967 0.0 0.0
0.0 0.026093637675784605 -0.021761210643086143 0.02091991096703352 0.0008412996760526107 0.013510249979017772 0.0 0.0
0.0 0.018254240022641602 -0.015161549213592645 0.014401299798119868 0.0007602494154727849 0.010200762322745745 0.0 0.0
0.0 0.011529792357327994 -0.00950713529716411 0.008846143825539813 0.0006609914716242999 0.006925644988830398 0.0 0.0
0.0 0.006224201677003602 -0.005040042118157059 0.004528214620746022 0.0005118274974110362 0.004056152092766954 0.0 0.0
0.0 0.002598285743554863 -0.002027115712989019 0.0017345405679851 0.00029257514500391886 0.0019457227371458316 0.0 0.0
0.0 0.0007006011071512114 -0.0005073217141549293 0.0004162148018078633 9.1106912347066e-05 0.0006491258854266259 0.0 0.0
0.0 0.00011642237465025833 -5.923981064151712e-05 4.794457191392532e-05 1.129523872759171e-05 0.00010455889970180921 0.0 0.0
0.0 1.6260319050168423e-05 -4.1382490118576705e-06 3.3611596170106845e-06 7.770893948469947e-07 9.957212505847927e-06 0.0 0.0
0.0 1.4939427995807916e-06 -1.4226458973753705e-07 1.1735669195386744e-07 2.490789778366737e-08 5.010164825295346e-07 0.0 0.0
0.0 0.0 0.0 0.0 0.0 0.0 0.0 0.0
0.0 0.0 0.0 0.0 0.0 0.0 0.0 0.0
0.0 0.0 0.0 0.0 0.0 0.0 0.0 0.0
0.0 0.0 0.0 0.0 0.0 0.0 0.0 0.0
0.0 9.159772724021529e-07 5.630253744311479e-08 -4.536700834069255e-08 -1.0935529102421052e-08 1.5681455061216043e-07 0.0 0.0
0.0 1.3339226459217988e-05 -6.206087382042751e-06 4.994609905518444e-06 1.211477476524348e-06 -1.1402284027988275e-05 0.0 0.0
0.0 0.00019283151095856644 -0.00012922686666259827 0.0001044185777841301 2.4808288878468198e-05 -0.00016311582645441963 0.0 0.0
0.0 0.0012047907767061908 -0.0009404652519480409 0.0007810188009140509 0.0001594464510339904 -0.0008267064078801343 0.0 0.0
0.0 0.003864449851645678 -0.00313442571654034 0.002739697612737951 0.0003947281038023889 -0.0021398861006719414 0.0 0.0
0.0 0.008311826293727618 -0.007021504013297025 0.0064280245277056666 0.0005934794855913582 -0.004249450171814662 0.0 0.0
0.0 0.014745349942177105 -0.01250354336053743 0.011784241840653745 0.0007193015198836855 -0.007038805238690604 0.0 0.0
0.0 0.022848936369034983 -0.01936801209020257 0.018552846489608556 0.0008151656005940193 -0.010168875004658483 0.0 0.0
0.0 0.03231299307189289 -0.027404096084164217 0.026502520277108685 0.0009015758070555157 -0.013354825666016625 0.0 0.0
0.0 0.042930600881330105 -0.036464963034663345 0.035481419911337735 0.0009835431233255736 -0.016409948056862828 0.0 0.0
0.0 0.05472222742251648 -0.046505114301224226 0.04544296240352072 0.001062151897703505 -0.019350811160744785 0.0 0.0
0.0 0.06751934443917806 -0.057548495860947235 0.05640980271138862 0.0011386931495586043 -0.02226010101302931 0.0 0.0
0.0 0.08151784080868152 -0.06954698466257556 0.06832551940976091 0.001221465252814665 -0.02531249676594288 0.0 0.0
0.0 0.09623758511680663 -0.08205189989775673 0.08072678895661065 0.0013251109411460695 -0.028967173584201058 0.0 0.0
0.0 0.10983280593753003 -0.09370819220284592 0.09225040376517188 0.00145778843767398 -0.03370358672414996 0.0 0.0
0.0 0.11953522261234588 -0.10183419016713371 0.10021467709505037 0.0016195130720832777 -0.039128879228566005 0.0 0.0
0.0 0.12057037852201587 -0.10230113034121054 0.1005033101705427 0.0017978201706677598 -0.04381329566735124 0.0 0.0
0.0 0.10692278966002024 -0.0896327071918632 0.08765384189229028 0.0019788652995729227 -0.046883069271082635 0.0 0.0
0.0 0.10692278966001936 -0.08963270719185597 0.08765384189228323 0.001978865299572651 0.04688306927113328 0.0 0.0
0.0 0.12057037852199376 -0.10230113034118477 0.10050331017051696 0.0017978201706677702 0.04381329566741239 0.0 0.0
0.0 0.11953522261230806 -0.10183419016709563 0.10021467709501332 0.001619513072082258 0.03912887922861234 0.0 0.0
0.0 0.10983280593747083 -0.09370819220279251 0.09225040376511963 0.001457788437672867 0.03370358672416068 0.0 0.0
0.0 0.09623758511673677 -0.08205189989769568 0.08072678895655044 0.0013251109411452008 0.028967173584194615 0.0 0.0
0.0 0.0815178408086057 -0.06954698466250996 0.06832551940969545 0.0012214652528144477 0.02531249676593196 0.0 0.0
0.0 0.06751934443910222 -0.057548495860881975 0.056409802711323453 0.001138693149558498 0.022260101013012415 0.0 0.0
0.0 0.05472222742244201 -0.046505114301159806 0.045442962403456535 0.0010621518977032196 0.019350811160727878 0.0 0.0
0.0 0.042930600881258815 -0.036464963034601776 0.035481419911276624 0.0009835431233251465 0.016409948056843014 0.0 0.0
0.0 0.03231299307182737 -0.02740409608410866 0.026502520277053725 0.000901575807054933 0.013354825665988904 0.0 0.0
0.0 0.022848936368978376 -0.019368012090154825 0.01855284648956142 0.0008151656005933935 0.010168875004631619 0.0 0.0
0.0 0.014745349942132231 -0.012503543360499275 0.011784241840616078 0.0007193015198831997 0.007038805238671189 0.0 0.0
0.0 0.008311826293695689 -0.0070215040132699325 0.006428024527679539 0.000593479485590391 0.004249450171799957 0.0 0.0
0.0 0.003864449851625218 -0.003134425716523709 0.002739697612722567 0.0003947281038011433 0.002139886100661318 0.0 0.0
0.0 0.0012047907766978875 -0.0009404652519420418 0.0007810188009088648 0.00015944645103317656 0.0008267064078749848 0.0 0.0
0.0 0.00019283151095626338 -0.0001292268666616777 0.00010441857778336513 2.480828887831252e-05 0.00016311582645331786 0.0 0.0
0.0 1.3339226459092102e-05 -6.206087382367226e-06 4.994609905775931e-06 1.2114774765912766e-06 1.140228402857667e-05 0.0 0.0
0.0 9.159772720464821e-07 5.630253742091469e-08 -4.5367008322703315e-08 -1.0935529098212496e-08 -1.5681455054918204e-07 0.0 0.0
0.0 0.0 0.0 0.0 0.0 0.0 0.0 0.0
0.0 0.0 0.0 0.0 0.0 0.0 0.0 0.0
0.0 0.0 0.0 0.0 0.0 0.0 0.0 0.0
0.0 0.0 0.0 0.0 0.0 0.0 0.0 0.0
0.0 2.633745482838499e-07 1.9034837468267232e-08 -1.5232417022672714e-08 -3.80242044559584e-09 3.959451352121644e-08 0.0 0.0
0.0 1.3573610842991383e-05 -7.958893305253927e-06 6.355205833891568e-06 1.603687471362379e-06 -1.0798411611919847e-05 0.0 0.0
0.0 0.00034577749564517846 -0.0002600039368888803 0.0002106068501280508 4.9397086760829574e-05 -0.00022772307166901386 0.0 0.0
0.0 0.0018973059177420032 -0.0015312289090421846 0.0012917820722986254 0.0002394468367435599 -0.0009172173115161423 0.0 0.0
0.0 0.005117416983709184 -0.004421575168814199 0.00393962979446774 0.0004819453743464617 -0.002160489276018885 0.0 0.0
0.0 0.01052187967252881 -0.009108632020069668 0.008458556886312252 0.0006500751337574162 -0.0040730424400164346 0.0 0.0
0.0 0.018077477362216127 -0.015557761427302443 0.014793950834592291 0.00076381059271015 -0.006547681261452387 0.0 0.0
0.0 0.027499467273651986 -0.023618803722936677 0.02275742366430431 0.0008613800586323862 -0.009365470817240356 0.0 0.0
0.0 0.03855780641028533 -0.03308291743519785 0.03212883891786165 0.0009540785173361818 -0.012234758196103852 0.0 0.0
0.0 0.051049536843321364 -0.04379409160676856 0.04274968143498134 0.001044410171787195 -0.014992426528196908 0.0 0.0
0.0 0.06487028639907055 -0.055680067506382845 0.05454791299913764 0.0011321545072451825 -0.01767506987607576 0.0 0.0
0.0 0.0800365163449264 -0.06871873428841674 0.06750043317901684 0.001218301109399859 -0.02030397700207189 0.0 0.0
0.0 0.09641564407816627 -0.08283036780007628 0.08152211692195707 0.0013082508781192368 -0.022875577715381474 0.0 0.0
0.0 0.1132899096001055 -0.09755859307748843 0.09613840766537575 0.0014201854121126457 -0.025606535016131686 0.0 0.0
0.0 0.1293986899173239 -0.11140885700729282 0.10983498247316424 0.0015738745341285572 -0.029241703194629487 0.0 0.0
0.0 0.1410249376894591 -0.12123966776374387 0.11947921248984245 0.001760455273901421 -0.034615304790721474 0.0 0.0
0.0 0.1428419914034371 -0.12228758025355013 0.12033129799461181 0.0019562822589382876 -0.04189693593613147 0.0 0.0
0.0 0.12854202480608595 -0.10857751772543997 0.10644322834538085 0.002134289380059007 -0.05112886092452262 0.0 0.0
0.0 0.12854202480608123 -0.10857751772543014 0.10644322834537125 0.002134289380058934 0.051128860924570196 0.0 0.0
0.0 0.14284199140340706 -0.12228758025351888 0.12033129799458096 0.0019562822589379732 0.04189693593618808 0.0 0.0
0.0 0.14102493768940227 -0.12123966776369174 0.1194792124897901 0.0017604552739015522 0.034615304790760075 0.0 0.0
0.0 0.1293986899172545 -0.11140885700723165 0.10983498247310346 0.0015738745341282172 0.029241703194638813 0.0 0.0
0.0 0.11328990960002647 -0.0975585930774194 0.09613840766530769 0.0014201854121116638 0.025606535016127266 0.0 0.0
0.0 0.09641564407807783 -0.08283036779999953 0.08152211692188094 0.0013082508781185928 0.022875577715372394 0.0 0.0
0.0 0.08003651634483984 -0.06871873428834208 0.06750043317894266 0.0012183011093993292 0.020303977002056595 0.0 0.0
0.0 0.06487028639898512 -0.05568006750630902 0.05454791299906421 0.0011321545072447948 0.017675069876059962 0.0 0.0
0.0 0.05104953684323891 -0.0437940916066971 0.04274968143491044 0.0010444101717866994 0.014992426528178858 0.0 0.0
0.0 0.03855780641020845 -0.03308291743513171 0.032128838917796096 0.0009540785173355973 0.012234758196078253 0.0 0.0
0.0 0.027499467273587534 -0.023618803722881367 0.022757423664249588 0.0008613800586317658 0.009365470817215832 0.0 0.0
0.0 0.018077477362167853 -0.015557761427260503 0.014793950834550942 0.0007638105927095635 0.006547681261437005 0.0 0.0
0.0 0.010521879672493628 -0.009108632020039054 0.008458556886282437 0.0006500751337566178 0.0040730424400038205 0.0 0.0
0.0 0.005117416983685591 -0.004421575168794025 0.003939629794448599 0.0004819453743454263 0.0021604892760094807 0.0 0.0
0.0 0.0018973059177301924 -0.001531228909033094 0.001291782072290585 0.00023944683674250854 0.0009172173115108997 0.0 0.0
0.0 0.000345777495641374 -0.0002600039368866544 0.000210606850126219 4.9397086760435155e-05 0.00022772307166726228 0.0 0.0
0.0 1.3573610842708924e-05 -7.958893305631207e-06 6.355205834180759e-06 1.6036874714504587e-06 1.0798411612385917e-05 0.0 0.0
0.0 2.633745479801639e-07 1.90348374459991e-08 -1.5232417004860948e-08 -3.802420441135515e-09 -3.959451347502403e-08 0.0 0.0
0.0 0.0 0.0 0.0 0.0 0.0 0.0 0.0
0.0 0.0 0.0 0.0 0.0 0.0 0.0 0.0
0.0 0.0 0.0 0.0 0.0 0.0 0.0 0.0
0.0 0.0 0.0 0.0 0.0 0.0 0.0 0.0
0.0 0.0 0.0 0.0 0.0 0.0 0.0 0.0
0.0 2.038028320609319e-05 -1.4081038335205415e-05 1.1259869569761292e-05 2.8211687654441158e-06 -1.3554118583148493e-05 0.0 0.0
0.0 0.0006164416615192988 -0.00048463006651162905 0.00039469353004176785 8.993653646986086e-05 -0.0002730277013079703 0.0 0.0
0.0 0.002708683900858289 -0.0022751395727979283 0.0019511448760066953 0.0003239946967912323 -0.0008956710492913876 0.0 0.0
0.0 0.00657384287874252 -0.005811430903709348 0.0052614150489179124 0.0005500158547914345 -0.0019188350489002665 0.0 0.0
0.0 0.012856893688717985 -0.01124219859820104 0.010550821898369384 0.0006913766998316549 -0.0034599843887659246 0.0 0.0
0.0 0.021451943210301843 -0.01863670939801127 0.017836873800834593 0.0007998355971766715 -0.005484357467307876 0.0 0.0
0.0 0.032185822835850815 -0.02787538542401511 0.026974340815487725 0.0009010446085273835 -0.007802951113993438 0.0 0.0
0.0 0.044847553180849355 -0.03875954893509956 0.03775877983339204 0.0010007691017074793 -0.010170761630878903 0.0 0.0
0.0 0.059155284949448474 -0.05112445199883697 0.05002507846174498 0.0010993735370919892 -0.012443035546554291 0.0 0.0
0.0 0.07515943569309304 -0.06486433444617551 0.06366716252321322 0.0011971719229622601 -0.014666602358046442 0.0 0.0
0.0 0.09241672277186937 -0.07988841659980994 0.07859356388617005 0.001294852713639921 -0.016880430458428894 0.0 0.0
0.0 0.11096989065868354 -0.09600278895909435 0.09460788796511872 0.0013949009939756504 -0.01888412555951462 0.0 0.0
0.0 0.13021208509908017 -0.11269413418403941 0.1111842580875233 0.0015098760965160734 -0.020425655884544442 0.0 0.0
0.0 0.14850415197412417 -0.1285563307542882 0.1268903008420248 0.001666029912263347 -0.022236222955165037 0.0 0.0
0.0 0.16227876682437717 -0.14036216360844367 0.13847977447326706 0.0018823891351765155 -0.026953214514958555 0.0 0.0
0.0 0.16556133937131484 -0.14263802301980527 0.14053217872717017 0.00210584429263518 -0.03736295984145457 0.0 0.0
0.0 0.1514395083913701 -0.1285241107579854 0.12622284902162378 0.002301261736361581 -0.054703581003191705 0.0 0.0
0.0 0.15143950839135917 -0.12852411075797193 0.12622284902161032 0.0023012617363615756 0.05470358100322836 0.0 0.0
0.0 0.16556133937127582 -0.1426380230197682 0.14053217872713286 0.0021058442926353196 0.03736295984150376 0.0 0.0
0.0 0.1622787668243142 -0.140362163608387 0.138479774473211 0.0018823891351759815 0.026953214514993502 0.0 0.0
0.0 0.1485041519740411 -0.12855633075421535 0.12689030084195327 0.0016660299122620882 0.022236222955172864 0.0 0.0
0.0 0.13021208509898702 -0.11269413418395816 0.11118425808744334 0.0015098760965148207 0.020425655884541746 0.0 0.0
0.0 0.11096989065858698 -0.09600278895901031 0.09460788796503541 0.0013949009939749576 0.018884125559510703 0.0 0.0
0.0 0.09241672277176834 -0.07988841659972251 0.07859356388608303 0.0012948527136394427 0.016880430458417976 0.0 0.0
0.0 0.07515943569299474 -0.06486433444609013 0.06366716252312862 0.0011971719229615675 0.014666602358034703 0.0 0.0
0.0 0.059155284949351995 -0.05112445199875346 0.050025078461661925 0.0010993735370915052 0.012443035546541376 0.0 0.0
0.0 0.04484755318076357 -0.03875954893502515 0.03775877983331814 0.0010007691017069945 0.010170761630858297 0.0 0.0
0.0 0.0321858228357806 -0.027875385423954284 0.02697434081542745 0.0009010446085268403 0.007802951113972478 0.0 0.0
0.0 0.021451943210245853 -0.018636709397962317 0.017836873800786406 0.0007998355971759095 0.005484357467294136 0.0 0.0
0.0 0.012856893688678013 -0.01124219859816595 0.01055082189833497 0.0006913766998309815 0.0034599843887549433 0.0 0.0
0.0 0.00657384287871784 -0.005811430903687588 0.0052614150488970056 0.000550015854790587 0.0019188350488927876 0.0 0.0
0.0 0.002708683900844163 -0.0022751395727860194 0.0019511448759961367 0.0003239946967898818 0.0008956710492870749 0.0 0.0
0.0 0.0006164416615133829 -0.000484630066507389 0.00039469353003817177 8.993653646921732e-05 0.00027302770130559553 0.0 0.0
0.0 2.038028320578462e-05 -1.4081038335661766e-05 1.1259869570108795e-05 2.8211687655529866e-06 1.3554118583524908e-05 0.0 0.0
0.0 0.0 0.0 0.0 0.0 0.0 0.0 0.0
0.0 0.0 0.0 0.0 0.0 0.0 0.0 0.0
0.0 0.0 0.0 0.0 0.0 0.0 0.0 0.0
0.0 0.0 0.0 0.0 0.0 0.0 0.0 0.0
0.0 0.0 0.0 0.0 0.0 0.0 0.0 0.0
0.0 0.0 0.0 0.0 0.0 0.0 0.0 0.0
0.0 4.706024735162047e-05 -3.4666963684859515e-05 2.7660728995649883e-05 7.006234689209664e-06 -2.044357755080526e-05 0.0 0.0
0.0 0.0010348473596560551 -0.00082397711991012 0.0006784478494991921 0.000145529270410928 -0.0002656214114351025 0.0 0.0
0.0 0.003485778092104172 -0.0031514960435158465 0.0027462111645791716 0.00040528487893667285 -0.0007103848740037239 0.0 0.0
0.0 0.00816322460089429 -0.007254238858354197 0.006655298662709356 0.0005989401956448446 -0.0014054618142344982 0.0 0.0
0.0 0.015236703637215984 -0.013396957149481158 0.012673236024258596 0.0007237211252225717 -0.0024515079220347033 0.0 0.0
0.0 0.02484638656328984 -0.021705742374615315 0.020876483006651066 0.0008292593679642369 -0.003854796246976965 0.0 0.0
0.0 0.03687554433082938 -0.03210204454250614 0.03116682110576215 0.0009352234367439836 -0.0054871641816464515 0.0 0.0
0.0 0.05111667708561138 -0.04439928188710633 0.04335684812332717 0.0010424337637791542 -0.00715694952778968 0.0 0.0
0.0 0.06740643994666057 -0.05841853701150246 0.057268876256414 0.0011496607550884556 -0.00876017817806902 0.0 0.0
0.0 0.0852882490909008 -0.07401950117074148 0.07276175169426465 0.0012577494764768472 -0.010359395946042212 0.0 0.0
0.0 0.10484121031570631 -0.09101366462992624 0.08964558708406867 0.0013680775458575348 -0.011937675493992578 0.0 0.0
0.0 0.1256443977658614 -0.1090478615012108 0.10756589837027011 0.0014819631309406225 -0.013255955775210434 0.0 0.0
0.0 0.14683231217413617 -0.12744959848481732 0.12584755736762707 0.0016020411171902308 -0.013850240808631531 0.0 0.0
0.0 0.16693052767261146 -0.14492789574863835 0.14318411184717744 0.0017437839014609606 -0.013723187439436076 0.0 0.0
0.0 0.18298127384816137 -0.1588131383637865 0.15686772008118102 0.0019454182826054301 -0.015932407124927994 0.0 0.0
0.0 0.18901311255254077 -0.16354657636174097 0.1612859288214225 0.0022606475403183007 -0.02860891123005364 0.0 0.0
0.0 0.17620058263530514 -0.15015030653391304 0.14765367198554336 0.0024966345483695535 -0.05681103434653241 0.0 0.0
0.0 0.17620058263528768 -0.150150306533896 0.14765367198552543 0.002496634548370517 0.0568110343465573 0.0 0.0
0.0 0.18901311255249598 -0.16354657636169997 0.16128592882138243 0.0022606475403174416 0.028608911230092553 0.0 0.0
0.0 0.1829812738480906 -0.15881313836372377 0.15686772008112002 0.0019454182826037802 0.015932407124955122 0.0 0.0
0.0 0.16693052767251731 -0.14492789574855658 0.14318411184709592 0.0017437839014606648 0.013723187439439545 0.0 0.0
0.0 0.14683231217403153 -0.12744959848472637 0.12584755736753703 0.0016020411171893856 0.013850240808629104 0.0 0.0
0.0 0.12564439776574896 -0.10904786150111301 0.10756589837017325 0.0014819631309397822 0.013255955775208782 0.0 0.0
0.0 0.1048412103155942 -0.09101366462982902 0.08964558708397209 0.001368077545856854 0.011937675493986801 0.0 0.0
0.0 0.08528824909079318 -0.07401950117064789 0.0727617516941721 0.0012577494764757777 0.01035939594603508 0.0 0.0
0.0 0.06740643994655837 -0.05841853701141309 0.05726887625632611 0.0011496607550869442 0.008760178178061559 0.0 0.0
0.0 0.05111667708551572 -0.044399281887023107 0.043356848123245105 0.001042433763777991 0.007156949527774561 0.0 0.0
0.0 0.03687554433074979 -0.03210204454243685 0.031166821105693705 0.000935223436743146 0.005487164181631339 0.0 0.0
0.0 0.024846386563229298 -0.021705742374561923 0.020876483006598424 0.0008292593679635038 0.003854796246968999 0.0 0.0
0.0 0.015236703637170543 -0.013396957149441032 0.01267323602421917 0.0007237211252218576 0.0024515079220276347 0.0 0.0
0.0 0.00816322460086486 -0.007254238858327879 0.006655298662683881 0.0005989401956439935 0.0014054618142290052 0.0 0.0
0.0 0.003485778092086809 -0.003151496043500289 0.002746211164564744 0.00040528487893554544 0.0007103848740000956 0.0 0.0
0.0 0.001034847359649161 -0.000823977119904894 0.0006784478494947197 0.00014552927041017402 0.00026562141143353645 0.0 0.0
0.0 4.7060247350818294e-05 -3.466696368502631e-05 2.7660728995761485e-05 7.006234689264777e-06 2.0443577550848445e-05 0.0 0.0
0.0 0.0 0.0 0.0 0.0 0.0 0.0 0.0
0.0 0.0 0.0 0.0 0.0 0.0 0.0 0.0
0.0 0.0 0.0 0.0 0.0 0.0 0.0 0.0
0.0 0.0 0.0 0.0 0.0 0.0 0.0 0.0
0.0 0.0 0.0 0.0 0.0 0.0 0.0 0.0
0.0 0.0 0.0 0.0 0.0 0.0 0.0 0.0
0.0 0.00013116836543238783 -0.00010839998073502797 8.61436824733995e-05 2.2256298261628613e-05 -2.704568318501234e-05 0.0 0.0
0.0 0.0016076716529937005 -0.0012749200686173175 0.0010623779727386784 0.00021254209587863836 -0.0001614726299763057 0.0 0.0
0.0 0.004522639288388478 -0.004088606269341776 0.003616078451195584 0.00047252781814619417 -0.0003364867142647435 0.0 0.0
0.0 0.009808228094209032 -0.008728489973969819 0.008092165734333521 0.0006363242396362949 -0.0006191449749364134 0.0 0.0
0.0 0.017656787558528664 -0.015542419454357402 0.014793456773229758 0.0007489626811276345 -0.0010510511844876113 0.0 0.0
0.0 0.028260205709561555 -0.024730651727547917 0.023876775980629126 0.0008538757469187874 -0.0016676273599675264 0.0 0.0
0.0 0.04159474490455081 -0.03626207404620272 0.035297482852040964 0.0009645911941617558 -0.0024152834235252824 0.0 0.0
0.0 0.05748973198275734 -0.049967940873374056 0.04888853144851069 0.0010794094248633593 -0.003193690816973837 0.0 0.0
0.0 0.07542850348856969 -0.06564845490773626 0.06445237604577182 0.0011960788619644405 -0.003959599945985923 0.0 0.0
0.0 0.09547853288414578 -0.08309511730103464 0.08178070972388807 0.001314407577146591 -0.004716009496077834 0.0 0.0
0.0 0.11731732764054326 -0.10203327800107988 0.10059634069674947 0.0014369373043303679 -0.005420071866636619 0.0 0.0
0.0 0.1402897059387363 -0.12195726102505706 0.12039171850394523 0.0015655425211118848 -0.005929806575281941 0.0 0.0
0.0 0.16336199156159137 -0.14195344539371635 0.1402546145237872 0.0016988308699290777 -0.00591133127431607 0.0 0.0
0.0 0.184866496722203 -0.16060495568862362 0.15877164821724718 0.0018333074713764615 -0.004939151330004436 0.0 0.0
0.0 0.20240219376684626 -0.17584441735769232 0.17386249079519578 0.0019819265624963934 -0.003863759651243225 0.0 0.0
0.0 0.21199559923239344 -0.18398402481898465 0.18176495564189055 0.0022190691770939833 -0.011767038452328257 0.0 0.0
0.0 0.2044774610576917 -0.17530690330857737 0.17243574572398612 0.0028711575845912114 -0.05241953257878865 0.0 0.0
0.0 0.20447746105767112 -0.17530690330855878 0.1724357457239676 0.0028711575845910336 0.05241953257879692 0.0 0.0
0.0 0.21199559923233974 -0.1839840248189375 0.1817649556418442 0.0022190691770931988 0.011767038452348413 0.0 0.0
0.0 0.20240219376676208 -0.17584441735761908 0.17386249079512342 0.001981926562495553 0.0038637596512551744 0.0 0.0
0.0 0.18486649672209482 -0.1606049556885299 0.15877164821715392 0.0018333074713759365 0.004939151330002946 0.0 0.0
0.0 0.16336199156147171 -0.1419534453936126 0.14025461452368393 0.0016988308699285503 0.005911331274313099 0.0 0.0
0.0 0.14028970593861387 -0.12195726102495094 0.12039171850383946 0.001565542521111416 0.005929806575283024 0.0 0.0
0.0 0.117317327640419 -0.10203327800097227 0.10059634069664218 0.0014369373043300404 0.005420071866633519 0.0 0.0
0.0 0.09547853288402544 -0.08309511730093005 0.0817807097237846 0.0013144075771454444 0.004716009496074362 0.0 0.0
0.0 0.07542850348845115 -0.06564845490763356 0.06445237604566954 0.0011960788619639888 0.003959599945982937 0.0 0.0
0.0 0.05748973198265243 -0.049967940873283004 0.048888531448420036 0.001079409424862973 0.003193690816966319 0.0 0.0
0.0 0.04159474490446563 -0.036262074046128794 0.035297482851967765 0.0009645911941610475 0.002415283423518574 0.0 0.0
0.0 0.028260205709491795 -0.024730651727486844 0.023876775980568567 0.0008538757469182776 0.0016676273599642597 0.0 0.0
0.0 0.017656787558477625 -0.015542419454312242 0.014793456773185082 0.0007489626811271518 0.0010510511844841622 0.0 0.0
0.0 0.009808228094173612 -0.008728489973938339 0.00809216573430261 0.0006363242396357271 0.0006191449749342599 0.0 0.0
0.0 0.004522639288369348 -0.004088606269324267 0.0036160784511789948 0.00047252781814527054 0.00033648671426324473 0.0 0.0
0.0 0.0016076716529849241 -0.0012749200686104178 0.0010623779727326366 0.00021254209587778192 0.000161472629975648 0.0 0.0
0.0 0.0001311683654308876 -0.00010839998073434136 8.614368247284409e-05 2.2256298261497167e-05 2.704568318486983e-05 0.0 0.0
0.0 0.0 0.0 0.0 0.0 0.0 0.0 0.0
0.0 0.0 0.0 0.0 0.0 0.0 0.0 0.0
0.0 0.0 0.0 0.0 0.0 0.0 0.0 0.0