# vtk DataFile Version 3.0
Some data
ASCII
DATASET UNSTRUCTURED_GRID
POINTS 861 float
0.0 0.0 0.0
0.4 0.0 0.0
0.8 0.0 0.0
1.2000000000000002 0.0 0.0
1.6 0.0 0.0
2.0 0.0 0.0
2.4000000000000004 0.0 0.0
2.8000000000000003 0.0 0.0
3.2 0.0 0.0
3.6 0.0 0.0
4.0 0.0 0.0
4.4 0.0 0.0
4.800000000000001 0.0 0.0
5.2 0.0 0.0
5.6000000000000005 0.0 0.0
6.0 0.0 0.0
6.4 0.0 0.0
6.800000000000001 0.0 0.0
7.2 0.0 0.0
7.6000000000000005 0.0 0.0
8.0 0.0 0.0
8.4 0.0 0.0
8.8 0.0 0.0
9.200000000000001 0.0 0.0
9.600000000000001 0.0 0.0
10.0 0.0 0.0
10.4 0.0 0.0
10.8 0.0 0.0
11.200000000000001 0.0 0.0
11.600000000000001 0.0 0.0
12.0 0.0 0.0
12.4 0.0 0.0
12.8 0.0 0.0
13.200000000000001 0.0 0.0
13.600000000000001 0.0 0.0
14.0 0.0 0.0
14.4 0.0 0.0
14.8 0.0 0.0
15.200000000000001 0.0 0.0
15.600000000000001 0.0 0.0
16.0 0.0 0.0
0.0 0.1 0.0
0.4 0.1 0.0
0.8 0.1 0.0
1.2000000000000002 0.1 0.0
1.6 0.1 0.0
2.0 0.1 0.0
2.4000000000000004 0.1 0.0
2.8000000000000003 0.1 0.0
3.2 0.1 0.0
3.6 0.1 0.0
4.0 0.1 0.0
4.4 0.1 0.0
4.800000000000001 0.1 0.0
5.2 0.1 0.0
5.6000000000000005 0.1 0.0
6.0 0.1 0.0
6.4 0.1 0.0
6.800000000000001 0.1 0.0
7.2 0.1 0.0
7.6000000000000005 0.1 0.0
8.0 0.1 0.0
8.4 0.1 0.0
8.8 0.1 0.0
9.200000000000001 0.1 0.0
9.600000000000001 0.1 0.0
10.0 0.1 0.0
10.4 0.1 0.0
10.8 0.1 0.0
11.200000000000001 0.1 0.0
11.600000000000001 0.1 0.0
12.0 0.1 0.0
12.4 0.1 0.0
12.8 0.1 0.0
13.200000000000001 0.1 0.0
13.600000000000001 0.1 0.0
14.0 0.1 0.0
14.4 0.1 0.0
14.8 0.1 0.0
15.200000000000001 0.1 0.0
15.600000000000001 0.1 0.0
16.0 0.1 0.0
0.0 0.2 0.0
0.4 0.2 0.0
0.8 0.2 0.0
1.2000000000000002 0.2 0.0
1.6 0.2 0.0
2.0 0.2 0.0
2.4000000000000004 0.2 0.0
2.8000000000000003 0.2 0.0
3.2 0.2 0.0
3.6 0.2 0.0
4.0 0.2 0.0
4.4 0.2 0.0
4.800000000000001 0.2 0.0
5.2 0.2 0.0
5.6000000000000005 0.2 0.0
6.0 0.2 0.0
6.4 0.2 0.0
6.800000000000001 0.2 0.0
7.2 0.2 0.0
7.6000000000000005 0.2 0.0
8.0 0.2 0.0
8.4 0.2 0.0
8.8 0.2 0.0
9.200000000000001 0.2 0.0
9.600000000000001 0.2 0.0
10.0 0.2 0.0
10.4 0.2 0.0
10.8 0.2 0.0
11.200000000000001 0.2 0.0
11.600000000000001 0.2 0.0
12.0 0.2 0.0
12.4 0.2 0.0
12.8 0.2 0.0
13.200000000000001 0.2 0.0
13.600000000000001 0.2 0.0
14.0 0.2 0.0
14.4 0.2 0.0
14.8 0.2 0.0
15.200000000000001 0.2 0.0
15.600000000000001 0.2 0.0
16.0 0.2 0.0
0.0 0.30000000000000004 0.0
0.4 0.30000000000000004 0.0
0.8 0.30000000000000004 0.0
1.2000000000000002 0.30000000000000004 0.0
1.6 0.30000000000000004 0.0
2.0 0.30000000000000004 0.0
2.4000000000000004 0.30000000000000004 0.0
2.8000000000000003 0.30000000000000004 0.0
3.2 0.30000000000000004 0.0
3.6 0.30000000000000004 0.0
4.0 0.30000000000000004 0.0
4.4 0.30000000000000004 0.0
4.800000000000001 0.30000000000000004 0.0
5.2 0.30000000000000004 0.0
5.6000000000000005 0.30000000000000004 0.0
6.0 0.30000000000000004 0.0
6.4 0.30000000000000004 0.0
6.800000000000001 0.30000000000000004 0.0
7.2 0.30000000000000004 0.0
7.6000000000000005 0.30000000000000004 0.0
8.0 0.30000000000000004 0.0
8.4 0.30000000000000004 0.0
8.8 0.30000000000000004 0.0
9.200000000000001 0.30000000000000004 0.0
9.600000000000001 0.30000000000000004 0.0
10.0 0.30000000000000004 0.0
10.4 0.30000000000000004 0.0
10.8 0.30000000000000004 0.0
11.200000000000001 0.30000000000000004 0.0
11.600000000000001 0.30000000000000004 0.0
12.0 0.30000000000000004 0.0
12.4 0.30000000000000004 0.0
12.8 0.30000000000000004 0.0
13.200000000000001 0.30000000000000004 0.0
13.600000000000001 0.30000000000000004 0.0
14.0 0.30000000000000004 0.0
14.4 0.30000000000000004 0.0
14.8 0.30000000000000004 0.0
15.200000000000001 0.30000000000000004 0.0
15.600000000000001 0.30000000000000004 0.0
16.0 0.30000000000000004 0.0
0.0 0.4 0.0
0.4 0.4 0.0
0.8 0.4 0.0
1.2000000000000002 0.4 0.0
1.6 0.4 0.0
2.0 0.4 0.0
2.4000000000000004 0.4 0.0
2.8000000000000003 0.4 0.0
3.2 0.4 0.0
3.6 0.4 0.0
4.0 0.4 0.0
4.4 0.4 0.0
4.800000000000001 0.4 0.0
5.2 0.4 0.0
5.6000000000000005 0.4 0.0
6.0 0.4 0.0
6.4 0.4 0.0
6.800000000000001 0.4 0.0
7.2 0.4 0.0
7.6000000000000005 0.4 0.0
8.0 0.4 0.0
8.4 0.4 0.0
8.8 0.4 0.0
9.200000000000001 0.4 0.0
9.600000000000001 0.4 0.0
10.0 0.4 0.0
10.4 0.4 0.0
10.8 0.4 0.0
11.200000000000001 0.4 0.0
11.600000000000001 0.4 0.0
12.0 0.4 0.0
12.4 0.4 0.0
12.8 0.4 0.0
13.200000000000001 0.4 0.0
13.600000000000001 0.4 0.0
14.0 0.4 0.0
14.4 0.4 0.0
14.8 0.4 0.0
15.200000000000001 0.4 0.0
15.600000000000001 0.4 0.0
16.0 0.4 0.0
0.0 0.5 0.0
0.4 0.5 0.0
0.8 0.5 0.0
1.2000000000000002 0.5 0.0
1.6 0.5 0.0
2.0 0.5 0.0
2.4000000000000004 0.5 0.0
2.8000000000000003 0.5 0.0
3.2 0.5 0.0
3.6 0.5 0.0
4.0 0.5 0.0
4.4 0.5 0.0
4.800000000000001 0.5 0.0
5.2 0.5 0.0
5.6000000000000005 0.5 0.0
6.0 0.5 0.0
6.4 0.5 0.0
6.800000000000001 0.5 0.0
7.2 0.5 0.0
7.6000000000000005 0.5 0.0
8.0 0.5 0.0
8.4 0.5 0.0
8.8 0.5 0.0
9.200000000000001 0.5 0.0
9.600000000000001 0.5 0.0
10.0 0.5 0.0
10.4 0.5 0.0
10.8 0.5 0.0
11.200000000000001 0.5 0.0
11.600000000000001 0.5 0.0
12.0 0.5 0.0
12.4 0.5 0.0
12.8 0.5 0.0
13.200000000000001 0.5 0.0
13.600000000000001 0.5 0.0
14.0 0.5 0.0
14.4 0.5 0.0
14.8 0.5 0.0
15.200000000000001 0.5 0.0
15.600000000000001 0.5 0.0
16.0 0.5 0.0
0.0 0.6000000000000001 0.0
0.4 0.6000000000000001 0.0
0.8 0.6000000000000001 0.0
1.2000000000000002 0.6000000000000001 0.0
1.6 0.6000000000000001 0.0
2.0 0.6000000000000001 0.0
2.4000000000000004 0.6000000000000001 0.0
2.8000000000000003 0.6000000000000001 0.0
3.2 0.6000000000000001 0.0
3.6 0.6000000000000001 0.0
4.0 0.6000000000000001 0.0
4.4 0.6000000000000001 0.0
4.800000000000001 0.6000000000000001 0.0
5.2 0.6000000000000001 0.0
5.6000000000000005 0.6000000000000001 0.0
6.0 0.6000000000000001 0.0
6.4 0.6000000000000001 0.0
6.800000000000001 0.6000000000000001 0.0
7.2 0.6000000000000001 0.0
7.6000000000000005 0.6000000000000001 0.0
8.0 0.6000000000000001 0.0
8.4 0.6000000000000001 0.0
8.8 0.6000000000000001 0.0
9.200000000000001 0.6000000000000001 0.0
9.600000000000001 0.6000000000000001 0.0
10.0 0.6000000000000001 0.0
10.4 0.6000000000000001 0.0
10.8 0.6000000000000001 0.0
11.200000000000001 0.6000000000000001 0.0
11.600000000000001 0.6000000000000001 0.0
12.0 0.6000000000000001 0.0
12.4 0.6000000000000001 0.0
12.8 0.6000000000000001 0.0
13.200000000000001 0.6000000000000001 0.0
13.600000000000001 0.6000000000000001 0.0
14.0 0.6000000000000001 0.0
14.4 0.6000000000000001 0.0
14.8 0.6000000000000001 0.0
15.200000000000001 0.6000000000000001 0.0
15.600000000000001 0.6000000000000001 0.0
16.0 0.6000000000000001 0.0
0.0 0.7000000000000001 0.0
0.4 0.7000000000000001 0.0
0.8 0.7000000000000001 0.0
1.2000000000000002 0.7000000000000001 0.0
1.6 0.7000000000000001 0.0
2.0 0.7000000000000001 0.0
2.4000000000000004 0.7000000000000001 0.0
2.8000000000000003 0.7000000000000001 0.0
3.2 0.7000000000000001 0.0
3.6 0.7000000000000001 0.0
4.0 0.7000000000000001 0.0
4.4 0.7000000000000001 0.0
4.800000000000001 0.7000000000000001 0.0
5.2 0.7000000000000001 0.0
5.6000000000000005 0.7000000000000001 0.0
6.0 0.7000000000000001 0.0
6.4 0.7000000000000001 0.0
6.800000000000001 0.7000000000000001 0.0
7.2 0.7000000000000001 0.0
7.6000000000000005 0.7000000000000001 0.0
8.0 0.7000000000000001 0.0
8.4 0.7000000000000001 0.0
8.8 0.7000000000000001 0.0
9.200000000000001 0.7000000000000001 0.0
9.600000000000001 0.7000000000000001 0.0
10.0 0.7000000000000001 0.0
10.4 0.7000000000000001 0.0
10.8 0.7000000000000001 0.0
11.200000000000001 0.7000000000000001 0.0
11.600000000000001 0.7000000000000001 0.0
12.0 0.7000000000000001 0.0
12.4 0.7000000000000001 0.0
12.8 0.7000000000000001 0.0
13.200000000000001 0.7000000000000001 0.0
13.600000000000001 0.7000000000000001 0.0
14.0 0.7000000000000001 0.0
14.4 0.7000000000000001 0.0
14.8 0.7000000000000001 0.0
15.200000000000001 0.7000000000000001 0.0
15.600000000000001 0.7000000000000001 0.0
16.0 0.7000000000000001 0.0
0.0 0.8 0.0
0.4 0.8 0.0
0.8 0.8 0.0
1.2000000000000002 0.8 0.0
1.6 0.8 0.0
2.0 0.8 0.0
2.4000000000000004 0.8 0.0
2.8000000000000003 0.8 0.0
3.2 0.8 0.0
3.6 0.8 0.0
4.0 0.8 0.0
4.4 0.8 0.0
4.800000000000001 0.8 0.0
5.2 0.8 0.0
5.6000000000000005 0.8 0.0
6.0 0.8 0.0
6.4 0.8 0.0
6.800000000000001 0.8 0.0
7.2 0.8 0.0
7.6000000000000005 0.8 0.0
8.0 0.8 0.0
8.4 0.8 0.0
8.8 0.8 0.0
9.200000000000001 0.8 0.0
9.600000000000001 0.8 0.0
10.0 0.8 0.0
10.4 0.8 0.0
10.8 0.8 0.0
11.200000000000001 0.8 0.0
11.600000000000001 0.8 0.0
12.0 0.8 0.0
12.4 0.8 0.0
12.8 0.8 0.0
13.200000000000001 0.8 0.0
13.600000000000001 0.8 0.0
14.0 0.8 0.0
14.4 0.8 0.0
14.8 0.8 0.0
15.200000000000001 0.8 0.0
15.600000000000001 0.8 0.0
16.0 0.8 0.0
0.0 0.9 0.0
0.4 0.9 0.0
0.8 0.9 0.0
1.2000000000000002 0.9 0.0
1.6 0.9 0.0
2.0 0.9 0.0
2.4000000000000004 0.9 0.0
2.8000000000000003 0.9 0.0
3.2 0.9 0.0
3.6 0.9 0.0
4.0 0.9 0.0
4.4 0.9 0.0
4.800000000000001 0.9 0.0
5.2 0.9 0.0
5.6000000000000005 0.9 0.0
6.0 0.9 0.0
6.4 0.9 0.0
6.800000000000001 0.9 0.0
7.2 0.9 0.0
7.6000000000000005 0.9 0.0
8.0 0.9 0.0
8.4 0.9 0.0
8.8 0.9 0.0
9.200000000000001 0.9 0.0
9.600000000000001 0.9 0.0
10.0 0.9 0.0
10.4 0.9 0.0
10.8 0.9 0.0
11.200000000000001 0.9 0.0
11.600000000000001 0.9 0.0
12.0 0.9 0.0
12.4 0.9 0.0
12.8 0.9 0.0
13.200000000000001 0.9 0.0
13.600000000000001 0.9 0.0
14.0 0.9 0.0
14.4 0.9 0.0
14.8 0.9 0.0
15.200000000000001 0.9 0.0
15.600000000000001 0.9 0.0
16.0 0.9 0.0
0.0 1.0 0.0
0.4 1.0 0.0
0.8 1.0 0.0
1.2000000000000002 1.0 0.0
1.6 1.0 0.0
2.0 1.0 0.0
2.4000000000000004 1.0 0.0
2.8000000000000003 1.0 0.0
3.2 1.0 0.0
3.6 1.0 0.0
4.0 1.0 0.0
4.4 1.0 0.0
4.800000000000001 1.0 0.0
5.2 1.0 0.0
5.6000000000000005 1.0 0.0
6.0 1.0 0.0
6.4 1.0 0.0
6.800000000000001 1.0 0.0
7.2 1.0 0.0
7.6000000000000005 1.0 0.0
8.0 1.0 0.0
8.4 1.0 0.0
8.8 1.0 0.0
9.200000000000001 1.0 0.0
9.600000000000001 1.0 0.0
10.0 1.0 0.0
10.4 1.0 0.0
10.8 1.0 0.0
11.200000000000001 1.0 0.0
11.600000000000001 1.0 0.0
12.0 1.0 0.0
12.4 1.0 0.0
12.8 1.0 0.0
13.200000000000001 1.0 0.0
13.600000000000001 1.0 0.0
14.0 1.0 0.0
14.4 1.0 0.0
14.8 1.0 0.0
15.200000000000001 1.0 0.0
15.600000000000001 1.0 0.0
16.0 1.0 0.0
0.0 1.1 0.0
0.4 1.1 0.0
0.8 1.1 0.0
1.2000000000000002 1.1 0.0
1.6 1.1 0.0
2.0 1.1 0.0
2.4000000000000004 1.1 0.0
2.8000000000000003 1.1 0.0
3.2 1.1 0.0
3.6 1.1 0.0
4.0 1.1 0.0
4.4 1.1 0.0
4.800000000000001 1.1 0.0
5.2 1.1 0.0
5.6000000000000005 1.1 0.0
6.0 1.1 0.0
6.4 1.1 0.0
6.800000000000001 1.1 0.0
7.2 1.1 0.0
7.6000000000000005 1.1 0.0
8.0 1.1 0.0
8.4 1.1 0.0
8.8 1.1 0.0
9.200000000000001 1.1 0.0
9.600000000000001 1.1 0.0
10.0 1.1 0.0
10.4 1.1 0.0
10.8 1.1 0.0
11.200000000000001 1.1 0.0
11.600000000000001 1.1 0.0
12.0 1.1 0.0
12.4 1.1 0.0
12.8 1.1 0.0
13.200000000000001 1.1 0.0
13.600000000000001 1.1 0.0
14.0 1.1 0.0
14.4 1.1 0.0
14.8 1.1 0.0
15.200000000000001 1.1 0.0
15.600000000000001 1.1 0.0
16.0 1.1 0.0
0.0 1.2000000000000002 0.0
0.4 1.2000000000000002 0.0
0.8 1.2000000000000002 0.0
1.2000000000000002 1.2000000000000002 0.0
1.6 1.2000000000000002 0.0
2.0 1.2000000000000002 0.0
2.4000000000000004 1.2000000000000002 0.0
2.8000000000000003 1.2000000000000002 0.0
3.2 1.2000000000000002 0.0
3.6 1.2000000000000002 0.0
4.0 1.2000000000000002 0.0
4.4 1.2000000000000002 0.0
4.800000000000001 1.2000000000000002 0.0
5.2 1.2000000000000002 0.0
5.6000000000000005 1.2000000000000002 0.0
6.0 1.2000000000000002 0.0
6.4 1.2000000000000002 0.0
6.800000000000001 1.2000000000000002 0.0
7.2 1.2000000000000002 0.0
7.6000000000000005 1.2000000000000002 0.0
8.0 1.2000000000000002 0.0
8.4 1.2000000000000002 0.0
8.8 1.2000000000000002 0.0
9.200000000000001 1.2000000000000002 0.0
9.600000000000001 1.2000000000000002 0.0
10.0 1.2000000000000002 0.0
10.4 1.2000000000000002 0.0
10.8 1.2000000000000002 0.0
11.200000000000001 1.2000000000000002 0.0
11.600000000000001 1.2000000000000002 0.0
12.0 1.2000000000000002 0.0
12.4 1.2000000000000002 0.0
12.8 1.2000000000000002 0.0
13.200000000000001 1.2000000000000002 0.0
13.600000000000001 1.2000000000000002 0.0
14.0 1.2000000000000002 0.0
14.4 1.2000000000000002 0.0
14.8 1.2000000000000002 0.0
15.200000000000001 1.2000000000000002 0.0
15.600000000000001 1.2000000000000002 0.0
16.0 1.2000000000000002 0.0
0.0 1.3 0.0
0.4 1.3 0.0
0.8 1.3 0.0
1.2000000000000002 1.3 0.0
1.6 1.3 0.0
2.0 1.3 0.0
2.4000000000000004 1.3 0.0
2.8000000000000003 1.3 0.0
3.2 1.3 0.0
3.6 1.3 0.0
4.0 1.3 0.0
4.4 1.3 0.0
4.800000000000001 1.3 0.0
5.2 1.3 0.0
5.6000000000000005 1.3 0.0
6.0 1.3 0.0
6.4 1.3 0.0
6.800000000000001 1.3 0.0
7.2 1.3 0.0
7.6000000000000005 1.3 0.0
8.0 1.3 0.0
8.4 1.3 0.0
8.8 1.3 0.0
9.200000000000001 1.3 0.0
9.600000000000001 1.3 0.0
10.0 1.3 0.0
10.4 1.3 0.0
10.8 1.3 0.0
11.200000000000001 1.3 0.0
11.600000000000001 1.3 0.0
12.0 1.3 0.0
12.4 1.3 0.0
12.8 1.3 0.0
13.200000000000001 1.3 0.0
13.600000000000001 1.3 0.0
14.0 1.3 0.0
14.4 1.3 0.0
14.8 1.3 0.0
15.200000000000001 1.3 0.0
15.600000000000001 1.3 0.0
16.0 1.3 0.0
0.0 1.4000000000000001 0.0
0.4 1.4000000000000001 0.0
0.8 1.4000000000000001 0.0
1.2000000000000002 1.4000000000000001 0.0
1.6 1.4000000000000001 0.0
2.0 1.4000000000000001 0.0
2.4000000000000004 1.4000000000000001 0.0
2.8000000000000003 1.4000000000000001 0.0
3.2 1.4000000000000001 0.0
3.6 1.4000000000000001 0.0
4.0 1.4000000000000001 0.0
4.4 1.4000000000000001 0.0
4.800000000000001 1.4000000000000001 0.0
5.2 1.4000000000000001 0.0
5.6000000000000005 1.4000000000000001 0.0
6.0 1.4000000000000001 0.0
6.4 1.4000000000000001 0.0
6.800000000000001 1.4000000000000001 0.0
7.2 1.4000000000000001 0.0
7.6000000000000005 1.4000000000000001 0.0
8.0 1.4000000000000001 0.0
8.4 1.4000000000000001 0.0
8.8 1.4000000000000001 0.0
9.200000000000001 1.4000000000000001 0.0
9.600000000000001 1.4000000000000001 0.0
10.0 1.4000000000000001 0.0
10.4 1.4000000000000001 0.0
10.8 1.4000000000000001 0.0
11.200000000000001 1.4000000000000001 0.0
11.600000000000001 1.4000000000000001 0.0
12.0 1.4000000000000001 0.0
12.4 1.4000000000000001 0.0
12.8 1.4000000000000001 0.0
13.200000000000001 1.4000000000000001 0.0
13.600000000000001 1.4000000000000001 0.0
14.0 1.4000000000000001 0.0
14.4 1.4000000000000001 0.0
14.8 1.4000000000000001 0.0
15.200000000000001 1.4000000000000001 0.0
15.600000000000001 1.4000000000000001 0.0
16.0 1.4000000000000001 0.0
0.0 1.5 0.0
0.4 1.5 0.0
0.8 1.5 0.0
1.2000000000000002 1.5 0.0
1.6 1.5 0.0
2.0 1.5 0.0
2.4000000000000004 1.5 0.0
2.8000000000000003 1.5 0.0
3.2 1.5 0.0
3.6 1.5 0.0
4.0 1.5 0.0
4.4 1.5 0.0
4.800000000000001 1.5 0.0
5.2 1.5 0.0
5.6000000000000005 1.5 0.0
6.0 1.5 0.0
6.4 1.5 0.0
6.800000000000001 1.5 0.0
7.2 1.5 0.0
7.6000000000000005 1.5 0.0
8.0 1.5 0.0
8.4 1.5 0.0
8.8 1.5 0.0
9.200000000000001 1.5 0.0
9.600000000000001 1.5 0.0
10.0 1.5 0.0
10.4 1.5 0.0
10.8 1.5 0.0
11.200000000000001 1.5 0.0
11.600000000000001 1.5 0.0
12.0 1.5 0.0
12.4 1.5 0.0
12.8 1.5 0.0
13.200000000000001 1.5 0.0
13.600000000000001 1.5 0.0
14.0 1.5 0.0
14.4 1.5 0.0
14.8 1.5 0.0
15.200000000000001 1.5 0.0
15.600000000000001 1.5 0.0
16.0 1.5 0.0
0.0 1.6 0.0
0.4 1.6 0.0
0.8 1.6 0.0
1.2000000000000002 1.6 0.0
1.6 1.6 0.0
2.0 1.6 0.0
2.4000000000000004 1.6 0.0
2.8000000000000003 1.6 0.0
3.2 1.6 0.0
3.6 1.6 0.0
4.0 1.6 0.0
4.4 1.6 0.0
4.800000000000001 1.6 0.0
5.2 1.6 0.0
5.6000000000000005 1.6 0.0
6.0 1.6 0.0
6.4 1.6 0.0
6.800000000000001 1.6 0.0
7.2 1.6 0.0
7.6000000000000005 1.6 0.0
8.0 1.6 0.0
8.4 1.6 0.0
8.8 1.6 0.0
9.200000000000001 1.6 0.0
9.600000000000001 1.6 0.0
10.0 1.6 0.0
10.4 1.6 0.0
10.8 1.6 0.0
11.200000000000001 1.6 0.0
11.600000000000001 1.6 0.0
12.0 1.6 0.0
12.4 1.6 0.0
12.8 1.6 0.0
13.200000000000001 1.6 0.0
13.600000000000001 1.6 0.0
14.0 1.6 0.0
14.4 1.6 0.0
14.8 1.6 0.0
15.200000000000001 1.6 0.0
15.600000000000001 1.6 0.0
16.0 1.6 0.0
0.0 1.7000000000000002 0.0
0.4 1.7000000000000002 0.0
0.8 1.7000000000000002 0.0
1.2000000000000002 1.7000000000000002 0.0
1.6 1.7000000000000002 0.0
2.0 1.7000000000000002 0.0
2.4000000000000004 1.7000000000000002 0.0
2.8000000000000003 1.7000000000000002 0.0
3.2 1.7000000000000002 0.0
3.6 1.7000000000000002 0.0
4.0 1.7000000000000002 0.0
4.4 1.7000000000000002 0.0
4.800000000000001 1.7000000000000002 0.0
5.2 1.7000000000000002 0.0
5.6000000000000005 1.7000000000000002 0.0
6.0 1.7000000000000002 0.0
6.4 1.7000000000000002 0.0
6.800000000000001 1.7000000000000002 0.0
7.2 1.7000000000000002 0.0
7.6000000000000005 1.7000000000000002 0.0
8.0 1.7000000000000002 0.0
8.4 1.7000000000000002 0.0
8.8 1.7000000000000002 0.0
9.200000000000001 1.7000000000000002 0.0
9.600000000000001 1.7000000000000002 0.0
10.0 1.7000000000000002 0.0
10.4 1.7000000000000002 0.0
10.8 1.7000000000000002 0.0
11.200000000000001 1.7000000000000002 0.0
11.600000000000001 1.7000000000000002 0.0
12.0 1.7000000000000002 0.0
12.4 1.7000000000000002 0.0
12.8 1.7000000000000002 0.0
13.200000000000001 1.7000000000000002 0.0
13.600000000000001 1.7000000000000002 0.0
14.0 1.7000000000000002 0.0
14.4 1.7000000000000002 0.0
14.8 1.7000000000000002 0.0
15.200000000000001 1.7000000000000002 0.0
15.600000000000001 1.7000000000000002 0.0
16.0 1.7000000000000002 0.0
0.0 1.8 0.0
0.4 1.8 0.0
0.8 1.8 0.0
1.2000000000000002 1.8 0.0
1.6 1.8 0.0
2.0 1.8 0.0
2.4000000000000004 1.8 0.0
2.8000000000000003 1.8 0.0
3.2 1.8 0.0
3.6 1.8 0.0
4.0 1.8 0.0
4.4 1.8 0.0
4.800000000000001 1.8 0.0
5.2 1.8 0.0
5.6000000000000005 1.8 0.0
6.0 1.8 0.0
6.4 1.8 0.0
6.800000000000001 1.8 0.0
7.2 1.8 0.0
7.6000000000000005 1.8 0.0
8.0 1.8 0.0
8.4 1.8 0.0
8.8 1.8 0.0
9.200000000000001 1.8 0.0
9.600000000000001 1.8 0.0
10.0 1.8 0.0
10.4 1.8 0.0
10.8 1.8 0.0
11.200000000000001 1.8 0.0
11.600000000000001 1.8 0.0
12.0 1.8 0.0
12.4 1.8 0.0
12.8 1.8 0.0
13.200000000000001 1.8 0.0
13.600000000000001 1.8 0.0
14.0 1.8 0.0
14.4 1.8 0.0
14.8 1.8 0.0
15.200000000000001 1.8 0.0
15.600000000000001 1.8 0.0
16.0 1.8 0.0
0.0 1.9000000000000001 0.0
0.4 1.9000000000000001 0.0
0.8 1.9000000000000001 0.0
1.2000000000000002 1.9000000000000001 0.0
1.6 1.9000000000000001 0.0
2.0 1.9000000000000001 0.0
2.4000000000000004 1.9000000000000001 0.0
2.8000000000000003 1.9000000000000001 0.0
3.2 1.9000000000000001 0.0
3.6 1.9000000000000001 0.0
4.0 1.9000000000000001 0.0
4.4 1.9000000000000001 0.0
4.800000000000001 1.9000000000000001 0.0
5.2 1.9000000000000001 0.0
5.6000000000000005 1.9000000000000001 0.0
6.0 1.9000000000000001 0.0
6.4 1.9000000000000001 0.0
6.800000000000001 1.9000000000000001 0.0
7.2 1.9000000000000001 0.0
7.6000000000000005 1.9000000000000001 0.0
8.0 1.9000000000000001 0.0
8.4 1.9000000000000001 0.0
8.8 1.9000000000000001 0.0
9.200000000000001 1.9000000000000001 0.0
9.600000000000001 1.9000000000000001 0.0
10.0 1.9000000000000001 0.0
10.4 1.9000000000000001 0.0
10.8 1.9000000000000001 0.0
11.200000000000001 1.9000000000000001 0.0
11.600000000000001 1.9000000000000001 0.0
12.0 1.9000000000000001 0.0
12.4 1.9000000000000001 0.0
12.8 1.9000000000000001 0.0
13.200000000000001 1.9000000000000001 0.0
13.600000000000001 1.9000000000000001 0.0
14.0 1.9000000000000001 0.0
14.4 1.9000000000000001 0.0
14.8 1.9000000000000001 0.0
15.200000000000001 1.9000000000000001 0.0
15.600000000000001 1.9000000000000001 0.0
16.0 1.9000000000000001 0.0
0.0 2.0 0.0
0.4 2.0 0.0
0.8 2.0 0.0
1.2000000000000002 2.0 0.0
1.6 2.0 0.0
2.0 2.0 0.0
2.4000000000000004 2.0 0.0
2.8000000000000003 2.0 0.0
3.2 2.0 0.0
3.6 2.0 0.0
4.0 2.0 0.0
4.4 2.0 0.0
4.800000000000001 2.0 0.0
5.2 2.0 0.0
5.6000000000000005 2.0 0.0
6.0 2.0 0.0
6.4 2.0 0.0
6.800000000000001 2.0 0.0
7.2 2.0 0.0
7.6000000000000005 2.0 0.0
8.0 2.0 0.0
8.4 2.0 0.0
8.8 2.0 0.0
9.200000000000001 2.0 0.0
9.600000000000001 2.0 0.0
10.0 2.0 0.0
10.4 2.0 0.0
10.8 2.0 0.0
11.200000000000001 2.0 0.0
11.600000000000001 2.0 0.0
12.0 2.0 0.0
12.4 2.0 0.0
12.8 2.0 0.0
13.200000000000001 2.0 0.0
13.600000000000001 2.0 0.0
14.0 2.0 0.0
14.4 2.0 0.0
14.8 2.0 0.0
15.200000000000001 2.0 0.0
15.600000000000001 2.0 0.0
16.0 2.0 0.0
CELLS 800 4000
4 0 1 42 41
4 1 2 43 42
4 2 3 44 43
4 3 4 45 44
4 4 5 46 45
4 5 6 47 46
4 6 7 48 47
4 7 8 49 48
4 8 9 50 49
4 9 10 51 50
4 10 11 52 51
4 11 12 53 52
4 12 13 54 53
4 13 14 55 54
4 14 15 56 55
4 15 16 57 56
4 16 17 58 57
4 17 18 59 58
4 18 19 60 59
4 19 20 61 60
4 20 21 62 61
4 21 22 63 62
4 22 23 64 63
4 23 24 65 64
4 24 25 66 65
4 25 26 67 66
4 26 27 68 67
4 27 28 69 68
4 28 29 70 69
4 29 30 71 70
4 30 31 72 71
4 31 32 73 72
4 32 33 74 73
4 33 34 75 74
4 34 35 76 75
4 35 36 77 76
4 36 37 78 77
4 37 38 79 78
4 38 39 80 79
4 39 40 81 80
4 41 42 83 82
4 42 43 84 83
4 43 44 85 84
4 44 45 86 85
4 45 46 87 86
4 46 47 88 87
4 47 48 89 88
4 48 49 90 89
4 49 50 91 90
4 50 51 92 91
4 51 52 93 92
4 52 53 94 93
4 53 54 95 94
4 54 55 96 95
4 55 56 97 96
4 56 57 98 97
4 57 58 99 98
4 58 59 100 99
4 59 60 101 100
4 60 61 102 101
4 61 62 103 102
4 62 63 104 103
4 63 64 105 104
4 64 65 106 105
4 65 66 107 106
4 66 67 108 107
4 67 68 109 108
4 68 69 110 109
4 69 70 111 110
4 70 71 112 111
4 71 72 113 112
4 72 73 114 113
4 73 74 115 114
4 74 75 116 115
4 75 76 117 116
4 76 77 118 117
4 77 78 119 118
4 78 79 120 119
4 79 80 121 120
4 80 81 122 121
4 82 83 124 123
4 83 84 125 124
4 84 85 126 125
4 85 86 127 126
4 86 87 128 127
4 87 88 129 128
4 88 89 130 129
4 89 90 131 130
4 90 91 132 131
4 91 92 133 132
4 92 93 134 133
4 93 94 135 134
4 94 95 136 135
4 95 96 137 136
4 96 97 138 137
4 97 98 139 138
4 98 99 140 139
4 99 100 141 140
4 100 101 142 141
4 101 102 143 142
4 102 103 144 143
4 103 104 145 144
4 104 105 146 145
4 105 106 147 146
4 106 107 148 147
4 107 108 149 148
4 108 109 150 149
4 109 110 151 150
4 110 111 152 151
4 111 112 153 152
4 112 113 154 153
4 113 114 155 154
4 114 115 156 155
4 115 116 157 156
4 116 117 158 157
4 117 118 159 158
4 118 119 160 159
4 119 120 161 160
4 120 121 162 161
4 121 122 163 162
4 123 124 165 164
4 124 125 166 165
4 125 126 167 166
4 126 127 168 167
4 127 128 169 168
4 128 129 170 169
4 129 130 171 170
4 130 131 172 171
4 131 132 173 172
4 132 133 174 173
4 133 134 175 174
4 134 135 176 175
4 135 136 177 176
4 136 137 178 177
4 137 138 179 178
4 138 139 180 179
4 139 140 181 180
4 140 141 182 181
4 141 142 183 182
4 142 143 184 183
4 143 144 185 184
4 144 145 186 185
4 145 146 187 186
4 146 147 188 187
4 147 148 189 188
4 148 149 190 189
4 149 150 191 190
4 150 151 192 191
4 151 152 193 192
4 152 153 194 193
4 153 154 195 194
4 154 155 196 195
4 155 156 197 196
4 156 157 198 197
4 157 158 199 198
4 158 159 200 199
4 159 160 201 200
4 160 161 202 201
4 161 162 203 202
4 162 163 204 203
4 164 165 206 205
4 165 166 207 206
4 166 167 208 207
4 167 168 209 208
4 168 169 210 209
4 169 170 211 210
4 170 171 212 211
4 171 172 213 212
4 172 173 214 213
4 173 174 215 214
4 174 175 216 215
4 175 176 217 216
4 176 177 218 217
4 177 178 219 218
4 178 179 220 219
4 179 180 221 220
4 180 181 222 221
4 181 182 223 222
4 182 183 224 223
4 183 184 225 224
4 184 185 226 225
4 185 186 227 226
4 186 187 228 227
4 187 188 229 228
4 188 189 230 229
4 189 190 231 230
4 190 191 232 231
4 191 192 233 232
4 192 193 234 233
4 193 194 235 234
4 194 195 236 235
4 195 196 237 236
4 196 197 238 237
4 197 198 239 238
4 198 199 240 239
4 199 200 241 240
4 200 201 242 241
4 201 202 243 242
4 202 203 244 243
4 203 204 245 244
4 205 206 247 246
4 206 207 248 247
4 207 208 249 248
4 208 209 250 249
4 209 210 251 250
4 210 211 252 251
4 211 212 253 252
4 212 213 254 253
4 213 214 255 254
4 214 215 256 255
4 215 216 257 256
4 216 217 258 257
4 217 218 259 258
4 218 219 260 259
4 219 220 261 260
4 220 221 262 261
4 221 222 263 262
4 222 223 264 263
4 223 224 265 264
4 224 225 266 265
4 225 226 267 266
4 226 227 268 267
4 227 228 269 268
4 228 229 270 269
4 229 230 271 270
4 230 231 272 271
4 231 232 273 272
4 232 233 274 273
4 233 234 275 274
4 234 235 276 275
4 235 236 277 276
4 236 237 278 277
4 237 238 279 278
4 238 239 280 279
4 239 240 281 280
4 240 241 282 281
4 241 242 283 282
4 242 243 284 283
4 243 244 285 284
4 244 245 286 285
4 246 247 288 287
4 247 248 289 288
4 248 249 290 289
4 249 250 291 290
4 250 251 292 291
4 251 252 293 292
4 252 253 294 293
4 253 254 295 294
4 254 255 296 295
4 255 256 297 296
4 256 257 298 297
4 257 258 299 298
4 258 259 300 299
4 259 260 301 300
4 260 261 302 301
4 261 262 303 302
4 262 263 304 303
4 263 264 305 304
4 264 265 306 305
4 265 266 307 306
4 266 267 308 307
4 267 268 309 308
4 268 269 310 309
4 269 270 311 310
4 270 271 312 311
4 271 272 313 312
4 272 273 314 313
4 273 274 315 314
4 274 275 316 315
4 275 276 317 316
4 276 277 318 317
4 277 278 319 318
4 278 279 320 319
4 279 280 321 320
4 280 281 322 321
4 281 282 323 322
4 282 283 324 323
4 283 284 325 324
4 284 285 326 325
4 285 286 327 326
4 287 288 329 328
4 288 289 330 329
4 289 290 331 330
4 290 291 332 331
4 291 292 333 332
4 292 293 334 333
4 293 294 335 334
4 294 295 336 335
4 295 296 337 336
4 296 297 338 337
4 297 298 339 338
4 298 299 340 339
4 299 300 341 340
4 300 301 342 341
4 301 302 343 342
4 302 303 344 343
4 303 304 345 344
4 304 305 346 345
4 305 306 347 346
4 306 307 348 347
4 307 308 349 348
4 308 309 350 349
4 309 310 351 350
4 310 311 352 351
4 311 312 353 352
4 312 313 354 353
4 313 314 355 354
4 314 315 356 355
4 315 316 357 356
4 316 317 358 357
4 317 318 359 358
4 318 319 360 359
4 319 320 361 360
4 320 321 362 361
4 321 322 363 362
4 322 323 364 363
4 323 324 365 364
4 324 325 366 365
4 325 326 367 366
4 326 327 368 367
4 328 329 370 369
4 329 330 371 370
4 330 331 372 371
4 331 332 373 372
4 332 333 374 373
4 333 334 375 374
4 334 335 376 375
4 335 336 377 376
4 336 337 378 377
4 337 338 379 378
4 338 339 380 379
4 339 340 381 380
4 340 341 382 381
4 341 342 383 382
4 342 343 384 383
4 343 344 385 384
4 344 345 386 385
4 345 346 387 386
4 346 347 388 387
4 347 348 389 388
4 348 349 390 389
4 349 350 391 390
4 350 351 392 391
4 351 352 393 392
4 352 353 394 393
4 353 354 395 394
4 354 355 396 395
4 355 356 397 396
4 356 357 398 397
4 357 358 399 398
4 358 359 400 399
4 359 360 401 400
4 360 361 402 401
4 361 362 403 402
4 362 363 404 403
4 363 364 405 404
4 364 365 406 405
4 365 366 407 406
4 366 367 408 407
4 367 368 409 408
4 369 370 411 410
4 370 371 412 411
4 371 372 413 412
4 372 373 414 413
4 373 374 415 414
4 374 375 416 415
4 375 376 417 416
4 376 377 418 417
4 377 378 419 418
4 378 379 420 419
4 379 380 421 420
4 380 381 422 421
4 381 382 423 422
4 382 383 424 423
4 383 384 425 424
4 384 385 426 425
4 385 386 427 426
4 386 387 428 427
4 387 388 429 428
4 388 389 430 429
4 389 390 431 430
4 390 391 432 431
4 391 392 433 432
4 392 393 434 433
4 393 394 435 434
4 394 395 436 435
4 395 396 437 436
4 396 397 438 437
4 397 398 439 438
4 398 399 440 439
4 399 400 441 440
4 400 401 442 441
4 401 402 443 442
4 402 403 444 443
4 403 404 445 444
4 404 405 446 445
4 405 406 447 446
4 406 407 448 447
4 407 408 449 448
4 408 409 450 449
4 410 411 452 451
4 411 412 453 452
4 412 413 454 453
4 413 414 455 454
4 414 415 456 455
4 415 416 457 456
4 416 417 458 457
4 417 418 459 458
4 418 419 460 459
4 419 420 461 460
4 420 421 462 461
4 421 422 463 462
4 422 423 464 463
4 423 424 465 464
4 424 425 466 465
4 425 426 467 466
4 426 427 468 467
4 427 428 469 468
4 428 429 470 469
4 429 430 471 470
4 430 431 472 471
4 431 432 473 472
4 432 433 474 473
4 433 434 475 474
4 434 435 476 475
4 435 436 477 476
4 436 437 478 477
4 437 438 479 478
4 438 439 480 479
4 439 440 481 480
4 440 441 482 481
4 441 442 483 482
4 442 443 484 483
4 443 444 485 484
4 444 445 486 485
4 445 446 487 486
4 446 447 488 487
4 447 448 489 488
4 448 449 490 489
4 449 450 491 490
4 451 452 493 492
4 452 453 494 493
4 453 454 495 494
4 454 455 496 495
4 455 456 497 496
4 456 457 498 497
4 457 458 499 498
4 458 459 500 499
4 459 460 501 500
4 460 461 502 501
4 461 462 503 502
4 462 463 504 503
4 463 464 505 504
4 464 465 506 505
4 465 466 507 506
4 466 467 508 507
4 467 468 509 508
4 468 469 510 509
4 469 470 511 510
4 470 471 512 511
4 471 472 513 512
4 472 473 514 513
4 473 474 515 514
4 474 475 516 515
4 475 476 517 516
4 476 477 518 517
4 477 478 519 518
4 478 479 520 519
4 479 480 521 520
4 480 481 522 521
4 481 482 523 522
4 482 483 524 523
4 483 484 525 524
4 484 485 526 525
4 485 486 527 526
4 486 487 528 527
4 487 488 529 528
4 488 489 530 529
4 489 490 531 530
4 490 491 532 531
4 492 493 534 533
4 493 494 535 534
4 494 495 536 535
4 495 496 537 536
4 496 497 538 537
4 497 498 539 538
4 498 499 540 539
4 499 500 541 540
4 500 501 542 541
4 501 502 543 542
4 502 503 544 543
4 503 504 545 544
4 504 505 546 545
4 505 506 547 546
4 506 507 548 547
4 507 508 549 548
4 508 509 550 549
4 509 510 551 550
4 510 511 552 551
4 511 512 553 552
4 512 513 554 553
4 513 514 555 554
4 514 515 556 555
4 515 516 557 556
4 516 517 558 557
4 517 518 559 558
4 518 519 560 559
4 519 520 561 560
4 520 521 562 561
4 521 522 563 562
4 522 523 564 563
4 523 524 565 564
4 524 525 566 565
4 525 526 567 566
4 526 527 568 567
4 527 528 569 568
4 528 529 570 569
4 529 530 571 570
4 530 531 572 571
4 531 532 573 572
4 533 534 575 574
4 534 535 576 575
4 535 536 577 576
4 536 537 578 577
4 537 538 579 578
4 538 539 580 579
4 539 540 581 580
4 540 541 582 581
4 541 542 583 582
4 542 543 584 583
4 543 544 585 584
4 544 545 586 585
4 545 546 587 586
4 546 547 588 587
4 547 548 589 588
4 548 549 590 589
4 549 550 591 590
4 550 551 592 591
4 551 552 593 592
4 552 553 594 593
4 553 554 595 594
4 554 555 596 595
4 555 556 597 596
4 556 557 598 597
4 557 558 599 598
4 558 559 600 599
4 559 560 601 600
4 560 561 602 601
4 561 562 603 602
4 562 563 604 603
4 563 564 605 604
4 564 565 606 605
4 565 566 607 606
4 566 567 608 607
4 567 568 609 608
4 568 569 610 609
4 569 570 611 610
4 570 571 612 611
4 571 572 613 612
4 572 573 614 613
4 574 575 616 615
4 575 576 617 616
4 576 577 618 617
4 577 578 619 618
4 578 579 620 619
4 579 580 621 620
4 580 581 622 621
4 581 582 623 622
4 582 583 624 623
4 583 584 625 624
4 584 585 626 625
4 585 586 627 626
4 586 587 628 627
4 587 588 629 628
4 588 589 630 629
4 589 590 631 630
4 590 591 632 631
4 591 592 633 632
4 592 593 634 633
4 593 594 635 634
4 594 595 636 635
4 595 596 637 636
4 596 597 638 637
4 597 598 639 638
4 598 599 640 639
4 599 600 641 640
4 600 601 642 641
4 601 602 643 642
4 602 603 644 643
4 603 604 645 644
4 604 605 646 645
4 605 606 647 646
4 606 607 648 647
4 607 608 649 648
4 608 609 650 649
4 609 610 651 650
4 610 611 652 651
4 611 612 653 652
4 612 613 654 653
4 613 614 655 654
4 615 616 657 656
4 616 617 658 657
4 617 618 659 658
4 618 619 660 659
4 619 620 661 660
4 620 621 662 661
4 621 622 663 662
4 622 623 664 663
4 623 624 665 664
4 624 625 666 665
4 625 626 667 666
4 626 627 668 667
4 627 628 669 668
4 628 629 670 669
4 629 630 671 670
4 630 631 672 671
4 631 632 673 672
4 632 633 674 673
4 633 634 675 674
4 634 635 676 675
4 635 636 677 676
4 636 637 678 677
4 637 638 679 678
4 638 639 680 679
4 639 640 681 680
4 640 641 682 681
4 641 642 683 682
4 642 643 684 683
4 643 644 685 684
4 644 645 686 685
4 645 646 687 686
4 646 647 688 687
4 647 648 689 688
4 648 649 690 689
4 649 650 691 690
4 650 651 692 691
4 651 652 693 692
4 652 653 694 693
4 653 654 695 694
4 654 655 696 695
4 656 657 698 697
4 657 658 699 698
4 658 659 700 699
4 659 660 701 700
4 660 661 702 701
4 661 662 703 702
4 662 663 704 703
4 663 664 705 704
4 664 665 706 705
4 665 666 707 706
4 666 667 708 707
4 667 668 709 708
4 668 669 710 709
4 669 670 711 710
4 670 671 712 711
4 671 672 713 712
4 672 673 714 713
4 673 674 715 714
4 674 675 716 715
4 675 676 717 716
4 676 677 718 717
4 677 678 719 718
4 678 679 720 719
4 679 680 721 720
4 680 681 722 721
4 681 682 723 722
4 682 683 724 723
4 683 684 725 724
4 684 685 726 725
4 685 686 727 726
4 686 687 728 727
4 687 688 729 728
4 688 689 730 729
4 689 690 731 730
4 690 691 732 731
4 691 692 733 732
4 692 693 734 733
4 693 694 735 734
4 694 695 736 735
4 695 696 737 736
4 697 698 739 738
4 698 699 740 739
4 699 700 741 740
4 700 701 742 741
4 701 702 743 742
4 702 703 744 743
4 703 704 745 744
4 704 705 746 745
4 705 706 747 746
4 706 707 748 747
4 707 708 749 748
4 708 709 750 749
4 709 710 751 750
4 710 711 752 751
4 711 712 753 752
4 712 713 754 753
4 713 714 755 754
4 714 715 756 755
4 715 716 757 756
4 716 717 758 757
4 717 718 759 758
4 718 719 760 759
4 719 720 761 760
4 720 721 762 761
4 721 722 763 762
4 722 723 764 763
4 723 724 765 764
4 724 725 766 765
4 725 726 767 766
4 726 727 768 767
4 727 728 769 768
4 728 729 770 769
4 729 730 771 770
4 730 731 772 771
4 731 732 773 772
4 732 733 774 773
4 733 734 775 774
4 734 735 776 775
4 735 736 777 776
4 736 737 778 777
4 738 739 780 779
4 739 740 781 780
4 740 741 782 781
4 741 742 783 782
4 742 743 784 783
4 743 744 785 784
4 744 745 786 785
4 745 746 787 786
4 746 747 788 787
4 747 748 789 788
4 748 749 790 789
4 749 750 791 790
4 750 751 792 791
4 751 752 793 792
4 752 753 794 793
4 753 754 795 794
4 754 755 796 795
4 755 756 797 796
4 756 757 798 797
4 757 758 799 798
4 758 759 800 799
4 759 760 801 800
4 760 761 802 801
4 761 762 803 802
4 762 763 804 803
4 763 764 805 804
4 764 765 806 805
4 765 766 807 806
4 766 767 808 807
4 767 768 809 808
4 768 769 810 809
4 769 770 811 810
4 770 771 812 811
4 771 772 813 812
4 772 773 814 813
4 773 774 815 814
4 774 775 816 815
4 775 776 817 816
4 776 777 818 817
4 777 778 819 818
4 779 780 821 820
4 780 781 822 821
4 781 782 823 822
4 782 783 824 823
4 783 784 825 824
4 784 785 826 825
4 785 786 827 826
4 786 787 828 827
4 787 788 829 828
4 788 789 830 829
4 789 790 831 830
4 790 791 832 831
4 791 792 833 832
4 792 793 834 833
4 793 794 835 834
4 794 795 836 835
4 795 796 837 836
4 796 797 838 837
4 797 798 839 838
4 798 799 840 839
4 799 800 841 840
4 800 801 842 841
4 801 802 843 842
4 802 803 844 843
4 803 804 845 844
4 804 805 846 845
4 805 806 847 846
4 806 807 848 847
4 807 808 849 848
4 808 809 850 849
4 809 810 851 850
4 810 811 852 851
4 811 812 853 852
4 812 813 854 853
4 813 814 855 854
4 814 815 856 855
4 815 816 857 856
4 816 817 858 857
4 817 818 859 858
4 818 819 860 859
CELL_TYPES 800
9
9
9
9
9
9
9
9
9
9
9
9
9
9
9
9
9
9
9
9
9
9
9
9
9
9
9
9
9
9
9
9
9
9
9
9
9
9
9
9
9
9
9
9
9
9
9
9
9
9
9
9
9
9
9
9
9
9
9
9
9
9
9
9
9
9
9
9
9
9
9
9
9
9
9
9
9
9
9
9
9
9
9
9
9
9
9
9
9
9
9
9
9
9
9
9
9
9
9
9
9
9
9
9
9
9
9
9
9
9
9
9
9
9
9
9
9
9
9
9
9
9
9
9
9
9
9
9
9
9
9
9
9
9
9
9
9
9
9
9
9
9
9
9
9
9
9
9
9
9
9
9
9
9
9
9
9
9
9
9
9
9
9
9
9
9
9
9
9
9
9
9
9
9
9
9
9
9
9
9
9
9
9
9
9
9
9
9
9
9
9
9
9
9
9
9
9
9
9
9
9
9
9
9
9
9
9
9
9
9
9
9
9
9
9
9
9
9
9
9
9
9
9
9
9
9
9
9
9
9
9
9
9
9
9
9
9
9
9
9
9
9
9
9
9
9
9
9
9
9
9
9
9
9
9
9
9
9
9
9
9
9
9
9
9
9
9
9
9
9
9
9
9
9
9
9
9
9
9
9
9
9
9
9
9
9
9
9
9
9
9
9
9
9
9
9
9
9
9
9
9
9
9
9
9
9
9
9
9
9
9
9
9
9
9
9
9
9
9
9
9
9
9
9
9
9
9
9
9
9
9
9
9
9
9
9
9
9
9
9
9
9
9
9
9
9
9
9
9
9
9
9
9
9
9
9
9
9
9
9
9
9
9
9
9
9
9
9
9
9
9
9
9
9
9
9
9
9
9
9
9
9
9
9
9
9
9
9
9
9
9
9
9
9
9
9
9
9
9
9
9
9
9
9
9
9
9
9
9
9
9
9
9
9
9
9
9
9
9
9
9
9
9
9
9
9
9
9
9
9
9
9
9
9
9
9
9
9
9
9
9
9
9
9
9
9
9
9
9
9
9
9
9
9
9
9
9
9
9
9
9
9
9
9
9
9
9
9
9
9
9
9
9
9
9
9
9
9
9
9
9
9
9
9
9
9
9
9
9
9
9
9
9
9
9
9
9
9
9
9
9
9
9
9
9
9
9
9
9
9
9
9
9
9
9
9
9
9
9
9
9
9
9
9
9
9
9
9
9
9
9
9
9
9
9
9
9
9
9
9
9
9
9
9
9
9
9
9
9
9
9
9
9
9
9
9
9
9
9
9
9
9
9
9
9
9
9
9
9
9
9
9
9
9
9
9
9
9
9
9
9
9
9
9
9
9
9
9
9
9
9
9
9
9
9
9
9
9
9
9
9
9
9
9
9
9
9
9
9
9
9
9
9
9
9
9
9
9
9
9
9
9
9
9
9
9
9
9
9
9
9
9
9
9
9
9
9
9
9
9
9
9
9
9
9
9
9
9
9
9
9
9
9
9
9
9
9
9
9
9
9
9
9
9
9
9
9
9
9
9
9
9
9
9
9
9
9
9
9
9
9
9
9
9
9
9
9
9
9
9
9
9
9
9
9
9
9
9
9
9
9
9
9
9
9
9
9
9
9
9
9
9
9
9
9
9
9
9
9
9
9
9
9
9
9
9
9
9
9
9
9
9
9
9
9
9
9
9
9
9
9
9
9
9
9
9
9
9
9
9
9
9
9
9
9
9
9
9
9
9
9
9
9
9
9
9
9
9
9
9
9
9
9
9
9
9
9
9
9
9
9
9
9
9
9
9
9
9
9
9
9
9
9
9
9
9
9
9
9
9
POINT_DATA 861
SCALARS Disp float 2
LOOKUP_TABLE default
0.0 0.0
0.006139783194166396 -0.28509129690357643
0.007554335797289508 -0.5605021254467353
0.008357925872771812 -0.834771544142269
0.009421750303116181 -1.1086453122362876
0.011209586159907439 -1.381658723734776
0.014433732897872515 -1.6531877792079224
0.019977023674556185 -1.922444528790652
0.028881941849656693 -2.18843923958108
0.04228384661418998 -2.4498727405253953
0.06130896669137962 -2.704986100147015
0.08700357961619931 -2.9514817217636025
0.12030143703197743 -3.1865678862812503
0.16201359877877897 -3.4070905590019978
0.21282092928975033 -3.609624903563023
0.2732038339819405 -3.790552529730574
0.34332031620103637 -3.9461643504525155
0.4228643258219125 -4.07282312374464
0.5109496182397227 -4.16721464452232
0.6060683318702234 -4.2266000622663755
0.7058373229586521 -4.24914158577983
0.8056063140470755 -4.2266000622662405
0.9007250276775562 -4.167214644522048
0.9888103200953305 -4.072823123744246
1.0683543297161624 -3.946164350452021
1.1384708119352098 -3.79055252973001
1.198853716627351 -3.6096249035624037
1.2496610471382734 -3.4070905590013427
1.2913732088850258 -3.1865678862805793
1.3246710663007584 -2.951481721762937
1.3503656792255367 -2.7049861001463733
1.3693907993026926 -2.449872740524792
1.3827927040671988 -2.188439239580523
1.3916976222422803 -1.9224445287901504
1.3972409130189503 -1.6531877792074803
1.4004650597569077 -1.3816587237344022
1.4022528956136953 -1.1086453122359818
1.4033167200440384 -0.8347715441420348
1.4041203101195205 -0.5605021254465721
1.405534862722642 -0.2850912969034869
1.4116746459168052 0.0
0.0711101013556998 -0.002533081448761421
0.07543837521960191 -0.28538916845393747
0.07616895738135578 -0.560565566916815
0.07687836736804819 -0.8348641546884964
0.07780583691625191 -1.1088053727064213
0.07931854862521755 -1.382025795270627
0.08208606549748831 -1.6539603395104183
0.0869416805422851 -1.9238603804651881
0.09486340944537398 -2.1907643187183368
0.10688688432112638 -2.4533778267168556
0.12401670991068217 -2.709927287056178
0.1471716321792632 -2.9580909608300923
0.17717734018933198 -3.195051540615684
0.2147702621520689 -3.417628061878531
0.26057120900146585 -3.6223603054238067
0.31502837526683986 -3.8055713800167115
0.37830998372143376 -3.9634609964444887
0.45017848954952083 -4.09226831824718
0.5298737000554004 -4.188529451571502
0.6159482095573879 -4.2493272021427755
0.7058373229586357 -4.27245538614655
0.7957264363598778 -4.249327202142637
0.881800945861847 -4.188529451571222
0.9614961563676949 -4.092268318246776
1.0333646621957437 -3.9634609964439838
1.0966462706502944 -3.805571380016136
1.1511034369156241 -3.6223603054231766
1.1969043837649769 -3.4176280618778643
1.2344973057276698 -3.195051540615002
1.2645030137376976 -2.9580909608294164
1.2876579360062412 -2.7099272870555273
1.3047877615957666 -2.4533778267162454
1.3168112364714943 -2.190764318717775
1.3247329653745656 -1.9238603804646826
1.3295885804193504 -1.6539603395099738
1.3323560972916144 -1.382025795270252
1.333868809000577 -1.1088053727061151
1.3347962785487801 -0.8348641546882622
1.3355056885354724 -0.5605655669166517
1.3362362706972262 -0.2853891684538475
1.3405645445611225 -0.0025330814487588803
0.14119582062354083 -0.004553192584312362
0.14438712521016855 -0.285538405993294
0.1448032243765075 -0.560597038374182
0.14538079838020512 -0.8349453548183314
0.1461829019495741 -1.1089316120365802
0.14744825387021512 -1.3823162396583744
0.14977119543548983 -1.654601482817946
0.1539421632201606 -1.925077463478069
0.1608629611745134 -2.192803773582772
0.17147250958445018 -2.4564836260809457
0.1866598250633864 -2.714325128997374
0.20722649513789146 -2.9639835099015484
0.23389201154732958 -3.202621623514093
0.267306825451833 -3.4270384363271575
0.3080362526968054 -3.633743221890867
0.35649908846869705 -3.819009652906002
0.4128857630288098 -3.9789602240457405
0.477042985799812 -4.1097248074663
0.5483202166358372 -4.207693718262798
0.6253328624762091 -4.269730677047288
0.7058373229586196 -4.293383617657168
0.7863417834410249 -4.269730677047147
0.8633544292813798 -4.2076937182625125
0.9346316601173775 -4.109724807465888
0.9987888828883462 -3.978960224045226
1.0551755574484207 -3.819009652905416
1.1036383932202731 -3.633743221890226
1.1443678204652055 -3.4270384363264808
1.1777826343696702 -3.202621623513401
1.204448150779072 -2.9639835099008636
1.2250148208535439 -2.7143251289967156
1.240202136332453 -2.4564836260803293
1.2508116847423678 -2.192803773582205
1.2577324826967045 -1.9250774634775603
1.2619034504813649 -1.6546014828174997
1.264226392046634 -1.3823162396579984
1.2654917439672726 -1.1089316120362736
1.2662938475366412 -0.8349453548180975
1.2668714215403387 -0.5605970383740186
1.2672875207066776 -0.2855384059932037
1.2704788252932997 -0.004553192584307011
0.21073876278057876 -0.006180871919738131
0.21316211797213 -0.28564025821963934
0.21341499038377115 -0.5606141163704607
0.2138662581777373 -0.8350102727429447
0.2145482390084139 -1.109032846720165
0.2155955867932831 -1.3825388386020494
0.2174997818324967 -1.655115703103437
0.2209947595554785 -1.9260966549398544
0.22690852998343441 -2.194553547101936
0.2360836954014694 -2.4591827732872273
0.24929880132276264 -2.7181705306560904
0.26724267571485116 -2.9691503792208955
0.29053279453829317 -3.209268656027641
0.3197326042758668 -3.4353096984861105
0.35534191529282266 -3.64375997584879
0.3977572684255213 -3.830853601023558
0.44719550835893945 -3.9926503140365486
0.5035853653671466 -4.125183860476937
0.5663960917617209 -4.224698482536832
0.6344448108827306 -4.287864036179943
0.7058373229586039 -4.312046853001261
0.7772298350344724 -4.287864036179801
0.8452785541554672 -4.2246984825365415
0.9080892805500174 -4.1251838604765165
0.9644791375581947 -3.992650314036026
1.0139173774915802 -3.8308536010229632
1.056332730624244 -3.6437599758481403
1.091942041641165 -3.435309698485424
1.1211418513787044 -3.2092686560269406
1.1444319702021148 -2.9691503792202028
1.1623758445941745 -2.718170530655425
1.1755909505154438 -2.459182773286605
1.1847661159334595 -2.194553547101365
1.1906798863614012 -1.9260966549393423
1.194174864084374 -1.655115703102989
1.196079059123583 -1.3825388386016726
1.1971264069084506 -1.1090328467198585
1.197808387739127 -0.8350102727427108
1.198259655533093 -0.5606141163702976
1.1985125279447342 -0.2856402582195487
1.2009358831362802 -0.006180871919730234
0.27997304951191593 -0.007499219428884477
0.281819575944272 -0.2857189693794537
0.28198418636033906 -0.5606238719854001
0.2823296270868365 -0.8350603922413746
0.28289789397288145 -1.10911402300288
0.28375302921074436 -1.38270621767633
0.28527921650875204 -1.655511665711759
0.2881146159323226 -1.926921034041022
0.29302831632012183 -2.1960135045009945
0.3007632871708087 -2.461472006447307
0.3119922937684521 -2.7214588546708867
0.3272958156299045 -2.9735859855886964
0.347188819488271 -3.2149866947320582
0.37214950701329297 -3.4424353218986394
0.402616088493339 -3.6524020087053417
0.43894977108916006 -3.8410926861697865
0.48138871688403484 -4.004518596925974
0.5299464361536722 -4.138630991742883
0.5842540017303238 -4.239545850645225
0.6433946414890024 -4.303767786365432
0.7058373229585886 -4.3285102984817545
0.7682800044281705 -4.303767786365286
0.8274206441868358 -4.23954585064493
0.8817282097634658 -4.138630991742458
0.9302859290330779 -4.004518596925443
0.9727248748279245 -3.841092686169184
1.0090585574237152 -3.652402008704683
1.0395251389037312 -3.4424353218979458
1.064485826428724 -3.2149866947313503
1.0843788302870636 -2.9735859855879974
1.0996823521484915 -2.721458854670215
1.1109113587461144 -2.4614720064466797
1.1186463295967848 -2.196013504500419
1.1235600299845718 -1.9269210340405079
1.1263954294081349 -1.6555116657113096
1.127921616706139 -1.3827062176759526
1.1287767519440008 -1.1091140230025733
1.1293450188300458 -0.8350603922411408
1.129690459556543 -0.560623871985237
1.1298550699726102 -0.2857189693793627
1.1317015964049617 -0.007499219428874296
0.349003961590333 -0.008560802111591187
0.3503953139408913 -0.2857827830095137
0.3505088942307417 -0.5606310058128968
0.350767541560354 -0.8350975784295579
0.35122673283575345 -1.1091790825949324
0.35191448302536305 -1.382830115386129
0.35310283323214753 -1.6558034751366495
0.355323262367103 -1.9275572037805655
0.3592505356940201 -2.197186816986098
0.36555400290808765 -2.4633523205310626
0.3747986486118989 -2.72418945539877
0.3874593150146767 -2.9772890946701245
0.4039515328035938 -3.219773853454892
0.4246670760105822 -3.4484128541607273
0.4499794830132094 -3.6596665772079358
0.4802194598008836 -3.849720978698178
0.5156264693002933 -4.014552863540311
0.5562901107929482 -4.150051960699425
0.6020389357576824 -4.252233399731328
0.6522710340449511 -4.317462739536196
0.705837322958573 -4.3428126880756714
0.7594036118721915 -4.317462739536047
0.8096357101594486 -4.252233399731029
0.8553845351241642 -4.1500519606989945
0.8960481766167979 -4.014552863539776
0.9314551861161835 -3.849720978697569
0.9616951629038325 -3.659666577207271
0.9870075699064346 -3.4484128541600265
1.007723113113399 -3.219773853454178
1.0242153309022937 -2.9772890946694197
1.0368759973050512 -2.724189455398094
1.0461206430088452 -2.463352320530431
1.052424110222899 -2.1971868169855195
1.0563513835498064 -1.9275572037800492
1.0585718126847559 -1.655803475136199
1.0597601628915378 -1.3828301153857516
1.0604479130811466 -1.1091790825946255
1.060907104356546 -0.8350975784293241
1.0611657516861581 -0.5606310058127336
1.0612793319760085 -0.28578278300942245
1.0626706843265634 -0.008560802111579011
0.4178862347505262 -0.009405784025014534
0.418913714650016 -0.2858349952215287
0.4189945917136288 -0.5606378764617563
0.4191797827148629 -0.8351233586781024
0.4195325606551864 -1.1092304506340527
0.42007173494968963 -1.3829208194832197
0.420961882508619 -1.6560082709820672
0.4226201859340556 -1.9280204180034564
0.42560677165963273 -2.1980806716186585
0.43049926533369337 -2.4648286766044203
0.4377768760032762 -2.7263661602181397
0.4478085872125458 -2.9802627976825327
0.46091205528649254 -3.223632964911124
0.47739381284798876 -3.4532447605454104
0.49756263145689156 -3.6655550006501496
0.5217092236968383 -3.856737689475146
0.550070349712553 -4.022745887325186
0.5827955349929403 -4.159432333857076
0.6199072435751999 -4.262748693963981
0.6611616400791154 -4.328950096028764
0.7058373229585575 -4.354971066587752
0.7505130058379965 -4.328950096028614
0.7917674023419023 -4.262748693963678
0.8288791109241465 -4.159432333856642
0.8616042962045167 -4.022745887324645
0.8899654222202117 -3.8567376894745307
0.9141120144601378 -3.6655550006494795
0.9342808330690205 -3.4532447605447048
0.9507625906304983 -3.223632964910405
0.9638660587044269 -2.980262797681823
0.9738977699136804 -2.7263661602174594
0.9811753805832495 -2.4648286766037852
0.9860678742572994 -2.198080671618078
0.989054459982869 -1.928020418002938
0.9907127634083012 -1.656008270981616
0.9916029109672286 -1.3829208194828417
0.9921420852617314 -1.1092304506337456
0.9924948632020547 -0.8351233586778686
0.9926800542032888 -0.5606378764615931
0.9927609312669016 -0.2858349952214374
0.9937884111663887 -0.00940578402500077
0.48665612747090997 -0.010066591113098997
0.4873929334258043 -0.2858780880752443
0.48744918020137007 -0.5606449767750621
0.48756839205328834 -0.8351389913749762
0.4878162465485918 -1.109268625199147
0.48821598585775355 -1.382986511174079
0.48885056911715674 -1.656143201590091
0.4900023496906048 -1.9283315684227955
0.4921130072831952 -2.1987112459948603
0.49564562395482636 -2.4659110700579325
0.5009881289045864 -2.7279972208688537
0.5084190730625954 -2.9825149193023126
0.518164012159512 -3.2265720464792733
0.5304422736915856 -3.4569387167950802
0.5454925766053185 -3.6700740209611715
0.5635665224171824 -3.8621472645718526
0.5848916215424432 -4.029096638179206
0.6096494970680715 -4.1667596599178625
0.6380295638139191 -4.271068569291609
0.6701651117163862 -4.338209620678501
0.7058373229585415 -4.364980647285389
0.7415095342006943 -4.33820962067835
0.773645082103154 -4.2710685692913035
0.8020251488489898 -4.166759659917423
0.8267830243746042 -4.029096638178662
0.8481081234998504 -3.8621472645712323
0.8661820693116984 -3.6700740209604965
0.8812323722254163 -3.4569387167943706
0.8935106337574766 -3.226572046478551
0.9032555728543799 -2.9825149193015994
0.9106865170123767 -2.72799722086817
0.9160290219621267 -2.465911070057295
0.9195616386337502 -2.1987112459942777
0.9216722962263353 -1.9283315684222762
0.9228240767997803 -1.6561432015896396
0.9234586600591823 -1.3829865111737007
0.9238583993683437 -1.1092686251988402
0.924106253863647 -0.8351389913747422
0.9242254657155653 -0.5606449767748989
0.9242817124911311 -0.2858780880751528
0.9250185184460235 -0.010066591113083953
0.555336152435413 -0.010573494449799895
0.5558496574352502 -0.2859143145878326
0.5558799582344288 -0.5606514708273169
0.5559367642900274 -0.8351454699551033
0.5560819063288548 -1.1092930069444187
0.5563419454724148 -1.3830319526132195
0.5567530126291754 -1.6562264383360341
0.5574648614208869 -1.9285162938866758
0.5587764384074491 -2.199103940828543
0.5610264191955288 -2.4666190784140487
0.5644944576940897 -2.729097234190065
0.5693729842739074 -2.984059109664461
0.5758039844547121 -3.228605076617421
0.5839263471265523 -3.4595088345586045
0.5939044517170836 -3.673236129398595
0.6059392292816372 -3.8659600850205424
0.620253574597997 -4.033612966230001
0.6370581493229804 -4.172027698917628
0.6566150191824608 -4.277160874708741
0.6794060495648607 -4.345196548610002
0.7058373229585247 -4.372812024713804
0.7322685963521878 -4.3451965486098505
0.7550596267345825 -4.277160874708434
0.7746164965940543 -4.172027698917185
0.7914210713190278 -4.0336129662294535
0.8057354166353776 -3.865960085019919
0.8177701941999206 -3.673236129397917
0.8277482987904424 -3.4595088345578926
0.8358706614622747 -3.2286050766166947
0.8423016616430709 -2.984059109663745
0.8471801882228807 -2.7290972341893793
0.8506482267214349 -2.4666190784134088
0.85289820750951 -2.1991039408279596
0.854209784496069 -1.9285162938861558
0.8549216332877787 -1.6562264383355825
0.8553327004445388 -1.3830319526128412
0.8555927395880986 -1.1092930069441116
0.855737881626926 -0.8351454699548693
0.8557946876825243 -0.5606514708271538
0.8558249884817029 -0.2859143145877411
0.8563384934815388 -0.01057349444978389
0.6239426837024101 -0.01095657092409814
0.6242943983153008 -0.28594647312852767
0.6242937719520032 -0.5606555172356521
0.6242890171997402 -0.8351435396625655
0.624334239661793 -1.1093032350589316
0.6244507418386122 -1.3830578403685623
0.6246525152083571 -1.6562724138363973
0.6249904812212487 -1.9286060297074579
0.6255961558576557 -2.199295958095764
0.626663719365276 -2.4669860894609434
0.6283463514342704 -2.7296936819678836
0.6307470298181591 -2.984919210769378
0.633926623287619 -3.2297548206045135
0.6379532335023155 -3.460978477084635
0.6429201998113719 -3.675063574177163
0.6489650644221585 -3.8681940930893153
0.6562919199022172 -4.036310522390986
0.6651675255635163 -4.175248282392104
0.6759014359301887 -4.280998495344256
0.6890751988870701 -4.349836723275338
0.7058373229585078 -4.378400882599862
0.7225994470299452 -4.3498367232751844
0.7357732099868235 -4.280998495343947
0.7465071203534911 -4.175248282391659
0.7553827260147848 -4.036310522390436
0.7627095814948381 -3.8681940930886904
0.7687544461056203 -3.675063574176483
0.7737214124146726 -3.4609784770839216
0.7777480226293663 -3.229754820603787
0.7809276160988222 -2.9849192107686604
0.7833282944827075 -2.729693681967196
0.785010926551699 -2.466986089460303
0.7860784900593177 -2.1992959580951794
0.7866841646957236 -1.9286060297069374
0.7870221307086144 -1.6562724138359455
0.787223904078359 -1.383057840368184
0.7873404062551781 -1.1093032350586243
0.7873856287172311 -0.8351435396623315
0.7873808739649679 -0.560655517235489
0.78738024760167 -0.2859464731284362
0.78773196221456 -0.0109565709240814
0.6924935249431702 -0.0112420510042807
0.692730876753744 -0.28597778379103045
0.6926957225068718 -0.5606550923274283
0.6926297966516753 -0.8351336550256931
0.6925775981535874 -1.1092993711782717
0.6925506764390866 -1.3830633581320824
0.6925401117052773 -1.6562868029201114
0.6925361676864766 -1.9286322889510443
0.6925345617917914 -2.199345397271422
0.6925343870772677 -2.467078315608662
0.6925344703205403 -2.7298470903298906
0.692532602438043 -2.9851494201121627
0.692522388561648 -3.230073046764889
0.6925018957380593 -3.461397569163557
0.6924907364855649 -3.6756040701703716
0.6925655784208561 -3.868891452201506
0.6929065744709698 -4.037224035397691
0.6938452809012574 -4.176461804442437
0.6958345656336566 -4.2826111138191
0.6993802168934021 -4.352056571876175
0.70583732295849 -4.38163676679311
0.712294429023579 -4.3520565718760205
0.7158400802833231 -4.282611113818791
0.7178293650157209 -4.176461804441992
0.7187680714460085 -4.0372240353971405
0.7191090674961231 -3.868891452200881
0.7191839094314152 -3.6756040701696917
0.7191727501789221 -3.461397569162843
0.7191522573553356 -3.2300730467641614
0.7191420434789422 -2.985149420111444
0.719140175596446 -2.7298470903292036
0.7191402588397198 -2.4670783156080223
0.7191400841251968 -2.1993453972708377
0.719138478230512 -1.928632288950524
0.7191345342117115 -1.6562868029196591
0.7191239694779021 -1.383063358131704
0.7190970477634016 -1.1092993711779646
0.7190448492653136 -0.8351336550254591
0.718978923410117 -0.5606550923272651
0.7189437691632448 -0.285977783790939
0.7191811209738181 -0.011242051004263488
0.7610000100854787 -0.011455811704815072
0.7611579698388413 -0.2860093056122381
0.7610903492378128 -0.5606493175122671
0.7609643414403796 -0.8351159850306319
0.760817381698717 -1.1092817898931442
0.7606492526783134 -1.3830482326707414
0.760426826882348 -1.6562698781990515
0.7600806374165353 -1.9286051914664348
0.7594723783646609 -2.1992957206647126
0.7584049672055905 -2.466986088979577
0.7567226996226918 -2.7296934667326735
0.7543167007812881 -2.9849164293363444
0.7511159778192361 -3.2297473174679387
0.747049941431793 -3.4609689052208816
0.7420658308357987 -3.675071580674033
0.736177390556749 -3.8682754306905127
0.72952466110743 -4.036578987363945
0.7224358602516289 -4.175886910534535
0.7154125563840358 -4.282209442427446
0.7091777310969293 -4.351971201460165
0.7058373229584719 -4.382610100036431
0.7024969148200144 -4.35197120146001
0.6962620895329079 -4.282209442427137
0.6892387856653189 -4.175886910534089
0.6821499848095245 -4.036578987363395
0.6754972553602125 -3.8682754306898883
0.6696088150811692 -3.675071580673354
0.6646247044851814 -3.460968905220169
0.6605586680977453 -3.2297473174672127
0.6573579451357007 -2.9849164293356267
0.6549519462943029 -2.729693466731987
0.6532696787114093 -2.466986088978937
0.6522022675523422 -2.1992957206641286
0.6515940085004698 -1.9286051914659141
0.6512478190346582 -1.6562698781985992
0.6510253932386931 -1.383048232670363
0.6508572642182897 -1.109281789892837
0.6507103044766273 -0.8351159850303976
0.650584296679194 -0.560649317512104
0.6505166760781655 -0.28600930561214666
0.650674635831528 -0.011455811704797612
0.8294731610096349 -0.011618327856547756
0.829577974107511 -0.2860394909817281
0.8294814559853597 -0.5606385245215098
0.8292981325703191 -0.8350906660047763
0.8290597925342063 -1.1092510969267557
0.828754169615015 -1.3830129119773888
0.8283226821827555 -1.6562211069433228
0.827603462365746 -1.9285144011672564
0.8262910703911575 -2.1991035769511846
0.8240424081750304 -2.4666192266798603
0.8205739963004862 -2.7290963775050634
0.8156893475921527 -2.9840531640476655
0.8092398958795575 -3.2285900475272546
0.8010856905731928 -3.459490517110684
0.791100636978789 -3.6732544996116534
0.7792261790425433 -3.8661268573333727
0.765556561489413 -4.0341492621593815
0.750402218165523 -4.173279404834406
0.7343565975148023 -4.279586362326127
0.7186543502807868 -4.349698948915362
0.7058373229584545 -4.381498541096524
0.6930202956361228 -4.349698948915208
0.6773180484021097 -4.279586362325818
0.661272427751396 -4.173279404833964
0.6461180844275178 -4.034149262158835
0.6324484668744003 -3.866126857332751
0.6205740089381663 -3.673254499610976
0.6105889553437746 -3.4594905171099732
0.6024347500374218 -3.2285900475265312
0.5959852983248387 -2.98405316404695
0.5911006496165158 -2.729096377504379
0.5876322377419808 -2.4666192266792217
0.5853835755258597 -2.1991035769506015
0.5840711835512752 -1.928514401166736
0.5833519637342679 -1.6562211069428707
0.5829204763020092 -1.3830129119770107
0.5826148533828183 -1.1092510969264482
0.5823765133467056 -0.8350906660045421
0.5821931899316649 -0.5606385245213464
0.5820966718095139 -0.2860394909816367
0.5822014849073898 -0.011618327856530074
0.8979306641459418 -0.011739575398867464
0.8979956808729965 -0.2860666763736885
0.8978737748394356 -0.5606232708868509
0.8976366398911058 -0.8350580538724176
0.8973107994201086 -1.1092081187241447
0.8968728781400694 -1.3829582519496297
0.8962194743244856 -1.6561344575653183
0.8950630910345515 -1.9283289838105888
0.8929545909994205 -2.1987112439857004
0.8894233407916521 -2.4659112875756986
0.8840791935131813 -2.7279954303390026
0.8766425610559898 -2.9825062477898734
0.86688676612842 -3.2265516582842135
0.8545945901233255 -3.456915271037676
0.8395560242195736 -3.6701048727992065
0.8216278527400358 -3.86239236812067
0.8008343868370412 -4.029870263906561
0.7774909891279398 -4.168569813431673
0.7524230283649658 -4.274696099518538
0.7273445979317081 -4.345129058353862
0.7058373229584374 -4.378367721085935
0.6843300479851685 -4.3451290583537086
0.6592516175519156 -4.274696099518231
0.6341836567889518 -4.168569813431233
0.6108402590798665 -4.029870263906019
0.5900467931768896 -3.862392368120052
0.5721186216973687 -3.6701048727985333
0.5570800557936341 -3.4569152710369684
0.5447878797885567 -3.2265516582834937
0.5350320848610036 -2.982506247789161
0.5275954524038272 -2.7279954303383214
0.5222513051253692 -2.465911287575062
0.5187200549176103 -2.1987112439851186
0.5166115548824854 -1.9283289838100692
0.5154551715925548 -1.6561344575648667
0.5148017677769724 -1.3829582519492516
0.5143638464969338 -1.1092081187238374
0.5140380060259367 -0.8350580538721835
0.5138008710776071 -0.5606232708866875
0.5136789650440462 -0.28606667637359723
0.5137439817711009 -0.011739575398849601
0.9663857019334264 -0.011826099053416058
0.9664173083605313 -0.2860893729361331
0.9662719197148533 -0.5606039337768494
0.9659845785281969 -0.8350187039875372
0.9655755609832302 -1.109153895976711
0.9650076995022826 -1.382883467894754
0.9641022899864491 -1.6559962272216986
0.9624447498971874 -1.9280182377181059
0.959461588518026 -2.198081270562294
0.9545695267905703 -2.464828661824525
0.9472889636058458 -2.726363241649417
0.9372534382829765 -2.98025251937383
0.924151148361841 -3.223611307094879
0.9076831553807752 -3.4532228079322222
0.8875534982786633 -3.6656005012969897
0.8635224514514587 -3.8570431616292464
0.8355360799019322 -4.023705497635017
0.8039566629088245 -4.16173496468926
0.7698864267182903 -4.267536522040221
0.7356932311534095 -4.338348723225098
0.7058373229584205 -4.373318605489785
0.6759814147634349 -4.338348723224944
0.6417882191985615 -4.267536522039916
0.607717983008041 -4.161734964688823
0.5761385660149528 -4.023705497634479
0.5481521944654483 -3.8570431616286327
0.5241211476382661 -3.665600501296321
0.5039914905361764 -3.4532228079315197
0.48752349755513336 -3.2236113070941634
0.4744212076340189 -2.980252519373122
0.46438568231116906 -2.72636324164874
0.4571051191264611 -2.464828661823892
0.4522130573990179 -2.198081270561714
0.44922989601986474 -1.9280182377175872
0.44757235593060807 -1.6559962272212474
0.44666694641477683 -1.382883467894376
0.44609908493382994 -1.1091538959764036
0.4456900673888635 -0.835018703987303
0.4454027262022074 -0.560603933776686
0.4452573375565294 -0.28608937293604186
0.4452889439836343 -0.011826099053398108
1.034846476291639 -0.011883811960502323
1.034849223145689 -0.2861063510306008
1.0346811561648435 -0.5605806912519269
1.0343470093794709 -0.8349732695031216
1.0338600230478932 -1.1090896360406044
1.0331557639617204 -1.3827847882389013
1.0319599407032547 -1.6557895214776757
1.0297427148313822 -1.9275562055723805
1.0258187114483375 -2.197187873982559
1.0195142559741948 -2.4633517213843668
1.0102659669892304 -2.7241854269408594
0.9976048207793953 -2.9772788793526357
0.9811284430425089 -3.2197563316992555
0.9604590601623342 -3.448401219687231
0.9352195177122419 -3.659729667022232
0.9050717519098158 -3.8500657304472576
0.8698956684467704 -4.015643610885408
0.8301105350308914 -4.152772415264867
0.7871400276701024 -4.258136266948937
0.7439868591241756 -4.329409993450244
0.7058373229584043 -4.366370169319598
0.6676877867926365 -4.329409993450092
0.6245346182467205 -4.258136266948634
0.5815641108859483 -4.152772415264434
0.5417789774700925 -4.015643610884876
0.5066028940070735 -3.85006573044665
0.47645512820467434 -3.6597296670215695
0.4512155857546096 -3.448401219686535
0.43054620287446255 -3.219756331698546
0.41406982513760227 -2.9772788793519336
0.4014086789277904 -2.724185426940187
0.3921603899428462 -2.463351721383738
0.3858559344687187 -2.197187873981982
0.3819319310856848 -1.9275562055718636
0.37971470521381917 -1.655789521477225
0.37851888195535666 -1.3827847882385236
0.3778146228691847 -1.1090896360402973
0.3773276365376074 -0.8349732695028875
0.3769934897522351 -0.5605806912517637
0.3768254227713898 -0.2861063510305095
0.37682816962543975 -0.011883811960484292
1.1033185800834702 -0.011918366573838358
1.1032969640083143 -0.2861168648523017
1.1031070222890886 -0.5605535478630305
1.1027288275782097 -0.8349225187756513
1.1021664787371663 -1.1090153834356535
1.1013106474440213 -1.3826551554169433
1.0997851118721755 -1.6554974034463492
1.0969537271526597 -1.926921217084411
1.092041483548058 -2.1960146717499236
1.0843041261094102 -2.461470543202504
1.0730717251997919 -2.7214540402155163
1.0577727283057317 -2.973577908401654
1.0379104235089012 -3.214978921243526
1.0130254457575971 -3.442443268458419
0.9826700540535892 -3.6524885559845397
0.9464401146671721 -3.841463506549955
0.9041509608628631 -4.005694967118717
0.8562698680821164 -4.141701214642666
0.8045111003022298 -4.246519842644698
0.7524187337529551 -4.31831668526093
0.7058373229583881 -4.357489303362905
0.6592559121638252 -4.318316685260781
0.6071635456145641 -4.2465198426444
0.5554047778346982 -4.141701214642239
0.5075236850539779 -4.005694967118191
0.46523453124969993 -3.841463506549355
0.4290045918633143 -3.6524885559838833
0.398649200159339 -3.4424432684577297
0.37376422240806734 -3.2149789212428233
0.3539019176112676 -2.9735779084009586
0.33860292071723497 -2.7214540402148497
0.3273705198076402 -2.4614705432018797
0.31963316236901046 -2.1960146717493494
0.31472091876442193 -1.9269212170838963
0.31188953404491443 -1.6554974034458998
0.31036399847307305 -1.3826551554165658
0.3095081671799295 -1.1090153834353464
0.3089458183388868 -0.8349225187754173
0.308567623628008 -0.5605535478628673
0.3083776819087823 -0.28611686485221044
0.30835606583362657 -0.011918366573820286
1.1718056266968182 -0.011935360059980742
1.1717651101052218 -0.28612069707093546
1.1715551672789768 -0.5605225115332864
1.1711351578111424 -0.8348671176866579
1.1704967430102182 -1.10893021435024
1.1694668683955103 -1.3824856945770199
1.1675691814621567 -1.6551022006789997
1.164076324668024 -1.9260974322174165
1.1581614401977496 -2.1945543572246944
1.1489826833851065 -2.4591803228070024
1.135765667744291 -2.7181656255761384
1.117832641249957 -2.969146734688432
1.0945862222278273 -3.209275363388522
1.0654837966480606 -3.435345138946296
1.030024247004386 -3.6438802461805437
0.9877730934639045 -3.831254608890091
0.9385243065855959 -3.9938928660805626
0.8827431398136286 -4.128556056134142
0.8223037798091025 -4.23269641171427
0.7611657604775113 -4.305030345432899
0.7058373229583721 -4.346600581630953
0.6505088854392378 -4.305030345432751
0.5893708661076619 -4.232696411713975
0.5289315061031604 -4.128556056133721
0.4731503393312235 -3.9938928660800443
0.42390155245295047 -3.831254608889499
0.38165039891250524 -3.6438802461798963
0.3461908492688681 -3.4353451389456153
0.3170884236891385 -3.2092753633878273
0.29384200466704397 -2.9691467346877447
0.2759089781727417 -2.718165625575479
0.2626919625319534 -2.4591803228063838
0.253513205719331 -2.1945543572241246
0.24759832124907208 -1.9260974322169047
0.24410546445494924 -1.6551022006785514
0.24220777752160133 -1.382485694576643
0.24117790290689545 -1.1089302143499333
0.24053948810597192 -0.8348671176864237
0.2401194786381376 -0.5605225115331233
0.23990953581189295 -0.2861206970708442
0.23986901922029644 -0.011935360059962635
1.2403091955864591 -0.011940445413747653
1.2402571944459921 -0.28611823789806295
1.2400316702835597 -0.5604877396793956
1.2395714463928187 -0.8348076263231146
1.2388502989652261 -1.108831065277413
1.237617769499401 -1.382264946363896
1.2353037282284283 -1.6545886921415494
1.2311316474360294 -1.9250779802965614
1.2242067341058678 -2.1928037213739437
1.2135929284040732 -2.456480269721104
1.1984062702702063 -2.7143211553548974
1.1778573124826355 -2.9639865607614673
1.1512458033879236 -3.2026462355649947
1.1179423273803224 -3.4271070668730244
1.077396494053108 -3.6339104694957687
1.0291970008484026 -3.8194666897437233
0.9731927837251869 -3.980294778554856
0.9098180390899545 -4.113390183772608
0.8408389715506102 -4.216663678037543
0.770453883895461 -4.289471084377408
0.7058373229583559 -4.333577076889499
0.6412207620212559 -4.289471084377263
0.5708356743661248 -4.216663678037254
0.5018566068268089 -4.113390183772195
0.4384818621916113 -3.9802947785543465
0.38247764506843573 -3.8194666897431406
0.3342781518637716 -3.633910469495131
0.2937323185365989 -3.427107066872353
0.2604288425290397 -3.2026462355643104
0.2338173334343679 -2.9639865607607887
0.21326837564683265 -2.7143211553542455
0.19808171751299597 -2.456480269720491
0.1874679118112247 -2.1928037213733784
0.18054299848108077 -1.925077980296053
0.17637091768869367 -1.654588692141103
0.17405687641772769 -1.38226494636352
0.17282434695190527 -1.1088310652771063
0.17210319952431358 -0.8348076263228804
0.1716429756335728 -0.5604877396792325
0.17141745147114057 -0.28611823789797175
0.17136545033067374 -0.011940445413729538
1.3088282087040168 -0.011939346190729333
1.3087756187973834 -0.2861106842949816
1.3085436362559604 -0.5604498368280979
1.3080432486687064 -0.8347436943850621
1.3072240136764477 -1.1087130795722429
1.3057543392234205 -1.3819788723563404
1.3029953892590616 -1.6539476159825095
1.2981342049862168 -1.9238596394061134
1.2902057943595517 -2.1907629822035513
1.2781780170148416 -2.4533738332869794
1.2610519504151818 -2.709925432290085
1.2379213010630483 -2.9581027410853196
1.2079776296179934 -3.195096413595379
1.170505966098284 -3.417733892964662
1.124919579028207 -3.6225885666115785
1.0708400366444426 -3.8061263917061217
1.008243918346023 -3.9649667725979607
0.9376628001864248 -4.096300219606598
0.8605860543808073 -4.198435968394308
0.7806468215340349 -4.2715015917677395
0.7058373229583395 -4.3182118117107855
0.6310278243826498 -4.2715015917675965
0.5510885915358982 -4.198435968394025
0.4740118457303124 -4.096300219606192
0.4034307275707543 -3.9649667725974616
0.3408346092723791 -3.80612639170555
0.2867550668886613 -3.6225885666109514
0.24116867981863133 -3.4177338929640007
0.20369701629896822 -3.195096413594706
0.17375334485395774 -2.9581027410846503
0.15062269550186397 -2.709925432289442
0.13349662890223676 -2.4533738332863733
0.12146885155755309 -2.1907629822029913
0.11354044093090751 -1.9238596394056084
0.10867925665807635 -1.6539476159820656
0.10592030669372499 -1.3819788723559652
0.10445063224070157 -1.1087130795719364
0.10363139724844372 -0.8347436943848281
0.1031310096611901 -0.5604498368279347
0.10289902711976733 -0.2861106842948904
0.10284643721313388 -0.011939346190711245
1.37735759823728 -0.011937671309261615
1.3773215146417972 -0.2861005949804438
1.377100531275448 -0.5604101046613222
1.3765553307682337 -0.8346730234319251
1.3756118884124466 -1.1085675049242512
1.3738734121306346 -1.381617435168104
1.3706531550900871 -1.653173835606751
1.3651001841763628 -1.9224417285898623
1.356186915411269 -2.1884363526939214
1.3427810829627507 -2.4498684769826147
1.3237627451971172 -2.704987515835878
1.2980980021773245 -2.9515039610767073
1.26486915301689 -3.186634908428868
1.2232890197011266 -3.4072373889232592
1.1727314696542668 -3.6099289223884954
1.112846547638593 -3.791253349275643
1.0437443661572843 -3.947955062235044
0.9662016353276683 -4.077403558750002
0.8817975021276241 -4.178178712850013
0.7930588855627846 -4.250954009952417
0.7058373229583222 -4.299999999999993
0.6186157603538665 -4.2509540099522765
0.5298771437890502 -4.178178712849737
0.4454730105890423 -4.077403558749607
0.36793027975947235 -3.9479550622345565
0.2988280982782127 -3.7912533492750833
0.23894317626258996 -3.60992892238788
0.18838562621578253 -3.4072373889226104
0.14680549290007003 -3.186634908428206
0.1135766437396847 -2.951503961076049
0.08791190071993556 -2.7049875158352443
0.06889356295433749 -2.449868476982016
0.05548773050584815 -2.1884363526933672
0.04657446174077583 -1.9224417285893616
0.041021490827066596 -1.6531738356063095
0.03780123378652774 -1.38161743516773
0.03606275750472006 -1.108567504923945
0.035119315148934245 -0.8346730234316911
0.03457411464172042 -0.5604101046611589
0.03435313127537156 -0.2861005949803527
0.0343170476798886 -0.011937671309243525
SCALARS Stress float 6
LOOKUP_TABLE default
-1286.5438909122322 -2091.137996213526 -1612.9963639733082 -29.079129115015164 0.0 0.0
1380.6071461854415 813.6103604227195 1037.8846148924965 -19.952314689373246 0.0 0.0
631.6069662857069 174.3280883501477 263.196769093644 -42.187184248731825 0.0 0.0
502.681838298714 33.57966953645888 167.81982716935326 -0.7950206017528212 0.0 0.0
631.3510233113934 86.3540049997333 264.2803004800394 3.137504725930219 0.0 0.0
758.0514636597626 141.70364034912166 397.3763384593158 1.7643510951198405 0.0 0.0
892.731529607224 200.93641369489683 523.1789908732335 0.3733898107875513 0.0 0.0
1031.9283593446319 277.7965683111672 641.1472945290368 -1.1215843686444242 0.0 0.0
1181.4432233348562 370.51006588049614 764.4153617711628 -2.8800288005328136 0.0 0.0
1349.083157382323 486.0769315135286 906.2994798808691 -4.798558958750689 0.0 0.0
1540.4888469660978 629.8065259125726 1073.6032075626608 -6.598431297519567 0.0 0.0
1755.5269934356352 801.8431336886376 1266.7285033004132 -7.96004038831515 0.0 0.0
1988.4485198159923 995.1432422179128 1479.3985424094592 -8.790063590797173 0.0 0.0
2231.5333576733715 1201.7895137297373 1703.8454070369662 -9.418651916083709 0.0 0.0
2474.9591312483267 1411.7797507570963 1930.1488160540982 -9.811802368755359 0.0 0.0
2707.27097587559 1613.6948925902573 2146.899520398431 -9.872722647542181 0.0 0.0
2916.4310420244665 1795.863399828484 2342.282998264802 -9.434218008548104 0.0 0.0
3090.631341020696 1946.9621649758467 2504.7477554794423 -8.468074978588783 0.0 0.0
3228.7560054261 2066.402664983108 2633.309863878127 -7.417622392651037 0.0 0.0
3315.786377513416 2139.980393247266 2713.349296567693 -9.915065259287463 0.0 0.0
3307.1612103528855 2130.5718069702175 2704.5040096084786 -1.5374368445009168e-11 0.0 0.0
3315.7863775147416 2139.9803932486298 2713.3492965685464 9.915065259193447 0.0 0.0
3228.7560054271903 2066.402664984263 2633.3098638788724 7.417622392522793 0.0 0.0
3090.631341021076 1946.9621649763546 2504.7477554795896 8.468074978433586 0.0 0.0
2916.4310420222487 1795.8633998263676 2342.282998262842 9.434218008612701 0.0 0.0
2707.270975875194 1613.6948925900413 2146.899520398013 9.872722647592129 0.0 0.0
2474.9591312455236 1411.7797507544185 1930.1488160518807 9.81180236870881 0.0 0.0
2231.5333576722355 1201.7895137288065 1703.8454070359912 9.418651916070699 0.0 0.0
1988.4485198154703 995.1432422175913 1479.3985424087734 8.790063590851425 0.0 0.0
1755.5269934356058 801.8431336888656 1266.7285033000728 7.960040388423431 0.0 0.0
1540.4888469650289 629.8065259117682 1073.6032075616815 6.598431297424426 0.0 0.0
1349.083157380894 486.0769315123651 906.29947987974 4.798558958796093 0.0 0.0
1181.4432233334742 370.51006587935956 764.4153617700438 2.880028800600913 0.0 0.0
1031.9283593441628 277.7965683110003 641.1472945286229 1.1215843684995246 0.0 0.0
892.7315296071882 200.9364136951594 523.1789908729788 -0.3733898107736291 0.0 0.0
758.0514636596524 141.70364034937396 397.37633845901473 -1.7643510950611212 0.0 0.0
631.3510233110384 86.35400499970278 264.2803004796867 -3.1375047259343454 0.0 0.0
502.68183829857844 33.579669536557645 167.81982716929522 0.7950206017529089 0.0 0.0
631.6069662852733 174.32808834991093 263.19676909338295 42.18718424867795 0.0 0.0
1380.6071461853069 813.6103604226943 1037.8846148922125 19.952314689518005 0.0 0.0
-1286.5438909092213 -2091.137996210578 -1612.9963639704429 29.079129114604054 0.0 0.0
-1638.2546968258312 -2414.454176055153 -1919.9302580223266 -31.504287475638904 0.0 0.0
942.4142704178669 448.8219238805606 652.7760974426835 -27.709934445268637 0.0 0.0
441.9959124720216 68.44335537938882 152.2735063106281 -36.87083763018631 0.0 0.0
442.5012933302883 7.948360008123043 138.07336581550618 -15.578489116177026 0.0 0.0
558.7214916303551 38.950840868701555 211.6914524999257 -16.91728897481932 0.0 0.0
663.2153810038487 56.28094204058772 311.8567312326407 -22.830962406728897 0.0 0.0
753.2247460729659 76.59555569810706 400.37812133623976 -24.26581896230715 0.0 0.0
839.2721044422027 98.6660765324678 465.56506791235677 -24.590645258355423 0.0 0.0
917.5534556722188 119.57015064354486 517.2937512288705 -25.29244860197001 0.0 0.0
989.6767627948818 139.91835796289323 564.0037811849609 -26.17515848343569 0.0 0.0
1058.7272463156744 161.9821507549766 609.6858883662919 -26.67641110098644 0.0 0.0
1127.0897270864987 187.28548571365312 656.5483664904821 -26.695816181388395 0.0 0.0
1194.3457947820884 215.93497891071874 704.5198772033899 -26.306490857750962 0.0 0.0
1257.887305868839 243.50186414486166 750.0855246700082 -25.71814794177311 0.0 0.0
1312.3813934846044 265.03294213341866 788.1105415065574 -24.936179575237997 0.0 0.0
1353.5019356185028 276.1699725393476 814.2543532499302 -23.723310690337083 0.0 0.0
1378.6170965031747 274.5218907853493 825.9984563249598 -21.83828714045546 0.0 0.0
1388.146802689629 260.97589535910055 823.9907065306593 -19.367114769163628 0.0 0.0
1375.8524012671348 230.04813605486294 802.4901164018313 -17.152459776029445 0.0 0.0
1296.1889808494116 137.45983203319196 717.0785493587854 -18.089723496790988 0.0 0.0
1164.3131916629995 5.657004845496871 586.3418617054069 3.281996896475903e-11 0.0 0.0
1296.188980848411 137.45983203220652 717.0785493580069 18.089723496879373 0.0 0.0
1375.852401267551 230.0481360553601 802.4901164022731 17.152459776140496 0.0 0.0
1388.1468026903194 260.97589535987174 823.9907065312334 19.367114769212677 0.0 0.0
1378.6170965026083 274.52189078489846 825.998456324621 21.838287140524926 0.0 0.0
1353.5019356195473 276.16997254058583 814.2543532507259 23.72331069047356 0.0 0.0
1312.3813934830628 265.03294213201247 788.110541505474 24.936179575272405 0.0 0.0
1257.8873058685836 243.501864144763 750.0855246698419 25.71814794162819 0.0 0.0
1194.3457947824634 215.93497891133046 704.5198772036366 26.306490857773632 0.0 0.0
1127.0897270865296 187.28548571387006 656.54836649055 26.695816181392786 0.0 0.0
1058.7272463157406 161.98215075530265 609.6858883663516 26.676411100857276 0.0 0.0
989.6767627940955 139.91835796237822 564.0037811844363 26.175158483399304 0.0 0.0
917.5534556721877 119.57015064381244 517.2937512287918 25.292448602136673 0.0 0.0
839.2721044416238 98.66607653214565 465.56506791196955 24.590645258261354 0.0 0.0
753.2247460729769 76.59555569844099 400.3781213361312 24.265818962395997 0.0 0.0
663.215381003538 56.28094204059621 311.8567312322807 22.83096240678656 0.0 0.0
558.7214916302315 38.95084086895512 211.691452499775 16.917288974834634 0.0 0.0
442.50129332999364 7.948360007971036 138.07336581538377 15.5784891162597 0.0 0.0
441.9959124719998 68.44335537940586 152.27350631062183 36.87083763013932 0.0 0.0
942.4142704173549 448.82192388013027 652.776097442075 27.709934445270367 0.0 0.0
-1638.2546968238487 -2414.4541760531174 -1919.9302580202375 31.50428747524385 0.0 0.0
-1378.2172410277103 -2119.445517330848 -1632.6826857986277 -69.88393880533148 0.0 0.0
760.6239803859485 356.83168310509205 509.44726785844836 -95.80964672527695 0.0 0.0
306.14803331447115 78.17742492481582 115.34663891932657 -40.72028313191697 0.0 0.0
379.8625479080284 2.297045162015775 114.84375397603114 -37.38109770156275 0.0 0.0
513.5209241631089 28.961877538931127 180.99184519443364 -39.409181234972365 0.0 0.0
629.415853096337 50.47095666735136 280.1882903773214 -42.97197991771317 0.0 0.0
722.9566772523879 71.0562271681364 376.271456747934 -44.892558859256646 0.0 0.0
808.6209385157358 89.25185253686705 443.79460917241386 -45.76203688224664 0.0 0.0
883.6809838833485 106.39110019196632 493.32343460734836 -47.20665250479132 0.0 0.0
951.8016402264391 122.71121666144094 536.1606477287676 -48.466027370228254 0.0 0.0
1017.49084917383 141.91052753282463 578.730594411637 -48.800391584658534 0.0 0.0
1082.9064705315143 165.4308260300021 623.2332788937022 -48.2986577053304 0.0 0.0
1147.5680021920598 191.30651816140255 668.5433959671082 -47.38877098326313 0.0 0.0
1207.8517561510496 216.76473386353024 711.4427094612008 -46.18257563629306 0.0 0.0
1260.7190602384 237.17969796976652 748.0895648753449 -44.64024426210119 0.0 0.0
1301.9919747682447 248.84160248841718 774.557863127579 -42.46312193471303 0.0 0.0
1329.047570218059 249.27507367381685 788.3192079063451 -39.325476012689805 0.0 0.0
1337.589882722862 234.69986305502073 785.3881842248517 -35.49520500912658 0.0 0.0
1313.7679514023514 192.27957094810233 752.5479870714241 -32.041061468595835 0.0 0.0
1269.1331171287939 135.0163734582248 701.9568682310272 -30.06502501177447 0.0 0.0
1116.910762702522 -16.40037742123515 551.3980809525417 2.2678747768622998e-11 0.0 0.0
1269.1331171275945 135.01637345704887 701.956868230262 30.065025011813518 0.0 0.0
1313.767951402345 192.27957094816787 752.547987071377 32.041061468634204 0.0 0.0
1337.589882723649 234.69986305590862 785.3881842254235 35.49520500916257 0.0 0.0
1329.0475702172487 249.2750736730746 788.3192079058247 39.32547601251126 0.0 0.0
1301.9919747690137 248.84160248937593 774.557863128004 42.4631219348801 0.0 0.0
1260.7190602371197 237.1796979686162 748.0895648744117 44.64024426206977 0.0 0.0
1207.8517561508013 216.76473386347612 711.4427094609807 46.182575636306126 0.0 0.0
1147.568002192108 191.30651816163981 668.5433959671157 47.388770983252954 0.0 0.0
1082.9064705305898 165.4308260293071 623.233278893169 48.29865770535995 0.0 0.0
1017.4908491736894 141.91052753290177 578.7305944115627 48.80039158465635 0.0 0.0
951.8016402259875 122.71121666125624 536.1606477284479 48.466027370108215 0.0 0.0
883.6809838829228 106.39110019178577 493.32343460706284 47.20665250477664 0.0 0.0
808.6209385154306 89.25185253687178 443.79460917217614 45.762036882239656 0.0 0.0
722.956677252278 71.05622716835698 376.271456747732 44.892558859312764 0.0 0.0
629.4158530959771 50.470956667339095 280.1882903769314 42.97197991771813 0.0 0.0
513.5209241627954 28.96187753886785 180.99184519420763 39.40918123496264 0.0 0.0
379.8625479076751 2.2970451617174175 114.84375397585096 37.38109770164329 0.0 0.0
306.1480333141921 78.17742492445345 115.34663891913378 40.720283131943134 0.0 0.0
760.6239803852354 356.8316831046418 509.44726785775197 95.80964672503632 0.0 0.0
-1378.2172410256185 -2119.445517328636 -1632.6826857964295 69.8839388050909 0.0 0.0
-1130.6387118069647 -1841.1549362630335 -1364.079473921221 -83.63480637728817 0.0 0.0
582.415283819778 261.3678522866157 377.450650489508 -145.78654497777077 0.0 0.0
221.48933195352953 65.43651455354416 86.0777539521221 -62.131402690290344 0.0 0.0
315.8025575236047 7.967596331441857 96.91667893864133 -60.25232496828387 0.0 0.0
457.7965381168077 17.069031011929447 149.93739983829025 -64.44996948501002 0.0 0.0
583.3893446440671 43.16498662177126 243.21488889621008 -64.35201973413557 0.0 0.0
689.1142371933611 63.62860527981382 346.2828993664762 -66.83181756687767 0.0 0.0
773.0968896742451 80.01526257739292 418.4290347025849 -67.12304761508253 0.0 0.0
845.6919836039334 93.47525195515126 467.0903726290169 -68.72373138321926 0.0 0.0
910.1894193991438 106.1324801869078 506.64677159217416 -69.97094055666012 0.0 0.0
972.1492652262475 122.12495138566159 545.7742954703153 -69.97626448970034 0.0 0.0
1034.6643811076335 142.92368765191077 587.4684730758447 -69.06865991800996 0.0 0.0
1096.2129063742 166.97155939055003 630.342839956499 -67.63954235838119 0.0 0.0
1153.7500657782086 189.38043966105192 670.3560374376871 -65.91686926464092 0.0 0.0
1204.6198839698063 208.48687627448203 705.3412971033209 -63.68213027093976 0.0 0.0
1246.6501211372517 221.43433704696898 732.8280486772251 -60.67408455453492 0.0 0.0
1275.2405153376112 223.29391843328608 748.0939541637285 -56.71570161677016 0.0 0.0
1282.9369908018432 207.67590598167652 744.2910384969341 -52.00696540013024 0.0 0.0
1266.264083728128 172.1336264403883 718.4247810027148 -46.81146482820311 0.0 0.0
1239.9003703330134 132.4818324197649 685.6139999384983 -40.42474490449663 0.0 0.0
1027.2463942339562 -78.86668899180971 475.55832812797166 -4.4009240696141205e-11 0.0 0.0
1239.9003703334347 132.48183242026676 685.6139999390191 40.42474490454795 0.0 0.0
1266.2640837276228 172.1336264399753 718.4247810021914 46.811464828533616 0.0 0.0
1282.9369908015842 207.67590598146998 744.2910384968982 52.00696540024012 0.0 0.0
1275.240515337322 223.29391843311174 748.0939541635186 56.71570161669344 0.0 0.0
1246.6501211368488 221.4343370467405 732.8280486769207 60.674084554765 0.0 0.0
1204.6198839697383 208.48687627455476 705.3412971032554 63.68213027093764 0.0 0.0
1153.750065777451 189.3804396604296 670.3560374370923 65.91686926457955 0.0 0.0
1096.2129063739687 166.9715593904791 630.342839956307 67.63954235826603 0.0 0.0
1034.6643811066372 142.9236876511004 587.4684730752771 69.06865991800854 0.0 0.0
972.1492652254237 122.12495138505172 545.7742954697615 69.97626448960139 0.0 0.0
910.189419399055 106.13248018707104 506.646771592098 69.97094055659603 0.0 0.0
845.6919836037869 93.47525195531782 467.090372628897 68.7237313832324 0.0 0.0
773.0968896736454 80.01526257706671 418.42903470216885 67.12304761515017 0.0 0.0
689.1142371931808 63.62860527998811 346.28289936620297 66.83181756687618 0.0 0.0
583.3893446439903 43.164986622089316 243.2148888960187 64.35201973408645 0.0 0.0
457.7965381160949 17.069031011288416 149.93739983786145 64.4499694849011 0.0 0.0
315.8025575235536 7.967596331497852 96.91667893864158 60.252324968317204 0.0 0.0
221.48933195345734 65.436514553384 86.07775395205239 62.131402690149386 0.0 0.0
582.4152838192007 261.36785228634744 377.45065048895833 145.78654497766803 0.0 0.0
-1130.6387118051266 -1841.1549362611102 -1364.0794739192631 83.634806377101 0.0 0.0
-914.6447394350955 -1599.344189141168 -1127.6785106113905 -82.1289966825465 0.0 0.0
450.81812774708555 176.21195440920607 273.61847342227037 -178.62787773294866 0.0 0.0
161.90791772683045 50.82928074431613 63.821159541343974 -92.86610327291167 0.0 0.0
257.1766221155221 14.219358659213388 81.40706053093754 -85.13806691054593 0.0 0.0
392.15903573690696 9.743393252987069 122.13421153513393 -90.82939958417494 0.0 0.0
527.9592754119858 30.426387116947787 201.74896219039408 -89.58023686096129 0.0 0.0
643.9436008072516 54.88642537601767 307.7315917723823 -89.02029828805826 0.0 0.0
731.7596546856703 71.3810051690877 388.67462047452995 -88.89220157959782 0.0 0.0
802.9550019064624 81.16618789511743 438.1236238465623 -89.77209432380548 0.0 0.0
863.9249321314355 89.9233256530099 474.76953783469423 -90.65220743872173 0.0 0.0
922.4874845743745 102.46535733962236 510.5655883218356 -90.23178992252268 0.0 0.0
981.5769488824923 120.35371459027283 549.1092883403404 -88.90761006920104 0.0 0.0
1040.1105999108274 141.4337845242244 589.0191620548413 -87.13030848129831 0.0 0.0
1094.7978477942818 162.4244232648537 626.9316705646327 -84.87179670539778 0.0 0.0
1143.844895562418 179.7113721107224 660.1053818793876 -81.99453989174745 0.0 0.0
1185.4099335125154 192.01606704103293 687.0225570815767 -78.40088095938701 0.0 0.0
1215.9517604576222 196.1671509264983 704.4229945308443 -73.97738213114937 0.0 0.0
1229.0251687769528 185.6551764000981 705.872127528398 -68.60055560099588 0.0 0.0
1221.2207637694426 158.16722442611905 688.4473601460023 -61.42733425872803 0.0 0.0
1203.5675920360704 125.71387052495129 663.5359144755907 -51.02726057288855 0.0 0.0
916.9361395993419 -158.95344139831934 380.7814527524871 -3.921485358659993e-11 0.0 0.0
1203.56759203608 125.71387052507964 663.5359144755703 51.02726057300379 0.0 0.0
1221.2207637677689 158.16722442451731 688.4473601448426 61.42733425902931 0.0 0.0
1229.0251687777074 185.65517640096644 705.8721275289613 68.60055560107 0.0 0.0
1215.9517604566772 196.16715092557317 704.4229945301759 73.97738213104498 0.0 0.0
1185.4099335124627 192.01606704110748 687.0225570816924 78.40088095930568 0.0 0.0
1143.8448955618962 179.71137211031112 660.1053818790633 81.99453989175922 0.0 0.0
1094.7978477941144 162.42442326486986 626.9316705644236 84.8717967053272 0.0 0.0
1040.1105999101544 141.43378452368347 589.0191620544598 87.13030848126321 0.0 0.0
981.5769488820362 120.35371459006676 549.1092883400675 88.9076100692136 0.0 0.0
922.4874845734528 102.46535733884426 510.5655883211526 90.23178992243348 0.0 0.0
863.924932131786 89.9233256536352 474.76953783492934 90.65220743857779 0.0 0.0
802.955001906833 81.16618789577228 438.1236238467925 89.77209432386806 0.0 0.0
731.7596546844409 71.38100516811572 388.6746204736572 88.89220157946127 0.0 0.0
643.9436008067291 54.88642537581603 307.73159177187665 89.0202982880567 0.0 0.0
527.9592754115337 30.426387116809085 201.74896219004268 89.5802368609477 0.0 0.0
392.1590357362912 9.74339325240536 122.13421153478377 90.82939958407916 0.0 0.0
257.17662211547105 14.219358659258349 81.40706053093062 85.13806691048404 0.0 0.0
161.90791772683872 50.82928074450474 63.821159541403006 92.86610327277113 0.0 0.0
450.81812774648137 176.21195440902537 273.6184734217847 178.62787773288923 0.0 0.0
-914.6447394336057 -1599.3441891394964 -1127.678510609668 82.12899668246622 0.0 0.0
-724.3833706622775 -1385.7414422129984 -917.0962392519856 -77.56065117351561 0.0 0.0
347.37133868598113 109.82437227074152 193.32258411110917 -198.10833896355902 0.0 0.0
117.18940480601378 34.83449617386808 45.60717029396455 -122.42057758511983 0.0 0.0
205.23588880642274 18.78539016033715 67.21175734592883 -110.31773098755336 0.0 0.0
321.6056173926161 6.3517084249902105 97.8120118817605 -117.17961656565754 0.0 0.0
457.68979052767384 18.14730859006606 160.22113140389095 -116.17025004646284 0.0 0.0
582.7541501817542 45.354390622786994 260.86537201286615 -112.44817405851464 0.0 0.0
682.9124087432108 60.39291050940907 350.5488133324778 -111.63345865425427 0.0 0.0
752.6452722691834 69.22251572479992 404.42725596259396 -110.34815705290323 0.0 0.0
812.1968745500001 73.89490511702131 439.8034012242647 -110.50477731542502 0.0 0.0
867.2842230703578 82.896730552886 472.37524486265164 -109.53584550473556 0.0 0.0
922.9549628413959 97.80997984755803 507.7574425287515 -107.76338779564175 0.0 0.0
978.1326985624798 116.31180993046647 544.7306662830862 -105.63384703383817 0.0 0.0
1029.853567850263 134.31861866190724 579.7000775696617 -103.05923287986383 0.0 0.0
1076.6643127653908 150.07561011607194 611.0200840350374 -99.65585588155932 0.0 0.0
1117.3819766845509 162.09339178026156 637.3827975638293 -95.45362176093408 0.0 0.0
1150.5931089260735 168.25665008817398 657.0811129956547 -90.83743142864678 0.0 0.0
1171.9664283177915 165.79117474219086 666.6786473241688 -85.12736397095624 0.0 0.0
1174.388957651222 147.5581300580959 659.0216479045946 -76.42642812612469 0.0 0.0
1162.0056628123639 118.00696452720427 638.2052148867551 -62.648829651866954 0.0 0.0
788.2709211173112 -252.58668590933115 270.25664182363215 7.338307739246375e-11 0.0 0.0
1162.005662812356 118.00696452719919 638.205214886773 62.648829652031836 0.0 0.0
1174.3889576501947 147.5581300570885 659.0216479039094 76.42642812615928 0.0 0.0
1171.966428318366 165.79117474283345 666.6786473245834 85.12736397090714 0.0 0.0
1150.5931089254489 168.256650087745 657.0811129952012 90.83743142884438 0.0 0.0
1117.3819766846625 162.09339178056274 637.3827975640173 95.45362176104982 0.0 0.0
1076.6643127644393 150.07561011528935 611.0200840343296 99.65585588169252 0.0 0.0
1029.853567850327 134.31861866218395 579.7000775696895 103.05923288001411 0.0 0.0
978.132698561325 116.3118099295485 544.7306662823362 105.63384703389488 0.0 0.0
922.9549628417124 97.80997984816364 507.75744252893287 107.76338779577229 0.0 0.0
867.2842230693213 82.89673055202941 472.3752448619954 109.53584550474552 0.0 0.0
812.1968745497958 73.89490511706487 439.8034012241077 110.50477731535429 0.0 0.0
752.6452722678067 69.22251572347832 404.4272559616977 110.34815705274404 0.0 0.0
682.9124087432142 60.39291050984358 350.5488133323978 111.63345865427465 0.0 0.0
582.7541501812797 45.35439062268396 260.86537201241066 112.44817405850759 0.0 0.0
457.6897905271724 18.14730858989642 160.221131403546 116.17025004635363 0.0 0.0
321.6056173922332 6.351708424977986 97.81201188165508 117.17961656549187 0.0 0.0
205.23588880647372 18.785390160592566 67.21175734602093 110.31773098726819 0.0 0.0
117.18940480590945 34.834496173733456 45.60717029389288 122.42057758501502 0.0 0.0
347.371338685488 109.82437227055814 193.32258411072286 198.10833896339435 0.0 0.0
-724.3833706608126 -1385.74144221132 -917.0962392503808 77.5606511735073 0.0 0.0
-559.4108961121374 -1191.2996086818634 -729.4121246133531 -73.19650914796743 0.0 0.0
265.39871705040457 57.5529368232068 131.50878373891794 -210.43330541367388 0.0 0.0
81.48185675315284 19.56814848696659 30.315129876369898 -146.85053625404876 0.0 0.0
157.15418611022557 21.844381074214393 53.69965774336702 -133.57717834825831 0.0 0.0
250.37235145151914 6.622735633289608 76.61854914494764 -140.32532157350647 0.0 0.0
376.2177060315465 5.784564045838631 120.33441844337074 -145.72734172341086 0.0 0.0
506.6275708535956 30.769307220182824 206.0688535504632 -139.00348845829424 0.0 0.0
616.0972076010186 50.18998276963014 300.8569234381605 -134.18338453714216 0.0 0.0
695.4542154934131 54.754564958116795 363.14332241782284 -132.08065748095487 0.0 0.0
751.8303638421754 57.99566543746442 399.6153683233144 -129.40829474903487 0.0 0.0
805.1476881210667 63.51275443359944 430.25205651993605 -127.78430054730393 0.0 0.0
857.3080749856888 75.21161719522858 462.4057793585963 -125.57289354900533 0.0 0.0
908.65686494838 90.64004636320529 495.9865498869311 -123.11902600572043 0.0 0.0
957.2175289847772 106.43356463941959 528.3024269913349 -120.31126063473647 0.0 0.0
1001.281307979203 120.01600262064613 557.2250868413569 -116.62922178420843 0.0 0.0
1040.2590303278002 129.75398874643918 581.5962065286222 -112.05563549372079 0.0 0.0
1075.8899539889662 139.4202066355331 604.1978022016204 -106.92116700052541 0.0 0.0
1108.0106391776085 146.78523109817422 624.0147477874029 -101.34565817576257 0.0 0.0
1123.2329937647821 139.42871576545025 628.2300686271146 -92.23894495249576 0.0 0.0
1115.9247454930721 112.03713421127254 611.1348791333996 -76.12688141797713 0.0 0.0
639.631797568297 -358.6922151440756 143.7659925839843 7.031530913081951e-11 0.0 0.0
1115.9247454921517 112.03713421039677 611.1348791328405 76.12688141806494 0.0 0.0
1123.2329937655838 139.42871576634056 628.2300686277163 92.23894495269316 0.0 0.0
1108.0106391775232 146.78523109831036 624.0147477872958 101.34565817586393 0.0 0.0
1075.889953988853 139.42020663554766 604.1978022015637 106.92116700073862 0.0 0.0
1040.2590303277677 129.75398874667616 581.5962065286294 112.05563549396281 0.0 0.0
1001.2813079790697 120.01600262068735 557.2250868411865 116.62922178434464 0.0 0.0
957.217528984874 106.43356463976313 528.3024269913745 120.31126063484496 0.0 0.0
908.6568649473702 90.64004636240199 495.98654988621945 123.11902600580693 0.0 0.0
857.3080749854684 75.21161719517137 462.4057793584808 125.57289354899639 0.0 0.0
805.1476881204443 63.51275443319806 430.252056519547 127.78430054727315 0.0 0.0
751.8303638416746 57.995665437138086 399.6153683229749 129.40829474892678 0.0 0.0
695.4542154924089 54.754564957317626 363.14332241710554 132.08065748082603 0.0 0.0
616.0972076010709 50.18998277014801 300.8569234381241 134.18338453727648 0.0 0.0
506.6275708531208 30.76930722009371 206.06885355005582 139.00348845828165 0.0 0.0
376.2177060313645 5.784564046128346 120.33441844331949 145.72734172326133 0.0 0.0
250.37235145132118 6.622735633419004 76.61854914494396 140.32532157323755 0.0 0.0
157.1541861103289 21.84438107458666 53.69965774350997 133.577178347973 0.0 0.0
81.48185675300334 19.56814848664182 30.31512987622761 146.85053625380155 0.0 0.0
265.3987170500414 57.552936823091486 131.50878373864373 210.4333054135599 0.0 0.0
-559.410896110918 -1191.2996086804424 -729.4121246119972 73.19650914792234 0.0 0.0
-413.91218687613076 -1021.4056968230079 -562.9507346463012 -76.49242644718937 0.0 0.0
196.04721908359025 18.00104181262336 83.3112798815938 -214.78505847643666 0.0 0.0
51.19503944601399 7.01722456437895 17.463464265646543 -165.22500941866292 0.0 0.0
110.7710985181377 23.18052065044266 40.18665534280524 -153.41672666927596 0.0 0.0
182.74977060730998 8.47596327824336 57.12961799021738 -160.15517863465033 0.0 0.0
283.64335402950667 -0.5533983069509834 85.52882463062744 -172.87530277992445 0.0 0.0
409.1230014762702 14.284872930786499 147.65113620742753 -167.94340719267026 0.0 0.0
528.5947908147689 34.79536255730374 235.94399235384006 -158.14545085356377 0.0 0.0
618.707911307962 41.84601337201703 308.31946574693325 -152.53946272734893 0.0 0.0
680.9476617942302 39.81818941976539 350.18063808361944 -148.6212526007209 0.0 0.0
731.6740900775774 43.41541046736436 380.63126199789764 -144.8331493117718 0.0 0.0
780.8516545379005 52.68109010734159 410.6143348630166 -142.0676740124856 0.0 0.0
828.4126210024574 64.94266903485173 440.8658373398364 -139.30203251801365 0.0 0.0
872.8139154022941 77.71547422497376 469.63835601444777 -136.39444220387196 0.0 0.0
914.2432579000283 89.30022816094468 496.29009632564464 -132.820060833112 0.0 0.0
951.1531460793922 98.02688324583221 519.2341928851988 -128.03324981171306 0.0 0.0
986.6845205146313 106.34297923519065 541.1343950222497 -122.36557228463397 0.0 0.0
1028.7466025933809 123.45814694258463 570.5965187562497 -116.78817510766994 0.0 0.0
1063.3761766421803 134.6285601574819 593.802556496359 -108.79226788697892 0.0 0.0
1065.9477692847734 112.9625944440854 584.8076485659511 -92.5085748433344 0.0 0.0
465.43420814849094 -476.57018494815037 -0.995285635650248 7.641176580364117e-11 0.0 0.0
1065.947769283695 112.96259444309797 584.8076485652499 92.50857484353887 0.0 0.0
1063.376176641947 134.62856015724236 593.8025564963469 108.79226788713629 0.0 0.0
1028.7466025946592 123.45814694404501 570.5965187571206 116.78817510787692 0.0 0.0
986.6845205121786 106.34297923259857 541.1343950204573 122.36557228433831 0.0 0.0
951.15314608011 98.02688324683777 519.2341928856556 128.03324981197125 0.0 0.0
914.2432578995376 89.30022816053332 496.2900963253663 132.82006083309741 0.0 0.0
872.8139154023055 77.71547422503602 469.6383560144831 136.3944422037871 0.0 0.0
828.4126210028425 64.94266903562037 440.86583734011043 139.30203251815198 0.0 0.0
780.8516545374121 52.681090107062545 410.61433486269294 142.06767401253705 0.0 0.0
731.6740900774773 43.415410467423115 380.6312619977373 144.83314931175286 0.0 0.0
680.9476617948707 39.81818942068074 350.1806380840322 148.62125260062646 0.0 0.0
618.707911307662 41.84601337195173 308.3194657466529 152.53946272724488 0.0 0.0
528.5947908143644 34.7953625573374 235.9439923535157 158.14545085359705 0.0 0.0
409.1230014755778 14.284872930299535 147.6511362069321 167.9434071926206 0.0 0.0
283.6433540293687 -0.5533983064652177 85.5288246307266 172.8753027797974 0.0 0.0
182.7497706070634 8.475963278015222 57.12961799008726 160.15517863441931 0.0 0.0
110.77109851832354 23.18052065091175 40.1866553430067 153.41672666912075 0.0 0.0
51.19503944598802 7.017224564234047 17.46346426559359 165.22500941842065 0.0 0.0
196.04721908328702 18.001041812499 83.31127988136834 214.78505847624436 0.0 0.0
-413.91218687521024 -1021.4056968218745 -562.950734645201 76.49242644710023 0.0 0.0
-299.4878228814604 -858.8461892558369 -424.73426556417127 -81.17229733326892 0.0 0.0
136.64426275272012 -14.063386335540029 46.33511475920535 -212.8202728689873 0.0 0.0
23.23223007907282 -1.6247838065264748 6.48318648796943 -178.17362319697511 0.0 0.0
65.36312864613916 22.986663364313628 26.497048032504473 -169.23366505409868 0.0 0.0
116.82806203381791 11.501698055601853 38.38382944169592 -175.5414432511957 0.0 0.0
186.07302362990754 -0.42585646257459486 55.4712843240967 -193.04656732418653 0.0 0.0
287.8251988127244 -0.28591896298609454 91.25257217999761 -199.64936235248112 0.0 0.0
409.6432166786281 12.87373191574579 155.97095117097666 -186.77966285170655 0.0 0.0
512.8378997946572 22.654113309277182 228.70134378722904 -172.81290530422302 0.0 0.0
584.2899893922888 21.622998036251623 280.30055919500114 -165.42272137888028 0.0 0.0
637.2196629751917 22.925311310582497 315.30545212664015 -160.0431303993003 0.0 0.0
684.1276314092785 29.14385882832963 344.45406748778856 -156.73482728733194 0.0 0.0
727.7182468869789 38.93219510582534 372.2660278094428 -153.71924285022254 0.0 0.0
767.3933954280261 48.61636786824637 397.38155179911183 -150.84760841576207 0.0 0.0
804.9481520839057 58.05944541709319 421.16070945065286 -147.7367350675716 0.0 0.0
840.9136447933544 66.52945642145158 443.6874056987649 -143.51510663001872 0.0 0.0
875.6636150539719 73.85503376197687 465.09584757738946 -137.5278639421719 0.0 0.0
918.8741728027715 90.51939858168673 494.95310829983526 -130.9623911737937 0.0 0.0
977.9483193162376 123.64389295336535 541.0303072897098 -125.32159801921703 0.0 0.0
1009.9700818938059 126.51912048898303 559.6941655615922 -113.57857599276434 0.0 0.0
256.3054168238765 -601.7113443723822 -166.09061655222936 -3.965539008277119e-11 0.0 0.0
1009.9700818960137 126.51912049170534 559.6941655632423 113.57857599325237 0.0 0.0
977.9483193149433 123.64389295210026 541.0303072888252 125.32159801928907 0.0 0.0
918.8741728035044 90.5193985825783 494.95310830036095 130.9623911740323 0.0 0.0
875.6636150526917 73.85503376091148 465.0958475764276 137.52786394219075 0.0 0.0
840.9136447931195 66.52945642110615 443.6874056986733 143.51510663007184 0.0 0.0
804.9481520835011 58.059445416766806 421.1607094504436 147.73673506752812 0.0 0.0
767.3933954273242 48.61636786748757 397.3815517985807 150.8476084155484 0.0 0.0
727.7182468872313 38.93219510620508 372.2660278096581 153.71924285032645 0.0 0.0
684.127631409439 29.143858828701212 344.4540674878832 156.73482728730468 0.0 0.0
637.2196629757791 22.925311311521952 315.30545212697467 160.04313039935658 0.0 0.0
584.2899893917937 21.62299803560884 280.300559194634 165.42272137869273 0.0 0.0
512.8378997950089 22.654113310204764 228.70134378739 172.81290530414788 0.0 0.0
409.6432166782679 12.873731915849156 155.9709511707577 186.77966285174878 0.0 0.0
287.8251988122077 -0.2859189630878074 91.25257217975975 199.64936235237562 0.0 0.0
186.07302362984876 -0.42585646208091976 55.47128432423966 193.04656732392806 0.0 0.0
116.82806203381277 11.50169805581715 38.38382944176628 175.54144325098434 0.0 0.0
65.36312864618014 22.9866633645633 26.497048032590236 169.23366505403712 0.0 0.0
23.232230078896464 -1.6247838067121174 6.483186487860032 178.1736231967799 0.0 0.0
136.64426275245066 -14.063386335748412 46.33511475900464 212.8202728687424 0.0 0.0
-299.4878228806821 -858.8461892547731 -424.7342655632796 81.17229733320664 0.0 0.0
-206.59779924609657 -714.0744297291544 -311.07589111341093 -93.96756743536461 0.0 0.0
83.29078417837157 -39.66724138755269 17.133605210100306 -204.8249384302944 0.0 0.0
-3.9093617224911776 -5.631066471894093 -2.876519309300642 -185.66065337545265 0.0 0.0
20.457225369561286 21.72155422519845 12.650862549662017 -180.14259216168216 0.0 0.0
50.94208844220412 14.600870413503511 19.624355806260457 -186.44105225497123 0.0 0.0
89.62803155922272 3.075260937810331 27.705126948914806 -205.91421321229998 0.0 0.0
145.69549537941086 -2.605289211557377 43.33544778643893 -221.56226213156796 0.0 0.0
234.70517060867738 -6.616432919786869 71.69900720114917 -220.44993111930484 0.0 0.0
343.7498465646413 -13.197276872509512 111.58016312661138 -201.3318268742949 0.0 0.0
429.41018956741345 -13.426965913058265 154.79602519781213 -178.6892372330355 0.0 0.0
487.43718052178224 -4.311020445927113 194.3025234125009 -169.53869280295405 0.0 0.0
531.4406082784669 4.067981099184465 226.38519970927132 -167.1237568133059 0.0 0.0
568.5720098332021 11.995943506257717 253.38398058783812 -166.22441862015972 0.0 0.0
602.1976777929739 19.863280859997317 277.0878563114243 -165.38612676712097 0.0 0.0
634.64604311391 27.940708066681957 299.95564428225407 -164.15171663628124 0.0 0.0
668.6689431523312 36.31052565599178 323.9276355613462 -161.84445400760492 0.0 0.0
705.5075128319617 43.993909731868015 349.363871557813 -156.8021206657247 0.0 0.0
744.8956314681591 50.414393987141864 375.37368000451926 -148.942013292319 0.0 0.0
811.0696367323835 81.44658722382256 424.1818273671663 -142.68657612057385 0.0 0.0
910.711875960105 142.07174798610654 507.08760331806576 -141.95140653760865 0.0 0.0
-21.056868444665724 -726.1255764889486 -362.0176640342089 8.361666914424859e-11 0.0 0.0
910.7118759640002 142.07174799110214 507.0876033208699 141.95140653844658 0.0 0.0
811.0696367318101 81.44658722312408 424.1818273668549 142.68657612074634 0.0 0.0
744.8956314679391 50.41439398667116 375.3736800044291 148.94201329258178 0.0 0.0
705.5075128330623 43.99390973345199 349.3638715584354 156.80212066586603 0.0 0.0
668.668943151424 36.31052565479686 323.92763556072026 161.84445400728157 0.0 0.0
634.6460431130417 27.94070806541032 299.9556442817084 164.15171663635044 0.0 0.0
602.1976777931569 19.863280860301742 277.08785631151926 165.38612676701922 0.0 0.0
568.5720098326865 11.995943505830859 253.3839805874743 166.22441862009478 0.0 0.0
531.4406082795167 4.067981100743477 226.38519970993323 167.1237568134654 0.0 0.0
487.4371805218914 -4.311020445943818 194.30252341255368 169.5386928030095 0.0 0.0
429.41018956592876 -13.426965914856329 154.79602519682692 178.68923723274213 0.0 0.0
343.74984656506734 -13.197276871178516 111.58016312711132 201.33182687455636 0.0 0.0
234.70517060822718 -6.61643292006751 71.69900720091368 220.44993111928272 0.0 0.0
145.69549537965764 -2.605289210376167 43.33544778686827 221.562262131507 0.0 0.0
89.62803155894177 3.075260937539483 27.70512694876114 205.914213212026 0.0 0.0
50.94208844240198 14.600870414005033 19.624355806472767 186.4410522547404 0.0 0.0
20.457225369445233 21.721554224915657 12.650862549542182 180.14259216142813 0.0 0.0
-3.909361722682412 -5.631066472054945 -2.8765193094085655 185.66065337533223 0.0 0.0
83.29078417805208 -39.66724138770222 17.133605209935254 204.824938430145 0.0 0.0
-206.5977992455799 -714.0744297283106 -311.07589111280254 93.96756743538747 0.0 0.0
-143.77399309979305 -580.4873287919269 -227.15086668329627 -107.20890444065569 0.0 0.0
34.00842110289939 -58.608486943133045 -6.10766612251042 -190.18767348568227 0.0 0.0
-30.466511805174992 -6.209415020119713 -10.999828505123176 -189.5768208357006 0.0 0.0
-23.80405331105345 20.012173441541428 -1.1492610984456855 -186.47645371719923 0.0 0.0
-14.17928863039954 17.3827129416063 0.9593572889470914 -192.127032438826 0.0 0.0
-6.8580069356143145 7.305071920343083 0.1431493740730927 -210.72175686139028 0.0 0.0
-3.103642394309375 1.0053141302511275 -0.630548752610844 -228.14971084784958 0.0 0.0
-1.1528786449536241 0.1000263824724561 -0.3202411086134873 -230.9603395888113 0.0 0.0
-0.3988657063732788 0.00528784016082362 -0.12572526175268095 -223.86926708961914 0.0 0.0
-0.03768872296151926 -0.0068977633811293515 -0.011379628818716014 -219.93079269942103 0.0 0.0
-0.46259376429158294 0.007973094310223416 -0.12269081999871645 -212.7021864292741 0.0 0.0
-1.0249758527818074 0.17576044387437406 0.2516986840841753 -199.5412657636996 0.0 0.0
-1.880451044152494 0.9443990429825746 0.5022059496806293 -190.46172770741475 0.0 0.0
0.19864585257150225 2.8597590055144053 1.0887069710903603 -183.59567380540193 0.0 0.0
10.047928572999723 7.173984478454813 2.563521522936554 -178.68931941763972 0.0 0.0
34.816260111521245 15.054193240563805 6.684284530376317 -174.43234549832036 0.0 0.0
84.27933109385816 28.42795290157271 15.944333858890062 -168.98436378912626 0.0 0.0
172.69385818568333 38.70259732046168 22.02766509455884 -159.77236566657848 0.0 0.0
394.7056781058992 -2.2340814262298636 39.49569043511997 -155.04804551782132 0.0 0.0
627.20426199683 35.57843921170705 252.74516474480242 -202.75152546910124 0.0 0.0
-709.6974060048719 -977.2233948128021 -764.7402092457332 -2.5622171051509213e-11 0.0 0.0
627.2042619980604 35.57843921332352 252.74516474587713 202.75152546927106 0.0 0.0
394.7056781053261 -2.234081426759758 39.495690434554064 155.04804551833453 0.0 0.0
172.6938581856093 38.702597320744616 22.027665094729997 159.77236566720134 0.0 0.0
84.27933109403257 28.427952901555045 15.94433385882462 168.9843637894726 0.0 0.0
34.8162601115788 15.05419324041334 6.684284530345479 174.43234549813334 0.0 0.0
10.047928572193314 7.173984476782081 2.5635215221177106 178.68931941756526 0.0 0.0
0.19864585352429742 2.8597590064812692 1.0887069717372668 183.59567380554094 0.0 0.0
-1.880451044376997 0.9443990423517334 0.5022059492845585 190.461727707708 0.0 0.0
-1.0249758517468734 0.1757604452203978 0.2516986848345226 199.54126576392386 0.0 0.0
-0.4625937643578055 0.007973093408935483 -0.1226908203232 212.70218642910643 0.0 0.0
-0.037688722441174605 -0.006897763529710943 -0.01137962873067977 219.9307926990662 0.0 0.0
-0.3988657058027911 0.0052878405345850865 -0.12572526146600183 223.86926708976847 0.0 0.0
-1.152878644754331 0.10002638258623087 -0.3202411085129109 230.96033958879642 0.0 0.0
-3.1036423939674656 1.0053141309980744 -0.6305487522852884 228.14971084770036 0.0 0.0
-6.858006935561418 7.305071920296452 0.1431493740739449 210.7217568611935 0.0 0.0
-14.179288630326631 17.38271294165672 0.9593572889839002 192.1270324386162 0.0 0.0
-23.804053311160047 20.01217344141299 -1.1492610985173863 186.4764537169791 0.0 0.0
-30.466511805285393 -6.20941502019174 -10.999828505179208 189.57682083550247 0.0 0.0
34.00842110268369 -58.608486943128476 -6.107666122592057 190.18767348548997 0.0 0.0
-143.77399309955078 -580.4873287912918 -227.15086668297366 107.2089044407022 0.0 0.0
-111.0746946821578 -460.40883511436124 -171.75890916772394 -114.06561071884497 0.0 0.0
-5.128661581261783 -70.14563134547056 -22.531713608622102 -173.77281364314973 0.0 0.0
-55.62953901321552 -5.589784771832652 -18.378910457436504 -188.66585993455678 0.0 0.0
-66.99933090895382 18.449944710167607 -14.582773443682868 -187.95319100046922 0.0 0.0
-78.08178118638877 19.437977656855686 -17.601043971731755 -192.1647488174746 0.0 0.0
-102.08610418882694 11.319381226767495 -27.21465053527811 -207.45960187434267 0.0 0.0
-151.30091233424304 4.656692614855954 -44.5003769202902 -222.63760163858632 0.0 0.0
-236.1710993286332 6.655552048531918 -72.29531680448463 -220.84980327157677 0.0 0.0
-343.9975624637558 13.0338458353256 -111.77936461900181 -201.36731820756225 0.0 0.0
-429.4175115213957 13.396008103513186 -154.80538830751442 -178.65171114493756 0.0 0.0
-487.9507760458031 4.1777164778610825 -194.61139355363875 -169.55526729218565 0.0 0.0
-532.25869010581 -3.984519950096555 -227.31775586133392 -166.95143723057987 0.0 0.0
-569.6123585393219 -10.529616038161606 -254.0845247693767 -165.54257341056493 0.0 0.0
-600.1966164363031 -14.528484544310828 -273.9866314872952 -164.60811489048223 0.0 0.0
-621.3631796361803 -14.771642256638287 -285.28307821447413 -164.77486698621237 0.0 0.0
-631.0495983287001 -9.968303734790027 -285.72600783419733 -166.7586600293465 0.0 0.0
-627.8295542137096 -0.3017345064797894 -273.392056203881 -171.24160727664417 0.0 0.0
-620.1563839546529 7.0968820648950555 -251.00693015777972 -180.58664878418296 0.0 0.0
-596.7120104083385 59.370614096904134 -187.11059294555636 -194.3955769456102 0.0 0.0
-321.4142564729558 182.35892612639515 48.59184140298291 -162.39021767133823 0.0 0.0
-1282.0438841357873 -1249.2311031442723 -1298.6709443264695 -7.191403028627974e-11 0.0 0.0
-321.4142564733811 182.35892612543898 48.591841402530775 162.39021767182012 0.0 0.0
-596.7120104075265 59.37061409757746 -187.11059294496192 194.39557694579182 0.0 0.0
-620.1563839541114 7.096882065584751 -251.006930157545 180.58664878462184 0.0 0.0
-627.8295542149766 -0.3017345083424914 -273.392056204817 171.2416072768255 0.0 0.0
-631.0495983283005 -9.968303734630638 -285.72600783395256 166.7586600293884 0.0 0.0
-621.3631796359902 -14.771642256524736 -285.28307821422766 164.77486698619003 0.0 0.0
-600.196616435174 -14.528484543400616 -273.9866314866611 164.60811489055868 0.0 0.0
-569.6123585400835 -10.529616039673833 -254.0845247699241 165.5425734107301 0.0 0.0
-532.2586901053241 -3.98451994974344 -227.31775586088025 166.95143723069404 0.0 0.0
-487.9507760452484 4.177716478157526 -194.61139355325503 169.5552672922061 0.0 0.0
-429.4175115208351 13.39600810355828 -154.80538830724885 178.65171114497429 0.0 0.0
-343.99756246288 13.033845835865412 -111.77936461849744 201.36731820764876 0.0 0.0
-236.17109932762534 6.655552049251535 -72.29531680393467 220.84980327158672 0.0 0.0
-151.30091233411497 4.656692614310023 -44.500376920413494 222.63760163846956 0.0 0.0
-102.08610418845869 11.319381227187895 -27.214650535049653 207.45960187401283 0.0 0.0
-78.08178118597186 19.437977657527114 -17.60104397140936 192.16474881724747 0.0 0.0
-66.99933090885479 18.44994471034171 -14.582773443603866 187.95319100020905 0.0 0.0
-55.62953901308594 -5.589784771578567 -18.378910457323855 188.6658599343668 0.0 0.0
-5.128661581324247 -70.14563134563886 -22.531713608688268 173.77281364307498 0.0 0.0
-111.07469468206943 -460.4088351136873 -171.75890916753397 114.0656107187504 0.0 0.0
-93.1444011929962 -351.7834949054484 -133.46496668739337 -107.68547773742223 0.0 0.0
-30.313404795260574 -76.0301612794589 -31.89897772323378 -160.55534679872397 0.0 0.0
-79.22870718839181 -5.232295964090988 -25.32339405179588 -184.6067581991539 0.0 0.0
-108.38049185393172 17.087143910131406 -27.418413491699326 -184.42984314184233 0.0 0.0
-140.81329158747957 20.914874270806386 -35.900507249179356 -187.63302709186124 0.0 0.0
-195.6267577385312 14.379304357424854 -54.494713496501255 -197.7362588408276 0.0 0.0
-289.7610653688669 1.3641407895760516 -92.2435218809745 -199.3811632349997 0.0 0.0
-409.84683849192254 -13.084598432091386 -156.30679320959132 -187.4037695830072 0.0 0.0
-512.8208130728495 -22.851349985013513 -228.795008608716 -172.93795683365926 0.0 0.0
-584.2164854850744 -21.650916847055775 -280.3003946419435 -165.42321383875876 0.0 0.0
-637.2878897102611 -22.907651717852474 -315.3763386921994 -159.9581969980139 0.0 0.0
-684.6188154172248 -29.00568239286109 -344.7343990926162 -156.20122161640822 0.0 0.0
-728.1396541792896 -37.856595144924384 -372.14142821214756 -152.52430149415687 0.0 0.0
-764.6867812364159 -44.14801761701524 -394.11655611175615 -149.68613704469078 0.0 0.0
-791.7034987722442 -45.24456453443665 -408.47695628455756 -148.72245153490775 0.0 0.0
-806.0598774809628 -38.832408493019415 -412.4984702780032 -150.05268325123373 0.0 0.0
-808.633534784505 -27.034517978028475 -407.4988519157621 -153.91135803436978 0.0 0.0
-799.8806464345057 -12.221250294511435 -395.1328302477419 -160.1795351979959 0.0 0.0
-749.3162611245643 35.897584010358486 -345.6414785765028 -167.43374636437568 0.0 0.0
-626.8680935640184 141.42173775619568 -233.7424761530494 -175.17301119928354 0.0 0.0
-2082.5154174242252 -1548.789304259633 -1784.0320549911046 1.1126388699267409e-10 0.0 0.0
-626.8680935633415 141.4217377566015 -233.74247615255962 175.17301119955457 0.0 0.0
-749.3162611243168 35.89758401039893 -345.6414785765178 167.43374636484776 0.0 0.0
-799.8806464359994 -12.221250296442406 -395.1328302487498 160.17953519839378 0.0 0.0
-808.6335347851777 -27.03451797898076 -407.498851916214 153.9113580345487 0.0 0.0
-806.0598774812204 -38.83240849353467 -412.49847027824103 150.05268325130007 0.0 0.0
-791.7034987718218 -45.24456453417767 -408.47695628422593 148.7224515349778 0.0 0.0
-764.686781235485 -44.14801761617233 -394.11655611113457 149.6861370446514 0.0 0.0
-728.1396541794911 -37.85659514543802 -372.1414282123264 152.52430149420235 0.0 0.0
-684.6188154169183 -29.00568239272839 -344.73439909239585 156.2012216164413 0.0 0.0
-637.2878897105933 -22.907651718600363 -315.37633869251897 159.9581969979884 0.0 0.0
-584.2164854844929 -21.650916846634928 -280.30039464149 165.42321383855796 0.0 0.0
-512.8208130724882 -22.85134998517375 -228.7950086084207 172.93795683372673 0.0 0.0
-409.8468384911663 -13.084598431870432 -156.30679320911173 187.40376958314064 0.0 0.0
-289.761065368675 1.3641407890492767 -92.2435218809859 199.38116323493654 0.0 0.0
-195.62675773812384 14.3793043575061 -54.494713496368696 197.73625884060584 0.0 0.0
-140.81329158720257 20.914874271010483 -35.90050724903611 187.6330270917326 0.0 0.0
-108.38049185387767 17.08714391010353 -27.41841349169552 184.42984314151937 0.0 0.0
-79.22870718826394 -5.232295963748093 -25.32339405166055 184.60675819899078 0.0 0.0
-30.313404795421157 -76.03016127977664 -31.898977723375573 160.5553467984614 0.0 0.0
-93.14440119286093 -351.783494904922 -133.46496668719388 107.68547773743128 0.0 0.0
-76.10673959865602 -260.9371706722951 -101.11317308128532 -96.54213985335767 0.0 0.0
-47.92333806411114 -75.35470301242975 -36.98266150216678 -146.76605877617553 0.0 0.0
-100.95661572480846 -5.155075746141126 -31.81206055959322 -176.13799695857486 0.0 0.0
-148.12454274331975 15.82466140259551 -39.6547126407044 -176.9728660077403 0.0 0.0
-201.09805746754958 20.795433942134817 -54.04609576076374 -176.32629323711873 0.0 0.0
-285.6188073041196 11.5504758948159 -84.39964676786778 -176.51347606154687 0.0 0.0
-409.1556035788078 -12.305500964328806 -147.4565323448889 -170.63905837835102 0.0 0.0
-528.7001374287438 -35.29991564715514 -236.14340221410947 -158.78523105773914 0.0 0.0
-618.6420387817684 -42.04154103753028 -308.39434976495465 -152.6143526096991 0.0 0.0
-680.8287250206773 -39.75195550778092 -350.13061003618554 -148.65577879375982 0.0 0.0
-731.5005703601229 -43.18359681573473 -380.46352849492575 -144.7357563507767 0.0 0.0
-780.8926001699882 -52.278580857510775 -410.48424985836664 -141.45471368638266 0.0 0.0
-828.5497541689317 -64.01623843597463 -440.5647593704092 -137.84408718848937 0.0 0.0
-870.8316291178865 -74.4159730333188 -467.19314472201324 -134.78174810531416 0.0 0.0
-903.8303028270268 -79.10241192907165 -486.2823631421335 -133.61097308856986 0.0 0.0
-922.9670957010981 -74.9236408277686 -493.8933672375683 -135.34869514595158 0.0 0.0
-926.8312255974156 -60.5866514818006 -488.71056957043794 -139.9578549078604 0.0 0.0
-905.8321036644431 -28.176198781423324 -461.9903797351137 -145.60789726541643 0.0 0.0
-847.4755793166888 33.21669581596885 -402.63489937767326 -149.8505155497237 0.0 0.0
-682.3087479921167 187.57026610954642 -245.76317153889354 -150.5255456355315 0.0 0.0
-2524.9915718195743 -1780.110312769192 -2129.1528151487514 -2.8396840434652404e-11 0.0 0.0
-682.3087479893932 187.5702661121677 -245.7631715370239 150.52554563555242 0.0 0.0
-847.4755793172991 33.21669581511679 -402.634899378133 149.8505155501326 0.0 0.0
-905.8321036644918 -28.17619878171554 -461.99037973504585 145.60789726562848 0.0 0.0
-926.8312255966532 -60.58665148117659 -488.71056956998825 139.95785490797587 0.0 0.0
-922.9670957007593 -74.92364082745723 -493.8933672372941 135.34869514579893 0.0 0.0
-903.8303028257759 -79.10241192814368 -486.28236314130004 133.6109730886874 0.0 0.0
-870.8316291183585 -74.41597303394198 -467.1931447223394 134.78174810535396 0.0 0.0
-828.5497541683843 -64.01623843574865 -440.5647593701513 137.84408718856392 0.0 0.0
-780.8926001700138 -52.278580857740316 -410.4842498583787 141.45471368641282 0.0 0.0
-731.5005703618698 -43.18359681800028 -380.4635284961672 144.73575635090123 0.0 0.0
-680.8287250189109 -39.751955505917365 -350.1306100349902 148.6557787933852 0.0 0.0
-618.642038781789 -42.04154103820394 -308.39434976492714 152.61435260989228 0.0 0.0
-528.7001374278348 -35.29991564660395 -236.1434022134008 158.78523105772027 0.0 0.0
-409.1556035782892 -12.305500964293632 -147.4565323445399 170.63905837832888 0.0 0.0
-285.6188073036829 11.55047589470524 -84.39964676774483 176.51347606145637 0.0 0.0
-201.09805746740375 20.79543394191061 -54.04609576080467 176.32629323689665 0.0 0.0
-148.12454274332214 15.824661402396549 -39.65471264076946 176.97286600748967 0.0 0.0
-100.95661572479183 -5.155075746245045 -31.812060559617777 176.1379969586457 0.0 0.0
-47.92333806428033 -75.35470301271535 -36.98266150230437 146.7660587759375 0.0 0.0
-76.10673959860665 -260.93717067197787 -101.11317308117533 96.54213985345557 0.0 0.0
-61.93984423801182 -185.04736361282662 -74.09616235525154 -83.00953679275517 0.0 0.0
-61.18088544071074 -69.81938589127567 -39.300257556951266 -131.11985858402437 0.0 0.0
-121.12160925148532 -5.049091032660849 -37.83635761452072 -163.56013341947465 0.0 0.0
-185.56425588204118 13.803221882963472 -51.50225002460609 -164.3455928538105 0.0 0.0
-260.78157883598425 18.96714007932116 -72.52824358980439 -160.64923893162936 0.0 0.0
-373.07724937061005 4.060758483969947 -118.11860528044873 -152.13959960068317 0.0 0.0
-504.42571271646045 -29.783515664735834 -205.29405569613382 -140.0294281677224 0.0 0.0
-616.3422625951516 -50.9823893727351 -301.16817027708635 -134.51727423290012 0.0 0.0
-695.434849337227 -54.897661376826015 -363.25692306743736 -132.14558269223153 0.0 0.0
-751.652284183018 -57.83393274486835 -399.4888748564415 -129.44539886766415 0.0 0.0
-804.7204196750416 -63.003966957278294 -429.8224352549764 -127.6835373431114 0.0 0.0
-856.7019131638555 -74.31790502634242 -461.6936162174204 -124.9513571380916 0.0 0.0
-908.2557646481214 -89.56693997484419 -495.2876468583431 -121.62013613662637 0.0 0.0
-956.4463588934816 -104.77847720339412 -527.1780897766255 -118.50066613641701 0.0 0.0
-995.8096898525146 -114.62550183130736 -551.9903217042436 -117.06784870794085 0.0 0.0
-1019.3557503020829 -112.19824686419892 -562.7383047588327 -118.7825811759651 0.0 0.0
-1018.4035449738178 -91.49921501204943 -552.0825262762634 -123.02419007877296 0.0 0.0
-984.1329929828241 -42.673575447967295 -510.731254330542 -127.8865358940259 0.0 0.0
-896.1392591037088 51.489488358015166 -420.4136523895077 -129.90632944037486 0.0 0.0
-714.079041093682 225.23105299374973 -244.17960277337403 -127.8559869168022 0.0 0.0
-2875.5848275102485 -2020.3342251539884 -2430.086775228381 1.014512918118271e-10 0.0 0.0
-714.079041092254 225.23105299543857 -244.1796027723027 127.85598691675919 0.0 0.0
-896.1392591017188 51.489488359849645 -420.4136523881359 129.90632944029701 0.0 0.0
-984.1329929820131 -42.673575447207384 -510.73125433009216 127.88653589420997 0.0 0.0
-1018.4035449739222 -91.49921501226234 -552.0825262764641 123.02419007877913 0.0 0.0
-1019.3557503019407 -112.19824686417454 -562.7383047588219 118.78258117598442 0.0 0.0
-995.8096898511033 -114.62550183003579 -551.9903217032524 117.06784870789505 0.0 0.0
-956.4463588940439 -104.77847720420971 -527.1780897769961 118.50066613649568 0.0 0.0
-908.2557646468205 -89.5669399738758 -495.287646857628 121.62013613679925 0.0 0.0
-856.7019131648412 -74.31790502756581 -461.69361621801164 124.9513571381957 0.0 0.0
-804.7204196756558 -63.00396695835579 -429.82243525536416 127.68353734312957 0.0 0.0
-751.6522841822142 -57.83393274428863 -399.4888748559812 129.4453988676951 0.0 0.0
-695.4348493370467 -54.897661377022196 -363.25692306723425 132.14558269219384 0.0 0.0
-616.3422625940808 -50.98238937183877 -301.16817027625166 134.5172742327768 0.0 0.0
-504.4257127157939 -29.78351566446702 -205.29405569558625 140.0294281676669 0.0 0.0
-373.0772493701614 4.060758483996745 -118.11860528021818 152.13959960056943 0.0 0.0
-260.78157883552973 18.967140079611806 -72.52824358959926 160.64923893144342 0.0 0.0
-185.5642558820226 13.803221882506804 -51.50225002475176 164.34559285345642 0.0 0.0
-121.12160925157467 -5.049091033011189 -37.83635761465182 163.56013341949335 0.0 0.0
-61.18088544069316 -69.81938589127182 -39.30025755694483 131.11985858392583 0.0 0.0
-61.93984423789044 -185.0473636126121 -74.09616235515074 83.00953679270974 0.0 0.0
-51.38241771003688 -123.41391574636926 -52.43890003692182 -68.61207115601863 0.0 0.0
-71.49730199972036 -60.85259774565091 -39.70496992361139 -113.29391348968086 0.0 0.0
-139.95978738237244 -4.596250715183787 -43.3627812417446 -146.8030065283909 0.0 0.0
-221.31364276485172 11.421436574657431 -62.85296218853841 -147.76754919050614 0.0 0.0
-318.8437392883069 13.199910332441153 -92.60320449547092 -138.20259285727928 0.0 0.0
-451.57171923835625 -8.87284990898493 -156.32570172478182 -123.79306646243295 0.0 0.0
-581.636432483479 -44.604730286591256 -259.85510531703073 -113.58783639426265 0.0 0.0
-683.4110408931963 -61.22628367792788 -351.0793755153589 -111.78573592028218 0.0 0.0
-752.5889180526922 -69.23389036758026 -404.4669463959864 -110.41008984942852 0.0 0.0
-811.9468139351152 -73.63298412367526 -439.5889338299731 -110.53713676233949 0.0 0.0
-866.5849304524495 -82.12663463556335 -471.6818469099561 -109.405937139427 0.0 0.0
-921.6540266675237 -96.35644351751932 -506.4145660755498 -107.16904382062087 0.0 0.0
-976.9242761412563 -114.82398085208317 -543.3875002881473 -104.31649444685482 0.0 0.0
-1030.151967951657 -134.25474385084974 -579.8229351060651 -101.42154330322194 0.0 0.0
-1076.4092697308984 -149.8734219993102 -610.9216849682549 -99.65965275977963 0.0 0.0
-1103.485996077852 -150.00564914514646 -624.7764474670623 -100.52255076448577 0.0 0.0
-1096.8953518069393 -120.53836674907305 -607.0005400204751 -104.19518719509394 0.0 0.0
-1042.5631068349508 -50.295219185250545 -545.0420429120612 -108.20749926393371 0.0 0.0
-928.3277848054317 70.73600701282747 -428.00717510060826 -109.63720618086992 0.0 0.0
-740.1815957172405 250.8202732292812 -244.73421190182725 -109.53134957510885 0.0 0.0
-3173.0261211759516 -2245.5107268571883 -2695.128041980298 1.6697754290362354e-10 0.0 0.0
-740.1815957184051 250.82027322803583 -244.7342119024371 109.53134957519606 0.0 0.0
-928.3277848035481 70.7360070146943 -428.00717509942905 109.63720618093434 0.0 0.0
-1042.5631068356295 -50.29521918607426 -545.0420429125697 108.20749926419464 0.0 0.0
-1096.8953518073417 -120.53836674971056 -607.0005400208697 104.19518719520363 0.0 0.0
-1103.4859960783674 -150.00564914586235 -624.7764474674577 100.52255076473342 0.0 0.0
-1076.409269729961 -149.87342199848737 -610.9216849675801 99.65965275957159 0.0 0.0
-1030.1519679509515 -134.25474385036964 -579.8229351055147 101.42154330332883 0.0 0.0
-976.9242761402156 -114.82398085121888 -543.3875002875964 104.31649444685934 0.0 0.0
-921.6540266685416 -96.35644351886782 -506.4145660761666 107.16904382068175 0.0 0.0
-866.5849304518482 -82.12663463513411 -471.68184690955184 109.40593713930464 0.0 0.0
-811.9468139346675 -73.63298412357946 -439.5889338297607 110.53713676234096 0.0 0.0
-752.5889180516008 -69.23389036672933 -404.46694639524213 110.41008984935002 0.0 0.0
-683.4110408925008 -61.22628367761274 -351.0793755148401 111.78573592035553 0.0 0.0
-581.636432483469 -44.604730286986396 -259.8551053167893 113.58783639415931 0.0 0.0
-451.5717192376893 -8.872849908574967 -156.32570172431093 123.79306646222616 0.0 0.0
-318.8437392877178 13.199910332733092 -92.60320449522112 138.20259285725163 0.0 0.0
-221.31364276497885 11.42143657391707 -62.852962188800745 147.767549190463 0.0 0.0
-139.95978738218474 -4.596250715151628 -43.36278124167737 146.80300652840492 0.0 0.0
-71.49730199953574 -60.852597745451064 -39.70496992349604 113.29391348957151 0.0 0.0
-51.38241770996008 -123.41391574622301 -52.43890003685491 68.61207115588459 0.0 0.0
-44.288569515538434 -75.62707866975207 -35.97469445558715 -53.88412848197679 0.0 0.0
-79.47389637916658 -49.825120794060055 -38.789705151967986 -93.42629337125294 0.0 0.0
-157.6326242688754 -3.625425512437069 -48.377922432867265 -125.92151919386488 0.0 0.0
-255.73934242351496 7.61067194196128 -74.33150831061084 -126.27610990828092 0.0 0.0
-378.7376376796188 5.589113386686295 -114.6598336644997 -112.74542848124277 0.0 0.0
-516.8081658649961 -25.964779148204105 -197.84719090203092 -93.61719211483309 0.0 0.0
-643.3546316310508 -54.5098451003606 -306.90870867883507 -89.62766042725994 0.0 0.0
-732.0408993585111 -71.79693161238845 -388.9964841929416 -88.9164706540577 0.0 0.0
-802.922848699433 -81.14171500594549 -438.14419366390086 -89.82300940823347 0.0 0.0
-863.5878693402044 -89.55681451437688 -474.45784040189324 -90.67543569328923 0.0 0.0
-921.5346076958265 -101.45935941291559 -509.62624838701583 -90.06977686410224 0.0 0.0
-979.7200043168955 -118.4650775219942 -547.2668144601823 -88.37380561666255 0.0 0.0
-1038.1089872896011 -139.48506933625612 -587.0367591241913 -86.15028976678511 0.0 0.0
-1095.033968217916 -162.79067576866035 -627.2044132457543 -83.69207412852191 0.0 0.0
-1146.6024493770487 -182.65119505357453 -663.0261828639273 -81.61213605550103 0.0 0.0
-1178.9647248987421 -186.35540865971163 -681.3092177299618 -81.27120361911253 0.0 0.0
-1168.4167754525993 -151.93974323567662 -659.1855848585092 -83.61780954469758 0.0 0.0
-1095.1588457904209 -61.270700143307124 -577.5854776513722 -87.32819715255302 0.0 0.0
-956.5352999098254 84.83076135427552 -435.6163305023695 -90.41917337996435 0.0 0.0
-756.9759596711308 275.73096083892176 -240.74579770507842 -94.2047279588618 0.0 0.0
-3428.5018688349383 -2447.643242598561 -2926.6491601578705 1.240962888005015e-11 0.0 0.0
-756.9759596710117 275.7309608389641 -240.74579770493006 94.20472795881345 0.0 0.0
-956.5352999091915 84.83076135484785 -435.6163305020774 90.4191733800437 0.0 0.0
-1095.1588457894666 -61.27070014257909 -577.585477650714 87.32819715282518 0.0 0.0
-1168.41677545284 -151.93974323603135 -659.1855848587526 83.61780954480899 0.0 0.0
-1178.9647248980805 -186.35540865926313 -681.3092177293888 81.27120361922098 0.0 0.0
-1146.6024493760249 -182.65119505263905 -663.0261828631898 81.6121360554897 0.0 0.0
-1095.0339682171712 -162.7906757681564 -627.204413245202 83.69207412857108 0.0 0.0
-1038.1089872888492 -139.4850693356655 -587.0367591237646 86.15028976676268 0.0 0.0
-979.7200043165462 -118.46507752186366 -547.2668144599317 88.37380561653029 0.0 0.0
-921.5346076960834 -101.4593594134445 -509.62624838721484 90.06977686411548 0.0 0.0
-863.5878693391741 -89.55681451364558 -474.4578404012802 90.67543569329351 0.0 0.0
-802.9228486984465 -81.14171500522086 -438.14419366328667 89.82300940820878 0.0 0.0
-732.040899358165 -71.79693161235028 -388.99648419262957 88.91647065405498 0.0 0.0
-643.3546316311277 -54.509845100813635 -306.90870867862816 89.62766042700936 0.0 0.0
-516.8081658643449 -25.964779147924258 -197.84719090152402 93.61719211472987 0.0 0.0
-378.7376376789281 5.58911338702586 -114.6598336641867 112.74542848129872 0.0 0.0
-255.73934242337805 7.610671941727246 -74.331508310648 126.27610990824509 0.0 0.0
-157.63262426894565 -3.6254255125945187 -48.377922432935506 125.92151919385438 0.0 0.0
-79.47389637914915 -49.82512079403639 -38.789705151955665 93.42629337127265 0.0 0.0
-44.28856951539369 -75.62707866957248 -35.974694455489846 53.884128481685536 0.0 0.0
-40.00857506068762 -41.408993607645385 -24.4252706004999 -39.251154803412476 0.0 0.0
-85.08136894353702 -37.97228532884404 -36.91609628171431 -71.75285794181187 0.0 0.0
-174.03609730043883 -2.2712136492943116 -52.8924137626242 -100.75193172036403 0.0 0.0
-290.59647556657023 2.568115232776331 -86.255676298358 -100.17645415399117 0.0 0.0
-435.7321115755538 -6.128926479806957 -140.02445111310465 -82.75003374252174 0.0 0.0
-576.6917801042678 -38.70515421704263 -238.80640059926912 -68.17550226349326 0.0 0.0
-688.3482479895738 -63.32762116914055 -345.63569852037784 -66.97429766797245 0.0 0.0
-773.1784259464548 -80.07169744917866 -418.4961972351128 -67.08235908353106 0.0 0.0
-845.6598272014234 -93.4080742179989 -467.0819604541648 -68.7630765194641 0.0 0.0
-909.7633340606367 -105.67114027032677 -506.2396055816806 -69.980488400301 0.0 0.0
-970.9854263977516 -120.94312628832307 -544.6356302337381 -69.79683231203227 0.0 0.0
-1032.5269396665942 -140.863909063895 -585.3934985931684 -68.63547106837014 0.0 0.0
-1093.6707784285381 -164.70610720113672 -627.9367942265812 -67.03025314869365 0.0 0.0
-1152.6027391617486 -188.70087638925625 -669.4269356135034 -65.26536888614666 0.0 0.0
-1206.2124029335903 -210.5514093348833 -707.2094559032603 -63.19432024501238 0.0 0.0
-1244.4973485153675 -219.76545417553777 -731.1579434730787 -61.451585555901836 0.0 0.0
-1239.7321149510487 -189.49369009159565 -714.0238167264714 -61.89514616367777 0.0 0.0
-1154.612575299143 -85.67595614201593 -619.9635287231266 -65.62980929172382 0.0 0.0
-986.983757494188 90.08505400602448 -448.55186369425155 -71.64221537406328 0.0 0.0
-760.1547949173005 308.5793961950481 -225.9579241787559 -80.39232249239068 0.0 0.0
-3642.1942826535296 -2617.3338929861243 -3120.452539767687 9.404743650520686e-11 0.0 0.0
-760.1547949166602 308.5793961956398 -225.95792417836446 80.39232249247627 0.0 0.0
-986.9837574954793 90.08505400474141 -448.5518636952866 71.64221537403407 0.0 0.0
-1154.612575297894 -85.6759561407845 -619.9635287223883 65.62980929157129 0.0 0.0
-1239.7321149512127 -189.49369009187618 -714.0238167265893 61.895146163530455 0.0 0.0
-1244.4973485151459 -219.76545417545466 -731.1579434728578 61.45158555586097 0.0 0.0
-1206.2124029325914 -210.55140933409453 -707.2094559025693 63.19432024516522 0.0 0.0
-1152.60273916093 -188.70087638864254 -669.4269356129178 65.26536888622488 0.0 0.0
-1093.6707784291264 -164.70610720188557 -627.93679422707 67.03025314863721 0.0 0.0
-1032.526939666046 -140.86390906355612 -585.3934985928095 68.63547106818233 0.0 0.0
-970.9854263980767 -120.94312628899846 -544.6356302339859 69.79683231220488 0.0 0.0
-909.7633340593044 -105.67114026923149 -506.239605580833 69.98048840016287 0.0 0.0
-845.6598272004828 -93.4080742173295 -467.0819604535652 68.76307651946256 0.0 0.0
-773.17842594633 -80.07169744940518 -418.4961972349552 67.08235908357032 0.0 0.0
-688.3482479893187 -63.3276211692929 -345.6356985200321 66.97429766796458 0.0 0.0
-576.6917801034994 -38.70515421667452 -238.80640059863532 68.17550226346016 0.0 0.0
-435.73211157499327 -6.1289264796893885 -140.0244511128312 82.75003374259256 0.0 0.0
-290.5964755662643 2.568115232834864 -86.25567629827384 100.17645415385665 0.0 0.0
-174.03609730041975 -2.271213649483651 -52.89241376267501 100.75193172032603 0.0 0.0
-85.08136894347942 -37.97228532892309 -36.91609628172075 71.75285794181511 0.0 0.0
-40.008575060652085 -41.408993607548595 -24.425270600460202 39.25115480329226 0.0 0.0
-37.30045843851741 -20.366274219362122 -17.300019797363852 -25.50547498423186 0.0 0.0
-87.62133696390157 -26.548951057183146 -34.251086406325406 -48.58264394258536 0.0 0.0
-188.85288028627207 -1.0746353002517846 -56.97825467595713 -70.72235741507389 0.0 0.0
-327.49096063698437 -3.292309279148123 -99.01555005259353 -68.90812482041882 0.0 0.0
-488.2574222451135 -20.888045738079782 -169.06564540907135 -51.86742241504556 0.0 0.0
-624.2777812359102 -48.3221367722678 -276.9512407925248 -45.00725476739327 0.0 0.0
-721.8681668850908 -70.16960230598556 -375.32677919075775 -44.84047226917467 0.0 0.0
-808.5241255920548 -89.00477822233584 -443.6103945277004 -45.698848446784275 0.0 0.0
-883.6528818669105 -106.30478249796926 -493.30417775097334 -47.24024386659652 0.0 0.0
-951.271192748402 -122.14951716151198 -535.6453873202145 -48.45998086256395 0.0 0.0
-1016.1825310283116 -140.6316377470512 -577.4625669899676 -48.636381883158045 0.0 0.0
-1080.7293812603466 -163.4207797361453 -621.1576326485906 -47.998840556259296 0.0 0.0
-1144.7276447625923 -188.85559996143678 -665.9079613648125 -47.08318694543617 0.0 0.0
-1204.7449755441244 -214.28866019115512 -708.6697444387415 -45.93165197120509 0.0 0.0
-1257.1892082512752 -234.43071524649147 -745.010236541182 -44.28802247235336 0.0 0.0
-1295.3058646763006 -243.01411004282915 -768.4560203063015 -41.97159178221877 0.0 0.0
-1304.843393197862 -226.54707917115604 -765.2269201560966 -40.27414655933091 0.0 0.0
-1243.0379550482596 -144.66328214546388 -693.8400530554942 -42.68291318908173 0.0 0.0
-1037.799468705684 70.39651762033319 -484.0857455641482 -51.84789144354226 0.0 0.0
-735.2250391688849 365.9911702094029 -184.91233830220727 -66.9248032033758 0.0 0.0
-3800.4741675107257 -2737.0914186826635 -3261.210784766187 1.1932854704355123e-10 0.0 0.0
-735.2250391667392 365.991170211506 -184.9123383007328 66.92480320338728 0.0 0.0
-1037.799468708648 70.39651761722754 -484.0857455662989 51.84789144383714 0.0 0.0
-1243.0379550483333 -144.66328214564987 -693.8400530555609 42.68291318923606 0.0 0.0
-1304.8433931974419 -226.54707917084946 -765.2269201558199 40.2741465593324 0.0 0.0
-1295.3058646768332 -243.01411004350663 -768.4560203067531 41.97159178214942 0.0 0.0
-1257.189208249768 -234.43071524514485 -745.0102365401889 44.28802247237432 0.0 0.0
-1204.7449755433638 -214.28866019060095 -708.6697444381317 45.931651971293086 0.0 0.0
-1144.727644763234 -188.8555999623045 -665.9079613653076 47.08318694543635 0.0 0.0
-1080.7293812598407 -163.4207797359046 -621.1576326482727 47.998840556298184 0.0 0.0
-1016.1825310282393 -140.63163774731203 -577.4625669899666 48.63638188341723 0.0 0.0
-951.2711927479996 -122.14951716130511 -535.6453873199639 48.45998086233481 0.0 0.0
-883.6528818658429 -106.30478249716866 -493.3041777502556 47.24024386650368 0.0 0.0
-808.5241255917128 -89.00477822233843 -443.6103945274376 45.69884844683102 0.0 0.0
-721.8681668848599 -70.16960230617244 -375.32677919045005 44.840472269307554 0.0 0.0
-624.277781235216 -48.322136771841166 -276.95124079186587 45.00725476719897 0.0 0.0
-488.2574222446177 -20.888045738081914 -169.06564540880788 51.86742241508613 0.0 0.0
-327.49096063659937 -3.292309279257839 -99.01555005252683 68.90812482021548 0.0 0.0
-188.85288028593683 -1.074635299875089 -56.97825467574358 70.72235741509799 0.0 0.0
-87.62133696384991 -26.54895105727158 -34.25108640633644 48.58264394244889 0.0 0.0
-37.30045843841999 -20.366274219341957 -17.300019797328584 25.505474984256143 0.0 0.0
-33.796607645834904 -11.4357939514733 -13.569720479192453 -14.333231271270297 0.0 0.0
-85.59096754636488 -17.29402167463856 -30.865496766301018 -24.347101360396508 0.0 0.0
-201.6812828778712 -1.121628845139178 -60.8408735169031 -34.381357935272064 0.0 0.0
-366.0917871985235 -9.112189219993617 -113.05290780293228 -32.150709715630185 0.0 0.0
-538.5033342099905 -33.289923022017135 -199.87426316669178 -23.537823604542158 0.0 0.0
-659.0573806069388 -55.29735908766287 -309.75753169152483 -23.522995971247372 0.0 0.0
-751.5745579510183 -75.02672558518739 -398.84127772007014 -24.186531678146995 0.0 0.0
-839.09486754369 -98.41856359259319 -465.35411430906527 -24.565608366472755 0.0 0.0
-917.5290617426498 -119.42893624987018 -517.2377840621557 -25.31451261856673 0.0 0.0
-989.0351719285823 -139.2573272475708 -563.3781198295867 -26.158109805672105 0.0 0.0
-1057.334468444821 -160.6655293099334 -608.3486745672014 -26.567583441813404 0.0 0.0
-1124.980622636356 -185.40307180168588 -654.5675919062624 -26.538760213463938 0.0 0.0
-1191.2758719944065 -213.2989255333392 -701.6917151333438 -26.197408153831887 0.0 0.0
-1252.7318106247612 -239.03057241597477 -745.3243611616833 -25.65511228268391 0.0 0.0
-1302.4485511225794 -256.10695668114454 -778.7826326646414 -24.69814484641541 0.0 0.0
-1334.3632528610622 -258.54246625943875 -796.0310370418883 -22.885362340857377 0.0 0.0
-1346.4351761152993 -244.81315397158687 -795.2336566454792 -20.373607855117708 0.0 0.0
-1334.5203482614772 -212.05093988968122 -773.0311335959302 -19.87835735821551 0.0 0.0
-1208.3101982336368 -73.15648120019594 -641.1070094801976 -28.20513968303366 0.0 0.0
-707.5154131573863 424.4448318320424 -142.200495239839 -50.73259950392223 0.0 0.0
-3741.5210966077775 -2641.798265332839 -3185.8616339079817 1.021600581907478e-10 0.0 0.0
-707.5154131545823 424.44483183489 -142.20049523777448 50.73259950384885 0.0 0.0
-1208.310198236343 -73.15648120302532 -641.1070094821516 28.20513968314895 0.0 0.0
-1334.5203482610177 -212.05093988930417 -773.0311335956815 19.878357358210273 0.0 0.0
-1346.4351761152127 -244.81315397163203 -795.2336566454893 20.373607855245147 0.0 0.0
-1334.363252862203 -258.5424662607281 -796.0310370427601 22.88536234080755 0.0 0.0
-1302.448551120884 -256.1069566796172 -778.7826326634779 24.698144846348026 0.0 0.0
-1252.731810624811 -239.03057241622304 -745.324361161792 25.655112282810858 0.0 0.0
-1191.2758719938906 -213.29892553304904 -701.6917151330176 26.197408153761714 0.0 0.0
-1124.980622635228 -185.40307180079623 -654.567591905587 26.538760213505853 0.0 0.0
-1057.3344684448025 -160.66552931022434 -608.3486745671838 26.567583441982404 0.0 0.0
-989.0351719290736 -139.2573272483454 -563.3781198298598 26.15810980569619 0.0 0.0
-917.529061742172 -119.42893624968298 -517.2377840618392 25.31451261849082 0.0 0.0
-839.0948675434399 -98.41856359268128 -465.35411430888064 24.56560836654235 0.0 0.0
-751.574557950569 -75.02672558506991 -398.8412777196451 24.18653167823657 0.0 0.0
-659.0573806063151 -55.297359087399755 -309.7575316909576 23.522995971160697 0.0 0.0
-538.5033342093651 -33.289923021759606 -199.87426316623583 23.537823604607027 0.0 0.0
-366.0917871982039 -9.112189220057457 -113.05290780286589 32.150709715481945 0.0 0.0
-201.68128287746399 -1.121628844599528 -60.84087351661907 34.381357935162455 0.0 0.0
-85.59096754635708 -17.29402167469847 -30.86549676631666 24.34710136033106 0.0 0.0
-33.7966076459736 -11.435793951578402 -13.569720479265603 14.3332312710624 0.0 0.0
-22.35447988154206 -5.8994332069782 -8.47617392655608 -8.724141947979817 0.0 0.0
-74.87140307288539 -9.913426508659771 -25.435448874463546 -10.12178814878538 0.0 0.0
-212.00553424639872 -3.5360712139440302 -64.6624816381028 -11.275797651850684 0.0 0.0
-412.75089892537704 -28.80112967328486 -135.4949950919153 -7.183759801216207 0.0 0.0
-612.0751661172582 -83.33063584579 -252.92010657825682 0.6831051547109048 0.0 0.0
-759.3465782317376 -137.65002336474086 -395.0257836955276 1.4477102221012288 0.0 0.0
-891.8546570541712 -200.15829726821505 -522.3526383051502 0.4296513380522313 0.0 0.0
-1032.365132222537 -278.0207957062198 -641.4597900773687 -1.131769809112928 0.0 0.0
-1181.4515016623561 -370.4239005300062 -764.4153081661904 -2.9067231215098133 0.0 0.0
-1348.0276248237158 -485.0127621683031 -905.2844750270967 -4.806838227943066 0.0 0.0
-1538.2426896405104 -627.6634498684875 -1071.4370803460117 -6.563444022027095 0.0 0.0
-1752.2260797601466 -798.7956345306748 -1263.5733552922866 -7.917515991250687 0.0 0.0
-1983.2442753098996 -990.3810970456343 -1474.4628427108237 -8.815105795188513 0.0 0.0
-2219.91973589825 -1190.878263250433 -1692.7338954763532 -9.505728152294148 0.0 0.0
-2444.7473343398306 -1382.713270582 -1900.8633187451737 -9.777152487276677 0.0 0.0
-2634.017991747127 -1542.4237939512093 -2075.2857475190613 -9.326526088513965 0.0 0.0
-2761.021238965708 -1643.9571059181662 -2189.540034862499 -7.8331650178105825 0.0 0.0
-2817.791498971774 -1680.1150443503611 -2235.5791922402395 -6.618924373885857 0.0 0.0
-2890.270655002418 -1738.2385731890186 -2299.4316533802053 -13.890593935028637 0.0 0.0
-2994.792299066782 -1841.421167852899 -2400.9894372791723 -40.68819426114298 0.0 0.0
-6561.031475994116 -5433.357084809339 -5973.50614080739 2.1856294551980682e-11 0.0 0.0
-2994.792299064761 -1841.42116785089 -2400.9894372774756 40.68819426118084 0.0 0.0
-2890.2706550047114 -1738.23857319142 -2299.4316533816764 13.890593935107376 0.0 0.0
-2817.79149897065 -1680.1150443493138 -2235.5791922392673 6.618924373781191 0.0 0.0
-2761.021238964829 -1643.9571059174314 -2189.540034861706 7.83316501794544 0.0 0.0
-2634.01799174771 -1542.4237939519776 -2075.2857475191017 9.326526088496323 0.0 0.0
-2444.7473343372408 -1382.713270579537 -1900.8633187431406 9.777152487086617 0.0 0.0
-2219.919735897849 -1190.8782632502412 -1692.733895475938 9.50572815216702 0.0 0.0
-1983.2442753081718 -990.3810970441515 -1474.462842709416 8.815105795149165 0.0 0.0
-1752.2260797576005 -798.7956345283437 -1263.5733552904314 7.917515991369591 0.0 0.0
-1538.242689639425 -627.6634498676777 -1071.4370803450274 6.5634440221308346 0.0 0.0
-1348.027624823278 -485.0127621681564 -905.2844750265365 4.806838228106766 0.0 0.0
-1181.4515016617552 -370.42390052972667 -764.4153081656108 2.9067231213311224 0.0 0.0
-1032.3651322220967 -278.02079570610965 -641.4597900769285 1.131769809175406 0.0 0.0
-891.8546570532271 -200.15829726760876 -522.3526383043413 -0.42965133795510013 0.0 0.0
-759.3465782309427 -137.65002336423828 -395.0257836947897 -1.4477102220173919 0.0 0.0
-612.0751661161146 -83.33063584483068 -252.9201065773958 -0.6831051548354736 0.0 0.0
-412.7508989249293 -28.80112967318096 -135.4949950917255 7.183759801090126 0.0 0.0
-212.00553424614728 -3.5360712136505406 -64.66248163793932 11.275797651679355 0.0 0.0
-74.87140307291793 -9.9134265087181 -25.43544887449081 10.121788148829673 0.0 0.0
-22.354479881549906 -5.899433207004543 -8.476173926566332 8.724141947690454 0.0 0.0
SCALARS Strain float 6
LOOKUP_TABLE default
0.015349457985416001 -0.025330814487614157 0.0 -0.0016272287019430116 0.0 0.0
0.009442919746611895 -0.002978715503610576 0.0 -0.007641736554064034 0.0 0.0
0.002772678348256773 -0.0006344147007977756 0.0 -0.000954093207702846 0.0 0.0
0.0023342681322833366 -0.0009261054622742833 0.0 2.543146582325985e-05 0.0 0.0
0.0035645753589195334 -0.0016006047013371995 0.0 0.00023189164072332088 0.0 0.0
0.006264978243445414 -0.0036707153585090148 0.0 0.0004115409385577022 0.0 0.0
0.010959296893310932 -0.0077256030249602155 0.0 0.0005410696763129894 0.0 0.0
0.01806026118973024 -0.014158516745360564 0.0 0.0005822432108418356 0.0 0.0
0.02788352867454226 -0.023250791372569225 0.0 0.0005294112887435755 0.0 0.0
0.040533781052153696 -0.03505086191460031 0.0 0.00034680136194492156 0.0 0.0
0.05589966625251168 -0.04941186909162895 0.0 6.620564526634292e-05 0.0 0.0
0.07374058792574728 -0.06609239066489782 0.0 -0.00029670703715576577 0.0 0.0
0.09376252395322465 -0.08483654334433792 0.0 -0.0007520149744486088 0.0 0.0
0.11564936532221629 -0.10537502876533594 0.0 -0.001254637869316147 0.0 0.0
0.1389877940039522 -0.12735401860783296 0.0 -0.001824666293566122 0.0 0.0
0.16312423363910766 -0.15018850286137897 0.0 -0.002428895762871871 0.0 0.0
0.18707561479996487 -0.17296645991972945 0.0 -0.0029415673136087093 0.0 0.0
0.20953662754835795 -0.19445194502540591 0.0 -0.003171230311173311 0.0 0.0
0.22900500756038872 -0.2131480704918136 0.0 -0.002980354995393503 0.0 0.0
0.24360963089866217 -0.22727139876400576 0.0 -0.0036098997002433934 0.0 0.0
0.24942247772106557 -0.2331380036672021 0.0 3.361894096443052e-15 0.0 0.0
0.2436096308986302 -0.22727139876396663 0.0 0.0036098997002505986 0.0 0.0
0.22900500756031905 -0.213148070491738 0.0 0.0029803549953992658 0.0 0.0
0.2095366275482577 -0.19445194502530355 0.0 0.003171230311176252 0.0 0.0
0.18707561479984905 -0.1729664599196263 0.0 0.0029415673136086087 0.0 0.0
0.16312423363898565 -0.1501885028612591 0.0 0.0024288957628672263 0.0 0.0
0.13898779400382932 -0.1273540186077255 0.0 0.0018246662935652528 0.0 0.0
0.11564936532209397 -0.10537502876522009 0.0 0.0012546378693158644 0.0 0.0
0.09376252395310664 -0.0848365433442228 0.0 0.0007520149744454233 0.0 0.0
0.07374058792563852 -0.06609239066478931 0.0 0.0002967070371527108 0.0 0.0
0.05589966625241771 -0.049411869091540744 0.0 -6.62056452733796e-05 0.0 0.0
0.040533781052077555 -0.03505086191453163 0.0 -0.000346801361946866 0.0 0.0
0.027883528674484417 -0.02325079137251864 0.0 -0.0005294112887426399 0.0 0.0
0.018060261189689238 -0.014158516745321648 0.0 -0.0005822432108446003 0.0 0.0
0.01095929689328417 -0.007725603024933509 0.0 -0.0005410696763120732 0.0 0.0
0.006264978243431286 -0.00367071535849521 0.0 -0.00041154093855591697 0.0 0.0
0.0035645753589137515 -0.001600604701332894 0.0 -0.0002318916407223133 0.0 0.0
0.0023342681322818136 -0.000926105462272951 0.0 -2.5431465823021372e-05 0.0 0.0
0.0027726783482547083 -0.000634414700797573 0.0 0.0009540932077003877 0.0 0.0
0.009442919746606139 -0.002978715503605704 0.0 0.0076417365540575165 0.0 0.0
0.015349457985408259 -0.02533081448758877 0.0 0.0016272287018939957 0.0 0.0
0.010820684659755272 -0.0227659629215619 0.0 -0.001161114395235885 0.0 0.0
0.006323570032069958 -0.0022355454485877293 0.0 -0.006303896755056131 0.0 0.0
0.0017999901855578586 -0.00047456463723378117 0.0 -0.00059928989710828 0.0 0.0
0.0020460994186201845 -0.0008690533803123494 0.0 -0.00018539469984121622 0.0 0.0
0.003050226571461709 -0.0014314990014637433 0.0 -0.0001462924953736034 0.0 0.0
0.005350285726545518 -0.0032875796179913665 0.0 -0.00025036995345731393 0.0 0.0
0.009528914896334447 -0.007068518050119819 0.0 -0.0006059188051146569 0.0 0.0
0.015971679934857083 -0.013164673437083033 0.0 -0.001179276281876373 0.0 0.0
0.024931504723551583 -0.0218226700084623 0.0 -0.001991711190300531 0.0 0.0
0.03644162558163524 -0.03305442777774976 0.0 -0.0030103955710001013 0.0 0.0
0.050355934822671054 -0.04669514425179723 0.0 -0.004137125781511749 0.0 0.0
0.06645078784831226 -0.06250894068973097 0.0 -0.0052907393409218585 0.0 0.0
0.08449828746600713 -0.08026868616421469 0.0 -0.006468503733787963 0.0 0.0
0.10424233601516736 -0.09973938662579993 0.0 -0.007669822644884035 0.0 0.0
0.1253226413934638 -0.12059159163921448 0.0 -0.008852530637450853 0.0 0.0
0.14717346839995996 -0.14228561587714453 0.0 -0.009899591342068376 0.0 0.0
0.16893764285335106 -0.16397936796612397 0.0 -0.010543938649218173 0.0 0.0
0.18945464541745816 -0.1845084186082994 0.0 -0.010442269019268468 0.0 0.0
0.20721215000983384 -0.20239536870238609 0.0 -0.009470612888920746 0.0 0.0
0.2199545286290444 -0.21565307390456168 0.0 -0.008584765188880409 0.0 0.0
0.22472278350311284 -0.22121015938668517 0.0 1.0198439315267649e-14 0.0 0.0
0.21995452862901402 -0.21565307390453664 0.0 0.008584765188906836 0.0 0.0
0.20721215000977136 -0.2023953687023208 0.0 0.009470612888945226 0.0 0.0
0.18945464541737117 -0.18450841860820832 0.0 0.010442269019283405 0.0 0.0
0.1689376428532496 -0.16397936796602547 0.0 0.010543938649220815 0.0 0.0
0.14717346839985043 -0.14228561587702834 0.0 0.009899591342062444 0.0 0.0
0.12532264139335314 -0.12059159163911212 0.0 0.00885253063744982 0.0 0.0
0.10424233601505743 -0.09973938662569092 0.0 0.00766982264487887 0.0 0.0
0.08449828746590113 -0.08026868616410628 0.0 0.006468503733779921 0.0 0.0
0.06645078784821468 -0.06250894068963278 0.0 0.005290739340914105 0.0 0.0
0.05035593482258631 -0.04669514425171153 0.0 0.004137125781499395 0.0 0.0
0.03644162558156651 -0.033054427777684615 0.0 0.00301039557099208 0.0 0.0
0.024931504723499046 -0.021822670008409466 0.0 0.0019917111902983797 0.0 0.0
0.015971679934820095 -0.01316467343704864 0.0 0.001179276281871066 0.0 0.0
0.009528914896311035 -0.007068518050095926 0.0 0.0006059188051136452 0.0 0.0
0.005350285726533221 -0.0032875796179803888 0.0 0.00025036995345739026 0.0 0.0
0.003050226571457085 -0.0014314990014591617 0.0 0.00014629249537431366 0.0 0.0
0.0020460994186194377 -0.0008690533803127408 0.0 0.00018539469984245463 0.0 0.0
0.0017999901855578967 -0.0004745646372338423 0.0 0.0005992898971071454 0.0 0.0
0.0063235700320626856 -0.002235545448583562 0.0 0.006303896755044841 0.0 0.0
0.010820684659740606 -0.022765962921535023 0.0 0.0011611143951976502 0.0 0.0
0.007978261466569273 -0.018238952354883646 0.0 -0.004319726398059396 0.0 0.0
0.004509254691208311 -0.0012554488285093357 0.0 -0.006436093474696841 0.0 0.0
0.0012420914625456833 -0.00024274726822845564 0.0 -0.0005285210192199915 0.0 0.0
0.001724596966333236 -0.0007305902722410853 0.0 -0.0004787630295524759 0.0 0.0
0.0025843193625125042 -0.0011373700687195563 0.0 -0.0005015955892438327 0.0 0.0
0.0044853668573946424 -0.0025652166571126208 0.0 -0.0007021476363791943 0.0 0.0
0.008117386687431805 -0.005776817965094888 0.0 -0.001382948099575722 0.0 0.0
0.013864707173779446 -0.011181372373329411 0.0 -0.00248746839006569 0.0 0.0
0.021912932955361977 -0.018946141917996626 0.0 -0.004032100563293951 0.0 0.0
0.03224607986109128 -0.029024732851857984 0.0 -0.005917638866538057 0.0 0.0
0.04469248194180161 -0.04121621799956497 0.0 -0.007964397715350848 0.0 0.0
0.059040233104928966 -0.055297091954018544 0.0 -0.010015400467958109 0.0 0.0
0.07510041289242694 -0.07108557705978573 0.0 -0.012041386287204948 0.0 0.0
0.09268030143684491 -0.08840818303789341 0.0 -0.014090287351978556 0.0 0.0
0.1114903287710803 -0.10699835212491339 0.0 -0.01611048926677273 0.0 0.0
0.13106188791500548 -0.12641110503423683 0.0 -0.017876786900185068 0.0 0.0
0.1506798716638935 -0.14594658796029714 0.0 -0.018966320012844193 0.0 0.0
0.16929306700878408 -0.1645777111487788 0.0 -0.018882488683193782 0.0 0.0
0.1853623458454963 -0.18084515482665228 0.0 -0.017395378444632438 0.0 0.0
0.19689638290347816 -0.19268417018584158 0.0 -0.014629367616248957 0.0 0.0
0.20126115120601984 -0.19795733427355217 0.0 1.7236212457305555e-14 0.0 0.0
0.19689638290345018 -0.1926841701858202 0.0 0.014629367616291475 0.0 0.0
0.18536234584544095 -0.1808451548265973 0.0 0.017395378444673947 0.0 0.0
0.16929306700870791 -0.16457771114869793 0.0 0.018882488683218394 0.0 0.0
0.15067987166380398 -0.1459465879602118 0.0 0.01896632001284504 0.0 0.0
0.1310618879149088 -0.12641110503413597 0.0 0.017876786900178233 0.0 0.0
0.11149032877098086 -0.10699835212482053 0.0 0.0161104892667673 0.0 0.0
0.09268030143674638 -0.08840818303779589 0.0 0.014090287351972479 0.0 0.0
0.07510041289233345 -0.07108557705969173 0.0 0.012041386287192757 0.0 0.0
0.05904023310484205 -0.05529709195393585 0.0 0.010015400467945003 0.0 0.0
0.04469248194172617 -0.041216217999489865 0.0 0.007964397715334954 0.0 0.0
0.03224607986102982 -0.02902473285179842 0.0 0.005917638866523578 0.0 0.0
0.02191293295531428 -0.018946141917950743 0.0 0.004032100563284774 0.0 0.0
0.013864707173746212 -0.011181372373297235 0.0 0.0024874683900582457 0.0 0.0
0.00811738668741178 -0.005776817965075045 0.0 0.001382948099572272 0.0 0.0
0.004485366857384833 -0.002565216657104337 0.0 0.0007021476363778876 0.0 0.0
0.0025843193625092573 -0.0011373700687175147 0.0 0.0005015955892438945 0.0 0.0
0.0017245969663325224 -0.0007305902722420359 0.0 0.0004787630295536087 0.0 0.0
0.001242091462545092 -0.00024274726822953366 0.0 0.0005285210192203506 0.0 0.0
0.004509254691201164 -0.0012554488285058995 0.0 0.006436093474679756 0.0 0.0
0.007978261466555368 -0.018238952354856754 0.0 0.004319726398034842 0.0 0.0
0.006058387978878078 -0.014730134222860545 0.0 -0.004762321307877473 0.0 0.0
0.0033452845039904926 -0.0009028169307986808 0.0 -0.005879301892886149 0.0 0.0
0.0008801752570091485 -0.00013416805609075665 0.0 -0.0008077082349737746 0.0 0.0
0.0014165607808034756 -0.0005751871152161 0.0 -0.0007792694039735373 0.0 0.0
0.0021616607694323014 -0.0009120548314982462 0.0 -0.0008357472073443601 0.0 0.0
0.003689428530103514 -0.001949890089779414 0.0 -0.001079693776443266 0.0 0.0
0.006748965952744248 -0.004550914469064945 0.0 -0.0019071650559446263 0.0 0.0
0.011760935188672132 -0.009217852814763677 0.0 -0.0034350414373140706 0.0 0.0
0.018861169807488573 -0.016048654591112373 0.0 -0.005530872206173948 0.0 0.0
0.027987839174160235 -0.024941901831803767 0.0 -0.00806734151090061 0.0 0.0
0.038948725391727154 -0.03566862836756266 0.0 -0.01079716389175627 0.0 0.0
0.051542491519413175 -0.04801237843574238 0.0 -0.01352605425437315 0.0 0.0
0.0656124107012696 -0.0618253560898271 0.0 -0.016215109376812056 0.0 0.0
0.08101140094316193 -0.07698442785740797 0.0 -0.01890074196913788 0.0 0.0
0.09753083018706818 -0.0932939340723729 0.0 -0.02153069918914185 0.0 0.0
0.11481699133264595 -0.11041516631892304 0.0 -0.023859509632382845 0.0 0.0
0.13228512117703134 -0.12779186440116208 0.0 -0.025398055040597424 0.0 0.0
0.14900072925347663 -0.1445309213829156 0.0 -0.025542958856052473 0.0 0.0
0.16357430689448 -0.15926066191213759 0.0 -0.023681294156325722 0.0 0.0
0.17430153899610396 -0.17018554659072183 0.0 -0.018876568016570783 0.0 0.0
0.1784812801896774 -0.17563340412293704 0.0 2.3396215520499197e-14 0.0 0.0
0.1743015389960788 -0.17018554659069357 0.0 0.018876568016626127 0.0 0.0
0.16357430689443117 -0.1592606619120914 0.0 0.023681294156386923 0.0 0.0
0.14900072925340951 -0.14453092138284945 0.0 0.02554295885608608 0.0 0.0
0.13228512117695346 -0.12779186440108553 0.0 0.02539805504060038 0.0 0.0
0.11481699133256149 -0.11041516631884044 0.0 0.023859509632376073 0.0 0.0
0.09753083018698093 -0.09329393407228585 0.0 0.021530699189133626 0.0 0.0
0.08101140094307564 -0.07698442785732575 0.0 0.01890074196912818 0.0 0.0
0.06561241070118759 -0.06182535608974596 0.0 0.016215109376795333 0.0 0.0
0.05154249151933791 -0.048012378435671986 0.0 0.013526054254353694 0.0 0.0
0.038948725391661415 -0.0356686283675009 0.0 0.010797163891735281 0.0 0.0
0.027987839174106254 -0.0249419018317498 0.0 0.008067341510881641 0.0 0.0
0.01886116980744681 -0.016048654591070806 0.0 0.005530872206161461 0.0 0.0
0.011760935188643313 -0.009217852814737543 0.0 0.00343504143730565 0.0 0.0
0.006748965952727382 -0.004550914469048636 0.0 0.0019071650559389771 0.0 0.0
0.0036894285300959903 -0.0019498900897717939 0.0 0.001079693776440709 0.0 0.0
0.002161660769430183 -0.0009120548314996925 0.0 0.0008357472073434098 0.0 0.0
0.0014165607808031054 -0.0005751871152157191 0.0 0.0007792694039739337 0.0 0.0
0.0008801752570091319 -0.00013416805609134443 0.0 0.0008077082349719422 0.0 0.0
0.0033452845039842593 -0.0009028169307952484 0.0 0.005879301892872922 0.0 0.0
0.006058387978865463 -0.014730134222836469 0.0 0.004762321307859457 0.0 0.0
0.0046163160808901 -0.011899650959265401 0.0 -0.004223380827651458 0.0 0.0
0.0025139210605288967 -0.000712623949371772 0.0 -0.005239835851837831 0.0 0.0
0.0006375639282056622 -8.444721218068093e-05 0.0 -0.0012072593425478517 0.0 0.0
0.001142134515678005 -0.00043652843306665897 0.0 -0.0011062718587657612 0.0 0.0
0.0017792526548847864 -0.00073117937383473 0.0 -0.0011648126569964387 0.0 0.0
0.0029766531698381324 -0.0014563839203994774 0.0 -0.0014025722256985967 0.0 0.0
0.005451983401972752 -0.0034388601660614434 0.0 -0.002253263457610492 0.0 0.0
0.009686374764212205 -0.007302744203553641 0.0 -0.00398478442842221 0.0 0.0
0.015810839048107525 -0.013166349420811251 0.0 -0.006478686954927027 0.0 0.0
0.023704971810412874 -0.020847736219174587 0.0 -0.009455150179274334 0.0 0.0
0.03316566057386987 -0.03009462371339819 0.0 -0.012643237481055796 0.0 0.0
0.04399565714977366 -0.040693577246147444 0.0 -0.015826603577336847 0.0 0.0
0.05606711422923559 -0.05252598713625579 0.0 -0.018967979060925656 0.0 0.0
0.06928408625633503 -0.06551577837308753 0.0 -0.022096783793027878 0.0 0.0
0.08350033009483393 -0.07953300679572882 0.0 -0.025133866737000594 0.0 0.0
0.09846578548836979 -0.09433688837309956 0.0 -0.027834778398978872 0.0 0.0
0.11374583133064001 -0.10951274751881007 0.0 -0.02976807725960199 0.0 0.0
0.1285816060578611 -0.12434050111245012 0.0 -0.030260340020055135 0.0 0.0
0.14181025666916253 -0.13767458597247925 0.0 -0.028206773298378302 0.0 0.0
0.151979151535331 -0.14799351678125772 0.0 -0.022074443984560908 0.0 0.0
0.15610670367396023 -0.15382917537205318 0.0 2.6933316688015907e-14 0.0 0.0
0.1519791515353089 -0.1479935167812353 0.0 0.022074443984625908 0.0 0.0
0.14181025666911914 -0.13767458597244472 0.0 0.028206773298444537 0.0 0.0
0.12858160605780253 -0.12434050111238737 0.0 0.030260340020092362 0.0 0.0
0.11374583133057328 -0.10951274751874834 0.0 0.02976807725960791 0.0 0.0
0.09846578548829657 -0.09433688837302605 0.0 0.027834778398966316 0.0 0.0
0.08350033009475827 -0.07953300679565574 0.0 0.025133866736989124 0.0 0.0
0.06928408625626109 -0.06551577837301419 0.0 0.02209678379301516 0.0 0.0
0.05606711422916576 -0.052525987136189105 0.0 0.018967979060909065 0.0 0.0
0.04399565714970967 -0.04069357724608532 0.0 0.015826603577314857 0.0 0.0
0.03316566057381357 -0.030094623713346674 0.0 0.012643237481030191 0.0 0.0
0.023704971810366484 -0.02084773621912577 0.0 0.009455150179250726 0.0 0.0
0.015810839048071686 -0.013166349420772886 0.0 0.006478686954911877 0.0 0.0
0.009686374764187253 -0.007302744203534826 0.0 0.003984784428410372 0.0 0.0
0.00545198340195885 -0.003438860166050008 0.0 0.0022532634576048695 0.0 0.0
0.002976653169832606 -0.0014563839203958354 0.0 0.0014025722256967887 0.0 0.0
0.0017792526548834724 -0.0007311793738365121 0.0 0.0011648126569958968 0.0 0.0
0.0011421345156775796 -0.0004365284330662596 0.0 0.001106271858764815 0.0 0.0
0.0006375639282053319 -8.44472121798388e-05 0.0 0.0012072593425460248 0.0 0.0
0.0025139210605231855 -0.0007126239493686012 0.0 0.005239835851827044 0.0 0.0
0.004616316080878467 -0.011899650959244019 0.0 0.004223380827639175 0.0 0.0
0.0034783808763958254 -0.009532822980650349 0.0 -0.003489026051755004 0.0 0.0
0.0018811658005108871 -0.0005801292103752239 0.0 -0.004617061097912183 0.0 0.0
0.00046528452432831996 -7.002238178062709e-05 0.0 -0.0015914675086065575 0.0 0.0
0.000897298256264639 -0.0003148321836392614 0.0 -0.0014343178374122648 0.0 0.0
0.0014336768312613129 -0.0005821381558625792 0.0 -0.0014923377841900237 0.0 0.0
0.0023451254954926187 -0.001073009034449357 0.0 -0.0016869619824203279 0.0 0.0
0.004260974177174954 -0.0024830263515401396 0.0 -0.0024955304937110756 0.0 0.0
0.00768462807734077 -0.005496919812170567 0.0 -0.004201327303146443 0.0 0.0
0.012788425676230801 -0.010335835588317655 0.0 -0.006851619240566725 0.0 0.0
0.01943514114734837 -0.016783350785565795 0.0 -0.010073407201417056 0.0 0.0
0.027381640133236212 -0.02453652773626443 0.0 -0.013498056499706701 0.0 0.0
0.03644110523961865 -0.033384060469183185 0.0 -0.016916639656944923 0.0 0.0
0.04650970124488191 -0.043231350895329854 0.0 -0.02028852037214558 0.0 0.0
0.05753493776201961 -0.054047193233855935 0.0 -0.023644375517826714 0.0 0.0
0.06944047973787684 -0.06576495972404388 0.0 -0.026902440854051274 0.0 0.0
0.0820587328588549 -0.07822501652679757 0.0 -0.029810594877078593 0.0 0.0
0.09508831374008068 -0.0911364519960608 0.0 -0.032005563358967364 0.0 0.0
0.10801558307173635 -0.10400671057096814 0.0 -0.03285517604243055 0.0 0.0
0.11997615406500378 -0.116014216593776 0.0 -0.030997264321584374 0.0 0.0
0.1297479840011135 -0.1259115483166608 0.0 -0.02438911747986445 0.0 0.0
0.13391572228405071 -0.1323038405299874 0.0 3.0160769715070757e-14 0.0 0.0
0.12974798400109433 -0.1259115483166416 0.0 0.02438911747993317 0.0 0.0
0.11997615406496581 -0.1160142165937435 0.0 0.03099726432164783 0.0 0.0
0.10801558307168659 -0.1040067105709149 0.0 0.032855176042468785 0.0 0.0
0.09508831374002412 -0.09113645199600724 0.0 0.03200556335897663 0.0 0.0
0.08205873285879325 -0.07822501652673487 0.0 0.02981059487706845 0.0 0.0
0.06944047973781377 -0.06576495972398558 0.0 0.02690244085403974 0.0 0.0
0.05753493776195821 -0.05404719323379382 0.0 0.02364437551781536 0.0 0.0
0.04650970124482382 -0.0432313508952774 0.0 0.020288520372130445 0.0 0.0
0.0364411052395651 -0.033384060469127445 0.0 0.016916639656923645 0.0 0.0
0.027381640133189434 -0.024536527736222745 0.0 0.01349805649968083 0.0 0.0
0.01943514114730986 -0.016783350785527902 0.0 0.01007340720139289 0.0 0.0
0.012788425676201415 -0.01033583558829546 0.0 0.0068516192405497466 0.0 0.0
0.007684628077321013 -0.005496919812150101 0.0 0.004201327303135339 0.0 0.0
0.004260974177164304 -0.002483026351531553 0.0 0.0024955304937054716 0.0 0.0
0.0023451254954882186 -0.0010730090344469878 0.0 0.0016869619824170308 0.0 0.0
0.0014336768312599006 -0.0005821381558621677 0.0 0.001492337784188331 0.0 0.0
0.0008972982562643756 -0.0003148321836382012 0.0 0.0014343178374085566 0.0 0.0
0.0004652845243281079 -7.002238178103619e-05 0.0 0.001591467508605195 0.0 0.0
0.0018811658005065722 -0.0005801292103730328 0.0 0.00461706109790224 0.0 0.0
0.003478380876387495 -0.009532822980632525 0.0 0.0034890260517474116 0.0 0.0
0.0025686997487242656 -0.0075289450075389786 0.0 -0.0028121985884007384 0.0 0.0
0.0013854462038781642 -0.00047652532865310505 0.0 -0.004052018121362355 0.0 0.0
0.0003325850810586763 -6.98548108256975e-05 0.0 -0.0019090244675756393 0.0 0.0
0.0006724611769470068 -0.0002070647270913927 0.0 -0.0017364652506986166 0.0 0.0
0.0011149402935333925 -0.00044771302107387927 0.0 -0.0017992574422051738 0.0 0.0
0.0017866523167907214 -0.0007819789397492098 0.0 -0.0019647612730655218 0.0 0.0
0.003185563730457388 -0.0016986322672089026 0.0 -0.002635818725249889 0.0 0.0
0.005806111438767112 -0.003871823211149491 0.0 -0.00419506417823013 0.0 0.0
0.009848849249547197 -0.007622145043808492 0.0 -0.006697965305329017 0.0 0.0
0.015212630429554244 -0.01279374763434834 0.0 -0.009898755515658502 0.0 0.0
0.021636652348565502 -0.01903882735041631 0.0 -0.013345249884203152 0.0 0.0
0.028918974104020473 -0.02612912316094147 0.0 -0.016784715626637418 0.0 0.0
0.036981532044303725 -0.033990965121906636 0.0 -0.020165056799006344 0.0 0.0
0.04581322021299887 -0.04262931317176785 0.0 -0.02352655626876492 0.0 0.0
0.05539426356106206 -0.052037218766179574 0.0 -0.026800693201625092 0.0 0.0
0.06563464781957684 -0.062131429368371155 0.0 -0.029753295262302276 0.0 0.0
0.0763578891201276 -0.0727188731944754 0.0 -0.032042544266662365 0.0 0.0
0.08729611732830865 -0.08353849609218215 0.0 -0.03320657692287649 0.0 0.0
0.09795763135771869 -0.09417584780140413 0.0 -0.031944062433427886 0.0 0.0
0.10741259922919721 -0.10373440571152175 0.0 -0.025807577422538645 0.0 0.0
0.11168920719860168 -0.11083979604858535 0.0 2.967678186527323e-14 0.0 0.0
0.10741259922918099 -0.10373440571151026 0.0 0.025807577422606878 0.0 0.0
0.09795763135768748 -0.09417584780136826 0.0 0.03194406243349363 0.0 0.0
0.08729611732826814 -0.08353849609214192 0.0 0.03320657692291744 0.0 0.0
0.07635788912008162 -0.07271887319442966 0.0 0.03204254426666981 0.0 0.0
0.0656346478195263 -0.062131429368320196 0.0 0.02975329526229241 0.0 0.0
0.05539426356101112 -0.052037218766129205 0.0 0.026800693201611374 0.0 0.0
0.04581322021295089 -0.042629313171718836 0.0 0.02352655626875328 0.0 0.0
0.03698153204425797 -0.033990965121866 0.0 0.020165056798991804 0.0 0.0
0.028918974103977632 -0.026129123160899412 0.0 0.01678471562661535 0.0 0.0
0.02163665234852841 -0.019038827350382034 0.0 0.013345249884176794 0.0 0.0
0.015212630429523796 -0.012793747634320219 0.0 0.009898755515634215 0.0 0.0
0.009848849249524502 -0.007622145043790838 0.0 0.006697965305313895 0.0 0.0
0.005806111438752327 -0.0038718232111336383 0.0 0.004195064178221122 0.0 0.0
0.003185563730449532 -0.0016986322672029913 0.0 0.002635818725244652 0.0 0.0
0.001786652316787756 -0.0007819789397461308 0.0 0.0019647612730618186 0.0 0.0
0.0011149402935326143 -0.000447713021073246 0.0 0.001799257442202347 0.0 0.0
0.0006724611769467533 -0.00020706472708990187 0.0 0.0017364652506949513 0.0 0.0
0.0003325850810586308 -6.98548108268852e-05 0.0 0.001909024467572479 0.0 0.0
0.001385446203875075 -0.00047652532865152163 0.0 0.004052018121354956 0.0 0.0
0.0025686997487180353 -0.0075289450075247556 0.0 0.0028121985883947528 0.0 0.0
0.0018420148872358932 -0.005838552123926774 0.0 -0.0022791539809294023 0.0 0.0
0.000991315913075097 -0.0003965968315194822 0.0 -0.0035432681512830005 0.0 0.0
0.0002193232843549307 -6.797182780285166e-05 0.0 -0.0021492965206646956 0.0 0.0
0.0004588329340270589 -0.00011055638500428764 0.0 -0.001994652654283798 0.0 0.0
0.000809492255581479 -0.0003127815518299375 0.0 -0.0020626713805362335 0.0 0.0
0.0012929032107061719 -0.0005556656499998054 0.0 -0.0022421678750540494 0.0 0.0
0.0022329547910640317 -0.0010908367698350613 0.0 -0.002725670958113161 0.0 0.0
0.004078047707548128 -0.002479379416096302 0.0 -0.003986678071804465 0.0 0.0
0.0070540928302770395 -0.005116346049423218 0.0 -0.006126043304839208 0.0 0.0
0.011093902026739056 -0.008952009048143816 0.0 -0.008971699283315206 0.0 0.0
0.015966811384711267 -0.013655369859625578 0.0 -0.01216690310140745 0.0 0.0
0.02146985406865691 -0.0189815599096404 0.0 -0.015396546706215583 0.0 0.0
0.027529000786237694 -0.024860558531483397 0.0 -0.018570101024862215 0.0 0.0
0.03416070555725809 -0.031320370065974594 0.0 -0.02171479670955535 0.0 0.0
0.04140531090699604 -0.038405643742222814 0.0 -0.02480158342000639 0.0 0.0
0.04924880617140595 -0.046111977726985054 0.0 -0.02762824359854888 0.0 0.0
0.05760371831361118 -0.05433539452406705 0.0 -0.029849369755292197 0.0 0.0
0.06642242783934463 -0.0629768253027601 0.0 -0.031151842240304158 0.0 0.0
0.07564451831039332 -0.0720609037238012 0.0 -0.030773572914494077 0.0 0.0
0.08475969893077819 -0.08123226290618853 0.0 -0.026168050063497685 0.0 0.0
0.08918052810538545 -0.08920479063025612 0.0 2.50190493322755e-14 0.0 0.0
0.08475969893076563 -0.08123226290618149 0.0 0.02616805006356239 0.0 0.0
0.0756445183103693 -0.07206090372377821 0.0 0.030773572914558546 0.0 0.0
0.06642242783931274 -0.06297682530272103 0.0 0.03115184224034033 0.0 0.0
0.05760371831357594 -0.05433539452404543 0.0 0.02984936975529362 0.0 0.0
0.04924880617136788 -0.046111977726942734 0.0 0.027628243598535843 0.0 0.0
0.041405310906957336 -0.03840564374218643 0.0 0.024801583419990163 0.0 0.0
0.03416070555722285 -0.03132037006593923 0.0 0.02171479670954263 0.0 0.0
0.027529000786204603 -0.024860558531447446 0.0 0.018570101024848604 0.0 0.0
0.021469854068625185 -0.01898155990961085 0.0 0.015396546706196657 0.0 0.0
0.015966811384683477 -0.013655369859598183 0.0 0.012166903101382576 0.0 0.0
0.011093902026716757 -0.008952009048117587 0.0 0.008971699283291496 0.0 0.0
0.007054092830260693 -0.0051163460494081615 0.0 0.0061260433048250995 0.0 0.0
0.004078047707537622 -0.002479379416087187 0.0 0.003986678071796028 0.0 0.0
0.0022329547910589216 -0.0010908367698333017 0.0 0.002725670958108951 0.0 0.0
0.0012929032107045094 -0.000555665649997249 0.0 0.0022421678750523025 0.0 0.0
0.000809492255581025 -0.00031278155183069327 0.0 0.002062671380534137 0.0 0.0
0.0004588329340270517 -0.00011055638500256785 0.0 0.001994652654282856 0.0 0.0
0.00021932328435509654 -6.79718278034652e-05 0.0 0.00214929652066178 0.0 0.0
0.0009913159130727242 -0.00039659683151841547 0.0 0.0035432681512755013 0.0 0.0
0.001842014887230992 -0.005838552123915563 0.0 0.002279153980924224 0.0 0.0
0.0012837624995926675 -0.0044498990549956055 0.0 -0.0019192691875811424 0.0 0.0
0.0006797572487696619 -0.0003419252664168908 0.0 -0.003090146024414295 0.0 0.0
0.00010888356847156024 -5.270230295052869e-05 0.0 -0.002315985455922512 0.0 0.0
0.000252435118032653 -2.2741437946738432e-05 0.0 -0.002198794414117872 0.0 0.0
0.0005064764779844646 -0.00017304929892223315 0.0 -0.002268137756639365 0.0 0.0
0.0008388828754008517 -0.00035664597241799254 0.0 -0.0024930093352260934 0.0 0.0
0.001403644935590284 -0.0006460612315308123 0.0 -0.002845696135818337 0.0 0.0
0.0025292822228420936 -0.0013723064233113914 0.0 -0.003656220462417206 0.0 0.0
0.004451947218302303 -0.002923560504519973 0.0 -0.005212737786914517 0.0 0.0
0.007147524108300767 -0.005375097015053687 0.0 -0.007401139649655044 0.0 0.0
0.010433206347973274 -0.008482305495148444 0.0 -0.010008926414595703 0.0 0.0
0.01413690845077815 -0.012021457335327347 0.0 -0.012745019256375738 0.0 0.0
0.0181917035658062 -0.01591387062620171 0.0 -0.015499100477144943 0.0 0.0
0.02262558407796442 -0.020198801447773668 0.0 -0.018234016922819035 0.0 0.0
0.027516102693856157 -0.02494776607995285 0.0 -0.02092594704715575 0.0 0.0
0.03293640360114179 -0.03023414258731464 0.0 -0.023478336014375628 0.0 0.0
0.03889865005167917 -0.03606942105889249 0.0 -0.025583025572485926 0.0 0.0
0.04545180573057974 -0.0424431123712112 0.0 -0.026844743121201 0.0 0.0
0.0529348753023502 -0.049649630263231534 0.0 -0.027101701534119022 0.0 0.0
0.06152787972007992 -0.058135512984191146 0.0 -0.025013501652909085 0.0 0.0
0.06607818348415875 -0.06710117657236032 0.0 2.194945614153454e-14 0.0 0.0
0.06152787972007198 -0.05813551298417004 0.0 0.025013501652967465 0.0 0.0
0.05293487530233321 -0.04964963026322145 0.0 0.027101701534178603 0.0 0.0
0.045451805730556835 -0.042443112371183936 0.0 0.02684474312123187 0.0 0.0
0.03889865005165423 -0.03606942105887419 0.0 0.025583025572486897 0.0 0.0
0.032936403601115924 -0.030234142587290104 0.0 0.02347833601435996 0.0 0.0
0.02751610269383085 -0.024947766079929434 0.0 0.02092594704714173 0.0 0.0
0.02262558407794267 -0.020198801447755894 0.0 0.01823401692281004 0.0 0.0
0.018191703565785648 -0.015913870626179456 0.0 0.015499100477132922 0.0 0.0
0.014136908450757407 -0.012021457335305345 0.0 0.012745019256356961 0.0 0.0
0.010433206347954931 -0.00848230549512637 0.0 0.010008926414575034 0.0 0.0
0.00714752410828668 -0.005375097015042612 0.0 0.007401139649635414 0.0 0.0
0.0044519472182926595 -0.0029235605045074505 0.0 0.005212737786903461 0.0 0.0
0.0025292822228358447 -0.0013723064233060953 0.0 0.0036562204624103626 0.0 0.0
0.001403644935587194 -0.0006460612315294345 0.0 0.0028456961358150124 0.0 0.0
0.0008388828753998465 -0.00035664597241583156 0.0 0.002493009335223414 0.0 0.0
0.0005064764779841593 -0.00017304929892136682 0.0 0.002268137756637896 0.0 0.0
0.0002524351180323144 -2.274143794564706e-05 0.0 0.002198794414117002 0.0 0.0
0.00010888356847115366 -5.270230295106492e-05 0.0 0.002315985455921079 0.0 0.0
0.000679757248768146 -0.00034192526641673164 0.0 0.003090146024408125 0.0 0.0
0.001283762499589847 -0.004449899054987318 0.0 0.0019192691875777345 0.0 0.0
0.0008792865322265167 -0.0033427827724038395 0.0 -0.001687892972287885 0.0 0.0
0.0004388603119913118 -0.00031734601598947356 0.0 -0.002717586296973141 0.0 0.0
-6.7263944507571285e-06 -1.810750055661471e-05 0.0 -0.002417511805331711 0.0 0.0
5.058463723721143e-05 5.9074647051632066e-05 0.0 -0.0023444854708583656 0.0 0.0
0.0002021557985900931 -3.1821169266156815e-05 0.0 -0.0024144167588327457 0.0 0.0
0.00039784443320513497 -0.0001570275943132392 0.0 -0.002667818638471796 0.0 0.0
0.0006746742282954705 -0.00030182292038688545 0.0 -0.002999741293109169 0.0 0.0
0.0011795508116232076 -0.0005799753218431281 0.0 -0.0034228989962593066 0.0 0.0
0.0020915476800341874 -0.0012072822143967 0.0 -0.004184457770144582 0.0 0.0
0.0034377444707683357 -0.0022961859730640005 0.0 -0.0054573154314541865 0.0 0.0
0.005104138066103659 -0.0037492806991269428 0.0 -0.007216338503289445 0.0 0.0
0.006975339816685462 -0.005451552238511621 0.0 -0.009278332475108128 0.0 0.0
0.009007754605195513 -0.007339850737340916 0.0 -0.011482062359390593 0.0 0.0
0.01124197065469124 -0.009443673024762442 0.0 -0.01375819890827744 0.0 0.0
0.013764788649803766 -0.011839703858878082 0.0 -0.0160880961634449 0.0 0.0
0.016714650113556544 -0.014656835904817206 0.0 -0.018426939571184634 0.0 0.0
0.020253076426697013 -0.01805534583845373 0.0 -0.02055273726362128 0.0 0.0
0.024511895034964176 -0.022170527624044537 0.0 -0.021924308300201537 0.0 0.0
0.029884591654442252 -0.02725119555179551 0.0 -0.02213781884806382 0.0 0.0
0.037419858785398885 -0.034300116330870295 0.0 -0.02188214742680048 0.0 0.0
0.041905310178593815 -0.04412371039652943 0.0 1.9395075823158692e-14 0.0 0.0
0.03741985878539464 -0.034300116330842755 0.0 0.021882147426850698 0.0 0.0
0.029884591654432253 -0.02725119555178867 0.0 0.02213781884810992 0.0 0.0
0.024511895034951534 -0.022170527624033442 0.0 0.02192430830022124 0.0 0.0
0.020253076426683725 -0.018055345838433857 0.0 0.020552737263614215 0.0 0.0
0.016714650113544238 -0.014656835904810355 0.0 0.018426939571168668 0.0 0.0
0.013764788649793074 -0.01183970385887276 0.0 0.01608809616343477 0.0 0.0
0.01124197065468246 -0.009443673024752505 0.0 0.013758198908269025 0.0 0.0
0.009007754605187025 -0.007339850737335052 0.0 0.011482062359380391 0.0 0.0
0.006975339816676573 -0.0054515522384961865 0.0 0.009278332475095878 0.0 0.0
0.00510413806609609 -0.0037492806991190845 0.0 0.007216338503274432 0.0 0.0
0.003437744470762822 -0.0022961859730670237 0.0 0.005457315431444771 0.0 0.0
0.002091547680030615 -0.001207282214388614 0.0 0.004184457770140948 0.0 0.0
0.0011795508116208807 -0.0005799753218427334 0.0 0.003422898996255714 0.0 0.0
0.000674674228294324 -0.0003018229203820244 0.0 0.0029997412931080337 0.0 0.0
0.0003978444332046071 -0.00015702759431412237 0.0 0.00266781863846967 0.0 0.0
0.00020215579859004498 -3.182116926428539e-05 0.0 0.002414416758830587 0.0 0.0
5.0584637237216854e-05 5.9074647050589335e-05 0.0 0.0023444854708557657 0.0 0.0
-6.726394451306167e-06 -1.8107500556985694e-05 0.0 0.002417511805330816 0.0 0.0
0.00043886031199002096 -0.0003173460159894506 0.0 0.002717586296969834 0.0 0.0
0.0008792865322247604 -0.0033427827723981475 0.0 0.0016878929722860586 0.0 0.0
0.000593379526434418 -0.0024962039035844505 0.0 -0.0015527000515316051 0.0 0.0
0.0002527469546269462 -0.00031416241855243435 0.0 -0.0024484440362315383 0.0 0.0
-0.00012635012758582706 3.099861692499129e-05 0.0 -0.0024619526142804966 0.0 0.0
-0.00014765544160537882 0.00013777315966946338 0.0 -0.0024287273603569364 0.0 0.0
-9.890026573577967e-05 0.00010722582893608738 0.0 -0.0024964186983664717 0.0 0.0
-4.6858060387658745e-05 4.803848910526248e-05 0.0 -0.0027417354787928785 0.0 0.0
-1.8135940762484896e-05 1.2678186729146674e-05 0.0 -0.003089605153748139 0.0 0.0
-6.9373918573951835e-06 4.191205115205902e-06 0.0 -0.003372461962704528 0.0 0.0
-2.2257615113624994e-06 1.1871552554323445e-06 0.0 -0.003676420786996035 0.0 0.0
-1.1433906386536935e-07 2.406833542282225e-09 0.0 -0.004420877121513952 0.0 0.0
-2.2307990306634495e-06 1.0761760507033678e-06 0.0 -0.005707139687268109 0.0 0.0
-1.5102198615322125e-05 1.3907165165675259e-05 0.0 -0.007434090728102392 0.0 0.0
-3.838337497977305e-05 3.751568287679695e-05 0.0 -0.009363413656157941 0.0 0.0
-3.9565095104039964e-05 4.785931876239097e-05 0.0 -0.011430239609465577 0.0 0.0
7.960335349592885e-05 -4.003248434714655e-05 0.0 -0.013639198675304007 0.0 0.0
0.0005197974817561393 -0.00040668800599122086 0.0 -0.01596332586119655 0.0 0.0
0.0015996281005016438 -0.0013423248647929987 0.0 -0.018299234275099007 0.0 0.0
0.0036599889533586285 -0.003193140712157222 0.0 -0.020392174586196955 0.0 0.0
0.006918669990180907 -0.006054735415951325 0.0 -0.021937857022937008 0.0 0.0
0.01250344665604169 -0.010672390924135014 0.0 -0.023269405168216233 0.0 0.0
0.016142765162721163 -0.02104608718284798 0.0 1.3252419994724818e-14 0.0 0.0
0.0125034466560415 -0.010672390924126965 0.0 0.02326940516824516 0.0 0.0
0.006918669990177479 -0.006054735415951247 0.0 0.02193785702295694 0.0 0.0
0.003659988953356728 -0.0031931407121545572 0.0 0.02039217458620205 0.0 0.0
0.001599628100502759 -0.0013423248647939303 0.0 0.01829923427508686 0.0 0.0
0.0005197974817583737 -0.0004066880059937025 0.0 0.015963325861183254 0.0 0.0
7.960335349877596e-05 -4.0032484356587674e-05 0.0 0.013639198675291519 0.0 0.0
-3.95650950994887e-05 4.785931876297221e-05 0.0 0.011430239609458315 0.0 0.0
-3.838337497487755e-05 3.751568286939797e-05 0.0 0.00936341365614513 0.0 0.0
-1.5102198612040028e-05 1.3907165168655135e-05 0.0 0.007434090728090394 0.0 0.0
-2.230799028009431e-06 1.0761760454658582e-06 0.0 0.005707139687254811 0.0 0.0
-1.1433906141279562e-07 2.4068320095862713e-09 0.0 0.004420877121507704 0.0 0.0
-2.2257615096919064e-06 1.1871552562232497e-06 0.0 0.003676420786994747 0.0 0.0
-6.937391856735514e-06 4.191205115373533e-06 0.0 0.00337246196270319 0.0 0.0
-1.8135940762364076e-05 1.2678186731854771e-05 0.0 0.003089605153745647 0.0 0.0
-4.685806038731144e-05 4.803848910492941e-05 0.0 0.002741735478790281 0.0 0.0
-9.890026573558671e-05 0.00010722582893621472 0.0 0.0024964186983647226 0.0 0.0
-0.00014765544160566315 0.00013777315966913428 0.0 0.0024287273603547537 0.0 0.0
-0.00012635012758619566 3.0998616924882975e-05 0.0 0.0024619526142785025 0.0 0.0
0.0002527469546263028 -0.0003141624185523766 0.0 0.002448444036230433 0.0 0.0
0.0005933795264334946 -0.002496203903581127 0.0 0.0015527000515311742 0.0 0.0
0.00039489938340671115 -0.0018813842613351972 0.0 -0.001485554436233564 0.0 0.0
0.00011292394041760283 -0.0003085359534883118 0.0 -0.002256395490480813 0.0 0.0
-0.0002420354980772119 8.28390295922425e-05 0.0 -0.002454681880553232 0.0 0.0
-0.0003412094238696673 0.00021494510458472908 0.0 -0.002448910882877618 0.0 0.0
-0.00039386095258283125 0.0002413712575803016 0.0 -0.00250433764704344 0.0 0.0
-0.0004881935204613802 0.0002522307734667049 0.0 -0.002717644502742818 0.0 0.0
-0.0007107690772226523 0.0003284798839432977 0.0 -0.0030333461072258494 0.0 0.0
-0.0011930606471087881 0.0005894389189396163 0.0 -0.003445829685728978 0.0 0.0
-0.0020945877636808934 0.0012091016011860297 0.0 -0.00419357889459832 0.0 0.0
-0.003437098427461388 0.002295444644010594 0.0 -0.005457077096138872 0.0 0.0
-0.00511033303037788 0.003753564124134718 0.0 -0.007215295546229107 0.0 0.0
-0.007008402254319344 0.005481280322484861 0.0 -0.00928358764853228 0.0 0.0
-0.009083449186868695 0.0074149961881749705 0.0 -0.011478058266124488 0.0 0.0
-0.011312683729296774 0.009535260264360962 0.0 -0.013736354831949984 0.0 0.0
-0.01359068859380504 0.011747852793590448 0.0 -0.016083654370920332 0.0 0.0
-0.015676462160460987 0.013822974340665605 0.0 -0.01858125525395238 0.0 0.0
-0.017176912881400243 0.015373866191552104 0.0 -0.021264414712811108 0.0 0.0
-0.017640130904242744 0.015911998040147673 0.0 -0.024253382508047046 0.0 0.0
-0.016572661443374406 0.01512375746486043 0.0 -0.027495204251308497 0.0 0.0
-0.01196904178195484 0.011788114804067678 0.0 -0.029130155074308793 0.0 0.0
-0.008351020346143573 0.0006911284829305034 0.0 1.3168285906139943e-14 0.0 0.0
-0.011969041781955025 0.011788114804064203 0.0 0.02913015507433668 0.0 0.0
-0.016572661443369385 0.015123757464859552 0.0 0.027495204251332436 0.0 0.0
-0.017640130904229195 0.015911998040137054 0.0 0.02425338250805225 0.0 0.0
-0.017176912881383063 0.015373866191526812 0.0 0.021264414712798604 0.0 0.0
-0.015676462160444236 0.013822974340650468 0.0 0.018581255253937983 0.0 0.0
-0.013590688593788904 0.011747852793575412 0.0 0.016083654370904872 0.0 0.0
-0.011312683729279802 0.009535260264349326 0.0 0.013736354831940464 0.0 0.0
-0.00908344918685096 0.0074149961881515986 0.0 0.011478058266109037 0.0 0.0
-0.00700840225430306 0.005481280322471157 0.0 0.009283587648516566 0.0 0.0
-0.005110333030364284 0.0037535641241235934 0.0 0.00721529554621211 0.0 0.0
-0.0034370984274508815 0.002295444644001831 0.0 0.005457077096127782 0.0 0.0
-0.002094587763674373 0.0012091016011833483 0.0 0.004193578894592677 0.0 0.0
-0.0011930606471049535 0.0005894389189403368 0.0 0.0034458296857265433 0.0 0.0
-0.0007107690772208424 0.0003284798839404053 0.0 0.003033346107222776 0.0 0.0
-0.0004881935204607219 0.0002522307734680808 0.0 0.0027176445027398107 0.0 0.0
-0.00039386095258236314 0.00024137125758265485 0.0 0.002504337647041498 0.0 0.0
-0.00034120942386963306 0.00021494510458539928 0.0 0.002448910882874929 0.0 0.0
-0.00024203549807713204 8.283902959315518e-05 0.0 0.0024546818805513525 0.0 0.0
0.00011292394041756301 -0.00030853595348886585 0.0 0.0022563954904796756 0.0 0.0
0.0003948993834062521 -0.0018813842613328341 0.0 0.0014855544362331833 0.0 0.0
0.000262032744690343 -0.001418818470262019 0.0 -0.0013996375106345047 0.0 0.0
1.0368719656097663e-05 -0.0002868538072520043 0.0 -0.0020866906604276292 0.0 0.0
-0.0003498019214897039 0.0001302331270811464 0.0 -0.0023968407706960416 0.0 0.0
-0.0005270793139418136 0.0002896557910708143 0.0 -0.00240422325292695 0.0 0.0
-0.0006799536941302026 0.00036835584499849745 0.0 -0.002435718858807794 0.0 0.0
-0.000921387939313455 0.0004499036055582399 0.0 -0.0025943852119280288 0.0 0.0
-0.0014383840615863485 0.0006771031686658179 0.0 -0.0029136242766461236 0.0 0.0
-0.002539514739497668 0.0013810382792304571 0.0 -0.003690819419746397 0.0 0.0
-0.004451317738394618 0.0029223833950614577 0.0 -0.0052199687169564215 0.0 0.0
-0.007146342613339114 0.005374007019390964 0.0 -0.007399132762040388 0.0 0.0
-0.010441325728597208 0.008490181968356582 0.0 -0.010009952257308505 0.0 0.0
-0.014167625526161024 0.012050907732355624 0.0 -0.012737786154230386 0.0 0.0
-0.01825457127369995 0.015978295918627226 0.0 -0.015442749782853073 0.0 0.0
-0.02267407362596079 0.0202681709160304 0.0 -0.018107321647835642 0.0 0.0
-0.027324389413311938 0.024833539374129448 0.0 -0.020844458359486236 0.0 0.0
-0.031930094361719834 0.02941531284921587 0.0 -0.023866142268226642 0.0 0.0
-0.0360299510962753 0.0335436172869187 0.0 -0.02739205572823512 0.0 0.0
-0.038999954968263466 0.036585485514309964 0.0 -0.03152073082687734 0.0 0.0
-0.03968483485592042 0.037566714544538964 0.0 -0.03547207019654506 0.0 0.0
-0.035649093195434876 0.03421071553151312 0.0 -0.03655588928910001 0.0 0.0
-0.03204256830583006 0.021211894752480108 0.0 2.0929438737660178e-14 0.0 0.0
-0.035649093195430956 0.034210715531512365 0.0 0.036555889289152356 0.0 0.0
-0.03968483485590854 0.03756671454452766 0.0 0.03547207019659505 0.0 0.0
-0.038999954968239894 0.0365854855142775 0.0 0.03152073082689397 0.0 0.0
-0.03602995109624461 0.033543617286883855 0.0 0.027392055728226804 0.0 0.0
-0.03193009436168933 0.029415312849183313 0.0 0.023866142268208438 0.0 0.0
-0.027324389413282052 0.024833539374101606 0.0 0.020844458359469114 0.0 0.0
-0.02267407362593081 0.020268170916005197 0.0 0.018107321647820012 0.0 0.0
-0.018254571273670014 0.01597829591859551 0.0 0.015442749782835823 0.0 0.0
-0.014167625526132422 0.012050907732328336 0.0 0.012737786154205902 0.0 0.0
-0.010441325728572278 0.008490181968328856 0.0 0.010009952257282637 0.0 0.0
-0.0071463426133201325 0.0053740070193749 0.0 0.007399132762020692 0.0 0.0
-0.004451317738382134 0.0029223833950499704 0.0 0.0052199687169466585 0.0 0.0
-0.002539514739489785 0.0013810382792254858 0.0 0.0036908194197407054 0.0 0.0
-0.0014383840615825277 0.0006771031686613039 0.0 0.0029136242766410955 0.0 0.0
-0.000921387939312083 0.00044990360555811004 0.0 0.0025943852119263804 0.0 0.0
-0.0006799536941293683 0.0003683558449989119 0.0 0.0024357188588062934 0.0 0.0
-0.0005270793139416319 0.00028965579107069245 0.0 0.002404223252923535 0.0 0.0
-0.00034980192148984434 0.0001302331270824992 0.0 0.00239684077069494 0.0 0.0
1.0368719656006994e-05 -0.0002868538072531537 0.0 0.002086690660423891 0.0 0.0
0.00026203274468991915 -0.0014188184702598732 0.0 0.0013996375106345917 0.0 0.0
0.00016254181763709056 -0.0010388559843415638 0.0 -0.0012550478180936497 0.0 0.0
-7.111163313253e-05 -0.00024940977202488545 0.0 -0.0019079480948780755 0.0 0.0
-0.00044880122736352284 0.00017295372330243728 0.0 -0.002286903225942082 0.0 0.0
-0.0007037192741588119 0.0003598100861959543 0.0 -0.0022988300072286343 0.0 0.0
-0.0009547021887953947 0.0004860047502230376 0.0 -0.0022964053513945923 0.0 0.0
-0.0013641563695289676 0.0006472204131746246 0.0 -0.002390274115128306 0.0 0.0
-0.0022622338818974286 0.0011243986081213764 0.0 -0.0028153758077299365 0.0 0.0
-0.004081104156331167 0.0024808172457511496 0.0 -0.0040145453682700165 0.0 0.0
-0.007049687803624322 0.005111531944455808 0.0 -0.006125289072043024 0.0 0.0
-0.011094246857799013 0.008952824276669734 0.0 -0.008969639863928817 0.0 0.0
-0.01597597466957776 0.01366567927823618 0.0 -0.012168863740920553 0.0 0.0
-0.021490534230951642 0.0190032233691799 0.0 -0.015374831477394837 0.0 0.0
-0.02755996366583039 0.024893702161879767 0.0 -0.018455016648335203 0.0 0.0
-0.03416342738605789 0.031338545892311415 0.0 -0.021454194105829102 0.0 0.0
-0.041208421729112044 0.03826999157331561 0.0 -0.024582064854370752 0.0 0.0
-0.04840204672816554 0.04541847852063262 0.0 -0.028225376839617105 0.0 0.0
-0.05517107951511989 0.05221882262182054 0.0 -0.03282421457615608 0.0 0.0
-0.06051419809009406 0.05772220072573209 0.0 -0.0382600707984617 0.0 0.0
-0.06268298899528948 0.060249201429532634 0.0 -0.04304991013529377 0.0 0.0
-0.05823213175816071 0.05675112845131779 0.0 -0.04439512259613113 0.0 0.0
-0.05376818743317474 0.040899678033699705 0.0 2.239528007486058e-14 0.0 0.0
-0.058232131758152075 0.056751128451323615 0.0 0.04439512259619057 0.0 0.0
-0.06268298899527083 0.060249201429510096 0.0 0.04304991013535374 0.0 0.0
-0.06051419809006149 0.057722200725698974 0.0 0.038260070798489115 0.0 0.0
-0.05517107951507777 0.05221882262178218 0.0 0.0328242145761526 0.0 0.0
-0.0484020467281221 0.045418478520591075 0.0 0.0282253768395962 0.0 0.0
-0.0412084217290694 0.03826999157327896 0.0 0.02458206485435248 0.0 0.0
-0.03416342738601517 0.03133854589226588 0.0 0.021454194105808542 0.0 0.0
-0.027559963665788223 0.024893702161839646 0.0 0.01845501664831797 0.0 0.0
-0.021490534230912 0.01900322336913973 0.0 0.015374831477367623 0.0 0.0
-0.01597597466954302 0.013665679278190944 0.0 0.012168863740890719 0.0 0.0
-0.011094246857770973 0.008952824276651328 0.0 0.008969639863904016 0.0 0.0
-0.007049687803604623 0.005111531944434785 0.0 0.006125289072030747 0.0 0.0
-0.004081104156319365 0.0024808172457436864 0.0 0.004014545368261568 0.0 0.0
-0.0022622338818911922 0.0011243986081169465 0.0 0.0028153758077245844 0.0 0.0
-0.0013641563695262337 0.0006472204131727888 0.0 0.002390274115126216 0.0 0.0
-0.0009547021887947209 0.00048600475022212504 0.0 0.0022964053513929443 0.0 0.0
-0.0007037192741585565 0.00035981008619516636 0.0 0.0022988300072261138 0.0 0.0
-0.00044880122736320896 0.00017295372330189968 0.0 0.002286903225942708 0.0 0.0
-7.111163313274732e-05 -0.00024940977202585294 0.0 0.0019079480948750844 0.0 0.0
0.00016254181763669645 -0.001038855984340216 0.0 0.0012550478180949223 0.0 0.0
7.901606776205801e-05 -0.0007211828081742382 0.0 -0.0010791239783058174 0.0 0.0
-0.0001422277732164339 -0.00019837328456144153 0.0 -0.0017045820408291303 0.0 0.0
-0.0005409122904179103 0.0002128981746205763 0.0 -0.0021247571872137494 0.0 0.0
-0.0008704484145288318 0.0004239218464814643 0.0 -0.0021356053080018077 0.0 0.0
-0.0012210987823927232 0.0005924134176997885 0.0 -0.002084836745096755 0.0 0.0
-0.0018415887459762885 0.0008673185536421104 0.0 -0.0021384849479795438 0.0 0.0
-0.0032036870063690864 0.0017246804382144254 0.0 -0.00271613038534275 0.0 0.0
-0.005800876835528926 0.0038638911910389784 0.0 -0.004208185191590172 0.0 0.0
-0.009844028883271261 0.007616850015708278 0.0 -0.006692427888437935 0.0 0.0
-0.01521578114022503 0.01279783095665639 0.0 -0.009897887946189671 0.0 0.0
-0.021645110634492256 0.019050016990717657 0.0 -0.013345954556384194 0.0 0.0
-0.02892226905500609 0.026136842186190813 0.0 -0.016748783189799676 0.0 0.0
-0.03696285362775168 0.03397663292478907 0.0 -0.02000447612754487 0.0 0.0
-0.045747062603972224 0.042570256752225206 0.0 -0.023164142557595375 0.0 0.0
-0.05520087991164575 0.05187602888486962 0.0 -0.02645797465793953 0.0 0.0
-0.0650217729709139 0.06163318836706368 0.0 -0.030411749573634198 0.0 0.0
-0.07445723567829267 0.07113326510576835 0.0 -0.03555834577637016 0.0 0.0
-0.08206206647955246 0.07898699083402974 0.0 -0.04169105099174585 0.0 0.0
-0.08532928969426883 0.08279916284799846 0.0 -0.04718220164411544 0.0 0.0
-0.08006137969983744 0.07859532451809081 0.0 -0.04901629834961933 0.0 0.0
-0.07463977048746846 0.059987758831683086 0.0 2.7443325389953088e-14 0.0 0.0
-0.08006137969982367 0.07859532451808542 0.0 0.04901629834967567 0.0 0.0
-0.08532928969424235 0.08279916284798226 0.0 0.047182201644175345 0.0 0.0
-0.08206206647951085 0.07898699083399206 0.0 0.04169105099177836 0.0 0.0
-0.07445723567824092 0.07113326510571566 0.0 0.03555834577636813 0.0 0.0
-0.06502177297085843 0.06163318836700847 0.0 0.030411749573616934 0.0 0.0
-0.0552008799115898 0.05187602888482104 0.0 0.026457974657918243 0.0 0.0
-0.045747062603915985 0.04257025675216549 0.0 0.02316414255757481 0.0 0.0
-0.036962853627696884 0.03397663292474024 0.0 0.02000447612752701 0.0 0.0
-0.028922269054955416 0.026136842186134584 0.0 0.016748783189772062 0.0 0.0
-0.02164511063444732 0.01905001699066856 0.0 0.013345954556353248 0.0 0.0
-0.015215781140188973 0.012797830956624017 0.0 0.009897887946166162 0.0 0.0
-0.009844028883245506 0.007616850015682899 0.0 0.006692427888420879 0.0 0.0
-0.005800876835512317 0.003863891191027974 0.0 0.004208185191578271 0.0 0.0
-0.0032036870063599033 0.0017246804382082077 0.0 0.002716130385336226 0.0 0.0
-0.001841588745972656 0.0008673185536398897 0.0 0.0021384849479761368 0.0 0.0
-0.0012210987823916412 0.0005924134177006066 0.0 0.0020848367450951233 0.0 0.0
-0.0008704484145281699 0.000423921846479635 0.0 0.0021356053079982667 0.0 0.0
-0.000540912290417607 0.00021289817461913143 0.0 0.002124757187213879 0.0 0.0
-0.00014222777321636147 -0.00019837328456145825 0.0 0.0017045820408278492 0.0 0.0
7.901606776219206e-05 -0.0007211828081734987 0.0 0.0010791239783052265 0.0 0.0
6.867135124752152e-06 -0.0004613376021114082 0.0 -0.0008919569250282425 0.0 0.0
-0.00020665015849470847 -0.00013745958084325697 0.0 -0.0014728208753658515 0.0 0.0
-0.0006277672077728818 0.00025192956909428024 0.0 -0.001908135219472854 0.0 0.0
-0.0010264163961878402 0.0004809260594303745 0.0 -0.001914935735782912 0.0 0.0
-0.0014890567721882453 0.0006925627052855716 0.0 -0.0018098096500426303 0.0 0.0
-0.002375102930798184 0.001141562389053938 0.0 -0.0018601170876466795 0.0 0.0
-0.004266311412922385 0.0024941188767481836 0.0 -0.002550162238217036 0.0 0.0
-0.007676536568646513 0.0054851031684735475 0.0 -0.0042030543537418825 0.0 0.0
-0.01278557357148464 0.010332994061852119 0.0 -0.006844919614822237 0.0 0.0
-0.019440930573883918 0.0167905931101064 0.0 -0.010073944603675226 0.0 0.0
-0.027386793993499373 0.024546007169503413 0.0 -0.0134951394906056 0.0 0.0
-0.036421904933401944 0.03337305486088078 0.0 -0.01686718083421844 0.0 0.0
-0.0464322007713263 0.04316192925676322 0.0 -0.020106549682942853 0.0 0.0
-0.05738615666283371 0.05389769736901665 0.0 -0.02325521726961179 0.0 0.0
-0.0692341353156479 0.06555972656225098 0.0 -0.026497859575404705 0.0 0.0
-0.08165481158183943 0.07789827539645927 0.0 -0.03030411375040222 0.0 0.0
-0.09370152109865555 0.0900526525815026 0.0 -0.035308951217355736 0.0 0.0
-0.10344455097083488 0.10016875023297021 0.0 -0.04154979421295096 0.0 0.0
-0.10765459488339467 0.10508339697760825 0.0 -0.04767360481202402 0.0 0.0
-0.1016283808896227 0.10016018982084315 0.0 -0.05166486496559817 0.0 0.0
-0.09537384041442387 0.07914651063439702 0.0 2.751791849942009e-14 0.0 0.0
-0.10162838088960449 0.10016018982081898 0.0 0.05166486496565592 0.0 0.0
-0.10765459488336034 0.10508339697758379 0.0 0.04767360481208536 0.0 0.0
-0.10344455097078514 0.10016875023291658 0.0 0.04154979421298477 0.0 0.0
-0.09370152109859363 0.09005265258143766 0.0 0.0353089512173566 0.0 0.0
-0.08165481158177282 0.07789827539638944 0.0 0.030304113750391583 0.0 0.0
-0.06923413531557973 0.06555972656218761 0.0 0.026497859575384634 0.0 0.0
-0.05738615666276477 0.05389769736895109 0.0 0.023255217269593717 0.0 0.0
-0.046432200771259244 0.043161929256701134 0.0 0.020106549682922442 0.0 0.0
-0.03642190493334019 0.033373054860813 0.0 0.016867180834192193 0.0 0.0
-0.02738679399344519 0.0245460071694521 0.0 0.013495139490574733 0.0 0.0
-0.019440930573839662 0.016790593110063645 0.0 0.010073944603650867 0.0 0.0
-0.01278557357145171 0.01033299406182457 0.0 0.006844919614804866 0.0 0.0
-0.007676536568624404 0.005485103168454496 0.0 0.004203054353731037 0.0 0.0
-0.004266311412910197 0.0024941188767357053 0.0 0.0025501622382083705 0.0 0.0
-0.0023751029307931036 0.001141562389051953 0.0 0.0018601170876417585 0.0 0.0
-0.0014890567721865798 0.0006925627052861678 0.0 0.001809809650043103 0.0 0.0
-0.0010264163961870218 0.00048092605942729654 0.0 0.0019149357357825941 0.0 0.0
-0.0006277672077720615 0.0002519295690940338 0.0 0.001908135219472936 0.0 0.0
-0.000206650158494258 -0.0001374595808427077 0.0 0.00147282087536443 0.0 0.0
6.867135124816454e-06 -0.0004613376021108925 0.0 0.0008919569250264997 0.0 0.0
-5.4040187889683376e-05 -0.000257740497392072 0.0 -0.0007004936702656983 0.0 0.0
-0.0002644472429767909 -7.173020167359847e-05 0.0 -0.0012145418138262884 0.0 0.0
-0.0007101705376305402 0.00029089859320218057 0.0 -0.0016370118335200833 0.0 0.0
-0.0011756794399028466 0.0005307590823185177 0.0 -0.0016365523074218804 0.0 0.0
-0.0017727251677352581 0.0007971084518203933 0.0 -0.0014821959899896614 0.0 0.0
-0.002976708581238335 0.0014954683094078724 0.0 -0.0015470028444210234 0.0 0.0
-0.005446150364201919 0.0034366039933814247 0.0 -0.0022863732898264267 0.0 0.0
-0.009679535405146895 0.007293866774819219 0.0 -0.003978536196260212 0.0 0.0
-0.015812001304062365 0.013167583789323796 0.0 -0.006473013900556891 0.0 0.0
-0.023712197935333017 0.020856992886820084 0.0 -0.00945707352743392 0.0 0.0
-0.03316424725459816 0.030099006823606646 0.0 -0.012635702723634549 0.0 0.0
-0.043951627113613424 0.040660723321015266 0.0 -0.015766998932202958 0.0 0.0
-0.0559341031851682 0.052404841553668015 0.0 -0.01879280414436435 0.0 0.0
-0.06905046181914 0.06528040370467535 0.0 -0.021763360997636164 0.0 0.0
-0.08323166386303132 0.07924710420844233 0.0 -0.02475165115370003 0.0 0.0
-0.09814886648840764 0.0940556077858307 0.0 -0.02800130614727804 0.0 0.0
-0.11271280823131957 0.10875372402422596 0.0 -0.03215394442175927 0.0 0.0
-0.1245498257007914 0.1210817956536212 0.0 -0.03786807049378978 0.0 0.0
-0.1298139179114516 0.12719927617333557 0.0 -0.044950577577828464 0.0 0.0
-0.12334222167980247 0.12189824008672778 0.0 -0.05281731913108139 0.0 0.0
-0.11645352698641268 0.09884793844322998 0.0 2.345519611868241e-14 0.0 0.0
-0.12334222167977985 0.12189824008670583 0.0 0.0528173191311377 0.0 0.0
-0.12981391791140862 0.12719927617329568 0.0 0.04495057757788448 0.0 0.0
-0.12454982570073271 0.12108179565356725 0.0 0.037868070493822396 0.0 0.0
-0.11271280823124787 0.10875372402415256 0.0 0.03215394442176087 0.0 0.0
-0.09814886648832949 0.09405560778575596 0.0 0.028001306147270484 0.0 0.0
-0.08323166386295107 0.07924710420836739 0.0 0.024751651153686736 0.0 0.0
-0.06905046181905884 0.06528040370459773 0.0 0.02176336099761852 0.0 0.0
-0.055934103185089304 0.05240484155359274 0.0 0.018792804144344453 0.0 0.0
-0.04395162711354045 0.04066072332094375 0.0 0.015766998932176715 0.0 0.0
-0.033164247254534304 0.030099006823540844 0.0 0.012635702723606389 0.0 0.0
-0.02371219793528061 0.02085699288677239 0.0 0.009457073527412029 0.0 0.0
-0.015812001304022823 0.013167583789288916 0.0 0.006473013900541274 0.0 0.0
-0.009679535405120008 0.007293866774793715 0.0 0.003978536196248184 0.0 0.0
-0.00544615036418609 0.00343660399336495 0.0 0.002286373289815871 0.0 0.0
-0.002976708581231143 0.001495468309403556 0.0 0.001547002844417618 0.0 0.0
-0.0017727251677328534 0.000797108451820675 0.0 0.0014821959899908213 0.0 0.0
-0.0011756794399019224 0.0005307590823173246 0.0 0.0016365523074216245 0.0 0.0
-0.000710170537630551 0.00029089859320159965 0.0 0.0016370118335199424 0.0 0.0
-0.0002644472429767578 -7.173020167352463e-05 0.0 0.0012145418138265445 0.0 0.0
-5.4040187889374975e-05 -0.0002577404973915372 0.0 0.0007004936702619121 0.0 0.0
-0.00010129147899122019 -0.00011039419954644564 0.0 -0.0005102650124443621 0.0 0.0
-0.00031307427230184757 -6.865228806343243e-06 0.0 -0.0009327871532435546 0.0 0.0
-0.0007874403675991662 0.00032904091817445135 0.0 -0.0013097857972975047 0.0 0.0
-0.001323030335948111 0.000574462262683807 0.0 -0.0012965344481480191 0.0 0.0
-0.0020853617695401204 0.0009215907912031895 0.0 -0.0011041199726532854 0.0 0.0
-0.0036594519350769145 0.0019510452652357546 0.0 -0.0011793726340508493 0.0 0.0
-0.0067381796593582 0.0045435565240000125 0.0 -0.001921590269232026 0.0 0.0
-0.011759676580508952 0.009216183939247455 0.0 -0.0034255942652701215 0.0 0.0
-0.018867051603646698 0.016054751879899524 0.0 -0.005527360447932959 0.0 0.0
-0.027994715566823376 0.024951367406998066 0.0 -0.00807007396599218 0.0 0.0
-0.03893755266893664 0.035664424303097 0.0 -0.010785289499713248 0.0 0.0
-0.05147430689557966 0.04795673820093238 0.0 -0.013464251380961953 0.0 0.0
-0.06543605575237083 0.06166342839265834 0.0 -0.01607110592721722 0.0 0.0
-0.08070246902930152 0.0766810079269724 0.0 -0.018671695376401527 0.0 0.0
-0.09713837898019517 0.09289043244385167 0.0 -0.02125463743214968 0.0 0.0
-0.11437492552348774 0.10998408403115983 0.0 -0.023731343968871284 0.0 0.0
-0.13128744206284482 0.12700094281930657 0.0 -0.026417694743444294 0.0 0.0
-0.14527565847061674 0.14155515435028818 0.0 -0.030763577002945325 0.0 0.0
-0.15197172417014654 0.14928082303578166 0.0 -0.038953505381545746 0.0 0.0
-0.14558307106341314 0.14422800441761133 0.0 -0.05220446168332506 0.0 0.0
-0.138321093797842 0.11956113236702717 0.0 2.3288662664988635e-14 0.0 0.0
-0.14558307106338778 0.144228004417589 0.0 0.052204461683376044 0.0 0.0
-0.1519717241700969 0.14928082303572468 0.0 0.038953505381590064 0.0 0.0
-0.14527565847054796 0.14155515435022575 0.0 0.030763577002965628 0.0 0.0
-0.13128744206276244 0.12700094281922297 0.0 0.02641769474344373 0.0 0.0
-0.11437492552339795 0.10998408403107107 0.0 0.02373134396886441 0.0 0.0
-0.09713837898010291 0.09289043244376428 0.0 0.02125463743214151 0.0 0.0
-0.08070246902920848 0.07668100792688348 0.0 0.018671695376387274 0.0 0.0
-0.06543605575228029 0.06166342839256425 0.0 0.016071105927200388 0.0 0.0
-0.0514743068954961 0.047956738200851265 0.0 0.013464251380938375 0.0 0.0
-0.03893755266886317 0.035664424303021046 0.0 0.010785289499692065 0.0 0.0
-0.027994715566763265 0.024951367406944536 0.0 0.008070073965971793 0.0 0.0
-0.018867051603601703 0.016054751879858935 0.0 0.00552736044791951 0.0 0.0
-0.011759676580477217 0.009216183939215842 0.0 0.0034255942652601113 0.0 0.0
-0.006738179659338449 0.004543556523981157 0.0 0.00192159026922545 0.0 0.0
-0.003659451935067261 0.0019510452652296436 0.0 0.0011793726340484788 0.0 0.0
-0.002085361769536772 0.0009215907912017436 0.0 0.0011041199726541532 0.0 0.0
-0.0013230303359473056 0.000574462262683899 0.0 0.0012965344481467261 0.0 0.0
-0.0007874403675987037 0.0003290409181735468 0.0 0.001309785797296997 0.0 0.0
-0.00031307427230143134 -6.865228806815262e-06 0.0 0.0009327871532435964 0.0 0.0
-0.00010129147899124728 -0.00011039419954607456 0.0 0.0005102650124427994 0.0 0.0
-0.00013000285116749808 -1.9930653742988726e-05 0.0 -0.00033157117479501425 0.0 0.0
-0.00034690662862424496 5.006387976942475e-05 0.0 -0.0006315743712536098 0.0 0.0
-0.0008571850664670468 0.00036337352594208487 0.0 -0.0009193906463959608 0.0 0.0
-0.001476714147917219 0.000617116507979766 0.0 -0.0008887027097034584 0.0 0.0
-0.002442096116771845 0.0010856738899873157 0.0 -0.0006852967198296058 0.0 0.0
-0.0044332134209971695 0.0025341111033957632 0.0 -0.0007596794406199846 0.0 0.0
-0.008107652579214579 0.005772923482450905 0.0 -0.0013852534313071694 0.0 0.0
-0.013871242653200777 0.011188964056516619 0.0 -0.0024793849495275593 0.0 0.0
-0.02192339878994551 0.018956875105713793 0.0 -0.004031090971668927 0.0 0.0
-0.032250579794576684 0.029032447600116446 0.0 -0.005920124327518485 0.0 0.0
-0.044669519901797 0.0412009664302663 0.0 -0.007951450445998584 0.0 0.0
-0.058950583602853435 0.0552199680155632 0.0 -0.009963051197165573 0.0 0.0
-0.07489373137789128 0.07089474896571367 0.0 -0.01194359568861672 0.0 0.0
-0.09231163666851971 0.08805622990817165 0.0 -0.013969445162352136 0.0 0.0
-0.11093165816490014 0.10645839784482217 0.0 -0.015972868469269808 0.0 0.0
-0.1302546379099015 0.1256410859198506 0.0 -0.01764567042116834 0.0 0.0
-0.14922370219806005 0.14463046741301003 0.0 -0.01880630873396958 0.0 0.0
-0.1654422652182209 0.16127918263772242 0.0 -0.0208628224893765 0.0 0.0
-0.17420519399311674 0.17130221659981756 0.0 -0.028689752897476037 0.0 0.0
-0.16875206074031807 0.16764376832579458 0.0 -0.04873644328232762 0.0 0.0
-0.16154140234275677 0.14194384960083747 0.0 1.849388697738874e-14 0.0 0.0
-0.16875206074028867 0.16764376832577668 0.0 0.048736443282366405 0.0 0.0
-0.17420519399305875 0.17130221659974354 0.0 0.02868975289751776 0.0 0.0
-0.16544226521814198 0.1612791826376428 0.0 0.02086282248939615 0.0 0.0
-0.14922370219796646 0.14463046741291857 0.0 0.01880630873397117 0.0 0.0
-0.13025463790979966 0.12564108591974546 0.0 0.017645670421162288 0.0 0.0
-0.11093165816479589 0.10645839784472573 0.0 0.015972868469264292 0.0 0.0
-0.09231163666841495 0.0880562299080708 0.0 0.013969445162342994 0.0 0.0
-0.07489373137778886 0.07089474896560709 0.0 0.011943595688605906 0.0 0.0
-0.058950583602758816 0.0552199680154707 0.0 0.00996305119715118 0.0 0.0
-0.04466951990171492 0.041200966430183866 0.0 0.007951450445984836 0.0 0.0
-0.032250579794509904 0.029032447600051338 0.0 0.00592012432750052 0.0 0.0
-0.02192339878989403 0.018956875105667507 0.0 0.004031090971657445 0.0 0.0
-0.013871242653163779 0.011188964056480797 0.0 0.002479384949520333 0.0 0.0
-0.008107652579191363 0.005772923482428407 0.0 0.0013852534313036882 0.0 0.0
-0.0044332134209855425 0.0025341111033876937 0.0 0.0007596794406159811 0.0 0.0
-0.002442096116767658 0.0010856738899846432 0.0 0.0006852967198301025 0.0 0.0
-0.0014767141479155906 0.0006171165079788224 0.0 0.0008887027097009947 0.0 0.0
-0.0008571850664662562 0.0003633735259431452 0.0 0.0009193906463962737 0.0 0.0
-0.00034690662862383746 5.0063879768921584e-05 0.0 0.0006315743712518359 0.0 0.0
-0.00013000285116709416 -1.993065374308692e-05 0.0 0.00033157117479532986 0.0 0.0
-0.00013147476658317587 1.3870522430174512e-05 0.0 -0.00018633200652651388 0.0 0.0
-0.0003557155600704151 8.821458809580604e-05 0.0 -0.0003165123176851546 0.0 0.0
-0.0009154626608462928 0.0003881750903664655 0.0 -0.0004469576531585369 0.0 0.0
-0.0016495282243906848 0.0006730144559477857 0.0 -0.000409631553105861 0.0 0.0
-0.0028611368066071338 0.0013178017658097355 0.0 -0.00023602522799354717 0.0 0.0
-0.0052857805217325395 0.003237555978960284 0.0 -0.00026495735666430976 0.0 0.0
-0.00952516779650439 0.007074282673991843 0.0 -0.00060382450392068 0.0 0.0
-0.01598699362438718 0.01318125853349646 0.0 -0.001176524074633637 0.0 0.0
-0.024945234964219062 0.021836843400109718 0.0 -0.00199183582407821 0.0 0.0
-0.036442304930462306 0.033058963692450795 0.0 -0.0030122898147782384 0.0 0.0
-0.050320894939741324 0.046668197595097445 0.0 -0.004128760113369367 0.0 0.0
-0.06634290099648507 0.06241299842379648 0.0 -0.005260278158171457 0.0 0.0
-0.08426916870595531 0.08005663568063306 0.0 -0.006422191704346703 0.0 0.0
-0.10382256323723342 0.09934838974882851 0.0 -0.007631729666228261 0.0 0.0
-0.12458241181730195 0.11990773553636525 0.0 -0.008815745421030424 0.0 0.0
-0.14584457585272992 0.14106670234040491 0.0 -0.00972502353202557 0.0 0.0
-0.166471545572522 0.16169858159905737 0.0 -0.009959372715106317 0.0 0.0
-0.18457232995651957 0.17993312511302537 0.0 -0.009918513556863524 0.0 0.0
-0.19626997331548762 0.19242482593765933 0.0 -0.014209062316356944 0.0 0.0
-0.19343591427808507 0.19258537212495455 0.0 -0.03669479580897876 0.0 0.0
-0.18702374643923148 0.16788538444753429 0.0 1.0921819004749977e-14 0.0 0.0
-0.19343591427805135 0.19258537212493632 0.0 0.03669479580900133 0.0 0.0
-0.19626997331542187 0.1924248259375788 0.0 0.014209062316380913 0.0 0.0
-0.18457232995643003 0.17993312511293796 0.0 0.009918513556871577 0.0 0.0
-0.16647154557241672 0.161698581598952 0.0 0.009959372715108057 0.0 0.0
-0.1458445758526164 0.14106670234028493 0.0 0.009725023532022122 0.0 0.0
-0.12458241181718462 0.11990773553625678 0.0 0.008815745421027525 0.0 0.0
-0.10382256323711649 0.09934838974871071 0.0 0.007631729666225481 0.0 0.0
-0.08426916870584213 0.08005663568052222 0.0 0.0064221917043395145 0.0 0.0
-0.06634290099638038 0.06241299842369717 0.0 0.005260278158163703 0.0 0.0
-0.05032089493965132 0.04666819759500694 0.0 0.004128760113361461 0.0 0.0
-0.03644230493038856 0.03305896369237404 0.0 0.0030122898147697634 0.0 0.0
-0.02494523496416151 0.021836843400054106 0.0 0.001991835824071528 0.0 0.0
-0.015986993624345903 0.013181258533455895 0.0 0.001176524074630498 0.0 0.0
-0.009525167796478178 0.007074282673967602 0.0 0.0006038245039192234 0.0 0.0
-0.005285780521718488 0.003237555978949143 0.0 0.00026495735666251334 0.0 0.0
-0.0028611368066015844 0.0013178017658068623 0.0 0.00023602522799490166 0.0 0.0
-0.0016495282243893536 0.0006730144559470993 0.0 0.00040963155310404616 0.0 0.0
-0.0009154626608454922 0.000388175090368127 0.0 0.0004469576531571119 0.0 0.0
-0.0003557155600702628 8.821458809551825e-05 0.0 0.00031651231768430385 0.0 0.0
-0.00013147476658360204 1.3870522429966796e-05 0.0 0.0001863320065238112 0.0 0.0
-9.020898870740893e-05 1.6748814677256207e-05 0.0 -0.00011341384532373762 0.0 0.0
-0.000321333702289742 0.00010089314537772453 0.0 -0.00013158324593420999 0.0 0.0
-0.0009577298419539233 0.0003973216677570321 0.0 -0.00014658536947405895 0.0 0.0
-0.0018608035787517046 0.0007067095313705503 0.0 -7.592933338621247e-05 0.0 0.0
-0.003352398296998786 0.0014557464799161753 0.0 0.00019823268976899952 0.0 0.0
-0.006198416652949377 0.0036143718823653612 0.0 0.0004328157190192565 0.0 0.0
-0.01096653494283964 0.007737803757584583 0.0 0.0005472915330606868 0.0 0.0
-0.018082799598522752 0.014179108162510501 0.0 0.0005816455424995125 0.0 0.0
-0.02789887651701541 0.023266295096298267 0.0 0.0005277750262307986 0.0 0.0
-0.04053021276768981 0.035053563043651516 0.0 0.00034170555164935194 0.0 0.0
-0.05585385098178278 0.04937916454207275 0.0 6.359270174221242e-05 0.0 0.0
-0.07361699022528412 0.06598780008611789 0.0 -0.0002922295984728188 0.0 0.0
-0.09351122809524753 0.0846150516651148 0.0 -0.0007515508192221347 0.0 0.0
-0.11517210420327885 0.10496504041402883 0.0 -0.0012869814211070446 0.0 0.0
-0.13805309007816693 0.12659644223083283 0.0 -0.0019010441798793208 0.0 0.0
-0.16123387937122816 0.1487304243047935 0.0 -0.002467564866682939 0.0 0.0
-0.18330614038865534 0.17011710362916235 0.0 -0.0026832837303349885 0.0 0.0
-0.20243358003707473 0.1889666085659497 0.0 -0.002391211856275187 0.0 0.0
-0.21642843720610433 0.20257255544296107 0.0 -0.004823586534851022 0.0 0.0
-0.21995022396162756 0.2054758181532299 0.0 -0.028155968649978692 0.0 0.0
-0.21805390651114784 0.18211811710792564 0.0 2.6367796834847468e-15 0.0 0.0
-0.2199502239615897 0.20547581815320326 0.0 0.028155968649985538 0.0 0.0
-0.21642843720603003 0.20257255544287409 0.0 0.004823586534858891 0.0 0.0
-0.2024335800369722 0.18896660856585393 0.0 0.0023912118562748746 0.0 0.0
-0.18330614038853696 0.17011710362904878 0.0 0.002683283730333847 0.0 0.0
-0.1612338793711029 0.14873042430466502 0.0 0.0024675648666807257 0.0 0.0
-0.1380530900780375 0.12659644223071756 0.0 0.0019010441798748903 0.0 0.0
-0.11517210420315 0.10496504041390184 0.0 0.0012869814211023522 0.0 0.0
-0.09351122809512238 0.08461505166499884 0.0 0.0007515508192183738 0.0 0.0
-0.0736169902251681 0.06598780008601522 0.0 0.00029222959847091147 0.0 0.0
-0.05585385098168405 0.04937916454197977 0.0 -6.359270174372683e-05 0.0 0.0
-0.040530212767609194 0.035053563043573197 0.0 -0.0003417055516494599 0.0 0.0
-0.02789887651695205 0.02326629509623787 0.0 -0.0005277750262346779 0.0 0.0
-0.018082799598476907 0.014179108162466633 0.0 -0.0005816455424982989 0.0 0.0
-0.010966534942810115 0.007737803757559759 0.0 -0.0005472915330587197 0.0 0.0
-0.0061984166529331945 0.003614371882353252 0.0 -0.00043281571901709903 0.0 0.0
-0.0033523982969918546 0.001455746479915174 0.0 -0.00019823268976932402 0.0 0.0
-0.001860803578749534 0.0007067095313698624 0.0 7.592933338468951e-05 0.0 0.0
-0.0009577298419533513 0.00039732166775787716 0.0 0.00014658536947183162 0.0 0.0
-0.00032133370228977634 0.00010089314537752256 0.0 0.00013158324593478575 0.0 0.0
-9.02089887073932e-05 1.6748814677151636e-05 0.0 0.00011341384531997588 0.0 0.0
SCALARS Statev float 8
LOOKUP_TABLE default
0.0 0.020170798322971466 0.016225975899696907 -0.019224434888874833 0.002998458989177904 -0.0012492000234478147 0.0 0.0
0.0 0.00715444246287785 0.005317126478657512 -0.0034190296641072684 -0.0018980968145502406 -0.007382356463102183 0.0 0.0
0.0 0.00021501670707495295 0.00027093080299392624 -0.000163849539479488 -0.00010708126351443826 -0.00040565981246933216 0.0 0.0
0.0 0.000209079077598484 0.00012295818584848273 -8.825131175447647e-05 -3.4706874094006664e-05 3.576673364604648e-05 0.0 0.0
0.0 0.0012620762461169998 0.0009337717005822245 -0.0006889277406487171 -0.00024484395993350753 0.00019110407928622818 0.0 0.0
0.0 0.0033750290326812907 0.0032833408933592573 -0.0026460918570760062 -0.0006372490362832532 0.00038860437432114436 0.0 0.0
0.0 0.008310377736233688 0.007581812352127008 -0.006606419312714013 -0.000975393039412986 0.0005362156087727509 0.0 0.0
0.0 0.015891471865767455 0.014279035187267392 -0.013037886106105897 -0.0012411490811614864 0.0005968238076342132 0.0 0.0
0.0 0.026614455275498293 0.023678700699345467 -0.022184553824312676 -0.0014941468750327865 0.0005668516631505022 0.0 0.0
0.0 0.04062164984303338 0.03587692988233368 -0.03409817261627317 -0.0017787572660605691 0.00040918262840868095 0.0 0.0
0.0 0.057764902341704304 0.05075233661789404 -0.04863976363939867 -0.0021125729784952996 0.00015198525213409734 0.0 0.0
0.0 0.07743668514411986 0.06806581041405267 -0.06556822308823691 -0.002497587325815657 -0.00019322651210766965 0.0 0.0
0.0 0.09966708777029243 0.08753209403108574 -0.08461048896208928 -0.002921605068996439 -0.0006377441477682461 0.0 0.0
0.0 0.12405024597021291 0.10885015091499955 -0.10548090818691912 -0.0033692427280801723 -0.001132195394407059 0.0 0.0
0.0 0.1501386061495543 0.13162589119792728 -0.12780525544066484 -0.003820635757262357 -0.0016971128627722982 0.0 0.0
0.0 0.17725167857051405 0.15522877037921276 -0.15097572157991923 -0.0042530487992933855 -0.002300550368453822 0.0 0.0
0.0 0.20425065163698491 0.1787006791869825 -0.17405770585843794 -0.004642973328544587 -0.002818922479497582 0.0 0.0
0.0 0.22964572130492816 0.20076103572393736 -0.19579368720553492 -0.0049673485184023956 -0.003061145336451652 0.0 0.0
0.0 0.251688220054078 0.21991079632655008 -0.21468698501277284 -0.005223811313776827 -0.0028839259042890393 0.0 0.0
0.0 0.2680230449526682 0.23431069354581768 -0.22892759721912048 -0.005383096326697446 -0.0034810038518726595 0.0 0.0
0.0 0.2750891167263919 0.24013928539416926 -0.23477336487211126 -0.0053659205220577405 3.552713678800501e-15 0.0 0.0
0.0 0.26802304495262674 0.2343106935457822 -0.2289275972190848 -0.005383096326697677 0.003481003851881081 0.0 0.0
0.0 0.25168822005399516 0.21991079632647775 -0.21468698501270028 -0.0052238113137771805 0.0028839259042964666 0.0 0.0
0.0 0.22964572130481148 0.20076103572383622 -0.19579368720543436 -0.004967348518401805 0.0030611453364566216 0.0 0.0
0.0 0.20425065163685785 0.17870067918687155 -0.17405770585833047 -0.004642973328541289 0.0028189224794966453 0.0 0.0
0.0 0.17725167857037571 0.15522877037909175 -0.1509757215797995 -0.00425304879929221 0.0023005503684485305 0.0 0.0
0.0 0.15013860614942143 0.13162589119781115 -0.12780525544055146 -0.0038206357572594892 0.001697112862772035 0.0 0.0
0.0 0.12405024597007597 0.10885015091487998 -0.10548090818680175 -0.0033692427280783933 0.0011321953944069445 0.0 0.0
0.0 0.09966708777015817 0.08753209403096883 -0.0846104889619744 -0.002921605068994278 0.0006377441477643528 0.0 0.0
0.0 0.07743668514399532 0.0680658104139439 -0.06556822308813014 -0.0024975873258136563 0.00019322651210320696 0.0 0.0
0.0 0.05776490234159982 0.050752336617802755 -0.048639763639309525 -0.0021125729784932145 -0.00015198525213989695 0.0 0.0
0.0 0.04062164984295061 0.035876929882261245 -0.034098172616202516 -0.0017787572660588123 -0.00040918262841121533 0.0 0.0
0.0 0.026614455275436797 0.023678700699291164 -0.022184553824260166 -0.0014941468750309683 -0.000566851663150452 0.0 0.0
0.0 0.01589147186572309 0.014279035187227862 -0.01303788610606747 -0.00124114908116037 -0.000596823807635094 0.0 0.0
0.0 0.008310377736204789 0.007581812352100437 -0.006606419312689056 -0.0009753930394113717 -0.0005362156087720158 0.0 0.0
0.0 0.003375029032667302 0.0032833408933456076 -0.002646091857064079 -0.0006372490362815343 -0.0003886043743201224 0.0 0.0
0.0 0.0012620762461110426 0.0009337717005776445 -0.0006889277406453208 -0.0002448439599323214 -0.0001911040792851667 0.0 0.0
0.0 0.000209079077596826 0.00012295818584770165 -8.825131175392888e-05 -3.470687409377207e-05 -3.576673364580921e-05 0.0 0.0
0.0 0.0002150167070741432 0.0002709308029932819 -0.0001638495394791428 -0.00010708126351413826 0.00040565981246757445 0.0 0.0
0.0 0.007154442462866917 0.005317126478651965 -0.0034190296641028973 -0.0018980968145490605 0.007382356463093779 0.0 0.0
0.0 0.020170798322950104 0.016225975899682835 -0.019224434888855373 0.0029984589891725163 0.0012492000234041426 0.0 0.0
0.0 0.016578333615841562 0.01251038149276821 -0.016030969473558372 0.003520587980790158 -0.0007515586580525786 0.0 0.0
0.0 0.004534899155138446 0.0032638957119654898 -0.0020868695161997057 -0.0011770261957657763 -0.005943667607267636 0.0 0.0
0.0 -9.400352135325426e-05 -7.891408426722427e-05 7.462271404324939e-05 4.291370223974851e-06 -0.00011996900791585801 0.0 0.0
0.0 6.139539648254253e-05 5.262554070418655e-05 -3.7933191634272664e-05 -1.4692349069913829e-05 1.7125658669085138e-05 0.0 0.0
0.0 0.0007515309282299423 0.0006325825533628737 -0.0004706337896118299 -0.0001619487637510434 7.363226129904783e-05 0.0 0.0
0.0 0.002928678017732652 0.002586415331436117 -0.0021063761598395713 -0.00048003917159654945 4.6432557830161713e-05 0.0 0.0
0.0 0.007125204835058237 0.0064782516815211355 -0.005721091527496543 -0.0007571601540245898 -0.0002904631586046642 0.0 0.0
0.0 0.014165054228278849 0.012621666129313308 -0.011700748061213531 -0.000920918068099778 -0.0008595978935177525 0.0 0.0
0.0 0.024171975203196465 0.021299033297999106 -0.02026824995132839 -0.001030783346670707 -0.0016629093584749194 0.0 0.0
0.0 0.03715936625120735 0.03254912497638261 -0.03142349875159447 -0.0011256262247881423 -0.002670118510715438 0.0 0.0
0.0 0.05298384767788146 0.04621980064977459 -0.045002435303549165 -0.0012173653462254836 -0.0037903324371989264 0.0 0.0
0.0 0.07147758289515385 0.062081089991185986 -0.06076991097793374 -0.0013111790132521836 -0.004943693730563811 0.0 0.0
0.0 0.09178745880310754 0.07990724077626785 -0.07850006255079008 -0.0014071782254777402 -0.006126519352637199 0.0 0.0
0.0 0.11436158090427824 0.09944328056904547 -0.09794493670071597 -0.00149834386832949 -0.007335486721640984 0.0 0.0
0.0 0.13849860929136093 0.1203404496515008 -0.11876601844739484 -0.0015744312041057536 -0.00852836030297276 0.0 0.0
0.0 0.16358855856558532 0.14204159521055135 -0.1404148313065386 -0.001626763904012874 -0.009591188303093995 0.0 0.0
0.0 0.1886721643492711 0.16369533789150065 -0.16204505409080858 -0.0016502838006920118 -0.010260040916392255 0.0 0.0
0.0 0.21239735939198046 0.18414136130684466 -0.18249509182126447 -0.0016462694855802038 -0.010190496527269338 0.0 0.0
0.0 0.23298139476967522 0.20188169538218323 -0.20027809560615692 -0.0016035997760261611 -0.00924763091183236 0.0 0.0
0.0 0.24801417665478356 0.21475539129688537 -0.2133204717694153 -0.0014349195274700216 -0.00834959878342213 0.0 0.0
0.0 0.2546122570611685 0.2197892158446242 -0.21861246183086006 -0.0011767540137642904 9.772564701915343e-15 0.0 0.0
0.0 0.24801417665475228 0.21475539129685725 -0.21332047176938804 -0.0014349195274691094 0.008349598783447404 0.0 0.0
0.0 0.2329813947696018 0.20188169538212003 -0.20027809560609283 -0.0016035997760269994 0.009247630911855405 0.0 0.0
0.0 0.2123973593918775 0.18414136130675623 -0.18249509182117535 -0.001646269485580879 0.010190496527283639 0.0 0.0
0.0 0.18867216434915532 0.16369533789140084 -0.16204505409070913 -0.0016502838006918442 0.010260040916393993 0.0 0.0
0.0 0.1635885585654554 0.14204159521043971 -0.14041483130642587 -0.0016267639040134323 0.009591188303086287 0.0 0.0
0.0 0.13849860929123853 0.12034044965139404 -0.11876601844728932 -0.0015744312041047568 0.008528360302971279 0.0 0.0
0.0 0.1143615809041521 0.0994432805689364 -0.0979449367006071 -0.0014983438683291907 0.007335486721637701 0.0 0.0
0.0 0.09178745880298411 0.07990724077616128 -0.07850006255068377 -0.0014071782254774917 0.006126519352628864 0.0 0.0
0.0 0.07147758289504168 0.06208108999108865 -0.06076991097783651 -0.001311179013252152 0.004943693730555999 0.0 0.0
0.0 0.052983847677783566 0.046219800649690085 -0.04500243530346491 -0.001217365346225194 0.0037903324371882504 0.0 0.0
0.0 0.03715936625113156 0.03254912497631624 -0.031423498751528715 -0.0011256262247874714 0.002670118510707889 0.0 0.0
0.0 0.02417197520313754 0.021299033297947016 -0.02026824995127706 -0.0010307833466699592 0.001662909358470604 0.0 0.0
0.0 0.01416505422823919 0.012621666129278153 -0.011700748061178982 -0.000920918068099194 0.0008595978935136684 0.0 0.0
0.0 0.007125204835032623 0.0064782516814980064 -0.005721091527474468 -0.0007571601540235298 0.0002904631586024973 0.0 0.0
0.0 0.0029286780177198 0.002586415331424846 -0.0021063761598296422 -0.00048003917159520194 -4.643255783083504e-05 0.0 0.0
0.0 0.0007515309282250041 0.0006325825533590221 -0.0004706337896089277 -0.00016194876375009488 -7.363226129853641e-05 0.0 0.0
0.0 6.139539648225098e-05 5.262554070450195e-05 -3.7933191634530026e-05 -1.469234906997182e-05 -1.7125658668921478e-05 0.0 0.0
0.0 -9.400352135377657e-05 -7.891408426706035e-05 7.462271404306085e-05 4.29137022399935e-06 0.00011996900791533427 0.0 0.0
0.0 0.004534899155126934 0.0032638957119592166 -0.002086869516195068 -0.0011770261957641478 0.0059436676072563265 0.0 0.0
0.0 0.01657833361581746 0.01251038149274982 -0.016030969473535567 0.003520587980785739 0.0007515586580194796 0.0 0.0
0.0 0.012508771171124148 0.009241155367013611 -0.012158074658468913 0.0029169192914553005 -0.003411235193590086 0.0 0.0
0.0 0.00313159453064059 0.002005553215723879 -0.0011345003716682015 -0.0008710528440556807 -0.0051905680672682435 0.0 0.0
0.0 7.542744273172812e-07 1.6373917395407128e-06 -1.392384501838338e-06 -2.4500723770237e-07 8.426614949292056e-07 0.0 0.0
0.0 2.5740031670708268e-06 9.954255001642772e-07 -1.6045225074912684e-08 -9.79380275089498e-07 7.191240567839806e-06 0.0 0.0
0.0 0.00037115060604537913 0.0003316453257970056 -0.00024041030237789753 -9.123502341910786e-05 1.0723766810808347e-05 0.0 0.0
0.0 0.002130667649309596 0.0018342764624799664 -0.0014531652252388902 -0.0003811112372410749 -0.0001435118974489232 0.0 0.0
0.0 0.005615240424568213 0.005173594827043972 -0.004483256899935088 -0.0006903379271088841 -0.0007993448344053854 0.0 0.0
0.0 0.011920253203451388 0.010621172173764688 -0.00974900831448152 -0.000872163859283165 -0.001892561910596483 0.0 0.0
0.0 0.02088413224683601 0.018394099838144204 -0.01741259079122041 -0.000981509046923769 -0.003418414080731663 0.0 0.0
0.0 0.03261043274863201 0.028475379456544388 -0.027406345503232385 -0.0010690339533120184 -0.005287580510725089 0.0 0.0
0.0 0.04680948613210278 0.040685989378849145 -0.03953143847185089 -0.0011545509069982034 -0.007329992624750288 0.0 0.0
0.0 0.06311022923468458 0.05480869690965695 -0.05356503646003072 -0.0012436604496262364 -0.009387517917788815 0.0 0.0
0.0 0.08164027140407283 0.07065234775265943 -0.06931794255335398 -0.0013344051993053477 -0.011425332264422532 0.0 0.0
0.0 0.10148490486215087 0.08803335382107678 -0.08661306500879268 -0.0014202888122841347 -0.013489913868706752 0.0 0.0
0.0 0.1230506125732997 0.10666463736415595 -0.10517103767709163 -0.0014935996870644765 -0.015530166091365418 0.0 0.0
0.0 0.14552219581056258 0.12608702723958826 -0.12454048828983516 -0.0015465389497529008 -0.01732476631503379 0.0 0.0
0.0 0.16809116335734253 0.14559102523517345 -0.14401691316147958 -0.0015741120736939137 -0.018455088824679222 0.0 0.0
0.0 0.18953970061763525 0.16413524966608958 -0.16256674336363233 -0.001568506302457435 -0.018421051018075143 0.0 0.0
0.0 0.2081686749817919 0.18021074742551385 -0.1787070787736822 -0.00150366865183144 -0.016978844645540687 0.0 0.0
0.0 0.22166152775117318 0.19180617718036808 -0.19040261707509298 -0.0014035601052746094 -0.014238522291095894 0.0 0.0
0.0 0.22787487493213202 0.1964790939478042 -0.19537286912096347 -0.0011062248268407797 1.6938707381175533e-14 0.0 0.0
0.0 0.22166152775114664 0.19180617718034318 -0.19040261707506867 -0.0014035601052743453 0.014238522291137905 0.0 0.0
0.0 0.2081686749817288 0.18021074742545856 -0.17870707877362757 -0.0015036686518311154 0.016978844645581696 0.0 0.0
0.0 0.18953970061754521 0.1641352496660117 -0.16256674336355387 -0.001568506302457782 0.01842105101809928 0.0 0.0
0.0 0.1680911633572409 0.14559102523508613 -0.14401691316139253 -0.0015741120736936396 0.018455088824682393 0.0 0.0
0.0 0.14552219581044917 0.1260870272394898 -0.12454048828973734 -0.001546538949752436 0.01732476631502479 0.0 0.0
0.0 0.12305061257318906 0.10666463736405978 -0.10517103767699632 -0.0014935996870634547 0.015530166091360395 0.0 0.0
0.0 0.1014849048620381 0.08803335382097903 -0.08661306500869563 -0.0014202888122834875 0.013489913868700503 0.0 0.0
0.0 0.08164027140396464 0.07065234775256604 -0.0693179425532611 -0.001334405199304958 0.011425332264410466 0.0 0.0
0.0 0.06311022923458687 0.05480869690957282 -0.05356503645994672 -0.0012436604496260013 0.009387517917775322 0.0 0.0
0.0 0.04680948613201663 0.04068598937877442 -0.039531438471776516 -0.0011545509069979267 0.007329992624734421 0.0 0.0
0.0 0.03261043274856373 0.028475379456484436 -0.027406345503173044 -0.001069033953311374 0.0052875805107121705 0.0 0.0
0.0 0.020884132246783087 0.018394099838097946 -0.017412590791174694 -0.0009815090469232504 0.0034184140807226784 0.0 0.0
0.0 0.011920253203414714 0.010621172173732634 -0.009749008314450185 -0.0008721638592824269 0.0018925619105891298 0.0 0.0
0.0 0.005615240424546785 0.00517359482702452 -0.004483256899916815 -0.0006903379271077074 0.000799344834401206 0.0 0.0
0.0 0.0021306676492995414 0.0018342764624713524 -0.00145316522523167 -0.00038111123723968244 0.0001435118974475519 0.0 0.0
0.0 0.00037115060604236375 0.0003316453257948924 -0.0002404103023763493 -9.123502341854316e-05 -1.0723766810619884e-05 0.0 0.0
0.0 2.5740031672341093e-06 9.954255005000823e-07 -1.6045225333929165e-08 -9.793802751661447e-07 -7.191240567753935e-06 0.0 0.0
0.0 7.542744274643105e-07 1.6373917395128952e-06 -1.3923845018122798e-06 -2.4500723770061703e-07 -8.426614949101176e-07 0.0 0.0
0.0 0.003131594530631448 0.002005553215718576 -0.0011345003716646271 -0.0008710528440539435 0.005190568067254283 0.0 0.0
0.0 0.012508771171100162 0.009241155366995862 -0.012158074658446653 0.002916919291450768 0.0034112351935686605 0.0 0.0
0.0 0.009582516398663985 0.006903729922636518 -0.009266436820137655 0.00236270689750111 -0.0036750688249727274 0.0 0.0
0.0 0.002310166117173 0.0013914358390557874 -0.0007698572907678303 -0.0006215785482879498 -0.003984076808175126 0.0 0.0
0.0 0.0 0.0 0.0 0.0 0.0 0.0 0.0
0.0 -5.381986522283923e-06 -5.12559390942289e-06 4.053757820059852e-06 1.0718360893630358e-06 4.010820614153047e-06 0.0 0.0
0.0 0.00014656905964914666 0.0001231877251235925 -8.579907962524628e-05 -3.738864549834566e-05 2.102395960770534e-06 0.0 0.0
0.0 0.0013391656375775583 0.0012020516201601487 -0.0009258086725778545 -0.0002762429475822927 -0.0002431175198995034 0.0 0.0
0.0 0.004430964703138301 0.003918262023746878 -0.003315961790624259 -0.000602300233122619 -0.0010383514275752155 0.0 0.0
0.0 0.009730002611226203 0.008643117186220874 -0.007830640241085398 -0.0008124769451354681 -0.002562441818317997 0.0 0.0
0.0 0.01766924503835523 0.01547355832634516 -0.014546857316538705 -0.000926701009806457 -0.004637463698192098 0.0 0.0
0.0 0.028054214079106916 0.024356060954833145 -0.023347309946251327 -0.0010087510085817935 -0.007157719283664026 0.0 0.0
0.0 0.04054035295393533 0.03508982793587988 -0.03400236778344613 -0.0010874601524337136 -0.009887472453390165 0.0 0.0
0.0 0.05501114769321159 0.04746475785496664 -0.04629379759272671 -0.001170960262239907 -0.012628161675439016 0.0 0.0
0.0 0.0709787698791834 0.06132731776841917 -0.06007038026728378 -0.00125693750113537 -0.015335795326153102 0.0 0.0
0.0 0.08885947583742099 0.07653225532991897 -0.0751951709008894 -0.0013370844290295448 -0.018043822668697546 0.0 0.0
0.0 0.10771035738204295 0.09287847302728587 -0.09147142668213559 -0.0014070463451501729 -0.02070283149561963 0.0 0.0
0.0 0.12737645744703813 0.11001513430554594 -0.10855312074943615 -0.0014620135561097937 -0.023070746533173887 0.0 0.0
0.0 0.1475312507786587 0.12736600040923884 -0.1258733322890765 -0.0014926681201622978 -0.024660750919579415 0.0 0.0
0.0 0.16678034125888905 0.1440139947161853 -0.1425284588688758 -0.001485535847309391 -0.024866868305850783 0.0 0.0
0.0 0.1835891830158133 0.158578824087004 -0.15714429674724326 -0.0014345273397608003 -0.023072745113559084 0.0 0.0
0.0 0.1959539527566224 0.1693291808929763 -0.16795968419741342 -0.0013694966955633246 -0.01835104633281233 0.0 0.0
0.0 0.2021816124864604 0.17394008567721186 -0.1729848635944351 -0.0009552220827766392 2.3967806905833555e-14 0.0 0.0
0.0 0.19595395275659455 0.16932918089295057 -0.16795968419738627 -0.0013694966955645445 0.018351046332867004 0.0 0.0
0.0 0.18358918301576083 0.15857882408695628 -0.1571442967471966 -0.0014345273397595596 0.023072745113615983 0.0 0.0
0.0 0.16678034125881316 0.1440139947161191 -0.1425284588688091 -0.001485535847309912 0.02486686830588296 0.0 0.0
0.0 0.1475312507785691 0.12736600040916174 -0.12587333228899986 -0.0014926681201619424 0.02466075091958336 0.0 0.0
0.0 0.12737645744694215 0.11001513430546274 -0.10855312074935348 -0.0014620135561092202 0.02307074653316412 0.0 0.0
0.0 0.10771035738194296 0.09287847302719894 -0.09147142668204915 -0.0014070463451498392 0.020702831495611435 0.0 0.0
0.0 0.0888594758373242 0.07653225532983467 -0.07519517090080607 -0.001337084429028641 0.01804382266868864 0.0 0.0
0.0 0.07097876987908873 0.06132731776833794 -0.06007038026720295 -0.0012569375011348628 0.015335795326137876 0.0 0.0
0.0 0.05501114769312784 0.047464757854894284 -0.04629379759265461 -0.001170960262239779 0.012628161675419582 0.0 0.0
0.0 0.040540352953861915 0.03508982793581652 -0.03400236778338338 -0.0010874601524330945 0.009887472453370464 0.0 0.0
0.0 0.028054214079045132 0.02435606095477973 -0.023347309946198432 -0.0010087510085813 0.0071577192836458905 0.0 0.0
0.0 0.017669245038307902 0.015473558326304199 -0.014546857316498374 -0.0009267010098058292 0.004637463698179439 0.0 0.0
0.0 0.00973000261119594 0.00864311718619394 -0.007830640241059157 -0.0008124769451347755 0.002562441818308697 0.0 0.0
0.0 0.004430964703119145 0.003918262023730767 -0.0033159617906095016 -0.0006023002331212619 0.0010383514275695868 0.0 0.0
0.0 0.0013391656375690239 0.0012020516201532018 -0.0009258086725722273 -0.0002762429475809743 0.0002431175198975851 0.0 0.0
0.0 0.0001465690596483027 0.00012318772512343273 -8.579907962520003e-05 -3.7388645498232396e-05 -2.102395960304447e-06 0.0 0.0
0.0 -5.381986522690163e-06 -5.125593909453413e-06 4.0537578200842755e-06 1.0718360893691596e-06 -4.010820614189999e-06 0.0 0.0
0.0 0.0 0.0 0.0 0.0 0.0 0.0 0.0
0.0 0.0023101661171651255 0.0013914358390512134 -0.0007698572907647472 -0.00062157854828647 0.003984076808163238 0.0 0.0
0.0 0.009582516398643364 0.006903729922620538 -0.0092664368201175 0.002362706897496962 0.003675068824957143 0.0 0.0
0.0 0.007119571807838208 0.005099005728436741 -0.006966414888629291 0.0018674091601925573 -0.003155703870778354 0.0 0.0
0.0 0.0018498398589985243 0.0009345760635406832 -0.0005070288196637688 -0.0004275472438769144 -0.0029176734413094993 0.0 0.0
0.0 0.0 0.0 0.0 0.0 0.0 0.0 0.0
0.0 -8.733181687294555e-07 -3.089661143786802e-07 2.5029760696329776e-07 5.8668507415383666e-08 5.23011071335983e-07 0.0 0.0
0.0 3.7486968653932564e-06 1.627388338243279e-05 -8.456469191604067e-06 -7.817414190828651e-06 1.5969537597835947e-05 0.0 0.0
0.0 0.0007994074254354494 0.0006851198167392163 -0.0005139534995806466 -0.00017116631715857015 -0.00023802914650609952 0.0 0.0
0.0 0.00328830756043584 0.0027761924236590946 -0.0022857795040720813 -0.0004904129195870073 -0.001095999579865735 0.0 0.0
0.0 0.0076333411328684785 0.00671765992924928 -0.005978997816658779 -0.0007386621125905127 -0.0028291858078874385 0.0 0.0
0.0 0.014500139445699518 0.012574998756187738 -0.0117105624216573 -0.0008644363345304413 -0.005311649728717556 0.0 0.0
0.0 0.02349592285856432 0.020232386444987253 -0.019289311142490436 -0.0009430753024968036 -0.008276671482570951 0.0 0.0
0.0 0.03435470469132642 0.029472769569490177 -0.02845737089075198 -0.0010153986787381827 -0.011470224212063002 0.0 0.0
0.0 0.04682103961778942 0.04009196690975713 -0.03899931646326456 -0.001092650446492555 -0.014670804646437236 0.0 0.0
0.0 0.06079609908644301 0.05196224064955007 -0.0507894614159284 -0.0011727792336216293 -0.017835285050668778 0.0 0.0
0.0 0.07578091859327245 0.06499413115810784 -0.06374530621187341 -0.0012488249462344584 -0.020993450435857715 0.0 0.0
0.0 0.0922371740780087 0.079040830748007 -0.07772563824011972 -0.0013151925078872281 -0.024067937718407886 0.0 0.0
0.0 0.10953849336770219 0.09385729375699112 -0.09248831997241355 -0.001368973784577561 -0.02681556694650683 0.0 0.0
0.0 0.12694773787322566 0.10901695774653794 -0.10761302114095986 -0.0014039366055780414 -0.028806371291897035 0.0 0.0
0.0 0.14397304697452937 0.12377377116986907 -0.12236643104999259 -0.0014073401198764132 -0.029368532797242195 0.0 0.0
0.0 0.15915273421244402 0.1369740747271735 -0.13560091990873663 -0.0013731548184366695 -0.02740821795301483 0.0 0.0
0.0 0.17075256849871323 0.14714518825265147 -0.14582143087411498 -0.0013237573785364215 -0.021411089597113353 0.0 0.0
0.0 0.17722904033561593 0.15185476499299483 -0.15108783177653382 -0.0007669332164609015 2.7445060113429065e-14 0.0 0.0
0.0 0.17075256849869153 0.14714518825262946 -0.14582143087409322 -0.0013237573785361122 0.021411089597176854 0.0 0.0
0.0 0.15915273421240278 0.1369740747271344 -0.13560091990869844 -0.001373154818435785 0.027408217953077168 0.0 0.0
0.0 0.1439730469744613 0.12377377116980887 -0.12236643104993221 -0.0014073401198767977 0.029368532797278447 0.0 0.0
0.0 0.1269477378731509 0.10901695774647352 -0.10761302114089591 -0.0014039366055775026 0.028806371291904335 0.0 0.0
0.0 0.10953849336761798 0.09385729375691847 -0.09248831997234036 -0.0013689737845781077 0.026815566946495333 0.0 0.0
0.0 0.09223717407792294 0.07904083074793283 -0.07772563824004587 -0.001315192507887004 0.024067937718396253 0.0 0.0
0.0 0.07578091859318775 0.06499413115803444 -0.06374530621180073 -0.0012488249462336413 0.020993450435845905 0.0 0.0
0.0 0.06079609908636409 0.0519622406494822 -0.050789461415860604 -0.0011727792336215436 0.017835285050652648 0.0 0.0
0.0 0.046821039617716644 0.0400919669096947 -0.0389993164632025 -0.0010926504464921817 0.014670804646415084 0.0 0.0
0.0 0.03435470469126319 0.029472769569436313 -0.028457370890698996 -0.0010153986787373194 0.011470224212038556 0.0 0.0
0.0 0.023495922858509287 0.020232386444940402 -0.01928931114244387 -0.000943075302496515 0.008276671482549217 0.0 0.0
0.0 0.014500139445657048 0.01257499875615137 -0.011710562421621313 -0.0008644363345300544 0.005311649728701591 0.0 0.0
0.0 0.007633341132843693 0.006717659929227708 -0.005978997816638259 -0.0007386621125894516 0.002829185807877376 0.0 0.0
0.0 0.0032883075604206134 0.0027761924236467455 -0.00228577950406118 -0.0004904129195855656 0.0010959995798601324 0.0 0.0
0.0 0.0007994074254300366 0.0006851198167352161 -0.0005139534995775168 -0.00017116631715769978 0.00023802914650446823 0.0 0.0
0.0 3.7486968652569993e-06 1.6273883382800447e-05 -8.456469191926563e-06 -7.817414190874002e-06 -1.5969537597132737e-05 0.0 0.0
0.0 -8.733181686245255e-07 -3.089661144919779e-07 2.502976070510399e-07 5.866850744093134e-08 -5.230110714778792e-07 0.0 0.0
0.0 0.0 0.0 0.0 0.0 0.0 0.0 0.0
0.0 0.001849839858991093 0.0009345760635369934 -0.0005070288196613285 -0.00042754724387566377 0.0029176734412994835 0.0 0.0
0.0 0.00711957180782036 0.005099005728422749 -0.006966414888611443 0.0018674091601886859 0.0031557038707671135 0.0 0.0
0.0 0.005249806464390388 0.0036460412075097373 -0.005066335184456753 0.0014202939769470157 -0.002480737586499301 0.0 0.0
0.0 0.0011757279010516156 0.0005990295416537576 -0.00031821018753329573 -0.00028081935412046176 -0.0020416526913859135 0.0 0.0
0.0 0.0 0.0 0.0 0.0 0.0 0.0 0.0
0.0 -3.1760803304851673e-07 1.1453349192424484e-07 -8.766521241983262e-08 -2.6868279504412156e-08 -1.87334574071505e-07 0.0 0.0
0.0 -2.5334280447080077e-05 -1.8105675241641732e-05 1.522974592403466e-05 2.8759293176070573e-06 3.099723116352424e-05 0.0 0.0
0.0 0.00035471450890162554 0.000324229202845185 -0.00023687919450234013 -8.735000834284506e-05 -0.00017674873181631125 0.0 0.0
0.0 0.002048255049753939 0.0018065330702196614 -0.0014443690213621439 -0.00036216404885751883 -0.001033704230950385 0.0 0.0
0.0 0.005932699429658214 0.004886478619387545 -0.0042486925316040786 -0.0006377860877834592 -0.0027500923406411385 0.0 0.0
0.0 0.011276448667879031 0.009735673972415976 -0.008946339374593987 -0.0007893345978219954 -0.0054170931988789806 0.0 0.0
0.0 0.019024877349878885 0.0161447042341103 -0.015274824897489507 -0.0008698793366207916 -0.00863684509631653 0.0 0.0
0.0 0.028181477871267742 0.023878126981007736 -0.022941522187129342 -0.0009366047938783928 -0.012074090508145141 0.0 0.0
0.0 0.03863405094279554 0.03273468155897613 -0.03172704176036576 -0.0010076397986103266 -0.01551571561560158 0.0 0.0
0.0 0.05026267672026065 0.042610601466389834 -0.04152861489771383 -0.001081986568676013 -0.01891528036070568 0.0 0.0
0.0 0.06308643566453699 0.05345669796711565 -0.052304455859035585 -0.001152242108080054 -0.02230460549038848 0.0 0.0
0.0 0.07678209955648217 0.06519880171527655 -0.0639838111794236 -0.001214990535852993 -0.025606914727591 0.0 0.0
0.0 0.09119104071192828 0.07767103725944828 -0.07640333632432632 -0.0012677009351219277 -0.028569697794186454 0.0 0.0
0.0 0.10646487707009139 0.09057335484007606 -0.08926622391361906 -0.0013071309264569033 -0.03082467675039496 0.0 0.0
0.0 0.12119174412521427 0.10340445566324696 -0.10207769883121613 -0.0013267568320308703 -0.031748520310808125 0.0 0.0
0.0 0.13464971617962318 0.11531407894369172 -0.1140018913357327 -0.0013121876079589965 -0.030003720755944742 0.0 0.0
0.0 0.1457379765917503 0.12507227395617262 -0.12380126682274815 -0.001271007133424424 -0.023574682694390177 0.0 0.0
0.0 0.15268497432449513 0.13000087261233564 -0.1294531157560293 -0.0005477568563061915 2.920146763285558e-14 0.0 0.0
0.0 0.14573797659173351 0.12507227395615347 -0.12380126682272895 -0.0012710071334245323 0.023574682694456763 0.0 0.0
0.0 0.13464971617958685 0.11531407894365632 -0.11400189133569778 -0.0013121876079586236 0.030003720756007754 0.0 0.0
0.0 0.12119174412515758 0.10340445566319588 -0.10207769883116465 -0.0013267568320311175 0.03174852031084698 0.0 0.0
0.0 0.10646487707002784 0.0905733548400213 -0.08926622391356503 -0.001307130926456216 0.030824676750401646 0.0 0.0
0.0 0.0911910407118568 0.0776710372593868 -0.07640333632426466 -0.0012677009351222497 0.0285696977941748 0.0 0.0
0.0 0.07678209955641224 0.065198801715216 -0.06398381117936387 -0.001214990535852055 0.025606914727577736 0.0 0.0
0.0 0.06308643566446644 0.05345669796705439 -0.05230445585897472 -0.0011522421080796801 0.022304605490375176 0.0 0.0
0.0 0.05026267672019641 0.04261060146633502 -0.041528614897659646 -0.0010819865686753723 0.018915280360689814 0.0 0.0
0.0 0.03863405094273197 0.032734681558922174 -0.0317270417603123 -0.0010076397986098508 0.015515715615578603 0.0 0.0
0.0 0.02818147787121481 0.023878126980963865 -0.022941522187085922 -0.0009366047938779501 0.012074090508119136 0.0 0.0
0.0 0.01902487734983429 0.016144704234072636 -0.01527482489745237 -0.0008698793366202484 0.008636845096293283 0.0 0.0
0.0 0.011276448667848956 0.009735673972390148 -0.0089463393745686 -0.0007893345978215609 0.005417093198864072 0.0 0.0
0.0 0.005932699429634374 0.004886478619368302 -0.0042486925315858995 -0.0006377860877824028 0.0027500923406297696 0.0 0.0
0.0 0.0020482550497426064 0.001806533070210545 -0.0014443690213544374 -0.0003621640488561077 0.001033704230944873 0.0 0.0
0.0 0.0003547145088977915 0.00032422920284251946 -0.00023687919450039212 -8.735000834212694e-05 0.0001767487318144341 0.0 0.0
0.0 -2.5334280447660695e-05 -1.8105675241316014e-05 1.5229745923774665e-05 2.8759293175413182e-06 -3.099723116306295e-05 0.0 0.0
0.0 -3.176080328826608e-07 1.145334919272191e-07 -8.766521242204463e-08 -2.6868279505171286e-08 1.8733457406966927e-07 0.0 0.0
0.0 0.0 0.0 0.0 0.0 0.0 0.0 0.0
0.0 0.0011757279010457802 0.0005990295416510532 -0.0003182101875315069 -0.00028081935411954507 0.002041652691378113 0.0 0.0
0.0 0.005249806464376777 0.003646041207499005 -0.0050663351844427145 0.001420293976943705 0.0024807375864918167 0.0 0.0
0.0 0.0035650531309252727 0.002484686629342128 -0.003505681495217897 0.0010209948658757646 -0.0018606439694771617 0.0 0.0
0.0 0.0007557340471094628 0.0003420451994693288 -0.00016892876158515566 -0.00017311643788417278 -0.0013163851509845935 0.0 0.0
0.0 1.5734592941222573e-07 7.148379167026532e-10 -7.331624633568543e-11 -6.415216703671971e-10 3.250372699491736e-08 0.0 0.0
0.0 1.5712585741700463e-07 6.304622250958064e-09 -5.866682075806125e-09 -4.379401751547683e-10 3.806782874179354e-08 0.0 0.0
0.0 -1.8451459780733004e-05 -1.205953655684739e-05 9.659651654372626e-06 2.3998849024748206e-06 2.4971738250411014e-05 0.0 0.0
0.0 0.00010857483004185047 9.474226036680286e-05 -6.607357326602704e-05 -2.8668687100775918e-05 -7.030583066118054e-05 0.0 0.0
0.0 0.0012241998922126658 0.0010076831173453766 -0.0007834341667037285 -0.00022424895064164795 -0.0008287733752920643 0.0 0.0
0.0 0.0038672966103619586 0.0032521957600737048 -0.002747341928438873 -0.0005048538316348296 -0.0024506801792472826 0.0 0.0
0.0 0.008722001004593014 0.0069984250031440405 -0.006308021561732222 -0.0006904034414118188 -0.004980916758076603 0.0 0.0
0.0 0.0144920954924705 0.012139895160984538 -0.011356557363287424 -0.0007833377976971121 -0.008216447683921052 0.0 0.0
0.0 0.022080401404266894 0.01835156112439048 -0.017503291505622798 -0.0008482696187676806 -0.0116840539770882 0.0 0.0
0.0 0.03055116007909109 0.025438859823922768 -0.02452561046540118 -0.0009132493585216049 -0.015152268010500347 0.0 0.0
0.0 0.03990606483323406 0.033318187613937025 -0.032337200231469694 -0.0009809873824672766 -0.018564509460931976 0.0 0.0
0.0 0.050169276801045284 0.04197923655552112 -0.040933201061000776 -0.0010460354945203787 -0.02196250988051335 0.0 0.0
0.0 0.06125104708980306 0.051403718655359025 -0.05029953918705197 -0.0011041794683070106 -0.025284513318430374 0.0 0.0
0.0 0.07335469495394777 0.06150037796085042 -0.060347416456818716 -0.0011529615040317528 -0.028296572000883903 0.0 0.0
0.0 0.08535481201594651 0.07209386636343851 -0.07089584259336719 -0.0011980237700713538 -0.03065256909565553 0.0 0.0
0.0 0.09807574566829444 0.08291226410074898 -0.08167438416722553 -0.0012378799335233408 -0.03188908336659156 0.0 0.0
0.0 0.11033512624162492 0.09349295456548364 -0.09224579678664355 -0.001247157778840225 -0.030744956149045433 0.0 0.0
0.0 0.12086332891519924 0.10291773352174882 -0.10170400194563836 -0.001213731576110481 -0.024817927964104942 0.0 0.0
0.0 0.12854934454975198 0.10816865887692002 -0.10787123828763656 -0.0002974205892835905 2.876865412559937e-14 0.0 0.0
0.0 0.12086332891518968 0.1029177335217351 -0.10170400194562478 -0.0012137315761103797 0.02481792796417203 0.0 0.0
0.0 0.11033512624159182 0.09349295456545068 -0.09224579678660999 -0.0012471577788406947 0.030744956149108615 0.0 0.0
0.0 0.09807574566825175 0.08291226410070894 -0.08167438416718625 -0.0012378799335227278 0.03188908336663121 0.0 0.0
0.0 0.08535481201589315 0.07209386636339297 -0.07089584259332178 -0.0011980237700712183 0.030652569095660213 0.0 0.0
0.0 0.0733546949538893 0.06150037796080041 -0.060347416456768985 -0.0011529615040314792 0.028296572000870886 0.0 0.0
0.0 0.061251047089745006 0.051403718655308586 -0.050299539187002265 -0.0011041794683062972 0.02528451331841489 0.0 0.0
0.0 0.050169276800989836 0.04197923655547323 -0.04093320106095327 -0.0010460354945199173 0.021962509880500296 0.0 0.0
0.0 0.039906064833183305 0.03331818761389405 -0.032337200231427624 -0.000980987382466439 0.018564509460916312 0.0 0.0
0.0 0.030551160079040476 0.025438859823880763 -0.024525610465359345 -0.0009132493585214443 0.0151522680104784 0.0 0.0
0.0 0.02208040140422342 0.018351561124355313 -0.017503291505588037 -0.000848269618767272 0.011684053977062243 0.0 0.0
0.0 0.01449209549243516 0.012139895160955592 -0.011356557363258937 -0.0007833377976966555 0.008216447683898167 0.0 0.0
0.0 0.008722001004567636 0.0069984250031240895 -0.006308021561713156 -0.0006904034414109384 0.004980916758063157 0.0 0.0
0.0 0.00386729661034402 0.0032521957600593833 -0.0027473419284255863 -0.0005048538316337923 0.002450680179236528 0.0 0.0
0.0 0.001224199892204129 0.0010076831173391533 -0.0007834341666986956 -0.00022424895064045784 0.00082877337528699 0.0 0.0
0.0 0.00010857483003889227 9.474226036510469e-05 -6.607357326474672e-05 -2.8668687100358114e-05 7.030583065942224e-05 0.0 0.0
0.0 -1.8451459780831087e-05 -1.2059536556446969e-05 9.659651654056586e-06 2.399884902390389e-06 -2.4971738249741353e-05 0.0 0.0
0.0 1.5712585721141057e-07 6.304622253475461e-09 -5.866682076920911e-09 -4.379401765531699e-10 -3.806782869747957e-08 0.0 0.0
0.0 1.5734592914948445e-07 7.148379181953433e-10 -7.331624793983198e-11 -6.415216702555217e-10 -3.250372694055046e-08 0.0 0.0
0.0 0.000755734047104919 0.0003420451994674714 -0.00016892876158395128 -0.00017311643788351974 0.0013163851509786762 0.0 0.0
0.0 0.0035650531309148266 0.0024846866293339667 -0.003505681495206913 0.001020994865872946 0.0018606439694717617 0.0 0.0
0.0 0.0026879984963006347 0.0015350411744125825 -0.002196818022095381 0.0006617768476827982 -0.0012847524371159408 0.0 0.0
0.0 0.00033649629099446397 0.00016304830019847133 -6.756429213482286e-05 -9.54840080636486e-05 -0.0007510623910893245 0.0 0.0
0.0 1.0011858977101463e-06 6.912036989895198e-08 -7.019505725561765e-08 1.0746873566660413e-09 -1.3713982220774684e-06 0.0 0.0
0.0 -7.339760130417376e-07 2.8205426242164698e-08 -2.2357465086506375e-08 -5.84796115565846e-09 -2.352075832111152e-07 0.0 0.0
0.0 -9.30929260737249e-06 -5.8482255523798415e-06 4.657714675136805e-06 1.1905108772430348e-06 1.934594171422085e-05 0.0 0.0
0.0 -7.198488979555541e-08 2.1495800441530976e-06 8.596095251505613e-07 -3.009189569303719e-06 5.211061084968604e-06 0.0 0.0
0.0 0.0005726456250662506 0.00043024379739000024 -0.0003270999279634472 -0.00010314386942655264 -0.0005424066646084475 0.0 0.0
0.0 0.0022991272607466333 0.0018411827858409984 -0.0015065480541299069 -0.0003346347317110914 -0.0019307872107081354 0.0 0.0
0.0 0.005625893244564478 0.004485801492415657 -0.003935035050700959 -0.0005507664417146982 -0.004143030289383671 0.0 0.0
0.0 0.0105779810280648 0.008274161959022983 -0.007604407545425868 -0.0006697544135971038 -0.007039622999505836 0.0 0.0
0.0 0.016083906003373546 0.01294451094302127 -0.012203988883849187 -0.0007405220591720758 -0.010284072160354417 0.0 0.0
0.0 0.022496176214510753 0.018260538933422943 -0.017457766376075733 -0.0008027725573472206 -0.01354966694405327 0.0 0.0
0.0 0.029643203535067594 0.02414565044078744 -0.02328135418914422 -0.0008642962516432188 -0.016759174602128037 0.0 0.0
0.0 0.03741700135389765 0.030617666725605758 -0.02969526902997435 -0.0009223976956313374 -0.019941668960905018 0.0 0.0
0.0 0.045990741825002845 0.03771248010422579 -0.036736344851689036 -0.0009761352525367641 -0.023074922629175928 0.0 0.0
0.0 0.055111497418237794 0.04541893205520552 -0.04439653113476733 -0.0010224009204381572 -0.025963811350996614 0.0 0.0
0.0 0.06496434919299758 0.05364151177242418 -0.05257538104693767 -0.0010661307254865161 -0.028258617315591955 0.0 0.0
0.0 0.07498403338920057 0.062319776824925954 -0.06119510135544856 -0.0011246754694773005 -0.029633595963904455 0.0 0.0
0.0 0.0852530707186961 0.07142028410216317 -0.07024827842488081 -0.0011720056772823021 -0.02935927343196336 0.0 0.0
0.0 0.0955535791405639 0.08047661544886937 -0.07932094275163287 -0.0011556726972364669 -0.024965438590534326 0.0 0.0
0.0 0.10435107416212981 0.08613700885876728 -0.08612528132174613 -1.1727537021238518e-05 2.40241854188028e-14 0.0 0.0
0.0 0.09555357914056073 0.08047661544885967 -0.07932094275162357 -0.0011556726972360614 0.024965438590596384 0.0 0.0
0.0 0.08525307071867562 0.07142028410213992 -0.07024827842485697 -0.001172005677282951 0.02935927343202577 0.0 0.0
0.0 0.07498403338916294 0.062319776824891183 -0.06119510135541358 -0.0011246754694775472 0.02963359596393793 0.0 0.0
0.0 0.06496434919296312 0.05364151177239462 -0.05257538104690948 -0.0010661307254851207 0.028258617315597225 0.0 0.0
0.0 0.055111497418190485 0.045418932055166075 -0.04439653113472829 -0.0010224009204378565 0.025963811350980217 0.0 0.0
0.0 0.045990741824958624 0.0377124801041885 -0.03673634485165173 -0.0009761352525367255 0.023074922629159902 0.0 0.0
0.0 0.0374170013538563 0.030617666725570616 -0.029695269029939228 -0.0009223976956314038 0.019941668960893395 0.0 0.0
0.0 0.029643203535027068 0.024145650440753987 -0.023281354189111106 -0.0008642962516428581 0.016759174602112632 0.0 0.0
0.0 0.02249617621447398 0.01826053893339276 -0.017457766376046006 -0.0008027725573467529 0.013549666944033673 0.0 0.0
0.0 0.016083906003338446 0.012944510942993833 -0.01220398888382248 -0.000740522059171336 0.010284072160329793 0.0 0.0
0.0 0.01057798102803424 0.008274161958999474 -0.007604407545402636 -0.0006697544135968338 0.007039622999483353 0.0 0.0
0.0 0.005625893244544759 0.004485801492400289 -0.003935035050686448 -0.0005507664417138438 0.004143030289370915 0.0 0.0
0.0 0.00229912726073486 0.0018411827858320798 -0.001506548054122054 -0.0003346347317100258 0.0019307872106992664 0.0 0.0
0.0 0.0005726456250618452 0.00043024379738687996 -0.00032709992796103475 -0.0001031438694258446 0.000542406664604883 0.0 0.0
0.0 -7.198489090181347e-08 2.149580044057844e-06 8.596095252199723e-07 -3.009189569277776e-06 -5.211061085064007e-06 0.0 0.0
0.0 -9.30929260855877e-06 -5.848225552138252e-06 4.657714674956677e-06 1.1905108771815567e-06 -1.934594171331281e-05 0.0 0.0
0.0 -7.339760130899548e-07 2.8205426311954645e-08 -2.2357465131302136e-08 -5.847961180653002e-09 2.3520758428596438e-07 0.0 0.0
0.0 1.0011858974376992e-06 6.912036989788453e-08 -7.019505726301539e-08 1.07468736513131e-09 1.3713982223111953e-06 0.0 0.0
0.0 0.00033649629099101534 0.00016304830019708995 -6.756429213392734e-05 -9.548400806316276e-05 0.0007510623910843241 0.0 0.0
0.0 0.0026879984962908023 0.0015350411744064305 -0.002196818022086808 0.0006617768476803788 0.001284752437111921 0.0 0.0
0.0 0.0014164960585740661 0.0008558309317699574 -0.0012420012413848678 0.00038617030961491023 -0.0008640293222486463 0.0 0.0
0.0 0.0001259373367824115 4.494352764155913e-05 2.860731528697626e-06 -4.780425917025653e-05 -0.0003234824771174605 0.0 0.0
0.0 2.1248213815749807e-06 1.002209836054497e-08 -5.259067332916498e-09 -4.763031027627572e-09 2.7164563816550185e-07 0.0 0.0
0.0 1.2251095632084425e-06 -1.5495810281560914e-07 1.1551024965883672e-07 3.944785315677239e-08 1.2432315854115243e-06 0.0 0.0
0.0 -7.261890138965149e-06 -2.8355409386782805e-06 2.260048013028295e-06 5.754929256499888e-07 1.3901005626177995e-05 0.0 0.0
0.0 -1.9894244176725317e-05 -8.914100956402653e-06 7.799771825886795e-06 1.1143291305158948e-06 1.6596039988331614e-05 0.0 0.0
0.0 0.0002039625500285962 0.00010096892135217923 -7.6014980226799e-05 -2.4953941125380586e-05 -0.00025025442523608256 0.0 0.0
0.0 0.0011538145724434845 0.0007343331640790359 -0.0005882538311157133 -0.00014607933296332233 -0.0012280848453450196 0.0 0.0
0.0 0.0031313921556041465 0.002264790904973774 -0.0019245222056935292 -0.0003402686992802435 -0.0029661700179596188 0.0 0.0
0.0 0.006333676963031387 0.004678959497186202 -0.004186326182354009 -0.000492633314832195 -0.005250644271729599 0.0 0.0
0.0 0.010134278200042618 0.007754454178253149 -0.00716814437904861 -0.0005863097992045394 -0.0079283657194048 0.0 0.0
0.0 0.014634307680639398 0.01127666718320593 -0.010624304081123396 -0.0006523631020825308 -0.010707466501640426 0.0 0.0
0.0 0.019527903850793383 0.015169909665744209 -0.014458555189686199 -0.0007113544760580079 -0.013500750320092044 0.0 0.0
0.0 0.024863840610640096 0.01945761398032533 -0.018694720866274193 -0.0007628931140511511 -0.016272998013414128 0.0 0.0
0.0 0.03078052075685666 0.024210192165738255 -0.023398900014736476 -0.0008112921510017654 -0.01900536949127732 0.0 0.0
0.0 0.03732861477709594 0.029497160670355342 -0.028639888293683715 -0.0008572723766716153 -0.02161263962818538 0.0 0.0
0.0 0.04441287777639804 0.03532875829841836 -0.03442755703375534 -0.0009012012646630246 -0.023795163341237678 0.0 0.0
0.0 0.05182672155855127 0.041735643626888176 -0.040774968442465725 -0.0009606751844224889 -0.025142232035941695 0.0 0.0
0.0 0.06021805473072264 0.0490421450061336 -0.04798938178808944 -0.001052763218044145 -0.025472520759869187 0.0 0.0
0.0 0.07007736353345778 0.05750734923968673 -0.05641361221545295 -0.001093737024233777 -0.023536980165003156 0.0 0.0
0.0 0.08018775135994535 0.06364495345865245 -0.06395729765009094 0.00031234419143838824 2.2464669013899652e-14 0.0 0.0
0.0 0.07007736353345198 0.05750734923967435 -0.05641361221543968 -0.0010937370242346336 0.02353698016505518 0.0 0.0
0.0 0.06021805473071436 0.0490421450061199 -0.0479893817880763 -0.0010527632180435602 0.025472520759927845 0.0 0.0
0.0 0.05182672155852411 0.04173564362686372 -0.04077496844244104 -0.0009606751844226809 0.025142232035969447 0.0 0.0
0.0 0.044412877776371394 0.035328758298396774 -0.03442755703373506 -0.0009012012646617327 0.023795163341238417 0.0 0.0
0.0 0.03732861477706406 0.029497160670329994 -0.02863988829365794 -0.0008572723766720276 0.021612639628169027 0.0 0.0
0.0 0.03078052075682697 0.024210192165714167 -0.023398900014712346 -0.0008112921510018154 0.019005369491263857 0.0 0.0
0.0 0.024863840610616382 0.01945761398030515 -0.018694720866254476 -0.0007628931140506857 0.01627299801340791 0.0 0.0
0.0 0.019527903850766564 0.01516990966572329 -0.01445855518966515 -0.0007113544760581363 0.013500750320078672 0.0 0.0
0.0 0.014634307680611613 0.011276667183185088 -0.010624304081102865 -0.0006523631020822061 0.010707466501621998 0.0 0.0
0.0 0.010134278200016738 0.00775445417823378 -0.0071681443790298505 -0.0005863097992039217 0.007928365719383398 0.0 0.0
0.0 0.0063336769630123295 0.004678959497173076 -0.0041863261823410144 -0.0004926333148320664 0.00525064427171241 0.0 0.0
0.0 0.0031313921555909782 0.0022647909049640074 -0.0019245222056848768 -0.0003402686992791294 0.0029661700179495387 0.0 0.0
0.0 0.0011538145724360911 0.0007343331640744156 -0.0005882538311118025 -0.00014607933296261315 0.0012280848453376288 0.0 0.0
0.0 0.00020396255002536612 0.00010096892135116328 -7.601498022604415e-05 -2.495394112511897e-05 0.00025025442523412975 0.0 0.0
0.0 -1.9894244177474687e-05 -8.914100956159205e-06 7.799771825705649e-06 1.114329130453514e-06 -1.6596039987651514e-05 0.0 0.0
0.0 -7.261890138989683e-06 -2.83554093852949e-06 2.260048012916027e-06 5.754929256134697e-07 -1.3901005624900581e-05 0.0 0.0
0.0 1.22510956273429e-06 -1.5495810285600705e-07 1.1551024969203382e-07 3.9447853163974104e-08 -1.2432315854809857e-06 0.0 0.0
0.0 2.124821381793493e-06 1.002209839325572e-08 -5.259067369609675e-09 -4.763031023645647e-09 -2.716456370598067e-07 0.0 0.0
0.0 0.00012593733677944522 4.4943527640776814e-05 2.8607315291933877e-06 -4.780425916996985e-05 0.00032348247711447466 0.0 0.0
0.0 0.0014164960585675015 0.000855830931766179 -0.0012420012413793958 0.0003861703096132158 0.0008640293222460481 0.0 0.0
0.0 0.0006929331352520989 0.0003745500471931516 -0.0005489211592973297 0.00017437111210417868 -0.00046631459562814577 0.0 0.0
0.0 -4.929154178314349e-06 -1.1394063166724563e-05 3.162677503099774e-05 -2.023271186427326e-05 -5.4862097379314306e-05 0.0 0.0
0.0 3.4463245514311717e-06 5.9035489906670697e-08 -1.3098974483197697e-07 7.195425492530676e-08 -3.923311450825435e-06 0.0 0.0
0.0 1.772494790866704e-06 -1.428644483042924e-07 1.2900780447479356e-07 1.385664382949682e-08 -2.631772756498025e-06 0.0 0.0
0.0 -4.281664060862367e-06 -1.2168042912816505e-06 1.0241450390224814e-06 1.9265925225917677e-07 9.316920481880273e-06 0.0 0.0
0.0 -3.4519962054073066e-06 -4.125142760890964e-06 3.595838759915405e-06 5.293040009755236e-07 9.066133288104474e-06 0.0 0.0
0.0 8.197965102064468e-05 7.291989260738483e-06 -5.250059580323987e-06 -2.0419296804144278e-06 -0.00011943188539878546 0.0 0.0
0.0 0.0003672096120948588 0.00010364882000186428 -8.728689052945406e-05 -1.6361929472410267e-05 -0.0005570498917083442 0.0 0.0
0.0 0.0011435915225312067 0.0005203727765921337 -0.0004583008154972739 -6.207196109485928e-05 -0.0015671440207787476 0.0 0.0
0.0 0.0026562077168795473 0.0015027471118583987 -0.0013527418213508707 -0.0001500052905075277 -0.0031343553474247254 0.0 0.0
0.0 0.004893502153365208 0.002951939417944608 -0.0027051160409958825 -0.00024682337694872193 -0.005012335496851041 0.0 0.0
0.0 0.007239334091087431 0.004663816546505811 -0.004335153432025937 -0.0003286631144798797 -0.007105723636535154 0.0 0.0
0.0 0.009987913808670574 0.006562964442170648 -0.006166896469240644 -0.0003960679729300012 -0.009321144917328519 0.0 0.0
0.0 0.013051627138109922 0.0086764089714835 -0.008224061127905828 -0.0004523478435776644 -0.011608179260304868 0.0 0.0
0.0 0.016451539804859625 0.01108340296275762 -0.010577504868117248 -0.0005058980946403828 -0.013954123847173247 0.0 0.0
0.0 0.0203343460649761 0.0139116626396209 -0.01334949366502665 -0.0005621689745942476 -0.016322961669085777 0.0 0.0
0.0 0.024861180311716333 0.017315575534471727 -0.01669300831052841 -0.0006225672239433211 -0.018514309694966858 0.0 0.0
0.0 0.030057883836848924 0.02142609898861087 -0.020742195626771223 -0.0006839033618396448 -0.01998806212740139 0.0 0.0
0.0 0.03603814354126774 0.026587686092666814 -0.025805551291765302 -0.0007821348009015231 -0.02028289335849636 0.0 0.0
0.0 0.04414169551354989 0.03384003843255463 -0.032883775851883575 -0.0009562625806710111 -0.020036779141811574 0.0 0.0
0.0 0.05717674716815979 0.0403783796600324 -0.041067694312803 0.0006893146527706235 1.8310873650673187e-14 0.0 0.0
0.0 0.04414169551354514 0.033840038432542595 -0.03288377585187096 -0.0009562625806716958 0.020036779141850886 0.0 0.0
0.0 0.036038143541263015 0.026587686092658172 -0.02580555129175629 -0.0007821348009018729 0.02028289335854021 0.0 0.0
0.0 0.030057883836832586 0.021426098988598485 -0.020742195626758247 -0.0006839033618402302 0.01998806212741768 0.0 0.0
0.0 0.024861180311691777 0.017315575534456246 -0.01669300831051387 -0.000622567223942406 0.018514309694957952 0.0 0.0
0.0 0.020334346064960852 0.013911662639610392 -0.01334949366501612 -0.0005621689745942698 0.016322961669074005 0.0 0.0
0.0 0.016451539804846215 0.01108340296274854 -0.010577504868107686 -0.0005058980946408636 0.013954123847162214 0.0 0.0
0.0 0.013051627138096353 0.008676408971474406 -0.008224061127896996 -0.00045234784357740885 0.011608179260297774 0.0 0.0
0.0 0.009987913808658433 0.00656296444216355 -0.006166896469233965 -0.00039606797292959626 0.00932114491731916 0.0 0.0
0.0 0.007239334091070541 0.004663816546495004 -0.004335153432015729 -0.00032866311447927554 0.007105723636520829 0.0 0.0
0.0 0.004893502153350863 0.0029519394179365463 -0.002705116040987698 -0.00024682337694884753 0.005012335496835307 0.0 0.0
0.0 0.0026562077168743327 0.0015027471118561346 -0.0013527418213486087 -0.00015000529050752625 0.0031343553474191222 0.0 0.0
0.0 0.0011435915225256079 0.0005203727765891777 -0.00045830081549445335 -6.207196109472343e-05 0.0015671440207717146 0.0 0.0
0.0 0.0003672096120922306 0.00010364882000101373 -8.728689052868477e-05 -1.6361929472328952e-05 0.0005570498917050393 0.0 0.0
0.0 8.197965101948375e-05 7.29198926077389e-06 -5.250059580354719e-06 -2.041929680419206e-06 0.00011943188539844261 0.0 0.0
0.0 -3.4519962056953385e-06 -4.1251427606507e-06 3.595838759734579e-06 5.29304000916126e-07 -9.066133286668602e-06 0.0 0.0
0.0 -4.2816640614128405e-06 -1.216804291248208e-06 1.0241450390015692e-06 1.926592522466355e-07 -9.316920481038444e-06 0.0 0.0
0.0 1.7724947908120426e-06 -1.428644483225879e-07 1.29007804492152e-07 1.3856643830436564e-08 2.631772757199908e-06 0.0 0.0
0.0 3.4463245512841585e-06 5.903548991064219e-08 -1.3098974484743286e-07 7.195425493678713e-08 3.923311451497515e-06 0.0 0.0
0.0 -4.929154179748673e-06 -1.1394063166890014e-05 3.162677503104153e-05 -2.0232711864151456e-05 5.486209737794827e-05 0.0 0.0
0.0 0.0006929331352476762 0.00037455004719098996 -0.0005489211592941672 0.00017437111210317683 0.00046631459562602204 0.0 0.0
0.0 0.00017565345581717053 0.00010079219872054872 -0.00015015454929945092 4.9362350578902056e-05 -0.00015898429380308126 0.0 0.0
0.0 -2.4911083979246025e-05 -1.4369380486015959e-05 2.0731148633814385e-05 -6.3617681477983976e-06 2.3995719082331013e-05 0.0 0.0
0.0 3.652496698668858e-06 1.6856615218356903e-07 -1.538184398573998e-07 -1.4747712326173194e-08 2.5460565836108757e-06 0.0 0.0
0.0 3.6223093524329063e-06 -3.4080653546793353e-07 2.823208475075422e-07 5.848568796039402e-08 -4.533462033346525e-06 0.0 0.0
0.0 -1.8126284099220106e-07 -4.907172379518418e-07 4.823672158771561e-07 8.35002207468307e-09 1.2327233382664535e-06 0.0 0.0
0.0 5.876765797708486e-06 -1.395693767962893e-06 1.4408431612352158e-06 -4.514939327232345e-08 -2.352639594805667e-06 0.0 0.0
0.0 8.498487814367872e-05 -2.0555807244775972e-06 2.050329357510744e-06 5.2513669668474015e-09 -0.00012365891272609375 0.0 0.0
0.0 0.00021402333149790094 -1.5033207218386085e-06 1.4813935724929544e-06 2.1927149345699206e-08 -0.00036997754804998046 0.0 0.0
0.0 0.0004749127272466909 -4.120891118841845e-07 3.7382960243942983e-07 3.825950944475042e-08 -0.0007661203148309852 0.0 0.0
0.0 0.0007976664773301228 4.668846264265468e-08 -3.670687722253193e-08 -9.981585420407353e-09 -0.0015617768164214792 0.0 0.0
0.0 0.0015543530602248154 -8.990679773837108e-08 1.5838370271697316e-07 -6.847690497838524e-08 -0.0029420112636875453 0.0 0.0
0.0 0.0025872547283175397 -9.336130659474973e-06 1.1868447193256657e-05 -2.532316533782023e-06 -0.004840054273174296 0.0 0.0
0.0 0.00394647014009789 -2.6811212270016625e-05 3.072632002017596e-05 -3.915107750158031e-06 -0.006887411195961546 0.0 0.0
0.0 0.005488843064466724 -3.463562540199038e-05 3.549155297031235e-05 -8.559275683228413e-07 -0.009043495849995352 0.0 0.0
0.0 0.00718878231777221 4.396996963301628e-05 -5.698523159551627e-05 1.3015261962498741e-05 -0.011316237522874695 0.0 0.0
0.0 0.00900267161769979 0.00037832389785494324 -0.0004197081552311939 4.1384257376246043e-05 -0.013695705369718387 0.0 0.0
0.0 0.010968983488250282 0.0012447898751730471 -0.0013341291318717395 8.933925669869569e-05 -0.016102437545840363 0.0 0.0
0.0 0.013012332795303016 0.002887615056052741 -0.003094571413839167 0.00020695635778642313 -0.018315133832531437 0.0 0.0
0.0 0.015798188829039553 0.005001034013164744 -0.005392262956008644 0.0003912289428439038 -0.019922232431205323 0.0 0.0
0.0 0.02277085590270421 0.009799910751992305 -0.009530358980081099 -0.0002695517719112067 -0.020633635337117914 0.0 0.0
0.0 0.04066709846279448 0.017078306786657723 -0.018371626631659876 0.0012933198450021555 1.3590691072540295e-14 0.0 0.0
0.0 0.022770855902709605 0.00979991075199 -0.009530358980077676 -0.0002695517719123096 0.020633635337144636 0.0 0.0
0.0 0.015798188829034242 0.00500103401316254 -0.005392262956007628 0.0003912289428450785 0.019922232431218594 0.0 0.0
0.0 0.013012332795294386 0.0028876150560518915 -0.0030945714138377704 0.00020695635778588116 0.018315133832528425 0.0 0.0
0.0 0.010968983488232421 0.001244789875173165 -0.0013341291318724204 8.93392566992586e-05 0.016102437545823724 0.0 0.0
0.0 0.009002671617691967 0.0003783238978566179 -0.0004197081552328816 4.138425737626076e-05 0.013695705369707519 0.0 0.0
0.0 0.007188782317764035 4.396996963615938e-05 -5.6985231599030167e-05 1.3015261962874309e-05 0.011316237522863168 0.0 0.0
0.0 0.005488843064460501 -3.4635625399781966e-05 3.5491552968457715e-05 -8.559275686779446e-07 0.009043495849986285 0.0 0.0
0.0 0.003946470140085094 -2.681121226553887e-05 3.0726320014999814e-05 -3.915107749460713e-06 0.006887411195944928 0.0 0.0
0.0 0.0025872547283051625 -9.336130658223315e-06 1.1868447192184381e-05 -2.5323165339623802e-06 0.004840054273159382 0.0 0.0
0.0 0.00155435306021747 -8.990679659147491e-08 1.5838370139934226e-07 -6.84769048073659e-08 0.0029420112636764266 0.0 0.0
0.0 0.0007976664773276607 4.6688462402585213e-08 -3.670687709948176e-08 -9.981585302981481e-09 0.001561776816419844 0.0 0.0
0.0 0.000474912727244731 -4.1208911207504134e-07 3.738296026471291e-07 3.8259509427702185e-08 0.000766120314827756 0.0 0.0
0.0 0.0002140233314972657 -1.5033207218538318e-06 1.4813935725414445e-06 2.192714931236867e-08 0.0003699775480488364 0.0 0.0
0.0 8.49848781423862e-05 -2.0555807244576072e-06 2.0503293574852857e-06 5.251366972363492e-09 0.00012365891272554295 0.0 0.0
0.0 5.876765796606466e-06 -1.39569376794878e-06 1.4408431612159335e-06 -4.51493932671647e-08 2.3526395947658224e-06 0.0 0.0
0.0 -1.8126284175524852e-07 -4.907172379926657e-07 4.823672159170435e-07 8.350022075626945e-09 -1.2327233372884125e-06 0.0 0.0
0.0 3.6223093523889695e-06 -3.4080653551953975e-07 2.8232084755318007e-07 5.8485687966359595e-08 4.5334620340245995e-06 0.0 0.0
0.0 3.652496697837408e-06 1.6856615217491744e-07 -1.5381843985524749e-07 -1.4747712319661235e-08 -2.5460565830291585e-06 0.0 0.0
0.0 -2.4911083979104336e-05 -1.436938048569649e-05 2.0731148633403395e-05 -6.361768147706931e-06 -2.399571908093596e-05 0.0 0.0
0.0 0.0001756534558149975 0.00010079219871985061 -0.00015015454929845508 4.936235057860464e-05 0.00015898429380204525 0.0 0.0
0.0 6.403887054621146e-06 2.021240394372443e-06 -3.590491538213685e-06 1.5692511438412086e-06 -2.701496888579383e-06 0.0 0.0
0.0 -1.4394965500934889e-06 -4.487691072272181e-07 7.016404542152203e-07 -2.5287134698800276e-07 2.6510868801337035e-06 0.0 0.0
0.0 1.1100941723956396e-06 1.5915414496195146e-07 -2.2472075457222176e-07 6.556660961027e-08 -2.025701403994807e-06 0.0 0.0
0.0 5.789105178622164e-06 -4.1201242517106445e-07 3.222245049360273e-07 8.97879202350382e-08 -5.519399871518219e-06 0.0 0.0
0.0 3.6606333139458014e-06 -6.966461232015713e-07 6.57131558842371e-07 3.9514564359198383e-08 -6.195912416269517e-06 0.0 0.0
0.0 9.13043971060803e-06 -1.6059034800112453e-06 1.6827352467099324e-06 -7.683176669864334e-08 -2.0669678376362955e-05 0.0 0.0
0.0 0.00011415485210250298 -1.403004200958851e-05 1.1494486987218131e-05 2.5355550223703254e-06 -0.00013905728592422784 0.0 0.0
0.0 0.00038458712207024067 -0.00011066479759955115 9.346153449727975e-05 1.7203263102271314e-05 -0.0005747822431984806 0.0 0.0
0.0 0.0011487539341191386 -0.0005227182295376284 0.0004602669813852645 6.245124815236396e-05 -0.0015758037579000099 0.0 0.0
0.0 0.0026548092707572683 -0.001502124940160411 0.001352130253749662 0.0001499946864107485 -0.003134604851254683 0.0 0.0
0.0 0.004909649638617434 -0.0029562296657625314 0.002708832287346249 0.00024739737841628095 -0.005011077071430694 0.0 0.0
0.0 0.00728418309201258 -0.004694062217507436 0.004361838253284625 0.00033222396422281 -0.007113218964534737 0.0 0.0
0.0 0.010063448209821605 -0.006632308605383391 0.006232098943402729 0.0004002096619806581 -0.009326004811787143 0.0 0.0
0.0 0.013113104912591362 -0.008744473321162667 0.008296627815197119 0.0004478455059655553 -0.011596449338373718 0.0 0.0
0.0 0.01624224538893189 -0.010933954776330808 0.010461741618097663 0.0004722131582331427 -0.013941581100099564 0.0 0.0
0.0 0.019268937225886854 -0.012964755636170963 0.012497652450095202 0.0004671031860757509 -0.01641339267357088 0.0 0.0
0.0 0.021766617519038977 -0.014448305796397228 0.014023542448458114 0.00042476334793912156 -0.019038273818214733 0.0 0.0
0.0 0.023510610280454737 -0.0149052140566088 0.014569768658654543 0.000335445397954262 -0.021905756073852672 0.0 0.0
0.0 0.023562249381211882 -0.013780711359605687 0.01365117048934507 0.00012954087026063004 -0.02496806175101556 0.0 0.0
0.0 0.019208435195236833 -0.010015544348295996 0.010467086550830744 -0.00045154220253475474 -0.027019082244581393 0.0 0.0
0.0 0.039319564772836 -0.005762653996670745 0.0030662117559584826 0.002696442240712258 1.4099832412739488e-14 0.0 0.0
0.0 0.01920843519524382 -0.01001554434829616 0.010467086550830729 -0.0004515422025345683 0.02701908224460301 0.0 0.0
0.0 0.023562249381212652 -0.013780711359602828 0.013651170489342931 0.00012954087025988573 0.024968061751037135 0.0 0.0
0.0 0.023510610280436696 -0.014905214056596575 0.014569768658641648 0.000335445397954934 0.021905756073852166 0.0 0.0
0.0 0.021766617519011915 -0.014448305796377913 0.014023542448438828 0.00042476334793910633 0.019038273818199874 0.0 0.0
0.0 0.019268937225866055 -0.012964755636155605 0.012497652450080244 0.0004671031860753661 0.016413392673555936 0.0 0.0
0.0 0.016242245388911773 -0.010933954776315083 0.010461741618082708 0.00047221315823236664 0.013941581100084404 0.0 0.0
0.0 0.013113104912574074 -0.00874447332114902 0.008296627815183578 0.0004478455059654432 0.011596449338363199 0.0 0.0
0.0 0.01006344820979626 -0.00663230860536494 0.006232098943384959 0.00040020966197998434 0.009326004811769546 0.0 0.0
0.0 0.007284183091991329 -0.004694062217492375 0.004361838253270567 0.0003322239642217999 0.007113218964517544 0.0 0.0
0.0 0.0049096496385985285 -0.002956229665750688 0.0027088322873350503 0.00024739737841563905 0.005011077071413432 0.0 0.0
0.0 0.0026548092707442995 -0.0015021249401522415 0.0013521302537419133 0.00014999468641032932 0.0031346048512431155 0.0 0.0
0.0 0.0011487539341127361 -0.0005227182295339204 0.0004602669813819554 6.245124815196517e-05 0.0015758037578932436 0.0 0.0
0.0 0.00038458712206786323 -0.00011066479759885167 9.346153449673902e-05 1.720326310211268e-05 0.0005747822431959161 0.0 0.0
0.0 0.00011415485210029545 -1.403004200942247e-05 1.1494486987062513e-05 2.5355550223599683e-06 0.00013905728592267225 0.0 0.0
0.0 9.130439710070579e-06 -1.6059034802208122e-06 1.6827352468787575e-06 -7.683176665793738e-08 2.066967837764438e-05 0.0 0.0
0.0 3.660633313565044e-06 -6.966461233270887e-07 6.571315589473557e-07 3.9514564379721165e-08 6.1959124172816045e-06 0.0 0.0
0.0 5.789105177978272e-06 -4.1201242525242064e-07 3.222245050026703e-07 8.97879202497484e-08 5.519399872211624e-06 0.0 0.0
0.0 1.1100941719749755e-06 1.5915414494413616e-07 -2.2472075456666377e-07 6.556660962252316e-08 2.025701404583356e-06 0.0 0.0
0.0 -1.4394965502573018e-06 -4.487691073063453e-07 7.016404543096555e-07 -2.528713470033146e-07 -2.6510868802991222e-06 0.0 0.0
0.0 6.403887053194894e-06 2.021240394767454e-06 -3.5904915388022505e-06 1.5692511440348245e-06 2.7014968894283792e-06 0.0 0.0
0.0 2.034611343575935e-06 -1.1794173393863115e-07 1.8495244463876623e-07 -6.701071070005743e-08 2.736999519842078e-07 0.0 0.0
0.0 5.973595486031088e-07 4.203512836154142e-08 -2.1574632451286834e-08 -2.04604959102696e-08 5.288479557830053e-07 0.0 0.0
0.0 -1.1435039084969412e-06 5.080794284249174e-07 -4.3354495868016813e-07 -7.453446974475873e-08 3.0470858929593195e-06 0.0 0.0
0.0 3.2461709129508905e-06 -6.737590445068953e-07 5.217135017107234e-07 1.5204554279616162e-07 -6.635292082998591e-06 0.0 0.0
0.0 6.695434866691247e-06 1.6343143396360116e-06 -1.2892246105228988e-06 -3.4508972911304846e-07 3.5104933864030785e-06 0.0 0.0
0.0 3.534296558292999e-05 -3.4272643294139965e-06 2.8248769185670413e-06 6.023874108469192e-07 -2.3813846997269604e-05 0.0 0.0
0.0 0.00022866984572440381 -0.00012589780637911203 9.727558384317576e-05 2.8622222535936427e-05 -0.0003216691545911268 0.0 0.0
0.0 0.0011763288395099242 -0.0007443676345005797 0.0005972308238386433 0.00014713681066193555 -0.0012545704151673037 0.0 0.0
0.0 0.0031325593004397955 -0.002264683210920963 0.0019242164124641768 0.00034046679845678543 -0.0029717752781188507 0.0 0.0
0.0 0.006331564240562765 -0.004678187153147242 0.004185486283435716 0.0004927008697115226 -0.005248630982136526 0.0 0.0
0.0 0.01014326978882908 -0.007762312265660979 0.007175723884342152 0.0005865883813188266 -0.007930495696334321 0.0 0.0
0.0 0.014667088048404475 -0.011305141571303115 0.01065190632255517 0.000653235248747952 -0.010707170273217083 0.0 0.0
0.0 0.019585933803854528 -0.015228870037839107 0.01451715727076469 0.000711712767074417 -0.013459933863429032 0.0 0.0
0.0 0.024890755608011374 -0.019508036580371868 0.01875070599809322 0.0007573305822786347 -0.016161401866254664 0.0 0.0
0.0 0.030552581810259993 -0.02404645420067921 0.023259491514216437 0.000786962686462767 -0.018911066489532436 0.0 0.0
0.0 0.03629189547299286 -0.028576791292471555 0.027781637370042526 0.0007951539224290431 -0.021915457385960607 0.0 0.0
0.0 0.04156771532917035 -0.03263858347719345 0.03185459129675844 0.0007839921804350107 -0.02539120807378831 0.0 0.0
0.0 0.04554790873776746 -0.03561158285690431 0.03485407155075916 0.0007575113061451841 -0.0294383968693034 0.0 0.0
0.0 0.04748194841324078 -0.03640286939214681 0.035744790014935565 0.0006580793772112067 -0.03329543149380818 0.0 0.0
0.0 0.04431624135643777 -0.03265323383521007 0.03221269098815654 0.0004405428470535129 -0.03427864014350933 0.0 0.0
0.0 0.04823450252558126 -0.026629223257585037 0.023156020065155283 0.003473203192429738 1.9481811996957532e-14 0.0 0.0
0.0 0.04431624135644889 -0.032653233835208184 0.03221269098815549 0.00044054284705268904 0.03427864014355815 0.0 0.0
0.0 0.04748194841323652 -0.036402869392136133 0.035744790014924414 0.0006580793772117122 0.033295431493852015 0.0 0.0
0.0 0.045547908737737286 -0.03561158285687768 0.03485407155073259 0.0007575113061450871 0.02943839686931485 0.0 0.0
0.0 0.04156771532913082 -0.032638583477161504 0.03185459129672666 0.0007839921804348323 0.025391208073777673 0.0 0.0
0.0 0.03629189547295492 -0.02857679129244088 0.027781637370011786 0.0007951539224290727 0.021915457385941535 0.0 0.0
0.0 0.03055258181022473 -0.02404645420065055 0.023259491514188425 0.0007869626864621308 0.018911066489514405 0.0 0.0
0.0 0.02489075560797906 -0.019508036580344338 0.018750705998066122 0.000757330582278187 0.01616140186623954 0.0 0.0
0.0 0.019585933803817422 -0.015228870037809204 0.014517157270734963 0.0007117127670742381 0.013459933863411194 0.0 0.0
0.0 0.014667088048368207 -0.01130514157127552 0.010651906322528007 0.0006532352487475092 0.010707170273192165 0.0 0.0
0.0 0.010143269788796061 -0.0077623122656359945 0.007175723884317188 0.0005865883813188046 0.007930495696308788 0.0 0.0
0.0 0.006331564240539648 -0.004678187153129856 0.004185486283419102 0.0004927008697107583 0.0052486309821194385 0.0 0.0
0.0 0.0031325593004252485 -0.002264683210910085 0.0019242164124544762 0.0003404667984556108 0.0029717752781082095 0.0 0.0
0.0 0.0011763288395020967 -0.0007443676344954262 0.000597230823834421 0.00014713681066100395 0.0012545704151598787 0.0 0.0
0.0 0.00022866984571963416 -0.00012589780637705641 9.727558384156585e-05 2.8622222535490667e-05 0.00032166915458692037 0.0 0.0
0.0 3.534296558252844e-05 -3.4272643297579004e-06 2.8248769188408667e-06 6.023874109169324e-07 2.381384699850463e-05 0.0 0.0
0.0 6.69543486541038e-06 1.6343143396061347e-06 -1.289224610498569e-06 -3.450897291075606e-07 -3.5104933862305353e-06 0.0 0.0
0.0 3.246170912655848e-06 -6.737590446314172e-07 5.217135018149888e-07 1.5204554281643334e-07 6.635292083783635e-06 0.0 0.0
0.0 -1.1435039087903367e-06 5.080794283623104e-07 -4.3354495864705095e-07 -7.453446971525457e-08 -3.0470858919393517e-06 0.0 0.0
0.0 5.973595481770679e-07 4.2035128384471484e-08 -2.157463246569388e-08 -2.046049591877492e-08 -5.288479561064851e-07 0.0 0.0
0.0 2.034611343773175e-06 -1.1794173394994551e-07 1.849524446547311e-07 -6.701071070482646e-08 -2.7369995201493404e-07 0.0 0.0
0.0 0.0 0.0 0.0 0.0 0.0 0.0 0.0
0.0 1.3615175661611528e-07 -9.895838690264848e-10 4.743687846429375e-09 -3.7541039774071085e-09 1.0669212206308297e-08 0.0 0.0
0.0 -2.675204546941543e-07 5.311468019179302e-07 -4.239123934596397e-07 -1.0723440845828335e-07 2.8907345193914797e-06 0.0 0.0
0.0 1.5935204188672402e-06 1.1583627006237117e-06 -9.821038930593712e-07 -1.762588075643411e-07 1.8172508719893638e-06 0.0 0.0
0.0 5.991919937978692e-06 9.121058144094007e-07 -6.886493301062802e-07 -2.2345648430316465e-07 -4.1635393120488724e-06 0.0 0.0
0.0 5.864845905432326e-05 -4.533608931794732e-05 3.444035259256409e-05 1.0895736725383361e-05 -9.559892632819697e-05 0.0 0.0
0.0 0.000660215539066796 -0.0004560989139672154 0.0003510079090574752 0.0001050910049097398 -0.000597068048811372 0.0 0.0
0.0 0.0023164705820757176 -0.001844768445979345 0.0015100515145226444 0.00033471693145669914 -0.0019503373645194076 0.0 0.0
0.0 0.005621954994132714 -0.0044821314459192055 0.003931185066823377 0.0005509463790958251 -0.004141302488116936 0.0 0.0
0.0 0.01057885233550604 -0.008274927081011576 0.007605145051623343 0.0006697820293882405 -0.007037114739609935 0.0 0.0
0.0 0.016090909140812897 -0.01295394250574313 0.01221365111403228 0.0007402913917108422 -0.010287298908360458 0.0 0.0
0.0 0.022518169663116174 -0.018280215476175518 0.01747755099842492 0.0008026644777505854 -0.01353592019947186 0.0 0.0
0.0 0.029661305008741094 -0.024174086391695312 0.023310111583750626 0.0008639748079446864 -0.016663043514884842 0.0 0.0
0.0 0.037378129134787955 -0.03062168291710145 0.02970358859671815 0.0009180943203832585 -0.01970203138046002 0.0 0.0
0.0 0.04572945465157831 -0.03753734737758371 0.03658033463400722 0.0009570127435765196 -0.022845122204219342 0.0 0.0
0.0 0.05423660435249 -0.04464043676175806 0.043667806030363465 0.0009726307313945426 -0.026465843802719737 0.0 0.0
0.0 0.0626734715825826 -0.051360869218711164 0.05039844318647774 0.0009624260322333652 -0.031004762462353893 0.0 0.0
0.0 0.06951121465201902 -0.05672028743954664 0.055811347994539864 0.0009089394450067681 -0.03636716813401129 0.0 0.0
0.0 0.0729479089275046 -0.05899973840404861 0.05820795223241124 0.0007917861716372864 -0.041101853433147366 0.0 0.0
0.0 0.06891951101163778 -0.05490787737634416 0.05442116924147352 0.0004867081348706121 -0.04243829050286923 0.0 0.0
0.0 0.0667514544290368 -0.04700712426595378 0.0428190130170932 0.00418811124886061 2.276477617524364e-14 0.0 0.0
0.0 0.06891951101164921 -0.05490787737634239 0.05442116924147316 0.00048670813486928087 0.04243829050292838 0.0 0.0
0.0 0.07294790892749131 -0.05899973840402884 0.05820795223239136 0.0007917861716373922 0.041101853433202 0.0 0.0
0.0 0.06951121465198498 -0.05672028743951417 0.05581134799450825 0.000908939445005917 0.03636716813403594 0.0 0.0
0.0 0.06267347158253539 -0.05136086921867123 0.0503984431864381 0.0009624260322331974 0.031004762462348907 0.0 0.0
0.0 0.054236604352439294 -0.04464043676171541 0.04366780603032127 0.0009726307313941452 0.02646584380270082 0.0 0.0
0.0 0.045729454651531574 -0.03753734737754469 0.03658033463396907 0.0009570127435756205 0.02284512220419954 0.0 0.0
0.0 0.03737812913473586 -0.030621682917057795 0.029703588596674546 0.0009180943203832452 0.01970203138043894 0.0 0.0
0.0 0.02966130500869288 -0.024174086391655157 0.023310111583710585 0.0008639748079445579 0.016663043514866638 0.0 0.0
0.0 0.022518169663066932 -0.0182802154761361 0.01747755099838584 0.0008026644777502621 0.013535920199444254 0.0 0.0
0.0 0.016090909140764463 -0.012953942505704922 0.01221365111399389 0.0007402913917110309 0.010287298908329003 0.0 0.0
0.0 0.01057885233547591 -0.008274927080987777 0.007605145051600065 0.0006697820293877087 0.007037114739590006 0.0 0.0
0.0 0.005621954994108693 -0.004482131445900377 0.003931185066805729 0.0005509463790946466 0.004141302488102147 0.0 0.0
0.0 0.002316470582063919 -0.001844768445970198 0.0015100515145148536 0.00033471693145534627 0.0019503373645112063 0.0 0.0
0.0 0.000660215539060331 -0.0004560989139629966 0.0003510079090541709 0.00010509100490882526 0.0005970680488063091 0.0 0.0
0.0 5.864845905225786e-05 -4.5336089317378676e-05 3.444035259212097e-05 1.0895736725257678e-05 9.559892632728245e-05 0.0 0.0
0.0 5.991919937946277e-06 9.121058139568727e-07 -6.886493297405372e-07 -2.2345648421632805e-07 4.163539313287324e-06 0.0 0.0
0.0 1.593520418138567e-06 1.1583627004950315e-06 -9.821038929538913e-07 -1.7625880754113783e-07 -1.8172508712523255e-06 0.0 0.0
0.0 -2.6752045527139334e-07 5.311468019557543e-07 -4.2391239348939005e-07 -1.0723440846637138e-07 -2.8907345196858355e-06 0.0 0.0
0.0 1.3615175636437166e-07 -9.895838751933148e-10 4.7436878468824265e-09 -3.754103971686222e-09 -1.0669212103019953e-08 0.0 0.0
0.0 0.0 0.0 0.0 0.0 0.0 0.0 0.0
0.0 0.0 0.0 0.0 0.0 0.0 0.0 0.0
0.0 -1.2025212151614905e-07 -2.8111852206668733e-09 1.9303984439410896e-09 8.807867767261456e-10 -2.3879236813071873e-08 0.0 0.0
0.0 -3.4716584530987935e-07 3.6758286874418964e-07 -2.9332051512856785e-07 -7.426235361562416e-08 1.5245472394211292e-06 0.0 0.0
0.0 -2.7563461832935318e-06 8.2432266891007e-07 -6.94021793323949e-07 -1.3030087558611124e-07 8.873990977296278e-07 0.0 0.0
0.0 6.757256554164349e-06 2.467456521472972e-06 -2.387016335500411e-06 -8.044018597255675e-08 3.603361014426109e-06 0.0 0.0
0.0 0.0002227894448543843 -0.0001472892693179564 0.00011022097924567273 3.706829007228358e-05 -0.0001606701531706629 0.0 0.0
0.0 0.0012481925514271123 -0.0010341747998280886 0.0008090183639192134 0.000225156435908875 -0.0008957478191623579 0.0 0.0
0.0 0.0038708108545941425 -0.0032473913620279004 0.002742537488594297 0.0005048538734336019 -0.0024594606265624717 0.0 0.0
0.0 0.008716165333334714 -0.006994086513251522 0.006303300663985409 0.0006907858492661077 -0.004974535313438925 0.0 0.0
0.0 0.014495117995485947 -0.012143503930711905 0.011360288881821536 0.0007832150488903783 -0.008215097760910041 0.0 0.0
0.0 0.022092736267187548 -0.018360748139435425 0.01751322254310902 0.0008475255963264026 -0.01168606857092375 0.0 0.0
0.0 0.03055409990734027 -0.025442776771052448 0.02453083841725061 0.0009119383538018057 -0.015124415547004484 0.0 0.0
0.0 0.03986826587344512 -0.033298856684760854 0.032319152507403595 0.0009797041773572674 -0.018423414357768727 0.0 0.0
0.0 0.05004635519520947 -0.04191276565997483 0.040868712465237024 0.001044053194737814 -0.021623633897821945 0.0 0.0
0.0 0.06097327901480936 -0.05122175519768652 0.05012745637669101 0.0010942988209954854 -0.02493609262473629 0.0 0.0
0.0 0.07271388668898883 -0.06093739904683802 0.05982103851879329 0.001116360528044741 -0.02886757601834665 0.0 0.0
0.0 0.0836377919722591 -0.07033059056535605 0.06923503207395347 0.0010955584914025167 -0.03395903130534611 0.0 0.0
0.0 0.09330399787945415 -0.07797150875930609 0.0769580623402995 0.0010134464190065234 -0.04002852602512352 0.0 0.0
0.0 0.0982193589697928 -0.08140197964479752 0.08056688603896854 0.0008350936058289987 -0.04549341936139058 0.0 0.0
0.0 0.09318358866319515 -0.07651940731903845 0.07603178128732148 0.0004876260317169726 -0.047354170519700894 0.0 0.0
0.0 0.0871251126773591 -0.06693747785049077 0.062130922553345076 0.004806555297145552 2.61336091655906e-14 0.0 0.0
0.0 0.09318358866319368 -0.0765194073190277 0.07603178128731138 0.0004876260317162904 0.04735417051975781 0.0 0.0
0.0 0.09821935896977767 -0.08140197964477618 0.08056688603894825 0.0008350936058278761 0.04549341936145149 0.0 0.0
0.0 0.0933039978794118 -0.07797150875926673 0.07695806234025995 0.001013446419006629 0.04002852602515364 0.0 0.0
0.0 0.08363779197219896 -0.07033059056530437 0.06923503207390137 0.0010955584914030452 0.033959031305343994 0.0 0.0
0.0 0.07271388668892412 -0.06093739904678322 0.05982103851873821 0.0011163605280449366 0.028867576018329115 0.0 0.0
0.0 0.06097327901474818 -0.051221755197634215 0.0501274563766397 0.0010942988209945536 0.024936092624715606 0.0 0.0
0.0 0.05004635519514236 -0.04191276565991757 0.04086871246517998 0.0010440531947376005 0.021623633897800372 0.0 0.0
0.0 0.039868265873384906 -0.03329885668471004 0.032319152507352934 0.0009797041773570957 0.018423414357748618 0.0 0.0
0.0 0.030554099907276817 -0.025442776770999584 0.02453083841719814 0.0009119383538014478 0.015124415546975524 0.0 0.0
0.0 0.022092736267132155 -0.018360748139389618 0.01751322254306381 0.0008475255963258037 0.01168606857089256 0.0 0.0
0.0 0.014495117995445377 -0.012143503930678309 0.011360288881788172 0.0007832150488901522 0.008215097760886124 0.0 0.0
0.0 0.008716165333303327 -0.006994086513226656 0.006303300663961588 0.000690785849265068 0.004974535313422359 0.0 0.0
0.0 0.0038708108545765217 -0.003247391362014049 0.00274253748858167 0.0005048538734323786 0.0024594606265521735 0.0 0.0
0.0 0.0012481925514175188 -0.0010341747998210136 0.000809018363913473 0.0002251564359075402 0.0008957478191565555 0.0 0.0
0.0 0.0002227894448510747 -0.0001472892693161809 0.00011022097924433686 3.706829007184411e-05 0.00016067015316873444 0.0 0.0
0.0 6.7572565535278895e-06 2.4674565210263e-06 -2.3870163351457793e-06 -8.044018588051069e-08 -3.6033610136406415e-06 0.0 0.0
0.0 -2.756346183254496e-06 8.243226685752956e-07 -6.940217930605234e-07 -1.3030087551475451e-07 -8.873990966668606e-07 0.0 0.0
0.0 -3.471658455220858e-07 3.6758286877194447e-07 -2.93320515152287e-07 -7.42623536196575e-08 -1.5245472395348563e-06 0.0 0.0
0.0 -1.2025212151506954e-07 -2.8111852205958148e-09 1.930398443898689e-09 8.807867766964716e-10 2.387923681280424e-08 0.0 0.0
0.0 0.0 0.0 0.0 0.0 0.0 0.0 0.0
0.0 0.0 0.0 0.0 0.0 0.0 0.0 0.0
0.0 0.0 0.0 0.0 0.0 0.0 0.0 0.0
0.0 -3.917141192775186e-07 9.31812035875762e-08 -7.303026597632154e-08 -2.0150937611256015e-08 3.0386539622834394e-07 0.0 0.0
0.0 -3.813068890218958e-06 3.0045292155971578e-06 -2.4310308729977517e-06 -5.734983425993809e-07 6.042403693667803e-06 0.0 0.0
0.0 6.919385678475277e-06 -1.3943016991255159e-05 9.392737947699066e-06 4.550279043556051e-06 -1.3175942897999659e-05 0.0 0.0
0.0 0.0004778365442613863 -0.00036504216205705294 0.0002740805071541557 9.096165490289737e-05 -0.00025080722363505066 0.0 0.0
0.0 0.0020883546416946555 -0.0018148190039104235 0.001454905221480375 0.00035991378243004877 -0.0010735203650916211 0.0 0.0
0.0 0.005927773640951388 -0.00487793985297046 0.004239498962250354 0.0006384408907201078 -0.0027498397867782146 0.0 0.0
0.0 0.011273583288016729 -0.009733180236366528 0.008943579717017 0.0007896005193495239 -0.005409588446779666 0.0 0.0
0.0 0.01903172534129987 -0.016151029381138816 0.015281454409077138 0.0008695749720616805 -0.00863696182576481 0.0 0.0
0.0 0.02818958899678551 -0.0238845820635554 0.022949240176637613 0.0009353418869177616 -0.01207286230779305 0.0 0.0
0.0 0.038612554376125006 -0.03271779131445393 0.031712734189353775 0.0010050571251001847 -0.015473983264550368 0.0 0.0
0.0 0.050161678151148345 -0.04253489661233037 0.04145558149637952 0.001079315115950728 -0.01875043525513374 0.0 0.0
0.0 0.06287378119465883 -0.053306513341510806 0.05215400873368432 0.0011525046078265655 -0.021936737206669905 0.0 0.0
0.0 0.07648283991922054 -0.06499328162744474 0.06377809724019878 0.0012151843872459617 -0.02520228408952757 0.0 0.0
0.0 0.09075123970231024 -0.0772995547463685 0.07605590997686762 0.0012436447695008143 -0.028997320590463904 0.0 0.0
0.0 0.10522598434769043 -0.08930835269977519 0.08809950057750683 0.0012088521222683563 -0.0339544137838195 0.0 0.0
0.0 0.11699809481382042 -0.09912474132980612 0.09803881860427593 0.0010859227255300041 -0.040143096722519825 0.0 0.0
0.0 0.12261349744662786 -0.10354886271149916 0.10269521450268503 0.0008536482088141366 -0.046248321131672696 0.0 0.0
0.0 0.1170604629942538 -0.09791834381904531 0.09742871474326818 0.0004896290757771973 -0.050240957421121744 0.0 0.0
0.0 0.10897276426468885 -0.08691966796180038 0.08157183302394858 0.005347834937851782 2.5342575260545175e-14 0.0 0.0
0.0 0.11706046299423893 -0.09791834381902408 0.09742871474324755 0.0004896290757766318 0.050240957421178366 0.0 0.0
0.0 0.12261349744660109 -0.1035488627114697 0.10269521450265585 0.0008536482088138653 0.04624832113173321 0.0 0.0
0.0 0.11699809481376415 -0.09912474132975496 0.09803881860422466 0.0010859227255302925 0.04014309672255023 0.0 0.0
0.0 0.10522598434761818 -0.0893083526997128 0.08809950057744388 0.0012088521222687694 0.03395441378381896 0.0 0.0
0.0 0.0907512397022315 -0.07729955474630096 0.0760559099768 0.0012436447695009453 0.02899732059045004 0.0 0.0
0.0 0.07648283991914409 -0.06499328162737904 0.06377809724013378 0.0012151843872452283 0.025202284089510203 0.0 0.0
0.0 0.0628737811945816 -0.05330651334144383 0.052154008733618244 0.0011525046078255925 0.021936737206650424 0.0 0.0
0.0 0.0501616781510734 -0.04253489661226639 0.04145558149631552 0.0010793151159508305 0.01875043525511327 0.0 0.0
0.0 0.038612554376049504 -0.03271779131439004 0.031712734189290284 0.001005057125099719 0.01547398326452333 0.0 0.0
0.0 0.0281895889967229 -0.02388458206350297 0.022949240176585676 0.0009353418869172852 0.012072862307763776 0.0 0.0
0.0 0.019031725341249153 -0.016151029381096336 0.015281454409034896 0.0008695749720614328 0.008636961825740433 0.0 0.0
0.0 0.01127358328798261 -0.00973318023633667 0.00894357971698795 0.0007896005193487158 0.005409588446763317 0.0 0.0
0.0 0.005927773640926492 -0.004877939852950578 0.0042394989622315474 0.0006384408907190306 0.002749839786766415 0.0 0.0
0.0 0.002088354641680088 -0.0018148190038985146 0.0014549052214702495 0.00035991378242826336 0.0010735203650842993 0.0 0.0
0.0 0.0004778365442565187 -0.00036504216205398643 0.00027408050715182786 9.09616549021585e-05 0.00025080722363281856 0.0 0.0
0.0 6.919385678165819e-06 -1.3943016991722345e-05 9.392737948093841e-06 4.550279043628473e-06 1.3175942898831794e-05 0.0 0.0
0.0 -3.813068890849455e-06 3.0045292155467513e-06 -2.4310308729578874e-06 -5.734983425888577e-07 -6.042403693424092e-06 0.0 0.0
0.0 -3.91714119104404e-07 9.318120361884951e-08 -7.303026600116951e-08 -2.01509376176786e-08 -3.0386539632835593e-07 0.0 0.0
0.0 0.0 0.0 0.0 0.0 0.0 0.0 0.0
0.0 0.0 0.0 0.0 0.0 0.0 0.0 0.0
0.0 0.0 0.0 0.0 0.0 0.0 0.0 0.0
0.0 0.0 0.0 0.0 0.0 0.0 0.0 0.0
0.0 -1.9259891853480113e-07 -1.2438204119640457e-08 9.900711751953166e-09 2.537492367688598e-09 -3.208399983975565e-08 0.0 0.0
0.0 -5.31751804716856e-06 2.9360176617535755e-06 -2.4005534924773245e-06 -5.354641692762796e-07 5.037121385771309e-06 0.0 0.0
0.0 6.233368938005501e-05 -4.264305975388378e-05 2.906667787078407e-05 1.3576381883099794e-05 -1.6505419733505397e-05 0.0 0.0
0.0 0.0007738939901866507 -0.0007283857069887068 0.000553309169998352 0.00017507653699035453 -0.0003299793469281932 0.0 0.0
0.0 0.003314086174447014 -0.0027715050367154576 0.0022837582084183996 0.0004877468282970579 -0.0011212137042720465 0.0 0.0
0.0 0.007625588866651652 -0.006710521032062333 0.005971295357553982 0.000739225674508359 -0.0028226220777574614 0.0 0.0
0.0 0.014501694538487379 -0.012576315923569968 0.011711691800808523 0.0008646241227614369 -0.005305314778249855 0.0 0.0
0.0 0.023505427003019733 -0.020240280571006398 0.01929770839477882 0.0009425721762275942 -0.008278292863421159 0.0 0.0
0.0 0.03435592982361585 -0.029473202627818933 0.02845956233654695 0.0010136402912719652 -0.011464795624401218 0.0 0.0
0.0 0.04677268710763935 -0.04005162493000221 0.038962568480459626 0.0010890564495425771 -0.014618139459186344 0.0 0.0
0.0 0.06063757845239708 -0.051833340991410855 0.05066454828072861 0.0011687927106821708 -0.017672850377396136 0.0 0.0
0.0 0.07548554669932525 -0.06476028461157202 0.06351099951132314 0.0012492851002489074 -0.020675364033965377 0.0 0.0
0.0 0.09187759604727294 -0.07876716768302233 0.07744591723534876 0.0013212504476737023 -0.023690693384978513 0.0 0.0
0.0 0.10915760820474274 -0.09355553980349844 0.09219697391518622 0.0013585658883121274 -0.026944780500229578 0.0 0.0
0.0 0.12597549534700356 -0.10808741234619787 0.10677201919993766 0.0013153931462601322 -0.031066912897678198 0.0 0.0
0.0 0.14013101167715936 -0.12003231573853129 0.11887903266917504 0.0011532830693562696 -0.03673280393080659 0.0 0.0
0.0 0.1471470203949315 -0.12555741976562462 0.1246868949209459 0.0008705248446785218 -0.04377512832388892 0.0 0.0
0.0 0.14112394741098028 -0.11950486413674608 0.1190230026464689 0.0004818614902770781 -0.051592657667616185 0.0 0.0
0.0 0.13144682994199364 -0.10737245624637262 0.10155342811273359 0.005819028133639104 2.3283458494560705e-14 0.0 0.0
0.0 0.1411239474109629 -0.11950486413672375 0.11902300264644709 0.00048186149027657963 0.051592657667673125 0.0 0.0
0.0 0.14714702039488925 -0.12555741976558357 0.12468689492090451 0.000870524844678871 0.043775128323943924 0.0 0.0
0.0 0.14013101167709688 -0.12003231573847535 0.1188790326691199 0.0011532830693555015 0.036732803930835674 0.0 0.0
0.0 0.12597549534692032 -0.10808741234612582 0.10677201919986531 0.0013153931462604566 0.03106691289767835 0.0 0.0
0.0 0.10915760820465524 -0.09355553980342204 0.09219697391511106 0.0013585658883109298 0.02694478050022061 0.0 0.0
0.0 0.09187759604718292 -0.07876716768294471 0.07744591723527176 0.0013212504476729533 0.023690693384965367 0.0 0.0
0.0 0.07548554669923377 -0.06476028461149305 0.06351099951124495 0.0012492851002480184 0.020675364033947097 0.0 0.0
0.0 0.06063757845230838 -0.051833340991334215 0.050664548280652144 0.0011687927106820508 0.017672850377376537 0.0 0.0
0.0 0.046772687107555395 -0.04005162492993041 0.038962568480388336 0.001089056449542044 0.01461813945916182 0.0 0.0
0.0 0.034355929823540625 -0.029473202627754866 0.028459562336483127 0.0010136402912717828 0.01146479562437289 0.0 0.0
0.0 0.0235054270029623 -0.020240280570957135 0.019297708394729936 0.0009425721762271719 0.008278292863399218 0.0 0.0
0.0 0.014501694538445077 -0.01257631592353335 0.011711691800772422 0.0008646241227609327 0.00530531477823456 0.0 0.0
0.0 0.007625588866621711 -0.006710521032036654 0.005971295357529274 0.0007392256745073748 0.0028226220777454692 0.0 0.0
0.0 0.0033140861744275366 -0.002771505036699613 0.002283758208404385 0.00048774682829522863 0.0011212137042647492 0.0 0.0
0.0 0.0007738939901800404 -0.0007283857069835919 0.0005533091699943742 0.0001750765369892166 0.0003299793469261297 0.0 0.0
0.0 6.23336893790656e-05 -4.264305975395368e-05 2.9066677870873656e-05 1.357638188308003e-05 1.6505419733937967e-05 0.0 0.0
0.0 -5.3175180472339685e-06 2.936017661586824e-06 -2.400553492350641e-06 -5.354641692361828e-07 -5.037121385561736e-06 0.0 0.0
0.0 -1.9259891850927365e-07 -1.243820411784055e-08 9.900711750511593e-09 2.5374923673294314e-09 3.208399983580417e-08 0.0 0.0
0.0 0.0 0.0 0.0 0.0 0.0 0.0 0.0
0.0 0.0 0.0 0.0 0.0 0.0 0.0 0.0
0.0 0.0 0.0 0.0 0.0 0.0 0.0 0.0
0.0 0.0 0.0 0.0 0.0 0.0 0.0 0.0
0.0 -7.18462332870173e-08 -5.322214849680892e-09 4.219826328331633e-09 1.102388521349622e-09 -1.0684932772376604e-08 0.0 0.0
0.0 -6.273566624784148e-06 4.420700286367957e-06 -3.6565412774671304e-06 -7.641590089008211e-07 5.759455853865896e-06 0.0 0.0
0.0 0.00015677873835604747 -0.0001259312780517187 8.860057956923672e-05 3.733069848248212e-05 -2.8369534000503083e-05 0.0 0.0
0.0 0.0013570420331428048 -0.0011922603667800424 0.0009213237652656631 0.0002709366015143802 -0.00029309110462543656 0.0 0.0
0.0 0.004429122602878248 -0.003909883398944607 0.003309218710080788 0.000600664688863818 -0.0010509243995483844 0.0 0.0
0.0 0.009729441384967076 -0.008641636292803116 0.007829030491720998 0.0008126058010821145 -0.0025535235971842177 0.0 0.0
0.0 0.017676269408548797 -0.015479487519647828 0.014552679569506139 0.0009268079501416907 -0.004633440453179927 0.0 0.0
0.0 0.02806399726555924 -0.0243637650152982 0.02335571869888622 0.0010080463164119581 -0.0071603276167882665 0.0 0.0
0.0 0.04053108017007211 -0.03508099367173098 0.03399570834959137 0.001085285322139578 -0.009877930679656826 0.0 0.0
0.0 0.054936585462178146 -0.047401058308732286 0.04623417708886222 0.0011668812198701078 -0.01257199025707314 0.0 0.0
0.0 0.07077657563969357 -0.06115666621236971 0.05990454756968135 0.001252118642688395 -0.015199712636284203 0.0 0.0
0.0 0.08849543876335296 -0.07622664705149693 0.0748914677967558 0.0013351792547410092 -0.01782324558088162 0.0 0.0
0.0 0.10723412206870797 -0.09248395826338442 0.09107305670227081 0.0014109015611135914 -0.020433111268964528 0.0 0.0
0.0 0.1268427672154085 -0.10957882387738385 0.10811942836405483 0.0014593955133290367 -0.022932473356644556 0.0 0.0
0.0 0.1464686020685881 -0.12644405774831668 0.12501777737224828 0.0014262803760683917 -0.025613057843316488 0.0 0.0
0.0 0.16299459297523178 -0.14056105482141876 0.13932166997496484 0.0012393848464538938 -0.02991038948215291 0.0 0.0
0.0 0.17162035206413964 -0.14757450559720794 0.14667709433396878 0.0008974112632390129 -0.03802215658168293 0.0 0.0
0.0 0.16595930266754003 -0.14165836488080222 0.14120593835799197 0.0004524265228104009 -0.05115936149092397 0.0 0.0
0.0 0.15558877935764548 -0.12871680203370503 0.12250383159832594 0.006212970435378959 2.206915206137694e-14 0.0 0.0
0.0 0.16595930266751868 -0.1416583648807785 0.14120593835796827 0.00045242652281029345 0.051159361490973845 0.0 0.0
0.0 0.1716203520640812 -0.14757450559715535 0.14667709433391485 0.0008974112632403262 0.03802215658172762 0.0 0.0
0.0 0.1629945929751567 -0.14056105482135325 0.13932166997489925 0.0012393848464539255 0.029910389482175198 0.0 0.0
0.0 0.14646860206849266 -0.12644405774823408 0.12501777737216563 0.0014262803760683135 0.02561305784331783 0.0 0.0
0.0 0.12684276721530588 -0.10957882387729467 0.10811942836396635 0.0014593955133283885 0.02293247335663822 0.0 0.0
0.0 0.1072341220686044 -0.09248395826329495 0.09107305670218203 0.0014109015611128185 0.020433111268954366 0.0 0.0
0.0 0.0884954387632484 -0.07622664705140618 0.07489146779666592 0.0013351792547402304 0.01782324558086635 0.0 0.0
0.0 0.07077657563958686 -0.06115666621227812 0.0599045475695894 0.001252118642688833 0.015199712636268105 0.0 0.0
0.0 0.05493658546208347 -0.04740105830865042 0.04623417708878077 0.0011668812198696447 0.012571990257052001 0.0 0.0
0.0 0.04053108016998652 -0.035080993671657255 0.03399570834951793 0.001085285322139318 0.009877930679633402 0.0 0.0
0.0 0.028063997265494023 -0.02436376501524184 0.023355718698830484 0.0010080463164113605 0.007160327616769677 0.0 0.0
0.0 0.017676269408500377 -0.015479487519605626 0.014552679569464511 0.0009268079501411082 0.0046334404531664965 0.0 0.0
0.0 0.00972944138493204 -0.00864163629277211 0.00782903049169094 0.000812605801081173 0.0025535235971736966 0.0 0.0
0.0 0.004429122602856256 -0.003909883398925841 0.0033092187100635974 0.000600664688862243 0.0010509243995419106 0.0 0.0
0.0 0.0013570420331337465 -0.0011922603667727288 0.000921323765259814 0.00027093660151291575 0.0002930911046234968 0.0 0.0
0.0 0.00015677873835399968 -0.00012593127805058578 8.860057956845396e-05 3.733069848213176e-05 2.836953400044955e-05 0.0 0.0
0.0 -6.273566625061422e-06 4.420700285857202e-06 -3.656541277082374e-06 -7.641590087748177e-07 -5.759455853410739e-06 0.0 0.0
0.0 -7.184623319621463e-08 -5.322214842869262e-09 4.219826322927047e-09 1.1023885199412321e-09 1.0684932758656047e-08 0.0 0.0
0.0 0.0 0.0 0.0 0.0 0.0 0.0 0.0
0.0 0.0 0.0 0.0 0.0 0.0 0.0 0.0
0.0 0.0 0.0 0.0 0.0 0.0 0.0 0.0
0.0 0.0 0.0 0.0 0.0 0.0 0.0 0.0
0.0 0.0 0.0 0.0 0.0 0.0 0.0 0.0
0.0 -8.004805469135332e-06 7.2788662700911184e-06 -6.1817116588600774e-06 -1.0971546112310647e-06 7.102912961986536e-06 0.0 0.0
0.0 0.0002908361997290014 -0.00028573954226700416 0.000204129517196437 8.161002507056696e-05 -1.102022843401337e-05 0.0 0.0
0.0 0.002090309211525368 -0.0017997345811648063 0.0014238782542144491 0.0003758563269503569 -0.00017458512864387195 0.0 0.0
0.0 0.005608999097755771 -0.005166556317034238 0.0044779790748670605 0.0006885772421671742 -0.0008023272918078984 0.0 0.0
0.0 0.01193634017449747 -0.01062754478436556 0.009755786167448662 0.000871758616916916 -0.0018852999197193643 0.0 0.0
0.0 0.02089535519720144 -0.018404547820984364 0.017422963428776816 0.0009815843922075466 -0.0034169678014031716 0.0 0.0
0.0 0.032618134829794275 -0.028480916187557256 0.027412820315821082 0.0010680958717362017 -0.005290144576305153 0.0 0.0
0.0 0.04678740594999305 -0.040665748553760976 0.039513656971974134 0.001152091581786794 -0.0073191774815175295 0.0 0.0
0.0 0.06301242950210113 -0.05472380431512883 0.05348424139338051 0.001239562921748216 -0.009339066269934202 0.0 0.0
0.0 0.08140833680714589 -0.07045223849606769 0.06912307355632974 0.001329164939738019 -0.011331514258326049 0.0 0.0
0.0 0.10106727788197108 -0.08767234939774393 0.08625755112915312 0.0014147982685907886 -0.01337233368672647 0.0 0.0
0.0 0.12241509028770485 -0.10611487355132529 0.10462725225386596 0.001487621297459261 -0.015397124177129209 0.0 0.0
0.0 0.1445982124364506 -0.1252953137820437 0.12376051364259083 0.0015348001394528128 -0.017100039727999495 0.0 0.0
0.0 0.16643892842405208 -0.1441871462310616 0.1426580973388349 0.001529048892226955 -0.018282744828698284 0.0 0.0
0.0 0.1853136414146354 -0.16048483044578105 0.15909718203629414 0.0013876484094868862 -0.02030794461791844 0.0 0.0
0.0 0.19624805880487195 -0.16963673049150407 0.16866740619031112 0.0009693243011927159 -0.028015730308709984 0.0 0.0
0.0 0.19190025705828961 -0.16480431729661285 0.16443360640854088 0.00037071088807181455 -0.04786642084068373 0.0 0.0
0.0 0.18156662633784706 -0.15153648481037635 0.14503677926583544 0.006499705544540854 1.6955187254197313e-14 0.0 0.0
0.0 0.1919002570582658 -0.16480431729658881 0.164433606408518 0.0003707108880708148 0.04786642084072237 0.0 0.0
0.0 0.19624805880479843 -0.16963673049143912 0.168667406190245 0.0009693243011943641 0.028015730308747877 0.0 0.0
0.0 0.18531364141454384 -0.16048483044570214 0.1590971820362152 0.0013876484094868299 0.020307944617936086 0.0 0.0
0.0 0.1664389284239455 -0.14418714623096923 0.14265809733874288 0.0015290488922266626 0.01828274482869985 0.0 0.0
0.0 0.14459821243633122 -0.12529531378194086 0.12376051364248762 0.0015348001394532556 0.017100039727994346 0.0 0.0
0.0 0.12241509028758932 -0.10611487355122506 0.10462725225376654 0.0014876212974585775 0.015397124177123425 0.0 0.0
0.0 0.10106727788185262 -0.08767234939764124 0.08625755112905154 0.0014147982685897113 0.013372333686716182 0.0 0.0
0.0 0.0814083368070259 -0.07045223849596412 0.0691230735562258 0.0013291649397382315 0.011331514258315235 0.0 0.0
0.0 0.06301242950199339 -0.054723804315035866 0.053484241393288064 0.0012395629217477467 0.009339066269919302 0.0 0.0
0.0 0.046787405949899594 -0.04066574855367965 0.0395136569718931 0.001152091581786506 0.007319177481500413 0.0 0.0
0.0 0.03261813482971931 -0.028480916187491805 0.027412820315755926 0.0010680958717358626 0.005290144576290169 0.0 0.0
0.0 0.020895355197146484 -0.01840454782093594 0.017422963428729205 0.0009815843922067607 0.0034169678013928964 0.0 0.0
0.0 0.011936340174457171 -0.01062754478432988 0.009755786167413764 0.0008717586169161112 0.0018852999197115294 0.0 0.0
0.0 0.005608999097731105 -0.005166556317011998 0.004477979074846305 0.0006885772421657026 0.0008023272918026901 0.0 0.0
0.0 0.002090309211513976 -0.001799734581155023 0.0014238782542062766 0.0003758563269487436 0.00017458512864239442 0.0 0.0
0.0 0.0002908361997257747 -0.0002857395422649045 0.0002041295171949142 8.161002506999023e-05 1.1020228433982814e-05 0.0 0.0
0.0 -8.0048054690968e-06 7.278866269729181e-06 -6.1817116585776275e-06 -1.0971546111515957e-06 -7.102912961806646e-06 0.0 0.0
0.0 0.0 0.0 0.0 0.0 0.0 0.0 0.0
0.0 0.0 0.0 0.0 0.0 0.0 0.0 0.0
0.0 0.0 0.0 0.0 0.0 0.0 0.0 0.0
0.0 0.0 0.0 0.0 0.0 0.0 0.0 0.0
0.0 0.0 0.0 0.0 0.0 0.0 0.0 0.0
0.0 0.0 0.0 0.0 0.0 0.0 0.0 0.0
0.0 2.1929469920123904e-07 -2.3169339324557525e-06 -1.4164045443002682e-07 2.4585743868857933e-06 8.327673197331295e-06 0.0 0.0
0.0 0.0006031232820283363 -0.0005183664148402441 0.0003766849848547975 0.00014168142998544702 6.99664788655009e-05 0.0 0.0
0.0 0.0028258660085708487 -0.0025380759548666275 0.002060820405950902 0.000477255548915722 4.0841590961906103e-05 0.0 0.0
0.0 0.007118309693133431 -0.006478097011707183 0.005723792548411147 0.0007543044632960424 -0.00028939959210476943 0.0 0.0
0.0 0.014171165278929728 -0.012637178303521217 0.01171667787868029 0.0009205004248409025 -0.0008571711658694909 0.0 0.0
0.0 0.024193797274402094 -0.02131258973597385 0.020281837812651856 0.0010307519233219986 -0.0016627471600368419 0.0 0.0
0.0 0.037163077874627436 -0.032551082241435124 0.03142663039105139 0.0011244518503837034 -0.0026722343873045 0.0 0.0
0.0 0.052948448729805975 -0.04618774390333291 0.044973000527129076 0.0012147433762038761 -0.003783381528625793 0.0 0.0
0.0 0.07135999672694147 -0.061977953878865205 0.06067069146099098 0.0013072624178742489 -0.004915274275396423 0.0 0.0
0.0 0.09153299304505653 -0.07968527530698331 0.07828367892760811 0.001401596379375101 -0.0060816253983468896 0.0 0.0
0.0 0.11389553567521658 -0.09903543658447608 0.09754645835322873 0.001488978231247311 -0.00729821320655337 0.0 0.0
0.0 0.13768065310290784 -0.11962250344570774 0.11806642354409015 0.0015560799016176197 -0.008494669538027027 0.0 0.0
0.0 0.16211540205468786 -0.14075461984337664 0.13916382323684767 0.0015907966065286914 -0.009427513821594428 0.0 0.0
0.0 0.18589065604125984 -0.16129943990787107 0.1597101441197741 0.0015892957880970665 -0.009694515812989787 0.0 0.0
0.0 0.2067990000598965 -0.1793773513254407 0.17783205258968768 0.001545298735752913 -0.009660094911206719 0.0 0.0
0.0 0.22063210957910806 -0.19129981756034004 0.19001648253208953 0.001283335028250239 -0.01384239550047751 0.0 0.0
0.0 0.2194525103988576 -0.18947497070740982 0.18918857410319845 0.00028639660421118034 -0.03603527201542777 0.0 0.0
0.0 0.21070508612505817 -0.17705763080505382 0.17070330167842482 0.006354329126628986 9.593020822151743e-15 0.0 0.0
0.0 0.21945251039882938 -0.18947497070738278 0.18918857410317327 0.0002863966042093351 0.03603527201545129 0.0 0.0
0.0 0.22063210957902443 -0.19129981756026787 0.19001648253201617 0.001283335028251704 0.013842395500499979 0.0 0.0
0.0 0.20679900005979446 -0.1793773513253524 0.1778320525895995 0.001545298735752926 0.00966009491121484 0.0 0.0
0.0 0.18589065604113833 -0.16129943990776632 0.15971014411966905 0.00158929578809718 0.00969451581298987 0.0 0.0
0.0 0.16211540205455383 -0.14075461984326063 0.1391638232367311 0.0015907966065294053 0.009427513821591621 0.0 0.0
0.0 0.1376806531027778 -0.11962250344559484 0.11806642354397834 0.0015560799016166372 0.008494669538025 0.0 0.0
0.0 0.11389553567508154 -0.09903543658435944 0.09754645835311193 0.0014889782312474088 0.007298213206548941 0.0 0.0
0.0 0.09153299304492775 -0.07968527530687175 0.07828367892749709 0.0014015963793746783 0.006081625398340614 0.0 0.0
0.0 0.07135999672682432 -0.06197795387876381 0.06067069146088996 0.001307262417873898 0.004915274275388127 0.0 0.0
0.0 0.05294844872970267 -0.046187743903243414 0.044973000527040084 0.00121474337620338 0.003783381528615689 0.0 0.0
0.0 0.037163077874542094 -0.03255108224136051 0.03142663039097738 0.00112445185038317 0.0026722343872957128 0.0 0.0
0.0 0.02419379727433866 -0.021312589735917938 0.020281837812596504 0.0010307519233214136 0.0016627471600311476 0.0 0.0
0.0 0.014171165278884509 -0.012637178303481046 0.01171667787864082 0.0009205004248402221 0.0008571711658654478 0.0 0.0
0.0 0.007118309693106147 -0.006478097011682403 0.005723792548387629 0.000754304463294767 0.000289399592102148 0.0 0.0
0.0 0.0028258660085569436 -0.002538075954854449 0.0020608204059402334 0.0004772555489142164 -4.084159096257567e-05 0.0 0.0
0.0 0.0006031232820236756 -0.0005183664148367514 0.000376684984852259 0.00014168142998449224 -6.996647886498967e-05 0.0 0.0
0.0 2.19294698983289e-07 -2.3169339327190815e-06 -1.416404542181627e-07 2.45857438693735e-06 -8.327673197219173e-06 0.0 0.0
0.0 0.0 0.0 0.0 0.0 0.0 0.0 0.0
0.0 0.0 0.0 0.0 0.0 0.0 0.0 0.0
0.0 0.0 0.0 0.0 0.0 0.0 0.0 0.0
0.0 0.0 0.0 0.0 0.0 0.0 0.0 0.0
0.0 0.0 0.0 0.0 0.0 0.0 0.0 0.0
0.0 0.0 0.0 0.0 0.0 0.0 0.0 0.0
0.0 4.4805547052034696e-05 -4.349327127262009e-05 2.8346338711036326e-05 1.5146932561583796e-05 1.745954402959823e-05 0.0 0.0
0.0 0.0009746250554057344 -0.0007963985800485654 0.0005749067501018533 0.00022149182994671203 0.0001893523227577578 0.0 0.0
0.0 0.0035592601942494697 -0.0032006974723810915 0.002571063456298168 0.0006296340160829204 0.0004139954861319407 0.0 0.0
0.0 0.008301962797584314 -0.007591028060928831 0.006617284300886678 0.0009737437600421722 0.0005417060656660079 0.0 0.0
0.0 0.01592196903181394 -0.014300194816085448 0.01305847475759174 0.0012417200584937073 0.0005963585500179803 0.0 0.0
0.0 0.026633541062420364 -0.023693877821747922 0.02219961438420548 0.0014942634375424092 0.0005655624268104263 0.0 0.0
0.0 0.04062184798745883 -0.03587552049936432 0.03409865870471682 0.0017768617946474544 0.0004041944486126124 0.0 0.0
0.0 0.05772004767219599 -0.050711288328901975 0.048602962136435404 0.0021083261924665624 0.0001489174740285648 0.0 0.0
0.0 0.07730532311511447 -0.06794941331121783 0.06545807910619261 0.0024913342050252012 -0.00018930189058655959 0.0 0.0
0.0 0.09939512340250617 -0.08729227262833272 0.08438039647331189 0.0029118761550208172 -0.0006369544438846828 0.0 0.0
0.0 0.12354023196637715 -0.10839792376187778 0.1050504512832191 0.00334747247865874 -0.0011634069551272209 0.0 0.0
0.0 0.14916238130500828 -0.13075471829045857 0.12699159260411536 0.0037631256863431264 -0.0017739411975447247 0.0 0.0
0.0 0.17531066303313625 -0.15349035372469788 0.14937858766565026 0.004111766059047802 -0.002346320027532255 0.0 0.0
0.0 0.20039729934453204 -0.17525127990499778 0.17091104724801087 0.004340232656986685 -0.0025814525851034463 0.0 0.0
0.0 0.22227650013484232 -0.19421816389710178 0.18978712775088347 0.004431036146217995 -0.002305165839414664 0.0 0.0
0.0 0.23795405530528285 -0.20803358927094606 0.2034791948463322 0.004554394424613873 -0.004643008813695648 0.0 0.0
0.0 0.24115497015768503 -0.21133987837399176 0.20658925138797546 0.0047506269860163415 -0.027627022124583827 0.0 0.0
0.0 0.23718158714934554 -0.20235904396960241 0.19048309610677008 0.011875947862831769 2.345346139520643e-15 0.0 0.0
0.0 0.241154970157648 -0.21133987837395843 0.20658925138794437 0.004750626986013902 0.02762702212459019 0.0 0.0
0.0 0.23795405530519007 -0.20803358927086615 0.2034791948462516 0.004554394424614186 0.004643008813702498 0.0 0.0
0.0 0.2222765001347272 -0.1942181638970018 0.1897871277507856 0.004431036146216392 0.0023051658394157223 0.0 0.0
0.0 0.2003972993443988 -0.17525127990488149 0.1709110472478961 0.004340232656985139 0.0025814525851005597 0.0 0.0
0.0 0.17531066303299017 -0.15349035372457098 0.14937858766552467 0.004111766059045981 0.002346320027530272 0.0 0.0
0.0 0.14916238130486748 -0.13075471829033536 0.12699159260399467 0.0037631256863405386 0.0017739411975427645 0.0 0.0
0.0 0.12354023196623018 -0.10839792376175002 0.1050504512830924 0.0033474724786575548 0.00116340695512418 0.0 0.0
0.0 0.09939512340236759 -0.08729227262821188 0.08438039647319322 0.0029118761550185977 0.0006369544438814372 0.0 0.0
0.0 0.0773053231149886 -0.06794941331110826 0.0654580791060849 0.002491334205023242 0.00018930189058310662 0.0 0.0
0.0 0.057720047672086314 -0.050711288328805976 0.04860296213634148 0.002108326192464483 -0.00014891747403142797 0.0 0.0
0.0 0.04062184798736777 -0.03587552049928485 0.03409865870463926 0.0017768617946455313 -0.0004041944486148476 0.0 0.0
0.0 0.026633541062350337 -0.02369387782168629 0.022199614384145458 0.001494263437540831 -0.000565562426811982 0.0 0.0
0.0 0.015921969031764086 -0.01430019481604098 0.013058474757548642 0.0012417200584923333 -0.0005963585500175794 0.0 0.0
0.0 0.008301962797554881 -0.007591028060901901 0.00661728430086145 0.0009737437600404527 -0.0005417060656653034 0.0 0.0
0.0 0.0035592601942343984 -0.003200697472367022 0.002571063456285845 0.0006296340160811774 -0.00041399548613087276 0.0 0.0
0.0 0.0009746250554006745 -0.0007963985800446222 0.0005749067500990625 0.0002214918299455616 -0.00018935232275646278 0.0 0.0
0.0 4.4805547051439076e-05 -4.349327127224763e-05 2.8346338710785205e-05 1.5146932561462403e-05 -1.7459544029482142e-05 0.0 0.0
0.0 0.0 0.0 0.0 0.0 0.0 0.0 0.0
0.0 0.0 0.0 0.0 0.0 0.0 0.0 0.0
0.0 0.0 0.0 0.0 0.0 0.0 0.0 0.0
SCALARS Wm float 4
LOOKUP_TABLE default
14.021334332643983 2.073859264340151 6.0105258854649595 5.936949182838859
7.293284666370736 3.4478958081075417 1.749672564007497 2.095716294255697
0.8378363408315416 0.7479006635791756 0.01873190844329504 0.07120376880907076
0.6024768502433682 0.5491688882585852 0.014932805569543009 0.03837515641523965
1.3227812580935796 0.8629428340829258 0.16822969244006292 0.2916087315705897
3.019616589434706 1.302995102728322 0.6675405755688764 1.0490809111375083
6.417123709317433 1.9242712406052824 2.009582699191778 2.483269769520373
12.027041507638284 2.7449314655862347 4.518664329823743 4.763445712228304
20.415862792235252 3.829225336464769 8.605590186585495 7.981047269184975
31.95713346002374 5.199775432381396 14.592149678767079 12.165208348875275
46.76684539783502 6.852035608729153 22.644954579656407 17.26985520944947
64.64885571092586 8.762896566106834 32.67582298754606 23.21013615727296
85.57713550508346 10.891428775689736 44.79572159537052 29.8899851340232
109.28275474253323 13.189096385147389 58.88352126838339 37.21013708900247
135.24941937457578 15.473912905717352 74.74727311180098 45.02823335705738
162.56917984269816 17.455787841225565 91.98790464401506 53.12548735745753
189.82500897105734 18.8165353945429 109.80926661281552 61.19920696369897
215.26386903777052 19.34932078869779 127.1203631348142 68.79418511425837
237.1083229235357 19.179546114517567 142.54029485782425 75.38848195119418
252.44475745416554 17.901679532546925 154.1897147345331 80.35336318708528
257.2555971169727 15.420378298188089 159.28831194724003 82.54690687154468
252.44475745414923 17.90167953257206 154.18971473450344 80.35336318707368
237.10832292348604 19.179546114552384 142.540294857765 75.3884819511686
215.2638690376782 19.349320788721073 127.12036313473357 68.79418511422345
189.82500897091305 18.816535394521786 109.80926661273037 61.199206963660956
162.5691798425667 17.455787841225572 91.98790464392519 53.12548735741592
135.24941937442492 15.473912905689218 74.74727311171843 45.028233357017314
109.28275474240412 13.18909638514097 58.88352126830207 37.210137088961105
85.57713550495869 10.891428775680739 44.79572159529512 29.88998513398286
64.6488557108214 8.762896566105411 32.67582298748031 23.210136157235695
46.76684539774119 6.8520356087178245 22.644954579605166 17.269855209418182
31.95713345995249 5.1997754323720455 14.592149678729957 12.16520834885049
20.415862792180405 3.8292253364533555 8.605590186560637 7.981047269166421
12.02704150760401 2.744931465581227 4.5186643298079945 4.763445712214792
6.417123709297772 1.9242712406033453 2.009582699183002 2.483269769511424
3.019616589425489 1.3029951027270081 0.6675405755656727 1.0490809111328068
1.322781258090171 0.8629428340819434 0.16822969243906777 0.29160873156916006
0.6024768502425296 0.5491688882581198 0.01493280556941556 0.038375156414994234
0.8378363408305081 0.747900663578372 0.018731908443211532 0.07120376880892346
7.293284666367029 3.4478958081103372 1.7496725640043107 2.09571629425238
14.021334332611824 2.0738592643224973 6.0105258854569 5.936949182832439
16.905822911210723 7.284850960110555 4.708026222907119 4.912945728193051
3.0590221056982956 0.6732114480165858 1.0235129988825906 1.3622976587991187
0.29598508143679114 0.34986531120915026 -0.019217739732921724 -0.03466249003943744
0.4615897496687687 0.44137635010681464 0.004253629657580425 0.015959769904373616
0.9898793965814844 0.6995399540930582 0.09362515361682744 0.19671428887159875
2.4041017001700773 1.0503181228113057 0.5273333213051307 0.826450256053641
5.264307720919097 1.4750117106411187 1.6556183535963165 2.133677656681661
10.171892897496134 2.02000324377762 3.909076825884963 4.24281282783355
17.546696768494076 2.682641239938121 7.624868541785749 7.239186986770211
27.630672610198946 3.448129259480911 13.050447728988958 11.132095621729071
40.49218680605758 4.293108966220376 20.331744846273857 15.867332993563327
56.125806513926 5.220741248428761 29.544917625663505 21.360147639833745
74.17881467842267 6.229950089529151 40.4149871156201 27.53387747327343
94.7680201626876 7.2742851950108305 53.19360968367011 34.30012528400669
117.39306543913166 8.277419718301752 67.57113050804915 41.54451521278079
141.3580010432787 9.092107023123845 83.1972250828082 49.06866893734662
165.55765499727147 9.549302190573705 99.44525715834013 56.563095648357624
188.4945435732354 9.536687467767745 115.3128092602002 63.64504684526747
208.17363877911578 8.936529571028636 129.438221501344 69.79888770674312
222.0875665926994 7.849043573965137 139.95493964037718 74.28358337835712
227.47599945261476 6.606595356754209 144.62244562908913 76.2469584667715
222.0875665926414 7.849043573938453 139.95493964035512 74.2835833783478
208.17363877903875 8.936529571024813 129.438221501293 69.79888770672109
188.49454357312968 9.53668746776284 115.3128092601302 63.64504684523675
165.55765499715872 9.5493021905718 99.44525715826384 56.56309564832298
141.35800104316337 9.09210702312974 83.19722508272557 49.06866893730808
117.39306543901077 8.277419718292448 67.5711305079744 41.54451521274397
94.7680201625755 7.274285195009894 53.193609683596705 34.300125283968875
74.1788146783124 6.229950089523915 40.41498711555214 27.533877473236345
56.125806513827236 5.2207412484219695 29.54491762560544 21.360147639799827
40.49218680597754 4.293108966216723 20.331744846226897 15.867332993533912
27.6306726101378 3.4481292594758832 13.050447728955646 11.132095621706263
17.54669676844944 2.6826412399347785 7.624868541762453 7.239186986752206
10.171892897466611 2.0200032437739126 3.9090768258712636 4.242812827821435
5.264307720902406 1.4750117106397236 1.6556183535888922 2.133677656673787
2.4041017001619207 1.050318122809761 0.5273333213021923 0.8264502560499686
0.9898793965788898 0.6995399540924137 0.09362515361607421 0.196714288870402
0.4615897496683877 0.44137635010632936 0.0042536296575843525 0.015959769904474244
0.2959850814369982 0.3498653112091761 -0.01921773973284 -0.03466249003933773
3.059022105689796 0.6732114480146896 1.0235129988793514 1.3622976587957556
16.90582291118332 7.284850960099054 4.708026222898486 4.912945728185769
12.886544293937469 5.8411508275221244 3.3158519850136723 3.729541481401669
1.9216410960570907 0.2970609158213405 0.6856659720877016 0.9389142081480508
0.18272551664352446 0.18203636514470503 0.00014149195785583877 0.0005476595409635508
0.3385731787824917 0.33916171831195274 -0.0005568940761577036 -3.1645453303286874e-05
0.7421071441771028 0.6014277013187603 0.03909444520654276 0.10158499765179975
1.871320723003168 0.9390619635079551 0.34988530161265535 0.5823734578825576
4.276009987640252 1.3427856135821388 1.2349239871736937 1.69830038688442
8.557360366216205 1.8394396903974257 3.1473085728296386 3.5706121029891396
15.037130241966079 2.422612938349607 6.349317937117599 6.265199366498877
23.926756924766828 3.07869798792469 11.080505796904397 9.76755313993774
35.217653382868505 3.8003564147249755 17.40711416175896 14.010182806384579
48.80793479354105 4.594891065192594 25.29788535369476 18.91515837465369
64.77013191246321 5.47514717649324 34.88448722451596 24.41049751145403
82.67265002921596 6.417546181455363 45.81281681226409 30.44228703549647
102.53751222285966 7.346558827401149 58.28492727247124 36.90602612298726
123.68290522234591 8.160754819753578 71.87458596527793 43.64756443731439
145.18630165135818 8.709477907776531 86.05291009041791 50.423913653163716
165.64915909952634 8.809674173563975 99.99501147155426 56.844473454408174
183.16348197247186 8.32384468661808 112.43466951646973 62.404967769384015
195.547746878895 7.502049136905643 121.62883788925835 66.4168598527309
200.09124142603187 5.9125797179251975 125.9011252657031 68.27753644240356
195.54774687888798 7.502049136925422 121.6288378892401 66.41685985272238
183.16348197241683 8.323844686624895 112.43466951642719 62.404967769364795
165.6491590994545 8.80967417357833 99.99501147149493 56.844473454381244
145.18630165125376 8.709477907767932 86.05291009035281 50.423913653132985
123.68290522223474 8.160754819746682 71.87458596520781 43.6475644372803
102.53751222275875 7.346558827398798 58.284927272405696 36.90602612295429
82.67265002911809 6.417546181455019 45.81281681220042 30.442287035462588
64.77013191236728 5.475147176487714 34.88448722445814 24.410497511421458
48.80793479345603 4.594891065185753 25.29788535364588 18.915158374624433
35.21765338279536 3.8003564147181335 17.407114161718802 14.010182806358426
23.92675692471455 3.0786979879222534 11.080505796875313 9.767553139916975
15.03713024192399 2.422612938343765 6.349317937097441 6.26519936648278
8.557360366191539 1.8394396903959254 3.147308572817554 3.5706121029780613
4.2760099876262165 1.3427856135806113 1.234923987167894 1.6983003868777096
1.8713207229970452 0.9390619635066931 0.34988530161058784 0.5823734578797639
0.7421071441751771 0.6014277013178557 0.03909444520617257 0.10158499765114859
0.33857317878232285 0.33916171831165065 -0.000556894076130914 -3.164545319694391e-05
0.18272551664326236 0.18203636514445487 0.00014149195785363982 0.0005476595409538788
1.9216410960509358 0.29706091582053307 0.6856659720851596 0.9389142081452411
12.886544293910134 5.841150827510182 3.315851985005596 3.7295414813943624
9.797291476213502 4.559699272140412 2.375704940336447 2.8618872637366484
1.3034766213202056 0.13458233509058845 0.46897769911393367 0.6999165871156814
0.1273525528927575 0.1273525528927575 0.0 0.0
0.2506969295758514 0.2528433497445942 -0.0003707873435346635 -0.0017756328252081862
0.5512422432239179 0.5041955270160973 0.010675652211467932 0.036371063996352745
1.3937913351673785 0.813563168333862 0.19908151111171649 0.3811466557218003
3.3925519871636816 1.2108915378282525 0.894447776341877 1.2872126729935514
7.008347570779016 1.6563366693926358 2.4378298897833743 2.9141810116030076
12.61018843730615 2.16582372571285 5.146307230380949 5.298057481212352
20.30339176962782 2.7244521560045656 9.175385843624875 8.403553769998375
30.028312628054834 3.332897891152934 14.542399982243104 12.153014754658798
41.77666501096998 4.013835755303301 21.29462441460999 16.4682048410567
55.369064138996706 4.775108972777344 29.299885920150505 21.294069246068826
70.96651278194888 5.607077691739362 38.780052575420264 26.579382514789263
88.07340453444925 6.475331994741926 49.333116268534646 32.26495627117271
106.37244848138543 7.2903881766681 60.857054197202196 38.22500610751512
125.27191250159139 7.913799293720942 73.11042928206206 44.24768392580841
143.3831842958048 8.149134822054945 85.21442913358894 50.019620340160856
158.9994217456178 7.863379164453963 96.0693038855912 55.06673869557258
170.20205713019777 7.201312719164725 104.21945819377899 58.78128621725415
174.32901048584455 5.305511169061204 108.39145793329254 60.63204138349081
170.2020571301709 7.2013127191643695 104.21945819376049 58.78128621724605
158.99942174555724 7.863379164443494 96.0693038855567 55.066738695557035
143.3831842957132 8.149134822034716 85.21442913354035 50.019620340138175
125.27191250151346 7.913799293725565 73.1104292820066 44.247683925781295
106.37244848129659 7.2903881766652905 60.857054197144805 38.225006107486514
88.07340453436527 6.4753319947456065 49.33311626847731 32.2649562711423
70.96651278186093 5.607077691733622 38.78005257536727 26.57938251476005
55.369064138913764 4.775108972771525 29.2998859201017 21.294069246040525
41.77666501089716 4.013835755296534 21.294624414569373 16.468204841031266
30.02831262799419 3.3328978911475424 14.542399982210105 12.15301475463655
20.30339176958156 2.7244521560023096 9.175385843599566 8.403553769979677
12.610188437273118 2.1658237257113475 5.146307230363747 5.298057481198028
7.008347570756177 1.6563366693886716 2.437829889773942 2.9141810115935614
3.392551987151489 1.210891537826377 0.8944477763370255 1.287212672988087
1.3937913351627453 0.8135631683330198 0.19908151111017838 0.3811466557195469
0.5512422432228213 0.5041955270150679 0.010675652211416359 0.0363710639963369
0.250696929575749 0.25284334974450473 -0.0003707873435351933 -0.0017756328252204541
0.12735255289260042 0.12735255289260042 0.0 0.0
1.3034766213155065 0.13458233509030382 0.46897769911187037 0.6999165871133328
9.797291476190965 4.559699272131012 2.375704940329938 2.861887263730018
7.34471287468887 3.534154401683045 1.649910942473173 2.1606475305326565
0.9551768570417697 0.1196198018949085 0.3385770804681029 0.4969799746787576
0.11582868247506369 0.11582868247506369 0.0 0.0
0.2002881819132196 0.20043201275090947 -1.1095021627475535e-05 -0.00013273581606241443
0.4090494706863287 0.408038404009461 -0.002089944977092112 0.0031010116539599633
1.0143639496732952 0.6977156269391307 0.09882425715827632 0.21782406557588777
2.583785803567977 1.0591217527265926 0.6076991740157982 0.9169648768255871
5.54847373176767 1.4735716192316435 1.793803286095827 2.2810988264402003
10.269289685610735 1.9132022001942945 4.012728134988417 4.343359350428026
16.777663281908136 2.3846225556197798 7.347061980324062 7.045978745964297
25.012110067911618 2.8956001177617052 11.817801997650031 10.298707952499871
34.89655827601282 3.469395758231219 17.403466006212444 14.023696511569163
46.42203447840426 4.127850497653205 24.118382579834954 18.175801400916093
59.380732086702146 4.86554643411294 31.788318057086915 22.72686759550226
73.91266853559586 5.652644220980876 40.63509094106805 27.624933373546966
89.61259078689918 6.4557788756303465 50.3701984415184 32.786613469750456
105.80447387406666 7.157863102473173 60.583737326923995 38.0628734446695
121.64480912274064 7.5611773225303756 70.90798348517721 43.17564831503309
135.58352996292484 7.484935284378071 80.3709480467844 47.72764663176244
145.92645918693407 6.964380743154695 87.75661015410925 51.20546828967004
149.82685406269277 4.742323292378847 91.93630712643349 53.14822364388046
145.92645918691406 6.964380743155065 87.75661015409551 51.20546828966349
135.58352996288343 7.484935284375656 80.37094804675813 47.727646631749714
121.64480912270685 7.56117732255923 70.90798348513538 43.175648315012296
105.80447387398056 7.157863102453941 60.58373732687927 38.062873444647366
89.61259078683045 6.455778875635559 50.3701984414698 32.78661346972506
73.91266853551302 5.652644220971146 40.63509094102071 27.624933373521195
59.38073208663677 4.865546434117289 31.788318057042524 22.72686759547695
46.42203447833176 4.127850497643825 24.118382579795693 18.175801400892244
34.89655827595633 3.4693957582306725 17.403466006178565 14.0236965115471
25.012110067860412 2.895600117756952 11.81780199762278 10.298707952480681
16.77766328186871 2.3846225556184835 7.347061980302529 7.0459787459477
10.269289685580802 1.9132022001919602 4.012728134973773 4.343359350415067
5.548473731749962 1.473571619228734 1.7938032860885504 2.281098826432677
2.58378580355773 1.0591217527240746 0.6076991740122878 0.9169648768213677
1.014363949669945 0.6977156269378918 0.09882425715746809 0.21782406557458486
0.40904947068572156 0.40803840400866676 -0.002089944977066381 0.0031010116541212995
0.2002881819130258 0.20043201275076264 -1.1095021631377902e-05 -0.00013273581610547843
0.11582868247489338 0.11582868247489338 0.0 0.0
0.9551768570376973 0.11961980189446696 0.3385770804663903 0.4969799746768414
7.344712874671052 3.53415440167621 1.649910942467908 2.16064753052693
5.40782863011893 2.7151615107455846 1.1182158200818775 1.5744512992914679
0.6788214730533517 0.14502352720606668 0.1957391106912244 0.33805883515606083
0.13113087275538646 0.13113087275538646 0.0 0.0
0.17809899819863562 0.17804640565195962 5.0255866384736666e-06 4.75669600375214e-05
0.31850951180584014 0.32950463928269863 -0.003105061879818163 -0.007890065597040141
0.7159928620235064 0.5772176311868508 0.034143324503687886 0.10463190633296765
1.841949827701208 0.8942706812303448 0.34030538578447955 0.6073737606863826
4.243546978722669 1.2808736102558618 1.2801478788966567 1.6825254895701502
8.011814064172205 1.6651162182300498 2.9396209563021714 3.4070768896399826
13.39421937698429 2.0604885537886197 5.633428619291469 5.700302203904197
20.155403746264522 2.4842793605236624 9.219490203706568 8.45163418203429
28.234314858813008 2.965904688742185 13.682943165542147 11.585467004528686
37.6073083630819 3.528355309909997 19.01496773519198 15.063985317979927
48.31228504483802 4.1766993530859855 25.260169693450962 18.87541599830108
60.18787757116469 4.900256921421762 32.29531198792017 22.99230866182275
73.08024935537253 5.6594057396005475 40.06847122282067 27.352372392951388
86.8610220654273 6.412709793603793 48.60467574219713 31.843636529626373
100.46678038485732 7.007972966640826 57.157506727559834 36.30130069065669
112.79270493892163 7.168799824149985 65.2198388191319 40.40406629563974
122.49502930555315 6.790987457421492 71.999581399198 43.70446044893367
126.33126371230901 4.228060209655351 76.31646716530486 45.786736337348906
122.4950293055399 6.790987457424001 71.99958139918745 43.70446044892846
112.79270493889314 7.1687998241545055 65.21983881910988 40.40406629562881
100.46678038477943 7.00797296661328 57.15750672752615 36.301300690639934
86.86102206538446 6.41270979361608 48.60467574216086 31.843636529607476
73.08024935530736 5.659405739596351 40.06847122278143 27.352372392929603
60.18787757110729 4.900256921421993 32.295311987883366 22.992308661801943
48.312285044769844 4.176699353074567 25.260169693415556 18.87541599827972
37.607308363026235 3.528355309904072 19.014967735161594 15.063985317960576
28.234314858765742 2.965904688742359 13.682943165513942 11.585467004509441
20.155403746221147 2.4842793605179434 9.219490203684922 8.451634182018289
13.394219376949524 2.0604885537839475 5.633428619274945 5.7003022038906295
8.011814064148021 1.6651162182250465 2.9396209562923046 3.4070768896306713
4.243546978708416 1.280873610254934 1.2801478788901708 1.6825254895633093
1.8419498276941833 0.8942706812288075 0.3403053857821548 0.6073737606832205
0.715992862021053 0.5772176311857511 0.034143324503232396 0.10463190633206934
0.31850951180517717 0.3295046392818641 -0.003105061879776533 -0.007890065596910469
0.17809899819820546 0.1780464056515286 5.025586638439558e-06 4.756696003840792e-05
0.13113087275518 0.13113087275518 0.0 0.0
0.6788214730505953 0.14502352720599593 0.19573911069000804 0.33805883515459123
5.407828630104473 2.715161510739227 1.1182158200781755 1.5744512992870718
3.8476013882865665 2.0549012837920833 0.6981792915276532 1.0945208129668305
0.5048940172538487 0.18847193668576098 0.10839452311820524 0.20802755744988258
0.15791868254015534 0.1579241807073582 -2.8514702602354354e-07 -5.213020176798422e-06
0.17477094974613985 0.1747762762720208 -1.9737344837264589e-07 -5.12915243257676e-06
0.26606646288446945 0.27347253392389953 -0.0016088569303015702 -0.005797214109128572
0.5082874152473402 0.4735202910178129 0.0037069308840436237 0.031060193345483933
1.2629983406455958 0.7387221831740169 0.17117844021762516 0.35309771725395417
2.9747342109545407 1.066539664197653 0.7566102815083972 1.1515842652484913
6.00905770351191 1.4201842041900639 2.0831713153367106 2.5057021839851377
10.133435661841066 1.7481910931418183 4.0145392163905695 4.370705352308678
15.501620230897794 2.098672139124577 6.785333374588897 6.61761471718432
21.85137173336828 2.499138470376225 10.194500215646313 9.157733047345744
29.182187595050326 2.9758067207196794 14.24279241949518 11.963588454835465
37.54509750188851 3.5435913444598595 18.96646391944521 15.03504223798346
46.91434270920439 4.194856955159988 24.351062244863197 18.368423509181206
57.32011711823358 4.912407430113717 30.48657430408806 21.921135384031775
68.1982906764887 5.679739918533808 36.887237378980814 25.63131337897412
79.69057084290533 6.436175605007983 43.87507546957197 29.37931976832537
90.72785634605864 6.880910992793122 50.826363480735615 33.0205818725299
99.86342459920816 6.691957047961396 56.969295774818924 36.20217177642785
103.81614184256077 3.7774669855198457 61.53601946508924 38.5026553919516
99.8634245991875 6.691957047949258 56.96929577481316 36.20217177642502
90.7278563460419 6.880910992805284 50.82636348071652 33.020581872520125
79.69057084288914 6.436175605028478 43.87507546954809 29.37931976831257
68.19829067642688 5.679739918517029 36.88723737895189 25.631313378957955
57.320117118186865 4.912407430114862 30.486574304057616 21.921135384014402
46.914342709155655 4.194856955157763 24.351062244834253 18.368423509163637
37.54509750184764 3.5435913444618454 18.966463919419 15.035042237966792
29.182187595006894 2.975806720714266 14.242792419472485 11.963588454820158
21.85137173332807 2.4991384703724004 10.194500215625155 9.157733047330504
15.501620230865026 2.0986721391217102 6.785333374572194 6.617614717171119
10.133435661816618 1.7481910931402653 4.014539216378332 4.370705352298017
6.009057703495692 1.4201842041886774 2.0831713153291274 2.5057021839778897
2.9747342109435473 1.0665396641963143 0.756610281503945 1.151584265243287
1.2629983406406244 0.7387221831727891 0.17117844021610995 0.3530977172517252
0.5082874152455236 0.47352029101686055 0.003706930883797633 0.031060193344865893
0.2660664628838311 0.2734725339230464 -0.001608856930259331 -0.005797214108956034
0.17477094974565685 0.1747762762715304 -1.9737344783652903e-07 -5.129152425718009e-06
0.1579186825396887 0.1579241807068821 -2.851470254176852e-07 -5.213020168041371e-06
0.5048940172519508 0.1884719366857325 0.1083945231173925 0.20802755744882562
3.8476013882759235 2.054901283787437 0.6981792915250743 1.0945208129634134
2.7048936107891466 1.564341052450696 0.4460032516043351 0.6945493067341159
0.3685086051146344 0.21776721115414063 0.039643374695507334 0.11109801926498646
0.18575307001646713 0.18548593601327223 2.810574114312721e-05 0.00023902826205171788
0.18295287185699174 0.18291049083557168 2.586959533111528e-06 3.979406188690626e-05
0.23912635797561022 0.24388092851858428 -0.0009299836363350094 -0.0038245869066389376
0.3811632278253766 0.38633131381443125 -0.00493550694110587 -0.00023257904794896588
0.8144865313078878 0.586710935600513 0.06055211508806211 0.1672234806193126
1.9356068211329809 0.8527734764324822 0.38970369375259856 0.693129650947901
4.0325626342863465 1.150913059993005 1.2093306501443715 1.67231892414897
7.184271000615954 1.4420504616488605 2.66426128978655 3.0779592491805445
11.083326543384318 1.7297352565009254 4.551413114641042 4.802178172242357
15.759073633246805 2.0618779121491944 6.947875220451622 6.74932050064599
21.159650524081993 2.461994081192729 9.81386676897166 8.883789673917608
27.30660589703856 2.949970604982883 13.139307666090522 11.217327625965149
34.308521590815516 3.5396958234654097 17.005539214958613 13.763286552391497
42.049362865142434 4.207872968802107 21.329424820477513 16.512065075862825
50.54728354472176 4.9412870277276815 26.19694979780547 19.409046719188595
59.58304380392609 5.802049868468248 31.339311922726246 22.441682012731604
68.97375371932722 6.5687495937825195 36.827294075651025 25.57771004989366
77.77879531942293 6.6737542037225825 42.47103726762829 28.634003848072066
82.08057489292575 3.407860659791 47.42387051261743 31.248843720517353
77.77879531942455 6.673754203726765 42.471037267626535 28.63400384807123
68.97375371928456 6.568749593757394 36.827294075639756 25.577710049887408
59.58304380388549 5.8020498684588215 31.339311922706482 22.44168201272019
50.54728354467811 4.941287027711885 26.19694979778803 19.409046719178196
42.04936286510666 4.207872968803418 21.32942482045456 16.51206507584864
34.30852159077493 3.5396958234586218 17.00553921493811 13.763286552378222
27.30660589699856 2.9499706049735717 13.139307666072296 11.217327625952693
21.159650524059217 2.4619940811989207 9.813866768954872 8.883789673905406
15.759073633220277 2.0618779121481094 6.947875220437371 6.749320500634794
11.083326543359595 1.7297352564993218 4.551413114628559 4.802178172231712
7.184271000597806 1.4420504616494068 2.664261289776846 3.077959249171554
4.032562634273628 1.1509130599913489 1.2093306501390477 1.672318924143232
1.9356068211257211 0.8527734764311371 0.3897036937500778 0.6931296509445058
0.8144865313048453 0.5867109355992913 0.060552115087434646 0.16722348061811967
0.3811632278244837 0.3863313138136192 -0.004935506941151565 -0.00023257904798413935
0.2391263579752286 0.24388092851799167 -0.0009299836362957054 -0.0038245869064673556
0.18295287185690212 0.18291049083528405 2.5869595449428406e-06 3.979406207311562e-05
0.18575307001600017 0.18548593601276278 2.810574114606125e-05 0.000239028262091288
0.368508605112892 0.21776721115380346 0.03964337469497419 0.1110980192641144
2.7048936107812436 1.5643410524474408 0.4460032516022767 0.6945493067315253
1.7723855608859516 1.1584068273852826 0.21083056252584106 0.40314817097482736
0.2835567681345802 0.23446266828296572 0.008577131833396626 0.04051696801821781
0.2088242448805107 0.20886868667211947 -3.97788644270438e-06 -4.0463905165983625e-05
0.1974916109127708 0.19773451848195575 -2.6389478602734627e-05 -0.0002165180905822069
0.22772308145070744 0.23099942640366702 -0.0007206478667352432 -0.002555697086224323
0.3153624704601925 0.3231105506918806 -0.003934341691693894 -0.0038137385399943566
0.5257566947860075 0.4607689925246301 0.01003440110997811 0.0549533011513993
1.1230944148068835 0.645691635609526 0.15124820693796273 0.3261545722593948
2.373124359244498 0.8714388510914275 0.5712196170225423 0.9304658911305269
4.367128812928824 1.1083771701173348 1.3976266142456473 1.861125028565842
6.942567702958609 1.3491349371710704 2.5531028988678193 3.040329866919721
10.055176293916153 1.6263000201409055 4.047530148279207 4.381346125496038
13.630434140690397 1.961404893004797 5.81819164224453 5.8508376054410665
17.70667596404715 2.372518992611718 7.878614808044517 7.455542163390913
22.3993381398862 2.8884364579877744 10.292015924206982 9.218885757691437
27.774951982986146 3.5169509468354208 13.098056385268812 11.15994465088192
33.756927335082885 4.214345720807552 16.27500700473832 13.267574609537029
40.294856928289846 5.00822244304229 19.761254590070713 15.525379895176838
47.97017759468 6.072835913549038 23.840941140797366 18.056400540333605
56.497875836948964 6.749945406655626 28.797871347232064 20.950059083061255
61.37779173225946 3.180324319221076 34.11045854072967 24.087008872308708
56.49787583697772 6.749945406689035 28.79787134722914 20.950059083059553
47.97017759467944 6.072835913555183 23.84094114079322 18.05640054033104
40.29485692827339 5.0082224430468765 19.76125459005772 15.525379895168777
33.756927335076305 4.214345720821145 16.27500700472615 13.267574609529007
27.774951982951432 3.5169509468243465 13.098056385254708 11.15994465087239
22.399338139863197 2.8884364579860495 10.292015924194565 9.218885757682575
17.706675964029337 2.3725189926103973 7.878614808035122 7.455542163383818
13.630434140664176 1.9614048929970158 5.818191642234349 5.850837605432819
10.055176293899331 1.6263000201419482 4.047530148269576 4.381346125487809
6.942567702944075 1.3491349371727062 2.55310289885958 3.0403298669117866
4.367128812912986 1.1083771701123064 1.3976266142403095 1.8611250285603718
2.373124359238784 0.8714388510925041 0.5712196170195387 0.9304658911267417
1.1230944148025557 0.6456916356085447 0.15124820693667046 0.32615457225734046
0.5257566947843938 0.4607689925237557 0.010034401109721883 0.054953301150916165
0.31536247045937427 0.32311055069092065 -0.003934341691688345 -0.003813738539857915
0.22772308145046743 0.23099942640317078 -0.000720647866703919 -0.002555697085999352
0.19749161091261197 0.19773451848180804 -2.638947859882395e-05 -0.00021651809059719285
0.20882424488025775 0.20886868667165437 -3.977886421311338e-06 -4.046390497535837e-05
0.2835567681333968 0.2344626682825851 0.008577131833094123 0.04051696801771738
1.7723855608806156 1.1584068273827957 0.21083056252465218 0.4031481709731683
1.132363638829071 0.864437178989328 0.08240879311982137 0.1855176667199222
0.22737663444909922 0.23184088554822227 -0.004275603901327588 -0.00018864719779540726
0.2249932592680185 0.22420596676838173 0.0001047059408281894 0.0006825865588085618
0.21445380691530738 0.213940873045604 5.6796783166228764e-05 0.0004561370865370495
0.22883190365527348 0.2310792899810624 -0.0006077196296473792 -0.0016396666961414905
0.2876687012793667 0.2915486841870324 -0.0021028543134991077 -0.0017771285941664292
0.38860085614575063 0.36587114569203477 0.0021726439579991996 0.02055706649571663
0.5844902615778311 0.44828503944205134 0.032705173916214116 0.1035000482195656
1.0623358387912445 0.5710211257369718 0.156108481046619 0.3352062320076532
1.9716854451920747 0.7194568309229191 0.465611881024906 0.7866167332442496
3.3203078139848587 0.8930029919665151 1.0092818873289486 1.4180229346893944
4.935536298275 1.0960055563557098 1.6768626642949673 2.162668077624324
6.859063920257006 1.3506939479018925 2.5191830015079955 2.9891869708471157
9.10385555752073 1.6769834293151584 3.52541447116452 3.901457657041052
11.735892799507718 2.099957802200113 4.713891520193772 4.922043477113829
14.890027786583214 2.6543722565440104 6.14494611013789 6.09070941990131
18.668497798740958 3.3321622025035715 7.894047117857317 7.44228847838007
22.984216428696534 4.016974905782549 9.999766551556077 8.967474971357905
28.206792300945256 4.9337258431028 12.526252051082151 10.746814406760294
35.91802285699193 6.564266072772904 16.14606010086828 13.207696683350763
42.72137558397064 3.286002375844864 22.314227269099607 17.12114593902616
35.91802285699133 6.564266072776053 16.146060100866006 13.207696683349255
28.20679230093412 4.933725843095104 12.526252051080068 10.746814406758947
22.984216428665036 4.016974905762944 9.999766551549094 8.967474971352999
18.668497798726214 3.332162202505867 7.8940471178475375 7.442288478372811
14.890027786570602 2.654372256541791 6.14494611013215 6.0907094198966565
11.735892799487894 2.0999578021893237 4.713891520188875 4.9220434771097
9.103855557513526 1.6769834293163794 3.525414471160009 3.9014576570371364
6.859063920251275 1.350693947903751 2.5191830015040733 2.9891869708434458
4.935536298266941 1.0960055563576543 1.6768626642900253 2.162668077619261
3.3203078139731623 0.8930029919629848 1.009281887325073 1.418022934685107
1.9716854451883472 0.7194568309215282 0.4656118810238507 0.7866167332429685
1.0623358387879835 0.5710211257364317 0.15610848104554942 0.3352062320060021
0.5844902615763536 0.4482850394415637 0.03270517391588312 0.10350004821890725
0.38860085614541867 0.3658711456917917 0.0021726439579677096 0.020557066495659103
0.2876687012787894 0.291548684186182 -0.0021028543134843985 -0.0017771285939082644
0.22883190365487882 0.23107928998050178 -0.000607719629624546 -0.0016396666959984578
0.21445380691480467 0.21394087304497048 5.679678317641238e-05 0.00045613708665769584
0.22499325926785102 0.22420596676808793 0.00010470594083945147 0.0006825865589236301
0.22737663444858142 0.231840885547967 -0.004275603901389831 -0.00018864719799563455
1.1323636388257607 0.864437178987647 0.08240879311920431 0.18551766671890893
0.7011941270557516 0.6322764166608733 0.015229910818841836 0.05368779957603652
0.19893424320684325 0.20913954167754492 -0.0024808439787613653 -0.00772445449194034
0.23433790413924732 0.23482478362384007 -5.527431204319129e-05 -0.0004316051725496774
0.2309844958450981 0.2300753644756497 0.00011475150999699304 0.00079437985945153
0.24039450676713814 0.2409676703617404 -0.0003721030773316906 -0.00020106051727054243
0.2844143605614437 0.28532570259368495 -0.0013397724281557471 0.00042843039591453525
0.356906277522685 0.33085972914500145 0.004623621529590771 0.021422926848093115
0.41335103398896816 0.3280447772157442 0.021768074894345322 0.06353818187887848
0.4724588163371686 0.283388604679332 0.062027477274786275 0.12704273438305047
0.6398029829582085 0.2736139328476922 0.1310150469753344 0.23517400313518264
1.0287729102788117 0.3068109370874253 0.28659559250070776 0.43536638069067785
1.6088260310607372 0.30979026085461037 0.5251991107627868 0.7738366594433392
2.3755161300907623 0.3240919812489641 0.8698294501893149 1.1815946986524841
3.3123072765973616 0.37543170503095913 1.2961152696854803 1.6407603018809258
4.440902093832815 0.4867605690546482 1.8049908741975758 2.149150650580589
5.761262309798437 0.6801712796099313 2.38122491229449 2.699866117894015
7.3212828624933675 0.9805921299766712 3.055949154190384 3.2847415783263143
9.083159138230087 1.3566616831587477 3.8287671552412648 3.8977302998300734
11.498749428454229 1.9266978986841239 4.863186439198525 4.70886509057158
17.965663990828272 4.133197783699675 7.032096874770488 6.8003693323581125
30.045948002960426 3.6280635574602558 14.260175056560481 12.157709388939685
17.965663990809876 4.133197783678028 7.032096874772355 6.80036933235949
11.498749428454104 1.9266978986867078 4.863186439197136 4.7088650905702645
9.083159138240422 1.3566616831745426 3.828767155238042 3.8977302998278356
7.321282862469372 0.9805921299638267 3.055949154184424 3.2847415783211176
5.761262309795326 0.6801712796118587 2.381224912291993 2.6998661178914753
4.440902093831778 0.48676056905833337 1.8049908741950413 2.1491506505784033
3.312307276593427 0.3754317050306688 1.2961152696836378 1.640760301879121
2.375516130079526 0.3240919812448848 0.8698294501858753 1.1815946986487664
1.6088260310531035 0.30979026085263395 0.5251991107602585 0.7738366594402116
1.0287729102765497 0.3068109370883795 0.28659559249912514 0.4353663806890442
0.6398029829587177 0.27361393284837937 0.13101504697528454 0.23517400313505427
0.4724588163370154 0.2833886046800677 0.06202747727440705 0.1270427343825405
0.413351033988954 0.32804477721600045 0.021768074894271076 0.06353818187868271
0.35690627752188875 0.33085972914442857 0.00462362152946513 0.021422926847994968
0.28441436056094904 0.28532570259320883 -0.001339772428161399 0.00042843039590167173
0.24039450676677993 0.2409676703611933 -0.0003721030773101371 -0.00020106051710323065
0.23098449584469066 0.23007536447511145 0.00011475151001010771 0.0007943798595689255
0.23433790413888975 0.23482478362336623 -5.527431202397179e-05 -0.00043160517245255863
0.19893424320675357 0.2091395416771157 -0.0024808439787089493 -0.007724454491653187
0.7011941270540795 0.6322764166597805 0.015229910818631403 0.05368779957566792
0.4451570284608845 0.4440235336832433 -2.053698741466202e-05 0.0011540317650558893
0.18467535408153826 0.18530281170334048 -5.468516426346717e-05 -0.0005727724575388044
0.2371834608666252 0.2368355825844448 8.071418884064434e-06 0.00033980686329643055
0.24487908748445777 0.24377674584828263 0.00013387985396857467 0.0009684617822065271
0.25835571313807926 0.2574080477625865 -0.00014900423333007886 0.0010966696088227361
0.30644532281729053 0.30380507635846643 -0.0009451687533778962 0.00358541521220196
0.40251721374235616 0.3733062484177274 0.004753378031494395 0.024457587293134526
0.5929351389715575 0.4505739854315818 0.03513624939847399 0.1072249041415016
1.0650606176644084 0.5709725896194722 0.157229684600763 0.33685834344417326
1.9710948728031603 0.7191223436200602 0.46541784776477757 0.7865546814183211
3.3266393573490025 0.895170172729467 1.011726388244362 1.419742796375175
4.96246486363714 1.100421236514863 1.689469292128772 2.1725743349935063
6.909906306930439 1.356855226054016 2.5421847054778555 3.010866375398567
9.136535181272167 1.6733362395579308 3.545963933401816 3.917235008312419
11.555101588740195 2.0504864236385134 4.6456304711103185 4.858984693991361
14.019864378775553 2.4879109509306834 5.764914099621023 5.767039328223849
16.221969521977503 2.9635704871558546 6.737063301249377 6.521335733572272
17.973578933953988 3.527840458894428 7.4578446094114845 6.987893865648083
18.57615140146042 3.922815920547137 7.624616069263496 7.028719411649778
15.188383219770618 2.8794311955703993 6.540660416146104 5.768291608054109
30.43807723326088 5.4802800408137955 13.236700786029576 11.721096406417505
15.188383219784171 2.879431195577624 6.540660416149811 5.7682916080567335
18.5761514014637 3.9228159205501 7.624616069263618 7.028719411649989
17.973578933914304 3.527840458867682 7.4578446094039865 6.987893865642621
16.22196952195597 2.963570487153196 6.737063301238736 6.521335733564055
14.019864378756276 2.4879109509254356 5.764914099613266 5.767039328217566
11.555101588726684 2.0504864236386653 4.645630471103001 4.858984693985024
9.136535181257193 1.6733362395539788 3.545963933395921 3.917235008307294
6.909906306916528 1.3568552260558953 2.5421847054697175 3.010866375390914
4.9624648636220305 1.10042123651237 1.6894692921225234 2.1725743349871376
3.3266393573369557 0.895170172727691 1.011726388239421 1.419742796369844
1.971094872794217 0.719122343617445 0.4654178477619646 0.7865546814148077
1.0650606176602042 0.5709725896181685 0.157229684599637 0.3368583434423985
0.5929351389699924 0.4505739854308036 0.035136249398205574 0.10722490414098314
0.4025172137412152 0.37330624841700855 0.004753378031348889 0.024457587292857595
0.30644532281655174 0.30380507635749543 -0.0009451687533741596 0.003585415212430409
0.25835571313779226 0.25740804776209664 -0.000149004233304274 0.001096669608999959
0.24487908748392526 0.24377674584762268 0.00013387985397563163 0.0009684617823270793
0.23718346086625913 0.2368355825839728 8.071418889055334e-06 0.00033980686339716947
0.18467535408145663 0.18530281170330778 -5.468516427002872e-05 -0.0005727724575811072
0.4451570284599438 0.4440235336820515 -2.0536987391772045e-05 0.0011540317652841236
0.2868254871812811 0.28689910370842964 -5.074825948644306e-06 -6.854170119983136e-05
0.1704995846176702 0.170594152937949 -7.354400600826354e-06 -8.721391967805495e-05
0.23365351751249436 0.23431146721177015 -0.00010801526690868104 -0.0005499344323671078
0.2545753234086275 0.2533119191824867 0.00010623561139522843 0.0011571686147455536
0.2808246737547796 0.282047558600241 -0.0004965527735307977 -0.000726332071930489
0.3531199426417669 0.3495114162271533 -0.000703986447580761 0.004312512862193985
0.5474051400282842 0.4624169060348631 0.015254615700963968 0.06973361829245725
1.1335956358612609 0.6465331806894015 0.15536076637450966 0.3317016887973501
2.3737075955438707 0.8710580953648799 0.5716003821725175 0.9310491180064726
4.366366947174571 1.1084287869390586 1.3970767417928938 1.8608614184426198
6.949709129637462 1.350526260812073 2.5559412126582126 3.043241656167176
10.079697177880641 1.6296887604818266 4.058846466398576 4.391161951000236
13.67148769040967 1.9636561102118018 5.839831651661588 5.8679999285362845
17.710986767085895 2.358350000793037 7.889701004076998 7.462935762215851
22.16568408974549 2.81825157795915 10.198668059535244 9.148764452251097
26.82968560523995 3.332174636097155 12.650560116121184 10.846950853021596
31.325533360549954 3.908001706449834 14.998538175879016 12.418993478221113
35.10582630719208 4.564968061994409 16.86314570008982 13.677712545107834
36.94202463361695 4.892914247889347 17.799315269061715 14.249795116665906
34.41945322494277 4.787470238111806 16.438245911896367 13.193737074934596
42.48723972163854 10.004095203786187 18.00288322698887 14.480261290863458
34.419453224952534 4.787470238112927 16.438245911901703 13.193737074937905
36.94202463359781 4.892914247873543 17.799315269059594 14.249795116664666
35.10582630717468 4.564968062000164 16.863145700075716 13.677712545098823
31.325533360526535 3.9080017064560884 14.998538175861142 12.41899347820928
26.829685605206077 3.332174636091297 12.650560116104586 10.846950853010203
22.165684089715466 2.818251577954489 10.198668059520474 9.148764452240504
17.71098676705839 2.3583500007883034 7.889701004064092 7.462935762206006
13.671487690384652 1.9636561102118584 5.839831651647671 5.867999928525119
10.079697177854216 1.6296887604788532 4.0588464663859485 4.391161950989415
6.94970912961436 1.350526260809491 2.5559412126476766 3.043241656157191
4.366366947161127 1.1084287869386316 1.3970767417865115 1.8608614184359837
2.373707595535002 0.8710580953635326 0.5716003821691571 0.9310491180023124
1.1335956358562946 0.6465331806880245 0.15536076637310947 0.3317016887951608
0.5474051400259857 0.46241690603406294 0.015254615700465143 0.06973361829145813
0.35311994264117336 0.34951141622626064 -0.0007039864475184951 0.0043125128624309774
0.28082467375423886 0.2820475585996759 -0.0004965527735332074 -0.0007263320719038758
0.2545753234079558 0.2533119191816634 0.00010623561140682549 0.0011571686148855978
0.2336535175123018 0.23431146721138327 -0.00010801526688990827 -0.0005499344321914773
0.17049958461722656 0.17059415293756727 -7.35440060570754e-06 -8.721391973498786e-05
0.2868254871807704 0.28689910370792604 -5.074825949206164e-06 -6.854170120644613e-05
0.178190057181004 0.178190057181004 0.0 0.0
0.151532390421759 0.15153394021821606 1.456472249631759e-07 -1.6954436820019454e-06
0.22339422649709734 0.2240081319097558 -8.75258792576147e-05 -0.0005263795334007792
0.2604863663378433 0.26107815402599244 -0.00016135766468524428 -0.0004304300234639828
0.307117032374225 0.3070833007612679 -0.0004780734515609932 0.0005118050645181432
0.42704330763940723 0.40390035876951874 0.0009832422883868648 0.02215970658150191
0.8452340085340596 0.5935189258632881 0.07155805674028215 0.18015702593048913
1.9421213602555099 0.8529445762956402 0.39308140985664297 0.6960953741032279
4.030398989046158 1.1509543758391945 1.2082116438695687 1.6712329693373902
7.185310183186746 1.44258491237473 2.6647732434147557 3.0779520273972607
11.09069994293057 1.730709899099855 4.553587847136476 4.806402196694243
15.775446677358378 2.0631695086762813 6.9564614184122355 6.755815750269864
21.17060321050401 2.459718115324055 9.821659502341907 8.889225592838045
27.255793059039 2.9275210490819954 13.122716120996039 11.205555888960971
34.03045043863143 3.460518180880854 16.885468103248655 13.684464154501912
41.199148796128256 4.042326133587556 20.908372225167156 16.248450437373542
48.43712955752199 4.6641400136048885 25.052239799597867 18.720749744319242
54.48770793217489 5.15970601858082 28.524481555559543 20.803520358034543
57.50548809379189 5.30767939438503 30.344759761850298 21.85304893755656
53.76229323851609 4.741404188323747 28.353899211038776 20.66698983915356
60.1614583517773 13.060151061742335 27.108387968315842 19.992919321719135
53.76229323853419 4.741404188332444 28.353899211044773 20.66698983915698
57.50548809378674 5.30767939439087 30.344759761843363 21.85304893755253
54.487707932156944 5.159706018590633 28.524481555541996 20.803520358024322
48.43712955748334 4.664140013604017 25.052239799574245 18.720749744305078
41.19914879609263 4.042326133591648 20.908372225142692 16.24845043735829
34.030450438594904 3.46051818087996 16.88546810322707 13.684464154487856
27.255793058992868 2.9275210490744166 13.122716120973084 11.20555588894536
21.170603210469498 2.4597181153240126 9.82165950232192 8.889225592823584
15.775446677321547 2.0631695086732837 6.956461418393149 6.755815750255104
11.090699942900141 1.7307098991011318 4.553587847119273 4.806402196679739
7.185310183164075 1.442584912370437 2.664773243405208 3.0779520273884295
4.030398989031493 1.150954375837975 1.2082116438630652 1.6712329693304517
1.942121360247945 0.8529445762939812 0.39308140985412643 0.6960953740998376
0.8452340085304658 0.5935189258622584 0.0715580567393483 0.18015702592885885
0.4270433076380791 0.4039003587685695 0.0009832422882521024 0.02215970658125752
0.3071170323737839 0.3070833007605355 -0.00047807345152627213 0.0005118050647747157
0.26048636633735406 0.2610781540253531 -0.00016135766466560196 -0.0004304300233335675
0.22339422649716237 0.22400813190988095 -8.752587926428481e-05 -0.0005263795334542134
0.15153239042144317 0.15153394021788127 1.456472265759234e-07 -1.6954436646610375e-06
0.17819005718090486 0.17819005718090486 0.0 0.0
0.10458554471052237 0.10458554471052237 0.0 0.0
0.12783124638018456 0.12782702030645715 2.3276924337965782e-07 3.99330448403657e-06
0.20727983132408026 0.2076105894193262 -4.263711341480076e-05 -0.0002881209818311288
0.26286329310854917 0.26332524500848664 -0.00019029371701449144 -0.00027165818292303114
0.3378292823799919 0.34009225695099077 -0.001328515785458487 -0.000934458785540401
0.5588328645025411 0.4891718947108318 0.015223409561111359 0.05443756023059793
1.2808195501805566 0.7353951826242101 0.178458561446198 0.3669658061101483
2.97524248965413 1.067139289595271 0.7570528082565973 1.1510503918022605
6.0063337143219355 1.4209184134966468 2.0813647530532524 2.504050547772036
10.136444644949881 1.7489571153901915 4.015542994869405 4.371944534690288
15.509593049821659 2.098493948001282 6.790184939072039 6.6209141627483366
21.850196108515505 2.4956963294978705 10.19589494084468 9.158604838172955
29.143153733007075 2.9647030362949054 14.226276272550434 11.952174424161768
37.42256840588469 3.5157958798644233 18.908793742314426 14.997978783705825
46.634758805803315 4.1364234257745895 24.2133164242316 18.285018955797124
56.67855457687308 4.794984099141139 30.154131739918782 21.729438737813155
66.44572516559771 5.366207956775091 35.96328792874624 25.116229280076425
74.8306893334136 5.651090444410256 41.23061802621123 27.9489808627921
78.70493429352835 5.346492524117452 43.978793972384594 29.3796477970263
73.96199077940979 4.816410358328131 41.24023558134082 27.905344839740856
80.08190065147679 16.1037825336732 37.8474175263518 26.130700591451745
73.96199077937523 4.816410358294992 41.24023558133995 27.90534483974031
78.70493429352871 5.34649252413085 43.97879397237612 29.37964779702174
74.83068933336969 5.651090444402491 41.23061802618774 27.94898086277946
66.44572516553518 5.366207956762937 35.963287928713854 25.1162292800584
56.67855457680627 4.794984099127449 30.154131739885127 21.729438737793725
46.63475880573917 4.136423425759444 24.213316424201118 18.2850189557786
37.42256840583937 3.515795879871037 18.908793742282683 14.997978783685639
29.143153732954403 2.964703036287233 14.226276272523513 11.952174424143662
21.850196108467586 2.4956963294957806 10.195894940818116 9.15860483815371
15.509593049786634 2.0984939480043754 6.790184939050756 6.620914162731495
10.136444644918168 1.748957115384902 4.015542994855292 4.371944534677973
6.006333714302945 1.4209184134960484 2.081364753043852 2.504050547763047
2.9752424896414946 1.067139289591979 0.7570528082522828 1.1510503917972326
1.2808195501747186 0.7353951826226104 0.1784585614444798 0.36696580610762836
0.5588328645004671 0.48917189470971206 0.015223409560813892 0.05443756022994136
0.3378292823793339 0.34009225695010153 -0.001328515785419752 -0.0009344587853480095
0.2628632931078274 0.2633252450075328 -0.00019029371699462891 -0.0002716581827107408
0.2072798313240864 0.20761058941935623 -4.2637113417025424e-05 -0.0002881209818527954
0.1278312463800332 0.12782702030630583 2.3276924336996675e-07 3.9933044839934034e-06
0.10458554471034763 0.10458554471034763 0.0 0.0
0.05770732818208569 0.05770732818208569 0.0 0.0
0.10184656143776745 0.10184656143776745 0.0 0.0
0.18657101397550496 0.1866401752309549 -8.42599709712497e-06 -6.0735258352833315e-05
0.2628280438403825 0.2645780428375185 -0.0003340264941389957 -0.0014159725029970491
0.37880107584541 0.3752951372947886 -0.0013369366965695964 0.004842875247190968
0.7568102710797397 0.586682902258346 0.04722768447722576 0.12289968434416779
1.8542918095531595 0.893755066180329 0.3470582135480369 0.6134785298247944
4.2406091886462205 1.2823490741798063 1.2782168765971145 1.6800432378692993
8.010920745416785 1.6663270214480197 2.9386678527991745 3.4059258711695963
13.399613895725816 2.0611268627002066 5.635991024023953 5.702496009001651
20.15906508638574 2.4820844102228135 9.22287205285126 8.454108623311678
28.207728919293572 2.9551038340307247 13.673588305060779 11.579036780202081
37.50555280816954 3.5044342103330113 18.967500836967787 15.033617760868744
48.113750915282026 4.148151465780459 25.15408692892782 18.811512520573743
59.92137249623789 4.880359754961307 32.138320680576456 22.902692060700137
72.6365460514488 5.588929426715802 39.82670352641546 27.22091309831756
85.44093361453456 6.070106484851321 47.89818747341143 31.472639656271788
95.7465755522796 6.007666555631224 54.696780357710594 35.042128638937754
100.13285215251548 5.299881710763772 58.03180075368545 36.80116968806623
94.93182342576084 5.050429230019441 54.80861302167898 35.07278117406239
101.8230697208655 19.159488776275072 50.05892190021212 32.60465904437836
94.93182342574745 5.050429230019278 54.80861302167033 35.07278117405783
100.13285215246219 5.299881710734352 58.03180075366954 36.80116968805831
95.74657555222223 6.007666555623775 54.696780357677575 35.042128638920865
85.44093361447867 6.070106484858482 47.89818747337019 31.47263965625001
72.63654605138773 5.588929426721368 39.82670352637232 27.22091309829402
59.92137249617324 4.880359754959905 32.13832068053623 22.90269206067709
48.11375091521843 4.148151465778913 25.154086928889118 18.811512520550423
37.505552808101555 3.5044342103231423 18.967500836932302 15.033617760846123
28.207728919240616 2.9551038340340163 13.673588305027277 11.579036780179315
20.159065086337172 2.4820844102187696 9.222872052825638 8.454108623292768
13.399613895690013 2.0611268626984436 5.635991024005195 5.70249600898638
8.010920745391019 1.666327021444082 2.9386678527880004 3.4059258711589364
4.240609188629097 1.2823490741765213 1.2782168765903523 1.680043237862222
1.854291809544942 0.8937550661793006 0.34705821354498073 0.6134785298206621
0.7568102710765989 0.5866829022568326 0.047227684476647935 0.12289968434311822
0.3788010758448965 0.37529513729403563 -0.0013369366965360046 0.004842875247396865
0.2628280438401247 0.26457804283721276 -0.0003340264941329001 -0.001415972502955259
0.18657101397541245 0.18664017523088372 -8.425997098991382e-06 -6.0735258372256025e-05
0.10184656143750352 0.10184656143750352 0.0 0.0
0.05770732818189679 0.05770732818189679 0.0 0.0
0.029838953684968358 0.029838953684968358 0.0 0.0
0.07666006287017121 0.07666006287017121 0.0 0.0
0.16372065555916182 0.16371383879549395 3.960330448053176e-07 6.420730623111643e-06
0.2629754471674787 0.2645940392714377 -0.0003319161275251506 -0.0012866759764336981
0.44500891749546856 0.4301341383953216 0.0018132263506801258 0.013061552749466881
1.0225953494005233 0.6845737121984352 0.10142350986284826 0.23659812733923957
2.5879617606329397 1.0594507615629003 0.6108812326223081 0.9176297664477303
5.545514653754786 1.4753022392661321 1.7913004903710201 2.278911924117632
10.271310766381445 1.9145689882446069 4.013320303877306 4.343421474259532
16.78429944151327 2.384713839946913 7.350794385764255 7.0487912158021055
25.007787433401358 2.8903190615177152 11.81838640378052 10.299081968103117
34.84053783184749 3.450256669507885 17.381110171963208 14.009170990376393
46.25929334006943 4.0911704515534675 24.0399312155066 18.12819167300937
59.1056929446906 4.833660310790574 31.633823520390617 22.638209113509465
73.61405806427526 5.659355778026905 40.437478525891265 27.517223760357084
89.25562589675616 6.430684552032398 50.151624567206674 32.67331677751708
104.54865604469008 6.772795179030193 60.00379434392235 37.772066521737514
116.87966800243292 6.307815730932655 68.54928413391791 42.022568137582375
122.28025548360895 5.283747717279637 72.87147506936395 44.12503269696538
116.88476891930132 5.348864217660849 69.2071376406845 42.32876706095596
124.92997691936594 22.19412177817915 63.298349044289886 39.43750609689693
116.88476891928856 5.348864217663682 69.20713764067392 42.32876706095092
122.28025548357424 5.283747717283954 72.8714750693378 44.12503269695251
116.87966800239373 6.307815730950608 68.54928413387961 42.02256813756345
104.5486560446115 6.772795179026173 60.003794343872684 37.77206652171263
89.25562589667693 6.430684552029876 50.1516245671563 32.67331677749076
73.61405806419125 5.659355778019445 40.43747852584172 27.517223760330065
59.10569294460885 4.833660310784143 31.63382352034265 22.638209113482063
46.25929333999386 4.091170451548813 24.039931215462488 18.128191672982545
34.84053783178133 3.4502566695061803 17.38111017192414 14.009170990350995
25.007787433342504 2.8903190615141194 11.818386403748075 10.299081968080301
16.78429944146836 2.3847138399418446 7.350794385741783 7.048791215784736
10.271310766348712 1.9145689882395087 4.0133203038627 4.343421474246501
5.545514653734223 1.4753022392634358 1.7913004903621315 2.278911924108658
2.587961760622495 1.0594507615623623 0.6108812326178036 0.9176297664423274
1.0225953493961335 0.6845737121967554 0.1014235098618054 0.23659812733757252
0.44500891749458327 0.4301341383943866 0.0018132263506739099 0.0130615527495228
0.26297544716719495 0.26459403927108677 -0.00033191612752156305 -0.001286675976370202
0.16372065555914123 0.16371383879547421 3.960330447626668e-07 6.4207306222634735e-06
0.07666006287017388 0.07666006287017388 0.0 0.0
0.029838953684715237 0.029838953684715237 0.0 0.0
0.014612032654529865 0.014612032654529865 0.0 0.0
0.054809340577795504 0.054809340577795504 0.0 0.0
0.14166818235990597 0.14166568003523425 1.22441077168008e-07 2.379883594554421e-06
0.2676306536190119 0.2698231377077004 -0.00045911555434538016 -0.0017333685343432976
0.5443726936817931 0.494456831346801 0.01139283260661522 0.038523029728377026
1.3901258826443872 0.8091256520111749 0.20026882454165235 0.3807314060915599
3.3907143761667067 1.2112758819893625 0.8934804063465651 1.285958087830779
7.0090193885668 1.6577296124507352 2.437724931558467 2.9135648445575977
12.615815879328682 2.167064249484461 5.1488333743256165 5.299918255518609
20.309017771387477 2.723261387960593 9.179380643924201 8.406375739502677
30.0122131256616 3.323757566321168 14.538269792803499 12.150185766536957
41.692004142776355 3.9876184226933185 21.258588331329207 16.445797388753835
55.158493612578575 4.729403193660753 29.19570266517345 21.233387753744374
70.61464806379841 5.562742727444466 38.5816734909308 26.470231845423104
87.65142283888109 6.468104721732897 49.06101200132073 32.12230611582748
105.87104514224495 7.266961519906345 60.5391358361874 38.0649477861512
123.87215592175646 7.489792371134467 72.45314901892503 43.92921453169699
138.34159869868486 6.657498445914616 82.80100506073009 48.88309519204016
145.0938429062478 5.317177202048277 88.29750219593339 51.47916350826616
140.13758298934908 5.646901954123554 84.72037888402187 49.7703021512037
149.9704522309288 25.16603153890445 78.14732822925001 46.65709246277429
140.1375829893186 5.646901954113023 84.72037888400816 49.77030215119745
145.09384290617282 5.3171772020286685 88.29750219589575 51.4791635082484
138.34159869858567 6.657498445885535 82.80100506068219 48.88309519201795
123.87215592167686 7.48979237114238 72.45314901886613 43.92921453166834
105.871045142143 7.266961519896255 60.53913583612619 38.06494778612043
87.65142283878966 6.468104721731693 49.0610120012615 32.122306115796476
70.61464806370265 5.562742727437262 38.58167349087371 26.470231845391673
55.15849361248626 4.729403193655616 29.195702665118393 21.233387753712226
41.69200414269487 3.987618422686448 21.258588331283267 16.445797388725154
30.012213125598922 3.323757566322837 14.538269792765082 12.150185766511012
20.309017771335785 2.723261387955301 9.179380643897503 8.406375739482979
12.615815879290416 2.167064249478603 5.148833374307954 5.299918255503858
7.0090193885431535 1.6577296124488883 2.4377249315476264 2.9135648445466416
3.3907143761532383 1.211275881987843 0.8934804063409777 1.2859580878244181
1.3901258826384062 0.809125652009181 0.20026882454002684 0.38073140608919825
0.5443726936803227 0.49445683134583523 0.01139283260644176 0.03852302972804556
0.26763065361854327 0.2698231377070414 -0.00045911555433252195 -0.0017333685341655056
0.1416681823597958 0.1416656800351273 1.2244107697319608e-07 2.3798835915387224e-06
0.05480934057775817 0.05480934057775817 0.0 0.0
0.014612032654424761 0.014612032654424761 0.0 0.0
0.00704983555093207 0.00704983555093207 0.0 0.0
0.03791221094022821 0.03791221094022821 0.0 0.0
0.12368867573377709 0.12368867573377709 0.0 0.0
0.28409245593976834 0.28756824808142434 -0.0008372419945647097 -0.0026385501470912297
0.6876222110485303 0.5699316923698958 0.030545887278081385 0.08714463140055304
1.8492962610449122 0.9346987984614521 0.3421800489638532 0.5724174136196072
4.273635891830945 1.3431617211325524 1.2327866996964627 1.6976874710019274
8.565626432026196 1.8405721121309104 3.1525567929144516 3.572497526980838
15.045523196553347 2.4231160667678 6.353686985206567 6.26872014457898
23.928950591859994 3.0755590150024426 11.083731510669862 9.769660066187699
35.18746241648687 3.7871809153755094 17.396826261658845 14.003455239452494
48.69861991556217 4.5639769194112425 25.248883434351683 18.885759561799265
64.52581651038878 5.424386826399481 34.76057021856672 24.340859465422568
82.24828183325431 6.353944485855706 45.57735096429694 30.316986383101657
101.89729890149083 7.272697451158824 57.909207619579824 36.715393830752156
122.69876493467761 8.022896833873956 71.30552860913019 43.37033949167341
143.148429972982 8.222886783079025 85.00103109094786 49.924512098955134
159.99228824281886 7.201606139372295 97.20565175189141 55.58503035155517
168.62756739609299 5.363507178753471 104.44024679435434 58.823813422985246
164.9881431224125 5.8899861147155015 101.5840071774501 57.514149830246836
177.19138611812252 27.968112582181433 94.7636617479151 54.459611788025995
164.98814312239546 5.889986114720599 101.58400717743464 57.51414983024015
168.62756739604032 5.363507178772784 104.44024679430497 58.82381342296268
159.99228824274186 7.201606139382475 97.20565175183165 55.58503035152774
143.14842997288173 8.22288678307881 85.00103109087968 49.92451209892329
122.69876493456371 8.022896833869408 71.30552860905665 43.37033949163764
101.8972989013833 7.272697451154329 57.909207619511434 36.71539383071748
82.24828183314021 6.353944485844075 45.5773509642302 30.316986383066006
64.52581651029485 5.424386826405521 34.76057021850266 24.340859465386668
48.698619915472094 4.5639769194076445 25.248883434297653 18.88575956176678
35.1874624164103 3.7871809153708424 17.396826261615292 14.00345523942416
23.928950591799854 3.07555901499698 11.08373151063793 9.769660066164944
15.045523196508949 2.4231160667610925 6.353686985185681 6.26872014456218
8.565626431996703 1.840572112127082 3.152556792901132 3.5724975269684878
4.273635891815157 1.3431617211310796 1.2327866996899028 1.6976874709941785
1.849296261037081 0.9346987984591222 0.34218004896152376 0.5724174136164362
0.6876222110462971 0.5699316923686742 0.030545887277720084 0.08714463139990285
0.2840924559389947 0.2875682480805073 -0.0008372419945397564 -0.002638550146973116
0.12368867573364352 0.12368867573364352 0.0 0.0
0.037912210940119234 0.037912210940119234 0.0 0.0
0.007049835550941215 0.007049835550941215 0.0 0.0
0.0033474280443919133 0.0033474280443919133 0.0 0.0
0.026345220998197038 0.026345220998197038 0.0 0.0
0.11431023586898278 0.11431023586898278 0.0 0.0
0.3241936889578881 0.3247309623017375 -0.0008035328650716224 0.0002662595212219428
0.900596240547533 0.6678765867063923 0.07298867671087478 0.15973097713026568
2.3677254348039036 1.046624447931313 0.5099874556439343 0.8111135312286557
5.263381656411163 1.4751428503235633 1.6539380441785276 2.13430076190907
10.17990198031947 2.0200693098975746 3.9114993670888096 4.248333303333084
17.558971964974535 2.6821414585214347 7.63294742912135 7.243883077331756
27.62769258730829 3.442721255023525 13.052007175330926 11.132964156953847
40.447475598055746 4.27618442855615 20.31470405579229 15.85658711370729
55.99586198556539 5.18703020174188 29.48405702705506 21.324774756768434
73.90801044925577 6.175544642346566 40.27493766366187 27.45752814324738
94.26894659696418 7.18589385161851 52.922748681870004 34.16030406347566
116.47590330682709 8.104145354393726 67.0729634365911 41.29879451584228
139.60362799067917 8.714260865214605 82.26196696939378 48.62740015607072
162.1269769762274 8.777237448375107 97.61466106643009 55.735078461422184
181.47517875676607 7.973866848005338 111.52724521574956 61.97406669301114
192.60435468573638 5.5899401952408345 120.91433018493889 66.1000843055567
191.69838964629665 5.872247125770104 120.11454462475992 65.71159789576654
207.10663222558892 29.779822049641382 114.17591240295235 63.15089777299522
191.69838964623398 5.872247125735727 120.11454462474059 65.71159789575775
192.60435468566484 5.589940195252061 120.91433018488163 66.10008430553115
181.47517875666023 7.973866847999432 111.5272452156806 61.97406669298025
162.12697697610943 8.777237448373086 97.61466106635032 55.73507846138594
139.6036279905565 8.71426086521776 82.26196696930856 48.62740015603026
116.47590330670337 8.104145354388399 67.07296343651191 41.29879451580309
94.26894659683745 7.1858938516105555 52.92274868179154 34.16030406343533
73.9080104491428 6.175544642343181 40.274937663590975 27.457528143208588
55.995861985462376 5.1870302017346015 29.484057026994567 21.324774756733213
40.44747559796852 4.276184428549582 20.31470405574271 15.856587113676222
27.6276925872438 3.4427212550224042 13.052007175293404 11.132964156927994
17.558971964925387 2.6821414585167167 7.632947429096269 7.2438830773123986
10.17990198028652 2.0200693098940814 3.911499367073217 4.248333303319224
5.263381656392561 1.4751428503212634 1.6539380441706555 2.13430076190064
2.3677254347947336 1.0466244479292355 0.5099874556408026 0.8111135312246973
0.9005962405442798 0.6678765867048739 0.07298867671021791 0.159730977129188
0.3241936889572681 0.32473096230102516 -0.0008035328650641404 0.0002662595213072374
0.1143102358687769 0.1143102358687769 0.0 0.0
0.02634522099810381 0.02634522099810381 0.0 0.0
0.0033474280443780676 0.0033474280443780676 0.0 0.0
0.0010790556232294188 0.0010790556232294188 0.0 0.0
0.019439612711572775 0.019439612711572775 0.0 0.0
0.12095831473093731 0.12095831473093731 0.0 0.0
0.40855887566954097 0.3927901812027905 0.00282575018119829 0.01294294428555224
1.2035992864721057 0.8258468656620763 0.13038993323836062 0.24736248757166912
3.0221078861194073 1.319771974282469 0.6816792122413875 1.0206566995955486
6.41915006071679 1.92455929611828 2.007476143719278 2.4871146208792307
12.0448677406047 2.745042973138331 4.529056314078906 4.770768453387467
20.42626638379033 3.826792824074378 8.61317999111826 7.986293568597705
31.94520364754172 5.188077071590906 14.592125955195616 12.165000620755182
46.70202742407639 6.822920296611135 22.622849494044516 17.25625763342077
64.48792784201336 8.710782312835484 32.60644730551056 23.17069822366731
85.24908097032245 10.797857755172338 44.642833704226405 29.808389510923707
108.61066898778898 12.972709882863398 58.58083835130884 37.05712075361675
133.79481198417358 14.918686442851588 74.13897726868043 44.73714827264149
159.43144609132256 16.155158374944573 90.73014592873753 52.54614178764051
183.4971671986392 16.222673766408434 107.22630775854981 60.04818567368094
203.79992644333186 15.165749538438531 122.04320410187412 66.59097280301924
217.73808264863365 13.570001829311218 132.8861023092395 71.281978510083
213.4657634679038 6.034272970912379 135.11527118399601 72.31621931299543
292.1074432645813 88.82200796463087 132.32800871284996 70.9574265871005
213.46576346784133 6.034272970886391 135.11527118397012 72.31621931298477
217.73808264858368 13.57000182935316 132.8861023091747 71.28197851005578
203.79992644321447 15.16574953843525 122.0432041017954 66.59097280298397
183.49716719850872 16.222673766407716 107.2263077584606 60.04818567364047
159.4314460912077 16.155158374967133 90.730145928643 52.54614178759745
133.7948119840251 14.918686442833156 74.13897726859275 44.73714827259923
108.61066898765445 12.9727098828602 58.580838351221644 37.05712075357265
85.24908097019127 10.797857755160335 44.64283370414868 29.808389510882307
64.4879278418868 8.710782312812938 32.60644730544425 23.170698223629604
46.70202742397611 6.822920296597585 22.622849493990707 17.256257633387815
31.945203647468684 5.188077071585941 14.592125955154774 12.16500062072797
20.426266383735996 3.8267928240695137 8.61317999108992 7.9862935685765795
12.044867740567756 2.745042973134296 4.529056314061182 4.770768453372283
6.419150060694282 1.9245592961136602 2.0074761437104365 2.487114620870185
3.0221078861079307 1.3197719742792133 0.6816792122378563 1.020656699590861
1.2035992864676441 0.8258468656596474 0.13038993323754575 0.24736248757045054
0.4085588756685249 0.3927901812019296 0.0028257501811560382 0.012942944285438768
0.12095831473071555 0.12095831473071555 0.0 0.0
0.019439612711573212 0.019439612711573212 0.0 0.0
0.0010790556232070107 0.0010790556232070107 0.0 0.0
CELL_DATA 800
SCALARS Stress float 6
LOOKUP_TABLE default
170.58276221862934 -523.5219750811091 -181.9076236508854 -110.60997123327448 0.0 0.0
404.02948272249233 -82.29858130054221 115.69577552404489 54.61069449937957 0.0 0.0
419.21998958382613 8.076088591148165 128.19891991624127 -2.6820488988058475 0.0 0.0
478.2233649614285 -16.266644781305928 150.9244755096689 -15.623994793271116 0.0 0.0
556.3176685987639 -22.920971162538624 211.61551619995407 -11.68524839883067 0.0 0.0
631.7023558418781 -19.275717740097235 283.2835224283959 -10.414799120150722 0.0 0.0
704.6082494445927 -13.61980945761104 337.29775585832954 -11.31381594666889 0.0 0.0
778.6461353254363 0.31224447037148195 385.36901458992713 -13.257136226093342 0.0 0.0
855.9366515580423 23.03053979687344 436.48176203104504 -15.119462447987074 0.0 0.0
935.8534066138152 53.22572335651495 492.07916018852075 -16.307023425015085 0.0 0.0
1016.3419202446541 88.30227530064619 550.250361198591 -16.774449523986902 0.0 0.0
1095.9696599307786 126.88233664820532 609.6428922655026 -16.745511278011183 0.0 0.0
1174.900388452228 168.00944226475656 669.8744603275724 -16.560758882357874 0.0 0.0
1253.9783474074197 212.25590424958892 731.6772552802138 -16.234719242228344 0.0 0.0
1333.6996595099197 260.134472028517 795.5798496368213 -15.620392022883884 0.0 0.0
1413.2454835022572 310.96887131098055 860.851620965652 -14.520111161340685 0.0 0.0
1490.167546632033 362.7700986599781 925.2832740258771 -12.82841833875698 0.0 0.0
1562.1399089542244 413.8277994036044 986.8427396428224 -10.907500191350413 0.0 0.0
1629.4380007344241 465.2820272295938 1046.1771158863835 -10.577046471432533 0.0 0.0
1731.6406538446656 558.7906845340451 1143.5333598686689 -17.47658682547641 0.0 0.0
1731.6406538449405 558.7906845343382 1143.533359868774 17.476586825467336 0.0 0.0
1629.4380007362138 465.28202723143704 1046.1771158876427 10.577046471407048 0.0 0.0
1562.139908955011 413.8277994044824 986.8427396434595 10.907500191312018 0.0 0.0
1490.167546631834 362.77009865988157 925.2832740256991 12.828418338795549 0.0 0.0
1413.245483501755 310.96887131061607 860.8516209653185 14.520111161336716 0.0 0.0
1333.6996595091293 260.1344720278897 795.5798496363027 15.620392023022728 0.0 0.0
1253.9783474069382 212.25590424928077 731.6772552798903 16.234719242215352 0.0 0.0
1174.9003884517458 168.0094422644687 669.8744603272614 16.56075888233336 0.0 0.0
1095.9696599314552 126.88233664911718 609.6428922658554 16.74551127815705 0.0 0.0
1016.3419202445708 88.3022753008118 550.2503611984469 16.774449523902675 0.0 0.0
935.85340661349 53.22572335644415 492.07916018828604 16.30702342503931 0.0 0.0
855.9366515569109 23.03053979600773 436.48176203032085 15.119462448052477 0.0 0.0
778.6461353250644 0.3122444702843268 385.36901458966526 13.257136226052546 0.0 0.0
704.6082494448568 -13.619809457034634 337.29775585847517 11.313815946702185 0.0 0.0
631.7023558421636 -19.27571773949498 283.28352242849724 10.414799120142758 0.0 0.0
556.3176685988686 -22.920971162075485 211.615516199943 11.68524839883121 0.0 0.0
478.2233649613502 -16.266644781091316 150.92447550965915 15.623994793330017 0.0 0.0
419.2199895837691 8.076088591236207 128.1989199162606 2.682048898737433 0.0 0.0
404.0294827226904 -82.29858130024257 115.69577552415305 -54.61069449929072 0.0 0.0
170.58276221924743 -523.5219750803985 -181.90762365027442 110.6099712330907 0.0 0.0
69.80907833978605 -550.0394799482905 -243.40475407894684 -160.86379641963907 0.0 0.0
279.15986983278503 -75.63778125911296 61.38124967566654 8.513647708267449 0.0 0.0
368.07938561563645 33.97769332771261 120.6289470451795 -9.619597644413783 0.0 0.0
443.2662777493523 -14.724291050214644 133.84256179875436 -36.061268292184465 0.0 0.0
528.8326768542557 -22.972260831803652 188.72005771572526 -33.59742107541806 0.0 0.0
608.4741751063005 -19.921899819080387 264.0150099908709 -30.831792549350556 0.0 0.0
684.9960138905319 -13.64489695562942 324.69735046071054 -32.14211357301768 0.0 0.0
759.9845330773567 0.1846046241893191 375.0654549089751 -35.081964754915475 0.0 0.0
835.7958541102481 21.479086669341257 425.2290414627682 -37.85042479142539 0.0 0.0
912.3568337521233 48.84387892354886 477.909191915238 -39.236619884146656 0.0 0.0
988.1517861509926 80.01150798149425 531.8543886642153 -39.30524736069155 0.0 0.0
1062.7365206008817 113.82750483477557 586.3713120926113 -38.70608418935423 0.0 0.0
1136.3837194574794 150.5339472523353 641.7738827271305 -37.86071420856452 0.0 0.0
1209.893729625887 189.95524339756506 698.4075467419261 -36.80574509261758 0.0 0.0
1283.451196510338 232.16136395125807 756.4153219513623 -35.27853408224647 0.0 0.0
1356.5791860421618 276.90176342277994 815.4447083708048 -32.89102431815762 0.0 0.0
1428.35807105437 323.6580619886859 874.7721904592256 -29.598413628423895 0.0 0.0
1498.5043551204126 372.91237107320484 934.4693364595682 -26.385475923289906 0.0 0.0
1574.3966380833372 433.2709688884344 1002.450492484667 -25.03515830543761 0.0 0.0
1631.040185541706 481.1010956944179 1054.5763582281297 -25.633873172586085 0.0 0.0
1631.0401855400796 481.1010956928076 1054.5763582269835 25.63387317275899 0.0 0.0
1574.3966380810566 433.27096888619 1002.4504924830837 25.035158305433406 0.0 0.0
1498.5043551189306 372.91237107179893 934.4693364585238 26.385475923350906 0.0 0.0
1428.3580710537426 323.6580619881568 874.7721904586028 29.598413628436205 0.0 0.0
1356.5791860424124 276.9017634231535 815.4447083709247 32.891024318080596 0.0 0.0
1283.4511965106276 232.1613639517305 756.4153219515333 35.278534082456005 0.0 0.0
1209.8937296253246 189.95524339716258 698.4075467414709 36.80574509250788 0.0 0.0
1136.3837194567714 150.53394725179845 641.7738827265487 37.86071420846439 0.0 0.0
1062.736520600217 113.8275048343209 586.3713120921396 38.706084189344054 0.0 0.0
988.1517861507004 80.01150798141921 531.8543886640366 39.30524736055067 0.0 0.0
912.356833752107 48.843878923764834 477.90919191520743 39.23661988396614 0.0 0.0
835.7958541100629 21.479086669439965 425.2290414626585 37.85042479147293 0.0 0.0
759.9845330775802 0.18460462470522998 375.065454909133 35.081964754924606 0.0 0.0
684.9960138900158 -13.644896955865832 324.6973504603315 32.14211357299613 0.0 0.0
608.4741751058115 -19.921899819256936 264.0150099904962 30.831792549459227 0.0 0.0
528.8326768540954 -22.972260831596667 188.720057715578 33.59742107557557 0.0 0.0
443.26627774922906 -14.724291050156044 133.84256179872867 36.06126829225981 0.0 0.0
368.0793856154336 33.97769332747135 120.62894704505118 9.619597644548966 0.0 0.0
279.1598698329382 -75.63778125867879 61.38124967584589 -8.513647708460942 0.0 0.0
69.80907834004384 -550.0394799480632 -243.40475407867163 160.86379641938848 0.0 0.0
15.011251470284009 -559.8870156010628 -269.79077893527597 -176.42857539977874 0.0 0.0
156.5210756909719 -63.612091323689285 27.87269531018479 -46.678409116280164 0.0 0.0
298.93949677612943 38.01151961624389 101.085304917712 -34.18938437021585 0.0 0.0
398.3511685719121 -5.510245956197011 119.33030691753703 -56.55721428173725 0.0 0.0
492.6673157215118 -21.74301239167824 164.92894446393652 -57.59291573036794 0.0 0.0
581.6052115203069 -21.743413145547333 240.05050651508964 -52.852266139766634 0.0 0.0
661.3344699938004 -12.824015252262747 309.17611935049945 -53.337477998729725 0.0 0.0
736.8854098372083 0.14766401109060467 362.15971272205763 -56.75244323172738 0.0 0.0
811.4399702816825 19.936391901412065 411.7679666850608 -60.00722406776649 0.0 0.0
884.5703678176549 44.16870465301153 461.40214017740794 -61.346909312055175 0.0 0.0
955.892858462206 71.32818452964264 511.19180347009984 -61.008906359425126 0.0 0.0
1025.4373780961744 100.94806277013967 561.1319974453695 -59.867717887045686 0.0 0.0
1094.010910222601 132.79452326135242 611.5976615638903 -58.48933806795128 0.0 0.0
1161.7511581061312 167.09919737891164 662.8207660319287 -56.74464033620812 0.0 0.0
1228.9580176011702 203.41664906494634 714.7382100043773 -54.363991849542806 0.0 0.0
1295.8444503363173 242.03603163224108 767.5958055786828 -50.98151127399229 0.0 0.0
1362.9115705204686 284.0030622822219 822.1527255919174 -46.655603063449284 0.0 0.0
1432.2226125850275 332.2921619676229 880.9152828928138 -42.292531680073125 0.0 0.0
1497.7274663829674 381.9028402569634 938.4142774960361 -37.95888570249053 0.0 0.0
1544.6452701896803 419.0849982751309 980.3913885887077 -32.47945360032009 0.0 0.0
1544.6452701895525 419.08499827499884 980.3913885886034 32.47945360018351 0.0 0.0
1497.7274663836606 381.90284025772183 938.4142774964835 37.95888570267224 0.0 0.0
1432.2226125862535 332.2921619689696 880.9152828935784 42.29253168032303 0.0 0.0
1362.9115705204624 284.0030622823417 822.152725591897 46.655603063486865 0.0 0.0
1295.8444503357648 242.03603163178462 767.5958055781373 50.98151127398276 0.0 0.0
1228.9580176005234 203.41664906450018 714.7382100037591 54.363991849762385 0.0 0.0
1161.7511581056629 167.0991973786072 662.820766031537 56.74464033625546 0.0 0.0
1094.010910221595 132.79452326055184 611.5976615631482 58.48933806802184 0.0 0.0
1025.4373780956596 100.94806276982123 561.131997444949 59.86771788706779 0.0 0.0
955.892858461441 71.32818452910419 511.1918034695303 61.00890635940347 0.0 0.0
884.5703678173431 44.168704652941074 461.40214017717767 61.3469093119966 0.0 0.0
811.439970280723 19.936391900713545 411.7679666844405 60.00722406777032 0.0 0.0
736.8854098367044 0.14766401086491499 362.1597127217074 56.75244323172436 0.0 0.0
661.3344699939692 -12.824015251750609 309.1761193505661 53.33747799876953 0.0 0.0
581.6052115204475 -21.743413145065773 240.05050651507804 52.852266139712754 0.0 0.0
492.66731572127543 -21.743012391604935 164.92894446377355 57.59291573035527 0.0 0.0
398.3511685717017 -5.510245956246358 119.33030691747068 56.55721428167053 0.0 0.0
298.9394967758856 38.01151961589534 101.08530491753424 34.18938437016888 0.0 0.0
156.52107569098047 -63.612091323612425 27.872695310210403 46.678409116134986 0.0 0.0
15.011251470450674 -559.8870156008595 -269.79077893505087 176.42857539960926 0.0 0.0
-6.0861060433332455 -549.5529381187982 -268.3316132975594 -178.44216216212 0.0 0.0
89.46050465924448 -58.876019710633145 9.1753454845834 -93.47547710845629 0.0 0.0
233.57972513519684 34.308768608026014 80.36654812296685 -67.54010440283521 0.0 0.0
344.35535283575405 4.0899106631026125 104.72010658981665 -78.90610698904348 0.0 0.0
446.7934858921643 -19.806645141052307 140.67665596784838 -84.12210716647455 0.0 0.0
545.267255688565 -21.772978877561208 212.14047744550632 -76.65911329166735 0.0 0.0
631.060142305131 -13.160285241032152 287.7315858075968 -75.20217745887759 0.0 0.0
709.1594177810509 0.6868956947231979 346.48169580562353 -78.34830754797892 0.0 0.0
782.1295189483153 18.20924361530136 395.5200075438855 -81.55930213738753 0.0 0.0
852.0578472803163 39.27945579139521 442.34008407547213 -82.65047519170633 0.0 0.0
919.0980257896426 62.53529727431241 488.16337890567047 -81.89320104633165 0.0 0.0
983.9037212473127 87.81557741076608 533.6196969261852 -80.29804094742092 0.0 0.0
1047.0853475627246 114.9834543787421 579.0866948143137 -78.37043202632744 0.0 0.0
1109.3254309616027 144.00908634412482 624.9576206191336 -76.02016257974259 0.0 0.0
1170.3032688497333 174.27881593124766 670.7702385933678 -72.9329991448737 0.0 0.0
1230.712794569437 206.7699884148384 717.3382080660344 -68.84590907588642 0.0 0.0
1292.975568064107 243.73900535379477 766.9852118051521 -63.85304331889167 0.0 0.0
1356.769579996037 285.94900355670677 819.9654626163109 -58.08636499991316 0.0 0.0
1416.2254324276794 328.43176255515937 870.8963701195202 -50.524012453429194 0.0 0.0
1459.767284872897 360.56723228194863 908.6722838024283 -39.68217973068415 0.0 0.0
1459.7672848732668 360.56723228232977 908.6722838027604 39.68217973065549 0.0 0.0
1416.2254324270639 328.43176255463015 870.8963701190565 50.5240124537408 0.0 0.0
1356.7695799933576 285.9490035541055 819.9654626143528 58.086364999975835 0.0 0.0
1292.9755680631865 243.7390053529274 766.9852118045292 63.85304331878736 0.0 0.0
1230.7127945695045 206.76998841502763 717.3382080660498 68.84590907592572 0.0 0.0
1170.3032688497028 174.27881593137363 670.7702385932903 72.93299914491209 0.0 0.0
1109.3254309612228 144.0090863438707 624.9576206188169 76.02016257960402 0.0 0.0
1047.0853475613224 114.98345437744644 579.0866948133091 78.3704320261692 0.0 0.0
983.9037212466479 87.8155774102481 533.6196969257849 80.29804094732037 0.0 0.0
919.0980257887585 62.53529727362556 488.16337890508834 81.89320104624673 0.0 0.0
852.0578472796711 39.27945579091977 442.34008407499715 82.65047519149276 0.0 0.0
782.1295189483078 18.209243615592158 395.5200075438496 81.55930213743721 0.0 0.0
709.159417781081 0.6868956950621907 346.4816958056471 78.3483075480063 0.0 0.0
631.0601423042 -13.160285241694801 287.7315858069209 75.2021774588156 0.0 0.0
545.2672556885643 -21.772978877156476 212.14047744542847 76.6591132916858 0.0 0.0
446.79348589190795 -19.806645141021882 140.67665596772048 84.12210716638528 0.0 0.0
344.3553528355909 4.089910663010595 104.72010658975259 78.90610698906934 0.0 0.0
233.5797251350234 34.30876860792726 80.36654812288516 67.54010440272846 0.0 0.0
89.46050465950496 -58.876019710082296 9.175345484826801 93.47547710827267 0.0 0.0
-6.086106043305236 -549.552938118543 -268.3316132973387 178.44216216203282 0.0 0.0
-11.225021429888116 -527.2096830643591 -251.38183810107478 -175.65726566525314 0.0 0.0
52.69064667027503 -55.38253335747963 -0.8075660061613839 -129.93672511937623 0.0 0.0
177.7296252215608 27.46652544662799 61.558845200456624 -101.21187470716845 0.0 0.0
286.7010923904355 10.621502987698221 89.22430493596872 -102.63775109477137 0.0 0.0
389.7650875883577 -15.416121056729349 117.5611710104655 -111.47741666145308 0.0 0.0
498.1035793822564 -21.357205231030935 180.57172961981195 -103.56485269313832 0.0 0.0
593.5709615564056 -13.758271425342922 260.1322478639124 -98.51880379220762 0.0 0.0
675.1118605581669 0.7546208587875967 326.0365286635698 -99.92291997933168 0.0 0.0
747.2908871347049 16.55695076734213 376.10953042082605 -102.5277757833197 0.0 0.0
814.1719266282244 34.21682334620638 420.35690933638324 -103.20138082326906 0.0 0.0
877.2274593505591 53.645737253445255 462.469945260014 -101.96903073436913 0.0 0.0
937.1467753291416 74.55956652755113 503.3876770401529 -99.93599274904697 0.0 0.0
995.0971266835012 96.9245984982256 543.8950200204483 -97.5988168256831 0.0 0.0
1051.5404067332265 120.76674122416455 584.3087420084711 -94.63344047674184 0.0 0.0
1106.6037341354452 145.39885044499493 624.3819526393559 -90.92225923845116 0.0 0.0
1160.9845155485395 171.543120269355 664.7965662863584 -86.44022141252509 0.0 0.0
1216.2793001717373 201.50536401238125 707.476885046515 -80.96276563909976 0.0 0.0
1273.7190816977627 236.5336324030594 753.6962676500211 -73.94955150669854 0.0 0.0
1329.0376364924678 273.0791669990783 799.5888330594108 -63.49993364424961 0.0 0.0
1372.8777299841568 302.9885955223792 836.3832522970052 -47.862790576308 0.0 0.0
1372.8777299838243 302.98859552205994 836.3832522965413 47.8627905763595 0.0 0.0
1329.0376364921785 273.0791669988816 799.588833058994 63.49993364453883 0.0 0.0
1273.7190816981113 236.53363240347835 753.6962676503335 73.94955150671183 0.0 0.0
1216.2793001722953 201.5053640130859 707.4768850469113 80.96276563922171 0.0 0.0
1160.9845155479634 171.54312026882735 664.7965662859365 86.44022141236138 0.0 0.0
1106.6037341345377 145.39885044422277 624.3819526388571 90.9222592385149 0.0 0.0
1051.5404067321545 120.76674122323169 584.3087420077032 94.63344047672622 0.0 0.0
995.0971266832877 96.92459849823754 543.8950200203676 97.59881682578738 0.0 0.0
937.1467753289885 74.55956652762458 503.38767704000975 99.93599274909018 0.0 0.0
877.2274593500855 53.64573725323879 462.4699452596311 101.96903073445085 0.0 0.0
814.1719266280263 34.216823346164915 420.3569093361273 103.20138082304885 0.0 0.0
747.2908871348416 16.55695076781211 376.10953042093365 102.52777578341824 0.0 0.0
675.1118605577226 0.7546208585196439 326.0365286632209 99.92291997911141 0.0 0.0
593.5709615557403 -13.75827142569782 260.1322478634276 98.51880379219901 0.0 0.0
498.1035793816866 -21.35720523133215 180.5717296194059 103.56485269311284 0.0 0.0
389.76508758766204 -15.416121057299456 117.56117101007275 111.47741666130258 0.0 0.0
286.7010923903903 10.621502987727911 89.22430493597034 102.637751094615 0.0 0.0
177.7296252215309 27.46652544678598 61.55884520049505 101.21187470710012 0.0 0.0
52.69064667047839 -55.38253335702647 -0.8075660059644254 129.9367251192097 0.0 0.0
-11.225021429786864 -527.209683063988 -251.38183810079573 175.6572656652375 0.0 0.0
-9.151129383531327 -496.76932075545983 -225.29470717695378 -171.65566481435295 0.0 0.0
31.35611268024602 -51.48788673532049 -6.039532216522337 -157.183776496556 0.0 0.0
130.5316128401813 20.062012751205174 45.17808767741595 -130.79810417530976 0.0 0.0
228.76364498544712 13.247137416774912 72.59925826208305 -126.58496948826387 0.0 0.0
323.72732215655435 -8.515913900991938 96.4360537874466 -136.93562807371927 0.0 0.0
434.7002596805877 -20.40907352074734 146.02006114065284 -133.70475240345496 0.0 0.0
542.6463253208119 -13.367616853006986 224.90397100612944 -124.22248640247189 0.0 0.0
631.2229878025091 -0.3787450983650693 297.6455264781741 -122.15814814899204 0.0 0.0
705.3405364115725 14.574993623399028 352.0332602513741 -123.17441861939176 0.0 0.0
769.8055286902492 29.14274723918423 394.8097256244506 -123.00464797226476 0.0 0.0
828.8221054111011 44.60243032467827 433.2918923507857 -121.25537242038213 0.0 0.0
884.0837118651847 61.26914725035026 469.91463357262546 -118.80212952158912 0.0 0.0
936.5469606259735 78.84866211313776 505.3727552746722 -116.06541840337215 0.0 0.0
987.3104072989262 97.32564706185948 540.3053856026913 -112.72429923584589 0.0 0.0
1036.9784609805074 116.70532853075292 575.0863047959004 -108.47323196877988 0.0 0.0
1084.7574955777113 136.76957869362835 609.2212180731691 -103.4796823887423 0.0 0.0
1132.2727005902861 158.36730801011493 643.8843682401098 -97.80460995053537 0.0 0.0
1182.1618705649773 184.57612203196186 681.9269985170581 -90.12221978239126 0.0 0.0
1233.960976385736 215.33309742862622 723.1383576234141 -77.47645845925658 0.0 0.0
1280.925029861243 244.76369746422756 761.2061317183089 -57.70141181529362 0.0 0.0
1280.9250298605818 244.76369746360746 761.2061317179507 57.701411815520665 0.0 0.0
1233.9609763853382 215.3330974282863 723.1383576233192 77.4764584594108 0.0 0.0
1182.161870563715 184.57612203074473 681.9269985161443 90.12221978234453 0.0 0.0
1132.2727005886704 158.36730800857816 643.8843682388815 97.80460995069427 0.0 0.0
1084.7574955781965 136.76957869439366 609.2212180734612 103.47968238905563 0.0 0.0
1036.9784609802743 116.7053285307752 575.0863047955969 108.47323196901513 0.0 0.0
987.3104072978498 97.32564706095116 540.3053856019407 112.72429923591912 0.0 0.0
936.5469606253539 78.84866211273743 505.3727552741573 116.06541840346702 0.0 0.0
884.0837118652075 61.26914725066629 469.9146335725645 118.80212952173106 0.0 0.0
828.8221054099107 44.60243032371025 433.2918923500469 121.2553724204244 0.0 0.0
769.8055286893492 29.142747238478393 394.8097256238882 123.00464797219405 0.0 0.0
705.3405364103638 14.574993622388988 352.0332602505717 123.17441861934833 0.0 0.0
631.222987801581 -0.37874509912060716 297.6455264774865 122.15814814886514 0.0 0.0
542.646325320764 -13.367616852530901 224.90397100604093 124.22248640257914 0.0 0.0
434.7002596804012 -20.409073520476177 146.02006114054055 133.7047524033636 0.0 0.0
323.7273221565856 -8.515913900248524 96.4360537876642 136.93562807351458 0.0 0.0
228.76364498557734 13.247137417300147 72.5992582622811 126.5849694880489 0.0 0.0
130.53161284022082 20.062012751368503 45.178087677476796 130.79810417510478 0.0 0.0
31.356112680138203 -51.487886735500894 -6.039532216608805 157.1837764962955 0.0 0.0
-9.151129383454801 -496.7693207551759 -225.29470717669875 171.65566481428607 0.0 0.0
-3.6959466341391902 -459.86559498318707 -193.50965389269356 -167.96699430482292 0.0 0.0
17.191445092990744 -47.791999140839806 -9.179964018813095 -176.40854308972195 0.0 0.0
89.32973940310497 13.300934242003246 30.788584126358323 -154.4966195136046 0.0 0.0
171.10364231689502 14.188850701844693 55.58462432793472 -148.82167293878894 0.0 0.0
252.8082503359044 -1.8160463307545396 76.16315840168639 -158.9385723431966 0.0 0.0
356.12666431177615 -16.590007731644686 111.86435766958509 -164.75656423242592 0.0 0.0
473.26017707754875 -13.414070040185042 181.25382385750376 -153.83590875801679 0.0 0.0
573.5881290963828 -1.2787084583825585 259.15566436402116 -145.98032478157907 0.0 0.0
652.0321684640073 11.639855231831836 319.6023680765562 -143.93400455301844 0.0 0.0
716.2696549135289 23.891781589691725 363.7755650205712 -142.27251902259476 0.0 0.0
771.5299540040812 35.40531421207735 399.26866009822726 -139.77340670986644 0.0 0.0
822.2608381441651 48.04706895088038 431.938604871597 -136.8821427883725 0.0 0.0
869.2094335415954 60.81118457391571 462.3967708165856 -133.81564482577332 0.0 0.0
913.8507219788542 73.96148842737405 491.69733951172657 -130.24260997909073 0.0 0.0
957.6382402350721 87.88141772979981 520.8281050965028 -125.64974578926204 0.0 0.0
1000.4873334698889 102.66691423572793 549.921588588441 -120.09083181169211 0.0 0.0
1039.58670581225 115.84407123149522 576.2899396994517 -114.06210605689822 0.0 0.0
1079.4863299912683 131.0174737151085 603.8523053240148 -106.50289220962061 0.0 0.0
1127.1118921168525 154.05182571282495 639.0515927483948 -93.04859556096044 0.0 0.0
1180.0483467667361 184.2433257280881 680.3787850725208 -70.20542354061581 0.0 0.0
1180.048346766201 184.24332572763853 680.3787850720361 70.20542354081019 0.0 0.0
1127.1118921167326 154.05182571276123 639.0515927481473 93.04859556106253 0.0 0.0
1079.486329992824 131.01747371678726 603.8523053251146 106.50289220972431 0.0 0.0
1039.5867058134065 115.84407123291913 576.289939700238 114.06210605711476 0.0 0.0
1000.4873334695362 102.66691423542778 549.9215885881529 120.0908318117244 0.0 0.0
957.6382402349207 87.88141772995795 520.8281050964366 125.64974578957487 0.0 0.0
913.8507219788974 73.96148842762054 491.6973395117302 130.24260997916372 0.0 0.0
869.2094335417805 60.81118457429696 462.39677081670857 133.8156448258348 0.0 0.0
822.2608381432684 48.047068950214594 431.93860487102853 136.8821427884541 0.0 0.0
771.5299540035684 35.40531421176652 399.2686600978649 139.77340670985387 0.0 0.0
716.2696549134712 23.891781589828994 363.77556502050544 142.2725190224982 0.0 0.0
652.03216846426 11.639855232340778 319.6023680766999 143.93400455295472 0.0 0.0
573.5881290962161 -1.2787084581145223 259.1556643638647 145.9803247816557 0.0 0.0
473.2601770770858 -13.414070040280613 181.25382385715943 153.83590875799152 0.0 0.0
356.12666431128287 -16.59000773181528 111.86435766931899 164.75656423232334 0.0 0.0
252.8082503356967 -1.8160463307592787 76.16315840162125 158.9385723429797 0.0 0.0
171.10364231677113 14.188850701722298 55.58462432786183 148.8216729384498 0.0 0.0
89.32973940315439 13.300934242124132 30.788584126410058 154.49661951338027 0.0 0.0
17.191445093104345 -47.791999140568976 -9.179964018697923 176.40854308953982 0.0 0.0
-3.6959466340137794 -459.8655949828145 -193.50965389239934 167.96699430475206 0.0 0.0
1.7345217896490936 -417.8875768148748 -160.2272214906272 -165.47899017865277 0.0 0.0
4.471993481965278 -45.0176448699974 -12.163526504666445 -187.79356623324043 0.0 0.0
51.75325678109691 7.923536326853782 17.902818135238533 -172.25856424701405 0.0 0.0
114.42752106706297 15.160694796746562 38.88380447102432 -167.31397303320415 0.0 0.0
179.9030087371642 2.635448474036824 55.265114709110335 -178.01431988399892 0.0 0.0
261.4182241268867 -9.294680159220597 79.71250342563347 -190.7439056212785 0.0 0.0
375.7651805898102 -11.892780119518454 130.9904281962171 -187.50587509897377 0.0 0.0
491.96092864394484 -2.5350429817598625 205.9199824011304 -173.81460265931355 0.0 0.0
580.7646286119984 8.270614358831073 273.3301948498131 -165.80585601459796 0.0 0.0
646.6762001576528 18.006027603876344 321.8532341200147 -161.31960808617862 0.0 0.0
699.9739965983799 25.9881733406062 356.94783280431056 -157.7774766556608 0.0 0.0
745.9549728151949 34.7295933837542 386.2262316382166 -154.25442130321747 0.0 0.0
787.311020616013 43.09080072325505 412.1185519271187 -150.77807956960456 0.0 0.0
825.5458136641237 50.886465859891175 435.7569082711149 -147.13669752484128 0.0 0.0
862.8796195146513 58.932635363080195 458.81764009972164 -142.60543472039313 0.0 0.0
900.6765559384886 68.38873563798828 482.7162357264535 -136.49251076168952 0.0 0.0
935.2660680987799 76.09954538850374 504.24816674659996 -129.59099112604895 0.0 0.0
962.7011802241899 77.91817548222383 519.1049803802297 -122.52306485246521 0.0 0.0
1000.543427064532 87.78258749477843 542.7020418987404 -110.45090838075942 0.0 0.0
1061.721065236133 118.85529112279391 588.3381412364964 -86.86444470254258 0.0 0.0
1061.7210652357278 118.85529112235935 588.3381412363369 86.8644447026281 0.0 0.0
1000.5434270632644 87.7825874937044 542.7020418980718 110.45090838117876 0.0 0.0
962.7011802224654 77.91817548050301 519.1049803791058 122.52306485251151 0.0 0.0
935.266068097595 76.09954538735587 504.2481667457221 129.59099112599696 0.0 0.0
900.6765559374733 68.3887356370389 482.71623572555427 136.49251076177794 0.0 0.0
862.8796195138875 58.932635362398116 458.81764009915946 142.60543472028027 0.0 0.0
825.545813663719 50.886465859459236 435.75690827087783 147.13669752464892 0.0 0.0
787.3110206165538 43.09080072387184 412.11855192747566 150.77807956958944 0.0 0.0
745.9549728159838 34.729593384952466 386.22623163875045 154.25442130339087 0.0 0.0
699.9739965981216 25.988173340607915 356.9478328040639 157.77747665571545 0.0 0.0
646.6762001578503 18.006027604272376 321.8532341200576 161.31960808609105 0.0 0.0
580.7646286123337 8.270614359351143 273.33019484993093 165.80585601443894 0.0 0.0
491.96092864319724 -2.5350429823474485 205.91998240056463 173.8146026592326 0.0 0.0
375.7651805894355 -11.892780119433736 130.99042819600766 187.5058750989158 0.0 0.0
261.41822412666 -9.294680158937291 79.71250342563229 190.74390562117753 0.0 0.0
179.9030087371571 2.6354484743651314 55.26511470920548 178.01431988382973 0.0 0.0
114.42752106708343 15.160694796976944 38.88380447110654 167.31397303312474 0.0 0.0
51.753256781041344 7.92353632686377 17.902818135228596 172.25856424684454 0.0 0.0
4.471993481977341 -45.0176448699337 -12.163526504645064 187.79356623293495 0.0 0.0
1.7345217897326393 -417.88757681466757 -160.22722149041263 165.47899017845165 0.0 0.0
3.76375233507553 -371.5786535616935 -129.51037830185862 -162.70465555551363 0.0 0.0
-10.90431832595496 -44.4526722035865 -16.608859620513268 -193.3708466073905 0.0 0.0
16.293621843264795 4.659976311303781 6.288176936600511 -184.2944641947889 0.0 0.0
59.22484044060343 16.32358701688281 22.684830654992695 -181.24468269225778 0.0 0.0
104.76078140425042 6.567987951940866 33.71988124143485 -192.7214093086364 0.0 0.0
157.98778648865985 -2.878454840195838 48.257858152345875 -209.54728787836694 0.0 0.0
243.4979314917318 -5.659535914165825 79.01755443628396 -217.8133536875132 0.0 0.0
362.14909982787344 -2.629360388600052 134.37980490782758 -208.04054467840186 0.0 0.0
469.821438545285 4.971941191954215 201.10101978680956 -191.98362719704556 0.0 0.0
543.942526685036 11.137491091226575 255.44202516386903 -181.4242223319221 0.0 0.0
596.8749170950533 16.818169850472074 294.43780853201895 -175.45751788663287 0.0 0.0
638.362122395166 21.184075161177844 322.46210383389143 -171.09736259357544 0.0 0.0
673.9196464534137 25.501392051485837 345.22073277311415 -167.06673146193458 0.0 0.0
705.4123879325155 28.516682019008556 364.02198079490506 -163.23851000699383 0.0 0.0
735.1102189710945 30.40084030326142 380.63318196375656 -158.94768261678828 0.0 0.0
766.1798310858901 32.875160097398975 397.78493218578046 -153.1699712935762 0.0 0.0
800.3213398523231 37.16628916881882 417.27602375110234 -144.96245990022626 0.0 0.0
824.9965479862874 33.0222230257327 428.2085953547658 -136.7488724409197 0.0 0.0
840.2588714364786 16.015555783964317 427.2331577032634 -128.67132321072467 0.0 0.0
908.0417305425958 42.2893120133576 472.9609946496014 -110.32876275683012 0.0 0.0
908.0417305442235 42.28931201514092 472.9609946506496 110.32876275712519 0.0 0.0
840.2588714382049 16.015555786353048 427.2331577046055 128.671323211306 0.0 0.0
824.9965479875758 33.02222302729717 428.20859535561385 136.7488724412781 0.0 0.0
800.3213398537905 37.166289170583525 417.2760237521461 144.9624599004895 0.0 0.0
766.1798310854606 32.87516009719582 397.7849321856986 153.16997129363722 0.0 0.0
735.1102189703515 30.400840302334814 380.6331819632866 158.9476826167219 0.0 0.0
705.4123879326684 28.51668201928348 364.0219807950376 163.23851000697357 0.0 0.0
673.9196464527997 25.50139205071639 345.2207327726261 167.06673146179307 0.0 0.0
638.3621223947968 21.18407516061569 322.46210383353446 171.09736259338237 0.0 0.0
596.8749170954067 16.818169851036288 294.43780853224126 175.45751788662892 0.0 0.0
543.9425266842751 11.137491090591567 255.4420251633763 181.42422233176708 0.0 0.0
469.8214385452802 4.971941192003449 201.10101978666788 191.98362719694717 0.0 0.0
362.1490998281472 -2.629360387275458 134.37980490818603 208.04054467860385 0.0 0.0
243.49793149151301 -5.659535913739976 79.017554436299 217.8133536874981 0.0 0.0
157.98778648854153 -2.87845483989817 48.25785815240242 209.54728787821617 0.0 0.0
104.76078140434323 6.56798795236169 33.719881241587345 192.72140930839277 0.0 0.0
59.22484044082077 16.323587017325178 22.684830655193416 181.24468269205664 0.0 0.0
16.29362184311615 4.659976311216634 6.288176936530995 184.29446419466288 0.0 0.0
-10.904318326130033 -44.45267220375062 -16.608859620618166 193.3708466072764 0.0 0.0
3.763752335162991 -371.57865356134874 -129.51037830164358 162.70465555540045 0.0 0.0
1.037319413797583 -321.6845240360375 -103.16313742597984 -157.37399024583314 0.0 0.0
-29.85933642464664 -46.734985544462674 -22.98294508420416 -195.25952524123613 0.0 0.0
-17.80690950566955 3.653331804227049 -4.247939219745129 -191.4192849454051 0.0 0.0
5.606414760699905 17.46985960739803 6.9349969406795156 -190.18001070776793 0.0 0.0
28.93053961536252 10.87375084535523 12.048791337868515 -201.40572744969518 0.0 0.0
50.86215040074713 2.3696890523480993 16.50643992133086 -220.26756351780173 0.0 0.0
81.89084356760203 -0.8210322075056098 26.07311669512408 -235.35769932035865 0.0 0.0
140.20935313212348 1.0217196753870574 47.06584265672599 -237.64551524992194 0.0 0.0
226.32629122483505 4.967138861673252 81.66125715675797 -224.01442463071905 0.0 0.0
308.3333518799514 7.064297287359338 122.21314668624369 -207.3776415922794 0.0 0.0
370.67973895814595 8.472524372701216 161.06003805964662 -195.02579612851906 0.0 0.0
410.6147090328163 8.754144485737925 190.40463424614308 -187.39470965318176 0.0 0.0
438.8704795053365 8.93297785252048 212.7243138405886 -181.99342455002167 0.0 0.0
462.0894482487856 6.8971835671736414 229.42259820953615 -177.54248839802912 0.0 0.0
484.92460473635504 2.6812085389074127 242.5730145240769 -173.34406047274277 0.0 0.0
512.7750609578708 -2.8731206589076805 255.32496881786665 -168.65438769581857 0.0 0.0
550.298203269407 -6.312032727190967 272.37124410279773 -161.47689305563026 0.0 0.0
596.8864560992052 -5.930280356414727 295.68944823349847 -150.28733544206793 0.0 0.0
615.262302308329 -37.13267572928689 290.3365696090623 -141.26042313079228 0.0 0.0
652.2443354656077 -69.05288888427071 289.4954035327356 -140.70021682428575 0.0 0.0
652.2443354671434 -69.05288888268416 289.4954035336939 140.70021682450889 0.0 0.0
615.262302308417 -37.132675728413346 290.3365696093688 141.2604231315301 0.0 0.0
596.8864560980298 -5.930280357601362 295.6894482327814 150.2873354424694 0.0 0.0
550.2982032698937 -6.312032727067702 272.3712441028955 161.47689305547843 0.0 0.0
512.7750609578526 -2.8731206585711675 255.3249688178404 168.65438769582403 0.0 0.0
484.92460473553643 2.6812085379163477 242.57301452344566 173.3440604727749 0.0 0.0
462.0894482480431 6.897183565621958 229.42259820879127 177.5424883979092 0.0 0.0
438.87047950596536 8.93297785334289 212.72431384098377 181.99342455024276 0.0 0.0
410.61470903393615 8.754144487522154 190.40463424693021 187.39470965343907 0.0 0.0
370.6797389578722 8.472524372761043 161.0600380595139 195.0257961285376 0.0 0.0
308.33335187906084 7.064297285747735 122.21314668544318 207.37764159206833 0.0 0.0
226.3262912245608 4.967138861244077 81.66125715651769 224.01442463079917 0.0 0.0
140.20935313177463 1.021719674851484 47.0658426564447 237.64551524987684 0.0 0.0
81.89084356777599 -0.8210322067718021 26.07311669539591 235.35769932023763 0.0 0.0
50.86215040091875 2.3696890528582903 16.506439921537236 220.26756351765042 0.0 0.0
28.930539615226767 10.873750844956962 12.04879133770865 201.4057274495118 0.0 0.0
5.606414760680216 17.46985960728943 6.93499694064127 190.1800107075374 0.0 0.0
-17.806909505819082 3.653331804035507 -4.247939219848143 191.4192849451174 0.0 0.0
-29.859336424835032 -46.73498554460322 -22.982945084305435 195.25952524107163 0.0 0.0
1.037319413803484 -321.68452403570967 -103.16313742583559 157.37399024567662 0.0 0.0
-10.200991956291976 -270.6887059700295 -85.24687896851889 -147.7485865311162 0.0 0.0
-49.42766294758219 -49.48854717711581 -29.685584929552597 -195.0286512969662 0.0 0.0
-50.935825469514484 3.765343796833709 -14.176025664758942 -194.24112913828614 0.0 0.0
-46.40447932331884 18.47930350559034 -8.420523554505358 -193.87502572897534 0.0 0.0
-45.972601344405916 15.205833219426166 -9.373075018750225 -203.565367772284 0.0 0.0
-57.311572443015365 7.389697202765806 -15.571749866064149 -221.2361879992492 0.0 0.0
-84.8887761683364 2.624397721639774 -26.513535263345844 -235.5147129136214 0.0 0.0
-141.29326065725047 -0.608653471440677 -47.32844917398698 -237.8308715905662 0.0 0.0
-226.22202992725153 -4.705175598378311 -81.5558759837966 -224.13962278225134 0.0 0.0
-308.0769077501891 -6.671630679525016 -121.99110808102515 -207.3547603830479 0.0 0.0
-370.91841319830905 -6.955533048414495 -160.50682360431136 -194.84997123635287 0.0 0.0
-412.45368793296313 -7.105532583479416 -190.47612159063038 -186.9110574587775 0.0 0.0
-443.49089019712517 -9.646628586087232 -214.9601390478322 -181.62223585028735 0.0 0.0
-467.8728780429663 -15.259999422394657 -236.0271803054213 -178.34298890624385 0.0 0.0
-484.022447781604 -24.21499572389922 -253.98400301537976 -176.91333626913868 0.0 0.0
-488.70288125972047 -35.538906098682304 -267.91772529544437 -176.8287667038648 0.0 0.0
-473.0266251365531 -46.543767450176944 -274.3837692398497 -176.86427133826513 0.0 0.0
-407.7792716260637 -39.839317527613815 -257.23012145298543 -176.58717826299895 0.0 0.0
-225.86604539259014 -39.53499489575637 -197.72820764950933 -179.6132175434285 0.0 0.0
-24.85902930063577 -175.77265924308583 -71.33917558978823 -173.0457754740969 0.0 0.0
-24.85902930047922 -175.77265924313463 -71.33917558969068 173.045775474386 0.0 0.0
-225.86604539343608 -39.53499489681661 -197.72820765026756 179.61321754383022 0.0 0.0
-407.779271625272 -39.839317526483796 -257.23012145236777 176.58717826344818 0.0 0.0
-473.0266251354738 -46.54376744846604 -274.3837692389192 176.86427133826487 0.0 0.0
-488.7028812599841 -35.53890609946001 -267.9177252956801 176.8287667038668 0.0 0.0
-484.0224477811859 -24.214995723652606 -253.98400301509804 176.91333626913 0.0 0.0
-467.8728780423453 -15.259999422167851 -236.02718030506333 178.34298890633744 0.0 0.0
-443.49089019737556 -9.646628586943976 -214.96013904808493 181.6222358504159 0.0 0.0
-412.4536879331815 -7.105532584725495 -190.47612159097042 186.91105745896766 0.0 0.0
-370.91841319732544 -6.955533047581525 -160.50682360362993 194.84997123625203 0.0 0.0
-308.0769077488438 -6.671630678480987 -121.99110808019441 207.35476038286347 0.0 0.0
-226.22202992636744 -4.705175598028077 -81.5558759833656 224.13962278238296 0.0 0.0
-141.29326065634353 -0.6086534705325022 -47.32844917341514 237.8308715905162 0.0 0.0
-84.88877616759396 2.6243977226057638 -26.51353526281999 235.51471291347985 0.0 0.0
-57.31157244314876 7.389697202330754 -15.571749866231247 221.2361879990538 0.0 0.0
-45.97260134424631 15.205833219500725 -9.373075018679078 203.56536777202734 0.0 0.0
-46.40447932321496 18.479303505796942 -8.42052355441339 193.87502572883116 0.0 0.0
-50.93582546951126 3.7653437969177537 -14.176025664735192 194.2411291380753 0.0 0.0
-49.42766294761768 -49.48854717720324 -29.685584929596207 195.0286512968844 0.0 0.0
-10.200991956312894 -270.6887059696543 -85.2468789684265 147.74858653103792 0.0 0.0
-22.729513236557317 -221.52307585942572 -73.26818193647867 -134.82493980124318 0.0 0.0
-66.40367799516721 -49.79155234508083 -34.87241847876905 -191.5671616213286 0.0 0.0
-83.0321166973157 3.8011474081546988 -23.82099697433164 -193.2223934922144 0.0 0.0
-96.777826765597 19.338604458900985 -23.343158192638036 -192.45273112354886 0.0 0.0
-119.1285448389259 18.683710919787764 -30.615978975560108 -198.98917592101014 0.0 0.0
-163.26827977623722 12.144911285648279 -47.34252644733523 -211.86172275799447 0.0 0.0
-245.0295733136083 7.331177931059498 -79.27851911362092 -218.76776221321123 0.0 0.0
-361.74979830173356 2.980778802042746 -134.30284027421152 -208.58338082663897 0.0 0.0
-469.39189835569147 -4.762214176332478 -200.87671385395635 -192.17429730660433 0.0 0.0
-543.5460168995999 -10.66412462678268 -255.08570105873093 -181.38592412000133 0.0 0.0
-596.4000453014268 -15.647688494517325 -293.7206940672597 -175.13737984016757 0.0 0.0
-638.492655551263 -19.71532231491986 -321.81312038198666 -170.2605741499771 0.0 0.0
-676.1184232211024 -26.015743333649908 -346.3717648709099 -166.0992066805647 0.0 0.0
-711.354836641091 -35.55595289519198 -370.1438980194301 -163.76237172490707 0.0 0.0
-744.5248182694395 -48.82989563652362 -394.3206218536169 -163.7094366687878 0.0 0.0
-773.4990956236986 -64.61864040905027 -417.60273624087404 -165.86171810696925 0.0 0.0
-793.2530629582982 -79.62027054686664 -436.014517071564 -170.67775012459683 0.0 0.0
-801.4866878851712 -92.60850987885067 -447.5181225653558 -178.24345744313817 0.0 0.0
-834.241602526929 -146.1223122316045 -491.97479564039423 -187.62308751724788 0.0 0.0
-851.0366919931662 -239.17570523010528 -548.6560539957385 -206.6162975503415 0.0 0.0
-851.0366919928409 -239.17570523007282 -548.6560539956747 206.61629755062108 0.0 0.0
-834.2416025265152 -146.1223122315838 -491.97479564023325 187.62308751776584 0.0 0.0
-801.4866878855833 -92.60850987955536 -447.51812256569053 178.24345744354213 0.0 0.0
-793.2530629595441 -79.62027054862048 -436.0145170725642 170.67775012486834 0.0 0.0
-773.4990956240704 -64.61864040973805 -417.60273624117815 165.8617181070332 0.0 0.0
-744.5248182699048 -48.829895637353445 -394.3206218539524 163.70943666895738 0.0 0.0
-711.3548366401074 -35.55595289420255 -370.1438980187504 163.7623717248797 0.0 0.0
-676.1184232204815 -26.015743333220556 -346.37176487045656 166.0992066806386 0.0 0.0
-638.4926555507749 -19.71532231491011 -321.813120381708 170.260574150197 0.0 0.0
-596.4000453013487 -15.647688494800029 -293.72069406716537 175.13737984015853 0.0 0.0
-543.5460168991947 -10.66412462679353 -255.08570105841855 181.38592412002785 0.0 0.0
-469.3918983555247 -4.7622141769195 -200.87671385391178 192.17429730677276 0.0 0.0
-361.7497983009495 2.980778802321959 -134.30284027374844 208.583380826701 0.0 0.0
-245.02957331306274 7.331177930907119 -79.27851911343126 218.7677622131631 0.0 0.0
-163.26827977601002 12.14491128553352 -47.34252644729506 211.86172275779018 0.0 0.0
-119.12854483831212 18.683710920871935 -30.615978975051497 198.98917592085155 0.0 0.0
-96.77782676515619 19.33860445963606 -23.343158192287365 192.45273112328496 0.0 0.0
-83.03211669735055 3.8011474082237013 -23.820996974324174 193.22239349194257 0.0 0.0
-66.40367799502958 -49.79155234491499 -34.87241847868394 191.5671616211603 0.0 0.0
-22.7295132366061 -221.5230758592698 -73.26818193644878 134.82493980102947 0.0 0.0
-28.48011715595966 -175.31887908889905 -61.1396988734576 -119.94466277227727 0.0 0.0
-80.39382452566281 -47.56519346752512 -38.38547258073957 -184.20119034118673 0.0 0.0
-113.67072789837138 3.615029954984165 -33.06636161940739 -188.18972413334046 0.0 0.0
-145.4119551491407 19.680892616774806 -37.905916986802964 -185.8779170347565 0.0 0.0
-189.9450962989494 20.949647995566213 -51.62410028989001 -188.26396409294924 0.0 0.0
-263.4553232866453 17.380219885255936 -78.70841209185097 -194.10255274202828 0.0 0.0
-374.7875100132851 13.365139204881814 -130.6627343510504 -188.98153147327386 0.0 0.0
-491.08974943076646 2.9083609034868374 -205.50031216679403 -174.43567836522183 0.0 0.0
-580.4802729262992 -8.135819621007329 -273.14899827257295 -165.88626434682195 0.0 0.0
-646.3870894402163 -17.662026596181462 -321.5846790412428 -161.29820601391248 0.0 0.0
-699.6087868116851 -25.14279614250799 -356.39058586577556 -157.4470243115431 0.0 0.0
-745.9099437905948 -33.51392874849418 -385.5915254805193 -153.22213521328905 0.0 0.0
-788.8424781154661 -43.236393698372325 -412.82115772326637 -149.27350610013173 0.0 0.0
-830.6008531254926 -56.26565259199188 -440.7134669921949 -146.8778130349355 0.0 0.0
-872.0698150729365 -73.71315674554361 -470.5703501720469 -147.01562936385022 0.0 0.0
-910.8916426643209 -94.16114650231165 -500.6557071027458 -150.0752690910313 0.0 0.0
-944.9485170078768 -115.76897775362323 -528.8965119739681 -155.63146540480744 0.0 0.0
-982.9229760271912 -148.7057746560494 -564.7241070676229 -161.74375880566635 0.0 0.0
-1027.013966291538 -198.62276786224896 -611.9033851681816 -166.99793833996068 0.0 0.0
-1131.082016770249 -337.14489729383706 -732.6855904650488 -171.94364897974992 0.0 0.0
-1131.0820167703428 -337.14489729409814 -732.6855904652123 171.9436489799346 0.0 0.0
-1027.0139662917354 -198.62276786265647 -611.9033851683548 166.9979383403248 0.0 0.0
-982.9229760280834 -148.705774657235 -564.7241070681775 161.74375880596068 0.0 0.0
-944.9485170076048 -115.76897775365654 -528.8965119737265 155.6314654050525 0.0 0.0
-910.8916426647315 -94.16114650302845 -500.6557071030266 150.07526909122336 0.0 0.0
-872.0698150730234 -73.71315674587271 -470.5703501721323 147.01562936397247 0.0 0.0
-830.6008531252501 -56.26565259206137 -440.71346699209306 146.87781303502248 0.0 0.0
-788.842478115727 -43.23639369875528 -412.82115772341973 149.27350610003418 0.0 0.0
-745.9099437900566 -33.51392874816697 -385.5915254802191 153.22213521327757 0.0 0.0
-699.6087868120449 -25.142796142945237 -356.3905858659871 157.4470243113065 0.0 0.0
-646.3870894400306 -17.662026596255604 -321.58467904117623 161.29820601372774 0.0 0.0
-580.4802729256527 -8.135819620411212 -273.1489982720521 165.88626434664627 0.0 0.0
-491.0897494303381 2.90836090325143 -205.50031216651544 174.43567836540296 0.0 0.0
-374.7875100130027 13.365139204389717 -130.6627343509378 188.98153147331004 0.0 0.0
-263.4553232863116 17.380219885000415 -78.70841209179042 194.10255274192428 0.0 0.0
-189.9450962989124 20.94964799503947 -51.624100290038655 188.26396409287224 0.0 0.0
-145.41195514938494 19.680892616005977 -37.90591698710826 185.87791703458504 0.0 0.0
-113.67072789825092 3.615029955155831 -33.06636161932484 188.1897241331513 0.0 0.0
-80.39382452566619 -47.56519346760492 -38.38547258076738 184.20119034104903 0.0 0.0
-28.48011715606821 -175.3188790889246 -61.139698873497835 119.9446627721449 0.0 0.0
-30.494256000040096 -133.09118333317952 -49.075631799965876 -104.20324590956977 0.0 0.0
-91.89439721015601 -43.0735509920827 -40.48985742939594 -172.319895183174 0.0 0.0
-142.49343101917026 3.229669492140099 -41.81633563408241 -179.00463098492122 0.0 0.0
-192.1178444548607 18.98128839692186 -52.21812313455208 -174.43686685593326 0.0 0.0
-257.0831681673616 22.91417912811221 -71.9282308040937 -172.21263002352126 0.0 0.0
-353.8386416255684 22.759279442135917 -110.64297371402165 -168.80941985149622 0.0 0.0
-471.22213243554177 15.073267073895057 -180.11215637971097 -155.54649149829416 0.0 0.0
-573.0984803082033 1.4385600769226272 -258.82967397866787 -146.2709311566732 0.0 0.0
-651.9223372404165 -11.605585941549577 -319.5440998841676 -143.96457894179485 0.0 0.0
-716.1088577525568 -23.684682048417088 -363.61439779932846 -142.26097792801013 0.0 0.0
-771.4009831935182 -34.9255507843971 -398.97931448663473 -139.44294408072545 0.0 0.0
-822.3084636002334 -47.23911181021117 -431.55644158415555 -135.7673561782255 0.0 0.0
-869.9981879755801 -60.50077343234517 -462.57091797077004 -131.98179130592635 0.0 0.0
-916.719338529024 -76.89027615900079 -494.4432448006136 -129.43135872775343 0.0 0.0
-963.8743618644193 -97.91862101063543 -528.7734747389721 -129.600958145739 0.0 0.0
-1011.7944460091094 -124.43327230880263 -566.238782089896 -132.88941355586823 0.0 0.0
-1061.4755340950683 -158.09755660124227 -608.1485632921638 -138.08683784628738 0.0 0.0
-1115.4831777416503 -202.38712698984688 -657.4372393880809 -142.55564883261903 0.0 0.0
-1188.8471915707933 -275.5795829411879 -730.5579566216463 -142.8662323001022 0.0 0.0
-1287.3787175838515 -399.2903579365584 -841.6935923568358 -141.99615995516504 0.0 0.0
-1287.3787175808884 -399.29035793351795 -841.6935923549286 141.99615995515236 0.0 0.0
-1188.8471915696186 -275.5795829399082 -730.5579566208264 142.86623230003963 0.0 0.0
-1115.4831777405132 -202.38712698886786 -657.4372393873055 142.55564883285103 0.0 0.0
-1061.4755340936954 -158.09755659997634 -608.1485632912261 138.08683784632981 0.0 0.0
-1011.7944460073941 -124.43327230705097 -566.2387820886681 132.88941355560922 0.0 0.0
-963.8743618622909 -97.91862100843672 -528.7734747374961 129.60095814548674 0.0 0.0
-916.7193385291623 -76.89027615940445 -494.4432448007729 129.4313587279184 0.0 0.0
-869.9981879753784 -60.50077343243754 -462.57091797066107 131.98179130609367 0.0 0.0
-822.3084635999611 -47.239111810373856 -431.5564415840046 135.76735617849528 0.0 0.0
-771.40098319443 -34.925550785574266 -398.9793144871639 139.4429440806597 0.0 0.0
-716.108857752645 -23.684682049052338 -363.6143977994302 142.26097792826175 0.0 0.0
-651.9223372400633 -11.605585941496313 -319.5440998838831 143.96457894176396 0.0 0.0
-573.09848030738 1.4385600773678036 -258.8296739780829 146.2709311566881 0.0 0.0
-471.2221324346526 15.073267074568829 -180.11215637903942 155.5464914981407 0.0 0.0
-353.838641625002 22.759279442270056 -110.64297371372294 168.80941985136536 0.0 0.0
-257.08316816707685 22.914179128056556 -71.92823080402435 172.21263002338205 0.0 0.0
-192.11784445458898 18.98128839729641 -52.21812313436568 174.43686685556736 0.0 0.0
-142.49343101909136 3.2296694919314106 -41.8163356341261 179.00463098475572 0.0 0.0
-91.8943972103157 -43.07355099245664 -40.48985742955621 172.31989518314202 0.0 0.0
-30.494256000051234 -133.09118333317707 -49.075631799968484 104.20324590953562 0.0 0.0
-31.529762046359988 -95.59077884838544 -38.136162268423625 -87.98619032059405 0.0 0.0
-101.87577981768604 -36.777058982531045 -41.59585164006512 -156.18231937021872 0.0 0.0
-169.4608907989162 2.7531385703529763 -50.02970694432551 -165.32316445499245 0.0 0.0
-237.16903549187515 17.550745189079006 -66.14808123136119 -158.68765591935332 0.0 0.0
-321.03000582277025 25.24444730896064 -91.94081603822352 -151.5194748869143 0.0 0.0
-430.8978722019157 25.28320394417446 -144.19231599020554 -138.36461681246297 0.0 0.0
-540.9863215759357 14.720725861327722 -223.61840562305025 -125.118409196708 0.0 0.0
-631.1280619146116 0.3007568219252761 -297.5788576354407 -122.22176851688162 0.0 0.0
-705.3318691225558 -14.595626526905136 -352.0532056163328 -123.20416752553483 0.0 0.0
-769.8025887838102 -29.067569206976444 -394.7745762736604 -122.98501252657616 0.0 0.0
-828.9684881787425 -44.50381794798906 -433.3105774335262 -120.92392667177398 0.0 0.0
-884.3010537005914 -60.95741375694226 -469.8702767615594 -117.73688544744006 0.0 0.0
-936.4421724699807 -78.07657024147201 -504.9320690288495 -114.23792508120296 0.0 0.0
-987.2269219049779 -97.28946777307254 -540.1770310777249 -111.63179682597541 0.0 0.0
-1039.9758886742347 -122.05105959148898 -579.0673033871577 -111.46692306910806 0.0 0.0
-1097.3284227062518 -156.04697144933442 -624.8641597046601 -114.29461488290197 0.0 0.0
-1161.1561329601136 -201.15014961403705 -679.4472880348903 -118.86476790070849 0.0 0.0
-1234.4655782485856 -262.2940281291488 -746.6938240086755 -121.78075572878726 0.0 0.0
-1318.4940989725858 -345.3179952636574 -830.2033096762584 -120.96412033772 0.0 0.0
-1404.0395805780295 -454.00486044759793 -927.4434218485014 -121.06321060745941 0.0 0.0
-1404.03958057889 -454.00486044863794 -927.4434218491367 121.06321060777427 0.0 0.0
-1318.4940989711276 -345.31799526223585 -830.2033096752034 120.96412033775442 0.0 0.0
-1234.4655782466036 -262.29402812725004 -746.6938240073558 121.78075572894579 0.0 0.0
-1161.1561329602239 -201.15014961419698 -679.4472880350122 118.86476790064728 0.0 0.0
-1097.328422706798 -156.04697145015245 -624.8641597051019 114.29461488320747 0.0 0.0
-1039.9758886747904 -122.05105959226157 -579.0673033875963 111.46692306913286 0.0 0.0
-987.2269219048674 -97.2894677731598 -540.1770310776255 111.63179682603032 0.0 0.0
-936.442172468195 -78.07657023984711 -504.93206902771715 114.23792508116846 0.0 0.0
-884.3010537011884 -60.95741375784057 -469.8702767618734 117.73688544754057 0.0 0.0
-828.9684881788087 -44.50381794832467 -433.31057743350334 120.92392667175378 0.0 0.0
-769.802588783527 -29.067569207010035 -394.77457627348 122.98501252658656 0.0 0.0
-705.3318691221771 -14.595626526807838 -352.0532056160909 123.20416752546164 0.0 0.0
-631.1280619139068 0.30075682232893897 -297.5788576349409 122.22176851685748 0.0 0.0
-540.986321575597 14.720725861282038 -223.61840562271172 125.11840919666759 0.0 0.0
-430.89787220102045 25.283203944760977 -144.19231598963322 138.36461681238387 0.0 0.0
-321.0300058226184 25.24444730862581 -91.94081603825553 151.51947488682728 0.0 0.0
-237.16903549201118 17.550745188356956 -66.14808123162027 158.68765591916366 0.0 0.0
-169.460890798849 2.7531385701397872 -50.02970694437381 165.32316445485807 0.0 0.0
-101.87577981760222 -36.777058982556134 -41.595851640047506 156.1823193701376 0.0 0.0
-31.52976204626371 -95.5907788482035 -38.13616226834016 87.98619032053 0.0 0.0
-32.35123885503501 -63.39056944003222 -28.722542488520165 -71.31333949386485 0.0 0.0
-110.88971606505417 -29.24991436254122 -42.04188912827861 -136.2110850550969 0.0 0.0
-194.80005987884763 2.1228819201984077 -57.80096628177428 -147.20551187688267 0.0 0.0
-279.50795109434483 15.705058853746793 -79.5232595950619 -138.6250630078049 0.0 0.0
-380.1217456265591 27.308589365756276 -112.52976354116132 -126.22904507730269 0.0 0.0
-493.4970419963505 25.12504408464488 -178.10013782186684 -107.49562972205693 0.0 0.0
-592.7530863934959 14.433018177510789 -259.29525316103746 -98.72790727895477 0.0 0.0
-675.1722643354714 -0.8921146779425158 -326.11318675340056 -99.89234528742922 0.0 0.0
-747.3672886600754 -16.626240671243735 -376.18850491777744 -102.55866305911623 0.0 0.0
-814.3051913255201 -34.2716392384834 -420.4420855358464 -103.15594227117207 0.0 0.0
-877.590925522127 -53.86022039952704 -462.7441032018761 -101.6399260972104 0.0 0.0
-937.4586098251079 -74.66240428256819 -503.60205268623406 -99.04777215045101 0.0 0.0
-994.2300632671632 -95.87086173514942 -542.9702583175317 -96.10838078331457 0.0 0.0
-1048.9940791063814 -118.3642373396894 -581.8198636042922 -93.44533659842355 0.0 0.0
-1106.4773044786684 -146.53635431556177 -624.714746744226 -92.54834343943223 0.0 0.0
-1172.8852078584353 -187.3659651617046 -678.3529590925675 -94.46353872850891 0.0 0.0
-1250.6699576672959 -245.01275493693092 -746.0976880575095 -98.12689788077174 0.0 0.0
-1338.7541290135637 -320.2092630061824 -827.7712548041895 -100.94855471642946 0.0 0.0
-1428.22210212976 -408.96544355048394 -916.9406549382347 -101.95812963633334 0.0 0.0
-1506.243046063499 -509.0203913783955 -1006.1430477505476 -105.56246321803584 0.0 0.0
-1506.2430460636035 -509.0203913785291 -1006.143047750599 105.56246321801464 0.0 0.0
-1428.222102130283 -408.96544355109023 -916.9406549386432 101.95812963646298 0.0 0.0
-1338.7541290143117 -320.20926300705923 -827.7712548046177 100.94855471663801 0.0 0.0
-1250.6699576672809 -245.01275493713044 -746.0976880574101 98.12689788097713 0.0 0.0
-1172.8852078580894 -187.36596516153543 -678.3529590922547 94.46353872861853 0.0 0.0
-1106.4773044777696 -146.536354314841 -624.7147467435184 92.54834343947397 0.0 0.0
-1048.9940791052736 -118.36423733870552 -581.819863603519 93.44533659835085 0.0 0.0
-994.2300632661276 -95.87086173437369 -542.9702583168421 96.10838078346721 0.0 0.0
-937.4586098250802 -74.66240428275115 -503.60205268619734 99.04777215039289 0.0 0.0
-877.5909255216222 -53.86022039928644 -462.74410320155243 101.63992609721348 0.0 0.0
-814.3051913247549 -34.27163923793278 -420.44208553534617 103.15594227107319 0.0 0.0
-747.3672886588976 -16.626240670388114 -376.1885049170386 102.55866305917812 0.0 0.0
-675.1722643344959 -0.8921146772647788 -326.1131867527673 99.89234528741342 0.0 0.0
-592.7530863937887 14.433018176785545 -259.2952531610811 98.72790727883552 0.0 0.0
-493.4970419960622 25.125044084589575 -178.10013782158578 107.49562972188491 0.0 0.0
-380.1217456259028 27.30858936621896 -112.52976354080923 126.22904507725364 0.0 0.0
-279.5079510940599 15.705058853663775 -79.52325959501404 138.62506300777778 0.0 0.0
-194.8000598788266 2.1228819199591826 -57.80096628184058 147.20551187699735 0.0 0.0
-110.88971606496554 -29.249914362491044 -42.041889128236974 136.21108505504566 0.0 0.0
-32.3512388549799 -63.39056943993921 -28.722542488475725 71.31333949374955 0.0 0.0
-32.92486175865842 -36.99604490331464 -20.97627199859192 -54.14081234595712 0.0 0.0
-118.88185023897981 -21.05473679444494 -41.98097611002742 -112.82049287483133 0.0 0.0
-218.76159315500024 1.2348044347235838 -65.25727613199388 -124.58729329996358 0.0 0.0
-320.966812282996 14.409828930107262 -92.49485685988299 -114.93025655001179 0.0 0.0
-434.872737139707 27.760472320083558 -134.87911424603587 -97.32977691328213 0.0 0.0
-542.3158581809207 24.280243365008175 -209.8194327507047 -78.97080665727074 0.0 0.0
-630.9194143574081 13.243428133569367 -287.50587394638006 -75.01334845824043 0.0 0.0
-709.2857047182129 -0.8125289139149885 -346.60833260539306 -78.29664649472662 0.0 0.0
-782.2748133743719 -18.31614240674145 -395.64314944917385 -81.57905457676075 0.0 0.0
-852.3039540255189 -39.45668744782628 -442.5371153493633 -82.57809983783892 0.0 0.0
-919.5448848106032 -62.92961252645841 -488.5692389101323 -81.58637362024521 0.0 0.0
-984.1369492336055 -88.09921878372728 -533.8872982692028 -79.6587735838414 0.0 0.0
-1045.8885674470494 -113.98952692045572 -578.0305697337053 -77.3828198056196 0.0 0.0
-1105.8034408748504 -140.8196743533822 -621.6169367780444 -74.9610717293733 0.0 0.0
-1167.4414771374868 -172.09609355541684 -668.1268489703766 -73.15240721425941 0.0 0.0
-1239.4169659875902 -217.53479527076652 -726.76442033215 -73.4570700608761 0.0 0.0
-1329.2312442058278 -285.7730746207162 -805.7590349244385 -76.4118843520341 0.0 0.0
-1429.825592067599 -372.87000357310615 -899.6606722386007 -80.44242528231769 0.0 0.0
-1527.473646671513 -469.9663089923139 -997.1243237277451 -84.87080905811514 0.0 0.0
-1603.9116427869558 -567.7018692335394 -1084.3877840871287 -93.145666903938 0.0 0.0
-1603.9116427867293 -567.7018692333567 -1084.387784087061 93.14566690402353 0.0 0.0
-1527.4736466697104 -469.9663089905862 -997.1243237266057 84.87080905822864 0.0 0.0
-1429.8255920646461 -372.8700035701638 -899.6606722366214 80.44242528219128 0.0 0.0
-1329.2312442053085 -285.7730746202741 -805.7590349241041 76.4118843519905 0.0 0.0
-1239.4169659868328 -217.53479527013718 -726.7644203315267 73.45707006086715 0.0 0.0
-1167.4414771369707 -172.09609355508226 -668.1268489698094 73.15240721439625 0.0 0.0
-1105.8034408738429 -140.81967435257386 -621.6169367772985 74.9610717294639 0.0 0.0
-1045.8885674463158 -113.98952691995596 -578.0305697331966 77.38281980570375 0.0 0.0
-984.1369492324561 -88.09921878271572 -533.8872982683623 79.65877358357174 0.0 0.0
-919.5448848106467 -62.929612526721975 -488.5692389100921 81.58637362016702 0.0 0.0
-852.303954024973 -39.45668744757886 -442.5371153489708 82.57809983786464 0.0 0.0
-782.2748133738135 -18.316142406489654 -395.64314944886576 81.57905457680513 0.0 0.0
-709.2857047183078 -0.8125289143410868 -346.60833260542546 78.29664649468214 0.0 0.0
-630.9194143571572 13.243428133505766 -287.50587394611466 75.01334845810239 0.0 0.0
-542.3158581803417 24.280243365236295 -209.8194327502414 78.97080665717984 0.0 0.0
-434.87273713949594 27.76047231971951 -134.87911424599378 97.32977691339768 0.0 0.0
-320.9668122825522 14.409828930166352 -92.49485685974751 114.93025654999926 0.0 0.0
-218.7615931549077 1.2348044348078573 -65.25727613194171 124.58729329985326 0.0 0.0
-118.88185023898461 -21.0547367946056 -41.98097611007705 112.82049287476728 0.0 0.0
-32.92486175862907 -36.99604490331731 -20.97627199858391 54.14081234583756 0.0 0.0
-32.65087957586672 -16.87914717474203 -14.859008025182622 -36.58813207930882 0.0 0.0
-125.07195190300308 -12.689048877860639 -41.32830023425912 -86.24681367991327 0.0 0.0
-241.84975484699595 -0.06394170993536541 -72.57410896707938 -97.43523577446018 0.0 0.0
-362.39061372080994 14.554394693795922 -105.28908286954785 -87.42737161919942 0.0 0.0
-482.1735831726537 26.683431502322637 -158.76918378564312 -67.0947114109439 0.0 0.0
-580.3081496511898 22.401816101889338 -238.78191771986127 -53.758938343683276 0.0 0.0
-661.5106156409205 12.66181602907578 -309.33604620690403 -53.074004336740124 0.0 0.0
-737.0706616328883 -0.27051998914184594 -362.31301463659406 -56.689189986743784 0.0 0.0
-811.6324355110487 -20.07373515882162 -411.9230592319092 -60.01350289592759 0.0 0.0
-884.8779903673635 -44.434854798111616 -461.67499616179055 -61.26133441703424 0.0 0.0
-956.2813315575283 -71.75714363049644 -511.59133048697635 -60.75939936738965 0.0 0.0
-1025.4698152398082 -101.19945687022508 -561.2814246845255 -59.476886623115085 0.0 0.0
-1092.883668922219 -132.0972991998404 -610.7077819850115 -57.964407905623936 0.0 0.0
-1158.8272643862535 -164.72826426554954 -660.1869330379438 -56.00714325150961 0.0 0.0
-1225.4343679325993 -200.51664710258126 -711.4636228480902 -53.634882219877554 0.0 0.0
-1299.5105521000942 -246.9543235823341 -771.6459450833148 -52.11950348821114 0.0 0.0
-1392.2989387680257 -317.20511719487286 -853.0408554339141 -53.87966168281413 0.0 0.0
-1508.6277937841455 -419.1579210120933 -962.2164044671165 -59.59851507860937 0.0 0.0
-1619.8552611282812 -529.1469706434816 -1072.9528043943606 -68.48856269499346 0.0 0.0
-1705.4174412556713 -634.6339449443103 -1168.658156592924 -82.39175325160723 0.0 0.0
-1705.4174412550237 -634.6339449436895 -1168.658156592473 82.39175325164206 0.0 0.0
-1619.85526112972 -529.146970645007 -1072.9528043954433 68.48856269515169 0.0 0.0
-1508.6277937859752 -419.1579210140396 -962.216404468485 59.598515078731715 0.0 0.0
-1392.2989387682348 -317.20511719519527 -853.040855433924 53.87966168277399 0.0 0.0
-1299.5105520993657 -246.95432358173292 -771.64594508277 52.11950348818861 0.0 0.0
-1225.4343679322062 -200.51664710235107 -711.4636228477998 53.63488221998904 0.0 0.0
-1158.8272643849255 -164.72826426439437 -660.1869330369848 56.00714325147706 0.0 0.0
-1092.8836689229856 -132.09729920082572 -610.7077819855726 57.96440790565157 0.0 0.0
-1025.4698152402693 -101.19945687090853 -561.2814246848543 59.47688662304894 0.0 0.0
-956.2813315574397 -71.75714363068555 -511.59133048694605 60.75939936747102 0.0 0.0
-884.8779903664387 -44.43485479748141 -461.674996161257 61.2613344170462 0.0 0.0
-811.6324355090535 -20.073735157046528 -411.92305923057336 60.01350289580965 0.0 0.0
-737.0706616322602 -0.2705199888051908 -362.3130146361325 56.68918998669921 0.0 0.0
-661.510615640996 12.661816028631733 -309.3360462068939 53.07400433675426 0.0 0.0
-580.3081496506554 22.401816102028036 -238.7819177194205 53.75893834373926 0.0 0.0
-482.1735831721994 26.68343150243059 -158.76918378534862 67.09471141089867 0.0 0.0
-362.39061372032324 14.554394693813249 -105.28908286941004 87.42737161917195 0.0 0.0
-241.84975484692308 -0.06394171007495109 -72.5741089670994 97.43523577429794 0.0 0.0
-125.07195190287364 -12.689048877939364 -41.328300234243905 86.24681367985349 0.0 0.0
-32.65087957582134 -16.87914717477139 -14.85900802517782 36.58813207937287 0.0 0.0
-30.206895024305236 -3.437212043728024 -10.093232120409976 -19.17122238203318 0.0 0.0
-127.74372473264422 -4.7951629304124825 -39.761666298917 -56.451251854067614 0.0 0.0
-264.53186893100997 -1.4644390472858548 -79.79889239348873 -65.25684687791893 0.0 0.0
-404.85775686320795 15.85028698599978 -118.93743447267471 -56.246626900201264 0.0 0.0
-520.8512176714293 25.156462040792977 -183.03341183730902 -38.59268326775953 0.0 0.0
-608.4186612876127 19.474840191699194 -263.8002844978858 -31.03059116142229 0.0 0.0
-685.4207581801079 13.303068949242345 -325.1303528257496 -31.922440109949157 0.0 0.0
-760.141043974597 -0.2928007175893299 -375.1934762236683 -35.01486677637435 0.0 0.0
-836.0125182490222 -21.635351415652593 -425.4025231078632 -37.847768591918374 0.0 0.0
-912.676635081812 -49.16019278021676 -478.2173832492314 -39.161468557909004 0.0 0.0
-988.3879143076201 -80.36415297431341 -532.14554263416 -39.14433074525621 0.0 0.0
-1062.5659839844916 -113.96199687663005 -586.3557420858268 -38.517072153028295 0.0 0.0
-1135.550503323947 -150.2202103743011 -641.2017959265229 -37.63335577477553 0.0 0.0
-1208.435502265787 -189.21248794042484 -697.2977767203026 -36.36068764676487 0.0 0.0
-1281.9551298258457 -231.5949793610377 -755.3448291269232 -34.30304019099303 0.0 0.0
-1357.7282118699518 -279.5236174185884 -817.1978229917909 -31.648870447727177 0.0 0.0
-1443.7124527316455 -342.32138064346856 -891.4551061303271 -31.04308036564954 0.0 0.0
-1556.0584173856168 -438.87813540503726 -995.7622646974432 -37.03437537794168 0.0 0.0
-1714.0437664180877 -593.4561208183069 -1152.1947942054107 -51.14020035261217 0.0 0.0
-1820.0271315725113 -717.1184596714876 -1267.24713330007 -72.2891594099394 0.0 0.0
-1820.0271315713226 -717.1184596703778 -1267.2471332991968 72.28915941014876 0.0 0.0
-1714.0437664166525 -593.4561208168996 -1152.1947942043564 51.140200352616894 0.0 0.0
-1556.0584173850912 -438.8781354046224 -995.7622646969377 37.0343753780965 0.0 0.0
-1443.712452731078 -342.3213806430112 -891.455106129851 31.043080365678602 0.0 0.0
-1357.728211869343 -279.52361741811296 -817.1978229913656 31.648870447681155 0.0 0.0
-1281.9551298258216 -231.59497936116884 -755.3448291269427 34.303040191008876 0.0 0.0
-1208.4355022643567 -189.21248793917812 -697.297776719217 36.360687646890405 0.0 0.0
-1135.5505033234629 -150.22021037405085 -641.201795926085 37.633355774877806 0.0 0.0
-1062.5659839836492 -113.96199687601283 -586.3557420851831 38.51707215302469 0.0 0.0
-988.3879143069249 -80.36415297389354 -532.14554263365 39.144330745360236 0.0 0.0
-912.6766350821664 -49.160192780899806 -478.217383249476 39.161468558038784 0.0 0.0
-836.0125182490084 -21.635351415877622 -425.4025231078373 37.847768591716246 0.0 0.0
-760.1410439740783 -0.29280071737575497 -375.193476223318 35.01486677636508 0.0 0.0
-685.4207581801278 13.30306894884965 -325.1303528257193 31.922440110078064 0.0 0.0
-608.4186612872239 19.474840191719927 -263.80028449754997 31.030591161393343 0.0 0.0
-520.8512176710046 25.1564620408778 -183.03341183698092 38.59268326777202 0.0 0.0
-404.85775686308864 15.850286985497334 -118.93743447278071 56.24662690021417 0.0 0.0
-264.5318689307049 -1.4644390470331174 -79.79889239332138 65.25684687774385 0.0 0.0
-127.74372473245033 -4.795162930207389 -39.76166629879731 56.4512518539694 0.0 0.0
-30.20689502432625 -3.4372120437663876 -10.093232120427793 19.171222381862375 0.0 0.0
-23.055007824416784 3.0469702790879856 -6.002411263598639 -3.184640838939699 0.0 0.0
-123.6972874346632 1.7357573780198639 -36.58845901699299 -22.83641907573609 0.0 0.0
-288.1865010733581 -2.186390665828897 -87.11186752175608 -27.006524183201478 0.0 0.0
-444.7614813587559 17.96187537967538 -134.25973372774027 -22.503067746083545 0.0 0.0
-552.9408451968693 22.832129276394227 -207.4559027833032 -13.054155712273026 0.0 0.0
-632.6799210633233 17.950850747661036 -284.23139776366725 -10.394370822098498 0.0 0.0
-705.08223073868 13.228626202910931 -337.76540704575416 -11.187184004240436 0.0 0.0
-778.8339633843947 -0.37308047385786836 -385.4917612895439 -13.208995302396929 0.0 0.0
-856.1665825330983 -23.204672421027993 -436.6703308258936 -15.105429503737998 0.0 0.0
-936.1434711547471 -53.54786311130982 -492.3794976117128 -16.269648449970052 0.0 0.0
-1016.4208369327908 -88.54610318866241 -550.412135283821 -16.71851231164644 0.0 0.0
-1095.6746881378601 -126.92514408713146 -609.5126083977839 -16.69079135900821 0.0 0.0
-1174.490954236776 -168.14092737138913 -669.7181207769379 -16.450258203877485 0.0 0.0
-1254.1386772555536 -213.2365965307587 -732.2147630841841 -15.881966111532762 0.0 0.0
-1335.2752591452818 -263.0313588144777 -797.7669977824535 -14.717220322804968 0.0 0.0
-1416.9456535233257 -316.9787560846881 -865.630969233031 -12.694905002447374 0.0 0.0
-1497.5123525144993 -374.36813190769396 -934.5970850571284 -10.380165712312031 0.0 0.0
-1584.1222804863232 -444.0532199593125 -1012.5828758654911 -12.414381615343611 0.0 0.0
-1711.3132381561359 -564.2289567237319 -1136.0202883305028 -28.416381402378953 0.0 0.0
-2024.9063067227282 -889.9253387651976 -1456.097776821028 -60.066337815331906 0.0 0.0
-2024.9063067226587 -889.9253387651621 -1456.0977768208732 60.06633781545 0.0 0.0
-1711.3132381559383 -564.2289567235695 -1136.020288330321 28.416381402266197 0.0 0.0
-1584.122280487352 -444.0532199604396 -1012.5828758662485 12.41438161547265 0.0 0.0
-1497.512352514999 -374.3681319083024 -934.5970850574633 10.380165712291149 0.0 0.0
-1416.9456535242607 -316.9787560857835 -865.6309692336235 12.694905002488508 0.0 0.0
-1335.2752591447686 -263.03135881412805 -797.7669977820462 14.717220322787686 0.0 0.0
-1254.1386772545743 -213.23659652994994 -732.2147630836658 15.881966111364378 0.0 0.0
-1174.4909542363293 -168.1409273711468 -669.7181207766811 16.45025820380074 0.0 0.0
-1095.6746881364663 -126.92514408596986 -609.5126083968646 16.69079135913559 0.0 0.0
-1016.4208369318139 -88.54610318793952 -550.4121352831515 16.718512311608244 0.0 0.0
-936.143471154897 -53.54786311175576 -492.379497611718 16.269648450144366 0.0 0.0
-856.1665825330533 -23.20467242130357 -436.67033082583606 15.105429503760288 0.0 0.0
-778.8339633841783 -0.37308047394820676 -385.4917612893975 13.208995302382236 0.0 0.0
-705.0822307382612 13.228626203003984 -337.76540704548097 11.18718400429583 0.0 0.0
-632.6799210627983 17.9508507478791 -284.2313977632769 10.39437082218658 0.0 0.0
-552.9408451963506 22.832129276577525 -207.45590278290456 13.054155712280323 0.0 0.0
-444.7614813581935 17.96187538002583 -134.2597337274466 22.503067745914986 0.0 0.0
-288.1865010730839 -2.18639066576017 -87.11186752165321 27.006524183094726 0.0 0.0
-123.6972874345471 1.7357573781306144 -36.58845901692494 22.836419075603715 0.0 0.0
-23.05500782448437 3.046970279025468 -6.00241126363767 3.184640838850027 0.0 0.0
SCALARS Strain float 6
LOOKUP_TABLE default
0.013085071322585625 -0.014154764995612357 0.0 -0.007890762980263921 0.0 0.0
0.0026814184560962177 -0.0018065651022042273 0.0 0.001332034289963313 0.0 0.0
0.0018912500777184087 -0.0007802600815359773 0.0 -3.4692687305160064e-05 0.0 0.0
0.0024891174731851116 -0.0012633550818055284 0.0 -0.0002460920978691328 0.0 0.0
0.004125684457196129 -0.00263566002992377 0.0 -0.0003270471861382962 0.0 0.0
0.007489579512794796 -0.005698159191734442 0.0 -0.0005230243165420534 0.0 0.0
0.012998632276850577 -0.01094205988515995 0.0 -0.0008610408351510945 0.0 0.0
0.02103330884773674 -0.018704654058965264 0.0 -0.0013926889872400983 0.0 0.0
0.03178172455035708 -0.029150826643585148 0.0 -0.0021362346652739617 0.0 0.0
0.04519368208343182 -0.04223136550311413 0.0 -0.0030246203199828514 0.0 0.0
0.06106191899175086 -0.05775212987826306 0.0 -0.003945140326295116 0.0 0.0
0.07912945678230862 -0.07546446700461962 0.0 -0.0048386517769575255 0.0 0.0
0.09913135463692309 -0.09510578605483389 0.0 -0.005711159826270906 0.0 0.0
0.12076034670046054 -0.11636452368658601 0.0 -0.006548519707849365 0.0 0.0
0.1435500886969554 -0.13877126073460477 0.0 -0.007299270967495608 0.0 0.0
0.1667476133421121 -0.1615774813905544 0.0 -0.007805752410663447 0.0 0.0
0.18926564431120368 -0.18370920247256795 0.0 -0.007813462628491363 0.0 0.0
0.20972562865461225 -0.20380000775861085 0.0 -0.007124589911072565 0.0 0.0
0.22649152891561009 -0.22020973462790927 0.0 -0.006209162879950103 0.0 0.0
0.2370726306120964 -0.23020470121560166 0.0 -0.007687745960796577 0.0 0.0
0.23707263061208184 -0.23020470121558567 0.0 0.007687745960807901 0.0 0.0
0.22649152891556223 -0.22020973462785154 0.0 0.006209162879973751 0.0 0.0
0.209725628654528 -0.20380000775852203 0.0 0.007124589911086776 0.0 0.0
0.18926564431110066 -0.1837092024724658 0.0 0.007813462628499579 0.0 0.0
0.16674761334199778 -0.16157748139044248 0.0 0.007805752410653399 0.0 0.0
0.14355008869683822 -0.13877126073449153 0.0 0.007299270967495497 0.0 0.0
0.12076034670034413 -0.11636452368647188 0.0 0.006548519707849754 0.0 0.0
0.09913135463680717 -0.0951057860547202 0.0 0.005711159826269463 0.0 0.0
0.07912945678220062 -0.07546446700450771 0.0 0.004838651776950864 0.0 0.0
0.061061918991652586 -0.057752129878164915 0.0 0.003945140326287011 0.0 0.0
0.045193682083351505 -0.04223136550303508 0.0 0.003024620319971305 0.0 0.0
0.031781724550292545 -0.029150826643526084 0.0 0.0021362346652719078 0.0 0.0
0.02103330884769089 -0.018704654058920855 0.0 0.0013926889872356574 0.0 0.0
0.012998632276818356 -0.010942059885125754 0.0 0.0008610408351494292 0.0 0.0
0.0074895795127767895 -0.005698159191714458 0.0 0.000523024316540166 0.0 0.0
0.004125684457187695 -0.002635660029914222 0.0 0.000327047186137408 0.0 0.0
0.0024891174731830334 -0.0012633550818031969 0.0 0.0002460920978696324 0.0 0.0
0.0018912500777181762 -0.0007802600815356442 0.0 3.4692687304271885e-05 0.0 0.0
0.0026814184560943755 -0.0018065651022011742 0.0 -0.0013320342899596493 0.0 0.0
0.01308507132257447 -0.014154764995597324 0.0 0.007890762980230004 0.0 0.0
0.009399473063162266 -0.010846743374537171 0.0 -0.009629279225658594 0.0 0.0
0.0014333516601160098 -0.0009035449836173326 0.0 0.00012129637388502701 0.0 0.0
0.0016087299879875352 -0.0005633579360104779 0.0 -0.00012514023324494694 0.0 0.0
0.002161966396965878 -0.001037197299970094 0.0 -0.0005118638178217005 0.0 0.0
0.003472579537008337 -0.0020834185895319823 0.0 -0.0007224613409006486 0.0 0.0
0.006363073046931816 -0.004657938476375634 0.0 -0.0012005583342074577 0.0 0.0
0.01128322853683443 -0.009291131602043201 0.0 -0.0020419639392308397 0.0 0.0
0.018553158571802106 -0.016282689386581062 0.0 -0.0032876384122402236 0.0 0.0
0.02829127910711144 -0.02572627114262671 0.0 -0.004940815658548925 0.0 0.0
0.040396426335615056 -0.03751820652643323 0.0 -0.00684500198954896 0.0 0.0
0.05465199042885757 -0.051451955063264165 0.0 -0.008787677790947357 0.0 0.0
0.07083903052438364 -0.06731315984932706 0.0 -0.010650695164540813 0.0 0.0
0.08875966983405041 -0.08490228673517652 0.0 -0.012485494306081146 0.0 0.0
0.10816296761796186 -0.10396645457843112 0.0 -0.014288251410714214 0.0 0.0
0.1286500025465822 -0.12410594678175624 0.0 -0.015918097524066144 0.0 0.0
0.14958535376838314 -0.14468750245271167 0.0 -0.01706777191322789 0.0 0.0
0.17003216074886132 -0.16477858410185675 0.0 -0.017263503740727937 0.0 0.0
0.18871555167738088 -0.18310377955207446 0.0 -0.01623249099738433 0.0 0.0
0.20385894417794923 -0.19783870797903624 0.0 -0.014387539198414068 0.0 0.0
0.21299196735457337 -0.20665853207564489 0.0 -0.011553141173042958 0.0 0.0
0.21299196735455916 -0.20665853207563956 0.0 0.0115531411730726 0.0 0.0
0.20385894417790498 -0.19783870797900427 0.0 0.01438753919845992 0.0 0.0
0.18871555167730733 -0.18310377955200874 0.0 0.016232490997416416 0.0 0.0
0.17003216074877178 -0.1647785841017706 0.0 0.017263503740743147 0.0 0.0
0.1495853537682817 -0.14468750245260864 0.0 0.0170677719132164 0.0 0.0
0.12865000254647746 -0.12410594678164966 0.0 0.015918097524061925 0.0 0.0
0.10816296761785649 -0.10396645457832854 0.0 0.014288251410709107 0.0 0.0
0.08875966983394729 -0.08490228673507705 0.0 0.012485494306073264 0.0 0.0
0.0708390305242872 -0.0673131598492338 0.0 0.010650695164527213 0.0 0.0
0.05465199042876945 -0.051451955063177124 0.0 0.008787677790933257 0.0 0.0
0.04039642633554302 -0.03751820652636084 0.0 0.006845001989528865 0.0 0.0
0.028291279107053313 -0.02572627114256898 0.0 0.004940815658541875 0.0 0.0
0.01855315857175993 -0.016282689386537097 0.0 0.003287638412231897 0.0 0.0
0.011283228536806411 -0.009291131602017444 0.0 0.002041963939225677 0.0 0.0
0.006363073046916412 -0.004657938476362311 0.0 0.0012005583342056814 0.0 0.0
0.0034725795370016965 -0.002083418589525543 0.0 0.0007224613409013703 0.0 0.0
0.0021619663969649205 -0.0010371972999693169 0.0 0.0005118638178224777 0.0 0.0
0.0016087299879871675 -0.0005633579360112551 0.0 0.0001251402332467233 0.0 0.0
0.001433351660115878 -0.0009035449836156673 0.0 -0.00012129637388758052 0.0 0.0
0.009399473063148034 -0.010846743374521423 0.0 0.009629279225628062 0.0 0.0
0.007018324722723679 -0.008647657808855791 0.0 -0.00896607504110708 0.0 0.0
0.0008362144724751164 -0.0005946511131201815 0.0 -0.0006068193185116422 0.0 0.0
0.0012860522470797137 -0.00040997960445954273 0.0 -0.00044446199681280607 0.0 0.0
0.0018551055000570055 -0.0008307630409905009 0.0 -0.0007570547124771121 0.0 0.0
0.0028908746318877937 -0.001619168136300253 0.0 -0.0010499244700594157 0.0 0.0
0.00528392075561035 -0.003684096145830651 0.0 -0.0016980379758240738 0.0 0.0
0.0095824318845657 -0.007667058736381627 0.0 -0.00291525195905179 0.0 0.0
0.016043210477885865 -0.013844824904745145 0.0 -0.004738177112286801 0.0 0.0
0.024730892284964667 -0.022244603627228354 0.0 -0.007102575224630148 0.0 0.0
0.03550302675028684 -0.03272274432499067 0.0 -0.009785764974637678 0.0 0.0
0.048138180583241943 -0.04506135489031804 0.0 -0.01252200265454445 0.0 0.0
0.062444544041100225 -0.05906950916447684 0.0 -0.015160670184495961 0.0 0.0
0.07826827955259631 -0.0745914733625006 0.0 -0.017739510014431636 0.0 0.0
0.09542342282741048 -0.09144008058437647 0.0 -0.02028662155773192 0.0 0.0
0.11359773613073795 -0.10930351037739694 0.0 -0.022630857473171895 0.0 0.0
0.13228114311691347 -0.12767019054181894 0.0 -0.02434447875614182 0.0 0.0
0.1506838497240114 -0.1457457150072221 0.0 -0.02486203783886265 0.0 0.0
0.1676099465382493 -0.16231908642335835 0.0 -0.023763142604400045 0.0 0.0
0.18132670620172692 -0.1756906170334549 0.0 -0.020564022872475496 0.0 0.0
0.18987121569785523 -0.18398297238374806 0.0 -0.014234954756467744 0.0 0.0
0.189871215697842 -0.18398297238373562 0.0 0.014234954756508933 0.0 0.0
0.181326706201687 -0.17569061703341138 0.0 0.020564022872541554 0.0 0.0
0.16760994653818506 -0.1623190864232873 0.0 0.023763142604448007 0.0 0.0
0.1506838497239324 -0.14574571500714306 0.0 0.024862037838881967 0.0 0.0
0.1322811431168251 -0.12767019054173367 0.0 0.02434447875613044 0.0 0.0
0.11359773613064522 -0.10930351037730768 0.0 0.022630857473168065 0.0 0.0
0.09542342282731658 -0.09144008058428499 0.0 0.020286621557727758 0.0 0.0
0.07826827955250554 -0.0745914733624149 0.0 0.017739510014423976 0.0 0.0
0.062444544041015515 -0.059069509164394685 0.0 0.015160670184477754 0.0 0.0
0.04813818058316449 -0.04506135489024432 0.0 0.012522002654526188 0.0 0.0
0.03550302675022299 -0.032722744324928055 0.0 0.009785764974614919 0.0 0.0
0.024730892284913042 -0.02224460362718128 0.0 0.007102575224617325 0.0 0.0
0.01604321047784818 -0.013844824904709618 0.0 0.00473817711227531 0.0 0.0
0.009582431884541442 -0.0076670587363558695 0.0 0.0029152519590446846 0.0 0.0
0.005283920755597804 -0.003684096145816884 0.0 0.0016980379758183561 0.0 0.0
0.0028908746318829226 -0.0016191681362960342 0.0 0.0010499244700573063 0.0 0.0
0.0018551055000563532 -0.0008307630409905009 0.0 0.0007570547124763349 0.0 0.0
0.0012860522470792835 -0.00040997960446065296 0.0 0.00044446199681219545 0.0 0.0
0.0008362144724750054 -0.0005946511131198484 0.0 0.0006068193185097548 0.0 0.0
0.007018324722710356 -0.008647657808841282 0.0 0.008966075041082544 0.0 0.0
0.005337352029884085 -0.006985293344803467 0.0 -0.007640196795692 0.0 0.0
0.000521853534635297 -0.00044233387376890754 0.0 -0.0012151812024099318 0.0 0.0
0.000995885650579495 -0.0002993755668471154 0.0 -0.0008780213572368578 0.0 0.0
0.0015628096459019691 -0.0006564789057246223 0.0 -0.0010301365555732689 0.0 0.0
0.0023781037784151166 -0.0012427767849771953 0.0 -0.001337246284523863 0.0 0.0
0.004287977921526534 -0.0028167084130135134 0.0 -0.002043505202436624 0.0 0.0
0.00791297143319046 -0.006101708547447071 0.0 -0.00349144494160325 0.0 0.0
0.013534338519693864 -0.01142168250113107 0.0 -0.0057384897099100884 0.0 0.0
0.021137670335902248 -0.01874595279568725 0.0 -0.008612769634370632 0.0 0.0
0.03055514064867086 -0.02788778587437646 0.0 -0.011852835915410143 0.0 0.0
0.04155924531692615 -0.038619651912986885 0.0 -0.015150562549553936 0.0 0.0
0.05397890335226069 -0.050768225361092156 0.0 -0.018352908112477917 0.0 0.0
0.0677006215782445 -0.06421831058473293 0.0 -0.02149744859429359 0.0 0.0
0.08259486562125246 -0.07883828134540272 0.0 -0.02456582552201564 0.0 0.0
0.09843629466064965 -0.09440559001390092 0.0 -0.027396998978240605 0.0 0.0
0.11484648216036605 -0.11053684017826537 0.0 -0.029599723767801067 0.0 0.0
0.13118447034730535 -0.1265770707768592 0.0 -0.03053603001351657 0.0 0.0
0.1463978649640324 -0.14147249687169428 0.0 -0.02944194742715378 0.0 0.0
0.1589866985996101 -0.15375559146940532 0.0 -0.025195658829776035 0.0 0.0
0.16729399193182487 -0.16183597832991037 0.0 -0.016407508140768745 0.0 0.0
0.16729399193181277 -0.16183597832989616 0.0 0.016407508140823035 0.0 0.0
0.15898669859957495 -0.15375559146937334 0.0 0.025195658829854306 0.0 0.0
0.14639786496397536 -0.14147249687165164 0.0 0.029441947427207626 0.0 0.0
0.13118447034723657 -0.12657707077679525 0.0 0.030536030013539106 0.0 0.0
0.11484648216029017 -0.11053684017818899 0.0 0.029599723767790742 0.0 0.0
0.09843629466056797 -0.09440559001381921 0.0 0.027396998978230447 0.0 0.0
0.08259486562117108 -0.07883828134532322 0.0 0.024565825522003593 0.0 0.0
0.06770062157816559 -0.06421831058466143 0.0 0.0214974485942796 0.0 0.0
0.0539789033521878 -0.050768225361022434 0.0 0.018352908112454713 0.0 0.0
0.04155924531685967 -0.03861965191292471 0.0 0.015150562549529734 0.0 0.0
0.030555140648615253 -0.027887785874324056 0.0 0.011852835915381221 0.0 0.0
0.02113767033585745 -0.01874595279564195 0.0 0.008612769634354644 0.0 0.0
0.013534338519660905 -0.011421682501097319 0.0 0.0057384897098954335 0.0 0.0
0.007912971433169491 -0.00610170854743064 0.0 0.0034914449415942572 0.0 0.0
0.00428797792151675 -0.0028167084130030773 0.0 0.002043505202431517 0.0 0.0
0.0023781037784119663 -0.0012427767849747529 0.0 0.0013372462845210875 0.0 0.0
0.0015628096459016638 -0.0006564789057249554 0.0 0.0010301365555738795 0.0 0.0
0.0009958856505788982 -0.00029937556684722644 0.0 0.00087802135723547 0.0 0.0
0.0005218535346354081 -0.00044233387376690914 0.0 0.0012151812024075448 0.0 0.0
0.005337352029871845 -0.006985293344790221 0.0 0.007640196795673293 0.0 0.0
0.004047348478642979 -0.005626981563833622 0.0 -0.006268913185432545 0.0 0.0
0.00034773838239683663 -0.0003547372877835686 0.0 -0.001689177426551891 0.0 0.0
0.0007551100701371771 -0.00022160007839988616 0.0 -0.0013157543711931896 0.0 0.0
0.0012843227018054792 -0.0005112289011772742 0.0 -0.0013351519766524045 0.0 0.0
0.0019286067843406335 -0.0009447865092564456 0.0 -0.0016025709433551971 0.0 0.0
0.0033931718809901423 -0.0020785356734480676 0.0 -0.0022981570423653563 0.0 0.0
0.006319785698157568 -0.004639895822167617 0.0 -0.0037925554255948124 0.0 0.0
0.011051217143395423 -0.009047411123234372 0.0 -0.006248275538488557 0.0 0.0
0.017548047580942916 -0.015268132844297178 0.0 -0.00946533130820898 0.0 0.0
0.025592065376818296 -0.023054574058196664 0.0 -0.013044625960481449 0.0 0.0
0.03495523533028776 -0.03216854904655975 0.0 -0.016684191595359554 0.0 0.0
0.045481527059104535 -0.04245133902131082 0.0 -0.020225771409686732 0.0 0.0
0.05709528841501296 -0.053823454924608605 0.0 -0.02370812327746069 0.0 0.0
0.0697237356033417 -0.06621050382340998 0.0 -0.027120694731591177 0.0 0.0
0.08321707422936911 -0.07946430515492953 0.0 -0.03026593253539045 0.0 0.0
0.09730744411785558 -0.09331279571364703 0.0 -0.032785038857990334 0.0 0.0
0.1115267009528651 -0.1072761778544038 0.0 -0.03410722969235547 0.0 0.0
0.1250704881767324 -0.12054259021323066 0.0 -0.033227329084634105 0.0 0.0
0.13671592255743398 -0.131912511284332 0.0 -0.028507461489807095 0.0 0.0
0.14501121297901062 -0.13998671382340344 0.0 -0.018233613040083307 0.0 0.0
0.14501121297900044 -0.13998671382339545 0.0 0.01823361304014348 0.0 0.0
0.1367159225574028 -0.1319125112843027 0.0 0.02850746148988703 0.0 0.0
0.1250704881766821 -0.12054259021317826 0.0 0.033227329084689505 0.0 0.0
0.11152670095280712 -0.10727617785434251 0.0 0.034107229692382335 0.0 0.0
0.09730744411779027 -0.09331279571358486 0.0 0.03278503885797823 0.0 0.0
0.08321707422929944 -0.07946430515486425 0.0 0.03026593253537979 0.0 0.0
0.06972373560327266 -0.06621050382334648 0.0 0.027120694731580408 0.0 0.0
0.05709528841494671 -0.05382345492454288 0.0 0.02370812327744909 0.0 0.0
0.04548152705904279 -0.042451339021249535 0.0 0.02022577140966464 0.0 0.0
0.034955235330231926 -0.03216854904650601 0.0 0.016684191595334852 0.0 0.0
0.02559206537677111 -0.02305457405815048 0.0 0.013044625960448863 0.0 0.0
0.01754804758090528 -0.015268132844258098 0.0 0.009465331308190605 0.0 0.0
0.011051217143367986 -0.00904741112320906 0.0 0.00624827553846985 0.0 0.0
0.0063197856981405676 -0.004639895822153628 0.0 0.0037925554255854865 0.0 0.0
0.003393171880982704 -0.0020785356734431826 0.0 0.0022981570423601383 0.0 0.0
0.0019286067843382049 -0.0009447865092573338 0.0 0.0016025709433526991 0.0 0.0
0.0012843227018053405 -0.0005112289011771631 0.0 0.0013351519766505726 0.0 0.0
0.000755110070136733 -0.000221600078399109 0.0 0.0013157543711923014 0.0 0.0
0.00034773838239687827 -0.0003547372877819033 0.0 0.0016891774265497261 0.0 0.0
0.004047348478633084 -0.005626981563822226 0.0 0.006268913185418612 0.0 0.0
0.0030235403125600246 -0.004485970627191915 0.0 -0.0050606207714566365 0.0 0.0
0.00024307169182899435 -0.00029541430437218796 0.0 -0.002043389094455228 0.0 0.0
0.000554797913557975 -0.00016325448702037004 0.0 -0.0017003753542790268 0.0 0.0
0.0010149615196536482 -0.00038574143832503793 0.0 -0.001645400281947318 0.0 0.0
0.0015336556051410294 -0.0007103606810550112 0.0 -0.0018613533316577113 0.0 0.0
0.002598122207142284 -0.001477499712541297 0.0 -0.0024945080577196688 0.0 0.0
0.004848415700490036 -0.0033400503415421667 0.0 -0.00392748036451146 0.0 0.0
0.00864232381561783 -0.006785344277253191 0.0 -0.0063465358630930835 0.0 0.0
0.013994951110160178 -0.011851053529587485 0.0 -0.009634393707316169 0.0 0.0
0.020652820466742494 -0.018265304463634724 0.0 -0.013350824016869822 0.0 0.0
0.028365472015059262 -0.02575203915888613 0.0 -0.017107847973451662 0.0 0.0
0.03699460732857983 -0.03416407234320351 0.0 -0.0207696841128599 0.0 0.0
0.046496625960605775 -0.04345508920457819 0.0 -0.024377198823625323 0.0 0.0
0.056851532014412676 -0.05360164913448573 0.0 -0.02790552753449216 0.0 0.0
0.0679832112845262 -0.0645256710959119 0.0 -0.031181801195865222 0.0 0.0
0.07971016939390549 -0.07604867280921646 0.0 -0.03388188182414498 0.0 0.0
0.09173603346630271 -0.08786698471262167 0.0 -0.03548540655249488 0.0 0.0
0.1035756669337422 -0.0994783369515142 0.0 -0.035003588835963106 0.0 0.0
0.11435811848898012 -0.11001325362610448 0.0 -0.030493858078655123 0.0 0.0
0.1228024647413305 -0.11822867502324286 0.0 -0.019760618702335364 0.0 0.0
0.12280246474132184 -0.11822867502323753 0.0 0.019760618702400423 0.0 0.0
0.1143581184889535 -0.11001325362607961 0.0 0.03049385807873639 0.0 0.0
0.10357566693369985 -0.09947833695147867 0.0 0.03500358883601973 0.0 0.0
0.09173603346625489 -0.08786698471258259 0.0 0.03548540655252386 0.0 0.0
0.07971016939385084 -0.07604867280915872 0.0 0.03388188182413787 0.0 0.0
0.0679832112844688 -0.0645256710958555 0.0 0.031181801195853898 0.0 0.0
0.05685153201435614 -0.05360164913443466 0.0 0.02790552753448028 0.0 0.0
0.04649662596055293 -0.04345508920452845 0.0 0.024377198823614443 0.0 0.0
0.03699460732852888 -0.034164072343152 0.0 0.02076968411283875 0.0 0.0
0.028365472015013937 -0.025752039158846607 0.0 0.01710784797342757 0.0 0.0
0.02065282046670397 -0.01826530446360053 0.0 0.013350824016839624 0.0 0.0
0.013994951110129716 -0.01185105352956306 0.0 0.009634393707296907 0.0 0.0
0.008642323815596209 -0.006785344277236316 0.0 0.006346535863077762 0.0 0.0
0.004848415700476949 -0.0033400503415284 0.0 0.0039274803645028 0.0 0.0
0.002598122207136677 -0.0014774997125357459 0.0 0.0024945080577133405 0.0 0.0
0.0015336556051392392 -0.0007103606810512364 0.0 0.0018613533316540476 0.0 0.0
0.0010149615196532458 -0.0003857414383229285 0.0 0.0016454002819445979 0.0 0.0
0.0005547979135578363 -0.0001632544870197039 0.0 0.0017003753542763622 0.0 0.0
0.00024307169182885557 -0.0002954143043727986 0.0 0.002043389094451842 0.0 0.0
0.0030235403125527527 -0.004485970627183412 0.0 0.005060620771445867 0.0 0.0
0.002205357317980078 -0.003519499709000118 0.0 -0.004055327717463975 0.0 0.0
0.00017140479897320704 -0.00025096583510653137 0.0 -0.002293176107408701 0.0 0.0
0.0003805035664404266 -0.00011366505089749346 0.0 -0.002008381889490929 0.0 0.0
0.0007507905445336693 -0.00026903630984032034 0.0 -0.0019344310659973885 0.0 0.0
0.0011736420045812268 -0.0005193312797675542 0.0 -0.0021206345227767764 0.0 0.0
0.0019059135229156643 -0.0010031114944162312 0.0 -0.0026404898105655272 0.0 0.0
0.003512604998605784 -0.0022304051368160493 0.0 -0.003896390492182489 0.0 0.0
0.006371554147709485 -0.0047086239777054395 0.0 -0.006107917083524539 0.0 0.0
0.010531387932114777 -0.00856483914856998 0.0 -0.009171815087564816 0.0 0.0
0.015775144524178525 -0.013567270521130936 0.0 -0.012741485418584886 0.0 0.0
0.021828319209098224 -0.01941591135246945 0.0 -0.016409226115515207 0.0 0.0
0.0285605089635792 -0.025956015939645916 0.0 -0.01997190439159502 0.0 0.0
0.03595002386696225 -0.033165189089098046 0.0 -0.023470993854535105 0.0 0.0
0.04402390190329469 -0.04106488280345877 0.0 -0.02691490037842026 0.0 0.0
0.05277567256476337 -0.04964297703864062 0.0 -0.030133696200742244 0.0 0.0
0.06210778142621942 -0.058801629753631346 0.0 -0.03280411157057028 0.0 0.0
0.07185382600751944 -0.06839038457403301 0.0 -0.03456066581307471 0.0 0.0
0.08186471916013388 -0.07823600694207311 0.0 -0.03465017528156411 0.0 0.0
0.09173743050797817 -0.08789699988682198 0.0 -0.031049107434644174 0.0 0.0
0.10043486765199719 -0.09634552673686247 0.0 -0.02097263827107143 0.0 0.0
0.10043486765198983 -0.09634552673685803 0.0 0.020972638271131605 0.0 0.0
0.09173743050795674 -0.08789699988680155 0.0 0.031049107434723222 0.0 0.0
0.08186471916010002 -0.07823600694203048 0.0 0.03465017528162051 0.0 0.0
0.07185382600748083 -0.06839038457398772 0.0 0.0345606658130988 0.0 0.0
0.062107781426176734 -0.05880162975359049 0.0 0.032804111570560845 0.0 0.0
0.05277567256471752 -0.04964297703859488 0.0 0.03013369620073003 0.0 0.0
0.04402390190325087 -0.04106488280341436 0.0 0.026914900378407713 0.0 0.0
0.03595002386692278 -0.03316518908905719 0.0 0.02347099385452267 0.0 0.0
0.028560508963539843 -0.025956015939610833 0.0 0.01997190439157448 0.0 0.0
0.021828319209063002 -0.019415911352436588 0.0 0.016409226115490116 0.0 0.0
0.0157751445241488 -0.013567270521101182 0.0 0.012741485418554022 0.0 0.0
0.010531387932091713 -0.008564839148545111 0.0 0.00917181508754461 0.0 0.0
0.006371554147693387 -0.004708623977689452 0.0 0.006107917083511438 0.0 0.0
0.0035126049985964303 -0.0022304051368085 0.0 0.0038963904921734405 0.0 0.0
0.0019059135229120283 -0.0010031114944144548 0.0 0.00264048981056092 0.0 0.0
0.0011736420045802276 -0.0005193312797671101 0.0 0.002120634522773779 0.0 0.0
0.000750790544533364 -0.0002690363098406534 0.0 0.0019344310659930586 0.0 0.0
0.0003805035664404266 -0.00011366505089704937 0.0 0.002008381889488098 0.0 0.0
0.00017140479897320704 -0.00025096583510553216 0.0 0.0022931761074064805 0.0 0.0
0.0022053573179745545 -0.0035194997089930107 0.0 0.00405532771745537 0.0 0.0
0.0015628886934143105 -0.002715649246446017 0.0 -0.003256651505478214 0.0 0.0
0.0001081844684305 -0.00021360282421589716 0.0 -0.002442545961604814 0.0 0.0
0.00022002238439605692 -6.486316190967845e-05 0.0 -0.0022392658106362706 0.0 0.0
0.0004912456676637034 -0.0001543016269940356 0.0 -0.002176303431847937 0.0 0.0
0.0008247230659022831 -0.0003491159220616602 0.0 -0.0023629425800452686 0.0 0.0
0.0013070630202048072 -0.000643390925418208 0.0 -0.002796954540133012 0.0 0.0
0.002329536706449531 -0.0013398110491165127 0.0 -0.003773001767678863 0.0 0.0
0.004277793223940646 -0.0028871014878140144 0.0 -0.005579441369735205 0.0 0.0
0.007228246824638629 -0.0055035159489973395 0.0 -0.008172570235941645 0.0 0.0
0.011013179310401133 -0.009040108386638046 0.0 -0.011269763082643824 0.0 0.0
0.015386838422283278 -0.013221018416796682 0.0 -0.014548267380741109 0.0 0.0
0.020219924097151704 -0.017886102501477374 0.0 -0.017784450129840423 0.0 0.0
0.02550078025489222 -0.023015739508359445 0.0 -0.020967806670403877 0.0 0.0
0.031285509380330256 -0.028661131004739993 0.0 -0.024098506023944033 0.0 0.0
0.037635904220521904 -0.03487464443056698 0.0 -0.027073589159686162 0.0 0.0
0.0445493055520258 -0.041645742497419924 0.0 -0.029579518920970882 0.0 0.0
0.05195306281326448 -0.0489218352527967 0.0 -0.031244166480539626 0.0 0.0
0.05992117075665984 -0.05680172208448653 0.0 -0.031832068338821906 0.0 0.0
0.06865822285608364 -0.0653961667431675 0.0 -0.029838940525108826 0.0 0.0
0.07762935579477442 -0.07409152679958364 0.0 -0.02177843914607458 0.0 0.0
0.07762935579476979 -0.07409152679958098 0.0 0.021778439146126205 0.0 0.0
0.06865822285606782 -0.06539616674315774 0.0 0.029838940525186985 0.0 0.0
0.059921170756634695 -0.05680172208447054 0.0 0.031832068338877084 0.0 0.0
0.05195306281323492 -0.048921835252773604 0.0 0.03124416648055628 0.0 0.0
0.04454930555199521 -0.041645742497395055 0.0 0.029579518920961223 0.0 0.0
0.03763590422048854 -0.03487464443053767 0.0 0.0270735891596674 0.0 0.0
0.03128550938029967 -0.02866113100471157 0.0 0.0240985060239286 0.0 0.0
0.025500780254865935 -0.023015739508330135 0.0 0.02096780667039455 0.0 0.0
0.020219924097124337 -0.017886102501444956 0.0 0.01778445012982155 0.0 0.0
0.015386838422258298 -0.0132210184167727 0.0 0.014548267380720459 0.0 0.0
0.011013179310380206 -0.009040108386615842 0.0 0.01126976308261729 0.0 0.0
0.007228246824623252 -0.00550351594898002 0.0 0.008172570235921328 0.0 0.0
0.004277793223930182 -0.002887101487807353 0.0 0.005579441369723548 0.0 0.0
0.0023295367064434247 -0.0013398110491114057 0.0 0.003773001767669981 0.0 0.0
0.0013070630202026978 -0.0006433909254159875 0.0 0.002796954540129959 0.0 0.0
0.0008247230659015614 -0.0003491159220601059 0.0 0.0023629425800428816 0.0 0.0
0.0004912456676634813 -0.00015430162699314742 0.0 0.002176303431847826 0.0 0.0
0.00022002238439583488 -6.486316190956742e-05 0.0 0.002239265810634772 0.0 0.0
0.00010818446843047225 -0.0002136028242156751 0.0 0.0024425459616018164 0.0 0.0
0.0015628886934103692 -0.0027156492464410643 0.0 0.0032566515054694434 0.0 0.0
0.0010815245159095932 -0.0020761750749665464 0.0 -0.002657042192839576 0.0 0.0
3.709304485136067e-05 -0.00018102474515147016 0.0 -0.0025149774451359574 0.0 0.0
6.506412916940096e-05 -1.0580578987062772e-05 0.0 -0.002397193806938036 0.0 0.0
0.00023795562610040566 -4.148910987544774e-05 0.0 -0.0023611092688465285 0.0 0.0
0.00047067665047409446 -0.00018057934927884212 0.0 -0.00256129022736179 0.0 0.0
0.0007660506581318727 -0.00035931627853025283 0.0 -0.002969829261415813 0.0 0.0
0.001312268505753833 -0.0006785566057261327 0.0 -0.0036537273794104985 0.0 0.0
0.0023965645287114257 -0.0014087654400172234 0.0 -0.004870282909875123 0.0 0.0
0.004146930369625018 -0.00279514157057692 0.0 -0.006721498088586686 0.0 0.0
0.006438338209444061 -0.004817294123563798 0.0 -0.009036215804056336 0.0 0.0
0.009099006204632915 -0.007282744413677822 0.0 -0.011604558922699848 0.0 0.0
0.012013242062830637 -0.01004922546005016 0.0 -0.014243549099326458 0.0 0.0
0.015186216108170975 -0.01309693256561495 0.0 -0.01691164198328232 0.0 0.0
0.018681338624484706 -0.016485436522991836 0.0 -0.019552317565392108 0.0 0.0
0.02259955271917527 -0.02030726423669904 0.0 -0.02211017699357698 0.0 0.0
0.02705150099552303 -0.024657821148784898 0.0 -0.02439073591520302 0.0 0.0
0.0321002254828531 -0.02959069817730864 0.0 -0.025952008137150706 0.0 0.0
0.03786347528269082 -0.03529102054995725 0.0 -0.02662527098776135 0.0 0.0
0.044955991674101636 -0.04238897650425422 0.0 -0.0263145469407432 0.0 0.0
0.053991746831377224 -0.05114516275696612 0.0 -0.021878797674444006 0.0 0.0
0.053991746831375476 -0.051145162756955465 0.0 0.02187879767449208 0.0 0.0
0.044955991674091256 -0.0423889765042329 0.0 0.026314546940810146 0.0 0.0
0.03786347528267425 -0.03529102054993327 0.0 0.026625270987809202 0.0 0.0
0.032100225482834144 -0.029590698177281105 0.0 0.02595200813716292 0.0 0.0
0.027051500995503852 -0.024657821148767134 0.0 0.024390735915188477 0.0 0.0
0.02259955271915634 -0.020307264236684386 0.0 0.022110176993563213 0.0 0.0
0.01868133862446761 -0.01648543652297363 0.0 0.019552317565382227 0.0 0.0
0.015186216108157458 -0.01309693256560518 0.0 0.01691164198327577 0.0 0.0
0.012013242062815177 -0.010049225460037281 0.0 0.014243549099308694 0.0 0.0
0.00909900620461876 -0.007282744413661391 0.0 0.011604558922680086 0.0 0.0
0.006438338209432293 -0.004817294123555804 0.0 0.00903621580403502 0.0 0.0
0.004146930369617274 -0.0027951415705693705 0.0 0.006721498088574029 0.0 0.0
0.0023965645287060133 -0.0014087654400078975 0.0 0.004870282909868795 0.0 0.0
0.0013122685057507244 -0.00067855660572258 0.0 0.003653727379405669 0.0 0.0
0.0007660506581307902 -0.0003593162785286985 0.0 0.0029698292614137034 0.0 0.0
0.00047067665047365037 -0.00018057934927706576 0.0 0.002561290227358237 0.0 0.0
0.0002379556261005722 -4.1489109873893426e-05 0.0 0.0023611092688445856 0.0 0.0
6.506412916890136e-05 -1.0580578987173794e-05 0.0 0.002397193806937148 0.0 0.0
3.709304485091658e-05 -0.00018102474515191425 0.0 0.0025149774451355134 0.0 0.0
0.0010815245159073172 -0.0020761750749629763 0.0 0.002657042192834802 0.0 0.0
0.0007363330293304604 -0.0015839537134269 0.0 -0.0022204453429574555 0.0 0.0
-4.472576271224993e-05 -0.00015442877139437705 0.0 -0.0025407958378427242 0.0 0.0
-8.83507593243682e-05 5.1547725481992934e-05 0.0 -0.002494581372452842 0.0 0.0
-8.720045043764113e-06 6.874258766131902e-05 0.0 -0.0024860747175324827 0.0 0.0
0.00011197557789804913 -8.269414300876576e-06 0.0 -0.0026817748679562325 0.0 0.0
0.00023901079491933652 -9.953423617048429e-05 0.0 -0.003109867332854954 0.0 0.0
0.0004175274926136452 -0.00020324163650320415 0.0 -0.003682462566749589 0.0 0.0
0.0007550859271522325 -0.00037849209622375923 0.0 -0.004333333889036228 0.0 0.0
0.0013342359913706692 -0.0007083266168841362 0.0 -0.005233443897386891 0.0 0.0
0.0021033941403338363 -0.001228172548626727 0.0 -0.0065515260439029666 0.0 0.0
0.0029985131267392384 -0.0019180885239582501 0.0 -0.008291365698937403 0.0 0.0
0.003961724491331031 -0.002742177515801636 0.0 -0.010292356140260805 0.0 0.0
0.005007646738884736 -0.003686591196487843 0.0 -0.012463086049621652 0.0 0.0
0.006194758820702501 -0.004797940360651509 0.0 -0.01476850307449451 0.0 0.0
0.007649633182597232 -0.00618927552699855 0.0 -0.017167122814656266 0.0 0.0
0.009584814412715498 -0.008054360594481835 0.0 -0.01948542278506782 0.0 0.0
0.012267890114483232 -0.010635175285193199 0.0 -0.021257361774860706 0.0 0.0
0.01590399387383959 -0.014130702625887004 0.0 -0.02181997770497235 0.0 0.0
0.020899267770783603 -0.01916233537840739 0.0 -0.021663868936197095 0.0 0.0
0.02902403767065692 -0.027278663970428774 0.0 -0.02115535277025138 0.0 0.0
0.029024037670657976 -0.027278663970421668 0.0 0.02115535277028857 0.0 0.0
0.020899267770778135 -0.019162335378399398 0.0 0.021663868936251274 0.0 0.0
0.01590399387383165 -0.014130702625885228 0.0 0.021819977705005433 0.0 0.0
0.012267890114476654 -0.010635175285185205 0.0 0.02125736177485904 0.0 0.0
0.009584814412709863 -0.008054360594475618 0.0 0.019485422785050055 0.0 0.0
0.007649633182592791 -0.006189275526998994 0.0 0.017167122814645164 0.0 0.0
0.006194758820699087 -0.004797940360654174 0.0 0.014768503074484296 0.0 0.0
0.005007646738883986 -0.003686591196483402 0.0 0.012463086049616545 0.0 0.0
0.0039617244913282 -0.002742177515791422 0.0 0.01029235614025037 0.0 0.0
0.002998513126736324 -0.0019180885239560297 0.0 0.00829136569892519 0.0 0.0
0.0021033941403316714 -0.0012281725486311679 0.0 0.006551526043889089 0.0 0.0
0.00133423599136967 -0.0007083266168850244 0.0 0.005233443897383228 0.0 0.0
0.0007550859271512333 -0.0003784920962250915 0.0 0.004333333889031454 0.0 0.0
0.0004175274926128958 -0.00020324163650009552 0.0 0.003682462566746536 0.0 0.0
0.00023901079491911448 -9.953423616848589e-05 0.0 0.003109867332852234 0.0 0.0
0.00011197557789821566 -8.269414302430889e-06 0.0 0.002681774867953901 0.0 0.0
-8.72004504365309e-06 6.874258766087493e-05 0.0 0.00248607471753004 0.0 0.0
-8.835075932470127e-05 5.154772548143782e-05 0.0 0.0024945813724497334 0.0 0.0
-4.4725762712832795e-05 -0.0001544287713946546 0.0 0.002540795837841281 0.0 0.0
0.0007363330293291281 -0.0015839537134246118 0.0 0.002220445342954347 0.0 0.0
0.0004941394549205225 -0.0012264126087102034 0.0 -0.0019436422306870482 0.0 0.0
-0.00012846855987602712 -0.00012873503023247412 0.0 -0.0025380514653431385 0.0 0.0
-0.00023991706578702088 0.0001172240511121414 0.0 -0.0025356801725612277 0.0 0.0
-0.0002489477996880096 0.0001762564009435419 0.0 -0.002542759599694633 0.0 0.0
-0.00024381341863058403 0.00016353373234312407 0.0 -0.0027212382424793846 0.0 0.0
-0.0002912381622184046 0.00016025091200577712 0.0 -0.0031299058139373503 0.0 0.0
-0.0004376668557667107 0.00022011102834662566 0.0 -0.00369507458724877 0.0 0.0
-0.0007623311831995161 0.00038387045659415975 0.0 -0.004343115383679486 0.0 0.0
-0.0013344823419927099 0.0007095161789738569 0.0 -0.005237124809169935 0.0 0.0
-0.002102730424532545 0.0012292511315110666 0.0 -0.006551143440535978 0.0 0.0
-0.0030098334048760667 0.0019330718651739964 0.0 -0.008294977255445368 0.0 0.0
-0.004013671048058609 0.0027936003638444618 0.0 -0.010304705476235965 0.0 0.0
-0.0051081615137897884 0.0037719661981276964 0.0 -0.01247446293290444 0.0 0.0
-0.006244087310610991 0.004805767195069421 0.0 -0.014770770355121643 0.0 0.0
-0.0072669979296980936 0.005742555036656327 0.0 -0.01717950762888476 0.0 0.0
-0.007889666749006652 0.006305347723698951 0.0 -0.019645680975255653 0.0 0.0
-0.0076876180318918574 0.006099709708238699 0.0 -0.022138785335011124 0.0 0.0
-0.0062925239189922655 0.004882826497778936 0.0 -0.024746951083214674 0.0 0.0
-0.003361467534201218 0.002435209038325503 0.0 -0.02713149659271008 0.0 0.0
0.00389587240828812 -0.0044398141365551425 0.0 -0.026286295848958363 0.0 0.0
0.0038958724082894247 -0.004439814136556031 0.0 0.02628629584897435 0.0 0.0
-0.0033614675342029943 0.0024352090383219505 0.0 0.027131496592728954 0.0 0.0
-0.006292523918988963 0.004882826497780712 0.0 0.024746951083221336 0.0 0.0
-0.007687618031883531 0.0060997097082378104 0.0 0.022138785335001465 0.0 0.0
-0.007889666748996771 0.006305347723686516 0.0 0.019645680975236557 0.0 0.0
-0.007266997929689101 0.005742555036649222 0.0 0.017179507628871438 0.0 0.0
-0.006244087310601026 0.004805767195061872 0.0 0.014770770355108986 0.0 0.0
-0.005108161513778298 0.0037719661981134855 0.0 0.012474462932894892 0.0 0.0
-0.004013671048047562 0.002793600363829807 0.0 0.0103047054762202 0.0 0.0
-0.003009833404867518 0.0019330718651704437 0.0 0.008294977255429048 0.0 0.0
-0.0021027304245247735 0.0012292511315097343 0.0 0.006551143440520768 0.0 0.0
-0.0013344823419876028 0.0007095161789720805 0.0 0.005237124809165383 0.0 0.0
-0.0007623311831965185 0.0003838704565959361 0.0 0.004343115383674823 0.0 0.0
-0.00043766685576512865 0.00022011102834951224 0.0 0.003695074587245717 0.0 0.0
-0.0002912381622180993 0.00016025091200400077 0.0 0.00312990581393352 0.0 0.0
-0.0002438134186299734 0.00016353373234312407 0.0 0.0027212382424756654 0.0 0.0
-0.00024894779968798186 0.00017625640094431905 0.0 0.002542759599693245 0.0 0.0
-0.00023991706578724292 0.00011722405111258549 0.0 0.0025356801725593403 0.0 0.0
-0.00012846855987602712 -0.0001287350302328072 0.0 0.0025380514653431385 0.0 0.0
0.0004941394549199118 -0.0012264126087086994 0.0 0.0019436422306866041 0.0 0.0
0.0003284660640485437 -0.0009635076061134673 0.0 -0.0017525453266250546 0.0 0.0
-0.00020517340397477324 -9.696189366326102e-05 0.0 -0.002493251718680589 0.0 0.0
-0.00038666401559209196 0.00018056008306510662 0.0 -0.0025240218646069845 0.0 0.0
-0.00048162472221938146 0.0002800599612207133 0.0 -0.002526784903471746 0.0 0.0
-0.0005921899244935858 0.0003300682987041892 0.0 -0.0026736834243337726 0.0 0.0
-0.0008173915352812366 0.0004204597454053882 0.0 -0.003033439432258367 0.0 0.0
-0.0013317616035277702 0.0006978077745354305 0.0 -0.003692358116054395 0.0 0.0
-0.0024008137830787146 0.0014146700635309095 0.0 -0.004892046349221801 0.0 0.0
-0.004145091718996907 0.002795030066224946 0.0 -0.006726857574742007 0.0 0.0
-0.006438349321803566 0.004819757636633337 0.0 -0.009036972486703099 0.0 0.0
-0.009113309437171452 0.007301772581445043 0.0 -0.011604968989545106 0.0 0.0
-0.012062718343308937 0.010102676146812595 0.0 -0.0142268901580489 0.0 0.0
-0.015275302117259748 0.01317829025440842 0.0 -0.016854235661858286 0.0 0.0
-0.01871145523799783 0.016477345862886406 0.0 -0.019480546020701484 0.0 0.0
-0.022203622769119136 0.019828272097599964 0.0 -0.022177286528826334 0.0 0.0
-0.025402933753061685 0.022891492808514435 0.0 -0.02500400753541443 0.0 0.0
-0.02780393022461386 0.025186154523460402 0.0 -0.028056290827631614 0.0 0.0
-0.02883615564789227 0.02615292900723354 0.0 -0.031234866507486414 0.0 0.0
-0.027421340651402476 0.0244766632306046 0.0 -0.032739630454321045 0.0 0.0
-0.0201967943259872 0.016919057423549155 0.0 -0.030665017527585103 0.0 0.0
-0.02019679432598634 0.016919057423549155 0.0 0.030665017527625404 0.0 0.0
-0.027421340651399506 0.024476663230602824 0.0 0.03273963045437933 0.0 0.0
-0.028836155647878337 0.026152929007216663 0.0 0.03123486650752294 0.0 0.0
-0.027803930224590767 0.025186154523429316 0.0 0.028056290827630614 0.0 0.0
-0.02540293375303687 0.022891492808486902 0.0 0.025004007535394335 0.0 0.0
-0.022203622769096626 0.019828272097574207 0.0 0.022177286528810458 0.0 0.0
-0.018711455237974323 0.016477345862868198 0.0 0.01948054602068594 0.0 0.0
-0.015275302117236322 0.013178290254387992 0.0 0.01685423566184774 0.0 0.0
-0.012062718343284734 0.010102676146789946 0.0 0.014226890158031025 0.0 0.0
-0.009113309437150802 0.007301772581424171 0.0 0.011604968989520681 0.0 0.0
-0.006438349321785719 0.004819757636616906 0.0 0.009036972486680672 0.0 0.0
-0.004145091718985222 0.0027950300662125116 0.0 0.0067268575747307935 0.0 0.0
-0.0024008137830712206 0.0014146700635264686 0.0 0.004892046349213697 0.0 0.0
-0.0013317616035234958 0.0006978077745323219 0.0 0.003692358116048844 0.0 0.0
-0.0008173915352798211 0.000420459745404278 0.0 0.0030334394322547586 0.0 0.0
-0.0005921899244929474 0.00033006829870796395 0.0 0.0026736834243319407 0.0 0.0
-0.00048162472221888186 0.0002800599612232668 0.0 0.002526784903468804 0.0 0.0
-0.0003866640155924528 0.00018056008306555071 0.0 0.002524021864603987 0.0 0.0
-0.00020517340397449568 -9.696189366276142e-05 0.0 0.0024932517186792014 0.0 0.0
0.0003284660640480441 -0.0009635076061126936 0.0 0.0017525453266223345 0.0 0.0
0.00021228728116373663 -0.0007421646714003693 0.0 -0.0015592806160396044 0.0 0.0
-0.0002730301946401448 -5.965878650771028e-05 0.0 -0.0023944069683728975 0.0 0.0
-0.0005255729542130716 0.00023932883508748226 0.0 -0.0024545247117289115 0.0 0.0
-0.0007052256338875573 0.00037795167484921954 0.0 -0.0024405486836880375 0.0 0.0
-0.000929430249038049 0.0004881911518515025 0.0 -0.0025413582903631715 0.0 0.0
-0.0013561140598043753 0.0007065470288178943 0.0 -0.002902997393104567 0.0 0.0
-0.002344503883679433 0.0013603336733605254 0.0 -0.003827671533827348 0.0 0.0
-0.004276115012149334 0.0028887516107611866 0.0 -0.005598548563456762 0.0 0.0
-0.007224890529869438 0.005501360348229678 0.0 -0.008172350523917404 0.0 0.0
-0.011015698941268609 0.009044431351113325 0.0 -0.01127096783905035 0.0 0.0
-0.015401601456906333 0.013239317119266403 0.0 -0.014542451609180551 0.0 0.0
-0.02025655830020634 0.017926527504167122 0.0 -0.017727448903913645 0.0 0.0
-0.025557976639324048 0.023068176580249844 0.0 -0.020801253926138408 0.0 0.0
-0.0312795243726946 0.02862436442727523 0.0 -0.023870546373538026 0.0 0.0
-0.037253286769729305 0.034420580125748224 0.0 -0.027164511612593034 0.0 0.0
-0.043078854320156096 0.040067437327617306 0.0 -0.03097788053927042 0.0 0.0
-0.04812217629123908 0.044942948277768124 0.0 -0.035454133699944324 0.0 0.0
-0.051391976767118375 0.04799927105161661 0.0 -0.039765545410329395 0.0 0.0
-0.05097584708409145 0.047300766845447484 0.0 -0.041898539275274094 0.0 0.0
-0.0429053778695041 0.03850355286044582 0.0 -0.03784658038702049 0.0 0.0
-0.04290537786950069 0.03850355286044138 0.0 0.03784658038707023 0.0 0.0
-0.050975847084082315 0.047300766845436826 0.0 0.041898539275342594 0.0 0.0
-0.051391976767097 0.047999271051589965 0.0 0.03976554541037425 0.0 0.0
-0.04812217629120433 0.044942948277734374 0.0 0.03545413369995121 0.0 0.0
-0.043078854320118015 0.04006743732757645 0.0 0.030977880539254432 0.0 0.0
-0.03725328676969342 0.034420580125711364 0.0 0.027164511612574826 0.0 0.0
-0.031279524372658074 0.028624364427239257 0.0 0.02387054637351782 0.0 0.0
-0.02555797663928791 0.023068176580212096 0.0 0.020801253926119867 0.0 0.0
-0.020256558300170258 0.01792652750413337 0.0 0.01772744890389044 0.0 0.0
-0.015401601456874164 0.013239317119232208 0.0 0.014542451609147133 0.0 0.0
-0.011015698941241159 0.009044431351086235 0.0 0.011270967839019264 0.0 0.0
-0.0072248905298499255 0.005501360348213691 0.0 0.00817235052389853 0.0 0.0
-0.004276115012136844 0.0028887516107496403 0.0 0.005598548563447436 0.0 0.0
-0.0023445038836722998 0.0013603336733531979 0.0 0.0038276715338189105 0.0 0.0
-0.0013561140598014332 0.0007065470288152298 0.0 0.002902997393100515 0.0 0.0
-0.0009294302490368833 0.00048819115184906003 0.0 0.002541358290362228 0.0 0.0
-0.0007052256338871965 0.00037795167484622194 0.0 0.002440548683685928 0.0 0.0
-0.0005255729542129883 0.0002393288350881484 0.0 0.002454524711727246 0.0 0.0
-0.00027303019464003375 -5.965878650804335e-05 0.0 0.002394406968371565 0.0 0.0
0.00021228728116329254 -0.0007421646714002739 0.0 0.0015592806160378836 0.0 0.0
0.00012077894269951761 -0.0005461010849658887 0.0 -0.0013546421968244071 0.0 0.0
-0.0003341183490485622 -1.679726221470723e-05 0.0 -0.0022400823775847734 0.0 0.0
-0.0006555951687329253 0.0002934349744107001 0.0 -0.0023315239327734716 0.0 0.0
-0.0009185725199547523 0.00046786316156977037 0.0 -0.002293070050063184 0.0 0.0
-0.0012572284512333831 0.0006450340115466968 0.0 -0.00235171680273516 0.0 0.0
-0.001948516664271871 0.0010650719924769625 0.0 -0.0027730210574067327 0.0 0.0
-0.0035174042239946024 0.002244882180511887 0.0 -0.0039482983040992625 0.0 0.0
-0.006364576767865504 0.004703597579445606 0.0 -0.006113334367916612 0.0 0.0
-0.01052913991903015 0.008562995872897883 0.0 -0.009168375977667731 0.0 0.0
-0.01578088807899397 0.013574072203793364 0.0 -0.012743622777331098 0.0 0.0
-0.021840197225076102 0.019429585528146998 0.0 -0.01639688237084813 0.0 0.0
-0.028572606060881606 0.025970398026892383 0.0 -0.019878950467197454 0.0 0.0
-0.03595021123270037 0.03316407147394296 0.0 -0.023204154534152366 0.0 0.0
-0.04396027875732969 0.040984173038352445 0.0 -0.02652892232517523 0.0 0.0
-0.05244902288342809 0.049267889968199974 0.0 -0.030202330714589 0.0 0.0
-0.060974796815651294 0.05756986381483564 0.0 -0.034693830858007924 0.0 0.0
-0.06865351837776126 0.06499807506978428 0.0 -0.040074436495313726 0.0 0.0
-0.0739227461918853 0.06997213110364608 0.0 -0.045264443626234274 0.0 0.0
-0.07408953249767308 0.06969956303540581 0.0 -0.04749629215012274 0.0 0.0
-0.06420397896032501 0.05914725362457052 0.0 -0.04351751513752666 0.0 0.0
-0.0642039789603181 0.0591472536245794 0.0 0.04351751513758206 0.0 0.0
-0.07408953249765765 0.06969956303539693 0.0 0.04749629215019291 0.0 0.0
-0.07392274619185552 0.0699721311036221 0.0 0.04526444362628901 0.0 0.0
-0.0686535183777168 0.06499807506974697 0.0 0.040074436495325494 0.0 0.0
-0.06097479681560189 0.057569863814795674 0.0 0.03469383085799116 0.0 0.0
-0.052449022883378715 0.049267889968162226 0.0 0.030202330714567682 0.0 0.0
-0.04396027875728048 0.04098417303830182 0.0 0.02652892232515569 0.0 0.0
-0.0359502112326506 0.033164071473893664 0.0 0.023204154534134935 0.0 0.0
-0.02857260606083445 0.025970398026845753 0.0 0.019878950467176915 0.0 0.0
-0.02184019722503293 0.019429585528098592 0.0 0.016396882370814214 0.0 0.0
-0.01578088807895743 0.013574072203755172 0.0 0.012743622777302288 0.0 0.0
-0.010529139919002561 0.008562995872871682 0.0 0.009168375977646914 0.0 0.0
-0.006364576767847588 0.0047035975794313956 0.0 0.006113334367902956 0.0 0.0
-0.0035174042239841385 0.0022448821805058916 0.0 0.003948298304088049 0.0 0.0
-0.001948516664266986 0.001065071992474076 0.0 0.002773021057400571 0.0 0.0
-0.0012572284512318982 0.0006450340115458086 0.0 0.0023517168027330504 0.0 0.0
-0.0009185725199544192 0.00046786316157110264 0.0 0.002293070050058965 0.0 0.0
-0.0006555951687322731 0.0002934349744097009 0.0 0.0023315239327718618 0.0 0.0
-0.0003341183490485622 -1.679726221609501e-05 0.0 0.0022400823775843848 0.0 0.0
0.0001207789426994621 -0.0005461010849658558 0.0 0.001354642196823963 0.0 0.0
4.2941601443413635e-05 -0.0003734550077697518 0.0 -0.0011438204741677227 0.0 0.0
-0.000391819533154536 3.1322152273971504e-05 0.0 -0.0020303701518128436 0.0 0.0
-0.0007768599650361807 0.00034338504669040315 0.0 -0.0021508490710309136 0.0 0.0
-0.0011200048456804224 0.0005484721026121075 0.0 -0.0020799835786352583 0.0 0.0
-0.0015901507089005618 0.0008146979597964954 0.0 -0.0021182725249205836 0.0 0.0
-0.002626540967873958 0.0015269269993780643 0.0 -0.002618289825930542 0.0 0.0
-0.00484345745141751 0.003343689448742193 0.0 -0.003957789983887794 0.0 0.0
-0.008633955952757899 0.0067771436273016405 0.0 -0.006342937245425007 0.0 0.0
-0.013995646501998138 0.011851685099466547 0.0 -0.009629787760367492 0.0 0.0
-0.02066106521211092 0.01827377574358202 0.0 -0.013351693891684002 0.0 0.0
-0.028370839415880644 0.025757273648760126 0.0 -0.017086483271217978 0.0 0.0
-0.03697333457252733 0.034143077084089146 0.0 -0.02065191419915291 0.0 0.0
-0.046421719826550634 0.043382818203069995 0.0 -0.02405448872051441 0.0 0.0
-0.05671149944025533 0.05346211259874378 0.0 -0.027423054799023183 0.0 0.0
-0.06772351578703831 0.06424132728373255 0.0 -0.03114680523692459 0.0 0.0
-0.07895306876571498 0.07519658965799447 0.0 -0.035755825538923425 0.0 0.0
-0.08920568801123321 0.08512218087001511 0.0 -0.04138053595760083 0.0 0.0
-0.09630092943915403 0.09181402257838123 0.0 -0.04691939592439309 0.0 0.0
-0.09668295513850941 0.09169492433068438 0.0 -0.04987126499483996 0.0 0.0
-0.08500680545095071 0.07943582972520247 0.0 -0.04844443281380173 0.0 0.0
-0.08500680545094164 0.07943582972518826 0.0 0.04844443281386013 0.0 0.0
-0.09668295513848646 0.09169492433066928 0.0 0.04987126499490979 0.0 0.0
-0.09630092943911622 0.0918140225783537 0.0 0.04691939592444849 0.0 0.0
-0.08920568801117984 0.08512218086996093 0.0 0.041380535957612374 0.0 0.0
-0.07895306876565464 0.07519658965793052 0.0 0.03575582553891543 0.0 0.0
-0.06772351578697655 0.06424132728366727 0.0 0.031146805236906383 0.0 0.0
-0.05671149944019291 0.05346211259868161 0.0 0.02742305479900109 0.0 0.0
-0.046421719826487795 0.04338281820301626 0.0 0.02405448872049537 0.0 0.0
-0.03697333457246835 0.03414307708402653 0.0 0.020651914199128374 0.0 0.0
-0.028370839415827243 0.025757273648705947 0.0 0.017086483271184894 0.0 0.0
-0.020661065212065205 0.01827377574353717 0.0 0.013351693891652361 0.0 0.0
-0.013995646501963388 0.01185168509943324 0.0 0.00962978776034501 0.0 0.0
-0.008633955952733807 0.006777143627280768 0.0 0.006342937245409408 0.0 0.0
-0.004843457451402924 0.0033436894487288704 0.0 0.0039577899838761366 0.0 0.0
-0.002626540967867186 0.0015269269993753998 0.0 0.0026182898259248244 0.0 0.0
-0.0015901507088985495 0.0008146979597940529 0.0 0.002118272524918252 0.0 0.0
-0.001120004845679659 0.00054847210260911 0.0 0.0020799835786328713 0.0 0.0
-0.0007768599650355701 0.00034338504668940395 0.0 0.0021508490710295813 0.0 0.0
-0.0003918195331541058 3.132215227369395e-05 0.0 0.002030370151811789 0.0 0.0
4.29416014434969e-05 -0.0003734550077691117 0.0 0.00114382047416689 0.0 0.0
-2.3586526382346484e-05 -0.00022534217518482835 0.0 -0.000927073413420243 0.0 0.0
-0.0004475108750890411 8.314783597729303e-05 0.0 -0.0017707441057162598 0.0 0.0
-0.0008904268703144314 0.0003894705818335842 0.0 -0.0019135148398488622 0.0 0.0
-0.0013116689657762248 0.0006250166621049047 0.0 -0.001820169556797313 0.0 0.0
-0.0019501129741471002 0.0010194271345431716 0.0 -0.0018619593666129308 0.0 0.0
-0.0034016985378893527 0.002108754266422208 0.0 -0.0024084533291180432 0.0 0.0
-0.006310763239235129 0.0046355325964810845 0.0 -0.0038072047149675936 0.0 0.0
-0.011045308734558335 0.009040953603024704 0.0 -0.00623748173962424 0.0 0.0
-0.01755226614098848 0.015271902072490295 0.0 -0.009461437393305294 0.0 0.0
-0.025600862368228394 0.023062824536028703 0.0 -0.013043361482998561 0.0 0.0
-0.034950178879869176 0.03216178838162209 0.0 -0.016653322062902154 0.0 0.0
-0.045423353167146185 0.04239190703355833 0.0 -0.020098641521970273 0.0 0.0
-0.0569429507893483 0.05367680842270861 0.0 -0.02339471369530921 0.0 0.0
-0.06949366769262538 0.06599531133252468 0.0 -0.0266325588933517 0.0 0.0
-0.08297213148605387 0.07921667467497695 0.0 -0.03004427199453308 0.0 0.0
-0.09683154658419324 0.09275433831996782 0.0 -0.03414340039139452 0.0 0.0
-0.10958278274578195 0.10509922194445842 0.0 -0.03934568754267054 0.0 0.0
-0.11841159392584438 0.11343812463219649 0.0 -0.045076071190865985 0.0 0.0
-0.11905691886900185 0.11354866246776485 0.0 -0.04982347509238838 0.0 0.0
-0.10591368370042331 0.09987087073003842 0.0 -0.05300661932034623 0.0 0.0
-0.10591368370041329 0.09987087073002776 0.0 0.053006619320399184 0.0 0.0
-0.11905691886897116 0.1135486624677311 0.0 0.049823475092460656 0.0 0.0
-0.11841159392579786 0.11343812463214586 0.0 0.045076071190918054 0.0 0.0
-0.10958278274571995 0.10509922194439625 0.0 0.03934568754268519 0.0 0.0
-0.09683154658412144 0.09275433831989766 0.0 0.0341434003913873 0.0 0.0
-0.08297213148598086 0.07921667467490856 0.0 0.03004427199452303 0.0 0.0
-0.06949366769254998 0.06599531133245495 0.0 0.026632558893332325 0.0 0.0
-0.05694295078927364 0.05367680842263889 0.0 0.023394713695293057 0.0 0.0
-0.045423353167074895 0.04239190703348683 0.0 0.020098641521946625 0.0 0.0
-0.03495017887980573 0.03216178838156081 0.0 0.01665332206287151 0.0 0.0
-0.025600862368173716 0.023062824535977633 0.0 0.013043361482966809 0.0 0.0
-0.01755226614094653 0.01527190207245388 0.0 0.009461437393286809 0.0 0.0
-0.011045308734528012 0.009040953602998947 0.0 0.006237481739608919 0.0 0.0
-0.00631076323921638 0.004635532596460212 0.0 0.003807204714954382 0.0 0.0
-0.003401698537879888 0.0021087542664137704 0.0 0.002408453329108773 0.0 0.0
-0.0019501129741443801 0.0010194271345433936 0.0 0.001861959366611432 0.0 0.0
-0.001311668965775059 0.0006250166621042386 0.0 0.0018201695567975351 0.0 0.0
-0.0008904268703138901 0.00038947058183247396 0.0 0.0019135148398504165 0.0 0.0
-0.00044751087508873577 8.314783597734854e-05 0.0 0.0017707441057155937 0.0 0.0
-2.3586526382277095e-05 -0.00022534217518451263 0.0 0.0009270734134187442 0.0 0.0
-7.766583344043232e-05 -0.00010412852388069771 0.0 -0.0007038305604974426 0.0 0.0
-0.0004998556818381905 0.00013602055555128612 0.0 -0.0014666664073728075 0.0 0.0
-0.0009977552233916276 0.0004321870936870864 0.0 -0.0016195952183860052 0.0 0.0
-0.0015009545524594659 0.0007028508720339222 0.0 -0.0015119791245575276 0.0 0.0
-0.0023571323848159964 0.0012731496266846776 0.0 -0.0015616391373822758 0.0 0.0
-0.004279028131499163 0.0028233180363659294 0.0 -0.0021219899568822864 0.0 0.0
-0.00790530189206079 0.006094938171720354 0.0 -0.0034904709438729475 0.0 0.0
-0.013533910093595058 0.011420496961120019 0.0 -0.005725203765710618 0.0 0.0
-0.02114514281411406 0.018752674603653485 0.0 -0.008609726666672812 0.0 0.0
-0.030561770688042333 0.027893175174396934 0.0 -0.011848500626708836 0.0 0.0
-0.04154002923549244 0.03859794176299802 0.0 -0.01511194417941708 0.0 0.0
-0.053885904773700644 0.05067365784112754 0.0 -0.018233493611695573 0.0 0.0
-0.06748425416383841 0.06400843683563595 0.0 -0.02124690541888763 0.0 0.0
-0.08226867668460308 0.07853219658059052 0.0 -0.024162774244160135 0.0 0.0
-0.09810136615862342 0.09408603731929688 0.0 -0.027000782856057448 0.0 0.0
-0.114422425853272 0.11005499349009096 0.0 -0.030055524601714678 0.0 0.0
-0.12957782444089236 0.12473629773339034 0.0 -0.03410370970068588 0.0 0.0
-0.1402476597305158 0.1348429471947572 0.0 -0.03986897328577521 0.0 0.0
-0.14153798235108234 0.13554885379229908 0.0 -0.04746493926143225 0.0 0.0
-0.12738731039213322 0.12087530779991784 0.0 -0.05719343425233647 0.0 0.0
-0.12738731039212142 0.12087530779990718 0.0 0.05719343425238921 0.0 0.0
-0.14153798235104617 0.13554885379227244 0.0 0.047464939261499306 0.0 0.0
-0.14024765973045936 0.13484294719471634 0.0 0.03986897328581729 0.0 0.0
-0.12957782444082133 0.12473629773332195 0.0 0.03410370970069576 0.0 0.0
-0.11442242585318896 0.11005499349001191 0.0 0.030055524601708405 0.0 0.0
-0.09810136615853847 0.09408603731921472 0.0 0.027000782856050842 0.0 0.0
-0.08226867668451543 0.07853219658050792 0.0 0.024162774244144314 0.0 0.0
-0.06748425416375185 0.0640084368355529 0.0 0.021246905418871753 0.0 0.0
-0.053885904773617765 0.05067365784105071 0.0 0.01823349361167137 0.0 0.0
-0.0415400292354188 0.03859794176292386 0.0 0.015111944179387327 0.0 0.0
-0.030561770687978704 0.02789317517433565 0.0 0.01184850062668219 0.0 0.0
-0.021145142814065196 0.018752674603606856 0.0 0.008609726666655992 0.0 0.0
-0.01353391009355931 0.01142049696108316 0.0 0.005725203765695019 0.0 0.0
-0.007905301892037905 0.006094938171698372 0.0 0.003490470943861179 0.0 0.0
-0.004279028131486631 0.0028233180363559374 0.0 0.002121989956875181 0.0 0.0
-0.0023571323848117776 0.0012731496266802367 0.0 0.0015616391373817207 0.0 0.0
-0.001500954552457856 0.0007028508720335891 0.0 0.0015119791245577496 0.0 0.0
-0.0009977552233913917 0.00043218709368730845 0.0 0.0016195952183846174 0.0 0.0
-0.0004998556818378991 0.00013602055555056447 0.0 0.0014666664073719748 0.0 0.0
-7.766583344029354e-05 -0.0001041285238807671 0.0 0.0007038305604958883 0.0 0.0
-0.00011564716507944661 -1.3130904472136162e-05 0.0 -0.00047564571703101466 0.0 0.0
-0.0005443337358468359 0.0001861551338165901 0.0 -0.0011212085778388725 0.0 0.0
-0.0011002916982194577 0.00047131608717143614 0.0 -0.0012666580650679826 0.0 0.0
-0.001699452785645983 0.000793202181852859 0.0 -0.001158946838929531 0.0 0.0
-0.002828005100666109 0.00159948642975416 0.0 -0.001214416347085412 0.0 0.0
-0.005264660255407949 0.003671283752869625 0.0 -0.0017480754987287406 0.0 0.0
-0.009581171983164605 0.007664802291527106 0.0 -0.002906301945400813 0.0 0.0
-0.016049747250545088 0.013850438858027836 0.0 -0.004725249225206007 0.0 0.0
-0.024740703143047216 0.02225344468324364 0.0 -0.007100447776410168 0.0 0.0
-0.035504592218352726 0.03272261653569819 0.0 -0.009778497779251993 0.0 0.0
-0.04810248035238085 0.04502322074103082 0.0 -0.012481774355610598 0.0 0.0
-0.06232241014605211 0.05894650875246299 0.0 -0.015064117415647282 0.0 0.0
-0.07800737698420979 0.07433599948399561 0.0 -0.017572699120463442 0.0 0.0
-0.09500672871361138 0.09103924379023187 0.0 -0.0200192484163223 0.0 0.0
-0.11306330843148399 0.10878847915571743 0.0 -0.022182456530776995 0.0 0.0
-0.13156625500190533 0.12693003336037378 0.0 -0.023871009881557992 0.0 0.0
-0.14894488925899946 0.14381979943620582 0.0 -0.025981362009580344 0.0 0.0
-0.16177303442983804 0.15599303019131128 0.0 -0.0312168572171605 0.0 0.0
-0.16440388373342524 0.15795997366109304 0.0 -0.04231009927583085 0.0 0.0
-0.14993124807030592 0.14291382898472005 0.0 -0.06065466879801518 0.0 0.0
-0.14993124807029273 0.14291382898471028 0.0 0.06065466879805692 0.0 0.0
-0.16440388373338363 0.1579599736610433 0.0 0.04231009927588669 0.0 0.0
-0.16177303442977198 0.1559930301912349 0.0 0.031216857217198912 0.0 0.0
-0.14894488925891788 0.14381979943612322 0.0 0.02598136200958684 0.0 0.0
-0.13156625500181096 0.1269300333602832 0.0 0.02387100988155416 0.0 0.0
-0.11306330843138662 0.10878847915562195 0.0 0.02218245653077322 0.0 0.0
-0.09500672871351214 0.0910392437901395 0.0 0.020019248416309143 0.0 0.0
-0.07800737698411132 0.07433599948389258 0.0 0.01757269912045012 0.0 0.0
-0.062322410145957824 0.058946508752365734 0.0 0.015064117415630296 0.0 0.0
-0.04810248035229705 0.04502322074094689 0.0 0.012481774355588171 0.0 0.0
-0.03550459221828105 0.03272261653563069 0.0 0.009778497779229844 0.0 0.0
-0.024740703142992128 0.022253444683198786 0.0 0.007100447776394625 0.0 0.0
-0.016049747250503593 0.0138504388579892 0.0 0.00472524922519324 0.0 0.0
-0.009581171983137418 0.007664802291498907 0.0 0.0029063019453921535 0.0 0.0
-0.005264660255392399 0.0036712837528563025 0.0 0.001748075498723911 0.0 0.0
-0.002828005100660398 0.0015994864297501632 0.0 0.0012144163470827474 0.0 0.0
-0.001699452785644033 0.0007932021818521928 0.0 0.0011589468389293645 0.0 0.0
-0.001100291698218854 0.000471316087170659 0.0 0.0012666580650658732 0.0 0.0
-0.0005443337358460934 0.00018615513381597948 0.0 0.0011212085778380954 0.0 0.0
-0.00011564716507918293 -1.3130904472358207e-05 0.0 0.0004756457170318473 0.0 0.0
-0.0001307388088753192 4.3264130498432696e-05 0.0 -0.00024922589096643133 0.0 0.0
-0.0005718833798192269 0.00022728227189527939 0.0 -0.000733866274102879 0.0 0.0
-0.0012007643474938878 0.0005091739467503187 0.0 -0.0008483390094129462 0.0 0.0
-0.0019254780248138537 0.0009095882161140878 0.0 -0.0007634452413034509 0.0 0.0
-0.0033777548985651773 0.002020298563629286 0.0 -0.0008231701620211029 0.0 0.0
-0.0063412390441646704 0.00463575083297707 0.0 -0.001224457981514382 0.0 0.0
-0.011291581331554446 0.009297085247441217 0.0 -0.0020305465691665137 0.0 0.0
-0.018566654946033434 0.016295400304201735 0.0 -0.0032782658241695684 0.0 0.0
-0.0283019788081309 0.025735878022585812 0.0 -0.004938504965976365 0.0 0.0
-0.04039090591690808 0.037510797494685555 0.0 -0.006836762017405018 0.0 0.0
-0.05459950892463028 0.051397713704798065 0.0 -0.008755049125313219 0.0 0.0
-0.0706939756747082 0.06716820822881431 0.0 -0.010587610089572763 0.0 0.0
-0.08846892440913845 0.08461497938988893 0.0 -0.012395563606485749 0.0 0.0
-0.10766527549661464 0.10347538396276157 0.0 -0.014138976871775233 0.0 0.0
-0.12784879448558728 0.1233110046089596 0.0 -0.01553695282242784 0.0 0.0
-0.14825041927704397 0.14334151997248323 0.0 -0.01611473504433314 0.0 0.0
-0.16744482849353792 0.1620898506145272 0.0 -0.016056586696453157 0.0 0.0
-0.18256976668120245 0.1765883690462262 0.0 -0.01880233418247068 0.0 0.0
-0.18790540062740185 0.18098601126451808 0.0 -0.03264118479776612 0.0 0.0
-0.17428257439100125 0.16667378894191298 0.0 -0.06255557737613404 0.0 0.0
-0.17428257439098688 0.166673788941905 0.0 0.06255557737616879 0.0 0.0
-0.1879054006273531 0.18098601126447722 0.0 0.03264118479781064 0.0 0.0
-0.18256976668112748 0.17658836904615427 0.0 0.0188023341825011 0.0 0.0
-0.16744482849344444 0.1620898506144366 0.0 0.016056586696456432 0.0 0.0
-0.14825041927693874 0.1433415199723811 0.0 0.016114735044329087 0.0 0.0
-0.1278487944854773 0.12331100460884947 0.0 0.015536952822425565 0.0 0.0
-0.10766527549650318 0.10347538396265765 0.0 0.014138976871772069 0.0 0.0
-0.0884689244090282 0.08461497938978102 0.0 0.012395563606479199 0.0 0.0
-0.07069397567460275 0.06716820822871306 0.0 0.01058761008956366 0.0 0.0
-0.054599508924536425 0.05139771370470747 0.0 0.008755049125298009 0.0 0.0
-0.04039090591682981 0.03751079749460473 0.0 0.006836762017390474 0.0 0.0
-0.028301978808068645 0.025735878022523195 0.0 0.004938504965963375 0.0 0.0
-0.01856665494598688 0.016295400304157326 0.0 0.003278265824161186 0.0 0.0
-0.011291581331522794 0.009297085247408798 0.0 0.0020305465691617397 0.0 0.0
-0.006341239044146747 0.004635750832960639 0.0 0.001224457981510163 0.0 0.0
-0.0033777548985572843 0.0020202985636230686 0.0 0.0008231701620194931 0.0 0.0
-0.0019254780248119455 0.0009095882161112012 0.0 0.0007634452413033399 0.0 0.0
-0.0012007643474929927 0.0005091739467508738 0.0 0.0008483390094106702 0.0 0.0
-0.0005718833798187446 0.0002272822718958345 0.0 0.0007338662741016022 0.0 0.0
-0.00013073880887534 4.326413049829912e-05 0.0 0.0002492258909642109 0.0 0.0
-0.00011084187764531794 5.8820980027463055e-05 0.0 -4.140033090621609e-05 0.0 0.0
-0.0005662073847148563 0.00024910740656758357 0.0 -0.00029687344798456916 0.0 0.0
-0.001306985118085413 0.0005520155995635267 0.0 -0.0003510848143816192 0.0 0.0
-0.002203346685057006 0.0010812280056433643 0.0 -0.0003300491717499465 0.0 0.0
-0.004010188418548832 0.002535059181141275 0.0 -0.00035991556886977305 0.0 0.0
-0.007474008756133077 0.005676087819974418 0.0 -0.000522236389818409 0.0 0.0
-0.01301769398321101 0.010958455960047964 0.0 -0.0008561704025338845 0.0 0.0
-0.021052099239698974 0.01872270162940337 0.0 -0.0013869574175537913 0.0 0.0
-0.031792012241535605 0.029159929069975554 0.0 -0.0021327842170179023 0.0 0.0
-0.045180505456616504 0.04221636379286098 0.0 -0.0030189936712362586 0.0 0.0
-0.06099424046490759 0.057683482314097034 0.0 -0.003929713064018681 0.0 0.0
-0.07896565075686174 0.07530142587561617 0.0 -0.004814652261908803 0.0 0.0
-0.0988147460443412 0.09479004603957097 0.0 -0.00567706482089414 0.0 0.0
-0.12017992139617112 0.1157807413224301 0.0 -0.00645803774567788 0.0 0.0
-0.14245558049929785 0.1376634332678135 0.0 -0.006985806876061984 0.0 0.0
-0.1646228747246602 0.159423763966978 0.0 -0.006892823286990701 0.0 0.0
-0.18515481123651722 0.17954185609755857 0.0 -0.0057810146419681185 0.0 0.0
-0.2018510987570772 0.1957695820044547 0.0 -0.004887214169348231 0.0 0.0
-0.21084731176451477 0.20402418679809387 0.0 -0.014183591716962263 0.0 0.0
-0.20253882647519791 0.19379696763057996 0.0 -0.05763494234461464 0.0 0.0
-0.2025388264751816 0.19379696763056398 0.0 0.05763494234462796 0.0 0.0
-0.2108473117644596 0.2040241867980397 0.0 0.014183591716980692 0.0 0.0
-0.2018510987569923 0.19576958200436412 0.0 0.0048872141693642734 0.0 0.0
-0.18515481123640992 0.17954185609744844 0.0 0.0057810146419652875 0.0 0.0
-0.16462287472454382 0.1594237639668563 0.0 0.006892823286988259 0.0 0.0
-0.14245558049917556 0.1376634332676936 0.0 0.0069858068760618175 0.0 0.0
-0.12017992139604665 0.1157807413223102 0.0 0.006458037745671774 0.0 0.0
-0.09881474604421987 0.09479004603945151 0.0 0.005677064820888922 0.0 0.0
-0.07896565075674467 0.07530142587550603 0.0 0.004814652261906971 0.0 0.0
-0.06099424046480383 0.057683482313998 0.0 0.003929713064009188 0.0 0.0
-0.045180505456531544 0.042216363792774825 0.0 0.003018993671230985 0.0 0.0
-0.03179201224146623 0.029159929069905832 0.0 0.0021327842170140165 0.0 0.0
-0.021052099239647355 0.0187227016293523 0.0 0.001386957417549628 0.0 0.0
-0.013017693983175465 0.01095845596001399 0.0 0.0008561704025321082 0.0 0.0
-0.007474008756112826 0.005676087819956432 0.0 0.0005222363898179649 0.0 0.0
-0.004010188418538858 0.0025350591811335033 0.0 0.0003599155688690514 0.0 0.0
-0.002203346685054593 0.0010812280056433643 0.0 0.00033004917174761506 0.0 0.0
-0.0013069851180842994 0.0005520155995633047 0.0 0.0003510848143802314 0.0 0.0
-0.0005662073847145441 0.0002491074065678611 0.0 0.0002968734479828483 0.0 0.0
-0.00011084187764550356 5.88209800273104e-05 0.0 4.140033090505035e-05 0.0 0.0
SCALARS Statev float 8
LOOKUP_TABLE default
0.0 0.014389954970062782 0.011174013113394487 -0.011554142412355195 0.00038012929896070736 -0.006452833354231353 0.0 0.0
0.0 0.0009800851498747735 0.00071136683381901 -0.0006154843083317106 -9.588252548729941e-05 0.0006220952614713785 0.0 0.0
0.0 3.795653180939212e-05 -4.37357439638098e-07 4.878397583829951e-07 -5.0482318744926464e-08 1.7394837931595323e-07 0.0 0.0
0.0 0.00038829098050553637 0.00029998739447051315 -0.00023830009719235252 -6.168729727816063e-05 -4.298016555660823e-05 0.0 0.0
0.0 0.001959416612867839 0.0016271379317584326 -0.0013691553969129996 -0.00025798253484543256 -0.00017513895695349749 0.0 0.0
0.0 0.005250536264720735 0.0047270794406178525 -0.004229301785628545 -0.0004977776549893083 -0.000387631927980094 0.0 0.0
0.0 0.011240041999424622 0.009961107949228692 -0.009311101829917512 -0.0006500061193111755 -0.0007139612278443989 0.0 0.0
0.0 0.020172295831846765 0.017718600059700006 -0.016960192556444077 -0.0007584075032559241 -0.0012203462163008847 0.0 0.0
0.0 0.03226261289083552 0.028191309745308743 -0.027327351722185884 -0.0008639580231228519 -0.0019396816534501297 0.0 0.0
0.0 0.047459584683380476 0.041332372375680305 -0.0403555952696932 -0.000976777105987109 -0.002812629015457655 0.0 0.0
0.0 0.06555199247048615 0.05693803834527645 -0.05584375283260142 -0.0010942855126750053 -0.0037270724824832856 0.0 0.0
0.0 0.08596032092353419 0.07475439632602529 -0.07354045985956623 -0.0012139364664590377 -0.0046209601303433805 0.0 0.0
0.0 0.10868389941615529 0.09451367854855043 -0.09317867099298796 -0.0013350075555623848 -0.005495869960800254 0.0 0.0
0.0 0.1333624044126843 0.11590635470271815 -0.1144473198038025 -0.0014590348989155567 -0.006337468357700396 0.0 0.0
0.0 0.15939212226532684 0.1384651618819038 -0.13687801383102724 -0.0015871480508764515 -0.007096205871198118 0.0 0.0
0.0 0.18593968589567614 0.16143911666301575 -0.15972118009040742 -0.001717936572608404 -0.007616990965566018 0.0 0.0
0.0 0.21172210995299795 0.18374688663707228 -0.18189987673488098 -0.00184700990219137 -0.007646693190087523 0.0 0.0
0.0 0.23513598541427286 0.20401593491841075 -0.2020456727827333 -0.001970262135677369 -0.006982792408585009 0.0 0.0
0.0 0.25430288610126517 0.22061152762661196 -0.21852272208912604 -0.002088805537485892 -0.006071661275821481 0.0 0.0
0.0 0.2661140123343705 0.23096791340947714 -0.22868589361770192 -0.0022820197917752787 -0.007460550332065384 0.0 0.0
0.0 0.26611401233435317 0.2309679134094618 -0.2286858936176868 -0.002282019791774952 0.007460550332076826 0.0 0.0
0.0 0.25430288610120466 0.22061152762655978 -0.21852272208907292 -0.0020888055374867383 0.006071661275845459 0.0 0.0
0.0 0.23513598541417313 0.20401593491832484 -0.20204567278264673 -0.0019702621356780586 0.00698279240859972 0.0 0.0
0.0 0.21172210995287988 0.18374688663696986 -0.18189987673477892 -0.0018470099021909232 0.007646693190095237 0.0 0.0
0.0 0.18593968589554577 0.1614391166629029 -0.15972118009029496 -0.0017179365726080363 0.007616990965556022 0.0 0.0
0.0 0.1593921222651944 0.13846516188178887 -0.13687801383091283 -0.0015871480508759857 0.0070962058711962015 0.0 0.0
0.0 0.13336240441255165 0.11590635470260321 -0.11444731980368804 -0.0014590348989151239 0.0063374683577009545 0.0 0.0
0.0 0.10868389941602329 0.09451367854843602 -0.09317867099287404 -0.0013350075555619853 0.00549586996079913 0.0 0.0
0.0 0.08596032092340788 0.07475439632591581 -0.07354045985945733 -0.0012139364664584176 0.004620960130334822 0.0 0.0
0.0 0.06555199247037377 0.056938038345178625 -0.05584375283250445 -0.0010942855126741611 0.0037270724824762765 0.0 0.0
0.0 0.047459584683289 0.04133237237560115 -0.04035559526961464 -0.000976777105986529 0.002812629015445794 0.0 0.0
0.0 0.032262612890765596 0.028191309745247486 -0.027327351722125276 -0.0008639580231222267 0.0019396816534472255 0.0 0.0
0.0 0.020172295831796465 0.017718600059655493 -0.016960192556400182 -0.0007584075032553034 0.0012203462162969742 0.0 0.0
0.0 0.011240041999388073 0.009961107949196232 -0.009311101829885583 -0.0006500061193106429 0.0007139612278423007 0.0 0.0
0.0 0.00525053626470052 0.004727079440599476 -0.0042293017856109925 -0.0004977776549884835 0.0003876319279783102 0.0 0.0
0.0 0.001959416612857985 0.0016271379317501526 -0.001369155396905627 -0.00025798253484452525 0.00017513895695260231 0.0 0.0
0.0 0.00038829098050300063 0.00029998739446913394 -0.0002383000971912263 -6.16872972779075e-05 4.2980165556342166e-05 0.0 0.0
0.0 3.795653180902092e-05 -4.373574394238188e-07 4.878397582192037e-07 -5.048231879534051e-08 -1.7394837931475166e-07 0.0 0.0
0.0 0.000980085149871106 0.0007113668338167891 -0.0006154843083296961 -9.588252548709363e-05 -0.00062209526146887 0.0 0.0
0.0 0.014389954970044125 0.011174013113382224 -0.011554142412341872 0.00038012929895964533 0.006452833354199824 0.0 0.0
0.0 0.010803683701384147 0.00786026132042248 -0.00835693948840446 0.0004966781679819775 -0.007538049872203285 0.0 0.0
0.0 2.0696584371371486e-05 1.6167513576915187e-05 -1.4544398059090532e-05 -1.6231155178246567e-06 1.0618953677550161e-05 0.0 0.0
0.0 8.307609993967838e-07 2.430204686911466e-07 -1.8390365781713144e-07 -5.911681087401756e-08 -8.54638675677544e-08 0.0 0.0
0.0 0.00016624293711592315 0.00012431241434192612 -9.791258539686092e-05 -2.6399828945065407e-05 -4.30673300233025e-05 0.0 0.0
0.0 0.0013420479341190263 0.0010770378480629405 -0.0008922281835179926 -0.00018480966454494823 -0.0002856948669202138 0.0 0.0
0.0 0.004091704694259756 0.0036868418366579996 -0.0032495951996344744 -0.0004372466370235246 -0.0007997450310659005 0.0 0.0
0.0 0.009403315359660554 0.008324827147639392 -0.00770836707073819 -0.0006164600769011992 -0.0016241164627816098 0.0 0.0
0.0 0.017472742932085436 0.015316110995715069 -0.014581037427722512 -0.0007350735679925568 -0.0028315728704263222 0.0 0.0
0.0 0.028418892190451996 0.024782362028758362 -0.023942129232613893 -0.000840232796144457 -0.004448760136260395 0.0 0.0
0.0 0.042127184244233035 0.036624771773112616 -0.03567702688254993 -0.0009477448905626821 -0.006334925931055053 0.0 0.0
0.0 0.05834860999513461 0.050629030343071174 -0.04957200334094882 -0.0010570270021223469 -0.008276709575258367 0.0 0.0
0.0 0.07687162413871437 0.0665756461467703 -0.06540863562446071 -0.001167010522309571 -0.010147516070079209 0.0 0.0
0.0 0.09717235606992236 0.08426621298173222 -0.08298772006816128 -0.0012784929135709305 -0.011993305021369808 0.0 0.0
0.0 0.11925594079188931 0.10344604315504166 -0.10205377888086722 -0.0013922642741744534 -0.013809776724510186 0.0 0.0
0.0 0.1426563441298512 0.12371561159288445 -0.12220695382381998 -0.0015086577690644183 -0.01545947658099694 0.0 0.0
0.0 0.16656299886244905 0.14444097754586271 -0.14281397542820612 -0.001627002117656612 -0.016640188597091845 0.0 0.0
0.0 0.18990640425760874 0.16468801577226136 -0.1629421790195298 -0.0017458367527315448 -0.016878724363558424 0.0 0.0
0.0 0.21123192558855353 0.18318410246307798 -0.1813188808700705 -0.0018652215930074164 -0.015889479810381562 0.0 0.0
0.0 0.2284598320916456 0.19814054317959218 -0.19613979212762642 -0.0020007510519656786 -0.01406208214044338 0.0 0.0
0.0 0.23879497680921533 0.2071402826077487 -0.20503561273846221 -0.0021046698692864644 -0.011219900821799338 0.0 0.0
0.0 0.23879497680920442 0.20714028260773842 -0.205035612738453 -0.002104669869285588 0.011219900821826733 0.0 0.0
0.0 0.2284598320916026 0.1981405431795536 -0.196139792127589 -0.00200075105196455 0.014062082140489285 0.0 0.0
0.0 0.21123192558847412 0.18318410246300817 -0.18131888087000156 -0.0018652215930065256 0.015889479810412853 0.0 0.0
0.0 0.18990640425750785 0.1646880157721732 -0.16294217901944286 -0.0017458367527301646 0.016878724363573475 0.0 0.0
0.0 0.16656299886233097 0.14444097754576074 -0.1428139754281044 -0.0016270021176562758 0.016640188597081353 0.0 0.0
0.0 0.14265634412972952 0.12371561159277922 -0.12220695382371506 -0.0015086577690641295 0.015459476580989995 0.0 0.0
0.0 0.1192559407917697 0.10344604315493783 -0.10205377888076415 -0.0013922642741736242 0.013809776724506506 0.0 0.0
0.0 0.09717235606980583 0.08426621298163095 -0.08298772006806106 -0.0012784929135698894 0.011993305021363226 0.0 0.0
0.0 0.07687162413860538 0.0665756461466758 -0.06540863562436687 -0.0011670105223088908 0.01014751607006574 0.0 0.0
0.0 0.05834860999503406 0.05062903034298413 -0.04957200334086211 -0.0010570270021220036 0.008276709575246097 0.0 0.0
0.0 0.042127184244150295 0.036624771773040944 -0.035677026882478695 -0.0009477448905622291 0.0063349259310373045 0.0 0.0
0.0 0.028418892190386777 0.024782362028701148 -0.023942129232557098 -0.0008402327961440385 0.004448760136252727 0.0 0.0
0.0 0.01747274293203706 0.015316110995672788 -0.014581037427680554 -0.0007350735679922372 0.002831572870417877 0.0 0.0
0.0 0.009403315359631015 0.008324827147613031 -0.007708367070712594 -0.0006164600769004325 0.0016241164627767276 0.0 0.0
0.0 0.004091704694244103 0.0036868418366442146 -0.0032495951996215655 -0.00043724663702264944 0.0007997450310627114 0.0 0.0
0.0 0.0013420479341116906 0.0010770378480571914 -0.0008922281835130497 -0.00018480966454414202 0.0002856948669188879 0.0 0.0
0.0 0.00016624293711488717 0.00012431241434163415 -9.791258539660011e-05 -2.6399828945033928e-05 4.306733002310014e-05 0.0 0.0
0.0 8.307609992722582e-07 2.4302046878332894e-07 -1.8390365788473965e-07 -5.9116810898591735e-08 8.546386758672228e-08 0.0 0.0
0.0 2.0696584371020784e-05 1.6167513576937477e-05 -1.4544398059097147e-05 -1.6231155178403363e-06 -1.0618953677588217e-05 0.0 0.0
0.0 0.010803683701361602 0.007860261320407713 -0.008356939488389047 0.0004966781679813293 0.007538049872176013 0.0 0.0
0.0 0.008262816139081938 0.005698751773567751 -0.006230392022047965 0.000531640248480212 -0.006672503560909956 0.0 0.0
0.0 0.0 0.0 0.0 0.0 0.0 0.0 0.0
0.0 0.0 0.0 0.0 0.0 0.0 0.0 0.0
0.0 4.1234817419918596e-05 3.4079748639454604e-05 -2.6689597975342085e-05 -7.390150664112541e-06 -2.1810926814527742e-05 0.0 0.0
0.0 0.0007911916047992643 0.0006423169513886223 -0.0005240586840636895 -0.00011825826732493243 -0.0003012165655646325 0.0 0.0
0.0 0.003193242597903266 0.0027033553380631284 -0.0023428955030498195 -0.0003604598350133089 -0.0010109585160071074 0.0 0.0
0.0 0.007631791742658854 0.006720287690744053 -0.006147172776103863 -0.0005731149146401908 -0.002221864745068303 0.0 0.0
0.0 0.014797694173544183 0.012902244493799547 -0.0121969955409617 -0.0007052489528378398 -0.004000395350274345 0.0 0.0
0.0 0.02459302200513993 0.021321248971435964 -0.020509473681285303 -0.0008117752901506625 -0.006322481311749183 0.0 0.0
0.0 0.03682011155485115 0.03183853117844419 -0.03092462908626313 -0.0009139020921810405 -0.008988255153580961 0.0 0.0
0.0 0.05124201207081274 0.04423249627293052 -0.04321736882006779 -0.0010151274528627265 -0.011728886871871924 0.0 0.0
0.0 0.06754307732550141 0.05831047724094262 -0.05719439541501522 -0.0011160818259273774 -0.014382389851964368 0.0 0.0
0.0 0.08571268189207423 0.07391481327872118 -0.07269703312112763 -0.001217780157593521 -0.01697914861954827 0.0 0.0
0.0 0.10519941351983884 0.09085954698199608 -0.08953871868506394 -0.001320828296932079 -0.019548941233361213 0.0 0.0
0.0 0.12591400451522128 0.1088301783313361 -0.10740504928131334 -0.0014251290500227121 -0.021924125579127835 0.0 0.0
0.0 0.14724852922924922 0.12731636862104825 -0.12578521031610765 -0.0015311583049405764 -0.02368171910957992 0.0 0.0
0.0 0.16820649591289344 0.14552852555322024 -0.14388813387446464 -0.0016403916787555508 -0.02425551499903781 0.0 0.0
0.0 0.18740107098010114 0.1622686446426148 -0.1605108403899797 -0.0017578042526350936 -0.023213339692559093 0.0 0.0
0.0 0.20287679512048362 0.17581854454644158 -0.17394591861892122 -0.0018726259275202851 -0.02007055735834312 0.0 0.0
0.0 0.21240572503826896 0.18424720392720256 -0.18229084238695614 -0.0019563615402463227 -0.013812721859663583 0.0 0.0
0.0 0.21240572503825494 0.18424720392718963 -0.18229084238694337 -0.001956361540246191 0.013812721859706547 0.0 0.0
0.0 0.20287679512043783 0.1758185445464 -0.17394591861887976 -0.0018726259275203432 0.020070557358406814 0.0 0.0
0.0 0.18740107098002534 0.16226864464254762 -0.1605108403899124 -0.0017578042526350574 0.023213339692603807 0.0 0.0
0.0 0.16820649591280357 0.14552852555314144 -0.14388813387438623 -0.0016403916787552794 0.02425551499905664 0.0 0.0
0.0 0.14724852922914888 0.12731636862096116 -0.12578521031602174 -0.0015311583049393625 0.023681719109568664 0.0 0.0
0.0 0.1259140045151169 0.10883017833124499 -0.10740504928122376 -0.0014251290500212608 0.021924125579121156 0.0 0.0
0.0 0.10519941351973253 0.09085954698190349 -0.08953871868497222 -0.0013208282969312801 0.01954894123335644 0.0 0.0
0.0 0.085712681891973 0.07391481327863311 -0.07269703312104053 -0.001217780157592521 0.01697914861953969 0.0 0.0
0.0 0.06754307732540496 0.058310477240859374 -0.057194395414932875 -0.001116081825926524 0.014382389851945872 0.0 0.0
0.0 0.05124201207072612 0.044232496272855235 -0.043217368819993385 -0.0010151274528618342 0.011728886871853942 0.0 0.0
0.0 0.03682011155477859 0.03183853117838145 -0.03092462908620098 -0.0009139020921804623 0.008988255153558963 0.0 0.0
0.0 0.024593022005083887 0.02132124897138716 -0.020509473681237105 -0.0008117752901500483 0.00632248131173631 0.0 0.0
0.0 0.014797694173502938 0.012902244493763516 -0.012196995540926327 -0.0007052489528371833 0.004000395350262894 0.0 0.0
0.0 0.007631791742631244 0.00672028769071982 -0.006147172776080314 -0.000573114914639503 0.0022218647450606807 0.0 0.0
0.0 0.003193242597888218 0.002703355338050585 -0.002342895503038267 -0.0003604598350123177 0.0010109585160020902 0.0 0.0
0.0 0.0007911916047941618 0.0006423169513847984 -0.000524058684060436 -0.00011825826732436221 0.00030121656556268765 0.0 0.0
0.0 4.123481741956973e-05 3.4079748639681006e-05 -2.6689597975510608e-05 -7.390150664170417e-06 2.1810926814618056e-05 0.0 0.0
0.0 0.0 0.0 0.0 0.0 0.0 0.0 0.0
0.0 0.0 0.0 0.0 0.0 0.0 0.0 0.0
0.0 0.00826281613906217 0.0056987517735542365 -0.006230392022033885 0.0005316402484796413 0.0066725035608876234 0.0 0.0
0.0 0.006250640364598481 0.004140955732976214 -0.0046491552332208145 0.0005081995002445997 -0.00532044868758444 0.0 0.0
0.0 0.0 0.0 0.0 0.0 0.0 0.0 0.0
0.0 0.0 0.0 0.0 0.0 0.0 0.0 0.0
0.0 7.584229200558347e-06 4.247907602577737e-06 -3.315269901779333e-06 -9.326377007983889e-07 -4.357164715703788e-06 0.0 0.0
0.0 0.0004106944138050342 0.0003254413651944889 -0.0002625383464819148 -6.290301871257388e-05 -0.00024365889135969385 0.0 0.0
0.0 0.002244194373417388 0.0018471928909356266 -0.0015717319189246005 -0.0002754609720110259 -0.0010469367296449485 0.0 0.0
0.0 0.005993742324116655 0.005169527672514653 -0.004657719529072819 -0.0005118081434418359 -0.0025138166346378417 0.0 0.0
0.0 0.012179174327680602 0.010509294318039129 -0.009841655309224675 -0.0006676390088144565 -0.0047199617117863624 0.0 0.0
0.0 0.02078799987513895 0.01784761661789945 -0.017070524724025454 -0.0007770918938740027 -0.007552498706584593 0.0 0.0
0.0 0.03151570216040595 0.027017280722069582 -0.02614258625629975 -0.0008746944657697939 -0.01077837973791796 0.0 0.0
0.0 0.044110034660346735 0.03778980320224791 -0.036821436292315476 -0.0009683669099324202 -0.014085950935951625 0.0 0.0
0.0 0.058347836562184216 0.04999153765752955 -0.04893101812088574 -0.0010605195366438077 -0.017309033580161445 0.0 0.0
0.0 0.0740730975889211 0.06350630006422045 -0.06235396979306108 -0.0011523302711593689 -0.02047863297795133 0.0 0.0
0.0 0.09117366656435658 0.07820168852688933 -0.07695690219975224 -0.0012447863271370773 -0.023577563408478986 0.0 0.0
0.0 0.10934160519916018 0.09385235189818791 -0.09251537383239251 -0.0013369780657953676 -0.02644886998935725 0.0 0.0
0.0 0.12790437959161707 0.11007908048224019 -0.10864861361638636 -0.00143046686585376 -0.028704726949814543 0.0 0.0
0.0 0.1464844878878886 0.12623567883272324 -0.12470582463382429 -0.001529854198898908 -0.029705940450370977 0.0 0.0
0.0 0.16365926145604193 0.14127288876331173 -0.13963713932555927 -0.001635749437752439 -0.028686824682154912 0.0 0.0
0.0 0.17770144200201832 0.15370456363648372 -0.15196706757836032 -0.001737496058123343 -0.024538846667881458 0.0 0.0
0.0 0.18677287292242056 0.16189901478158694 -0.16008615513830712 -0.0018128596432798727 -0.01589163980426985 0.0 0.0
0.0 0.18677287292240674 0.1618990147815741 -0.16008615513829377 -0.0018128596432804079 0.015891639804324516 0.0 0.0
0.0 0.17770144200198346 0.1537045636364502 -0.15196706757832731 -0.0017374960581227421 0.024538846667955673 0.0 0.0
0.0 0.16365926145598794 0.14127288876326127 -0.1396371393255106 -0.0016357494377505694 0.028686824682207943 0.0 0.0
0.0 0.14648448788781396 0.12623567883265682 -0.12470582463375832 -0.0015298541988984756 0.029705940450394867 0.0 0.0
0.0 0.12790437959152925 0.11007908048216426 -0.10864861361631079 -0.001430466865853451 0.028704726949803708 0.0 0.0
0.0 0.10934160519906608 0.09385235189810645 -0.09251537383231159 -0.0013369780657948378 0.02644886998934659 0.0 0.0
0.0 0.09117366656426407 0.07820168852680899 -0.07695690219967251 -0.0012447863271364446 0.02357756340846874 0.0 0.0
0.0 0.07407309758883457 0.06350630006414511 -0.06235396979298671 -0.0011523302711583926 0.0204786329779394 0.0 0.0
0.0 0.058347836562101796 0.04999153765745861 -0.04893101812081503 -0.00106051953664358 0.01730903358013955 0.0 0.0
0.0 0.04411003466027248 0.03778980320218395 -0.03682143629225207 -0.0009683669099318664 0.014085950935928526 0.0 0.0
0.0 0.031515702160342815 0.027017280722015775 -0.02614258625624665 -0.0008746944657690996 0.010778379737891815 0.0 0.0
0.0 0.02078799987508751 0.017847616617855076 -0.017070524723981677 -0.0007770918938733981 0.007552498706567961 0.0 0.0
0.0 0.012179174327642601 0.010509294318006563 -0.009841655309192537 -0.0006676390088140208 0.004719961711771352 0.0 0.0
0.0 0.005993742324095261 0.0051695276724963305 -0.004657719529055485 -0.0005118081434408472 0.0025138166346296547 0.0 0.0
0.0 0.002244194373405387 0.0018471928909263365 -0.0015717319189163057 -0.00027546097201003073 0.0010469367296396016 0.0 0.0
0.0 0.00041069441380162824 0.00032544136519247434 -0.0002625383464802009 -6.290301871227345e-05 0.0002436588913580789 0.0 0.0
0.0 7.5842292002915405e-06 4.247907602853786e-06 -3.315269901993083e-06 -9.326377008606936e-07 4.357164715977961e-06 0.0 0.0
0.0 0.0 0.0 0.0 0.0 0.0 0.0 0.0
0.0 0.0 0.0 0.0 0.0 0.0 0.0 0.0
0.0 0.0062506403645809705 0.004140955732964548 -0.004649155233208471 0.0005081995002439214 0.0053204486875668665 0.0 0.0
0.0 0.004590404553299878 0.0029355863040442685 -0.0033848434378082708 0.000449257133764003 -0.003985368731784254 0.0 0.0
0.0 0.0 0.0 0.0 0.0 0.0 0.0 0.0
0.0 0.0 0.0 0.0 0.0 0.0 0.0 0.0
0.0 1.137742256043754e-06 5.859517388020558e-07 -4.483201261589633e-07 -1.3763161264309216e-07 -8.612124203766671e-07 0.0 0.0
0.0 0.00018289564618818066 0.00013299892132944915 -0.00010671651607456415 -2.628240525488498e-05 -0.00015336452675630708 0.0 0.0
0.0 0.001436580611510809 0.0011414757706620319 -0.0009537366837898104 -0.0001877390868722215 -0.0009518139573545583 0.0 0.0
0.0 0.004557480587480425 0.003721491855033394 -0.003290549650910425 -0.0004309422041229681 -0.0025118109762961136 0.0 0.0
0.0 0.009689180487690253 0.008165844564888124 -0.007549461643695706 -0.0006163829211924173 -0.0049492775787572454 0.0 0.0
0.0 0.017028700152737424 0.014400592867051643 -0.01366581697180059 -0.0007347758952510598 -0.008132470223025825 0.0 0.0
0.0 0.026249467945208663 0.022203066342701062 -0.021373864920980784 -0.0008292014217202704 -0.01170300800977895 0.0 0.0
0.0 0.03702172068739532 0.03134327155730515 -0.030427231625911114 -0.0009160399313940639 -0.015358594195812755 0.0 0.0
0.0 0.04912793003207404 0.041662714047810384 -0.04066333517539463 -0.0009993788724157254 -0.01892660350394912 0.0 0.0
0.0 0.06254975890894124 0.05308103220937346 -0.0519995896970438 -0.0010814425123296515 -0.02243933865872681 0.0 0.0
0.0 0.07699515841300461 0.06552364679452452 -0.06436056380641825 -0.0011630829881062684 -0.025890460005393533 0.0 0.0
0.0 0.09250466912432988 0.0788387267633184 -0.0775948208769923 -0.0012439058863261197 -0.02908394316529058 0.0 0.0
0.0 0.10873152758418814 0.09275703106994646 -0.09143183969224147 -0.0013251913777049505 -0.031661315979627506 0.0 0.0
0.0 0.12474270011211794 0.10680877782559475 -0.10539807039663832 -0.0014107074289563973 -0.03305471373904717 0.0 0.0
0.0 0.13989183837016916 0.1201872376183232 -0.1186841353512243 -0.001503102267098873 -0.03226598491504702 0.0 0.0
0.0 0.15271693234033154 0.13167973637505936 -0.13008496741499959 -0.0015947689600597356 -0.02768196235243185 0.0 0.0
0.0 0.16157609082564098 0.13985588210081892 -0.1381877653275936 -0.001668116773225222 -0.017611396762591304 0.0 0.0
0.0 0.16157609082563282 0.1398558821008092 -0.1381877653275852 -0.0016681167732238802 0.01761139676265081 0.0 0.0
0.0 0.1527169323403018 0.13167973637502872 -0.13008496741497033 -0.0015947689600583803 0.027681962352508027 0.0 0.0
0.0 0.13989183837011457 0.12018723761827226 -0.11868413535117298 -0.0015031022670992842 0.032265984915102255 0.0 0.0
0.0 0.12474270011205224 0.10680877782553563 -0.10539807039657914 -0.0014107074289564853 0.033054713739072455 0.0 0.0
0.0 0.10873152758411453 0.0927570310698826 -0.09143183969217815 -0.0013251913777044975 0.031661315979617535 0.0 0.0
0.0 0.09250466912425231 0.07883872676325136 -0.07759482087692526 -0.001243905886326145 0.029083943165279097 0.0 0.0
0.0 0.07699515841292853 0.0655236467944583 -0.06436056380635286 -0.001163082988105437 0.025890460005382965 0.0 0.0
0.0 0.062549758908866 0.053081032209308175 -0.051999589696978585 -0.00108144251232955 0.02243933865871385 0.0 0.0
0.0 0.04912793003200286 0.04166271404774931 -0.04066333517533416 -0.000999378872415129 0.018926603503926467 0.0 0.0
0.0 0.037021720687331616 0.0313432715572508 -0.030427231625857632 -0.0009160399313931692 0.01535859419578699 0.0 0.0
0.0 0.02624946794515276 0.02220306634265442 -0.021373864920935074 -0.0008292014217193498 0.011703008009749228 0.0 0.0
0.0 0.01702870015269314 0.01440059286701419 -0.013665816971763495 -0.0007347758952506883 0.008132470223006168 0.0 0.0
0.0 0.009689180487658815 0.008165844564861986 -0.0075494616436702425 -0.0006163829211917412 0.0049492775787414005 0.0 0.0
0.0 0.00455748058746195 0.0037214918550184614 -0.0032905496508963874 -0.0004309422041220745 0.002511810976286899 0.0 0.0
0.0 0.0014365806115029943 0.001141475770656382 -0.0009537366837848833 -0.00018773908687149787 0.0009518139573496715 0.0 0.0
0.0 0.0001828956461868309 0.00013299892132905418 -0.00010671651607423422 -2.6282405254819902e-05 0.0001533645267557655 0.0 0.0
0.0 1.1377422558889922e-06 5.859517389360999e-07 -4.483201262617684e-07 -1.3763161267432914e-07 8.612124205775897e-07 0.0 0.0
0.0 0.0 0.0 0.0 0.0 0.0 0.0 0.0
0.0 0.0 0.0 0.0 0.0 0.0 0.0 0.0
0.0 0.004590404553285384 0.0029355863040348425 -0.003384843437798161 0.00044925713376331666 0.003985368731770524 0.0 0.0
0.0 0.00319942259404236 0.001986199917579061 -0.0023537927782553434 0.0003675928606762821 -0.002829097128870048 0.0 0.0
0.0 0.0 0.0 0.0 0.0 0.0 0.0 0.0
0.0 0.0 0.0 0.0 0.0 0.0 0.0 0.0
0.0 1.2459832782016668e-06 -8.711175530045244e-08 6.722946238267231e-08 1.9882292917777628e-08 2.0432140011233723e-07 0.0 0.0
0.0 8.072793696265154e-05 4.689920418793934e-05 -3.753604763405002e-05 -9.36315655388932e-06 -8.119016669936103e-05 0.0 0.0
0.0 0.0008123466643384467 0.0006130373901692035 -0.0005043738637056995 -0.00010866352646350366 -0.0007563462764747543 0.0 0.0
0.0 0.00311069620504509 0.002452488605115659 -0.00212188681278672 -0.0003306017923289397 -0.002312588041279325 0.0 0.0
0.0 0.007323537653563458 0.005932109048674998 -0.005390147780340341 -0.0005419612683346543 -0.004758479937156187 0.0 0.0
0.0 0.0133911227542352 0.011018160808914474 -0.01033786780271006 -0.0006802930062044134 -0.008033126265264076 0.0 0.0
0.0 0.021043485513894157 0.017439721532586702 -0.016664095318358597 -0.0007756262142281036 -0.011751763593230382 0.0 0.0
0.0 0.029961377373485417 0.024938202972016953 -0.02408188031386669 -0.0008563226581502598 -0.015531528131986695 0.0 0.0
0.0 0.03996096972835031 0.033370964440488364 -0.032439420561298546 -0.0009315438791898251 -0.01922525642907924 0.0 0.0
0.0 0.05096993728891071 0.04269022328355762 -0.04168645294129291 -0.0010037703422646946 -0.022868348384381485 0.0 0.0
0.0 0.06295824250248136 0.05287142652691487 -0.0517968536804426 -0.0010745728464722788 -0.026440111644426164 0.0 0.0
0.0 0.07584784074456215 0.06383600642961365 -0.06269110058990106 -0.0011449058397126116 -0.02977164918027108 0.0 0.0
0.0 0.0891517156565762 0.07540536811116713 -0.07419155263220828 -0.0012138154789588368 -0.032536645953091324 0.0 0.0
0.0 0.10291815422115194 0.0872780474777266 -0.08599458564942664 -0.001283461828299948 -0.03421394662313792 0.0 0.0
0.0 0.11619583419535351 0.09896461226174086 -0.09760508425805096 -0.0013595280036898826 -0.03383199997879202 0.0 0.0
0.0 0.1277449158726142 0.10959602078962949 -0.10815427011223389 -0.0014417506773955276 -0.029486664118684787 0.0 0.0
0.0 0.1365599784316879 0.11790679433579809 -0.11638929676819468 -0.001517497567603339 -0.019010500348736546 0.0 0.0
0.0 0.13655997843168288 0.11790679433579127 -0.11638929676818777 -0.0015174975676034708 0.019010500348798656 0.0 0.0
0.0 0.1277449158725909 0.10959602078960422 -0.10815427011220806 -0.0014417506773961597 0.02948666411876405 0.0 0.0
0.0 0.11619583419531462 0.09896461226170161 -0.0976050842580126 -0.001359528003689032 0.03383199997884925 0.0 0.0
0.0 0.1029181542211055 0.08727804747768272 -0.08599458564938414 -0.0012834618282985346 0.034213946623164834 0.0 0.0
0.0 0.0891517156565119 0.07540536811111163 -0.0741915526321532 -0.0012138154789584211 0.032536645953080146 0.0 0.0
0.0 0.0758478407444969 0.06383600642955699 -0.06269110058984557 -0.0011449058397114097 0.029771649180256703 0.0 0.0
0.0 0.06295824250241977 0.05287142652686122 -0.05179685368038973 -0.001074572846471502 0.02644011164441333 0.0 0.0
0.0 0.05096993728885209 0.042690223283506495 -0.041686452941242874 -0.00100377034226365 0.022868348384369373 0.0 0.0
0.0 0.039960969728290566 0.03337096444043769 -0.03243942056124867 -0.0009315438791890122 0.019225256429056245 0.0 0.0
0.0 0.029961377373435162 0.02493820297197502 -0.024081880313825223 -0.0008563226581498033 0.015531528131962053 0.0 0.0
0.0 0.021043485513849883 0.017439721532550773 -0.016664095318323066 -0.0007756262142276996 0.011751763593201101 0.0 0.0
0.0 0.013391122754202523 0.011018160808887338 -0.010337867802683602 -0.0006802930062037292 0.008033126265245378 0.0 0.0
0.0 0.0073235376535399545 0.005932109048655853 -0.005390147780322112 -0.0005419612683337418 0.004758479937142516 0.0 0.0
0.0 0.0031106962050294175 0.0024524886051033937 -0.002121886812775538 -0.00033060179232785505 0.0023125880412692714 0.0 0.0
0.0 0.0008123466643318194 0.0006130373901647677 -0.0005043738637019524 -0.00010866352646281526 0.0007563462764696135 0.0 0.0
0.0 8.072793696095873e-05 4.6899204187434565e-05 -3.753604763361914e-05 -9.363156553815437e-06 8.119016669835789e-05 0.0 0.0
0.0 1.245983277765114e-06 -8.711175526903953e-08 6.722946235833695e-08 1.9882292910690027e-08 -2.0432140003799813e-07 0.0 0.0
0.0 0.0 0.0 0.0 0.0 0.0 0.0 0.0
0.0 0.0 0.0 0.0 0.0 0.0 0.0 0.0
0.0 0.0031994225940314034 0.001986199917572215 -0.002353792778247762 0.00036759286067554795 0.0028290971288601483 0.0 0.0
0.0 0.0020954097110630543 0.0012437741778369529 -0.0015159801348744318 0.00027220595703747875 -0.0018717567915012769 0.0 0.0
0.0 6.808126749334917e-07 -1.0371231226033877e-08 1.1382208934150606e-08 -1.010977708115995e-09 1.3495275768488005e-07 0.0 0.0
0.0 3.7869285625906513e-07 -1.0853022555903305e-08 7.76318668522007e-09 3.0898358706842675e-09 7.416418593090768e-08 0.0 0.0
0.0 1.343535810957597e-06 -6.745450613659108e-08 5.1836617700734505e-08 1.5617888435866596e-08 2.5068220686766373e-07 0.0 0.0
0.0 4.328368012415431e-05 2.1121421008102607e-05 -1.679393500739538e-05 -4.3274860007072375e-06 -5.443308231522103e-05 0.0 0.0
0.0 0.00044194033730997383 0.0002681917262636942 -0.00021817492278596596 -5.001680347772838e-05 -0.0004986544755439903 0.0 0.0
0.0 0.001931231272878789 0.0013980637439440183 -0.0011815637852125456 -0.00021649995873147338 -0.0018965236783282703 0.0 0.0
0.0 0.005077864107154971 0.0038904289360860286 -0.003453114745222921 -0.0004373141908631056 -0.004210172861364011 0.0 0.0
0.0 0.009864997023567959 0.007768090424757323 -0.0071655866199182945 -0.0006025038048390225 -0.007300673028375577 0.0 0.0
0.0 0.015929181645283574 0.012775297269526274 -0.012066661599178246 -0.0007086356703480253 -0.010891942671291155 0.0 0.0
0.0 0.022981342197661618 0.018622680400543275 -0.017836740002376374 -0.0007859403981668986 -0.014592171828286944 0.0 0.0
0.0 0.030848271362257984 0.025169183283592092 -0.024314952119876672 -0.0008542311637154176 -0.018192436535346176 0.0 0.0
0.0 0.039507291243482096 0.03238878863234002 -0.03147183570543035 -0.0009169529269096617 -0.02173139047180005 0.0 0.0
0.0 0.04890471978394824 0.04030313653530907 -0.03932636815335977 -0.000976768381949291 -0.02522174644869208 0.0 0.0
0.0 0.05907769378778109 0.04890054564782746 -0.04786468460929226 -0.0010358610385352062 -0.028500249505481835 0.0 0.0
0.0 0.06983001644864392 0.05808422751310623 -0.05698935094172249 -0.0010948765713837798 -0.031242930757018283 0.0 0.0
0.0 0.08087916958059924 0.06769409349485461 -0.06654578996192292 -0.0011483035329316405 -0.033077858434335035 0.0 0.0
0.0 0.09205619881647611 0.07756959217873623 -0.07636608635767572 -0.001203505821060509 -0.03326563768283904 0.0 0.0
0.0 0.10276495697358597 0.08729152617508573 -0.08601801378808824 -0.0012735123869974585 -0.029839475692351687 0.0 0.0
0.0 0.11172262440475189 0.09583155908436441 -0.09447610266774403 -0.0013554564166203687 -0.020059967765043426 0.0 0.0
0.0 0.11172262440474866 0.09583155908435834 -0.09447610266773887 -0.0013554564166194214 0.02005996776510107 0.0 0.0
0.0 0.10276495697356956 0.08729152617506444 -0.08601801378806803 -0.0012735123869964955 0.02983947569242941 0.0 0.0
0.0 0.09205619881643953 0.07756959217869874 -0.0763660863576375 -0.0012035058210611558 0.033265637682894096 0.0 0.0
0.0 0.08087916958055565 0.06769409349481353 -0.06654578996188185 -0.0011483035329317025 0.0330778584343563 0.0 0.0
0.0 0.06983001644859552 0.058084227513064426 -0.0569893509416811 -0.0010948765713833185 0.031242930757008427 0.0 0.0
0.0 0.059077693787728335 0.048900545647782505 -0.047864684609247636 -0.0010358610385348653 0.028500249505465557 0.0 0.0
0.0 0.04890471978389741 0.040303136535265405 -0.03932636815331652 -0.000976768381948874 0.025221746448678584 0.0 0.0
0.0 0.03950729124343589 0.03238878863230039 -0.031471835705390944 -0.000916952926909427 0.021731390471786818 0.0 0.0
0.0 0.030848271362213853 0.025169183283555364 -0.02431495211984046 -0.0008542311637149184 0.018192436535324576 0.0 0.0
0.0 0.022981342197620214 0.018622680400509607 -0.01783674000234327 -0.0007859403981663223 0.014592171828262016 0.0 0.0
0.0 0.015929181645245698 0.012775297269496944 -0.012066661599149361 -0.0007086356703475771 0.010891942671261545 0.0 0.0
0.0 0.00986499702353821 0.007768090424733973 -0.007165586619895375 -0.0006025038048385983 0.007300673028356199 0.0 0.0
0.0 0.005077864107135319 0.003890428936070932 -0.0034531147452087586 -0.0004373141908621714 0.004210172861349914 0.0 0.0
0.0 0.0019312312728681797 0.0013980637439363194 -0.001181563785205729 -0.00021649995873058948 0.0018965236783195507 0.0 0.0
0.0 0.00044194033730629004 0.00026819172626186963 -0.00021817492278447572 -5.001680347739369e-05 0.0004986544755407165 0.0 0.0
0.0 4.3283680122840966e-05 2.1121421008037124e-05 -1.679393500733688e-05 -4.327486000700256e-06 5.4433082315042646e-05 0.0 0.0
0.0 1.343535810551308e-06 -6.74545061154224e-08 5.1836617684484416e-08 1.561788843093987e-08 -2.5068220678900275e-07 0.0 0.0
0.0 3.786928558295237e-07 -1.0853022544114866e-08 7.763186676628835e-09 3.0898358674860974e-09 -7.416418584570931e-08 0.0 0.0
0.0 6.808126741997652e-07 -1.0371231215047161e-08 1.1382208922371451e-08 -1.0109777073237724e-09 -1.34952757536912e-07 0.0 0.0
0.0 0.0020954097110541512 0.0012437741778318027 -0.0015159801348685576 0.0002722059570367542 0.0018717567914935933 0.0 0.0
0.0 0.0012328766578383857 0.0006870438870078121 -0.0008639504119231096 0.00017690652491529732 -0.001105424633155728 0.0 0.0
0.0 1.541970572196539e-06 5.274395867785731e-08 -5.189939996191784e-08 -8.445587159408178e-10 -1.2296005726881258e-06 0.0 0.0
0.0 6.498902357707286e-07 -4.367816289142002e-09 3.268830555790557e-09 1.0989857333519724e-09 9.552457491216647e-08 0.0 0.0
0.0 1.703575005018621e-06 1.7481123004487348e-07 -1.3811267063750887e-07 -3.669855940736246e-08 -1.2217824162829258e-06 0.0 0.0
0.0 3.464724440500884e-05 1.2058866991182608e-05 -9.54097926243252e-06 -2.5178877287501028e-06 -4.875642155328237e-05 0.0 0.0
0.0 0.00023642461359958995 0.00010559863446999312 -8.522143329332483e-05 -2.037720117666825e-05 -0.00031728376705639157 0.0 0.0
0.0 0.0010656058821005559 0.0006293572756155277 -0.0005202137353398795 -0.0001091435402756479 -0.0013354253913922037 0.0 0.0
0.0 0.003100933266521991 0.0021230659898499775 -0.0018276049063376024 -0.00029546108351237476 -0.0033198515351641287 0.0 0.0
0.0 0.00652815821321058 0.004746824895391603 -0.004263726785598778 -0.00048309810979282165 -0.006017094107751871 0.0 0.0
0.0 0.010901831120490972 0.008289587202198707 -0.007677344373240927 -0.0006122428289577797 -0.009172608177523502 0.0 0.0
0.0 0.016164192645328913 0.012461372448508753 -0.011765576539395676 -0.0006957959091130739 -0.012497160184217518 0.0 0.0
0.0 0.02186302277744006 0.017121582970608687 -0.016361478661716028 -0.0007601043088926597 -0.015779142652898596 0.0 0.0
0.0 0.02812415909858906 0.022247039180787714 -0.02143204915316102 -0.0008149900276266917 -0.019007691635999018 0.0 0.0
0.0 0.03499132567455875 0.027887745373206145 -0.027023609251136588 -0.000864136122069553 -0.022185728956121097 0.0 0.0
0.0 0.04252413642668833 0.03409813153614285 -0.033186761717960825 -0.0009113698181820116 -0.02521971850832105 0.0 0.0
0.0 0.05054356807284113 0.040872580229380014 -0.03991259698811245 -0.0009599832412675524 -0.02780511628106892 0.0 0.0
0.0 0.05904122637907699 0.04814725404097323 -0.047143061627471144 -0.001004192413502075 -0.029559483595900986 0.0 0.0
0.0 0.06789955613561499 0.05600319958933257 -0.054968603720991015 -0.0010345958683415277 -0.03023926849573986 0.0 0.0
0.0 0.07722012446685234 0.06460123266485127 -0.0635202114771965 -0.001081021187654737 -0.028403078716158953 0.0 0.0
0.0 0.08626286852861165 0.0733815406171327 -0.07221071444548867 -0.0011708261716440922 -0.020649201364941527 0.0 0.0
0.0 0.08626286852861126 0.07338154061712919 -0.07221071444548469 -0.0011708261716445539 0.020649201364992043 0.0 0.0
0.0 0.07722012446684709 0.06460123266483916 -0.06352021147718426 -0.0010810211876549057 0.028403078716231663 0.0 0.0
0.0 0.06789955613559946 0.05600319958931178 -0.0549686037209707 -0.0010345958683410765 0.030239268495794433 0.0 0.0
0.0 0.0590412263790501 0.04814725404094656 -0.047143061627445415 -0.0010041924135011844 0.02955948359591832 0.0 0.0
0.0 0.050543568072808104 0.04087258022935174 -0.039912596988085705 -0.0009599832412660035 0.027805116281058112 0.0 0.0
0.0 0.04252413642665033 0.03409813153611144 -0.03318676171793009 -0.0009113698181813694 0.025219718508303755 0.0 0.0
0.0 0.034991325674523184 0.02788774537317658 -0.027023609251106973 -0.0008641361220696224 0.022185728956108167 0.0 0.0
0.0 0.028124159098556832 0.022247039180760184 -0.021432049153133452 -0.0008149900276267398 0.019007691635989886 0.0 0.0
0.0 0.02186302277740425 0.017121582970579974 -0.016361478661687617 -0.000760104308892348 0.01577914265287747 0.0 0.0
0.0 0.016164192645298402 0.012461372448484697 -0.011765576539372463 -0.0006957959091122255 0.012497160184196159 0.0 0.0
0.0 0.010901831120461947 0.008289587202177448 -0.007677344373220342 -0.0006122428289571037 0.009172608177498105 0.0 0.0
0.0 0.006528158213188684 0.0047468248953755066 -0.0042637267855833785 -0.0004830981097921277 0.006017094107733622 0.0 0.0
0.0 0.003100933266510231 0.0021230659898415216 -0.0018276049063299733 -0.00029546108351154876 0.0033198515351535243 0.0 0.0
0.0 0.001065605882092973 0.0006293572756111084 -0.0005202137353360725 -0.00010914354027503575 0.001335425391384076 0.0 0.0
0.0 0.00023642461359744184 0.0001055986344694401 -8.522143329286264e-05 -2.0377201176577426e-05 0.00031728376705465126 0.0 0.0
0.0 3.464724440409688e-05 1.2058866991131703e-05 -9.540979262387685e-06 -2.517887728744009e-06 4.875642155309524e-05 0.0 0.0
0.0 1.7035750049772181e-06 1.7481123018941362e-07 -1.3811267074723289e-07 -3.669855944218371e-08 1.2217824172042704e-06 0.0 0.0
0.0 6.498902355200208e-07 -4.36781623330972e-09 3.268830518629646e-09 1.0989857146810313e-09 -9.552457420731589e-08 0.0 0.0
0.0 1.5419705716463004e-06 5.2743958717407795e-08 -5.189940000820439e-08 -8.445587092034595e-10 1.229600573661881e-06 0.0 0.0
0.0 0.0012328766578310999 0.0006870438870040858 -0.0008639504119187464 0.0001769065249146609 0.0011054246331495719 0.0 0.0
0.0 0.0005684308832646423 0.0003110722064388873 -0.0004069017461082535 9.582953966936634e-05 -0.0005418816706178987 0.0 0.0
0.0 2.992901945662338e-06 2.2338744985813893e-08 -3.1151053239976556e-08 8.812308254162872e-09 -1.1564392398806995e-06 0.0 0.0
0.0 1.698164550388806e-06 1.8249824933409898e-08 -7.762373783721475e-09 -1.0487451149688762e-08 -1.36577240578047e-06 0.0 0.0
0.0 4.430334005095937e-06 3.440504052017398e-07 -2.425383164676094e-07 -1.0151208873412723e-07 -4.9283938471775605e-06 0.0 0.0
0.0 3.726339439297887e-05 7.304547242905897e-06 -5.69829507001857e-06 -1.6062521728873292e-06 -5.5911906349516625e-05 0.0 0.0
0.0 0.00016902531509779416 4.4180830656798466e-05 -3.555553736776509e-05 -8.625293289033396e-06 -0.00024571451899704213 0.0 0.0
0.0 0.0005558906335728685 0.00020481587607835093 -0.00016648569726327993 -3.8330178815070844e-05 -0.000822153781472827 0.0 0.0
0.0 0.0015465753118748663 0.0007834446963508998 -0.0006508252809706717 -0.00013261941538022802 -0.002165755829055899 0.0 0.0
0.0 0.0035049820468165773 0.0021069326183667386 -0.0018136175890385493 -0.0002933150293281892 -0.0042257109350250935 0.0 0.0
0.0 0.0062349262671246896 0.004118494850401524 -0.0036739047512465727 -0.0004445900991549515 -0.006677700913741349 0.0 0.0
0.0 0.009478246639650433 0.0065815155867313836 -0.006029866174489574 -0.0005516494122418069 -0.00932361119017362 0.0 0.0
0.0 0.013158542661579467 0.00933690071934741 -0.008713909496512462 -0.0006229912228349412 -0.012019283385609978 0.0 0.0
0.0 0.017132775875397816 0.012372701063140805 -0.011695728957032588 -0.0006769721061082214 -0.014739774474277172 0.0 0.0
0.0 0.02149903576301495 0.015743084679043 -0.01502386837999575 -0.0007192162990472396 -0.017430216935301186 0.0 0.0
0.0 0.026325547351134373 0.019540552657720325 -0.01878565333681307 -0.0007548993209072491 -0.020043857119558733 0.0 0.0
0.0 0.03165723298997476 0.023866591978518353 -0.023076249804364384 -0.000790342174153969 -0.022399526288386533 0.0 0.0
0.0 0.03750474164795295 0.028780282252971363 -0.027950133577747595 -0.0008301486752237986 -0.024067496158447766 0.0 0.0
0.0 0.0439772901229564 0.03443033877033014 -0.03357632395007434 -0.000854014820255799 -0.024847535646029397 0.0 0.0
0.0 0.05173315056868845 0.04141957038715008 -0.04056781623946443 -0.0008517541476856518 -0.024641819739003777 0.0 0.0
0.0 0.060732255994730464 0.050224413638658684 -0.04928510522924462 -0.0009393084094140768 -0.020444523758605216 0.0 0.0
0.0 0.060732255994728805 0.05022441363865305 -0.04928510522923886 -0.0009393084094142019 0.02044452375864945 0.0 0.0
0.0 0.051733150568681295 0.041419570387136666 -0.04056781623945045 -0.0008517541476861909 0.024641819739063167 0.0 0.0
0.0 0.04397729012294193 0.03443033877031074 -0.03357632395005498 -0.0008540148202557601 0.024847535646072588 0.0 0.0
0.0 0.037504741647929545 0.028780282252949284 -0.02795013357772512 -0.0008301486752241697 0.024067496158456554 0.0 0.0
0.0 0.03165723298995113 0.02386659197850089 -0.023076249804346374 -0.0007903421741545085 0.02239952628837119 0.0 0.0
0.0 0.026325547351111644 0.019540552657703016 -0.018785653336795605 -0.0007548993209074034 0.02004385711954583 0.0 0.0
0.0 0.021499035762993206 0.01574308467902575 -0.015023868379978489 -0.0007192162990472604 0.01743021693529157 0.0 0.0
0.0 0.01713277587538304 0.012372701063128473 -0.011695728957020623 -0.0006769721061078565 0.014739774474272462 0.0 0.0
0.0 0.01315854266155892 0.009336900719332419 -0.008713909496497863 -0.0006229912228345535 0.012019283385594725 0.0 0.0
0.0 0.009478246639628898 0.006581515586716643 -0.006029866174475101 -0.0005516494122415423 0.00932361119015391 0.0 0.0
0.0 0.00623492626710819 0.004118494850391869 -0.003673904751237285 -0.0004445900991545815 0.006677700913722047 0.0 0.0
0.0 0.0035049820468050557 0.0021069326183588803 -0.0018136175890314655 -0.00029331502932741413 0.004225710935013716 0.0 0.0
0.0 0.0015465753118672943 0.0007834446963466428 -0.0006508252809670203 -0.00013261941537962252 0.002165755829046945 0.0 0.0
0.0 0.0005558906335690919 0.00020481587607699766 -0.0001664856972621622 -3.83301788148354e-05 0.0008221537814681937 0.0 0.0
0.0 0.00016902531509653922 4.418083065683885e-05 -3.555553736779173e-05 -8.625293289047104e-06 0.0002457145189968933 0.0 0.0
0.0 3.726339439200171e-05 7.304547242857725e-06 -5.69829506997837e-06 -1.6062521728793582e-06 5.591190634913111e-05 0.0 0.0
0.0 4.4303340049340375e-06 3.4405040524621485e-07 -2.425383164980359e-07 -1.0151208874817627e-07 4.928393847849664e-06 0.0 0.0
0.0 1.6981645503192188e-06 1.8249824942053012e-08 -7.762373786250596e-09 -1.0487451155801948e-08 1.3657724065302415e-06 0.0 0.0
0.0 2.9929019454738395e-06 2.233874501358361e-08 -3.115105328345091e-08 8.812308269866952e-09 1.156439240920082e-06 0.0 0.0
0.0 0.0005684308832603231 0.00031107220643701393 -0.0004069017461059534 9.58295396689393e-05 0.0005418816706145961 0.0 0.0
0.0 0.0001797370345446188 9.387494006844659e-05 -0.00012871982026498605 3.484488019653943e-05 -0.00017458346976162453 0.0 0.0
0.0 4.021132362245503e-06 -5.976532016958137e-09 -1.7265935339905603e-08 2.3242467356864977e-08 -2.4220097066542602e-06 0.0 0.0
0.0 5.373883512916891e-06 -2.0812291929757351e-07 1.987933727356736e-07 9.329546561900547e-09 -6.1306681625754944e-06 0.0 0.0
0.0 9.0931225617199e-06 -1.4483402514731986e-07 2.054071763979993e-07 -6.057315125067874e-08 -1.3734578331499299e-05 0.0 0.0
0.0 4.372578596893031e-05 1.7066930960721389e-06 -1.1691720978061808e-06 -5.375209982659646e-07 -6.350041111019545e-05 0.0 0.0
0.0 0.00015838052211607798 1.3014236376119293e-05 -1.0329795949107814e-05 -2.684440427011459e-06 -0.0002463890071235315 0.0 0.0
0.0 0.0003824961190183426 4.5951401507062726e-05 -3.719053507158697e-05 -8.760866435475791e-06 -0.0006228124755849266 0.0 0.0
0.0 0.0007871067646974983 0.00012617050498978468 -0.00010268790091742035 -2.3482604072364185e-05 -0.001243942190787243 0.0 0.0
0.0 0.0014405793667725832 0.0003325471292741407 -0.00027118098862011295 -6.136614065402744e-05 -0.0023212563771875436 0.0 0.0
0.0 0.0025401204401312573 0.0007556435468944835 -0.0006176742872142312 -0.00013796925968025228 -0.003855616703203334 0.0 0.0
0.0 0.003880389629073104 0.0013994132755970302 -0.0011628414802950676 -0.00023657179530196248 -0.005756030349266655 0.0 0.0
0.0 0.0055839724770598755 0.0022073891142647714 -0.0018844192233118866 -0.0003229698909528844 -0.007856224914769443 0.0 0.0
0.0 0.007506186695594528 0.0031457802788977165 -0.0027538638957315576 -0.0003919163831661574 -0.01009717153047137 0.0 0.0
0.0 0.009683102747887022 0.0042387912521236375 -0.0037951582087998948 -0.00044363304332374214 -0.012460450725320132 0.0 0.0
0.0 0.012129658251544747 0.0055928914935099334 -0.00511143514080244 -0.00048145635270749153 -0.01491365002851061 0.0 0.0
0.0 0.01498047240829772 0.007399616880164582 -0.00688784494652369 -0.0005117719336408886 -0.01729291574502218 0.0 0.0
0.0 0.01826513286785015 0.009915487915199606 -0.009369610950498937 -0.0005458769647006648 -0.019158162165137514 0.0 0.0
0.0 0.022064827239978185 0.013354200345159188 -0.012762187367605876 -0.000592012977553307 -0.019866242344225463 0.0 0.0
0.0 0.027262143969517205 0.01820276210006162 -0.017618273691884873 -0.0005844884081767485 -0.019827483435496798 0.0 0.0
0.0 0.03534826976172426 0.02609347976530158 -0.025520789917509903 -0.0005726898477916729 -0.019326249951535666 0.0 0.0
0.0 0.035348269761725545 0.02609347976529877 -0.02552078991750699 -0.0005726898477917801 0.01932624995156996 0.0 0.0
0.0 0.027262143969520113 0.018202762100057484 -0.017618273691880654 -0.0005844884081768383 0.01982748343554138 0.0 0.0
0.0 0.02206482723997828 0.013354200345154272 -0.012762187367601005 -0.0005920129775532645 0.01986624234425333 0.0 0.0
0.0 0.018265132867838707 0.009915487915190927 -0.009369610950490683 -0.0005458769647002387 0.01915816216513782 0.0 0.0
0.0 0.014980472408284503 0.007399616880159505 -0.006887844946519222 -0.0005117719336402802 0.017292915745004342 0.0 0.0
0.0 0.012129658251536439 0.005592891493507151 -0.0051114351408001035 -0.000481456352707049 0.014913650028499089 0.0 0.0
0.0 0.009683102747878885 0.004238791252120492 -0.003795158208797032 -0.00044363304332345867 0.012460450725311475 0.0 0.0
0.0 0.0075061866955876905 0.0031457802788956496 -0.0027538638957296923 -0.0003919163831659567 0.010097171530463389 0.0 0.0
0.0 0.005583972477048164 0.002207389114260198 -0.0018844192233077334 -0.0003229698909524637 0.007856224914755662 0.0 0.0
0.0 0.003880389629065165 0.0013994132755953753 -0.001162841480293756 -0.00023657179530161944 0.005756030349254202 0.0 0.0
0.0 0.002540120440123819 0.0007556435468931533 -0.0006176742872131505 -0.00013796925968000303 0.0038556167031922003 0.0 0.0
0.0 0.001440579366769753 0.00033254712927350833 -0.000271180988619627 -6.13661406538812e-05 0.002321256377182838 0.0 0.0
0.0 0.0007871067646949602 0.0001261705049893044 -0.00010268790091701996 -2.3482604072284323e-05 0.0012439421907830552 0.0 0.0
0.0 0.00038249611901653856 4.5951401506952036e-05 -3.7190535071478696e-05 -8.76086643547332e-06 0.0006228124755834469 0.0 0.0
0.0 0.00015838052211460802 1.3014236376114006e-05 -1.0329795949093358e-05 -2.684440427020649e-06 0.0002463890071227787 0.0 0.0
0.0 4.372578596777695e-05 1.706693096080239e-06 -1.169172097812577e-06 -5.375209982676663e-07 6.350041111024785e-05 0.0 0.0
0.0 9.093122561458186e-06 -1.4483402515812133e-07 2.0540717641000607e-07 -6.057315125188474e-08 1.3734578332053853e-05 0.0 0.0
0.0 5.373883512158304e-06 -2.081229193248165e-07 1.9879337275945853e-07 9.329546565357248e-09 6.130668163207141e-06 0.0 0.0
0.0 4.021132361889362e-06 -5.976532020601001e-09 -1.7265935349232822e-08 2.324246736983636e-08 2.422009707349754e-06 0.0 0.0
0.0 0.0001797370345425709 9.387494006779285e-05 -0.0001287198202641115 3.484488019631863e-05 0.0001745834697605509 0.0 0.0
0.0 2.40282343083001e-05 1.1241037294159791e-05 -1.6140885247272016e-05 4.899847953112214e-06 -2.2910605782537786e-05 0.0 0.0
0.0 3.6867168513464187e-06 -9.144329811880199e-08 3.7833837402790746e-08 5.3609460716016156e-08 -2.678998482578042e-06 0.0 0.0
0.0 8.029272794653917e-06 -8.539612413362668e-07 7.295554265627112e-07 1.2440581477355617e-07 -1.054549376350772e-05 0.0 0.0
0.0 1.5142567497791495e-05 -1.8372331447879383e-06 1.622379098853893e-06 2.14854045934047e-07 -2.238426521795318e-05 0.0 0.0
0.0 5.195882194042873e-05 -5.201274607540536e-06 4.486051701259031e-06 7.152229062815139e-07 -7.488846143969268e-05 0.0 0.0
0.0 0.00016788990033559417 -1.6953378998275263e-05 1.3977442528328845e-05 2.9759364699464088e-06 -0.0002538353699471108 0.0 0.0
0.0 0.00038885323128739753 -4.9056681237587716e-05 3.988557259090342e-05 9.171108646684274e-06 -0.000633383319371692 0.0 0.0
0.0 0.0007910088735617545 -0.00012777053388140515 0.00010398115920450694 2.3789374676898206e-05 -0.0012513140530021252 0.0 0.0
0.0 0.0014404670716424508 -0.00033276376972971456 0.00027137519809917625 6.138857163053821e-05 -0.002323309713000668 0.0 0.0
0.0 0.0025394883949603174 -0.0007553399939224249 0.0006175072611618703 0.0001378327327605546 -0.0038555315555563554 0.0 0.0
0.0 0.003897769767979304 -0.0014064348738636102 0.0011707116752121384 0.0002357231986514716 -0.0057619276293727805 0.0 0.0
0.0 0.0056182261587632565 -0.0022477750896549584 0.0019247333124764686 0.00032304177717848843 -0.007874861729271857 0.0 0.0
0.0 0.0075712376422161515 -0.0032276172142550416 0.0028325227971906968 0.0003950944170643424 -0.010113373866850704 0.0 0.0
0.0 0.00970623909542168 -0.004281653689987883 0.0038262171046588135 0.0004554365853290652 -0.012452311499340472 0.0 0.0
0.0 0.011847071579670949 -0.005264184188898992 0.004756620339080348 0.0005075638498186441 -0.014879634257385957 0.0 0.0
0.0 0.013821572098449447 -0.00590133728979924 0.0053481113443596155 0.0005532259454396177 -0.017346907008105414 0.0 0.0
0.0 0.015281297197680503 -0.005803876211244132 0.005211312953924979 0.0005925632573191536 -0.01983954980761368 0.0 0.0
0.0 0.016114438468488805 -0.004699231719332846 0.004084508995798431 0.000614722723534411 -0.02245131776579569 0.0 0.0
0.0 0.016326213620528232 -0.0025880321110561657 0.0019974926332411358 0.0005905394778150269 -0.02479652476464551 0.0 0.0
0.0 0.016254494010833936 0.0036494998025419882 -0.0037052481476753493 5.5748345133358574e-05 -0.0240367007677951 0.0 0.0
0.0 0.016254494010838234 0.0036494998025425832 -0.0037052481476756126 5.574834513303239e-05 0.024036700767807333 0.0 0.0
0.0 0.016326213620530796 -0.0025880321110564397 0.0019974926332404787 0.0005905394778159582 0.024796524764659163 0.0 0.0
0.0 0.01611443846848411 -0.0046992317193308795 0.004084508995796672 0.0006147227235342049 0.022451317765796508 0.0 0.0
0.0 0.015281297197667262 -0.00580387621123724 0.005211312953918552 0.000592563257318686 0.019839549807604023 0.0 0.0
0.0 0.013821572098431819 -0.005901337289789561 0.00534811134435032 0.0005532259454392346 0.01734690700808629 0.0 0.0
0.0 0.011847071579657252 -0.005264184188891297 0.004756620339073059 0.0005075638498182325 0.014879634257372747 0.0 0.0
0.0 0.009706239095407628 -0.004281653689980147 0.0038262171046515984 0.0004554365853285471 0.012452311499326598 0.0 0.0
0.0 0.00757123764219976 -0.003227617214243963 0.002832522797180015 0.0003950944170639456 0.010113373866839484 0.0 0.0
0.0 0.00561822615874517 -0.002247775089645199 0.0019247333124672063 0.0003230417771779918 0.00787486172925362 0.0 0.0
0.0 0.003897769767966899 -0.0014064348738577076 0.0011707116752069182 0.00023572319865078925 0.005761927629357771 0.0 0.0
0.0 0.0025394883949493084 -0.0007553399939185677 0.000617507261158582 0.00013783273275998502 0.0038555315555435423 0.0 0.0
0.0 0.0014404670716378818 -0.0003327637697278562 0.00027137519809762145 6.13885716302348e-05 0.002323309712994405 0.0 0.0
0.0 0.0007910088735589713 -0.00012777053388072235 0.00010398115920396065 2.3789374676761712e-05 0.0012513140529981119 0.0 0.0
0.0 0.0003888532312858456 -4.905668123748019e-05 3.988557259086253e-05 9.171108646617667e-06 0.0006333833193704786 0.0 0.0
0.0 0.00016788990033372522 -1.695337899820622e-05 1.3977442528277e-05 2.9759364699292407e-06 0.00025383536994582115 0.0 0.0
0.0 5.1958821938856535e-05 -5.201274607509406e-06 4.4860517012323625e-06 7.152229062770369e-07 7.488846143930989e-05 0.0 0.0
0.0 1.5142567497456605e-05 -1.837233144831752e-06 1.6223790988918265e-06 2.1485404593992502e-07 2.238426521844003e-05 0.0 0.0
0.0 8.029272794127916e-06 -8.539612414127618e-07 7.295554266270506e-07 1.2440581478571215e-07 1.0545493764361075e-05 0.0 0.0
0.0 3.686716851080148e-06 -9.144329813786592e-08 3.7833837388213905e-08 5.3609460749656916e-08 2.6789984836411046e-06 0.0 0.0
0.0 2.4028234307781267e-05 1.1241037294355248e-05 -1.614088524753709e-05 4.89984795318184e-06 2.2910605783111254e-05 0.0 0.0
0.0 1.2794705618513804e-06 -7.325646252627723e-08 1.1123042410747284e-07 -3.797396158117645e-08 1.788907911065407e-07 0.0 0.0
0.0 2.547961700389272e-06 -1.5097023471190587e-07 8.172335123873552e-08 6.924688347316884e-08 -2.878617603317486e-06 0.0 0.0
0.0 9.334756511054082e-06 -1.5332064547788566e-06 1.2746755168621436e-06 2.585309379167098e-07 -1.2130749208197335e-05 0.0 0.0
0.0 2.042569847513834e-05 -3.7424189920019908e-06 3.1854614888558255e-06 5.569575031461767e-07 -2.489939886561088e-05 0.0 0.0
0.0 5.986247167652538e-05 -1.444560238261473e-05 1.203295838352138e-05 2.412643999093348e-06 -8.682413736064103e-05 0.0 0.0
0.0 0.00019045235651357504 -5.3846559142580915e-05 4.3818979641788175e-05 1.0027579500792742e-05 -0.000279237036404439 0.0 0.0
0.0 0.0005798658651176575 -0.0002145347487335706 0.0001746897462392892 3.9845002494281415e-05 -0.0008483772072826493 0.0 0.0
0.0 0.0015578412178418445 -0.0007890478837783001 0.0006556872116567782 0.0001333606721215216 -0.002180462398475495 0.0 0.0
0.0 0.003504377587849018 -0.0021065906192638834 0.0018134382187921369 0.000293152400471746 -0.00422859170975615 0.0 0.0
0.0 0.006235403957558555 -0.004119243975833836 0.003675130682829754 0.00044411329300408095 -0.0066789554731430814 0.0 0.0
0.0 0.009492978787089778 -0.006595361784506983 0.0060448299148646 0.0005505318696423825 -0.009328183051622928 0.0 0.0
0.0 0.013200565027458831 -0.00938254772959798 0.00876079409448732 0.0006217536351106592 -0.012013502694099195 0.0 0.0
0.0 0.017197749876821277 -0.012453291263461076 0.011774633688938652 0.000678657574522421 -0.014694945975010944 0.0 0.0
0.0 0.02149424736631119 -0.015763230831164307 0.015032877525371583 0.0007303533057927264 -0.017351635188277693 0.0 0.0
0.0 0.025927334126881387 -0.019145724454007147 0.018364153415597995 0.00078157103840914 -0.020049063852132093 0.0 0.0
0.0 0.030144480738743148 -0.02225877033991808 0.02142793326276283 0.000830837077155247 -0.02284780520002383 0.0 0.0
0.0 0.03369875775582623 -0.024611117091250016 0.023740354506149943 0.0008707625851000731 -0.025837480076011853 0.0 0.0
0.0 0.03593890707523638 -0.025638912157132723 0.024742464340952 0.0008964478161807464 -0.02891770156072562 0.0 0.0
0.0 0.035154104287127425 -0.024207278300575827 0.023217950194511637 0.0009893281060641714 -0.030300530316596824 0.0 0.0
0.0 0.028449276492828503 -0.01712335850486013 0.016015396830716323 0.0011079616741437857 -0.027979005659430664 0.0 0.0
0.0 0.028449276492838967 -0.017123358504860756 0.016015396830716747 0.0011079616741440034 0.02797900565946733 0.0 0.0
0.0 0.0351541042871387 -0.024207278300574654 0.023217950194510617 0.0009893281060640183 0.030300530316648373 0.0 0.0
0.0 0.03593890707522777 -0.02563891215711829 0.02474246434093753 0.0008964478161807447 0.028917701560756893 0.0 0.0
0.0 0.03369875775579695 -0.024611117091224828 0.02374035450612426 0.0008707625851005744 0.02583748007600733 0.0 0.0
0.0 0.03014448073871082 -0.022258770339892896 0.02142793326273772 0.0008308370771551788 0.022847805200002902 0.0 0.0
0.0 0.025927334126851807 -0.01914572445398406 0.01836415341557519 0.000781571038408875 0.02004906385211401 0.0 0.0
0.0 0.021494247366284462 -0.015763230831143213 0.015032877525350923 0.0007303533057922875 0.017351635188262507 0.0 0.0
0.0 0.01719774987679553 -0.012453291263439428 0.011774633688917686 0.0006786575745217298 0.014694945974999436 0.0 0.0
0.0 0.013200565027429601 -0.009382547729575787 0.008760794094465773 0.000621753635110013 0.012013502694078464 0.0 0.0
0.0 0.00949297878706169 -0.006595361784487006 0.0060448299148454 0.0005505318696416039 0.00932818305159862 0.0 0.0
0.0 0.006235403957534753 -0.004119243975817564 0.003675130682814454 0.00044411329300311054 0.006678955473120311 0.0 0.0
0.0 0.0035043775878348627 -0.0021065906192538454 0.0018134382187829543 0.00029315240047089275 0.0042285917097427475 0.0 0.0
0.0 0.0015578412178341586 -0.0007890478837736124 0.0006556872116528118 0.00013336067212080097 0.0021804623984665837 0.0 0.0
0.0 0.0005798658651133711 -0.00021453474873196822 0.00017468974623804532 3.9845002493922924e-05 0.0008483772072777236 0.0 0.0
0.0 0.00019045235651177466 -5.384655914241332e-05 4.3818979641652785e-05 1.002757950076054e-05 0.00027923703640348623 0.0 0.0
0.0 5.9862471675679224e-05 -1.4445602382656065e-05 1.203295838355885e-05 2.4126439990972043e-06 8.682413736087034e-05 0.0 0.0
0.0 2.0425698474474875e-05 -3.7424189920778464e-06 3.185461488921197e-06 5.569575031566507e-07 2.489939886609922e-05 0.0 0.0
0.0 9.33475651031049e-06 -1.5332064548507678e-06 1.2746755169201448e-06 2.5853093793062195e-07 1.2130749208733333e-05 0.0 0.0
0.0 2.547961700124836e-06 -1.5097023474612192e-07 8.172335124326484e-08 6.924688350285744e-08 2.8786176041174286e-06 0.0 0.0
0.0 1.2794705614589102e-06 -7.325646250320453e-08 1.1123042407310628e-07 -3.797396156990146e-08 -1.7889079104850708e-07 0.0 0.0
0.0 0.0 0.0 0.0 0.0 0.0 0.0 0.0
0.0 1.607668369648354e-06 1.292891577227001e-08 -1.764829688222527e-09 -1.116408608405013e-08 2.0850606252995197e-07 0.0 0.0
0.0 8.391124063760443e-06 -1.3963122178493795e-06 1.1480510358932882e-06 2.4826118195608666e-07 -8.058297995485562e-06 0.0 0.0
0.0 2.326120374782129e-05 -5.503394696895956e-06 4.570403561430012e-06 9.329911354659537e-07 -2.4135762236202774e-05 0.0 0.0
0.0 7.10688304887245e-05 -2.5716445984787575e-05 2.108911699041231e-05 4.627328994375277e-06 -9.392675715483157e-05 0.0 0.0
0.0 0.0002845005218705874 -0.00013082973168104117 0.00010640032632387027 2.4429405357170843e-05 -0.00037966420745819953 0.0 0.0
0.0 0.0010998985454666362 -0.0006465127263322602 0.000535332610789613 0.00011118011554264707 -0.0013709116246747879 0.0 0.0
0.0 0.0031068342162231233 -0.0021245541918904626 0.0018293247138474117 0.0002952294780430508 -0.0033308847447088784 0.0 0.0
0.0 0.006524107202435687 -0.004744416392078312 0.004261595539536407 0.00048282085254190514 -0.0060158290874087195 0.0 0.0
0.0 0.010904721838856978 -0.008292633552523663 0.007680783831372043 0.0006118497211516176 -0.009174091160869488 0.0 0.0
0.0 0.016178759221787072 -0.012475857595860331 0.011781032040962753 0.0006948255548975882 -0.012495640293130491 0.0 0.0
0.0 0.021887749686644208 -0.01715566676259689 0.01639684494400292 0.0007588218185939632 -0.015735561146140886 0.0 0.0
0.0 0.02814087989161366 -0.02229785057587918 0.021481863094983608 0.0008159874808955747 -0.018860698346836697 0.0 0.0
0.0 0.03491995189381151 -0.027871988786443418 0.026998721210058654 0.0008732675763847481 -0.021961134804083862 0.0 0.0
0.0 0.042113055739880854 -0.03370936295474101 0.03277518566160847 0.0009341772931325149 -0.02525330843086298 0.0 0.0
0.0 0.049235917029071666 -0.039416621387242085 0.03842092203547826 0.0009956993517637805 -0.029026902041087016 0.0 0.0
0.0 0.05572389479281657 -0.04436443194079108 0.04331102562306347 0.0010534063177275908 -0.03343092464968182 0.0 0.0
0.0 0.06006525289399435 -0.04754750670956793 0.04642132930025464 0.0011261774093132536 -0.03766287654585573 0.0 0.0
0.0 0.06018048812432569 -0.0470565664821794 0.04583550465756915 0.0012210618246102276 -0.039727566076854605 0.0 0.0
0.0 0.05062150462626406 -0.03885471351729118 0.03739362593606206 0.0014610875812291146 -0.03561131295028374 0.0 0.0
0.0 0.05062150462627088 -0.038854713517287934 0.037393625936058536 0.0014610875812294 0.035611312950331084 0.0 0.0
0.0 0.06018048812432855 -0.04705656648217015 0.04583550465755997 0.0012210618246101864 0.03972756607691837 0.0 0.0
0.0 0.06006525289397706 -0.047547506709544704 0.04642132930023175 0.0011261774093129099 0.037662876545896756 0.0 0.0
0.0 0.055723894792780296 -0.04436443194075737 0.04331102562303066 0.001053406317726741 0.03343092464968552 0.0 0.0
0.0 0.04923591702902553 -0.039416621387203435 0.03842092203543995 0.0009956993517634936 0.02902690204106853 0.0 0.0
0.0 0.04211305573983762 -0.03370936295470531 0.03277518566157299 0.0009341772931323175 0.025253308430843183 0.0 0.0
0.0 0.03491995189376841 -0.027871988786408057 0.02699872121002355 0.0008732675763844983 0.02196113480406253 0.0 0.0
0.0 0.028140879891570117 -0.022297850575842538 0.02148186309494715 0.0008159874808953754 0.018860698346819423 0.0 0.0
0.0 0.021887749686602044 -0.017155666762562555 0.016396844943968793 0.0007588218185937605 0.01573556114611783 0.0 0.0
0.0 0.0161787592217446 -0.012475857595827339 0.011781032040929887 0.0006948255548974505 0.012495640293100149 0.0 0.0
0.0 0.010904721838821423 -0.008292633552497153 0.007680783831345703 0.000611849721151452 0.009174091160840803 0.0 0.0
0.0 0.006524107202412666 -0.004744416392060357 0.00426159553951919 0.00048282085254116463 0.006015829087392129 0.0 0.0
0.0 0.003106834216209095 -0.0021245541918800495 0.0018293247138381026 0.00029522947804194743 0.0033308847446971977 0.0 0.0
0.0 0.0010998985454578876 -0.0006465127263271084 0.0005353326107853387 0.00011118011554176951 0.0013709116246658798 0.0 0.0
0.0 0.0002845005218674752 -0.00013082973168006019 0.00010640032632307472 2.442940535698541e-05 0.0003796642074554991 0.0 0.0
0.0 7.106883048761458e-05 -2.5716445984820074e-05 2.1089116990436125e-05 4.6273289943839165e-06 9.392675715488865e-05 0.0 0.0
0.0 2.3261203746852933e-05 -5.5033946969251895e-06 4.570403561452291e-06 9.329911354728864e-07 2.413576223632256e-05 0.0 0.0
0.0 8.391124063322329e-06 -1.3963122179871625e-06 1.1480510360056043e-06 2.482611819815648e-07 8.058297996279423e-06 0.0 0.0
0.0 1.6076683692943645e-06 1.2928915738868412e-08 -1.7648296690825512e-09 -1.1164086069789572e-08 -2.0850606207232758e-07 0.0 0.0
0.0 0.0 0.0 0.0 0.0 0.0 0.0 0.0
0.0 0.0 0.0 0.0 0.0 0.0 0.0 0.0
0.0 3.8538157917848767e-07 8.524370000021943e-09 -5.889213621647465e-09 -2.6351563783748637e-09 7.625979648851619e-08 0.0 0.0
0.0 5.142310360980517e-06 -1.008012849987479e-06 8.219769701206244e-07 1.8603587986684954e-07 -4.4637299694957115e-06 0.0 0.0
0.0 2.2601451422281672e-05 -7.838549786894198e-06 6.452768201041974e-06 1.3857815858522142e-06 -2.539078093605161e-05 0.0 0.0
0.0 9.535625722602642e-05 -4.5333687910547374e-05 3.694601744895291e-05 8.387670461594493e-06 -0.00011295261242938353 0.0 0.0
0.0 0.000500938271659948 -0.00031114899755185755 0.0002545531722568979 5.6595825294959586e-05 -0.0005784985993372816 0.0 0.0
0.0 0.0019633545158898964 -0.0014088518957756173 0.0011925144119195325 0.00021633748385608485 -0.0019261939146214386 0.0 0.0
0.0 0.005074296029938109 -0.0038851710371771053 0.003448512547630687 0.0004366584895464184 -0.00421181226287986 0.0 0.0
0.0 0.009861346324147993 -0.0077662527615666435 0.007163824146918754 0.0006024286146478891 -0.007296836451424398 0.0 0.0
0.0 0.01593334229736432 -0.012781292410002806 0.012072910730707622 0.0007083816792951816 -0.010894230064266966 0.0 0.0
0.0 0.02299185854232772 -0.01863404960701506 0.017848642835548753 0.0007854067714663014 -0.014584124097798702 0.0 0.0
0.0 0.03084250610235189 -0.025179257072971986 0.024325796228166857 0.0008534608448051114 -0.01811397483688052 0.0 0.0
0.0 0.039454119264423215 -0.03238482782992714 0.03146772168218516 0.0009171061477419627 -0.021488391247175324 0.0 0.0
0.0 0.04875745850870355 -0.04023368234612399 0.03925188054415299 0.0009818018019710313 -0.024846314661714438 0.0 0.0
0.0 0.05871713638663634 -0.0485696892177304 0.04751851131834806 0.0010511778993822789 -0.028517518258694387 0.0 0.0
0.0 0.06887023038609533 -0.05695183266720379 0.055824980334231146 0.001126852332972612 -0.03296626848178164 0.0 0.0
0.0 0.07815247809643251 -0.06449550988712603 0.06328412670670963 0.0012113831804163536 -0.03827930760331199 0.0 0.0
0.0 0.08474086775886855 -0.06963506685274394 0.06832468611290071 0.0013103807398431593 -0.04341122019141023 0.0 0.0
0.0 0.08514909276890148 -0.06965450284916337 0.06819835322782308 0.0014561496213402604 -0.045639031130221414 0.0 0.0
0.0 0.07345661218574562 -0.05962856129784584 0.05795009694934228 0.0016784643485035645 -0.041671565058109525 0.0 0.0
0.0 0.07345661218575669 -0.05962856129784633 0.05795009694934326 0.0016784643485030337 0.04167156505816508 0.0 0.0
0.0 0.08514909276889945 -0.06965450284915066 0.0681983532278108 0.0014561496213398423 0.0456390311302924 0.0 0.0
0.0 0.08474086775884754 -0.06963506685271721 0.0683246861128747 0.0013103807398424554 0.043411220191461944 0.0 0.0
0.0 0.07815247809638887 -0.06449550988708512 0.06328412670666947 0.0012113831804156233 0.03827930760332321 0.0 0.0
0.0 0.06887023038604313 -0.056951832667158496 0.055824980334186834 0.001126852332971674 0.03296626848176824 0.0 0.0
0.0 0.058717136386584434 -0.04856968921768616 0.04751851131830473 0.0010511778993813896 0.028517518258676357 0.0 0.0
0.0 0.048757458508645234 -0.04023368234607494 0.03925188054410394 0.0009818018019710146 0.02484631466169275 0.0 0.0
0.0 0.03945411926436582 -0.03238482782987836 0.03146772168213679 0.0009171061477415819 0.021488391247155715 0.0 0.0
0.0 0.030842506102297586 -0.025179257072926214 0.024325796228121675 0.0008534608448045206 0.018113974836856478 0.0 0.0
0.0 0.02299185854227218 -0.018634049606969884 0.017848642835504074 0.0007854067714658136 0.014584124097765638 0.0 0.0
0.0 0.015933342297318992 -0.01278129240996693 0.01207291073067232 0.0007083816792946055 0.010894230064234886 0.0 0.0
0.0 0.009861346324114962 -0.007766252761540315 0.007163824146893243 0.0006024286146470763 0.007296836451403983 0.0 0.0
0.0 0.005074296029918421 -0.0038851710371617604 0.0034485125476163623 0.00043665848954539644 0.004211812262866011 0.0 0.0
0.0 0.0019633545158786285 -0.001408851895767581 0.0011925144119125093 0.00021633748385507142 0.00192619391461222 0.0 0.0
0.0 0.0005009382716548029 -0.00031114899754915507 0.0002545531722546382 5.659582529451682e-05 0.0005784985993328213 0.0 0.0
0.0 9.535625722480249e-05 -4.533368791046555e-05 3.694601744887409e-05 8.387670461591403e-06 0.00011295261242908382 0.0 0.0
0.0 2.260145142162585e-05 -7.838549787078226e-06 6.4527682011886135e-06 1.3857815858896081e-06 2.5390780936589324e-05 0.0 0.0
0.0 5.142310360441363e-06 -1.0080128501082484e-06 8.219769702176733e-07 1.8603587989057353e-07 4.463729970037206e-06 0.0 0.0
0.0 3.8538157904294466e-07 8.52436999717895e-09 -5.889213619678072e-09 -2.6351563774992616e-09 -7.62597964614563e-08 0.0 0.0
0.0 0.0 0.0 0.0 0.0 0.0 0.0 0.0
0.0 0.0 0.0 0.0 0.0 0.0 0.0 0.0
0.0 0.0 0.0 0.0 0.0 0.0 0.0 0.0
0.0 2.242377707992969e-06 -4.703636025584719e-07 3.834572237757444e-07 8.690637878273103e-08 -1.6479331160116511e-06 0.0 0.0
0.0 2.1398370301193223e-05 -7.0556722844697025e-06 5.742701581857976e-06 1.3129707026117382e-06 -1.704405168366509e-05 0.0 0.0
0.0 0.00015392812929888538 -8.504523288060482e-05 6.901949046020156e-05 1.602574242040327e-05 -0.00014851935139069744 0.0 0.0
0.0 0.000885144609327911 -0.0006504152749334262 0.0005378756973690101 0.00011253957756441596 -0.0008195498073685233 0.0 0.0
0.0 0.0031248010515524407 -0.0024518723631804153 0.002123178728637076 0.0003286936345433396 -0.00233125066433059 0.0 0.0
0.0 0.007315572085954639 -0.0059242327944051135 0.005382579463866936 0.0005416533305381741 -0.0047540542547055455 0.0 0.0
0.0 0.01339069655809446 -0.011018960404600216 0.01033858561999274 0.0006803747846074727 -0.008028133582535539 0.0 0.0
0.0 0.021052530598789393 -0.017447815486412825 0.0166722478420307 0.0007755676443821219 -0.011752888728838512 0.0 0.0
0.0 0.029962874651547247 -0.024942718568059203 0.02408637414008167 0.0008563444279775339 -0.015514472224484916 0.0 0.0
0.0 0.03991710903361819 -0.033348070839802124 0.03241660715718063 0.0009314636826214971 -0.01912133468833619 0.0 0.0
0.0 0.050836628128193076 -0.04261402192310621 0.041611139692029106 0.0010028822310770686 -0.02256939569445877 0.0 0.0
0.0 0.06273273480342742 -0.05273156457900664 0.051657454008135095 0.001074110570871549 -0.0259718414402855 0.0 0.0
0.0 0.07554770839046313 -0.0635753138881351 0.06242301779359791 0.001152296094537203 -0.029697735237026183 0.0 0.0
0.0 0.08852027028172782 -0.07463779334891471 0.07339353564162478 0.001244257707289921 -0.0342699955454457 0.0 0.0
0.0 0.10074652259072173 -0.08472080350290603 0.08336702648659279 0.001353777016313226 -0.03983529397489161 0.0 0.0
0.0 0.10929697314745906 -0.09164208332611784 0.09015375361564108 0.001488329710476776 -0.045336246099918855 0.0 0.0
0.0 0.10986829596177694 -0.09185376660105635 0.09019846819402941 0.0016552984070269277 -0.0482987314304496 0.0 0.0
0.0 0.09648125326519957 -0.08005877997150472 0.07820862952380067 0.0018501504477040662 -0.04687061107590476 0.0 0.0
0.0 0.09648125326519594 -0.08005877997149385 0.0782086295237894 0.0018501504477043923 0.046870611075959065 0.0 0.0
0.0 0.10986829596176544 -0.09185376660103697 0.09019846819401095 0.0016552984070259727 0.048298731430518986 0.0 0.0
0.0 0.10929697314742952 -0.09164208332608512 0.090153753615609 0.001488329710475999 0.045336246099972194 0.0 0.0
0.0 0.10074652259066276 -0.08472080350285253 0.08336702648653907 0.0013537770163134307 0.03983529397490396 0.0 0.0
0.0 0.08852027028165708 -0.07463779334885352 0.07339353564156342 0.001244257707290084 0.03426999554543374 0.0 0.0
0.0 0.07554770839038982 -0.06357531388807239 0.062423017793535 0.0011522960945374043 0.029697735237007656 0.0 0.0
0.0 0.06273273480335495 -0.05273156457894475 0.051657454008073665 0.0010741105708710872 0.025971841440262697 0.0 0.0
0.0 0.050836628128125665 -0.04261402192304817 0.041611139691971624 0.0010028822310765226 0.02256939569444018 0.0 0.0
0.0 0.039917109033547594 -0.03334807083974198 0.032416607157121136 0.0009314636826208241 0.019121334688310346 0.0 0.0
0.0 0.029962874651483305 -0.024942718568005944 0.024086374140029104 0.000856344427976817 0.015514472224452094 0.0 0.0
0.0 0.021052530598735564 -0.017447815486368305 0.016672247841986707 0.0007755676443815945 0.011752888728806737 0.0 0.0
0.0 0.013390696558054107 -0.011018960404566852 0.010338585619959878 0.0006803747846069771 0.008028133582514009 0.0 0.0
0.0 0.007315572085927701 -0.005924232794383191 0.0053825794638458525 0.0005416533305373377 0.004754054254690261 0.0 0.0
0.0 0.003124801051535257 -0.002451872363167083 0.002123178728624997 0.0003286936345420861 0.002331250664319458 0.0 0.0
0.0 0.0008851446093215791 -0.0006504152749293915 0.0005378756973656143 0.00011253957756377684 0.0008195498073638344 0.0 0.0
0.0 0.00015392812929672343 -8.504523287990187e-05 6.901949045961297e-05 1.60257424202888e-05 0.0001485193513894973 0.0 0.0
0.0 2.1398370300382948e-05 -7.055672284497988e-06 5.742701581877973e-06 1.312970702620024e-06 1.7044051683743915e-05 0.0 0.0
0.0 2.2423777078906742e-06 -4.703636026760642e-07 3.8345722387079837e-07 8.690637880526352e-08 1.6479331164264076e-06 0.0 0.0
0.0 0.0 0.0 0.0 0.0 0.0 0.0 0.0
0.0 0.0 0.0 0.0 0.0 0.0 0.0 0.0
0.0 0.0 0.0 0.0 0.0 0.0 0.0 0.0
0.0 0.0 0.0 0.0 0.0 0.0 0.0 0.0
0.0 9.159772724021529e-07 5.630253744311479e-08 -4.536700834069255e-08 -1.0935529102421052e-08 1.5681455061216043e-07 0.0 0.0
0.0 1.8793137011138564e-05 -9.856511416473032e-06 7.944551802060634e-06 1.91195961441244e-06 -1.8043737695849336e-05 0.0 0.0
0.0 0.0002543002739729563 -0.00017733600727741201 0.00014390692396280954 3.342908331460243e-05 -0.00022098178060799592 0.0 0.0
0.0 0.0014725008718775299 -0.0011636759685134327 0.0009757332762716577 0.00018794269224177567 -0.001011010142731303 0.0 0.0
0.0 0.004558226597350315 -0.003714291159742939 0.003285294996261731 0.00042899616348120975 -0.0025237419203411817 0.0 0.0
0.0 0.009681961514674904 -0.008159955365027992 0.007543485999781109 0.0006164693652468821 -0.00493888125088766 0.0 0.0
0.0 0.017032618789806487 -0.014404651816071638 0.013669699585479736 0.0007349522305919085 -0.008128174773536783 0.0 0.0
0.0 0.026258540728304004 -0.022211406998762288 0.02138206181692907 0.0008293451818332269 -0.011702334233473324 0.0 0.0
0.0 0.03701025160623439 -0.031337130737660646 0.030420586940533723 0.0009165437971268993 -0.01533200302363842 0.0 0.0
0.0 0.04904441147622419 -0.04160345680347385 0.04060362806120416 0.0009998287422696565 -0.01881102048401441 0.0 0.0
0.0 0.06234173608032967 -0.052930062153091505 0.05185036224900731 0.0010796999040841903 -0.02214530474512612 0.0 0.0
0.0 0.07668650717463996 -0.06529897344850946 0.06414091160515711 0.0011580618433523556 -0.025417769517572193 0.0 0.0
0.0 0.09220478322034548 -0.0785966216152502 0.07735256836972042 0.0012440532455297846 -0.028841143529820458 0.0 0.0
0.0 0.10829698003588135 -0.09226569893128247 0.09091431089534983 0.0013513880359326278 -0.032915374387923906 0.0 0.0
0.0 0.12295715038399344 -0.10481609862193714 0.10332913425055586 0.0014869643713812074 -0.0380700378702205 0.0 0.0
0.0 0.133256935133861 -0.11343979405749213 0.11178938287150078 0.0016504111859913287 -0.0437637399795524 0.0 0.0
0.0 0.13429907073246264 -0.11390466750608613 0.11207574554991528 0.0018289219561708086 -0.048498019407116046 0.0 0.0
0.0 0.12001167266111988 -0.10065521362879923 0.09864739354620933 0.002007820082589897 -0.05163430729851176 0.0 0.0
0.0 0.12001167266111573 -0.10065521362878897 0.09864739354619911 0.002007820082589796 0.051634307298564996 0.0 0.0
0.0 0.13429907073243455 -0.11390466750605435 0.11207574554988317 0.0018289219561711569 0.048498019407186635 0.0 0.0
0.0 0.1332569351338114 -0.11343979405744382 0.11178938287145276 0.0016504111859910323 0.04376373997960176 0.0 0.0
0.0 0.12295715038392471 -0.10481609862187535 0.10332913425049486 0.0014869643713804341 0.03807003787023249 0.0 0.0
0.0 0.10829698003580011 -0.09226569893121168 0.09091431089527982 0.001351388035931836 0.03291537438791526 0.0 0.0
0.0 0.09220478322026449 -0.07859662161517955 0.07735256836965083 0.001244053245528676 0.02884114352980987 0.0 0.0
0.0 0.07668650717455608 -0.06529897344843695 0.0641409116050853 0.0011580618433516265 0.025417769517553764 0.0 0.0
0.0 0.06234173608024708 -0.052930062153019826 0.0518503622489363 0.0010796999040834589 0.022145304745107983 0.0 0.0
0.0 0.04904441147614187 -0.04160345680340291 0.04060362806113367 0.0009998287422692397 0.018811020483991518 0.0 0.0
0.0 0.03701025160616142 -0.031337130737598876 0.030420586940472477 0.0009165437971263993 0.015332003023607736 0.0 0.0
0.0 0.026258540728241568 -0.02221140699870986 0.021382061816877147 0.0008293451818326996 0.011702334233442857 0.0 0.0
0.0 0.017032618789761367 -0.014404651816033181 0.013669699585441918 0.0007349522305912645 0.008128174773517493 0.0 0.0
0.0 0.009681961514642415 -0.00815995536500058 0.007543485999754376 0.0006164693652461957 0.004938881250872544 0.0 0.0
0.0 0.004558226597327019 -0.0037142911597238793 0.00328529499624398 0.00042899616347990096 0.00252374192032952 0.0 0.0
0.0 0.0014725008718663802 -0.0011636759685050711 0.0009757332762643505 0.00018794269224072007 0.001011010142724269 0.0 0.0
0.0 0.0002543002739709545 -0.0001773360072767513 0.00014390692396223082 3.342908331452035e-05 0.00022098178060713455 0.0 0.0
0.0 1.8793137010997716e-05 -9.856511416784828e-06 7.94455180230877e-06 1.91195961447604e-06 1.804373769642386e-05 0.0 0.0
0.0 9.159772720464821e-07 5.630253742091469e-08 -4.5367008322703315e-08 -1.0935529098212496e-08 -1.5681455054918204e-07 0.0 0.0
0.0 0.0 0.0 0.0 0.0 0.0 0.0 0.0
0.0 0.0 0.0 0.0 0.0 0.0 0.0 0.0
0.0 0.0 0.0 0.0 0.0 0.0 0.0 0.0
0.0 0.0 0.0 0.0 0.0 0.0 0.0 0.0
0.0 2.633745482838499e-07 1.9034837468267232e-08 -1.5232417022672714e-08 -3.80242044559584e-09 3.959451352121644e-08 0.0 0.0
0.0 2.0519509578743308e-05 -1.3248032939149385e-05 1.0609223669067469e-05 2.6388092700819335e-06 -1.788578940737437e-05 0.0 0.0
0.0 0.0004439598496666548 -0.00034344666200638967 0.00027971948800564555 6.372717400074423e-05 -0.00029635203750960816 0.0 0.0
0.0 0.0022616973667277636 -0.0018457576246731038 0.0015737138831434508 0.00027204374152965465 -0.0010953694703377667 0.0 0.0
0.0 0.00598763713890142 -0.005162098488992965 0.0046510830985968254 0.0005110153903961424 -0.002515297413915822 0.0 0.0
0.0 0.012178394860603799 -0.010508612862282957 0.009840718549704185 0.0006678943125787739 -0.004707347361279172 0.0 0.0
0.0 0.020796180763408965 -0.017854707685026075 0.017077378371451873 0.0007773293135741994 -0.007549198957174922 0.0 0.0
0.0 0.03152184630153824 -0.027023241622110523 0.026148197007573742 0.000875044614536799 -0.01077498532881693 0.0 0.0
0.0 0.04408229980902477 -0.03776955308859431 0.03680041864004921 0.0009691344485450691 -0.014051321322353894 0.0 0.0
0.0 0.0582290517872316 -0.04989819980311201 0.04883711756379196 0.0010610822393200157 -0.017197929555105636 0.0 0.0
0.0 0.07380695544460675 -0.0632928414715844 0.0621425057644671 0.001150335707117269 -0.020240928761414572 0.0 0.0
0.0 0.09077644708992014 -0.07788331439692597 0.07664516438587808 0.0012381500110478735 -0.023188280311678282 0.0 0.0
0.0 0.10893113326175125 -0.09352449318672468 0.09219316529791217 0.0013313278888125273 -0.026049801562272077 0.0 0.0
0.0 0.12742323729267566 -0.10964178984673842 0.10819339538696518 0.0014483944597732156 -0.02910058269092329 0.0 0.0
0.0 0.14479803439371156 -0.12456896638418094 0.12296267768779852 0.001606288696382377 -0.03311035520410944 0.0 0.0
0.0 0.15715140357753776 -0.13500732778389538 0.13321306781616343 0.0017942599677319454 -0.038823221757105085 0.0 0.0
0.0 0.15904889190837945 -0.13610125006680485 0.13411178838166177 0.0019894616851429863 -0.04636161874367675 0.0 0.0
0.0 0.1441752610041632 -0.12184588665817944 0.11968136800577442 0.002164518652404902 -0.055982540582585276 0.0 0.0
0.0 0.14417526100415734 -0.1218458866581684 0.11968136800576329 0.0021645186524051766 0.05598254058263691 0.0 0.0
0.0 0.15904889190835012 -0.13610125006677343 0.1341117883816309 0.0019894616851425843 0.04636161874374233 0.0 0.0
0.0 0.15715140357748547 -0.1350073277838463 0.13321306781611525 0.0017942599677308931 0.0388232217571488 0.0 0.0
0.0 0.14479803439363265 -0.12456896638411137 0.1229626776877292 0.0016062886963821477 0.03311035520411988 0.0 0.0
0.0 0.12742323729258265 -0.10964178984665729 0.10819339538688505 0.0014483944597721789 0.029100582690917132 0.0 0.0
0.0 0.10893113326165535 -0.09352449318664097 0.09219316529782995 0.0013313278888109682 0.02604980156226369 0.0 0.0
0.0 0.09077644708982187 -0.07788331439684103 0.07664516438579408 0.001238150011046868 0.023188280311661282 0.0 0.0
0.0 0.07380695544450933 -0.06329284147150001 0.06214250576438342 0.0011503357071165757 0.020240928761397606 0.0 0.0
0.0 0.05822905178713948 -0.0498981998030321 0.04883711756371306 0.0010610822393190538 0.017197929555084937 0.0 0.0
0.0 0.04408229980893921 -0.037769553088520785 0.03680041863997636 0.0009691344485444075 0.014051321322325155 0.0 0.0
0.0 0.03152184630146616 -0.027023241622048666 0.02614819700751263 0.0008750446145360265 0.01077498532878995 0.0 0.0
0.0 0.02079618076335467 -0.01785470768497916 0.017077378371405286 0.0007773293135738743 0.007549198957157526 0.0 0.0
0.0 0.012178394860562663 -0.01050861286224742 0.009840718549669267 0.0006678943125781539 0.004707347361264151 0.0 0.0
0.0 0.005987637138875769 -0.0051620984889710324 0.004651083098575936 0.0005110153903950964 0.002515297413905848 0.0 0.0
0.0 0.0022616973667141005 -0.0018457576246624305 0.0015737138831338814 0.0002720437415285488 0.001095369470331843 0.0 0.0
0.0 0.0004439598496623192 -0.0003434466620037091 0.0002797194880034046 6.372717400030427e-05 0.00029635203750755083 0.0 0.0
0.0 2.051950957838134e-05 -1.3248032939466563e-05 1.060922366930778e-05 2.6388092701587873e-06 1.7885789407758995e-05 0.0 0.0
0.0 2.633745479801639e-07 1.90348374459991e-08 -1.5232417004860948e-08 -3.802420441135515e-09 -3.959451347502403e-08 0.0 0.0
0.0 0.0 0.0 0.0 0.0 0.0 0.0 0.0
0.0 0.0 0.0 0.0 0.0 0.0 0.0 0.0
0.0 0.0 0.0 0.0 0.0 0.0 0.0 0.0
0.0 0.0 0.0 0.0 0.0 0.0 0.0 0.0
0.0 0.0 0.0 0.0 0.0 0.0 0.0 0.0
0.0 3.170162357908735e-05 -2.3601749305561e-05 1.8910663498342677e-05 4.691085807218312e-06 -2.2391007879938563e-05 0.0 0.0
0.0 0.0007635180677130831 -0.0006152658132278211 0.0005046551218051017 0.00011061069142271911 -0.00034218509874314116 0.0 0.0
0.0 0.0031800924892037476 -0.0026876896595789583 0.002330639571303602 0.00035705008827535575 -0.001049209300260858 0.0 0.0
0.0 0.007629187161878202 -0.006718630250226745 0.006145223218609991 0.0005734070316167534 -0.0022163398890231913 0.0 0.0
0.0 0.01480545164926696 -0.012908269244319249 0.012202715943569321 0.0007055533007499252 -0.003988289755378339 0.0 0.0
0.0 0.02460396432667583 -0.02133053615707807 0.02051848011692331 0.0008120560401547404 -0.00632027223876311 0.0 0.0
0.0 0.03682037723139216 -0.03183936704295576 0.030924961329895022 0.00091440571306074 -0.008982100431830549 0.0 0.0
0.0 0.05119656250760337 -0.044196096405769415 0.043180197466116545 0.0010158989396528448 -0.011691902163834532 0.0 0.0
0.0 0.06739611248676818 -0.058188782392185195 0.05707237917692761 0.001116403215257578 -0.014290917889546785 0.0 0.0
0.0 0.08540662333595517 -0.07365716626137597 0.07244109880363397 0.0012160674577419684 -0.01681916181769033 0.0 0.0
0.0 0.10471347095835896 -0.09044996518763534 0.08913436381542332 0.0013156013722120143 -0.019291155554052673 0.0 0.0
0.0 0.1252783336712077 -0.108304106996747 0.10688571540505931 0.0014183915916876802 -0.021485203061918583 0.0 0.0
0.0 0.146371478898279 -0.12659660264440334 0.12505807023251034 0.001538532411892932 -0.023193456336211248 0.0 0.0
0.0 0.16615332581695882 -0.14373876352410253 0.14203781533087728 0.0017009481932252235 -0.025280926407703762 0.0 0.0
0.0 0.18083011578337374 -0.15630195694913612 0.15438255349899485 0.0019194034501412243 -0.030442076521138575 0.0 0.0
0.0 0.18430657872353584 -0.1587077570903406 0.1565664964160265 0.002141260674314159 -0.041419747960795936 0.0 0.0
0.0 0.16970591123358453 -0.1441090990163334 0.14177588531266871 0.002333213703664647 -0.059583576005744286 0.0 0.0
0.0 0.16970591123357637 -0.14410909901632185 0.14177588531265747 0.0023332137036642963 0.05958357600578557 0.0 0.0
0.0 0.18430657872348763 -0.1587077570902957 0.1565664964159806 0.002141260674315127 0.04141974796084972 0.0 0.0
0.0 0.18083011578329425 -0.1563019569490659 0.1543825534989234 0.001919403450142403 0.0304420765211754 0.0 0.0
0.0 0.1661533258168648 -0.1437387635240204 0.14203781533079596 0.001700948193224475 0.025280926407710777 0.0 0.0
0.0 0.14637147889817256 -0.12659660264431088 0.12505807023241866 0.001538532411892202 0.02319345633620771 0.0 0.0
0.0 0.125278333671097 -0.10830410699665081 0.10688571540496371 0.001418391591687163 0.021485203061913365 0.0 0.0
0.0 0.10471347095824857 -0.09044996518753959 0.0891343638153286 0.0013156013722109448 0.019291155554039943 0.0 0.0
0.0 0.08540662333583943 -0.073657166261276 0.07244109880353386 0.001216067457742147 0.016819161817676648 0.0 0.0
0.0 0.06739611248665796 -0.05818878239209012 0.05707237917683259 0.0011164032152575051 0.01429091788953066 0.0 0.0
0.0 0.05119656250750725 -0.044196096405686294 0.04318019746603374 0.0010158989396525427 0.011691902163811049 0.0 0.0
0.0 0.03682037723131261 -0.031839367042886965 0.030924961329826556 0.0009144057130604053 0.008982100431808243 0.0 0.0
0.0 0.02460396432661902 -0.02133053615702829 0.020518480116874578 0.0008120560401537171 0.0063202722387490995 0.0 0.0
0.0 0.014805451649221884 -0.012908269244279697 0.012202715943530638 0.0007055533007490647 0.003988289755366151 0.0 0.0
0.0 0.007629187161847494 -0.00671863025019983 0.006145223218583913 0.0005734070316159232 0.002216339889014348 0.0 0.0
0.0 0.003180092489187311 -0.0026876896595652107 0.0023306395712910486 0.00035705008827416167 0.0010492093002553008 0.0 0.0
0.0 0.0007635180677074223 -0.0006152658132237782 0.0005046551218016883 0.00011061069142208997 0.00034218509874106475 0.0 0.0
0.0 3.170162357853627e-05 -2.3601749305811937e-05 1.8910663498526697e-05 4.691085807285263e-06 2.2391007880129098e-05 0.0 0.0
0.0 0.0 0.0 0.0 0.0 0.0 0.0 0.0
0.0 0.0 0.0 0.0 0.0 0.0 0.0 0.0
0.0 0.0 0.0 0.0 0.0 0.0 0.0 0.0
0.0 0.0 0.0 0.0 0.0 0.0 0.0 0.0
0.0 0.0 0.0 0.0 0.0 0.0 0.0 0.0
0.0 0.0 0.0 0.0 0.0 0.0 0.0 0.0
0.0 7.055246957774173e-05 -5.581996172782653e-05 4.4643994180265056e-05 1.1175967547561495e-05 -3.223909160083443e-05 0.0 0.0
0.0 0.0012410358155540177 -0.0010103142349028045 0.0008386893091622135 0.00017162492574059057 -0.000321465279540229 0.0 0.0
0.0 0.004071288219586352 -0.003665633904185886 0.0032300482133403264 0.0004355856908455587 -0.0008210602964158922 0.0 0.0
0.0 0.009410287227182183 -0.008332218466468666 0.0077147432361862195 0.0006174752302824499 -0.0016155548477371747 0.0 0.0
0.0 0.017480033135676525 -0.015329179141572336 0.014593862527492283 0.0007353166140800622 -0.0028230725560767023 0.0 0.0
0.0 0.028431231291097127 -0.024792473028671064 0.023951932217628747 0.000840540811042304 -0.004446483974281426 0.0 0.0
0.0 0.04211956281778755 -0.03661858910554319 0.03567025743109007 0.000948331674453114 -0.006327662926152201 0.0 0.0
0.0 0.05828581768692332 -0.05057633389650489 0.04951873428425696 0.0010575996122479 -0.008246172825624887 0.0 0.0
0.0 0.07670267255577998 -0.06643162236322943 0.06526463562409199 0.0011669867391374516 -0.010086888151583396 0.0 0.0
0.0 0.09683732576401086 -0.08397830490196995 0.08270095199288474 0.0012773529090852427 -0.011906329981413666 0.0 0.0
0.0 0.11868135952286445 -0.1029528633822768 0.10156284648398456 0.0013900168982921958 -0.013666287932367288 0.0 0.0
0.0 0.14171663878986476 -0.12291942854919 0.12141302956733564 0.0015063989818542907 -0.015091013299944932 0.0 0.0
0.0 0.16496379363761793 -0.14310686037830977 0.14147674900728358 0.0016301113710261443 -0.015703299728512685 0.0 0.0
0.0 0.18678570171485367 -0.1620769309600404 0.16029870617945158 0.0017782247805889647 -0.015653026651699712 0.0 0.0
0.0 0.2039872610469254 -0.1769414351944281 0.1749550287001268 0.001986406494301235 -0.01832088730255744 0.0 0.0
0.0 0.21039436029633501 -0.181953658167847 0.17965393402767435 0.0022997241401724617 -0.03197636219318216 0.0 0.0
0.0 0.19722703458001517 -0.16815898712259603 0.16562846984296156 0.002530517279634351 -0.06161581830380483 0.0 0.0
0.0 0.19722703458000568 -0.16815898712258462 0.1656284698429511 0.002530517279633434 0.06161581830383686 0.0 0.0
0.0 0.21039436029628578 -0.1819536581678017 0.1796539340276302 0.0022997241401714547 0.03197636219322662 0.0 0.0
0.0 0.20398726104684178 -0.17694143519435435 0.17495502870005433 0.001986406494300119 0.018320887302585846 0.0 0.0
0.0 0.18678570171474793 -0.16207693095994835 0.16029870617936026 0.0017782247805881216 0.01565302665170261 0.0 0.0
0.0 0.16496379363749852 -0.14310686037820625 0.14147674900718057 0.0016301113710256443 0.015703299728509233 0.0 0.0
0.0 0.14171663878973828 -0.12291942854908039 0.12141302956722617 0.001506398981854228 0.01509101329994245 0.0 0.0
0.0 0.11868135952274061 -0.102952863382169 0.10156284648387819 0.0013900168982907838 0.013666287932362492 0.0 0.0
0.0 0.09683732576388562 -0.08397830490186109 0.08270095199277695 0.0012773529090841541 0.011906329981405787 0.0 0.0
0.0 0.07670267255566164 -0.06643162236312632 0.06526463562398988 0.0011669867391364227 0.010086888151574339 0.0 0.0
0.0 0.05828581768681753 -0.05057633389641311 0.049518734284166074 0.0010575996122470228 0.008246172825608326 0.0 0.0
0.0 0.04211956281769687 -0.03661858910546455 0.035670257431011765 0.0009483316744527811 0.0063276629261359695 0.0 0.0
0.0 0.028431231291026506 -0.024792473028609173 0.023951932217567314 0.0008405408110418575 0.004446483974271064 0.0 0.0
0.0 0.01748003313562558 -0.015329179141527531 0.014593862527448109 0.0007353166140794094 0.0028230725560684402 0.0 0.0
0.0 0.009410287227147034 -0.008332218466437459 0.007714743236155779 0.0006174752302816795 0.001615554847730725 0.0 0.0
0.0 0.004071288219567834 -0.0036656339041693732 0.0032300482133248787 0.0004355856908444943 0.0008210602964120496 0.0 0.0
0.0 0.001241035815545828 -0.001010314234896416 0.0008386893091567014 0.00017162492573971464 0.0003214652795384569 0.0 0.0
0.0 7.055246957630559e-05 -5.5819961727427244e-05 4.4643994179910515e-05 1.1175967547516689e-05 3.2239091600555646e-05 0.0 0.0
0.0 0.0 0.0 0.0 0.0 0.0 0.0 0.0
0.0 0.0 0.0 0.0 0.0 0.0 0.0 0.0
0.0 0.0 0.0 0.0 0.0 0.0 0.0 0.0
0.0 0.0 0.0 0.0 0.0 0.0 0.0 0.0
0.0 0.0 0.0 0.0 0.0 0.0 0.0 0.0
0.0 0.0 0.0 0.0 0.0 0.0 0.0 0.0
0.0 0.00018017257847682285 -0.00015398606578532364 0.00012288680611524316 3.1099259670080585e-05 -3.750929105086045e-05 0.0 0.0
0.0 0.001881148349633265 -0.0015224198528248488 0.0012803034127890451 0.00024211644003580332 -0.00019021154461022372 0.0 0.0
0.0 0.00523132079270144 -0.00471002997134047 0.004210966587995628 0.0004990633833448433 -0.0003871095691311286 0.0 0.0
0.0 0.011251776914214244 -0.009979088000781875 0.009328041372356759 0.0006510466284251175 -0.0007107370104787588 0.0 0.0
0.0 0.020195065216064612 -0.017736726685422102 0.016978078444761752 0.0007586482406603405 -0.0012152404786226314 0.0 0.0
0.0 0.03227469778654773 -0.028200991833740495 0.027336697062042205 0.0008642947716982787 -0.0019364136334693084 0.0 0.0
0.0 0.04744366660384989 -0.0413186791419273 0.04034131865526784 0.0009773604866594786 -0.002807488241386648 0.0 0.0
0.0 0.0654734421458915 -0.05687057363795236 0.05577596337171543 0.0010946102662369255 -0.003712372403967277 0.0 0.0
0.0 0.08577202858248834 -0.07459193394489981 0.07337827065124836 0.0012136632936514322 -0.004597671974241695 0.0 0.0
0.0 0.10831977959285381 -0.09419907984537981 0.09286443706390735 0.0013346427814724423 -0.005463211464243733 0.0 0.0
0.0 0.13268978433899856 -0.11532740504931575 0.11386739414457428 0.0014600109047414522 -0.0062515721862279544 0.0 0.0
0.0 0.15810983633868944 -0.13737040173846685 0.13577902667649427 0.001591375061972629 -0.00679448301186552 0.0 0.0
0.0 0.1834275511227976 -0.15931206104502016 0.1575847928132669 0.0017272682317531346 -0.0067277895219588855 0.0 0.0
0.0 0.20685530833599053 -0.17963069729939196 0.1777655326007396 0.0018651646986523524 -0.005646072487708062 0.0 0.0
0.0 0.22583376206240074 -0.19611544149838278 0.19409479036972355 0.0020206511286590023 -0.004725827208348764 0.0 0.0
0.0 0.2361402306301108 -0.20484111944131544 0.20257433129198257 0.0022667881493327133 -0.013814178758731336 0.0 0.0
0.0 0.22848243673173074 -0.19593332961496362 0.1930250881990903 0.002908241415873253 -0.05685407995301532 0.0 0.0
0.0 0.2284824367317132 -0.19593332961494736 0.1930250881990745 0.0029082414158726356 0.05685407995302711 0.0 0.0
0.0 0.23614023063004816 -0.20484111944126074 0.20257433129192817 0.0022667881493323434 0.013814178758751232 0.0 0.0
0.0 0.2258337620622998 -0.1961154414982956 0.1940947903696359 0.0020206511286595557 0.004725827208363129 0.0 0.0
0.0 0.20685530833586518 -0.17963069729928358 0.17776553260063127 0.0018651646986523657 0.005646072487705503 0.0 0.0
0.0 0.1834275511226606 -0.15931206104490164 0.1575847928131484 0.001727268231753052 0.006727789521955909 0.0 0.0
0.0 0.1581098363385502 -0.13737040173834597 0.135779026676374 0.001591375061971886 0.006794483011865577 0.0 0.0
0.0 0.13268978433885792 -0.1153274050491942 0.11386739414445259 0.0014600109047415433 0.006251572186224037 0.0 0.0
0.0 0.10831977959271535 -0.09419907984525996 0.09286443706378773 0.0013346427814721915 0.005463211464239512 0.0 0.0
0.0 0.08577202858235775 -0.0745919339447866 0.07337827065113589 0.0012136632936506691 0.0045976719742382086 0.0 0.0
0.0 0.0654734421457753 -0.0568705736378514 0.05577596337161525 0.0010946102662361277 0.003712372403958281 0.0 0.0
0.0 0.04744366660375193 -0.04131867914184227 0.040341318655183686 0.000977360486658611 0.002807488241379108 0.0 0.0
0.0 0.032274697786469075 -0.028200991833671675 0.027336697061974016 0.0008642947716976451 0.0019364136334651327 0.0 0.0
0.0 0.02019506521600727 -0.017736726685371483 0.016978078444711678 0.0007586482406597981 0.0012152404786186588 0.0 0.0
0.0 0.011251776914175917 -0.009979088000747875 0.009328041372323358 0.0006510466284245195 0.0007107370104762623 0.0 0.0
0.0 0.00523132079268107 -0.004710029971321932 0.004210966587977925 0.0004990633833440058 0.00038710956912953935 0.0 0.0
0.0 0.0018811483496229495 -0.0015224198528165952 0.001280303412781733 0.00024211644003486338 0.00019021154460940719 0.0 0.0
0.0 0.00018017257847544673 -0.00015398606578475693 0.0001228868061147752 3.109925966998165e-05 3.750929105072023e-05 0.0 0.0
0.0 0.0 0.0 0.0 0.0 0.0 0.0 0.0
0.0 0.0 0.0 0.0 0.0 0.0 0.0 0.0
0.0 0.0 0.0 0.0 0.0 0.0 0.0 0.0