# vtk DataFile Version 3.0
Some data
ASCII
DATASET UNSTRUCTURED_GRID
POINTS 861 float
0.0 0.0 0.0
0.4 0.0 0.0
0.8 0.0 0.0
1.2000000000000002 0.0 0.0
1.6 0.0 0.0
2.0 0.0 0.0
2.4000000000000004 0.0 0.0
2.8000000000000003 0.0 0.0
3.2 0.0 0.0
3.6 0.0 0.0
4.0 0.0 0.0
4.4 0.0 0.0
4.800000000000001 0.0 0.0
5.2 0.0 0.0
5.6000000000000005 0.0 0.0
6.0 0.0 0.0
6.4 0.0 0.0
6.800000000000001 0.0 0.0
7.2 0.0 0.0
7.6000000000000005 0.0 0.0
8.0 0.0 0.0
8.4 0.0 0.0
8.8 0.0 0.0
9.200000000000001 0.0 0.0
9.600000000000001 0.0 0.0
10.0 0.0 0.0
10.4 0.0 0.0
10.8 0.0 0.0
11.200000000000001 0.0 0.0
11.600000000000001 0.0 0.0
12.0 0.0 0.0
12.4 0.0 0.0
12.8 0.0 0.0
13.200000000000001 0.0 0.0
13.600000000000001 0.0 0.0
14.0 0.0 0.0
14.4 0.0 0.0
14.8 0.0 0.0
15.200000000000001 0.0 0.0
15.600000000000001 0.0 0.0
16.0 0.0 0.0
0.0 0.1 0.0
0.4 0.1 0.0
0.8 0.1 0.0
1.2000000000000002 0.1 0.0
1.6 0.1 0.0
2.0 0.1 0.0
2.4000000000000004 0.1 0.0
2.8000000000000003 0.1 0.0
3.2 0.1 0.0
3.6 0.1 0.0
4.0 0.1 0.0
4.4 0.1 0.0
4.800000000000001 0.1 0.0
5.2 0.1 0.0
5.6000000000000005 0.1 0.0
6.0 0.1 0.0
6.4 0.1 0.0
6.800000000000001 0.1 0.0
7.2 0.1 0.0
7.6000000000000005 0.1 0.0
8.0 0.1 0.0
8.4 0.1 0.0
8.8 0.1 0.0
9.200000000000001 0.1 0.0
9.600000000000001 0.1 0.0
10.0 0.1 0.0
10.4 0.1 0.0
10.8 0.1 0.0
11.200000000000001 0.1 0.0
11.600000000000001 0.1 0.0
12.0 0.1 0.0
12.4 0.1 0.0
12.8 0.1 0.0
13.200000000000001 0.1 0.0
13.600000000000001 0.1 0.0
14.0 0.1 0.0
14.4 0.1 0.0
14.8 0.1 0.0
15.200000000000001 0.1 0.0
15.600000000000001 0.1 0.0
16.0 0.1 0.0
0.0 0.2 0.0
0.4 0.2 0.0
0.8 0.2 0.0
1.2000000000000002 0.2 0.0
1.6 0.2 0.0
2.0 0.2 0.0
2.4000000000000004 0.2 0.0
2.8000000000000003 0.2 0.0
3.2 0.2 0.0
3.6 0.2 0.0
4.0 0.2 0.0
4.4 0.2 0.0
4.800000000000001 0.2 0.0
5.2 0.2 0.0
5.6000000000000005 0.2 0.0
6.0 0.2 0.0
6.4 0.2 0.0
6.800000000000001 0.2 0.0
7.2 0.2 0.0
7.6000000000000005 0.2 0.0
8.0 0.2 0.0
8.4 0.2 0.0
8.8 0.2 0.0
9.200000000000001 0.2 0.0
9.600000000000001 0.2 0.0
10.0 0.2 0.0
10.4 0.2 0.0
10.8 0.2 0.0
11.200000000000001 0.2 0.0
11.600000000000001 0.2 0.0
12.0 0.2 0.0
12.4 0.2 0.0
12.8 0.2 0.0
13.200000000000001 0.2 0.0
13.600000000000001 0.2 0.0
14.0 0.2 0.0
14.4 0.2 0.0
14.8 0.2 0.0
15.200000000000001 0.2 0.0
15.600000000000001 0.2 0.0
16.0 0.2 0.0
0.0 0.30000000000000004 0.0
0.4 0.30000000000000004 0.0
0.8 0.30000000000000004 0.0
1.2000000000000002 0.30000000000000004 0.0
1.6 0.30000000000000004 0.0
2.0 0.30000000000000004 0.0
2.4000000000000004 0.30000000000000004 0.0
2.8000000000000003 0.30000000000000004 0.0
3.2 0.30000000000000004 0.0
3.6 0.30000000000000004 0.0
4.0 0.30000000000000004 0.0
4.4 0.30000000000000004 0.0
4.800000000000001 0.30000000000000004 0.0
5.2 0.30000000000000004 0.0
5.6000000000000005 0.30000000000000004 0.0
6.0 0.30000000000000004 0.0
6.4 0.30000000000000004 0.0
6.800000000000001 0.30000000000000004 0.0
7.2 0.30000000000000004 0.0
7.6000000000000005 0.30000000000000004 0.0
8.0 0.30000000000000004 0.0
8.4 0.30000000000000004 0.0
8.8 0.30000000000000004 0.0
9.200000000000001 0.30000000000000004 0.0
9.600000000000001 0.30000000000000004 0.0
10.0 0.30000000000000004 0.0
10.4 0.30000000000000004 0.0
10.8 0.30000000000000004 0.0
11.200000000000001 0.30000000000000004 0.0
11.600000000000001 0.30000000000000004 0.0
12.0 0.30000000000000004 0.0
12.4 0.30000000000000004 0.0
12.8 0.30000000000000004 0.0
13.200000000000001 0.30000000000000004 0.0
13.600000000000001 0.30000000000000004 0.0
14.0 0.30000000000000004 0.0
14.4 0.30000000000000004 0.0
14.8 0.30000000000000004 0.0
15.200000000000001 0.30000000000000004 0.0
15.600000000000001 0.30000000000000004 0.0
16.0 0.30000000000000004 0.0
0.0 0.4 0.0
0.4 0.4 0.0
0.8 0.4 0.0
1.2000000000000002 0.4 0.0
1.6 0.4 0.0
2.0 0.4 0.0
2.4000000000000004 0.4 0.0
2.8000000000000003 0.4 0.0
3.2 0.4 0.0
3.6 0.4 0.0
4.0 0.4 0.0
4.4 0.4 0.0
4.800000000000001 0.4 0.0
5.2 0.4 0.0
5.6000000000000005 0.4 0.0
6.0 0.4 0.0
6.4 0.4 0.0
6.800000000000001 0.4 0.0
7.2 0.4 0.0
7.6000000000000005 0.4 0.0
8.0 0.4 0.0
8.4 0.4 0.0
8.8 0.4 0.0
9.200000000000001 0.4 0.0
9.600000000000001 0.4 0.0
10.0 0.4 0.0
10.4 0.4 0.0
10.8 0.4 0.0
11.200000000000001 0.4 0.0
11.600000000000001 0.4 0.0
12.0 0.4 0.0
12.4 0.4 0.0
12.8 0.4 0.0
13.200000000000001 0.4 0.0
13.600000000000001 0.4 0.0
14.0 0.4 0.0
14.4 0.4 0.0
14.8 0.4 0.0
15.200000000000001 0.4 0.0
15.600000000000001 0.4 0.0
16.0 0.4 0.0
0.0 0.5 0.0
0.4 0.5 0.0
0.8 0.5 0.0
1.2000000000000002 0.5 0.0
1.6 0.5 0.0
2.0 0.5 0.0
2.4000000000000004 0.5 0.0
2.8000000000000003 0.5 0.0
3.2 0.5 0.0
3.6 0.5 0.0
4.0 0.5 0.0
4.4 0.5 0.0
4.800000000000001 0.5 0.0
5.2 0.5 0.0
5.6000000000000005 0.5 0.0
6.0 0.5 0.0
6.4 0.5 0.0
6.800000000000001 0.5 0.0
7.2 0.5 0.0
7.6000000000000005 0.5 0.0
8.0 0.5 0.0
8.4 0.5 0.0
8.8 0.5 0.0
9.200000000000001 0.5 0.0
9.600000000000001 0.5 0.0
10.0 0.5 0.0
10.4 0.5 0.0
10.8 0.5 0.0
11.200000000000001 0.5 0.0
11.600000000000001 0.5 0.0
12.0 0.5 0.0
12.4 0.5 0.0
12.8 0.5 0.0
13.200000000000001 0.5 0.0
13.600000000000001 0.5 0.0
14.0 0.5 0.0
14.4 0.5 0.0
14.8 0.5 0.0
15.200000000000001 0.5 0.0
15.600000000000001 0.5 0.0
16.0 0.5 0.0
0.0 0.6000000000000001 0.0
0.4 0.6000000000000001 0.0
0.8 0.6000000000000001 0.0
1.2000000000000002 0.6000000000000001 0.0
1.6 0.6000000000000001 0.0
2.0 0.6000000000000001 0.0
2.4000000000000004 0.6000000000000001 0.0
2.8000000000000003 0.6000000000000001 0.0
3.2 0.6000000000000001 0.0
3.6 0.6000000000000001 0.0
4.0 0.6000000000000001 0.0
4.4 0.6000000000000001 0.0
4.800000000000001 0.6000000000000001 0.0
5.2 0.6000000000000001 0.0
5.6000000000000005 0.6000000000000001 0.0
6.0 0.6000000000000001 0.0
6.4 0.6000000000000001 0.0
6.800000000000001 0.6000000000000001 0.0
7.2 0.6000000000000001 0.0
7.6000000000000005 0.6000000000000001 0.0
8.0 0.6000000000000001 0.0
8.4 0.6000000000000001 0.0
8.8 0.6000000000000001 0.0
9.200000000000001 0.6000000000000001 0.0
9.600000000000001 0.6000000000000001 0.0
10.0 0.6000000000000001 0.0
10.4 0.6000000000000001 0.0
10.8 0.6000000000000001 0.0
11.200000000000001 0.6000000000000001 0.0
11.600000000000001 0.6000000000000001 0.0
12.0 0.6000000000000001 0.0
12.4 0.6000000000000001 0.0
12.8 0.6000000000000001 0.0
13.200000000000001 0.6000000000000001 0.0
13.600000000000001 0.6000000000000001 0.0
14.0 0.6000000000000001 0.0
14.4 0.6000000000000001 0.0
14.8 0.6000000000000001 0.0
15.200000000000001 0.6000000000000001 0.0
15.600000000000001 0.6000000000000001 0.0
16.0 0.6000000000000001 0.0
0.0 0.7000000000000001 0.0
0.4 0.7000000000000001 0.0
0.8 0.7000000000000001 0.0
1.2000000000000002 0.7000000000000001 0.0
1.6 0.7000000000000001 0.0
2.0 0.7000000000000001 0.0
2.4000000000000004 0.7000000000000001 0.0
2.8000000000000003 0.7000000000000001 0.0
3.2 0.7000000000000001 0.0
3.6 0.7000000000000001 0.0
4.0 0.7000000000000001 0.0
4.4 0.7000000000000001 0.0
4.800000000000001 0.7000000000000001 0.0
5.2 0.7000000000000001 0.0
5.6000000000000005 0.7000000000000001 0.0
6.0 0.7000000000000001 0.0
6.4 0.7000000000000001 0.0
6.800000000000001 0.7000000000000001 0.0
7.2 0.7000000000000001 0.0
7.6000000000000005 0.7000000000000001 0.0
8.0 0.7000000000000001 0.0
8.4 0.7000000000000001 0.0
8.8 0.7000000000000001 0.0
9.200000000000001 0.7000000000000001 0.0
9.600000000000001 0.7000000000000001 0.0
10.0 0.7000000000000001 0.0
10.4 0.7000000000000001 0.0
10.8 0.7000000000000001 0.0
11.200000000000001 0.7000000000000001 0.0
11.600000000000001 0.7000000000000001 0.0
12.0 0.7000000000000001 0.0
12.4 0.7000000000000001 0.0
12.8 0.7000000000000001 0.0
13.200000000000001 0.7000000000000001 0.0
13.600000000000001 0.7000000000000001 0.0
14.0 0.7000000000000001 0.0
14.4 0.7000000000000001 0.0
14.8 0.7000000000000001 0.0
15.200000000000001 0.7000000000000001 0.0
15.600000000000001 0.7000000000000001 0.0
16.0 0.7000000000000001 0.0
0.0 0.8 0.0
0.4 0.8 0.0
0.8 0.8 0.0
1.2000000000000002 0.8 0.0
1.6 0.8 0.0
2.0 0.8 0.0
2.4000000000000004 0.8 0.0
2.8000000000000003 0.8 0.0
3.2 0.8 0.0
3.6 0.8 0.0
4.0 0.8 0.0
4.4 0.8 0.0
4.800000000000001 0.8 0.0
5.2 0.8 0.0
5.6000000000000005 0.8 0.0
6.0 0.8 0.0
6.4 0.8 0.0
6.800000000000001 0.8 0.0
7.2 0.8 0.0
7.6000000000000005 0.8 0.0
8.0 0.8 0.0
8.4 0.8 0.0
8.8 0.8 0.0
9.200000000000001 0.8 0.0
9.600000000000001 0.8 0.0
10.0 0.8 0.0
10.4 0.8 0.0
10.8 0.8 0.0
11.200000000000001 0.8 0.0
11.600000000000001 0.8 0.0
12.0 0.8 0.0
12.4 0.8 0.0
12.8 0.8 0.0
13.200000000000001 0.8 0.0
13.600000000000001 0.8 0.0
14.0 0.8 0.0
14.4 0.8 0.0
14.8 0.8 0.0
15.200000000000001 0.8 0.0
15.600000000000001 0.8 0.0
16.0 0.8 0.0
0.0 0.9 0.0
0.4 0.9 0.0
0.8 0.9 0.0
1.2000000000000002 0.9 0.0
1.6 0.9 0.0
2.0 0.9 0.0
2.4000000000000004 0.9 0.0
2.8000000000000003 0.9 0.0
3.2 0.9 0.0
3.6 0.9 0.0
4.0 0.9 0.0
4.4 0.9 0.0
4.800000000000001 0.9 0.0
5.2 0.9 0.0
5.6000000000000005 0.9 0.0
6.0 0.9 0.0
6.4 0.9 0.0
6.800000000000001 0.9 0.0
7.2 0.9 0.0
7.6000000000000005 0.9 0.0
8.0 0.9 0.0
8.4 0.9 0.0
8.8 0.9 0.0
9.200000000000001 0.9 0.0
9.600000000000001 0.9 0.0
10.0 0.9 0.0
10.4 0.9 0.0
10.8 0.9 0.0
11.200000000000001 0.9 0.0
11.600000000000001 0.9 0.0
12.0 0.9 0.0
12.4 0.9 0.0
12.8 0.9 0.0
13.200000000000001 0.9 0.0
13.600000000000001 0.9 0.0
14.0 0.9 0.0
14.4 0.9 0.0
14.8 0.9 0.0
15.200000000000001 0.9 0.0
15.600000000000001 0.9 0.0
16.0 0.9 0.0
0.0 1.0 0.0
0.4 1.0 0.0
0.8 1.0 0.0
1.2000000000000002 1.0 0.0
1.6 1.0 0.0
2.0 1.0 0.0
2.4000000000000004 1.0 0.0
2.8000000000000003 1.0 0.0
3.2 1.0 0.0
3.6 1.0 0.0
4.0 1.0 0.0
4.4 1.0 0.0
4.800000000000001 1.0 0.0
5.2 1.0 0.0
5.6000000000000005 1.0 0.0
6.0 1.0 0.0
6.4 1.0 0.0
6.800000000000001 1.0 0.0
7.2 1.0 0.0
7.6000000000000005 1.0 0.0
8.0 1.0 0.0
8.4 1.0 0.0
8.8 1.0 0.0
9.200000000000001 1.0 0.0
9.600000000000001 1.0 0.0
10.0 1.0 0.0
10.4 1.0 0.0
10.8 1.0 0.0
11.200000000000001 1.0 0.0
11.600000000000001 1.0 0.0
12.0 1.0 0.0
12.4 1.0 0.0
12.8 1.0 0.0
13.200000000000001 1.0 0.0
13.600000000000001 1.0 0.0
14.0 1.0 0.0
14.4 1.0 0.0
14.8 1.0 0.0
15.200000000000001 1.0 0.0
15.600000000000001 1.0 0.0
16.0 1.0 0.0
0.0 1.1 0.0
0.4 1.1 0.0
0.8 1.1 0.0
1.2000000000000002 1.1 0.0
1.6 1.1 0.0
2.0 1.1 0.0
2.4000000000000004 1.1 0.0
2.8000000000000003 1.1 0.0
3.2 1.1 0.0
3.6 1.1 0.0
4.0 1.1 0.0
4.4 1.1 0.0
4.800000000000001 1.1 0.0
5.2 1.1 0.0
5.6000000000000005 1.1 0.0
6.0 1.1 0.0
6.4 1.1 0.0
6.800000000000001 1.1 0.0
7.2 1.1 0.0
7.6000000000000005 1.1 0.0
8.0 1.1 0.0
8.4 1.1 0.0
8.8 1.1 0.0
9.200000000000001 1.1 0.0
9.600000000000001 1.1 0.0
10.0 1.1 0.0
10.4 1.1 0.0
10.8 1.1 0.0
11.200000000000001 1.1 0.0
11.600000000000001 1.1 0.0
12.0 1.1 0.0
12.4 1.1 0.0
12.8 1.1 0.0
13.200000000000001 1.1 0.0
13.600000000000001 1.1 0.0
14.0 1.1 0.0
14.4 1.1 0.0
14.8 1.1 0.0
15.200000000000001 1.1 0.0
15.600000000000001 1.1 0.0
16.0 1.1 0.0
0.0 1.2000000000000002 0.0
0.4 1.2000000000000002 0.0
0.8 1.2000000000000002 0.0
1.2000000000000002 1.2000000000000002 0.0
1.6 1.2000000000000002 0.0
2.0 1.2000000000000002 0.0
2.4000000000000004 1.2000000000000002 0.0
2.8000000000000003 1.2000000000000002 0.0
3.2 1.2000000000000002 0.0
3.6 1.2000000000000002 0.0
4.0 1.2000000000000002 0.0
4.4 1.2000000000000002 0.0
4.800000000000001 1.2000000000000002 0.0
5.2 1.2000000000000002 0.0
5.6000000000000005 1.2000000000000002 0.0
6.0 1.2000000000000002 0.0
6.4 1.2000000000000002 0.0
6.800000000000001 1.2000000000000002 0.0
7.2 1.2000000000000002 0.0
7.6000000000000005 1.2000000000000002 0.0
8.0 1.2000000000000002 0.0
8.4 1.2000000000000002 0.0
8.8 1.2000000000000002 0.0
9.200000000000001 1.2000000000000002 0.0
9.600000000000001 1.2000000000000002 0.0
10.0 1.2000000000000002 0.0
10.4 1.2000000000000002 0.0
10.8 1.2000000000000002 0.0
11.200000000000001 1.2000000000000002 0.0
11.600000000000001 1.2000000000000002 0.0
12.0 1.2000000000000002 0.0
12.4 1.2000000000000002 0.0
12.8 1.2000000000000002 0.0
13.200000000000001 1.2000000000000002 0.0
13.600000000000001 1.2000000000000002 0.0
14.0 1.2000000000000002 0.0
14.4 1.2000000000000002 0.0
14.8 1.2000000000000002 0.0
15.200000000000001 1.2000000000000002 0.0
15.600000000000001 1.2000000000000002 0.0
16.0 1.2000000000000002 0.0
0.0 1.3 0.0
0.4 1.3 0.0
0.8 1.3 0.0
1.2000000000000002 1.3 0.0
1.6 1.3 0.0
2.0 1.3 0.0
2.4000000000000004 1.3 0.0
2.8000000000000003 1.3 0.0
3.2 1.3 0.0
3.6 1.3 0.0
4.0 1.3 0.0
4.4 1.3 0.0
4.800000000000001 1.3 0.0
5.2 1.3 0.0
5.6000000000000005 1.3 0.0
6.0 1.3 0.0
6.4 1.3 0.0
6.800000000000001 1.3 0.0
7.2 1.3 0.0
7.6000000000000005 1.3 0.0
8.0 1.3 0.0
8.4 1.3 0.0
8.8 1.3 0.0
9.200000000000001 1.3 0.0
9.600000000000001 1.3 0.0
10.0 1.3 0.0
10.4 1.3 0.0
10.8 1.3 0.0
11.200000000000001 1.3 0.0
11.600000000000001 1.3 0.0
12.0 1.3 0.0
12.4 1.3 0.0
12.8 1.3 0.0
13.200000000000001 1.3 0.0
13.600000000000001 1.3 0.0
14.0 1.3 0.0
14.4 1.3 0.0
14.8 1.3 0.0
15.200000000000001 1.3 0.0
15.600000000000001 1.3 0.0
16.0 1.3 0.0
0.0 1.4000000000000001 0.0
0.4 1.4000000000000001 0.0
0.8 1.4000000000000001 0.0
1.2000000000000002 1.4000000000000001 0.0
1.6 1.4000000000000001 0.0
2.0 1.4000000000000001 0.0
2.4000000000000004 1.4000000000000001 0.0
2.8000000000000003 1.4000000000000001 0.0
3.2 1.4000000000000001 0.0
3.6 1.4000000000000001 0.0
4.0 1.4000000000000001 0.0
4.4 1.4000000000000001 0.0
4.800000000000001 1.4000000000000001 0.0
5.2 1.4000000000000001 0.0
5.6000000000000005 1.4000000000000001 0.0
6.0 1.4000000000000001 0.0
6.4 1.4000000000000001 0.0
6.800000000000001 1.4000000000000001 0.0
7.2 1.4000000000000001 0.0
7.6000000000000005 1.4000000000000001 0.0
8.0 1.4000000000000001 0.0
8.4 1.4000000000000001 0.0
8.8 1.4000000000000001 0.0
9.200000000000001 1.4000000000000001 0.0
9.600000000000001 1.4000000000000001 0.0
10.0 1.4000000000000001 0.0
10.4 1.4000000000000001 0.0
10.8 1.4000000000000001 0.0
11.200000000000001 1.4000000000000001 0.0
11.600000000000001 1.4000000000000001 0.0
12.0 1.4000000000000001 0.0
12.4 1.4000000000000001 0.0
12.8 1.4000000000000001 0.0
13.200000000000001 1.4000000000000001 0.0
13.600000000000001 1.4000000000000001 0.0
14.0 1.4000000000000001 0.0
14.4 1.4000000000000001 0.0
14.8 1.4000000000000001 0.0
15.200000000000001 1.4000000000000001 0.0
15.600000000000001 1.4000000000000001 0.0
16.0 1.4000000000000001 0.0
0.0 1.5 0.0
0.4 1.5 0.0
0.8 1.5 0.0
1.2000000000000002 1.5 0.0
1.6 1.5 0.0
2.0 1.5 0.0
2.4000000000000004 1.5 0.0
2.8000000000000003 1.5 0.0
3.2 1.5 0.0
3.6 1.5 0.0
4.0 1.5 0.0
4.4 1.5 0.0
4.800000000000001 1.5 0.0
5.2 1.5 0.0
5.6000000000000005 1.5 0.0
6.0 1.5 0.0
6.4 1.5 0.0
6.800000000000001 1.5 0.0
7.2 1.5 0.0
7.6000000000000005 1.5 0.0
8.0 1.5 0.0
8.4 1.5 0.0
8.8 1.5 0.0
9.200000000000001 1.5 0.0
9.600000000000001 1.5 0.0
10.0 1.5 0.0
10.4 1.5 0.0
10.8 1.5 0.0
11.200000000000001 1.5 0.0
11.600000000000001 1.5 0.0
12.0 1.5 0.0
12.4 1.5 0.0
12.8 1.5 0.0
13.200000000000001 1.5 0.0
13.600000000000001 1.5 0.0
14.0 1.5 0.0
14.4 1.5 0.0
14.8 1.5 0.0
15.200000000000001 1.5 0.0
15.600000000000001 1.5 0.0
16.0 1.5 0.0
0.0 1.6 0.0
0.4 1.6 0.0
0.8 1.6 0.0
1.2000000000000002 1.6 0.0
1.6 1.6 0.0
2.0 1.6 0.0
2.4000000000000004 1.6 0.0
2.8000000000000003 1.6 0.0
3.2 1.6 0.0
3.6 1.6 0.0
4.0 1.6 0.0
4.4 1.6 0.0
4.800000000000001 1.6 0.0
5.2 1.6 0.0
5.6000000000000005 1.6 0.0
6.0 1.6 0.0
6.4 1.6 0.0
6.800000000000001 1.6 0.0
7.2 1.6 0.0
7.6000000000000005 1.6 0.0
8.0 1.6 0.0
8.4 1.6 0.0
8.8 1.6 0.0
9.200000000000001 1.6 0.0
9.600000000000001 1.6 0.0
10.0 1.6 0.0
10.4 1.6 0.0
10.8 1.6 0.0
11.200000000000001 1.6 0.0
11.600000000000001 1.6 0.0
12.0 1.6 0.0
12.4 1.6 0.0
12.8 1.6 0.0
13.200000000000001 1.6 0.0
13.600000000000001 1.6 0.0
14.0 1.6 0.0
14.4 1.6 0.0
14.8 1.6 0.0
15.200000000000001 1.6 0.0
15.600000000000001 1.6 0.0
16.0 1.6 0.0
0.0 1.7000000000000002 0.0
0.4 1.7000000000000002 0.0
0.8 1.7000000000000002 0.0
1.2000000000000002 1.7000000000000002 0.0
1.6 1.7000000000000002 0.0
2.0 1.7000000000000002 0.0
2.4000000000000004 1.7000000000000002 0.0
2.8000000000000003 1.7000000000000002 0.0
3.2 1.7000000000000002 0.0
3.6 1.7000000000000002 0.0
4.0 1.7000000000000002 0.0
4.4 1.7000000000000002 0.0
4.800000000000001 1.7000000000000002 0.0
5.2 1.7000000000000002 0.0
5.6000000000000005 1.7000000000000002 0.0
6.0 1.7000000000000002 0.0
6.4 1.7000000000000002 0.0
6.800000000000001 1.7000000000000002 0.0
7.2 1.7000000000000002 0.0
7.6000000000000005 1.7000000000000002 0.0
8.0 1.7000000000000002 0.0
8.4 1.7000000000000002 0.0
8.8 1.7000000000000002 0.0
9.200000000000001 1.7000000000000002 0.0
9.600000000000001 1.7000000000000002 0.0
10.0 1.7000000000000002 0.0
10.4 1.7000000000000002 0.0
10.8 1.7000000000000002 0.0
11.200000000000001 1.7000000000000002 0.0
11.600000000000001 1.7000000000000002 0.0
12.0 1.7000000000000002 0.0
12.4 1.7000000000000002 0.0
12.8 1.7000000000000002 0.0
13.200000000000001 1.7000000000000002 0.0
13.600000000000001 1.7000000000000002 0.0
14.0 1.7000000000000002 0.0
14.4 1.7000000000000002 0.0
14.8 1.7000000000000002 0.0
15.200000000000001 1.7000000000000002 0.0
15.600000000000001 1.7000000000000002 0.0
16.0 1.7000000000000002 0.0
0.0 1.8 0.0
0.4 1.8 0.0
0.8 1.8 0.0
1.2000000000000002 1.8 0.0
1.6 1.8 0.0
2.0 1.8 0.0
2.4000000000000004 1.8 0.0
2.8000000000000003 1.8 0.0
3.2 1.8 0.0
3.6 1.8 0.0
4.0 1.8 0.0
4.4 1.8 0.0
4.800000000000001 1.8 0.0
5.2 1.8 0.0
5.6000000000000005 1.8 0.0
6.0 1.8 0.0
6.4 1.8 0.0
6.800000000000001 1.8 0.0
7.2 1.8 0.0
7.6000000000000005 1.8 0.0
8.0 1.8 0.0
8.4 1.8 0.0
8.8 1.8 0.0
9.200000000000001 1.8 0.0
9.600000000000001 1.8 0.0
10.0 1.8 0.0
10.4 1.8 0.0
10.8 1.8 0.0
11.200000000000001 1.8 0.0
11.600000000000001 1.8 0.0
12.0 1.8 0.0
12.4 1.8 0.0
12.8 1.8 0.0
13.200000000000001 1.8 0.0
13.600000000000001 1.8 0.0
14.0 1.8 0.0
14.4 1.8 0.0
14.8 1.8 0.0
15.200000000000001 1.8 0.0
15.600000000000001 1.8 0.0
16.0 1.8 0.0
0.0 1.9000000000000001 0.0
0.4 1.9000000000000001 0.0
0.8 1.9000000000000001 0.0
1.2000000000000002 1.9000000000000001 0.0
1.6 1.9000000000000001 0.0
2.0 1.9000000000000001 0.0
2.4000000000000004 1.9000000000000001 0.0
2.8000000000000003 1.9000000000000001 0.0
3.2 1.9000000000000001 0.0
3.6 1.9000000000000001 0.0
4.0 1.9000000000000001 0.0
4.4 1.9000000000000001 0.0
4.800000000000001 1.9000000000000001 0.0
5.2 1.9000000000000001 0.0
5.6000000000000005 1.9000000000000001 0.0
6.0 1.9000000000000001 0.0
6.4 1.9000000000000001 0.0
6.800000000000001 1.9000000000000001 0.0
7.2 1.9000000000000001 0.0
7.6000000000000005 1.9000000000000001 0.0
8.0 1.9000000000000001 0.0
8.4 1.9000000000000001 0.0
8.8 1.9000000000000001 0.0
9.200000000000001 1.9000000000000001 0.0
9.600000000000001 1.9000000000000001 0.0
10.0 1.9000000000000001 0.0
10.4 1.9000000000000001 0.0
10.8 1.9000000000000001 0.0
11.200000000000001 1.9000000000000001 0.0
11.600000000000001 1.9000000000000001 0.0
12.0 1.9000000000000001 0.0
12.4 1.9000000000000001 0.0
12.8 1.9000000000000001 0.0
13.200000000000001 1.9000000000000001 0.0
13.600000000000001 1.9000000000000001 0.0
14.0 1.9000000000000001 0.0
14.4 1.9000000000000001 0.0
14.8 1.9000000000000001 0.0
15.200000000000001 1.9000000000000001 0.0
15.600000000000001 1.9000000000000001 0.0
16.0 1.9000000000000001 0.0
0.0 2.0 0.0
0.4 2.0 0.0
0.8 2.0 0.0
1.2000000000000002 2.0 0.0
1.6 2.0 0.0
2.0 2.0 0.0
2.4000000000000004 2.0 0.0
2.8000000000000003 2.0 0.0
3.2 2.0 0.0
3.6 2.0 0.0
4.0 2.0 0.0
4.4 2.0 0.0
4.800000000000001 2.0 0.0
5.2 2.0 0.0
5.6000000000000005 2.0 0.0
6.0 2.0 0.0
6.4 2.0 0.0
6.800000000000001 2.0 0.0
7.2 2.0 0.0
7.6000000000000005 2.0 0.0
8.0 2.0 0.0
8.4 2.0 0.0
8.8 2.0 0.0
9.200000000000001 2.0 0.0
9.600000000000001 2.0 0.0
10.0 2.0 0.0
10.4 2.0 0.0
10.8 2.0 0.0
11.200000000000001 2.0 0.0
11.600000000000001 2.0 0.0
12.0 2.0 0.0
12.4 2.0 0.0
12.8 2.0 0.0
13.200000000000001 2.0 0.0
13.600000000000001 2.0 0.0
14.0 2.0 0.0
14.4 2.0 0.0
14.8 2.0 0.0
15.200000000000001 2.0 0.0
15.600000000000001 2.0 0.0
16.0 2.0 0.0
CELLS 800 4000
4 0 1 42 41
4 1 2 43 42
4 2 3 44 43
4 3 4 45 44
4 4 5 46 45
4 5 6 47 46
4 6 7 48 47
4 7 8 49 48
4 8 9 50 49
4 9 10 51 50
4 10 11 52 51
4 11 12 53 52
4 12 13 54 53
4 13 14 55 54
4 14 15 56 55
4 15 16 57 56
4 16 17 58 57
4 17 18 59 58
4 18 19 60 59
4 19 20 61 60
4 20 21 62 61
4 21 22 63 62
4 22 23 64 63
4 23 24 65 64
4 24 25 66 65
4 25 26 67 66
4 26 27 68 67
4 27 28 69 68
4 28 29 70 69
4 29 30 71 70
4 30 31 72 71
4 31 32 73 72
4 32 33 74 73
4 33 34 75 74
4 34 35 76 75
4 35 36 77 76
4 36 37 78 77
4 37 38 79 78
4 38 39 80 79
4 39 40 81 80
4 41 42 83 82
4 42 43 84 83
4 43 44 85 84
4 44 45 86 85
4 45 46 87 86
4 46 47 88 87
4 47 48 89 88
4 48 49 90 89
4 49 50 91 90
4 50 51 92 91
4 51 52 93 92
4 52 53 94 93
4 53 54 95 94
4 54 55 96 95
4 55 56 97 96
4 56 57 98 97
4 57 58 99 98
4 58 59 100 99
4 59 60 101 100
4 60 61 102 101
4 61 62 103 102
4 62 63 104 103
4 63 64 105 104
4 64 65 106 105
4 65 66 107 106
4 66 67 108 107
4 67 68 109 108
4 68 69 110 109
4 69 70 111 110
4 70 71 112 111
4 71 72 113 112
4 72 73 114 113
4 73 74 115 114
4 74 75 116 115
4 75 76 117 116
4 76 77 118 117
4 77 78 119 118
4 78 79 120 119
4 79 80 121 120
4 80 81 122 121
4 82 83 124 123
4 83 84 125 124
4 84 85 126 125
4 85 86 127 126
4 86 87 128 127
4 87 88 129 128
4 88 89 130 129
4 89 90 131 130
4 90 91 132 131
4 91 92 133 132
4 92 93 134 133
4 93 94 135 134
4 94 95 136 135
4 95 96 137 136
4 96 97 138 137
4 97 98 139 138
4 98 99 140 139
4 99 100 141 140
4 100 101 142 141
4 101 102 143 142
4 102 103 144 143
4 103 104 145 144
4 104 105 146 145
4 105 106 147 146
4 106 107 148 147
4 107 108 149 148
4 108 109 150 149
4 109 110 151 150
4 110 111 152 151
4 111 112 153 152
4 112 113 154 153
4 113 114 155 154
4 114 115 156 155
4 115 116 157 156
4 116 117 158 157
4 117 118 159 158
4 118 119 160 159
4 119 120 161 160
4 120 121 162 161
4 121 122 163 162
4 123 124 165 164
4 124 125 166 165
4 125 126 167 166
4 126 127 168 167
4 127 128 169 168
4 128 129 170 169
4 129 130 171 170
4 130 131 172 171
4 131 132 173 172
4 132 133 174 173
4 133 134 175 174
4 134 135 176 175
4 135 136 177 176
4 136 137 178 177
4 137 138 179 178
4 138 139 180 179
4 139 140 181 180
4 140 141 182 181
4 141 142 183 182
4 142 143 184 183
4 143 144 185 184
4 144 145 186 185
4 145 146 187 186
4 146 147 188 187
4 147 148 189 188
4 148 149 190 189
4 149 150 191 190
4 150 151 192 191
4 151 152 193 192
4 152 153 194 193
4 153 154 195 194
4 154 155 196 195
4 155 156 197 196
4 156 157 198 197
4 157 158 199 198
4 158 159 200 199
4 159 160 201 200
4 160 161 202 201
4 161 162 203 202
4 162 163 204 203
4 164 165 206 205
4 165 166 207 206
4 166 167 208 207
4 167 168 209 208
4 168 169 210 209
4 169 170 211 210
4 170 171 212 211
4 171 172 213 212
4 172 173 214 213
4 173 174 215 214
4 174 175 216 215
4 175 176 217 216
4 176 177 218 217
4 177 178 219 218
4 178 179 220 219
4 179 180 221 220
4 180 181 222 221
4 181 182 223 222
4 182 183 224 223
4 183 184 225 224
4 184 185 226 225
4 185 186 227 226
4 186 187 228 227
4 187 188 229 228
4 188 189 230 229
4 189 190 231 230
4 190 191 232 231
4 191 192 233 232
4 192 193 234 233
4 193 194 235 234
4 194 195 236 235
4 195 196 237 236
4 196 197 238 237
4 197 198 239 238
4 198 199 240 239
4 199 200 241 240
4 200 201 242 241
4 201 202 243 242
4 202 203 244 243
4 203 204 245 244
4 205 206 247 246
4 206 207 248 247
4 207 208 249 248
4 208 209 250 249
4 209 210 251 250
4 210 211 252 251
4 211 212 253 252
4 212 213 254 253
4 213 214 255 254
4 214 215 256 255
4 215 216 257 256
4 216 217 258 257
4 217 218 259 258
4 218 219 260 259
4 219 220 261 260
4 220 221 262 261
4 221 222 263 262
4 222 223 264 263
4 223 224 265 264
4 224 225 266 265
4 225 226 267 266
4 226 227 268 267
4 227 228 269 268
4 228 229 270 269
4 229 230 271 270
4 230 231 272 271
4 231 232 273 272
4 232 233 274 273
4 233 234 275 274
4 234 235 276 275
4 235 236 277 276
4 236 237 278 277
4 237 238 279 278
4 238 239 280 279
4 239 240 281 280
4 240 241 282 281
4 241 242 283 282
4 242 243 284 283
4 243 244 285 284
4 244 245 286 285
4 246 247 288 287
4 247 248 289 288
4 248 249 290 289
4 249 250 291 290
4 250 251 292 291
4 251 252 293 292
4 252 253 294 293
4 253 254 295 294
4 254 255 296 295
4 255 256 297 296
4 256 257 298 297
4 257 258 299 298
4 258 259 300 299
4 259 260 301 300
4 260 261 302 301
4 261 262 303 302
4 262 263 304 303
4 263 264 305 304
4 264 265 306 305
4 265 266 307 306
4 266 267 308 307
4 267 268 309 308
4 268 269 310 309
4 269 270 311 310
4 270 271 312 311
4 271 272 313 312
4 272 273 314 313
4 273 274 315 314
4 274 275 316 315
4 275 276 317 316
4 276 277 318 317
4 277 278 319 318
4 278 279 320 319
4 279 280 321 320
4 280 281 322 321
4 281 282 323 322
4 282 283 324 323
4 283 284 325 324
4 284 285 326 325
4 285 286 327 326
4 287 288 329 328
4 288 289 330 329
4 289 290 331 330
4 290 291 332 331
4 291 292 333 332
4 292 293 334 333
4 293 294 335 334
4 294 295 336 335
4 295 296 337 336
4 296 297 338 337
4 297 298 339 338
4 298 299 340 339
4 299 300 341 340
4 300 301 342 341
4 301 302 343 342
4 302 303 344 343
4 303 304 345 344
4 304 305 346 345
4 305 306 347 346
4 306 307 348 347
4 307 308 349 348
4 308 309 350 349
4 309 310 351 350
4 310 311 352 351
4 311 312 353 352
4 312 313 354 353
4 313 314 355 354
4 314 315 356 355
4 315 316 357 356
4 316 317 358 357
4 317 318 359 358
4 318 319 360 359
4 319 320 361 360
4 320 321 362 361
4 321 322 363 362
4 322 323 364 363
4 323 324 365 364
4 324 325 366 365
4 325 326 367 366
4 326 327 368 367
4 328 329 370 369
4 329 330 371 370
4 330 331 372 371
4 331 332 373 372
4 332 333 374 373
4 333 334 375 374
4 334 335 376 375
4 335 336 377 376
4 336 337 378 377
4 337 338 379 378
4 338 339 380 379
4 339 340 381 380
4 340 341 382 381
4 341 342 383 382
4 342 343 384 383
4 343 344 385 384
4 344 345 386 385
4 345 346 387 386
4 346 347 388 387
4 347 348 389 388
4 348 349 390 389
4 349 350 391 390
4 350 351 392 391
4 351 352 393 392
4 352 353 394 393
4 353 354 395 394
4 354 355 396 395
4 355 356 397 396
4 356 357 398 397
4 357 358 399 398
4 358 359 400 399
4 359 360 401 400
4 360 361 402 401
4 361 362 403 402
4 362 363 404 403
4 363 364 405 404
4 364 365 406 405
4 365 366 407 406
4 366 367 408 407
4 367 368 409 408
4 369 370 411 410
4 370 371 412 411
4 371 372 413 412
4 372 373 414 413
4 373 374 415 414
4 374 375 416 415
4 375 376 417 416
4 376 377 418 417
4 377 378 419 418
4 378 379 420 419
4 379 380 421 420
4 380 381 422 421
4 381 382 423 422
4 382 383 424 423
4 383 384 425 424
4 384 385 426 425
4 385 386 427 426
4 386 387 428 427
4 387 388 429 428
4 388 389 430 429
4 389 390 431 430
4 390 391 432 431
4 391 392 433 432
4 392 393 434 433
4 393 394 435 434
4 394 395 436 435
4 395 396 437 436
4 396 397 438 437
4 397 398 439 438
4 398 399 440 439
4 399 400 441 440
4 400 401 442 441
4 401 402 443 442
4 402 403 444 443
4 403 404 445 444
4 404 405 446 445
4 405 406 447 446
4 406 407 448 447
4 407 408 449 448
4 408 409 450 449
4 410 411 452 451
4 411 412 453 452
4 412 413 454 453
4 413 414 455 454
4 414 415 456 455
4 415 416 457 456
4 416 417 458 457
4 417 418 459 458
4 418 419 460 459
4 419 420 461 460
4 420 421 462 461
4 421 422 463 462
4 422 423 464 463
4 423 424 465 464
4 424 425 466 465
4 425 426 467 466
4 426 427 468 467
4 427 428 469 468
4 428 429 470 469
4 429 430 471 470
4 430 431 472 471
4 431 432 473 472
4 432 433 474 473
4 433 434 475 474
4 434 435 476 475
4 435 436 477 476
4 436 437 478 477
4 437 438 479 478
4 438 439 480 479
4 439 440 481 480
4 440 441 482 481
4 441 442 483 482
4 442 443 484 483
4 443 444 485 484
4 444 445 486 485
4 445 446 487 486
4 446 447 488 487
4 447 448 489 488
4 448 449 490 489
4 449 450 491 490
4 451 452 493 492
4 452 453 494 493
4 453 454 495 494
4 454 455 496 495
4 455 456 497 496
4 456 457 498 497
4 457 458 499 498
4 458 459 500 499
4 459 460 501 500
4 460 461 502 501
4 461 462 503 502
4 462 463 504 503
4 463 464 505 504
4 464 465 506 505
4 465 466 507 506
4 466 467 508 507
4 467 468 509 508
4 468 469 510 509
4 469 470 511 510
4 470 471 512 511
4 471 472 513 512
4 472 473 514 513
4 473 474 515 514
4 474 475 516 515
4 475 476 517 516
4 476 477 518 517
4 477 478 519 518
4 478 479 520 519
4 479 480 521 520
4 480 481 522 521
4 481 482 523 522
4 482 483 524 523
4 483 484 525 524
4 484 485 526 525
4 485 486 527 526
4 486 487 528 527
4 487 488 529 528
4 488 489 530 529
4 489 490 531 530
4 490 491 532 531
4 492 493 534 533
4 493 494 535 534
4 494 495 536 535
4 495 496 537 536
4 496 497 538 537
4 497 498 539 538
4 498 499 540 539
4 499 500 541 540
4 500 501 542 541
4 501 502 543 542
4 502 503 544 543
4 503 504 545 544
4 504 505 546 545
4 505 506 547 546
4 506 507 548 547
4 507 508 549 548
4 508 509 550 549
4 509 510 551 550
4 510 511 552 551
4 511 512 553 552
4 512 513 554 553
4 513 514 555 554
4 514 515 556 555
4 515 516 557 556
4 516 517 558 557
4 517 518 559 558
4 518 519 560 559
4 519 520 561 560
4 520 521 562 561
4 521 522 563 562
4 522 523 564 563
4 523 524 565 564
4 524 525 566 565
4 525 526 567 566
4 526 527 568 567
4 527 528 569 568
4 528 529 570 569
4 529 530 571 570
4 530 531 572 571
4 531 532 573 572
4 533 534 575 574
4 534 535 576 575
4 535 536 577 576
4 536 537 578 577
4 537 538 579 578
4 538 539 580 579
4 539 540 581 580
4 540 541 582 581
4 541 542 583 582
4 542 543 584 583
4 543 544 585 584
4 544 545 586 585
4 545 546 587 586
4 546 547 588 587
4 547 548 589 588
4 548 549 590 589
4 549 550 591 590
4 550 551 592 591
4 551 552 593 592
4 552 553 594 593
4 553 554 595 594
4 554 555 596 595
4 555 556 597 596
4 556 557 598 597
4 557 558 599 598
4 558 559 600 599
4 559 560 601 600
4 560 561 602 601
4 561 562 603 602
4 562 563 604 603
4 563 564 605 604
4 564 565 606 605
4 565 566 607 606
4 566 567 608 607
4 567 568 609 608
4 568 569 610 609
4 569 570 611 610
4 570 571 612 611
4 571 572 613 612
4 572 573 614 613
4 574 575 616 615
4 575 576 617 616
4 576 577 618 617
4 577 578 619 618
4 578 579 620 619
4 579 580 621 620
4 580 581 622 621
4 581 582 623 622
4 582 583 624 623
4 583 584 625 624
4 584 585 626 625
4 585 586 627 626
4 586 587 628 627
4 587 588 629 628
4 588 589 630 629
4 589 590 631 630
4 590 591 632 631
4 591 592 633 632
4 592 593 634 633
4 593 594 635 634
4 594 595 636 635
4 595 596 637 636
4 596 597 638 637
4 597 598 639 638
4 598 599 640 639
4 599 600 641 640
4 600 601 642 641
4 601 602 643 642
4 602 603 644 643
4 603 604 645 644
4 604 605 646 645
4 605 606 647 646
4 606 607 648 647
4 607 608 649 648
4 608 609 650 649
4 609 610 651 650
4 610 611 652 651
4 611 612 653 652
4 612 613 654 653
4 613 614 655 654
4 615 616 657 656
4 616 617 658 657
4 617 618 659 658
4 618 619 660 659
4 619 620 661 660
4 620 621 662 661
4 621 622 663 662
4 622 623 664 663
4 623 624 665 664
4 624 625 666 665
4 625 626 667 666
4 626 627 668 667
4 627 628 669 668
4 628 629 670 669
4 629 630 671 670
4 630 631 672 671
4 631 632 673 672
4 632 633 674 673
4 633 634 675 674
4 634 635 676 675
4 635 636 677 676
4 636 637 678 677
4 637 638 679 678
4 638 639 680 679
4 639 640 681 680
4 640 641 682 681
4 641 642 683 682
4 642 643 684 683
4 643 644 685 684
4 644 645 686 685
4 645 646 687 686
4 646 647 688 687
4 647 648 689 688
4 648 649 690 689
4 649 650 691 690
4 650 651 692 691
4 651 652 693 692
4 652 653 694 693
4 653 654 695 694
4 654 655 696 695
4 656 657 698 697
4 657 658 699 698
4 658 659 700 699
4 659 660 701 700
4 660 661 702 701
4 661 662 703 702
4 662 663 704 703
4 663 664 705 704
4 664 665 706 705
4 665 666 707 706
4 666 667 708 707
4 667 668 709 708
4 668 669 710 709
4 669 670 711 710
4 670 671 712 711
4 671 672 713 712
4 672 673 714 713
4 673 674 715 714
4 674 675 716 715
4 675 676 717 716
4 676 677 718 717
4 677 678 719 718
4 678 679 720 719
4 679 680 721 720
4 680 681 722 721
4 681 682 723 722
4 682 683 724 723
4 683 684 725 724
4 684 685 726 725
4 685 686 727 726
4 686 687 728 727
4 687 688 729 728
4 688 689 730 729
4 689 690 731 730
4 690 691 732 731
4 691 692 733 732
4 692 693 734 733
4 693 694 735 734
4 694 695 736 735
4 695 696 737 736
4 697 698 739 738
4 698 699 740 739
4 699 700 741 740
4 700 701 742 741
4 701 702 743 742
4 702 703 744 743
4 703 704 745 744
4 704 705 746 745
4 705 706 747 746
4 706 707 748 747
4 707 708 749 748
4 708 709 750 749
4 709 710 751 750
4 710 711 752 751
4 711 712 753 752
4 712 713 754 753
4 713 714 755 754
4 714 715 756 755
4 715 716 757 756
4 716 717 758 757
4 717 718 759 758
4 718 719 760 759
4 719 720 761 760
4 720 721 762 761
4 721 722 763 762
4 722 723 764 763
4 723 724 765 764
4 724 725 766 765
4 725 726 767 766
4 726 727 768 767
4 727 728 769 768
4 728 729 770 769
4 729 730 771 770
4 730 731 772 771
4 731 732 773 772
4 732 733 774 773
4 733 734 775 774
4 734 735 776 775
4 735 736 777 776
4 736 737 778 777
4 738 739 780 779
4 739 740 781 780
4 740 741 782 781
4 741 742 783 782
4 742 743 784 783
4 743 744 785 784
4 744 745 786 785
4 745 746 787 786
4 746 747 788 787
4 747 748 789 788
4 748 749 790 789
4 749 750 791 790
4 750 751 792 791
4 751 752 793 792
4 752 753 794 793
4 753 754 795 794
4 754 755 796 795
4 755 756 797 796
4 756 757 798 797
4 757 758 799 798
4 758 759 800 799
4 759 760 801 800
4 760 761 802 801
4 761 762 803 802
4 762 763 804 803
4 763 764 805 804
4 764 765 806 805
4 765 766 807 806
4 766 767 808 807
4 767 768 809 808
4 768 769 810 809
4 769 770 811 810
4 770 771 812 811
4 771 772 813 812
4 772 773 814 813
4 773 774 815 814
4 774 775 816 815
4 775 776 817 816
4 776 777 818 817
4 777 778 819 818
4 779 780 821 820
4 780 781 822 821
4 781 782 823 822
4 782 783 824 823
4 783 784 825 824
4 784 785 826 825
4 785 786 827 826
4 786 787 828 827
4 787 788 829 828
4 788 789 830 829
4 789 790 831 830
4 790 791 832 831
4 791 792 833 832
4 792 793 834 833
4 793 794 835 834
4 794 795 836 835
4 795 796 837 836
4 796 797 838 837
4 797 798 839 838
4 798 799 840 839
4 799 800 841 840
4 800 801 842 841
4 801 802 843 842
4 802 803 844 843
4 803 804 845 844
4 804 805 846 845
4 805 806 847 846
4 806 807 848 847
4 807 808 849 848
4 808 809 850 849
4 809 810 851 850
4 810 811 852 851
4 811 812 853 852
4 812 813 854 853
4 813 814 855 854
4 814 815 856 855
4 815 816 857 856
4 816 817 858 857
4 817 818 859 858
4 818 819 860 859
CELL_TYPES 800
9
9
9
9
9
9
9
9
9
9
9
9
9
9
9
9
9
9
9
9
9
9
9
9
9
9
9
9
9
9
9
9
9
9
9
9
9
9
9
9
9
9
9
9
9
9
9
9
9
9
9
9
9
9
9
9
9
9
9
9
9
9
9
9
9
9
9
9
9
9
9
9
9
9
9
9
9
9
9
9
9
9
9
9
9
9
9
9
9
9
9
9
9
9
9
9
9
9
9
9
9
9
9
9
9
9
9
9
9
9
9
9
9
9
9
9
9
9
9
9
9
9
9
9
9
9
9
9
9
9
9
9
9
9
9
9
9
9
9
9
9
9
9
9
9
9
9
9
9
9
9
9
9
9
9
9
9
9
9
9
9
9
9
9
9
9
9
9
9
9
9
9
9
9
9
9
9
9
9
9
9
9
9
9
9
9
9
9
9
9
9
9
9
9
9
9
9
9
9
9
9
9
9
9
9
9
9
9
9
9
9
9
9
9
9
9
9
9
9
9
9
9
9
9
9
9
9
9
9
9
9
9
9
9
9
9
9
9
9
9
9
9
9
9
9
9
9
9
9
9
9
9
9
9
9
9
9
9
9
9
9
9
9
9
9
9
9
9
9
9
9
9
9
9
9
9
9
9
9
9
9
9
9
9
9
9
9
9
9
9
9
9
9
9
9
9
9
9
9
9
9
9
9
9
9
9
9
9
9
9
9
9
9
9
9
9
9
9
9
9
9
9
9
9
9
9
9
9
9
9
9
9
9
9
9
9
9
9
9
9
9
9
9
9
9
9
9
9
9
9
9
9
9
9
9
9
9
9
9
9
9
9
9
9
9
9
9
9
9
9
9
9
9
9
9
9
9
9
9
9
9
9
9
9
9
9
9
9
9
9
9
9
9
9
9
9
9
9
9
9
9
9
9
9
9
9
9
9
9
9
9
9
9
9
9
9
9
9
9
9
9
9
9
9
9
9
9
9
9
9
9
9
9
9
9
9
9
9
9
9
9
9
9
9
9
9
9
9
9
9
9
9
9
9
9
9
9
9
9
9
9
9
9
9
9
9
9
9
9
9
9
9
9
9
9
9
9
9
9
9
9
9
9
9
9
9
9
9
9
9
9
9
9
9
9
9
9
9
9
9
9
9
9
9
9
9
9
9
9
9
9
9
9
9
9
9
9
9
9
9
9
9
9
9
9
9
9
9
9
9
9
9
9
9
9
9
9
9
9
9
9
9
9
9
9
9
9
9
9
9
9
9
9
9
9
9
9
9
9
9
9
9
9
9
9
9
9
9
9
9
9
9
9
9
9
9
9
9
9
9
9
9
9
9
9
9
9
9
9
9
9
9
9
9
9
9
9
9
9
9
9
9
9
9
9
9
9
9
9
9
9
9
9
9
9
9
9
9
9
9
9
9
9
9
9
9
9
9
9
9
9
9
9
9
9
9
9
9
9
9
9
9
9
9
9
9
9
9
9
9
9
9
9
9
9
9
9
9
9
9
9
9
9
9
9
9
9
9
9
9
9
9
9
9
9
9
9
9
9
9
9
9
9
9
9
9
9
9
9
9
9
9
9
9
9
9
9
9
9
9
9
9
9
9
9
9
9
9
9
9
9
9
9
9
9
9
9
9
9
9
9
9
9
9
9
9
9
9
9
9
9
9
9
9
9
9
9
9
9
9
9
9
9
9
9
9
9
9
9
9
9
9
9
9
9
9
9
9
9
9
9
9
9
9
9
9
9
9
9
9
9
9
9
9
9
9
9
9
9
9
9
9
9
9
9
9
9
9
9
9
9
9
9
9
9
9
9
9
9
9
POINT_DATA 861
SCALARS Disp float 2
LOOKUP_TABLE default
0.0 0.0
0.001980220491446285 -0.07282983404147397
0.00281983400622584 -0.14146778685444197
0.0034866853681233337 -0.20977899047382867
0.004256294103404853 -0.2777952006976715
0.005193565751962095 -0.3454621512438789
0.0064098146310846175 -0.4126696807183709
0.00794807572714883 -0.47930148762239894
0.009875918812392217 -0.5452044666027565
0.012296704833791536 -0.6101782181635875
0.015373121797340093 -0.6739475549449296
0.019379344988863956 -0.736112502928055
0.024751295092562138 -0.7961030251060582
0.03206311999660847 -0.8531762449594735
0.041997043738781645 -0.9064309888450097
0.055247147667807875 -0.9548195748354663
0.07236784709710475 -0.9971494689617257
0.09359135152831652 -1.0320956236430754
0.11867276787893465 -1.0583040165406257
0.14684231938383333 -1.0746223496362257
0.17684138430332294 -1.080337362334667
0.20684044922281267 -1.074622349636214
0.23501000072771022 -1.0583040165406
0.26009141707832656 -1.0320956236430383
0.2813149215095358 -0.9971494689616791
0.29843562093883036 -0.9548195748354148
0.31168572486785445 -0.9064309888449533
0.32161964861002457 -0.8531762449594134
0.3289314735140677 -0.796103025105996
0.33430342361776255 -0.736112502927992
0.33830964680928294 -0.6739475549448677
0.34138606377282854 -0.610178218163528
0.3438068497942254 -0.5452044666026997
0.3457346928794664 -0.4793014876223465
0.3472729539755285 -0.412669680718323
0.34848920285464935 -0.34546215124383756
0.34942647450320574 -0.2777952006976365
0.3501960832384867 -0.20977899047380105
0.350862934600384 -0.14146778685442138
0.3517025481151631 -0.07282983404146118
0.35368276860660924 0.0
0.01818783805614837 -0.001052286619753542
0.019442521208731 -0.0728082691420363
0.019904238562914955 -0.14155336631427054
0.020522855794323887 -0.20984674130820408
0.02121048433313224 -0.2778791010442151
0.022049899063455263 -0.3455775010240297
0.023135568596172273 -0.4128343018286582
0.02451263165993327 -0.47952365079893794
0.02623725304154141 -0.545503282842908
0.02839672905641399 -0.610582246248321
0.031133135976087804 -0.674504589922137
0.034683941231872434 -0.7369043306152132
0.03943137676264553 -0.7972527663163518
0.04591242455576845 -0.8548386695143815
0.05476453092034685 -0.9087794972395276
0.06664240732104346 -0.9580139455270898
0.08206494010614881 -1.001293285145232
0.10124905434258016 -1.0371945970626633
0.12398484160422409 -1.064241375192079
0.14958331457012305 -1.0811592550023295
0.1768413843033216 -1.0871036577562316
0.20409945403652002 -1.0811592550023175
0.2296979270024181 -1.064241375192053
0.25243371426406047 -1.0371945970626255
0.27161782850049004 -1.0012932851451852
0.28704036128559357 -0.958013945527038
0.29891823768628817 -0.9087794972394707
0.30777034405086384 -0.8548386695143207
0.31425139184398393 -0.7972527663162889
0.31899882737475405 -0.7369043306151497
0.3225496326305356 -0.6745045899220746
0.3252860395502067 -0.610582246248261
0.32744551556507706 -0.5455032828428509
0.32917013694668307 -0.4795236507988851
0.3305472000104422 -0.41283430182861003
0.33163286954315774 -0.3455775010239881
0.3324722842734801 -0.27787910104418007
0.333159912812288 -0.20984674130817646
0.3337785300436967 -0.14155336631424992
0.3342402473978808 -0.07280826914202361
0.3354949305504625 -0.0010522866197524641
0.035905941469378096 -0.0018837650606323638
0.03677718804660241 -0.07278200606715572
0.0370318091581375 -0.14160242379290688
0.03753154255541073 -0.20991188030818064
0.03814468533926213 -0.27795312541637474
0.038892056382326005 -0.34567580732296443
0.03984203745112969 -0.41297381539355715
0.04105902044797488 -0.4797130620470141
0.04258236587219466 -0.5457580460255864
0.04448552413402937 -0.6109268028864897
0.046889474467366375 -0.6749804624769251
0.04999852693494419 -0.7375813801601444
0.054143810737610716 -0.7982403535678912
0.05980563295707184 -0.8562826151918812
0.06758217061567015 -0.9108415049759654
0.07807793314035377 -0.9608434996680308
0.09177575880985009 -1.0049876022471558
0.10889087026106221 -1.0417628004467783
0.12926144789246027 -1.0695835186155833
0.15227460068714974 -1.087054206455302
0.17684138430332058 -1.0932149289746027
0.20140816791949112 -1.0870542064552902
0.2244213207141797 -1.0695835186155573
0.2447918983455765 -1.0417628004467403
0.2619070097967872 -1.004987602247109
0.275604835466282 -0.9608434996679788
0.2861005979909638 -0.9108415049759082
0.29387713564955975 -0.8562826151918201
0.2995389578690184 -0.798240353567828
0.30368424167168223 -0.7375813801600805
0.3067932941392574 -0.6749804624768623
0.30919724447259195 -0.6109268028864293
0.3111004027344247 -0.5457580460255289
0.3126237481586425 -0.4797130620469608
0.31384073115548605 -0.4129738153935087
0.3147907122242886 -0.3456758073229228
0.31553808326735194 -0.27795312541633965
0.31615122605120294 -0.209911880308153
0.31665095944847604 -0.1416024237928863
0.31690558056001134 -0.07278200606714304
0.31777682713723454 -0.001883765060630257
0.05336473430923121 -0.0025520193670837093
0.05400721108107357 -0.07277304748751351
0.05414971491920142 -0.14162594747297902
0.054527694593603446 -0.20996561839972905
0.055055254021258444 -0.278020215158318
0.055715642902139796 -0.3457581213900306
0.0565355066167477 -0.413087856669299
0.057588718110799623 -0.4798722125908061
0.058913381289280385 -0.5459711074390464
0.06056474075749078 -0.6112148041110032
0.06264446845451015 -0.6753784452029974
0.06532377656193016 -0.7381493642881841
0.06888583509384422 -0.7990729641747311
0.07375239881298204 -0.857511534207871
0.0804604853567049 -0.9126180063990061
0.08957026161652232 -0.9633053504238555
0.10152781211549353 -1.0082266492263898
0.11654891111392457 -1.0457945325425089
0.13452580074796178 -1.074325410342301
0.15494301085778853 -1.0923110340154678
0.17684138430331972 -1.0986849906118685
0.19873975774885055 -1.0923110340154558
0.21915696785867642 -1.0743254103422746
0.23713385749271246 -1.045794532542471
0.25215495649114233 -1.008226649226343
0.2641125069901122 -0.963305350423803
0.27322228324992803 -0.9126180063989486
0.2799303697936489 -0.8575115342078096
0.28479693351278446 -0.7990729641746672
0.28835899204469617 -0.7381493642881197
0.2910383001521139 -0.6753784452029341
0.29311802784913116 -0.6112148041109423
0.29476938731733976 -0.5459711074389887
0.29609405049581883 -0.4798722125907525
0.29714726198986935 -0.4130878566692503
0.2979671257044764 -0.34575812138998896
0.2986275145853573 -0.27802021515828285
0.2991550740130119 -0.20996561839970138
0.2995330536874139 -0.14162594747295845
0.2996755575255419 -0.07277304748750076
0.3003180342973833 -0.0025520193670807026
0.07066474788320963 -0.0030924384348451814
0.07115637395775688 -0.07278329986286236
0.07123763874715361 -0.1416347881108756
0.07151010731724246 -0.2100059296148027
0.07194588255852345 -0.2780778138696476
0.07251296020151007 -0.34583073298394
0.07321992342037037 -0.413179665978892
0.0741038700566713 -0.48000203875494396
0.07523183625768882 -0.5461455841216623
0.07663617992398164 -0.6114495336520557
0.07839927255104015 -0.6757032034284733
0.08066191044186198 -0.7386132480403391
0.08365889186301351 -0.7997572549386364
0.08775066126618597 -0.8585324354704779
0.09341268097877527 -0.9141113422147886
0.1011407784825286 -0.9653987051867627
0.11134784251403737 -1.0110069272728774
0.12425491979373281 -1.049283851622836
0.13980867602675345 -1.0784614921562699
0.15760951836548417 -1.0969305256685025
0.17684138430331908 -1.1035204026881582
0.19607325024115338 -1.0969305256684903
0.21387409257988316 -1.0784614921562434
0.22942784881290268 -1.0492838516227976
0.24233492609259707 -1.0110069272728304
0.25254199012410466 -0.9653987051867101
0.26027008762785653 -0.914111342214731
0.26593210734044415 -0.8585324354704161
0.2700238767436148 -0.7997572549385723
0.27302085816476424 -0.7386132480402744
0.27528349605558416 -0.6757032034284097
0.2770465886826408 -0.6114495336519946
0.27845093234893215 -0.5461455841216043
0.27957889854994816 -0.4800020387548901
0.2804628451862481 -0.4131796659788433
0.28116980840510775 -0.3458307329838982
0.2817368860480939 -0.27807781386961244
0.2821726612893747 -0.210005929614775
0.28244512985946346 -0.14163478811085506
0.28252639464886026 -0.07278329986284955
0.2830180207234067 -0.0030924384348414175
0.08785645153123632 -0.0035291921589462767
0.08824480211822408 -0.07281042420385647
0.088289786126023 -0.14163593339923364
0.08847549512553059 -0.2100336423814893
0.0888187892083382 -0.2781245879084153
0.08928811667452335 -0.3458929350573983
0.08988279757597353 -0.41325645146133616
0.09061727419928763 -0.4801009890702686
0.09153878076586307 -0.5462845566165282
0.09270113347778984 -0.6116352598794211
0.09415559363151202 -0.6759589712631873
0.0960134633962473 -0.7389794024924218
0.09846460748189496 -0.8003007027279934
0.10180735836041063 -0.8593521493416794
0.10644148686225736 -0.9153280656439209
0.1128059838137807 -0.9671259557031264
0.12126816486454695 -1.013326641511907
0.13204273097092503 -1.0522252847893108
0.14514130986983892 -1.081985158488487
0.16029382422466398 -1.1009096002766607
0.17684138430331836 -1.1077227332781776
0.19338894438197202 -1.100909600276648
0.2085414587367961 -1.0819851584884606
0.22164003763570903 -1.0522252847892721
0.2324146037420861 -1.01332664151186
0.24087678479285127 -0.9671259557030736
0.24724128174437335 -0.915328065643863
0.25187541024621873 -0.8593521493416175
0.2552181611247329 -0.800300702727929
0.2576693052103788 -0.7389794024923567
0.25952717497511246 -0.6759589712631233
0.2609816351288332 -0.6116352598793597
0.2621439878407587 -0.54628455661647
0.263065494407333 -0.4801009890702146
0.26379997103064634 -0.41325645146128737
0.264394651932096 -0.3458929350573564
0.2648639793982808 -0.2781245879083801
0.2652072734810882 -0.2100336423814616
0.26539298248059573 -0.14163593339921307
0.26543796648839474 -0.0728104242038436
0.26582631707538185 -0.0035291921589419148
0.10497194485424989 -0.003881950118571559
0.10528317045931708 -0.07285076741395176
0.1053076298932137 -0.1416335287899117
0.10542200705069221 -0.21005044201665404
0.10567582645677988 -0.27816022039245564
0.10604503277411655 -0.34594350397967616
0.10652172768467388 -0.4133206820165265
0.10711517697007186 -0.480179532029312
0.10784466294297157 -0.5463877502068426
0.10875983811097283 -0.6117765604105642
0.10991479980394604 -0.6761517125303592
0.11138010686610063 -0.7392546539666407
0.11330445054863617 -0.8007117178321674
0.11592275486373196 -0.8599803221720024
0.11956060863323423 -0.9162747913324882
0.12458030051114077 -0.9684928629829087
0.1313084660592543 -1.0151881258476396
0.13994998667226755 -1.0546146492078428
0.1505618382848878 -1.0848881652044142
0.1630175469088386 -1.1042408109771646
0.17684138430331747 -1.111289007132876
0.1906652216977958 -1.1042408109771518
0.2031209303217457 -1.0848881652043874
0.2137327819343649 -1.054614649207804
0.22237430254737736 -1.015188125847592
0.22910246809548984 -0.9684928629828558
0.23412215997339536 -0.9162747913324303
0.2377600137428966 -0.8599803221719402
0.24037831805799126 -0.8007117178321027
0.24230266174052537 -0.7392546539665753
0.24376796880267868 -0.676151712530295
0.24492293049565078 -0.6117765604105027
0.24583810566365102 -0.5463877502067844
0.24656759163654995 -0.48017953202925806
0.2471610409219474 -0.4133206820164776
0.2476377358325043 -0.34594350397963414
0.2480069421498407 -0.2781602203924205
0.24826076155592824 -0.21005044201662632
0.24837513871340672 -0.14163352878989113
0.2483995981473034 -0.07285076741393882
0.24871082375237005 -0.0038819501185667097
0.12203807483642277 -0.0041630114021074275
0.12228278453392875 -0.07289991982729309
0.12229485679249502 -0.1416300599271973
0.12234984940477399 -0.21005802773105559
0.12251875132062347 -0.2781848411860688
0.12278719592458401 -0.34598178574497335
0.12314369860088774 -0.41337075167744153
0.12359097637225988 -0.48024187831344234
0.12414223417258544 -0.5464638135723116
0.12482011881741881 -0.6118762308522829
0.12567613387231127 -0.6762886446041533
0.12676181555256572 -0.7394474512186588
0.12817895813269153 -0.8010005281573166
0.13010041934150357 -0.8604280390090073
0.1327728378546578 -0.9169633762937814
0.1364814846232974 -0.9695072744891239
0.14149489888746536 -1.0165956394226745
0.1480029052897917 -1.056452018114355
0.15610687046435212 -1.0871620958326766
0.16580646403089835 -1.1069116619968449
0.17684138430331647 -1.1142111023703594
0.18787630457573426 -1.106911661996832
0.19757589814227958 -1.0871620958326496
0.20567986331683918 -1.0564520181143162
0.21218786971916473 -1.016595639422627
0.2172012839833319 -0.9695072744890707
0.22090993075197066 -0.9169633762937234
0.22358234926512416 -0.860428039008945
0.22550381047393536 -0.8010005281572518
0.22692095305406018 -0.7394474512185933
0.22800663473431373 -0.6762886446040889
0.2288626497892054 -0.6118762308522213
0.2295405344340381 -0.5464638135722533
0.23009179223436313 -0.4802418783133883
0.23053907000573487 -0.4133707516773926
0.23089557268203836 -0.3459817857449314
0.2311640172859987 -0.27818484118603354
0.2313329192018481 -0.21005802773102783
0.23138791181412705 -0.14163005992717673
0.23139998407269333 -0.07289991982728007
0.23164469377019895 -0.004163011402102229
0.13906169904854807 -0.004390197963397012
0.13925742575647884 -0.07295264429191416
0.1392557524744774 -0.1416266596861216
0.13926080866563956 -0.21005793603521702
0.1393496571503689 -0.2781988132326264
0.1395177098967773 -0.3460075934790839
0.13975235139703818 -0.4134063414132948
0.1400508752931172 -0.4802867542064878
0.14042072925740515 -0.546518720733021
0.1408738814833078 -0.6119443927236033
0.14143901222018412 -0.6763769534023663
0.14215752023981001 -0.739569662856133
0.14308713202534476 -0.8011806645717815
0.1443400200972017 -0.8607106041594043
0.1460837061958722 -0.9174090332743905
0.14852016757653427 -0.970182533005066
0.15184789504001844 -1.0175580615142017
0.1562372170993136 -1.0577400258849885
0.16181536803757657 -1.088800397123211
0.1686897142123585 -1.108906078270626
0.17684138430331536 -1.1164763434300227
0.18499305439427188 -1.1089060782706128
0.19186740056905324 -1.0888003971231834
0.19744555150731546 -1.0577400258849494
0.20183487356660998 -1.0175580615141542
0.20516260103009362 -0.9701825330050127
0.20759906241075524 -0.9174090332743323
0.20934274850942522 -0.860710604159342
0.2105956365812817 -0.8011806645717165
0.21152524836681585 -0.7395696628560674
0.21224375638644122 -0.6763769534023019
0.2128088871233171 -0.6119443927235417
0.21326203934921936 -0.5465187207329627
0.21363189331350696 -0.48028675420643374
0.21393041720958572 -0.41340634141324584
0.21416505870984648 -0.34600759347904186
0.21433311145625483 -0.27819881323259116
0.21442195994098415 -0.21005793603518927
0.2144270161321463 -0.141626659686101
0.21442534285014486 -0.07295264429190108
0.21462106955807542 -0.00439019796339158
0.156051522580459 -0.00457788690621677
0.15621227319861714 -0.07300509870679528
0.15619640319809316 -0.1416233002602137
0.15615752646608735 -0.21005145121811503
0.15617108178239636 -0.2782026291775817
0.15624005584708278 -0.3460209343200579
0.15635206734444634 -0.41342698138475203
0.15650054057886847 -0.4803137054891405
0.1566854512256302 -0.5465519428281926
0.15691396121928042 -0.6119857348542064
0.15719463503394684 -0.6764281932742816
0.15755462043254792 -0.7396380346254232
0.15801802943973703 -0.8012729679979774
0.15863382493494693 -0.8608508706414378
0.1594897274789383 -0.9176359355924945
0.16069528212669773 -0.9705415856063024
0.16237541385189722 -1.0180923966300701
0.16465940074081561 -1.0584908770265251
0.16771931442601645 -1.089803848903921
0.1717128641093378 -1.110204950567376
0.17684138430331406 -1.118064767634287
0.18196990449729014 -1.1102049505673628
0.1859634541806111 -1.0898038489038937
0.18902336786581145 -1.0584908770264863
0.19130735475472946 -1.0180923966300226
0.19298748647992875 -0.9705415856062491
0.19419304112768807 -0.9176359355924362
0.1950489436716792 -0.8608508706413754
0.195664739166889 -0.8012729679979125
0.1961281481740779 -0.7396380346253576
0.1964881335726788 -0.6764281932742173
0.19676880738734517 -0.6119857348541446
0.19699731738099524 -0.5465519428281342
0.1971822280277568 -0.48031370548908636
0.1973307012621789 -0.4134269813847031
0.1974427127595424 -0.3460209343200159
0.19751168682422893 -0.2782026291775465
0.19752524214053796 -0.21005145121808724
0.19748636540853223 -0.14162330026019307
0.19747049540800823 -0.07300509870678218
0.19763124602616622 -0.004577886906211158
0.1730220417685826 -0.004730845422577613
0.1731522689856484 -0.07305514098757106
0.17312244077868952 -0.14161953740714528
0.1730435219723595 -0.21003944722925838
0.17298598690263234 -0.27819687865216935
0.17295773538392886 -0.34602191145612066
0.17294726203279945 -0.4134325738653394
0.1729447846464257 -0.48032243590027934
0.17294498718582071 -0.5465630586119644
0.1729455378793768 -0.6119996367212682
0.17294594414040573 -0.6764450888410938
0.17294631952431183 -0.7396606885507198
0.17294666491267294 -0.8013026384371144
0.1729458829060383 -0.8608923654019927
0.17294316182382422 -0.9176966420121081
0.17294774758500808 -0.9706387896364788
0.17299638881064763 -1.0182447296426487
0.1731880046989372 -1.058741754140592
0.17373434674594154 -1.090206765328291
0.17488359566063003 -1.1108080424133822
0.1768413843033127 -1.1189593579741741
0.17879917294599518 -1.110808042413369
0.1799484218606836 -1.0902067653282634
0.18049476390768776 -1.058741754140553
0.18068637979597732 -1.0182447296426012
0.18073502102161704 -0.9706387896364254
0.18073960678280107 -0.9176966420120499
0.18073688570058705 -0.8608923654019303
0.18073610369395268 -0.8013026384370493
0.180736449082314 -0.7396606885506543
0.1807368244662203 -0.6764450888410296
0.18073723072724945 -0.6119996367212066
0.18073778142080563 -0.546563058611906
0.1807379839602007 -0.48032243590022516
0.18073550657382706 -0.4134325738652904
0.1807250332226978 -0.3460219114560787
0.18069678170399445 -0.2781968786521341
0.18063924663426742 -0.21003944722923065
0.1805603278279375 -0.14161953740712468
0.18053049962097864 -0.07305514098755789
0.1806607268380443 -0.0047308454225718595
0.1899819924847053 -0.004852944631288528
0.19008348279852555 -0.07310090860247084
0.19003903498741725 -0.14161489349283474
0.18992278113350858 -0.2100224756465097
0.18979770460102544 -0.2781821414981541
0.18967439757179475 -0.3460107637145484
0.1895422853149679 -0.41342315073736746
0.18938915231784675 -0.4803128659333231
0.189204616138284 -0.546552066783213
0.18897715808439672 -0.6119859491095426
0.18869724903952745 -0.676428415520838
0.18833807136580105 -0.7396381913701077
0.18787530227757504 -0.801272866279295
0.18725831249103708 -0.8608499045274073
0.1863970570922576 -0.9176349837873669
0.18519680913781497 -0.9705484454652898
0.18360636780870815 -1.0181281641336641
0.18167964659825508 -1.0586191870801602
0.17961638449386164 -1.0901348028570519
0.17778259215994488 -1.110816315257152
0.17684138430331134 -1.1192565331113258
0.17590017644667774 -1.1108163152571386
0.17406638411276093 -1.0901348028570246
0.17200312200836768 -1.0586191870801211
0.17007640079791508 -1.0181281641336166
0.16848595946880876 -0.9705484454652366
0.1672857115143666 -0.9176349837873086
0.16642445611558748 -0.860849904527345
0.16580746632905016 -0.80127286627923
0.16534469724082476 -0.739638191370042
0.16498551956709895 -0.6764284155207739
0.16470561052223023 -0.6119859491094809
0.1644781524683433 -0.5465520667831545
0.1642936162887808 -0.4803128659332689
0.16414048329165995 -0.4134231507373185
0.16400837103483334 -0.34601076371450656
0.16388506400560285 -0.2781821414981189
0.1637599874731199 -0.2100224756464819
0.16364373361921133 -0.14161489349281414
0.16359928580810312 -0.07310090860245762
0.16370077612192327 -0.004852944631282666
0.20693731475508126 -0.0049478295669002975
0.20701160112729255 -0.07314101242179305
0.2069512804945159 -0.14160877504536107
0.20679947491423417 -0.21000090601347546
0.20660987268156586 -0.2781589482794452
0.20639382644095883 -0.3459878206881882
0.20614163872597976 -0.4133989104440759
0.20583917110210823 -0.48028515017875173
0.20546961502965602 -0.5465189551562718
0.2050173589963744 -0.6119448150779576
0.20445290104413283 -0.6763773505690267
0.20373501729138216 -0.7395699790116572
0.20280617039434556 -0.8011805696431588
0.2015530907685094 -0.8607086140707987
0.1998047809293148 -0.9174064528401602
0.19736818021281644 -0.9701961502253907
0.19411200589504468 -1.0176385378677957
0.19004421581753028 -1.0580155430112599
0.18536507893595952 -1.0894863785677456
0.18061213674916876 -1.1102908677709955
0.17684138430331003 -1.1190731529691804
0.1730706318574511 -1.1102908677709822
0.16831768967066066 -1.0894863785677185
0.16363855278909029 -1.058015543011221
0.15957076271157677 -1.0176385378677482
0.1563145883938059 -0.9701961502253375
0.15387798767730834 -0.9174064528401019
0.15212967783811435 -0.8607086140707365
0.15087659821227925 -0.8011805696430941
0.14994775131524363 -0.7395699790115917
0.1492298675624939 -0.6763773505689625
0.14866540961025318 -0.611944815077896
0.1482131535769722 -0.5465189551562133
0.1478435975045205 -0.4802851501786975
0.14754112988064938 -0.41339891044402693
0.1472889421656707 -0.34598782068814626
0.14707289592506398 -0.27815894827941007
0.14688329369239594 -0.21000090601344773
0.1467314881121144 -0.14160877504534047
0.14667116747933776 -0.07314101242177977
0.146745453851549 -0.004947829566894348
0.22389284870549178 -0.005018871926875592
0.22394159490596083 -0.07317456434138651
0.22386411760971214 -0.14160054196563535
0.2236778928703004 -0.20997498008250384
0.2234263361244468 -0.27812777958547746
0.22311996967281275 -0.3459534900824846
0.22275007451469134 -0.41336020948317936
0.2222995634424304 -0.4802395983631771
0.22174857156287356 -0.5464641550172884
0.22107133693237058 -0.6118768310922698
0.22021582606723475 -0.6762891997784706
0.21913052906199063 -0.7394479213968101
0.21771416131434945 -0.8010005448107749
0.2157943821680005 -0.8604254692567949
0.21312172288757814 -0.9169592091982576
0.20941088954888895 -0.9695248773279874
0.20443995080373412 -1.0167127119132897
0.19816464592000982 -1.0568531062416515
0.19083055694809314 -1.0881857330156885
0.1831992984292525 -1.109088927754706
0.17684138430330879 -1.118405427327105
0.17048347017736498 -1.109088927754693
0.16285221165852481 -1.0881857330156615
0.1555181226866088 -1.0568531062416124
0.14924281780288562 -1.0167127119132424
0.14427187905773203 -0.9695248773279342
0.14056104571904382 -0.9169592091981994
0.13788838643862247 -0.8604254692567329
0.13596860729227478 -0.8010005448107105
0.13455223954463505 -0.7394479213967449
0.13346694253939226 -0.6762891997784067
0.13261143167425765 -0.6118768310922081
0.13193419704375559 -0.54646415501723
0.1313832051641995 -0.4802395983631229
0.13093269409193914 -0.41336020948313057
0.13056279893381822 -0.3459534900824428
0.1302564324821846 -0.27812777958544227
0.1300048757363313 -0.20997498008247614
0.12981865099691978 -0.14160054196561472
0.12974117370067115 -0.07317456434137319
0.12978991990114014 -0.0050188719268695866
0.24085260796605215 -0.005069315160761275
0.24087782538434188 -0.07320109578258892
0.24078223595810966 -0.14158960570908224
0.24056240842539636 -0.20994484622837326
0.24025106486133635 -0.27808909549583377
0.2398570270091842 -0.345908192050766
0.23937130702169865 -0.4133075098448081
0.23877623191321218 -0.480176770792378
0.23804671948074405 -0.5463881503923497
0.23713189381788452 -0.6117773393098033
0.23597713870303058 -0.6761523557187912
0.23451200219081414 -0.7392552282917123
0.23258829888107946 -0.8007119998466695
0.22997429889634027 -0.8599783775023512
0.2263450319836758 -0.9162707106669089
0.22132778388851762 -0.9685117024578698
0.21460236985658962 -1.0153244203493177
0.20607319758028808 -1.0551064383718993
0.19606378594870705 -1.0862158614337352
0.18560549234074208 -1.1072266940501432
0.17684138430330767 -1.1172697452423592
0.16807727626587338 -1.10722669405013
0.15761898265790902 -1.0862158614337083
0.14760957102632882 -1.0551064383718607
0.13908039875002853 -1.0153244203492706
0.132354984718102 -0.9685117024578168
0.12733773662294506 -0.9162707106668508
0.12370846971028192 -0.8599783775022893
0.1210944697255443 -0.8007119998466053
0.11917076641581133 -0.7392552282916472
0.11770562990359666 -0.6761523557187274
0.11655087478874426 -0.611777339309742
0.11563604912588601 -0.5463881503922915
0.11490653669341891 -0.48017677079232385
0.11431146158493324 -0.4133075098447593
0.11382574159744825 -0.34590819205072426
0.11343170374529658 -0.27808909549579863
0.11312036018123697 -0.20994484622834556
0.1129005326485239 -0.1415896057090616
0.11280494322229175 -0.07320109578257557
0.11283016064058146 -0.005069315160755228
0.25781987658028443 -0.005102397402261154
0.25782409611458756 -0.07322048373131557
0.2577100789695446 -0.14157549503749778
0.2574574257706453 -0.2099106244975245
0.25708818314502985 -0.27804326548882946
0.256608886518491 -0.3458525034287091
0.25601037069640287 -0.41324139009777305
0.25527514022007647 -0.48009788731003505
0.2543533350777236 -0.5462849888238879
0.25319092372512986 -0.6116361694497662
0.2517364126130409 -0.6759596865429278
0.24987835040103418 -0.7389799824214817
0.2474278723852812 -0.8003014364655113
0.2440923509159127 -0.8593524856477528
0.23947816495550045 -0.915327402125824
0.23312709516183625 -0.9671440322033371
0.22463206552258377 -1.013461735266943
0.21384490145072163 -1.0527657968763076
0.2011670864842683 -1.0835751031748388
0.18793771076637716 -1.104723213587074
0.17684138430330665 -1.1156839884163772
0.16574505784023644 -1.1047232135870608
0.15251568212234604 -1.0835751031748122
0.13983786715589372 -1.052765796876269
0.12905070308403294 -1.0134617352668966
0.12055567344478198 -0.9671440322032845
0.11420460365111937 -0.915327402125766
0.10959041769070867 -0.8593524856476913
0.10625489622134204 -0.8003014364654476
0.10380441820559118 -0.7389799824214169
0.10194635599358652 -0.6759596865428644
0.10049184488149941 -0.6116361694497051
0.09932943352890725 -0.5462849888238298
0.09840762838655584 -0.4800978873099811
0.09767239791023039 -0.4132413900977243
0.09707388208814298 -0.34585250342866747
0.09659458546160468 -0.2780432654887944
0.09622534283598969 -0.2099106244974969
0.0959726896370906 -0.14157549503747716
0.09585867249204778 -0.07322048373130219
0.0958628920263509 -0.005102397402255076
0.27479717328337283 -0.005121448216783546
0.27478365243719477 -0.07323290115830546
0.2746519127331271 -0.14155791715829857
0.27436739336169963 -0.209872432576468
0.2739417627761109 -0.27799058041110347
0.27337914188686113 -0.34578685770090123
0.2726737274251216 -0.41316339968959753
0.2717897615188827 -0.4799986078788195
0.27066111979715307 -0.5461459984988049
0.2692562165547903 -0.6114504865457847
0.2674927042622183 -0.6757039054064475
0.2652296460135914 -0.738613778388496
0.2622338411713943 -0.7997587199933219
0.25815234902165685 -0.8585367192988658
0.2525199956099096 -0.9141179799215284
0.24482063729543768 -0.9654164728621435
0.23456736142993412 -1.0111239886011423
0.22155220022323321 -1.0498325291438406
0.20625452386338824 -1.0802695943925757
0.19028607659652763 -1.1015842593229337
0.17684138430330576 -1.1136473011873558
0.16339669201008422 -1.1015842593229208
0.14742824474322436 -1.080269594392549
0.13213056838338072 -1.0498325291438022
0.11911540717668116 -1.0111239886010959
0.10886213131117929 -0.9654164728620911
0.10116277299670909 -0.9141179799214709
0.09553041958496375 -0.8585367192988046
0.09144892743522841 -0.7997587199932586
0.08845312259303381 -0.7386137783884316
0.0861900643444093 -0.6757039054063847
0.08442655205183945 -0.611450486545724
0.08302164880947857 -0.546145998498747
0.08189300708775071 -0.47999860787876564
0.0810090411815131 -0.41316339968954885
0.08030362671977442 -0.3457868577008596
0.07974100583052526 -0.2779905804110685
0.079315375244937 -0.20987243257644042
0.07903085587350984 -0.14155791715827798
0.07889911616944223 -0.07323290115829206
0.07888559532326422 -0.005121448216777469
0.29178608587319005 -0.00512995050639962
0.29175912898774237 -0.07323881040694578
0.2916119694712077 -0.14153682912635893
0.2912968751824799 -0.20983037173691044
0.2908156071096861 -0.2779312319309133
0.2901729320578266 -0.34571256629224667
0.28935945075602204 -0.41307099410917564
0.28830654405982553 -0.4798685312020736
0.2869804509100398 -0.5459713870873383
0.2853279439378722 -0.611215682115087
0.283247406384739 -0.6753790435646183
0.28056764969941705 -0.7381498840138184
0.27700800284542554 -0.7990756329791152
0.27215483720851585 -0.857521054866712
0.26548141995009045 -0.9126348442988756
0.25641388443736857 -0.9633265561771762
0.24443289762484705 -1.008320007274253
0.22928226287267817 -1.046323273457764
0.21144950437251994 -1.0763090415665333
0.1927367177312446 -1.0977989375368697
0.1768413843033049 -1.111139263106072
0.1609460508753655 -1.097798937536857
0.14223326423409105 -1.0763090415665069
0.12440050573393423 -1.046323273457726
0.10924987098176682 -1.0083200072742071
0.0972688841692472 -0.963326556177124
0.08820134865652728 -0.9126348442988185
0.081527931398104 -0.8575210548666511
0.07667476576119668 -0.7990756329790524
0.07311511890720805 -0.7381498840137547
0.07043536222188881 -0.6753790435645558
0.06835482466875807 -0.6112156821150266
0.06670231769659259 -0.5459713870872809
0.06537622454680887 -0.4798685312020201
0.06432331785061403 -0.413070994109127
0.06350983654881051 -0.34571256629220515
0.06286716149695167 -0.2779312319308783
0.062385893424158435 -0.2098303717368829
0.062070799135430885 -0.14153682912633833
0.06192363961889639 -0.07323881040693239
0.06189668273344871 -0.005129950506393533
0.3087869382152149 -0.005131553418336063
0.3087524500590581 -0.07323902388456129
0.3085947043808787 -0.14151255115618586
0.3082506389820139 -0.20978438812307515
0.3077135310776695 -0.2778656277783609
0.3069952512878684 -0.3456302346380797
0.30605558993417215 -0.4129570351117625
0.3048381328821841 -0.4797090348223158
0.3033122451189098 -0.545758025910709
0.30140739361725877 -0.6109274793984747
0.2990022676600801 -0.6749808810235249
0.2958930169313121 -0.7375820507327222
0.29175206112598656 -0.7982448924561876
0.28610662333554776 -0.8562982086738729
0.27836525947428314 -0.9108695215827025
0.26791750003524345 -0.9608733022480932
0.2542467931466027 -1.0050688841509596
0.23710455093783453 -1.0422710298467712
0.21688184929116722 -1.0717079992548941
0.19540327378174227 -1.0933380941761066
0.17684138430330393 -1.1081151641866704
0.1582794948248659 -1.093338094176094
0.13680091931544197 -1.0717079992548681
0.1165782176687762 -1.0422710298467333
0.09943597546000978 -1.0050688841509139
0.0857652685713711 -0.9608733022480413
0.07531750913233358 -0.9108695215826457
0.06757614527107135 -0.8562982086738123
0.06193070748063531 -0.7982448924561253
0.05778975167531286 -0.7375820507326589
0.05468050094654791 -0.674980881023463
0.05227537498937195 -0.6109274793984149
0.050370523487723355 -0.5457580259106519
0.0488446357244514 -0.47970903482226257
0.047627178672465284 -0.41295703511171417
0.046687517318770314 -0.34563023463803816
0.04596923752896994 -0.277865627778326
0.04543212962462619 -0.20978438812304767
0.04508806422576163 -0.1415125511561653
0.04493031854758241 -0.07323902388454788
0.04489583039142563 -0.00513155341832999
0.3257981365673379 -0.005130027176165529
0.3257647708903863 -0.0732348687615757
0.32560510496359707 -0.14148595954142965
0.32523404161618574 -0.20973394221320585
0.32463958473966215 -0.27779526438711044
0.323840346555327 -0.3455338407869033
0.3227659882702796 -0.41281806337621496
0.3213862910267195 -0.47951888288203504
0.3196580712966053 -0.5455027966520474
0.3174963590876309 -0.610582604600852
0.3147585092520058 -0.6745047846113728
0.31120807269661044 -0.7369054378959327
0.30646731019519574 -0.7972599426821438
0.30000520204095144 -0.8548608026208852
0.2911861441189331 -0.9088180970905223
0.27935638934607243 -0.9580566022454674
0.26401590671909697 -1.001386855038006
0.24501047014748864 -1.0377293873033062
0.22271877012986957 -1.0665057343220594
0.19848355087329692 -1.0881491304552124
0.17684138430330282 -1.1044864422648861
0.15519921773330891 -1.0881491304552
0.13096399847673754 -1.0665057343220334
0.10867229845912019 -1.0377293873032685
0.08966686188751394 -1.0013868550379605
0.07432637926054086 -0.9580566022454159
0.062496624487682575 -0.9088180970904658
0.053677566565666975 -0.8548608026208252
0.04721545841142584 -0.7972599426820821
0.04247469591001453 -0.73690543789587
0.03892425935462244 -0.6745047846113114
0.036186409519000304 -0.6105826046007926
0.03402469731002868 -0.5455027966519908
0.03229647757991705 -0.4795188828819822
0.03091678033635909 -0.4128180633761669
0.02984242205131337 -0.34553384078686195
0.02904318386697902 -0.27779526438707564
0.028448726990456013 -0.20973394221317843
0.0280776636430451 -0.14148595954140908
0.027917997716255968 -0.07323486876156234
0.02788463203930441 -0.005130027176159453
0.3428149321878587 -0.005129078854784739
0.34279649861021183 -0.07322867061454193
0.34264943615408794 -0.1414583886581735
0.34225323521709966 -0.20967877198553245
0.3415965263016103 -0.2777188080586656
0.3407049973166839 -0.34542321217952227
0.33949553479409317 -0.412653003462913
0.3379525562551531 -0.4792958977453501
0.33602015397636065 -0.5452033205873968
0.33359645707727964 -0.6101781510892788
0.3305185443305832 -0.6739475455034047
0.3265135575185742 -0.7361144156009662
0.321150669286196 -0.7961136011977343
0.3138598097473309 -0.8532051241234286
0.30395642536136347 -0.9064791225091724
0.29075497944282663 -0.9548782724879572
0.2737697225136718 -0.9972835808880058
0.2529480086713783 -1.032736435085148
0.22887664572191868 -1.0608305174658499
0.20264861273665594 -1.0821894848993598
0.17684138430330168 -1.1
0.151034155869947 -1.0821894848993479
0.12480612288468565 -1.0608305174658244
0.10073475993522826 -1.0327364350851105
0.0799130460929374 -0.9972835808879607
0.0629277891637854 -0.954878272487906
0.04972634324525121 -0.9064791225091163
0.03982295885928691 -0.8532051241233691
0.03253209932042526 -0.7961136011976734
0.02716921108805074 -0.7361144156009044
0.02316422427604547 -0.6739475455033441
0.020086311529352145 -0.6101781510892199
0.017662614630274104 -0.5452033205873407
0.01573021235148458 -0.47929589774529774
0.01418723381254685 -0.4126530034628654
0.012977771289958072 -0.3454232121794811
0.012086242305032614 -0.27771880805863075
0.011429533389543903 -0.2096787719855051
0.011033332452555994 -0.141458388658153
0.010886269996432251 -0.07322867061452855
0.01086783641878536 -0.005129078854778663
SCALARS Stress float 6
LOOKUP_TABLE default
-610.3661660169616 -1331.5416987069161 -844.2496197359745 12.749145963676032 0.0 0.0
853.9310144539122 505.18414616196293 511.1055904637225 -8.209677363359923 0.0 0.0
408.31686307726073 -13.270155908337726 118.5965416113742 -26.574264242240424 0.0 0.0
406.9463084198702 23.51461399471245 128.57246644516547 -3.6415621526562 0.0 0.0
480.86358819320725 17.650292020187955 148.78462696775094 -5.917117740380477 0.0 0.0
528.1122075278322 47.75861994315992 193.33060157503044 -4.031317631751589 0.0 0.0
598.5320055217941 60.384427549534585 239.54674998400964 -5.227702364701201 0.0 0.0
664.669061409329 93.83007418997572 297.00009502307415 -4.794162749873216 0.0 0.0
732.9890007933769 131.70195855350275 359.1210315467539 -3.9583629503981848 0.0 0.0
809.2663420356763 177.4437742403902 428.9013256492236 -3.257540199165229 0.0 0.0
898.1104324148337 233.81801604269913 509.54676242601306 -2.662104379629935 0.0 0.0
999.0554935213829 302.22676458461103 600.9376156163937 -2.640091644989303 0.0 0.0
1108.6064999053685 374.82853412523815 695.218294342074 -3.0233095511961317 0.0 0.0
1224.01737248348 451.0276953601658 791.4250615039638 -3.5377218078439383 0.0 0.0
1337.8720128726375 525.3500360702036 884.2532729681725 -4.053827645060826 0.0 0.0
1444.9113076932556 594.4656163461428 970.5217167940539 -4.620070727312083 0.0 0.0
1541.3256037249635 656.6797298221813 1048.0411617395462 -5.093634317080937 0.0 0.0
1622.7592671973762 709.3146392834955 1113.6344842240994 -5.01029709312102 0.0 0.0
1683.9299650198573 748.3630284865042 1162.7686589249656 -4.036513179765915 0.0 0.0
1716.398971278423 766.7858274771096 1187.673635968933 -2.9090587867509066 0.0 0.0
1717.15996777713 763.6910707879412 1186.5030029742627 1.475974897857668e-11 0.0 0.0
1716.3989712780867 766.7858274767748 1187.6736359686706 2.9090587867162707 0.0 0.0
1683.9299650198388 748.3630284864938 1162.7686589248476 4.036513179760947 0.0 0.0
1622.7592671970233 709.3146392831711 1113.634484223713 5.010297093095135 0.0 0.0
1541.3256037241888 656.6797298213991 1048.0411617388752 5.093634317089469 0.0 0.0
1444.9113076931171 594.4656163460392 970.5217167938272 4.620070727291452 0.0 0.0
1337.8720128719974 525.3500360695767 884.2532729676549 4.0538276450393465 0.0 0.0
1224.0173724831934 451.02769535992786 791.4250615036484 3.537721807862086 0.0 0.0
1108.6064999049172 374.82853412484496 695.2182943416194 3.0233095512041164 0.0 0.0
999.0554935208554 302.22676458415964 600.9376156159386 2.6400916449431158 0.0 0.0
898.1104324141645 233.81801604210634 509.5467624254254 2.662104379628845 0.0 0.0
809.2663420352673 177.44377424011168 428.9013256488526 3.257540199075809 0.0 0.0
732.9890007930725 131.70195855333887 359.1210315464103 3.958362950408313 0.0 0.0
664.669061408975 93.83007418979821 297.0000950227367 4.7941627498186445 0.0 0.0
598.5320055212387 60.38442754908534 239.54674998356154 5.227702364715961 0.0 0.0
528.1122075275537 47.758619943096015 193.3306015748275 4.0313176317168296 0.0 0.0
480.86358819287483 17.65029202011885 148.7846269676088 5.917117740368211 0.0 0.0
406.94630841960975 23.51461399465805 128.5724664450766 3.641562152659633 0.0 0.0
408.31686307706167 -13.270155908308718 118.59654161133534 26.574264242188363 0.0 0.0
853.9310144537171 505.1841461615395 511.1055904634119 8.209677363424355 0.0 0.0
-610.3661660151789 -1331.5416987051262 -844.2496197343494 -12.749145964169333 0.0 0.0
-765.9067641110887 -1443.441551470732 -931.7103952707885 18.20939952206259 0.0 0.0
564.2065485630736 307.3896390131031 320.72406494859433 -37.884684612519806 0.0 0.0
286.2339428372679 -25.736242979603134 78.11906997554425 -18.437538000844835 0.0 0.0
363.0572162805415 9.428204576807948 111.69359964850254 -14.080147665203755 0.0 0.0
425.3754745333467 5.6957497487379625 128.51902216666244 -17.040470811669923 0.0 0.0
499.60043979999455 8.682530057340907 160.754496828955 -18.033477207471556 0.0 0.0
549.1542141682473 26.79566788656257 202.9213027783352 -18.69353841131933 0.0 0.0
608.4883840117653 50.0806745586816 251.0476582474884 -17.414892739994496 0.0 0.0
665.9009999211822 75.98954138302545 301.7217744212302 -16.197142640284714 0.0 0.0
726.0336676090609 105.98014594058697 356.45121328656757 -15.50691852849944 0.0 0.0
791.5481690450383 140.00987374159476 415.6807368865998 -14.796538477720933 0.0 0.0
862.3232439895273 175.2975090428881 476.58665834249723 -14.578381950578478 0.0 0.0
931.4296021734085 209.72857110977054 533.3227495695284 -14.731926161449648 0.0 0.0
998.4024851473196 237.13747796448484 581.755804432355 -14.730165996355808 0.0 0.0
1055.9741361228005 255.09192344743724 618.8828413375071 -14.798135340817034 0.0 0.0
1099.6379796687913 260.94963623688386 642.3560438087125 -14.950148356231079 0.0 0.0
1127.4223668544396 254.6278815657961 651.7709264656762 -14.848028844626127 0.0 0.0
1141.5910583262487 239.95985521712737 650.4455134966746 -13.725837999988283 0.0 0.0
1145.6605989853165 221.78896097782754 642.707894856879 -11.17093988760652 0.0 0.0
1134.7683869665325 196.4379251105097 624.4908271680538 -7.770618805021357 0.0 0.0
1110.9894793267347 168.55029190157893 599.1307954309437 4.4726888859258906e-11 0.0 0.0
1134.7683869662258 196.43792511019507 624.4908271678383 7.770618805027803 0.0 0.0
1145.6605989852167 221.78896097774424 642.7078948567423 11.170939887657426 0.0 0.0
1141.5910583260245 239.95985521691125 650.4455134964146 13.72583800002325 0.0 0.0
1127.4223668536938 254.62788156504513 651.770926465056 14.84802884462119 0.0 0.0
1099.637979668459 260.9496362365717 642.3560438083964 14.95014835623871 0.0 0.0
1055.9741361224992 255.0919234471643 618.8828413372108 14.798135340821068 0.0 0.0
998.4024851469555 237.13747796416166 581.755804432026 14.730165996386738 0.0 0.0
931.4296021730216 209.7285711094401 533.3227495691594 14.731926161472627 0.0 0.0
862.3232439891066 175.29750904254402 476.5866583421292 14.57838195056305 0.0 0.0
791.5481690444041 140.00987374104255 415.68073688607114 14.79653847774954 0.0 0.0
726.0336676086912 105.9801459403294 356.45121328622434 15.506918528485684 0.0 0.0
665.9009999209354 75.98954138289842 301.72177442095693 16.197142640286295 0.0 0.0
608.4883840115867 50.080674558699094 251.04765824728057 17.414892739926326 0.0 0.0
549.1542141679153 26.795667886400413 202.9213027780634 18.693538411310076 0.0 0.0
499.6004397996415 8.68253005722128 160.7544968287485 18.033477207463484 0.0 0.0
425.37547453307434 5.695749748773354 128.51902216659022 17.040470811660747 0.0 0.0
363.05721628034274 9.428204576778617 111.6935996484366 14.080147665170248 0.0 0.0
286.2339428372469 -25.736242979573316 78.11906997554517 18.43753800079785 0.0 0.0
564.2065485628672 307.38963901279016 320.7240649483359 37.884684612569444 0.0 0.0
-765.9067641097433 -1443.4415514693183 -931.7103952694534 -18.209399522518446 0.0 0.0
-626.7463119627356 -1267.7508431840827 -765.7764916481962 -29.48463455936767 0.0 0.0
386.5100905420593 195.3670222401191 209.8443289994192 -91.6376648055536 0.0 0.0
211.9955604402087 11.095725124384508 66.92738566937795 -14.227770757603707 0.0 0.0
305.93435172864577 0.4907747125361931 91.92975794932788 -31.84179832060924 0.0 0.0
377.1879844197579 5.713296132294598 114.6345760125235 -37.025466751748844 0.0 0.0
462.8370787082913 4.636532140900885 141.82054406580338 -36.293949685519145 0.0 0.0
514.6433860336191 23.813598855123498 182.00845453978613 -36.405465361860884 0.0 0.0
576.2775707938575 39.684506848953234 225.3387058524603 -34.952638811992955 0.0 0.0
633.3326461895671 64.44547246472014 274.2251947836165 -32.5545254291018 0.0 0.0
692.5673220932745 91.39768212242792 326.58321106124805 -30.765379041535894 0.0 0.0
755.4657527160872 121.96427301429837 383.55852269092105 -29.530490193702835 0.0 0.0
822.1981320634678 155.5877180944979 443.59013631741516 -28.69817567820003 0.0 0.0
891.9252900347805 186.47686895109004 500.5444588959022 -28.567483929588708 0.0 0.0
955.5954239686171 212.7309009200508 548.4868651746704 -28.612681346906463 0.0 0.0
1011.2154178876013 228.4756231330189 584.2236748338399 -28.801464961436896 0.0 0.0
1053.292612527161 232.80061181183484 606.3871551090515 -29.047152101776962 0.0 0.0
1081.4193348591539 226.99661938226106 616.2595433076403 -28.660051444671026 0.0 0.0
1097.512172809866 214.31170359491898 616.8931006124885 -26.482998493932257 0.0 0.0
1100.980550477164 195.26423222432965 608.498858048082 -21.98342656441034 0.0 0.0
1092.7887711093658 172.3659013496209 592.8580514826962 -15.200493408654749 0.0 0.0
1060.2575100269912 135.78089408332957 559.1089770111859 1.8061108164602047e-11 0.0 0.0
1092.7887711092833 172.36590134955455 592.8580514826693 15.200493408722489 0.0 0.0
1100.9805504769877 195.26423222417185 608.4988580479285 21.9834265645399 0.0 0.0
1097.5121728095282 214.31170359458466 616.8931006121984 26.482998494012378 0.0 0.0
1081.4193348584788 226.99661938158533 616.2595433070451 28.660051444702148 0.0 0.0
1053.2926125268636 232.80061181155384 606.387155108794 29.047152101780974 0.0 0.0
1011.2154178874362 228.4756231328906 584.223674833605 28.80146496145412 0.0 0.0
955.5954239681884 212.73090091966463 548.4868651743334 28.612681346956577 0.0 0.0
891.9252900344588 186.47686895082185 500.5444588955901 28.567483929615683 0.0 0.0
822.1981320631323 155.58771809424826 443.59013631709973 28.698175678181293 0.0 0.0
755.4657527155684 121.96427301384794 383.55852269047494 29.53049019369712 0.0 0.0
692.5673220930435 91.39768212232707 326.5832110609893 30.765379041519502 0.0 0.0
633.3326461892835 64.44547246456551 274.2251947833601 32.55452542908181 0.0 0.0
576.2775707936133 39.68450684889221 225.33870585222206 34.95263881198323 0.0 0.0
514.6433860334193 23.813598855178565 182.00845453963626 36.40546536180577 0.0 0.0
462.83707870783235 4.636532140662663 141.82054406556446 36.293949685521454 0.0 0.0
377.1879844194706 5.713296132355847 114.63457601246336 37.025466751691745 0.0 0.0
305.93435172847995 0.4907747125193871 91.92975794927385 31.841798320491606 0.0 0.0
211.99556044021426 11.095725124351688 66.92738566936977 14.227770757544553 0.0 0.0
386.51009054194316 195.36702224001647 209.84432899926023 91.6376648054687 0.0 0.0
-626.746311961637 -1267.7508431829199 -765.7764916470362 29.484634559076454 0.0 0.0
-497.6434653515399 -1102.145407410458 -618.7985979671004 -53.470490221374185 0.0 0.0
262.6470966697412 96.3343565869924 128.39693870805164 -125.64839658470935 0.0 0.0
156.49099865793033 31.502386272429717 56.398015479108 -35.505053476068305 0.0 0.0
250.49215351654604 3.999750794769284 76.34676791920742 -46.15558654356521 0.0 0.0
328.3553843206977 3.1134341082502677 99.2777412241998 -56.56582172881377 0.0 0.0
412.0037923160518 2.464058189189724 123.3758692365287 -56.9346127868133 0.0 0.0
485.7706008029702 12.500190584744843 157.77475068749234 -56.97214071965063 0.0 0.0
537.5719553218552 28.642434932074963 197.5155102542537 -53.93669387064288 0.0 0.0
595.9434257939776 51.472230031830534 243.75325816661925 -49.45310619518954 0.0 0.0
654.5203200912823 76.5950204868883 293.98722377562154 -46.54157656678429 0.0 0.0
714.5583371239925 104.3430661200967 348.643595660046 -44.344400539113515 0.0 0.0
779.9747978701329 134.0802473913202 407.1294038352921 -43.09372400442726 0.0 0.0
846.23999892597 164.56533582282427 464.8301452956984 -42.4356065540733 0.0 0.0
910.1025908929062 186.85693916673557 512.6461877366721 -42.54781760074873 0.0 0.0
963.1275390152011 200.95643598382944 547.4871801555878 -42.849452249525925 0.0 0.0
1004.2212966555483 205.2752008447872 569.568929912759 -42.99388731110754 0.0 0.0
1033.2023038181774 199.96989464983182 580.171173104655 -42.30656942859816 0.0 0.0
1050.6412140773273 188.3891927724258 582.0845482987074 -39.36957253600944 0.0 0.0
1055.725503405517 170.48527310954896 575.1677116834504 -33.11731072831875 0.0 0.0
1048.4409611681704 147.7904611429023 560.2102667869793 -22.429273970243884 0.0 0.0
1001.0651131785093 96.11608413696013 512.1013257097367 5.120259771729252e-11 0.0 0.0
1048.4409611682029 147.79046114296548 560.2102667870322 22.42927397034332 0.0 0.0
1055.7255034053712 170.4852731094078 575.1677116833109 33.1173107284482 0.0 0.0
1050.6412140771906 188.38919277230846 582.0845482985673 39.36957253604744 0.0 0.0
1033.2023038178304 199.96989464951247 580.1711731042936 42.306569428672155 0.0 0.0
1004.2212966553534 205.27520084461693 569.5689299125565 42.9938873111637 0.0 0.0
963.1275390147598 200.95643598339555 547.4871801552188 42.84945224952086 0.0 0.0
910.1025908925405 186.85693916642413 512.6461877363979 42.54781760079737 0.0 0.0
846.2399989256544 164.5653358225588 464.830145295404 42.43560655408704 0.0 0.0
779.9747978697802 134.0802473910243 407.1294038349828 43.093724004405786 0.0 0.0
714.5583371236988 104.34306611990176 348.64359565976423 44.344400539116705 0.0 0.0
654.5203200909648 76.59502048667994 293.98722377533284 46.54157656676908 0.0 0.0
595.9434257935491 51.4722300314891 243.75325816627804 49.453106195162036 0.0 0.0
537.5719553215122 28.642434931930577 197.51551025397836 53.93669387060933 0.0 0.0
485.77060080262413 12.500190584576286 157.774750687266 56.97214071959715 0.0 0.0
412.0037923157149 2.4640581892781515 123.37586923645887 56.9346127868034 0.0 0.0
328.35538432043717 3.1134341082275707 99.27774122411795 56.56582172869525 0.0 0.0
250.4921535164156 3.9997507947485866 76.3467679191622 46.15558654348101 0.0 0.0
156.49099865793215 31.502386272331382 56.39801547907904 35.50505347593662 0.0 0.0
262.64709666965285 96.33435658697323 128.39693870795116 125.64839658453718 0.0 0.0
-497.6434653506532 -1102.1454074094786 -618.7985979661273 53.47049022124564 0.0 0.0
-386.3755273029326 -949.516648750887 -492.507210418524 -64.19755151246014 0.0 0.0
181.77067454035034 12.406995116300871 70.43732945093385 -151.66559807575882 0.0 0.0
113.2837692953804 37.57664150615528 45.258123240460705 -63.687011985945276 0.0 0.0
199.10667781083598 10.579805039488475 62.90594485509734 -62.6753491407145 0.0 0.0
277.0136118598898 4.349602470308936 84.48796309392841 -73.95592131158519 0.0 0.0
352.2685151117297 1.305483992827549 105.66737113033109 -78.60806244065907 0.0 0.0
443.18630771818584 -1.5011244507059909 131.1464961154225 -78.26100036076349 0.0 0.0
493.24929044733454 22.14146961229926 170.11356460798555 -72.1589050640831 0.0 0.0
551.3177393286484 37.31213895956188 210.44084507652298 -67.67893440610054 0.0 0.0
609.416397945785 61.161831069860796 257.9300332841988 -62.93372259849321 0.0 0.0
668.9561011890648 85.89849749928995 309.9118245122174 -59.670046627334514 0.0 0.0
732.3495080567163 112.89313139370262 366.92391993866386 -57.66787060972929 0.0 0.0
797.8198525630694 139.18380090977786 424.1192285738865 -56.7659594066138 0.0 0.0
858.6306280663738 162.12005403449015 473.82968072907397 -56.63063690817306 0.0 0.0
911.1000956383273 173.7852448225332 508.7898074663829 -56.91462727968584 0.0 0.0
951.5605185553284 176.14081686692987 530.2614259389682 -56.95442915130511 0.0 0.0
981.2995973933939 172.6829959012873 542.3750124150673 -55.83573190338406 0.0 0.0
1001.1432342893256 163.31546667297397 546.6816274806353 -52.34072511011371 0.0 0.0
1008.5346208846393 146.88120698721178 541.8379140074358 -44.51347770552277 0.0 0.0
1000.7946916208399 122.27732926319739 525.9549989869512 -30.029023004476883 0.0 0.0
934.5415113101466 51.307629913309796 459.626615297297 8.975398202437646e-11 0.0 0.0
1000.7946916212492 122.2773292636575 525.9549989872497 30.029023004589792 0.0 0.0
1008.5346208844923 146.88120698708653 541.837914007323 44.51347770564482 0.0 0.0
1001.1432342892776 163.31546667295473 546.6816274805399 52.34072511023132 0.0 0.0
981.2995973929571 172.6829959008495 542.3750124146766 55.83573190343782 0.0 0.0
951.5605185551769 176.14081686679987 530.2614259387994 56.954429151316546 0.0 0.0
911.1000956379962 173.78524482224188 508.7898074661209 56.91462727969376 0.0 0.0
858.6306280659747 162.1200540341376 473.8296807287805 56.630636908254345 0.0 0.0
797.8198525627697 139.183800909535 424.119228573611 56.765959406649216 0.0 0.0
732.3495080563329 112.89313139338468 366.9239199383397 57.667870609731146 0.0 0.0
668.9561011889066 85.89849749924332 309.91182451201115 59.6700466272939 0.0 0.0
609.4163979453493 61.16183106951118 257.93003328384333 62.9337225984438 0.0 0.0
551.3177393282142 37.312138959276005 210.44084507620488 67.678934406107 0.0 0.0
493.2492904471045 22.141469612325974 170.1135646078278 72.15890506407699 0.0 0.0
443.18630771769995 -1.5011244509046713 131.14649611519997 78.2610003607269 0.0 0.0
352.26851511149266 1.3054839930965962 105.66737113034813 78.60806244061662 0.0 0.0
277.01361185967306 4.34960247025136 84.48796309384437 73.95592131150133 0.0 0.0
199.10667781074363 10.5798050394742 62.905944855065336 62.675349140645984 0.0 0.0
113.28376929533687 37.576641506098085 45.258123240430464 63.68701198575941 0.0 0.0
181.77067454024643 12.406995116315997 70.43732945086597 151.66559807554367 0.0 0.0
-386.37552730221 -949.5166487500126 -492.5072104177304 64.19755151243406 0.0 0.0
-286.3015332940408 -816.1893653485464 -385.85007693863486 -77.37478729206126 0.0 0.0
117.36755790404409 -44.33731894587354 29.135005059973356 -158.65885245607626 0.0 0.0
78.36360109194132 34.96826965907361 33.999561225304475 -90.69746090312272 0.0 0.0
152.34965163411465 16.37798053396267 50.61828965042319 -80.8707284021887 0.0 0.0
225.9060456191362 6.296274387830021 69.66984109358782 -90.30516121554116 0.0 0.0
293.0770999933383 1.6154334206633418 88.38520701766119 -96.55331239342442 0.0 0.0
368.4364670892621 -0.059481601148190316 109.80637340331324 -97.47602604915875 0.0 0.0
452.519487379871 1.6561815446369437 137.08063883634142 -95.98935802947472 0.0 0.0
492.3916772439295 28.249990504065003 176.35516836486923 -84.50632545279817 0.0 0.0
556.3985927488989 43.77821132434252 217.76434068656752 -80.95895135916456 0.0 0.0
615.3813261850946 66.84626606765667 266.70585206846744 -75.78689175290475 0.0 0.0
677.2217784548237 91.09510600302512 321.30195627753363 -72.85001202709634 0.0 0.0
741.2353576437488 115.26003538540296 378.53172574558874 -71.23612782647312 0.0 0.0
802.077749601941 134.49736239780893 429.2577469152971 -70.95882199004132 0.0 0.0
853.3525164208459 145.91596140457406 466.2496362815077 -71.16070816627877 0.0 0.0
893.3392039032412 148.81663208068466 489.1234250818795 -70.64162429411273 0.0 0.0
924.2801162548938 144.1197620184654 501.5706580370155 -69.22438042397556 0.0 0.0
947.0186926688566 137.70672085451375 508.9962522666964 -65.3270510404169 0.0 0.0
957.959436347087 124.44665677392935 507.8445701044603 -56.25546185671328 0.0 0.0
949.4992900851521 96.83321501116933 490.5007441720055 -38.3675652738099 0.0 0.0
859.6405071753179 1.7423352453335923 401.5561441027787 7.525713385803101e-11 0.0 0.0
949.499290085733 96.83321501180629 490.50074417243184 38.36756527400233 0.0 0.0
957.9594363471238 124.44665677405538 507.8445701045102 56.255461856908724 0.0 0.0
947.0186926690842 137.70672085478765 508.99625226680604 65.32705104061601 0.0 0.0
924.2801162544787 144.11976201807744 501.5706580366952 69.22438042404528 0.0 0.0
893.3392039030552 148.8166320805214 489.12342508171196 70.6416242941582 0.0 0.0
853.3525164207406 145.9159614045133 466.2496362814062 71.16070816632865 0.0 0.0
802.0777496017445 134.49736239769643 429.25774691511424 70.95882199010589 0.0 0.0
741.2353576434944 115.26003538523584 378.5317257453672 71.23612782656627 0.0 0.0
677.221778454579 91.09510600286438 321.3019562773186 72.85001202711068 0.0 0.0
615.3813261849679 66.84626606764546 266.7058520683029 75.78689175287647 0.0 0.0
556.39859274847 43.778211324015665 217.76434068623425 80.95895135912852 0.0 0.0
492.39167724356423 28.249990503812473 176.35516836460334 84.5063254527978 0.0 0.0
452.5194873794721 1.656181544427119 137.08063883610924 95.98935802949467 0.0 0.0
368.43646708891265 -0.05948160093631616 109.8063734032865 97.47602604909973 0.0 0.0
293.07709999313045 1.6154334208183525 88.38520701765253 96.55331239330401 0.0 0.0
225.9060456189582 6.296274387770797 69.66984109351583 90.30516121543864 0.0 0.0
152.34965163403194 16.3779805339553 50.618289650396186 80.87072840206459 0.0 0.0
78.36360109197079 34.96826965909708 33.99956122532036 90.6974609029277 0.0 0.0
117.36755790392687 -44.33731894576266 29.135005059940895 158.6588524558364 0.0 0.0
-286.30153329348525 -816.1893653478903 -385.85007693802254 77.37478729207615 0.0 0.0
-204.70869096740523 -692.6852824902879 -298.1221281111765 -86.48302742483204 0.0 0.0
68.94310286630706 -82.73429087600721 -0.14472122947784172 -159.15498376012795 0.0 0.0
50.11239442605444 27.931105343403626 23.41304993083742 -113.40307084752307 0.0 0.0
109.84383414269767 20.278841482846108 39.03680268766313 -98.9687005356059 0.0 0.0
174.92404711574682 8.73906108764961 55.09477480300957 -105.1289168065215 0.0 0.0
233.2877659896168 2.4938559777706595 70.77992652878946 -111.81118291720949 0.0 0.0
294.6317038176221 0.17840501249052682 88.27947337842694 -114.88183325073021 0.0 0.0
367.34231760765454 -1.5506694747665761 108.81978036886518 -115.24386209544599 0.0 0.0
443.9273967251823 0.7471986439937999 135.09622823532413 -113.11783796831224 0.0 0.0
485.8401079724111 30.133531401329996 175.4344665813973 -98.50695691389618 0.0 0.0
550.566415057036 45.39473896726227 217.52346551547978 -93.62785940273325 0.0 0.0
612.1282845363075 67.70797444244553 268.57364085984887 -89.38113113147413 0.0 0.0
675.5499035089947 89.37610063778747 324.6654210649464 -86.61809345182671 0.0 0.0
735.7930826368788 107.16617215245346 377.4153797645862 -85.91528949488712 0.0 0.0
787.2645799531416 117.63823002026398 417.7865950054361 -85.43674506034185 0.0 0.0
828.4058643937974 118.37321787061816 442.33484400500873 -84.85738546041242 0.0 0.0
859.2232541757811 116.86083848810414 457.47498112269875 -82.39016512987789 0.0 0.0
886.016759674175 112.28395467738598 468.2236140575864 -78.12295143153706 0.0 0.0
902.0079220053652 101.55903331975743 471.3148320576465 -68.55611724724612 0.0 0.0
893.8004407876642 71.98965526305537 453.7718650073746 -47.87598839569808 0.0 0.0
774.590480280331 -52.874919348756166 337.15845171235276 3.6429526062420337e-11 0.0 0.0
893.8004407876098 71.98965526306387 453.77186500740595 47.875988395889394 0.0 0.0
902.0079220052761 101.55903331972114 471.31483205757263 68.55611724742597 0.0 0.0
886.0167596743468 112.28395467764483 468.2236140576904 78.12295143175723 0.0 0.0
859.2232541755286 116.86083848786501 457.4749811224842 82.39016512996474 0.0 0.0
828.4058643934068 118.3732178702294 442.33484400473185 84.85738546041962 0.0 0.0
787.2645799530225 117.63823002021675 417.78659500534025 85.43674506040907 0.0 0.0
735.793082636814 107.16617215246588 377.4153797644922 85.91528949495822 0.0 0.0
675.5499035087732 89.37610063763516 324.6654210647756 86.61809345189046 0.0 0.0
612.1282845359433 67.70797444215182 268.57364085956954 89.38113113148435 0.0 0.0
550.5664150569403 45.39473896732266 217.52346551536425 93.62785940272357 0.0 0.0
485.84010797196703 30.133531400962273 175.4344665810812 98.50695691384544 0.0 0.0
443.9273967247932 0.7471986437625131 135.09622823509005 113.11783796829957 0.0 0.0
367.34231760716614 -1.5506694749381955 108.81978036868442 115.24386209541697 0.0 0.0
294.63170381737956 0.17840501269665054 88.27947337842963 114.8818332506178 0.0 0.0
233.28776598942008 2.493855977699051 70.77992652870458 111.81118291710045 0.0 0.0
174.92404711570302 8.739061087813567 55.09477480304577 105.12891680637773 0.0 0.0
109.84383414264596 20.278841482856578 39.036802687650734 98.96870053546895 0.0 0.0
50.1123944260466 27.931105343383585 23.413049930829057 113.40307084735366 0.0 0.0
68.94310286615779 -82.73429087581556 -0.14472122949059862 159.15498375984657 0.0 0.0
-204.70869096697902 -692.68528248975 -298.12212811071527 86.48302742485473 0.0 0.0
-129.41743219666824 -612.0889686436008 -223.22608934087185 -107.74902869798093 0.0 0.0
27.928626162473943 -100.49975928845984 -21.632339234833502 -151.09926901435685 0.0 0.0
26.532852951816906 18.919688397037532 13.635762404656331 -131.3093825680403 0.0 0.0
71.02564779538444 22.204378106890843 27.96900777068258 -115.34373068097415 0.0 0.0
124.9188248375091 11.126924742639211 40.813724874044496 -118.11877303477557 0.0 0.0
173.30840496497424 3.8905741858364404 53.169322494983554 -124.48604256719662 0.0 0.0
221.10910262699227 0.5950467701515688 66.51013847944577 -128.74516171219608 0.0 0.0
274.5611992325485 -0.6116290046253106 82.07971914381059 -130.01508935217353 0.0 0.0
341.3158868143195 -1.5252297832267352 100.99705574727248 -130.49516686264167 0.0 0.0
415.1062265139954 -1.1037694308086927 125.10407264751142 -130.07236838883256 0.0 0.0
466.8168388694318 21.49725479982292 162.14418577989485 -115.66328493691324 0.0 0.0
527.6809470494467 42.15498722165276 206.90700473569208 -107.32490687535625 0.0 0.0
593.5798712571138 61.45421646087435 259.2264313331023 -103.42506515682524 0.0 0.0
654.7845012665604 77.798092200138 312.8872642571452 -101.69394732149138 0.0 0.0
708.4012842078081 86.67116237985871 357.48849977758033 -100.53619670552992 0.0 0.0
750.4803234142811 89.1148384296697 387.5179282682358 -98.82545218773467 0.0 0.0
784.1563109870419 86.24844470564909 405.64399446109627 -96.05870181724282 0.0 0.0
813.6882565182007 84.89023427761276 420.462051893506 -90.96444572852877 0.0 0.0
835.8427852505813 80.20892386457318 430.59270708518807 -80.91537873063054 0.0 0.0
830.8901021154225 49.73077285901196 415.2820407250437 -59.038052829307674 0.0 0.0
673.930682026043 -112.75734209005438 264.1362577193498 6.035527633230231e-11 0.0 0.0
830.8901021153043 49.73077285900461 415.2820407250459 59.03805282951608 0.0 0.0
835.8427852504552 80.20892386457005 430.59270708511605 80.91537873092729 0.0 0.0
813.6882565183298 84.89023427785372 420.4620518935882 90.96444572879177 0.0 0.0
784.1563109865875 86.24844470517615 405.64399446072287 96.05870181731862 0.0 0.0
750.4803234141026 89.11483842950558 387.5179282680988 98.82545218773407 0.0 0.0
708.401284207629 86.67116237974805 357.4884997774394 100.53619670557921 0.0 0.0
654.7845012663922 77.7980922000548 312.88726425700776 101.6939473215651 0.0 0.0
593.5798712568935 61.45421646070095 259.22643133293076 103.42506515686102 0.0 0.0
527.6809470491976 42.15498722152377 206.90700473551115 107.32490687539119 0.0 0.0
466.8168388692471 21.49725479974104 162.14418577974928 115.66328493690929 0.0 0.0
415.1062265137471 -1.1037694309000066 125.10407264736598 130.07236838879066 0.0 0.0
341.3158868139709 -1.5252297832546318 100.99705574716049 130.49516686262157 0.0 0.0
274.5611992322679 -0.6116290046237145 82.07971914372993 130.01508935212857 0.0 0.0
221.1091026267919 0.5950467701032176 66.51013847937207 128.74516171209578 0.0 0.0
173.3084049648559 3.89057418583329 53.16932249494652 124.4860425670424 0.0 0.0
124.91882483746427 11.126924742714028 40.81372487405349 118.11877303464118 0.0 0.0
71.02564779536425 22.204378106892364 27.969007770676985 115.34373068078858 0.0 0.0
26.532852951837476 18.919688397087334 13.635762404677441 131.30938256785313 0.0 0.0
27.9286261623973 -100.49975928830557 -21.63233923482339 151.09926901409762 0.0 0.0
-129.4174321964449 -612.0889686431384 -223.22608934058127 107.74902869799669 0.0 0.0
-106.60631955130886 -503.51977330212827 -182.4042825064421 -103.73095968413836 0.0 0.0
4.472391460856827 -113.37601373205383 -32.76018527844185 -145.8845806504597 0.0 0.0
5.038286919632165 9.58747129918995 4.387727465646634 -144.14481931829584 0.0 0.0
35.3966772368917 22.39694182743631 17.338085719298398 -128.9851251203295 0.0 0.0
76.19484229853269 13.10768899287173 26.790759387421325 -128.878422766862 0.0 0.0
112.85972960202696 5.440399496611708 35.51233735822891 -134.0655477394462 0.0 0.0
147.1118775772822 1.1116463557753822 44.430580502934326 -139.34895790354244 0.0 0.0
183.97495228788873 -0.6625955221927418 54.85586671851281 -142.66342212564317 0.0 0.0
226.53740237523752 -0.27955749039454103 67.79788428184264 -143.60054683928794 0.0 0.0
283.86797807071713 -3.930936388243732 82.72980524544472 -147.5488461386771 0.0 0.0
346.3391490793921 1.5959343764349128 105.46746403706786 -140.60309964576228 0.0 0.0
413.31548540066433 6.628222254703551 133.6726536592089 -133.28158040862573 0.0 0.0
478.1230192468507 27.82057862469879 177.0192113462484 -123.5088264837031 0.0 0.0
543.8118160784452 44.73217670571991 227.23578271894857 -119.18357453539949 0.0 0.0
601.8185934009912 54.16765461119 275.20767978826916 -116.48116480407495 0.0 0.0
648.4829726523157 56.36369177527526 311.993570217318 -113.69901862691168 0.0 0.0
686.8322659415539 56.229196778767026 338.20147052709007 -109.72953515115644 0.0 0.0
718.5365526052393 55.88827528339819 358.0985151598596 -104.39628596278966 0.0 0.0
748.3706278339814 54.425943730622365 375.6314459785343 -93.61165483202018 0.0 0.0
755.7832561180994 30.555474117039218 371.7000095232526 -72.45917110516943 0.0 0.0
550.4412162435709 -175.67248399385926 180.65572162723126 8.121858741105825e-11 0.0 0.0
755.7832561182624 30.555474117412565 371.70000952343463 72.45917110543657 0.0 0.0
748.3706278333776 54.42594373004947 375.6314459781783 93.61165483236476 0.0 0.0
718.5365526052188 55.88827528342071 358.09851515987566 104.39628596299737 0.0 0.0
686.8322659411978 56.22919677836943 338.201470526789 109.72953515123068 0.0 0.0
648.4829726523732 56.3636917754078 311.99357021734545 113.69901862693744 0.0 0.0
601.818593400638 54.1676546108311 275.20767978803167 116.481164804087 0.0 0.0
543.8118160784296 44.73217670581932 227.2357827189463 119.18357453546534 0.0 0.0
478.1230192465285 27.8205786243523 177.01921134601713 123.50882648376823 0.0 0.0
413.3154854004616 6.628222254572663 133.67265365907565 133.28158040864994 0.0 0.0
346.33914907899396 1.5959343759870173 105.46746403680045 140.6030996456939 0.0 0.0
283.86797807054376 -3.930936388080567 82.72980524544815 147.54884613863933 0.0 0.0
226.53740237504655 -0.27955749033985855 67.79788428180451 143.60054683930156 0.0 0.0
183.97495228767588 -0.6625955223042621 54.855866718415896 142.6634221255812 0.0 0.0
147.11187757720572 1.1116463558466185 44.43058050293405 139.3489579034438 0.0 0.0
112.85972960203286 5.440399496729703 35.512337358265675 134.0655477392315 0.0 0.0
76.19484229840928 13.107688992641306 26.790759387315166 128.87842276669383 0.0 0.0
35.39667723687357 22.396941827418054 17.33808571928749 128.98512512013602 0.0 0.0
5.038286919673817 9.58747129929075 4.387727465689373 144.14481931811954 0.0 0.0
4.472391460843342 -113.37601373196202 -32.76018527841571 145.88458065026708 0.0 0.0
-106.60631955124944 -503.51977330158917 -182.40428250628045 103.73095968403402 0.0 0.0
-87.73780960232413 -413.0720976044941 -149.8704680470068 -97.88972049268375 0.0 0.0
-10.454127085827047 -116.96237063150468 -38.27485540360044 -140.90101100817566 0.0 0.0
-14.31537403810543 1.6915198917204677 -3.78715624391549 -151.88454754531247 0.0 0.0
2.144988539718121 21.236649988066038 7.014491558335246 -139.2765087007815 0.0 0.0
28.89041502176022 14.507519028056862 13.019380214945125 -136.93885508549238 0.0 0.0
52.63443670481443 6.840069203739032 17.84652778071722 -140.71211553251595 0.0 0.0
72.55572978144208 2.2374915986439685 22.428605874349277 -145.6803122275309 0.0 0.0
91.68134267829642 -0.012005057724775892 27.491353640589605 -149.27709238529056 0.0 0.0
113.51759575188608 -0.008122268901037177 34.03372941602598 -151.581802983005 0.0 0.0
139.7241428613858 -1.148985281413529 41.55472845572392 -153.9028879697402 0.0 0.0
179.08798498682748 -1.4396521641628022 52.42507865077585 -162.1836524172161 0.0 0.0
223.10905583530356 -2.5108984384235544 66.45910975513208 -154.09620266092176 0.0 0.0
289.72883273252125 -5.553601664648002 85.39291959948608 -152.07355855890427 0.0 0.0
358.6324262486895 -4.480530270882737 111.2562720521326 -143.58646134893095 0.0 0.0
429.44848921233415 -3.0500527185952215 142.99046405673127 -135.06591486964058 0.0 0.0
476.9423358476012 6.602857961799176 179.3672107578259 -130.83106312418496 0.0 0.0
521.2324346422557 21.95063557814098 217.7207424861558 -129.89017812006736 0.0 0.0
561.353814075527 23.33110459153078 250.93230114834827 -125.14688142530062 0.0 0.0
599.0195700206061 16.529996171219135 276.9445264356368 -111.44985377774705 0.0 0.0
636.0783320871019 9.983722042581682 300.3212622902243 -89.33738012746991 0.0 0.0
375.1291201424753 -244.37921359762964 72.36397554741093 8.047251753851015e-11 0.0 0.0
636.0783320871126 9.983722042810143 300.32126229031843 89.33738012771568 0.0 0.0
599.019570019875 16.529996170492282 276.94452643513176 111.44985377801471 0.0 0.0
561.3538140753684 23.331104591422225 250.9323011482354 125.14688142550891 0.0 0.0
521.2324346420115 21.95063557785184 217.72074248597238 129.8901781201744 0.0 0.0
476.9423358476257 6.6028579618785805 179.36721075787338 130.83106312422063 0.0 0.0
429.44848921204755 -3.0500527189061923 142.99046405655977 135.06591486965252 0.0 0.0
358.6324262486058 -4.480530270918819 111.25627205208544 143.58646134899658 0.0 0.0
289.72883273235016 -5.553601664886948 85.39291959936014 152.07355855896608 0.0 0.0
223.10905583505243 -2.510898438769752 66.45910975495015 154.09620266088555 0.0 0.0
179.08798498655105 -1.4396521646827964 52.42507865053448 162.1836524171524 0.0 0.0
139.7241428613113 -1.1489852814415582 41.554728455695546 153.90288796968667 0.0 0.0
113.5175957518017 -0.00812226889874701 34.033729416003176 151.5818029829337 0.0 0.0
91.68134267822128 -0.012005057763772697 27.491353640555243 149.2770923852085 0.0 0.0
72.55572978146158 2.23749159874573 22.428605874386324 145.68031222739864 0.0 0.0
52.63443670482135 6.840069203717837 17.84652778071273 140.71211553235844 0.0 0.0
28.89041502178683 14.507519028042234 13.019380214948717 136.93885508530673 0.0 0.0
2.144988539746318 21.2366499880407 7.014491558336106 139.27650870060253 0.0 0.0
-14.315374038090416 1.691519891706298 -3.7871562439152364 151.8845475451375 0.0 0.0
-10.454127085815903 -116.96237063137835 -38.274855403558504 140.90101100803452 0.0 0.0
-87.73780960224002 -413.0720976040893 -149.87046804686543 97.88972049257586 0.0 0.0
-71.03421451633307 -332.7044711352963 -121.1216056954888 -89.10687625017586 0.0 0.0
-21.486811411459666 -114.49423310554394 -40.794313355101075 -134.98592162827413 0.0 0.0
-31.74749444589509 -4.367863137300997 -10.834607274958827 -155.1710658068199 0.0 0.0
-29.205301593068295 19.324729652801622 -2.9641715820800023 -145.80024762876704 0.0 0.0
-17.050671436680474 15.206502821209984 -0.5532505846411491 -141.92047618712948 0.0 0.0
-7.1634090674616955 8.104142604392221 0.2827365913337312 -143.98760044504672 0.0 0.0
-2.1532499793254942 3.294873384354269 0.34078411673029363 -148.27507203257355 0.0 0.0
-0.28196323188076455 0.8033717826167055 0.1557016310837609 -151.52419156789765 0.0 0.0
0.18195086643724956 -0.057863233594813934 0.03679541062524816 -154.83370388730276 0.0 0.0
0.1984056138636383 -0.15041548632073454 0.014468147807718879 -156.79087759528662 0.0 0.0
0.11660049563693065 -0.17060031877380855 -0.0130884832617566 -164.47956285447916 0.0 0.0
0.22968235046587182 -0.1727749848901885 0.0017135899946136846 -160.15677814786474 0.0 0.0
-0.11608960806938029 0.1003521283298241 -0.002852234832863232 -159.1994153724417 0.0 0.0
-0.5863170990395759 0.7371833878879617 0.07498825710841928 -153.44442848109935 0.0 0.0
1.765221550447805 0.9233566027761615 0.856359021863021 -147.75788421006902 0.0 0.0
18.61633943936127 -5.25064807596992 2.751527932697833 -136.74554627997594 0.0 0.0
65.55965932189727 -15.254513005336662 10.436790904273629 -125.26993942277808 0.0 0.0
135.82303474389377 -19.358264001593028 23.98380472770544 -122.33114221012154 0.0 0.0
252.34442480651086 -59.9460389290737 39.9610823533413 -120.33303091046676 0.0 0.0
367.7796189722483 -60.939145847510446 106.6462757915882 -109.35127896690517 0.0 0.0
-40.20274481998415 -353.46008674275913 -138.5150576802671 4.921929530610214e-11 0.0 0.0
367.77961897246405 -60.939145847215244 106.6462757917116 109.35127896706295 0.0 0.0
252.3444248064364 -59.94603892935542 39.96108235320777 120.3330309108544 0.0 0.0
135.82303474439735 -19.358264000566713 23.98380472820765 122.33114221033759 0.0 0.0
65.55965932184614 -15.254513005436703 10.436790904223542 125.26993942297688 0.0 0.0
18.616339439444495 -5.2506480760373115 2.751527932697062 136.745546279986 0.0 0.0
1.7652215505526598 0.9233566028524756 0.85635902191828 147.7578842100346 0.0 0.0
-0.5863170990025495 0.7371833878175682 0.07498825709152257 153.44442848115182 0.0 0.0
-0.11608960802879764 0.1003521281023474 -0.0028522348892678906 159.19941537252828 0.0 0.0
0.22968235065701847 -0.17277498471667885 0.0017135901052363067 160.1567781478486 0.0 0.0
0.11660049558900454 -0.1706003191459411 -0.013088483388163041 164.47956285434566 0.0 0.0
0.19840561392887146 -0.15041548633784085 0.014468147822117139 156.79087759526075 0.0 0.0
0.1819508665370524 -0.05786323343319433 0.03679541070408421 154.8337038872753 0.0 0.0
-0.28196323179899174 0.8033717826834716 0.15570163112827196 151.52419156783947 0.0 0.0
-2.1532499791347393 3.294873384604257 0.3407841168624084 148.27507203244437 0.0 0.0
-7.163409067513796 8.104142604118177 0.28273659123591477 143.98760044492406 0.0 0.0
-17.05067143658654 15.206502821310364 -0.5532505845828524 141.92047618690694 0.0 0.0
-29.20530159301378 19.324729652816135 -2.9641715820592944 145.80024762856593 0.0 0.0
-31.747494445901495 -4.3678631373650525 -10.834607274979962 155.17106580661556 0.0 0.0
-21.486811411428636 -114.49423310537638 -40.7943133550415 134.9859216281318 0.0 0.0
-71.03421451629771 -332.70447113501575 -121.12160569539404 89.10687625007823 0.0 0.0
-56.87237203791504 -262.8179883708424 -95.90710812262724 -80.27269195866097 0.0 0.0
-30.344215946164542 -107.3688774076961 -41.31392800615818 -127.3673360547674 0.0 0.0
-47.87323623596892 -8.690330052543688 -16.96906988655378 -154.44309430128547 0.0 0.0
-58.98164016092816 17.07513859362156 -12.571950470191979 -148.40733055968664 0.0 0.0
-61.7100526992628 15.237253386516633 -13.94099494809367 -143.5380962339896 0.0 0.0
-66.23720502333094 9.009690608397012 -17.182619539676473 -143.71378192293238 0.0 0.0
-76.71132723752322 4.2848083126390355 -21.693211634095473 -147.11821377263374 0.0 0.0
-92.21648901824673 1.5694278278938922 -27.181870418059525 -149.53543012896438 0.0 0.0
-113.18524752307371 -0.09117407788128062 -33.96133507365517 -151.57392044882462 0.0 0.0
-139.3436263673435 0.8322833010959938 -41.53898537977171 -153.82401083296566 0.0 0.0
-178.75130980991204 1.1053963879045852 -52.43760553268667 -162.01902625380103 0.0 0.0
-222.96420872130443 2.4158388789148786 -66.39450872154461 -154.76807417966148 0.0 0.0
-289.9968443290695 5.729046120981914 -85.4095136301676 -151.973729231115 0.0 0.0
-359.4603451547057 5.917543894192033 -110.9821115777591 -143.1572494780295 0.0 0.0
-427.50819636724765 5.6589425428462725 -141.11741206983504 -135.5292004657972 0.0 0.0
-469.3156975737314 1.5652192142434203 -169.8317961392204 -133.7164102914549 0.0 0.0
-496.8036065974613 1.409802690571908 -187.35334618559895 -136.58137435238524 0.0 0.0
-506.8649561000035 12.930418190226547 -184.2772105394613 -141.4549865118076 0.0 0.0
-493.06148429130633 20.03595308548809 -161.6665913751525 -138.2457421363031 0.0 0.0
-319.7763410321566 -2.5582122765584714 -119.10395981892955 -92.12196573581713 0.0 0.0
-492.840649235717 -511.98560406048625 -456.1710550116446 -6.654232720393338e-11 0.0 0.0
-319.7763410319343 -2.5582122762888275 -119.10395981879358 92.12196573612749 0.0 0.0
-493.0614842915526 20.03595308509438 -161.66659137533918 138.24574213667464 0.0 0.0
-506.8649560996744 12.930418190641063 -184.27721053928832 141.45498651206066 0.0 0.0
-496.80360659718724 1.4098026908545052 -187.35334618542848 136.5813743524532 0.0 0.0
-469.3156975735248 1.5652192144720125 -169.83179613905247 133.7164102914519 0.0 0.0
-427.508196366904 5.658942543174591 -141.11741206962017 135.52920046582759 0.0 0.0
-359.4603451544575 5.91754389428298 -110.9821115776418 143.15724947807698 0.0 0.0
-289.99684432909396 5.729046120382041 -85.40951363034769 151.97372923125883 0.0 0.0
-222.96420872088405 2.4158388791522114 -66.39450872134478 154.7680741796338 0.0 0.0
-178.75130980952474 1.1053963880645803 -52.43760553251933 162.01902625373782 0.0 0.0
-139.34362636705293 0.8322833011817147 -41.5389853796624 153.82401083289872 0.0 0.0
-113.18524752282714 -0.09117407769457153 -33.961335073524815 151.57392044880405 0.0 0.0
-92.2164890180469 1.56942782800807 -27.181870417966017 149.53543012889966 0.0 0.0
-76.71132723725106 4.284808312936877 -21.693211633925568 147.11821377246585 0.0 0.0
-66.23720502329387 9.00969060818459 -17.182619539728826 143.7137819227649 0.0 0.0
-61.710052699197156 15.237253386410087 -13.94099494810591 143.53809623379306 0.0 0.0
-58.98164016085259 17.07513859359569 -12.571950470177068 148.40733055951767 0.0 0.0
-47.873236235903896 -8.690330052518348 -16.969069886526665 154.44309430110926 0.0 0.0
-30.344215946092117 -107.36887740752812 -41.313928006086066 127.36733605463255 0.0 0.0
-56.87237203786055 -262.8179883706115 -95.90710812254159 80.27269195858608 0.0 0.0
-45.726843081083125 -201.9349059216301 -74.29852470081396 -71.43661794610517 0.0 0.0
-37.7936870646985 -97.13766689111331 -40.479406186743546 -118.12471622303856 0.0 0.0
-63.10890216424234 -11.275763345791892 -22.31539965301027 -149.95799062526845 0.0 0.0
-87.49826408386944 14.696982851400136 -21.839691846682648 -147.09471449373746 0.0 0.0
-105.10574141633212 14.63354387624504 -27.15331656544985 -141.46598652983386 0.0 0.0
-124.66399309264156 9.669501986275028 -34.467650975388544 -140.46402820232439 0.0 0.0
-150.22107821195652 4.63004719974394 -43.71542029928344 -140.74871099163562 0.0 0.0
-184.4267794234621 2.12319783696053 -54.5423032507109 -143.17223705961112 0.0 0.0
-226.25618432438574 0.15517829073449496 -67.75214523845305 -143.50053354774997 0.0 0.0
-283.5752298940092 3.647045462214053 -82.72301333802494 -147.4806819648561 0.0 0.0
-346.1481256017378 -1.8102627250801886 -105.46582137485098 -140.60677043528491 0.0 0.0
-413.1691908948739 -6.730032972437439 -133.63249900578785 -133.39358049960182 0.0 0.0
-478.0422296826023 -27.851403970520042 -177.00677184179898 -123.39487514575978 0.0 0.0
-543.7168525882178 -44.02599085296847 -227.03739567186818 -118.66357585129826 0.0 0.0
-600.5372223219463 -51.864564594042456 -273.7308376193363 -116.49650903228179 0.0 0.0
-641.5698863308387 -51.194749467320456 -306.29941736502474 -117.0006341808522 0.0 0.0
-668.099813727742 -46.442072495886165 -324.3053098942017 -120.12232956539663 0.0 0.0
-680.1218016781168 -41.078096586301704 -330.4273548917076 -126.48039077654722 0.0 0.0
-672.823343376139 -30.26881185646605 -319.282659084819 -135.03104906161394 0.0 0.0
-661.9798523762972 -37.61019092438996 -309.2503459901915 -132.61266721658887 0.0 0.0
-1075.724893627201 -700.8181904532074 -809.1330126916237 3.107203383478918e-11 0.0 0.0
-661.9798523763784 -37.610190924709144 -309.25034599037184 132.61266721690967 0.0 0.0
-672.8233433761603 -30.268811856671483 -319.28265908488277 135.03104906191402 0.0 0.0
-680.1218016777291 -41.07809658604257 -330.427354891463 126.48039077675303 0.0 0.0
-668.0998137274644 -46.44207249557253 -324.30530989400256 120.1223295654928 0.0 0.0
-641.5698863304617 -51.19474946698266 -306.2994173647541 117.000634180885 0.0 0.0
-600.5372223215622 -51.864564593703015 -273.73083761908345 116.49650903230341 0.0 0.0
-543.7168525880988 -44.0259908530035 -227.03739567180875 118.6635758513912 0.0 0.0
-478.04222968264475 -27.85140397082091 -177.0067718418328 123.39487514586175 0.0 0.0
-413.16919089464966 -6.730032972445162 -133.63249900566922 133.39358049964406 0.0 0.0
-346.14812560130804 -1.8102627249367629 -105.46582137466221 140.60677043525916 0.0 0.0
-283.5752298935469 3.6470454622739776 -82.72301333787173 147.48068196480153 0.0 0.0
-226.2561843240614 0.15517829070591904 -67.75214523836924 143.50053354770193 0.0 0.0
-184.42677942318605 2.123197837023267 -54.542303250609685 143.1722370595667 0.0 0.0
-150.22107821173384 4.630047199737247 -43.71542029921967 140.74871099147856 0.0 0.0
-124.6639930924788 9.669501986196973 -34.46765097536431 140.46402820213936 0.0 0.0
-105.10574141617585 14.633543876247854 -27.153316565401468 141.46598652967137 0.0 0.0
-87.49826408375472 14.696982851373503 -21.839691846656276 147.09471449355505 0.0 0.0
-63.1089021641414 -11.275763345687407 -22.315399652948642 149.95799062513285 0.0 0.0
-37.793687064643656 -97.13766689096732 -40.47940618668329 118.12471622292354 0.0 0.0
-45.72684308104211 -201.93490592146262 -74.29852470075141 71.43661794603369 0.0 0.0
-37.27789998871764 -149.47689544678676 -56.02643863065132 -62.52038318637913 0.0 0.0
-44.3325961542295 -85.02535527034807 -38.80738542737326 -107.3820202463638 0.0 0.0
-77.6866449171697 -12.229071691097769 -26.974714982480236 -141.98018141752334 0.0 0.0
-114.98039823282318 12.317243716068356 -30.800811018555702 -141.8574990277459 0.0 0.0
-147.49457595911795 13.588535099705567 -40.16399854187551 -136.00698509459073 0.0 0.0
-181.45594042782193 9.502710228055387 -51.63868234190266 -132.39268387899847 0.0 0.0
-223.8784700569235 5.120978638824526 -65.49490440128571 -132.29898860661504 0.0 0.0
-274.98249667936767 1.8130965595450452 -81.82147883197455 -130.65311358145496 0.0 0.0
-341.0714677189996 1.409886375233988 -100.96807763831595 -130.35760114284506 0.0 0.0
-415.10865365526973 0.9367660926576269 -125.10462682597469 -130.03470016473307 0.0 0.0
-466.6877893944472 -21.671948844834308 -162.15805515898592 -115.61480108551625 0.0 0.0
-527.6001684267368 -42.20475282981194 -206.85874943460715 -107.42670225940645 0.0 0.0
-593.285372912203 -61.36934208647851 -259.0126025218822 -103.4213512740148 0.0 0.0
-654.5902684970749 -77.46531398082759 -312.62701313568925 -101.16576466529504 0.0 0.0
-707.9304170899073 -85.52509120934583 -356.8719455174545 -99.9606447817171 0.0 0.0
-745.9293640620599 -85.1379380469944 -383.92083149106236 -101.07373558456099 0.0 0.0
-770.4021434254532 -77.47493425896106 -395.7313941703067 -105.62865605451991 0.0 0.0
-777.4632994069652 -62.66018462766499 -392.98607733903714 -112.91547661213536 0.0 0.0
-763.0806339156541 -40.90082683295536 -373.0678859483472 -121.89589698084255 0.0 0.0
-725.0869469790879 -18.015587331341994 -339.696066549321 -126.20992461167765 0.0 0.0
-1454.1975398680725 -892.8644538088777 -1091.8113466996174 5.7205795656045666e-11 0.0 0.0
-725.0869469791162 -18.01558733155349 -339.696066549399 126.20992461194555 0.0 0.0
-763.0806339156694 -40.900826833160636 -373.06788594835257 121.8958969811303 0.0 0.0
-777.4632994066484 -62.66018462739848 -392.98607733885535 112.91547661235582 0.0 0.0
-770.4021434253227 -77.47493425886182 -395.7313941701649 105.62865605460571 0.0 0.0
-745.9293640618762 -85.13793804685663 -383.92083149092974 101.07373558459717 0.0 0.0
-707.9304170896272 -85.52509120907553 -356.8719455172265 99.9606447817132 0.0 0.0
-654.5902684967313 -77.46531398059112 -312.62701313547586 101.16576466535462 0.0 0.0
-593.2853729120262 -61.369342086436845 -259.0126025217368 103.42135127406307 0.0 0.0
-527.6001684263069 -42.20475282948529 -206.85874943427498 107.42670225940421 0.0 0.0
-466.68778939426966 -21.67194884492397 -162.15805515886981 115.61480108552063 0.0 0.0
-415.1086536548566 0.9367660927874204 -125.10462682576507 130.0347001647572 0.0 0.0
-341.0714677186551 1.4098863750172261 -100.96807763827269 130.35760114284312 0.0 0.0
-274.98249667888973 1.8130965597215587 -81.82147883178567 130.65311358139323 0.0 0.0
-223.87847005665878 5.120978638750949 -65.49490440122958 132.29898860651068 0.0 0.0
-181.45594042763486 9.502710227887812 -51.638682341897685 132.39268387883897 0.0 0.0
-147.49457595886568 13.588535099806835 -40.16399854177038 136.0069850944452 0.0 0.0
-114.98039823266045 12.317243716131353 -30.80081101848762 141.85749902756118 0.0 0.0
-77.68664491704072 -12.229071690942273 -26.974714982394897 141.9801814173611 0.0 0.0
-44.33259615419572 -85.02535527025272 -38.80738542733452 107.38202024626747 0.0 0.0
-37.277899988707695 -149.4768954466799 -56.02643863061627 62.52038318628522 0.0 0.0
-31.214511950503834 -105.16388466621332 -40.91351898501513 -53.40862927737976 0.0 0.0
-50.17484301664409 -71.96437220388879 -36.64176456615987 -95.21978017438259 0.0 0.0
-91.69978725808652 -11.775811970432718 -31.042679768555786 -130.76009677444412 0.0 0.0
-141.61818529084493 10.01086738658775 -39.48565513072303 -132.80020838522333 0.0 0.0
-188.6036871923471 12.0101205953145 -52.98457691571801 -126.52397205407382 0.0 0.0
-238.06790974639057 9.262070035581509 -68.57617562380332 -121.7637091457593 0.0 0.0
-295.67329645216796 4.433295575360022 -87.2084705899254 -118.12093023196414 0.0 0.0
-367.49549817230934 2.4709457453361905 -108.56502781462228 -115.86646757967203 0.0 0.0
-443.8922213544923 -0.8087340437999959 -135.09487068026408 -112.95179197424338 0.0 0.0
-485.9598140160497 -30.356175489238254 -175.51789030674462 -98.3842302370458 0.0 0.0
-550.641818072778 -45.45749623713306 -217.5498637519391 -93.65577495139256 0.0 0.0
-612.018176439869 -67.67164774483763 -268.48762621375704 -89.48991835962876 0.0 0.0
-675.0220250805633 -89.07324773740358 -324.19842306906037 -86.68601044361115 0.0 0.0
-735.4701605396978 -107.04659261656832 -377.0660351163409 -85.468143057865 0.0 0.0
-788.0318203427817 -118.07821281695458 -418.44416564530434 -84.45348964974086 0.0 0.0
-827.6044666970004 -117.43551449837537 -442.01103660763175 -85.95818611111184 0.0 0.0
-848.7207288616256 -108.6316789941134 -449.3224189213863 -90.30999651118633 0.0 0.0
-848.5848775675511 -82.9584565223283 -436.79819497661003 -97.31790855676027 0.0 0.0
-820.3170042209609 -43.63702272947731 -401.78714564170434 -106.64965858473629 0.0 0.0
-759.174865396263 3.5765389477271903 -344.1172828460038 -115.27857351789378 0.0 0.0
-1737.8672164137424 -1084.8515556170912 -1328.8189979421759 4.624212124326732e-11 0.0 0.0
-759.1748653960265 3.576538947826677 -344.11728284586485 115.27857351810351 0.0 0.0
-820.3170042208989 -43.63702272955183 -401.787145641657 106.6496585849759 0.0 0.0
-848.5848775675961 -82.95845652248889 -436.79819497664676 97.31790855699045 0.0 0.0
-848.7207288616644 -108.63167899421242 -449.32241892139285 90.30999651131553 0.0 0.0
-827.6044666969468 -117.43551449837038 -442.0110366075707 85.95818611115915 0.0 0.0
-788.0318203424487 -118.07821281665473 -418.44416564503035 84.4534896497709 0.0 0.0
-735.4701605392102 -107.04659261610827 -377.06603511600923 85.46814305789816 0.0 0.0
-675.0220250806142 -89.07324773761285 -324.1984230690522 86.68601044369052 0.0 0.0
-612.0181764393864 -67.67164774442699 -268.48762621337085 89.48991835963739 0.0 0.0
-550.6418180724297 -45.45749623695217 -217.5498637516587 93.65577495137049 0.0 0.0
-485.9598140156987 -30.356175489107876 -175.51789030648894 98.38423023703788 0.0 0.0
-443.892221354119 -0.8087340437653783 -135.09487068008036 112.95179197429874 0.0 0.0
-367.4954981718272 2.4709457452484047 -108.56502781450939 115.86646757968134 0.0 0.0
-295.6732964516803 4.433295575490867 -87.20847058974978 118.12093023183297 0.0 0.0
-238.06790974615288 9.262070035452657 -68.57617562377162 121.76370914562321 0.0 0.0
-188.60368719211888 12.010120595283112 -52.98457691565895 126.52397205393737 0.0 0.0
-141.61818529066574 10.010867386599363 -39.485655130665606 132.80020838508685 0.0 0.0
-91.69978725797462 -11.775811970380584 -31.04267976850655 130.76009677429798 0.0 0.0
-50.17484301658729 -71.96437220381043 -36.641764566119306 95.2197801743152 0.0 0.0
-31.21451195047027 -105.1638846661215 -40.913518984977536 53.408629277303895 0.0 0.0
-27.23669192418735 -68.9619405194519 -28.859589733091774 -44.02994123328551 0.0 0.0
-55.3003742200474 -58.651122705884305 -34.1854490777795 -81.71052152164307 0.0 0.0
-105.11681722074348 -10.227481244415126 -34.60328953954759 -116.48400635950422 0.0 0.0
-167.49878696349307 7.770725521841946 -47.92269911694923 -119.9629638032026 0.0 0.0
-228.5347437204828 10.077154095526929 -65.59173114589942 -113.2338698263787 0.0 0.0
-293.8489858703507 8.759505103957771 -85.20742496339872 -107.49043174447934 0.0 0.0
-368.631829186347 3.9055077131329066 -108.58972700962765 -101.12236999611044 0.0 0.0
-452.02226065473377 -1.2744344124489544 -136.94328271091302 -96.3725854214005 0.0 0.0
-492.5511885960543 -28.303519822645594 -176.40086706119462 -84.34050711917719 0.0 0.0
-556.6012185110187 -43.959805504941144 -217.8836063640974 -80.82930658065747 0.0 0.0
-615.4963510871108 -66.94953370986237 -266.78666190372314 -75.78420407549409 0.0 0.0
-677.0678237805923 -90.97700269750433 -321.1680578310481 -72.95869716790777 0.0 0.0
-740.4873950908675 -114.72893746743807 -377.8337122731823 -71.3196895490835 0.0 0.0
-801.4433754911297 -134.3027043303287 -428.6755550783412 -70.65177116467645 0.0 0.0
-855.2844633155648 -147.97362749650046 -468.19989203409597 -70.1584386077724 0.0 0.0
-896.5987619391904 -151.60395612111967 -492.53543819710444 -70.7262452827004 0.0 0.0
-917.3108570504459 -137.40753126967178 -495.57331068856007 -74.85897153259893 0.0 0.0
-906.9306649230608 -101.43574709841965 -472.4724167784009 -80.86608484217969 0.0 0.0
-861.4058026396403 -43.97704305495989 -420.94372912249537 -89.4791722125273 0.0 0.0
-779.9289792643908 24.59845844478672 -342.14652425760033 -103.42084583558606 0.0 0.0
-1988.6849547944257 -1277.7169723106197 -1547.896014224316 5.88507020893303e-11 0.0 0.0
-779.9289792642165 24.598458444880578 -342.1465242575262 103.42084583576523 0.0 0.0
-861.4058026392748 -43.97704305466081 -420.94372912224367 89.4791722126752 0.0 0.0
-906.9306649229258 -101.43574709832518 -472.4724167782767 80.86608484234995 0.0 0.0
-917.3108570501606 -137.40753126943773 -495.57331068831655 74.85897153266747 0.0 0.0
-896.5987619389206 -151.60395612089454 -492.5354381968725 70.72624528276954 0.0 0.0
-855.2844633155007 -147.97362749647982 -468.1998920340344 70.15843860781774 0.0 0.0
-801.4433754908466 -134.30270433009292 -428.6755550780873 70.651771164708 0.0 0.0
-740.4873950908794 -114.72893746759154 -377.83371227314495 71.31968954914811 0.0 0.0
-677.0678237801753 -90.9770026971883 -321.1680578306875 72.9586971679383 0.0 0.0
-615.4963510868636 -66.94953370974825 -266.7866619034709 75.78420407546211 0.0 0.0
-556.6012185107636 -43.959805504902086 -217.8836063638785 80.82930658063937 0.0 0.0
-492.55118859549094 -28.303519822240442 -176.40086706080612 84.34050711919559 0.0 0.0
-452.02226065441107 -1.2744344125030669 -136.94328271075798 96.37258542146373 0.0 0.0
-368.6318291857016 3.9055077133604685 -108.58972700938516 101.12236999600776 0.0 0.0
-293.8489858699742 8.759505103949872 -85.20742496329498 107.49043174438599 0.0 0.0
-228.53474372024004 10.077154095464003 -65.59173114584516 113.23386982627048 0.0 0.0
-167.49878696333064 7.770725521809256 -47.922699116909996 119.96296380307069 0.0 0.0
-105.11681722065136 -10.227481244412372 -34.603289539519096 116.48400635942929 0.0 0.0
-55.30037421999837 -58.65112270582231 -34.185449077746206 81.7105215215519 0.0 0.0
-27.236691924205072 -68.9619405194269 -28.859589733089592 44.029941233247506 0.0 0.0
-24.99659116127448 -40.99096119929859 -19.79626570817192 -34.429683790510694 0.0 0.0
-59.458844196269354 -45.621565787647384 -31.524122995175027 -66.95552393234391 0.0 0.0
-117.77993244229324 -7.987101663345207 -37.73011023169152 -99.22782802984585 0.0 0.0
-192.6829557114613 5.599065520824863 -56.12793140930292 -103.34243566818265 0.0 0.0
-268.18942421157124 8.46304765412304 -77.84690042626555 -96.73596375717183 0.0 0.0
-345.6784933893627 5.228251988222702 -102.2290118110904 -87.90089439083421 0.0 0.0
-441.6209487842475 4.142900784427756 -129.89471049304723 -81.57211087324697 0.0 0.0
-492.752721725098 -21.801494669943146 -169.9352811817766 -72.44189211384307 0.0 0.0
-551.5321524148376 -37.379720082029074 -210.54938868719077 -67.49639484205045 0.0 0.0
-609.6497282837893 -61.31172449365128 -258.0799198588301 -62.81523277500086 0.0 0.0
-669.0519799595489 -85.96135406257196 -309.9858084534002 -59.68371022500392 0.0 0.0
-732.1295866641319 -112.69580209875146 -366.7180238441045 -57.76265524945329 0.0 0.0
-796.9651243609992 -138.53399057026328 -423.3027890375655 -56.8186120338029 0.0 0.0
-857.7328416651608 -161.7817818551239 -473.0618998056734 -56.47139391435648 0.0 0.0
-913.2782603927458 -176.50130100352004 -511.14570011974183 -56.26754269211357 0.0 0.0
-957.9205839703482 -182.11261391607349 -536.6730991957977 -56.3247244800114 0.0 0.0
-978.9746139158458 -169.3959229960175 -540.0826514910841 -58.753400135810836 0.0 0.0
-959.6341136757848 -122.77600114691622 -506.80481790970026 -63.62693804773542 0.0 0.0
-895.5736854536722 -44.03267892859705 -436.56688154486795 -71.67809159949338 0.0 0.0
-788.6498089657576 49.67593023948629 -333.54822081487515 -92.04699759903752 0.0 0.0
-2219.7296453338413 -1469.1496926173925 -1755.1727528136 5.95292704019812e-11 0.0 0.0
-788.6498089657555 49.67593023942644 -333.54822081488896 92.0469975991914 0.0 0.0
-895.5736854534547 -44.03267892842428 -436.5668815446988 71.67809159962833 0.0 0.0
-959.6341136755001 -122.77600114667715 -506.80481790945475 63.62693804789516 0.0 0.0
-978.974613915656 -169.39592299584535 -540.0826514908946 58.75340013587632 0.0 0.0
-957.9205839700008 -182.11261391575457 -536.6730991955095 56.32472448004664 0.0 0.0
-913.2782603926861 -176.50130100351606 -511.1457001196538 56.26754269216959 0.0 0.0
-857.7328416647159 -161.78178185472865 -473.06189980528086 56.47139391439152 0.0 0.0
-796.9651243607193 -138.53399057005282 -423.3027890373433 56.81861203382766 0.0 0.0
-732.1295866639266 -112.69580209863821 -366.7180238438613 57.76265524944539 0.0 0.0
-669.0519799592734 -85.9613540624454 -309.9858084531372 59.68371022497597 0.0 0.0
-609.6497282835543 -61.31172449362146 -258.07991985859843 62.815232775012625 0.0 0.0
-551.5321524143415 -37.379720081719576 -210.54938868681757 67.49639484204084 0.0 0.0
-492.7527217246657 -21.801494669740535 -169.93528118148402 72.44189211382718 0.0 0.0
-441.6209487836846 4.142900784660868 -129.89471049277722 81.57211087321429 0.0 0.0
-345.6784933889105 5.2282519882343665 -102.22901181096216 87.90089439075611 0.0 0.0
-268.189424211265 8.46304765412305 -77.84690042617801 96.73596375705937 0.0 0.0
-192.68295571124702 5.59906552081644 -56.127931409240794 103.34243566806043 0.0 0.0
-117.77993244217411 -7.987101663289091 -37.73011023163897 99.22782802973819 0.0 0.0
-59.45884419624144 -45.62156578762658 -31.524122995160397 66.95552393223451 0.0 0.0
-24.996591161221787 -40.99096119926787 -19.796265708146894 34.4296837904937 0.0 0.0
-23.973981485445307 -21.379180584438675 -13.605948620965194 -24.871160935007666 0.0 0.0
-62.12920812239755 -33.355074091838006 -28.64528466427067 -51.12385889482442 0.0 0.0
-129.39349093673854 -5.601603684149183 -40.49852838626633 -78.88410951524796 0.0 0.0
-217.21026088916807 3.6602926119556742 -64.06537419164323 -82.82733917699345 0.0 0.0
-306.68193908856824 6.484674746043052 -89.88560670931099 -76.5534669252948 0.0 0.0
-403.40254875088993 3.687286185845812 -118.82480142123157 -66.03163471881376 0.0 0.0
-482.93530255043083 -11.08366319217919 -156.56208842039166 -59.22402819100787 0.0 0.0
-537.2645356716425 -28.306013188471837 -197.37171361970786 -54.101174918000964 0.0 0.0
-596.2081182005047 -51.55205819251879 -243.93342958842067 -49.30252953643517 0.0 0.0
-654.7548811782672 -76.72278926376022 -294.1572895961945 -46.447325140705196 0.0 0.0
-714.6027130183949 -104.34299847320683 -348.6772302364268 -44.36747425021864 0.0 0.0
-779.6694934917459 -133.8047013927351 -406.83387775193586 -43.16183555856158 0.0 0.0
-845.4208430278892 -163.96771463296005 -464.0504063166228 -42.444787897592995 0.0 0.0
-909.269119707041 -186.58833108233483 -511.9802963125697 -42.49694352265306 0.0 0.0
-964.5758729984129 -203.15036579944314 -549.2233961048345 -42.66436913795423 0.0 0.0
-1010.2886945047092 -211.33753805724945 -575.7736855887615 -42.232132533184334 0.0 0.0
-1035.7314167839643 -201.32552193119992 -582.4454137593734 -42.63134972801869 0.0 0.0
-1013.9522587843114 -151.27097710625162 -545.6493041410356 -46.01573383402768 0.0 0.0
-930.2837565026987 -50.96474985939648 -455.7293628294531 -53.34675448304161 0.0 0.0
-783.9921608719546 84.52409486342708 -315.1941101838261 -79.76099510264191 0.0 0.0
-2435.6496414326884 -1653.1796954981132 -1949.9949462800644 5.0039972165905056e-11 0.0 0.0
-783.9921608718903 84.52409486344615 -315.194110183789 79.76099510274584 0.0 0.0
-930.2837565027219 -50.964749859465876 -455.7293628294326 53.34675448318241 0.0 0.0
-1013.9522587838595 -151.27097710579852 -545.6493041406555 46.015733834108644 0.0 0.0
-1035.7314167839288 -201.32552193120256 -582.4454137593162 42.63134972806284 0.0 0.0
-1010.2886945046803 -211.33753805726167 -575.7736855886639 42.23213253324347 0.0 0.0
-964.5758729978958 -203.15036579895627 -549.2233961044043 42.66436913800194 0.0 0.0
-909.2691197066358 -186.5883310819701 -511.98029631219794 42.49694352268491 0.0 0.0
-845.4208430275926 -163.9677146327325 -464.0504063163735 42.44478789760339 0.0 0.0
-779.6694934914899 -133.80470139256948 -406.8338777516788 43.16183555853431 0.0 0.0
-714.6027130180905 -104.34299847301023 -348.6772302361343 44.36747425018483 0.0 0.0
-654.7548811779883 -76.7227892636436 -294.15728959591326 46.44732514066921 0.0 0.0
-596.2081182000874 -51.552058192244886 -243.93342958805528 49.30252953642372 0.0 0.0
-537.2645356712251 -28.306013188274427 -197.37171361938601 54.10117491803048 0.0 0.0
-482.93530255003816 -11.083663192040495 -156.56208842013652 59.224028190967665 0.0 0.0
-403.4025487503127 3.687286185965889 -118.82480142103407 66.03163471874004 0.0 0.0
-306.6819390881804 6.48467474611449 -89.88560670917784 76.55346692519552 0.0 0.0
-217.21026088892808 3.660292611967563 -64.06537419156739 82.82733917691124 0.0 0.0
-129.39349093663597 -5.601603684169849 -40.49852838624174 78.88410951512773 0.0 0.0
-62.129208122357994 -33.355074091799025 -28.645284664247097 51.12385889478883 0.0 0.0
-23.973981485468236 -21.379180584453422 -13.605948620976495 24.87116093499817 0.0 0.0
-23.25741458585443 -10.051715883949713 -9.992739140941241 -16.032514986476674 0.0 0.0
-62.420052688098465 -22.419972723379956 -25.45200762344352 -34.46443531480635 0.0 0.0
-139.53089039219867 -3.8983102457504053 -43.02876019138472 -55.07906432274452 0.0 0.0
-240.9196849389785 2.7192505810153365 -71.45907088623937 -58.11585581802133 0.0 0.0
-344.03614177459326 1.9504248392911072 -102.61273239856637 -52.79084848051988 0.0 0.0
-451.46720681722036 -0.8806064688537747 -137.05163804144863 -42.43395187842456 0.0 0.0
-512.2243974225202 -22.83167762410566 -180.81609610436686 -37.65632149431308 0.0 0.0
-576.1864907839016 -39.10892797845596 -225.1742906800659 -35.071632953027716 0.0 0.0
-633.6497089568377 -64.59045768784074 -274.4957857066355 -32.44500968383962 0.0 0.0
-692.7857699312757 -91.49957666810593 -326.7567795820352 -30.705108619921162 0.0 0.0
-755.4326501485403 -121.88360868976551 -383.52178676461494 -29.554425775485505 0.0 0.0
-821.8067239303218 -155.2485533558738 -443.20851180758166 -28.733404441585673 0.0 0.0
-891.2702778390503 -186.06659104726674 -499.93338603803807 -28.544196531369614 0.0 0.0
-955.1276667478701 -212.79465850772573 -548.1980924914619 -28.6328743742933 0.0 0.0
-1011.6747776244852 -229.65327678148017 -585.0059874011952 -28.902208263131936 0.0 0.0
-1055.2810867777353 -235.21080251559312 -608.6647362345504 -28.651148900603 0.0 0.0
-1081.6886618756907 -226.8440068958165 -616.6799264915653 -27.412462241798956 0.0 0.0
-1077.5147295001166 -194.2117246185074 -596.6480693837252 -28.71199917908845 0.0 0.0
-981.867000574208 -79.74897282298298 -493.4141379753189 -34.15937967383743 0.0 0.0
-759.0368965773533 137.67309796880423 -279.4091146636657 -64.22439496797296 0.0 0.0
-2628.3774609352085 -1818.5391526802605 -2123.393131467672 1.0963674412778346e-11 0.0 0.0
-759.0368965772196 137.67309796892891 -279.40911466356374 64.22439496798935 0.0 0.0
-981.8670005740826 -79.74897282288562 -493.4141379752174 34.15937967395417 0.0 0.0
-1077.5147295001425 -194.2117246185446 -596.6480693836418 28.711999179145256 0.0 0.0
-1081.688661875112 -226.84400689524918 -616.6799264910867 27.412462241813472 0.0 0.0
-1055.281086777647 -235.21080251554216 -608.6647362343914 28.651148900639317 0.0 0.0
-1011.6747776238591 -229.65327678087246 -585.0059874006877 28.902208263154762 0.0 0.0
-955.1276667478377 -212.7946585077572 -548.1980924913278 28.63287437431753 0.0 0.0
-891.2702778386529 -186.06659104693944 -499.9333860376892 28.544196531425357 0.0 0.0
-821.8067239300067 -155.2485533556445 -443.2085118072663 28.733404441566165 0.0 0.0
-755.4326501481144 -121.88360868943782 -383.5217867642092 29.554425775431987 0.0 0.0
-692.7857699309475 -91.49957666791497 -326.75677958171866 30.705108619883816 0.0 0.0
-633.6497089564252 -64.5904576875939 -274.49578570627085 32.445009683874034 0.0 0.0
-576.1864907834629 -39.10892797821245 -225.1742906797078 35.07163295304965 0.0 0.0
-512.2243974222068 -22.831677624063342 -180.8160961041344 37.65632149424869 0.0 0.0
-451.4672068166574 -0.880606468636508 -137.0516380411877 42.43395187842759 0.0 0.0
-344.03614177416944 1.950424839334108 -102.61273239843271 52.790848480462444 0.0 0.0
-240.919684938748 2.7192505810044367 -71.4590708861731 58.11585581795971 0.0 0.0
-139.53089039209286 -3.898310245791567 -43.028760191365315 55.07906432271185 0.0 0.0
-62.4200526880481 -22.419972723394373 -25.45200762343274 34.46443531479542 0.0 0.0
-23.257414585856143 -10.051715883953515 -9.992739140942897 16.032514986452558 0.0 0.0
-21.030034360921853 -6.293571263121854 -8.19708168721311 -9.394930792822219 0.0 0.0
-58.98951855546706 -13.90400243655576 -21.86805629760684 -17.282515447019563 0.0 0.0
-147.3632184257495 -3.6364364545990524 -45.299896464104535 -26.9371498839322 0.0 0.0
-263.94627482550055 2.875345860100283 -78.33886713709546 -28.72920710707558 0.0 0.0
-386.0323677759266 -2.099732348546655 -115.87801367412479 -25.804738718754784 0.0 0.0
-488.53997750952027 -8.169500371382616 -156.73216908976198 -20.199161893379415 0.0 0.0
-546.7132149579747 -25.367107999246755 -201.62526029859825 -19.525474387586183 0.0 0.0
-608.3740819073805 -49.97491038361803 -251.2564238410224 -17.51184076456154 0.0 0.0
-666.3689847382366 -76.06863392416477 -302.0065349876377 -16.12857566031002 0.0 0.0
-726.2302328963706 -106.05857028755631 -356.6167017010547 -15.484725828327205 0.0 0.0
-791.4286708180242 -139.84957447297805 -415.5619487963809 -14.81393492537901 0.0 0.0
-861.8597608872786 -174.91561284093916 -476.13620738787273 -14.583935958067933 0.0 0.0
-931.0088587082769 -209.59230836212123 -532.9648465837035 -14.695901965436448 0.0 0.0
-998.4261228375171 -237.63856350832464 -581.9527352071424 -14.767562837290331 0.0 0.0
-1055.5301129219606 -255.23402863218573 -618.7461089205638 -14.960747252483756 0.0 0.0
-1096.2278663449981 -258.2028097089831 -639.3932985032138 -14.88307618207447 0.0 0.0
-1116.6020270792715 -244.62439719581562 -641.7149174556976 -13.72034735047372 0.0 0.0
-1121.3436138632683 -221.56950432845412 -631.3103460167536 -12.758424164626279 0.0 0.0
-1102.2560354205218 -182.93232542107432 -600.431712917068 -16.887665015180275 0.0 0.0
-738.321558535112 185.91474703556622 -249.4361382381542 -37.34162433678867 0.0 0.0
-2708.6333257795623 -1870.4797906372291 -2185.684629399928 6.02540239924565e-11 0.0 0.0
-738.3215585352202 185.91474703545308 -249.43613823816207 37.34162433681766 0.0 0.0
-1102.2560354206335 -182.93232542119645 -600.4317129171458 16.88766501521676 0.0 0.0
-1121.3436138633833 -221.5695043286016 -631.3103460167389 12.758424164640548 0.0 0.0
-1116.6020270784722 -244.62439719501933 -641.7149174550441 13.720347350510481 0.0 0.0
-1096.2278663448194 -258.2028097088311 -639.3932985029821 14.883076182106302 0.0 0.0
-1055.530112921158 -255.2340286313903 -618.7461089199006 14.960747252477283 0.0 0.0
-998.4261228374608 -237.63856350833328 -581.9527352069877 14.767562837301364 0.0 0.0
-931.0088587078293 -209.59230836173862 -532.9648465832865 14.69590196546772 0.0 0.0
-861.8597608872694 -174.91561284104213 -476.1362073877455 14.583935958051857 0.0 0.0
-791.4286708176408 -139.84957447270685 -415.56194879602083 14.813934925378696 0.0 0.0
-726.2302328959014 -106.0585702872107 -356.61670170064724 15.484725828299286 0.0 0.0
-666.3689847377884 -76.06863392387045 -302.0065349872386 16.12857566033454 0.0 0.0
-608.3740819071447 -49.97491038359081 -251.25642384076687 17.511840764598453 0.0 0.0
-546.7132149577201 -25.367107999217797 -201.62526029836263 19.525474387542104 0.0 0.0
-488.5399775090554 -8.169500371236591 -156.73216908951028 20.199161893390485 0.0 0.0
-386.0323677754103 -2.0997323483121333 -115.87801367390885 25.80473871874991 0.0 0.0
-263.94627482526226 2.8753458600261044 -78.33886713704445 28.729207107030806 0.0 0.0
-147.36321842561387 -3.636436454614347 -45.29989646406845 26.93714988393331 0.0 0.0
-58.98951855543063 -13.90400243659205 -21.868056297606813 17.28251544702094 0.0 0.0
-21.030034360856 -6.293571263077406 -8.19708168718002 9.394930792786802 0.0 0.0
-11.312998745995014 -2.7642052190825686 -4.223161189523275 -6.232553398847165 0.0 0.0
-48.54407248000797 -7.182301318295356 -16.717912139491002 -7.258465844604263 0.0 0.0
-151.01646892490095 -4.125996009270384 -46.542739480251385 -9.178062217581079 0.0 0.0
-290.7002026493801 -3.3250425315006815 -88.19227425064743 -10.250020200789322 0.0 0.0
-436.4193180244884 -14.711499015661166 -134.23622849564708 -8.793634980274057 0.0 0.0
-535.7783676930212 -37.32020735664925 -186.87808024359887 -5.551464084207572 0.0 0.0
-596.7964889610257 -59.33359962753485 -238.84600835834036 -5.642919845936319 0.0 0.0
-665.4961663837032 -94.0773516274582 -297.61380964680336 -4.870581176071367 0.0 0.0
-733.554877515309 -132.00947797161407 -359.61730743115993 -3.9349919775308386 0.0 0.0
-809.5253728123282 -177.58340794497192 -429.1296899872843 -3.2676361861206082 0.0 0.0
-897.8295119810927 -233.50610854034917 -509.2810638293945 -2.688757079499517 0.0 0.0
-998.2018595937236 -301.4866192206186 -600.1219490953159 -2.646180137375371 0.0 0.0
-1107.8917452314658 -374.42101157189524 -694.5721781765044 -2.983461221484113 0.0 0.0
-1224.3404854503801 -451.7870257638343 -791.8824545227866 -3.5637988717361466 0.0 0.0
-1336.9952200501436 -524.9747467790298 -883.6760667376195 -4.255320009362013 0.0 0.0
-1432.791621946238 -583.1093898788062 -959.1394804304672 -4.821511099631934 0.0 0.0
-1495.8516863842397 -612.8391074356325 -1004.2951883347021 -4.73788980332732 0.0 0.0
-1502.94420845238 -593.0779926421177 -997.3897029595275 -3.7947718252538323 0.0 0.0
-1502.2419784878803 -574.3528811931367 -984.4433184719398 -6.861729075846178 0.0 0.0
-1391.4883808092104 -450.1836586632752 -882.1385679003353 -22.656746284224113 0.0 0.0
-3746.213760682087 -2888.3198045736567 -3192.290652005991 5.709921424568165e-11 0.0 0.0
-1391.4883808097104 -450.1836586637873 -882.1385679006482 22.656746284224823 0.0 0.0
-1502.2419784883132 -574.3528811936027 -984.4433184722093 6.8617290758705245 0.0 0.0
-1502.9442084521115 -593.0779926418601 -997.389702959219 3.7947718252575697 0.0 0.0
-1495.8516863831435 -612.839107434527 -1004.2951883338253 4.737889803311905 0.0 0.0
-1432.7916219461324 -583.1093898787396 -959.1394804302565 4.821511099631891 0.0 0.0
-1336.9952200491728 -524.974746778066 -883.6760667368033 4.2553200093345716 0.0 0.0
-1224.340485450105 -451.7870257636116 -791.8824545224597 3.5637988717490394 0.0 0.0
-1107.891745231088 -374.4210115715947 -694.5721781760901 2.983461221497894 0.0 0.0
-998.2018595937387 -301.48661922075064 -600.121949095203 2.6461801373505978 0.0 0.0
-897.8295119809688 -233.50610854037126 -509.2810638291917 2.6887570795370834 0.0 0.0
-809.52537281183 -177.58340794460364 -429.12968998685017 3.267636186123621 0.0 0.0
-733.5548775147283 -132.00947797117536 -359.6173074306431 3.9349919775088082 0.0 0.0
-665.4961663834999 -94.07735162749309 -297.61380964654484 4.870581176103695 0.0 0.0
-596.796488960744 -59.3335996274971 -238.8460083580531 5.642919845921348 0.0 0.0
-535.7783676925009 -37.320207356340624 -186.87808024323945 5.551464084225827 0.0 0.0
-436.4193180238234 -14.71149901522113 -134.23622849531665 8.793634980318096 0.0 0.0
-290.7002026491097 -3.325042531637987 -88.19227425061287 10.25002020076556 0.0 0.0
-151.0164689247939 -4.125996009357362 -46.542739480245366 9.178062217577693 0.0 0.0
-48.544072479985275 -7.182301318275133 -16.717912139478113 7.258465844647571 0.0 0.0
-11.312998746031619 -2.7642052190834323 -4.2231611895345145 6.2325533987944 0.0 0.0
SCALARS Strain float 6
LOOKUP_TABLE default
0.004950551228615716 -0.010522866197535417 0.0 -0.0001962045422012739 0.0 0.0
0.003524792507782301 0.00021564899437689455 0.0 -0.0022117263952053084 0.0 0.0
0.0018830810958463118 -0.0008557945982857157 0.0 -0.00034239997355215346 0.0 0.0
0.0017955751214737692 -0.0006775083437542735 0.0 -4.756304203135953e-05 0.0 0.0
0.002133600479798456 -0.000839003465436163 0.0 -6.204866528898578e-05 0.0 0.0
0.002691900659599709 -0.001153497801507663 0.0 -2.9766910942535657e-05 0.0 0.0
0.0034431374689834196 -0.0016462111028727423 0.0 -4.163082227340488e-05 0.0 0.0
0.004332630226634502 -0.002221631765389743 0.0 -2.2923027637569043e-05 0.0 0.0
0.005435786383303386 -0.0029881624015161154 0.0 1.742911500623144e-05 0.0 0.0
0.0068715037311848515 -0.0040402808473342725 0.0 7.138179850799592e-05 0.0 0.0
0.008853300193840528 -0.005570349772073435 0.0 0.00018228583189267141 0.0 0.0
0.011722716619027556 -0.007918276871582775 0.0 0.0003516247286740243 0.0 0.0
0.015854718759680652 -0.011497412102935277 0.0 0.0004711391615606684 0.0 0.0
0.021557185807774406 -0.016624245549079188 0.0 0.0005830909179104041 0.0 0.0
0.028980034588999296 -0.023485083945177294 0.0 0.0006207094706609015 0.0 0.0
0.03796350419790391 -0.031943706916237026 0.0 0.0005544963864606312 0.0 0.0
0.047930254825635746 -0.04143816183506233 0.0 0.00037586908092932816 0.0 0.0
0.05788115097728734 -0.05098973419587738 0.0 0.00013384366901158075 0.0 0.0
0.06656370981939601 -0.05937358651453338 0.0 -3.767023854339821e-05 0.0 0.0
0.0727107705304855 -0.06536905366103656 0.0 -0.00013173037965469054 0.0 0.0
0.07499766229872434 -0.06766295421564565 0.0 1.1267028976469362e-15 0.0 0.0
0.07271077053048408 -0.06536905366103697 0.0 0.00013173037965719635 0.0 0.0
0.06656370981939241 -0.05937358651453009 0.0 3.7670238547921064e-05 0.0 0.0
0.057881150977282025 -0.0509897341958742 0.0 -0.00013384366901002687 0.0 0.0
0.04793025482562977 -0.04143816183506083 0.0 -0.0003758690809280696 0.0 0.0
0.03796350419789839 -0.03194370691623244 0.0 -0.0005544963864609559 0.0 0.0
0.02898003458899271 -0.02348508394517426 0.0 -0.0006207094706615801 0.0 0.0
0.021557185807766555 -0.016624245549073 0.0 -0.0005830909179102899 0.0 0.0
0.015854718759672485 -0.011497412102929726 0.0 -0.00047113916156079055 0.0 0.0
0.011722716619019045 -0.007918276871577132 0.0 -0.0003516247286749599 0.0 0.0
0.008853300193832497 -0.0055703497720690975 0.0 -0.0001822858318929862 0.0 0.0
0.006871503731177961 -0.004040280847329498 0.0 -7.138179850936562e-05 0.0 0.0
0.005435786383297319 -0.0029881624015116754 0.0 -1.7429115006265482e-05 0.0 0.0
0.004332630226628862 -0.0022216317653858415 0.0 2.292302763683474e-05 0.0 0.0
0.003443137468978623 -0.001646211102870851 0.0 4.163082227348928e-05 0.0 0.0
0.002691900659596588 -0.0011534978015056334 0.0 2.9766910942245084e-05 0.0 0.0
0.002133600479796734 -0.0008390034654355279 0.0 6.204866528893882e-05 0.0 0.0
0.0017955751214727873 -0.0006775083437540977 0.0 4.756304203141817e-05 0.0 0.0
0.001883081095845493 -0.000855794598285316 0.0 0.00034239997355133055 0.0 0.0
0.003524792507781603 0.00021564899437573738 0.0 0.0022117263952038295 0.0 0.0
0.004950551228615364 -0.01052286619752468 0.0 0.0001962045421859108 0.0 0.0
0.0031367078814565777 -0.0094188253031618 0.0 0.0001397510411835896 0.0 0.0
0.002145500633458238 0.00023913987159130534 0.0 -0.001641511842365587 0.0 0.0
0.0013504182319911105 -0.0006731846923246928 0.0 -0.00023821444815134995 0.0 0.0
0.0016328072127715985 -0.0006644491717598941 0.0 -0.00018288247599364442 0.0 0.0
0.0019088040864142135 -0.0007896235935167202 0.0 -0.00022149346549557252 0.0 0.0
0.002406355328800036 -0.0010682803954274545 0.0 -0.00020154782873423727 0.0 0.0
0.003078415745597507 -0.0015206733759312162 0.0 -0.00027157311840993507 0.0 0.0
0.003877105556711425 -0.0020578721230755524 0.0 -0.0002815026636820807 0.0 0.0
0.004855121745600903 -0.0027678971141500267 0.0 -0.00029100901271664746 0.0 0.0
0.006119853668182991 -0.00374292361451056 0.0 -0.0003075373478470466 0.0 0.0
0.007859015219323046 -0.00516453765997658 0.0 -0.0003208421084836882 0.0 0.0
0.010372800983197155 -0.00734438616044733 0.0 -0.00033931076236713394 0.0 0.0
0.01403560415487003 -0.010686642309164614 0.0 -0.00045534539871749 0.0 0.0
0.01916644269712668 -0.015531851162038365 0.0 -0.000695848851652962 0.0 0.0
0.025912478456593804 -0.022052580654778296 0.0 -0.0010434606314430439 0.0 0.0
0.034125511482252464 -0.030119624162823697 0.0 -0.0014883075194012038 0.0 0.0
0.04325830877692083 -0.03919066642714902 0.0 -0.0019362558557399928 0.0 0.0
0.05239987687259408 -0.04833588401851398 0.0 -0.002187518894829899 0.0 0.0
0.060417825284428586 -0.05639751037478856 0.0 -0.0020124223569544424 0.0 0.0
0.06607067837387198 -0.062159284095381795 0.0 -0.0014164466886088752 0.0 0.0
0.06814517433299629 -0.06438783319967775 0.0 3.2658337839608365e-15 0.0 0.0
0.06607067837387054 -0.06215928409538199 0.0 0.001416446688615297 0.0 0.0
0.06041782528442558 -0.05639751037478616 0.0 0.0020124223569624447 0.0 0.0
0.052399876872590005 -0.04833588401851128 0.0 0.002187518894834313 0.0 0.0
0.04325830877691637 -0.039190666427148795 0.0 0.001936255855741249 0.0 0.0
0.034125511482247586 -0.030119624162820706 0.0 0.0014883075194013324 0.0 0.0
0.02591247845658782 -0.022052580654774074 0.0 0.0010434606314430796 0.0 0.0
0.01916644269711976 -0.015531851162033455 0.0 0.0006958488516534393 0.0 0.0
0.01403560415486275 -0.010686642309159507 0.0 0.00045534539871752407 0.0 0.0
0.010372800983189545 -0.007344386160441986 0.0 0.0003393107623664874 0.0 0.0
0.007859015219315793 -0.005164537659972757 0.0 0.0003208421084836349 0.0 0.0
0.006119853668176868 -0.003742923614506376 0.0 0.0003075373478464451 0.0 0.0
0.004855121745595464 -0.0027678971141458838 0.0 0.00029100901271629997 0.0 0.0
0.003877105556706468 -0.0020578721230713353 0.0 0.00028150266368079456 0.0 0.0
0.003078415745593421 -0.0015206733759286627 0.0 0.0002715731184095298 0.0 0.0
0.002406355328797386 -0.0010682803954261627 0.0 0.00020154782873421623 0.0 0.0
0.0019088040864129055 -0.000789623593516029 0.0 0.0002214934654955211 0.0 0.0
0.0016328072127707947 -0.0006644491717596788 0.0 0.00018288247599320908 0.0 0.0
0.0013504182319909587 -0.0006731846923245211 0.0 0.00023821444815077993 0.0 0.0
0.002145500633457254 0.00023913987159073348 0.0 0.0016415118423633202 0.0 0.0
0.003136707881454281 -0.009418825303151315 0.0 -0.00013975104119552456 0.0 0.0
0.0021781164430607985 -0.007498663736650828 0.0 -0.0013611212508942757 0.0 0.0
0.0014073346109492683 0.00017610827261392686 0.0 -0.0018248740536302608 0.0 0.0
0.0009429431360103999 -0.00036290579354245745 0.0 -0.00018496101984884824 0.0 0.0
0.00139109522640578 -0.0005943854576247603 0.0 -0.00041418303293705476 0.0 0.0
0.0017006422836440928 -0.0007055705705149402 0.0 -0.00048106032784880296 0.0 0.0
0.0021216901398344507 -0.0009031018300044602 0.0 -0.00044714327805524907 0.0 0.0
0.0027087050820610984 -0.0012677742032040401 0.0 -0.0005468783021847992 0.0 0.0
0.003425410526331215 -0.0017428089593406722 0.0 -0.0005998560357048014 0.0 0.0
0.00428312960756811 -0.0023391229806923024 0.0 -0.000636534810649739 0.0 0.0
0.005383885743964652 -0.00316278931341075 0.0 -0.0006879620587896103 0.0 0.0
0.00689125350114354 -0.0043692764043009235 0.0 -0.0007615591999568457 0.0 0.0
0.009067920337805435 -0.006225168364854673 0.0 -0.0008756872134190844 0.0 0.0
0.012258882527659564 -0.009100989291896015 0.0 -0.0011042521336776055 0.0 0.0
0.016797949847574288 -0.013364323467447608 0.0 -0.0015515679740249189 0.0 0.0
0.022840375229102438 -0.019192545797393514 0.0 -0.0022213334133971818 0.0 0.0
0.030241985242724936 -0.02645702448382882 0.0 -0.0030433501115939105 0.0 0.0
0.03851617140088548 -0.03466682040578737 0.0 -0.0038347659267105993 0.0 0.0
0.04685711135326272 -0.0429996773992281 0.0 -0.004245611603812165 0.0 0.0
0.05422966303260941 -0.05042017575111024 0.0 -0.00390946179196562 0.0 0.0
0.05947492051357546 -0.055758895065692086 0.0 -0.0027407815104468253 0.0 0.0
0.06141695904042681 -0.057906664278183806 0.0 5.26857203697606e-15 0.0 0.0
0.05947492051357384 -0.05575889506569078 0.0 0.0027407815104593665 0.0 0.0
0.05422966303260672 -0.05042017575110854 0.0 0.003909461791979112 0.0 0.0
0.04685711135325941 -0.04299967739922678 0.0 0.004245611603820653 0.0 0.0
0.03851617140088186 -0.034666820405787634 0.0 0.0038347659267138233 0.0 0.0
0.030241985242720724 -0.02645702448382629 0.0 0.00304335011159381 0.0 0.0
0.02284037522909718 -0.019192545797389327 0.0 0.0022213334133975964 0.0 0.0
0.01679794984756831 -0.01336432346744394 0.0 0.001551567974025963 0.0 0.0
0.012258882527653118 -0.009100989291891366 0.0 0.0011042521336774905 0.0 0.0
0.009067920337798687 -0.006225168364849722 0.0 0.0008756872134179751 0.0 0.0
0.0068912535011371265 -0.004369276404297342 0.0 0.0007615591999558266 0.0 0.0
0.005383885743959125 -0.0031627893134064037 0.0 0.0006879620587885845 0.0 0.0
0.004283129607563264 -0.0023391229806888456 0.0 0.0006365348106489521 0.0 0.0
0.003425410526326699 -0.0017428089593372427 0.0 0.0005998560357038032 0.0 0.0
0.002708705082057585 -0.001267774203201117 0.0 0.0005468783021835631 0.0 0.0
0.0021216901398323296 -0.00090310183000421 0.0 0.0004471432780553884 0.0 0.0
0.0017006422836428148 -0.0007055705705142353 0.0 0.0004810603278481132 0.0 0.0
0.001391095226405072 -0.0005943854576245256 0.0 0.00041418303293552 0.0 0.0
0.000942943136010489 -0.0003629057935426175 0.0 0.00018496101984807927 0.0 0.0
0.0014073346109481286 0.0001761082726143119 0.0 0.0018248740536260808 0.0 0.0
0.0021781164430580147 -0.007498663736641203 0.0 0.0013611212508860765 0.0 0.0
0.0016061919296059017 -0.0060433668710641 0.0 -0.0017585382319168725 0.0 0.0
0.0009812257624627568 -6.468978533185988e-06 0.0 -0.001946480576596789 0.0 0.0
0.0006506043906623451 -0.00016182158984340885 0.0 -0.00046156569518888805 0.0 0.0
0.001131923877571292 -0.00047024653311024595 0.0 -0.0006000107975150546 0.0 0.0
0.001484935385670443 -0.0006234422663641475 0.0 -0.000734642641570334 0.0 0.0
0.0018503157443615702 -0.0007746283048780293 0.0 -0.0007300327928058009 0.0 0.0
0.002341344010824784 -0.001029252926674369 0.0 -0.0007531841547659488 0.0 0.0
0.002972343340665854 -0.0014448835396494862 0.0 -0.000879815418702349 0.0 0.0
0.0037200283083639422 -0.0019376904803790865 0.0 -0.0009308874727754965 0.0 0.0
0.004663858956537206 -0.002613653827829621 0.0 -0.0010058932551772074 0.0 0.0
0.005948794755549218 -0.0036137047577409487 0.0 -0.0011192098031072755 0.0 0.0
0.007801708299167574 -0.005159339400974082 0.0 -0.0013012311800782636 0.0 0.0
0.01053577781381485 -0.00758450685372586 0.0 -0.0016273067725946896 0.0 0.0
0.014468312828575879 -0.011249101392983256 0.0 -0.002206161234773427 0.0 0.0
0.019772328504425382 -0.016349186194116135 0.0 -0.003089718454455444 0.0 0.0
0.026334158448485804 -0.02277602759365964 0.0 -0.004196576823355474 0.0 0.0
0.03372331187175276 -0.03009662512860744 0.0 -0.005251059127380257 0.0 0.0
0.04124748579058526 -0.03760525588028836 0.0 -0.005803203731536175 0.0 0.0
0.047992624679829884 -0.04438986770343281 0.0 -0.005409486169732785 0.0 0.0
0.05289447944419748 -0.04938159606600137 0.0 -0.0037748869452872043 0.0 0.0
0.05474593361382761 -0.05152736856777716 0.0 7.425483838918723e-15 0.0 0.0
0.05289447944419583 -0.049381596065999435 0.0 0.0037748869453036768 0.0 0.0
0.04799262467982738 -0.04438986770343115 0.0 0.005409486169748611 0.0 0.0
0.0412474857905824 -0.03760525588028627 0.0 0.005803203731545397 0.0 0.0
0.033723311871749664 -0.03009662512860639 0.0 0.005251059127384539 0.0 0.0
0.026334158448482164 -0.02277602759365709 0.0 0.0041965768233562 0.0 0.0
0.019772328504420882 -0.01634918619411414 0.0 0.0030897184544553874 0.0 0.0
0.014468312828570515 -0.011249101392979776 0.0 0.0022061612347740443 0.0 0.0
0.010535777813809107 -0.0075845068537218775 0.0 0.0016273067725942332 0.0 0.0
0.007801708299161903 -0.005159339400970327 0.0 0.0013012311800766527 0.0 0.0
0.005948794755543828 -0.0036137047577370976 0.0 0.0011192098031060566 0.0 0.0
0.004663858956532316 -0.0026136538278263605 0.0 0.0010058932551759916 0.0 0.0
0.0037200283083595456 -0.001937690480376912 0.0 0.0009308874727743113 0.0 0.0
0.002972343340661929 -0.0014448835396470856 0.0 0.0008798154187009068 0.0 0.0
0.0023413440108219887 -0.001029252926673055 0.0 0.0007531841547647585 0.0 0.0
0.0018503157443599794 -0.0007746283048770753 0.0 0.0007300327928058659 0.0 0.0
0.0014849353856693536 -0.0006234422663637881 0.0 0.0007346426415688058 0.0 0.0
0.001131923877570741 -0.00047024653311008777 0.0 0.0006000107975139611 0.0 0.0
0.000650604390662545 -0.00016182158984385985 0.0 0.0004615656951871761 0.0 0.0
0.0009812257624616852 -6.468978532530456e-06 0.0 0.0019464805765919005 0.0 0.0
0.0016061919296032781 -0.006043366871055799 0.0 0.0017585382319113677 0.0 0.0
0.0012290651863681367 -0.004885863959312825 0.0 -0.0017685674600173133 0.0 0.0
0.0007161135799299933 -0.0001868835817148228 0.0 -0.00198998190928549 0.0 0.0
0.00044216669935697817 -4.9929631272985195e-05 0.0 -0.0008279311558172887 0.0 0.0
0.0008853047642123015 -0.0003401199088014575 0.0 -0.0008147795388292888 0.0 0.0
0.00125356610533452 -0.0005218637504862656 0.0 -0.000963328276022842 0.0 0.0
0.0015925510773086384 -0.0006740683368388615 0.0 -0.0010149462746375673 0.0 0.0
0.0019886373189515307 -0.0008429739601857263 0.0 -0.0009776774176255612 0.0 0.0
0.0025148910466480665 -0.0011438823973128267 0.0 -0.0010646172360227934 0.0 0.0
0.0031653873341379105 -0.0015672458874084433 0.0 -0.001182371238476216 0.0 0.0
0.003959295366689129 -0.00210227884208944 0.0 -0.0012650605320185743 0.0 0.0
0.0050321631473504245 -0.0029026303009492787 0.0 -0.0013990171003450992 0.0 0.0
0.00657452413996672 -0.00415019102118855 0.0 -0.0016191302161180357 0.0 0.0
0.008860938530404998 -0.006138692766311533 0.0 -0.0020051223474195396 0.0 0.0
0.012192236394702198 -0.009203075669042321 0.0 -0.002667811358047183 0.0 0.0
0.016737646520428293 -0.013550296224573807 0.0 -0.0036778296175939964 0.0 0.0
0.02241895191907762 -0.019103026396355156 0.0 -0.00494087033631937 0.0 0.0
0.028892676639005202 -0.025499961427585694 0.0 -0.006154669299824481 0.0 0.0
0.03557604189089506 -0.03215376123400916 0.0 -0.0068491068192379516 0.0 0.0
0.04169324821468919 -0.03829874073093063 0.0 -0.0064807969476973655 0.0 0.0
0.046290885345707106 -0.042992831305965144 0.0 -0.004569571330483367 0.0 0.0
0.04807966484458659 -0.04518871333154508 0.0 8.379148069836972e-15 0.0 0.0
0.046290885345705086 -0.04299283130596075 0.0 0.004569571330500535 0.0 0.0
0.04169324821468665 -0.03829874073092885 0.0 0.006480796947713998 0.0 0.0
0.03557604189089241 -0.03215376123400688 0.0 0.0068491068192486765 0.0 0.0
0.02889267663900251 -0.025499961427585517 0.0 0.006154669299828134 0.0 0.0
0.022418951919074375 -0.019103026396352835 0.0 0.004940870336319359 0.0 0.0
0.016737646520424355 -0.013550296224571635 0.0 0.003677829617593771 0.0 0.0
0.012192236394697905 -0.009203075669040117 0.0 0.002667811358048168 0.0 0.0
0.00886093853040016 -0.006138692766308328 0.0 0.00200512234741919 0.0 0.0
0.006574524139961639 -0.004150191021185523 0.0 0.0016191302161165143 0.0 0.0
0.0050321631473456896 -0.0029026303009453656 0.0 0.001399017100342624 0.0 0.0
0.003959295366684963 -0.0021022788420875546 0.0 0.00126506053201688 0.0 0.0
0.003165387334134124 -0.0015672458874067328 0.0 0.0011823712384752727 0.0 0.0
0.002514891046644871 -0.0011438823973103542 0.0 0.001064617236021701 0.0 0.0
0.001988637318949441 -0.0008429739601854509 0.0 0.0009776774176251538 0.0 0.0
0.0015925510773071782 -0.0006740683368373027 0.0 0.0010149462746371443 0.0 0.0
0.0012535661053336138 -0.0005218637504860762 0.0 0.0009633282760217188 0.0 0.0
0.0008853047642119089 -0.0003401199088013424 0.0 0.0008147795388283977 0.0 0.0
0.00044216669935689154 -4.992963127316057e-05 0.0 0.0008279311558148724 0.0 0.0
0.0007161135799290614 -0.00018688358171420412 0.0 0.00198998190928101 0.0 0.0
0.0012290651863661785 -0.004885863959306084 0.0 0.001768567460014025 0.0 0.0
0.0009708764674694064 -0.003947558418631852 0.0 -0.0016670952570742568 0.0 0.0
0.0005416682434833641 -0.0003373377554470766 0.0 -0.001999444042558301 0.0 0.0
0.00028836625913313956 6.296604819499331e-06 0.0 -0.0011790669917405951 0.0 0.0
0.0006612538528939946 -0.00022256200925699338 0.0 -0.0010513194692284536 0.0 0.0
0.001015776936240952 -0.00041203261403984366 0.0 -0.0011743963536043295 0.0 0.0
0.00133001045954417 -0.0005638549786808442 0.0 -0.0012544665781186416 0.0 0.0
0.0016614469059553542 -0.000705080188172499 0.0 -0.001251046194570208 0.0 0.0
0.002069978987361931 -0.0008874663718402335 0.0 -0.0012285968769871747 0.0 0.0
0.0026048240981277836 -0.0012108304259020547 0.0 -0.001353705085027033 0.0 0.0
0.0032710160820612092 -0.0016351337925415914 0.0 -0.0014747273733679372 0.0 0.0
0.0041404123980718415 -0.002242545509429404 0.0 -0.0016025420017213709 0.0 0.0
0.005386267312978689 -0.003207029631507923 0.0 -0.0018361822098143517 0.0 0.0
0.007242368705204167 -0.0047723144676546855 0.0 -0.002238140133458651 0.0 0.0
0.009971099225453023 -0.007239433507622923 0.0 -0.002923735657179653 0.0 0.0
0.013748281816712615 -0.010817245588498758 0.0 -0.003977619679514405 0.0 0.0
0.018533347502861987 -0.015470788980730368 0.0 -0.005300609691921901 0.0 0.0
0.024045933946430374 -0.020905992873809617 0.0 -0.006571043631645775 0.0 0.0
0.02984143125661498 -0.02665398792503485 0.0 -0.007347811828050839 0.0 0.0
0.03531386656717371 -0.03213336524072275 0.0 -0.007089583068515395 0.0 0.0
0.03962509304184936 -0.03655142654331268 0.0 -0.005131825770341006 0.0 0.0
0.041368900196635056 -0.03884302222358819 0.0 8.012904575971369e-15 0.0 0.0
0.03962509304184713 -0.036551426543307154 0.0 0.005131825770358738 0.0 0.0
0.03531386656717127 -0.0321333652407199 0.0 0.007089583068532922 0.0 0.0
0.02984143125661251 -0.026653987925031146 0.0 0.00734781182806196 0.0 0.0
0.0240459339464278 -0.0209059928738093 0.0 0.006571043631649972 0.0 0.0
0.01853334750285906 -0.015470788980728477 0.0 0.005300609691922247 0.0 0.0
0.013748281816709297 -0.010817245588495972 0.0 0.003977619679514256 0.0 0.0
0.009971099225449366 -0.007239433507620253 0.0 0.0029237356571801326 0.0 0.0
0.007242368705200092 -0.004772314467651895 0.0 0.00223814013345888 0.0 0.0
0.005386267312974527 -0.003207029631505001 0.0 0.0018361822098130966 0.0 0.0
0.004140412398068036 -0.0022425455094262033 0.0 0.0016025420017189923 0.0 0.0
0.0032710160820577615 -0.0016351337925403211 0.0 0.0014747273733662588 0.0 0.0
0.002604824098124753 -0.0012108304259007927 0.0 0.001353705085025917 0.0 0.0
0.0020699789873595362 -0.0008874663718395198 0.0 0.0012285968769868017 0.0 0.0
0.0016614469059536442 -0.000705080188171118 0.0 0.0012510461945697063 0.0 0.0
0.0013300104595430629 -0.00056385497867986 0.0 0.001254466578117267 0.0 0.0
0.0010157769362402406 -0.0004120326140397509 0.0 0.0011743963536029653 0.0 0.0
0.0006612538528936327 -0.00022256200925686574 0.0 0.0010513194692268397 0.0 0.0
0.0002883662591332278 6.296604819548713e-06 0.0 0.00117906699173806 0.0 0.0
0.0005416682434826258 -0.00033733775544641565 0.0 0.0019994440425547097 0.0 0.0
0.000970876467467659 -0.003947558418626457 0.0 0.0016670952570715168 0.0 0.0
0.0007780640126679756 -0.003169096215805716 0.0 -0.0015139267125183816 0.0 0.0
0.0004196062987047624 -0.0004474781171831184 0.0 -0.0019995612606517376 0.0 0.0
0.0001735457392189107 2.936736018168035e-05 0.0 -0.0014742399210178 0.0 0.0
0.00046024570445772465 -0.0001219267478313107 0.0 -0.0012865931069628766 0.0 0.0
0.0007787821542804208 -0.0003012663882676087 0.0 -0.0013665168923513644 0.0 0.0
0.0010573765348675158 -0.0004442534378751616 0.0 -0.0014551807797852376 0.0 0.0
0.001337680244944169 -0.0005715010805270897 0.0 -0.0014905299374737965 0.0 0.0
0.0016536690728720957 -0.0007044462158685887 0.0 -0.0014653243730339566 0.0 0.0
0.002055826426126182 -0.0008962847789171806 0.0 -0.001479018442953225 0.0 0.0
0.002587671076218101 -0.0012048548643078239 0.0 -0.0016100262062509567 0.0 0.0
0.0032753359439097723 -0.0016483667048302166 0.0 -0.001744915741099392 0.0 0.0
0.004237063430862659 -0.002340243631185453 0.0 -0.0019582458456680967 0.0 0.0
0.005678309997039167 -0.003499127146615708 0.0 -0.002335332002719258 0.0 0.0
0.007820197605747592 -0.0053794483366397545 0.0 -0.0029885369699365933 0.0 0.0
0.010821932059261026 -0.008176553249303338 0.0 -0.003983921051630983 0.0 0.0
0.01468482178252508 -0.011906593929986236 0.0 -0.005264164096355565 0.0 0.0
0.019212107701408423 -0.016344989553835253 0.0 -0.006518562666575179 0.0 0.0
0.024066715282041858 -0.02113366662522358 0.0 -0.007324177601635148 0.0 0.0
0.028834450295713812 -0.025884686720948274 0.0 -0.007204899239086823 0.0 0.0
0.03284943252303717 -0.03001030860092098 0.0 -0.005437853379405652 0.0 0.0
0.03455959348619659 -0.032441845460908725 0.0 6.316995537769543e-15 0.0 0.0
0.03284943252303527 -0.030010308600919133 0.0 0.005437853379422 0.0 0.0
0.028834450295711404 -0.025884686720946237 0.0 0.007204899239101732 0.0 0.0
0.024066715282039564 -0.021133666625220204 0.0 0.00732417760164503 0.0 0.0
0.019212107701406158 -0.016344989553834403 0.0 0.006518562666578381 0.0 0.0
0.014684821782522523 -0.011906593929985778 0.0 0.0052641640963554635 0.0 0.0
0.010821932059258405 -0.008176553249301244 0.0 0.003983921051631079 0.0 0.0
0.007820197605744872 -0.005379448336637328 0.0 0.002988536969936775 0.0 0.0
0.005678309997035946 -0.0034991271466135784 0.0 0.0023353320027190913 0.0 0.0
0.00423706343085926 -0.00234024363118393 0.0 0.001958245845666783 0.0 0.0
0.0032753359439067742 -0.0016483667048275191 0.0 0.0017449157410972934 0.0 0.0
0.002587671076215428 -0.0012048548643074067 0.0 0.0016100262062491936 0.0 0.0
0.0020558264261240026 -0.0008962847789167107 0.0 0.0014790184429523613 0.0 0.0
0.00165366907287048 -0.0007044462158686552 0.0 0.001465324373033896 0.0 0.0
0.0013376802449429522 -0.0005715010805259402 0.0 0.0014905299374728576 0.0 0.0
0.001057376534866669 -0.00044425343787502143 0.0 0.0014551807797836555 0.0 0.0
0.0007787821542799049 -0.00030126638826678 0.0 0.0013665168923495017 0.0 0.0
0.0004602457044574687 -0.00012192674783116208 0.0 0.0012865931069610964 0.0 0.0
0.0001735457392189141 2.936736018160447e-05 0.0 0.0014742399210155976 0.0 0.0
0.0004196062987041595 -0.0004474781171824563 0.0 0.0019995612606488055 0.0 0.0
0.0007780640126666443 -0.0031690962158015335 0.0 0.0015139267125160584 0.0 0.0
0.00061177424376496 -0.002541239224127241 0.0 -0.0013935000914732077 0.0 0.0
0.0003209774450903055 -0.0005093843898119443 0.0 -0.0019625341705535844 0.0 0.0
8.383108855654376e-05 3.43455189504778e-05 0.0 -0.0017070219733845242 0.0 0.0
0.0002798681601605621 -3.747009281464631e-05 0.0 -0.0014994684988526644 0.0 0.0
0.0005466831497625199 -0.00019296420085413433 0.0 -0.0015355440494520826 0.0 0.0
0.0007811841003303194 -0.00032044749703873083 0.0 -0.0016190025009119766 0.0 0.0
0.00100472555959482 -0.00042829698384164074 0.0 -0.0016719971487644267 0.0 0.0
0.0012481694646221365 -0.0005361108858786686 0.0 -0.001687835753360893 0.0 0.0
0.0015364280564486577 -0.0006548526308919275 0.0 -0.0016626091013827932 0.0 0.0
0.0019173746246572945 -0.0008391615651958977 0.0 -0.0017108219281273987 0.0 0.0
0.0024271209189336406 -0.0011262043600353412 0.0 -0.0018429633767793573 0.0 0.0
0.0031285303254753173 -0.0015750444474617333 0.0 -0.0020027875729069816 0.0 0.0
0.004173254736172321 -0.0023447336980701393 0.0 -0.0023123273543924376 0.0 0.0
0.0057423496524578 -0.0036514099370101114 0.0 -0.002867234003232341 0.0 0.0
0.007976331602242289 -0.005671209709511795 0.0 -0.003733556536955962 0.0 0.0
0.010902576291009484 -0.00844835011078511 0.0 -0.004840993584149029 0.0 0.0
0.014401775833117879 -0.011849678332810304 0.0 -0.005983784627717881 0.0 0.0
0.018264964471108452 -0.01562688338572981 0.0 -0.00677191837727229 0.0 0.0
0.022254448426383303 -0.019561159593982615 0.0 -0.006806906089668503 0.0 0.0
0.025918142298705454 -0.023326336467306506 0.0 -0.0054504216545038465 0.0 0.0
0.027587300681044903 -0.025936681485734223 0.0 5.607710476529526e-15 0.0 0.0
0.025918142298703838 -0.023326336467305118 0.0 0.005450421654517782 0.0 0.0
0.02225444842638113 -0.01956115959398085 0.0 0.006806906089682548 0.0 0.0
0.018264964471106464 -0.015626883385726924 0.0 0.006771918377281371 0.0 0.0
0.014401775833115936 -0.011849678332810955 0.0 0.005983784627719919 0.0 0.0
0.010902576291007441 -0.008448350110784021 0.0 0.004840993584148318 0.0 0.0
0.007976331602240346 -0.005671209709510713 0.0 0.003733556536956095 0.0 0.0
0.005742349652455883 -0.003651409937008971 0.0 0.002867234003232505 0.0 0.0
0.004173254736169991 -0.002344733698068938 0.0 0.00231232735439195 0.0 0.0
0.0031285303254729173 -0.0015750444474604513 0.0 0.002002787572906252 0.0 0.0
0.0024271209189315186 -0.0011262043600340443 0.0 0.0018429633767776056 0.0 0.0
0.0019173746246554557 -0.0008391615651950297 0.0 0.001710821928125967 0.0 0.0
0.0015364280564471207 -0.0006548526308913671 0.0 0.001662609101382486 0.0 0.0
0.001248169464620927 -0.0005361108858781784 0.0 0.0016878357533605319 0.0 0.0
0.0010047255595940217 -0.00042829698384148706 0.0 0.0016719971487632035 0.0 0.0
0.0007811841003297756 -0.00032044749703850407 0.0 0.0016190025009099353 0.0 0.0
0.00054668314976217 -0.00019296420085370645 0.0 0.0015355440494503347 0.0 0.0
0.0002798681601604673 -3.747009281459996e-05 0.0 0.001499468498850252 0.0 0.0
8.383108855654027e-05 3.4345518950664285e-05 0.0 0.001707021973382091 0.0 0.0
0.0003209774450898495 -0.0005093843898113129 0.0 0.0019625341705505044 0.0 0.0
0.0006117742437640205 -0.002541239224124349 0.0 0.0013935000914721757 0.0 0.0
0.0004893167698269491 -0.002074377520546708 0.0 -0.0013388771011117353 0.0 0.0
0.000242566782411701 -0.0005258943975109789 0.0 -0.0018981338299640955 0.0 0.0
4.228636450905954e-06 3.3798334918031565e-05 0.0 -0.0018738826511378454 0.0 0.0
0.00011738084486435639 3.288256470289642e-05 0.0 -0.0016768066265642834 0.0 0.0
0.000321126538922224 -8.893995756457239e-05 0.0 -0.0016754194959692067 0.0 0.0
0.0005033678083366548 -0.00019574287542291943 0.0 -0.0017451106133416388 0.0 0.0
0.0006664567454248754 -0.0002811485365528914 0.0 -0.0018071071914615958 0.0 0.0
0.0008354723254586991 -0.0003591358784902815 0.0 -0.0018426531166148953 0.0 0.0
0.0010287577377382467 -0.0004406462794048752 0.0 -0.0018559628811702974 0.0 0.0
0.0012728537034737044 -0.0005475200096178684 0.0 -0.0018535788273733624 0.0 0.0
0.0016045484456277872 -0.0006977433506419972 0.0 -0.001939081857484288 0.0 0.0
0.002060149756450823 -0.000952917033821669 0.0 -0.002040614561857897 0.0 0.0
0.0027281248217395954 -0.0013621992033039988 0.0 -0.002230820093861648 0.0 0.0
0.0037457177131592894 -0.0021141581621530623 0.0 -0.0026184329110447214 0.0 0.0
0.005225184349165735 -0.0033627964935648317 0.0 -0.0032554629356750285 0.0 0.0
0.007205236055182826 -0.005171555585893007 0.0 -0.004117297782762434 0.0 0.0
0.009646311903474116 -0.007483786036979289 0.0 -0.0050442912777437015 0.0 0.0
0.012459341246947623 -0.010194294560850628 0.0 -0.005770442256141736 0.0 0.0
0.015565621391306121 -0.013208765356219836 0.0 -0.005895345673724881 0.0 0.0
0.018782520332173508 -0.016466442852656728 0.0 -0.005062932491317189 0.0 0.0
0.02037917522739175 -0.01926832631963786 0.0 4.358926414260722e-15 0.0 0.0
0.018782520332172353 -0.01646644285265413 0.0 0.005062932491328501 0.0 0.0
0.015565621391304494 -0.013208765356221286 0.0 0.005895345673737203 0.0 0.0
0.012459341246945964 -0.01019429456084893 0.0 0.005770442256147968 0.0 0.0
0.009646311903472711 -0.007483786036979998 0.0 0.005044291277744584 0.0 0.0
0.007205236055181549 -0.005171555585891293 0.0 0.00411729778276152 0.0 0.0
0.005225184349164467 -0.0033627964935654653 0.0 0.0032554629356751144 0.0 0.0
0.0037457177131580404 -0.0021141581621516507 0.0 0.002618432911045078 0.0 0.0
0.002728124821738287 -0.0013621992033044903 0.0 0.002230820093861798 0.0 0.0
0.0020601497564494285 -0.0009529170338212086 0.0 0.0020406145618570987 0.0 0.0
0.0016045484456265777 -0.0006977433506430142 0.0 0.0019390818574825837 0.0 0.0
0.001272853703472665 -0.0005475200096168418 0.0 0.001853578827372793 0.0 0.0
0.0010287577377373369 -0.00044064627940431446 0.0 0.0018559628811706743 0.0 0.0
0.0008354723254579638 -0.00035913587849038846 0.0 0.0018426531166141754 0.0 0.0
0.0006664567454244149 -0.00028114853655244196 0.0 0.0018071071914604526 0.0 0.0
0.0005033678083364425 -0.0001957428754223859 0.0 0.0017451106133388027 0.0 0.0
0.0003211265389221117 -8.893995756538011e-05 0.0 0.00167541949596702 0.0 0.0
0.00011738084486430958 3.288256470284871e-05 0.0 0.0016768066265617685 0.0 0.0
4.228636450898923e-06 3.379833491840899e-05 0.0 0.0018738826511355538 0.0 0.0
0.0002425667824114221 -0.0005258943975104909 0.0 0.0018981338299615255 0.0 0.0
0.0004893167698263978 -0.0020743775205446366 0.0 0.0013388771011107164 0.0 0.0
0.00040187654539532554 -0.001703237295902976 0.0 -0.00126631590127367 0.0 0.0
0.000181100772042701 -0.0005124834782845654 0.0 -0.001832550546648399 0.0 0.0
-6.843341566223463e-05 3.561139488163375e-05 0.0 -0.0019744991180890626 0.0 0.0
-3.165176962101134e-05 9.244402979325014e-05 0.0 -0.0018105946131101586 0.0 0.0
0.00010316172624429815 9.672902285226306e-06 0.0 -0.0017802051161114009 0.0 0.0
0.0002262319525624485 -7.158988518390707e-05 0.0 -0.0018303128232048846 0.0 0.0
0.0003256059147320863 -0.00013116226022321555 0.0 -0.001891410782546626 0.0 0.0
0.00041672985147983755 -0.00017840846895751517 0.0 -0.001936655037758314 0.0 0.0
0.000516775800514899 -0.00022168939471687676 0.0 -0.0019687470642545855 0.0 0.0
0.0006364797603957852 -0.00027621998832439283 0.0 -0.0019870310772660796 0.0 0.0
0.0008008240165843839 -0.00034067719363750285 0.0 -0.0020307151129128806 0.0 0.0
0.0010292430072377093 -0.0004551284729336855 0.0 -0.0021119719821105047 0.0 0.0
0.001349005627998755 -0.0006098693266640363 0.0 -0.0022183805833772864 0.0 0.0
0.0018396225490016256 -0.0009088062129417462 0.0 -0.0024243954489632197 0.0 0.0
0.0025768214896885115 -0.0014380436885875715 0.0 -0.0028161155663208692 0.0 0.0
0.0036071079661986433 -0.0022812831570641896 0.0 -0.003432676254600339 0.0 0.0
0.004955148267647412 -0.0034333406422343074 0.0 -0.004194145422132325 0.0 0.0
0.006679875717649087 -0.005008641278018274 0.0 -0.004885377344195451 0.0 0.0
0.008816829210652747 -0.007031841025397825 0.0 -0.005047698384238648 0.0 0.0
0.011402587346622013 -0.009509820713782192 0.0 -0.00435674117159991 0.0 0.0
0.012821300484940434 -0.01241507272075592 0.0 2.73826100682939e-15 0.0 0.0
0.011402587346621326 -0.009509820713780844 0.0 0.004356741171607772 0.0 0.0
0.008816829210651604 -0.0070318410254006074 0.0 0.005047698384247509 0.0 0.0
0.006679875717647923 -0.005008641278017867 0.0 0.00488537734419998 0.0 0.0
0.004955148267646657 -0.003433340642234985 0.0 0.004194145422133079 0.0 0.0
0.0036071079661982863 -0.0022812831570635317 0.0 0.0034326762546002766 0.0 0.0
0.0025768214896880522 -0.0014380436885886492 0.0 0.002816115566321366 0.0 0.0
0.001839622549001158 -0.0009088062129416136 0.0 0.002424395448963948 0.0 0.0
0.0013490056279983843 -0.0006098693266647375 0.0 0.0022183805833773003 0.0 0.0
0.0010292430072372468 -0.00045512847293478087 0.0 0.0021119719821098035 0.0 0.0
0.0008008240165840714 -0.0003406771936392658 0.0 0.0020307151129116395 0.0 0.0
0.0006364797603955422 -0.00027621998832441164 0.0 0.0019870310772655874 0.0 0.0
0.0005167758005145578 -0.00022168939471674538 0.0 0.0019687470642539688 0.0 0.0
0.0004167298514795691 -0.00017840846895754363 0.0 0.0019366550377572537 0.0 0.0
0.0003256059147319884 -0.00013116226022280122 0.0 0.0018914107825450492 0.0 0.0
0.00022623195256251725 -7.158988518401339e-05 0.0 0.0018303128232027917 0.0 0.0
0.00010316172624444774 9.672902285107845e-06 0.0 0.001780205116108987 0.0 0.0
-3.165176962083364e-05 9.24440297930799e-05 0.0 0.0018105946131078327 0.0 0.0
-6.843341566213867e-05 3.561139488153995e-05 0.0 0.001974499118086788 0.0 0.0
0.00018110077204249706 -0.0005124834782840028 0.0 0.0018325505466465514 0.0 0.0
0.0004018765453949812 -0.0017032372959013714 0.0 0.0012663159012723513 0.0 0.0
0.00032556804266451215 -0.0013752886253587486 0.0 -0.001158389391252286 0.0 0.0
0.0001254987626336691 -0.0004790494783778785 0.0 -0.0017548169811675636 0.0 0.0
-0.00013593376661108578 4.203383689477589e-05 0.0 -0.0020172238554886585 0.0 0.0
-0.00017056734507142393 0.00014487785802673057 0.0 -0.0018954032191739719 0.0 0.0
-0.00010723323553825566 0.00010243839713803232 0.0 -0.001844966190432683 0.0 0.0
-4.840608729109856e-05 5.0853027547627044e-05 0.0 -0.001872910392902453 0.0 0.0
-1.6188421878961664e-05 1.9153236922479785e-05 0.0 -0.0019245657025905019 0.0 0.0
-2.8435587234240125e-06 4.197779087063455e-06 0.0 -0.0019700472383897476 0.0 0.0
9.415411889105699e-07 -6.197751019752252e-07 0.0 -0.0020006764629672182 0.0 0.0
1.196193231321616e-06 -1.0712766806204283e-06 0.0 -0.00203655346083014 0.0 0.0
9.770561687975736e-07 -1.111232781594849e-06 0.0 -0.0020632447589113228 0.0 0.0
9.009653340151655e-07 -7.837234228745347e-07 0.0 -0.0021546823287599704 0.0 0.0
-5.457728419166184e-07 5.085934127717638e-07 0.0 -0.00225323187490107 0.0 0.0
-4.378861060937264e-06 4.830570152850706e-06 0.0 -0.002370066688291662 0.0 0.0
2.3308487122388746e-06 4.759025637934944e-06 0.0 -0.0026463822265115687 0.0 0.0
6.65337335293124e-05 -3.42992949371339e-05 0.0 -0.003177474482589562 0.0 0.0
0.0003003213924113829 -0.00017883751796971415 0.0 -0.003973935846086687 0.0 0.0
0.0009224474191173657 -0.0006415502681773531 0.0 -0.004851315319855572 0.0 0.0
0.0021194887021160117 -0.0016547697656544545 0.0 -0.005597510001762186 0.0 0.0
0.0038837969467139274 -0.003056823448881278 0.0 -0.005592100554318309 0.0 0.0
0.004894471606706423 -0.005958827385192443 0.0 2.869232629265639e-15 0.0 0.0
0.003883796946713621 -0.0030568234488797014 0.0 0.005592100554326495 0.0 0.0
0.002119488702115745 -0.0016547697656551668 0.0 0.005597510001769047 0.0 0.0
0.000922447419117143 -0.0006415502681730661 0.0 0.004851315319859065 0.0 0.0
0.0003003213924116085 -0.00017883751797034285 0.0 0.0039739358460878635 0.0 0.0
6.653373352972684e-05 -3.4299294937518505e-05 0.0 0.0031774744825890317 0.0 0.0
2.3308487125100607e-06 4.759025638136633e-06 0.0 0.0026463822265113505 0.0 0.0
-4.378861060502852e-06 4.830570152315937e-06 0.0 0.002370066688292324 0.0 0.0
-5.457728412672084e-07 5.085934116357639e-07 0.0 0.002253231874901112 0.0 0.0
9.009653345389977e-07 -7.837234224478639e-07 0.0 0.0021546823287590896 0.0 0.0
9.770561692970249e-07 -1.1112327831872608e-06 0.0 0.0020632447589100647 0.0 0.0
1.196193231653924e-06 -1.0712766808276091e-06 0.0 0.002036553460829779 0.0 0.0
9.415411890453972e-07 -6.197751014295649e-07 0.0 0.0020006764629669164 0.0 0.0
-2.8435587231814155e-06 4.197779087206936e-06 0.0 0.001970047238389089 0.0 0.0
-1.6188421878582376e-05 1.9153236923246234e-05 0.0 0.0019245657025889627 0.0 0.0
-4.8406087290800866e-05 5.085302754648145e-05 0.0 0.001872910392900812 0.0 0.0
-0.00010723323553802399 0.00010243839713830591 0.0 0.0018449661904297904 0.0 0.0
-0.00017056734507120416 0.00014487785802669027 0.0 0.0018954032191713572 0.0 0.0
-0.00013593376661098994 4.2033836894496936e-05 0.0 0.0020172238554860018 0.0 0.0
0.00012549876263348358 -0.0004790494783771767 0.0 0.0017548169811657138 0.0 0.0
0.00032556804266412585 -0.0013752886253575413 0.0 0.0011583893912510167 0.0 0.0
0.0002537257845506292 -0.0010849207216133989 0.0 -0.0010435449954625925 0.0 0.0
7.130312838995858e-05 -0.00042935717110999635 0.0 -0.001655775368711977 0.0 0.0
-0.0002008770812711984 5.381180892106563e-05 0.0 -0.002007760225916712 0.0 0.0
-0.0003016629829897852 0.00019270607891478796 0.0 -0.0019292952972759258 0.0 0.0
-0.0003104794521423009 0.00018965186362062108 0.0 -0.0018659311903809505 0.0 0.0
-0.0003192741075719355 0.00017045383966271467 0.0 -0.0018708062638669834 0.0 0.0
-0.00035655656743498665 0.00016831710631702725 0.0 -0.0019057443075668214 0.0 0.0
-0.00042208647085486737 0.00018642860763804268 0.0 -0.001939212778894286 0.0 0.0
-0.0005149927918125381 0.00022051727846331777 0.0 -0.001968214751097999 0.0 0.0
-0.00063420887344566 0.0002741082165536215 0.0 -0.0019863303370433174 0.0 0.0
-0.000798858398244597 0.0003386913603352087 0.0 -0.002030518307070608 0.0 0.0
-0.0010274334524405313 0.000453547695312663 0.0 -0.002112074612719669 0.0 0.0
-0.001349698593454955 0.0006103439697784442 0.0 -0.002217114038261528 0.0 0.0
-0.0018478064816468019 0.0009187566559702562 0.0 -0.002416607572734562 0.0 0.0
-0.002576879191527658 0.0014509458597391856 0.0 -0.002815080644900559 0.0 0.0
-0.00348836160443683 0.0022131970554394123 0.0 -0.003514312293829808 0.0 0.0
-0.0043964531744498745 0.0030309588742648973 0.0 -0.004510341596602695 0.0 0.0
-0.0049874791435581545 0.003631055646659675 0.0 -0.00572724281126915 0.0 0.0
-0.004871318047887735 0.0036019338027257946 0.0 -0.007092749271149977 0.0 0.0
-0.0034687502381878683 0.002585873211932578 0.0 -0.007759457375148236 0.0 0.0
-0.0023530196415839236 -0.000568974975031773 0.0 3.006709464736801e-15 0.0 0.0
-0.0034687502381880175 0.0025858732119339845 0.0 0.007759457375156074 0.0 0.0
-0.004871318047887586 0.003601933802723992 0.0 0.007092749271157186 0.0 0.0
-0.004987479143557282 0.003631055646660636 0.0 0.0057272428112725305 0.0 0.0
-0.004396453174448653 0.00303095887426513 0.0 0.004510341596602922 0.0 0.0
-0.003488361604435607 0.002213197055439397 0.0 0.003514312293829507 0.0 0.0
-0.002576879191526603 0.0014509458597399035 0.0 0.002815080644900667 0.0 0.0
-0.0018478064816455425 0.0009187566559699094 0.0 0.002416607572734961 0.0 0.0
-0.0013496985934533749 0.0006103439697752554 0.0 0.0022171140382620013 0.0 0.0
-0.001027433452439021 0.0004535476953128675 0.0 0.002112074612718455 0.0 0.0
-0.0007988583982431473 0.0003386913603351884 0.0 0.002030518307069591 0.0 0.0
-0.0006342088734445615 0.0002741082165534941 0.0 0.001986330337042747 0.0 0.0
-0.0005149927918117845 0.0002205172784636915 0.0 0.0019682147510977723 0.0 0.0
-0.0004220864708541959 0.00018642860763818614 0.0 0.0019392127788935717 0.0 0.0
-0.00035655656743435184 0.00016831710631787233 0.0 0.0019057443075648395 0.0 0.0
-0.0003192741075713523 0.000170453839661676 0.0 0.001870806263864802 0.0 0.0
-0.0003104794521417922 0.00018965186362000634 0.0 0.0018659311903783788 0.0 0.0
-0.00030166298298939096 0.00019270607891452295 0.0 0.00192929529727373 0.0 0.0
-0.000200877081270952 5.38118089210541e-05 0.0 0.0020077602259144208 0.0 0.0
7.130312838996068e-05 -0.0004293571711093735 0.0 0.0016557753687102231 0.0 0.0
0.00025372578455042674 -0.001084920721612454 0.0 0.0010435449954616187 0.0 0.0
0.00018571593052825035 -0.000829636477935305 0.0 -0.000928676033299367 0.0 0.0
1.7457174293292624e-05 -0.0003682786945784034 0.0 -0.0015356213108995013 0.0 0.0
-0.00026515776632300854 7.175763599691946e-05 0.0 -0.0019494538781284895 0.0 0.0
-0.00042675976618758037 0.0002374778200292764 0.0 -0.0019121578586461002 0.0 0.0
-0.0005070605915941849 0.0002718095633831111 0.0 -0.0018404857262840934 0.0 0.0
-0.0005852924444826188 0.0002863681603191086 0.0 -0.0018220922006983785 0.0 0.0
-0.0006933191735632546 0.0003147062709402624 0.0 -0.0018327158645870941 0.0 0.0
-0.0008400296204046775 0.0003663378507302523 0.0 -0.0018480002673266199 0.0 0.0
-0.0010272651321672874 0.0004395588296230785 0.0 -0.0018548040010595867 0.0 0.0
-0.0012708924819040141 0.000545590086364374 0.0 -0.00185210002607431 0.0 0.0
-0.001602927131240305 0.0006960787118369676 0.0 -0.0019385697785878797 0.0 0.0
-0.00205841331223409 0.000951349866487891 0.0 -0.0020417353617173685 0.0 0.0
-0.0027274081535909774 0.0013616073426011334 0.0 -0.002228998640054634 0.0 0.0
-0.0037517368312884464 0.002122176353062337 0.0 -0.002602005611434519 0.0 0.0
-0.005231138194616218 0.003378872945545567 0.0 -0.003236091216637522 0.0 0.0
-0.007115968792837695 0.005117840686511325 0.0 -0.004219704229174312 0.0 0.0
-0.00915495549410767 0.007077261101872012 0.0 -0.005606326007206424 0.0 0.0
-0.010933658698856418 0.008830404192544172 0.0 -0.007384804266163602 0.0 0.0
-0.011790098835451925 0.009745349206817073 0.0 -0.00927329367851205 0.0 0.0
-0.010654618290811864 0.008636937512230106 0.0 -0.009899936655255353 0.0 0.0
-0.009426881114647057 0.00425552892110299 0.0 3.796008646306248e-15 0.0 0.0
-0.010654618290811718 0.008636937512228793 0.0 0.009899936655263643 0.0 0.0
-0.011790098835451073 0.009745349206815648 0.0 0.009273293678520927 0.0 0.0
-0.010933658698854869 0.008830404192544397 0.0 0.007384804266168787 0.0 0.0
-0.009154955494105456 0.007077261101871377 0.0 0.005606326007207241 0.0 0.0
-0.007115968792835563 0.005117840686511164 0.0 0.004219704229174253 0.0 0.0
-0.005231138194614443 0.0033788729455457465 0.0 0.0032360912166371457 0.0 0.0
-0.003751736831286368 0.002122176353060546 0.0 0.002602005611434967 0.0 0.0
-0.0027274081535884325 0.0013616073425978352 0.0 0.00222899864005423 0.0 0.0
-0.0020584133122317242 0.0009513498664861957 0.0 0.0020417353617162414 0.0 0.0
-0.0016029271312380912 0.0006960787118362771 0.0 0.0019385697785864768 0.0 0.0
-0.001270892481902123 0.0005455900863638337 0.0 0.001852100026073526 0.0 0.0
-0.0010272651321658567 0.00043955882962240706 0.0 0.0018548040010592658 0.0 0.0
-0.0008400296204035484 0.0003663378507300033 0.0 0.0018480002673261133 0.0 0.0
-0.0006933191735622537 0.0003147062709398211 0.0 0.0018327158645851686 0.0 0.0
-0.0005852924444817573 0.00028636816031846484 0.0 0.0018220922006961324 0.0 0.0
-0.0005070605915934632 0.00027180956338280436 0.0 0.0018404857262819042 0.0 0.0
-0.00042675976618700774 0.00023747782002893282 0.0 0.001912157858643734 0.0 0.0
-0.000265157766322753 7.175763599719802e-05 0.0 0.0019494538781267266 0.0 0.0
1.7457174293257624e-05 -0.00036827869457784634 0.0 0.0015356213108980062 0.0 0.0
0.00018571593052811036 -0.0008296364779346228 0.0 0.0009286760332984385 0.0 0.0
0.00012186550117256883 -0.0006074279693048804 0.0 -0.0008127649814229287 0.0 0.0
-3.591386972456556e-05 -0.0003004168039793362 0.0 -0.0013959662632027294 0.0 0.0
-0.0003296275445754816 9.584668139398607e-05 0.0 -0.0018457423584278035 0.0 0.0
-0.0005472268565816455 0.00028029892551102443 0.0 -0.001844379468991614 0.0 0.0
-0.0006974039968595655 0.0003492639180569894 0.0 -0.0017671766011231787 0.0 0.0
-0.0008453270121943207 0.0003981431871109821 0.0 -0.0017245345310002876 0.0 0.0
-0.0010255077879779038 0.00045700299633913443 0.0 -0.0017092938722709408 0.0 0.0
-0.0012518786897722158 0.0005418969318686209 0.0 -0.0016946278621163084 0.0 0.0
-0.0015352831375748121 0.0006540238196106486 0.0 -0.0016610186559257564 0.0 0.0
-0.0019159318695485183 0.0008373788407713443 0.0 -0.0017086318439269157 0.0 0.0
-0.002426009837974944 0.0011249742511784087 0.0 -0.0018426745861867618 0.0 0.0
-0.0031270809411066305 0.0015737535997243186 0.0 -0.0020042567932200576 0.0 0.0
-0.004170183617487644 0.0023428489824465154 0.0 -0.002311292391311332 0.0 0.0
-0.005740548033464123 0.0036511828422369393 0.0 -0.002842289845199017 0.0 0.0
-0.00797936577388945 0.005678710866256034 0.0 -0.0036730048171860095 0.0 0.0
-0.010852215104805014 0.008422238837604776 0.0 -0.0048938600152843535 0.0 0.0
-0.014057804536098856 0.011570587592389409 0.0 -0.006708466334355171 0.0 0.0
-0.017011742319551184 0.014545523196803838 0.0 -0.009196367564209301 0.0 0.0
-0.018706684363446625 0.016352585670052707 0.0 -0.011801241827580522 0.0 0.0
-0.01748646580598047 0.015320868604260972 0.0 -0.012807839931404037 0.0 0.0
-0.01589478531485945 0.0090170386341063 0.0 4.396222968994223e-15 0.0 0.0
-0.017486465805979984 0.015320868604259845 0.0 0.012807839931415727 0.0 0.0
-0.018706684363445233 0.016352585670050872 0.0 0.011801241827592566 0.0 0.0
-0.017011742319549026 0.014545523196803217 0.0 0.009196367564216566 0.0 0.0
-0.014057804536095994 0.011570587592387292 0.0 0.006708466334356469 0.0 0.0
-0.010852215104802226 0.0084222388376029 0.0 0.004893860015283984 0.0 0.0
-0.007979365773886908 0.005678710866255047 0.0 0.0036730048171849826 0.0 0.0
-0.005740548033461254 0.0036511828422356573 0.0 0.0028422898451992327 0.0 0.0
-0.00417018361748424 0.0023428489824438383 0.0 0.002311292391310306 0.0 0.0
-0.0031270809411031433 0.001573753599723008 0.0 0.0020042567932182336 0.0 0.0
-0.002426009837971748 0.001124974251175621 0.0 0.0018426745861846775 0.0 0.0
-0.0019159318695458139 0.0008373788407701449 0.0 0.0017086318439260583 0.0 0.0
-0.0015352831375726917 0.000654023819608871 0.0 0.0016610186559252887 0.0 0.0
-0.0012518786897705559 0.0005418969318686482 0.0 0.0016946278621159214 0.0 0.0
-0.0010255077879765787 0.0004570029963383038 0.0 0.0017092938722696864 0.0 0.0
-0.0008453270121931654 0.0003981431871098758 0.0 0.0017245345309982998 0.0 0.0
-0.0006974039968586398 0.0003492639180569814 0.0 0.001767176601121401 0.0 0.0
-0.0005472268565810188 0.00028029892551098513 0.0 0.0018443794689891732 0.0 0.0
-0.0003296275445751979 9.584668139444208e-05 0.0 0.001845742358425695 0.0 0.0
-3.591386972459777e-05 -0.0003004168039789682 0.0 0.001395966263201477 0.0 0.0
0.00012186550117240565 -0.0006074279693044135 0.0 0.0008127649814217079 0.0 0.0
6.304354572432348e-05 -0.0004176273769277881 0.0 -0.0006943121806059369 0.0 0.0
-8.796500992814749e-05 -0.00022959694964523814 0.0 -0.0012378571422669736 0.0 0.0
-0.00039427119868194993 0.00012523464068779982 0.0 -0.0016998812580677734 0.0 0.0
-0.0006639638709666834 0.0003217779248967228 0.0 -0.0017266977317146202 0.0 0.0
-0.0008817267702652108 0.00042257048323970925 0.0 -0.0016449471750753738 0.0 0.0
-0.00109969729954712 0.0005049332688778949 0.0 -0.001578433707826393 0.0 0.0
-0.0013509938699650806 0.0005940969270316138 0.0 -0.0015342425184572605 0.0 0.0
-0.0016557344261932839 0.0007085552657100929 0.0 -0.001472916796196306 0.0 0.0
-0.002055422619159566 0.000895830967002453 0.0 -0.0014768930725309025 0.0 0.0
-0.0025869759721418558 0.0012033082125177902 0.0 -0.0016073226942550534 0.0 0.0
-0.0032748645338380013 0.001647566177714301 0.0 -0.0017444284983553526 0.0 0.0
-0.004236049777438918 0.0023396948766419897 0.0 -0.001960448464629745 0.0 0.0
-0.005672129118092361 0.0034955417263183046 0.0 -0.0023353811586397802 0.0 0.0
-0.00780408362175458 0.005364918045209365 0.0 -0.002958544785738282 0.0 0.0
-0.01080814375977834 0.008159035362168254 0.0 -0.003884445854786852 0.0 0.0
-0.014678327658857755 0.011904225623251738 0.0 -0.005236109038274286 0.0 0.0
-0.019068232885286928 0.016254883231732666 0.0 -0.007282846298288227 0.0 0.0
-0.02317322988485322 0.02043654682672023 0.0 -0.010213023701962441 0.0 0.0
-0.025584631549432503 0.023053149204248214 0.0 -0.013467671916929163 0.0 0.0
-0.024028002056749247 0.021828570838160165 0.0 -0.01512529307515709 0.0 0.0
-0.021910270093585874 0.013607194553639856 0.0 5.204170427930421e-15 0.0 0.0
-0.02402800205674828 0.021828570838160147 0.0 0.015125293075171003 0.0 0.0
-0.025584631549430713 0.02305314920424648 0.0 0.013467671916943029 0.0 0.0
-0.0231732298848506 0.020436546826717125 0.0 0.010213023701971764 0.0 0.0
-0.01906823288528354 0.016254883231729005 0.0 0.007282846298291389 0.0 0.0
-0.014678327658854396 0.011904225623248617 0.0 0.0052361090382742085 0.0 0.0
-0.010808143759775124 0.00815903536216685 0.0 0.0038844458547867868 0.0 0.0
-0.007804083621750986 0.0053649180452083264 0.0 0.002958544785737776 0.0 0.0
-0.005672129118088267 0.0034955417263137075 0.0 0.0023353811586391436 0.0 0.0
-0.0042360497774345555 0.002339694876640185 0.0 0.001960448464628088 0.0 0.0
-0.003274864533833838 0.0016475661777117564 0.0 0.001744428498352918 0.0 0.0
-0.002586975972138314 0.0012033082125157218 0.0 0.0016073226942533224 0.0 0.0
-0.002055422619156697 0.0008958309670007668 0.0 0.001476893072530648 0.0 0.0
-0.0016557344261909817 0.0007085552657088056 0.0 0.0014729167961964813 0.0 0.0
-0.001350993869963324 0.000594096927031446 0.0 0.001534242518455862 0.0 0.0
-0.0010996972995458113 0.000504933268876867 0.0 0.0015784337078247098 0.0 0.0
-0.0008817267702641114 0.0004225704832391216 0.0 0.0016449471750736198 0.0 0.0
-0.0006639638709658866 0.0003217779248964225 0.0 0.0017266977317128315 0.0 0.0
-0.0003942711986815422 0.00012523464068781883 0.0 0.0016998812580658737 0.0 0.0
-8.796500992804182e-05 -0.0002295969496449923 0.0 0.0012378571422660978 0.0 0.0
6.304354572429716e-05 -0.0004176273769274359 0.0 0.0006943121806049507 0.0 0.0
1.0548835757878725e-05 -0.00026066528011134085 0.0 -0.0005723892360327117 0.0 0.0
-0.00013724701342474134 -0.00015902687858268115 0.0 -0.00106223677978136 0.0 0.0
-0.0004583379299277735 0.000158442753918361 0.0 -0.001514292082673555 0.0 0.0
-0.0007773697806433985 0.0003620682595261976 0.0 -0.001559788382648121 0.0 0.0
-0.0010606740651928424 0.0004925754236511315 0.0 -0.0014738590901079976 0.0 0.0
-0.001347265560783721 0.0006066717493241373 0.0 -0.001387081372794709 0.0 0.0
-0.001667182873018197 0.0007205507760525136 0.0 -0.001294627834542581 0.0 0.0
-0.002071294523349112 0.0008908145677929209 0.0 -0.0012368503792908225 0.0 0.0
-0.00260527061868329 0.0012107594677235008 0.0 -0.0013508510926185126 0.0 0.0
-0.0032711530808533754 0.0016342638200932602 0.0 -0.001471758464270971 0.0 0.0
-0.004140716655119585 0.0022422515617181926 0.0 -0.0016019384187057454 0.0 0.0
-0.00538567528469962 0.0032072495160813284 0.0 -0.0018389682893429986 0.0 0.0
-0.0072324993564018576 0.004766399266738879 0.0 -0.0022379175812643746 0.0 0.0
-0.00993713428722596 0.007208291017426361 0.0 -0.0028922064488079735 0.0 0.0
-0.013706569692595549 0.010763653726903227 0.0 -0.003864615063311647 0.0 0.0
-0.018557624291145824 0.015476147978630984 0.0 -0.005203649391798377 0.0 0.0
-0.024102742138893202 0.02100215874087585 0.0 -0.007202247974490424 0.0 0.0
-0.029331223797894303 0.02636954614029453 0.0 -0.010246696670144112 0.0 0.0
-0.032383988355430604 0.029731335205796405 0.0 -0.013993081315051796 0.0 0.0
-0.030407127726202125 0.02821217363604773 0.0 -0.01673318527299491 0.0 0.0
-0.027740816157675985 0.01811222027501725 0.0 6.6812874677246725e-15 0.0 0.0
-0.03040712772620076 0.028212173636047014 0.0 0.01673318527301035 0.0 0.0
-0.032383988355428425 0.02973133520579605 0.0 0.013993081315066151 0.0 0.0
-0.02933122379789142 0.026369546140292365 0.0 0.010246696670154156 0.0 0.0
-0.024102742138889712 0.021002158740873873 0.0 0.00720224797449401 0.0 0.0
-0.01855762429114198 0.015476147978628594 0.0 0.005203649391799649 0.0 0.0
-0.013706569692591621 0.01076365372689959 0.0 0.003864615063311515 0.0 0.0
-0.009937134287221651 0.007208291017423596 0.0 0.002892206448807431 0.0 0.0
-0.00723249935639686 0.004766399266733627 0.0 0.002237917581263626 0.0 0.0
-0.005385675284694405 0.0032072495160783026 0.0 0.0018389682893416603 0.0 0.0
-0.004140716655114711 0.0022422515617145436 0.0 0.0016019384187032884 0.0 0.0
-0.0032711530808490876 0.001634263820089999 0.0 0.001471758464268992 0.0 0.0
-0.002605270618679457 0.0012107594677223828 0.0 0.0013508510926175806 0.0 0.0
-0.0020712945233460718 0.0008908145677907261 0.0 0.0012368503792906244 0.0 0.0
-0.0016671828730160892 0.0007205507760526369 0.0 0.0012946278345416589 0.0 0.0
-0.0013472655607821317 0.0006066717493234937 0.0 0.0013870813727936797 0.0 0.0
-0.0010606740651916118 0.0004925754236503692 0.0 0.001473859090106621 0.0 0.0
-0.0007773697806425887 0.0003620682595257258 0.0 0.0015597883826463865 0.0 0.0
-0.00045833792992735947 0.00015844275391819378 0.0 0.0015142920826725806 0.0 0.0
-0.00013724701342463915 -0.0001590268785824947 0.0 0.001062236779780175 0.0 0.0
1.0548835757749393e-05 -0.00026066528011119264 0.0 0.0005723892360322175 0.0 0.0
-3.3802115445166663e-05 -0.00013776552069232333 0.0 -0.0004475858892766391 0.0 0.0
-0.00018157568780711325 -9.163337815107037e-05 0.0 -0.0008704218111204708 0.0 0.0
-0.0005203238443689112 0.0001933295556942511 0.0 -0.0012899617643879963 0.0 0.0
-0.0008876874462702871 0.00040126380307040825 0.0 -0.0013435820068335856 0.0 0.0
-0.0012353143435480864 0.000560167789580659 0.0 -0.0012559115822604616 0.0 0.0
-0.0015850441887365902 0.0006996856823121292 0.0 -0.0011457964014396735 0.0 0.0
-0.0019867254599730258 0.0008519799429872921 0.0 -0.0010192874243020833 0.0 0.0
-0.002515759534960619 0.001146780539806983 0.0 -0.0010712293127640496 0.0 0.0
-0.003166931205115465 0.0015680086827473498 0.0 -0.0011792691721260596 0.0 0.0
-0.003960519418668529 0.002102436673395988 0.0 -0.0012622825708419444 0.0 0.0
-0.005033213176498687 0.002903214891547644 0.0 -0.0013991459448987158 0.0 0.0
-0.006573578863529982 0.004150492038316005 0.0 -0.001622021741679177 0.0 0.0
-0.008846621239918178 0.006129017431980526 0.0 -0.002003023837240688 0.0 0.0
-0.01214230695185583 0.009157153905203908 0.0 -0.002636643447242836 0.0 0.0
-0.016664639657773966 0.013462789134741944 0.0 -0.0035834169811474574 0.0 0.0
-0.022440792724969388 0.01908738013080494 0.0 -0.004823564471855989 0.0 0.0
-0.029085546340255557 0.025708639963449652 0.0 -0.006515909840805083 0.0 0.0
-0.035391046958182314 0.032212617092717534 0.0 -0.009245200129508902 0.0 0.0
-0.03908265453338194 0.036330308041527676 0.0 -0.013277573282608292 0.0 0.0
-0.03676642445010312 0.03462138025102081 0.0 -0.01772709866913785 0.0 0.0
-0.033611730733054276 0.022723626551524594 0.0 7.276297619984717e-15 0.0 0.0
-0.036766424450101705 0.03462138025101927 0.0 0.017727098669153535 0.0 0.0
-0.03908265453337938 0.0363303080415262 0.0 0.013277573282623384 0.0 0.0
-0.03539104695817901 0.032212617092715765 0.0 0.009245200129519298 0.0 0.0
-0.02908554634025178 0.025708639963446987 0.0 0.006515909840808529 0.0 0.0
-0.022440792724965086 0.01908738013080255 0.0 0.004823564471857352 0.0 0.0
-0.0166646396577694 0.013462789134737682 0.0 0.003583416981147826 0.0 0.0
-0.01214230695185085 0.0091571539052014 0.0 0.0026366434472427235 0.0 0.0
-0.008846621239912453 0.006129017431976219 0.0 0.002003023837239907 0.0 0.0
-0.006573578863523899 0.004150492038311046 0.0 0.0016220217416772513 0.0 0.0
-0.005033213176492967 0.0029032148915432527 0.0 0.0013991459448965495 0.0 0.0
-0.003960519418663428 0.0021024366733918783 0.0 0.001262282570840416 0.0 0.0
-0.0031669312051109287 0.0015680086827451712 0.0 0.0011792691721247497 0.0 0.0
-0.0025157595349568325 0.0011467805398050522 0.0 0.001071229312762786 0.0 0.0
-0.001986725459970355 0.000851979942986753 0.0 0.001019287424301497 0.0 0.0
-0.0015850441887347855 0.0006996856823115083 0.0 0.0011457964014388953 0.0 0.0
-0.0012353143435467789 0.0005601677895801391 0.0 0.0012559115822591105 0.0 0.0
-0.0008876874462692877 0.0004012638030699449 0.0 0.0013435820068319795 0.0 0.0
-0.0005203238443684785 0.00019332955569427413 0.0 0.0012899617643865968 0.0 0.0
-0.00018157568780702678 -9.163337815103014e-05 0.0 0.0008704218111190484 0.0 0.0
-3.3802115444986815e-05 -0.00013776552069228639 0.0 0.000447585889276418 0.0 0.0
-6.739221361912073e-05 -5.052600776257763e-05 0.0 -0.0003233250921550997 0.0 0.0
-0.00021764550247782485 -3.061363127918771e-05 0.0 -0.0006646101656327174 0.0 0.0
-0.0005778172565780697 0.00022683001056376153 0.0 -0.0010254934236982238 0.0 0.0
-0.000995452951902051 0.0004402222669643396 0.0 -0.0010767754041220493 0.0 0.0
-0.0014049289058166417 0.000624763163712969 0.0 -0.0009939016863774921 0.0 0.0
-0.0018201954420800823 0.0007831153141075308 0.0 -0.0008441557177915684 0.0 0.0
-0.0023329849975013907 0.0010318228891753865 0.0 -0.0007856435920314803 0.0 0.0
-0.002973749807477821 0.0014478652825181762 0.0 -0.0008836344061962905 0.0 0.0
-0.0037232501524416548 0.001939862940478767 0.0 -0.0009283120324833617 0.0 0.0
-0.004666305656626041 0.0026150357365495964 0.0 -0.0010036852842580264 0.0 0.0
-0.0059503677980688955 0.0036151219146128384 0.0 -0.0011199353841053806 0.0 0.0
-0.007799254424141755 0.005158638278868919 0.0 -0.00130388217951801 0.0 0.0
-0.010516015613626499 0.007569137685671547 0.0 -0.0016228637931561048 0.0 0.0
-0.01440822861916892 0.01119255312496503 0.0 -0.0021776425802462083 0.0 0.0
-0.01967619096393416 0.016242291694128778 0.0 -0.0030305573162127644 0.0 0.0
-0.026310652906554242 0.02271585307025279 0.0 -0.004122140020193198 0.0 0.0
-0.03391452695586293 0.030275522250913844 0.0 -0.005348738017392213 0.0 0.0
-0.04122924156540886 0.037807496485345655 0.0 -0.007224539292343242 0.0 0.0
-0.045681931426791986 0.04280797568840888 0.0 -0.011207952959987352 0.0 0.0
-0.043260150086518886 0.0412308257341342 0.0 -0.01795179099834997 0.0 0.0
-0.03973833356984892 0.027660685003427186 0.0 6.84001466577655e-15 0.0 0.0
-0.04326015008651732 0.04123082573413285 0.0 0.017951790998364428 0.0 0.0
-0.04568193142678913 0.042807975688405886 0.0 0.011207952960002154 0.0 0.0
-0.04122924156540529 0.037807496485344635 0.0 0.007224539292351999 0.0 0.0
-0.03391452695585881 0.030275522250909903 0.0 0.0053487380173954085 0.0 0.0
-0.026310652906549457 0.022715853070248242 0.0 0.004122140020195175 0.0 0.0
-0.01967619096392898 0.016242291694126484 0.0 0.0030305573162136864 0.0 0.0
-0.01440822861916326 0.011192553124961637 0.0 0.002177642580245873 0.0 0.0
-0.010516015613619948 0.00756913768566655 0.0 0.00162286379315537 0.0 0.0
-0.007799254424134833 0.005158638278863357 0.0 0.0013038821795161315 0.0 0.0
-0.0059503677980624736 0.003615121914608003 0.0 0.0011199353841032976 0.0 0.0
-0.004666305656620291 0.0026150357365452 0.0 0.0010036852842561029 0.0 0.0
-0.003723250152436506 0.00193986294047573 0.0 0.0009283120324821868 0.0 0.0
-0.002973749807473184 0.001447865282515413 0.0 0.0008836344061956326 0.0 0.0
-0.0023329849974979525 0.0010318228891735212 0.0 0.0007856435920302353 0.0 0.0
-0.001820195442077966 0.000783115314107204 0.0 0.0008441557177908974 0.0 0.0
-0.0014049289058151047 0.0006247631637126173 0.0 0.0009939016863762702 0.0 0.0
-0.0009954529519009762 0.0004402222669639206 0.0 0.00107677540412097 0.0 0.0
-0.0005778172565775624 0.00022683001056346728 0.0 0.0010254934236966606 0.0 0.0
-0.00021764550247772082 -3.0613631279087496e-05 0.0 0.0006646101656322549 0.0 0.0
-6.739221361919631e-05 -5.0526007762600035e-05 0.0 0.0003233250921549761 0.0 0.0
-8.622039039193572e-05 -3.833488295550651e-07 0.0 -0.0002084226948241968 0.0 0.0
-0.00024029229292025708 1.9708226850413158e-05 0.0 -0.0004480376590924826 0.0 0.0
-0.0006272638463052908 0.000254347924646623 0.0 -0.0007160278361956787 0.0 0.0
-0.0011014666290114629 0.0004821476185230579 0.0 -0.0007555136091895686 0.0 0.0
-0.0015692346176818766 0.0006798377190141391 0.0 -0.0006874199938758086 0.0 0.0
-0.0020724264293717452 0.0008936275267166997 0.0 -0.0005271866792498398 0.0 0.0
-0.002696398007105359 0.0012646536648033722 0.0 -0.0005658126590078789 0.0 0.0
-0.003429181019077912 0.0017482416001930643 0.0 -0.0006025036642132027 0.0 0.0
-0.004288424081156717 0.0023429521764540898 0.0 -0.0006349537873710564 0.0 0.0
-0.005387471823537167 0.003165387571174331 0.0 -0.0006864931422266086 0.0 0.0
-0.006892970857433305 0.004371294766227465 0.0 -0.0007626998314754438 0.0 0.0
-0.009062758167616869 0.006222230589429312 0.0 -0.0008778993048615988 0.0 0.0
-0.012232991994705374 0.009078451484856661 0.0 -0.0010986606775875776 0.0 0.0
-0.01673350206462923 0.013301261229135107 0.0 -0.0015289622459658187 0.0 0.0
-0.02273640412538041 0.019083736041766084 0.0 -0.0021952461235620535 0.0 0.0
-0.030148082909600596 0.02634976965854484 0.0 -0.0030366786668020755 0.0 0.0
-0.038516186371761095 0.034665761181234954 0.0 -0.0038321140270980527 0.0 0.0
-0.04670617981929431 0.042969430772289624 0.0 -0.004657857505865444 0.0 0.0
-0.0521265964451153 0.049016536222370274 0.0 -0.007487501624920637 0.0 0.0
-0.050050581234829146 0.0482490354082847 0.0 -0.016774790454458906 0.0 0.0
-0.04640472369609555 0.033264104205929235 0.0 4.982993184743378e-15 0.0 0.0
-0.05005058123482742 0.048249035408283715 0.0 0.01677479045446993 0.0 0.0
-0.05212659644511214 0.04901653622236779 0.0 0.007487501624933645 0.0 0.0
-0.04670617981929027 0.042969430772285606 0.0 0.004657857505872427 0.0 0.0
-0.038516186371756383 0.034665761181233504 0.0 0.003832114027100351 0.0 0.0
-0.03014808290959525 0.026349769658540086 0.0 0.0030366786668036124 0.0 0.0
-0.022736404125374646 0.019083736041763805 0.0 0.002195246123562766 0.0 0.0
-0.016733502064622843 0.013301261229129002 0.0 0.0015289622459656459 0.0 0.0
-0.012232991994698135 0.00907845148485157 0.0 0.0010986606775877758 0.0 0.0
-0.00906275816760926 0.006222230589423424 0.0 0.0008778993048604235 0.0 0.0
-0.006892970857426154 0.004371294766222631 0.0 0.0007626998314734584 0.0 0.0
-0.005387471823530695 0.0031653875711695314 0.0 0.000686493142225025 0.0 0.0
-0.004288424081150678 0.0023429521764500977 0.0 0.0006349537873708359 0.0 0.0
-0.003429181019072576 0.001748241600189809 0.0 0.0006025036642127969 0.0 0.0
-0.0026963980071013547 0.0012646536648005444 0.0 0.000565812659006382 0.0 0.0
-0.0020724264293691817 0.0008936275267162187 0.0 0.0005271866792500048 0.0 0.0
-0.0015692346176801493 0.0006798377190136132 0.0 0.0006874199938751301 0.0 0.0
-0.001101466629010384 0.0004821476185225507 0.0 0.0007555136091887567 0.0 0.0
-0.0006272638463047287 0.00025434792464622936 0.0 0.0007160278361952539 0.0 0.0
-0.00024029229291999986 1.9708226850249385e-05 0.0 0.0004480376590923402 0.0 0.0
-8.622039039193612e-05 -3.8334882956901237e-07 0.0 0.0002084226948238833 0.0 0.0
-8.341419237910681e-05 1.237281775659317e-05 0.0 -0.00012213410030668888 0.0 0.0
-0.00024128950467609134 5.176635009683201e-05 0.0 -0.00022467270081125439 0.0 0.0
-0.0006634115927506919 0.0002708124900617858 0.0 -0.00035018294849111853 0.0 0.0
-0.0012069002799186632 0.0005280806877136716 0.0 -0.0003736498816719025 0.0 0.0
-0.0017421188260734006 0.0007340985984762043 0.0 -0.0003348970974174939 0.0 0.0
-0.002341995586728134 0.0010351122927868038 0.0 -0.0002297685923027024 0.0 0.0
-0.003067569410759298 0.0015201582442476585 0.0 -0.00028157831930936887 0.0 0.0
-0.003884896217092807 0.002065685384828764 0.0 -0.0002837997299450222 0.0 0.0
-0.004862414923860764 0.0027735266165606846 0.0 -0.00029010786126656225 0.0 0.0
-0.0061244525557493735 0.0037466415459794086 0.0 -0.00030716764905237023 0.0 0.0
-0.0078603579887756 0.005166677600600829 0.0 -0.0003221582663347825 0.0 0.0
-0.0103639988210126 0.00733817565878042 0.0 -0.0003412446521535211 0.0 0.0
-0.014003588319573816 0.010656456292265616 0.0 -0.000451165105143377 0.0 0.0
-0.01910145759532833 0.01546542275222237 0.0 -0.0006817609515574433 0.0 0.0
-0.025811015868598783 0.021951995367649357 0.0 -0.001038920095326165 0.0 0.0
-0.03396279674979527 0.029975148800680855 0.0 -0.0015235503964385966 0.0 0.0
-0.042932398998229704 0.038926516314768136 0.0 -0.0019763344869525353 0.0 0.0
-0.05162142073653421 0.047672973808117275 0.0 -0.0021813104373477697 0.0 0.0
-0.05815864909273967 0.054387408945222364 0.0 -0.003050696786125251 0.0 0.0
-0.05734673228320855 0.055743046383733175 0.0 -0.01124919015396522 0.0 0.0
-0.05410541642498508 0.040575820933351596 0.0 4.26481766568898e-15 0.0 0.0
-0.05734673228320655 0.05574304638373066 0.0 0.011249190153971514 0.0 0.0
-0.05815864909273591 0.05438740894521797 0.0 0.0030506967861326662 0.0 0.0
-0.05162142073652952 0.04767297380811208 0.0 0.002181310437351343 0.0 0.0
-0.042932398998224146 0.03892651631476708 0.0 0.0019763344869540103 0.0 0.0
-0.03396279674978921 0.029975148800675935 0.0 0.001523550396440069 0.0 0.0
-0.025811015868592347 0.021951995367647466 0.0 0.0010389200953262409 0.0 0.0
-0.019101457595320954 0.015465422752215383 0.0 0.0006817609515573414 0.0 0.0
-0.014003588319565587 0.010656456292259874 0.0 0.0004511651051435464 0.0 0.0
-0.010363998821004259 0.007338175658772147 0.0 0.0003412446521527212 0.0 0.0
-0.007860357988767792 0.005166677600595053 0.0 0.0003221582663344031 0.0 0.0
-0.00612445255574218 0.0037466415459746615 0.0 0.0003071676490512728 0.0 0.0
-0.004862414923854069 0.002773526616556275 0.0 0.0002901078612664018 0.0 0.0
-0.0038848962170869995 0.0020656853848239932 0.0 0.00028379972994521603 0.0 0.0
-0.0030675694107546053 0.0015201582442440037 0.0 0.00028157831930834224 0.0 0.0
-0.002341995586725095 0.0010351122927854896 0.0 0.00022976859230299673 0.0 0.0
-0.0017421188260716993 0.000734098598476436 0.0 0.00033489709741750653 0.0 0.0
-0.001206900279917399 0.0005280806877128377 0.0 0.00037364988167130713 0.0 0.0
-0.0006634115927500452 0.00027081249006145175 0.0 0.00035018294849113306 0.0 0.0
-0.00024128950467585493 5.176635009659594e-05 0.0 0.0002246727008112723 0.0 0.0
-8.341419237889386e-05 1.2372817756667005e-05 0.0 0.00012213410030622842 0.0 0.0
-4.608394411706631e-05 9.483213807864582e-06 0.0 -8.102319418501315e-05 0.0 0.0
-0.00020687004221336041 6.19814703377717e-05 0.0 -9.436005597985542e-05 0.0 0.0
-0.000679079241390222 0.00027570883256137655 0.0 -0.00011931480882855402 0.0 0.0
-0.0013161373155971847 0.0005517022767341281 0.0 -0.0001335882414756462 0.0 0.0
-0.0019352973755198206 0.0007645632844482267 0.0 -0.00011113462300468373 0.0 0.0
-0.002626239384396493 0.0011062860738099544 0.0 -2.123664173971001e-05 0.0 0.0
-0.003440551326913556 0.0016505991330197534 0.0 -4.53917191485655e-05 0.0 0.0
-0.0043442260221656336 0.0022298513668497035 0.0 -2.5244121268074037e-05 0.0 0.0
-0.005445123972341783 0.002994760646505617 0.0 1.801011764308001e-05 0.0 0.0
-0.006877012057221817 0.004044535115732648 0.0 7.06987514776748e-05 0.0 0.0
-0.00885362444838177 0.005572391079680098 0.0 0.00018002014616540826 0.0 0.0
-0.011709843805483922 0.007910222949664602 0.0 0.0003472786017258273 0.0 0.0
-0.015817184714054067 0.011463414844094327 0.0 0.0004702052569252066 0.0 0.0
-0.02149280490604063 0.016556784974566623 0.0 0.0005891754244974682 0.0 0.0
-0.02888103788063036 0.023389745813496732 0.0 0.0006113769686429426 0.0 0.0
-0.03773337855961464 0.03178329757510364 0.0 0.00048032799400068863 0.0 0.0
-0.04725871346431046 0.04103274150000128 0.0 0.0002154546992604407 0.0 0.0
-0.05611634598969136 0.04992952218158331 0.0 -5.8285483408371426e-05 0.0 0.0
-0.06287424491840284 0.056752168562096875 0.0 -0.0002375563472733098 0.0 0.0
-0.06504407677327126 0.059596455558525566 0.0 -0.007311234534097329 0.0 0.0
-0.0645180710833862 0.044864422648862756 0.0 3.6637359812630166e-15 0.0 0.0
-0.06504407677326994 0.05959645555852165 0.0 0.007311234534100632 0.0 0.0
-0.06287424491839841 0.05675216856209015 0.0 0.00023755634727766484 0.0 0.0
-0.05611634598968529 0.04992952218157893 0.0 5.828548341008707e-05 0.0 0.0
-0.047258713464303555 0.04103274150000056 0.0 -0.0002154546992605231 0.0 0.0
-0.03773337855960774 0.03178329757509747 0.0 -0.0004803279939995858 0.0 0.0
-0.02888103788062306 0.023389745813494973 0.0 -0.0006113769686432254 0.0 0.0
-0.021492804906032448 0.01655678497456011 0.0 -0.000589175424497324 0.0 0.0
-0.015817184714045245 0.011463414844087699 0.0 -0.0004702052569251613 0.0 0.0
-0.011709843805474742 0.007910222949655356 0.0 -0.00034727860172663674 0.0 0.0
-0.008853624448373256 0.005572391079672194 0.0 -0.00018002014616460443 0.0 0.0
-0.006877012057214202 0.004044535115727632 0.0 -7.069875147796482e-05 0.0 0.0
-0.005445123972334443 0.0029947606465013494 0.0 -1.8010117643891426e-05 0.0 0.0
-0.004344226022159052 0.0022298513668439733 0.0 2.524412126845405e-05 0.0 0.0
-0.003440551326908142 0.0016505991330155534 0.0 4.539171914824756e-05 0.0 0.0
-0.0026262393843928004 0.0011062860738086384 0.0 2.123664174017055e-05 0.0 0.0
-0.0019352973755177114 0.0007645632844489893 0.0 0.00011113462300533524 0.0 0.0
-0.0013161373155957778 0.0005517022767330563 0.0 0.00013358824147533546 0.0 0.0
-0.0006790792413895655 0.0002757088325607721 0.0 0.00011931480882851002 0.0 0.0
-0.00020687004221329645 6.19814703378194e-05 0.0 9.436005598041845e-05 0.0 0.0
-4.608394411723117e-05 9.483213807932033e-06 0.0 8.102319418432723e-05 0.0 0.0
SCALARS Statev float 8
LOOKUP_TABLE default
0.0 0.006429384179570832 0.004738695081036188 -0.006047081382630241 0.0013083863015940565 -0.00036194343972906223 0.0 0.0
0.0 0.0012780517000151837 0.0007795720404512673 -0.0002627168290564675 -0.0005168552113948008 -0.0021050005894816294 0.0 0.0
0.0 -1.926691134135797e-05 -5.136409854384632e-07 9.262882889251965e-07 -4.1264730348631316e-07 3.0654615969720395e-06 0.0 0.0
0.0 7.149623777442509e-05 -1.102579996576422e-05 8.196748569717583e-06 2.829051396046456e-06 -2.2273404682893211e-07 0.0 0.0
0.0 0.00026867556646053864 -2.1065082685671816e-05 1.7217397204334238e-05 3.8476854813379e-06 1.487386533596038e-05 0.0 0.0
0.0 0.0003091080575655512 0.00041297345423783253 -0.00031012668756916857 -0.00010284676666866423 2.2640218270234962e-05 0.0 0.0
0.0 0.0009721238062152557 0.0009003742076747645 -0.0006910151073617094 -0.00020935910031305495 2.6329308467710706e-05 0.0 0.0
0.0 0.0016971133154206719 0.0015955301734074318 -0.0012482784016910173 -0.00034725177171641427 3.94010881107827e-05 0.0 0.0
0.0 0.002674173393480447 0.0025070758644868867 -0.0020085071457734346 -0.0004985687187134511 6.888783336140786e-05 0.0 0.0
0.0 0.00407103789311167 0.0037346896708408896 -0.0030702482170088747 -0.0006644414538320188 0.00011372982109714402 0.0 0.0
0.0 0.006116929392010183 0.0054777951994694285 -0.00462795406002566 -0.0008498411394437668 0.0002168931888278607 0.0 0.0
0.0 0.00888331533748904 0.00808218572172215 -0.007029421030799164 -0.0010527646909229784 0.0003859459200588852 0.0 0.0
0.0 0.013164293383429193 0.011916756502854776 -0.010665817582190304 -0.001250938920664461 0.000510442185726218 0.0 0.0
0.0 0.019262282049322732 0.017300778080653202 -0.01585622037489885 -0.0014445577057543503 0.0006290813014123753 0.0 0.0
0.0 0.02737437211622147 0.024405079488193683 -0.022778646196767092 -0.0016264332914266034 0.0006734092300466922 0.0 0.0
0.0 0.037372514292731605 0.033086428659147925 -0.031292885461236764 -0.0017935431979111726 0.0006145573059156883 0.0 0.0
0.0 0.04856472030485419 0.04278070814435353 -0.040837510335976476 -0.0019431978083770131 0.0004420863270513814 0.0 0.0
0.0 0.05979781017760248 0.05250177832656186 -0.05043171676516265 -0.002070061561399189 0.00019897753122215364 0.0 0.0
0.0 0.06963716847802387 0.06101075752541392 -0.05884535372104865 -0.002165403804365286 1.480443279355901e-05 0.0 0.0
0.0 0.07643255244416747 0.06706046486926245 -0.06484687388755105 -0.002213590981711367 -9.391261542692928e-05 0.0 0.0
0.0 0.07889972398347292 0.069337153570482 -0.06712591511345829 -0.0022112384570237083 9.354496344204932e-16 0.0 0.0
0.0 0.0764325524441671 0.06706046486926182 -0.0648468738875507 -0.00221359098171106 9.391261542988439e-05 0.0 0.0
0.0 0.06963716847801978 0.06101075752541023 -0.05884535372104552 -0.002165403804364741 -1.4804432788971967e-05 0.0 0.0
0.0 0.05979781017759758 0.05250177832655723 -0.05043171676515895 -0.0020700615613982723 -0.00019897753122026345 0.0 0.0
0.0 0.04856472030484981 0.042780708144349235 -0.040837510335973236 -0.0019431978083759953 -0.000442086327050233 0.0 0.0
0.0 0.03737251429272593 0.03308642865914261 -0.03129288546123221 -0.0017935431979104015 -0.0006145573059157446 0.0 0.0
0.0 0.027374372116215996 0.024405079488188586 -0.02277864619676267 -0.0016264332914259143 -0.0006734092300470913 0.0 0.0
0.0 0.019262282049314784 0.017300778080645944 -0.01585622037489238 -0.0014445577057535602 -0.0006290813014124967 0.0 0.0
0.0 0.0131642933834214 0.011916756502847594 -0.010665817582184142 -0.0012509389206634546 -0.000510442185726444 0.0 0.0
0.0 0.008883315337481204 0.008082185721714914 -0.007029421030792742 -0.0010527646909221713 -0.0003859459200592205 0.0 0.0
0.0 0.006116929392003399 0.005477795199462969 -0.004627954060020245 -0.0008498411394427213 -0.0002168931888281613 0.0 0.0
0.0 0.004071037893105236 0.003734689670835071 -0.003070248217003878 -0.0006644414538311945 -0.00011372982109735109 0.0 0.0
0.0 0.0026741733934751728 0.0025070758644815806 -0.0020085071457691464 -0.0004985687187124353 -6.888783336157355e-05 0.0 0.0
0.0 0.0016971133154163064 0.0015955301734027882 -0.0012482784016872635 -0.00034725177171552343 -3.940108811080776e-05 0.0 0.0
0.0 0.0009721238062127619 0.0009003742076713996 -0.0006910151073590774 -0.0002093591003123222 -2.6329308467818215e-05 0.0 0.0
0.0 0.00030910805756406885 0.0004129734542357048 -0.0003101266875675416 -0.00010284676666816313 -2.264021827007367e-05 0.0 0.0
0.0 0.0002686755664590653 -2.106508268605e-05 1.7217397204603005e-05 3.847685481446454e-06 -1.4873865335847877e-05 0.0 0.0
0.0 7.149623777388238e-05 -1.1025799965659802e-05 8.196748569641746e-06 2.8290513960185217e-06 2.2273404684293704e-07 0.0 0.0
0.0 -1.9266911341639044e-05 -5.136409852759004e-07 9.262882888233246e-07 -4.1264730354741674e-07 -3.06546159711826e-06 0.0 0.0
0.0 0.0012780517000130112 0.0007795720404504432 -0.0002627168290562672 -0.0005168552113941747 0.0021050005894793136 0.0 0.0
0.0 0.00642938417956425 0.004738695081032046 -0.0060470813826233386 0.0013083863015912883 0.0003619434397201121 0.0 0.0
0.0 0.005007051008820291 0.0034035137818997406 -0.004748043284880954 0.001344529502981212 -9.69711526032243e-05 0.0 0.0
0.0 0.0003824841757595303 0.00026663844658541543 2.9587596793292234e-05 -0.0002962260433787069 -0.0011490109424028296 0.0 0.0
0.0 1.4576576872083862e-05 -2.1772417013171038e-06 2.0260417925410755e-06 1.5119990877584418e-07 1.473545859632882e-06 0.0 0.0
0.0 7.467978065355359e-06 -7.961622931434474e-07 5.360292496322876e-07 2.6013304351136995e-07 1.594436540044148e-07 0.0 0.0
0.0 8.035900457298848e-05 -1.6751128379419226e-05 1.2739402789603572e-05 4.011725589814864e-06 3.2655056136459855e-08 0.0 0.0
0.0 0.0003393050782259792 0.00016250867012950653 -0.00012116064077073453 -4.134802935877184e-05 3.2887374962893084e-05 0.0 0.0
0.0 0.0007220790822557762 0.0006772201307536173 -0.0005265384399441558 -0.0001506816908094612 -2.8557119062783837e-05 0.0 0.0
0.0 0.0013862459552183366 0.0012863561358618524 -0.0010189714324800806 -0.00026738470338177184 -5.5109058062152326e-05 0.0 0.0
0.0 0.002274154630165966 0.002092183719701374 -0.0016964106595515353 -0.00039577306014983914 -8.044615839294619e-05 0.0 0.0
0.0 0.0034761986584888544 0.0031833323689784182 -0.002649097022870052 -0.0005342353461083659 -0.00010594740697655386 0.0 0.0
0.0 0.005235305074794633 0.004734810290040145 -0.004053743669787097 -0.0006810666202530496 -0.00012848710827331606 0.0 0.0
0.0 0.007999725293674658 0.007039011014327597 -0.006212508852163734 -0.0008265021621638631 -0.00014979179700961372 0.0 0.0
0.0 0.01165082690446508 0.010493033125021934 -0.00953815663709906 -0.0009548764879228736 -0.00026383035861864455 0.0 0.0
0.0 0.01728634217718491 0.01540277019498534 -0.01434730111749128 -0.0010554690774940694 -0.0005043566937003366 0.0 0.0
0.0 0.024803535057789435 0.02194356992315722 -0.02081575480582502 -0.0011278151173321792 -0.0008510848720124226 0.0 0.0
0.0 0.03407932791933496 0.029982280103976904 -0.028811381308791857 -0.0011708987951850494 -0.0012939555907702 0.0 0.0
0.0 0.04451950322184726 0.038980795154695845 -0.037795015894997834 -0.0011857792596980275 -0.0017432314807598536 0.0 0.0
0.0 0.05506472977388116 0.04802752963403352 -0.04684762843686522 -0.0011799011971683094 -0.00200908300083005 0.0 0.0
0.0 0.06434233501533979 0.05598626757325406 -0.0548239024389144 -0.0011623651343396792 -0.001867200138415559 0.0 0.0
0.0 0.07095840340335999 0.06162822956745718 -0.06050258489973246 -0.001125644667724707 -0.001315428644143598 0.0 0.0
0.0 0.07351708626372129 0.06374174856736142 -0.06266540424704913 -0.001076344320312248 2.684267738639612e-15 0.0 0.0
0.0 0.07095840340335934 0.06162822956745646 -0.06050258489973188 -0.0011256446677245606 0.001315428644149937 0.0 0.0
0.0 0.06434233501533666 0.05598626757325123 -0.054823902438911956 -0.00116236513433927 0.0018672001384228984 0.0 0.0
0.0 0.05506472977387732 0.04802752963402987 -0.04684762843686219 -0.00117990119716767 0.002009083000834011 0.0 0.0
0.0 0.04451950322184445 0.038980795154693056 -0.037795015894995884 -0.001185779259697172 0.0017432314807611733 0.0 0.0
0.0 0.03407932791933055 0.029982280103972744 -0.02881138130878829 -0.0011708987951844364 0.001293955590770229 0.0 0.0
0.0 0.02480353505778359 0.021943569923151884 -0.020815754805820333 -0.001127815117331559 0.0008510848720124056 0.0 0.0
0.0 0.017286342177178185 0.015402770194979262 -0.014347301117485793 -0.0010554690774934544 0.0005043566937004119 0.0 0.0
0.0 0.011650826904458102 0.01049303312501554 -0.009538156637093436 -0.0009548764879221049 0.0002638303586183801 0.0 0.0
0.0 0.00799972529366782 0.007039011014321024 -0.006212508852157852 -0.0008265021621631703 0.00014979179700916768 0.0 0.0
0.0 0.005235305074788519 0.004734810290034444 -0.004053743669782258 -0.0006810666202521866 0.0001284871082728907 0.0 0.0
0.0 0.003476198658483877 0.0031833323689732414 -0.00264909702286565 -0.0005342353461075908 0.0001059474069761311 0.0 0.0
0.0 0.0022741546301616343 0.0020921837196965724 -0.0016964106595475374 -0.0003957730601490344 8.044615839257814e-05 0.0 0.0
0.0 0.001386245955214302 0.001286356135857505 -0.0010189714324765305 -0.0002673847033809741 5.510905806175241e-05 0.0 0.0
0.0 0.0007220790822532873 0.0006772201307505405 -0.0005265384399416968 -0.00015068169080884337 2.855711906249883e-05 0.0 0.0
0.0 0.00033930507822396873 0.00016250867012813287 -0.00012116064076968445 -4.1348029358448525e-05 -3.288737496280915e-05 0.0 0.0
0.0 8.035900457201164e-05 -1.675112837942136e-05 1.2739402789601075e-05 4.011725589820414e-06 -3.265505606868695e-08 0.0 0.0
0.0 7.467978065023354e-06 -7.961622930962181e-07 5.360292495970548e-07 2.601330434990899e-07 -1.5944365400420054e-07 0.0 0.0
0.0 1.4576576872046372e-05 -2.1772417013184053e-06 2.026041792533632e-06 1.5119990878453884e-07 -1.473545859592016e-06 0.0 0.0
0.0 0.00038248417575779286 0.000266638446584607 2.9587596793587232e-05 -0.0002962260433781938 0.0011490109423999174 0.0 0.0
0.0 0.005007051008813157 0.0034035137818948413 -0.004748043284873519 0.0013445295029786755 9.697115259721515e-05 0.0 0.0
0.0 0.0034013539801279226 0.0022615570006260586 -0.0032486937261468124 0.000987136725520754 -0.0009778210016224958 0.0 0.0
0.0 0.0001673153281030226 8.260118509827945e-05 9.380479072554901e-05 -0.00017640597582382848 -0.0006335844111580639 0.0 0.0
0.0 0.0 0.0 0.0 0.0 0.0 0.0 0.0
0.0 1.27724525485662e-07 5.426675534727552e-08 -4.31666704806593e-08 -1.1100084866660633e-08 -2.3965476913465976e-07 0.0 0.0
0.0 2.9322472601575267e-05 -4.775830237469628e-06 3.5967894720090268e-06 1.1790407654613717e-06 2.7073992393218897e-07 0.0 0.0
0.0 0.00021631166846814202 2.7190360603050403e-05 -1.929805654782289e-05 -7.892304055228686e-06 2.467806785649994e-05 0.0 0.0
0.0 0.00041850934687595343 0.0004442212319853671 -0.0003418644366195499 -0.00010235679536581692 -7.360725248060766e-05 0.0 0.0
0.0 0.0010167365716353318 0.0009415574914140474 -0.0007388070786159621 -0.00020275041279808537 -0.00014547173114889288 0.0 0.0
0.0 0.0017335290383132325 0.0016244723774927789 -0.0013000135815561275 -0.0003244587959366515 -0.0002133259800714156 0.0 0.0
0.0 0.0027893005867444015 0.002548020473273793 -0.0020910519242911063 -0.0004569685489826869 -0.00028801213124964357 0.0 0.0
0.0 0.004303294626119595 0.003872208931120932 -0.0032705613562619036 -0.000601647574859027 -0.0003776628274387088 0.0 0.0
0.0 0.006471557012036281 0.005855696459105962 -0.005104424552755837 -0.0007512719063501271 -0.000502610929602484 0.0 0.0
0.0 0.01004325925563468 0.008829788069256153 -0.007944669013255442 -0.0008851190560007058 -0.0007328748425929523 0.0 0.0
0.0 0.014743357900954582 0.013161799376873284 -0.012171854538332931 -0.0009899448385403504 -0.0011796031165151348 0.0 0.0
0.0 0.021480955771879466 0.01900334708661472 -0.01794176527397645 -0.0010615818126382692 -0.0018469143688985014 0.0 0.0
0.0 0.02983082384754875 0.026234303830470453 -0.025131507891433678 -0.0011027959390367643 -0.0026657371342708094 0.0 0.0
0.0 0.03925479981223791 0.03437395897062456 -0.03325528518544849 -0.001118673785176079 -0.003462185257929877 0.0 0.0
0.0 0.04880900330458156 0.0426163576955245 -0.04149962800706917 -0.001116729688455265 -0.003901332623391045 0.0 0.0
0.0 0.05731800313253475 0.04993040491563219 -0.048832277799444025 -0.0010981271161881702 -0.003623677246628284 0.0 0.0
0.0 0.06342832464880097 0.0551588125872771 -0.05409225433855211 -0.0010665582487250009 -0.002543175096134313 0.0 0.0
0.0 0.06583660011444857 0.05715800629693362 -0.0561565190180432 -0.0010014872788904495 5.0337338464157e-15 0.0 0.0
0.0 0.06342832464879976 0.05515881258727574 -0.05409225433855061 -0.0010665582487250894 0.0025431750961459744 0.0 0.0
0.0 0.05731800313253242 0.04993040491562993 -0.04883227779944204 -0.001098127116187903 0.0036236772466400943 0.0 0.0
0.0 0.048809003304578984 0.042616357695521925 -0.04149962800706711 -0.001116729688454822 0.0039013326233984925 0.0 0.0
0.0 0.03925479981223579 0.034373958970622405 -0.03325528518544728 -0.0011186737851751282 0.003462185257932694 0.0 0.0
0.0 0.029830823847544936 0.02623430383046692 -0.02513150789143057 -0.0011027959390363439 0.0026657371342706567 0.0 0.0
0.0 0.02148095577187411 0.019003347086609747 -0.01794176527397222 -0.0010615818126375354 0.0018469143688986936 0.0 0.0
0.0 0.01474335790094916 0.013161799376868365 -0.01217185453832848 -0.0009899448385398872 0.0011796031165155272 0.0 0.0
0.0 0.010043259255628711 0.00882978806925044 -0.007944669013250402 -0.0008851190560000293 0.0007328748425924866 0.0 0.0
0.0 0.0064715570120298166 0.005855696459100044 -0.005104424552750615 -0.0007512719063494279 0.0005026109296016178 0.0 0.0
0.0 0.004303294626114955 0.0038722089311157685 -0.0032705613562575182 -0.0006016475748582503 0.00037766282743776426 0.0 0.0
0.0 0.002789300586739887 0.002548020473268882 -0.00209105192428699 -0.0004569685489818913 0.00028801213124883106 0.0 0.0
0.0 0.0017335290383093777 0.001624472377488735 -0.001300013581552708 -0.00032445879593602706 0.00021332598007088875 0.0 0.0
0.0 0.0010167365716321148 0.0009415574914103028 -0.000738807078612951 -0.0002027504127973516 0.00014547173114802132 0.0 0.0
0.0 0.00041850934687343223 0.00044422123198271094 -0.0003418644366174265 -0.00010235679536528446 7.360725248008819e-05 0.0 0.0
0.0 0.00021631166846676112 2.719036060250846e-05 -1.929805654742833e-05 -7.892304055079977e-06 -2.467806785639056e-05 0.0 0.0
0.0 2.932247260063351e-05 -4.775830237308816e-06 3.5967894718861596e-06 1.1790407654227743e-06 -2.707399238793195e-07 0.0 0.0
0.0 1.2772452539378433e-07 5.4266755361972704e-08 -4.3166670491817795e-08 -1.1100084870130398e-08 2.3965476912932133e-07 0.0 0.0
0.0 0.0 0.0 0.0 0.0 0.0 0.0 0.0
0.0 0.00016731532810162358 8.260118509732738e-05 9.380479072603457e-05 -0.00017640597582336192 0.0006335844111549873 0.0 0.0
0.0 0.003401353980120975 0.0022615570006212665 -0.0032486937261396133 0.0009871367255183466 0.0009778210016180829 0.0 0.0
0.0 0.002357378978757268 0.001512993248297264 -0.0022073029289897705 0.0006943096806925051 -0.0010634218590390074 0.0 0.0
0.0 1.7001199858464612e-05 5.087222056616751e-06 9.84252915985412e-05 -0.0001035125136551578 -0.00031305142099556735 0.0 0.0
0.0 0.0 0.0 0.0 0.0 0.0 0.0 0.0
0.0 1.5577488511136983e-07 -1.7111940473694512e-08 1.3095069537840244e-08 4.016870935854777e-09 1.1827551293447271e-08 0.0 0.0
0.0 2.174299420605352e-05 -3.2547729343703144e-06 2.4402514119472185e-06 8.145215224230275e-07 7.130409042448373e-07 0.0 0.0
0.0 4.819831367434385e-05 -2.0943326080110785e-05 1.6120896504892903e-05 4.822429575218502e-06 1.0117173422771987e-05 0.0 0.0
0.0 0.0003156593353259998 0.0001679034187182878 -0.0001264358523623992 -4.146756635588911e-05 -1.2546325410490605e-05 0.0 0.0
0.0 0.0006783389186470938 0.0006237204818360711 -0.0004854645159456974 -0.00013825596589037357 -0.00017863839838399133 0.0 0.0
0.0 0.001277654837841946 0.0011831494116917294 -0.000935506604597344 -0.00024764280709438466 -0.00028799709223803287 0.0 0.0
0.0 0.00213783862265496 0.0019471307224745587 -0.0015738676144637065 -0.00037326310801085203 -0.0004008527598090114 0.0 0.0
0.0 0.0033394799283032353 0.00305548306259947 -0.0025406171891653737 -0.0005148658734340967 -0.0005427325960987996 0.0 0.0
0.0 0.005271131593426621 0.0047136487866568265 -0.004049084335372544 -0.0006645644512842812 -0.0007410127680207089 0.0 0.0
0.0 0.008015537058833658 0.007248671040862783 -0.006440728316507478 -0.0008079427243553006 -0.0010756438873917367 0.0 0.0
0.0 0.012519660162453296 0.010967054564466457 -0.010049262920872567 -0.0009177916435938983 -0.0016530396059636942 0.0 0.0
0.0 0.01831588974090649 0.0160793562335585 -0.015088046295279097 -0.000991309938279393 -0.0025326755752116065 0.0 0.0
0.0 0.025528372337149552 0.02247531816134438 -0.021441718258031112 -0.001033599903313292 -0.003637656288311075 0.0 0.0
0.0 0.034007597709985384 0.029727511954293608 -0.028676414386472344 -0.0010510975678212618 -0.004701073724808482 0.0 0.0
0.0 0.04262155547470017 0.037149990331805306 -0.036098113200586444 -0.0010518771312189082 -0.005291399288568052 0.0 0.0
0.0 0.050359679189411824 0.0438324766399918 -0.0427959542463471 -0.0010365223936446533 -0.0049789611302646425 0.0 0.0
0.0 0.05599355602759433 0.04871427573025145 -0.047707571529783166 -0.0010067042004682871 -0.0034833063836740325 0.0 0.0
0.0 0.05833527446277989 0.050652934162705096 -0.049738199330129594 -0.0009147348325754803 6.759350024143629e-15 0.0 0.0
0.0 0.05599355602759295 0.04871427573024979 -0.047707571529781403 -0.0010067042004684094 0.0034833063836892143 0.0 0.0
0.0 0.05035967918940966 0.04383247663998959 -0.04279595424634517 -0.0010365223936443877 0.004978961130278784 0.0 0.0
0.0 0.042621555474697585 0.03714999033180277 -0.036098113200584175 -0.0010518771312185886 0.00529139928857678 0.0 0.0
0.0 0.03400759770998298 0.02972751195429122 -0.02867641438647076 -0.0010510975678204543 0.0047010737248118 0.0 0.0
0.0 0.02552837233714609 0.022475318161341157 -0.02144171825802831 -0.0010335999033128265 0.003637656288311071 0.0 0.0
0.0 0.01831588974090276 0.016079356233555005 -0.015088046295276148 -0.0009913099382788616 0.0025326755752116165 0.0 0.0
0.0 0.012519660162448619 0.010967054564462043 -0.01004926292086849 -0.0009177916435935421 0.0016530396059636784 0.0 0.0
0.0 0.008015537058828154 0.007248671040857782 -0.006440728316503084 -0.0008079427243547003 0.0010756438873911014 0.0 0.0
0.0 0.005271131593422193 0.004713648786652012 -0.004049084335368303 -0.0006645644512837075 0.0007410127680193774 0.0 0.0
0.0 0.003339479928298823 0.0030554830625948333 -0.002540617189161413 -0.0005148658734334206 0.0005427325960975396 0.0 0.0
0.0 0.002137838622651026 0.0019471307224705112 -0.0015738676144603134 -0.0003732631080101973 0.00040085275980799326 0.0 0.0
0.0 0.0012776548378392904 0.00118314941168845 -0.0009355066045946167 -0.00024764280709383335 0.0002879970922372048 0.0 0.0
0.0 0.0006783389186443009 0.00062372048183323 -0.0004854645159435023 -0.0001382559658897277 0.00017863839838298552 0.0 0.0
0.0 0.00031565933532368037 0.00016790341871663115 -0.0001264358523611014 -4.1467566355529255e-05 1.2546325409995506e-05 0.0 0.0
0.0 4.819831367341454e-05 -2.0943326079989856e-05 1.6120896504794556e-05 4.822429575195026e-06 -1.0117173422578427e-05 0.0 0.0
0.0 2.174299420565945e-05 -3.2547729343139007e-06 2.44025141190664e-06 8.145215224073358e-07 -7.130409042322554e-07 0.0 0.0
0.0 1.557748850902149e-07 -1.7111940471246127e-08 1.3095069535966857e-08 4.016870935279761e-09 -1.1827551291741425e-08 0.0 0.0
0.0 0.0 0.0 0.0 0.0 0.0 0.0 0.0
0.0 1.7001199857080926e-05 5.0872220558073395e-06 9.842529159900958e-05 -0.00010351251365481692 0.000313051420992917 0.0 0.0
0.0 0.0023573789787520055 0.0015129932482931354 -0.0022073029289835767 0.00069430968069044 0.0010634218590351747 0.0 0.0
0.0 0.001499632982451171 0.000997907034128683 -0.0014566048221405737 0.0004586977880118906 -0.0009339992903553319 0.0 0.0
0.0 9.104344275081908e-05 -6.847330592090657e-05 0.0001293934486905991 -6.0920142769692396e-05 -1.8329134300624858e-05 0.0 0.0
0.0 0.0 0.0 0.0 0.0 0.0 0.0 0.0
0.0 0.0 0.0 0.0 0.0 0.0 0.0 0.0
0.0 -1.3850642685601518e-05 1.7543943814269236e-06 -1.3594004070829986e-06 -3.949939743439758e-07 -1.9012989722341262e-06 0.0 0.0
0.0 6.703641250175452e-05 -8.332215565272325e-06 6.3080725600920685e-06 2.0241430051804505e-06 6.958537091000747e-06 0.0 0.0
0.0 0.0001947612783025053 -3.282616214232379e-05 2.603086781821633e-05 6.795294324107224e-06 3.9715587064364096e-05 0.0 0.0
0.0 0.00038857339262506616 0.0003370271457418203 -0.0002595454627913429 -7.748168295047697e-05 -0.00012655147018971293 0.0 0.0
0.0 0.0008669400675093306 0.0007804281135487958 -0.0006111687055984956 -0.00016925940795029976 -0.0003025450911969089 0.0 0.0
0.0 0.001516995873915125 0.0013908511734912947 -0.0011070683505937685 -0.00028378282289752546 -0.00044692213823816266 0.0 0.0
0.0 0.0025051303025507227 0.002281098124422362 -0.0018638208998938055 -0.00041727722452855517 -0.0006233064941897502 0.0 0.0
0.0 0.004050428491784483 0.0036325021766816863 -0.0030657465361639937 -0.000566755640517691 -0.0008694478981915551 0.0 0.0
0.0 0.00653260021770899 0.0057167938118151485 -0.005001703149154988 -0.0007150906626601624 -0.0012671648751335603 0.0 0.0
0.0 0.009931797911793987 0.008853007856515674 -0.0080149854760216 -0.0008380223804940732 -0.0019316130782409328 0.0 0.0
0.0 0.015082229432813279 0.013206008620670034 -0.012289387594029408 -0.0009166210266406247 -0.0029379394629580795 0.0 0.0
0.0 0.021580455921000826 0.018720752690509827 -0.017760997563948357 -0.0009597551265614532 -0.004200462757352402 0.0 0.0
0.0 0.02878920491441692 0.025058765664512764 -0.024077864492379437 -0.0009809011721333154 -0.0054288047850804865 0.0 0.0
0.0 0.0363990491829959 0.031635321360678835 -0.030648601274719085 -0.0009867200859597276 -0.006168677392806473 0.0 0.0
0.0 0.04339548381567691 0.03768365379175797 -0.03670758796352858 -0.0009760658282294022 -0.00590212173752557 0.0 0.0
0.0 0.04867104636510924 0.042259260379978125 -0.041314093416369435 -0.0009451669636087006 -0.004179194031425168 0.0 0.0
0.0 0.05100144719021228 0.04417335865585176 -0.04335399929120046 -0.0008193593646513008 7.212112851373575e-15 0.0 0.0
0.0 0.04867104636510642 0.0422592603799752 -0.041314093416366285 -0.000945166963608888 0.00417919403144087 0.0 0.0
0.0 0.04339548381567505 0.0376836537917558 -0.036707587963526564 -0.0009760658282292473 0.005902121737540613 0.0 0.0
0.0 0.03639904918299344 0.031635321360676275 -0.030648601274716927 -0.0009867200859593511 0.006168677392815669 0.0 0.0
0.0 0.02878920491441521 0.025058765664511005 -0.02407786449237832 -0.0009809011721326742 0.005428804785083445 0.0 0.0
0.0 0.021580455920997763 0.018720752690506885 -0.017760997563945866 -0.0009597551265610326 0.004200462757352244 0.0 0.0
0.0 0.015082229432809976 0.013206008620666917 -0.012289387594026672 -0.0009166210266402471 0.0029379394629577508 0.0 0.0
0.0 0.0099317979117905 0.008853007856512407 -0.008014985476018673 -0.0008380223804937342 0.0019316130782408608 0.0 0.0
0.0 0.0065326002177051685 0.00571679381181103 -0.005001703149151433 -0.0007150906626595979 0.0012671648751327502 0.0 0.0
0.0 0.004050428491780439 0.0036325021766775594 -0.003065746536160438 -0.0005667556405171216 0.0008694478981900091 0.0 0.0
0.0 0.00250513030254625 0.0022810981244180384 -0.0018638208998902064 -0.000417277224527831 0.0006233064941878035 0.0 0.0
0.0 0.001516995873912446 0.001390851173488248 -0.001107068350591321 -0.0002837828228969262 0.00044692213823711055 0.0 0.0
0.0 0.0008669400675067886 0.0007804281135462734 -0.0006111687055964845 -0.00016925940794978861 0.0003025450911958818 0.0 0.0
0.0 0.00038857339262280213 0.00033702714573957893 -0.0002595454627895858 -7.748168294999357e-05 0.00012655147018870004 0.0 0.0
0.0 0.00019476127830113973 -3.282616214261484e-05 2.6030867818422107e-05 6.795294324192756e-06 -3.971558706429584e-05 0.0 0.0
0.0 6.703641250071356e-05 -8.332215565118277e-06 6.308072559975375e-06 2.024143005143059e-06 -6.958537090871831e-06 0.0 0.0
0.0 -1.3850642685347342e-05 1.7543943813921658e-06 -1.3594004070568841e-06 -3.949939743352939e-07 1.9012989722016756e-06 0.0 0.0
0.0 0.0 0.0 0.0 0.0 0.0 0.0 0.0
0.0 0.0 0.0 0.0 0.0 0.0 0.0 0.0
0.0 9.104344274885417e-05 -6.847330592139818e-05 0.00012939344869088458 -6.092014276948604e-05 1.832913429894226e-05 0.0 0.0
0.0 0.0014996329824472597 0.0009979070341256141 -0.0014566048221359323 0.00045869778801031855 0.0009339992903523826 0.0 0.0
0.0 0.0009704966890522343 0.0005993249705088386 -0.0008748390072381324 0.00027551403672929396 -0.0006612230222774605 0.0 0.0
0.0 -5.84420734515518e-05 -6.797301686570663e-05 0.00010410268372831733 -3.612966686261097e-05 6.312103937069085e-05 0.0 0.0
0.0 0.0 0.0 0.0 0.0 0.0 0.0 0.0
0.0 0.0 0.0 0.0 0.0 0.0 0.0 0.0
0.0 -2.3806609761591023e-06 1.958813673976968e-07 -1.5015590990785677e-07 -4.572545748982982e-08 -4.2925780229412747e-07 0.0 0.0
0.0 8.4993365584597e-06 -3.740797650348426e-07 2.6131473233828825e-07 1.1276503269645161e-07 7.264829958755589e-07 0.0 0.0
0.0 5.407970670535371e-06 -1.611509178770916e-05 1.2581480572104916e-05 3.533611215604557e-06 1.6142144068855748e-05 0.0 0.0
0.0 0.00033794223994422913 1.548678103404432e-05 -1.1347090239099836e-05 -4.1396907949453385e-06 1.9264777395996413e-05 0.0 0.0
0.0 0.000409665725805804 0.00044977345021153596 -0.0003489601100091816 -0.00010081334020235403 -0.0002551228541406572 0.0 0.0
0.0 0.0009975514156944907 0.0008813369463330807 -0.0006927804490101047 -0.0001885564973229762 -0.00042226100569879766 0.0 0.0
0.0 0.0017266465877025076 0.0015638339443505539 -0.001253646072387344 -0.00031018787196321037 -0.0006173124089336096 0.0 0.0
0.0 0.0028976320303582092 0.002618754014125409 -0.0021647195594245135 -0.0004540344547008951 -0.0008891320534620982 0.0 0.0
0.0 0.004791454736317505 0.004276879558681911 -0.003668964019497693 -0.0006079155391842162 -0.0013120704717144995 0.0 0.0
0.0 0.007802709595557588 0.006806343141412976 -0.006064917074836111 -0.0007414260665768616 -0.0020012709713091168 0.0 0.0
0.0 0.011936992051329968 0.010399767631137508 -0.009567422166468099 -0.0008323454646694083 -0.003052530473352782 0.0 0.0
0.0 0.017200531826415608 0.015023561569089626 -0.014141178197656102 -0.0008823833714335099 -0.004382268576098435 0.0 0.0
0.0 0.02375599397155867 0.020393068995239124 -0.019487815522464084 -0.000905253472775038 -0.005671126686134093 0.0 0.0
0.0 0.030262618518917764 0.026076392252952503 -0.025158499111904094 -0.0009178931410484265 -0.006498560164525417 0.0 0.0
0.0 0.036307333460450376 0.03147250622575586 -0.030556892514915078 -0.0009156137108407778 -0.006358262064378121 0.0 0.0
0.0 0.04130085692754193 0.035758597530198354 -0.03487559256698279 -0.0008830049632155453 -0.004633047421781476 0.0 0.0
0.0 0.04367269034411844 0.037675645379780645 -0.036959938922897714 -0.0007157064568829165 7.035171056823941e-15 0.0 0.0
0.0 0.041300856927538473 0.035758597530194815 -0.03487559256697895 -0.0008830049632158508 0.0046330474217967064 0.0 0.0
0.0 0.03630733346044844 0.031472506225753503 -0.030556892514912722 -0.0009156137108407832 0.006358262064393108 0.0 0.0
0.0 0.030262618518914673 0.026076392252949485 -0.025158499111901246 -0.0009178931410482233 0.006498560164533953 0.0 0.0
0.0 0.023755993971557046 0.020393068995237566 -0.019487815522462933 -0.000905253472774642 0.005671126686137384 0.0 0.0
0.0 0.01720053182641304 0.01502356156908713 -0.014141178197653934 -0.0008823833714331952 0.00438226857609819 0.0 0.0
0.0 0.011936992051326598 0.01039976763113447 -0.009567422166465323 -0.0008323454646691494 0.0030525304733519812 0.0 0.0
0.0 0.007802709595554664 0.006806343141409856 -0.006064917074833447 -0.0007414260665764097 0.0020012709713087555 0.0 0.0
0.0 0.004791454736313966 0.004276879558678526 -0.003668964019494782 -0.0006079155391837414 0.001312070471713518 0.0 0.0
0.0 0.002897632030354746 0.0026187540141219064 -0.0021647195594214773 -0.0004540344547004281 0.0008891320534606578 0.0 0.0
0.0 0.0017266465876990442 0.001563833944347119 -0.0012536460723845237 -0.0003101878719625943 0.0006173124089315981 0.0 0.0
0.0 0.0009975514156921777 0.0008813369463307867 -0.0006927804490083438 -0.00018855649732244268 0.0004222610056975881 0.0 0.0
0.0 0.0004096657258045189 0.0004497734502095558 -0.0003489601100076038 -0.00010081334020195181 0.0002551228541395455 0.0 0.0
0.0 0.000337942239942006 1.548678103298063e-05 -1.134709023828358e-05 -4.139690794697326e-06 -1.9264777396628534e-05 0.0 0.0
0.0 5.407970669778872e-06 -1.6115091787393255e-05 1.2581480571862116e-05 3.53361121553163e-06 -1.6142144068590298e-05 0.0 0.0
0.0 8.499336557279714e-06 -3.740797648836416e-07 2.613147322228177e-07 1.1276503266066123e-07 -7.264829956854379e-07 0.0 0.0
0.0 -2.380660975978e-06 1.958813673799111e-07 -1.501559098940211e-07 -4.572545748585105e-08 4.2925780226286724e-07 0.0 0.0
0.0 0.0 0.0 0.0 0.0 0.0 0.0 0.0
0.0 0.0 0.0 0.0 0.0 0.0 0.0 0.0
0.0 -5.8442073452719615e-05 -6.797301686574117e-05 0.0001041026837281993 -3.6129666862458164e-05 -6.312103937116346e-05 0.0 0.0
0.0 0.0009704966890493715 0.0005993249705062159 -0.000874839007234266 0.0002755140367280496 0.0006612230222745271 0.0 0.0
0.0 0.0004314779112388684 0.00031539635160280515 -0.00045991603197214877 0.00014451968036934324 -0.00038964735599556475 0.0 0.0
0.0 -1.9398885928304604e-05 -4.942773378500049e-05 6.939090965216158e-05 -1.9963175867161015e-05 6.945352822992623e-05 0.0 0.0
0.0 0.0 0.0 0.0 0.0 0.0 0.0 0.0
0.0 0.0 0.0 0.0 0.0 0.0 0.0 0.0
0.0 8.975772346098397e-07 -8.732746232459648e-08 6.653917227783815e-08 2.078829004675527e-08 1.5902613341525837e-07 0.0 0.0
0.0 -1.2783113961035625e-05 8.483786792716348e-07 -6.211789864055158e-07 -2.2719969286612268e-07 -1.6354018615145112e-06 0.0 0.0
0.0 4.6116056624966337e-05 -2.791456557565382e-06 1.973660204531213e-06 8.177963530342268e-07 2.9338947856963805e-06 0.0 0.0
0.0 5.777982841045915e-07 -2.2138848825029484e-05 1.7550278470023702e-05 4.588570355006003e-06 3.284583420684106e-05 0.0 0.0
0.0 0.0004130925741716682 3.99545828192467e-05 -3.148533469638994e-05 -8.469248122856706e-06 -8.486549365165997e-06 0.0 0.0
0.0 0.00045006663338121493 0.00046682253333013606 -0.0003636106594837611 -0.00010321187384637482 -0.0003294357663703064 0.0 0.0
0.0 0.0010574949972020117 0.0009168811753487069 -0.0007232055788077546 -0.0001936755965409519 -0.0005277535688638599 0.0 0.0
0.0 0.0019040042218093926 0.001680844431134562 -0.0013577306153034461 -0.00032311381583111445 -0.0007962911409589333 0.0 0.0
0.0 0.0032972962166602114 0.002921622762048296 -0.0024456846629437342 -0.00047593809910455905 -0.0012092967878455112 0.0 0.0
0.0 0.00554507245702981 0.004868104520438757 -0.004245466503799825 -0.0006226380166389325 -0.0018716382065030606 0.0 0.0
0.0 0.008797849298555128 0.007688746397033867 -0.006957167636966793 -0.000731578760067072 -0.0028732433658465394 0.0 0.0
0.0 0.013391252514793403 0.011383854553369533 -0.01059234895674112 -0.0007915055966284199 -0.004161018085370203 0.0 0.0
0.0 0.01819756694047439 0.015777495159945722 -0.014954246393328057 -0.0008232487666176666 -0.005447490519886765 0.0 0.0
0.0 0.02391470015817374 0.02050739283677344 -0.01966372583801287 -0.0008436669987605908 -0.006308579233025166 0.0 0.0
0.0 0.029465701978527607 0.025183721483753096 -0.02433249775645254 -0.0008512237273005488 -0.006313669714872621 0.0 0.0
0.0 0.033991435856011915 0.029169072599504492 -0.028348898418543704 -0.0008201741809607942 -0.004815465530261579 0.0 0.0
0.0 0.03647226866049662 0.03111306638334033 -0.030509847466175924 -0.0006032189171644018 5.843849709696869e-15 0.0 0.0
0.0 0.033991435856010936 0.02916907259950293 -0.028348898418541928 -0.0008201741809610193 0.0048154655302754396 0.0 0.0
0.0 0.029465701978525848 0.025183721483750962 -0.024332497756450574 -0.0008512237273003672 0.0063136697148851945 0.0 0.0
0.0 0.023914700158171088 0.020507392836770843 -0.01966372583801038 -0.0008436669987604644 0.006308579233032186 0.0 0.0
0.0 0.018197566940472545 0.015777495159944043 -0.014954246393326705 -0.0008232487666173308 0.005447490519888841 0.0 0.0
0.0 0.013391252514791565 0.011383854553367932 -0.010592348956739718 -0.0007915055966282054 0.004161018085370008 0.0 0.0
0.0 0.008797849298552962 0.00768874639703163 -0.006957167636964783 -0.0007315787600668425 0.0028732433658457605 0.0 0.0
0.0 0.005545072457027246 0.004868104520436238 -0.004245466503797697 -0.0006226380166385406 0.0018716382065023184 0.0 0.0
0.0 0.0032972962166573517 0.002921622762045696 -0.002445684662941432 -0.0004759380991042658 0.0012092967878445148 0.0 0.0
0.0 0.001904004221806801 0.0016808444311321254 -0.0013577306153014198 -0.0003231138158307052 0.0007962911409574863 0.0 0.0
0.0 0.0010574949971991357 0.0009168811753461041 -0.0007232055788056761 -0.0001936755965404274 0.000527753568861887 0.0 0.0
0.0 0.00045006663337997824 0.0004668225333286576 -0.0003636106594826457 -0.00010321187384601212 0.0003294357663692026 0.0 0.0
0.0 0.0004130925741695803 3.995458281831555e-05 -3.1485334695698546e-05 -8.46924812261672e-06 8.486549364467369e-06 0.0 0.0
0.0 5.777982837744926e-07 -2.2138848824731393e-05 1.7550278469811578e-05 4.588570354919789e-06 -3.284583420652471e-05 0.0 0.0
0.0 4.611605662451583e-05 -2.79145655725605e-06 1.9736602042902374e-06 8.1779635296608e-07 -2.933894785173519e-06 0.0 0.0
0.0 -1.2783113960736104e-05 8.483786791740794e-07 -6.211789863298666e-07 -2.2719969284423185e-07 1.6354018613495425e-06 0.0 0.0
0.0 8.975772345791198e-07 -8.732746232126217e-08 6.65391722752872e-08 2.0788290045963707e-08 -1.5902613340908294e-07 0.0 0.0
0.0 0.0 0.0 0.0 0.0 0.0 0.0 0.0
0.0 0.0 0.0 0.0 0.0 0.0 0.0 0.0
0.0 -1.9398885928478794e-05 -4.942773378458853e-05 6.939090965162225e-05 -1.996317586703369e-05 -6.945352822919923e-05 0.0 0.0
0.0 0.00043147791123649906 0.00031539635160084177 -0.00045991603196932524 0.0001445196803684833 0.0003896473559929471 0.0 0.0
0.0 0.0003819287417722291 5.88881777159211e-06 -9.759663215546401e-06 3.870845443955882e-06 7.237281600544022e-06 0.0 0.0
0.0 -3.765961817378056e-05 -1.8638335070042188e-06 2.5588370218152636e-06 -6.95003514811262e-07 1.756326633055052e-06 0.0 0.0
0.0 0.0 0.0 0.0 0.0 0.0 0.0 0.0
0.0 0.0 0.0 0.0 0.0 0.0 0.0 0.0
0.0 0.0 0.0 0.0 0.0 0.0 0.0 0.0
0.0 -3.45749585628769e-06 2.3192052667801136e-07 -1.8377677797632448e-07 -4.814374870167857e-08 -6.83947538420275e-07 0.0 0.0
0.0 6.42420278698355e-06 -1.6217566574522248e-07 1.566439672584233e-07 5.531698486768622e-09 1.6899534941224458e-06 0.0 0.0
0.0 -9.011666593499056e-06 -2.434396331828144e-06 1.9086367089965364e-06 5.257596228317253e-07 2.3604082173630793e-06 0.0 0.0
0.0 3.0028702807645947e-05 -2.0943638676871226e-05 1.624293186659404e-05 4.700706810276695e-06 3.382806783154854e-05 0.0 0.0
0.0 0.00034991186039901164 2.7843946912371194e-05 -2.332726929959408e-05 -4.5166776127769e-06 -1.9881139072575848e-05 0.0 0.0
0.0 0.0005208916643015148 0.00036849888545605796 -0.00029024909706046586 -7.824978839559226e-05 -0.00033934067259948575 0.0 0.0
0.0 0.0010068645074516424 0.0008637185781641009 -0.0006839374558922892 -0.0001797811222718112 -0.0006075637835273504 0.0 0.0
0.0 0.0019671182254501493 0.0016863763515777156 -0.0013727953264891866 -0.0003135810250885291 -0.0009678015073537092 0.0 0.0
0.0 0.0035304596903541477 0.0030544551808109215 -0.0025888927497252426 -0.00046556243108567826 -0.001545212688052953 0.0 0.0
0.0 0.006011116310120054 0.005100564674439407 -0.004505730845433005 -0.0005948338290064016 -0.0024265859797840722 0.0 0.0
0.0 0.009244668463950837 0.007865123823984937 -0.007186926925409685 -0.000678196898575253 -0.0035562627057084788 0.0 0.0
0.0 0.013404198007060854 0.011218832936932785 -0.010496220098166345 -0.0007226128387664448 -0.004735021504093726 0.0 0.0
0.0 0.017735414907204934 0.014954551617774127 -0.014200109094500313 -0.0007544425232738104 -0.005589380582801414 0.0 0.0
0.0 0.022059655039406288 0.01884143694655504 -0.018062550974801823 -0.000778885971753208 -0.005755006166170306 0.0 0.0
0.0 0.026343887852623062 0.022461211008504435 -0.021705732117340868 -0.0007554788911635671 -0.0046829269677228485 0.0 0.0
0.0 0.029013797193894478 0.024444715644358624 -0.023965794365665864 -0.00047892127869276607 4.823181784519015e-15 0.0 0.0
0.0 0.026343887852622778 0.022461211008503394 -0.02170573211733962 -0.0007554788911637664 0.004682926967734076 0.0 0.0
0.0 0.022059655039405122 0.01884143694655339 -0.01806255097480034 -0.0007788859717530426 0.005755006166180493 0.0 0.0
0.0 0.01773541490720279 0.014954551617771972 -0.014200109094498314 -0.0007544425232736657 0.0055893805828070775 0.0 0.0
0.0 0.013404198007059819 0.01121883293693185 -0.010496220098165872 -0.0007226128387659691 0.004735021504094777 0.0 0.0
0.0 0.009244668463948965 0.007865123823983333 -0.007186926925408249 -0.0006781968985750828 0.003556262705707775 0.0 0.0
0.0 0.006011116310118642 0.005100564674437981 -0.004505730845431852 -0.000594833829006132 0.0024265859797835652 0.0 0.0
0.0 0.0035304596903524706 0.003054455180809514 -0.0025888927497241454 -0.0004655624310853683 0.0015452126880521593 0.0 0.0
0.0 0.001967118225448308 0.0016863763515759702 -0.0013727953264877069 -0.0003135810250882623 0.0009678015073527571 0.0 0.0
0.0 0.0010068645074499385 0.0008637185781624805 -0.000683937455891007 -0.0001797811222714735 0.000607563783526167 0.0 0.0
0.0 0.0005208916642997073 0.0003684988854545189 -0.0002902490970592548 -7.824978839526429e-05 0.00033934067259778453 0.0 0.0
0.0 0.0003499118603974946 2.7843946911419613e-05 -2.3327269298860195e-05 -4.516677612559579e-06 1.9881139071688168e-05 0.0 0.0
0.0 3.0028702806902676e-05 -2.0943638676875068e-05 1.6242931866603198e-05 4.700706810271855e-06 -3.382806783159543e-05 0.0 0.0
0.0 -9.011666593976419e-06 -2.4343963317536817e-06 1.9086367089368735e-06 5.257596228167748e-07 -2.3604082171394203e-06 0.0 0.0
0.0 6.424202786566611e-06 -1.6217566572522028e-07 1.5664396724276949e-07 5.531698482363111e-09 -1.6899534940422045e-06 0.0 0.0
0.0 -3.4574958561366075e-06 2.3192052666575107e-07 -1.8377677796691122e-07 -4.8143748698819304e-08 6.839475383845108e-07 0.0 0.0
0.0 0.0 0.0 0.0 0.0 0.0 0.0 0.0
0.0 0.0 0.0 0.0 0.0 0.0 0.0 0.0
0.0 0.0 0.0 0.0 0.0 0.0 0.0 0.0
0.0 -3.765961817415443e-05 -1.8638335068304926e-06 2.5588370215758332e-06 -6.950035147454705e-07 -1.7563266327643558e-06 0.0 0.0
0.0 0.00038192874176949323 5.8888177706655e-06 -9.759663214196346e-06 3.870845443531917e-06 -7.237281601781282e-06 0.0 0.0
0.0 6.541875565440444e-05 -6.53771612936212e-06 9.70544287730756e-06 -3.167726747945336e-06 9.625374782063228e-06 0.0 0.0
0.0 -1.0633808550453083e-05 1.0005265916734668e-06 -1.446019577087302e-06 4.454929854138206e-07 -1.6342815081193247e-06 0.0 0.0
0.0 0.0 0.0 0.0 0.0 0.0 0.0 0.0
0.0 0.0 0.0 0.0 0.0 0.0 0.0 0.0
0.0 0.0 0.0 0.0 0.0 0.0 0.0 0.0
0.0 -9.072168349631247e-06 4.982656087807946e-07 -3.867724655941964e-07 -1.1149314318659192e-07 -2.2584927288381657e-06 0.0 0.0
0.0 1.7954767700283123e-05 -7.89302173471192e-07 6.069187885564374e-07 1.8238338491474007e-07 4.429261284455654e-06 0.0 0.0
0.0 5.080355630739874e-05 -3.112529186264276e-06 2.423327630284459e-06 6.892015559798309e-07 1.1971371018465941e-05 0.0 0.0
0.0 -3.656120693246068e-06 -2.6517839507691366e-06 2.2544380327178577e-06 3.9734591805117006e-07 1.0844227740445839e-05 0.0 0.0
0.0 8.301241862327953e-05 -2.828788359407958e-05 2.203134729759305e-05 6.256536296486496e-06 6.455617242944016e-05 0.0 0.0
0.0 7.902126284405083e-05 3.3447797851081094e-05 -2.8013102849482e-05 -5.43469500159901e-06 -0.00011124156208937778 0.0 0.0
0.0 0.000321074267069523 0.00020402364331836956 -0.0001655759365053769 -3.844770681299269e-05 -0.0003079540165457618 0.0 0.0
0.0 0.0008410163215472534 0.000644769410461762 -0.0005185887505378443 -0.00012618065992391788 -0.0006252053495735079 0.0 0.0
0.0 0.0017581476689211132 0.0014346105719040662 -0.001181247647485571 -0.00025336292441849523 -0.0010690464420845278 0.0 0.0
0.0 0.0033176528493516905 0.0027101543837599663 -0.002318095356836891 -0.00039205902692307406 -0.0017412077932220545 0.0 0.0
0.0 0.005574243614518442 0.004515357084910137 -0.004012659230464934 -0.0005026978544452036 -0.002639210540612583 0.0 0.0
0.0 0.008406978596818252 0.0068037965747251294 -0.006227381416170159 -0.000576415158554969 -0.0036178073207786673 0.0 0.0
0.0 0.01150990041738691 0.009487638669586313 -0.008858783335619971 -0.0006288553339663418 -0.00441329053862547 0.0 0.0
0.0 0.014967685750501654 0.012468854336699947 -0.011794891964154175 -0.0006739623725457657 -0.0046783941609086195 0.0 0.0
0.0 0.018823311673093274 0.015606987277043446 -0.014927995324779893 -0.0006789919522635549 -0.004120963266949991 0.0 0.0
0.0 0.02138464439232016 0.017634444002623956 -0.017293318492862357 -0.0003411255097615895 3.3046482217358175e-15 0.0 0.0
0.0 0.018823311673093025 0.015606987277042305 -0.014927995324778644 -0.0006789919522636607 0.004120963266957824 0.0 0.0
0.0 0.014967685750502276 0.012468854336699945 -0.011794891964154201 -0.0006739623725457513 0.004678394160916461 0.0 0.0
0.0 0.011509900417384871 0.009487638669584816 -0.008858783335618393 -0.0006288553339664192 0.004413290538629001 0.0 0.0
0.0 0.008406978596817414 0.006803796574724461 -0.0062273814161698665 -0.0005764151585545948 0.003617807320778584 0.0 0.0
0.0 0.005574243614516763 0.004515357084908813 -0.004012659230463755 -0.0005026978544450561 0.002639210540611334 0.0 0.0
0.0 0.003317652849351083 0.002710154383759571 -0.002318095356836617 -0.0003920590269229551 0.0017412077932219834 0.0 0.0
0.0 0.0017581476689201756 0.0014346105719030419 -0.001181247647484684 -0.00025336292441835835 0.0010690464420840286 0.0 0.0
0.0 0.0008410163215470679 0.0006447694104611978 -0.0005185887505374334 -0.00012618065992376444 0.0006252053495728105 0.0 0.0
0.0 0.0003210742670685336 0.00020402364331759308 -0.00016557593650476607 -3.844770681282694e-05 0.00030795401654464905 0.0 0.0
0.0 7.902126284318781e-05 3.3447797850788556e-05 -2.8013102849257703e-05 -5.434695001530799e-06 0.00011124156208856329 0.0 0.0
0.0 8.30124186229574e-05 -2.828788359400287e-05 2.2031347297548734e-05 6.256536296454107e-06 -6.455617242951881e-05 0.0 0.0
0.0 -3.6561206934708538e-06 -2.651783950698915e-06 2.254438032661253e-06 3.9734591803744914e-07 -1.0844227740246617e-05 0.0 0.0
0.0 5.080355630700233e-05 -3.1125291862482743e-06 2.42332763027038e-06 6.892015559779049e-07 -1.1971371018380386e-05 0.0 0.0
0.0 1.7954767699829906e-05 -7.893021734428187e-07 6.069187885346678e-07 1.8238338490822194e-07 -4.4292612843163006e-06 0.0 0.0
0.0 -9.072168349471412e-06 4.982656087711078e-07 -3.8677246558664767e-07 -1.1149314318447623e-07 2.2584927287928677e-06 0.0 0.0
0.0 0.0 0.0 0.0 0.0 0.0 0.0 0.0
0.0 0.0 0.0 0.0 0.0 0.0 0.0 0.0
0.0 0.0 0.0 0.0 0.0 0.0 0.0 0.0
0.0 -1.0633808550185628e-05 1.0005265916387151e-06 -1.4460195770391634e-06 4.4549298540048197e-07 1.6342815080531738e-06 0.0 0.0
0.0 6.541875565317492e-05 -6.537716129159533e-06 9.705442877014648e-06 -3.1677267478554037e-06 -9.625374781725799e-06 0.0 0.0
0.0 4.330393720218872e-05 -3.848255070305052e-06 5.710775645498099e-06 -1.8625205751931798e-06 6.250465131219008e-06 0.0 0.0
0.0 -5.8016275012072615e-06 5.155684191786061e-07 -7.650988611832698e-07 2.495304420046814e-07 -8.374035421145127e-07 0.0 0.0
0.0 0.0 0.0 0.0 0.0 0.0 0.0 0.0
0.0 0.0 0.0 0.0 0.0 0.0 0.0 0.0
0.0 0.0 0.0 0.0 0.0 0.0 0.0 0.0
0.0 -4.350528690094716e-06 8.966451506068893e-08 -6.878447430476709e-08 -2.0880040755924507e-08 -1.0553212821774312e-06 0.0 0.0
0.0 1.0245710281972232e-05 -1.7358796563429243e-07 1.267852672516477e-07 4.6802698382662727e-08 2.433276411275923e-06 0.0 0.0
0.0 1.3160396403764047e-05 -4.578390373471867e-07 4.1060080943773933e-07 4.7238227909405706e-08 3.947163250463415e-06 0.0 0.0
0.0 2.146446987676778e-05 2.262324761559188e-07 -3.217956205035344e-07 9.556314434765182e-08 1.8163745244794088e-06 0.0 0.0
0.0 8.190082843814777e-06 -1.532339149677973e-06 1.443245058339329e-06 8.909409133870348e-08 1.3706466340542395e-05 0.0 0.0
0.0 0.0001024985520929008 -1.8137768619833917e-05 1.379066263971613e-05 4.347105980117708e-06 7.767236851092795e-05 0.0 0.0
0.0 8.901168786460179e-05 9.620045036254365e-06 -8.221732355914283e-06 -1.3983126803403663e-06 -0.00010872134751852205 0.0 0.0
0.0 0.00014851688771057306 2.0120441238406114e-05 -1.94186898427853e-05 -7.017513956206521e-07 -0.0002414243221115302 0.0 0.0
0.0 0.0004692687459237541 0.00020662403043005293 -0.00018157051413609948 -2.505351629395312e-05 -0.000557771451427117 0.0 0.0
0.0 0.0010842981042148737 0.000639489660634045 -0.000564134995090997 -7.5354665543048e-05 -0.001060258673015541 0.0 0.0
0.0 0.002236831815558788 0.0015013513900400744 -0.0013298331269650451 -0.00017151826307502884 -0.0017318724339859344 0.0 0.0
0.0 0.0038720672124896846 0.002708493161532579 -0.002434664054432396 -0.00027382910710018436 -0.0025055731065714497 0.0 0.0
0.0 0.006015536490765035 0.00428450175588127 -0.003906867628140114 -0.0003776341277411549 -0.003258467885666544 0.0 0.0
0.0 0.008458411749684836 0.00626194314446 -0.0058005448615695565 -0.0004613982828904462 -0.003598850285127935 0.0 0.0
0.0 0.011157547626784966 0.00868765316268571 -0.008155139932429107 -0.0005325132302565962 -0.0031953552299427987 0.0 0.0
0.0 0.014308792874690543 0.010687632027152729 -0.010521937009232941 -0.00016569501791978622 1.6924395912498724e-15 0.0 0.0
0.0 0.011157547626785847 0.008687653162685457 -0.008155139932428748 -0.000532513230256709 0.003195355229947467 0.0 0.0
0.0 0.00845841174968624 0.006261943144460665 -0.0058005448615705574 -0.00046139828289010833 0.003598850285133317 0.0 0.0
0.0 0.006015536490764065 0.004284501755880566 -0.003906867628139574 -0.00037763412774099135 0.0032584678856683647 0.0 0.0
0.0 0.003872067212488675 0.002708493161532335 -0.002434664054432268 -0.00027382910710006694 0.0025055731065708113 0.0 0.0
0.0 0.002236831815558643 0.0015013513900397858 -0.001329833126964676 -0.00017151826307511067 0.001731872433985409 0.0 0.0
0.0 0.001084298104215234 0.0006394896606342945 -0.0005641349950912071 -7.53546655430869e-05 0.0010602586730158832 0.0 0.0
0.0 0.0004692687459235479 0.00020662403042987938 -0.00018157051413598274 -2.5053516293896794e-05 0.0005577714514269924 0.0 0.0
0.0 0.0001485168877102115 2.0120441238343582e-05 -1.941868984273752e-05 -7.017513956060866e-07 0.0002414243221107405 0.0 0.0
0.0 8.901168786418273e-05 9.620045036254883e-06 -8.221732355928088e-06 -1.3983126803267545e-06 0.00010872134751829186 0.0 0.0
0.0 0.00010249855209225144 -1.8137768619906538e-05 1.3790662639776444e-05 4.347105980130058e-06 -7.767236851134129e-05 0.0 0.0
0.0 8.190082844186932e-06 -1.532339149633267e-06 1.4432450583063555e-06 8.909409132685469e-08 -1.3706466340339251e-05 0.0 0.0
0.0 2.146446987655983e-05 2.2623247620600349e-07 -3.217956205444416e-07 9.556314433848687e-08 -1.8163745241700885e-06 0.0 0.0
0.0 1.3160396403482614e-05 -4.578390373500805e-07 4.1060080943999593e-07 4.723822791007953e-08 -3.947163250456073e-06 0.0 0.0
0.0 1.0245710281448204e-05 -1.7358796562138627e-07 1.2678526724200202e-07 4.680269837932477e-08 -2.4332764111328903e-06 0.0 0.0
0.0 -4.35052868993081e-06 8.966451505636322e-08 -6.878447430147904e-08 -2.0880040754868512e-08 1.0553212821323173e-06 0.0 0.0
0.0 0.0 0.0 0.0 0.0 0.0 0.0 0.0
0.0 0.0 0.0 0.0 0.0 0.0 0.0 0.0
0.0 0.0 0.0 0.0 0.0 0.0 0.0 0.0
0.0 -5.8016275011363784e-06 5.15568419171344e-07 -7.650988611724783e-07 2.495304420011244e-07 8.374035421032376e-07 0.0 0.0
0.0 4.330393720165961e-05 -3.848255070250843e-06 5.710775645417546e-06 -1.862520575166628e-06 -6.2504651311348455e-06 0.0 0.0
0.0 0.0 0.0 0.0 0.0 0.0 0.0 0.0
0.0 0.0 0.0 0.0 0.0 0.0 0.0 0.0
0.0 0.0 0.0 0.0 0.0 0.0 0.0 0.0
0.0 0.0 0.0 0.0 0.0 0.0 0.0 0.0
0.0 0.0 0.0 0.0 0.0 0.0 0.0 0.0
0.0 -4.355414782345972e-06 -8.723160201119006e-09 1.1305811473996297e-08 -2.5826512728784777e-09 -1.0715871168455313e-06 0.0 0.0
0.0 1.2196517218122843e-05 3.131426929266121e-08 -3.982879318435302e-08 8.514523891697174e-09 3.0102338329546878e-06 0.0 0.0
0.0 1.1056211720641032e-06 4.867556530467994e-09 -8.47222721556892e-09 3.604670685109691e-09 -2.3274800707773495e-07 0.0 0.0
0.0 4.32539276578972e-05 1.8512226996580214e-10 -2.339518407416599e-09 2.154396137406996e-09 1.2161687567717972e-05 0.0 0.0
0.0 1.0776111269772218e-05 2.4415423397804997e-10 1.113934902551025e-10 -3.555477242414061e-10 1.7279479085863932e-06 0.0 0.0
0.0 5.876384455897005e-05 1.1852048755957972e-07 -1.0296316916302464e-07 -1.5557318396552212e-08 7.498955819690615e-05 0.0 0.0
0.0 4.601668108501243e-05 -5.040385106575465e-07 4.27245412267138e-07 7.679309839041443e-08 -7.264421283772783e-05 0.0 0.0
0.0 0.00010665802750248756 1.8092503867570425e-07 -1.715799932307156e-07 -9.345045445002616e-09 -0.00018363947505932728 0.0 0.0
0.0 0.0002093396823204082 -2.2901809824470216e-07 3.776599505141927e-07 -1.4864185226951242e-07 -0.00037528911803737025 0.0 0.0
0.0 0.0004158891205374982 -3.825685603041306e-06 4.074613482520491e-06 -2.4892787947916514e-07 -0.0007255297317806715 0.0 0.0
0.0 0.0006326632153273815 -3.029664388240226e-05 2.4005746500804278e-05 6.290897381597951e-06 -0.0013997823809498763 0.0 0.0
0.0 0.001106007303878881 -3.470348734969838e-05 1.1429722396225523e-05 2.3273764953472844e-05 -0.002345426633590572 0.0 0.0
0.0 0.0020530265971896423 0.0002502705564870652 -0.0003050486889619893 5.47781324749238e-05 -0.0032610104711239896 0.0 0.0
0.0 0.0033848192024030876 0.0008277891432198586 -0.0009165813102693079 8.879216704944921e-05 -0.0040331805999261165 0.0 0.0
0.0 0.005146876304653331 0.002113459546768803 -0.00204048887749797 -7.297066927083423e-05 -0.004170533927748543 0.0 0.0
0.0 0.009196551692683375 0.004357522614171805 -0.004459603655229024 0.00010208104105722045 2.2278186240232145e-15 0.0 0.0
0.0 0.005146876304655017 0.002113459546768045 -0.002040488877497362 -7.29706692706846e-05 0.0041705339277546775 0.0 0.0
0.0 0.0033848192024032147 0.0008277891432193411 -0.0009165813102689237 8.879216704958265e-05 0.004033180599927941 0.0 0.0
0.0 0.002053026597188821 0.00025027055648661756 -0.0003050486889613251 5.477813247470754e-05 0.0032610104711246757 0.0 0.0
0.0 0.0011060073038780898 -3.470348734944224e-05 1.1429722395945446e-05 2.32737649534965e-05 0.002345426633589164 0.0 0.0
0.0 0.0006326632153270078 -3.0296643882505903e-05 2.4005746500880423e-05 6.290897381625459e-06 0.0013997823809492127 0.0 0.0
0.0 0.0004158891205375818 -3.825685603096971e-06 4.074613482580669e-06 -2.4892787948370185e-07 0.0007255297317809012 0.0 0.0
0.0 0.00020933968232046636 -2.290180981264121e-07 3.776599503615505e-07 -1.4864185223512823e-07 0.0003752891180373503 0.0 0.0
0.0 0.00010665802750204888 1.8092503869633797e-07 -1.715799932530256e-07 -9.345045443311514e-09 0.00018363947505824465 0.0 0.0
0.0 4.601668108485437e-05 -5.040385106632284e-07 4.2724541227888464e-07 7.679309838432934e-08 7.264421283705827e-05 0.0 0.0
0.0 5.8763844558735094e-05 1.185204875508346e-07 -1.0296316915627308e-07 -1.5557318394584522e-08 -7.498955819642937e-05 0.0 0.0
0.0 1.0776111269740619e-05 2.4415423596875606e-10 1.1139348809383176e-10 -3.555477240381959e-10 -1.727947908610893e-06 0.0 0.0
0.0 4.325392765770464e-05 1.8512226647232063e-10 -2.3395184018584284e-09 2.154396135360366e-09 -1.2161687567662918e-05 0.0 0.0
0.0 1.1056211717037572e-06 4.867556531128216e-09 -8.472227216487646e-09 3.604670685373889e-09 2.3274800717603577e-07 0.0 0.0
0.0 1.2196517217618462e-05 3.13142692912894e-08 -3.982879318352939e-08 8.514523892241475e-09 -3.010233832814609e-06 0.0 0.0
0.0 -4.355414782180655e-06 -8.72316020073259e-09 1.1305811473738028e-08 -2.5826512730064583e-09 1.0715871167997028e-06 0.0 0.0
0.0 0.0 0.0 0.0 0.0 0.0 0.0 0.0
0.0 0.0 0.0 0.0 0.0 0.0 0.0 0.0
0.0 0.0 0.0 0.0 0.0 0.0 0.0 0.0
0.0 0.0 0.0 0.0 0.0 0.0 0.0 0.0
0.0 0.0 0.0 0.0 0.0 0.0 0.0 0.0
0.0 0.0 0.0 0.0 0.0 0.0 0.0 0.0
0.0 0.0 0.0 0.0 0.0 0.0 0.0 0.0
0.0 0.0 0.0 0.0 0.0 0.0 0.0 0.0
0.0 0.0 0.0 0.0 0.0 0.0 0.0 0.0
0.0 2.3722999792247563e-07 1.519901164766157e-08 -1.0974782996792894e-08 -4.224228650867788e-09 6.40606609147881e-08 0.0 0.0
0.0 -9.688764763687334e-06 -3.474758521999133e-07 2.756497762184461e-07 7.182607598146511e-08 -2.5270988688624545e-06 0.0 0.0
0.0 2.6018566111253775e-05 8.874637704448903e-07 -7.137435535959846e-07 -1.7372021684890654e-07 6.792471477416699e-06 0.0 0.0
0.0 1.6278368600492433e-05 5.773103511177724e-07 -5.160706558861954e-07 -6.12396952316158e-08 4.747812782250855e-06 0.0 0.0
0.0 2.167743085215265e-05 -1.4531792447411983e-07 2.5327495763083385e-07 -1.0795703315660693e-07 2.2462147367206546e-06 0.0 0.0
0.0 8.080699055838497e-06 1.4492052730439623e-06 -1.3771175725312651e-06 -7.208770051272723e-08 1.3381803785236074e-05 0.0 0.0
0.0 0.00010003639450673067 1.7899837087789997e-05 -1.3618994618212409e-05 -4.280842469577676e-06 7.572903422880578e-05 0.0 0.0
0.0 9.618169992307113e-05 -8.58041359795357e-06 7.430424753815035e-06 1.149988844138682e-06 -0.0001000896483840704 0.0 0.0
0.0 0.0001493273418132209 -1.9235073073385804e-05 1.8589202234678976e-05 6.458708387065808e-07 -0.00024145555825703298 0.0 0.0
0.0 0.00047780138461790656 -0.00020810160739862408 0.0001835052514005988 2.4596355998025282e-05 -0.0005555633295201783 0.0 0.0
0.0 0.0010806716576605027 -0.0006425259139819033 0.0005697127343693303 7.281317961257341e-05 -0.001053201038845195 0.0 0.0
0.0 0.002122955060444451 -0.0013941829819556376 0.0012466497187987678 0.00014753326315687017 -0.001775998960040896 0.0 0.0
0.0 0.0032935771582856283 -0.002191350456705106 0.0019976744316374476 0.0001936760250676606 -0.0027347837300216865 0.0 0.0
0.0 0.004429881694422396 -0.0027101745515819885 0.0025296903057493445 0.00018048424583264145 -0.0038883279866156533 0.0 0.0
0.0 0.004779660859658759 -0.0026184565838656996 0.0025196619237986646 9.879466006703551e-05 -0.005295554623378038 0.0 0.0
0.0 0.004412584501073936 -0.002052361791170316 0.0019403438220387417 0.00011201796913157483 -0.0065618718205826135 0.0 0.0
0.0 0.008539710331866195 -0.0013410513840135343 0.0005674354888996165 0.0007736158951139182 3.870601755773251e-15 0.0 0.0
0.0 0.004412584501077126 -0.0020523617911709694 0.0019403438220393365 0.00011201796913163327 0.006561871820586414 0.0 0.0
0.0 0.004779660859658715 -0.002618456583865191 0.0025196619237981836 9.879466006700873e-05 0.005295554623380415 0.0 0.0
0.0 0.004429881694421585 -0.0027101745515818805 0.002529690305748987 0.00018048424583289204 0.003888327986615741 0.0 0.0
0.0 0.003293577158284612 -0.0021913504567045777 0.001997674431636934 0.0001936760250676433 0.002734783730021031 0.0 0.0
0.0 0.0021229550604440327 -0.0013941829819548535 0.001246649718798171 0.00014753326315668317 0.0017759989600406323 0.0 0.0
0.0 0.00108067165766042 -0.0006425259139817514 0.0005697127343692442 7.281317961250686e-05 0.0010532010388449081 0.0 0.0
0.0 0.0004778013846170635 -0.00020810160739829283 0.00018350525140034546 2.4596355997947358e-05 0.0005555633295199602 0.0 0.0
0.0 0.00014932734181190367 -1.9235073072853047e-05 1.8589202234182594e-05 6.458708386703752e-07 0.00024145555825563623 0.0 0.0
0.0 9.618169992223637e-05 -8.580413597889646e-06 7.430424753763352e-06 1.1499888441261763e-06 0.00010008964838321592 0.0 0.0
0.0 0.00010003639450611742 1.7899837087794493e-05 -1.36189946182007e-05 -4.280842469593607e-06 -7.572903422900107e-05 0.0 0.0
0.0 8.080699055927694e-06 1.4492052729822483e-06 -1.3771175724874197e-06 -7.208770049483821e-08 -1.3381803784936157e-05 0.0 0.0
0.0 2.1677430851974225e-05 -1.4531792447783005e-07 2.532749576363395e-07 -1.0795703315850402e-07 -2.24621473668008e-06 0.0 0.0
0.0 1.6278368600040863e-05 5.773103511017895e-07 -5.160706558736147e-07 -6.123969522819556e-08 -4.747812782123832e-06 0.0 0.0
0.0 2.601856611057787e-05 8.87463770420462e-07 -7.137435535770495e-07 -1.7372021684342375e-07 -6.792471477216642e-06 0.0 0.0
0.0 -9.688764763781373e-06 -3.4747585219923954e-07 2.7564977621903567e-07 7.182607598021275e-08 2.5270988688581304e-06 0.0 0.0
0.0 2.37229998006043e-07 1.519901164961921e-08 -1.0974782998623645e-08 -4.2242286509967936e-09 -6.406066093086543e-08 0.0 0.0
0.0 0.0 0.0 0.0 0.0 0.0 0.0 0.0
0.0 0.0 0.0 0.0 0.0 0.0 0.0 0.0
0.0 0.0 0.0 0.0 0.0 0.0 0.0 0.0
0.0 0.0 0.0 0.0 0.0 0.0 0.0 0.0
0.0 0.0 0.0 0.0 0.0 0.0 0.0 0.0
0.0 0.0 0.0 0.0 0.0 0.0 0.0 0.0
0.0 0.0 0.0 0.0 0.0 0.0 0.0 0.0
0.0 3.5503640098576466e-07 1.7490738843080748e-08 -1.4028123552365613e-08 -3.462615290715601e-09 7.342977248756623e-08 0.0 0.0
0.0 -6.3852407184207915e-06 -3.115435463314671e-07 2.5325702921284795e-07 5.8286517118625203e-08 -1.4279013962539423e-06 0.0 0.0
0.0 1.690702464335916e-05 8.302974969186489e-07 -6.768157143116402e-07 -1.5348178260704522e-07 3.94016593183917e-06 0.0 0.0
0.0 -9.979374621764644e-06 -8.418421527810014e-07 6.512871746827505e-07 1.905549780983271e-07 -2.982621695831359e-06 0.0 0.0
0.0 5.591023018680295e-05 3.4756185920074945e-06 -2.7317624658097503e-06 -7.438561261977645e-07 1.3238814448324596e-05 0.0 0.0
0.0 -2.4645882391056533e-06 2.620339033063552e-06 -2.229556174852042e-06 -3.907828582114534e-07 1.0702935061161943e-05 0.0 0.0
0.0 8.150476369943518e-05 2.8369715752315543e-05 -2.209250579474743e-05 -6.277209957567884e-06 6.514883946882027e-05 0.0 0.0
0.0 7.743739887780706e-05 -3.31006293815136e-05 2.770910499748562e-05 5.391524384028095e-06 -0.00011068176292917507 0.0 0.0
0.0 0.00032026292522359785 -0.00020311115572705762 0.0001647974964990852 3.831365922797208e-05 -0.0003076188152225448 0.0 0.0
0.0 0.000841991153978249 -0.000644484268896443 0.0005182908601671318 0.00012619340872931133 -0.0006248652631597566 0.0 0.0
0.0 0.0017648080679951664 -0.001439747648134612 0.0011861749349370504 0.0002535727131975614 -0.001059379125367641 0.0 0.0
0.0 0.0033224422043487824 -0.002716845186326554 0.002326793678603856 0.00039005150772269866 -0.0017216365992178586 0.0 0.0
0.0 0.005487984129130071 -0.004444360611432022 0.003952010478304134 0.0004923501331278849 -0.0026986959848232326 0.0 0.0
0.0 0.007919441510485712 -0.006370577499054094 0.005820863778918528 0.0005497137201355671 -0.004044735722856267 0.0 0.0
0.0 0.009959191696643385 -0.00809030786768285 0.007519970940620943 0.0005703369270619108 -0.005740559186068485 0.0 0.0
0.0 0.011382146726290274 -0.008950309324983157 0.008408534262407964 0.0005417750625751877 -0.007517890040711069 0.0 0.0
0.0 0.010905545819324545 -0.007865009834302253 0.007368143169302324 0.0004968666649999271 -0.008175971981439698 0.0 0.0
0.0 0.01096270389887003 -0.006313183451228296 0.00493233301389079 0.0013808504373375055 3.3931191190106347e-15 0.0 0.0
0.0 0.010905545819325803 -0.007865009834302446 0.007368143169302213 0.0004968666650002277 0.008175971981443814 0.0 0.0
0.0 0.011382146726290492 -0.008950309324982607 0.008408534262407442 0.0005417750625751665 0.0075178900407160435 0.0 0.0
0.0 0.009959191696643045 -0.008090307867682481 0.00751997094062082 0.000570336927061657 0.0057405591860709955 0.0 0.0
0.0 0.007919441510483767 -0.006370577499052498 0.0058208637789170375 0.0005497137201354574 0.004044735722855834 0.0 0.0
0.0 0.0054879841291288756 -0.0044443606114308596 0.0039520104783032535 0.0004923501331276041 0.0026986959848227486 0.0 0.0
0.0 0.003322442204347776 -0.002716845186325813 0.002326793678603294 0.00039005150772251955 0.0017216365992172007 0.0 0.0
0.0 0.001764808067993636 -0.0014397476481330922 0.0011861749349357017 0.0002535727131973906 0.0010593791253668814 0.0 0.0
0.0 0.0008419911539759054 -0.0006444842688941893 0.0005182908601652236 0.00012619340872896553 0.0006248652631580271 0.0 0.0
0.0 0.00032026292522204365 -0.00020311115572564694 0.00016479749649794318 3.8313659227703625e-05 0.0003076188152208685 0.0 0.0
0.0 7.743739887647026e-05 -3.3100629380949665e-05 2.7709104997005622e-05 5.3915243839440225e-06 0.0001106817629281072 0.0 0.0
0.0 8.150476369850508e-05 2.8369715752214725e-05 -2.2092505794664084e-05 -6.277209957550583e-06 -6.514883946889419e-05 0.0 0.0
0.0 -2.464588238899372e-06 2.6203390329552726e-06 -2.229556174768465e-06 -3.90782858186838e-07 -1.0702935060859144e-05 0.0 0.0
0.0 5.5910230186392745e-05 3.4756185920024644e-06 -2.731762465806647e-06 -7.438561261957514e-07 -1.323881444825371e-05 0.0 0.0
0.0 -9.979374622259573e-06 -8.418421528081844e-07 6.51287174704578e-07 1.9055497810356124e-07 2.982621695947419e-06 0.0 0.0
0.0 1.6907024642783286e-05 8.302974968858689e-07 -6.768157142847567e-07 -1.534817826011506e-07 -3.940165931679167e-06 0.0 0.0
0.0 -6.385240718114845e-06 -3.1154354631442117e-07 2.532570291991007e-07 5.828651711533176e-08 1.4279013961763564e-06 0.0 0.0
0.0 3.550364009573199e-07 1.7490738841560264e-08 -1.4028123551156616e-08 -3.462615290403308e-09 -7.342977248115341e-08 0.0 0.0
0.0 0.0 0.0 0.0 0.0 0.0 0.0 0.0
0.0 0.0 0.0 0.0 0.0 0.0 0.0 0.0
0.0 0.0 0.0 0.0 0.0 0.0 0.0 0.0
0.0 0.0 0.0 0.0 0.0 0.0 0.0 0.0
0.0 0.0 0.0 0.0 0.0 0.0 0.0 0.0
0.0 0.0 0.0 0.0 0.0 0.0 0.0 0.0
0.0 -1.1504071630577353e-06 -5.0216371260664576e-08 4.089305361435781e-08 9.323317646306185e-09 -2.319816309174615e-07 0.0 0.0
0.0 4.284419995186908e-06 2.056877727695907e-07 -1.6661919302854308e-07 -3.9068579741040563e-08 9.142051065004538e-07 0.0 0.0
0.0 -1.4030586301893218e-05 -1.2512682259816231e-06 9.877018161181714e-07 2.635664098634158e-07 -3.4296405733071734e-06 0.0 0.0
0.0 4.277710586083322e-05 3.3236736630219008e-06 -2.6619585423019777e-06 -6.617151207198877e-07 1.0592979615054824e-05 0.0 0.0
0.0 -1.7362126030325602e-06 3.0212202159788738e-06 -2.3745141961176954e-06 -6.467060198611073e-07 3.862614442605954e-06 0.0 0.0
0.0 2.96322834474656e-05 2.073691412556317e-05 -1.608493030149463e-05 -4.651983824068639e-06 3.363015893122932e-05 0.0 0.0
0.0 0.00034869585303196586 -2.6640392372144787e-05 2.237508958618957e-05 4.26530278595538e-06 -1.8180741785385292e-05 0.0 0.0
0.0 0.0005159496939059969 -0.000368315897008438 0.00029006522857243056 7.825066843600755e-05 -0.0003396821720750503 0.0 0.0
0.0 0.0010062135358195883 -0.0008626753523695755 0.0006830889870813624 0.0001795863652882128 -0.0006077096638477732 0.0 0.0
0.0 0.0019655997871142325 -0.001684329669839169 0.0013712487297277804 0.0003130809401113885 -0.0009668148247491383 0.0 0.0
0.0 0.0035280942917465625 -0.003052735181653524 0.0025876834896919293 0.0004650516919615921 -0.0015271349045501822 0.0 0.0
0.0 0.006005315638575358 -0.005103309243530113 0.004509132778391719 0.0005941764651383925 -0.0023735164350236868 0.0 0.0
0.0 0.009183954941666852 -0.0078261564388018 0.007153153234510065 0.000673003204291731 -0.003579901452685062 0.0 0.0
0.0 0.013078555522487793 -0.010915603311615495 0.010208761957290577 0.0007068413543249123 -0.005335293805646412 0.0 0.0
0.0 0.016605902564633374 -0.01380789521546641 0.01310315005482316 0.0007047451606432408 -0.007728466368251539 0.0 0.0
0.0 0.0188981583396128 -0.015512234263040308 0.014852867024421484 0.0006593672386188224 -0.010216595166829573 0.0 0.0
0.0 0.01794895970233882 -0.014397598551906027 0.013813772020625066 0.0005838265312809602 -0.011167110911452225 0.0 0.0
0.0 0.01615065611837771 -0.011600811316281833 0.009662347573299156 0.0019384637429826612 3.653327640407156e-15 0.0 0.0
0.0 0.017948959702340516 -0.014397598551905836 0.013813772020624839 0.0005838265312809904 0.011167110911460434 0.0 0.0
0.0 0.018898158339613044 -0.015512234263039147 0.014852867024420648 0.0006593672386185176 0.010216595166837872 0.0 0.0
0.0 0.01660590256463222 -0.013807895215465167 0.013103150054821955 0.0007047451606432076 0.0077284663682559394 0.0 0.0
0.0 0.013078555522484868 -0.010915603311612919 0.010208761957288369 0.0007068413543245483 0.005335293805646594 0.0 0.0
0.0 0.009183954941664399 -0.007826156438799527 0.007153153234507976 0.000673003204291549 0.0035799014526842195 0.0 0.0
0.0 0.006005315638573444 -0.005103309243528225 0.004509132778390142 0.0005941764651380786 0.0023735164350227106 0.0 0.0
0.0 0.0035280942917444015 -0.0030527351816516976 0.0025876834896903017 0.000465051691961396 0.0015271349045496237 0.0 0.0
0.0 0.001965599787111153 -0.0016843296698363683 0.0013712487297253785 0.00031308094011099006 0.0009668148247474857 0.0 0.0
0.0 0.0010062135358173288 -0.0008626753523672481 0.0006830889870795614 0.0001795863652876864 0.0006077096638459784 0.0 0.0
0.0 0.0005159496939032581 -0.00036831589700609026 0.00029006522857053137 7.825066843555867e-05 0.00033968217207290915 0.0 0.0
0.0 0.00034869585302984196 -2.6640392370996617e-05 2.2375089585275282e-05 4.265302785721565e-06 1.818074178421499e-05 0.0 0.0
0.0 2.96322834463703e-05 2.073691412569999e-05 -1.608493030160674e-05 -4.6519838240932205e-06 -3.36301589316719e-05 0.0 0.0
0.0 -1.7362126039994248e-06 3.0212202157963848e-06 -2.3745141959726333e-06 -6.467060198239287e-07 -3.862614442189692e-06 0.0 0.0
0.0 4.2777105860489876e-05 3.3236736629973042e-06 -2.6619585422834696e-06 -6.617151207137707e-07 -1.0592979614952709e-05 0.0 0.0
0.0 -1.4030586302402328e-05 -1.2512682260058284e-06 9.877018161379312e-07 2.635664098678824e-07 3.4296405733929478e-06 0.0 0.0
0.0 4.284419994641887e-06 2.0568777274328732e-07 -1.666191930068741e-07 -3.906857973640104e-08 -9.142051063867403e-07 0.0 0.0
0.0 -1.1504071628628885e-06 -5.0216371250763006e-08 4.0893053606280403e-08 9.323317644479613e-09 2.3198163087766698e-07 0.0 0.0
0.0 0.0 0.0 0.0 0.0 0.0 0.0 0.0
0.0 0.0 0.0 0.0 0.0 0.0 0.0 0.0
0.0 0.0 0.0 0.0 0.0 0.0 0.0 0.0
0.0 0.0 0.0 0.0 0.0 0.0 0.0 0.0
0.0 0.0 0.0 0.0 0.0 0.0 0.0 0.0
0.0 0.0 0.0 0.0 0.0 0.0 0.0 0.0
0.0 -1.4033488118123695e-06 -8.512612866151413e-08 6.782733143211955e-08 1.729879722939849e-08 -2.950227067173425e-07 0.0 0.0
0.0 -7.989488372959259e-07 -1.7001878408030944e-07 1.3748410103910175e-07 3.253468304120447e-08 -1.3553837241430799e-07 0.0 0.0
0.0 2.0700586010094686e-05 1.6710908025003073e-06 -1.3432093553034918e-06 -3.2788144719687783e-07 4.494511068477837e-06 0.0 0.0
0.0 2.9232822936180515e-05 3.209849773911095e-06 -2.3922014083261756e-06 -8.176483655849294e-07 1.3295745582737087e-06 0.0 0.0
0.0 4.795741535854961e-06 2.260194156433384e-05 -1.789025199698528e-05 -4.711689567348443e-06 3.3347282339430506e-05 0.0 0.0
0.0 0.000412654980357804 -3.981691947320025e-05 3.139399916931812e-05 8.422920303882118e-06 -8.519776865738332e-06 0.0 0.0
0.0 0.0004481485356474091 -0.00046598800075558106 0.00036287253347979016 0.00010311546727579089 -0.000328327701173458 0.0 0.0
0.0 0.0010573633941373833 -0.00091616648345772 0.0007225661361628904 0.00019360034729482917 -0.0005269034239872495 0.0 0.0
0.0 0.0019035388753252073 -0.0016801978061774649 0.0013572944113857395 0.0003229033947917256 -0.0007970795259545708 0.0 0.0
0.0 0.0032932777830424957 -0.002916926498899239 0.0024420772927808863 0.0004748492061183512 -0.0012084630228728355 0.0 0.0
0.0 0.005528293879017858 -0.004852901760655454 0.004231346714808149 0.0006215550458473051 -0.001847458925986037 0.0 0.0
0.0 0.008769086453681197 -0.007672768225757819 0.006939712447270899 0.0007330557784869178 -0.0027865504893402203 0.0 0.0
0.0 0.013358536121200033 -0.011379475152031757 0.010586979940786664 0.0007924952112450958 -0.0041186526188298316 0.0 0.0
0.0 0.018075993454235422 -0.015661560387852044 0.014850976905028719 0.000810583482823323 -0.006108816343642803 0.0 0.0
0.0 0.023191783992096343 -0.019709940474263873 0.01892326450051563 0.0007866759737482312 -0.008947890890724555 0.0 0.0
0.0 0.02655076040016252 -0.022151182780884474 0.021438178093101605 0.0007130046877828646 -0.01208122635532759 0.0 0.0
0.0 0.025274984826485762 -0.020742938845615348 0.02015574992105813 0.0005871889245572148 -0.013626671619424468 0.0 0.0
0.0 0.021633876420677614 -0.01684143984185606 0.01443142301019143 0.002410016831664631 4.603522424373452e-15 0.0 0.0
0.0 0.025274984826487792 -0.020742938845615205 0.020155749921058175 0.0005871889245570246 0.013626671619435657 0.0 0.0
0.0 0.026550760400162365 -0.02215118278088303 0.0214381780931004 0.000713004687782609 0.012081226355338343 0.0 0.0
0.0 0.023191783992094005 -0.01970994047426132 0.018923264500513206 0.000786675973748107 0.00894789089073089 0.0 0.0
0.0 0.018075993454231658 -0.01566156038784862 0.014850976905025478 0.0008105834828231498 0.0061088163436442845 0.0 0.0
0.0 0.013358536121196559 -0.011379475152028574 0.01058697994078369 0.000792495211244878 0.004118652618829139 0.0 0.0
0.0 0.008769086453678854 -0.0076727682257554065 0.0069397124472689075 0.0007330557784864963 0.002786550489339765 0.0 0.0
0.0 0.005528293879015529 -0.00485290176065311 0.0042313467148060386 0.000621555045847068 0.001847458925985099 0.0 0.0
0.0 0.0032932777830380266 -0.002916926498895194 0.002442077292777272 0.00047484920611792086 0.0012084630228711664 0.0 0.0
0.0 0.001903538875322237 -0.0016801978061743194 0.0013572944113831845 0.00032290339479113444 0.0007970795259528015 0.0 0.0
0.0 0.0010573633941339821 -0.0009161664834546059 0.0007225661361603846 0.00019360034729422096 0.0005269034239851017 0.0 0.0
0.0 0.00044814853564544325 -0.00046598800075321414 0.0003628725334779793 0.00010311546727523487 0.00032832770117182996 0.0 0.0
0.0 0.0004126549803548878 -3.981691947187027e-05 3.1393999168295006e-05 8.422920303575055e-06 8.519776864764539e-06 0.0 0.0
0.0 4.795741534872217e-06 2.2601941564262484e-05 -1.7890251996941394e-05 -4.711689567320947e-06 -3.3347282339375964e-05 0.0 0.0
0.0 2.923282293496374e-05 3.209849773688854e-06 -2.3922014081534034e-06 -8.176483655351133e-07 -1.3295745579668037e-06 0.0 0.0
0.0 2.070058600983047e-05 1.6710908024749043e-06 -1.3432093552828026e-06 -3.2788144719209977e-07 -4.494511068392043e-06 0.0 0.0
0.0 -7.989488373599671e-07 -1.7001878408063846e-07 1.3748410103940425e-07 3.2534683041216744e-08 1.3553837243357947e-07 0.0 0.0
0.0 -1.4033488117531714e-06 -8.512612865721933e-08 6.782733142872001e-08 1.7298797228502913e-08 2.9502270670224826e-07 0.0 0.0
0.0 0.0 0.0 0.0 0.0 0.0 0.0 0.0
0.0 0.0 0.0 0.0 0.0 0.0 0.0 0.0
0.0 0.0 0.0 0.0 0.0 0.0 0.0 0.0
0.0 0.0 0.0 0.0 0.0 0.0 0.0 0.0
0.0 0.0 0.0 0.0 0.0 0.0 0.0 0.0
0.0 0.0 0.0 0.0 0.0 0.0 0.0 0.0
0.0 -1.4176250749758153e-06 -1.038062185939319e-07 8.240279632445718e-08 2.140342226948101e-08 -2.6985320648744304e-07 0.0 0.0
0.0 -9.864583081210404e-06 -1.2722121659871329e-06 9.999408739236726e-07 2.722712920634074e-07 -1.8187823650746176e-06 0.0 0.0
0.0 6.326252599102613e-05 7.307488778871458e-06 -5.710392446275613e-06 -1.5970963325957612e-06 1.029423988352267e-05 0.0 0.0
0.0 2.135312916938703e-05 1.8949943968795184e-05 -1.4809096807112536e-05 -4.140847161682699e-06 1.996297540685496e-05 0.0 0.0
0.0 0.0003448472994702933 -1.8509795760486248e-05 1.373842480669573e-05 4.771370953791123e-06 1.599323118738381e-05 0.0 0.0
0.0 0.00041029639405535203 -0.00044957125602877984 0.00034884898335085584 0.00010072227267792358 -0.0002544245000692088 0.0 0.0
0.0 0.0009964993048105126 -0.0008809121061018395 0.0006923356103052924 0.00018857649579654724 -0.00042097747872242325 0.0 0.0
0.0 0.0017263606942945105 -0.0015638391931044099 0.0012535747107812534 0.0003102644823231559 -0.0006167437657243227 0.0 0.0
0.0 0.0028976097774066414 -0.002618553756589487 0.0021647807071513894 0.00045377304943809574 -0.0008905052261601972 0.0 0.0
0.0 0.00478366362927937 -0.00426890635555845 0.003662562293029995 0.0006063440625284534 -0.0013107616171262892 0.0 0.0
0.0 0.0077667852637728005 -0.006774384798883317 0.006034626143223799 0.000739758655659519 -0.0019737334236671795 0.0 0.0
0.0 0.011875312011926528 -0.010354407655313619 0.00951829533136124 0.0008361123239523814 -0.002952555361410605 0.0 0.0
0.0 0.01719367398413838 -0.0150408395729272 0.01415046645903214 0.0008903731138950584 -0.004284208203123271 0.0 0.0
0.0 0.023833364353818998 -0.020465659116578324 0.019569870145615696 0.0008957889709626241 -0.006229081344566641 0.0 0.0
0.0 0.029936790283814147 -0.025657432719094223 0.02480762025323443 0.0008498124658597843 -0.009195437567195774 0.0 0.0
0.0 0.03369393064143275 -0.02877434050049857 0.028027696123427998 0.0007466443770705772 -0.012829852076288941 0.0 0.0
0.0 0.032283582027857395 -0.026983804928599395 0.026406068088540804 0.000577736840058596 -0.015388714277132289 0.0 0.0
0.0 0.02764365812766205 -0.022035810863506256 0.019195933683042236 0.0028398771804640163 5.91931018090186e-15 0.0 0.0
0.0 0.032283582027858596 -0.026983804928598646 0.02640606808854 0.0005777368400586276 0.015388714277145407 0.0 0.0
0.0 0.03369393064143302 -0.02877434050049741 0.02802769612342708 0.000746644377070315 0.012829852076301376 0.0 0.0
0.0 0.02993679028381191 -0.025657432719091697 0.024807620253232184 0.0008498124658595076 0.009195437567203604 0.0 0.0
0.0 0.023833364353816135 -0.02046565911657554 0.01956987014561335 0.0008957889709621861 0.006229081344569332 0.0 0.0
0.0 0.017193673984134846 -0.015040839572924024 0.014150466459029377 0.0008903731138946406 0.004284208203123644 0.0 0.0
0.0 0.011875312011922302 -0.010354407655309886 0.009518295331357687 0.0008361123239522013 0.002952555361409884 0.0 0.0
0.0 0.007766785263769308 -0.00677438479887969 0.006034626143220663 0.0007397586556590274 0.0019737334236662263 0.0 0.0
0.0 0.0047836636292742825 -0.004268906355553564 0.003662562293025549 0.0006063440625280177 0.0013107616171247006 0.0 0.0
0.0 0.0028976097774024603 -0.0026185537565853443 0.0021647807071479503 0.0004537730494373925 0.0008905052261584621 0.0 0.0
0.0 0.0017263606942903016 -0.0015638391931002203 0.0012535747107777831 0.00031026448232243675 0.000616743765722281 0.0 0.0
0.0 0.0009964993048069697 -0.0008809121060984415 0.0006923356103025468 0.0001885764957958943 0.0004209774787206804 0.0 0.0
0.0 0.0004102963940538999 -0.0004495712560265725 0.0003488489833491392 0.00010072227267743345 0.000254424500068038 0.0 0.0
0.0 0.00034484729946727104 -1.8509795758907033e-05 1.3738424805487868e-05 4.771370953418921e-06 -1.5993231188403945e-05 0.0 0.0
0.0 2.135312916892952e-05 1.894994396838078e-05 -1.4809096806795051e-05 -4.1408471615854926e-06 -1.9962975406442187e-05 0.0 0.0
0.0 6.326252598984977e-05 7.3074887787211745e-06 -5.710392446159517e-06 -1.5970963325614655e-06 -1.0294239883337847e-05 0.0 0.0
0.0 -9.864583081292372e-06 -1.2722121659833138e-06 9.999408739214324e-07 2.7227129206188615e-07 1.8187823651047589e-06 0.0 0.0
0.0 -1.417625074882957e-06 -1.0380621858653202e-07 8.240279631857443e-08 2.1403422267949276e-08 2.6985320646729657e-07 0.0 0.0
0.0 0.0 0.0 0.0 0.0 0.0 0.0 0.0
0.0 0.0 0.0 0.0 0.0 0.0 0.0 0.0
0.0 0.0 0.0 0.0 0.0 0.0 0.0 0.0
0.0 0.0 0.0 0.0 0.0 0.0 0.0 0.0
0.0 0.0 0.0 0.0 0.0 0.0 0.0 0.0
0.0 0.0 0.0 0.0 0.0 0.0 0.0 0.0
0.0 -8.072395551498494e-07 -6.59665456976539e-08 5.2144785137706284e-08 1.3821760559956715e-08 -1.3034314721124464e-07 0.0 0.0
0.0 1.3796608836354492e-05 1.5569983515556792e-06 -1.2019356467112114e-06 -3.5506270484443723e-07 1.6559465827719984e-06 0.0 0.0
0.0 -1.1899151964743104e-05 -2.1528615240783047e-06 1.6831645703360936e-06 4.6969695374220266e-07 -3.084774358828461e-06 0.0 0.0
0.0 0.00021779237947731217 3.2751569385283075e-05 -2.6008049850788844e-05 -6.7435195344935405e-06 4.1150017050127204e-05 0.0 0.0
0.0 0.0003917527207306214 -0.00033960109011270894 0.0002617560087963872 7.784508131632136e-05 -0.00012948471528408993 0.0 0.0
0.0 0.000868649703017875 -0.0007811641061951072 0.0006117849715044528 0.00016937913469065416 -0.00030181603917940364 0.0 0.0
0.0 0.0015174761889405618 -0.001391358243778305 0.001107400823650315 0.00028395742012799006 -0.00044568454476693307 0.0 0.0
0.0 0.0025058831511305156 -0.0022818740204749 0.0018644649792410805 0.0004174090412338197 -0.0006232577119736648 0.0 0.0
0.0 0.004050308889234525 -0.0036320516691236058 0.003065699633047407 0.0005663520360761978 -0.0008711072234362843 0.0 0.0
0.0 0.006519700080455577 -0.005704550787524925 0.004991285514733994 0.0007132652727909335 -0.0012643818808012498 0.0 0.0
0.0 0.00987799315076121 -0.008805908266021224 0.007969870702273276 0.0008360375637479403 -0.001902515326356202 0.0 0.0
0.0 0.014988399262468748 -0.013129718857495126 0.012208659698990815 0.0009210591585043108 -0.0028519389261499805 0.0 0.0
0.0 0.02156828917588717 -0.018729368374785452 0.01775605267563609 0.0009733156991493552 -0.004091343053615842 0.0 0.0
0.0 0.028995724446585585 -0.02525489113240698 0.02427703368031934 0.000977857452087626 -0.005752115639039541 0.0 0.0
0.0 0.03637069876459755 -0.03153724761838832 0.03062683870107389 0.0009104089173144498 -0.008418049934888337 0.0 0.0
0.0 0.04106136717435155 -0.03532568544682378 0.034552260585672866 0.0007734248611509357 -0.012345758091814875 0.0 0.0
0.0 0.03922097861899282 -0.033248983841137406 0.032689703555152425 0.0005592802859849687 -0.016530487700350364 0.0 0.0
0.0 0.033456124992616416 -0.027349566174531555 0.024107021417390385 0.00324254475714115 6.501309907092079e-15 0.0 0.0
0.0 0.03922097861899338 -0.03324898384113613 0.032689703555151176 0.0005592802859849518 0.016530487700364048 0.0 0.0
0.0 0.041061367174350605 -0.0353256854468218 0.03455226058567108 0.0007734248611506759 0.012345758091828217 0.0 0.0
0.0 0.036370698764595186 -0.03153724761838572 0.03062683870107172 0.0009104089173140091 0.008418049934896659 0.0 0.0
0.0 0.028995724446581984 -0.02525489113240361 0.02427703368031639 0.0009778574520872211 0.005752115639042136 0.0 0.0
0.0 0.021568289175883465 -0.01872936837478198 0.017756052675633054 0.0009733156991489138 0.004091343053616745 0.0 0.0
0.0 0.014988399262463948 -0.013129718857490723 0.012208659698986761 0.000921059158503966 0.0028519389261496214 0.0 0.0
0.0 0.00987799315075718 -0.008805908266017284 0.007969870702270046 0.0008360375637472372 0.001902515326355633 0.0 0.0
0.0 0.006519700080450674 -0.00570455078751995 0.004991285514729389 0.0007132652727905587 0.0012643818808001474 0.0 0.0
0.0 0.004050308889228995 -0.003632051669118016 0.0030656996330425566 0.0005663520360754591 0.0008711072234344613 0.0 0.0
0.0 0.002505883151125533 -0.002281874020469972 0.001864464979236864 0.000417409041233108 0.0006232577119718622 0.0 0.0
0.0 0.0015174761889363679 -0.001391358243773986 0.0011074008236467564 0.000283957420127229 0.0004456845447652516 0.0 0.0
0.0 0.0008686497030144322 -0.0007811641061920274 0.0006117849715020308 0.0001693791346899962 0.0003018160391782187 0.0 0.0
0.0 0.00039175272072834613 -0.0003396010901103407 0.0002617560087945303 7.784508131581074e-05 0.0001294847152830326 0.0 0.0
0.0 0.00021779237947519328 3.275156938589352e-05 -2.6008049851243856e-05 -6.743519534649332e-06 -4.115001705028885e-05 0.0 0.0
0.0 -1.1899151966062542e-05 -2.152861524324214e-06 1.6831645705277577e-06 4.696969537964227e-07 3.0847743590658436e-06 0.0 0.0
0.0 1.3796608835523719e-05 1.5569983514632818e-06 -1.2019356466406746e-06 -3.550627048226942e-07 -1.6559465826614462e-06 0.0 0.0
0.0 -8.072395550528953e-07 -6.596654568920498e-08 5.214478513100199e-08 1.3821760558199941e-08 1.3034314719378165e-07 0.0 0.0
0.0 0.0 0.0 0.0 0.0 0.0 0.0 0.0
0.0 0.0 0.0 0.0 0.0 0.0 0.0 0.0
0.0 0.0 0.0 0.0 0.0 0.0 0.0 0.0
0.0 0.0 0.0 0.0 0.0 0.0 0.0 0.0
0.0 0.0 0.0 0.0 0.0 0.0 0.0 0.0
0.0 0.0 0.0 0.0 0.0 0.0 0.0 0.0
0.0 -1.2741394624156704e-07 -9.269825741843089e-09 7.351283344344203e-09 1.918542397498814e-09 -1.9994821134365284e-08 0.0 0.0
0.0 2.3321811914098395e-05 3.3793916812977177e-06 -2.511528714064827e-06 -8.678629672328382e-07 1.2933836513402003e-06 0.0 0.0
0.0 6.438528691620751e-05 2.4111028821288472e-05 -1.8662142079880283e-05 -5.448886741408204e-06 1.4255533553010489e-05 0.0 0.0
0.0 0.00032029513487417016 -0.00016977711216809228 0.0001279951186800487 4.178199348804333e-05 -1.5731225548378066e-05 0.0 0.0
0.0 0.0006822482572625675 -0.0006259437193318781 0.0004874409745235101 0.00013850274480836782 -0.00018031913226227778 0.0 0.0
0.0 0.0012809378324414357 -0.0011854377931105416 0.0009374109097579729 0.00024802688335256854 -0.0002873791485097043 0.0 0.0
0.0 0.00213994749920411 -0.0019488513690246363 0.0015752814267067058 0.00037356994231793167 -0.00039987005742885885 0.0 0.0
0.0 0.003341186254239922 -0.0030568845760413736 0.002541916992096639 0.0005149675839447319 -0.0005431582188525382 0.0 0.0
0.0 0.005269631878268861 -0.004711864825400029 0.004047906728967073 0.0006639580964329574 -0.0007427783172567098 0.0 0.0
0.0 0.007995936751125294 -0.007230938579911425 0.00642476938481958 0.0008061691950918404 -0.0010710815504873955 0.0 0.0
0.0 0.01245343586978777 -0.01090973596172607 0.009993620656347287 0.0009161153053787852 -0.0016251823144517172 0.0 0.0
0.0 0.01820051937619911 -0.015981872241798516 0.014987344619471118 0.0009945276223273893 -0.0024759205174193595 0.0 0.0
0.0 0.02547883169827637 -0.022439876269499708 0.021393447190398835 0.0010464290791008697 -0.0035731222972618013 0.0 0.0
0.0 0.034199125950113075 -0.02991152627547896 0.028854884614754845 0.0010566416607241203 -0.004794530470927971 0.0 0.0
0.0 0.042698220171385665 -0.037204860693358224 0.0362244490264889 0.0009804116668693332 -0.0066263347525008795 0.0 0.0
0.0 0.04822452132086585 -0.04179055381331178 0.04098377975870762 0.0008067740546041236 -0.01051444515170781 0.0 0.0
0.0 0.04644153757919543 -0.03968619430513971 0.03915942585323338 0.0005267684519063392 -0.016914898062015633 0.0 0.0
0.0 0.04002552575621485 -0.03296484732535275 0.029348116599348627 0.0036167307260041217 6.195998575320161e-15 0.0 0.0
0.0 0.04644153757919558 -0.039686194305138374 0.039159425853232094 0.0005267684519062786 0.016914898062028727 0.0 0.0
0.0 0.048224521320863536 -0.04179055381330886 0.040983779758704986 0.0008067740546038812 0.010514445151720779 0.0 0.0
0.0 0.042698220171383125 -0.03720486069335568 0.036224449026486846 0.0009804116668687914 0.006626334752508588 0.0 0.0
0.0 0.03419912595010867 -0.029911526275474942 0.028854884614751046 0.0010566416607238845 0.004794530470930591 0.0 0.0
0.0 0.025478831698271157 -0.02243987626949495 0.021393447190394536 0.0010464290791004061 0.0035731222972630095 0.0 0.0
0.0 0.01820051937619489 -0.015981872241794544 0.014987344619467817 0.0009945276223267449 0.0024759205174196613 0.0 0.0
0.0 0.012453435869782864 -0.010909735961721333 0.009993620656343238 0.0009161153053780801 0.001625182314450969 0.0 0.0
0.0 0.007995936751118933 -0.007230938579905647 0.006424769384814267 0.0008061691950913804 0.001071081550486526 0.0 0.0
0.0 0.005269631878262743 -0.004711864825393758 0.004047906728961452 0.0006639580964323054 0.0007427783172551853 0.0 0.0
0.0 0.0033411862542344945 -0.003056884576035738 0.0025419169920917165 0.0005149675839440204 0.0005431582188508948 0.0 0.0
0.0 0.0021399474991991158 -0.0019488513690196845 0.0015752814267025663 0.0003735699423171189 0.0003998700574274027 0.0 0.0
0.0 0.0012809378324382427 -0.0011854377931065196 0.0009374109097547409 0.0002480268833517785 0.00028737914850867843 0.0 0.0
0.0 0.0006822482572596498 -0.0006259437193285491 0.00048744097452086847 0.00013850274480768076 0.00018031913226123622 0.0 0.0
0.0 0.0003202951348713504 -0.0001697771121660273 0.0001279951186784619 4.178199348756481e-05 1.5731225547655723e-05 0.0 0.0
0.0 6.438528691499685e-05 2.4111028820995175e-05 -1.8662142079645502e-05 -5.4488867413497676e-06 -1.4255533552722931e-05 0.0 0.0
0.0 2.332181191337698e-05 3.3793916812023257e-06 -2.5115287139925853e-06 -8.678629672096622e-07 -1.2933836512714225e-06 0.0 0.0
0.0 -1.2741394617107857e-07 -9.269825735924185e-09 7.351283339679626e-09 1.9185423962452566e-09 1.999482112423785e-08 0.0 0.0
0.0 0.0 0.0 0.0 0.0 0.0 0.0 0.0
0.0 0.0 0.0 0.0 0.0 0.0 0.0 0.0
0.0 0.0 0.0 0.0 0.0 0.0 0.0 0.0
0.0 0.0 0.0 0.0 0.0 0.0 0.0 0.0
0.0 0.0 0.0 0.0 0.0 0.0 0.0 0.0
0.0 0.0 0.0 0.0 0.0 0.0 0.0 0.0
0.0 7.337674105316786e-08 2.2065225593253302e-08 -1.6768119845548247e-08 -5.297105747701291e-09 -7.483555291517125e-09 0.0 0.0
0.0 -6.202052312990327e-07 -4.73701478227252e-08 1.1228355794401434e-07 -6.49134101214163e-08 -1.1389636290504663e-06 0.0 0.0
0.0 0.00020338937222315172 -2.1988762051097308e-05 1.5252291772964997e-05 6.736470278132215e-06 2.4454695169679315e-05 0.0 0.0
0.0 0.00041351553477294575 -0.0004407476805854652 0.00033925131263357034 0.00010149636795189526 -7.628047958180861e-05 0.0 0.0
0.0 0.001029047947798076 -0.0009446733931461868 0.0007417450678893927 0.0002029283252567933 -0.0001465724358238425 0.0 0.0
0.0 0.0017377330538681317 -0.0016288049014642429 0.0013036862228980835 0.00032511867856616 -0.00021316866148114136 0.0 0.0
0.0 0.002793100728467949 -0.0025509275082560004 0.0020935716302448947 0.00045735587801110425 -0.0002873267301676334 0.0 0.0
0.0 0.004305607915211677 -0.0038739156998721744 0.003272281154306559 0.0006016345455656165 -0.00037849229639413213 0.0 0.0
0.0 0.006467279628240567 -0.0058514101457104424 0.0051009505026018255 0.0007504596431086156 -0.0005043650471209848 0.0 0.0
0.0 0.010016100958090931 -0.00880564057113808 0.007921978944277363 0.0008836616268607151 -0.0007275861226797723 0.0 0.0
0.0 0.014671095680750302 -0.013099352857388663 0.01211024588281474 0.0009891069745739164 -0.0011567348791000059 0.0 0.0
0.0 0.02136144158229214 -0.018900019133532002 0.017836981278134965 0.0010630378553970288 -0.001819517416141338 0.0 0.0
0.0 0.029719495384564823 -0.026137490783837137 0.02502990493660437 0.0011075858472327591 -0.0026642137310942363 0.0 0.0
0.0 0.039247397958662486 -0.03437302896246373 0.03325242833316316 0.0011206006293005668 -0.003475752017954667 0.0 0.0
0.0 0.04864973976239472 -0.04250489586279708 0.04142924519705639 0.00107565066574069 -0.0042846015165372954 0.0 0.0
0.0 0.05523468163943046 -0.048077006108441706 0.04720235937866091 0.000874646729780808 -0.00704342968916075 0.0 0.0
0.0 0.054025216014138025 -0.04646800077698469 0.04600300090157915 0.0004649998754055047 -0.015939873319875255 0.0 0.0
0.0 0.04729259256321434 -0.0391757348176414 0.03522914408072622 0.003946590736915157 4.846817391879199e-15 0.0 0.0
0.0 0.05402521601413769 -0.04646800077698327 0.046003000901577884 0.0004649998754053826 0.015939873319886073 0.0 0.0
0.0 0.055234681639427755 -0.048077006108438874 0.047202359378658264 0.0008746467297806348 0.007043429689172241 0.0 0.0
0.0 0.0486497397623901 -0.04250489586279285 0.041429245197052655 0.0010756506657401785 0.004284601516543539 0.0 0.0
0.0 0.039247397958658975 -0.03437302896246033 0.03325242833316045 0.0011206006292998924 0.0034757520179567753 0.0 0.0
0.0 0.02971949538455911 -0.02613749078383192 0.02502990493659974 0.001107585847232174 0.002664213731095301 0.0 0.0
0.0 0.021361441582287553 -0.018900019133527693 0.017836981278131346 0.0010630378553963414 0.0018195174161417544 0.0 0.0
0.0 0.014671095680743255 -0.013099352857382281 0.01211024588280904 0.0009891069745732457 0.001156734879099518 0.0 0.0
0.0 0.010016100958084338 -0.008805640571131815 0.007921978944271752 0.0008836616268600591 0.0007275861226792462 0.0 0.0
0.0 0.00646727962823304 -0.005851410145703594 0.005100950502595735 0.0007504596431078554 0.0005043650471200635 0.0 0.0
0.0 0.004305607915205971 -0.0038739156998660517 0.0032722811543013353 0.0006016345455647178 0.0003784922963928424 0.0 0.0
0.0 0.002793100728462874 -0.0025509275082504067 0.002093571630240107 0.0004573558780102996 0.00028732673016653516 0.0 0.0
0.0 0.0017377330538638639 -0.0016288049014593485 0.0013036862228940232 0.00032511867856532557 0.00021316866148047355 0.0 0.0
0.0 0.0010290479477943427 -0.0009446733931421429 0.0007417450678861161 0.00020292832525602644 0.0001465724358231514 0.0 0.0
0.0 0.0004135155347702339 -0.0004407476805826162 0.0003392513126313493 0.00010149636795126657 7.628047958114892e-05 0.0 0.0
0.0 0.00020338937222153541 -2.1988762050631464e-05 1.5252291772634039e-05 6.7364702779977145e-06 -2.4454695169554137e-05 0.0 0.0
0.0 -6.202052321389019e-07 -4.7370147949973216e-08 1.122835580394632e-07 -6.491341008931977e-08 1.138963629118439e-06 0.0 0.0
0.0 7.337674114886627e-08 2.206522560253158e-08 -1.6768119852864236e-08 -5.297105749670106e-09 7.483555280365037e-09 0.0 0.0
0.0 0.0 0.0 0.0 0.0 0.0 0.0 0.0
0.0 0.0 0.0 0.0 0.0 0.0 0.0 0.0
0.0 0.0 0.0 0.0 0.0 0.0 0.0 0.0
0.0 0.0 0.0 0.0 0.0 0.0 0.0 0.0
0.0 0.0 0.0 0.0 0.0 0.0 0.0 0.0
0.0 0.0 0.0 0.0 0.0 0.0 0.0 0.0
0.0 -3.1147548523263973e-06 -3.641877066530424e-07 2.762454692761061e-07 8.794223737689781e-08 -1.7018927991994734e-07 0.0 0.0
0.0 6.236073386889731e-05 1.1076393772225605e-05 -8.268311956139407e-06 -2.8080818160859204e-06 5.645059263182993e-07 0.0 0.0
0.0 0.0002713909767065293 -0.00014664820337224882 0.00010805157474479345 3.859662862745545e-05 3.2820512311230115e-05 0.0 0.0
0.0 0.0007100564439716946 -0.0006744918884161927 0.000524486071359033 0.00015000581705715938 -2.7747152270748562e-05 0.0 0.0
0.0 0.001383387946420213 -0.001294872808892864 0.00102611417812425 0.00026875863076861395 -5.6145800005722135e-05 0.0 0.0
0.0 0.0022864733020419277 -0.0020976827535372847 0.0017013065065926973 0.000396376246944587 -8.043637768253209e-05 0.0 0.0
0.0 0.0034813967704549406 -0.003187314299250437 0.0026526639955210527 0.0005346503037293831 -0.00010586621328411669 0.0 0.0
0.0 0.005237565816032211 -0.0047363319195895155 0.0040554395435441135 0.0006808923760454012 -0.00012957711230485535 0.0 0.0
0.0 0.007991587696440127 -0.007031277746919423 0.006205759770572389 0.0008255179763470373 -0.00015165348469863788 0.0 0.0
0.0 0.011615700187494141 -0.010462379758451167 0.009508457276138253 0.0009539224823129213 -0.0002601183795927031 0.0 0.0
0.0 0.01721198502361114 -0.015338713929213942 0.014283047282697007 0.0010556666465169492 -0.0004897826346726693 0.0 0.0
0.0 0.024690321330463987 -0.0218443355103181 0.020716751178046503 0.0011275843322715994 -0.0008444303810438755 0.0 0.0
0.0 0.03390563449574674 -0.029828051580388558 0.028662731101953446 0.0011653204784350972 -0.001330070406071629 0.0 0.0
0.0 0.04416647345673198 -0.03867889783481063 0.03751216288394476 0.0011667349508658576 -0.0017979699713963778 0.0 0.0
0.0 0.05417348347838068 -0.047294022442735686 0.04615184038993949 0.001142182052796185 -0.0020154509232076278 0.0 0.0
0.0 0.06173827366500275 -0.05382241497314427 0.05274803894982135 0.0010743760233229453 -0.0028311571409279064 0.0 0.0
0.0 0.06216235053041323 -0.053750406577336866 0.05333183610339545 0.0004185704739414519 -0.010763749037586968 0.0 0.0
0.0 0.05599657553347303 -0.04664649642614299 0.0425867429537685 0.004059753472374453 3.4789879310714866e-15 0.0 0.0
0.0 0.06216235053041106 -0.05375040657733452 0.05333183610339334 0.0004185704739411597 0.010763749037592881 0.0 0.0
0.0 0.061738273664998164 -0.05382241497314028 0.052748038949817264 0.0010743760233229845 0.0028311571409348484 0.0 0.0
0.0 0.05417348347837503 -0.047294022442730614 0.04615184038993489 0.0011421820527957166 0.002015450923211016 0.0 0.0
0.0 0.044166473456728236 -0.038678897834806894 0.03751216288394191 0.001166734950864982 0.0017979699713973746 0.0 0.0
0.0 0.03390563449574045 -0.029828051580382837 0.028662731101948394 0.0011653204784344352 0.0013300704060726864 0.0 0.0
0.0 0.024690321330459165 -0.0218443355103135 0.02071675117804283 0.0011275843322706809 0.0008444303810440363 0.0 0.0
0.0 0.017211985023603042 -0.015338713929206634 0.014283047282690383 0.0010556666465162472 0.0004897826346724236 0.0 0.0
0.0 0.011615700187486283 -0.010462379758443977 0.009508457276131897 0.0009539224823120813 0.00026011837959246607 0.0 0.0
0.0 0.007991587696431265 -0.007031277746911096 0.006205759770564836 0.0008255179763462601 0.00015165348469804702 0.0 0.0
0.0 0.005237565816024786 -0.00473633191958268 0.004055439543538095 0.0006808923760445832 0.0001295771123044801 0.0 0.0
0.0 0.0034813967704490334 -0.003187314299244459 0.0026526639955158915 0.0005346503037285678 0.00010586621328338198 0.0 0.0
0.0 0.0022864733020369443 -0.0020976827535317925 0.0017013065065880869 0.00039637624694370495 8.043637768205268e-05 0.0 0.0
0.0 0.0013833879464155748 -0.0012948728088878116 0.0010261141781200806 0.00026875863076773103 5.6145800005436116e-05 0.0 0.0
0.0 0.0007100564439684563 -0.0006744918884123756 0.0005244860713559687 0.00015000581705640662 2.774715227029483e-05 0.0 0.0
0.0 0.00027139097670462727 -0.00014664820337093759 0.00010805157474382413 3.859662862711353e-05 -3.2820512311079634e-05 0.0 0.0
0.0 6.23607338677624e-05 1.1076393772021063e-05 -8.268311955981922e-06 -2.8080818160394776e-06 -5.645059262422607e-07 0.0 0.0
0.0 -3.114754852036594e-06 -3.641877066149864e-07 2.762454692471083e-07 8.794223736788083e-08 1.7018927990660705e-07 0.0 0.0
0.0 0.0 0.0 0.0 0.0 0.0 0.0 0.0
0.0 0.0 0.0 0.0 0.0 0.0 0.0 0.0
0.0 0.0 0.0 0.0 0.0 0.0 0.0 0.0
0.0 0.0 0.0 0.0 0.0 0.0 0.0 0.0
0.0 0.0 0.0 0.0 0.0 0.0 0.0 0.0
0.0 0.0 0.0 0.0 0.0 0.0 0.0 0.0
0.0 1.7636623207809426e-06 8.772247649397419e-08 -1.1225958409810134e-08 -7.649651808398215e-08 -3.3797886538503865e-07 0.0 0.0
0.0 0.00012688219297957978 2.3377623335659486e-05 -1.786254025367056e-05 -5.515083081988909e-06 3.182631738878978e-06 0.0 0.0
0.0 0.00044655188426454836 -0.00028364497733175946 0.0002089024386882708 7.474253864348878e-05 5.0932391354988455e-05 0.0 0.0
0.0 0.0009561591416133762 -0.0009038382940872396 0.0006938033851783786 0.0002100349089088611 2.7966238848606552e-05 0.0 0.0
0.0 0.001712797965157557 -0.00160428193215851 0.0012555731609412346 0.000348708771217275 3.80734340208538e-05 0.0 0.0
0.0 0.0026841882109586014 -0.0025147897628693986 0.002015049758943984 0.0004997400039254149 6.916501335098085e-05 0.0 0.0
0.0 0.004077179571819762 -0.00373945484005856 0.003074469561258088 0.0006649852788004711 0.00011317802189724272 0.0 0.0
0.0 0.0061185326540209905 -0.005478657647030923 0.004629255758666113 0.0008494018883648098 0.00021497398819890208 0.0 0.0
0.0 0.008871467613427676 -0.008071247359989205 0.007020170332734136 0.0010510770272550663 0.0003816789435117068 0.0 0.0
0.0 0.013123916235320174 -0.011881215772519337 0.010631824016841849 0.0012493917556774805 0.0005089902528045002 0.0 0.0
0.0 0.019187973586151905 -0.017236606699218664 0.015791385693426044 0.0014452210057926118 0.0006355048098300375 0.0 0.0
0.0 0.027262558880890568 -0.02430903800065461 0.02268361261721024 0.0016254253834443377 0.0006666961287646487 0.0 0.0
0.0 0.037141948510099825 -0.03288279375534736 0.031110947870932618 0.00177184588441477 0.0005430076382959043 0.0 0.0
0.0 0.04792425134701848 -0.04220515647604476 0.04034671672510103 0.001858439750943703 0.00027704726670369547 0.0 0.0
0.0 0.05812200780931581 -0.05098732649083193 0.04914441127767604 0.0018429152131558912 -8.953449680072605e-06 0.0 0.0
0.0 0.06584882785336273 -0.057701229325461054 0.055893905022622835 0.0018073243028381746 -0.0001483538692873096 0.0 0.0
0.0 0.06821080833015383 -0.06008511820907063 0.058436933428777635 0.0016481847802929483 -0.0070166968324024154 0.0 0.0
0.0 0.0651533121872518 -0.05490791796484523 0.04889826505269891 0.006009652912146344 2.9178048865929895e-15 0.0 0.0
0.0 0.06821080833015086 -0.060085118209068034 0.058436933428775054 0.0016481847802929947 0.0070166968324057106 0.0 0.0
0.0 0.06584882785335633 -0.05770122932545557 0.05589390502261739 0.0018073243028381729 0.00014835386929134848 0.0 0.0
0.0 0.058122007809309754 -0.05098732649082636 0.04914441127767124 0.0018429152131551386 8.953449681738807e-06 0.0 0.0
0.0 0.04792425134701405 -0.042205156476040374 0.04034671672509775 0.0018584397509426218 -0.0002770472667035775 0.0 0.0
0.0 0.03714194851009248 -0.032882793755340575 0.03111094787092658 0.0017718458844139758 -0.0005430076382947997 0.0 0.0
0.0 0.027262558880885326 -0.0243090380006495 0.02268361261720634 0.001625425383443159 -0.000666696128764575 0.0 0.0
0.0 0.01918797358614354 -0.017236606699211034 0.01579138569341932 0.0014452210057917256 -0.0006355048098300618 0.0 0.0
0.0 0.013123916235311504 -0.011881215772511328 0.010631824016834905 0.0012493917556764276 -0.0005089902528046342 0.0 0.0
0.0 0.008871467613417483 -0.008071247359979978 0.007020170332725698 0.0010510770272542814 -0.0003816789435121947 0.0 0.0
0.0 0.006118532654012231 -0.005478657647022756 0.00462925575865881 0.0008494018883639484 -0.00021497398819858647 0.0 0.0
0.0 0.00407717957181267 -0.0037394548400522323 0.00307446956125263 0.0006649852787996004 -0.00011317802189757199 0.0 0.0
0.0 0.002684188210952691 -0.0025147897628635283 0.00201504975893917 0.00049974000392436 -6.916501335150593e-05 0.0 0.0
0.0 0.0017127979651517986 -0.0016042819321526076 0.0012555731609363721 0.00034870877121623495 -3.807343402089392e-05 0.0 0.0
0.0 0.000956159141609462 -0.0009038382940827467 0.0006938033851748435 0.00021003490890790375 -2.796623884872992e-05 0.0 0.0
0.0 0.00044655188426207285 -0.0002836449773296657 0.00020890243868673097 7.474253864293513e-05 -5.093239135476526e-05 0.0 0.0
0.0 0.0001268821929786878 2.3377623335598893e-05 -1.7862540253615034e-05 -5.515083081983372e-06 -3.182631738800028e-06 0.0 0.0
0.0 1.7636623200280421e-06 8.77224763944313e-08 -1.1225958337534084e-08 -7.649651805697673e-08 3.3797886538320207e-07 0.0 0.0
0.0 0.0 0.0 0.0 0.0 0.0 0.0 0.0
0.0 0.0 0.0 0.0 0.0 0.0 0.0 0.0
0.0 0.0 0.0 0.0 0.0 0.0 0.0 0.0
SCALARS Wm float 4
LOOKUP_TABLE default
4.894095054524506 1.6824182820019828 1.397096655902953 1.8145801166195696
1.5401381346511827 1.0247056818048945 0.1823876971353571 0.33304475571093073
0.33697681102020227 0.3367487948328251 2.6670889979703676e-05 0.00020134529739747982
0.3592671855884807 0.3626537458250319 -0.0004873687015177926 -0.002899191535033343
0.5098060944924881 0.5162177219210476 -1.1750779799523173e-06 -0.006410452350579429
0.7740351577528262 0.6021655836372451 0.04256430388998012 0.1293052702256012
1.1835003444565995 0.7680129498794225 0.13368298795746172 0.2818044066197149
1.7080263867611283 0.9292990438450082 0.27354392329056726 0.5051834196255526
2.4010078271098436 1.1167359513571036 0.485215170411731 0.7990567053410079
3.3711636066188584 1.3531420484981413 0.8178655796065211 1.2001559785141969
4.796842635307987 1.6697863540878508 1.3514480386724406 1.7756082425476971
6.911603595591487 2.0940195744173407 2.1733206661820574 2.6442633549920886
10.136428339419641 2.637391383773279 3.5597596292576585 3.9392773263887033
14.813807359319897 3.312541534955316 5.727386708377063 5.773879115987515
21.163341695567546 4.073806632369132 8.890431301432018 8.199103761766391
29.11674482231357 4.826005480571408 13.12884536746437 11.161893974277795
38.11988564814103 5.421436585181528 18.20484593176323 14.493603131196283
47.16722817616227 5.722221432908807 23.60499690209048 17.840009841162967
55.044127890354616 5.72102011878013 28.549720987583573 20.77338678399091
60.453043807470635 5.505989977223519 32.0705984996935 22.876455330553604
62.31299916834922 5.250543069099863 33.372119148074646 23.69033695117472
60.45304380746836 5.505989977221605 32.07059849969326 22.8764553305535
55.044127890351454 5.721020118780327 28.549720987581455 20.773386783989675
47.16722817615713 5.722221432907547 23.60499690208806 17.84000984116154
38.11988564813335 5.421436585177319 18.204845931761135 14.493603131194902
29.116744822308185 4.826005480570218 13.128845367461873 11.161893974276111
21.163341695561023 4.073806632366492 8.890431301429814 8.199103761764704
14.813807359312776 3.312541534953561 5.727386708374082 5.773879115985135
10.136428339412818 2.6373913837714564 3.559759629255012 3.9392773263863488
6.911603595584595 2.094019574415265 2.173320666179639 2.6442633549896937
4.796842635301636 1.6697863540855007 1.3514480386705312 1.7756082425456037
3.371163606614117 1.3531420484968792 0.817865579604917 1.2001559785123206
2.4010078271059965 1.1167359513561748 0.4852151704105111 0.7990567053393104
1.7080263867579064 0.9292990438441613 0.2735439232896713 0.5051834196240736
1.1835003444539312 0.7680129498782904 0.13368298795701167 0.2818044066186296
0.7740351577512637 0.6021655836365893 0.042564303889944054 0.1293052702247306
0.5098060944916645 0.516217721920391 -1.1750780302130162e-06 -0.006410452350696084
0.35926718558808424 0.36265374582460064 -0.0004873687015116937 -0.002899191535004801
0.3369768110200015 0.336748794832558 2.667088999503176e-05 0.00020134529744848687
1.540138134650712 1.0247056818053142 0.18238769713503555 0.33304475571036174
4.894095054514194 1.6824182819955689 1.3970966559010778 1.8145801166175484
5.219585908628941 2.7541314345119967 1.0237900655707324 1.441664408546212
0.35884988910298027 0.2163431964408248 0.026488167475265403 0.11601852518688986
0.17791502176743873 0.17852739334974044 -8.139389876643801e-05 -0.0005309776835352953
0.2941148567680977 0.29435366560950815 -9.213948674856948e-06 -0.00022959489273551763
0.4085523336544163 0.4147208207698953 -0.001531060300861419 -0.004637426814617651
0.6391699485888269 0.5710737502668614 0.018455556511926964 0.049640641810038674
0.9789105622198475 0.6749007084092532 0.09126084689079778 0.21274900691979662
1.4311574587241132 0.811536692093517 0.210409157466248 0.40921160916434807
2.022608796380969 0.9587012573656276 0.39397756664551575 0.6699299723698257
2.8294856913130477 1.1311797093875773 0.6710355658060481 1.0272704161194222
4.008036288218822 1.3452934620298658 1.119838242763239 1.5429045834257167
5.826403993800496 1.6190121883736983 1.8904767221539795 2.316915083272819
8.501043471495263 1.9490580194645049 3.058984393453705 3.493001058577054
12.525899498187288 2.3436392306940252 5.004593880913619 5.1776663865796415
18.06498878030623 2.77470323558029 7.854171632230907 7.436113912495032
25.066531619944115 3.1688199527257552 11.681677439434031 10.216034227784322
33.07175909753933 3.4264238332060564 16.32788640982802 13.317448854505235
41.22568648969965 3.4809007536895273 21.299356434256584 16.44542930175353
48.41630892001099 3.339072254052842 25.869875520236533 19.207361145721624
53.46074177588936 3.0610080317718076 29.232673492050395 21.167060252067152
55.293154486902736 2.8202133830413203 30.554319192677667 21.918621911183756
53.46074177588775 3.0610080317706707 29.232673492050083 21.167060252066996
48.41630892000788 3.3390722540522106 25.869875520234977 19.207361145720693
41.225686489695754 3.4809007536886907 21.299356434254683 16.445429301752387
33.071759097534525 3.4264238332034553 16.32788640982673 13.317448854504352
25.06653161993908 3.1688199527239442 11.681677439432132 10.216034227783009
18.064988780301636 2.7747032355797807 7.854171632228589 7.4361139124932745
12.525899498181182 2.3436392306923794 5.004593880911173 5.177666386577631
8.501043471489574 1.949058019463228 3.0589843934514014 3.493001058574945
5.826403993794929 1.619012188372396 1.8904767221518912 2.31691508327064
4.008036288213537 1.3452934620280832 1.1198382427615945 1.54290458342386
2.829485691309081 1.1311797093865428 0.6710355658047864 1.0272704161177517
2.0226087963777357 0.9587012573649416 0.39397756664452227 0.6699299723682721
1.4311574587214242 0.8115366920930103 0.21040915746544567 0.4092116091629677
0.978910562217824 0.6749007084085827 0.09126084689048461 0.21274900691875637
0.6391699485874947 0.5710737502661171 0.018455556511714936 0.049640641809662614
0.4085523336538427 0.4147208207693248 -0.0015310603008629863 -0.0046374268146190875
0.29411485676780563 0.2943536656092014 -9.21394867310587e-06 -0.00022959489272272572
0.17791502176742238 0.17852739334972798 -8.139389876765554e-05 -0.0005309776835379249
0.358849889102681 0.21634319644122907 0.026488167475021838 0.11601852518642988
5.219585908618943 2.754131434506055 1.0237900655688532 1.4416644085440364
3.853443013046428 2.22371621501793 0.6323356121711396 0.997391185857357
0.128929058073367 0.07848313187578616 -1.3569019263560966e-05 0.050459495216844535
0.10886559403904396 0.10886559403904396 0.0 0.0
0.21786236636627168 0.21783691030097582 1.0209333791935691e-05 1.5246731503918646e-05
0.3313886209453766 0.33271438473204906 -0.00016662319896261013 -0.0011591405877099618
0.5122916121856819 0.5005477850156771 0.0036738878936786487 0.00806993927632595
0.7920705824711887 0.601903744742271 0.050880745658851076 0.13928609207006637
1.1798469578030049 0.7394079522888093 0.14085116589469646 0.2995878396194993
1.677381459433962 0.876054181553096 0.2812300309676673 0.5200972469131981
2.3660185428479004 1.0362085074910852 0.508474762568216 0.8213352727885992
3.361689682123241 1.2302096203190518 0.8730191620375638 1.2584608997666253
4.858492877542467 1.4704118996863007 1.4644024118585246 1.9236785659976423
7.228100164708161 1.7756871940829262 2.5209155276308763 2.9314974429943566
10.654343536971144 2.1303159607113167 4.104109982317086 4.41991759394274
15.51544894690753 2.514246542770257 6.565976522354628 6.435225881782643
21.70380998727447 2.8695325736990953 9.894019228337719 8.94025818523766
28.823978010890272 3.1189983213112824 13.931856638094597 11.773123051484394
36.130764848709816 3.2039932758445837 18.30137222904354 14.625399343821691
42.63374276847466 3.1007404338590554 22.38308416837952 17.149918166236088
47.237399453776575 2.8732164240284814 25.41711849386812 18.947064535879974
48.8961774922419 2.60535753552911 26.624597925358927 19.66622203135386
47.23739945377587 2.8732164240287723 25.41711849386751 18.947064535879598
42.633742768472544 3.1007404338587734 22.38308416837837 17.1499181662354
36.13076484870661 3.203993275843373 18.30137222904244 14.625399343820792
28.8239780108869 3.1189983213094763 13.93185663809361 11.7731230514838
21.703809987270876 2.8695325736982413 9.894019228336123 8.94025818523651
15.51544894690314 2.5142465427695493 6.565976522352572 6.43522588178102
10.65434353696617 2.1303159607098636 4.104109982315194 4.41991759394111
7.228100164703379 1.775687194081967 2.5209155276289525 2.9314974429924594
4.858492877537645 1.4704118996852595 1.4644024118566987 1.9236785659956888
3.3616896821189948 1.230209620317773 0.8730191620362839 1.2584608997649371
2.3660185428445923 1.0362085074904483 0.5084747625671321 0.8213352727870118
1.6773814594311744 0.8760541815524172 0.2812300309668777 0.5200972469118789
1.1798469578005495 0.7394079522881838 0.1408511658941531 0.2995878396182128
0.792070582469406 0.6019037447416942 0.05088074565855196 0.1392860920691599
0.5122916121846909 0.5005477850149112 0.0036738878936232607 0.008069939276156547
0.33138862094482874 0.33271438473145154 -0.000166623198954758 -0.0011591405876679763
0.21786236636600426 0.21783691030070407 1.0209333792484596e-05 1.5246731507732191e-05
0.10886559403898995 0.10886559403898995 0.0 0.0
0.12892905807307758 0.0784831318762203 -1.3569019456328643e-05 0.050459495216313495
3.853443013038088 2.223716215013496 0.6323356121694326 0.9973911858551594
2.8503991133638547 1.7589282779704298 0.3970790676367708 0.6943917677566543
0.05797956379468945 0.05905764756105712 -0.013044468983546283 0.01196638521717868
0.07568695529514215 0.07568695529514215 0.0 0.0
0.1555472403072089 0.15555279785278892 -4.447740858657399e-07 -5.112771494131468e-06
0.2667019088139021 0.26781352807979886 -0.0001504810589149835 -0.0009611382069817612
0.4043069584221318 0.4124682523122253 -0.0021811725665446366 -0.005980121323548821
0.6283481171325859 0.5590485462095509 0.01668115758071466 0.052618413342320286
0.9445794647460047 0.6630315360210851 0.08284613966244773 0.19870178906247216
1.3616760394384753 0.7913901414343655 0.18964193859204345 0.3806439594120664
1.9300918785105237 0.9378832291873987 0.3634548840944712 0.6287537652286541
2.741176826846374 1.109394925678728 0.6388957684260017 0.9928861327416432
4.000837324104818 1.3285824455561566 1.1259334026205763 1.5463214759280846
5.919110149115648 1.595005472841068 1.9189099784906694 2.4051946977839096
8.922459499277993 1.9167963285697553 3.328145961052743 3.677517209655494
13.076535912331423 2.259734310638377 5.370110262792757 5.446691338900284
18.401336678213084 2.577670621154166 8.153006000686457 7.6706600563724585
24.664016814618485 2.818823857241289 11.654515950762507 10.19067700661469
31.15164653505876 2.9320662772482313 15.447493451681149 12.772086806129382
36.99475983039262 2.8786189347043356 19.0181380105377 15.098002885150585
41.19441237687899 2.691531373409389 21.709588136694403 16.79329286677518
42.72173038832614 2.3779741654998956 22.865489990300006 17.478266232526224
41.194412376877715 2.691531373409245 21.70958813669373 16.79329286677474
36.994759830390656 2.8786189347040243 19.018138010536685 15.098002885149956
31.15164653505726 2.9320662772486563 15.447493451679986 12.772086806128616
24.66401681461592 2.8188238572404787 11.654515950761471 10.190677006613978
18.40133667820955 2.5776706211530533 8.15300600068506 7.670660056371426
13.076535912327289 2.259734310636738 5.370110262791387 5.446691338899161
8.922459499273746 1.916796328568576 3.3281459610511543 3.677517209654014
5.9191101491113995 1.595005472840123 1.9189099784890402 2.405194697782237
4.000837324100845 1.3285824455550617 1.125933402619296 1.5463214759264883
2.741176826842979 1.109394925677968 0.6388957684249015 0.9928861327401084
1.9300918785074959 0.9378832291865571 0.36345488409359583 0.6287537652273428
1.361676039435996 0.7913901414334952 0.1896419385915413 0.3806439594109595
0.9445794647439589 0.6630315360203631 0.08284613966203219 0.19870178906156355
0.6283481171311034 0.5590485462088154 0.016681157580490644 0.0526184133417972
0.4043069584214761 0.41246825231151835 -0.002181172566529892 -0.00598012132351216
0.26670190881344913 0.2678135280793258 -0.00015048105891243965 -0.0009611382069641988
0.15554724030700742 0.1555527978525866 -4.4477408578696373e-07 -5.112771493408794e-06
0.07568695529504016 0.07568695529504016 0.0 0.0
0.05797956379420688 0.059057647561192805 -0.013044468983695833 0.01196638521670995
2.8503991133575033 1.7589282779672244 0.39707906763554063 0.6943917677547381
2.0767322148939216 1.3659759030930887 0.23606391329481693 0.47469239850601574
0.06785090970544876 0.11332242953356328 -0.01481325218111319 -0.03065826764700142
0.06746824251229376 0.06746824251229376 0.0 0.0
0.11536659353126363 0.11536659353126363 0.0 0.0
0.21127435085151708 0.21060821466785506 9.171096463469714e-05 0.000574425219027352
0.32405996809650756 0.32693472702986076 -0.00031745620165025756 -0.0025573027317030116
0.48584552580238827 0.4985544647888362 -0.0016196816567146893 -0.011089257329733246
0.7286748826492677 0.5832292988535057 0.037763627031631074 0.10768195676413089
1.068383671068149 0.7017365866660499 0.11320272592009911 0.253444358482
1.5215362137842978 0.832675247095011 0.2364657002800757 0.4523952664092108
2.177221238015887 0.9882890528712329 0.44497058767622777 0.7439615974684264
3.184441498512178 1.1818879857191926 0.8099205281657542 1.1926329846272306
4.786084733551548 1.4225454510294846 1.4666968507278233 1.89684243179424
7.176135100576586 1.7017342955289851 2.502203131652255 2.9721976733953466
10.693307702786054 2.0027116397486995 4.21208904270487 4.478507020332488
15.277212501694848 2.291991206552063 6.585961851934239 6.399259443208549
20.60175227582801 2.5259996771222917 9.460375551717142 8.615377046988565
26.25445476527498 2.66421032342657 12.686722191932594 10.903522249915813
31.465875623951387 2.663733956358779 15.801587487336217 13.00055418025639
35.32847659114481 2.5130580244031604 18.234316448298607 14.581102118443024
36.75588438375037 2.145202335865244 19.330646776155312 15.280035271729822
35.328476591145595 2.513058024406096 18.23431644829728 14.581102118442203
31.465875623950126 2.6637339563588993 15.80158748733538 13.000554180255847
26.25445476527223 2.6642103234256678 12.686722191931501 10.90352224991506
20.601752275825035 2.525999677120555 9.46037555171642 8.61537704698806
15.277212501692572 2.2919912065519203 6.585961851933053 6.399259443207592
10.693307702783198 2.0027116397480356 4.212089042703703 4.478507020331462
7.176135100572969 1.7017342955275603 2.502203131651157 2.9721976733942514
4.78608473354833 1.4225454510287932 1.4666968507266547 1.8968424317928836
3.1844414985087557 1.181887985718216 0.8099205281646927 1.1926329846258459
2.1772212380129154 0.9882890528707239 0.44497058767520964 0.7439615974669825
1.5215362137818984 0.8326752470941414 0.23646570027952607 0.4523952664082311
1.068383671066128 0.7017365866652784 0.11320272591970247 0.2534443584811474
0.7286748826476714 0.5832292988529404 0.03776362703133532 0.10768195676339541
0.4858455258013989 0.4985544647879539 -0.0016196816567509078 -0.011089257329804127
0.3240599680959217 0.32693472702921883 -0.00031745620164196726 -0.0025573027316552503
0.2112743508511806 0.21060821466753188 9.17109646326912e-05 0.0005744252190160108
0.11536659353111398 0.11536659353111398 0.0 0.0
0.0674682425120932 0.0674682425120932 0.0 0.0
0.06785090970489907 0.11332242953340205 -0.014813252181248213 -0.030658267647254878
2.0767322148892005 1.3659759030906953 0.23606391329396811 0.47469239850453765
1.4917314267249382 1.0733083727115762 0.12774201721268907 0.29068103680067303
0.08835193227933397 0.13574378699238931 -0.015187502160573733 -0.03220435255248162
0.07637022854331801 0.07637022854331801 0.0 0.0
0.09595932392796638 0.09595932392796638 0.0 0.0
0.16902945809313347 0.16893390134989045 9.472760497826104e-06 8.60839827451935e-05
0.25921338292417334 0.2593837444552305 1.8412847005616895e-05 -0.00018877437806279925
0.37144801832042934 0.3785917687421724 -0.001778037533793232 -0.005365712887949783
0.5478852109170067 0.53831290922179 0.005471998082394371 0.004100303612822355
0.7925137484351208 0.5905787434564284 0.05486530303664914 0.14706970194204344
1.152444160553277 0.7249197035605901 0.135350357459132 0.29217409953355455
1.6546492526774699 0.860934526112987 0.2784208754475054 0.5152938511169765
2.4287585006270973 1.0298461562270835 0.5342568738260307 0.8646554705739832
3.664331003297365 1.2402104793936637 1.0014150894381215 1.4227054344655812
5.6170390202217515 1.487706787320782 1.8389769905606266 2.2903552423403433
8.427421238342724 1.753888288215232 3.1347143086075566 3.5388186415199354
12.138548022588937 2.0058921578004902 4.9773971193885895 5.155258745399858
16.686602071507224 2.2284465157527706 7.427141531179666 7.031014024574791
21.480452195991006 2.3965976188418283 10.061242504744179 9.022612072405003
26.003805149898472 2.4501808862100773 12.652217798040974 10.901406465647419
29.569117334852976 2.336961433220598 14.858770283354154 12.373385618278222
30.925009118784995 1.9088787132053588 15.93302058141454 13.083109824165094
29.569117334850926 2.336961433221129 14.858770283352587 12.37338561827722
26.003805149897822 2.450180886210877 12.652217798040125 10.901406465646824
21.480452195990793 2.3965976188437943 10.06124250474289 9.022612072404113
16.6866020715056 2.2284465157522324 7.427141531179042 7.031014024574326
12.138548022586436 2.00589215779976 4.977397119387643 5.155258745399035
8.427421238340273 1.7538882882149356 3.1347143086064295 3.538818641518907
5.617039020219536 1.487706787320484 1.838976990559721 2.290355242339333
3.664331003294659 1.2402104793930269 1.0014150894371863 1.422705434464446
2.428758500624429 1.0298461562264252 0.5342568738252038 0.8646554705727995
1.6546492526751204 0.8609345261125305 0.27842087544678584 0.515293851115804
1.1524441605512938 0.7249197035597691 0.13535035745873505 0.2921740995327895
0.792513748433603 0.5905787434558081 0.05486530303641152 0.14706970194138314
0.5478852109157886 0.5383129092210956 0.0054719980822210326 0.0041003036124716424
0.37144801831971497 0.37859176874132006 -0.0017780375337531102 -0.005365712887852158
0.2592133829236903 0.25938374445468876 1.8412847011878888e-05 -0.00018877437801031305
0.16902945809284559 0.16893390134961037 9.472760496901222e-06 8.608398273830182e-05
0.0959593239277658 0.0959593239277658 0.0 0.0
0.07637022854308159 0.07637022854308159 0.0 0.0
0.08835193227879523 0.13574378699190373 -0.015187502160583479 -0.03220435255252503
1.4917314267215938 1.0733083727100736 0.12774201721211947 0.29068103679940077
1.0396982308074638 0.8307704019107391 0.054495381052537664 0.15443244784418705
0.11840103241906332 0.1512086575318829 -0.008370411196835108 -0.024437213915984423
0.09430024952767516 0.09430024952767516 0.0 0.0
0.09278411403403444 0.09278411403403444 0.0 0.0
0.14090467587644956 0.14094394712896147 -4.65640807156265e-06 -3.461484444036511e-05
0.20745040236912385 0.20705854075958532 5.7045865582083575e-05 0.00033481574395643457
0.2879308337700691 0.2888878498428109 -6.612326879051136e-05 -0.000890892803951384
0.39277528820221863 0.4050421504734016 -0.003865442099594526 -0.008401420171588389
0.5715131123590793 0.5482490591907786 0.010213461192258725 0.013050591976042037
0.8114373907191043 0.5944664204116403 0.05882868675167767 0.15814228355578655
1.1851473314118701 0.7281634372849254 0.1461594767231549 0.31082441740378985
1.7502710451059278 0.8736932764876587 0.3128898552882167 0.5636879133300526
2.66011746388408 1.0542178455576297 0.6248574626714036 0.9810421556550466
4.116118764555232 1.2680004219470367 1.2002854470440603 1.6478328955641346
6.275600109475305 1.4963947979860834 2.146709260120243 2.632496051368978
9.267100004156042 1.7288019956238805 3.606169932050032 3.932128076482128
12.753779117064953 1.9303232023662322 5.339289760220973 5.484166154477745
16.745093866052137 2.1121550952125157 7.501902276631451 7.131036494208163
20.716049822943447 2.228554800187004 9.727707219405165 8.759787803351276
23.943216962486183 2.1647904550985304 11.637784157952227 10.140642349435428
25.263150577923394 1.6734197343726327 12.710163896996988 10.879566946553766
23.943216962484666 2.164790455097735 11.637784157951797 10.140642349435131
20.716049822941297 2.2285548001860707 9.727707219404428 8.759787803350793
16.745093866049327 2.1121550952115404 7.501902276630385 7.1310364942074
12.753779117062848 1.9303232023653556 5.339289760220299 5.484166154477195
9.267100004154193 1.7288019956231604 3.606169932049411 3.932128076481619
6.275600109473427 1.4963947979856647 2.1467092601195494 2.632496051368211
4.1161187645532715 1.2680004219466237 1.200285447043339 1.6478328955633101
2.6601174638821012 1.054217845557234 0.6248574626707162 0.981042155654151
1.7502710451037387 0.873693276486864 0.3128898552876635 0.5636879133292113
1.1851473314101328 0.7281634372846165 0.14615947672264007 0.3108244174028766
0.8114373907177155 0.5944664204109644 0.05882868675147128 0.15814228355527984
0.5715131123580101 0.5482490591901686 0.010213461192100147 0.013050591975741445
0.3927752882015875 0.40504215047264147 -0.0038654420995761826 -0.00840142017147781
0.2879308337695222 0.28888784984212545 -6.612326877793566e-05 -0.0008908928038251736
0.2074504023687152 0.20705854075921984 5.704586557804492e-05 0.0003348157439173254
0.1409046758761941 0.14094394712870445 -4.656408071343263e-06 -3.4614844439029936e-05
0.09278411403381814 0.09278411403381814 0.0 0.0
0.0943002495274117 0.0943002495274117 0.0 0.0
0.11840103241861846 0.15120865753114807 -0.008370411196761966 -0.02443721391576764
1.03969823080506 0.8307704019096924 0.05449538105218477 0.15443244784318227
0.7321248492105658 0.7250191182211956 0.004352816030581402 0.00275291495878893
0.13668404423294897 0.13826389052313282 -0.0006580818250187932 -0.0009217644651650551
0.1153545340852476 0.1153545340852476 0.0 0.0
0.10046154484873711 0.10046154484873711 0.0 0.0
0.1258275779787934 0.1258275779787934 0.0 0.0
0.17017619389770322 0.17004812866650423 1.2835012643198332e-05 0.0001152302185557885
0.22272242444304177 0.22296077704848388 -2.2476390545959518e-05 -0.0002158762148961155
0.28807525737767287 0.28910646886801605 -0.0002023516478006742 -0.0008288598425425094
0.3777011285613142 0.38965171218674954 -0.003635869661675434 -0.008314713963759953
0.541541752736443 0.5231554844625811 0.008252568835654731 0.010133699438207236
0.7735509207282175 0.5893429120514242 0.05087310494968897 0.13333490372710435
1.1451506153731514 0.702399364031355 0.14014594143281717 0.30260530990897966
1.7619896911347612 0.8574130744058049 0.3235341851376856 0.5810424315912709
2.767934979054862 1.0369474566230286 0.6795697361832425 1.0514177862485912
4.3279247721962095 1.2366702626112756 1.3218275800163883 1.769426929568545
6.463027079622541 1.436275489532937 2.2747181983484532 2.7520333917411492
9.19022333091619 1.630565944196657 3.618640444467114 3.941016942252418
12.22342315318553 1.8184725000483795 5.137836523291 5.267114129846149
15.378805095710575 1.9754452076252258 6.783656266309283 6.619703621776066
18.319444836273018 1.9824100577884967 8.465914676785294 7.8711201016992325
19.641847033597664 1.4333803127776186 9.560788924288126 8.647677796531914
18.3194448362735 1.9824100577891521 8.465914676785182 7.87112010169916
15.37880509571016 1.9754452076255935 6.783656266308823 6.619703621775739
12.223423153185852 1.8184725000500976 5.137836523290243 5.267114129845513
9.190223330914337 1.6305659441954647 3.618640444466756 3.941016942252115
6.463027079621345 1.4362754895328713 2.2747181983478706 2.752033391740604
4.327924772194747 1.2366702626106938 1.3218275800159756 1.7694269295680767
2.767934979053776 1.0369474566228158 0.6795697361828442 1.051417786248115
1.761989691133344 0.8574130744054106 0.32353418513728427 0.5810424315906495
1.1451506153718745 0.7023993640309724 0.14014594143249856 0.30260530990840345
0.7735509207269027 0.5893429120509691 0.05087310494944701 0.13333490372648646
0.5415417527355718 0.5231554844621795 0.008252568835490245 0.010133699437902141
0.3777011285607418 0.38965171218618416 -0.0036358696616726038 -0.008314713963769782
0.2880752573772376 0.2891064688675329 -0.00020235164778703175 -0.0008288598425081876
0.2227224244426672 0.22296077704809522 -2.2476390544259116e-05 -0.00021587621488374485
0.17017619389734698 0.17004812866615515 1.283501264219489e-05 0.00011523021854963216
0.12582757797852506 0.12582757797852506 0.0 0.0
0.10046154484844622 0.10046154484844622 0.0 0.0
0.11535453408492663 0.11535453408492663 0.0 0.0
0.1366840442324786 0.13826389052254998 -0.0006580818249910086 -0.0009217644650804057
0.7321248492090289 0.7250191182202871 0.0043528160304003565 0.002752914958341615
0.5136448317951362 0.5169102339750166 -0.0005419570039866542 -0.0027234451758937606
0.14600152781960363 0.1454898526776569 8.064893449576002e-05 0.0004310262074509497
0.13464356175626854 0.13464356175626854 0.0 0.0
0.11405637226179527 0.11405637226179527 0.0 0.0
0.12144494259887566 0.12144494259887566 0.0 0.0
0.1467030399423833 0.14626831502371013 5.8123222030219445e-05 0.0003766016966429744
0.17747537269445016 0.1782954737783966 -9.618634513767989e-05 -0.0007239147388087803
0.21304606208759136 0.2154409875690439 -0.00034451032602984155 -0.002050415155422674
0.25814969190531667 0.26056410454354695 -0.0005850635062238922 -0.0018293491320064206
0.32583413581290466 0.343575521196978 -0.003959157684047242 -0.013782227700026179
0.44574945412189443 0.4194768834160451 0.005089264155455366 0.02118330655039407
0.6440828391933336 0.5280150163543015 0.0281223586144573 0.08794546422457489
0.9902528137791248 0.6393867397072132 0.10602832400152958 0.24483775007038167
1.5856973743177747 0.7836339415663589 0.2781751574886872 0.523888275262728
2.5502458417368636 0.9477343260081629 0.6224540430374171 0.9800574726912834
3.949377107907745 1.1194358294258673 1.1962923252212052 1.6336489532606726
5.773710356239684 1.3013600590304708 2.0065345903877505 2.4658157068214632
7.9107219726476 1.479797641170308 3.0005795578869923 3.4303447735903028
10.322211273258683 1.6685227733059298 4.17238821806253 4.481300281890221
12.895674751190636 1.7808660373883856 5.540948020140637 5.573860693661612
14.173406023952207 1.1994547397345543 6.527867127238128 6.4460841569795235
12.895674751191052 1.7808660373889778 5.540948020140537 5.573860693661535
10.322211273255478 1.6685227733023462 4.172388218062718 4.4813002818904195
7.910721972644739 1.4797976411686158 3.0005795578863315 3.430344773589792
5.773710356238738 1.3013600590300591 2.006534590387489 2.465815706821193
3.949377107906856 1.1194358294259164 1.196292325220754 1.6336489532601863
2.5502458417359515 0.947734326007497 0.6224540430372892 0.9800574726911653
1.5856973743171725 0.7836339415663058 0.2781751574884876 0.5238882752623792
0.990252813778336 0.6393867397067453 0.10602832400145645 0.2448377500701339
0.6440828391925079 0.5280150163539459 0.028122358614314488 0.08794546422424729
0.4457494541211207 0.41947688341551076 0.005089264155382354 0.021183306550227578
0.3258341358125912 0.3435755211966603 -0.003959157684045793 -0.01378222770002336
0.25814969190512727 0.2605641045433068 -0.0005850635062100416 -0.0018293491319695738
0.2130460620873113 0.21544098756874583 -0.00034451032602694125 -0.0020504151554075973
0.17747537269419172 0.1782954737781101 -9.618634513339252e-05 -0.0007239147387849891
0.14670303994196093 0.14626831502329696 5.8123222028765327e-05 0.0003766016966351834
0.1214449425985817 0.1214449425985817 0.0 0.0
0.11405637226146408 0.11405637226146408 0.0 0.0
0.13464356175594705 0.13464356175594705 0.0 0.0
0.14600152781922335 0.1454898526772973 8.064893449155624e-05 0.00043102620743446505
0.513644831794132 0.5169102339738924 -0.0005419570039597548 -0.0027234451758006107
0.3657148811799344 0.36783139149062893 -0.0002960553342843647 -0.0018204549764101509
0.14677100700524653 0.14648744839098518 3.966389386821082e-05 0.0002438947203931593
0.1487125440423863 0.1487125440423863 0.0 0.0
0.12952411914745496 0.12952411914745496 0.0 0.0
0.12508533884469836 0.12508533884469836 0.0 0.0
0.13594113635711616 0.13575710028566923 2.115468895025668e-05 0.0001628813824967075
0.1517242040331145 0.15215177160050686 -4.630670229204104e-05 -0.00038126086510026667
0.16786424684395482 0.16853726387643256 -7.888924008363298e-05 -0.0005941277923940903
0.18593066322499635 0.18619751775596405 -7.1910216027937246e-06 -0.0002596635093648639
0.20752866471548476 0.21029673869740467 -0.0007331242501936004 -0.002034949731726283
0.24827533675112634 0.26580383713306804 -0.003437626810613456 -0.014090873571328235
0.3100938943533805 0.28859393091763125 0.004131667831613331 0.017368295604135848
0.42302536222919956 0.37624080013369204 0.010033240319751568 0.03675132177575596
0.6485780726321358 0.4746668547640951 0.04843219361761867 0.12547902425042218
1.0719780961584837 0.6084990860873327 0.15166704883030688 0.3118119612408441
1.7619539063829712 0.7252569083835858 0.3759858820544316 0.6607111159449539
2.7635861464990645 0.8667538571962576 0.7510287358147509 1.1458035534880564
4.112947502013798 1.0437153863196755 1.3144473390298628 1.7547847766642568
5.708971555854227 1.2166538830646785 2.019412199813877 2.472905472975672
7.637674676308107 1.4479634678583215 2.877241322458532 3.312469885991253
9.176138964828217 0.9704527834673001 3.9449226799003894 4.260763501460526
7.637674676308283 1.447963467857975 2.8772413224588074 3.3124698859915016
5.708971555855768 1.2166538830653015 2.0194121998143344 2.472905472976133
4.11294750201418 1.04371538632054 1.314447339029614 1.7547847766640252
2.763586146498119 0.8667538571957397 0.7510287358145229 1.1458035534878575
1.7619539063826026 0.7252569083834214 0.3759858820543721 0.6607111159448089
1.0719780961585401 0.6084990860871882 0.1516670488303854 0.31181196124096683
0.6485780726318642 0.47466685476393217 0.048432193617583656 0.12547902425034804
0.42302536222903325 0.37624080013371036 0.010033240319683966 0.03675132177563895
0.31009389435311224 0.28859393091742314 0.004131667831581242 0.017368295604107933
0.2482753367508002 0.2658038371328441 -0.0034376268106381266 -0.01409087357140574
0.20752866471534812 0.21029673869721366 -0.0007331242501779005 -0.0020349497316876496
0.18593066322482263 0.1861975177557285 -7.191021594127927e-06 -0.00025966350931170775
0.16786424684374762 0.16853726387622608 -7.888924008374228e-05 -0.0005941277923947389
0.1517242040328519 0.15215177160021837 -4.630670228850972e-05 -0.00038126086507791286
0.13594113635680902 0.13575710028537022 2.1154688949125435e-05 0.00016288138248967592
0.12508533884438447 0.12508533884438447 0.0 0.0
0.1295241191471182 0.1295241191471182 0.0 0.0
0.148712544042045 0.148712544042045 0.0 0.0
0.14677100700494694 0.14648744839068994 3.9663893867492485e-05 0.00024389472038951446
0.3657148811792248 0.36783139148988675 -0.0002960553342790028 -0.0018204549763829441
0.25270824012342996 0.25270824012342996 0.0 0.0
0.1406020274028953 0.1406020274028953 0.0 0.0
0.15652879927936791 0.15652879927936791 0.0 0.0
0.14381472338154655 0.14381472338154655 0.0 0.0
0.13416673773874888 0.13416673773874888 0.0 0.0
0.13669214468057084 0.13650707280482519 2.1410575021458854e-05 0.0001636613007241437
0.14485728599430536 0.14538245068041372 -6.0640637655165915e-05 -0.0004645240484532017
0.15350492165108498 0.1534186034343723 3.361288076499162e-05 5.270533594773432e-05
0.16098954574643048 0.16321111149677056 -0.000334168714366332 -0.0018873970359736942
0.1702462768448474 0.17031845534776602 5.996309529637504e-05 -0.00013214159821501096
0.17946969718821001 0.19523580965413945 -0.0034538186158330282 -0.012312293850096388
0.19953114213829143 0.18454959714665606 0.0027730168789699724 0.01220852811266531
0.22510617719296455 0.18497483283783905 0.008547083194709464 0.03158426116041597
0.2607018313122128 0.17303107030913795 0.022920841645908956 0.06474991935716588
0.33138897205032314 0.16011670765684566 0.05428579937460634 0.11698646501887129
0.4822676017494514 0.1873625107804208 0.10137569532645806 0.19352939564257243
0.771767999561601 0.24769775707231487 0.1952259750204819 0.3288442674688042
1.258015621535396 0.26310110379089 0.38441537399888387 0.6104991437456228
2.043513315780671 0.3692623665201945 0.6892161601357912 0.9850347891246853
3.4090848011483477 0.7942402664850073 1.1020142176540273 1.5128303170093127
5.650482390110713 0.7300931271510092 2.2037367915088937 2.7166524714508107
3.4090848011504225 0.7942402664860344 1.1020142176546082 1.5128303170097794
2.043513315780052 0.3692623665195057 0.6892161601358116 0.9850347891247342
1.2580156215357972 0.26310110379168006 0.3844153739987445 0.6104991437453722
0.7717679995614839 0.24769775707252978 0.1952259750203083 0.32884426746864603
0.4822676017493206 0.1873625107804378 0.10137569532639074 0.19352939564249205
0.33138897205058493 0.16011670765705527 0.05428579937462679 0.11698646501890295
0.2607018313123407 0.17303107030926154 0.02292084164591297 0.06474991935716619
0.2251061771926911 0.18497483283781713 0.008547083194645724 0.03158426116022829
0.19953114213822007 0.1845495971467195 0.0027730168790223142 0.012208528112478174
0.17946969718794178 0.1952358096537653 -0.003453818615828512 -0.012312293849995009
0.17024627684487992 0.17031845534780649 5.996309529365601e-05 -0.00013214159822023155
0.16098954574637556 0.16321111149670509 -0.0003341687143644756 -0.0018873970359650242
0.15350492165094923 0.15341860343421995 3.361288076722627e-05 5.270533596211092e-05
0.14485728599406544 0.1453824506801488 -6.064063765172492e-05 -0.00046452404843158086
0.13669214468029928 0.13650707280456184 2.141057502033534e-05 0.00016366130071712598
0.1341667377383266 0.1341667377383266 0.0 0.0
0.1438147233811613 0.1438147233811613 0.0 0.0
0.15652879927896332 0.15652879927896332 0.0 0.0
0.1406020274025726 0.1406020274025726 0.0 0.0
0.2527082401229573 0.2527082401229573 0.0 0.0
0.16905936535603489 0.16905936535603489 0.0 0.0
0.12815642044773454 0.12815642044773454 0.0 0.0
0.15790349473806353 0.15790349473806353 0.0 0.0
0.1550391163996634 0.1550391163996634 0.0 0.0
0.1466029487362489 0.14661522492966778 -1.9006434947270864e-06 -1.037554992416502e-05
0.14769829183537214 0.14723409142584357 6.263929988691633e-05 0.00040156110964162546
0.15645300953855512 0.15771111955661954 -0.00016797845079625826 -0.0010901315672681702
0.16892227512094735 0.1697388562402267 -0.00010054730409928099 -0.0007160338151801431
0.18571317174941587 0.1860714896370847 -2.2663895887878453e-05 -0.0003356539917809158
0.2070812759596964 0.20977149649371357 -0.0007135493517509981 -0.0019766711822661815
0.24765887745913973 0.2649236890498281 -0.0036420146669283327 -0.013622796923760047
0.31057120496148183 0.29035741100836954 0.004814616297538725 0.015399177655573484
0.42354899147541114 0.3769922852292772 0.009984784533253657 0.03657192171288044
0.6516379058327243 0.47708880486359395 0.048813620625994564 0.12573548034313592
1.0664361815325814 0.6043770708662821 0.15137053989843763 0.31068857076786144
1.6818202122141623 0.704474642801188 0.35457466168218266 0.6227709077307919
2.39056757074463 0.7883876553264539 0.6237804952228558 0.9783994201953199
3.012947376351655 0.8333796531605779 0.9160250354515164 1.2635426877395595
3.280945094409063 0.8238715994438885 1.063162286040703 1.3939112089244705
2.831772077003894 0.4513001944138139 1.0501092275023463 1.3303626550877337
5.650566523240418 1.234390619599644 1.9294316030292555 2.4867443006115173
2.831772077004432 0.451300194412566 1.0501092275032164 1.3303626550886483
3.2809450944095664 0.8238715994443293 1.0631622860407721 1.3939112089244636
3.012947376349053 0.8333796531584121 0.9160250354512551 1.263542687739386
2.390567570744005 0.788387655326381 0.6237804952225996 0.978399420195025
1.6818202122137778 0.704474642801148 0.3545746616820797 0.62277090773055
1.0664361815320782 0.6043770708658888 0.15137053989840005 0.31068857076778916
0.6516379058323561 0.47708880486341754 0.048813620625904705 0.12573548034303367
0.42354899147474484 0.3769922852290602 0.009984784533104345 0.03657192171258028
0.31057120496077756 0.29035741100783513 0.004814616297468024 0.015399177655474501
0.24765887745877144 0.2649236890495098 -0.003642014666936288 -0.013622796923802177
0.20708127595944364 0.20977149649338736 -0.0007135493517310042 -0.00197667118221273
0.1857131717492436 0.1860714896369061 -2.2663895887878703e-05 -0.00033565399177460254
0.16892227512073626 0.16973885623999282 -0.00010054730409571282 -0.0007160338151608573
0.1564530095381705 0.15771111955619613 -0.0001679784507901299 -0.0010901315672354752
0.1476982918350296 0.14723409142550317 6.263929988561377e-05 0.00040156110964084836
0.146602948735831 0.14661522492925264 -1.9006434948993337e-06 -1.0375549926746533e-05
0.15503911639930232 0.15503911639930232 0.0 0.0
0.15790349473770923 0.15790349473770923 0.0 0.0
0.1281564204474384 0.1281564204474384 0.0 0.0
0.16905936535572777 0.16905936535572777 0.0 0.0
0.10902872258485488 0.10902872258485488 0.0 0.0
0.11163329800705991 0.11163329800705991 0.0 0.0
0.15313347438511626 0.15313347438511626 0.0 0.0
0.16233064536546393 0.16234445602475076 -1.31992662703417e-06 -1.2490732659785314e-05
0.16096416665622487 0.16069628343840256 2.980465475919013e-05 0.00023807856306311815
0.1679420915672537 0.16868949178570913 -8.906184876859221e-05 -0.0006583383696868605
0.1856660066458703 0.18500636279632926 0.00012094025439947043 0.0005387035951416275
0.21497781526108867 0.21766799180420507 -0.00039722102493682746 -0.0022929555181796326
0.25777503089005166 0.26014173203547086 -0.0005690392465285123 -0.0017976618988907248
0.3250411636892174 0.3429152367175021 -0.0040002158362074415 -0.013873857192077291
0.4450251961755227 0.41900085153079264 0.0050171689605694085 0.02100717568416066
0.6435214199282278 0.5278481195063214 0.028000746426337996 0.08767255399556813
0.9905004092494858 0.6394616827807558 0.10615420044049412 0.24488452602823588
1.5884640153131593 0.7838074753646415 0.2794506650818032 0.5252058748667143
2.5482210177826694 0.945194747610103 0.6232723558642275 0.9797539143083387
3.8787763582012262 1.100542801386489 1.1724402617659528 1.6057932950487852
5.42472232961128 1.2376536447630992 1.862546508547718 2.324522176300463
6.869268676336631 1.352346820007209 2.5158127533189982 3.0011091030104238
7.80024760264409 1.4026334627217403 2.9777484279861746 3.419865711936172
7.437000438920659 1.4197920526108752 2.846653718134067 3.1705546681757193
8.76115551462924 2.644808836770828 2.817604435037278 3.298742242821132
7.437000438921452 1.4197920526108103 2.8466537181345166 3.170554668176128
7.8002476026448555 1.4026334627223211 2.9777484279862745 3.4198657119362603
6.869268676337772 1.352346820008487 2.5158127533189063 3.0011091030103794
5.4247223296092315 1.2376536447622368 1.8625465085471236 2.3245221762998707
3.878776358199765 1.1005428013857204 1.1724402617656278 1.6057932950484166
2.5482210177813935 0.9451947476093446 0.623272355863988 0.9797539143080602
1.5884640153121283 0.7838074753644726 0.2794506650814562 0.5252058748661992
0.9905004092482842 0.6394616827808162 0.10615420044006882 0.2448845260273992
0.6435214199270572 0.5278481195059188 0.028000746426122537 0.08767255399501567
0.4450251961744623 0.4190008515300781 0.005017168960462911 0.021007175683921218
0.32504116368856906 0.3429152367168508 -0.004000215836204822 -0.013873857192077016
0.2577750308896561 0.26014173203499275 -0.0005690392465062196 -0.0017976618988303475
0.21497781526074855 0.21766799180385155 -0.0003972210249350651 -0.0022929555181679176
0.18566600664540303 0.18500636279584254 0.00012094025440152001 0.0005387035951589473
0.1679420915668098 0.16868949178523374 -8.906184876391693e-05 -0.0006583383696600243
0.16096416665585014 0.16069628343804276 2.9804654757162586e-05 0.0002380785630501993
0.16233064536506275 0.16234445602434835 -1.3199266268926443e-06 -1.2490732658706396e-05
0.15313347438483565 0.15313347438483565 0.0 0.0
0.11163329800681726 0.11163329800681726 0.0 0.0
0.1090287225846551 0.1090287225846551 0.0 0.0
0.06725034907053738 0.06725034907053738 0.0 0.0
0.09317890610013366 0.09317890610013366 0.0 0.0
0.14318479531566064 0.14318479531566064 0.0 0.0
0.16562360515588115 0.16558092193615237 3.565330301314335e-06 3.911788942742394e-05
0.1765894582929908 0.17676186079915593 -1.713541375537645e-05 -0.0001552670924098227
0.19644144799158594 0.1956958929620307 0.0001160902059689769 0.0006294648235862834
0.23325220148810066 0.23544217652966798 -0.00032810652466965196 -0.0018618685168975857
0.2905410944723006 0.2918528681832034 -0.00024740955681301223 -0.001064364154089846
0.377255097974175 0.38911990878295694 -0.003610174609794382 -0.008254636198987487
0.5407591670039639 0.5229535628901075 0.008327246427880935 0.009478357685975415
0.7725886130328894 0.5888145064330582 0.04979857107881305 0.13397553552101807
1.1445934007511271 0.7022860054072079 0.13999992863301639 0.3023074667109029
1.7607286170783802 0.8568864956582294 0.3232492565595042 0.5805928648606465
2.765951630481805 1.0362857163324155 0.6790673327099156 1.0505985814394736
4.322672055902146 1.2352216649950023 1.3202002911328135 1.767250099774329
6.409350609065143 1.4211437882590563 2.2555348171168585 2.7326720036892276
8.934094548480564 1.584032409698636 3.507772979404592 3.842289159377337
11.358682949357199 1.6935975082699541 4.733142531180465 4.9319429099067795
12.916392391409737 1.6881991563937155 5.590051953323266 5.638141281692754
12.206759820869305 1.5539805886899831 5.276919857346621 5.375859374832698
13.625386986512327 4.226277395740399 4.586386447880269 4.8127231428916595
12.206759820871307 1.5539805886908344 5.276919857347275 5.3758593748331975
12.916392391409698 1.6881991563935523 5.590051953323345 5.638141281692802
11.358682949353588 1.6935975082670964 4.733142531180043 4.931942909906447
8.934094548478672 1.5840324096985876 3.5077729794036006 3.8422891593764845
6.409350609062861 1.4211437882583429 2.2555348171160765 2.7326720036884424
4.32267205590011 1.23522166499417 1.3202002911322566 1.7672500997736846
2.7659516304803953 1.036285716332129 0.6790673327094021 1.0505985814388643
1.7607286170763916 0.8568864956578812 0.32324925655884196 0.5805928648596679
1.1445934007491583 0.702286005406494 0.13999992863258628 0.30230746671007774
0.7725886130312393 0.588814506432648 0.04979857107849931 0.1339755355200919
0.5407591670026624 0.5229535628894191 0.00832724642764805 0.009478357685595367
0.37725509797332923 0.3891199087822147 -0.0036101746098139197 -0.00825463619907152
0.29054109447175835 0.291852868182558 -0.00024740955678812394 -0.0010643641540115203
0.23325220148761872 0.23544217652916177 -0.0003281065246652843 -0.0018618685168777873
0.1964414479910914 0.1956958929615223 0.00011609020596946049 0.0006294648235996582
0.1765894582925976 0.17676186079874115 -1.713541375330392e-05 -0.00015526709239025962
0.16562360515545926 0.16558092193573806 3.565330300594334e-06 3.911788942060134e-05
0.14318479531532977 0.14318479531532977 0.0 0.0
0.09317890609994542 0.09317890609994542 0.0 0.0
0.06725034907039519 0.06725034907039519 0.0 0.0
0.039329934887922614 0.039329934887922614 0.0 0.0
0.07450151222679963 0.07450151222679963 0.0 0.0
0.12947134672576543 0.12947134672576543 0.0 0.0
0.16555815759179132 0.16550034227201604 6.223396370319809e-06 5.159192340498178e-05
0.19339204273197352 0.19334790202482952 8.628165529378528e-06 3.55125416146231e-05
0.23366828014662025 0.2346104151917104 -0.00012204614172205521 -0.000820088903368164
0.29804101950346307 0.2988892006748742 -1.4083104603052061e-05 -0.0008340980668080895
0.3951269840259882 0.4075742399782545 -0.003863625288230934 -0.008583630664035172
0.5712245856368704 0.5480341929039221 0.010171932626978653 0.013018460105969867
0.8107910764362553 0.5943773600178015 0.05851430157477004 0.15789941484368364
1.1848487822473093 0.7282634389870506 0.1462012364745119 0.31038410678574657
1.7498647192235044 0.8735355191217276 0.31279108721714116 0.5635381128846364
2.656555378201598 1.0528780482051554 0.6239149809585375 0.979762349037904
4.104340502344944 1.2659500802057861 1.1957774342672178 1.6426129878719395
6.258760733897995 1.4969637959854494 2.138003534588181 2.6237934033243655
9.246134819966363 1.7280217291146986 3.595254435481692 3.9228586553699696
12.64365056798708 1.9022112967483826 5.293724624002862 5.447714647235836
16.107620728009124 1.9741491308919201 7.218126201714357 6.915345395402851
18.286668408346273 1.8616022851664726 8.545965759643268 7.879100363536527
17.211765410260448 1.6192205999520626 8.059722790023793 7.532822020284592
18.845261531490713 5.740862978089976 6.6209890980014725 6.483409455399263
17.211765410261453 1.6192205999516307 8.05972279002462 7.532822020285198
18.286668408346742 1.8616022851670064 8.54596575964322 7.879100363536517
16.107620728008985 1.9741491308933754 7.218126201713442 6.915345395402169
12.643650567984281 1.9022112967481266 5.293724624001468 5.447714647234687
9.24613481996423 1.728021729114848 3.595254435480488 3.9228586553688967
6.2587607338959685 1.4969637959849502 2.1380035345874453 2.6237934033235755
4.104340502342163 1.2659500802044608 1.1957774342665481 1.6426129878711533
2.6565553781989983 1.052878048205021 0.6239149809574611 0.979762349036516
1.7498647192207821 0.8735355191207329 0.31279108721648574 0.5635381128835633
1.1848487822449005 0.7282634389863334 0.1462012364738965 0.3103841067846704
0.8107910764344901 0.5943773600171669 0.05851430157445384 0.15789941484286923
0.5712245856355983 0.5480341929033143 0.010171932626748023 0.013018460105535973
0.39512698402502255 0.40757423997726416 -0.0038636252882290585 -0.008583630664012538
0.29804101950273915 0.29888920067405583 -1.4083104586026133e-05 -0.0008340980667307393
0.23366828014607988 0.23461041519115144 -0.00012204614171891466 -0.000820088903352581
0.19339204273152807 0.1933479020243812 8.62816552974233e-06 3.551254161717061e-05
0.1655581575914349 0.16550034227166263 6.2233963698821775e-06 5.15919234023896e-05
0.12947134672547342 0.12947134672547342 0.0 0.0
0.07450151222667768 0.07450151222667768 0.0 0.0
0.0393299348878308 0.0393299348878308 0.0 0.0
0.021645198870237754 0.021645198870237754 0.0 0.0
0.05694178809147087 0.05694178809147087 0.0 0.0
0.11360548261834753 0.11360548261834753 0.0 0.0
0.16332934373815228 0.16327226399649367 5.867384920838831e-06 5.121235673776433e-05
0.21217166496861015 0.21163920140253825 8.414380282249641e-05 0.0004483197632493768
0.2801531599939634 0.28325472823767667 -0.00042435008435195255 -0.002677218159361273
0.37949539258932663 0.3878566509326183 -0.0020748530880367287 -0.006286405255254909
0.5498657381623147 0.5387959226953905 0.005905067123160264 0.00516474834376382
0.792734145550851 0.5908080998546226 0.0549585822857108 0.14696746341051795
1.1522702584450033 0.7250931071594517 0.13517906464441076 0.29199808664114113
1.6547322380891702 0.8611139074228245 0.27836900667269554 0.5152493239936502
2.428495507765411 1.0295716857332473 0.5342565271849882 0.8646672948471749
3.657541750284782 1.2378772281418073 0.99936453827169 1.4202999838712862
5.590917229004647 1.483117982504709 1.8283278277734272 2.2794714187265113
8.391938103127679 1.7568021887889596 3.1146588906208463 3.520477023717872
12.155293951547351 2.0266629877650644 4.974948116273859 5.153682847508429
16.737896772827725 2.2258606292967356 7.457141165027167 7.0548949785038255
21.082420969065392 2.2354351381003186 9.923200514888944 8.923785316076128
23.61785079023194 1.9677664663197012 11.524732176533442 10.125352147378797
22.250748533411695 1.6718110350980804 10.939131362657111 9.639806135656503
24.52446263670548 7.330916994392178 8.987481276229344 8.206064366083952
22.25074853341195 1.6718110350974413 10.939131362657637 9.63980613565688
23.61785079023156 1.9677664663191248 11.524732176533547 10.125352147378885
21.082420969062774 2.2354351380993074 9.92320051488801 8.923785316075458
16.737896772826183 2.225860629297151 7.457141165026055 7.054894978502982
12.1552939515447 2.0266629877647224 4.97494811627259 5.153682847507388
8.391938103124158 1.7568021887881549 3.1146588906194266 3.5204770237165763
5.590917229001679 1.4831179825040077 1.828327827772345 2.2794714187253273
3.657541750281941 1.237877228142 0.9993645382703296 1.4202999838696118
2.4284955077620176 1.029571685732221 0.534256527183999 0.8646672948457962
1.6547322380861786 0.861113907422121 0.27836900667181524 0.5152493239922422
1.1522702584426356 0.7250931071588044 0.1351790646437997 0.291998086640031
0.7927341455489663 0.5908080998537374 0.0549585822854479 0.1469674634097811
0.5498657381608935 0.538795922694722 0.005905067122917532 0.005164748343254078
0.3794953925883932 0.38785665093149857 -0.0020748530879857313 -0.0062864052551196165
0.28015315999337337 0.2832547282370217 -0.0004243500843423567 -0.002677218159305923
0.2121716649681453 0.21163920140207165 8.414380282239351e-05 0.0004483197632512405
0.1633293437377972 0.16327226399614286 5.8673849202989275e-06 5.121235673403751e-05
0.1136054826181922 0.1136054826181922 0.0 0.0
0.05694178809134399 0.05694178809134399 0.0 0.0
0.021645198870207362 0.021645198870207362 0.0 0.0
0.011203993633720941 0.011203993633720941 0.0 0.0
0.041531684164741435 0.041531684164741435 0.0 0.0
0.09723463091770931 0.09723463091770931 0.0 0.0
0.16061268845844487 0.16058219747902847 2.696702788218061e-06 2.779427662820151e-05
0.23483623495803244 0.23543234260385168 -6.468432967276339e-05 -0.0005314233161465185
0.3346022662519331 0.33343695669308004 0.00028149247055432976 0.0008838170882988533
0.48993954986384386 0.5027047945626192 -0.0015154491794781288 -0.011249795519297162
0.7301363291738123 0.5833150455670915 0.038046962614123186 0.10877432099259779
1.0692307130279812 0.7021213812991454 0.11355642036015323 0.2535529113686825
1.5220867652352232 0.8330267601442768 0.23655917184155373 0.4525008332493927
2.1778410446713745 0.9885043197381524 0.4451428051986592 0.7441939197345638
3.183850748232278 1.1813833902891577 0.8098903320835844 1.1925770258595343
4.775235021003221 1.4193031824290476 1.463013067786751 1.892918770787423
7.1358652877173965 1.6945911420472497 2.485264222361916 2.9560099233082306
10.635329801673308 2.005409803175946 4.1793966500511095 4.4505233484462545
15.310818400917205 2.332332015524884 6.5819068568792085 6.396579528513106
20.780026092620222 2.556323201688124 9.5455052041831 8.678197686748998
26.04432373586063 2.4777823078298713 12.671994280311765 10.894547147718999
29.092256824138264 2.049295696229084 14.743546764591022 12.299414363318153
27.401786758854485 1.7000749552047871 13.943715380354812 11.75799642329488
30.47834325032326 9.01285766949488 11.424962569177126 10.040523011651263
27.40178675885475 1.7000749552046561 13.943715380355062 11.757996423295035
29.09225682413632 2.0492956962278295 14.743546764590608 12.299414363317888
26.044323735858672 2.4777823078296413 12.671994280310736 10.894547147718292
20.780026092615763 2.556323201686255 9.545505204181593 8.678197686747922
15.31081840091356 2.3323320155237965 6.581906856877776 6.3965795285119835
10.635329801670295 2.005409803176102 4.179396650049426 4.450523348444766
7.1358652877138 1.6945911420462068 2.4852642223606387 2.9560099233069557
4.775235020999369 1.4193031824283446 1.463013067785274 1.8929187707857498
3.1838507482281235 1.1813833902883422 0.8098903320821295 1.1925770258576516
2.177841044667952 0.9885043197374972 0.44514280519752114 0.744193919732933
1.5220867652323373 0.8330267601436466 0.23655917184071726 0.452500833247974
1.0692307130254426 0.7021213812981647 0.11355642035959479 0.2535529113676832
0.730136329171883 0.583315045566236 0.038046962613823704 0.10877432099182313
0.4899395498625665 0.5027047945615974 -0.0015154491795563603 -0.011249795519474632
0.334602266251185 0.33343695669224915 0.0002814924705688678 0.0008838170883668356
0.23483623495753944 0.23543234260332124 -6.468432966852548e-05 -0.0005314233161133082
0.16061268845807328 0.16058219747866093 2.696702787764521e-06 2.779427662461752e-05
0.09723463091750552 0.09723463091750552 0.0 0.0
0.04153168416463112 0.04153168416463112 0.0 0.0
0.011203993633708153 0.011203993633708153 0.0 0.0
0.005563382621225405 0.005563382621225405 0.0 0.0
0.0289869266072763 0.0289869266072763 0.0 0.0
0.08196355162845775 0.08196355162845775 0.0 0.0
0.15969934828843269 0.1596950409402061 2.114467178404433e-07 4.095901508737948e-06
0.2629845781440082 0.2641261049177397 -0.00014537852861014984 -0.0009961482451213163
0.40197370962661527 0.4114736496358121 -0.0024510618902762703 -0.007048878118920647
0.6278670526618525 0.5576591248004954 0.01689874024858428 0.05330918761277259
0.9462287222268055 0.6632488354085703 0.08355306967869582 0.19942681713953953
1.3635443987049418 0.791943216733799 0.19021867695826083 0.3813825050128818
1.931496382360866 0.9383392090080913 0.36388357448084163 0.6292735988719329
2.7421826320561618 1.109534820821747 0.6392970855870116 0.9933507256474027
3.999019303494411 1.3276679451553952 1.1255188540810808 1.5458325042579348
5.903455347003776 1.5911193102253107 1.9130445270466967 2.3992915097317673
8.872641252116814 1.9089171564388896 3.3060129424283473 3.65771115324958
12.999386472422485 2.2592056017523983 5.327878472900267 5.412302397769819
18.40800251233686 2.6183809703635124 8.133773156785496 7.655848385187855
24.86391740699775 2.8775950309221536 11.737863440270853 10.248458935804754
31.01624774145291 2.741062418353628 15.480900030125964 12.794285292973308
34.60272303604955 2.138189791432049 18.004009799632716 14.460523444984798
32.79819201964619 1.677555677899035 17.20552413925208 13.915112202495072
37.0660764221948 10.785072483253337 14.292512746577993 11.98849119236346
32.798192019646734 1.6775556778994194 17.205524139252205 13.915112202495102
34.60272303604812 2.1381897914324206 18.004009799631614 14.460523444984085
31.016247741449213 2.7410624183517918 15.480900030124817 12.794285292972603
24.863917406995196 2.8775950309228007 11.73786344026895 10.248458935803436
18.40800251233301 2.618380970363309 8.133773156783413 7.655848385186296
12.999386472417907 2.25920560175066 5.327878472898717 5.412302397768528
8.87264125211188 1.9089171564371725 3.3060129424266824 3.6577111532480227
5.903455346999163 1.5911193102245265 1.9130445270448084 2.3992915097298284
3.9990193034898724 1.327667945154694 1.1255188540793473 1.5458325042558307
2.742182632052057 1.109534820820857 0.6392970855856601 0.9933507256455401
1.9314963823573246 0.9383392090072579 0.36388357447974923 0.629273598870317
1.3635443987021156 0.7919432167329334 0.19021867695765843 0.38138250501152365
0.9462287222244701 0.6632488354077566 0.0835530696783187 0.1994268171383947
0.6278670526600526 0.557659124799631 0.016898740248285183 0.05330918761213655
0.40197370962569334 0.41147364963476285 -0.0024510618902402093 -0.007048878118829308
0.2629845781434197 0.26412610491711475 -0.0001453785286055991 -0.0009961482450894816
0.15969934828809046 0.15969504093986642 2.114467176569359e-07 4.0959015064148964e-06
0.08196355162825421 0.08196355162825421 0.0 0.0
0.028986926607230123 0.028986926607230123 0.0 0.0
0.005563382621224869 0.005563382621224869 0.0 0.0
0.002778459903951945 0.002778459903951945 0.0 0.0
0.01959445224867777 0.01959445224867777 0.0 0.0
0.06948803833608429 0.06948803833608429 0.0 0.0
0.16362482111722754 0.1636310341911117 -1.3428206416215008e-06 -4.87025324250796e-06
0.29793185874905304 0.29772421221341866 6.555471154585439e-05 0.00014209182408844636
0.4960510116557396 0.486635795490771 0.0030714861102135093 0.006343730054754967
0.7883363170684703 0.5995180879332649 0.04977072382436577 0.1390475053108399
1.1834069760241268 0.7401342316005494 0.1429320419194259 0.30034070250415146
1.6804033395541436 0.8767365037801074 0.282154291276645 0.5215125444973909
2.3682823290024486 1.0367174975805673 0.5092931990757588 0.8222716323461223
3.3627805929794823 1.2301490484193867 0.8735804154400216 1.2590511291200743
4.854444697552648 1.4689367844601726 1.463171636106085 1.9223362769863908
7.2071634529027335 1.7715900649124214 2.5122807158656664 2.9232926721246453
10.600933302491486 2.123767294678177 4.078938480587905 4.398227527225404
15.430965770544697 2.5111742543858733 6.5203937242418855 6.399397791916935
21.639596229150172 2.884235932891048 9.848528652136023 8.906831644123104
28.850426250867407 3.1500033281880047 13.93325474875059 11.76716817392882
35.87221692240025 3.0677960859551674 18.218428439263192 14.585992397181903
40.173605546038296 2.288175397155903 21.36547936440154 16.51995078448084
38.49526747672277 1.5476306564188371 20.79586431196431 16.151772508339633
44.34401348753136 12.57944977027684 17.58655222284992 14.178011494404611
38.49526747672212 1.5476306564184803 20.795864311964124 16.151772508339526
40.17360554603627 2.288175397155967 21.36547936440025 16.51995078448004
35.87221692239615 3.067796085954625 18.218428439261032 14.585992397180501
28.850426250862625 3.1500033281858193 13.93325474874903 11.767168173927775
21.63959622914615 2.88423593289112 9.848528652133645 8.906831644121388
15.430965770539498 2.5111742543838256 6.5203937242401215 6.399397791915551
10.600933302486277 2.123767294677552 4.078938480585449 4.398227527223281
7.2071634528973325 1.7715900649112108 2.5122807158635583 2.923292672122564
4.854444697547047 1.4689367844589731 1.4631716361039588 1.9223362769841141
3.3627805929748646 1.2301490484183162 0.873580415438475 1.2590511291180737
2.368282328998531 1.0367174975797004 0.5092931990745314 0.8222716323442989
1.680403339550737 0.8767365037791759 0.2821542912757547 0.5215125444958064
1.1834069760212234 0.740134231599614 0.14293204191875655 0.30034070250285244
0.788336317066407 0.599518087932496 0.04977072382411752 0.13904750530979362
0.49605101165454696 0.486635795489763 0.0030714861101654315 0.0063437300546184735
0.29793185874839256 0.29772421221272094 6.555471155066545e-05 0.00014209182412095773
0.16362482111688742 0.163631034190775 -1.3428206418976566e-06 -4.870253245650879e-06
0.06948803833597912 0.06948803833597912 0.0 0.0
0.019594452248647694 0.019594452248647694 0.0 0.0
0.0027784599039471854 0.0027784599039471854 0.0 0.0
0.0013161866368506215 0.0013161866368506215 0.0 0.0
0.013071756912466186 0.013071756912466186 0.0 0.0
0.06201036555644547 0.06201036555644547 0.0 0.0
0.17644017302405063 0.1763208255629756 1.0725997190736804e-05 0.0001086214638843098
0.348863815781179 0.35236265277415446 -0.0005951077480666227 -0.0029037292449088444
0.610583647574833 0.5503931723061182 0.01541617713961794 0.04477429812909697
0.9734049944511598 0.6718453849336262 0.08972580589387281 0.21183380362366067
1.4338808526015476 0.8114688742558562 0.2103704839507287 0.4120414943949625
2.027907088061576 0.9599114550946752 0.39622041755256465 0.6717752154143368
2.8325097525942593 1.1316905865921252 0.6722343777148723 1.028584788287262
4.008791705716032 1.3449297794961845 1.1204055919329514 1.5434563342868943
5.81926558830883 1.6169002202122633 1.8879886815000853 2.3143766865964817
8.47503660882734 1.9451562295398643 3.047426322937439 3.4824540563500364
12.472953504502362 2.3399413656082144 4.977658940291951 5.155353198602196
17.98155068208666 2.770070230737978 7.8096624882503685 7.4018179630983125
24.919631422202663 3.1475242654386673 11.607501559070416 10.164605597693589
32.7303402110463 3.347463200832749 16.164904973243527 13.21797203697002
40.36097079274293 3.3029804111891337 20.871420980408715 16.18656940114509
45.76695039346885 2.7703532572861134 24.564459262226137 18.43213787395662
44.5494281844007 1.2509067786602337 24.773871071226836 18.524650334513645
52.26198890231806 13.764682604896997 21.75798216690929 16.73932413051178
44.5494281843977 1.250906778658919 24.773871071225724 18.524650334513048
45.76695039346509 2.7703532572859695 24.564459262223867 18.43213787395524
40.36097079273937 3.302980411189928 20.871420980406015 16.186569401143423
32.730340211040776 3.3474632008301075 16.164904973241836 13.217972036968838
24.919631422196783 3.1475242654373266 11.607501559067728 10.164605597691725
17.98155068208032 2.770070230735018 7.809662488248445 7.401817963096864
12.472953504496855 2.339941365608079 4.977658940289007 5.155353198599769
8.475036608820574 1.9451562295380398 3.047426322934858 3.482454056347675
5.8192655883029705 1.616900220211882 1.8879886814973892 2.3143766865937
4.008791705710527 1.344929779494925 1.1204055919309552 1.5434563342846463
2.832509752589617 1.1316905865909084 0.6722343777133933 1.0285847882853152
2.0279070880575762 0.9599114550935914 0.39622041755142284 0.6717752154125615
1.4338808525983429 0.8114688742551718 0.2103704839498332 0.41204149439333787
0.9734049944487858 0.6718453849329673 0.08972580589342509 0.21183380362239357
0.6105836475733564 0.5503931723051824 0.015416177139450715 0.044774298128723224
0.34886381578049724 0.35236265277339784 -0.0005951077480520542 -0.0029037292448486074
0.17644017302367584 0.1763208255626131 1.0725997189318227e-05 0.00010862146387337546
0.06201036555633091 0.06201036555633091 0.0 0.0
0.013071756912449476 0.013071756912449476 0.0 0.0
0.001316186636844214 0.001316186636844214 0.0 0.0
0.0002629252605430277 0.0002629252605430277 0.0 0.0
0.008936530304673184 0.008936530304673184 0.0 0.0
0.062615427674619 0.062615427674619 0.0 0.0
0.20412098705002601 0.2041326916104813 1.2232754315538418e-05 -2.3937314770830303e-05
0.42539040125991234 0.43441378287396515 -0.002090250768760573 -0.006933130845292313
0.7529463941628581 0.6315907401784415 0.0345140323910825 0.08684162159333403
1.179713088644736 0.7649648209421828 0.1313639163433049 0.2833843513592482
1.7159466924134883 0.9314974583210089 0.2763864270390396 0.5080628070534401
2.4071286115339596 1.1181549509312674 0.4873918197066456 0.8015818408960459
3.374855857001452 1.353789065228875 0.8193356224964359 1.20173116927614
4.796422782271192 1.6686437491830062 1.3518313868159617 1.7759476462722226
6.900032042215375 2.0897016614746087 2.1696508865500683 2.6406794941906986
10.105257413318654 2.632047519119579 3.546051193583557 3.9271587006155158
14.763767956305738 3.3124362795239533 5.699754892141916 5.751576784639872
21.075168511973096 4.063676228252726 8.844147317989236 8.167344965731141
28.838461377972237 4.71512053991389 13.027656706330182 11.095684131728166
37.231948266142496 5.019754562514128 17.90575139535375 14.306442308274624
44.89361497583788 4.766809445256806 22.78200472751814 17.34480080306293
50.72417817942358 4.449223517916334 26.624314199949886 19.650640461557366
49.682844986996365 1.4327602163280706 27.81702011015753 20.433064660510755
74.68411302926609 29.073735945750972 26.26001587433839 19.350361209176725
49.68284498699629 1.4327602163304105 27.817020110156044 20.433064660509835
50.724178179421656 4.449223517919532 26.62431419994666 19.65064046155547
44.893614975831774 4.766809445255571 22.782004727515144 17.34480080306107
37.231948266133045 5.019754562508031 17.9057513953517 14.306442308273303
28.8384613779655 4.715120539912581 13.027656706326958 11.095684131725964
21.075168511964275 4.063676228247636 8.844147317987128 8.16734496572951
14.76376795629844 3.312436279522288 5.699754892138798 5.7515767846373524
10.10525741331121 2.6320475191177 3.5460511935806087 3.9271587006129
6.90003204220905 2.089701661474528 2.1696508865469184 2.6406794941876055
4.796422782265404 1.6686437491823884 1.35183138681349 1.7759476462695254
3.3748558569961866 1.3537890652274254 0.8193356224946793 1.2017311692740822
2.407128611529157 1.1181549509297029 0.4873918197052888 0.8015818408941657
1.7159466924097195 0.9314974583203152 0.2763864270378589 0.5080628070515454
1.1797130886418685 0.764964820941427 0.13136391634266886 0.28338435135777273
0.7529463941609407 0.6315907401774266 0.03451403239084756 0.0868416215926665
0.42539040125896976 0.43441378287298293 -0.002090250768745259 -0.006933130845267824
0.20412098704958614 0.2041326916100109 1.2232754318796459e-05 -2.3937314743519196e-05
0.06261542767449255 0.06261542767449255 0.0 0.0
0.00893653030466533 0.00893653030466533 0.0 0.0
0.0002629252605441242 0.0002629252605441242 0.0 0.0
CELL_DATA 800
SCALARS Stress float 6
LOOKUP_TABLE default
90.82014130457956 -468.49234634248637 -177.31731823366488 -92.81315157215944 0.0 0.0
401.8319996593297 101.12861391117882 150.33477855450292 77.96471021979025 0.0 0.0
344.8812337921302 -21.582525091020692 96.79342660542771 -11.800798878112692 0.0 0.0
404.2907281581764 4.990807269703444 122.3638085806526 -8.461825733077944 0.0 0.0
473.63847720812066 -4.686486056815293 143.351678912873 -10.895882952670219 0.0 0.0
531.3761523827582 19.010480414749075 188.38514850712153 -9.468123596706235 0.0 0.0
586.9932180912795 35.88874884614784 232.2349158877941 -9.295037616982048 0.0 0.0
641.8464115730197 58.708754956936474 279.7865835256847 -8.855806688132756 0.0 0.0
695.4987029757159 82.068240182285 327.98601729940924 -8.507664931833066 0.0 0.0
749.2517756461509 105.1718876277503 375.9336088879893 -8.410124266463432 0.0 0.0
803.4058071301743 126.14361499066106 421.4366965328503 -8.278340492487128 0.0 0.0
858.733584510933 147.28362536805935 464.6765680362083 -8.261038363287511 0.0 0.0
917.0490155280703 167.55248080872104 505.5295263903746 -8.390383518757634 0.0 0.0
978.3306358068868 189.07559912012954 546.5302082285011 -8.651112338105166 0.0 0.0
1042.8200100516083 214.5830815218635 590.3868991500017 -9.04113286774114 0.0 0.0
1110.1824532999603 245.59683372427884 638.2736591525443 -9.279999632608051 0.0 0.0
1177.735319425995 281.35459225096747 688.6977478648437 -8.855107600488804 0.0 0.0
1239.9925361863732 317.9075827807385 737.0219610940051 -7.489921936739938 0.0 0.0
1290.9747296545133 350.4907470364383 777.8897736649767 -5.669037360567577 0.0 0.0
1332.1163676601066 382.0985350034165 813.4922860959655 -4.754250600891511 0.0 0.0
1332.1163676601868 382.09853500350636 813.4922860959861 4.754250600897748 0.0 0.0
1290.974729654345 350.49074703627497 777.8897736648111 5.6690373605803375 0.0 0.0
1239.992536186215 317.90758278059434 737.0219610938057 7.489921936738936 0.0 0.0
1177.735319425582 281.35459225056576 688.6977478644401 8.855107600510502 0.0 0.0
1110.1824532995006 245.5968337238308 638.2736591521177 9.279999632566343 0.0 0.0
1042.8200100512904 214.58308152156673 590.3868991496967 9.041132867765896 0.0 0.0
978.3306358064021 189.075599119674 546.5302082280809 8.651112338109545 0.0 0.0
917.0490155277965 167.5524808085004 505.529526390079 8.390383518766008 0.0 0.0
858.7335845104345 147.28362536762484 464.67656803576443 8.26103836326601 0.0 0.0
803.4058071296098 126.14361499017325 421.43669653237896 8.278340492492482 0.0 0.0
749.2517756457644 105.17188762747652 375.9336088876368 8.410124266400777 0.0 0.0
695.4987029754424 82.06824018213007 327.9860172991233 8.50766493185376 0.0 0.0
641.8464115727758 58.70875495684896 279.7865835254165 8.855806688071628 0.0 0.0
586.9932180907986 35.888748845801274 232.23491588739728 9.295037616993119 0.0 0.0
531.3761523823551 19.01048041452163 188.38514850681753 9.468123596674737 0.0 0.0
473.63847720791534 -4.686486056785717 143.35167891277908 10.89588295264161 0.0 0.0
404.29072815791983 4.990807269744334 122.36380858059226 8.461825733053512 0.0 0.0
344.88123379197975 -21.58252509101976 96.79342660538637 11.800798878112742 0.0 0.0
401.8319996591821 101.1286139109932 150.33477855439847 -77.96471021970021 0.0 0.0
90.82014130522293 -468.49234634189713 -177.31731823312992 92.81315157185433 0.0 0.0
10.56794169312225 -487.8104061021435 -207.0898694572519 -129.69559094334647 0.0 0.0
227.92482764249317 72.63327365360291 90.16743038882882 27.253349460622353 0.0 0.0
310.48541622211354 7.574542542524681 95.41798762939145 -5.557892689388272 0.0 0.0
358.07228732974613 -0.18251818134158765 107.18387717325102 -29.12731202994388 0.0 0.0
437.2356684941448 -5.137990243067119 128.81675237964782 -30.722288923004186 0.0 0.0
498.4048261869997 11.891095931937048 167.4360442472481 -28.42192078250325 0.0 0.0
559.4446011268847 28.989443752952553 210.5327105612099 -27.497792874618177 0.0 0.0
614.1712553748229 49.5059262191247 255.8659951622347 -25.578987084360374 0.0 0.0
666.9003734418231 71.27962194195491 302.6668754406141 -24.105852462238367 0.0 0.0
719.1922136498782 92.69834333639477 349.7597437539476 -23.244617124085075 0.0 0.0
771.9206001715444 112.63027333104827 395.5549543008776 -22.666863875789915 0.0 0.0
826.6039389716245 130.9397917518301 438.8138614997598 -22.329489462411058 0.0 0.0
882.2170376965689 149.30057245141853 478.94382511922595 -22.310987139335257 0.0 0.0
940.9665511610597 168.6685049567361 518.3839235234865 -22.704451419642126 0.0 0.0
1002.935619170348 191.62440417475813 560.0596115702758 -23.297698065008753 0.0 0.0
1066.708071617949 219.22582026030904 604.6120350862176 -23.515601416943348 0.0 0.0
1129.6993343827367 250.4729134377195 650.542591859904 -22.368420058025468 0.0 0.0
1188.008897475128 282.8506731129317 694.7514685143103 -19.376206287217205 0.0 0.0
1238.9876706000946 315.13445397474464 735.4067846002404 -15.121869264324694 0.0 0.0
1272.761108026114 338.6626047704384 763.5529522004438 -9.07356741170793 0.0 0.0
1272.7611080257132 338.6626047700333 763.5529522001654 9.07356741175844 0.0 0.0
1238.9876705999357 315.13445397459134 735.4067846000999 15.12186926438871 0.0 0.0
1188.0088974748824 282.8506731127005 694.7514685140696 19.376206287307326 0.0 0.0
1129.6993343823397 250.47291343733625 650.5425918595196 22.368420058081284 0.0 0.0
1066.708071617247 219.22582025960529 604.6120350856359 23.51560141692579 0.0 0.0
1002.9356191700815 191.6244041745144 560.0596115699954 23.297698065014522 0.0 0.0
940.9665511606397 168.66850495634725 518.3839235231043 22.70445141966223 0.0 0.0
882.2170376961761 149.30057245107636 478.94382511888574 22.310987139392374 0.0 0.0
826.6039389712175 130.9397917514908 438.81386149938294 22.32948946241474 0.0 0.0
771.920600171035 112.63027333062323 395.554954300442 22.6668638758054 0.0 0.0
719.1922136492922 92.69834333589539 349.7597437534543 23.244617124057697 0.0 0.0
666.900373441524 71.27962194177812 302.66687544031726 24.105852462272914 0.0 0.0
614.1712553746258 49.50592621910549 255.86599516201903 25.5789870843155 0.0 0.0
559.4446011267298 28.989443753013234 210.53271056104126 27.497792874624256 0.0 0.0
498.40482618664345 11.891095931801143 167.4360442470159 28.421920782497775 0.0 0.0
437.23566849377073 -5.137990243139768 128.81675237951413 30.722288923018716 0.0 0.0
358.0722873295366 -0.1825181812554404 107.1838771732184 29.127312029884045 0.0 0.0
310.48541622198877 7.574542542477298 95.4179876293398 5.557892689358382 0.0 0.0
227.9248276425982 72.63327365363267 90.16743038886925 -27.253349460667184 0.0 0.0
10.567941693560371 -487.81040610170123 -207.08986945683827 129.6955909431165 0.0 0.0
-20.994322135900376 -478.1638563537222 -203.00404536652968 -143.5047351535929 0.0 0.0
125.2448770423888 37.670771007278105 48.87469441490006 -27.07716625734905 0.0 0.0
250.81010780194816 22.587000463995665 82.01913247978314 -18.547715865122687 0.0 0.0
314.20145189831305 1.8564672777674969 94.81137928625613 -45.09900112142035 0.0 0.0
389.09747771535876 0.753378196751429 116.48957403013837 -50.800712336493746 0.0 0.0
469.23978411222873 1.1315391207987886 144.89330937916768 -50.35035945595677 0.0 0.0
525.9491515333132 22.575104747087373 187.3677516956237 -45.94964219929309 0.0 0.0
580.7530782489441 39.341128135404105 229.38127717357153 -43.0149127321506 0.0 0.0
634.1585267130181 59.98861633367713 274.7698432976486 -40.17959715377123 0.0 0.0
686.0275403681551 80.14478028468541 321.16657185559086 -38.260115919928054 0.0 0.0
737.7069290497878 98.32081488452766 366.78048015924134 -37.1212637455106 0.0 0.0
790.0023454012642 115.24319539127967 410.35658112156875 -36.43449468947858 0.0 0.0
844.9011779756952 130.88190013411776 450.63407644043286 -36.324118513933755 0.0 0.0
901.4669454109516 148.5388852699552 489.33319819332473 -36.783526467592885 0.0 0.0
960.3096400152721 168.70965982964253 528.5619933047221 -37.54906132049541 0.0 0.0
1020.2993880713425 192.5058599048958 569.560519669683 -37.66205060881536 0.0 0.0
1078.5413107377715 218.88508922475953 610.7574436532195 -35.89789880221581 0.0 0.0
1133.6983154390518 247.7708652545287 651.6383040830885 -31.576507650841123 0.0 0.0
1181.7236518574846 276.386510731951 689.0684355243593 -24.48488257438967 0.0 0.0
1212.8638317931345 296.34413811266785 714.2922000794744 -13.219783139868703 0.0 0.0
1212.8638317930681 296.3441381126028 714.2922000794155 13.219783139907351 0.0 0.0
1181.7236518575585 276.3865107320487 689.0684355244236 24.48488257455307 0.0 0.0
1133.6983154387833 247.77086525427842 651.6383040828824 31.576507650934264 0.0 0.0
1078.54131073725 218.88508922423932 610.7574436527844 35.89789880224256 0.0 0.0
1020.2993880709953 192.50585990456324 569.5605196693599 37.6620506088379 0.0 0.0
960.3096400150791 168.70965982947934 528.5619933044983 37.549061320534776 0.0 0.0
901.4669454105876 148.5388852696269 489.3331981929999 36.78352646762921 0.0 0.0
844.9011779754162 130.8819001338995 450.63407644017377 36.32411851398588 0.0 0.0
790.0023454009356 115.24319539101933 410.3565811212589 36.4344946894537 0.0 0.0
737.7069290495383 98.3208148843655 366.78048015898503 37.12126374549529 0.0 0.0
686.02754036795 80.14478028459985 321.1665718553717 38.26011591990796 0.0 0.0
634.1585267128609 59.988616333668205 274.7698432974633 40.17959715376822 0.0 0.0
580.7530782485038 39.34112813508583 229.381277173218 43.01491273209952 0.0 0.0
525.949151532988 22.575104746997283 187.36775169538672 45.94964219929806 0.0 0.0
469.2397841119457 1.1315391207724996 144.8933093790196 50.35035945589523 0.0 0.0
389.09747771501407 0.7533781966757731 116.48957403001832 50.80071233642356 0.0 0.0
314.2014518980661 1.8564672777382203 94.81137928617413 45.099001121282726 0.0 0.0
250.8101078018879 22.587000463969844 82.01913247975733 18.547715865017004 0.0 0.0
125.24487704253826 37.67077100738486 48.87469441497693 27.077166257170774 0.0 0.0
-20.994322135581797 -478.1638563533227 -203.0040453661677 143.50473515346306 0.0 0.0
-27.12890038129654 -456.2512330943364 -184.48419530666575 -146.84120779217065 0.0 0.0
64.2915496984259 6.572188062619251 21.25912132831354 -72.69628989776314 0.0 0.0
190.54401325930579 27.64869472628053 65.45781239567589 -41.294829260790856 0.0 0.0
267.7126714285278 7.14067632297693 82.45600432545142 -60.99192017477888 0.0 0.0
338.5168058247396 1.330281050661268 101.79372744449876 -71.32327703915662 0.0 0.0
420.13290827018517 -2.0013002052214595 125.08296659656472 -72.67054663635068 0.0 0.0
483.8486403992455 12.305638326687616 160.48086841727843 -65.82774526068104 0.0 0.0
541.307098320829 29.56285013984177 201.26629684164007 -61.884056468123454 0.0 0.0
595.2938568651637 47.7610844941912 243.74395853464046 -57.035830490821425 0.0 0.0
647.3966015024566 66.75963724537733 288.88704747958434 -53.83654071902974 0.0 0.0
698.7706411351112 83.82608163094824 334.5145820576516 -51.84450179535314 0.0 0.0
750.7360459140591 99.1778581679913 379.04977643284167 -50.677244413232685 0.0 0.0
803.2906074765441 112.96228152311288 419.72524616359505 -50.449051558309115 0.0 0.0
858.8126354500367 128.397696044439 458.51338272711916 -51.05164705312717 0.0 0.0
915.2467782738781 145.7411228290764 495.9567544047515 -51.79824826455371 0.0 0.0
970.3501599597564 165.55553417361338 532.8963639295171 -51.68507213224414 0.0 0.0
1024.1778351931257 187.24312713588728 569.6963944633628 -49.49314289628331 0.0 0.0
1075.3792594451734 211.4306991516869 606.3414725743554 -44.00334061196382 0.0 0.0
1120.7180446595637 236.0655194550741 640.5655487249753 -34.0487014672562 0.0 0.0
1151.056977670673 253.6835955548174 664.39971806779 -17.66143098734438 0.0 0.0
1151.0569776706511 253.68359555481763 664.3997180677742 17.66143098746738 0.0 0.0
1120.7180446594427 236.0655194549812 640.5655487248362 34.04870146741828 0.0 0.0
1075.3792594450324 211.4306991515718 606.3414725742095 44.003340612055425 0.0 0.0
1024.1778351931325 187.24312713593008 569.6963944632847 49.493142896377535 0.0 0.0
970.3501599594614 165.5555341733418 532.8963639292149 51.68507213229064 0.0 0.0
915.246778273388 145.7411228285991 495.95675440437293 51.7982482645553 0.0 0.0
858.8126354496334 128.39769604405595 458.51338272680107 51.05164705312846 0.0 0.0
803.2906074763246 112.9622815229572 419.72524616340417 50.44905155836407 0.0 0.0
750.736045913546 99.1778581675209 379.04977643243814 50.67724441322084 0.0 0.0
698.7706411347199 83.82608163063489 334.514582057309 51.844501795363016 0.0 0.0
647.3966015020277 66.75963724503441 288.8870474792185 53.83654071899399 0.0 0.0
595.2938568646407 47.761084493725235 243.7439585342397 57.03583049079571 0.0 0.0
541.3070983203996 29.562850139574167 201.26629684131177 61.88405646810311 0.0 0.0
483.8486403988169 12.305638326463473 160.48086841700663 65.82774526067217 0.0 0.0
420.13290826981375 -2.0013002051964373 125.08296659645823 72.67054663632581 0.0 0.0
338.51680582452656 1.3302810508308216 101.79372744449016 71.32327703908862 0.0 0.0
267.7126714283099 7.14067632286524 82.45600432535254 60.991920174699885 0.0 0.0
190.5440132592348 27.648694726207406 65.45781239563266 41.29482926071293 0.0 0.0
64.29154969849128 6.572188062625925 21.259121328335162 72.69628989754644 0.0 0.0
-27.128900381067112 -456.2512330939834 -184.48419530636394 146.84120779203846 0.0 0.0
-22.410657294805503 -426.71797975283897 -160.58111223098226 -145.57201346657524 0.0 0.0
26.178174429987244 -19.846309147766192 1.8995595846663162 -107.18223904269003 0.0 0.0
137.5454964730335 27.235921516293466 49.434425396798076 -67.18362861082849 0.0 0.0
219.2136347677078 12.095068247333671 69.39261090451244 -77.85114897686988 0.0 0.0
286.1370043184321 2.6162263238114747 86.55968202499935 -89.4725405816842 0.0 0.0
359.28840610608967 -0.44538066817060395 107.21566000001488 -93.05518480916732 0.0 0.0
436.9949034948829 1.7397851501943071 133.4403541924923 -89.52277924880259 0.0 0.0
495.71305828266287 19.55374275159017 170.84665323486777 -80.58852100394924 0.0 0.0
548.213070623592 34.626279304258716 209.59908088083756 -75.67312325343883 0.0 0.0
601.8973577731944 52.60421527178221 252.73375974460637 -70.5357730569878 0.0 0.0
654.0534405936571 68.66625667644607 297.79187046186223 -67.2547412907676 0.0 0.0
705.5407963578994 82.61396081550224 342.9180809771802 -65.31566110090613 0.0 0.0
758.026397100144 95.02398169012812 385.62064586822976 -64.84501521395254 0.0 0.0
810.9444866445663 108.42474487663327 424.6301516668157 -65.40167714822564 0.0 0.0
864.5897738992609 122.78095118018058 460.56594572828254 -66.11658314876121 0.0 0.0
917.2967469460457 138.6281779221332 494.9413630704429 -65.74289537496503 0.0 0.0
965.813129608976 155.38642305712875 526.959049868839 -63.08160316239588 0.0 0.0
1012.2182116738045 174.06929003120032 558.6732090243553 -56.65085511807291 0.0 0.0
1055.0793132242288 194.28751821676528 589.6287510919735 -44.102708192144156 0.0 0.0
1085.814049788019 209.94327021604505 612.8709448571822 -22.704772875163385 0.0 0.0
1085.8140497883114 209.94327021636812 612.8709448574082 22.70477287530732 0.0 0.0
1055.0793132247463 194.2875182173421 589.6287510923516 44.10270819230793 0.0 0.0
1012.2182116735502 174.06929003099677 558.6732090241775 56.65085511827455 0.0 0.0
965.8131296086082 155.3864230567844 526.9590498685324 63.08160316247594 0.0 0.0
917.2967469457134 138.6281779218151 494.94136307015145 65.74289537498547 0.0 0.0
864.5897738991733 122.78095118012753 460.56594572816056 66.11658314879074 0.0 0.0
810.9444866441547 108.42474487626302 424.6301516665069 65.40167714829377 0.0 0.0
758.0263970998433 95.02398168989873 385.6206458679811 64.84501521403615 0.0 0.0
705.5407963575934 82.61396081528346 342.9180809768982 65.31566110093758 0.0 0.0
654.0534405935286 68.66625667642938 297.79187046169636 67.25474129073918 0.0 0.0
601.897357773006 52.60421527171903 252.73375974440364 70.53577305694235 0.0 0.0
548.2130706233504 34.62627930417699 209.59908088063187 75.673123253451 0.0 0.0
495.71305828236075 19.553742751545244 170.84665323467698 80.58852100397465 0.0 0.0
436.9949034945349 1.7397851501919295 133.44035419235547 89.52277924881858 0.0 0.0
359.28840610576685 -0.44538066809238597 107.215659999947 93.05518480908151 0.0 0.0
286.1370043182578 2.6162263239522376 86.55968202499129 89.47254058158663 0.0 0.0
219.21363476757728 12.095068247338741 69.39261090447481 77.8511489767674 0.0 0.0
137.54549647298995 27.235921516280925 49.434425396781265 67.18362861064915 0.0 0.0
26.17817443009813 -19.846309147608867 1.899559584746779 107.18223904245197 0.0 0.0
-22.410657294674422 -426.7179797524785 -160.5811122307346 145.57201346649023 0.0 0.0
-16.72751649445299 -391.83544172781217 -136.95484604483264 -140.74608375444836 0.0 0.0
1.4827347398312467 -41.05531233497656 -11.871773278543595 -133.02135944254437 0.0 0.0
92.68571099946502 23.903737853823902 34.97683465598667 -92.03840765276566 0.0 0.0
170.70235537531477 15.540438891577761 55.872838280067754 -94.85838541485602 0.0 0.0
232.56756904825417 4.825609480766112 71.1869203768433 -105.45835902304336 0.0 0.0
294.4692882793736 -0.11371971680627194 88.25562027161665 -111.3575042559719 0.0 0.0
364.8604537187452 -0.935744313390972 109.09519795526268 -111.40482127571238 0.0 0.0
433.99246634314756 6.488229151251669 137.04826828299792 -103.9072862494114 0.0 0.0
492.7736984940308 21.59581758642072 172.85010523102736 -95.58440748790451 0.0 0.0
546.3602909511976 37.25220195352869 212.17166549240636 -89.38384255611183 0.0 0.0
599.6170298879853 52.2537865607449 255.13284688022364 -83.9885952366574 0.0 0.0
652.7825048681061 65.47886477210594 300.7520394920286 -80.91171903100854 0.0 0.0
705.2422573030467 76.8957472822894 345.5516551792788 -79.7060113679729 0.0 0.0
757.7570243303472 88.32829691319063 386.65730112357016 -80.12104475142569 0.0 0.0
809.131359657969 99.64198551512365 422.26225234656283 -80.62458271082578 0.0 0.0
857.220971030415 111.98939309032474 453.77722139226915 -79.75997932943048 0.0 0.0
902.2064077967882 123.6288121932383 482.0970939680209 -76.72850802554302 0.0 0.0
943.6602348759636 135.8617257661246 508.56927291789765 -69.5537769237975 0.0 0.0
983.2047212559987 150.85991112781744 535.5311882725272 -54.85519234006001 0.0 0.0
1015.3050849744315 164.47171849997457 558.6352292282124 -28.682534250387434 0.0 0.0
1015.3050849743805 164.47171849993333 558.6352292281987 28.68253425049489 0.0 0.0
983.2047212562039 150.85991112809398 535.5311882726622 54.85519234027657 0.0 0.0
943.6602348763233 135.86172576658845 508.56927291813946 69.55377692404304 0.0 0.0
902.2064077970455 123.62881219356737 482.097093968202 76.72850802566833 0.0 0.0
857.2209710304137 111.98939309037281 453.7772213922463 79.7599793294992 0.0 0.0
809.1313596576439 99.64198551482187 422.2622523463091 80.62458271085957 0.0 0.0
757.7570243302904 88.32829691319671 386.6573011234912 80.12104475148024 0.0 0.0
705.2422573029847 76.89574728233463 345.5516551791959 79.7060113680907 0.0 0.0
652.7825048678299 65.47886477193376 300.75203949181105 80.91171903104933 0.0 0.0
599.6170298877063 52.25378656056897 255.13284687998794 83.98859523665409 0.0 0.0
546.360290950893 37.2522019533207 212.17166549215227 89.38384255605021 0.0 0.0
492.77369849353926 21.595817586030968 172.85010523068547 95.58440748788345 0.0 0.0
433.9924663425707 6.488229150787641 137.04826828265274 103.90728624942741 0.0 0.0
364.8604537183816 -0.9357443134200638 109.09519795514021 111.40482127569496 0.0 0.0
294.4692882791727 -0.1137197165386814 88.25562027164536 111.35750425585765 0.0 0.0
232.56756904808532 4.825609480759301 71.18692037679178 105.45835902286686 0.0 0.0
170.70235537516106 15.540438891475276 55.872838279990894 94.85838541472685 0.0 0.0
92.68571099945316 23.903737853837107 34.976834655987076 92.03840765263756 0.0 0.0
1.4827347399070394 -41.055312334892236 -11.871773278495557 133.02135944233194 0.0 0.0
-16.727516494389484 -391.8354417274735 -136.95484604463115 140.7460837543084 0.0 0.0
-11.301086157307184 -352.9547327726933 -113.8188591547565 -133.22358634593374 0.0 0.0
-14.061575013601406 -56.228093277173954 -21.086900487232604 -150.5324596434731 0.0 0.0
54.624335002733254 18.886416443885253 22.05322543398555 -113.90423241809239 0.0 0.0
123.68130564341088 17.614506797996118 42.3887437324221 -110.91566914550279 0.0 0.0
178.3041222190203 7.292361269245094 55.6789450464796 -119.21885470008206 0.0 0.0
229.8091159026681 0.9467350061160463 69.11407534874948 -126.3590338508847 0.0 0.0
286.0555917864524 -1.733612937304514 85.09256901871964 -129.33125755117274 0.0 0.0
348.76132314610294 0.23575023311613919 105.44366088859103 -126.79008615560609 0.0 0.0
415.84190568795117 7.862991288457543 132.62296807604665 -118.90288698704582 0.0 0.0
476.33917151389375 21.553146112805464 167.4618610075157 -110.73359233795001 0.0 0.0
530.3261372762067 34.153367583202375 205.56514461581517 -103.76601722459345 0.0 0.0
587.0013953951424 47.305522046497025 250.10305380337766 -98.45362299273697 0.0 0.0
641.7844374205699 57.781867819933964 296.4692418166168 -95.75641695386611 0.0 0.0
694.4750277577739 67.99311983785427 340.6975333194447 -95.4242498351131 0.0 0.0
743.7426470226579 76.44171193144996 377.5361263667574 -95.408084874299 0.0 0.0
789.984955255962 85.12826859523206 408.5614557005871 -94.0940424864017 0.0 0.0
830.4474407479314 92.18845810401002 433.61228186729477 -90.31837469506524 0.0 0.0
866.4241958722112 97.76060859129907 454.9518505874666 -82.6014011010429 0.0 0.0
902.7450885609952 105.29423754006325 477.07042310304735 -66.59668090373758 0.0 0.0
937.4860687152031 116.40312928525438 500.4687009012215 -36.128776685883935 0.0 0.0
937.4860687151627 116.40312928523927 500.4687009012094 36.12877668604303 0.0 0.0
902.745088560619 105.29423753976134 477.0704231028138 66.59668090397668 0.0 0.0
866.4241958717967 97.76060859095854 454.9518505871758 82.60140110128063 0.0 0.0
830.4474407475847 92.1884581037413 433.6122818670397 90.31837469522567 0.0 0.0
789.9849552555927 85.1282685948668 408.56145570031714 94.094042486408 0.0 0.0
743.7426470222829 76.44171193107522 377.53612636647637 95.40808487429675 0.0 0.0
694.4750277576562 67.99311983781817 340.6975333193422 95.42424983520208 0.0 0.0
641.7844374204193 57.78186781986207 296.4692418164958 95.75641695392618 0.0 0.0
587.0013953947148 47.3055220461045 250.10305380305303 98.45362299273917 0.0 0.0
530.3261372759963 34.15336758311642 205.56514461564302 103.76601722459748 0.0 0.0
476.3391715137038 21.553146112767397 167.4618610073725 110.73359233790066 0.0 0.0
415.84190568759897 7.86299128832411 132.62296807586281 118.90288698704579 0.0 0.0
348.7613231457131 0.23575023301594378 105.44366088844254 126.7900861556096 0.0 0.0
286.05559178615846 -1.7336129373462947 85.09256901862156 129.33125755111013 0.0 0.0
229.80911590244366 0.9467350060136575 69.11407534865302 126.35903385076 0.0 0.0
178.30412221893914 7.292361269368927 55.67894504649241 119.21885469992087 0.0 0.0
123.68130564344878 17.614506798219757 42.38874373250056 110.91566914536506 0.0 0.0
54.62433500272818 18.886416443919682 22.05322543399436 113.90423241791731 0.0 0.0
-14.061575013537889 -56.228093277061326 -21.086900487179765 150.53245964325743 0.0 0.0
-11.301086157302457 -352.95473277234714 -113.81885915461031 133.22358634579922 0.0 0.0
-12.44252951893324 -314.4709913300461 -97.5912905296785 -126.289858205819 0.0 0.0
-24.956627239925176 -64.89814084497957 -26.956430425471417 -159.80844961363005 0.0 0.0
22.223310916295546 13.361569419366553 10.675464100698626 -131.90619053479415 0.0 0.0
78.73502862613475 18.490451038663416 29.167643899439447 -125.02214326718685 0.0 0.0
123.94827329638396 9.406643865296537 40.00647514850415 -130.7736151545434 0.0 0.0
163.68593453272888 2.4811478870811996 49.804353023595695 -137.9043853731643 0.0 0.0
204.83004195984984 -0.9610850614327173 61.09301301170484 -142.4795278118002 0.0 0.0
252.69591618695836 -1.6894063694597885 75.23070867889611 -144.6730291529405 0.0 0.0
307.01868267746795 -0.5216291879574451 92.72841064574703 -142.36341194683126 0.0 0.0
370.1104600862024 8.279317029341083 118.64966890602095 -134.62655199788747 0.0 0.0
437.38282266493934 14.744681731690514 149.1899688105071 -129.29923789679938 0.0 0.0
496.2469680296141 26.65261474618429 187.9517659145369 -120.20441761145497 0.0 0.0
556.1672577041156 37.628873827129055 233.41825673172158 -114.65962240942318 0.0 0.0
612.6790479771553 46.602447536269956 280.22855936172175 -112.32615753116849 0.0 0.0
663.6851219875485 53.261938540862154 321.456791407267 -111.01512756699782 0.0 0.0
707.5766664255358 57.93566630937831 353.4997283741058 -108.74947433120956 0.0 0.0
745.9099405117455 60.71682262904796 378.12886997041426 -104.23982785191592 0.0 0.0
778.1625362836157 60.65860975369063 396.7287715578108 -95.48680631334996 0.0 0.0
807.4964716841296 57.92012189332563 411.5018339641845 -79.04074788466046 0.0 0.0
844.4845210529005 64.07869481525371 433.91242763045796 -45.699999099858445 0.0 0.0
844.4845210526219 64.07869481500143 433.9124276303018 45.69999910000472 0.0 0.0
807.4964716842422 57.92012189358549 411.50183396433516 79.04074788504312 0.0 0.0
778.1625362840343 60.65860975431066 396.72877155814433 95.48680631366383 0.0 0.0
745.9099405117895 60.71682262922043 378.12886997044683 104.23982785209868 0.0 0.0
707.5766664254144 57.93566630927489 353.49972837395507 108.74947433122134 0.0 0.0
663.6851219874183 53.26193854075753 321.4567914071623 111.01512756701572 0.0 0.0
612.6790479769562 46.602447536122895 280.22855936157134 112.32615753122857 0.0 0.0
556.1672577040188 37.62887382715136 233.4182567316507 114.65962240952275 0.0 0.0
496.2469680294119 26.652614746093942 187.95176591439233 120.20441761147167 0.0 0.0
437.3828226647044 14.744681731616224 149.18996881037242 129.29923789682073 0.0 0.0
370.11046008596014 8.279317029272448 118.64966890589484 134.62655199780485 0.0 0.0
307.0186826772017 -0.5216291879820529 92.72841064565266 142.3634119468752 0.0 0.0
252.6959161866649 -1.6894063695876698 75.23070867876912 144.67302915293192 0.0 0.0
204.8300419596545 -0.961085061436096 61.093013011646825 142.47952781173402 0.0 0.0
163.6859345326565 2.481147887141786 49.804353023593606 137.90438537299065 0.0 0.0
123.94827329633274 9.406643865347775 40.006475148504144 130.7736151543299 0.0 0.0
78.73502862603841 18.490451038506226 29.16764389936339 125.0221432670043 0.0 0.0
22.223310916301415 13.361569419387367 10.675464100706634 131.9061905346009 0.0 0.0
-24.956627239868332 -64.89814084485761 -26.95643042541778 159.80844961340802 0.0 0.0
-12.442529518953611 -314.47099132974733 -97.59129052959035 126.2898582056684 0.0 0.0
-18.348934086457174 -272.1891433967602 -87.02198796342267 -116.63080089893107 0.0 0.0
-34.22802141136992 -68.6196893666647 -30.854313233410384 -164.4446427509419 0.0 0.0
-5.702541816681588 8.373902968557651 0.8014083455628184 -145.18780872524664 0.0 0.0
36.00255158793129 18.362491501096894 16.309512926708454 -136.4889833629859 0.0 0.0
69.87049262075526 11.090885926079743 24.2884135640505 -139.61567880788274 0.0 0.0
97.16166151036794 4.1757073712151485 30.368723555452874 -146.13931801965924 0.0 0.0
123.1716264585274 0.25463412687781584 36.968810702973386 -151.4270966003353 0.0 0.0
152.0453899028844 -1.0320419559666023 45.28108939851595 -155.17556663564542 0.0 0.0
186.60390808035282 -2.235899520970313 55.26031422456847 -158.27573002208464 0.0 0.0
227.3016984250075 0.33909922835808537 69.5320407649571 -156.558636782181 0.0 0.0
281.21745305149216 4.508221125934008 89.30360920043911 -152.98299283299164 0.0 0.0
347.49734875735817 7.13445952672088 114.31819845312121 -149.2814027632846 0.0 0.0
420.81643119636806 15.173007213567242 150.51302043307922 -141.81539700611555 0.0 0.0
488.2075604659541 24.03867346139317 194.5746673929837 -134.0308686747731 0.0 0.0
544.6732579100703 28.849958203865697 237.8495032983617 -128.69180806525083 0.0 0.0
591.1022403903161 30.848643007777156 274.4918167670627 -124.23853350849043 0.0 0.0
628.2705512338949 28.218005693208646 301.3638921935549 -118.52936819801126 0.0 0.0
664.2687849869301 24.653135624771636 324.1111634367778 -108.34615673581831 0.0 0.0
690.1534715931291 11.012022809135239 335.4592232626086 -91.33245113205265 0.0 0.0
725.5963124768446 4.190859912252492 352.09050315810737 -58.03133416881166 0.0 0.0
725.5963124769017 4.190859912376325 352.0905031581501 58.031334169034764 0.0 0.0
690.1534715924495 11.012022808615455 335.4592232622132 91.33245113244996 0.0 0.0
664.2687849860861 24.65313562392437 324.11116343622444 108.34615673599214 0.0 0.0
628.2705512335407 28.218005692845708 301.3638921933216 118.52936819808778 0.0 0.0
591.102240390047 30.848643007460467 274.49181676685987 124.23853350846915 0.0 0.0
544.67325790999 28.849958203854868 237.84950329831423 128.69180806530605 0.0 0.0
488.2075604657303 24.038673461199032 194.5746673928397 134.03086867483455 0.0 0.0
420.81643119612386 15.173007213323151 150.5130204329328 141.81539700619453 0.0 0.0
347.49734875704416 7.134459526361933 114.31819845290238 149.28140276328128 0.0 0.0
281.2174530511497 4.508221125520347 89.30360920019939 152.98299283293383 0.0 0.0
227.30169842477898 0.3390992280861518 69.53204076479827 156.5586367820871 0.0 0.0
186.60390808026224 -2.2358995208727537 55.260314224568425 158.2757300221022 0.0 0.0
152.04538990276112 -1.0320419559138072 45.28108939849628 155.1755666356037 0.0 0.0
123.1716264584627 0.25463412692599885 36.96881070296911 151.42709660022584 0.0 0.0
97.16166151033578 4.175707371241321 30.368723555451915 146.13931801947618 0.0 0.0
69.87049262071604 11.09088592597753 24.288413564008067 139.61567880767672 0.0 0.0
36.00255158788833 18.362491500993077 16.309512926664418 136.48898336280976 0.0 0.0
-5.702541816610864 8.373902968655063 0.8014083456132587 145.1878087250673 0.0 0.0
-34.22802141133443 -68.61968936656409 -30.854313233369552 164.44464275077218 0.0 0.0
-18.348934086462602 -272.18914339651553 -87.02198796335446 116.63080089881495 0.0 0.0
-19.19061149384204 -231.3023468343131 -75.14788749844654 -106.6776408608158 0.0 0.0
-42.07887427251003 -68.89031722378235 -33.2907574488877 -165.23697139250513 0.0 0.0
-30.5464742908538 4.2348537930126495 -7.893486149352344 -153.83927235963768 0.0 0.0
-4.557889552809204 17.557074003786845 3.8997553352932917 -144.7121996485646 0.0 0.0
16.45858144595006 12.299160564295368 8.627322603073626 -145.4807036633767 0.0 0.0
30.40299212413386 5.785574024001614 10.848733622839683 -150.7415520025942 0.0 0.0
40.90460582731676 1.7502562696602064 12.785313617820256 -155.92941336886494 0.0 0.0
50.98073606668781 -0.11973859409302356 15.219256598759053 -160.89015391486356 0.0 0.0
62.75851931051349 -0.7203737935800927 18.580656902826732 -164.67520564357656 0.0 0.0
76.94002218006963 -1.017447098120626 22.75888754283644 -169.79462523747551 0.0 0.0
95.90385129177085 0.7134855989968312 29.734421904370354 -166.66159373482304 0.0 0.0
119.92454316163574 1.1095296077941814 38.001513365767785 -167.62394434739613 0.0 0.0
153.08569074183328 3.052110326345149 50.33263006242525 -166.3667674696287 0.0 0.0
201.9599684760514 6.5367546542170345 69.23874005889336 -161.10394564569177 0.0 0.0
261.33689485393 6.890636234382889 93.33410002644445 -152.50146635176705 0.0 0.0
323.30749650204376 7.734156059108628 125.59883482651024 -143.12102911921482 0.0 0.0
386.97483335932196 -4.389940851019119 156.64152663330043 -133.01727468422817 0.0 0.0
445.76893561420485 -15.327660916274183 188.98471183842142 -122.40429537580962 0.0 0.0
505.05430081441347 -28.159579079015046 222.33372608062444 -101.92255647122477 0.0 0.0
532.2153322235257 -71.96049034876879 224.48271630376823 -70.67767729857243 0.0 0.0
532.2153322234026 -71.96049034882235 224.4827163037118 70.67767729882257 0.0 0.0
505.05430081441654 -28.159579078870465 222.33372608065002 101.92255647160732 0.0 0.0
445.7689356142366 -15.327660916101493 188.98471183845314 122.40429537605453 0.0 0.0
386.9748333591947 -4.389940851086912 156.64152663325615 133.01727468439566 0.0 0.0
323.30749650201534 7.734156059031555 125.59883482648411 143.12102911923373 0.0 0.0
261.33689485396116 6.890636234383784 93.33410002646445 152.5014663517753 0.0 0.0
201.95996847595532 6.536754654109359 69.23874005884032 161.10394564576097 0.0 0.0
153.08569074178925 3.052110326161406 50.33263006234422 166.36676746970892 0.0 0.0
119.92454316156284 1.1095296075798036 38.00151336568039 167.62394434739258 0.0 0.0
95.90385129162762 0.7134855986374298 29.734421904217264 166.66159373480104 0.0 0.0
76.9400221799509 -1.0174470984919246 22.75888754268808 169.79462523737593 0.0 0.0
62.75851931043259 -0.7203737937366483 18.58065690275541 164.67520564353123 0.0 0.0
50.98073606662262 -0.11973859416956678 15.219256598716896 160.8901539147914 0.0 0.0
40.90460582738332 1.7502562697750426 12.78531361787478 155.92941336875475 0.0 0.0
30.402992124174094 5.785574024019883 10.848733622857518 150.74155200243632 0.0 0.0
16.458581446041862 12.299160564395715 8.62732260313127 145.4807036632027 0.0 0.0
-4.557889552779847 17.55707400376283 3.899755335294894 144.71219964837246 0.0 0.0
-30.546474290864214 4.234853792892285 -7.8934861493915776 153.8392723594402 0.0 0.0
-42.07887427250602 -68.89031722376234 -33.2907574488805 165.23697139232044 0.0 0.0
-19.190611493820523 -231.30234683407073 -75.14788749836737 106.67764086070372 0.0 0.0
-18.86438303491558 -192.55377252124163 -63.42544666684715 -96.88475194004982 0.0 0.0
-48.72194872792657 -66.07171493749549 -34.43809909962661 -162.2258868767994 0.0 0.0
-53.21262773846843 0.9478815837598651 -15.679423846412568 -158.0844707962349 0.0 0.0
-43.16232568772509 16.346626094213217 -8.044709878053558 -149.34517657566488 0.0 0.0
-36.07168694660667 12.985645800321421 -6.925812343885573 -148.0899495490257 0.0 0.0
-36.162712562303234 7.162532845329057 -8.688651395341186 -151.89346811955744 0.0 0.0
-41.45304777811681 3.1561514904804313 -11.476856076312018 -156.26087523472563 0.0 0.0
-50.30607567858608 1.1963575523371786 -14.694317709218293 -160.90115146300468 0.0 0.0
-62.22751010039684 0.5744549678171698 -18.465443881684806 -164.6285333898295 0.0 0.0
-76.66139117614571 0.6572723929194533 -22.782791163391778 -169.78604462070479 0.0 0.0
-95.66835081494176 -0.9552401528267751 -29.701588000450187 -166.69947232279807 0.0 0.0
-119.5156480445633 -0.9974270380087749 -37.828391254021554 -167.60271926126663 0.0 0.0
-153.25263435349643 -2.195445176553033 -50.07671019099457 -166.21944541661733 0.0 0.0
-204.0087214667564 -5.9346918132221695 -69.74413902446727 -160.86161604999813 0.0 0.0
-260.9792384910322 -11.015110477325859 -95.2885319931261 -153.49890733956687 0.0 0.0
-304.0733176734208 -19.306322111642203 -122.97122444863004 -147.5857759950642 0.0 0.0
-317.9913050401245 -28.009211771114025 -140.60888600098124 -144.61720640347738 0.0 0.0
-279.96827158095306 -43.7152470828004 -138.06768802842004 -143.891919729564 0.0 0.0
-147.80809100466587 -40.327263223915466 -80.4802141168933 -137.1769124194682 0.0 0.0
50.995144865947495 -142.70144917691016 -36.5506567121178 -93.6645699527217 0.0 0.0
50.99514486612392 -142.70144917648912 -36.55065671198699 93.6645699530078 0.0 0.0
-147.80809100453055 -40.32726322361407 -80.48021411674026 137.1769124198404 0.0 0.0
-279.96827158058346 -43.71524708220278 -138.0676880281555 143.89191972980817 0.0 0.0
-317.99130503971145 -28.009211770452907 -140.6088860006469 144.61720640356168 0.0 0.0
-304.0733176733438 -19.30632211167284 -122.97122444859654 147.5857759950643 0.0 0.0
-260.9792384907371 -11.015110476965226 -95.28853199292845 153.4989073395595 0.0 0.0
-204.00872146659046 -5.934691813063289 -69.74413902436882 160.86161605004133 0.0 0.0
-153.25263435337723 -2.1954451768234104 -50.07671019103421 166.21944541671715 0.0 0.0
-119.51564804437007 -0.9974270380107022 -37.82839125396306 167.60271926125785 0.0 0.0
-95.66835081465004 -0.9552401526143992 -29.70158800029163 166.69947232275462 0.0 0.0
-76.66139117588081 0.6572723930615902 -22.782791163268023 169.78604462064112 0.0 0.0
-62.227510100100915 0.5744549682607625 -18.465443881463287 164.6285333898355 0.0 0.0
-50.30607567840312 1.1963575525356593 -14.69431770910359 160.9011514629792 0.0 0.0
-41.45304777794271 3.1561514906267547 -11.476856076216105 156.26087523464318 0.0 0.0
-36.16271256220744 7.162532845270969 -8.688651395330332 151.8934681193842 0.0 0.0
-36.07168694659012 12.985645800182109 -6.925812343922402 148.08994954882607 0.0 0.0
-43.16232568760953 16.346626094287146 -8.044709877996715 149.34517657544603 0.0 0.0
-53.21262773836916 0.9478815838634149 -15.67942384635172 158.0844707960075 0.0 0.0
-48.72194872787586 -66.07171493743411 -34.43809909959299 162.22588687660084 0.0 0.0
-18.864383034889016 -192.55377252103733 -63.425446666777894 96.88475193995374 0.0 0.0
-18.722512355134924 -156.36322500272092 -52.52572120735675 -87.24850283683757 0.0 0.0
-54.86555622005034 -60.86037227950814 -34.71777854986754 -155.79732408358822 0.0 0.0
-74.23841698258065 -1.3900023244839668 -22.68852579211938 -158.07268947042039 0.0 0.0
-80.07678534340299 14.87132468044243 -19.561638198888165 -150.21737236058203 0.0 0.0
-87.62295988752452 13.188736088304363 -22.32095717643834 -147.3179847499294 0.0 0.0
-102.20404759697257 8.165108674050337 -28.190244326168724 -149.16834010152826 0.0 0.0
-123.57958535732563 4.405812742788666 -35.6864958485166 -152.3453438881258 0.0 0.0
-151.4495311167149 2.0157645973864806 -44.80543720856602 -155.2215607398405 0.0 0.0
-186.13994021367898 2.0937266497213765 -55.16094460096621 -158.16258119607235 0.0 0.0
-227.06251960648748 -0.6270825726663274 -69.54231252444566 -156.52806393306176 0.0 0.0
-280.95422501963355 -4.7286286960548125 -89.28726217803553 -153.02718891255077 0.0 0.0
-347.17522213941743 -7.124291475157413 -114.18799070780756 -149.33293412194817 0.0 0.0
-420.5767365248551 -14.210753762075214 -150.03816058480504 -141.47606265659786 0.0 0.0
-488.5947604080486 -23.260381929203042 -194.56962185830972 -133.50809823551458 0.0 0.0
-546.9264871573745 -33.0076876591339 -241.03077675751257 -130.2182721164265 0.0 0.0
-595.350795331022 -45.49473588468812 -283.4854836645124 -130.84424400317903 0.0 0.0
-633.1780846917192 -61.82085189978997 -318.3947814659002 -135.13734878589347 0.0 0.0
-656.9128670619248 -83.39966980448958 -343.51593384451553 -144.60724559814633 0.0 0.0
-678.7894516677125 -129.92200936133256 -373.31817575603856 -154.90040201515205 0.0 0.0
-638.0432575232215 -171.73609501564079 -363.12676576481465 -148.15517205733025 0.0 0.0
-638.0432575230758 -171.73609501560912 -363.1267657647942 148.15517205757993 0.0 0.0
-678.7894516678754 -129.92200936179051 -373.31817575627747 154.90040201549056 0.0 0.0
-656.9128670621362 -83.39966980493111 -343.5159338447266 144.60724559840074 0.0 0.0
-633.1780846917304 -61.82085189998324 -318.39478146596537 135.13734878605038 0.0 0.0
-595.350795330635 -45.49473588424765 -283.4854836642397 130.8442440031564 0.0 0.0
-546.9264871568962 -33.00768765863708 -241.0307767571867 130.21827211645888 0.0 0.0
-488.59476040793766 -23.260381929222486 -194.56962185823815 133.50809823557955 0.0 0.0
-420.57673652465354 -14.210753762176413 -150.03816058472506 141.47606265673187 0.0 0.0
-347.17522213925014 -7.124291475468674 -114.18799070782663 149.33293412201192 0.0 0.0
-280.954225019266 -4.728628695962312 -89.28726217788842 153.02718891252792 0.0 0.0
-227.0625196059937 -0.6270825723525331 -69.5423125241951 156.52806393299636 0.0 0.0
-186.13994021344138 2.0937266496848 -55.160944600903505 158.16258119605155 0.0 0.0
-151.44953111647925 2.0157645974366156 -44.80543720848062 155.22156073981554 0.0 0.0
-123.57958535705318 4.405812742986658 -35.68649584837644 152.34534388798912 0.0 0.0
-102.20404759677294 8.165108674094364 -28.190244326096668 149.1683401013115 0.0 0.0
-87.62295988743396 13.18873608819302 -22.320957176445315 147.31798474972823 0.0 0.0
-80.07678534333147 14.871324680296178 -19.561638198910583 150.2173723604347 0.0 0.0
-74.23841698254489 -1.3900023245784388 -22.68852579213699 158.0726894702699 0.0 0.0
-54.86555621998388 -60.860372279427814 -34.71777854982351 155.7973240834505 0.0 0.0
-18.722512355105103 -156.36322500255528 -52.525721207298105 87.24850283675431 0.0 0.0
-18.93766086841165 -123.054909129067 -42.59777099924359 -77.57349548926352 0.0 0.0
-60.98132603801871 -53.95775496989512 -34.48172430237415 -146.386218496038 0.0 0.0
-94.05308218684378 -2.7710894017132865 -29.047251476567116 -153.99507691661276 0.0 0.0
-115.54784225327572 13.245558953004418 -30.68551592760458 -147.28410028668492 0.0 0.0
-138.08688431160056 12.875967196740628 -37.548766357635806 -142.83557071744298 0.0 0.0
-167.440641080859 8.759880109615859 -47.54211821635697 -142.6231236339642 0.0 0.0
-205.11509709593957 5.068018673651333 -59.93266548250061 -143.8062775868917 0.0 0.0
-252.1913827233392 2.547144922052361 -74.8183458091137 -144.74865336325658 0.0 0.0
-306.70763744440376 0.397337394239365 -92.66105313711154 -142.19869217779706 0.0 0.0
-369.9585126803149 -8.517971124240635 -118.66708644641426 -134.5546977355533 0.0 0.0
-437.31817374659556 -14.938058142827117 -149.2107283490928 -129.35761613978426 0.0 0.0
-496.0627407465984 -26.652258738160292 -187.8380353615222 -120.30727818440272 0.0 0.0
-555.5530012730449 -36.7937334243362 -232.76588194892489 -114.35128435477165 0.0 0.0
-612.1512953421707 -45.45762936877081 -279.5256352836532 -111.58932258155524 0.0 0.0
-665.7469326050999 -56.06596475287539 -324.0420388697253 -111.73495364705629 0.0 0.0
-714.8109192403888 -70.48587783482 -363.90173748119366 -114.10912846019993 0.0 0.0
-757.5170984801323 -88.28617500966729 -397.9742669986324 -119.93119243718078 0.0 0.0
-798.4794785632938 -119.19321817837272 -432.88765752389634 -130.0951066877519 0.0 0.0
-840.4429578600706 -169.35349546578962 -473.8650668275525 -141.6394071328137 0.0 0.0
-881.3242784556816 -250.99673359199292 -523.9314494161562 -143.25986187327217 0.0 0.0
-881.3242784559422 -250.99673359242496 -523.9314494164006 143.259861873515 0.0 0.0
-840.4429578598745 -169.35349546578584 -473.86506682749734 141.63940713308503 0.0 0.0
-798.4794785627739 -119.19321817800827 -432.8876575235796 130.0951066880059 0.0 0.0
-757.5170984796307 -88.28617500920568 -397.9742669982717 119.9311924372812 0.0 0.0
-714.8109192399502 -70.48587783438842 -363.9017374808508 114.10912846020841 0.0 0.0
-665.7469326047297 -56.06596475253475 -324.04203886947585 111.734953647058 0.0 0.0
-612.151295342197 -45.45762936887151 -279.52563528365107 111.58932258158757 0.0 0.0
-555.5530012729103 -36.793733424386 -232.7658819488468 114.35128435485802 0.0 0.0
-496.0627407463569 -26.65225873809551 -187.83803536136037 120.30727818444198 0.0 0.0
-437.3181737463934 -14.938058142951164 -149.21072834899388 129.3576161397769 0.0 0.0
-369.9585126798794 -8.5179711242029 -118.66708644624224 134.5546977355619 0.0 0.0
-306.70763744391854 0.3973373944592762 -92.66105313689025 142.19869217780382 0.0 0.0
-252.19138272305332 2.5471449219476407 -74.81834580905547 144.74865336323754 0.0 0.0
-205.11509709573602 5.068018673488972 -59.93266548248977 143.80627758678318 0.0 0.0
-167.44064108068935 8.759880109426083 -47.5421182163646 142.62312363380454 0.0 0.0
-138.08688431134894 12.875967196842264 -37.54876635753108 142.83557071726776 0.0 0.0
-115.54784225302738 13.24555895319411 -30.685515927473645 147.2841002864848 0.0 0.0
-94.05308218670314 -2.7710894016164147 -29.047251476495866 153.99507691642916 0.0 0.0
-60.981326037923964 -53.95775496972031 -34.48172430229328 146.38621849589174 0.0 0.0
-18.9376608683843 -123.05490912892489 -42.59777099919275 77.5734954891984 0.0 0.0
-19.51686393007104 -92.9519252975867 -33.74063676829732 -67.64558467046027 0.0 0.0
-67.24083044029177 -45.95506430880964 -33.95876842473042 -134.33579265650707 0.0 0.0
-112.95791233994083 -3.278544097667273 -34.87093693128243 -146.0714444409112 0.0 0.0
-149.77827738983584 11.486699471531708 -41.47625634199984 -140.46197060869304 0.0 0.0
-187.38831768588022 12.13267933893347 -52.54174811357138 -134.55968344903346 0.0 0.0
-231.67500710418653 8.726382646580683 -66.81666632201411 -132.3358065601672 0.0 0.0
-286.0324653205841 5.328323126710382 -83.9691978474645 -131.18789312293316 0.0 0.0
-348.49399200910943 0.4099389763745265 -105.15065263838063 -126.81646094865097 0.0 0.0
-415.7376720919465 -7.9607651821638 -132.59822756442583 -118.70127975067903 0.0 0.0
-476.31065984026833 -21.75625210468909 -167.5097201836638 -110.62507887043914 0.0 0.0
-530.32921493001 -34.262350822116936 -205.5864707175785 -103.83492309290187 0.0 0.0
-586.9455040164712 -47.419543853986745 -250.08418998180633 -98.60130311394136 0.0 0.0
-641.2711881808821 -57.29965147618453 -295.9493209007005 -95.55677880493847 0.0 0.0
-693.4814833721028 -66.65885695028865 -339.58781587615675 -94.4854193426504 0.0 0.0
-744.6605700262912 -77.52269212545349 -378.684130337193 -95.24975848500956 0.0 0.0
-796.02792469274 -93.93443031769016 -416.5920454419201 -98.22686630917583 0.0 0.0
-845.4156109011685 -116.2416606755802 -453.74236912839683 -103.72863519407132 0.0 0.0
-897.8231508402948 -153.96168100498977 -496.5544160766069 -113.76429310438172 0.0 0.0
-957.2065743407493 -217.00158283097755 -551.498705791307 -125.60166751067914 0.0 0.0
-1021.0921056809618 -313.7768242162718 -621.6054489430372 -129.17871110766714 0.0 0.0
-1021.0921056808425 -313.7768242162703 -621.6054489429825 129.17871110787559 0.0 0.0
-957.2065743407189 -217.0015828311224 -551.4987057912932 125.6016675109585 0.0 0.0
-897.8231508405855 -153.96168100546174 -496.5544160768064 113.76429310466393 0.0 0.0
-845.415610901445 -116.24166067599893 -453.7423691285638 103.728635194265 0.0 0.0
-796.0279246926028 -93.93443031759523 -416.5920454418264 98.22686630921163 0.0 0.0
-744.6605700260895 -77.52269212529693 -378.68413033703314 95.24975848505807 0.0 0.0
-693.4814833716727 -66.65885694988741 -339.5878158758526 94.48541934268391 0.0 0.0
-641.2711881804206 -57.29965147578849 -295.94932090035763 95.55677880498797 0.0 0.0
-586.9455040160171 -47.41954385363418 -250.0841899814576 98.60130311396325 0.0 0.0
-530.3292149295169 -34.262350821711195 -205.5864707172057 103.83492309285575 0.0 0.0
-476.31065984002106 -21.7562521047406 -167.50972018351268 110.62507887045126 0.0 0.0
-415.7376720917382 -7.960765182459382 -132.598227564394 118.70127975072324 0.0 0.0
-348.4939920086479 0.40993897642259625 -105.15065263821876 126.81646094869288 0.0 0.0
-286.032465320063 5.328323126990091 -83.9691978472279 131.18789312284034 0.0 0.0
-231.67500710388157 8.726382646568272 -66.81666632192844 132.33580656001865 0.0 0.0
-187.3883176857031 12.132679338758837 -52.5417481135721 134.55968344887776 0.0 0.0
-149.7782773896372 11.486699471519444 -41.4762563419451 140.46197060852813 0.0 0.0
-112.95791233980339 -3.278544097620568 -34.870936931227185 146.07144444074143 0.0 0.0
-67.24083044021316 -45.95506430870275 -33.95876842467477 134.33579265635225 0.0 0.0
-19.516863930067473 -92.95192529752322 -33.740636768277206 67.64558467037274 0.0 0.0
-20.364596854239913 -66.3872340655901 -26.025549275949004 -57.27976663172481 0.0 0.0
-73.585255991953 -37.33574393301826 -33.27629997749137 -119.91021788005139 0.0 0.0
-131.1238601966282 -3.083409937915215 -40.262181040363025 -134.5123608251551 0.0 0.0
-182.89766353384607 9.630572311025468 -51.96993269177499 -129.69610973692335 0.0 0.0
-235.70676084213983 10.985663473981564 -67.3163791606531 -122.71755307875458 0.0 0.0
-295.05739918361115 7.937463388383289 -86.00652245854869 -118.10422693570723 0.0 0.0
-364.31787390652755 3.5503595508686496 -108.16540270723024 -113.05718639267603 0.0 0.0
-433.9166875935822 -6.127497927179719 -136.91667173060648 -103.8795539225226 0.0 0.0
-492.87560969930405 -21.682343103471155 -172.88661060841267 -95.34929570328117 0.0 0.0
-546.5129393553025 -37.41544338322325 -212.26541934965525 -89.28079910706609 0.0 0.0
-599.6712227431806 -52.35688086011698 -255.18348380110982 -84.03575373173165 0.0 0.0
-652.8396384886696 -65.67871352349819 -300.82184794548004 -81.08157213479382 0.0 0.0
-705.0354408484345 -76.90105303683436 -345.3763255403323 -79.62718465783098 0.0 0.0
-756.5482303295801 -87.115353748422 -385.49347238693565 -79.17445069788376 0.0 0.0
-808.0110938365005 -98.49159308672517 -421.2490045466253 -79.83296471160344 0.0 0.0
-861.2539781661053 -117.00371139098199 -458.6312626627849 -82.4267669180453 0.0 0.0
-918.6246630145715 -144.44785819359393 -501.32125147831397 -87.17131624506207 0.0 0.0
-982.2308160540686 -190.15206926850402 -553.6343522289226 -95.96690430793696 0.0 0.0
-1056.0565390132783 -266.2612722160544 -621.8787125169197 -109.05134824464223 0.0 0.0
-1124.2463354932474 -368.527969259177 -696.9040354343732 -118.59161813662126 0.0 0.0
-1124.246335493086 -368.5279692590932 -696.9040354342997 118.59161813677272 0.0 0.0
-1056.0565390130366 -266.2612722159213 -621.8787125167817 109.05134824485094 0.0 0.0
-982.2308160538571 -190.15206926839716 -553.634352228778 95.96690430816666 0.0 0.0
-918.6246630144485 -144.4478581935237 -501.3212514782302 87.17131624515528 0.0 0.0
-861.2539781662717 -117.00371139122808 -458.6312626628725 82.4267669181408 0.0 0.0
-808.0110938362441 -98.49159308651397 -421.24900454641477 79.83296471165164 0.0 0.0
-756.5482303291611 -87.11535374803378 -385.4934723866154 79.17445069790807 0.0 0.0
-705.0354408485249 -76.90105303702668 -345.37632554034315 79.6271846578682 0.0 0.0
-652.8396384884791 -65.6787135234642 -300.82184794530735 81.08157213487371 0.0 0.0
-599.6712227428354 -52.35688085991719 -255.18348380082216 84.03575373172782 0.0 0.0
-546.5129393548588 -37.41544338290902 -212.26541934929256 89.28079910701288 0.0 0.0
-492.8756096987539 -21.68234310309895 -172.8866106080408 95.34929570330094 0.0 0.0
-433.91668759313023 -6.1274979271581556 -136.91667173041048 103.87955392262228 0.0 0.0
-364.31787390617967 3.550359550721237 -108.16540270715493 113.0571863926491 0.0 0.0
-295.05739918322905 7.937463388409848 -86.00652245842998 118.10422693556848 0.0 0.0
-235.7067608418852 10.985663473911291 -67.3163791605998 122.71755307863953 0.0 0.0
-182.8976635336198 9.630572311002659 -51.9699326917148 129.69610973676137 0.0 0.0
-131.12386019651413 -3.083409937921212 -40.26218104033059 134.512360825043 0.0 0.0
-73.58525599187173 -37.33574393298343 -33.276299977456546 119.91021787996813 0.0 0.0
-20.364596854227806 -66.38723406551915 -26.025549275924085 57.27976663170132 0.0 0.0
-21.285003907303054 -43.70262971002573 -19.496290085198638 -46.3583815186677 0.0 0.0
-79.72944794530164 -28.49893680150088 -32.46851542404075 -103.31413090546774 0.0 0.0
-148.6043456355195 -2.4020819144283916 -45.301928264984355 -119.46533265855692 0.0 0.0
-215.0987205740405 7.706908552469077 -62.2114480248853 -115.07922924230772 0.0 0.0
-282.7516255008915 9.311115971816129 -81.93092400421732 -107.03386544428066 0.0 0.0
-357.2758820304629 6.315658218641247 -104.9058636220293 -99.89962552365031 0.0 0.0
-436.04982430777045 -0.040343612638920945 -132.73297270522272 -91.07187365153173 0.0 0.0
-495.7172854049365 -19.334870260660345 -170.80274363946378 -80.48445041428168 0.0 0.0
-548.4274133807717 -34.74677413774882 -209.71436166804207 -75.4266464784612 0.0 0.0
-602.0439113260672 -52.723228324895715 -252.83738710773537 -70.44660302236183 0.0 0.0
-654.1277372074252 -68.75227573216627 -297.8573512913805 -67.30519561583763 0.0 0.0
-705.6881082247934 -82.8789069277517 -343.0585081286478 -65.4637404760449 0.0 0.0
-758.1451539218533 -95.47075840375419 -385.81054692462743 -64.86480942193025 0.0 0.0
-809.7858618998919 -107.6219863667484 -423.7078763765 -64.70885912530255 0.0 0.0
-861.6008019623343 -119.79390845435762 -457.6689934453905 -64.97400789909179 0.0 0.0
-918.5461439070423 -139.7467772906623 -496.13300178903216 -66.77391549836136 0.0 0.0
-981.9514585759821 -172.77539082222978 -544.1904540339269 -70.12752173688354 0.0 0.0
-1055.3988496427016 -226.39553735074816 -605.9464051176765 -77.22507930215859 0.0 0.0
-1140.2076859671854 -312.5583277568705 -684.7157357375376 -92.73501795505145 0.0 0.0
-1212.9925911087653 -421.48207071280376 -764.5583279573675 -111.58764144823203 0.0 0.0
-1212.9925911088362 -421.482070712958 -764.5583279574514 111.5876414483933 0.0 0.0
-1140.2076859668605 -312.5583277565885 -684.7157357373219 92.7350179551672 0.0 0.0
-1055.3988496423597 -226.39553735046553 -605.946405117405 77.22507930234529 0.0 0.0
-981.9514585757387 -172.7753908220301 -544.1904540337027 70.12752173697555 0.0 0.0
-918.5461439064956 -139.74677729013203 -496.1330017885807 66.77391549839041 0.0 0.0
-861.6008019621704 -119.7939084542369 -457.6689934452513 64.97400789913854 0.0 0.0
-809.7858618999718 -107.62198636689408 -423.70787637650284 64.70885912534519 0.0 0.0
-758.1451539215434 -95.47075840350877 -385.81054692435026 64.86480942196667 0.0 0.0
-705.6881082243166 -82.87890692736279 -343.05850812825395 65.46374047607263 0.0 0.0
-654.1277372072509 -68.7522757321248 -297.8573512911628 67.30519561579611 0.0 0.0
-602.0439113259138 -52.72322832492806 -252.8373871075546 70.4466030223443 0.0 0.0
-548.4274133804752 -34.74677413766604 -209.71436166780055 75.42664647849496 0.0 0.0
-495.71728540440404 -19.334870260367445 -170.802743639118 80.48445041430224 0.0 0.0
-436.0498243071733 -0.04034361236155104 -132.73297270492637 91.07187365152393 0.0 0.0
-357.2758820299106 6.3156582188444945 -104.90586362180832 99.89962552356596 0.0 0.0
-282.7516255005661 9.31111597180469 -81.93092400412714 107.03386544418782 0.0 0.0
-215.09872057381625 7.7069085523963325 -62.211448024840784 115.07922924217634 0.0 0.0
-148.60434563537805 -2.4020819144470704 -45.30192826494752 119.46533265844161 0.0 0.0
-79.72944794525986 -28.49893680147993 -32.46851542402194 103.31413090534923 0.0 0.0
-21.285003907283173 -43.70262971000959 -19.496290085187823 46.35838151859297 0.0 0.0
-21.936662521955206 -25.238282021934722 -14.152483363166976 -34.88041159701924 0.0 0.0
-85.10332426077082 -19.79287160702511 -31.468858760338783 -84.70207354749668 0.0 0.0
-165.36101745772817 -1.4746431992174025 -50.05069819708366 -100.95228781518867 0.0 0.0
-246.70856557173533 5.7158903910769645 -72.29568693908038 -96.70781243906076 0.0 0.0
-329.1777386211067 6.558666319421016 -96.59116877978467 -87.5347369973587 0.0 0.0
-416.0288937978373 6.117004215277722 -122.65548994122528 -78.90700902590011 0.0 0.0
-482.95478710679595 -11.399127008369232 -159.98581948756566 -66.9227065099727 0.0 0.0
-541.5565733998482 -29.54773043301326 -201.38477033342377 -61.67409914237056 0.0 0.0
-595.5509915235515 -47.87822748558291 -243.9125596617358 -56.815438383755556 0.0 0.0
-647.5303885602046 -66.8404278512083 -288.99465583734 -53.771883053053955 0.0 0.0
-698.8627420697811 -83.91178903611919 -334.5942613453294 -51.88786806920279 0.0 0.0
-750.9492808928205 -99.50241591156052 -379.2521411027915 -50.77880611159008 0.0 0.0
-803.5586633359438 -113.61960809698022 -420.10422932031474 -50.527138374329034 0.0 0.0
-857.9664609440154 -128.14442457708063 -457.9956463203981 -50.74840207403759 0.0 0.0
-911.7088431459665 -142.39340204306924 -492.575627756729 -50.676885575993126 0.0 0.0
-968.3379745640148 -162.9478071258444 -530.38336243439 -51.14534215779475 0.0 0.0
-1037.4874843622074 -200.0790126429848 -582.9634448742324 -52.95173651992448 0.0 0.0
-1119.226920107932 -259.8649012726195 -652.9086858242052 -58.04385757468521 0.0 0.0
-1214.350645803508 -354.99848548179534 -741.7355310336468 -76.2144534809358 0.0 0.0
-1296.5211480265893 -476.563462005238 -831.0317973253536 -107.00107198749637 0.0 0.0
-1296.5211480264504 -476.56346200516055 -831.0317973252323 107.0010719876228 0.0 0.0
-1214.3506458035383 -354.99848548189203 -741.7355310335965 76.21445348110143 0.0 0.0
-1119.226920107673 -259.86490127240586 -652.9086858240021 58.043857574844026 0.0 0.0
-1037.487484362137 -200.07901264294156 -582.9634448741419 52.951736519974446 0.0 0.0
-968.3379745640669 -162.94780712594098 -530.3833624343846 51.14534215785973 0.0 0.0
-911.7088431455315 -142.39340204266745 -492.5756277563546 50.676885576053664 0.0 0.0
-857.966460943581 -128.14442457668923 -457.9956463200324 50.748402074083884 0.0 0.0
-803.5586633356304 -113.61960809672564 -420.1042293200411 50.527138374343835 0.0 0.0
-750.9492808925778 -99.5024159114096 -379.252141102566 50.778806111586704 0.0 0.0
-698.8627420694817 -83.91178903592234 -334.5942613450449 51.88786806917648 0.0 0.0
-647.5303885596782 -66.84042785079419 -288.99465583691335 53.77188305303245 0.0 0.0
-595.5509915232598 -47.87822748546814 -243.91255966146238 56.81543838377182 0.0 0.0
-541.5565733994346 -29.54773043280458 -201.38477033309198 61.67409914237599 0.0 0.0
-482.954787106369 -11.399127008244815 -159.98581948730515 66.92270650998185 0.0 0.0
-416.0288937973864 6.117004215259268 -122.65548994108192 78.90700902581985 0.0 0.0
-329.17773862071834 6.558666319451297 -96.5911687796656 87.53473699726466 0.0 0.0
-246.70856557139092 5.715890391214899 -72.2956869389365 96.7078124389412 0.0 0.0
-165.3610174575256 -1.4746431991610875 -50.050698197006 100.95228781504774 0.0 0.0
-85.10332426071946 -19.792871606981734 -31.468858760310354 84.70207354738353 0.0 0.0
-21.93666252195107 -25.238282021937525 -14.152483363166574 34.880411596998954 0.0 0.0
-21.726536819915665 -11.307405397479936 -9.910182665218677 -23.041991673942036 0.0 0.0
-88.72896405322558 -11.582201563908013 -30.093349685140076 -64.16558337412636 0.0 0.0
-181.29705793498866 -0.48820723764250396 -54.53557955178934 -78.78699429046996 0.0 0.0
-278.3630813513398 3.3472342081430204 -82.49972259893427 -74.5620422529093 0.0 0.0
-374.03459867554596 3.9098742048803334 -110.63253476878195 -64.42435901539938 0.0 0.0
-464.21966355153626 1.5926276351257895 -142.36049482133603 -55.213453460479776 0.0 0.0
-525.6762857323359 -22.407596615758862 -187.25501733991166 -46.437609223102484 0.0 0.0
-581.1914960615854 -39.477703957563776 -229.67497967567502 -42.77411824994609 0.0 0.0
-634.3995984447573 -60.07860301100882 -274.9611115771065 -40.01903723729752 0.0 0.0
-686.15254676661 -80.20019018797973 -321.2738127264898 -38.21509303938176 0.0 0.0
-737.8250731053361 -98.42955221258401 -366.88545301412 -37.14917787036805 0.0 0.0
-790.2366048287652 -115.6081308390072 -410.59741634565046 -36.491211820618126 0.0 0.0
-845.1336258586949 -131.5207600683389 -451.0059667486427 -36.424210176247534 0.0 0.0
-900.9738055067271 -148.69989097887083 -489.14223079019587 -36.79332497819219 0.0 0.0
-957.7881254556482 -166.59004483970634 -526.2395614152204 -36.78708375377577 0.0 0.0
-1016.9028134368289 -188.7192286903389 -565.7438901575645 -36.09489115870613 0.0 0.0
-1084.4416818229574 -224.05707047849236 -616.1325125684316 -36.02408749868525 0.0 0.0
-1171.7665505040104 -287.8569139042093 -691.8243207778755 -38.60013055396102 0.0 0.0
-1279.4659287738123 -392.54051112981506 -792.8807232782012 -58.14682529305584 0.0 0.0
-1383.1952426866865 -537.823196825649 -902.3901765627159 -103.62379137809029 0.0 0.0
-1383.1952426864543 -537.823196825423 -902.3901765625883 103.62379137813078 0.0 0.0
-1279.465928773738 -392.54051112976674 -792.8807232781135 58.146825293152546 0.0 0.0
-1171.7665505038444 -287.8569139040741 -691.8243207776947 38.600130554087315 0.0 0.0
-1084.4416818224897 -224.0570704780278 -616.1325125680584 36.02408749869214 0.0 0.0
-1016.9028134366722 -188.7192286902133 -565.7438901573819 36.09489115875857 0.0 0.0
-957.7881254553669 -166.59004483945952 -526.2395614149439 36.787083753825165 0.0 0.0
-900.9738055062694 -148.69989097844757 -489.1422307897894 36.793324978220895 0.0 0.0
-845.1336258585327 -131.5207600682426 -451.00596674843774 36.42421017628196 0.0 0.0
-790.2366048283483 -115.60813083867409 -410.5974163452986 36.491211820625495 0.0 0.0
-737.82507310506 -98.42955221240538 -366.88545301385136 37.14917787030403 0.0 0.0
-686.1525467663718 -80.20019018786593 -321.2738127262191 38.21509303930863 0.0 0.0
-634.3995984444886 -60.0786030109047 -274.9611115768314 40.01903723729744 0.0 0.0
-581.1914960610842 -39.47770395724348 -229.6749796752744 42.77411824998309 0.0 0.0
-525.6762857318718 -22.40759661554451 -187.2550173395806 46.437609223126195 0.0 0.0
-464.21966355107077 1.592627635318089 -142.36049482108402 55.213453460427694 0.0 0.0
-374.03459867506376 3.9098742050191158 -110.63253476860325 64.42435901532608 0.0 0.0
-278.3630813510146 3.347234208130953 -82.49972259884149 74.56204225282282 0.0 0.0
-181.29705793487614 -0.4882072377162978 -54.53557955177773 78.78699429039736 0.0 0.0
-88.72896405314992 -11.582201563939643 -30.093349685126864 64.16558337406444 0.0 0.0
-21.726536819925972 -11.307405397487976 -9.910182665224182 23.041991673937765 0.0 0.0
-19.557713936806213 -2.138618988174637 -6.508899877494255 -11.368780560658692 0.0 0.0
-89.08271066725575 -4.3906806795879545 -28.042017404053105 -41.70503800888749 0.0 0.0
-196.2236023281971 0.5607908983984808 -58.698843428939576 -52.36603568312766 0.0 0.0
-311.2097410184355 -0.5067365570638165 -93.48825766759545 -48.562687742993795 0.0 0.0
-416.85953233494223 7.420720424584197 -122.11681585786432 -40.719407029585916 0.0 0.0
-494.73426427499544 -10.398051641184402 -165.2159914888393 -30.926929853137715 0.0 0.0
-559.9599505793092 -29.500030762031024 -210.9522638054724 -27.489222993357963 0.0 0.0
-614.418917472749 -49.69399137478291 -256.251277164278 -25.441701096931094 0.0 0.0
-667.131308325419 -71.34741117124943 -302.86345893360914 -23.993597764644242 0.0 0.0
-719.3153128484521 -92.74430414652709 -349.87222907048624 -23.216837436759867 0.0 0.0
-772.064991944855 -112.77657877017106 -395.68985953257663 -22.676154088236768 0.0 0.0
-826.806762941724 -131.3054010139677 -439.0552506736919 -22.355435177962335 0.0 0.0
-882.3179141575424 -149.80972098939299 -479.19901270146585 -22.413319323103057 0.0 0.0
-940.7547906687455 -169.03988072869282 -518.3925802343684 -22.8265677269015 0.0 0.0
-1002.2202145917555 -191.4294196175673 -559.4855112133864 -22.94446600730522 0.0 0.0
-1064.8561890555472 -217.56507973429277 -602.749389521899 -21.81852032812643 0.0 0.0
-1130.4616604340085 -251.6061161173137 -651.0523201371664 -20.478647251404908 0.0 0.0
-1202.006704451471 -298.7675880259666 -710.9580569521611 -19.424671465338808 0.0 0.0
-1334.1644079392836 -422.6014117052264 -836.2842747819811 -36.09301623448311 0.0 0.0
-1482.9519732917643 -613.0205846116335 -987.3483656715104 -99.46823840374758 0.0 0.0
-1482.9519732916906 -613.020584611577 -987.3483656714567 99.46823840378912 0.0 0.0
-1334.164407939095 -422.601411705048 -836.2842747818019 36.09301623454828 0.0 0.0
-1202.0067044513107 -298.7675880258241 -710.9580569519899 19.42467146539035 0.0 0.0
-1130.4616604338296 -251.60611611715422 -651.0523201369225 20.47864725142322 0.0 0.0
-1064.856189055133 -217.56507973389822 -602.7493895214943 21.818520328153465 0.0 0.0
-1002.2202145912993 -191.42941961713316 -559.4855112129771 22.944466007330483 0.0 0.0
-940.7547906684998 -169.03988072848745 -518.3925802340976 22.826567726882395 0.0 0.0
-882.3179141571475 -149.80972098905303 -479.1990127010938 22.413319323128256 0.0 0.0
-826.8067629413903 -131.30540101372554 -439.05525067333645 22.35543517799361 0.0 0.0
-772.0649919444901 -112.77657876991137 -395.68985953221244 22.67615408821903 0.0 0.0
-719.3153128478891 -92.74430414606309 -349.8722290700175 23.216837436723985 0.0 0.0
-667.1313083250465 -71.34741117101738 -302.8634589332564 23.993597764649337 0.0 0.0
-614.418917472392 -49.6939913746256 -256.25127716395684 25.441701096974576 0.0 0.0
-559.9599505789314 -29.500030761860888 -210.95226380515825 27.489222993346356 0.0 0.0
-494.73426427457014 -10.398051640999231 -165.2159914885588 30.926929853104614 0.0 0.0
-416.8595323345119 7.420720424572383 -122.11681585774265 40.71940702958077 0.0 0.0
-311.2097410180801 -0.5067365570454809 -93.48825766748475 48.562687742924936 0.0 0.0
-196.22360232801978 0.5607908983829741 -58.69884342889104 52.36603568310204 0.0 0.0
-89.08271066718505 -4.390680679615608 -28.042017404040195 41.70503800887254 0.0 0.0
-19.55771393679751 -2.1386189882130338 -6.508899877503161 11.368780560648016 0.0 0.0
-13.30947890454617 2.1491996063617904 -3.3480837894553135 -0.9942292097749796 0.0 0.0
-83.7437652361788 1.218639393205001 -24.757537752892134 -16.978190598018962 0.0 0.0
-210.47868555976495 0.7191467705727366 -62.927861636757655 -20.602580145717695 0.0 0.0
-345.39974411598365 -3.05724271384592 -104.45524288276623 -18.95992915551132 0.0 0.0
-461.1222874501955 7.958796020300875 -135.85364979391315 -14.885797065895382 0.0 0.0
-530.4518942388949 -20.02341138269065 -187.6913974447956 -9.458960392766816 0.0 0.0
-587.4144453208053 -36.315046617560036 -232.83024715694683 -9.302825427928003 0.0 0.0
-642.4562638853133 -58.97177060825781 -280.30771773416444 -8.784961524189406 0.0 0.0
-695.730444931673 -82.12583782120245 -328.20046922219046 -8.450796366481502 0.0 0.0
-749.3677009633391 -105.21162938179566 -376.0407347527176 -8.393650411664758 0.0 0.0
-803.5641920847394 -126.32549142975884 -421.59641377711273 -8.272248840977461 0.0 0.0
-858.8671414940096 -147.61926242961277 -464.8858562570581 -8.274904783600462 0.0 0.0
-917.0071671269491 -167.90496933592755 -505.6427170652883 -8.4615618034267 0.0 0.0
-978.4441351285968 -189.67212310103028 -546.7774872454646 -8.727817382649658 0.0 0.0
-1043.7587688260826 -216.06019248189915 -591.4206236654624 -8.816332231145825 0.0 0.0
-1111.6329191273499 -247.93071044720895 -640.0138242307776 -8.212282381567253 0.0 0.0
-1177.9816359520669 -283.564255675344 -689.8571966649072 -6.572753383861417 0.0 0.0
-1241.5873797715353 -324.1856933595213 -740.7185953733256 -4.9632616376434395 0.0 0.0
-1295.9732904655668 -364.6376275209442 -791.7657030048065 -5.724957432416806 0.0 0.0
-1650.473828891435 -752.3777400230866 -1137.800756331038 -86.65465753537521 0.0 0.0
-1650.4738288919611 -752.3777400236752 -1137.8007563313845 86.65465753545999 0.0 0.0
-1295.9732904659436 -364.6376275213403 -791.765703005048 5.724957432426121 0.0 0.0
-1241.587379771517 -324.18569335951963 -740.7185953732462 4.963261637661045 0.0 0.0
-1177.9816359516165 -283.56425567490237 -689.8571966645113 6.57275338388542 0.0 0.0
-1111.6329191267473 -247.93071044661826 -640.0138242302621 8.212282381552566 0.0 0.0
-1043.7587688256103 -216.0601924814497 -591.420623665009 8.816332231161876 0.0 0.0
-978.4441351281386 -189.67212310060486 -546.7774872450173 8.727817382643401 0.0 0.0
-917.0071671266398 -167.90496933568025 -505.64271706495504 8.46156180343841 0.0 0.0
-858.8671414939643 -147.61926242966985 -464.8858562569141 8.274904783611223 0.0 0.0
-803.5641920846393 -126.32549142977835 -421.5964137769364 8.272248840970363 0.0 0.0
-749.3677009631034 -105.21162938169691 -376.0407347524676 8.393650411685257 0.0 0.0
-695.7304449311633 -82.12583782082014 -328.20046922175874 8.450796366493805 0.0 0.0
-642.4562638849965 -58.97177060812956 -280.3077177338432 8.78496152420549 0.0 0.0
-587.4144453205586 -36.31504661754065 -232.83024715668452 9.30282542794326 0.0 0.0
-530.4518942385135 -20.02341138254831 -187.6913974444979 9.458960392767882 0.0 0.0
-461.1222874497425 7.958796020459741 -135.8536497937092 14.885797065931015 0.0 0.0
-345.39974411554834 -3.057242713692491 -104.45524288259348 18.95992915549186 0.0 0.0
-210.47868555956524 0.7191467705119337 -62.92786163671598 20.602580145710224 0.0 0.0
-83.74376523614848 1.2186393931356445 -24.75753775290385 16.97819059801042 0.0 0.0
-13.309478904528373 2.149199606388861 -3.348083789441853 0.9942292097813851 0.0 0.0
SCALARS Strain float 6
LOOKUP_TABLE default
0.004043629555036147 -0.00515360860157929 0.0 -0.0024815768375305025 0.0 0.0
0.0016266635862043919 -0.0003200728019543686 0.0 0.0010047138883663431 0.0 0.0
0.0016068357416330267 -0.0007666514710199523 0.0 -0.00015284835220184811 0.0 0.0
0.001821546592612338 -0.000758255904595273 0.0 -0.00010890917017764012 0.0 0.0
0.0022208579736003303 -0.0009962506334719734 0.0 -0.00015407045142473708 0.0 0.0
0.0028773980147994106 -0.0013998544521901524 0.0 -0.00016997646599642424 0.0 0.0
0.003644155199781513 -0.0019339214341310695 0.0 -0.00019989535352424315 0.0 0.0
0.00456558058356441 -0.002604897083453128 0.0 -0.0002238129707414216 0.0 0.0
0.005725327545339873 -0.0035142216244250513 0.0 -0.00025910144894671083 0.0 0.0
0.007266029854027966 -0.004805315309704183 0.0 -0.0003144085620969822 0.0 0.0
0.009446285559135605 -0.0067443133218282325 0.0 -0.0003828087364707716 0.0 0.0
0.012649232043089103 -0.009707844487258699 0.0 -0.000500307783468032 0.0 0.0
0.01724109087146157 -0.014060828826007232 0.0 -0.0006769726680893873 0.0 0.0
0.023482537633439497 -0.02005466474712847 0.0 -0.0009105058097270968 0.0 0.0
0.031409975412153596 -0.02771439543070664 0.0 -0.0012150586735197866 0.0 0.0
0.04067904026800276 -0.03669093437564919 0.0 -0.0015497788691038322 0.0 0.0
0.0505095233345538 -0.046213948015470185 0.0 -0.0017853541319374638 0.0 0.0
0.05977150451532757 -0.05518166035520533 0.0 -0.001720081085941766 0.0 0.0
0.06721003058849698 -0.06237132008778512 0.0 -0.001279921574417281 0.0 0.0
0.07157141831586045 -0.06651600393834145 0.0 -0.0008692933839876127 0.0 0.0
0.07157141831586014 -0.06651600393834078 0.0 0.0008692933839890005 0.0 0.0
0.06721003058849442 -0.062371320087783566 0.0 0.0012799215744240255 0.0 0.0
0.05977150451532349 -0.05518166035520222 0.0 0.0017200810859451243 0.0 0.0
0.05050952333454849 -0.0462139480154673 0.0 0.0017853541319399757 0.0 0.0
0.04067904026799764 -0.036690934375646744 0.0 0.0015497788691016257 0.0 0.0
0.03140997541214831 -0.027714395430703198 0.0 0.0012150586735204527 0.0 0.0
0.023482537633432235 -0.020054664747123918 0.0 0.0009105058097272356 0.0 0.0
0.017241090871454104 -0.014060828826001348 0.0 0.0006769726680893318 0.0 0.0
0.012649232043081132 -0.00970784448725348 0.0 0.0005003077834672409 0.0 0.0
0.009446285559127451 -0.0067443133218231255 0.0 0.00038280873647050795 0.0 0.0
0.0072660298540208335 -0.004805315309699076 0.0 0.000314408562095414 0.0 0.0
0.0057253275453340025 -0.0035142216244206104 0.0 0.00025910144894703 0.0 0.0
0.00456558058355877 -0.0026048970834486873 0.0 0.00022381297074014483 0.0 0.0
0.0036441551997765664 -0.0019339214341285715 0.0 0.00019989535352424315 0.0 0.0
0.0028773980147954875 -0.0013998544521880985 0.0 0.00016997646599579974 0.0 0.0
0.0022208579735984585 -0.0009962506334706411 0.0 0.00015407045142425135 0.0 0.0
0.0018215465926111757 -0.0007582559045946624 0.0 0.00010890917017733481 0.0 0.0
0.001606835741632423 -0.0007666514710197303 0.0 0.000152848352201862 0.0 0.0
0.001626663586204044 -0.00032007280195489596 0.0 -0.0010047138883650941 0.0 0.0
0.0040436295550348444 -0.005153608601574454 0.0 0.0024815768375206215 0.0 0.0
0.0026574121622586853 -0.004026076829991232 0.0 -0.0030539281555019143 0.0 0.0
0.0008954230821488184 -0.00011397201877896834 0.0 0.00035429354298809057 0.0 0.0
0.0013979382858526936 -0.000570982393064634 0.0 -7.225260496204755e-05 0.0 0.0
0.0016259641533246869 -0.0006958168606813753 0.0 -0.0003775672191727447 0.0 0.0
0.0019834822167336206 -0.0008616533554721695 0.0 -0.0003945607330020917 0.0 0.0
0.002544563251900866 -0.0011890993191684962 0.0 -0.0004503802248855687 0.0 0.0
0.0032425575757577384 -0.0016446240648756438 0.0 -0.0005214563146756362 0.0 0.0
0.0040599585072849005 -0.002220872153772535 0.0 -0.0005732619347038059 0.0 0.0
0.005078292845884116 -0.0029965991042353313 0.0 -0.0006401107915521564 0.0 0.0
0.0064254465662635304 -0.004102145964783088 0.0 -0.0007443362358446892 0.0 0.0
0.008324822154203054 -0.005764610498596112 0.0 -0.0008962019986175074 0.0 0.0
0.011115899166799531 -0.0083231839823531 0.0 -0.0011241629959221344 0.0 0.0
0.01517858751573006 -0.012157664645195632 0.0 -0.0015069941461816755 0.0 0.0
0.020785805028970906 -0.01752976706968834 0.0 -0.0020704064034046538 0.0 0.0
0.02796704865672534 -0.02445780938689457 0.0 -0.002779726151366832 0.0 0.0
0.03640044806825206 -0.0326193562143231 0.0 -0.0035475801315259514 0.0 0.0
0.045374032109554256 -0.041312602430193524 0.0 -0.0040824645354002875 0.0 0.0
0.053882956116302505 -0.04955173403809776 0.0 -0.003992259339184512 0.0 0.0
0.060764532200735466 -0.0561854743823853 0.0 -0.0031462475361468123 0.0 0.0
0.06478106668671196 -0.06003111335671796 0.0 -0.0016749760063755892 0.0 0.0
0.06478106668671113 -0.06003111335671929 0.0 0.0016749760063839436 0.0 0.0
0.06076453220073324 -0.05618547438238397 0.0 0.003146247536159996 0.0 0.0
0.05388295611629907 -0.04955173403809576 0.0 0.003992259339193949 0.0 0.0
0.04537403210955035 -0.04131260243019197 0.0 0.0040824645354053946 0.0 0.0
0.03640044806824787 -0.03261935621432288 0.0 0.0035475801315247857 0.0 0.0
0.027967048656720436 -0.02445780938689124 0.0 0.0027797261513675953 0.0 0.0
0.02078580502896453 -0.017529767069684343 0.0 0.002070406403405195 0.0 0.0
0.015178587515723471 -0.01215766464519119 0.0 0.0015069941461827163 0.0 0.0
0.011115899166792398 -0.008323183982348215 0.0 0.0011241629959216903 0.0 0.0
0.008324822154195874 -0.005764610498591671 0.0 0.000896201998617091 0.0 0.0
0.006425446566257043 -0.004102145964779758 0.0 0.000744336235843357 0.0 0.0
0.005078292845878907 -0.0029965991042316675 0.0 0.0006401107915523785 0.0 0.0
0.004059958507279818 -0.0022208721537683163 0.0 0.0005732619347025014 0.0 0.0
0.003242557575753327 -0.001644624064871758 0.0 0.0005214563146750673 0.0 0.0
0.0025445632518976413 -0.0011890993191667198 0.0 0.000450380224884972 0.0 0.0
0.0019834822167320715 -0.0008616533554717809 0.0 0.0003945607330022721 0.0 0.0
0.001625964153323653 -0.0006958168606806536 0.0 0.0003775672191719953 0.0 0.0
0.0013979382858522182 -0.0005709823930646063 0.0 7.225260496165897e-05 0.0 0.0
0.0008954230821492382 -0.00011397201877903773 0.0 -0.00035429354298867344 0.0 0.0
0.002657412162256123 -0.0040260768299860816 0.0 0.00305392815549331 0.0 0.0
0.0018921541863333498 -0.0032964786340456548 0.0 -0.0029550070370701342 0.0 0.0
0.0004964061870786768 -7.282550214954275e-05 0.0 -0.00035200316134553766 0.0 0.0
0.0010971413395940727 -0.0003863088581026186 0.0 -0.00024112030624659497 0.0 0.0
0.001425877764383002 -0.0006041391674583285 0.0 -0.000586198732533752 0.0 0.0
0.0017596999049315342 -0.0007470190450470371 0.0 -0.0006549591638274344 0.0 0.0
0.002212305979264485 -0.0009817767140400946 0.0 -0.0006994007601673347 0.0 0.0
0.0028377431136213938 -0.0013659590976693448 0.0 -0.0007886690764913468 0.0 0.0
0.003560010753375673 -0.0018610597862598333 0.0 -0.0008762831339635957 0.0 0.0
0.004443147162556374 -0.002505313189867686 0.0 -0.0009644067133393608 0.0 0.0
0.005604597537945476 -0.003429919752928612 0.0 -0.0011005728000113568 0.0 0.0
0.007235450718747278 -0.004829834270560163 0.0 -0.0013135778898588496 0.0 0.0
0.009634177918225732 -0.007002973674397506 0.0 -0.0016418467017699917 0.0 0.0
0.013160482423248687 -0.010307648114148193 0.0 -0.002157088510693961 0.0 0.0
0.018105780252901483 -0.01502710219515302 0.0 -0.002956299484299818 0.0 0.0
0.024506923480626334 -0.02119176089432706 0.0 -0.004008457310127361 0.0 0.0
0.032069220210584386 -0.02850448867529254 0.0 -0.00510984281801416 0.0 0.0
0.04017026306205386 -0.036353895374822365 0.0 -0.005878381102147903 0.0 0.0
0.0479343340817941 -0.043868119112240755 0.0 -0.0058275264189271425 0.0 0.0
0.05428795363064518 -0.049993596434417586 0.0 -0.0046565742604051386 0.0 0.0
0.05808144632712775 -0.053634445987157164 0.0 -0.002326298041437469 0.0 0.0
0.058081446327126654 -0.0536344459871565 0.0 0.0023262980414494594 0.0 0.0
0.054287953630643 -0.04999359643441492 0.0 0.004656574260423402 0.0 0.0
0.047934334081791104 -0.0438681191122392 0.0 0.0058275264189394105 0.0 0.0
0.040170263062050696 -0.03635389537482214 0.0 0.005878381102154828 0.0 0.0
0.032069220210580826 -0.028504488675290984 0.0 0.0051098428180145206 0.0 0.0
0.02450692348062207 -0.021191760894323952 0.0 0.004008457310128222 0.0 0.0
0.01810578025289601 -0.015027102195149578 0.0 0.002956299484300706 0.0 0.0
0.013160482423242845 -0.010307648114143864 0.0 0.0021570885106946547 0.0 0.0
0.009634177918219383 -0.007002973674392954 0.0 0.001641846701768479 0.0 0.0
0.007235450718741168 -0.004829834270555389 0.0 0.0013135778898575035 0.0 0.0
0.005604597537939793 -0.003429919752923949 0.0 0.0011005728000095805 0.0 0.0
0.004443147162551675 -0.0025053131898636893 0.0 0.0009644067133385281 0.0 0.0
0.003560010753371118 -0.0018610597862575018 0.0 0.0008762831339619304 0.0 0.0
0.0028377431136174802 -0.0013659590976667357 0.0 0.0007886690764905557 0.0 0.0
0.002212305979262072 -0.0009817767140385958 0.0 0.000699400760165933 0.0 0.0
0.0017596999049302314 -0.000747019045046815 0.0 0.0006549591638265878 0.0 0.0
0.0014258777643819526 -0.0006041391674579955 0.0 0.0005861987325319756 0.0 0.0
0.001097141339593849 -0.0003863088581026186 0.0 0.00024112030624522107 0.0 0.0
0.0004964061870791486 -7.282550214934846e-05 0.0 0.00035200316134322007 0.0 0.0
0.0018921541863306524 -0.0032964786340407976 0.0 0.0029550070370633758 0.0 0.0
0.0014176285579870183 -0.002753357215551616 0.0 -0.0026439796822499972 0.0 0.0
0.00027971078440573033 -9.54650662270129e-05 0.0 -0.0009450517686709209 0.0 0.0
0.0008130603056135943 -0.0002457592648510698 0.0 -0.0005368327803902812 0.0 0.0
0.0012041683361699966 -0.0004895496320160841 0.0 -0.0007928949622721254 0.0 0.0
0.0015343331548349562 -0.0006510515261951566 0.0 -0.0009238024993298011 0.0 0.0
0.0019085336668352472 -0.0008221045175121899 0.0 -0.0009396648278104797 0.0 0.0
0.0024214476629410737 -0.0011081773686546503 0.0 -0.0010105671244770992 0.0 0.0
0.003065786724372851 -0.0015215142337682286 0.0 -0.0011350156972977365 0.0 0.0
0.0038196289181289984 -0.0020460311183410074 0.0 -0.001235087078441055 0.0 0.0
0.004803525405097334 -0.002797438832642496 0.0 -0.0013904222704106267 0.0 0.0
0.00617743249780231 -0.003943209888154886 0.0 -0.001636514739006431 0.0 0.0
0.008198799941331988 -0.005740872580302203 0.0 -0.0020285552355496506 0.0 0.0
0.011197916402887854 -0.00852596013256135 0.0 -0.002660592094360606 0.0 0.0
0.015462632820390211 -0.012571185391947015 0.0 -0.0036044332929360823 0.0 0.0
0.021047342204463467 -0.017933452893448054 0.0 -0.004854821305646323 0.0 0.0
0.027705768163099952 -0.024368164046974172 0.0 -0.0062091647880606615 0.0 0.0
0.03491022034765801 -0.03134798563407326 0.0 -0.007175814190836516 0.0 0.0
0.041913307333822314 -0.038127004471479875 0.0 -0.007191228123532845 0.0 0.0
0.047772565560696784 -0.04377786733501754 0.0 -0.0058214075493124295 0.0 0.0
0.0514127992292078 -0.047274518646621244 0.0 -0.0028722544815956152 0.0 0.0
0.05141279922920639 -0.04727451864661991 0.0 0.00287225448161188 0.0 0.0
0.04777256556069451 -0.043777867335015985 0.0 0.005821407549332858 0.0 0.0
0.041913307333819504 -0.03812700447147788 0.0 0.0071912281235464726 0.0 0.0
0.0349102203476553 -0.031347985634070596 0.0 0.007175814190843677 0.0 0.0
0.027705768163096875 -0.02436816404697284 0.0 0.006209164788061383 0.0 0.0
0.021047342204459668 -0.017933452893446944 0.0 0.004854821305646462 0.0 0.0
0.015462632820385555 -0.012571185391944573 0.0 0.0036044332929360823 0.0 0.0
0.01119791640288284 -0.008525960132557464 0.0 0.002660592094361175 0.0 0.0
0.00819879994132644 -0.005740872580299428 0.0 0.0020285552355482628 0.0 0.0
0.006177432497797106 -0.003943209888151777 0.0 0.0016365147390053625 0.0 0.0
0.004803525405092393 -0.0027974388326398314 0.0 0.0013904222704084757 0.0 0.0
0.003819628918124887 -0.002046031118339675 0.0 0.001235087078439917 0.0 0.0
0.003065786724368802 -0.0015215142337662302 0.0 0.0011350156972962933 0.0 0.0
0.0024214476629380033 -0.001108177368653429 0.0 0.0010105671244760722 0.0 0.0
0.0019085336668334535 -0.0008221045175113018 0.0 0.0009396648278100911 0.0 0.0
0.0015343331548337419 -0.0006510515261940464 0.0 0.0009238024993289962 0.0 0.0
0.001204168336169223 -0.0004895496320161674 0.0 0.0007928949622710985 0.0 0.0
0.0008130603056134139 -0.0002457592648512641 0.0 0.0005368327803892681 0.0 0.0
0.0002797107844060148 -9.546506622711004e-05 0.0 0.0009450517686681037 0.0 0.0
0.001417628557984718 -0.0027533572155475474 0.0 0.00264397968224421 0.0 0.0
0.0010999708269187718 -0.0023193903254760256 0.0 -0.002314457798689759 0.0 0.0
0.00015781099649458605 -0.0001413481467608113 0.0 -0.0013933691075549703 0.0 0.0
0.0005727219619955301 -0.00014429027522327997 0.0 -0.0008733871719407704 0.0 0.0
0.0009738366551107699 -0.00037243402727166197 0.0 -0.0010120649366993084 0.0 0.0
0.0012955063864647093 -0.0005448805611302232 0.0 -0.0011612672149541176 0.0 0.0
0.001627055150388107 -0.0006949377795122391 0.0 -0.0012004086055298485 0.0 0.0
0.002023029074518779 -0.0008786789888436397 0.0 -0.00120224649013298 0.0 0.0
0.0025618409594912114 -0.0011896140509529696 0.0 -0.0013071478872695025 0.0 0.0
0.003208370472774478 -0.0016234936111571008 0.0 -0.001458825681695669 0.0 0.0
0.004021940975975864 -0.0022074703103966975 0.0 -0.0016153532788295566 0.0 0.0
0.005150634569446404 -0.003109611433982473 0.0 -0.0018737246270893043 0.0 0.0
0.006810156883498997 -0.004548011207197833 0.0 -0.002295291051002124 0.0 0.0
0.009293150352110164 -0.006815808302793158 0.0 -0.002971220366378688 0.0 0.0
0.012870185268045054 -0.010182186501669022 0.0 -0.004016013919656725 0.0 0.0
0.017615743069095857 -0.014719869727480406 0.0 -0.005386510215303855 0.0 0.0
0.023336556352843756 -0.020234823776966504 0.0 -0.006833496459810878 0.0 0.0
0.029602054232591823 -0.026305737027521925 0.0 -0.007928791895693732 0.0 0.0
0.0358154189149182 -0.032325497493459476 0.0 -0.008069667689373727 0.0 0.0
0.041191695866944704 -0.03751370470187876 0.0 -0.006657145614181681 0.0 0.0
0.04472428252061176 -0.040907025990889245 0.0 -0.003332233230570497 0.0 0.0
0.04472428252060988 -0.04090702599088569 0.0 0.003332233230586734 0.0 0.0
0.04119169586694232 -0.03751370470187343 0.0 0.0066571456142006935 0.0 0.0
0.0358154189149156 -0.032325497493458144 0.0 0.008069667689389382 0.0 0.0
0.02960205423258934 -0.02630573702752148 0.0 0.007928791895700754 0.0 0.0
0.023336556352840973 -0.020234823776965616 0.0 0.006833496459811739 0.0 0.0
0.017615743069092443 -0.01471986972747752 0.0 0.005386510215304036 0.0 0.0
0.012870185268041207 -0.010182186501667356 0.0 0.004016013919657585 0.0 0.0
0.009293150352106053 -0.006815808302790605 0.0 0.002971220366379368 0.0 0.0
0.0068101568834941645 -0.004548011207194613 0.0 0.0022952910510011526 0.0 0.0
0.005150634569442009 -0.0031096114339786984 0.0 0.0018737246270871255 0.0 0.0
0.004021940975971736 -0.002207470310393478 0.0 0.0016153532788268088 0.0 0.0
0.003208370472770977 -0.0016234936111546583 0.0 0.0014588256816946144 0.0 0.0
0.0025618409594879155 -0.0011896140509507491 0.0 0.0013071478872685727 0.0 0.0
0.0020230290745165275 -0.000878678988842363 0.0 0.0012022464901325636 0.0 0.0
0.0016270551503865943 -0.0006949377795113509 0.0 0.0012004086055288493 0.0 0.0
0.0012955063864636823 -0.0005448805611292795 0.0 0.0011612672149529102 0.0 0.0
0.0009738366551101663 -0.0003724340272713844 0.0 0.0010120649366979761 0.0 0.0
0.0005727219619953566 -0.00014429027522325222 0.0 0.000873387171938439 0.0 0.0
0.0001578109964947838 -0.0001413481467603117 0.0 0.0013933691075518756 0.0 0.0
0.0010999708269169156 -0.0023193903254726915 0.0 0.0023144577986862064 0.0 0.0
0.0008744702400686928 -0.0019655058486028887 0.0 -0.002043253354830285 0.0 0.0
8.680430211943646e-05 -0.00018969300386681431 0.0 -0.0017292776727530768 0.0 0.0
0.0003751076962326093 -7.197512921405802e-05 0.0 -0.0011964992994859536 0.0 0.0
0.0007463918611191056 -0.00026216059602518493 0.0 -0.0012331590103931284 0.0 0.0
0.0010481672294022741 -0.00043100703159054676 0.0 -0.0013697716800802895 0.0 0.0
0.0013392197650094091 -0.0005739973873410409 0.0 -0.0014466370095174569 0.0 0.0
0.0016599073858901033 -0.0007138675711688691 0.0 -0.001445070129724585 0.0 0.0
0.002063740674343919 -0.0009086827467891245 0.0 -0.0014708074152740974 0.0 0.0
0.002596909849910043 -0.001222470607287085 0.0 -0.001601457781810714 0.0 0.0
0.003261777308369261 -0.0016702089915749951 0.0 -0.0017840253513666804 0.0 0.0
0.004153971033612348 -0.00233996370695444 0.0 -0.002024967620458118 0.0 0.0
0.005469359710228994 -0.0034313328919645114 0.0 -0.0024405224434003447 0.0 0.0
0.007451318992014337 -0.005195939672485106 0.0 -0.003123865841588691 0.0 0.0
0.01033997783918627 -0.007874492594452054 0.0 -0.004165390456918744 0.0 0.0
0.014230236036787365 -0.011568164841748052 0.0 -0.005552759795347889 0.0 0.0
0.018987933248599702 -0.01614195807757368 0.0 -0.00704684638155223 0.0 0.0
0.0242701083992391 -0.02125424377132301 0.0 -0.008168673816759148 0.0 0.0
0.02963803813941772 -0.02646185567229775 0.0 -0.008402816537727786 0.0 0.0
0.034510278723469796 -0.0311710870821571 0.0 -0.00712510395503782 0.0 0.0
0.037964246841416714 -0.03448742277601147 0.0 -0.0037080480256667936 0.0 0.0
0.03796424684141494 -0.03448742277600991 0.0 0.003708048025681643 0.0 0.0
0.03451027872346748 -0.031171087082153548 0.0 0.007125103955056861 0.0 0.0
0.029638038139415193 -0.02646185567229309 0.0 0.008402816537742247 0.0 0.0
0.02427010839923687 -0.021254243771319237 0.0 0.00816867381676567 0.0 0.0
0.018987933248597086 -0.016141958077571017 0.0 0.007046846381552979 0.0 0.0
0.014230236036784492 -0.011568164841746942 0.0 0.005552759795348028 0.0 0.0
0.010339977839183237 -0.007874492594449278 0.0 0.004165390456918855 0.0 0.0
0.007451318992011027 -0.005195939672481997 0.0 0.0031238658415895515 0.0 0.0
0.005469359710224997 -0.003431332891961847 0.0 0.002440522443399512 0.0 0.0
0.004153971033608747 -0.0023399637069522194 0.0 0.0020249676204564804 0.0 0.0
0.0032617773083660623 -0.0016702089915733298 0.0 0.0017840253513638493 0.0 0.0
0.002596909849907153 -0.001222470607286641 0.0 0.0016014577818093123 0.0 0.0
0.002063740674341591 -0.0009086827467895686 0.0 0.0014708074152736672 0.0 0.0
0.0016599073858884067 -0.000713867571168203 0.0 0.0014450701297241964 0.0 0.0
0.0013392197650081566 -0.0005739973873395976 0.0 0.0014466370095162912 0.0 0.0
0.001048167229401542 -0.0004310070315902692 0.0 0.0013697716800780413 0.0 0.0
0.000746391861118606 -0.00026216059602535147 0.0 0.0012331590103914492 0.0 0.0
0.0003751076962325295 -7.197512921397475e-05 0.0 0.0011964992994842882 0.0 0.0
8.680430211961687e-05 -0.0001896930038665784 0.0 0.001729277672750315 0.0 0.0
0.0008744702400671628 -0.0019655058486001513 0.0 0.0020432533548269405 0.0 0.0
0.0006949191282164674 -0.0016510684843859813 0.0 -0.0018034368667845385 0.0 0.0
4.5664615578602796e-05 -0.00022841775313461876 0.0 -0.00195692197536515 0.0 0.0
0.0002117122121968601 -2.0584258435651925e-05 0.0 -0.001480755021435201 0.0 0.0
0.0005284016524214272 -0.00016103254007376888 0.0 -0.0014419036988915362 0.0 0.0
0.0007970636516215143 -0.0003145127945520243 0.0 -0.001549845111101067 0.0 0.0
0.0010414969835763274 -0.00044175713106126 0.0 -0.00163700962824119 0.0 0.0
0.0013009088209626624 -0.0005620797252269272 0.0 -0.0016736192189736182 0.0 0.0
0.001600929716531578 -0.0006920482479959578 0.0 -0.0016708386364902017 0.0 0.0
0.001991324766043273 -0.000878669035938362 0.0 -0.0017122746743168937 0.0 0.0
0.0025137209348321324 -0.0011830125775637024 0.0 -0.0018763834655257106 0.0 0.0
0.003188735928011284 -0.0016486466290608348 0.0 -0.0021119712893319376 0.0 0.0
0.004176857828326691 -0.002408037885836656 0.0 -0.002481594652628122 0.0 0.0
0.005674706904884794 -0.0036826358107705515 0.0 -0.0031092836802721346 0.0 0.0
0.007887840353320595 -0.005681508991490447 0.0 -0.0040877895605991865 0.0 0.0
0.010910423308182732 -0.008514982337541 0.0 -0.005385395639302681 0.0 0.0
0.014676974765351833 -0.01210962540624827 0.0 -0.0067914500460132254 0.0 0.0
0.01893690876917445 -0.016224412407735977 0.0 -0.007906870336178179 0.0 0.0
0.02339477098397586 -0.020556497673873908 0.0 -0.008239738158674237 0.0 0.0
0.027694127738121257 -0.024723908239713044 0.0 -0.007208018413528083 0.0 0.0
0.031073447083621364 -0.027964731285818 0.0 -0.003989960051238695 0.0 0.0
0.031073447083620122 -0.02796473128581689 0.0 0.003989960051251851 0.0 0.0
0.02769412773811899 -0.0247239082397126 0.0 0.007208018413545264 0.0 0.0
0.02339477098397355 -0.020556497673873686 0.0 0.008239738158686838 0.0 0.0
0.018936908769172492 -0.016224412407735755 0.0 0.007906870336184646 0.0 0.0
0.014676974765349605 -0.012109625406248048 0.0 0.006791450046013114 0.0 0.0
0.010910423308180338 -0.008514982337540666 0.0 0.005385395639302598 0.0 0.0
0.007887840353318416 -0.005681508991488782 0.0 0.004087789560599686 0.0 0.0
0.00567470690488233 -0.003682635810768775 0.0 0.003109283680272301 0.0 0.0
0.004176857828323624 -0.0024080378858358786 0.0 0.002481594652626873 0.0 0.0
0.003188735928008571 -0.0016486466290590585 0.0 0.0021119712893304943 0.0 0.0
0.0025137209348297246 -0.001183012577562037 0.0 0.0018763834655231293 0.0 0.0
0.0019913247660411568 -0.0008786690359375848 0.0 0.0017122746743160056 0.0 0.0
0.0016009297165299682 -0.0006920482479956247 0.0 0.0016708386364900907 0.0 0.0
0.001300908820961462 -0.0005620797252265941 0.0 0.0016736192189729104 0.0 0.0
0.0010414969835755364 -0.00044175713106131553 0.0 0.0016370096282396496 0.0 0.0
0.0007970636516209037 -0.00031451279455130265 0.0 0.0015498451110989714 0.0 0.0
0.0005284016524211635 -0.0001610325400728252 0.0 0.001441903698889746 0.0 0.0
0.0002117122121967699 -2.0584258435485392e-05 0.0 0.0014807550214329251 0.0 0.0
4.5664615578672185e-05 -0.00022841775313423018 0.0 0.001956921975362347 0.0 0.0
0.0006949191282153294 -0.0016510684843838493 0.0 0.0018034368667822764 0.0 0.0
0.0005505455067959519 -0.0013995551295532677 0.0 -0.0016328662687516426 0.0 0.0
1.299872070605057e-05 -0.00024662111772680295 0.0 -0.0020775098449771906 0.0 0.0
7.506100430137996e-05 1.7459684571341505e-05 0.0 -0.001714780476952324 0.0 0.0
0.0003221880007235195 -6.940175359504419e-05 0.0 -0.001625287862473429 0.0 0.0
0.0005456216879612188 -0.00019889890334084948 0.0 -0.001700056997009064 0.0 0.0
0.0007389302207057441 -0.0003069873498189324 0.0 -0.0017888084916298785 0.0 0.0
0.0009322520843139462 -0.00040232814449370213 0.0 -0.0018466657014533927 0.0 0.0
0.001151389705766892 -0.0004989152687741027 0.0 -0.0018754072033678182 0.0 0.0
0.0014137960884200093 -0.0006153451601494941 0.0 -0.0018863228346484573 0.0 0.0
0.0017764322397109816 -0.0007823533476678524 0.0 -0.0019730129694824072 0.0 0.0
0.0022552371248504427 -0.0010526021784361683 0.0 -0.0021464799097545284 0.0 0.0
0.002933442957075698 -0.001511740259695027 0.0 -0.002435705418395162 0.0 0.0
0.003967936600836212 -0.002313507824310279 0.0 -0.002957939807385096 0.0 0.0
0.0055201307647808825 -0.0036411106550305883 0.0 -0.003789862515138104 0.0 0.0
0.007681385186627136 -0.005604577482755779 0.0 -0.004898990935266384 0.0 0.0
0.010426427159565176 -0.008188403037347136 0.0 -0.006121471274408097 0.0 0.0
0.013621660577026844 -0.011252149310804427 0.0 -0.007111389017708969 0.0 0.0
0.01710264514102923 -0.014631545305838989 0.0 -0.0074990142819481576 0.0 0.0
0.020717424676660184 -0.0181635878215769 0.0 -0.006860320366055717 0.0 0.0
0.023983237954218792 -0.021298286667221555 0.0 -0.004170881008843774 0.0 0.0
0.023983237954217855 -0.021298286667222 0.0 0.0041708810088539605 0.0 0.0
0.02071742467665834 -0.018163587821574012 0.0 0.006860320366071454 0.0 0.0
0.017102645141027308 -0.014631545305834326 0.0 0.007499014281959093 0.0 0.0
0.013621660577025123 -0.011252149310802206 0.0 0.007111389017713271 0.0 0.0
0.010426427159563538 -0.008188403037346248 0.0 0.00612147127440707 0.0 0.0
0.007681385186625457 -0.00560457748275478 0.0 0.004898990935265718 0.0 0.0
0.005520130764779335 -0.003641110655030033 0.0 0.003789862515138548 0.0 0.0
0.003967936600834589 -0.002313507824308947 0.0 0.0029579398073858454 0.0 0.0
0.0029334429570737133 -0.0015117402596939167 0.0 0.0024357054183942184 0.0 0.0
0.0022552371248486663 -0.0010526021784352801 0.0 0.0021464799097536125 0.0 0.0
0.0017764322397094412 -0.0007823533476671862 0.0 0.0019730129694802423 0.0 0.0
0.001413796088418684 -0.000615345160148939 0.0 0.0018863228346486516 0.0 0.0
0.0011513897057657957 -0.0004989152687741027 0.0 0.0018754072033676794 0.0 0.0
0.0009322520843130996 -0.00040232814449336907 0.0 0.0018466657014526433 0.0 0.0
0.0007389302207053278 -0.0003069873498185438 0.0 0.0017888084916277414 0.0 0.0
0.0005456216879608858 -0.0001988989033405164 0.0 0.0017000569970062884 0.0 0.0
0.00032218800072338766 -6.940175359557155e-05 0.0 0.001625287862471056 0.0 0.0
7.506100430136609e-05 1.7459684571424772e-05 0.0 0.001714780476949812 0.0 0.0
1.2998720706071387e-05 -0.00024662111772635886 0.0 0.002077509844974304 0.0 0.0
0.0005505455067952233 -0.0013995551295518062 0.0 0.0016328662687496304 0.0 0.0
0.00044559665761113865 -0.001200716788504419 0.0 -0.0015137177911236227 0.0 0.0
-2.1929103156737018e-05 -0.00024547494486615307 0.0 -0.002137780355762245 0.0 0.0
-4.227567605458865e-05 4.9221215049466416e-05 0.0 -0.0018874415134282063 0.0 0.0
0.00012800475129794847 1.3344360733524852e-05 0.0 -0.0017743567837188168 0.0 0.0
0.000296283513868581 -8.578392964680992e-05 0.0 -0.0018150038245024758 0.0 0.0
0.00043331624703051713 -0.00016990406215644516 0.0 -0.0018956842600628965 0.0 0.0
0.0005587464131264347 -0.00023795627054967738 0.0 -0.0019620149561797445 0.0 0.0
0.0006934557638120994 -0.00030086688912123183 0.0 -0.002015818562100008 0.0 0.0
0.0008520777744410596 -0.00037282112887315755 0.0 -0.0020503214997564245 0.0 0.0
0.0010572556894284449 -0.00046291001259179954 0.0 -0.002115261124871065 0.0 0.0
0.0013481167727837154 -0.0005980582060279849 0.0 -0.0022395734736322392 0.0 0.0
0.00174127599090481 -0.0008033759774304094 0.0 -0.0024174308246025233 0.0 0.0
0.0023358544588335667 -0.001162849541147537 0.0 -0.002761291528166593 0.0 0.0
0.0032494858033273663 -0.0018358440006867038 0.0 -0.0033552369784970726 0.0 0.0
0.004552520035526891 -0.002929774596702295 0.0 -0.004193258014456525 0.0 0.0
0.006259823985854583 -0.004466938585524272 0.0 -0.005144757605918121 0.0 0.0
0.00834163618526694 -0.006425931287025621 0.0 -0.0059770436921480485 0.0 0.0
0.010797580779329782 -0.008771514611232822 0.0 -0.006336028744813399 0.0 0.0
0.013584869822629103 -0.01151162038729936 0.0 -0.0059979970864913745 0.0 0.0
0.01660023785616642 -0.014436482505072012 0.0 -0.00417185329799491 0.0 0.0
0.01660023785616576 -0.014436482505070902 0.0 0.004171853298002154 0.0 0.0
0.013584869822627917 -0.011511620387301358 0.0 0.005997997086503726 0.0 0.0
0.01079758077932818 -0.008771514611235709 0.0 0.0063360287448210595 0.0 0.0
0.008341636185265705 -0.0064259312870262875 0.0 0.005977043692150602 0.0 0.0
0.006259823985853674 -0.004466938585524938 0.0 0.005144757605917066 0.0 0.0
0.00455252003552617 -0.0029297745967018507 0.0 0.004193258014456525 0.0 0.0
0.0032494858033263532 -0.0018358440006868149 0.0 0.0033552369784978775 0.0 0.0
0.002335854458832852 -0.0011628495411480921 0.0 0.0027612915281675088 0.0 0.0
0.001741275990903804 -0.0008033759774311866 0.0 0.002417430824601774 0.0 0.0
0.0013481167727828341 -0.0005980582060290951 0.0 0.0022395734736309347 0.0 0.0
0.0010572556894277926 -0.00046291001259246567 0.0 0.002115261124869261 0.0 0.0
0.0008520777744404073 -0.0003728211288724914 0.0 0.00205032149975648 0.0 0.0
0.0006934557638114749 -0.00030086688912078774 0.0 0.002015818562099675 0.0 0.0
0.00055874641312606 -0.00023795627054934432 0.0 0.0019620149561783984 0.0 0.0
0.0004333162470303367 -0.00016990406215627862 0.0 0.0018956842600606344 0.0 0.0
0.0002962835138686018 -8.57839296471985e-05 0.0 0.0018150038244997974 0.0 0.0
0.0001280047512979554 1.3344360733136273e-05 0.0 0.001774356783716527 0.0 0.0
-4.227567605445681e-05 4.922121504977173e-05 0.0 0.0018874415134258749 0.0 0.0
-2.1929103156771712e-05 -0.0002454749448657645 0.0 0.0021377803557600383 0.0 0.0
0.0004455966576106807 -0.001200716788503346 0.0 0.0015137177911221794 0.0 0.0
0.00036372229402992923 -0.0010150039856831328 0.0 -0.0013868093311906055 0.0 0.0
-5.712275935354505e-05 -0.0002313971385368152 0.0 -0.0021480806281025666 0.0 0.0
-0.00014724442291975948 7.883420962537246e-05 0.0 -0.00199991054067529 0.0 0.0
-5.497469177266623e-05 8.87725713452081e-05 0.0 -0.0018812585954313399 0.0 0.0
5.0903182478696796e-05 2.386694674794132e-05 0.0 -0.0018912491476238968 0.0 0.0
0.00012692268279266422 -3.2848083250713866e-05 0.0 -0.0019565157163947133 0.0 0.0
0.0001824948100605031 -7.161445863090865e-05 0.0 -0.002023538894608573 0.0 0.0
0.0002313914826959293 -9.923097455322161e-05 0.0 -0.002079674924682806 0.0 0.0
0.0002863258590078688 -0.00012508825416834846 0.0 -0.002132399567712412 0.0 0.0
0.00035135009461922245 -0.0001539871693696515 0.0 -0.0021954593420996094 0.0 0.0
0.0004504509781339608 -0.00019774746054368464 0.0 -0.0023167603348451526 0.0 0.0
0.0005796929944377749 -0.0002616218221673794 0.0 -0.002494431250186696 0.0 0.0
0.0007687668607190556 -0.00035582599845784824 0.0 -0.002756069790286947 0.0 0.0
0.0010664768272216213 -0.0005110059008432977 0.0 -0.0031592153715787052 0.0 0.0
0.0015126755111791249 -0.0007895522489496098 0.0 -0.0037802480317421783 0.0 0.0
0.0021609661885488227 -0.0012476852137734973 0.0 -0.004578736702118058 0.0 0.0
0.0030945034715099476 -0.0020160506332267403 0.0 -0.005371486533637532 0.0 0.0
0.004507819665256471 -0.0032689676921837663 0.0 -0.005754297441135425 0.0 0.0
0.006428498247512279 -0.005030041351880232 0.0 -0.005324154079596105 0.0 0.0
0.008857886045823667 -0.007488410929466616 0.0 -0.004160258028174518 0.0 0.0
0.008857886045823202 -0.007488410929466616 0.0 0.004160258028179903 0.0 0.0
0.006428498247511738 -0.005030041351879344 0.0 0.005324154079605931 0.0 0.0
0.004507819665255611 -0.003268967692182434 0.0 0.005754297441141504 0.0 0.0
0.003094503471509469 -0.0020160506332267403 0.0 0.005371486533640113 0.0 0.0
0.002160966188548781 -0.0012476852137737193 0.0 0.004578736702117614 0.0 0.0
0.001512675511179229 -0.0007895522489496098 0.0 0.0037802480317417897 0.0 0.0
0.0010664768272213299 -0.0005110059008435197 0.0 0.003159215371579649 0.0 0.0
0.0007687668607193263 -0.0003558259984587364 0.0 0.002756069790288057 0.0 0.0
0.0005796929944378026 -0.00026162182216815655 0.0 0.002494431250186002 0.0 0.0
0.0004504509781339816 -0.0001977474605450169 0.0 0.0023167603348443755 0.0 0.0
0.000351350094619389 -0.0001539871693710948 0.0 0.002195459342098194 0.0 0.0
0.0002863258590078063 -0.00012508825416890357 0.0 0.002132399567711829 0.0 0.0
0.00023139148269578358 -9.923097455344365e-05 0.0 0.002079674924681918 0.0 0.0
0.00018249481006058638 -7.161445863052007e-05 0.0 0.002023538894607213 0.0 0.0
0.00012692268279281688 -3.2848083250713866e-05 0.0 0.001956515716392798 0.0 0.0
5.090318247891884e-05 2.3866946748218876e-05 0.0 0.0018912491476216348 0.0 0.0
-5.497469177248582e-05 8.877257134504157e-05 0.0 0.0018812585954288419 0.0 0.0
-0.00014724442291957213 7.883420962484511e-05 0.0 0.0019999105406727224 0.0 0.0
-5.7122759353565866e-05 -0.00023139713853673194 0.0 0.0021480806281001658 0.0 0.0
0.0003637222940295545 -0.001015003985682072 0.0 0.0013868093311891483 0.0 0.0
0.00028964691360755523 -0.0008393341180535641 0.0 -0.0012595017752206478 0.0 0.0
-9.284502258394972e-05 -0.0002056185029461477 0.0 -0.002108936529398392 0.0 0.0
-0.00024396582529836314 0.00010807748529612082 0.0 -0.0020550981203510538 0.0 0.0
-0.00022826450276286492 0.00015854368381973405 0.0 -0.0019414872954836432 0.0 0.0
-0.0001894481849176871 0.00012942447793734546 0.0 -0.001925169344137334 0.0 0.0
-0.00017823200994535743 0.00010285434772072666 0.0 -0.0019703844398755582 0.0 0.0
-0.00019451297936861484 9.496547464071803e-05 0.0 -0.002027516770672144 0.0 0.0
-0.00023041705020969416 0.00010280897853875981 0.0 -0.002079796332547179 0.0 0.0
-0.0002836342004139403 0.0001233972023854113 0.0 -0.002131829757125836 0.0 0.0
-0.0003493784798003982 0.00015180465990716208 0.0 -0.0021952726431931635 0.0 0.0
-0.0004485028622753934 0.00019585250433895585 0.0 -0.0023164357455648377 0.0 0.0
-0.0005780296248311251 0.0002613466921579377 0.0 -0.00249383496252098 0.0 0.0
-0.0007722147414657571 0.0003611651620236689 0.0 -0.002753121766734007 0.0 0.0
-0.0010799706012419724 0.0005205954966330806 0.0 -0.0031550705704332938 0.0 0.0
-0.0014945777415734454 0.0007600119796504767 0.0 -0.003804727521666107 0.0 0.0
-0.0019272501293340835 0.0010345484008666972 0.0 -0.004686870588843262 0.0 0.0
-0.002168881652704388 0.001195662847079948 0.0 -0.005726954818657093 0.0 0.0
-0.00189615007173638 0.0009726476583520327 0.0 -0.006857385469548477 0.0 0.0
-0.0008556792740353342 0.0003184481373443848 0.0 -0.007698315620314283 0.0 0.0
0.0012707259825614076 -0.001527239904607569 0.0 -0.0062444342721396096 0.0 0.0
0.0012707259825610884 -0.0015272399046057927 0.0 0.006244434272146271 0.0 0.0
-0.0008556792740354868 0.0003184481373457171 0.0 0.0076983156203241365 0.0 0.0
-0.0018961500717363591 0.0009726476583544752 0.0 0.006857385469553667 0.0 0.0
-0.0021688816527037913 0.0011956628470821684 0.0 0.005726954818658703 0.0 0.0
-0.0019272501293332578 0.001034548400866031 0.0 0.00468687058884229 0.0 0.0
-0.0014945777415726266 0.0007600119796513649 0.0 0.003804727521665441 0.0 0.0
-0.001079970601241459 0.0005205954966334136 0.0 0.0031550705704336823 0.0 0.0
-0.0007722147414645844 0.00036116516202211457 0.0 0.0027531217667351726 0.0 0.0
-0.0005780296248300704 0.0002613466921573826 0.0 0.002493834962519953 0.0 0.0
-0.0004485028622744011 0.0001958525043392889 0.0 0.0023164357455634776 0.0 0.0
-0.0003493784797994476 0.0001518046599072731 0.0 0.0021952726431921643 0.0 0.0
-0.0002836342004134615 0.0001233972023868546 0.0 0.002131829757125947 0.0 0.0
-0.000230417050209257 0.00010280897853931492 0.0 0.0020797963325469015 0.0 0.0
-0.00019451297936811524 9.49654746410511e-05 0.0 0.0020275167706711728 0.0 0.0
-0.0001782320099448162 0.00010285434772028257 0.0 0.001970384439873435 0.0 0.0
-0.00018944818491734017 0.00012942447793667933 0.0 0.001925169344134739 0.0 0.0
-0.00022826450276248328 0.00015854368381984507 0.0 0.0019414872954807982 0.0 0.0
-0.00024396582529811334 0.00010807748529639838 0.0 0.002055098120348098 0.0 0.0
-9.28450225838387e-05 -0.00020561850294596729 0.0 0.0021089365293958107 0.0 0.0
0.0002896469136072777 -0.0008393341180526863 0.0 0.0012595017752193988 0.0 0.0
0.00021972085753944187 -0.0006749437746698672 0.0 -0.0011342305368788885 0.0 0.0
-0.00013096055485618818 -0.00016992685924266393 0.0 -0.0020253652130866467 0.0 0.0
-0.0003350742927379982 0.0001384404025396302 0.0 -0.0020549449631154654 0.0 0.0
-0.00039334845643934635 0.00022381425871564886 0.0 -0.0019528258406875665 0.0 0.0
-0.00042419158729712497 0.00023068122534580793 0.0 -0.0019138835328991605 0.0 0.0
-0.0004803749647574046 0.00023591659825922262 0.0 -0.0019354345725036554 0.0 0.0
-0.0005695007762408291 0.00025978023931472194 0.0 -0.0019730826869227697 0.0 0.0
-0.0006926153150187131 0.0003041369075629241 0.0 -0.0020161689060948784 0.0 0.0
-0.0008496426089611014 0.0003712282926312538 0.0 -0.002048678793270614 0.0 0.0
-0.0010554587463885712 0.00046099491698137207 0.0 -0.0021144877950401153 0.0 0.0
-0.0013463267830963396 0.0005963865513088917 0.0 -0.0022400157139425836 0.0 0.0
-0.0017395199815782927 0.0008025449729335277 0.0 -0.00241751171410301 0.0 0.0
-0.00233758676546765 0.001167935463724179 0.0 -0.002753121373476053 0.0 0.0
-0.0032619565474676024 0.0018491070190764791 0.0 -0.003341136964003927 0.0 0.0
-0.004546060838676258 0.0029041309355282152 0.0 -0.004233474268648535 0.0 0.0
-0.006058269558598256 0.004209607528837811 0.0 -0.005392587081783973 0.0 0.0
-0.007493139109959281 0.005466351673844461 0.0 -0.006733998584391443 0.0 0.0
-0.008427998732455269 0.006260341791033408 0.0 -0.008166745859856495 0.0 0.0
-0.00823341815088438 0.0058693588773142125 0.0 -0.008966306847578653 0.0 0.0
-0.005889950378115356 0.003544138141508002 0.0 -0.0073804058693354435 0.0 0.0
-0.005889950378115627 0.003544138141508668 0.0 0.007380405869341661 0.0 0.0
-0.008233418150884103 0.005869358877312214 0.0 0.00896630684758759 0.0 0.0
-0.008427998732454554 0.0062603417910309656 0.0 0.008166745859863017 0.0 0.0
-0.007493139109957601 0.00546635167384224 0.0 0.006733998584393025 0.0 0.0
-0.0060582695585965005 0.004209607528838255 0.0 0.00539258708178289 0.0 0.0
-0.004546060838674655 0.0029041309355292144 0.0 0.00423347426864884 0.0 0.0
-0.003261956547466388 0.001849107019075591 0.0 0.003341136964004232 0.0 0.0
-0.002337586765465513 0.0011679354637224026 0.0 0.0027531213734771354 0.0 0.0
-0.0017395199815762874 0.0008025449729311962 0.0 0.0024175117141026214 0.0 0.0
-0.0013463267830944592 0.0005963865513082256 0.0 0.0022400157139412236 0.0 0.0
-0.0010554587463867879 0.00046099491698170514 0.0 0.0021144877950387553 0.0 0.0
-0.000849642608959908 0.00037122829263058765 0.0 0.0020486787932701978 0.0 0.0
-0.0006926153150177486 0.00030413690756270206 0.0 0.002016168906094601 0.0 0.0
-0.0005695007762399965 0.0002597802393151105 0.0 0.0019730826869211043 0.0 0.0
-0.0004803749647566066 0.0002359165982590561 0.0 0.0019354345725009908 0.0 0.0
-0.00042419158729651435 0.0002306812253451418 0.0 0.0019138835328966625 0.0 0.0
-0.00039334845643873573 0.00022381425871484395 0.0 0.0019528258406856513 0.0 0.0
-0.00033507429273765127 0.0001384404025391306 0.0 0.0020549449631135086 0.0 0.0
-0.00013096055485604247 -0.000169926859242428 0.0 0.0020253652130848565 0.0 0.0
0.00021972085753925452 -0.0006749437746691716 0.0 0.001134230536877806 0.0 0.0
0.0001537907158504076 -0.0005229713978438522 0.0 -0.0010084554413604258 0.0 0.0
-0.00017224741128168963 -0.00012659419933888638 0.0 -0.0019030208404484938 0.0 0.0
-0.00042253789961679833 0.00017079505348654989 0.0 -0.002001935999915966 0.0 0.0
-0.0005514487231524298 0.00028547312469667796 0.0 -0.0019141452164434802 0.0 0.0
-0.0006530158653013304 0.00032749649835633887 0.0 -0.001855195258513298 0.0 0.0
-0.000777603591375596 0.0003651578330003957 0.0 -0.0018493663429003382 0.0 0.0
-0.000941223370165549 0.0004212638823559711 0.0 -0.0018628951231731694 0.0 0.0
-0.0011506849400113456 0.0005017597727905443 0.0 -0.0018762076718407683 0.0 0.0
-0.001411863329730742 0.00061392062335619 0.0 -0.0018834976497654754 0.0 0.0
-0.0017749610217217687 0.0007806738812198288 0.0 -0.0019716154260968344 0.0 0.0
-0.002253975947493478 0.0010510420270164467 0.0 -0.0021470036076606247 0.0 0.0
-0.0029315183058472305 0.001510412236154668 0.0 -0.00243650410377097 0.0 0.0
-0.003966073465231368 0.0023158482319387552 0.0 -0.002944799494599609 0.0 0.0
-0.005526211399521218 0.0036519422795320278 0.0 -0.0037483065997583886 0.0 0.0
-0.007684292568984473 0.005592582696529069 0.0 -0.004895950422021428 0.0 0.0
-0.010283891328658229 0.007985494259545423 0.0 -0.006434506560824255 0.0 0.0
-0.012928868701548302 0.010441313620571435 0.0 -0.008404874283937436 0.0 0.0
-0.015016532316859295 0.012315411608328164 0.0 -0.010574787340087516 0.0 0.0
-0.015480250882039241 0.012512927841732413 0.0 -0.011871406466747558 0.0 0.0
-0.01266083321475308 0.009348328291825414 0.0 -0.00968767256281744 0.0 0.0
-0.012660833214753399 0.00934832829182386 0.0 0.009687672562825822 0.0 0.0
-0.015480250882038284 0.012512927841731969 0.0 0.011871406466759132 0.0 0.0
-0.015016532316858004 0.012315411608329274 0.0 0.010574787340096842 0.0 0.0
-0.012928868701545873 0.010441313620571657 0.0 0.008404874283940406 0.0 0.0
-0.010283891328655578 0.0079854942595452 0.0 0.006434506560823422 0.0 0.0
-0.007684292568982218 0.005592582696528736 0.0 0.004895950422020734 0.0 0.0
-0.005526211399519136 0.0036519422795296963 0.0 0.003748306599757778 0.0 0.0
-0.003966073465228488 0.0023158482319362017 0.0 0.0029447994945998035 0.0 0.0
-0.0029315183058441843 0.0015104122361525585 0.0 0.0024365041037696655 0.0 0.0
-0.0022539759474906815 0.0010510420270140042 0.0 0.002147003607658543 0.0 0.0
-0.0017749610217191458 0.0007806738812184966 0.0 0.001971615426095641 0.0 0.0
-0.0014118633297287783 0.000613920623356079 0.0 0.0018834976497651146 0.0 0.0
-0.0011506849400097566 0.0005017597727894341 0.0 0.0018762076718402965 0.0 0.0
-0.0009412233701643347 0.0004212638823548609 0.0 0.001862895123171851 0.0 0.0
-0.0007776035913744858 0.00036515783299923 0.0 0.0018493663428983814 0.0 0.0
-0.0006530158653004145 0.00032749649835633887 0.0 0.001855195258511147 0.0 0.0
-0.0005514487231516804 0.00028547312469706654 0.0 0.0019141452164409267 0.0 0.0
-0.0004225378996163473 0.00017079505348671642 0.0 0.002001935999913579 0.0 0.0
-0.00017224741128159943 -0.00012659419933827576 0.0 0.0019030208404465926 0.0 0.0
0.00015379071585025494 -0.0005229713978432589 0.0 0.0010084554413595792 0.0 0.0
9.245452344847083e-05 -0.000384873375440381 0.0 -0.0008793926007159836 0.0 0.0
-0.0002163334031011488 -7.797592324651492e-05 0.0 -0.0017463653045345917 0.0 0.0
-0.0005075653401562796 0.0002053505534184985 0.0 -0.0018989287777318453 0.0 0.0
-0.0007036253873920623 0.00034408971887145423 0.0 -0.0018250895031147463 0.0 0.0
-0.0008755053797327161 0.0004199106068116798 0.0 -0.001747078448618905 0.0 0.0
-0.0010695189320087395 0.0004899883504494995 0.0 -0.0017160972765269261 0.0 0.0
-0.0013069827259342692 0.0005776360458515928 0.0 -0.001696307395513949 0.0 0.0
-0.001600630390031249 0.0006941609786890179 0.0 -0.001670838374342204 0.0 0.0
-0.0019900753667031618 0.0008774820370260894 0.0 -0.0017088072236212948 0.0 0.0
-0.0025128324749872227 0.00118167921072998 0.0 -0.001874883762436913 0.0 0.0
-0.0031880418968257135 0.0016476858238863024 0.0 -0.002113063915978708 0.0 0.0
-0.0041750888217198315 0.0024061903460153022 0.0 -0.0024836902333845445 0.0 0.0
-0.005667223913860167 0.0036781835927446327 0.0 -0.003093856151778207 0.0 0.0
-0.007877407741358533 0.005677951428961436 0.0 -0.00401646226033861 0.0 0.0
-0.010910101792309251 0.008508367007331374 0.0 -0.005307307722231619 0.0 0.0
-0.01462044097135351 0.012007332170448803 0.0 -0.0071041236335166735 0.0 0.0
-0.01850559645003226 0.015674797168621968 0.0 -0.009548161873009997 0.0 0.0
-0.021679375754372135 0.018582697258528347 0.0 -0.012343658990380285 0.0 0.0
-0.022611940158507003 0.019160526432580927 0.0 -0.014195419633764556 0.0 0.0
-0.018902527704222724 0.014989578946542181 0.0 -0.012168468898326679 0.0 0.0
-0.0189025277042226 0.014989578946542403 0.0 0.012168468898337753 0.0 0.0
-0.02261194015850565 0.019160526432579372 0.0 0.014195419633779849 0.0 0.0
-0.021679375754370282 0.018582697258524572 0.0 0.012343658990392165 0.0 0.0
-0.018505596450029325 0.015674797168617305 0.0 0.009548161873014688 0.0 0.0
-0.014620440971350186 0.012007332170446139 0.0 0.007104123633516812 0.0 0.0
-0.010910101792306441 0.008508367007329598 0.0 0.005307307722231758 0.0 0.0
-0.007877407741355598 0.00567795142896077 0.0 0.004016462260338166 0.0 0.0
-0.005667223913856656 0.0036781835927435225 0.0 0.0030938561517782903 0.0 0.0
-0.0041750888217158555 0.002406190346013637 0.0 0.0024836902333832955 0.0 0.0
-0.003188041896821838 0.00164768582388497 0.0 0.0021130639159761683 0.0 0.0
-0.0025128324749837533 0.0011816792107272045 0.0 0.001874883762434873 0.0 0.0
-0.001990075366700386 0.0008774820370232028 0.0 0.0017088072236204482 0.0 0.0
-0.0016006303900290182 0.0006941609786881298 0.0 0.001670838374342301 0.0 0.0
-0.0013069827259325276 0.0005776360458519259 0.0 0.0016963073955128943 0.0 0.0
-0.0010695189320073725 0.0004899883504488889 0.0 0.0017160972765251081 0.0 0.0
-0.0008755053797316024 0.0004199106068105696 0.0 0.001747078448616976 0.0 0.0
-0.0007036253873911637 0.0003440897188710379 0.0 0.0018250895031127062 0.0 0.0
-0.0005075653401557453 0.000205350553418443 0.0 0.0018989287777296388 0.0 0.0
-0.0002163334031009996 -7.797592324618186e-05 0.0 0.0017463653045325794 0.0 0.0
9.245452344836327e-05 -0.00038487337544009913 0.0 0.0008793926007148456 0.0 0.0
3.679619074110907e-05 -0.00026235095113266715 0.0 -0.0007446369662124225 0.0 0.0
-0.00026200821409400055 -2.6386385710924776e-05 0.0 -0.001558832832440668 0.0 0.0
-0.0005906009145157237 0.00024166201216591077 0.0 -0.0017486606907270164 0.0 0.0
-0.000850732737094323 0.00040025868926513164 0.0 -0.0016854346787445879 0.0 0.0
-0.0010916680983636962 0.0005075931453060734 0.0 -0.0015905291535131677 0.0 0.0
-0.0013552947619671213 0.0006090418454595681 0.0 -0.001530639658827035 0.0 0.0
-0.0016628819810161344 0.000725016146890356 0.0 -0.001467337791947132 0.0 0.0
-0.002064146968526248 0.0009102252540235112 0.0 -0.0014704818730607583 0.0 0.0
-0.002596546269316602 0.0012216571424942257 0.0 -0.0015972344080397993 0.0 0.0
-0.003261582783678621 0.0016691951795022586 0.0 -0.0017816477914085749 0.0 0.0
-0.004153998405278941 0.0023395752304701256 0.0 -0.0020258499631914118 0.0 0.0
-0.005467726656859587 0.0034290462569442903 0.0 -0.0024431734266245064 0.0 0.0
-0.0074369018176346224 0.005182276178783418 0.0 -0.003108655928533016 0.0 0.0
-0.010304316091345883 0.007846001978416006 0.0 -0.004078137096300699 0.0 0.0
-0.014210397361027992 0.011554893978088288 0.0 -0.005409806109876347 0.0 0.0
-0.01902555458897557 0.016151776684535823 0.0 -0.007267991497252935 0.0 0.0
-0.02414542043520454 0.021016632889831577 0.0 -0.009850601857793878 0.0 0.0
-0.028359033247542957 0.02490699877243996 0.0 -0.013023389670484858 0.0 0.0
-0.029609586657320115 0.02572119360982761 0.0 -0.015521083979821992 0.0 0.0
-0.024825543125631233 0.02044618644525764 0.0 -0.014593690398729015 0.0 0.0
-0.02482554312563061 0.02044618644525764 0.0 0.014593690398741782 0.0 0.0
-0.02960958665731843 0.025721193609826942 0.0 0.015521083979838313 0.0 0.0
-0.028359033247540702 0.024906998772438627 0.0 0.013023389670498264 0.0 0.0
-0.02414542043520132 0.021016632889828912 0.0 0.009850601857799374 0.0 0.0
-0.019025554588971906 0.01615177668453116 0.0 0.007267991497254378 0.0 0.0
-0.014210397361024418 0.011554893978086067 0.0 0.005409806109876694 0.0 0.0
-0.010304316091342296 0.007846001978414674 0.0 0.004078137096300297 0.0 0.0
-0.007436901817630324 0.005182276178778533 0.0 0.00310865592853235 0.0 0.0
-0.005467726656854795 0.0034290462569402935 0.0 0.0024431734266237154 0.0 0.0
-0.004153998405274167 0.002339575230467017 0.0 0.0020258499631892884 0.0 0.0
-0.0032615827836743813 0.0016691951795002602 0.0 0.00178164779140573 0.0 0.0
-0.0025965462693130145 0.0012216571424932265 0.0 0.001597234408038703 0.0 0.0
-0.0020641469685231326 0.0009102252540217348 0.0 0.0014704818730611052 0.0 0.0
-0.0016628819810139174 0.0007250161468886906 0.0 0.0014673377919462577 0.0 0.0
-0.0013552947619655115 0.000609041845459013 0.0 0.0015306396588253557 0.0 0.0
-0.0010916680983624437 0.0005075931453052962 0.0 0.001590529153511766 0.0 0.0
-0.0008507327370932682 0.0004002586892646043 0.0 0.001685434678742534 0.0 0.0
-0.0005906009145151929 0.00024166201216566097 0.0 0.0017486606907255592 0.0 0.0
-0.0002620082140936987 -2.6386385710924776e-05 0.0 0.0015588328324395856 0.0 0.0
3.67961907410258e-05 -0.0002623509511323679 0.0 0.0007446369662121172 0.0 0.0
-1.1626639843678732e-05 -0.00015734120756137615 0.0 -0.0006026589597426801 0.0 0.0
-0.0003071960613881958 2.580226104650918e-05 0.0 -0.0013430837017710806 0.0 0.0
-0.0006714657129084783 0.0002788490012786138 0.0 -0.0015530493245612398 0.0 0.0
-0.0009935915140052293 0.0004543849939123157 0.0 -0.001495749921748779 0.0 0.0
-0.0013023968947357273 0.0005916540276691418 0.0 -0.0013877190398410844 0.0 0.0
-0.0016299128547846153 0.0007181806799169133 0.0 -0.0012887253367559748 0.0 0.0
-0.0020239954782066694 0.0008863491969554049 0.0 -0.0012247416142302792 0.0 0.0
-0.0025630585801030836 0.0011913487814929624 0.0 -0.0013060850761196507 0.0 0.0
-0.0032091432436956724 0.0016233661453225467 0.0 -0.0014541980956232492 0.0 0.0
-0.004022529255826246 0.002207320202308849 0.0 -0.0016132475480916397 0.0 0.0
-0.005151400575791998 0.003109925847330053 0.0 -0.0018747747670798676 0.0 0.0
-0.006807853572437572 0.004544602525875185 0.0 -0.002296672567718122 0.0 0.0
-0.009271267023882479 0.006792414105382005 0.0 -0.0029564761504452808 0.0 0.0
-0.012808174215199336 0.010125942765913054 0.0 -0.00393607757515102 0.0 0.0
-0.017563035135170185 0.014684907727446017 0.0 -0.005217039832607573 0.0 0.0
-0.023435381880945017 0.020326530034971535 0.0 -0.006887333298497167 0.0 0.0
-0.029752906598203746 0.026355071991339463 0.0 -0.009302779290768642 0.0 0.0
-0.03496936415787289 0.031193882573650633 0.0 -0.012584283675925317 0.0 0.0
-0.03649727873093965 0.03222231523201646 0.0 -0.015899453131889063 0.0 0.0
-0.03067627344536559 0.025878207465807712 0.0 -0.01703794171640874 0.0 0.0
-0.030676273445364652 0.025878207465806158 0.0 0.01703794171642356 0.0 0.0
-0.03649727873093779 0.03222231523201624 0.0 0.015899453131905633 0.0 0.0
-0.03496936415786999 0.031193882573649523 0.0 0.012584283675939556 0.0 0.0
-0.029752906598200415 0.026355071991337464 0.0 0.009302779290774554 0.0 0.0
-0.02343538188094107 0.020326530034970647 0.0 0.006887333298498957 0.0 0.0
-0.017563035135166005 0.014684907727442686 0.0 0.005217039832608475 0.0 0.0
-0.012808174215195017 0.01012594276590828 0.0 0.003936077575150507 0.0 0.0
-0.00927126702387748 0.006792414105378675 0.0 0.002956476150444906 0.0 0.0
-0.006807853572431834 0.004544602525871966 0.0 0.00229667256771722 0.0 0.0
-0.0051514005757864675 0.00310992584732539 0.0 0.0018747747670770781 0.0 0.0
-0.004022529255821201 0.002207320202304408 0.0 0.0016132475480891834 0.0 0.0
-0.0032091432436913217 0.0016233661453194381 0.0 0.0014541980956220696 0.0 0.0
-0.0025630585800990764 0.001191348781491297 0.0 0.001306085076118596 0.0 0.0
-0.002023995478203828 0.0008863491969549053 0.0 0.0012247416142295298 0.0 0.0
-0.0016299128547826065 0.0007181806799168577 0.0 0.0012887253367549895 0.0 0.0
-0.0013023968947343083 0.0005916540276685311 0.0 0.0013877190398400019 0.0 0.0
-0.0009935915140040878 0.0004543849939115663 0.0 0.0014957499217471137 0.0 0.0
-0.0006714657129077983 0.00027884900127825296 0.0 0.001553049324559741 0.0 0.0
-0.0003071960613880466 2.5802261046523056e-05 0.0 0.0013430837017695402 0.0 0.0
-1.1626639843619752e-05 -0.00015734120756134146 0.0 0.0006026589597417087 0.0 0.0
-5.0597164532123484e-05 -7.205769128199035e-05 0.0 -0.00045344535076125014 0.0 0.0
-0.0003486240257528084 7.589391649653887e-05 0.0 -0.001101126956117457 0.0 0.0
-0.0007495170751941893 0.0003157443574861307 0.0 -0.0013123797415974525 0.0 0.0
-0.0011336233229781584 0.0005070465987386807 0.0 -0.0012571292640209675 0.0 0.0
-0.0015066199263865793 0.0006681994442236383 0.0 -0.001133842041210753 0.0 0.0
-0.0018986197044301156 0.0008334849453825455 0.0 -0.0010211447477020547 0.0 0.0
-0.0024210907530442943 0.0011124112858388324 0.0 -0.0010284022434338402 0.0 0.0
-0.003068418589394134 0.0015234404410615632 0.0 -0.001132239862415091 0.0 0.0
-0.003821762768162998 0.0020470792108212565 0.0 -0.0012306863635679344 0.0 0.0
-0.004805062307131583 0.0027983313626340767 0.0 -0.0013888278597299908 0.0 0.0
-0.006178518667436031 0.003943781082533571 0.0 -0.0016373627473292574 0.0 0.0
-0.008194314620235704 0.0057349069444213585 0.0 -0.0020275364133695573 0.0 0.0
-0.011168322233308936 0.008493757231802457 0.0 -0.002646027186975153 0.0 0.0
-0.015382213337715792 0.012494000274032802 0.0 -0.0035492499333340255 0.0 0.0
-0.020958617283992287 0.017865261538100752 0.0 -0.004714398613086285 0.0 0.0
-0.027792828347531287 0.024469490059282784 0.0 -0.006082291860875777 0.0 0.0
-0.03520724494858717 0.031566185064828334 0.0 -0.007911764185972198 0.0 0.0
-0.04141304357500398 0.03734904256059446 0.0 -0.010903325903997146 0.0 0.0
-0.04335154238516994 0.038729373060532035 0.0 -0.01527759290662467 0.0 0.0
-0.036675032151452056 0.03146679933673768 0.0 -0.01950100361845003 0.0 0.0
-0.036675032151451153 0.03146679933673746 0.0 0.019501003618464408 0.0 0.0
-0.043351542385167884 0.038729373060529815 0.0 0.015277592906642018 0.0 0.0
-0.041413043575000634 0.03734904256059246 0.0 0.010903325904010996 0.0 0.0
-0.03520724494858368 0.031566185064825225 0.0 0.007911764185977138 0.0 0.0
-0.027792828347526912 0.02446949005927812 0.0 0.006082291860878136 0.0 0.0
-0.02095861728398764 0.01786526153809853 0.0 0.004714398613087922 0.0 0.0
-0.01538221333771074 0.012494000274030137 0.0 0.0035492499333344557 0.0 0.0
-0.011168322233303368 0.008493757231798571 0.0 0.002646027186974459 0.0 0.0
-0.008194314620229026 0.005734906944415918 0.0 0.002027536413368572 0.0 0.0
-0.006178518667429696 0.003943781082528797 0.0 0.0016373627473268565 0.0 0.0
-0.00480506230712574 0.002798331362630968 0.0 0.0013888278597281312 0.0 0.0
-0.003821762768157974 0.002047079210817593 0.0 0.0012306863635668103 0.0 0.0
-0.0030684185893894503 0.0015234404410587876 0.0 0.0011322398624137864 0.0 0.0
-0.002421090753040561 0.001112411285836723 0.0 0.0010284022434327578 0.0 0.0
-0.0018986197044277425 0.0008334849453813242 0.0 0.0010211447477007224 0.0 0.0
-0.0015066199263850041 0.0006681994442231387 0.0 0.0011338420412096706 0.0 0.0
-0.0011336233229768782 0.000507046598738653 0.0 0.001257129264019441 0.0 0.0
-0.0007495170751933775 0.00031574435748599194 0.0 0.0013123797415956207 0.0 0.0
-0.0003486240257526592 7.589391649663602e-05 0.0 0.0011011269561159859 0.0 0.0
-5.05971645320992e-05 -7.205769128201117e-05 0.0 0.00045344535076098647 0.0 0.0
-7.68063020055304e-05 -9.081947759698172e-06 0.0 -0.00029954589176124646 0.0 0.0
-0.0003811314933925558 0.0001203224627880084 0.0 -0.0008341525838636427 0.0 0.0
-0.0008239496094907955 0.00035130792004195444 0.0 -0.0010242309257761095 0.0 0.0
-0.001272969971422705 0.0005579388319384426 0.0 -0.0009691859740240533 0.0 0.0
-0.0017011935520757915 0.0007396790335968961 0.0 -0.0008312105361894667 0.0 0.0
-0.002191428319375993 0.0009814532579004998 0.0 -0.0007642433223053052 0.0 0.0
-0.002837954685230709 0.0013672768858546958 0.0 -0.0007982810017710812 0.0 0.0
-0.0035649761413250186 0.0018642877819353698 0.0 -0.0008728935609293442 0.0 0.0
-0.004446698092273341 0.0025078194662075948 0.0 -0.0009609662031101474 0.0 0.0
-0.005607079387889832 0.003431826288527673 0.0 -0.0010993990695890021 0.0 0.0
-0.007236259267612372 0.00482997911094829 0.0 -0.0013138701618161108 0.0 0.0
-0.009625753324146266 0.006992869020119419 0.0 -0.001638610798672585 0.0 0.0
-0.01312325428418562 0.010267933578834265 0.0 -0.002144200593638096 0.0 0.0
-0.018018476399612543 0.01494084454506095 0.0 -0.0029282496701185934 0.0 0.0
-0.024394118689702052 0.02109288322628089 0.0 -0.003932090069276334 0.0 0.0
-0.03206461712645284 0.028521885261883373 0.0 -0.0048987356517764535 0.0 0.0
-0.04036609620117121 0.03651683367143144 0.0 -0.005825846914593147 0.0 0.0
-0.047569325183531935 0.04326642961315974 0.0 -0.008005256977096531 0.0 0.0
-0.05023920268837534 0.04530942836201168 0.0 -0.013405483768711257 0.0 0.0
-0.04307152863297271 0.0374247114008226 0.0 -0.021813964222223953 0.0 0.0
-0.04307152863297176 0.03742471140082282 0.0 0.021813964222235888 0.0 0.0
-0.05023920268837293 0.045309428362009685 0.0 0.0134054837687268 0.0 0.0
-0.0475693251835283 0.043266429613157076 0.0 0.008005256977109326 0.0 0.0
-0.04036609620116727 0.036516833671430105 0.0 0.0058258469145970465 0.0 0.0
-0.03206461712644792 0.028521885261879376 0.0 0.0048987356517790626 0.0 0.0
-0.02439411868969677 0.021092883226277226 0.0 0.003932090069277583 0.0 0.0
-0.018018476399606853 0.014940844545057841 0.0 0.002928249670118982 0.0 0.0
-0.01312325428417925 0.010267933578828825 0.0 0.002144200593637638 0.0 0.0
-0.009625753324138845 0.006992869020114201 0.0 0.0016386107986719745 0.0 0.0
-0.007236259267605263 0.004829979110942628 0.0 0.0013138701618134324 0.0 0.0
-0.005607079387883369 0.003431826288522455 0.0 0.0010993990695863098 0.0 0.0
-0.004446698092267604 0.002507819466203154 0.0 0.0009609662031090649 0.0 0.0
-0.0035649761413195768 0.0018642877819323722 0.0 0.0008728935609289001 0.0 0.0
-0.002837954685226192 0.0013672768858521978 0.0 0.0007982810017704151 0.0 0.0
-0.0021914283193731187 0.000981453257899445 0.0 0.0007642433223039591 0.0 0.0
-0.0017011935520740255 0.0007396790335967296 0.0 0.0008312105361886202 0.0 0.0
-0.001272969971421227 0.0005579388319377765 0.0 0.0009691859740229569 0.0 0.0
-0.0008239496094901398 0.0003513079200413993 0.0 0.0010242309257751658 0.0 0.0
-0.0003811314933921499 0.00012032246278771697 0.0 0.0008341525838628377 0.0 0.0
-7.680630200556163e-05 -9.081947759714652e-06 0.0 0.00029954589176119095 0.0 0.0
-8.481729138552774e-05 2.8406825780577516e-05 0.0 -0.000147794147288563 0.0 0.0
-0.00039676450621081716 0.00015373368870902349 0.0 -0.0005421654941155374 0.0 0.0
-0.0008939109328451739 0.0003851876231276974 0.0 -0.0006807584638806596 0.0 0.0
-0.0014144559760849995 0.0006040465055988098 0.0 -0.0006309208056655413 0.0 0.0
-0.0018968974676703138 0.000833786212133869 0.0 -0.0005232344271334094 0.0 0.0
-0.002517524548429545 0.0011768279336195064 0.0 -0.00048631081091303485 0.0 0.0
-0.0032464428694350816 0.0016456183791414558 0.0 -0.0005232416172524235 0.0 0.0
-0.004067634366735601 0.0022269059947119807 0.0 -0.0005712094618522678 0.0 0.0
-0.005083204638281838 0.0030005202814212817 0.0 -0.0006376185553748914 0.0 0.0
-0.006428719741004715 0.004104856048873784 0.0 -0.0007434417329744702 0.0 0.0
-0.00832460910520419 0.005763546244708984 0.0 -0.0008957919560760585 0.0 0.0
-0.01110214788342527 0.008307813054166502 0.0 -0.0011201589645585264 0.0 0.0
-0.015134432430853953 0.012111779135157152 0.0 -0.0014985813224692446 0.0 0.0
-0.020700527229103607 0.01744415272583999 0.0 -0.0020634424728153966 0.0 0.0
-0.02784689276487555 0.024340622474030127 0.0 -0.0027539874980252455 0.0 0.0
-0.03626398689452029 0.0324936455778968 0.0 -0.0033672789526399405 0.0 0.0
-0.04518459847547052 0.04111835828209354 0.0 -0.003555683540647725 0.0 0.0
-0.05314300208035801 0.04871953738149881 0.0 -0.0040524452918126175 0.0 0.0
-0.05714224345749695 0.05195614326864395 0.0 -0.009505874166671868 0.0 0.0
-0.05025507006054072 0.04408842821339087 0.0 -0.02349159181752955 0.0 0.0
-0.05025507006053989 0.04408842821339043 0.0 0.023491591817537794 0.0 0.0
-0.05714224345749406 0.051956143268642174 0.0 0.00950587416668372 0.0 0.0
-0.053143002080353975 0.0487195373814957 0.0 0.004052445291822651 0.0 0.0
-0.045184598475465805 0.041118358282089984 0.0 0.0035556835406497095 0.0 0.0
-0.03626398689451475 0.03249364557789369 0.0 0.003367278952641495 0.0 0.0
-0.027846892764869728 0.024340622474026907 0.0 0.0027539874980260226 0.0 0.0
-0.020700527229097276 0.017444152725835105 0.0 0.002063442472815466 0.0 0.0
-0.015134432430846525 0.012111779135151934 0.0 0.001498581322469078 0.0 0.0
-0.011102147883417192 0.008307813054160285 0.0 0.0011201589645589427 0.0 0.0
-0.008324609105196328 0.005763546244703099 0.0 0.0008957919560747818 0.0 0.0
-0.006428719740997617 0.004104856048869676 0.0 0.0007434417329730547 0.0 0.0
-0.00508320463827526 0.0030005202814166188 0.0 0.0006376185553744196 0.0 0.0
-0.004067634366729489 0.00222690599470754 0.0 0.000571209461852254 0.0 0.0
-0.003246442869430082 0.0016456183791381807 0.0 0.000523241617251563 0.0 0.0
-0.002517524548425876 0.001176827933617619 0.0 0.0004863108109119385 0.0 0.0
-0.0018968974676684012 0.0008337862121330364 0.0 0.0005232344271333678 0.0 0.0
-0.0014144559760834478 0.0006040465055982269 0.0 0.000630920805664667 0.0 0.0
-0.0008939109328443369 0.00038518762312728105 0.0 0.0006807584638803266 0.0 0.0
-0.0003967645062104416 0.0001537336887087598 0.0 0.0005421654941153431 0.0 0.0
-8.481729138541325e-05 2.840682578038583e-05 0.0 0.00014779414728842422 0.0 0.0
-6.474906824809057e-05 3.5732342072811174e-05 0.0 -1.2924979727074737e-05 0.0 0.0
-0.00038341047864136335 0.00016884515144963141 0.0 -0.00022071647777424652 0.0 0.0
-0.0009590803554995475 0.0004137055546476476 0.0 -0.00026783354189433006 0.0 0.0
-0.0015639572400162616 0.0006581327805910697 0.0 -0.00024602199448620077 0.0 0.0
-0.0021134589615769417 0.0009354246791293264 0.0 -0.00019576403428581135 0.0 0.0
-0.002854776009547727 0.0013784426034149644 0.0 -0.00017153091502494777 0.0 0.0
-0.00365334472812516 0.0019402252499345352 0.0 -0.0002005834740850948 0.0 0.0
-0.0045757775111333054 0.0026123060066778336 0.0 -0.00022243122412846095 0.0 0.0
-0.00573176138506927 0.0035196478811191367 0.0 -0.0002573947163371504 0.0 0.0
-0.007269703227901922 0.004808463097706217 0.0 -0.0003138026896774282 0.0 0.0
-0.00944427920925546 0.006741307014672238 0.0 -0.00038180472494553364 0.0 0.0
-0.012629563417241085 0.009686818896879723 0.0 -0.0004978934139036884 0.0 0.0
-0.017191209616386774 0.014010099909330442 0.0 -0.0006756445936454691 0.0 0.0
-0.02340305288498218 0.01997326539403199 0.0 -0.0009146713251765859 0.0 0.0
-0.03128900086424699 0.027586521694300092 0.0 -0.0012027122212396602 0.0 0.0
-0.04040717444516291 0.03640801953755224 0.0 -0.0014074220340884458 0.0 0.0
-0.04978393801737724 0.04548113184079261 0.0 -0.001287461485729724 0.0 0.0
-0.05795382870884835 0.053340845371839585 0.0 -0.0006109661696248325 0.0 0.0
-0.06307906530229418 0.05817431206031154 0.0 -0.002138267181287984 0.0 0.0
-0.059311743754185645 0.052230439103694515 0.0 -0.021859474321102967 0.0 0.0
-0.059311743754185665 0.05223043910369163 0.0 0.021859474321107825 0.0 0.0
-0.06307906530229088 0.05817431206030621 0.0 0.002138267181293285 0.0 0.0
-0.057953828708843504 0.05334084537183492 0.0 0.00061096616962944 0.0 0.0
-0.04978393801737134 0.04548113184078928 0.0 0.0012874614857294325 0.0 0.0
-0.0404071744451564 0.03640801953754913 0.0 0.0014074220340889038 0.0 0.0
-0.031289000864240565 0.02758652169429643 0.0 0.001202712221240132 0.0 0.0
-0.02340305288497485 0.01997326539402733 0.0 0.0009146713251768912 0.0 0.0
-0.017191209616378555 0.014010099909324003 0.0 0.0006756445936452332 0.0 0.0
-0.012629563417232273 0.009686818896871174 0.0 0.0004978934139038688 0.0 0.0
-0.009444279209246731 0.006741307014664022 0.0 0.0003818047249447426 0.0 0.0
-0.007269703227894314 0.004808463097699778 0.0 0.00031380268967720615 0.0 0.0
-0.00573176138506207 0.003519647881114585 0.0 0.00025739471633698385 0.0 0.0
-0.004575777511126444 0.0026123060066725046 0.0 0.00022243122412834992 0.0 0.0
-0.003653344728119607 0.0019402252499300388 0.0 0.00020058347408495603 0.0 0.0
-0.002854776009543142 0.0013784426034120223 0.0 0.00017153091502464246 0.0 0.0
-0.002113458961574755 0.0009354246791287713 0.0 0.00019576403428617217 0.0 0.0
-0.0015639572400146552 0.0006581327805909865 0.0 0.00024602199448596485 0.0 0.0
-0.0009590803554985201 0.00041370555464698144 0.0 0.0002678335418942329 0.0 0.0
-0.00038341047864109013 0.00016884515144925671 0.0 0.0002207164777741355 0.0 0.0
-6.474906824806238e-05 3.5732342072899645e-05 0.0 1.2924979727158004e-05 0.0 0.0
SCALARS Statev float 8
LOOKUP_TABLE default
0.0 0.003656606410630299 0.002620814351649023 -0.002940892635260486 0.0003200782836114643 -0.00127500586709243 0.0 0.0
0.0 7.03521228006571e-05 -5.301323393734107e-06 2.5342958104861985e-06 2.7670275832479885e-06 -8.82734449093015e-06 0.0 0.0
0.0 3.342380937747103e-05 -4.754075056013673e-06 3.773145031487882e-06 9.80930024525693e-07 5.620332136169097e-07 0.0 0.0
0.0 5.964197818941148e-05 -8.875124403010095e-06 6.7718641644531875e-06 2.1032602385566872e-06 1.0945643523731552e-06 0.0 0.0
0.0 0.00025766986808707307 6.066337684381348e-05 -4.733296900640653e-05 -1.3330407837407019e-05 -1.2423973040024224e-05 0.0 0.0
0.0 0.0005708110991863077 0.0005316106962684249 -0.0004152649029290782 -0.00011634579333934662 -4.68908592392432e-05 0.0 0.0
0.0 0.001195012701872915 0.0011113746064260284 -0.0008845229773931985 -0.00022685162903282979 -7.905986450347651e-05 0.0 0.0
0.0 0.0020173744150573628 0.0018640915334232433 -0.0015159913655897542 -0.00034810016783348914 -0.00010868748379569579 0.0 0.0
0.0 0.0031378791017139408 0.0028629154166838343 -0.0023893357449237887 -0.00047357967176004485 -0.000148501804832881 0.0 0.0
0.0 0.004721039832990214 0.00424142922057082 -0.0036433966710417245 -0.0005980325495290948 -0.0002050769466329576 0.0 0.0
0.0 0.007085814361152626 0.00625062699077 -0.005537767641287001 -0.0007128593494829988 -0.00027519031006843894 0.0 0.0
0.0 0.010392212344553328 0.00927350441064084 -0.008459147385278283 -0.0008143570253625533 -0.00039291428474529436 0.0 0.0
0.0 0.015359413108141269 0.01366546880461986 -0.01276472341717317 -0.0009007453874466862 -0.0005678976823455381 0.0 0.0
0.0 0.02228974080896533 0.019694293165428006 -0.018712751476676035 -0.000981541688751981 -0.0007980413493317295 0.0 0.0
0.0 0.031166240112986132 0.027403330332903347 -0.026337500474513543 -0.0010658298583898006 -0.001097523946239152 0.0 0.0
0.0 0.04163280605682725 0.036453933740818185 -0.035296234375591824 -0.0011576993652263627 -0.0014291388738799276 0.0 0.0
0.0 0.05276881004880161 0.04607592524759754 -0.044821071375788765 -0.001254853871808775 -0.0016702377331311092 0.0 0.0
0.0 0.06326966899765826 0.05515393615020782 -0.053805676523188455 -0.001348259627019358 -0.0016227121007641467 0.0 0.0
0.0 0.07170159641938516 0.06244772772127654 -0.06102047706798808 -0.0014272506532884569 -0.0012062240887299024 0.0 0.0
0.0 0.07646657480676415 0.066704222709209 -0.06520808363272443 -0.0014961390764845438 -0.0008074881261760231 0.0 0.0
0.0 0.07646657480676362 0.06670422270920844 -0.06520808363272405 -0.0014961390764843907 0.0008074881261773297 0.0 0.0
0.0 0.07170159641938276 0.06244772772127433 -0.061020477067986204 -0.0014272506532881256 0.0012062240887364812 0.0 0.0
0.0 0.06326966899765414 0.05515393615020401 -0.05380567652318516 -0.0013482596270188141 0.0016227121007675181 0.0 0.0
0.0 0.05276881004879695 0.04607592524759308 -0.044821071375785095 -0.0012548538718079793 0.0016702377331333392 0.0 0.0
0.0 0.04163280605682297 0.03645393374081406 -0.03529623437558847 -0.0011576993652255916 0.001429138873878263 0.0 0.0
0.0 0.031166240112981167 0.02740333033289875 -0.026337500474509553 -0.0010658298583891973 0.001097523946239496 0.0 0.0
0.0 0.022289740808958576 0.01969429316542186 -0.018712751476670564 -0.0009815416887512909 0.0007980413493318115 0.0 0.0
0.0 0.015359413108133699 0.01366546880461299 -0.012764723417167036 -0.0009007453874459499 0.0005678976823453737 0.0 0.0
0.0 0.01039221234454597 0.009273504410634043 -0.008459147385272307 -0.0008143570253617333 0.0003929142847447828 0.0 0.0
0.0 0.0070858143611455355 0.006250626990763231 -0.005537767641281009 -0.0007128593494822208 0.00027519031006810566 0.0 0.0
0.0 0.004721039832983559 0.004241429220564682 -0.0036433966710363573 -0.0005980325495283228 0.0002050769466322039 0.0 0.0
0.0 0.0031378791017089348 0.0028629154166786705 -0.0023893357449194124 -0.0004735796717592582 0.00014850180483293114 0.0 0.0
0.0 0.0020173744150527983 0.00186409153341829 -0.0015159913655856437 -0.0003481001678326456 0.00010868748379521366 0.0 0.0
0.0 0.001195012701869788 0.0011113746064223711 -0.0008845229773902843 -0.00022685162903208678 7.90598645033326e-05 0.0 0.0
0.0 0.0005708110991840711 0.0005316106962657204 -0.0004152649029269476 -0.00011634579333877268 4.689085923902816e-05 0.0 0.0
0.0 0.00025766986808543527 6.06633768428717e-05 -4.733296900567094e-05 -1.3330407837201005e-05 1.242397303991041e-05 0.0 0.0
0.0 5.964197818879073e-05 -8.875124402918782e-06 6.771864164384042e-06 2.103260238534788e-06 -1.0945643523608391e-06 0.0 0.0
0.0 3.342380937689642e-05 -4.754075055925718e-06 3.7731450314176655e-06 9.80930024508012e-07 -5.620332136036602e-07 0.0 0.0
0.0 7.035212280002257e-05 -5.3013233937791585e-06 2.5342958105088486e-06 2.767027583270543e-06 8.827344491008602e-06 0.0 0.0
0.0 0.003656606410625959 0.0026208143516461896 -0.0029408926352568285 0.00032007828361063824 0.001275005867086515 0.0 0.0
0.0 0.0023092154396826114 0.0015622220404539811 -0.0018818076911267091 0.0003195856506727279 -0.00136788547323841 0.0 0.0
0.0 0.0 0.0 0.0 0.0 0.0 0.0 0.0
0.0 0.0 0.0 0.0 0.0 0.0 0.0 0.0
0.0 2.818381018083203e-05 -3.89524483617999e-06 2.9799769798284316e-06 9.152678563517335e-07 1.0878372165257407e-06 0.0 0.0
0.0 0.00015109665757204806 -1.717798253223242e-05 1.3115227053854917e-05 4.062755478377389e-06 4.829022996962749e-06 0.0 0.0
0.0 0.000342735094759535 0.0003215298312346455 -0.0002497934931768099 -7.173633805783558e-05 -8.089525471302647e-05 0.0 0.0
0.0 0.0008686292189833937 0.000804617801594559 -0.000634605316108265 -0.00017001248548629384 -0.00016398500730559998 0.0 0.0
0.0 0.0015694344139962546 0.0014471601124828243 -0.0011633459090625723 -0.00028381420342025207 -0.00024073510260712105 0.0 0.0
0.0 0.0025130247512480156 0.0023047107247488536 -0.0018986463406214502 -0.0004060643841274034 -0.0003267347095430577 0.0 0.0
0.0 0.003848829559616972 0.003493172628649653 -0.0029622097453593237 -0.0005309628832903286 -0.00044215621323158324 0.0 0.0
0.0 0.005835931907509639 0.005227496994793221 -0.00457654853354272 -0.000650948461250499 -0.0006015327682322385 0.0 0.0
0.0 0.00890668388171224 0.007837509951818792 -0.007079756240405174 -0.0007577537114136172 -0.0008338796329107907 0.0 0.0
0.0 0.013214919824393538 0.01170986892360318 -0.010862426213229033 -0.0008474427103741484 -0.001216951313370317 0.0 0.0
0.0 0.019363164061618927 0.017111550915885943 -0.016184083882445202 -0.0009274670334407391 -0.001775248534949306 0.0 0.0
0.0 0.02738915766888998 0.02407989658449115 -0.02307143856165742 -0.0010084580228337198 -0.002476856076521718 0.0 0.0
0.0 0.03686065282300202 0.032302664493182094 -0.031208505155568396 -0.0010941593376137015 -0.003241877313105688 0.0 0.0
0.0 0.04698126298413869 0.04107705869558701 -0.03989460410801816 -0.0011824545875688357 -0.003791675074645956 0.0 0.0
0.0 0.056610536238530365 0.04940931484136773 -0.04814184685467827 -0.0012674679866894625 -0.0037403686574506885 0.0 0.0
0.0 0.06438581522109352 0.056145405705597465 -0.05479955496945853 -0.001345850736138943 -0.0029496632357105916 0.0 0.0
0.0 0.06890758559661661 0.06007058448203771 -0.058669955290230315 -0.0014006291918073905 -0.0015570196300233859 0.0 0.0
0.0 0.06890758559661692 0.060070584482037864 -0.05866995529023064 -0.0014006291918072077 0.001557019630031084 0.0 0.0
0.0 0.06438581522109166 0.0561454057055956 -0.05479955496945687 -0.001345850736138709 0.002949663235722943 0.0 0.0
0.0 0.056610536238527444 0.04940931484136481 -0.04814184685467584 -0.001267467986688974 0.0037403686574589536 0.0 0.0
0.0 0.04698126298413573 0.04107705869558394 -0.03989460410801586 -0.0011824545875680846 0.0037916750746503376 0.0 0.0
0.0 0.0368606528229994 0.03230266449317949 -0.031208505155566585 -0.001094159337612901 0.0032418773131047502 0.0 0.0
0.0 0.027389157668885323 0.024079896584486796 -0.023071438561653695 -0.0010084580228330836 0.0024768560765224064 0.0 0.0
0.0 0.01936316406161302 0.01711155091588051 -0.016184083882440463 -0.0009274670334400414 0.001775248534949586 0.0 0.0
0.0 0.013214919824387394 0.011709868923597534 -0.01086242621322398 -0.0008474427103735504 0.0012169513133706155 0.0 0.0
0.0 0.008906683881705879 0.007837509951812621 -0.007079756240399768 -0.0007577537114128521 0.0008338796329102986 0.0 0.0
0.0 0.005835931907503398 0.005227496994787297 -0.004576548533537572 -0.0006509484612497229 0.0006015327682316209 0.0 0.0
0.0 0.003848829559612042 0.003493172628644606 -0.002962209745355115 -0.0005309628832894904 0.00044215621323060686 0.0 0.0
0.0 0.0025130247512440405 0.0023047107247444296 -0.0018986463406177965 -0.0004060643841266332 0.0003267347095428306 0.0 0.0
0.0 0.0015694344139919561 0.001447160112478375 -0.0011633459090588764 -0.0002838142034194983 0.00024073510260639994 0.0 0.0
0.0 0.0008686292189801456 0.0008046178015907598 -0.0006346053161051679 -0.00017001248548559184 0.00016398500730495193 0.0 0.0
0.0 0.00034273509475755536 0.0003215298312326494 -0.00024979349317523665 -7.173633805741272e-05 8.08952547125009e-05 0.0 0.0
0.0 0.00015109665757094987 -1.717798253222094e-05 1.3115227053845237e-05 4.06275547837572e-06 -4.829022996971226e-06 0.0 0.0
0.0 2.8183810180206067e-05 -3.895244836085688e-06 2.979976979756023e-06 9.152678563296789e-07 -1.0878372164973423e-06 0.0 0.0
0.0 0.0 0.0 0.0 0.0 0.0 0.0 0.0
0.0 0.0 0.0 0.0 0.0 0.0 0.0 0.0
0.0 0.0023092154396771344 0.0015622220404505121 -0.0018818076911224924 0.0003195856506719799 0.0013678854732327953 0.0 0.0
0.0 0.0015517145862925497 0.0009753739444324739 -0.0012416569035306885 0.00026628295909821454 -0.0010894454800734266 0.0 0.0
0.0 0.0 0.0 0.0 0.0 0.0 0.0 0.0
0.0 0.0 0.0 0.0 0.0 0.0 0.0 0.0
0.0 1.1627195715576732e-06 -1.2772526252784426e-07 9.774292968773454e-08 2.998233284011353e-08 8.828204471254439e-08 0.0 0.0
0.0 6.980170519968023e-05 -9.923055304925273e-06 7.594641587451511e-06 2.328413717473512e-06 5.450096546984325e-06 0.0 0.0
0.0 0.0002646159576013918 8.51443314532909e-05 -6.623476940699398e-05 -1.8909562046297214e-05 -4.48460872398966e-05 0.0 0.0
0.0 0.0005722152189327831 0.000522911640618894 -0.00040885926656137635 -0.00011405237405751767 -0.00019132372790053656 0.0 0.0
0.0 0.0011526673277049528 0.0010593289700944163 -0.0008425638938030805 -0.00021676507629133564 -0.00031708926844563795 0.0 0.0
0.0 0.0019425936401898927 0.0017744922184382724 -0.0014418637165200718 -0.0003326285019182002 -0.0004420719503403348 0.0 0.0
0.0 0.003056088034611026 0.002776426864315114 -0.0023198524860164205 -0.0004565743782986937 -0.0006031912930522921 0.0 0.0
0.0 0.004743054834259516 0.004244568016063992 -0.003664707231169257 -0.0005798607848947336 -0.0008310014611672117 0.0 0.0
0.0 0.007263527401672647 0.006472565855988684 -0.005778651261569655 -0.0006939145944190281 -0.0011681982708067703 0.0 0.0
0.0 0.01119326158043634 0.009808250498232036 -0.00901875473319459 -0.0007894957650374453 -0.0016848749700128219 0.0 0.0
0.0 0.016544281931542535 0.014555253651041645 -0.01368359640609638 -0.0008716572449452637 -0.0024781136402211106 0.0 0.0
0.0 0.023635944638622584 0.02075128276025152 -0.019802001743495282 -0.000949281016756239 -0.0035203195129609208 0.0 0.0
0.0 0.032130482193158706 0.028110822839589544 -0.02708222811320548 -0.0010285947263840576 -0.004620236160099559 0.0 0.0
0.0 0.04124473492076594 0.036022020307681965 -0.03491437268935968 -0.0011076476183223014 -0.0054117084177190975 0.0 0.0
0.0 0.04995929850086765 0.04361495625860527 -0.0424289685092302 -0.0011859877493750723 -0.0054170318194662085 0.0 0.0
0.0 0.05707194952291833 0.04982751779074222 -0.048569340857004574 -0.0012581769337376434 -0.004338270786938073 0.0 0.0
0.0 0.06129826343251368 0.05353308167545029 -0.0522254326299116 -0.0013076490455386691 -0.0021544408606191754 0.0 0.0
0.0 0.06129826343251284 0.05353308167544934 -0.05222543262991079 -0.001307649045538571 0.0021544408606306636 0.0 0.0
0.0 0.057071949522916034 0.04982751779073992 -0.048569340857002194 -0.0012581769337377073 0.004338270786954212 0.0 0.0
0.0 0.04995929850086545 0.04361495625860293 -0.0424289685092281 -0.0011859877493748193 0.005417031819477265 0.0 0.0
0.0 0.041244734920764234 0.03602202030767998 -0.03491437268935829 -0.001107647618321689 0.005411708417725675 0.0 0.0
0.0 0.032130482193155806 0.028110822839586734 -0.02708222811320327 -0.0010285947263834621 0.004620236160099628 0.0 0.0
0.0 0.0236359446386184 0.02075128276024764 -0.019802001743491983 -0.0009492810167556533 0.00352031951296127 0.0 0.0
0.0 0.016544281931537567 0.014555253651037013 -0.013683596406092331 -0.0008716572449446776 0.0024781136402215265 0.0 0.0
0.0 0.011193261580430908 0.009808250498226874 -0.009018754733189976 -0.0007894957650368956 0.0016848749700128381 0.0 0.0
0.0 0.007263527401666658 0.0064725658559831225 -0.005778651261564759 -0.0006939145944183622 0.001168198270805581 0.0 0.0
0.0 0.004743054834254167 0.004244568016058502 -0.003664707231164431 -0.0005798607848940697 0.0008310014611660646 0.0 0.0
0.0 0.0030560880346061333 0.0027764268643100005 -0.0023198524860119658 -0.00045657437829803435 0.000603191293050777 0.0 0.0
0.0 0.0019425936401857944 0.001774492218434068 -0.0014418637165165443 -0.000332628501917523 0.00044207195033954126 0.0 0.0
0.0 0.0011526673277018665 0.0010593289700910544 -0.0008425638938003484 -0.0002167650762907057 0.00031708926844463664 0.0 0.0
0.0 0.0005722152189300818 0.0005229116406161162 -0.00040885926655916013 -0.00011405237405695589 0.00019132372789968088 0.0 0.0
0.0 0.000264615957599374 8.514433145203121e-05 -6.623476940601034e-05 -1.890956204602074e-05 4.4846087239295036e-05 0.0 0.0
0.0 6.980170519877595e-05 -9.923055304797832e-06 7.5946415873546394e-06 2.3284137174430674e-06 -5.450096546918415e-06 0.0 0.0
0.0 1.162719571399771e-06 -1.2772526250956931e-07 9.77429296737514e-08 2.998233283582156e-08 -8.828204469981179e-08 0.0 0.0
0.0 0.0 0.0 0.0 0.0 0.0 0.0 0.0
0.0 0.0 0.0 0.0 0.0 0.0 0.0 0.0
0.0 0.0015517145862881418 0.0009753739444293258 -0.0012416569035268075 0.000266282959097482 0.0010894454800683558 0.0 0.0
0.0 0.0010195532383336103 0.0005921699172919978 -0.0007895206936118777 0.00019735077631987958 -0.0007350439809517786 0.0 0.0
0.0 0.0 0.0 0.0 0.0 0.0 0.0 0.0
0.0 0.0 0.0 0.0 0.0 0.0 0.0 0.0
0.0 0.0 0.0 0.0 0.0 0.0 0.0 0.0
0.0 2.7638211198284205e-05 -3.564861546001913e-06 2.762868455394553e-06 8.019930906074875e-07 3.4001021792351527e-06 0.0 0.0
0.0 0.00013316267363242015 -7.508374928663723e-06 5.725795814042111e-06 1.7825791146217903e-06 5.052278462079306e-06 0.0 0.0
0.0 0.00034839378176722464 0.0002613842210607951 -0.00020321129706330255 -5.817292399749259e-05 -0.00015480643608824557 0.0 0.0
0.0 0.0007800515115419287 0.0007054949532409283 -0.0005554683917237339 -0.0001500265615171944 -0.00033052296321213167 0.0 0.0
0.0 0.001415027333193336 0.001280417198346428 -0.0010262798177122574 -0.0002541373806341704 -0.0004936212820603764 0.0 0.0
0.0 0.0023116164056675662 0.0021000124246724925 -0.0017268115453963212 -0.0003732008792761709 -0.00069054724106324 0.0 0.0
0.0 0.0036858165327120357 0.003311090287659653 -0.0028124124615204835 -0.000498677826139169 -0.0009625362156668402 0.0 0.0
0.0 0.005820712169547677 0.005162461163662941 -0.004542083137621809 -0.0006203780260411328 -0.0013697510581776257 0.0 0.0
0.0 0.009076297822154064 0.007980494657035195 -0.007256247759716705 -0.00072424689731849 -0.0020047544241025873 0.0 0.0
0.0 0.013822116183023918 0.012048936261297365 -0.011237184844903476 -0.0008117514163938828 -0.002940761881245429 0.0 0.0
0.0 0.020093618719184084 0.01743365512894482 -0.016545353208575492 -0.0008883019203693257 -0.004181444078207125 0.0 0.0
0.0 0.027397619723869872 0.023901695210455865 -0.02294107193200833 -0.0009606232784475308 -0.005537258850341488 0.0 0.0
0.0 0.035500641216588254 0.030924740454091257 -0.029893389925267966 -0.0010313505288232956 -0.006532403333184832 0.0 0.0
0.0 0.04334045739781173 0.03776306929418551 -0.03666157686920902 -0.001101492424976487 -0.006619184695577315 0.0 0.0
0.0 0.04984304066728845 0.04348392193966903 -0.0423162695422161 -0.00116765239745292 -0.005378774430238099 0.0 0.0
0.0 0.05383673198329581 0.047034639311288345 -0.04581975158078764 -0.0012148877305007144 -0.0026426558787601383 0.0 0.0
0.0 0.05383673198329456 0.04703463931128703 -0.045819751580786355 -0.001214887730500668 0.002642655878774804 0.0 0.0
0.0 0.049843040667286974 0.04348392193966702 -0.04231626954221447 -0.0011676523974525456 0.00537877443025642 0.0 0.0
0.0 0.04334045739780966 0.037763069294183015 -0.036661576869206874 -0.0011014924249761414 0.006619184695589753 0.0 0.0
0.0 0.035500641216585666 0.03092474045408846 -0.02989338992526562 -0.00103135052882283 0.006532403333190769 0.0 0.0
0.0 0.02739761972386741 0.023901695210453402 -0.022941071932006535 -0.0009606232784468698 0.005537258850341604 0.0 0.0
0.0 0.020093618719181333 0.017433655128942186 -0.016545353208573296 -0.0008883019203688838 0.004181444078207242 0.0 0.0
0.0 0.013822116183019992 0.012048936261293674 -0.0112371848449002 -0.0008117514163934718 0.0029407618812454126 0.0 0.0
0.0 0.009076297822149386 0.007980494657030759 -0.007256247759712658 -0.0007242468973180985 0.002004754424102442 0.0 0.0
0.0 0.005820712169543639 0.005162461163658648 -0.004542083137618056 -0.0006203780260405905 0.0013697510581763919 0.0 0.0
0.0 0.003685816532708084 0.003311090287655422 -0.0028124124615169087 -0.000498677826138513 0.0009625362156656433 0.0 0.0
0.0 0.0023116164056638314 0.0021000124246686337 -0.001726811545393134 -0.0003732008792754994 0.0006905472410615539 0.0 0.0
0.0 0.0014150273331911328 0.0012804171983436309 -0.0010262798177099808 -0.00025413738063365 0.0004936212820595729 0.0 0.0
0.0 0.0007800515115393208 0.0007054949532381323 -0.000555468391721534 -0.0001500265615165982 0.0003305229632109528 0.0 0.0
0.0 0.0003483937817652749 0.00026138422105912405 -0.0002032112970620113 -5.817292399711276e-05 0.00015480643608733387 0.0 0.0
0.0 0.00013316267363125333 -7.508374928722783e-06 5.7257958140883165e-06 1.7825791146347427e-06 -5.0522784621445435e-06 0.0 0.0
0.0 2.7638211197612603e-05 -3.5648615459096207e-06 2.762868455324538e-06 8.019930905852197e-07 -3.400102179155974e-06 0.0 0.0
0.0 0.0 0.0 0.0 0.0 0.0 0.0 0.0
0.0 0.0 0.0 0.0 0.0 0.0 0.0 0.0
0.0 0.0 0.0 0.0 0.0 0.0 0.0 0.0
0.0 0.0010195532383294786 0.0005921699172895327 -0.0007895206936087766 0.00019735077631924408 0.0007350439809477104 0.0 0.0
0.0 0.0006302649686592483 0.00033107547541706743 -0.0004602880810005123 0.00012921260558344474 -0.0004220216236242813 0.0 0.0
0.0 0.0 0.0 0.0 0.0 0.0 0.0 0.0
0.0 0.0 0.0 0.0 0.0 0.0 0.0 0.0
0.0 0.0 0.0 0.0 0.0 0.0 0.0 0.0
0.0 1.2143276688027321e-05 -1.414772604235126e-06 1.0833367658665578e-06 3.314358383685867e-07 1.8758126077771184e-06 0.0 0.0
0.0 7.130447170046327e-05 -9.23146114457477e-06 7.045222987770578e-06 2.186238156804029e-06 9.308796989326585e-06 0.0 0.0
0.0 0.00023779747006802572 4.0824766058394034e-05 -3.172502806354842e-05 -9.099737994845616e-06 -3.84503598985462e-05 0.0 0.0
0.0 0.00048637352562916813 0.0003688762620575839 -0.00028754319743462455 -8.133306462295937e-05 -0.00025949711421816224 0.0 0.0
0.0 0.000942852537181998 0.0008336431599341621 -0.00065990678042175 -0.0001737363795124118 -0.00047507507940096414 0.0 0.0
0.0 0.0016378252156859611 0.0014704611496344751 -0.0011885447104789074 -0.0002819164391555674 -0.0006983882290887154 0.0 0.0
0.0 0.002723158235912151 0.002430054557185581 -0.0020251747507814247 -0.0004048798064041565 -0.0009994129903093253 0.0 0.0
0.0 0.00442687549384071 0.003920750964398524 -0.003388392695272725 -0.0005323582691257986 -0.0014461874566903444 0.0 0.0
0.0 0.0071518698725731335 0.006223985307946981 -0.005575457646791238 -0.0006485276611557409 -0.0021282351685973045 0.0 0.0
0.0 0.011022905925771424 0.009615045179637396 -0.008870948268585116 -0.0007440969110522797 -0.0031657921167297914 0.0 0.0
0.0 0.016351165905996484 0.014167814544962246 -0.013346040903939994 -0.0008217736410222507 -0.00452699463436996 0.0 0.0
0.0 0.02289536599241456 0.01970042692960239 -0.018809607501552437 -0.0008908194280499465 -0.005978838819936333 0.0 0.0
0.0 0.029796917462896685 0.025796506793935893 -0.024843510873590845 -0.0009529959203450373 -0.007108731054582586 0.0 0.0
0.0 0.036669425044867296 0.03185344160513251 -0.030839506812568238 -0.0010139347925642698 -0.00733320657283878 0.0 0.0
0.0 0.04259179038972159 0.037092173704786666 -0.03601808019648828 -0.0010740935082983766 -0.006083810407683807 0.0 0.0
0.0 0.04641533195267486 0.0405294335942815 -0.039408714850001664 -0.001120718744279815 -0.0030370711831933734 0.0 0.0
0.0 0.04641533195267217 0.040529433594278984 -0.03940871484999895 -0.0011207187442800219 0.003037071183207739 0.0 0.0
0.0 0.04259179038971818 0.03709217370478312 -0.036018080196484496 -0.0010740935082986258 0.00608381040770069 0.0 0.0
0.0 0.036669425044866075 0.03185344160513061 -0.030839506812566538 -0.001013934792564067 0.007333206572851813 0.0 0.0
0.0 0.0297969174628955 0.025796506793934273 -0.024843510873589693 -0.0009529959203445729 0.007108731054588567 0.0 0.0
0.0 0.022895365992412584 0.019700426929600355 -0.018809607501550894 -0.000890819428049465 0.005978838819936928 0.0 0.0
0.0 0.016351165905993045 0.01416781454495901 -0.013346040903937156 -0.0008217736410218517 0.004526994634369756 0.0 0.0
0.0 0.011022905925768541 0.009615045179634588 -0.00887094826858268 -0.0007440969110519078 0.003165792116729766 0.0 0.0
0.0 0.0071518698725699815 0.006223985307943655 -0.005575457646788361 -0.0006485276611552931 0.0021282351685968978 0.0 0.0
0.0 0.004426875493836706 0.003920750964394469 -0.003388392695269293 -0.0005323582691251754 0.0014461874566889642 0.0 0.0
0.0 0.0027231582359080035 0.0024300545571815536 -0.0020251747507780077 -0.00040487980640354477 0.000999412990307516 0.0 0.0
0.0 0.0016378252156823356 0.0014704611496308897 -0.0011885447104759588 -0.00028191643915493085 0.0006983882290865584 0.0 0.0
0.0 0.0009428525371794683 0.0008336431599314388 -0.0006599067804195699 -0.00017373637951186865 0.00047507507939975136 0.0 0.0
0.0 0.0004863735256266632 0.00036887626205544513 -0.0002875431974329189 -8.133306462252616e-05 0.00025949711421690213 0.0 0.0
0.0 0.00023779747006631737 4.082476605767401e-05 -3.1725028062987154e-05 -9.099737994687151e-06 3.8450359897921936e-05 0.0 0.0
0.0 7.130447169951005e-05 -9.231461144458131e-06 7.045222987681699e-06 2.186238156776643e-06 -9.30879698921046e-06 0.0 0.0
0.0 1.2143276687644073e-05 -1.414772604191538e-06 1.08333676583293e-06 3.314358383585568e-07 -1.875812607715943e-06 0.0 0.0
0.0 0.0 0.0 0.0 0.0 0.0 0.0 0.0
0.0 0.0 0.0 0.0 0.0 0.0 0.0 0.0
0.0 0.0 0.0 0.0 0.0 0.0 0.0 0.0
0.0 0.000630264968656255 0.0003310754754154681 -0.0004602880809984118 0.0001292126055829436 0.0004220216236218335 0.0 0.0
0.0 0.00034631692492762526 0.0001649223908819907 -0.00023685218377275633 7.192979289076559e-05 -0.0002135542660224565 0.0 0.0
0.0 0.0 0.0 0.0 0.0 0.0 0.0 0.0
0.0 0.0 0.0 0.0 0.0 0.0 0.0 0.0
0.0 0.0 0.0 0.0 0.0 0.0 0.0 0.0
0.0 6.699607686562181e-06 -6.518210525829018e-07 4.966551432689409e-07 1.5516590931393806e-07 1.1869872192739416e-06 0.0 0.0
0.0 1.6316459687573774e-05 -9.138255552435974e-07 6.585740694758859e-07 2.5525148576775024e-07 1.0105458101778969e-06 0.0 0.0
0.0 9.574630982851198e-05 -2.155702240815233e-06 1.7446279090974534e-06 4.1107433171792514e-07 3.1925468596758643e-06 0.0 0.0
0.0 0.00026525919426651775 0.00010908308877955551 -8.456279060616477e-05 -2.4520298173390847e-05 -0.00012001269403174926 0.0 0.0
0.0 0.0005665045479722461 0.0004247102416660609 -0.0003320139896316015 -9.269625203445949e-05 -0.00035886048446795535 0.0 0.0
0.0 0.0010508467395629287 0.0009041116547821753 -0.0007186720666772328 -0.0001854395881049424 -0.0006220353981372267 0.0 0.0
0.0 0.0018371997707899864 0.0016169658343338745 -0.0013191078246058512 -0.000297858009728023 -0.0009331158823815718 0.0 0.0
0.0 0.003150113810911195 0.0027547935422846644 -0.002328425399284839 -0.000426368142999825 -0.0013886700959972337 0.0 0.0
0.0 0.005254762067173285 0.004558778809191455 -0.004004227540173065 -0.0005545512690183897 -0.0020876876938050433 0.0 0.0
0.0 0.008438429646944643 0.007263671114589674 -0.006599512590837132 -0.0006641585237525442 -0.00312381687515021 0.0 0.0
0.0 0.012850140466600412 0.010967435595290051 -0.010219284351316872 -0.0007481512439731755 -0.004504640220107154 0.0 0.0
0.0 0.01807207038666675 0.015550478315171519 -0.01473540775439128 -0.0008150705607802368 -0.006009966650269633 0.0 0.0
0.0 0.024104487923924382 0.020667665219497044 -0.01979593257964199 -0.0008717326398550646 -0.007171203212427088 0.0 0.0
0.0 0.030112733666577487 0.025886383463063933 -0.024962820039437582 -0.000923563423626356 -0.007498617437718419 0.0 0.0
0.0 0.03526954329133161 0.030623841766290318 -0.029647282773503397 -0.0009765589927869119 -0.00641198645461704 0.0 0.0
0.0 0.038951455711013376 0.033972381838136834 -0.032948870897207376 -0.0010235109409294533 -0.003335175080411757 0.0 0.0
0.0 0.03895145571101189 0.03397238183813523 -0.03294887089720571 -0.0010235109409295231 0.003335175080425209 0.0 0.0
0.0 0.03526954329132946 0.030623841766287595 -0.02964728277350072 -0.0009765589927868642 0.006411986454633265 0.0 0.0
0.0 0.030112733666574684 0.025886383463060672 -0.024962820039434334 -0.00092356342362633 0.007498617437729688 0.0 0.0
0.0 0.024104487923921687 0.0206676652194943 -0.019795932579639203 -0.000871732639855091 0.007171203212431983 0.0 0.0
0.0 0.018072070386663953 0.015550478315168946 -0.01473540775438889 -0.0008150705607800517 0.0060099666502694896 0.0 0.0
0.0 0.012850140466598315 0.01096743559528797 -0.010219284351315121 -0.0007481512439728468 0.004504640220106854 0.0 0.0
0.0 0.008438429646941713 0.007263671114586817 -0.00659951259083459 -0.0006641585237522255 0.003123816875149612 0.0 0.0
0.0 0.0052547620671701285 0.004558778809188399 -0.0040042275401704 -0.0005545512690180007 0.0020876876938043724 0.0 0.0
0.0 0.00315011381090782 0.002754793542281465 -0.0023284253992820543 -0.00042636814299941005 0.0013886700959958706 0.0 0.0
0.0 0.0018371997707870191 0.001616965834331051 -0.0013191078246035232 -0.0002978580097275268 0.0009331158823799772 0.0 0.0
0.0 0.0010508467395603522 0.0009041116547798063 -0.0007186720666753654 -0.00018543958810444071 0.0006220353981351966 0.0 0.0
0.0 0.0005665045479705591 0.00042471024166453107 -0.00033201398963045867 -9.269625203407218e-05 0.00035886048446682746 0.0 0.0
0.0 0.00026525919426555053 0.00010908308877889774 -8.456279060567168e-05 -2.452029817322626e-05 0.0001200126940311109 0.0 0.0
0.0 9.574630982776449e-05 -2.155702240921163e-06 1.7446279091799717e-06 4.110743317412338e-07 -3.192546859838106e-06 0.0 0.0
0.0 1.6316459687008532e-05 -9.138255550470709e-07 6.585740693228861e-07 2.552514857242215e-07 -1.0105458098582828e-06 0.0 0.0
0.0 6.699607686332886e-06 -6.518210525580143e-07 4.966551432499004e-07 1.551659093080298e-07 -1.1869872192278478e-06 0.0 0.0
0.0 0.0 0.0 0.0 0.0 0.0 0.0 0.0
0.0 0.0 0.0 0.0 0.0 0.0 0.0 0.0
0.0 0.0 0.0 0.0 0.0 0.0 0.0 0.0
0.0 0.0003463169249254464 0.00016492239088095327 -0.0002368521837713147 7.19297928903614e-05 0.0002135542660209316 0.0 0.0
0.0 0.00016608061593047596 5.126417111182861e-05 -7.397473849060998e-05 2.271056737878176e-05 -7.153024428739987e-05 0.0 0.0
0.0 0.0 0.0 0.0 0.0 0.0 0.0 0.0
0.0 0.0 0.0 0.0 0.0 0.0 0.0 0.0
0.0 0.0 0.0 0.0 0.0 0.0 0.0 0.0
0.0 0.0 0.0 0.0 0.0 0.0 0.0 0.0
0.0 2.658242930864141e-05 -2.457380404714994e-06 1.8939807852861015e-06 5.63399619428864e-07 5.6578118203109945e-06 0.0 0.0
0.0 4.094223185599851e-05 -4.3307038474771125e-06 3.3105806673534384e-06 1.0201231801236535e-06 7.687129191627302e-06 0.0 0.0
0.0 0.00012318550171120372 1.5642217483624233e-05 -1.1919523109497604e-05 -3.7226943741266802e-06 -2.2567516467322464e-05 0.0 0.0
0.0 0.00027987571356774516 0.00012284417665027353 -9.528668173465306e-05 -2.7557494915620307e-05 -0.00016653714348529805 0.0 0.0
0.0 0.0005646498837181071 0.00041554758794314534 -0.0003250767593456156 -9.047082859752975e-05 -0.00043684676513236037 0.0 0.0
0.0 0.0010782750716953125 0.0008966830099287764 -0.0007155765441388139 -0.00018110646578996223 -0.0007630130654122228 0.0 0.0
0.0 0.001988791369234969 0.0016879637151257915 -0.0013889088222713611 -0.0002990548928544295 -0.0012016975537225414 0.0 0.0
0.0 0.0035438445240433985 0.00299716138223677 -0.0025641646310144415 -0.000432996751222328 -0.0018644502598718752 0.0 0.0
0.0 0.005920122853593119 0.005028501194267674 -0.004468715749063891 -0.0005597854452037814 -0.0028472743127427157 0.0 0.0
0.0 0.009308544458756327 0.007872676830516753 -0.007215272737114127 -0.0006574040934026251 -0.004145090535936794 0.0 0.0
0.0 0.013567059726131852 0.011467584575515753 -0.010737447132789606 -0.0007301374427261449 -0.005568227493690003 0.0 0.0
0.0 0.018307618007553865 0.015573372675391746 -0.014789265114333188 -0.0007841075610585616 -0.0067327314651423305 0.0 0.0
0.0 0.02324548364009591 0.019891718693382954 -0.019063236647140887 -0.0008284820462420679 -0.00716591994436068 0.0 0.0
0.0 0.02799468632339611 0.02405394928628095 -0.023180656159917296 -0.000873293126363649 -0.006342261561779495 0.0 0.0
0.0 0.03160243503296163 0.02731132448532506 -0.026389814777819636 -0.0009215097075054214 -0.0035202859543222035 0.0 0.0
0.0 0.031602435032960674 0.027311324485323984 -0.02638981477781853 -0.0009215097075054446 0.0035202859543332914 0.0 0.0
0.0 0.027994686323395773 0.024053949286279755 -0.023180656159916258 -0.0008732931263634981 0.0063422615617935675 0.0 0.0
0.0 0.023245483640095606 0.019891718693381768 -0.01906323664714002 -0.0008284820462417464 0.0071659199443701894 0.0 0.0
0.0 0.018307618007553435 0.01557337267539074 -0.014789265114332525 -0.0007841075610582097 0.006732731465146712 0.0 0.0
0.0 0.013567059726130403 0.011467584575514417 -0.010737447132788517 -0.0007301374427258966 0.005568227493689811 0.0 0.0
0.0 0.009308544458754852 0.00787267683051525 -0.007215272737112904 -0.0006574040934023449 0.00414509053593674 0.0 0.0
0.0 0.005920122853591324 0.005028501194265875 -0.0044687157490623745 -0.0005597854452034996 0.002847274312742059 0.0 0.0
0.0 0.0035438445240413277 0.0029971613822347702 -0.002564164631012713 -0.00043299675122205694 0.001864450259871261 0.0 0.0
0.0 0.001988791369232994 0.0016879637151237861 -0.0013889088222697496 -0.0002990548928540363 0.0012016975537212636 0.0 0.0
0.0 0.0010782750716931632 0.000896683009926728 -0.0007155765441371816 -0.0001811064657895461 0.0007630130654107273 0.0 0.0
0.0 0.0005646498837160683 0.00041554758794141577 -0.00032507675934425977 -9.047082859715597e-05 0.0004368467651304207 0.0 0.0
0.0 0.0002798757135665206 0.00012284417664944252 -9.528668173401284e-05 -2.7557494915429698e-05 0.0001665371434844103 0.0 0.0
0.0 0.00012318550171043743 1.5642217483590287e-05 -1.1919523109470978e-05 -3.7226943741191827e-06 2.2567516467166e-05 0.0 0.0
0.0 4.0942231855463324e-05 -4.330703847417839e-06 3.3105806673074556e-06 1.0201231801104935e-06 -7.687129191521507e-06 0.0 0.0
0.0 2.6582429308295138e-05 -2.4573804046819166e-06 1.8939807852611378e-06 5.633996194208481e-07 -5.657811820230416e-06 0.0 0.0
0.0 0.0 0.0 0.0 0.0 0.0 0.0 0.0
0.0 0.0 0.0 0.0 0.0 0.0 0.0 0.0
0.0 0.0 0.0 0.0 0.0 0.0 0.0 0.0
0.0 0.0 0.0 0.0 0.0 0.0 0.0 0.0
0.0 0.0001660806159289383 5.126417111140564e-05 -7.397473848998262e-05 2.271056737857718e-05 7.153024428688666e-05 0.0 0.0
0.0 7.116076683843821e-05 -5.335268398968677e-06 7.749097024045175e-06 -2.413828625076374e-06 8.9018879240043e-06 0.0 0.0
0.0 0.0 0.0 0.0 0.0 0.0 0.0 0.0
0.0 0.0 0.0 0.0 0.0 0.0 0.0 0.0
0.0 0.0 0.0 0.0 0.0 0.0 0.0 0.0
0.0 0.0 0.0 0.0 0.0 0.0 0.0 0.0
0.0 1.7011890293375043e-05 -1.0712005918851233e-06 8.42342080148463e-07 2.2885851173667705e-07 3.948518221257476e-06 0.0 0.0
0.0 2.3867645310678076e-05 -1.7002335598947892e-06 1.3618632707933999e-06 3.3837028910141575e-07 5.568160100010069e-06 0.0 0.0
0.0 4.659729183462187e-05 -1.777921703745292e-06 1.4217003719778522e-06 3.562213317672315e-07 5.342175620408488e-06 0.0 0.0
0.0 0.0001424822755936644 1.7012847219353906e-05 -1.3116374224884528e-05 -3.8964729944694315e-06 -3.5598479339650756e-05 0.0 0.0
0.0 0.00021308515644807337 0.00011627341818301258 -9.060973932622281e-05 -2.5663678856789587e-05 -0.00022286779350987005 0.0 0.0
0.0 0.0005181936671732331 0.0003142249873390422 -0.00024646639988145134 -6.775858745759079e-05 -0.0004655898170961363 0.0 0.0
0.0 0.0010149312150002868 0.000774114687918709 -0.000618705232509722 -0.0001554094554089871 -0.0008730479894462472 0.0 0.0
0.0 0.0019756359736346593 0.0015936710081539106 -0.001317273921792169 -0.00027639708636174117 -0.0014673647160625943 0.0 0.0
0.0 0.0036041946007175354 0.002946982035242093 -0.0025347614817036227 -0.0004122205535384709 -0.0023296224672329138 0.0 0.0
0.0 0.006037344567700767 0.004925037671611588 -0.004393174305367866 -0.000531863366243719 -0.0034557942768954123 0.0 0.0
0.0 0.009123883056238524 0.007505696919462723 -0.006886466776694565 -0.0006192301427681579 -0.004707728108102373 0.0 0.0
0.0 0.012763578821254059 0.01055037941336731 -0.009869675208226427 -0.0006807042051408814 -0.005756271255634062 0.0 0.0
0.0 0.016534259769765948 0.013897913531578402 -0.013172501392845303 -0.0007254121387330945 -0.006257685799874608 0.0 0.0
0.0 0.02036426858658009 0.017384075252025802 -0.016624690972571056 -0.00075938427945474 -0.00583279064355513 0.0 0.0
0.0 0.023739196686969978 0.020507802032622858 -0.019701084718272786 -0.000806717314350059 -0.003576781020545614 0.0 0.0
0.0 0.023739196686970214 0.020507802032622702 -0.019701084718272623 -0.0008067173143500744 0.003576781020553899 0.0 0.0
0.0 0.020364268586578974 0.01738407525202401 -0.016624690972569075 -0.0007593842794549344 0.005832790643565894 0.0 0.0
0.0 0.016534259769763728 0.013897913531575818 -0.013172501392842612 -0.0007254121387332041 0.006257685799881464 0.0 0.0
0.0 0.012763578821252501 0.010550379413365677 -0.009869675208224954 -0.0006807042051407196 0.005756271255635988 0.0 0.0
0.0 0.009123883056236907 0.007505696919461311 -0.006886466776693568 -0.0006192301427677418 0.0047077281081011925 0.0 0.0
0.0 0.0060373445676991325 0.004925037671610245 -0.004393174305366697 -0.0005318633662435479 0.0034557942768945133 0.0 0.0
0.0 0.003604194600716591 0.002946982035241095 -0.0025347614817028564 -0.0004122205535382383 0.0023296224672325764 0.0 0.0
0.0 0.0019756359736334715 0.0015936710081526978 -0.0013172739217911997 -0.0002763970863614984 0.0014673647160620496 0.0 0.0
0.0 0.0010149312149986256 0.0007741146879173832 -0.0006187052325086802 -0.0001554094554087031 0.0008730479894450866 0.0 0.0
0.0 0.0005181936671719127 0.00031422498733812694 -0.000246466399880746 -6.77585874573812e-05 0.00046558981709494306 0.0 0.0
0.0 0.00021308515644706988 0.00011627341818239132 -9.060973932576607e-05 -2.5663678856625412e-05 0.00022286779350877927 0.0 0.0
0.0 0.00014248227559319134 1.7012847219181196e-05 -1.3116374224747244e-05 -3.8964729944338485e-06 3.559847933927405e-05 0.0 0.0
0.0 4.659729183427231e-05 -1.7779217037568102e-06 1.4217003719866058e-06 3.562213317702199e-07 -5.34217562043555e-06 0.0 0.0
0.0 2.386764531040388e-05 -1.7002335598567862e-06 1.3618632707633444e-06 3.383702890934418e-07 -5.5681600998988854e-06 0.0 0.0
0.0 1.701189029290454e-05 -1.0712005918517917e-06 8.423420801224218e-07 2.2885851172940093e-07 -3.9485182211370824e-06 0.0 0.0
0.0 0.0 0.0 0.0 0.0 0.0 0.0 0.0
0.0 0.0 0.0 0.0 0.0 0.0 0.0 0.0
0.0 0.0 0.0 0.0 0.0 0.0 0.0 0.0
0.0 0.0 0.0 0.0 0.0 0.0 0.0 0.0
0.0 7.116076683754128e-05 -5.335268399015127e-06 7.749097024114733e-06 -2.413828625099591e-06 -8.901887924058833e-06 0.0 0.0
0.0 1.7453561703749313e-05 -1.4753689968497317e-06 2.1725454045623146e-06 -6.971764077126284e-07 2.482620562481138e-06 0.0 0.0
0.0 0.0 0.0 0.0 0.0 0.0 0.0 0.0
0.0 0.0 0.0 0.0 0.0 0.0 0.0 0.0
0.0 0.0 0.0 0.0 0.0 0.0 0.0 0.0
0.0 0.0 0.0 0.0 0.0 0.0 0.0 0.0
0.0 1.669848219011466e-05 -6.754141313205313e-07 5.129785862102976e-07 1.624355451102145e-07 4.126874192673731e-06 0.0 0.0
0.0 2.565979989433878e-05 -1.2765519214255931e-06 9.81214558184713e-07 2.953373632408789e-07 6.537299624614174e-06 0.0 0.0
0.0 1.2781646055263349e-05 -3.976145384987252e-07 2.830396107017273e-07 1.1457492779695343e-07 1.4638041633824043e-06 0.0 0.0
0.0 5.6560715023102996e-05 -1.405143905307467e-06 1.1547021890759631e-06 2.504417162314353e-07 7.262990530676364e-06 0.0 0.0
0.0 0.00010675696078849743 2.5553907293380214e-05 -1.9354899948643122e-05 -6.1990073447371624e-06 -7.99988467027121e-05 0.0 0.0
0.0 0.00018099308783645708 8.274725301581456e-05 -6.481771827975818e-05 -1.7929534736056416e-05 -0.0002507945668033482 0.0 0.0
0.0 0.000394137794787003 0.0001859682340877822 -0.00014632495424829483 -3.964327983948749e-05 -0.0004767725886798237 0.0 0.0
0.0 0.0008010067849658952 0.0004803013443216957 -0.0003817203997712023 -9.858094455049321e-05 -0.0009176913670870908 0.0 0.0
0.0 0.001664929980895121 0.001136368012279161 -0.0009318640262052631 -0.00020450398607389778 -0.001612835685725022 0.0 0.0
0.0 0.0030586287559749327 0.00222920293822988 -0.0019002402459089751 -0.00032896269232090446 -0.002520264509608264 0.0 0.0
0.0 0.004965697106240265 0.003762323473565263 -0.0033227907148270894 -0.0004395327587381738 -0.0035296566703077454 0.0 0.0
0.0 0.007355756844317686 0.005694656275927611 -0.005172569650350491 -0.0005220866255771195 -0.004436161905573902 0.0 0.0
0.0 0.010065657489517463 0.007999383302987455 -0.0074122103667211186 -0.000587172936266337 -0.004927528707247761 0.0 0.0
0.0 0.013051471361519226 0.010653809333771073 -0.01002826145906143 -0.000625547874709647 -0.00481067522177469 0.0 0.0
0.0 0.01604971745951305 0.013506678338387736 -0.012840906581180847 -0.000665771757206891 -0.003417445953800358 0.0 0.0
0.0 0.01604971745951258 0.01350667833838704 -0.012840906581180207 -0.0006657717572068337 0.0034174459538047017 0.0 0.0
0.0 0.013051471361521074 0.010653809333771913 -0.010028261459062441 -0.0006255478747094688 0.004810675221781876 0.0 0.0
0.0 0.010065657489518934 0.007999383302987972 -0.0074122103667218645 -0.0005871729362661067 0.004927528707253162 0.0 0.0
0.0 0.007355756844317515 0.005694656275927253 -0.005172569650350223 -0.0005220866255770285 0.004436161905575461 0.0 0.0
0.0 0.004965697106239755 0.0037623234735649196 -0.00332279071482688 -0.00043953275873803835 0.0035296566703069674 0.0 0.0
0.0 0.003058628755974435 0.0022292029382294737 -0.001900240245908669 -0.000328962692320804 0.0025202645096075458 0.0 0.0
0.0 0.0016649299808947954 0.0011363680122787596 -0.0009318640262049551 -0.00020450398607380448 0.0016128356857250284 0.0 0.0
0.0 0.0008010067849658978 0.00048030134432161645 -0.00038172039977112294 -9.858094455049353e-05 0.0009176913670869804 0.0 0.0
0.0 0.00039413779478666316 0.00018596823408747936 -0.00014632495424807648 -3.964327983940283e-05 0.00047677258867911737 0.0 0.0
0.0 0.00018099308783587592 8.27472530156652e-05 -6.481771827967322e-05 -1.7929534735991937e-05 0.00025079456680279484 0.0 0.0
0.0 0.00010675696078794904 2.5553907293224258e-05 -1.9354899948530616e-05 -6.199007344693666e-06 7.99988467021288e-05 0.0 0.0
0.0 5.656071502303722e-05 -1.405143905360405e-06 1.1547021891183158e-06 2.5044171624206946e-07 -7.262990530848601e-06 0.0 0.0
0.0 1.2781646055049783e-05 -3.976145384569567e-07 2.830396106673699e-07 1.1457492778956358e-07 -1.4638041631732613e-06 0.0 0.0
0.0 2.5659799894061404e-05 -1.2765519214109056e-06 9.812145581733674e-07 2.953373632375001e-07 -6.5372996245374225e-06 0.0 0.0
0.0 1.6698482189689227e-05 -6.754141313023855e-07 5.129785861963078e-07 1.6243554510606457e-07 -4.126874192556078e-06 0.0 0.0
0.0 0.0 0.0 0.0 0.0 0.0 0.0 0.0
0.0 0.0 0.0 0.0 0.0 0.0 0.0 0.0
0.0 0.0 0.0 0.0 0.0 0.0 0.0 0.0
0.0 0.0 0.0 0.0 0.0 0.0 0.0 0.0
0.0 1.7453561703325207e-05 -1.4753689968113136e-06 2.1725454045062258e-06 -6.971764076948689e-07 -2.482620562415128e-06 0.0 0.0
0.0 0.0 0.0 0.0 0.0 0.0 0.0 0.0
0.0 0.0 0.0 0.0 0.0 0.0 0.0 0.0
0.0 0.0 0.0 0.0 0.0 0.0 0.0 0.0
0.0 0.0 0.0 0.0 0.0 0.0 0.0 0.0
0.0 0.0 0.0 0.0 0.0 0.0 0.0 0.0
0.0 1.2649162497041946e-05 -1.40816357743154e-07 1.0163524973838207e-07 3.9181108004787066e-08 3.1244596390112657e-06 0.0 0.0
0.0 1.4176057102563801e-05 -2.2486424485998372e-07 1.691391884958289e-07 5.572505636415627e-08 3.543479186671418e-06 0.0 0.0
0.0 4.344045398856406e-05 -8.629206305107163e-07 6.677074154137937e-07 1.9521321509690724e-07 1.1897076210419883e-05 0.0 0.0
0.0 3.085510397318977e-05 -6.763128808287511e-07 5.223791195623306e-07 1.53933761266446e-07 8.378105654083423e-06 0.0 0.0
0.0 7.723542185884827e-05 -7.37855614051985e-07 6.484307053107065e-07 8.942490874130263e-08 1.1870785987572397e-05 0.0 0.0
0.0 9.31733765817284e-05 1.660358293015727e-05 -1.2857478744456996e-05 -3.7461041857002682e-06 -0.00015015961629245302 0.0 0.0
0.0 0.000190717390743589 3.873684308993907e-05 -3.0280385415245015e-05 -8.456457674694045e-06 -0.0003153199736705463 0.0 0.0
0.0 0.00036137501540009444 8.341551759304488e-05 -6.595906888318623e-05 -1.745644870985865e-05 -0.0005933018131817735 0.0 0.0
0.0 0.0006658452389676664 0.00017034022691102995 -0.0001368916113119658 -3.344861559906418e-05 -0.0010648640781847122 0.0 0.0
0.0 0.001150512689708594 0.00035632814130071553 -0.00029199893780096256 -6.432920349975284e-05 -0.0017977289691692064 0.0 0.0
0.0 0.0019240386869177313 0.0007444281923670323 -0.0006129964970762095 -0.0001314316952908228 -0.002718163323568265 0.0 0.0
0.0 0.0029547945625382245 0.0013880066833867593 -0.001178676388982711 -0.00020933029440404788 -0.0036422619627425657 0.0 0.0
0.0 0.004408305236561183 0.0025394605635686678 -0.002240198916423456 -0.0002992616471452111 -0.004163041601249901 0.0 0.0
0.0 0.006245869285074833 0.004194487963942626 -0.0037981614161426 -0.00039632654780002465 -0.003999160845470183 0.0 0.0
0.0 0.008533364418436135 0.006425592723638537 -0.005993561404931831 -0.00043203131870670603 -0.0032414482232930772 0.0 0.0
0.0 0.008533364418436405 0.006425592723638523 -0.0059935614049318325 -0.00043203131870668906 0.0032414482232952092 0.0 0.0
0.0 0.0062458692850753655 0.004194487963942325 -0.0037981614161423922 -0.0003963265477999312 0.003999160845475035 0.0 0.0
0.0 0.004408305236560993 0.0025394605635679552 -0.002240198916422892 -0.00029926164714506306 0.004163041601252795 0.0 0.0
0.0 0.0029547945625382857 0.0013880066833867493 -0.0011786763889826296 -0.00020933029440411925 0.0036422619627429695 0.0 0.0
0.0 0.0019240386869173415 0.0007444281923669776 -0.000612996497076128 -0.0001314316952908502 0.0027181633235675755 0.0 0.0
0.0 0.0011505126897082575 0.00035632814130069537 -0.00029199893780089035 -6.432920349980495e-05 0.001797728969168711 0.0 0.0
0.0 0.0006658452389676333 0.0001703402269109777 -0.00013689161131187307 -3.3448615599104626e-05 0.001064864078184756 0.0 0.0
0.0 0.00036137501540013694 8.341551759313856e-05 -6.595906888334332e-05 -1.745644870979522e-05 0.0005933018131818412 0.0 0.0
0.0 0.00019071739074322876 3.873684308987875e-05 -3.0280385415190758e-05 -8.456457674687996e-06 0.0003153199736698987 0.0 0.0
0.0 9.317337658146512e-05 1.660358293012552e-05 -1.2857478744436773e-05 -3.746104185688744e-06 0.00015015961629196193 0.0 0.0
0.0 7.723542185842421e-05 -7.378556140713201e-07 6.484307053232766e-07 8.942490874805551e-08 -1.1870785987693003e-05 0.0 0.0
0.0 3.085510397316975e-05 -6.763128808285002e-07 5.22379119561665e-07 1.5393376126683858e-07 -8.378105654077298e-06 0.0 0.0
0.0 4.3440453988372724e-05 -8.6292063050855e-07 6.677074154134513e-07 1.952132150950957e-07 -1.1897076210370125e-05 0.0 0.0
0.0 1.417605710230505e-05 -2.248642448555074e-07 1.6913918849185627e-07 5.57250563636424e-08 -3.5434791865988037e-06 0.0 0.0
0.0 1.2649162496547092e-05 -1.4081635773750347e-07 1.0163524973413121e-07 3.9181108003369014e-08 -3.12445963887376e-06 0.0 0.0
0.0 0.0 0.0 0.0 0.0 0.0 0.0 0.0
0.0 0.0 0.0 0.0 0.0 0.0 0.0 0.0
0.0 0.0 0.0 0.0 0.0 0.0 0.0 0.0
0.0 0.0 0.0 0.0 0.0 0.0 0.0 0.0
0.0 0.0 0.0 0.0 0.0 0.0 0.0 0.0
0.0 0.0 0.0 0.0 0.0 0.0 0.0 0.0
0.0 0.0 0.0 0.0 0.0 0.0 0.0 0.0
0.0 0.0 0.0 0.0 0.0 0.0 0.0 0.0
0.0 0.0 0.0 0.0 0.0 0.0 0.0 0.0
0.0 0.0 0.0 0.0 0.0 0.0 0.0 0.0
0.0 1.6603222805849884e-05 2.923750411405768e-07 -2.3536244238526396e-07 -5.7012598755332366e-08 4.230645678688613e-06 0.0 0.0
0.0 1.535707491913172e-05 2.712026432218339e-07 -2.1013859332736445e-07 -6.106404989446863e-08 3.874607379288849e-06 0.0 0.0
0.0 4.3532176182915576e-05 8.663879479145466e-07 -6.733993046326267e-07 -1.929886432818682e-07 1.1918636471881699e-05 0.0 0.0
0.0 3.0722003396799614e-05 6.668667172424513e-07 -5.145034267969939e-07 -1.523632904454532e-07 8.34117694194752e-06 0.0 0.0
0.0 7.705948319446031e-05 7.401979246219001e-07 -6.479755667414207e-07 -9.222235788049112e-08 1.19459368759986e-05 0.0 0.0
0.0 9.390893406226e-05 -1.6146350430599978e-05 1.2573796880001823e-05 3.572553550598138e-06 -0.00014934260536846261 0.0 0.0
0.0 0.000190636875998341 -3.8690112046354004e-05 3.031776840010432e-05 8.372343646249685e-06 -0.0003149996121245139 0.0 0.0
0.0 0.0003610992723822653 -8.435980274959622e-05 6.714837108969757e-05 1.721143165989864e-05 -0.0005922689763179816 0.0 0.0
0.0 0.0006682048397250957 -0.00017344524016472447 0.00013963966496235593 3.380557520236856e-05 -0.0010638695617833178 0.0 0.0
0.0 0.0011518809677243497 -0.000349137012823962 0.0002806858763108685 6.845113651309332e-05 -0.0018092417262517376 0.0 0.0
0.0 0.0018763990876169811 -0.0006202998608073878 0.000490513198241832 0.00012978666256555584 -0.0027682555009074265 0.0 0.0
0.0 0.002646044022343859 -0.0008318522741619085 0.0006478086193738595 0.00018404365478804857 -0.0038469311354118866 0.0 0.0
0.0 0.003341527693346188 -0.0007689831164984452 0.0005641699543519752 0.00020481316214647017 -0.0049867905130641455 0.0 0.0
0.0 0.0036459065473491 -0.00029785003502321773 0.0001776519957816234 0.00012019803924159446 -0.005915015758861197 0.0 0.0
0.0 0.0034232572624175164 0.0007468720993981281 -0.0007920659264922735 4.519382709414492e-05 -0.005026794862754227 0.0 0.0
0.0 0.0034232572624182866 0.0007468720993977546 -0.0007920659264921416 4.519382709438716e-05 0.005026794862757169 0.0 0.0
0.0 0.0036459065473516458 -0.00029785003502336545 0.0001776519957818813 0.00012019803924148436 0.005915015758866211 0.0 0.0
0.0 0.003341527693347498 -0.0007689831164989791 0.0005641699543523808 0.0002048131621465981 0.004986790513066161 0.0 0.0
0.0 0.00264604402234408 -0.0008318522741618836 0.0006478086193738955 0.000184043654787988 0.003846931135412401 0.0 0.0
0.0 0.0018763990876162616 -0.0006202998608069427 0.0004905131982414848 0.0001297866625654578 0.002768255500906454 0.0 0.0
0.0 0.00115188096772396 -0.00034913701282378166 0.00028068587631069277 6.845113651308884e-05 0.0018092417262511673 0.0 0.0
0.0 0.0006682048397249361 -0.0001734452401646547 0.00013963966496229112 3.380557520236355e-05 0.0010638695617831448 0.0 0.0
0.0 0.0003610992723821666 -8.435980274948463e-05 6.714837108961447e-05 1.7211431659870115e-05 0.0005922689763178496 0.0 0.0
0.0 0.00019063687599779223 -3.86901120461806e-05 3.031776839993642e-05 8.372343646244167e-06 0.000314999612123601 0.0 0.0
0.0 9.39089340619591e-05 -1.6146350430509898e-05 1.2573796879948402e-05 3.572553550561495e-06 0.00014934260536766757 0.0 0.0
0.0 7.705948319405517e-05 7.401979246468503e-07 -6.479755667581014e-07 -9.222235788869821e-08 -1.1945936876170137e-05 0.0 0.0
0.0 3.072200339668565e-05 6.668667172392633e-07 -5.145034267955071e-07 -1.523632904437571e-07 -8.34117694191452e-06 0.0 0.0
0.0 4.353217618270295e-05 8.663879479066889e-07 -6.733993046234226e-07 -1.9298864328323552e-07 -1.1918636471827977e-05 0.0 0.0
0.0 1.5357074918777994e-05 2.712026432142856e-07 -2.1013859332089264e-07 -6.106404989340121e-08 -3.874607379188645e-06 0.0 0.0
0.0 1.660322280540092e-05 2.923750411319481e-07 -2.353624423789323e-07 -5.7012598753028695e-08 -4.230645678559954e-06 0.0 0.0
0.0 0.0 0.0 0.0 0.0 0.0 0.0 0.0
0.0 0.0 0.0 0.0 0.0 0.0 0.0 0.0
0.0 0.0 0.0 0.0 0.0 0.0 0.0 0.0
0.0 0.0 0.0 0.0 0.0 0.0 0.0 0.0
0.0 0.0 0.0 0.0 0.0 0.0 0.0 0.0
0.0 0.0 0.0 0.0 0.0 0.0 0.0 0.0
0.0 0.0 0.0 0.0 0.0 0.0 0.0 0.0
0.0 0.0 0.0 0.0 0.0 0.0 0.0 0.0
0.0 0.0 0.0 0.0 0.0 0.0 0.0 0.0
0.0 5.593573495796702e-06 2.2488050829672393e-07 -1.783306916581879e-07 -4.6549816638530954e-08 1.2502688499216848e-06 0.0 0.0
0.0 1.5193019753149584e-05 6.075697492807933e-07 -5.003829957410301e-07 -1.0718675353973588e-07 3.7538488162118154e-06 0.0 0.0
0.0 2.8874588975334116e-05 1.4761258872071086e-06 -1.1479462079847123e-06 -3.281796792223996e-07 7.406783622865839e-06 0.0 0.0
0.0 1.3024878265115213e-05 4.4783164809217074e-07 -3.243679119296741e-07 -1.2346373616249832e-07 1.7113835230478657e-06 0.0 0.0
0.0 5.604237686869343e-05 1.4562651804261502e-06 -1.1916678393208096e-06 -2.6459734110529765e-07 7.434762278326456e-06 0.0 0.0
0.0 0.00010621136897487685 -2.5400241001801717e-05 1.9223081648304043e-05 6.177159353497636e-06 -7.962296391031225e-05 0.0 0.0
0.0 0.0001805619246420268 -8.257949430930743e-05 6.466746399266224e-05 1.7912030316645198e-05 -0.00025066225807942336 0.0 0.0
0.0 0.00039340897851253276 -0.00018561229415565305 0.0001461216110384774 3.9490683117175676e-05 -0.0004761835705176836 0.0 0.0
0.0 0.0008014315872551145 -0.00048107645436369477 0.00038306688687006485 9.800956749362971e-05 -0.0009139325589402806 0.0 0.0
0.0 0.0016742312934425422 -0.001145727751108628 0.0009406623553229568 0.0002050653957856712 -0.001605531686942237 0.0 0.0
0.0 0.0030619136270780304 -0.0022224860995143547 0.001887233477951554 0.00033525262156280033 -0.00254063673113499 0.0 0.0
0.0 0.004817041571722545 -0.003574985911266946 0.0031188267897679497 0.00045615912149899693 -0.0036916119097426454 0.0 0.0
0.0 0.006636428470424567 -0.00489757213654922 0.004348096634106981 0.0005494755024422379 -0.004977213050174827 0.0 0.0
0.0 0.008030952477833059 -0.005783807802619153 0.005176696938696195 0.0006071108639229562 -0.0062868516670805934 0.0 0.0
0.0 0.008132518339058443 -0.005594331170221875 0.004940807482985249 0.0006535236872366256 -0.006952601621381677 0.0 0.0
0.0 0.005891956218119677 -0.0035020283816699312 0.0029010635816541517 0.0006009648000157799 -0.0054543886325901505 0.0 0.0
0.0 0.005891956218121653 -0.003502028381670853 0.002901063581654909 0.0006009648000159438 0.005454388632593121 0.0 0.0
0.0 0.00813251833905952 -0.005594331170221828 0.004940807482984938 0.0006535236872368886 0.006952601621386213 0.0 0.0
0.0 0.008030952477832785 -0.00578380780261836 0.005176696938695327 0.0006071108639230322 0.006286851667083808 0.0 0.0
0.0 0.0066364284704228185 -0.004897572136547872 0.004348096634105613 0.0005494755024422565 0.00497721305017437 0.0 0.0
0.0 0.004817041571721427 -0.003574985911266056 0.0031188267897671812 0.0004561591214988746 0.003691611909741857 0.0 0.0
0.0 0.003061913627077758 -0.0022224860995139098 0.0018872334779512757 0.0003352526215626338 0.0025406367311348746 0.0 0.0
0.0 0.0016742312934414543 -0.0011457277511078905 0.0009406623553224398 0.00020506539578545057 0.0016055316869416979 0.0 0.0
0.0 0.0008014315872538732 -0.00048107645436259755 0.00038306688686921695 9.800956749338044e-05 0.0009139325589396213 0.0 0.0
0.0 0.0003934089785110095 -0.00018561229415497944 0.0001461216110379244 3.949068311705494e-05 0.00047618357051646646 0.0 0.0
0.0 0.00018056192464093075 -8.257949430890533e-05 6.466746399230559e-05 1.7912030316599705e-05 0.0002506622580783604 0.0 0.0
0.0 0.0001062113689743766 -2.5400241001640845e-05 1.9223081648184662e-05 6.177159353456239e-06 7.96229639098025e-05 0.0 0.0
0.0 5.604237686834757e-05 1.4562651804709768e-06 -1.1916678393536588e-06 -2.645973411173085e-07 -7.434762278472101e-06 0.0 0.0
0.0 1.3024878264998479e-05 4.4783164808160093e-07 -3.243679119207796e-07 -1.2346373616079057e-07 -1.711383523001472e-06 0.0 0.0
0.0 2.887458897492783e-05 1.4761258871847999e-06 -1.147946207967182e-06 -3.281796792175629e-07 -7.406783622754122e-06 0.0 0.0
0.0 1.519301975257843e-05 6.07569749254635e-07 -5.003829957201351e-07 -1.0718675353450862e-07 -3.753848816058526e-06 0.0 0.0
0.0 5.593573495293337e-06 2.2488050827704833e-07 -1.7833069164221596e-07 -4.654981663483093e-08 -1.2502688498043295e-06 0.0 0.0
0.0 0.0 0.0 0.0 0.0 0.0 0.0 0.0
0.0 0.0 0.0 0.0 0.0 0.0 0.0 0.0
0.0 0.0 0.0 0.0 0.0 0.0 0.0 0.0
0.0 0.0 0.0 0.0 0.0 0.0 0.0 0.0
0.0 0.0 0.0 0.0 0.0 0.0 0.0 0.0
0.0 0.0 0.0 0.0 0.0 0.0 0.0 0.0
0.0 0.0 0.0 0.0 0.0 0.0 0.0 0.0
0.0 2.6500277740305357e-06 1.3055265204859137e-07 -1.0470733966456392e-07 -2.5845312384030945e-08 5.480872834236397e-07 0.0 0.0
0.0 7.627299154539806e-06 4.0935751532963017e-07 -3.3681363121879136e-07 -7.254388411084961e-08 1.667160813460528e-06 0.0 0.0
0.0 2.0386492939198233e-05 1.4262568685873572e-06 -1.1157064935075056e-06 -3.1055037507982356e-07 4.73426434119655e-06 0.0 0.0
0.0 2.8071122524411392e-05 2.0551451008751135e-06 -1.64785487994579e-06 -4.072902209293155e-07 6.5864854564227865e-06 0.0 0.0
0.0 4.7334872194100246e-05 1.8651722747586014e-06 -1.4905446183968318e-06 -3.746276563617764e-07 5.5248218815672614e-06 0.0 0.0
0.0 0.0001411010620535172 -1.672071612303139e-05 1.28809005127203e-05 3.8398156103111835e-06 -3.4914651454113586e-05 0.0 0.0
0.0 0.00021158197246561348 -0.00011594604467617653 9.032533815093828e-05 2.5620706525238154e-05 -0.0002224043555346416 0.0 0.0
0.0 0.0005171415307799076 -0.00031360825849838 0.00024593896458704984 6.766929391133013e-05 -0.0004653545978434292 0.0 0.0
0.0 0.0010140678207810395 -0.0007729400432637619 0.0006178223656832885 0.00015511767758047304 -0.0008725094873737347 0.0 0.0
0.0 0.0019726957393513397 -0.0015926478819260348 0.0013173385742274817 0.00027530930769855284 -0.0014582327979875778 0.0 0.0
0.0 0.0036033414958461865 -0.0029529298197890005 0.0025417150304371462 0.00041121478935185376 -0.0022976454061981707 0.0 0.0
0.0 0.006034738533627641 -0.004925719911392875 0.004388229063081208 0.0005374908483116637 -0.003443396024609696 0.0 0.0
0.0 0.009013410995327743 -0.0073614181554303056 0.006719854663637149 0.0006415634917931552 -0.0049510878908416555 0.0 0.0
0.0 0.01221881119585489 -0.00987067387216009 0.009149507447401626 0.000721166424758463 -0.0068457687822540865 0.0 0.0
0.0 0.014709292344115466 -0.01185225623759623 0.011064326995089243 0.0007879292425069821 -0.008883550953146739 0.0 0.0
0.0 0.015481853700756758 -0.012242863936178901 0.011388233282029928 0.0008546306541489721 -0.01003009417402098 0.0 0.0
0.0 0.011977562398918604 -0.009416604096986896 0.008495428367977622 0.0009211757290092695 -0.007825294358464902 0.0 0.0
0.0 0.011977562398919684 -0.009416604096986926 0.00849542836797747 0.0009211757290094527 0.007825294358470127 0.0 0.0
0.0 0.015481853700758387 -0.012242863936178837 0.01138823328202984 0.0008546306541489966 0.010030094174029027 0.0 0.0
0.0 0.014709292344117036 -0.011852256237596517 0.011064326995089786 0.0007879292425067247 0.008883550953152766 0.0 0.0
0.0 0.01221881119585399 -0.009870673872158935 0.009149507447400833 0.0007211664247581042 0.00684576878225575 0.0 0.0
0.0 0.00901341099532595 -0.007361418155428687 0.00671985466363594 0.0006415634917927463 0.004951087890840713 0.0 0.0
0.0 0.006034738533626219 -0.004925719911391585 0.0043882290630801015 0.0005374908483114825 0.00344339602460898 0.0 0.0
0.0 0.003603341495843828 -0.0029529298197869354 0.002541715030435282 0.0004112147893516527 0.0022976454061971394 0.0 0.0
0.0 0.0019726957393490703 -0.0015926478819237866 0.0013173385742254965 0.00027530930769828986 0.0014582327979866493 0.0 0.0
0.0 0.001014067820778713 -0.0007729400432615837 0.0006178223656814603 0.0001551176775801234 0.0008725094873719198 0.0 0.0
0.0 0.0005171415307773498 -0.00031360825849663176 0.00024593896458567914 6.766929391095253e-05 0.0004653545978414433 0.0 0.0
0.0 0.00021158197246411397 -0.00011594604467541665 9.03253381503287e-05 2.562070652508786e-05 0.00022240435553333654 0.0 0.0
0.0 0.00014110106205272855 -1.672071612283174e-05 1.2880900512569398e-05 3.839815610262344e-06 3.491465145366502e-05 0.0 0.0
0.0 4.733487219362816e-05 1.8651722748484057e-06 -1.4905446184673142e-06 -3.7462765638114416e-07 -5.524821881791557e-06 0.0 0.0
0.0 2.8071122524013304e-05 2.055145100844214e-06 -1.6478548799225741e-06 -4.0729022092168947e-07 -6.586485456330397e-06 0.0 0.0
0.0 2.0386492938733195e-05 1.4262568685531833e-06 -1.1157064934812938e-06 -3.1055037507188146e-07 -4.73426434107734e-06 0.0 0.0
0.0 7.627299153988424e-06 4.0935751529703973e-07 -3.3681363119245467e-07 -7.254388410461007e-08 -1.6671608133338516e-06 0.0 0.0
0.0 2.6500277738182053e-06 1.3055265203724155e-07 -1.047073396555392e-07 -2.5845312381699805e-08 -5.480872833757705e-07 0.0 0.0
0.0 0.0 0.0 0.0 0.0 0.0 0.0 0.0
0.0 0.0 0.0 0.0 0.0 0.0 0.0 0.0
0.0 0.0 0.0 0.0 0.0 0.0 0.0 0.0
0.0 0.0 0.0 0.0 0.0 0.0 0.0 0.0
0.0 0.0 0.0 0.0 0.0 0.0 0.0 0.0
0.0 0.0 0.0 0.0 0.0 0.0 0.0 0.0
0.0 4.567888438524369e-06 2.816642514147399e-07 -2.2557908395780664e-07 -5.608516745694391e-08 9.161147982631984e-07 0.0 0.0
0.0 1.0652708672248226e-05 8.226055347280341e-07 -6.478885821649108e-07 -1.7471695256313932e-07 2.1974362185297753e-06 0.0 0.0
0.0 1.970081402804037e-05 1.720677999042993e-06 -1.3810729227047859e-06 -3.396050763381751e-07 4.268208755247601e-06 0.0 0.0
0.0 4.8608661757116294e-05 5.218288587519912e-06 -4.008064534031868e-06 -1.210224053487962e-06 9.135215084181966e-06 0.0 0.0
0.0 0.00012397384076404073 -1.5271500478711266e-05 1.164431683591031e-05 3.627183642800992e-06 -2.2224382009741242e-05 0.0 0.0
0.0 0.0002780288849901618 -0.0001222254953633139 9.478201345235005e-05 2.7443481910963908e-05 -0.00016569058686246728 0.0 0.0
0.0 0.0005611760575427929 -0.00041517813421841035 0.0003247299012175274 9.044823300088294e-05 -0.00043675773712120405 0.0 0.0
0.0 0.001077783850060638 -0.0008961690544852066 0.0007151240495255044 0.00018104500495970223 -0.0007632099157709833 0.0 0.0
0.0 0.001987635461472468 -0.0016866169023911654 0.00138774352428782 0.00029887337810334487 -0.0012018732929033069 0.0 0.0
0.0 0.0035350525170499032 -0.0029907414315210844 0.002558851086503182 0.0004318903450179027 -0.001851618027314007 0.0 0.0
0.0 0.005899866907949036 -0.005019370333737686 0.00446164176484049 0.0005577285688971967 -0.002788151808884155 0.0 0.0
0.0 0.009291779639521268 -0.007871109175871764 0.007210963417413415 0.0006601457584583482 -0.004069060861926495 0.0 0.0
0.0 0.013535666601430971 -0.011406091061529225 0.010658074366835264 0.0007480166946939556 -0.005827174371497388 0.0 0.0
0.0 0.01802793443130022 -0.015133494440232384 0.01430726850195552 0.0008262259382768612 -0.00819968961548707 0.0 0.0
0.0 0.021817036913514967 -0.018166034145793056 0.01726093931317794 0.0009050948326151076 -0.010864723180023324 0.0 0.0
0.0 0.02300026524839996 -0.018978657719736683 0.01798247642653773 0.0009961812931989444 -0.012562597956125725 0.0 0.0
0.0 0.018459407461701306 -0.015200140585556878 0.01409441673568754 0.0011057238498693358 -0.010489145653927006 0.0 0.0
0.0 0.01845940746170334 -0.015200140585557267 0.014094416735688016 0.001105723849869244 0.01048914565393537 0.0 0.0
0.0 0.023000265248401063 -0.018978657719735677 0.017982476426536963 0.0009961812931987045 0.012562597956137388 0.0 0.0
0.0 0.021817036913513804 -0.018166034145790756 0.017260939313175794 0.0009050948326149613 0.010864723180031533 0.0 0.0
0.0 0.0180279344312968 -0.015133494440228944 0.014307268501952287 0.0008262259382766533 0.008199689615489242 0.0 0.0
0.0 0.013535666601427784 -0.011406091061526305 0.01065807436683247 0.0007480166946938351 0.0058271743714970615 0.0 0.0
0.0 0.009291779639518917 -0.007871109175869487 0.007210963417411399 0.000660145758458086 0.004069060861926003 0.0 0.0
0.0 0.00589986690794711 -0.005019370333735844 0.004461641764838919 0.0005577285688969231 0.0027881518088832755 0.0 0.0
0.0 0.003535052517047566 -0.002990741431518772 0.0025588510865012975 0.00043189034501747465 0.0018516180273134468 0.0 0.0
0.0 0.001987635461469779 -0.0016866169023884076 0.001387743524285596 0.00029887337810281117 0.0012018732929017732 0.0 0.0
0.0 0.0010777838500579994 -0.0008961690544826287 0.0007151240495234421 0.00018104500495918658 0.0007632099157690434 0.0 0.0
0.0 0.0005611760575398819 -0.0004151781342160281 0.000324729901215607 9.04482330004211e-05 0.00043675773711900653 0.0 0.0
0.0 0.00027802888498808015 -0.00012222549536197518 9.478201345130153e-05 2.744348191067368e-05 0.0001656905868610459 0.0 0.0
0.0 0.00012397384076299057 -1.5271500478472508e-05 1.1644316835716773e-05 3.627183642755791e-06 2.2224382009293565e-05 0.0 0.0
0.0 4.860866175631347e-05 5.2182885874308245e-06 -4.008064533960928e-06 -1.210224053469825e-06 -9.13521508403011e-06 0.0 0.0
0.0 1.9700814027507145e-05 1.7206779989952935e-06 -1.3810729226674624e-06 -3.3960507632779e-07 -4.268208755134404e-06 0.0 0.0
0.0 1.0652708671817191e-05 8.226055346933095e-07 -6.478885821374208e-07 -1.7471695255591085e-07 -2.197436218434703e-06 0.0 0.0
0.0 4.567888438027894e-06 2.8166425138388424e-07 -2.2557908393276395e-07 -5.608516745111872e-08 -9.161147981597317e-07 0.0 0.0
0.0 0.0 0.0 0.0 0.0 0.0 0.0 0.0
0.0 0.0 0.0 0.0 0.0 0.0 0.0 0.0
0.0 0.0 0.0 0.0 0.0 0.0 0.0 0.0
0.0 0.0 0.0 0.0 0.0 0.0 0.0 0.0
0.0 0.0 0.0 0.0 0.0 0.0 0.0 0.0
0.0 0.0 0.0 0.0 0.0 0.0 0.0 0.0
0.0 3.3082474948100185e-06 2.46540003783212e-07 -1.9556662842728762e-07 -5.0973375355941826e-08 6.147478354156554e-07 0.0 0.0
0.0 2.402638926355761e-05 2.3696323169957966e-06 -1.8698820680238612e-06 -4.997502489718492e-07 4.7990365106419856e-06 0.0 0.0
0.0 2.668448513034536e-05 2.888645345686569e-06 -2.241353945588146e-06 -6.47291400098351e-07 4.715291337159027e-06 0.0 0.0
0.0 0.00010598381434024155 1.7848237819611152e-06 -1.4605657846239321e-06 -3.242579973370952e-07 2.4056311576565028e-06 0.0 0.0
0.0 0.00026656279188612506 -0.0001091297850450166 8.461270467312689e-05 2.4517080371889732e-05 -0.00012004767206796447 0.0 0.0
0.0 0.0005650188955245058 -0.00042402165138790765 0.0003314255275500066 9.259612383790084e-05 -0.0003576935638971441 0.0 0.0
0.0 0.0010498773502738133 -0.0009035393810014262 0.0007181048583609384 0.00018543452264048775 -0.0006209974030167156 0.0 0.0
0.0 0.0018371420080759524 -0.0016169528385548782 0.0013190775749542748 0.0002978752636006029 -0.0009333851646789003 0.0 0.0
0.0 0.003148615048426094 -0.002753279306619706 0.0023269475949105572 0.00042633171170914887 -0.001389112988872187 0.0 0.0
0.0 0.005237912885269456 -0.0045451406812582 0.003991163794384439 0.0005539768868737582 -0.0020735025279812135 0.0 0.0
0.0 0.008391587595413775 -0.007230488178901019 0.006568516193083343 0.000661971985817675 -0.0030488692372282102 0.0 0.0
0.0 0.01281192562924667 -0.010949952788295515 0.010203461795947225 0.0007464909923482882 -0.004371977568625503 0.0 0.0
0.0 0.018127362545572102 -0.015582737159225693 0.014756967380247397 0.0008257697789782938 -0.006196443527318346 0.0 0.0
0.0 0.024115430470740537 -0.020520950784639544 0.01960895330906022 0.0009119974755793219 -0.00871737474660807 0.0 0.0
0.0 0.0290813966391352 -0.024563558799518756 0.02355396136635799 0.0010095974331607545 -0.011775819914481678 0.0 0.0
0.0 0.030556598636237258 -0.025661513939353182 0.024535597093612582 0.0011259168457405995 -0.014103416452641643 0.0 0.0
0.0 0.0249110330617347 -0.02080245945520532 0.019557100735162095 0.00124535872004323 -0.013051999362952938 0.0 0.0
0.0 0.02491103306173655 -0.020802459455205268 0.01955710073516203 0.0012453587200432301 0.013051999362963737 0.0 0.0
0.0 0.030556598636238372 -0.025661513939352298 0.02453559709361182 0.001125916845740472 0.01410341645265525 0.0 0.0
0.0 0.029081396639134848 -0.024563558799517177 0.023553961366356662 0.0010095974331605084 0.011775819914492098 0.0 0.0
0.0 0.024115430470737872 -0.020520950784636706 0.019608953309057514 0.0009119974755791928 0.008717374746612355 0.0 0.0
0.0 0.018127362545567745 -0.015582737159221698 0.014756967380243584 0.0008257697789781126 0.006196443527318548 0.0 0.0
0.0 0.012811925629243628 -0.01094995278829259 0.01020346179594465 0.0007464909923479369 0.004371977568625222 0.0 0.0
0.0 0.008391587595411242 -0.007230488178898463 0.006568516193081178 0.0006619719858172847 0.0030488692372274916 0.0 0.0
0.0 0.005237912885264851 -0.004545140681253754 0.003991163794380364 0.0005539768868733885 0.0020735025279800634 0.0 0.0
0.0 0.003148615048421643 -0.0027532793066155576 0.002326947594906935 0.0004263317117086223 0.0013891129888703572 0.0 0.0
0.0 0.0018371420080719402 -0.0016169528385510993 0.0013190775749511168 0.0002978752635999821 0.0009333851646768265 0.0 0.0
0.0 0.0010498773502706932 -0.0009035393809983896 0.0007181048583585783 0.00018543452263981126 0.0006209974030145625 0.0 0.0
0.0 0.0005650188955223567 -0.0004240216513859542 0.0003314255275485292 9.259612383742472e-05 0.0003576935638957907 0.0 0.0
0.0 0.00026656279188416786 -0.00010912978504383443 8.461270467221471e-05 2.4517080371619925e-05 0.00012004767206701548 0.0 0.0
0.0 0.00010598381433876055 1.784823782330558e-06 -1.4605657849174057e-06 -3.242579974129546e-07 -2.405631158180464e-06 0.0 0.0
0.0 2.6684485129625684e-05 2.8886453456036188e-06 -2.2413539455247678e-06 -6.47291400078799e-07 -4.715291337034706e-06 0.0 0.0
0.0 2.4026389263126097e-05 2.3696323169496722e-06 -1.8698820679877623e-06 -4.997502489618451e-07 -4.799036510547863e-06 0.0 0.0
0.0 3.308247494557365e-06 2.4654000376251456e-07 -1.9556662841085137e-07 -5.097337535164488e-08 -6.147478353640135e-07 0.0 0.0
0.0 0.0 0.0 0.0 0.0 0.0 0.0 0.0
0.0 0.0 0.0 0.0 0.0 0.0 0.0 0.0
0.0 0.0 0.0 0.0 0.0 0.0 0.0 0.0
0.0 0.0 0.0 0.0 0.0 0.0 0.0 0.0
0.0 0.0 0.0 0.0 0.0 0.0 0.0 0.0
0.0 0.0 0.0 0.0 0.0 0.0 0.0 0.0
0.0 1.7652501228566893e-06 1.4527965634886112e-07 -1.1480174841833352e-07 -3.047790793054571e-08 2.800584012211919e-07 0.0 0.0
0.0 2.212019960558938e-05 2.4315207201286043e-06 -1.9253764476021e-06 -5.061442725264499e-07 3.7212109345641876e-06 0.0 0.0
0.0 7.132857901326846e-05 8.581247262617346e-06 -6.67022965503131e-06 -1.9110176075858953e-06 9.969795051479265e-06 0.0 0.0
0.0 0.0002461653105391204 -4.290633114460962e-05 3.337671949910995e-05 9.529611645499604e-06 -4.080725676036663e-05 0.0 0.0
0.0 0.00048798210126574756 -0.00036967857392858746 0.00028824308922966384 8.143548469892391e-05 -0.0002597872207339888 0.0 0.0
0.0 0.0009425950340276534 -0.0008336978805005002 0.0006598873534380703 0.00017381052706242963 -0.00047365169140325356 0.0 0.0
0.0 0.0016378244080922058 -0.0014706506223448564 0.0011886143962826236 0.0002820362260622327 -0.0006974417088009361 0.0 0.0
0.0 0.0027238547952200256 -0.0024306763302901924 0.002025709593242676 0.00040496673704751545 -0.0009998072240739782 0.0 0.0
0.0 0.00442401522029146 -0.003918319153898205 0.003385877135983782 0.0005324420179144216 -0.0014456439415295383 0.0 0.0
0.0 0.007125757034392976 -0.006202463212265785 0.005553834346131055 0.000648628866134726 -0.0021132336279601873 0.0 0.0
0.0 0.010949070453824074 -0.009556239699814749 0.008813812090332208 0.0007424276094825398 -0.003094862406522087 0.0 0.0
0.0 0.016284073426945957 -0.014121225478208134 0.013304972576606218 0.0008162529016019148 -0.0043723777299193795 0.0 0.0
0.0 0.023003787871036022 -0.019796470830029347 0.018903245202880736 0.000893225627148604 -0.0060192723970184684 0.0 0.0
0.0 0.030043692955626457 -0.02591859807260807 0.02492973607653575 0.0009888619960723166 -0.008391121508189157 0.0 0.0
0.0 0.03597756304279194 -0.030940882823362017 0.029833842378263805 0.0011070404450982084 -0.011580357644997255 0.0 0.0
0.0 0.03783075350154895 -0.03229215139634534 0.03104772173824373 0.0012444296581016043 -0.014693897898473394 0.0 0.0
0.0 0.031476569820266156 -0.02639037108782702 0.025019291440772532 0.0013710796470544843 -0.015587302377581724 0.0 0.0
0.0 0.03147656982026719 -0.026390371087826082 0.025019291440771516 0.0013710796470545658 0.015587302377594448 0.0 0.0
0.0 0.037830753501549894 -0.03229215139634435 0.031047721738242908 0.0012444296581014362 0.014693897898488462 0.0 0.0
0.0 0.035977563042791094 -0.03094088282336 0.029833842378262202 0.001107040445097788 0.011580357645009066 0.0 0.0
0.0 0.03004369295562398 -0.025918598072605322 0.024929736076533454 0.0009888619960718604 0.008391121508193872 0.0 0.0
0.0 0.02300378787103336 -0.019796470830026662 0.018903245202878692 0.0008932256271479623 0.006019272397019881 0.0 0.0
0.0 0.01628407342694186 -0.014121225478204385 0.01330497257660274 0.0008162529016016459 0.0043723777299196735 0.0 0.0
0.0 0.01094907045381916 -0.009556239699810253 0.008813812090328037 0.0007424276094822153 0.0030948624065210194 0.0 0.0
0.0 0.007125757034388848 -0.00620246321226155 0.005553834346127378 0.0006486288661341732 0.0021132336279593394 0.0 0.0
0.0 0.004424015220287 -0.0039183191538936755 0.003385877135979924 0.0005324420179137505 0.001445643941528276 0.0 0.0
0.0 0.002723854795214932 -0.0024306763302851444 0.002025709593238394 0.00040496673704675076 0.0009998072240717285 0.0 0.0
0.0 0.0016378244080876728 -0.0014706506223403568 0.001188614396278846 0.0002820362260615106 0.0006974417087987075 0.0 0.0
0.0 0.0009425950340244305 -0.0008336978804971459 0.0006598873534353549 0.00017381052706179104 0.000473651691401635 0.0 0.0
0.0 0.0004879821012631605 -0.00036967857392628423 0.00028824308922785133 8.143548469843279e-05 0.0002597872207326669 0.0 0.0
0.0 0.00024616531053719997 -4.2906331143893406e-05 3.3376719498563675e-05 9.529611645329772e-06 4.0807256759718715e-05 0.0 0.0
0.0 7.132857901225568e-05 8.581247262500662e-06 -6.670229654942985e-06 -1.911017607557433e-06 -9.969795051368007e-06 0.0 0.0
0.0 2.2120199604808598e-05 2.4315207200384364e-06 -1.925376447532067e-06 -5.061442725063104e-07 -3.7212109344398105e-06 0.0 0.0
0.0 1.7652501226068597e-06 1.4527965632684927e-07 -1.1480174840090094e-07 -3.047790792594203e-08 -2.8005840117883434e-07 0.0 0.0
0.0 0.0 0.0 0.0 0.0 0.0 0.0 0.0
0.0 0.0 0.0 0.0 0.0 0.0 0.0 0.0
0.0 0.0 0.0 0.0 0.0 0.0 0.0 0.0
0.0 0.0 0.0 0.0 0.0 0.0 0.0 0.0
0.0 0.0 0.0 0.0 0.0 0.0 0.0 0.0
0.0 0.0 0.0 0.0 0.0 0.0 0.0 0.0
0.0 5.626850791712976e-07 4.981005851317951e-08 -3.923198292759632e-08 -1.0578075585582832e-08 7.22976868224096e-08 0.0 0.0
0.0 3.3624237427715145e-05 4.220013028408844e-06 -3.2472484748037782e-06 -9.727645536051238e-07 4.109539754910055e-06 0.0 0.0
0.0 0.0001445565066149945 6.717035970149877e-06 -5.12665130243702e-06 -1.5903846677129407e-06 4.64636963464687e-06 0.0 0.0
0.0 0.00035251020503944744 -0.00026339423725421694 0.00020499601098913632 5.839822626508065e-05 -0.00015840705880419497 0.0 0.0
0.0 0.0007829533717448789 -0.0007070344735445489 0.0005567670776267218 0.000150267395917827 -0.00033047657356427367 0.0 0.0
0.0 0.0014166841812880736 -0.001281693991266218 0.0010272750214712402 0.0002544189697949776 -0.0004920856645791122 0.0 0.0
0.0 0.002312903745987577 -0.002101162989863382 0.0017277459352938013 0.00037341705456958097 -0.0006897933800402893 0.0 0.0
0.0 0.003686863513640343 -0.0033119640326592986 0.002813154522591501 0.0004988095100677966 -0.000962820462429621 0.0 0.0
0.0 0.005814933032028941 -0.005157700051293129 0.004537116890985743 0.0006205831603073859 -0.0013674119339188865 0.0 0.0
0.0 0.009040930338777127 -0.00795111467275516 0.00722636093330297 0.0007247537394521878 -0.0019891743881088756 0.0 0.0
0.0 0.013729807728860687 -0.011971591139341934 0.011160779236021583 0.0008108119033203472 -0.002889520706371537 0.0 0.0
0.0 0.019993558661353553 -0.01735252661296215 0.016470801841962056 0.0008817247710000919 -0.004055599100598374 0.0 0.0
0.0 0.027492702296244766 -0.023991135229051566 0.0230361470894144 0.0009549881396371617 -0.005417402412824445 0.0 0.0
0.0 0.03584332904070737 -0.031194371213051963 0.030135903734188597 0.0010584674788633743 -0.007223391611213179 0.0 0.0
0.0 0.042875702855217274 -0.037186069355109555 0.03599016365805935 0.0011959056970501994 -0.01014875575552624 0.0 0.0
0.0 0.045187542868991445 -0.03892489018092556 0.03757023622268528 0.0013546539582402792 -0.014286805011372507 0.0 0.0
0.0 0.03810728182096872 -0.032153819300314995 0.03065828722873596 0.0014955320715790274 -0.018109989682612574 0.0 0.0
0.0 0.03810728182097039 -0.032153819300314496 0.030658287228735738 0.0014955320715787461 0.01810998968262531 0.0 0.0
0.0 0.04518754286899083 -0.038924890180923426 0.03757023622268357 0.0013546539582398372 0.0142868050113877 0.0 0.0
0.0 0.04287570285521527 -0.037186069355106884 0.035990163658056976 0.001195905697049892 0.010148755755538023 0.0 0.0
0.0 0.03584332904070396 -0.031194371213048626 0.030135903734185513 0.0010584674788630922 0.00722339161121747 0.0 0.0
0.0 0.02749270229623983 -0.023991135229047063 0.023036147089410146 0.0009549881396369116 0.005417402412825959 0.0 0.0
0.0 0.019993558661349813 -0.017352526612958514 0.016470801841959037 0.000881724770999475 0.004055599100599225 0.0 0.0
0.0 0.013729807728856524 -0.011971591139337916 0.011160779236018164 0.0008108119033197569 0.0028895207063713655 0.0 0.0
0.0 0.009040930338772128 -0.007951114672750365 0.007226360933298693 0.0007247537394516715 0.001989174388107989 0.0 0.0
0.0 0.005814933032022872 -0.0051577000512871 0.00453711689098025 0.000620583160306849 0.001367411933917945 0.0 0.0
0.0 0.003686863513634922 -0.0033119640326537384 0.002813154522586619 0.0004988095100671187 0.0009628204624275623 0.0 0.0
0.0 0.0023129037459832247 -0.002101162989858911 0.001727745935290052 0.00037341705456885835 0.0006897933800387094 0.0 0.0
0.0 0.0014166841812843496 -0.0012816939912620707 0.0010272750214678503 0.00025441896979422015 0.0004920856645777767 0.0 0.0
0.0 0.0007829533717418112 -0.0007070344735411226 0.0005567670776240209 0.0001502673959171015 0.0003304765735628986 0.0 0.0
0.0 0.00035251020503688146 -0.00026339423725204095 0.00020499601098743588 5.839822626460519e-05 0.0001584070588029936 0.0 0.0
0.0 0.00014455650661319327 6.7170359704553506e-06 -5.126651302674451e-06 -1.5903846677809392e-06 -4.64636963493575e-06 0.0 0.0
0.0 3.3624237426677116e-05 4.220013028266174e-06 -3.247248474693658e-06 -9.72764553572584e-07 -4.109539754769875e-06 0.0 0.0
0.0 5.62685078962591e-07 4.981005849409321e-08 -3.923198291257816e-08 -1.0578075581514308e-08 -7.22976867946734e-08 0.0 0.0
0.0 0.0 0.0 0.0 0.0 0.0 0.0 0.0
0.0 0.0 0.0 0.0 0.0 0.0 0.0 0.0
0.0 0.0 0.0 0.0 0.0 0.0 0.0 0.0
0.0 0.0 0.0 0.0 0.0 0.0 0.0 0.0
0.0 0.0 0.0 0.0 0.0 0.0 0.0 0.0
0.0 0.0 0.0 0.0 0.0 0.0 0.0 0.0
0.0 1.1489386621954427e-06 1.1670274780742801e-07 -9.154502768360933e-08 -2.5157720123817856e-08 1.2057526376752907e-07 0.0 0.0
0.0 6.436331433646125e-05 8.895450456086003e-06 -6.871037593997346e-06 -2.02441286208858e-06 6.306131010725169e-06 0.0 0.0
0.0 0.0002604841189635653 -8.148180239762729e-05 6.361988216556255e-05 1.786192023206471e-05 -4.64684273190681e-05 0.0 0.0
0.0 0.0005732665849378897 -0.0005240671775025346 0.00040991791432511864 0.00011414926317741597 -0.00019459208187074886 0.0 0.0
0.0 0.001157975354411658 -0.0010627476864669494 0.0008453765881172982 0.0002173710983496514 -0.00031683002368004516 0.0 0.0
0.0 0.0019460348265308665 -0.001777259671931727 0.0014441714162298433 0.00033308825570188354 -0.00044071871902527974 0.0 0.0
0.0 0.003058714854226224 -0.0027785276584284865 0.002321687700227922 0.0004568399582005644 -0.0006026028600770394 0.0 0.0
0.0 0.004743766461930039 -0.004245106409925748 0.0036650610828320267 0.0005800453270937202 -0.0008309308495013262 0.0 0.0
0.0 0.00725309354229378 -0.006463878620779427 0.005769658642552832 0.000694219978226594 -0.0011642250450045494 0.0 0.0
0.0 0.011149579183801125 -0.009771376245117617 0.008981327990264954 0.0007900482548526631 -0.001670685861346878 0.0 0.0
0.0 0.016445647538307743 -0.014470370554732508 0.013599169945509918 0.0008712006092225827 -0.0024499364454020948 0.0 0.0
0.0 0.023512449944218874 -0.0206444224718062 0.01969979192017312 0.0009446305516330699 -0.0034538579804772487 0.0 0.0
0.0 0.0321223122759043 -0.02811179773754055 0.027091511349943476 0.0010202863875970708 -0.004429502066713275 0.0 0.0
0.0 0.04143533686724639 -0.0362041721666268 0.035086257732236815 0.0011179144343899834 -0.005357533777110238 0.0 0.0
0.0 0.04950765554644404 -0.04318001428303501 0.04191032787575796 0.0012696864072770481 -0.007503455279895038 0.0 0.0
0.0 0.05260977081368448 -0.045620004896118296 0.04416361093958274 0.0014563939565355654 -0.012649575039901533 0.0 0.0
0.0 0.04530166194727829 -0.03831587247962182 0.03668544925607674 0.0016304232235450765 -0.02046685493430878 0.0 0.0
0.0 0.04530166194727963 -0.03831587247962151 0.03668544925607637 0.0016304232235451262 0.02046685493432019 0.0 0.0
0.0 0.05260977081368321 -0.04562000489611606 0.04416361093958074 0.0014563939565353109 0.012649575039915817 0.0 0.0
0.0 0.049507655546441036 -0.043180014283031726 0.04191032787575514 0.0012696864072765956 0.007503455279906191 0.0 0.0
0.0 0.04143533686724347 -0.036204172166623944 0.03508625773223442 0.0011179144343895157 0.005357533777114049 0.0 0.0
0.0 0.032122312275899345 -0.02811179773753595 0.02709151134993936 0.0010202863875965818 0.004429502066715201 0.0 0.0
0.0 0.023512449944213854 -0.02064442247180154 0.019699791920169057 0.0009446305516324798 0.003453857980477856 0.0 0.0
0.0 0.01644564753830281 -0.01447037055472786 0.01359916994550599 0.0008712006092218716 0.0024499364454021104 0.0 0.0
0.0 0.01114957918379468 -0.009771376245111606 0.008981327990259582 0.0007900482548520259 0.0016706858613459723 0.0 0.0
0.0 0.007253093542286926 -0.0064638786207730625 0.005769658642547101 0.0006942199782259595 0.001164225045003843 0.0 0.0
0.0 0.004743766461923706 -0.004245106409919347 0.003665061082826288 0.0005800453270930588 0.00083093084949948 0.0 0.0
0.0 0.0030587148542206614 -0.0027785276584226374 0.0023216877002228986 0.000456839958199739 0.0006026028600752977 0.0 0.0
0.0 0.0019460348265261597 -0.001777259671926765 0.0014441714162256973 0.00033308825570106725 0.00044071871902419814 0.0 0.0
0.0 0.0011579753544080289 -0.0010627476864629327 0.0008453765881140519 0.0002173710983488806 0.00031683002367911996 0.0 0.0
0.0 0.0005732665849349792 -0.0005240671774995204 0.0004099179143227418 0.00011414926317677862 0.00019459208186977457 0.0 0.0
0.0 0.0002604841189613779 -8.148180239641345e-05 6.361988216462244e-05 1.7861920231791176e-05 4.646842731839906e-05 0.0 0.0
0.0 6.436331433524684e-05 8.895450455917108e-06 -6.8710375938664015e-06 -2.024412862050632e-06 -6.306131010618698e-06 0.0 0.0
0.0 1.1489386619426641e-06 1.1670274778037547e-07 -9.154502766237707e-08 -2.515772011799043e-08 -1.2057526373960747e-07 0.0 0.0
0.0 0.0 0.0 0.0 0.0 0.0 0.0 0.0
0.0 0.0 0.0 0.0 0.0 0.0 0.0 0.0
0.0 0.0 0.0 0.0 0.0 0.0 0.0 0.0
0.0 0.0 0.0 0.0 0.0 0.0 0.0 0.0
0.0 0.0 0.0 0.0 0.0 0.0 0.0 0.0
0.0 0.0 0.0 0.0 0.0 0.0 0.0 0.0
0.0 4.8355889135020955e-06 6.002376701891986e-07 -4.668096449175088e-07 -1.334280252716587e-07 3.941349933780511e-07 0.0 0.0
0.0 0.00011945561078991344 1.5356050854477188e-05 -1.1781912278261676e-05 -3.574138576215348e-06 6.117864251207541e-06 0.0 0.0
0.0 0.000329699608744477 -0.0003072742917496034 0.00023889280817967644 6.838148356992687e-05 -8.426072282224456e-05 0.0 0.0
0.0 0.0008704572548333961 -0.0008073215583897908 0.0006367502113744387 0.00017057134701535184 -0.00016588171833876992 0.0 0.0
0.0 0.0015698188141242543 -0.0014544576821804473 0.0011693706596303548 0.0002850870225500925 -0.00024046734759216356 0.0 0.0
0.0 0.0025185128970276215 -0.0023088644018120306 0.0019022651863889867 0.0004065992154230431 -0.0003257017844345162 0.0 0.0
0.0 0.003852516573344899 -0.003496067976587975 0.002964796256728012 0.0005312717198599627 -0.00044162284629659196 0.0 0.0
0.0 0.005835427018012691 -0.005226983802934036 0.004575796861343692 0.0006511869415903443 -0.0006010019529289806 0.0 0.0
0.0 0.008890331038070475 -0.00782365504624814 0.007065547038813217 0.000758108007434922 -0.000829538307245016 0.0 0.0
0.0 0.013164013495401335 -0.01166635596060253 0.010818552349815606 0.0008478036107869265 -0.0012072081712689049 0.0 0.0
0.0 0.019267040487843935 -0.017027901967204474 0.01610063107312878 0.0009272708940756851 -0.0017666970923656774 0.0 0.0
0.0 0.027254211402733167 -0.0239621640881632 0.02295521098341025 0.0010069531047529477 -0.0024557094399302775 0.0 0.0
0.0 0.036700778305042495 -0.03217017765312684 0.031080062608702098 0.0010901150444247356 -0.0030836381883742967 0.0 0.0
0.0 0.04671867429368433 -0.04088627782768219 0.03970411789182335 0.0011821599358588487 -0.003289461126379461 0.0 0.0
0.0 0.05565409789092775 -0.04864755702556784 0.047343928179523195 0.001303628846044649 -0.0037999245627632124 0.0 0.0
0.0 0.060162658466115834 -0.05235974994753135 0.05081347730308818 0.0015462726444431412 -0.009036664955623589 0.0 0.0
0.0 0.05332354052546952 -0.04524086361950662 0.04344808062800413 0.001792782991502456 -0.02219850471828083 0.0 0.0
0.0 0.05332354052546995 -0.04524086361950598 0.043448080628003594 0.001792782991502382 0.022198504718288534 0.0 0.0
0.0 0.06016265846611373 -0.05235974994752886 0.05081347730308607 0.0015462726444427951 0.009036664955634592 0.0 0.0
0.0 0.05565409789092393 -0.04864755702556414 0.04734392817951988 0.0013036288460442475 0.0037999245627725765 0.0 0.0
0.0 0.046718674293679686 -0.04088627782767777 0.03970411789181962 0.0011821599358581372 0.003289461126381208 0.0 0.0
0.0 0.03670077830503755 -0.032170177653122176 0.031080062608698243 0.001090115044423925 0.0030836381883754998 0.0 0.0
0.0 0.02725421140272799 -0.0239621640881584 0.02295521098340616 0.0010069531047522376 0.0024557094399307263 0.0 0.0
0.0 0.019267040487837585 -0.017027901967198653 0.016100631073123647 0.0009272708940750073 0.0017666970923659949 0.0 0.0
0.0 0.013164013495394256 -0.011666355960596007 0.010818552349809838 0.0008478036107861686 0.0012072081712684107 0.0 0.0
0.0 0.008890331038062839 -0.007823655046240833 0.0070655470388068225 0.0007581080074340088 0.0008295383072450258 0.0 0.0
0.0 0.0058354270180052716 -0.005226983802927062 0.004575796861337603 0.0006511869415894598 0.0006010019529279344 0.0 0.0
0.0 0.0038525165733392444 -0.0034960679765822923 0.002964796256723132 0.0005312717198591595 0.00044162284629564285 0.0 0.0
0.0 0.0025185128970225245 -0.0023088644018064383 0.0019022651863842516 0.00040659921542218655 0.00032570178443397813 0.0 0.0
0.0 0.0015698188141195064 -0.0014544576821754027 0.0011693706596261446 0.0002850870225492579 0.00024046734759158444 0.0 0.0
0.0 0.0008704572548299721 -0.0008073215583859537 0.0006367502113713507 0.00017057134701460298 0.00016588171833806041 0.0 0.0
0.0 0.00032969960874231613 -0.0003072742917473621 0.0002388928081779219 6.838148356944011e-05 8.426072282157848e-05 0.0 0.0
0.0 0.00011945561078882779 1.5356050854403083e-05 -1.1781912278207302e-05 -3.574138576195925e-06 -6.117864251182299e-06 0.0 0.0
0.0 4.835588913272984e-06 6.002376701574874e-07 -4.6680964489287327e-07 -1.3342802526460503e-07 -3.9413499335708405e-07 0.0 0.0
0.0 0.0 0.0 0.0 0.0 0.0 0.0 0.0
0.0 0.0 0.0 0.0 0.0 0.0 0.0 0.0
0.0 0.0 0.0 0.0 0.0 0.0 0.0 0.0
0.0 0.0 0.0 0.0 0.0 0.0 0.0 0.0
0.0 0.0 0.0 0.0 0.0 0.0 0.0 0.0
0.0 0.0 0.0 0.0 0.0 0.0 0.0 0.0
0.0 1.3057732419334775e-05 1.7727521687385542e-06 -1.3634863378254154e-06 -4.0926583091313135e-07 4.570845354463775e-07 0.0 0.0
0.0 0.0002277218443589732 3.101950136174324e-07 1.6679316165915586e-07 -4.769881752761093e-07 -2.248672429171378e-06 0.0 0.0
0.0 0.0005522918666686206 -0.0005140887515944817 0.00040134472280288193 0.00011274402879159975 -4.856442991897917e-05 0.0 0.0
0.0 0.0011953914068593978 -0.0011199904421828936 0.0008914334443057073 0.00022855699787718614 -7.964674352203077e-05 0.0 0.0
0.0 0.0020283131151123115 -0.001872415424220372 0.0015230188872899062 0.00034939653693046567 -0.00010822672431399868 0.0 0.0
0.0 0.0031453640618944395 -0.0028685986209759946 0.002394380698994354 0.0004742179219816391 -0.00014753436357289087 0.0 0.0
0.0 0.004725343465573377 -0.004244743269286996 0.0036464085910411104 0.000598334678245886 -0.00020468523432578628 0.0 0.0
0.0 0.007083232413355893 -0.006248341106642071 0.005535193563028253 0.0007131475436138166 -0.00027426549001282664 0.0 0.0
0.0 0.010369243655768634 -0.009253985387801044 0.008439285712401186 0.000814699675399857 -0.0003903196517168823 0.0 0.0
0.0 0.015302615322721556 -0.013616495310353851 0.012715649929721724 0.0009008453806321269 -0.0005656442902009219 0.0 0.0
0.0 0.022199206260461322 -0.019615506624858937 0.01863379357597605 0.0009817130488828825 -0.0008012096992021403 0.0 0.0
0.0 0.031022942928816848 -0.02728142824433762 0.02621405356797227 0.0010673746763653392 -0.0010880999022347645 0.0 0.0
0.0 0.041298473031858796 -0.03618092665154314 0.03502020297475109 0.0011607236767920501 -0.0013006623631280716 0.0 0.0
0.0 0.051888688163807914 -0.045354162016127283 0.04409719487024387 0.0012569671458834196 -0.0012020156917395253 0.0 0.0
0.0 0.061071982477037656 -0.05334324824308995 0.0519883148759199 0.0013549333671700435 -0.0005464437683354677 0.0 0.0
0.0 0.06690095734063956 -0.058333803845754977 0.0568658917077107 0.0014679121380442666 -0.0020638427346665656 0.0 0.0
0.0 0.06297240807053736 -0.053894642354259656 0.05180991592597624 0.0020847264282834073 -0.020732963773143088 0.0 0.0
0.0 0.06297240807053647 -0.05389464235425845 0.05180991592597498 0.002084726428283469 0.020732963773146845 0.0 0.0
0.0 0.0669009573406346 -0.05833380384575074 0.05686589170770642 0.001467912138044314 0.0020638427346717455 0.0 0.0
0.0 0.06107198247703223 -0.05334324824308506 0.051988314875915376 0.0013549333671696762 0.0005464437683398464 0.0 0.0
0.0 0.05188868816380268 -0.045354162016122385 0.0440971948702396 0.001256967145882778 0.001202015691738922 0.0 0.0
0.0 0.0412984730318533 -0.03618092665153798 0.03502020297474671 0.0011607236767912624 0.0013006623631287204 0.0 0.0
0.0 0.031022942928811085 -0.027281428244332197 0.026214053567967747 0.0010673746763644547 0.0010880999022350275 0.0 0.0
0.0 0.022199206260454487 -0.01961550662485259 0.018633793575970618 0.0009817130488819718 0.000801209699202527 0.0 0.0
0.0 0.015302615322713268 -0.013616495310346309 0.012715649929715012 0.0009008453806312952 0.0005656442902005339 0.0 0.0
0.0 0.010369243655759036 -0.009253985387792327 0.008439285712393206 0.0008146996753991196 0.0003903196517169229 0.0 0.0
0.0 0.007083232413346852 -0.006248341106633607 0.00553519356302055 0.0007131475436130557 0.00027426549001212787 0.0 0.0
0.0 0.00472534346556575 -0.004244743269280043 0.003646408591034906 0.0005983346782451372 0.0002046852343252978 0.0 0.0
0.0 0.0031453640618886594 -0.0028685986209701212 0.0023943806989893024 0.0004742179219808188 0.00014753436357256442 0.0 0.0
0.0 0.0020283131151067027 -0.0018724154242144202 0.001523018887284893 0.0003493965369295271 0.00010822672431367854 0.0 0.0
0.0 0.0011953914068550623 -0.0011199904421781515 0.0008914334443018773 0.00022855699787627378 7.964674352169365e-05 0.0 0.0
0.0 0.0005522918666657489 -0.0005140887515911436 0.0004013447228002468 0.00011274402879089682 4.8564429918659976e-05 0.0 0.0
0.0 0.00022772184435727985 3.1019501408343775e-07 1.6679316129506298e-07 -4.76988175378138e-07 2.2486724290689663e-06 0.0 0.0
0.0 1.3057732418754222e-05 1.7727521686575363e-06 -1.363486337763767e-06 -4.0926583089372275e-07 -4.570845354293567e-07 0.0 0.0
0.0 0.0 0.0 0.0 0.0 0.0 0.0 0.0
0.0 0.0 0.0 0.0 0.0 0.0 0.0 0.0
0.0 0.0 0.0 0.0 0.0 0.0 0.0 0.0