# vtk DataFile Version 3.0
Some data
ASCII
DATASET UNSTRUCTURED_GRID
POINTS 861 float
0.0 0.0 0.0
0.4 0.0 0.0
0.8 0.0 0.0
1.2000000000000002 0.0 0.0
1.6 0.0 0.0
2.0 0.0 0.0
2.4000000000000004 0.0 0.0
2.8000000000000003 0.0 0.0
3.2 0.0 0.0
3.6 0.0 0.0
4.0 0.0 0.0
4.4 0.0 0.0
4.800000000000001 0.0 0.0
5.2 0.0 0.0
5.6000000000000005 0.0 0.0
6.0 0.0 0.0
6.4 0.0 0.0
6.800000000000001 0.0 0.0
7.2 0.0 0.0
7.6000000000000005 0.0 0.0
8.0 0.0 0.0
8.4 0.0 0.0
8.8 0.0 0.0
9.200000000000001 0.0 0.0
9.600000000000001 0.0 0.0
10.0 0.0 0.0
10.4 0.0 0.0
10.8 0.0 0.0
11.200000000000001 0.0 0.0
11.600000000000001 0.0 0.0
12.0 0.0 0.0
12.4 0.0 0.0
12.8 0.0 0.0
13.200000000000001 0.0 0.0
13.600000000000001 0.0 0.0
14.0 0.0 0.0
14.4 0.0 0.0
14.8 0.0 0.0
15.200000000000001 0.0 0.0
15.600000000000001 0.0 0.0
16.0 0.0 0.0
0.0 0.1 0.0
0.4 0.1 0.0
0.8 0.1 0.0
1.2000000000000002 0.1 0.0
1.6 0.1 0.0
2.0 0.1 0.0
2.4000000000000004 0.1 0.0
2.8000000000000003 0.1 0.0
3.2 0.1 0.0
3.6 0.1 0.0
4.0 0.1 0.0
4.4 0.1 0.0
4.800000000000001 0.1 0.0
5.2 0.1 0.0
5.6000000000000005 0.1 0.0
6.0 0.1 0.0
6.4 0.1 0.0
6.800000000000001 0.1 0.0
7.2 0.1 0.0
7.6000000000000005 0.1 0.0
8.0 0.1 0.0
8.4 0.1 0.0
8.8 0.1 0.0
9.200000000000001 0.1 0.0
9.600000000000001 0.1 0.0
10.0 0.1 0.0
10.4 0.1 0.0
10.8 0.1 0.0
11.200000000000001 0.1 0.0
11.600000000000001 0.1 0.0
12.0 0.1 0.0
12.4 0.1 0.0
12.8 0.1 0.0
13.200000000000001 0.1 0.0
13.600000000000001 0.1 0.0
14.0 0.1 0.0
14.4 0.1 0.0
14.8 0.1 0.0
15.200000000000001 0.1 0.0
15.600000000000001 0.1 0.0
16.0 0.1 0.0
0.0 0.2 0.0
0.4 0.2 0.0
0.8 0.2 0.0
1.2000000000000002 0.2 0.0
1.6 0.2 0.0
2.0 0.2 0.0
2.4000000000000004 0.2 0.0
2.8000000000000003 0.2 0.0
3.2 0.2 0.0
3.6 0.2 0.0
4.0 0.2 0.0
4.4 0.2 0.0
4.800000000000001 0.2 0.0
5.2 0.2 0.0
5.6000000000000005 0.2 0.0
6.0 0.2 0.0
6.4 0.2 0.0
6.800000000000001 0.2 0.0
7.2 0.2 0.0
7.6000000000000005 0.2 0.0
8.0 0.2 0.0
8.4 0.2 0.0
8.8 0.2 0.0
9.200000000000001 0.2 0.0
9.600000000000001 0.2 0.0
10.0 0.2 0.0
10.4 0.2 0.0
10.8 0.2 0.0
11.200000000000001 0.2 0.0
11.600000000000001 0.2 0.0
12.0 0.2 0.0
12.4 0.2 0.0
12.8 0.2 0.0
13.200000000000001 0.2 0.0
13.600000000000001 0.2 0.0
14.0 0.2 0.0
14.4 0.2 0.0
14.8 0.2 0.0
15.200000000000001 0.2 0.0
15.600000000000001 0.2 0.0
16.0 0.2 0.0
0.0 0.30000000000000004 0.0
0.4 0.30000000000000004 0.0
0.8 0.30000000000000004 0.0
1.2000000000000002 0.30000000000000004 0.0
1.6 0.30000000000000004 0.0
2.0 0.30000000000000004 0.0
2.4000000000000004 0.30000000000000004 0.0
2.8000000000000003 0.30000000000000004 0.0
3.2 0.30000000000000004 0.0
3.6 0.30000000000000004 0.0
4.0 0.30000000000000004 0.0
4.4 0.30000000000000004 0.0
4.800000000000001 0.30000000000000004 0.0
5.2 0.30000000000000004 0.0
5.6000000000000005 0.30000000000000004 0.0
6.0 0.30000000000000004 0.0
6.4 0.30000000000000004 0.0
6.800000000000001 0.30000000000000004 0.0
7.2 0.30000000000000004 0.0
7.6000000000000005 0.30000000000000004 0.0
8.0 0.30000000000000004 0.0
8.4 0.30000000000000004 0.0
8.8 0.30000000000000004 0.0
9.200000000000001 0.30000000000000004 0.0
9.600000000000001 0.30000000000000004 0.0
10.0 0.30000000000000004 0.0
10.4 0.30000000000000004 0.0
10.8 0.30000000000000004 0.0
11.200000000000001 0.30000000000000004 0.0
11.600000000000001 0.30000000000000004 0.0
12.0 0.30000000000000004 0.0
12.4 0.30000000000000004 0.0
12.8 0.30000000000000004 0.0
13.200000000000001 0.30000000000000004 0.0
13.600000000000001 0.30000000000000004 0.0
14.0 0.30000000000000004 0.0
14.4 0.30000000000000004 0.0
14.8 0.30000000000000004 0.0
15.200000000000001 0.30000000000000004 0.0
15.600000000000001 0.30000000000000004 0.0
16.0 0.30000000000000004 0.0
0.0 0.4 0.0
0.4 0.4 0.0
0.8 0.4 0.0
1.2000000000000002 0.4 0.0
1.6 0.4 0.0
2.0 0.4 0.0
2.4000000000000004 0.4 0.0
2.8000000000000003 0.4 0.0
3.2 0.4 0.0
3.6 0.4 0.0
4.0 0.4 0.0
4.4 0.4 0.0
4.800000000000001 0.4 0.0
5.2 0.4 0.0
5.6000000000000005 0.4 0.0
6.0 0.4 0.0
6.4 0.4 0.0
6.800000000000001 0.4 0.0
7.2 0.4 0.0
7.6000000000000005 0.4 0.0
8.0 0.4 0.0
8.4 0.4 0.0
8.8 0.4 0.0
9.200000000000001 0.4 0.0
9.600000000000001 0.4 0.0
10.0 0.4 0.0
10.4 0.4 0.0
10.8 0.4 0.0
11.200000000000001 0.4 0.0
11.600000000000001 0.4 0.0
12.0 0.4 0.0
12.4 0.4 0.0
12.8 0.4 0.0
13.200000000000001 0.4 0.0
13.600000000000001 0.4 0.0
14.0 0.4 0.0
14.4 0.4 0.0
14.8 0.4 0.0
15.200000000000001 0.4 0.0
15.600000000000001 0.4 0.0
16.0 0.4 0.0
0.0 0.5 0.0
0.4 0.5 0.0
0.8 0.5 0.0
1.2000000000000002 0.5 0.0
1.6 0.5 0.0
2.0 0.5 0.0
2.4000000000000004 0.5 0.0
2.8000000000000003 0.5 0.0
3.2 0.5 0.0
3.6 0.5 0.0
4.0 0.5 0.0
4.4 0.5 0.0
4.800000000000001 0.5 0.0
5.2 0.5 0.0
5.6000000000000005 0.5 0.0
6.0 0.5 0.0
6.4 0.5 0.0
6.800000000000001 0.5 0.0
7.2 0.5 0.0
7.6000000000000005 0.5 0.0
8.0 0.5 0.0
8.4 0.5 0.0
8.8 0.5 0.0
9.200000000000001 0.5 0.0
9.600000000000001 0.5 0.0
10.0 0.5 0.0
10.4 0.5 0.0
10.8 0.5 0.0
11.200000000000001 0.5 0.0
11.600000000000001 0.5 0.0
12.0 0.5 0.0
12.4 0.5 0.0
12.8 0.5 0.0
13.200000000000001 0.5 0.0
13.600000000000001 0.5 0.0
14.0 0.5 0.0
14.4 0.5 0.0
14.8 0.5 0.0
15.200000000000001 0.5 0.0
15.600000000000001 0.5 0.0
16.0 0.5 0.0
0.0 0.6000000000000001 0.0
0.4 0.6000000000000001 0.0
0.8 0.6000000000000001 0.0
1.2000000000000002 0.6000000000000001 0.0
1.6 0.6000000000000001 0.0
2.0 0.6000000000000001 0.0
2.4000000000000004 0.6000000000000001 0.0
2.8000000000000003 0.6000000000000001 0.0
3.2 0.6000000000000001 0.0
3.6 0.6000000000000001 0.0
4.0 0.6000000000000001 0.0
4.4 0.6000000000000001 0.0
4.800000000000001 0.6000000000000001 0.0
5.2 0.6000000000000001 0.0
5.6000000000000005 0.6000000000000001 0.0
6.0 0.6000000000000001 0.0
6.4 0.6000000000000001 0.0
6.800000000000001 0.6000000000000001 0.0
7.2 0.6000000000000001 0.0
7.6000000000000005 0.6000000000000001 0.0
8.0 0.6000000000000001 0.0
8.4 0.6000000000000001 0.0
8.8 0.6000000000000001 0.0
9.200000000000001 0.6000000000000001 0.0
9.600000000000001 0.6000000000000001 0.0
10.0 0.6000000000000001 0.0
10.4 0.6000000000000001 0.0
10.8 0.6000000000000001 0.0
11.200000000000001 0.6000000000000001 0.0
11.600000000000001 0.6000000000000001 0.0
12.0 0.6000000000000001 0.0
12.4 0.6000000000000001 0.0
12.8 0.6000000000000001 0.0
13.200000000000001 0.6000000000000001 0.0
13.600000000000001 0.6000000000000001 0.0
14.0 0.6000000000000001 0.0
14.4 0.6000000000000001 0.0
14.8 0.6000000000000001 0.0
15.200000000000001 0.6000000000000001 0.0
15.600000000000001 0.6000000000000001 0.0
16.0 0.6000000000000001 0.0
0.0 0.7000000000000001 0.0
0.4 0.7000000000000001 0.0
0.8 0.7000000000000001 0.0
1.2000000000000002 0.7000000000000001 0.0
1.6 0.7000000000000001 0.0
2.0 0.7000000000000001 0.0
2.4000000000000004 0.7000000000000001 0.0
2.8000000000000003 0.7000000000000001 0.0
3.2 0.7000000000000001 0.0
3.6 0.7000000000000001 0.0
4.0 0.7000000000000001 0.0
4.4 0.7000000000000001 0.0
4.800000000000001 0.7000000000000001 0.0
5.2 0.7000000000000001 0.0
5.6000000000000005 0.7000000000000001 0.0
6.0 0.7000000000000001 0.0
6.4 0.7000000000000001 0.0
6.800000000000001 0.7000000000000001 0.0
7.2 0.7000000000000001 0.0
7.6000000000000005 0.7000000000000001 0.0
8.0 0.7000000000000001 0.0
8.4 0.7000000000000001 0.0
8.8 0.7000000000000001 0.0
9.200000000000001 0.7000000000000001 0.0
9.600000000000001 0.7000000000000001 0.0
10.0 0.7000000000000001 0.0
10.4 0.7000000000000001 0.0
10.8 0.7000000000000001 0.0
11.200000000000001 0.7000000000000001 0.0
11.600000000000001 0.7000000000000001 0.0
12.0 0.7000000000000001 0.0
12.4 0.7000000000000001 0.0
12.8 0.7000000000000001 0.0
13.200000000000001 0.7000000000000001 0.0
13.600000000000001 0.7000000000000001 0.0
14.0 0.7000000000000001 0.0
14.4 0.7000000000000001 0.0
14.8 0.7000000000000001 0.0
15.200000000000001 0.7000000000000001 0.0
15.600000000000001 0.7000000000000001 0.0
16.0 0.7000000000000001 0.0
0.0 0.8 0.0
0.4 0.8 0.0
0.8 0.8 0.0
1.2000000000000002 0.8 0.0
1.6 0.8 0.0
2.0 0.8 0.0
2.4000000000000004 0.8 0.0
2.8000000000000003 0.8 0.0
3.2 0.8 0.0
3.6 0.8 0.0
4.0 0.8 0.0
4.4 0.8 0.0
4.800000000000001 0.8 0.0
5.2 0.8 0.0
5.6000000000000005 0.8 0.0
6.0 0.8 0.0
6.4 0.8 0.0
6.800000000000001 0.8 0.0
7.2 0.8 0.0
7.6000000000000005 0.8 0.0
8.0 0.8 0.0
8.4 0.8 0.0
8.8 0.8 0.0
9.200000000000001 0.8 0.0
9.600000000000001 0.8 0.0
10.0 0.8 0.0
10.4 0.8 0.0
10.8 0.8 0.0
11.200000000000001 0.8 0.0
11.600000000000001 0.8 0.0
12.0 0.8 0.0
12.4 0.8 0.0
12.8 0.8 0.0
13.200000000000001 0.8 0.0
13.600000000000001 0.8 0.0
14.0 0.8 0.0
14.4 0.8 0.0
14.8 0.8 0.0
15.200000000000001 0.8 0.0
15.600000000000001 0.8 0.0
16.0 0.8 0.0
0.0 0.9 0.0
0.4 0.9 0.0
0.8 0.9 0.0
1.2000000000000002 0.9 0.0
1.6 0.9 0.0
2.0 0.9 0.0
2.4000000000000004 0.9 0.0
2.8000000000000003 0.9 0.0
3.2 0.9 0.0
3.6 0.9 0.0
4.0 0.9 0.0
4.4 0.9 0.0
4.800000000000001 0.9 0.0
5.2 0.9 0.0
5.6000000000000005 0.9 0.0
6.0 0.9 0.0
6.4 0.9 0.0
6.800000000000001 0.9 0.0
7.2 0.9 0.0
7.6000000000000005 0.9 0.0
8.0 0.9 0.0
8.4 0.9 0.0
8.8 0.9 0.0
9.200000000000001 0.9 0.0
9.600000000000001 0.9 0.0
10.0 0.9 0.0
10.4 0.9 0.0
10.8 0.9 0.0
11.200000000000001 0.9 0.0
11.600000000000001 0.9 0.0
12.0 0.9 0.0
12.4 0.9 0.0
12.8 0.9 0.0
13.200000000000001 0.9 0.0
13.600000000000001 0.9 0.0
14.0 0.9 0.0
14.4 0.9 0.0
14.8 0.9 0.0
15.200000000000001 0.9 0.0
15.600000000000001 0.9 0.0
16.0 0.9 0.0
0.0 1.0 0.0
0.4 1.0 0.0
0.8 1.0 0.0
1.2000000000000002 1.0 0.0
1.6 1.0 0.0
2.0 1.0 0.0
2.4000000000000004 1.0 0.0
2.8000000000000003 1.0 0.0
3.2 1.0 0.0
3.6 1.0 0.0
4.0 1.0 0.0
4.4 1.0 0.0
4.800000000000001 1.0 0.0
5.2 1.0 0.0
5.6000000000000005 1.0 0.0
6.0 1.0 0.0
6.4 1.0 0.0
6.800000000000001 1.0 0.0
7.2 1.0 0.0
7.6000000000000005 1.0 0.0
8.0 1.0 0.0
8.4 1.0 0.0
8.8 1.0 0.0
9.200000000000001 1.0 0.0
9.600000000000001 1.0 0.0
10.0 1.0 0.0
10.4 1.0 0.0
10.8 1.0 0.0
11.200000000000001 1.0 0.0
11.600000000000001 1.0 0.0
12.0 1.0 0.0
12.4 1.0 0.0
12.8 1.0 0.0
13.200000000000001 1.0 0.0
13.600000000000001 1.0 0.0
14.0 1.0 0.0
14.4 1.0 0.0
14.8 1.0 0.0
15.200000000000001 1.0 0.0
15.600000000000001 1.0 0.0
16.0 1.0 0.0
0.0 1.1 0.0
0.4 1.1 0.0
0.8 1.1 0.0
1.2000000000000002 1.1 0.0
1.6 1.1 0.0
2.0 1.1 0.0
2.4000000000000004 1.1 0.0
2.8000000000000003 1.1 0.0
3.2 1.1 0.0
3.6 1.1 0.0
4.0 1.1 0.0
4.4 1.1 0.0
4.800000000000001 1.1 0.0
5.2 1.1 0.0
5.6000000000000005 1.1 0.0
6.0 1.1 0.0
6.4 1.1 0.0
6.800000000000001 1.1 0.0
7.2 1.1 0.0
7.6000000000000005 1.1 0.0
8.0 1.1 0.0
8.4 1.1 0.0
8.8 1.1 0.0
9.200000000000001 1.1 0.0
9.600000000000001 1.1 0.0
10.0 1.1 0.0
10.4 1.1 0.0
10.8 1.1 0.0
11.200000000000001 1.1 0.0
11.600000000000001 1.1 0.0
12.0 1.1 0.0
12.4 1.1 0.0
12.8 1.1 0.0
13.200000000000001 1.1 0.0
13.600000000000001 1.1 0.0
14.0 1.1 0.0
14.4 1.1 0.0
14.8 1.1 0.0
15.200000000000001 1.1 0.0
15.600000000000001 1.1 0.0
16.0 1.1 0.0
0.0 1.2000000000000002 0.0
0.4 1.2000000000000002 0.0
0.8 1.2000000000000002 0.0
1.2000000000000002 1.2000000000000002 0.0
1.6 1.2000000000000002 0.0
2.0 1.2000000000000002 0.0
2.4000000000000004 1.2000000000000002 0.0
2.8000000000000003 1.2000000000000002 0.0
3.2 1.2000000000000002 0.0
3.6 1.2000000000000002 0.0
4.0 1.2000000000000002 0.0
4.4 1.2000000000000002 0.0
4.800000000000001 1.2000000000000002 0.0
5.2 1.2000000000000002 0.0
5.6000000000000005 1.2000000000000002 0.0
6.0 1.2000000000000002 0.0
6.4 1.2000000000000002 0.0
6.800000000000001 1.2000000000000002 0.0
7.2 1.2000000000000002 0.0
7.6000000000000005 1.2000000000000002 0.0
8.0 1.2000000000000002 0.0
8.4 1.2000000000000002 0.0
8.8 1.2000000000000002 0.0
9.200000000000001 1.2000000000000002 0.0
9.600000000000001 1.2000000000000002 0.0
10.0 1.2000000000000002 0.0
10.4 1.2000000000000002 0.0
10.8 1.2000000000000002 0.0
11.200000000000001 1.2000000000000002 0.0
11.600000000000001 1.2000000000000002 0.0
12.0 1.2000000000000002 0.0
12.4 1.2000000000000002 0.0
12.8 1.2000000000000002 0.0
13.200000000000001 1.2000000000000002 0.0
13.600000000000001 1.2000000000000002 0.0
14.0 1.2000000000000002 0.0
14.4 1.2000000000000002 0.0
14.8 1.2000000000000002 0.0
15.200000000000001 1.2000000000000002 0.0
15.600000000000001 1.2000000000000002 0.0
16.0 1.2000000000000002 0.0
0.0 1.3 0.0
0.4 1.3 0.0
0.8 1.3 0.0
1.2000000000000002 1.3 0.0
1.6 1.3 0.0
2.0 1.3 0.0
2.4000000000000004 1.3 0.0
2.8000000000000003 1.3 0.0
3.2 1.3 0.0
3.6 1.3 0.0
4.0 1.3 0.0
4.4 1.3 0.0
4.800000000000001 1.3 0.0
5.2 1.3 0.0
5.6000000000000005 1.3 0.0
6.0 1.3 0.0
6.4 1.3 0.0
6.800000000000001 1.3 0.0
7.2 1.3 0.0
7.6000000000000005 1.3 0.0
8.0 1.3 0.0
8.4 1.3 0.0
8.8 1.3 0.0
9.200000000000001 1.3 0.0
9.600000000000001 1.3 0.0
10.0 1.3 0.0
10.4 1.3 0.0
10.8 1.3 0.0
11.200000000000001 1.3 0.0
11.600000000000001 1.3 0.0
12.0 1.3 0.0
12.4 1.3 0.0
12.8 1.3 0.0
13.200000000000001 1.3 0.0
13.600000000000001 1.3 0.0
14.0 1.3 0.0
14.4 1.3 0.0
14.8 1.3 0.0
15.200000000000001 1.3 0.0
15.600000000000001 1.3 0.0
16.0 1.3 0.0
0.0 1.4000000000000001 0.0
0.4 1.4000000000000001 0.0
0.8 1.4000000000000001 0.0
1.2000000000000002 1.4000000000000001 0.0
1.6 1.4000000000000001 0.0
2.0 1.4000000000000001 0.0
2.4000000000000004 1.4000000000000001 0.0
2.8000000000000003 1.4000000000000001 0.0
3.2 1.4000000000000001 0.0
3.6 1.4000000000000001 0.0
4.0 1.4000000000000001 0.0
4.4 1.4000000000000001 0.0
4.800000000000001 1.4000000000000001 0.0
5.2 1.4000000000000001 0.0
5.6000000000000005 1.4000000000000001 0.0
6.0 1.4000000000000001 0.0
6.4 1.4000000000000001 0.0
6.800000000000001 1.4000000000000001 0.0
7.2 1.4000000000000001 0.0
7.6000000000000005 1.4000000000000001 0.0
8.0 1.4000000000000001 0.0
8.4 1.4000000000000001 0.0
8.8 1.4000000000000001 0.0
9.200000000000001 1.4000000000000001 0.0
9.600000000000001 1.4000000000000001 0.0
10.0 1.4000000000000001 0.0
10.4 1.4000000000000001 0.0
10.8 1.4000000000000001 0.0
11.200000000000001 1.4000000000000001 0.0
11.600000000000001 1.4000000000000001 0.0
12.0 1.4000000000000001 0.0
12.4 1.4000000000000001 0.0
12.8 1.4000000000000001 0.0
13.200000000000001 1.4000000000000001 0.0
13.600000000000001 1.4000000000000001 0.0
14.0 1.4000000000000001 0.0
14.4 1.4000000000000001 0.0
14.8 1.4000000000000001 0.0
15.200000000000001 1.4000000000000001 0.0
15.600000000000001 1.4000000000000001 0.0
16.0 1.4000000000000001 0.0
0.0 1.5 0.0
0.4 1.5 0.0
0.8 1.5 0.0
1.2000000000000002 1.5 0.0
1.6 1.5 0.0
2.0 1.5 0.0
2.4000000000000004 1.5 0.0
2.8000000000000003 1.5 0.0
3.2 1.5 0.0
3.6 1.5 0.0
4.0 1.5 0.0
4.4 1.5 0.0
4.800000000000001 1.5 0.0
5.2 1.5 0.0
5.6000000000000005 1.5 0.0
6.0 1.5 0.0
6.4 1.5 0.0
6.800000000000001 1.5 0.0
7.2 1.5 0.0
7.6000000000000005 1.5 0.0
8.0 1.5 0.0
8.4 1.5 0.0
8.8 1.5 0.0
9.200000000000001 1.5 0.0
9.600000000000001 1.5 0.0
10.0 1.5 0.0
10.4 1.5 0.0
10.8 1.5 0.0
11.200000000000001 1.5 0.0
11.600000000000001 1.5 0.0
12.0 1.5 0.0
12.4 1.5 0.0
12.8 1.5 0.0
13.200000000000001 1.5 0.0
13.600000000000001 1.5 0.0
14.0 1.5 0.0
14.4 1.5 0.0
14.8 1.5 0.0
15.200000000000001 1.5 0.0
15.600000000000001 1.5 0.0
16.0 1.5 0.0
0.0 1.6 0.0
0.4 1.6 0.0
0.8 1.6 0.0
1.2000000000000002 1.6 0.0
1.6 1.6 0.0
2.0 1.6 0.0
2.4000000000000004 1.6 0.0
2.8000000000000003 1.6 0.0
3.2 1.6 0.0
3.6 1.6 0.0
4.0 1.6 0.0
4.4 1.6 0.0
4.800000000000001 1.6 0.0
5.2 1.6 0.0
5.6000000000000005 1.6 0.0
6.0 1.6 0.0
6.4 1.6 0.0
6.800000000000001 1.6 0.0
7.2 1.6 0.0
7.6000000000000005 1.6 0.0
8.0 1.6 0.0
8.4 1.6 0.0
8.8 1.6 0.0
9.200000000000001 1.6 0.0
9.600000000000001 1.6 0.0
10.0 1.6 0.0
10.4 1.6 0.0
10.8 1.6 0.0
11.200000000000001 1.6 0.0
11.600000000000001 1.6 0.0
12.0 1.6 0.0
12.4 1.6 0.0
12.8 1.6 0.0
13.200000000000001 1.6 0.0
13.600000000000001 1.6 0.0
14.0 1.6 0.0
14.4 1.6 0.0
14.8 1.6 0.0
15.200000000000001 1.6 0.0
15.600000000000001 1.6 0.0
16.0 1.6 0.0
0.0 1.7000000000000002 0.0
0.4 1.7000000000000002 0.0
0.8 1.7000000000000002 0.0
1.2000000000000002 1.7000000000000002 0.0
1.6 1.7000000000000002 0.0
2.0 1.7000000000000002 0.0
2.4000000000000004 1.7000000000000002 0.0
2.8000000000000003 1.7000000000000002 0.0
3.2 1.7000000000000002 0.0
3.6 1.7000000000000002 0.0
4.0 1.7000000000000002 0.0
4.4 1.7000000000000002 0.0
4.800000000000001 1.7000000000000002 0.0
5.2 1.7000000000000002 0.0
5.6000000000000005 1.7000000000000002 0.0
6.0 1.7000000000000002 0.0
6.4 1.7000000000000002 0.0
6.800000000000001 1.7000000000000002 0.0
7.2 1.7000000000000002 0.0
7.6000000000000005 1.7000000000000002 0.0
8.0 1.7000000000000002 0.0
8.4 1.7000000000000002 0.0
8.8 1.7000000000000002 0.0
9.200000000000001 1.7000000000000002 0.0
9.600000000000001 1.7000000000000002 0.0
10.0 1.7000000000000002 0.0
10.4 1.7000000000000002 0.0
10.8 1.7000000000000002 0.0
11.200000000000001 1.7000000000000002 0.0
11.600000000000001 1.7000000000000002 0.0
12.0 1.7000000000000002 0.0
12.4 1.7000000000000002 0.0
12.8 1.7000000000000002 0.0
13.200000000000001 1.7000000000000002 0.0
13.600000000000001 1.7000000000000002 0.0
14.0 1.7000000000000002 0.0
14.4 1.7000000000000002 0.0
14.8 1.7000000000000002 0.0
15.200000000000001 1.7000000000000002 0.0
15.600000000000001 1.7000000000000002 0.0
16.0 1.7000000000000002 0.0
0.0 1.8 0.0
0.4 1.8 0.0
0.8 1.8 0.0
1.2000000000000002 1.8 0.0
1.6 1.8 0.0
2.0 1.8 0.0
2.4000000000000004 1.8 0.0
2.8000000000000003 1.8 0.0
3.2 1.8 0.0
3.6 1.8 0.0
4.0 1.8 0.0
4.4 1.8 0.0
4.800000000000001 1.8 0.0
5.2 1.8 0.0
5.6000000000000005 1.8 0.0
6.0 1.8 0.0
6.4 1.8 0.0
6.800000000000001 1.8 0.0
7.2 1.8 0.0
7.6000000000000005 1.8 0.0
8.0 1.8 0.0
8.4 1.8 0.0
8.8 1.8 0.0
9.200000000000001 1.8 0.0
9.600000000000001 1.8 0.0
10.0 1.8 0.0
10.4 1.8 0.0
10.8 1.8 0.0
11.200000000000001 1.8 0.0
11.600000000000001 1.8 0.0
12.0 1.8 0.0
12.4 1.8 0.0
12.8 1.8 0.0
13.200000000000001 1.8 0.0
13.600000000000001 1.8 0.0
14.0 1.8 0.0
14.4 1.8 0.0
14.8 1.8 0.0
15.200000000000001 1.8 0.0
15.600000000000001 1.8 0.0
16.0 1.8 0.0
0.0 1.9000000000000001 0.0
0.4 1.9000000000000001 0.0
0.8 1.9000000000000001 0.0
1.2000000000000002 1.9000000000000001 0.0
1.6 1.9000000000000001 0.0
2.0 1.9000000000000001 0.0
2.4000000000000004 1.9000000000000001 0.0
2.8000000000000003 1.9000000000000001 0.0
3.2 1.9000000000000001 0.0
3.6 1.9000000000000001 0.0
4.0 1.9000000000000001 0.0
4.4 1.9000000000000001 0.0
4.800000000000001 1.9000000000000001 0.0
5.2 1.9000000000000001 0.0
5.6000000000000005 1.9000000000000001 0.0
6.0 1.9000000000000001 0.0
6.4 1.9000000000000001 0.0
6.800000000000001 1.9000000000000001 0.0
7.2 1.9000000000000001 0.0
7.6000000000000005 1.9000000000000001 0.0
8.0 1.9000000000000001 0.0
8.4 1.9000000000000001 0.0
8.8 1.9000000000000001 0.0
9.200000000000001 1.9000000000000001 0.0
9.600000000000001 1.9000000000000001 0.0
10.0 1.9000000000000001 0.0
10.4 1.9000000000000001 0.0
10.8 1.9000000000000001 0.0
11.200000000000001 1.9000000000000001 0.0
11.600000000000001 1.9000000000000001 0.0
12.0 1.9000000000000001 0.0
12.4 1.9000000000000001 0.0
12.8 1.9000000000000001 0.0
13.200000000000001 1.9000000000000001 0.0
13.600000000000001 1.9000000000000001 0.0
14.0 1.9000000000000001 0.0
14.4 1.9000000000000001 0.0
14.8 1.9000000000000001 0.0
15.200000000000001 1.9000000000000001 0.0
15.600000000000001 1.9000000000000001 0.0
16.0 1.9000000000000001 0.0
0.0 2.0 0.0
0.4 2.0 0.0
0.8 2.0 0.0
1.2000000000000002 2.0 0.0
1.6 2.0 0.0
2.0 2.0 0.0
2.4000000000000004 2.0 0.0
2.8000000000000003 2.0 0.0
3.2 2.0 0.0
3.6 2.0 0.0
4.0 2.0 0.0
4.4 2.0 0.0
4.800000000000001 2.0 0.0
5.2 2.0 0.0
5.6000000000000005 2.0 0.0
6.0 2.0 0.0
6.4 2.0 0.0
6.800000000000001 2.0 0.0
7.2 2.0 0.0
7.6000000000000005 2.0 0.0
8.0 2.0 0.0
8.4 2.0 0.0
8.8 2.0 0.0
9.200000000000001 2.0 0.0
9.600000000000001 2.0 0.0
10.0 2.0 0.0
10.4 2.0 0.0
10.8 2.0 0.0
11.200000000000001 2.0 0.0
11.600000000000001 2.0 0.0
12.0 2.0 0.0
12.4 2.0 0.0
12.8 2.0 0.0
13.200000000000001 2.0 0.0
13.600000000000001 2.0 0.0
14.0 2.0 0.0
14.4 2.0 0.0
14.8 2.0 0.0
15.200000000000001 2.0 0.0
15.600000000000001 2.0 0.0
16.0 2.0 0.0
CELLS 800 4000
4 0 1 42 41
4 1 2 43 42
4 2 3 44 43
4 3 4 45 44
4 4 5 46 45
4 5 6 47 46
4 6 7 48 47
4 7 8 49 48
4 8 9 50 49
4 9 10 51 50
4 10 11 52 51
4 11 12 53 52
4 12 13 54 53
4 13 14 55 54
4 14 15 56 55
4 15 16 57 56
4 16 17 58 57
4 17 18 59 58
4 18 19 60 59
4 19 20 61 60
4 20 21 62 61
4 21 22 63 62
4 22 23 64 63
4 23 24 65 64
4 24 25 66 65
4 25 26 67 66
4 26 27 68 67
4 27 28 69 68
4 28 29 70 69
4 29 30 71 70
4 30 31 72 71
4 31 32 73 72
4 32 33 74 73
4 33 34 75 74
4 34 35 76 75
4 35 36 77 76
4 36 37 78 77
4 37 38 79 78
4 38 39 80 79
4 39 40 81 80
4 41 42 83 82
4 42 43 84 83
4 43 44 85 84
4 44 45 86 85
4 45 46 87 86
4 46 47 88 87
4 47 48 89 88
4 48 49 90 89
4 49 50 91 90
4 50 51 92 91
4 51 52 93 92
4 52 53 94 93
4 53 54 95 94
4 54 55 96 95
4 55 56 97 96
4 56 57 98 97
4 57 58 99 98
4 58 59 100 99
4 59 60 101 100
4 60 61 102 101
4 61 62 103 102
4 62 63 104 103
4 63 64 105 104
4 64 65 106 105
4 65 66 107 106
4 66 67 108 107
4 67 68 109 108
4 68 69 110 109
4 69 70 111 110
4 70 71 112 111
4 71 72 113 112
4 72 73 114 113
4 73 74 115 114
4 74 75 116 115
4 75 76 117 116
4 76 77 118 117
4 77 78 119 118
4 78 79 120 119
4 79 80 121 120
4 80 81 122 121
4 82 83 124 123
4 83 84 125 124
4 84 85 126 125
4 85 86 127 126
4 86 87 128 127
4 87 88 129 128
4 88 89 130 129
4 89 90 131 130
4 90 91 132 131
4 91 92 133 132
4 92 93 134 133
4 93 94 135 134
4 94 95 136 135
4 95 96 137 136
4 96 97 138 137
4 97 98 139 138
4 98 99 140 139
4 99 100 141 140
4 100 101 142 141
4 101 102 143 142
4 102 103 144 143
4 103 104 145 144
4 104 105 146 145
4 105 106 147 146
4 106 107 148 147
4 107 108 149 148
4 108 109 150 149
4 109 110 151 150
4 110 111 152 151
4 111 112 153 152
4 112 113 154 153
4 113 114 155 154
4 114 115 156 155
4 115 116 157 156
4 116 117 158 157
4 117 118 159 158
4 118 119 160 159
4 119 120 161 160
4 120 121 162 161
4 121 122 163 162
4 123 124 165 164
4 124 125 166 165
4 125 126 167 166
4 126 127 168 167
4 127 128 169 168
4 128 129 170 169
4 129 130 171 170
4 130 131 172 171
4 131 132 173 172
4 132 133 174 173
4 133 134 175 174
4 134 135 176 175
4 135 136 177 176
4 136 137 178 177
4 137 138 179 178
4 138 139 180 179
4 139 140 181 180
4 140 141 182 181
4 141 142 183 182
4 142 143 184 183
4 143 144 185 184
4 144 145 186 185
4 145 146 187 186
4 146 147 188 187
4 147 148 189 188
4 148 149 190 189
4 149 150 191 190
4 150 151 192 191
4 151 152 193 192
4 152 153 194 193
4 153 154 195 194
4 154 155 196 195
4 155 156 197 196
4 156 157 198 197
4 157 158 199 198
4 158 159 200 199
4 159 160 201 200
4 160 161 202 201
4 161 162 203 202
4 162 163 204 203
4 164 165 206 205
4 165 166 207 206
4 166 167 208 207
4 167 168 209 208
4 168 169 210 209
4 169 170 211 210
4 170 171 212 211
4 171 172 213 212
4 172 173 214 213
4 173 174 215 214
4 174 175 216 215
4 175 176 217 216
4 176 177 218 217
4 177 178 219 218
4 178 179 220 219
4 179 180 221 220
4 180 181 222 221
4 181 182 223 222
4 182 183 224 223
4 183 184 225 224
4 184 185 226 225
4 185 186 227 226
4 186 187 228 227
4 187 188 229 228
4 188 189 230 229
4 189 190 231 230
4 190 191 232 231
4 191 192 233 232
4 192 193 234 233
4 193 194 235 234
4 194 195 236 235
4 195 196 237 236
4 196 197 238 237
4 197 198 239 238
4 198 199 240 239
4 199 200 241 240
4 200 201 242 241
4 201 202 243 242
4 202 203 244 243
4 203 204 245 244
4 205 206 247 246
4 206 207 248 247
4 207 208 249 248
4 208 209 250 249
4 209 210 251 250
4 210 211 252 251
4 211 212 253 252
4 212 213 254 253
4 213 214 255 254
4 214 215 256 255
4 215 216 257 256
4 216 217 258 257
4 217 218 259 258
4 218 219 260 259
4 219 220 261 260
4 220 221 262 261
4 221 222 263 262
4 222 223 264 263
4 223 224 265 264
4 224 225 266 265
4 225 226 267 266
4 226 227 268 267
4 227 228 269 268
4 228 229 270 269
4 229 230 271 270
4 230 231 272 271
4 231 232 273 272
4 232 233 274 273
4 233 234 275 274
4 234 235 276 275
4 235 236 277 276
4 236 237 278 277
4 237 238 279 278
4 238 239 280 279
4 239 240 281 280
4 240 241 282 281
4 241 242 283 282
4 242 243 284 283
4 243 244 285 284
4 244 245 286 285
4 246 247 288 287
4 247 248 289 288
4 248 249 290 289
4 249 250 291 290
4 250 251 292 291
4 251 252 293 292
4 252 253 294 293
4 253 254 295 294
4 254 255 296 295
4 255 256 297 296
4 256 257 298 297
4 257 258 299 298
4 258 259 300 299
4 259 260 301 300
4 260 261 302 301
4 261 262 303 302
4 262 263 304 303
4 263 264 305 304
4 264 265 306 305
4 265 266 307 306
4 266 267 308 307
4 267 268 309 308
4 268 269 310 309
4 269 270 311 310
4 270 271 312 311
4 271 272 313 312
4 272 273 314 313
4 273 274 315 314
4 274 275 316 315
4 275 276 317 316
4 276 277 318 317
4 277 278 319 318
4 278 279 320 319
4 279 280 321 320
4 280 281 322 321
4 281 282 323 322
4 282 283 324 323
4 283 284 325 324
4 284 285 326 325
4 285 286 327 326
4 287 288 329 328
4 288 289 330 329
4 289 290 331 330
4 290 291 332 331
4 291 292 333 332
4 292 293 334 333
4 293 294 335 334
4 294 295 336 335
4 295 296 337 336
4 296 297 338 337
4 297 298 339 338
4 298 299 340 339
4 299 300 341 340
4 300 301 342 341
4 301 302 343 342
4 302 303 344 343
4 303 304 345 344
4 304 305 346 345
4 305 306 347 346
4 306 307 348 347
4 307 308 349 348
4 308 309 350 349
4 309 310 351 350
4 310 311 352 351
4 311 312 353 352
4 312 313 354 353
4 313 314 355 354
4 314 315 356 355
4 315 316 357 356
4 316 317 358 357
4 317 318 359 358
4 318 319 360 359
4 319 320 361 360
4 320 321 362 361
4 321 322 363 362
4 322 323 364 363
4 323 324 365 364
4 324 325 366 365
4 325 326 367 366
4 326 327 368 367
4 328 329 370 369
4 329 330 371 370
4 330 331 372 371
4 331 332 373 372
4 332 333 374 373
4 333 334 375 374
4 334 335 376 375
4 335 336 377 376
4 336 337 378 377
4 337 338 379 378
4 338 339 380 379
4 339 340 381 380
4 340 341 382 381
4 341 342 383 382
4 342 343 384 383
4 343 344 385 384
4 344 345 386 385
4 345 346 387 386
4 346 347 388 387
4 347 348 389 388
4 348 349 390 389
4 349 350 391 390
4 350 351 392 391
4 351 352 393 392
4 352 353 394 393
4 353 354 395 394
4 354 355 396 395
4 355 356 397 396
4 356 357 398 397
4 357 358 399 398
4 358 359 400 399
4 359 360 401 400
4 360 361 402 401
4 361 362 403 402
4 362 363 404 403
4 363 364 405 404
4 364 365 406 405
4 365 366 407 406
4 366 367 408 407
4 367 368 409 408
4 369 370 411 410
4 370 371 412 411
4 371 372 413 412
4 372 373 414 413
4 373 374 415 414
4 374 375 416 415
4 375 376 417 416
4 376 377 418 417
4 377 378 419 418
4 378 379 420 419
4 379 380 421 420
4 380 381 422 421
4 381 382 423 422
4 382 383 424 423
4 383 384 425 424
4 384 385 426 425
4 385 386 427 426
4 386 387 428 427
4 387 388 429 428
4 388 389 430 429
4 389 390 431 430
4 390 391 432 431
4 391 392 433 432
4 392 393 434 433
4 393 394 435 434
4 394 395 436 435
4 395 396 437 436
4 396 397 438 437
4 397 398 439 438
4 398 399 440 439
4 399 400 441 440
4 400 401 442 441
4 401 402 443 442
4 402 403 444 443
4 403 404 445 444
4 404 405 446 445
4 405 406 447 446
4 406 407 448 447
4 407 408 449 448
4 408 409 450 449
4 410 411 452 451
4 411 412 453 452
4 412 413 454 453
4 413 414 455 454
4 414 415 456 455
4 415 416 457 456
4 416 417 458 457
4 417 418 459 458
4 418 419 460 459
4 419 420 461 460
4 420 421 462 461
4 421 422 463 462
4 422 423 464 463
4 423 424 465 464
4 424 425 466 465
4 425 426 467 466
4 426 427 468 467
4 427 428 469 468
4 428 429 470 469
4 429 430 471 470
4 430 431 472 471
4 431 432 473 472
4 432 433 474 473
4 433 434 475 474
4 434 435 476 475
4 435 436 477 476
4 436 437 478 477
4 437 438 479 478
4 438 439 480 479
4 439 440 481 480
4 440 441 482 481
4 441 442 483 482
4 442 443 484 483
4 443 444 485 484
4 444 445 486 485
4 445 446 487 486
4 446 447 488 487
4 447 448 489 488
4 448 449 490 489
4 449 450 491 490
4 451 452 493 492
4 452 453 494 493
4 453 454 495 494
4 454 455 496 495
4 455 456 497 496
4 456 457 498 497
4 457 458 499 498
4 458 459 500 499
4 459 460 501 500
4 460 461 502 501
4 461 462 503 502
4 462 463 504 503
4 463 464 505 504
4 464 465 506 505
4 465 466 507 506
4 466 467 508 507
4 467 468 509 508
4 468 469 510 509
4 469 470 511 510
4 470 471 512 511
4 471 472 513 512
4 472 473 514 513
4 473 474 515 514
4 474 475 516 515
4 475 476 517 516
4 476 477 518 517
4 477 478 519 518
4 478 479 520 519
4 479 480 521 520
4 480 481 522 521
4 481 482 523 522
4 482 483 524 523
4 483 484 525 524
4 484 485 526 525
4 485 486 527 526
4 486 487 528 527
4 487 488 529 528
4 488 489 530 529
4 489 490 531 530
4 490 491 532 531
4 492 493 534 533
4 493 494 535 534
4 494 495 536 535
4 495 496 537 536
4 496 497 538 537
4 497 498 539 538
4 498 499 540 539
4 499 500 541 540
4 500 501 542 541
4 501 502 543 542
4 502 503 544 543
4 503 504 545 544
4 504 505 546 545
4 505 506 547 546
4 506 507 548 547
4 507 508 549 548
4 508 509 550 549
4 509 510 551 550
4 510 511 552 551
4 511 512 553 552
4 512 513 554 553
4 513 514 555 554
4 514 515 556 555
4 515 516 557 556
4 516 517 558 557
4 517 518 559 558
4 518 519 560 559
4 519 520 561 560
4 520 521 562 561
4 521 522 563 562
4 522 523 564 563
4 523 524 565 564
4 524 525 566 565
4 525 526 567 566
4 526 527 568 567
4 527 528 569 568
4 528 529 570 569
4 529 530 571 570
4 530 531 572 571
4 531 532 573 572
4 533 534 575 574
4 534 535 576 575
4 535 536 577 576
4 536 537 578 577
4 537 538 579 578
4 538 539 580 579
4 539 540 581 580
4 540 541 582 581
4 541 542 583 582
4 542 543 584 583
4 543 544 585 584
4 544 545 586 585
4 545 546 587 586
4 546 547 588 587
4 547 548 589 588
4 548 549 590 589
4 549 550 591 590
4 550 551 592 591
4 551 552 593 592
4 552 553 594 593
4 553 554 595 594
4 554 555 596 595
4 555 556 597 596
4 556 557 598 597
4 557 558 599 598
4 558 559 600 599
4 559 560 601 600
4 560 561 602 601
4 561 562 603 602
4 562 563 604 603
4 563 564 605 604
4 564 565 606 605
4 565 566 607 606
4 566 567 608 607
4 567 568 609 608
4 568 569 610 609
4 569 570 611 610
4 570 571 612 611
4 571 572 613 612
4 572 573 614 613
4 574 575 616 615
4 575 576 617 616
4 576 577 618 617
4 577 578 619 618
4 578 579 620 619
4 579 580 621 620
4 580 581 622 621
4 581 582 623 622
4 582 583 624 623
4 583 584 625 624
4 584 585 626 625
4 585 586 627 626
4 586 587 628 627
4 587 588 629 628
4 588 589 630 629
4 589 590 631 630
4 590 591 632 631
4 591 592 633 632
4 592 593 634 633
4 593 594 635 634
4 594 595 636 635
4 595 596 637 636
4 596 597 638 637
4 597 598 639 638
4 598 599 640 639
4 599 600 641 640
4 600 601 642 641
4 601 602 643 642
4 602 603 644 643
4 603 604 645 644
4 604 605 646 645
4 605 606 647 646
4 606 607 648 647
4 607 608 649 648
4 608 609 650 649
4 609 610 651 650
4 610 611 652 651
4 611 612 653 652
4 612 613 654 653
4 613 614 655 654
4 615 616 657 656
4 616 617 658 657
4 617 618 659 658
4 618 619 660 659
4 619 620 661 660
4 620 621 662 661
4 621 622 663 662
4 622 623 664 663
4 623 624 665 664
4 624 625 666 665
4 625 626 667 666
4 626 627 668 667
4 627 628 669 668
4 628 629 670 669
4 629 630 671 670
4 630 631 672 671
4 631 632 673 672
4 632 633 674 673
4 633 634 675 674
4 634 635 676 675
4 635 636 677 676
4 636 637 678 677
4 637 638 679 678
4 638 639 680 679
4 639 640 681 680
4 640 641 682 681
4 641 642 683 682
4 642 643 684 683
4 643 644 685 684
4 644 645 686 685
4 645 646 687 686
4 646 647 688 687
4 647 648 689 688
4 648 649 690 689
4 649 650 691 690
4 650 651 692 691
4 651 652 693 692
4 652 653 694 693
4 653 654 695 694
4 654 655 696 695
4 656 657 698 697
4 657 658 699 698
4 658 659 700 699
4 659 660 701 700
4 660 661 702 701
4 661 662 703 702
4 662 663 704 703
4 663 664 705 704
4 664 665 706 705
4 665 666 707 706
4 666 667 708 707
4 667 668 709 708
4 668 669 710 709
4 669 670 711 710
4 670 671 712 711
4 671 672 713 712
4 672 673 714 713
4 673 674 715 714
4 674 675 716 715
4 675 676 717 716
4 676 677 718 717
4 677 678 719 718
4 678 679 720 719
4 679 680 721 720
4 680 681 722 721
4 681 682 723 722
4 682 683 724 723
4 683 684 725 724
4 684 685 726 725
4 685 686 727 726
4 686 687 728 727
4 687 688 729 728
4 688 689 730 729
4 689 690 731 730
4 690 691 732 731
4 691 692 733 732
4 692 693 734 733
4 693 694 735 734
4 694 695 736 735
4 695 696 737 736
4 697 698 739 738
4 698 699 740 739
4 699 700 741 740
4 700 701 742 741
4 701 702 743 742
4 702 703 744 743
4 703 704 745 744
4 704 705 746 745
4 705 706 747 746
4 706 707 748 747
4 707 708 749 748
4 708 709 750 749
4 709 710 751 750
4 710 711 752 751
4 711 712 753 752
4 712 713 754 753
4 713 714 755 754
4 714 715 756 755
4 715 716 757 756
4 716 717 758 757
4 717 718 759 758
4 718 719 760 759
4 719 720 761 760
4 720 721 762 761
4 721 722 763 762
4 722 723 764 763
4 723 724 765 764
4 724 725 766 765
4 725 726 767 766
4 726 727 768 767
4 727 728 769 768
4 728 729 770 769
4 729 730 771 770
4 730 731 772 771
4 731 732 773 772
4 732 733 774 773
4 733 734 775 774
4 734 735 776 775
4 735 736 777 776
4 736 737 778 777
4 738 739 780 779
4 739 740 781 780
4 740 741 782 781
4 741 742 783 782
4 742 743 784 783
4 743 744 785 784
4 744 745 786 785
4 745 746 787 786
4 746 747 788 787
4 747 748 789 788
4 748 749 790 789
4 749 750 791 790
4 750 751 792 791
4 751 752 793 792
4 752 753 794 793
4 753 754 795 794
4 754 755 796 795
4 755 756 797 796
4 756 757 798 797
4 757 758 799 798
4 758 759 800 799
4 759 760 801 800
4 760 761 802 801
4 761 762 803 802
4 762 763 804 803
4 763 764 805 804
4 764 765 806 805
4 765 766 807 806
4 766 767 808 807
4 767 768 809 808
4 768 769 810 809
4 769 770 811 810
4 770 771 812 811
4 771 772 813 812
4 772 773 814 813
4 773 774 815 814
4 774 775 816 815
4 775 776 817 816
4 776 777 818 817
4 777 778 819 818
4 779 780 821 820
4 780 781 822 821
4 781 782 823 822
4 782 783 824 823
4 783 784 825 824
4 784 785 826 825
4 785 786 827 826
4 786 787 828 827
4 787 788 829 828
4 788 789 830 829
4 789 790 831 830
4 790 791 832 831
4 791 792 833 832
4 792 793 834 833
4 793 794 835 834
4 794 795 836 835
4 795 796 837 836
4 796 797 838 837
4 797 798 839 838
4 798 799 840 839
4 799 800 841 840
4 800 801 842 841
4 801 802 843 842
4 802 803 844 843
4 803 804 845 844
4 804 805 846 845
4 805 806 847 846
4 806 807 848 847
4 807 808 849 848
4 808 809 850 849
4 809 810 851 850
4 810 811 852 851
4 811 812 853 852
4 812 813 854 853
4 813 814 855 854
4 814 815 856 855
4 815 816 857 856
4 816 817 858 857
4 817 818 859 858
4 818 819 860 859
CELL_TYPES 800
9
9
9
9
9
9
9
9
9
9
9
9
9
9
9
9
9
9
9
9
9
9
9
9
9
9
9
9
9
9
9
9
9
9
9
9
9
9
9
9
9
9
9
9
9
9
9
9
9
9
9
9
9
9
9
9
9
9
9
9
9
9
9
9
9
9
9
9
9
9
9
9
9
9
9
9
9
9
9
9
9
9
9
9
9
9
9
9
9
9
9
9
9
9
9
9
9
9
9
9
9
9
9
9
9
9
9
9
9
9
9
9
9
9
9
9
9
9
9
9
9
9
9
9
9
9
9
9
9
9
9
9
9
9
9
9
9
9
9
9
9
9
9
9
9
9
9
9
9
9
9
9
9
9
9
9
9
9
9
9
9
9
9
9
9
9
9
9
9
9
9
9
9
9
9
9
9
9
9
9
9
9
9
9
9
9
9
9
9
9
9
9
9
9
9
9
9
9
9
9
9
9
9
9
9
9
9
9
9
9
9
9
9
9
9
9
9
9
9
9
9
9
9
9
9
9
9
9
9
9
9
9
9
9
9
9
9
9
9
9
9
9
9
9
9
9
9
9
9
9
9
9
9
9
9
9
9
9
9
9
9
9
9
9
9
9
9
9
9
9
9
9
9
9
9
9
9
9
9
9
9
9
9
9
9
9
9
9
9
9
9
9
9
9
9
9
9
9
9
9
9
9
9
9
9
9
9
9
9
9
9
9
9
9
9
9
9
9
9
9
9
9
9
9
9
9
9
9
9
9
9
9
9
9
9
9
9
9
9
9
9
9
9
9
9
9
9
9
9
9
9
9
9
9
9
9
9
9
9
9
9
9
9
9
9
9
9
9
9
9
9
9
9
9
9
9
9
9
9
9
9
9
9
9
9
9
9
9
9
9
9
9
9
9
9
9
9
9
9
9
9
9
9
9
9
9
9
9
9
9
9
9
9
9
9
9
9
9
9
9
9
9
9
9
9
9
9
9
9
9
9
9
9
9
9
9
9
9
9
9
9
9
9
9
9
9
9
9
9
9
9
9
9
9
9
9
9
9
9
9
9
9
9
9
9
9
9
9
9
9
9
9
9
9
9
9
9
9
9
9
9
9
9
9
9
9
9
9
9
9
9
9
9
9
9
9
9
9
9
9
9
9
9
9
9
9
9
9
9
9
9
9
9
9
9
9
9
9
9
9
9
9
9
9
9
9
9
9
9
9
9
9
9
9
9
9
9
9
9
9
9
9
9
9
9
9
9
9
9
9
9
9
9
9
9
9
9
9
9
9
9
9
9
9
9
9
9
9
9
9
9
9
9
9
9
9
9
9
9
9
9
9
9
9
9
9
9
9
9
9
9
9
9
9
9
9
9
9
9
9
9
9
9
9
9
9
9
9
9
9
9
9
9
9
9
9
9
9
9
9
9
9
9
9
9
9
9
9
9
9
9
9
9
9
9
9
9
9
9
9
9
9
9
9
9
9
9
9
9
9
9
9
9
9
9
9
9
9
9
9
9
9
9
9
9
9
9
9
9
9
9
9
9
9
9
9
9
9
9
9
9
9
9
9
9
9
9
9
9
9
9
9
9
9
9
9
9
9
9
9
9
9
9
9
9
9
9
9
9
9
9
9
9
9
9
9
9
9
9
9
9
9
9
9
9
9
9
9
9
9
9
9
9
9
9
9
9
9
9
9
9
9
9
9
9
9
9
9
9
9
9
9
9
9
9
9
9
9
9
9
9
9
9
9
9
9
9
9
9
9
9
9
9
9
9
9
9
9
9
9
9
9
9
9
9
9
9
9
9
9
9
9
9
9
9
9
9
9
9
9
POINT_DATA 861
SCALARS Disp float 2
LOOKUP_TABLE default
0.0 0.0
0.005451341046301675 -0.21651881756611452
0.006692386748169434 -0.4243283483763437
0.007459979793212794 -0.6311825670390383
0.008429086619699799 -0.8376967568829077
0.009937607956660835 -1.043512614296134
0.012515742031283836 -1.2481594138750791
0.016795249774621518 -1.4510489088638219
0.02351483868318586 -1.6514493849176393
0.033478369514139315 -1.8484155499202304
0.047494381447680534 -2.0406768196083753
0.06634253841654082 -2.2265610292257842
0.09075907924423418 -2.4040043877547888
0.12142879083315888 -2.5706437581887127
0.15898516727051876 -2.723890130131801
0.20394464581331972 -2.860983630671373
0.25658297518451667 -2.9790593263680343
0.31678163259381664 -3.075256252274187
0.3838911965223329 -3.146910124999271
0.4566674510150016 -3.191794947227044
0.5331140368839273 -3.2083817427729064
0.6095606227528492 -3.1917949472269456
0.6823368772455036 -3.1469101249990694
0.7494464411739937 -3.0752562522738955
0.809645098583261 -2.9790593263676697
0.8622834279544226 -2.860983630670956
0.9072429064971881 -2.7238901301313447
0.9447992829345127 -2.5706437581882287
0.9754689945234015 -2.4040043877542936
0.9998855353510611 -2.2265610292252926
1.0187336923198909 -2.0406768196078997
1.0327497042534066 -1.8484155499197827
1.0427132350843404 -1.6514493849172251
1.04943282399289 -1.4510489088634482
1.0537123317362178 -1.2481594138747492
1.0562904658108347 -1.0435126142958544
1.0577989871477929 -0.837696756882678
1.0587680939742792 -0.6311825670388619
1.0595356870193222 -0.4243283483762196
1.0607767327211886 -0.21651881756604524
1.0662280737674867 0.0
0.054010610410195024 -0.002290861216544263
0.05779189099220856 -0.21674970086562734
0.05844711527453468 -0.4243896100879983
0.05913011441180672 -0.6312693408940939
0.05998496221465137 -0.8378287480431565
0.0612736457181617 -1.0437936486041144
0.06349546471590087 -1.2487324930658037
0.06724774188896888 -1.452083544497553
0.07322489885801843 -1.6531345288847596
0.0821613210732676 -1.8509432873190927
0.09477829672696729 -2.044232789845232
0.11175632110769373 -2.2313214685513505
0.13374152753265756 -2.410136851524154
0.16135779285492063 -2.578306876592519
0.19518517334402102 -2.7332268243966467
0.23570602381393047 -2.8720979594174127
0.28319131717061397 -2.9919817607990553
0.33756341617562596 -3.0899075221924206
0.3982697877474947 -3.16307221837744
0.46414664572261655 -3.2090888619863662
0.5331140368839152 -3.226139733650043
0.60208142804521 -3.2090888619862654
0.6679582860203183 -3.1630722183772337
0.7286646575921645 -3.089907522192122
0.7830367565971477 -2.9919817607986827
0.8305220499538001 -2.872097959416988
0.8710429004236776 -2.7332268243961817
0.9048702809127457 -2.578306876592027
0.932486546234977 -2.4101368515236503
0.9544717526599102 -2.231321468550851
0.9714497770406091 -2.0442327898447505
0.9840667526942858 -1.85094328731864
0.9930031749095171 -1.653134528884342
0.9989803318785533 -1.4520835444971765
1.0027326090516122 -1.248732493065472
1.004954428049346 -1.0437936486038337
1.0062431115528543 -0.8378287480429267
1.0070979593556983 -0.6312693408939175
1.0077809584929702 -0.4243896100878742
1.0084361827752961 -0.21674970086555767
1.0122174633573044 -0.0022908612165418
0.10708550839006682 -0.004101727065024361
0.10984446813426312 -0.2168630133946629
0.11022191781493411 -0.4244238878148642
0.11077985376083845 -0.6313460395664383
0.1115291430884512 -0.837935426517833
0.11262050425057217 -1.0440161616550863
0.11449323390430691 -1.249206195845636
0.11772055183134421 -1.4529689537157557
0.12294291910358032 -1.6546075519786543
0.1308281009521073 -1.8531776299554583
0.14201395804431025 -2.0473917840801703
0.157091003139209 -2.2355578903811484
0.1766178960796498 -2.415598416505416
0.20114403512965018 -2.585138110646803
0.23120027968144133 -2.741559274581245
0.2672335343326271 -2.882030405834078
0.3095181160851515 -3.003550122489397
0.35803408029157463 -3.1030510316471323
0.4123237550414875 -3.177599702317802
0.47129603402241205 -3.224622370056316
0.5331140368839036 -3.2420954228521586
0.5949320397453912 -3.224622370056213
0.6539043187263033 -3.177599702317592
0.7081939934761963 -3.103051031646828
0.7567099576825943 -3.0035501224890173
0.7989945394350916 -2.8820304058336466
0.8350277940862486 -2.7415592745807724
0.8650840386380108 -2.585138110646304
0.8896101776879831 -2.4155984165049054
0.909137070628397 -2.2355578903806417
0.924214115723271 -2.0473917840796827
0.9353999728154535 -1.8531776299550007
0.9432851546639643 -1.6546075519782328
0.9485075219361885 -1.4529689537153765
0.9517348398632179 -1.249206195845303
0.9536075695169483 -1.0440161616548052
0.9546989306790675 -0.837935426517603
0.95544822000668 -0.6313460395662619
0.9560061559525842 -0.42442388781474016
0.9563836056332552 -0.2168630133945929
0.9591425653774464 -0.004101727065019234
0.15966882550470718 -0.0055538915860949365
0.16174429405004007 -0.2169399667315331
0.161975114415865 -0.42444303937856426
0.16241191670469912 -0.6314087251379971
0.1630563489387945 -0.8380239928062725
0.16397462826855702 -1.0441874442402648
0.1655183079558098 -1.2495838342438608
0.1682260081801887 -1.4537063805679145
0.17268940299905863 -1.6558659987969035
0.1795089640462024 -1.8551138407015213
0.18924346748705959 -2.050148040269235
0.2023973934929686 -2.239265452512525
0.21944633414567669 -2.420384500260156
0.24086374849236153 -2.5911305403204747
0.2671178701620891 -2.7488786860456416
0.29862714212000546 -2.89077121326991
0.33567282831766887 -3.0137555637003732
0.37829264223616016 -3.11468095188396
0.42612981326876104 -3.1904872799918844
0.4782579356388675 -3.2384318954601015
0.5331140368838923 -3.2563306680075805
0.5879701381289132 -3.2384318954599967
0.6400982604990083 -3.19048727999167
0.6879354315315916 -3.114680951883651
0.7305552454500613 -3.0137555636999878
0.7676009316477008 -2.890771213269472
0.7991102036055919 -2.748878686045163
0.825364325275294 -2.591130540319969
0.8467817396219544 -2.420384500259638
0.8638306802746392 -2.2392654525120124
0.8769846062805265 -2.050148040268742
0.8867191097213657 -1.8551138407010594
0.8935386707684952 -1.6558659987964792
0.8980020655873546 -1.4537063805675332
0.9007097658117266 -1.2495838342435266
0.9022534454989761 -1.044187444239983
0.9031717248287374 -0.8380239928060423
0.9038161570628325 -0.6314087251378205
0.9042529593516666 -0.42444303937844025
0.9044837797174916 -0.21693996673146276
0.9065592482628198 -0.005553891586087393
0.21197057422128768 -0.0067247939903822655
0.21353814493795523 -0.21700057278075532
0.21368893996322455 -0.4244540574342404
0.21402311542225982 -0.6314574726107622
0.21456337373398812 -0.8380975450477828
0.21532783738266212 -1.0443185131106125
0.21657685768000692 -1.2498726693591178
0.21877588874771045 -1.4542984529237952
0.22248507020049588 -1.656910299032089
0.2282344995998017 -1.85674994708492
0.23650770101195456 -2.0524989487856526
0.2477280292211464 -2.2424413446940634
0.26228764251817965 -2.42449269562102
0.2805845538962397 -2.5962815803158676
0.30302772953563034 -2.7551802730119404
0.3299927007718377 -2.898313652872229
0.3617656783105174 -3.0225896561861934
0.39844396365324514 -3.1247870628061256
0.4397962183420933 -3.2017349537762
0.4851105766996277 -3.2505444183511245
0.5331140368838811 -3.268891224839231
0.5811174970681309 -3.2505444183510175
0.6264318554256549 -3.2017349537759823
0.6677841101144879 -3.1247870628058116
0.7044623954571971 -3.0225896561858026
0.736235372995856 -2.8983136528717854
0.7632003442320417 -2.755180273011456
0.7856435198714105 -2.5962815803153556
0.8039404312494495 -2.424492695620497
0.8185000445464629 -2.2424413446935456
0.8297203727556363 -2.0524989487851553
0.8379935741677736 -1.8567499470844546
0.8437430035670672 -1.6569102990316618
0.8474521850198437 -1.4542984529234122
0.8496512160875415 -1.2498726693587825
0.8509002363848838 -1.0443185131103303
0.8516647000335569 -0.8380975450475526
0.8522049583452849 -0.6314574726105857
0.8525391338043202 -0.42445405743411646
0.8526899288295896 -0.21700057278068471
0.8542574995462531 -0.00672479399037259
0.2640859696228568 -0.007663270186229437
0.2652576493742385 -0.21705158541809866
0.26536164263222606 -0.4244617169729363
0.26561072597462726 -0.6314934944922018
0.2660473799927182 -0.838158196457843
0.26667406302024865 -1.0444185447984273
0.2676609794815354 -1.2500851836968345
0.26938863164178933 -1.4547503405110846
0.27235089431977483 -1.657743202314553
0.2770356385700031 -1.8580870492915555
0.28384808543711904 -2.054444476888634
0.29313356072491603 -2.2450857527582895
0.30520468480123236 -2.4279232993584383
0.3203828848224647 -2.6005913541138894
0.3390118392807615 -2.7604641372756435
0.36143145901543394 -2.904655287715702
0.3879154394020628 -3.0300448752643394
0.41860822281786764 -3.1333588750715227
0.4534291362033243 -3.211339102356088
0.4919188324441631 -3.2609728847675687
0.5331140368838698 -3.279804032744938
0.5743092413235732 -3.26097288476746
0.6127989375644028 -3.211339102355868
0.647619850949847 -3.1333588750712047
0.6783126343656359 -3.0300448752639446
0.704796614752247 -2.904655287715253
0.7272162344869013 -2.760464137275154
0.74584518894518 -2.600591354113373
0.7610233889663949 -2.4279232993579107
0.7730945130426945 -2.2450857527577677
0.7823799883304764 -2.054444476888133
0.7891924351975793 -1.858087049291087
0.7938771794477975 -1.6577432023141234
0.7968394421257755 -1.4547503405107
0.798567094286025 -1.2500851836964988
0.7995540107473099 -1.0444185447981453
0.8001806937748399 -0.8381581964576127
0.8006173477929307 -0.6314934944920254
0.8008664311353318 -0.4244617169728124
0.8009704243933193 -0.21705158541802783
0.802142104144698 -0.00766327018621795
0.31606552150733236 -0.008406757071659313
0.316924743616789 -0.21709543610436025
0.3169980184694216 -0.42446844739682343
0.3171744285528554 -0.6315182064734494
0.31750848158124356 -0.8382066730775536
0.31800690088002814 -1.0444946870938854
0.31876115609437 -1.2502359196793547
0.3200607045974906 -1.4550757380381174
0.3223125500994146 -1.658370304734787
0.3259443515329902 -1.859129074048475
0.33130726997482846 -2.055987799133733
0.33866725970956535 -2.2472016599808686
0.3482602458533905 -2.430679860217049
0.3603328713254469 -2.6040637839403393
0.37516356391172634 -2.7647332662118926
0.393044024541508 -2.9097979278704456
0.4142358496282784 -3.0361181521608684
0.4389171378311867 -3.140386230858166
0.46714583219412004 -3.2192889132975537
0.49874857402916406 -3.269715728959799
0.5331140368838584 -3.2890802524124063
0.5674794997385497 -3.2697157289596883
0.5990822415735861 -3.219288913297331
0.627310935936509 -3.1403862308578447
0.6519922241394043 -3.0361181521604697
0.67318404922616 -2.9097979278699926
0.6910645098559268 -2.7647332662113993
0.705895202442192 -2.6040637839398193
0.7179678279142347 -2.430679860216518
0.7275608140580468 -2.2472016599803437
0.7349208037927716 -2.055987799133229
0.7402837222345994 -1.8591290740480042
0.743915523668167 -1.6583703047343556
0.7461673691700854 -1.4550757380377317
0.7474669176732026 -1.2502359196790183
0.7482211728875434 -1.044494687093603
0.7487195921863277 -0.8382066730773233
0.7490536452147156 -0.6315182064732731
0.7492300552981495 -0.4244684473966996
0.7493033301507819 -0.21709543610428925
0.7501625522602362 -0.008406757071646377
0.36794329220420013 -0.008985197389095196
0.3685558398612908 -0.21713405523260862
0.36860502753819036 -0.42447477000137807
0.36871585591571987 -0.6315329600869589
0.3689490401038793 -0.8382424379288905
0.36932045680065045 -1.0445522042869684
0.3698721844247351 -1.2503376344479165
0.370786149955574 -1.4552928350420848
0.3723799779782496 -1.6588057313608016
0.3749972407807343 -1.859883803964668
0.37893038330705225 -2.057135254473928
0.3843830390730252 -2.2487953150956734
0.3915198128482612 -2.4327694733866903
0.40051280991399524 -2.6067066937891528
0.41157102022120484 -2.7679953818922014
0.4249363377768854 -2.9137471451809516
0.44084897310360777 -3.040811040424683
0.45950314700340317 -3.1458617634130994
0.48107269942216574 -3.225566542699065
0.505674890934937 -3.2767553652123667
0.5331140368838465 -3.2967147993393686
0.5605531828327539 -3.276755365212255
0.5851553743455193 -3.2255665426988402
0.6067249267642736 -3.1458617634127752
0.6253791006640588 -3.0408110404242814
0.6412917359907699 -2.913747145180496
0.654657053546439 -2.7679953818917045
0.6657152638536381 -2.6067066937886296
0.6747082609193624 -2.432769473386156
0.6818450346945888 -2.248795315095146
0.6872976904605523 -2.0571352544734216
0.6912308329868627 -1.8598838039641952
0.6938480957893418 -1.6588057313603688
0.6954419238120134 -1.4552928350416985
0.6963558893428502 -1.2503376344475796
0.696907616966934 -1.044552204286686
0.6972790336637049 -0.8382424379286603
0.6975122178518642 -0.6315329600867824
0.6976230462293936 -0.42447477000125416
0.6976722339062932 -0.21713405523253754
0.6982847815633821 -0.008985197389081089
0.4197396340889057 -0.009427056907128917
0.4201663354874789 -0.2171690976196372
0.42018900958173905 -0.4244799016529673
0.4202379977515286 -0.6315388234940139
0.42037320270291645 -0.8382648569446495
0.4206135228158417 -1.0445930052730696
0.4209797726718294 -1.250403555281041
0.42155833250940705 -1.4554222493453348
0.4225539357945007 -1.6590718686383832
0.4242176328716896 -1.8603681034206585
0.4267647968745722 -2.0578983896757066
0.43034222438012176 -2.249877432847026
0.4350525783254123 -2.434203590127349
0.44100221962563557 -2.6085328004586934
0.4483290426401777 -2.77026300017943
0.45721407524705937 -2.9165136100773292
0.4678713187709624 -3.0441316054669643
0.48051295565753877 -3.14978338314319
0.4953624329838178 -3.2301491782394347
0.5127912743157779 -3.282056449679736
0.5331140368838342 -3.3026845692892066
0.5534367994518892 -3.2820564496796227
0.5708656407838455 -3.230149178239208
0.5857151181101183 -3.149783383142864
0.5983567549966877 -3.0441316054665606
0.6090139985205828 -2.9165136100768714
0.6178990311274567 -2.7702630001789315
0.6252258541419922 -2.608532800458168
0.6311754954422099 -2.4342035901268133
0.6358858493874939 -2.249877432846496
0.6394632768930376 -2.057898389675199
0.6420104408959154 -1.860368103420184
0.6436741379731007 -1.6590718686379498
0.6446697412581921 -1.4554222493449478
0.6452483010957684 -1.2504035552807042
0.6456145509517558 -1.044593005272787
0.6458548710646809 -0.8382648569444191
0.6459900760160686 -0.6315388234938374
0.6460390641858582 -0.4244799016528432
0.6460617382801181 -0.21716909761956615
0.6464884396786902 -0.009427056907113882
0.4714684072105445 -0.009761406584662562
0.4717640834563501 -0.21720275006619225
0.4717558194777798 -0.4244821684963184
0.471744824411465 -0.6315365752570969
0.4717850197806148 -0.8382739325301026
0.4718917108524764 -1.0446159930982062
0.4720722124817779 -1.2504421550083809
0.4723575081926111 -1.4554880248644029
0.4728262483170625 -1.659200381599669
0.4736159533410995 -1.8606119881202805
0.47484678176301376 -2.058301415740971
0.4766029878025214 -2.2504681801759068
0.47892946268570774 -2.4350013363569283
0.48187815075163243 -2.6095625183502844
0.48552219296632604 -2.7715570474990674
0.48997254272612306 -2.918115560347769
0.4954009149511802 -3.0460943422419504
0.502043016853667 -3.1521628904633654
0.5101790610265284 -3.2330206655840303
0.5202416961502824 -3.285563492427825
0.5331140368838215 -3.306940528467554
0.5459863776173601 -3.2855634924277113
0.5560490127411124 -3.233020665583803
0.5641850569139699 -3.1521628904630385
0.5708271588164526 -3.0460943422415454
0.576255531041506 -2.918115560347309
0.5807058808012996 -2.771557047498568
0.5843499230159908 -2.609562518349758
0.5872986110819133 -2.435001336356392
0.5896250859650963 -2.250468180175376
0.5913812920046015 -2.058301415740462
0.5926121204265137 -1.8606119881198058
0.5934018254505495 -1.6592003815992349
0.5938705655750001 -1.4554880248640156
0.5941558612858326 -1.250442155008044
0.594336362915134 -1.0446159930979235
0.5944430539869954 -0.8382739325298724
0.5944832493561453 -0.6315365752569205
0.5944722542898305 -0.4244821684961944
0.5944639903112602 -0.2172027500661212
0.594759666557065 -0.009761406584646883
0.5231459922394313 -0.010013011175943852
0.5233495185024784 -0.2172372784559922
0.5233103976411001 -0.42448006431602825
0.5232408711559601 -0.6315267288075902
0.5231887134396607 -0.8382698815571967
0.5231623391983132 -1.0446204499656273
0.5231523795129319 -1.250454339701094
0.5231494228932314 -1.4555088154748805
0.52314872120061 -1.6592360644051758
0.5231488468529687 -1.860674450395898
0.5231490738119537 -2.0584042614562477
0.52314861790555 -2.2506210166200877
0.523143082167456 -2.435213157468789
0.5231290247701194 -2.6098441665688146
0.5231132343736312 -2.771924370983778
0.5231415940439929 -2.9185957805492153
0.5233426155095489 -3.046735225907354
0.5239793767946429 -3.153036163631402
0.5254404441068323 -3.2342133488358678
0.5281601693586783 -3.287229365310314
0.5331140368838084 -3.3094040906936293
0.538067904408939 -3.2872293653102003
0.5407876296607845 -3.23421334883564
0.5422486969729726 -3.1530361636310746
0.5428854582580666 -3.046735225906949
0.5430864797236232 -2.918595780548755
0.5431148393939856 -2.7719243709832777
0.5430990489974985 -2.6098441665682883
0.5430849916001634 -2.435213157468252
0.5430794558620704 -2.2506210166195566
0.5430789999556676 -2.0584042614557387
0.5430792269146535 -1.8606744503954236
0.5430793525670128 -1.6592360644047417
0.5430786508743918 -1.4555088154744935
0.5430756942546912 -1.2504543397007573
0.54306573456931 -1.0446204499653444
0.5430393603279626 -0.8382698815569665
0.5429872026116633 -0.6315267288074139
0.5429176761265234 -0.4244800643159041
0.542878555265145 -0.21723727845592122
0.5430820815281918 -0.010013011175927749
0.5747834344419958 -0.010205193409944099
0.5749236479435391 -0.21727180197413073
0.5748566786332979 -0.42447345720284785
0.5747308967651549 -0.631509466538876
0.5745891445792686 -0.838253140419877
0.5744318662464044 -1.0446062975778279
0.5742323535712129 -1.250439578768648
0.5739409928389416 -1.4554874574194185
0.5734709535791944 -1.6592003403577076
0.5726816955819596 -1.8606120287890093
0.5714517447761562 -2.0583015124431263
0.5696936648546126 -2.2504668315607406
0.5673554365112344 -2.434996872708999
0.5643788203871349 -2.6095547299608235
0.5607057421868884 -2.7715559310489546
0.5563159484674617 -2.9181575348503257
0.5512830317735906 -3.0462640499666316
0.5458429349630683 -3.15260934026443
0.5404071951453884 -3.2339183950202526
0.5355807131759575 -3.28716838846481
0.5331140368837952 -3.3101834528686105
0.5306473605916326 -3.2871683884646967
0.5258208786222018 -3.2339183950200248
0.5203851388045245 -3.1526093402641027
0.5149450419940071 -3.0462640499662275
0.5099121253001415 -2.918157534849865
0.5055223315807194 -2.7715559310484545
0.5018492533804776 -2.609554729960298
0.49887263725638337 -2.4349968727084623
0.49653440891301037 -2.2504668315602103
0.4947763289914711 -2.058301512442618
0.49354637818567176 -1.8606120287885346
0.4927571201884393 -1.6592003403572737
0.4922870809286935 -1.4554874574190315
0.49199572019642285 -1.250439578768311
0.4917962075212317 -1.0446062975775452
0.49163892918836793 -0.8382531404196466
0.49149717700248174 -0.6315094665386997
0.49137139513433875 -0.42447345720272367
0.49130442582409756 -0.21727180197405976
0.49144463932564075 -0.01020519340992781
0.6263944659415646 -0.010352793888572985
0.6264907047223529 -0.2173043075679386
0.6263987237351725 -0.4244627457099492
0.6262198542990975 -0.6314850322638684
0.6259919933288268 -0.8382243175799567
0.6257069420308032 -1.04457392175764
0.6253230249468668 -1.2503983962388754
0.6247389121349537 -1.4554210247082726
0.6237427104192738 -1.6590718266649296
0.62208032570418 -1.860368366565592
0.6195336508938252 -2.057898314822595
0.6159535770582568 -2.249874472739433
0.6112326717089981 -2.43419432280652
0.6052591921708187 -2.608517137765968
0.5979087497687425 -2.7702613434791674
0.5890836918757731 -2.9165993583939773
0.5787958137670483 -3.0444703717187007
0.5672459505654058 -3.150657142005862
0.5548962148162604 -3.2319404214044005
0.5427993296611642 -3.285486279955792
0.5331140368837823 -3.309446881627934
0.5234287441064008 -3.2854862799556788
0.5113318589513063 -3.2319404214041736
0.49898212320216606 -3.150657142005536
0.48743226000053214 -3.0444703717182984
0.47714438189181707 -2.9165993583935186
0.46831932399885623 -2.7702613434786696
0.4609688815967884 -2.608517137765444
0.4549954020586179 -2.4341943228059852
0.45027449670936787 -2.249874472738904
0.44669442287380756 -2.0578983148220877
0.4441477480634596 -1.8603683665651183
0.4424853633483706 -1.6590718266644962
0.4414891616326933 -1.4554210247078856
0.4409050488207817 -1.2503983962385385
0.440521131736846 -1.0445739217573573
0.44023608043882273 -0.8382243175797266
0.4400082194685523 -0.631485032263692
0.4398293500324773 -0.42446274570982495
0.4397373690452971 -0.21730430756786764
0.43983360782608527 -0.010352793888556526
0.6779952507612435 -0.010462972491044645
0.6780559569853433 -0.2173332101293572
0.6779413416573684 -0.4244482452951716
0.6777129044730528 -0.631453841592778
0.6774025382952342 -0.83818412441633
0.6769951162658643 -1.0445244647813794
0.6764276660308716 -1.250329527559994
0.6755091760025091 -1.4552910379964383
0.6739168893270834 -1.6588060183705635
0.6713011518757936 -1.8598842954722068
0.6673676088782372 -2.057134779168689
0.6619119151359091 -2.248790845272988
0.6547682333377371 -2.4327565622031897
0.6457623848384466 -2.606685388346452
0.6346942597896678 -2.767994475373823
0.621381200358577 -2.9138710703410746
0.6057536666791719 -3.0412943346799097
0.5879856352144309 -3.1471121116013783
0.568717552753698 -3.2282329404290198
0.549405534120458 -3.2820487748494767
0.5331140368837699 -3.30722931405071
0.5168225396470829 -3.282048774849364
0.49751052101384613 -3.2282329404287937
0.4782424385531208 -3.147112111601054
0.4604744070883914 -3.04129433467951
0.44484687340899975 -2.913871070340619
0.43153381397792145 -2.7679944753733268
0.4204656889291544 -2.6066853883459307
0.4114598404298767 -2.4327565622026577
0.40431615863171705 -2.248790845272462
0.3988604648894003 -2.057134779168184
0.3949269218918536 -1.8598842954717347
0.39231118444057084 -1.6588060183701312
0.3907188977651495 -1.4552910379960518
0.3898004077367896 -1.250329527559657
0.389232957501798 -1.044524464781097
0.3888255354724283 -0.8381841244161
0.3885151692946101 -0.6314538415926017
0.38828673211029463 -0.42444824529504743
0.3881721167823199 -0.21733321012928633
0.3882328230064197 -0.010462972491028037
0.7295958515908786 -0.010541501233384324
0.7296257243880572 -0.217357074913274
0.7294894621644061 -0.4244301234562807
0.7292144843365495 -0.6314163856331868
0.7288255288933259 -0.8381335096651956
0.7283023308222292 -1.044458829628007
0.7275344639940795 -1.250224704236055
0.726234341053194 -1.4550740499382235
0.7239851365811409 -1.6583711722700702
0.7203543183561834 -1.859129606053217
0.7149898886392955 -2.055986688013279
0.7076270515645297 -2.247196069838001
0.6980329108989483 -2.4306655731694513
0.6859648102782706 -2.604041422656258
0.6711472258037302 -2.764735768843665
0.6533061935860758 -2.9099480267498947
0.6322803071737969 -3.0367036204846576
0.6082496452880327 -3.1419520616687318
0.5820631482164316 -3.2227865987443316
0.555717458291846 -3.276921171846279
0.5331140368837575 -3.303603969645727
0.5105106154756713 -3.276921171846167
0.4841649255510907 -3.222786598744107
0.45797842847949977 -3.14195206166841
0.43394776659374984 -3.0367036204842606
0.41292188018148757 -2.9099480267494426
0.39508084796384935 -2.764735768843172
0.38026326348932477 -2.60404142265574
0.36819516286866333 -2.4306655731689224
0.35860102220309786 -2.2471960698374773
0.35123818512834654 -2.0559866880127777
0.34587375541147103 -1.8591296060527471
0.3422429371865228 -1.6583711722696393
0.3399937327144758 -1.4550740499378376
0.33869360977359386 -1.2502247042357189
0.33792574294544603 -1.0444588296277246
0.33740254487434984 -0.8381335096649656
0.3370135894311265 -0.6314163856330104
0.3367386116032702 -0.4244301234561565
0.33660234937961925 -0.2173570749132032
0.3366322221767977 -0.010541501233367593
0.7812030061122694 -0.01059371566961468
0.7812058918837889 -0.21737485554495234
0.7810483083194667 -0.42440838582512835
0.7807295524776462 -0.6313731466946078
0.7802672803908338 -0.8380738504899338
0.7796283107916466 -1.0443756362196033
0.7786335249833974 -1.2500717157276304
0.7769073626576165 -1.45474941389117
0.7739478648337355 -1.6577446000938103
0.7692630144814551 -1.8580873532379236
0.7624482324980343 -2.054442590275738
0.7531607750373961 -2.2450796761267613
0.7410956126044795 -2.427910622432623
0.7259423280861008 -2.6005742280606534
0.7073551636365092 -2.7604742387412653
0.684968832703454 -2.90481782934808
0.6585437956900995 -3.0306874821120244
0.6282698807962378 -3.135171570444696
0.5952299635591627 -3.215618056682049
0.5619725698013853 -3.270144474275023
0.5331140368837455 -3.298588459890473
0.5042555039661084 -3.2701444742749115
0.4709981102083385 -3.215618056681826
0.43795819297127575 -3.1351715704443777
0.407684278077431 -3.030687482111632
0.38125924106409603 -2.9048178293476323
0.3588729101310607 -2.760474238740777
0.34028574568148884 -2.6005742280601396
0.32513246116312966 -2.4279106224320985
0.31306729873023253 -2.2450796761262417
0.3037798412696119 -2.05444259027524
0.29696505928620626 -1.8580873532374569
0.2922802089339374 -1.6577446000933813
0.2893207111100644 -1.4547494138907857
0.28759454878428825 -1.2500717157272945
0.28659976297604156 -1.044375636219321
0.28596079337685504 -0.838073850489704
0.285498521290043 -0.6313731466944313
0.28517976544822266 -0.42440838582500423
0.2850221818839007 -0.21737485554488145
0.28502506765542 -0.010593715669597874
0.8328214641987227 -0.010624772071991275
0.8328014859186433 -0.21738599210015697
0.8326232253495708 -0.4243829448455128
0.8322630632356809 -0.6313247407428079
0.831730962994044 -0.8380057697167631
0.8309683392071129 -1.0442702088322973
0.8297187203610791 -1.2498581775915367
0.8275224023871613 -1.4542984375184098
0.8238145431314401 -1.656911947526866
0.818063812518377 -1.8567497706399623
0.809787889167974 -2.052496302037113
0.7985675203178133 -2.242435668342106
0.7840215139745661 -2.4244847516118795
0.7657677916390151 -2.5962761336499725
0.7433953235984673 -2.7552039857109523
0.716480914458157 -2.8984812437583316
0.6847134115533666 -3.0232531362190556
0.6482819461592059 -3.126783693977915
0.608481419163838 -3.2067453890351434
0.5683358246655078 -3.261722670223621
0.5331140368837337 -3.2921566061465297
0.4978922491019628 -3.2617226702235103
0.457746654603642 -3.2067453890349236
0.4179461276082891 -3.1267836939776
0.38151466221414787 -3.0232531362186683
0.3497471593093802 -2.8984812437578893
0.3228327501690934 -2.7552039857104687
0.30046028212856873 -2.596276133649464
0.2822065597930407 -2.424484751611361
0.2676605534498166 -2.242435668341592
0.25644018459967644 -2.05249630203662
0.24816426124929095 -1.856749770639499
0.2424135306362417 -1.65691194752644
0.23870567138053028 -1.4542984375180268
0.2365093534066188 -1.2498581775912017
0.23525973456058802 -1.0442702088320155
0.23449711077365795 -0.8380057697165332
0.23396501053202146 -0.6313247407426316
0.2336048484181318 -0.4243829448453887
0.2334265878490594 -0.2173859921000861
0.23340660956898018 -0.010624772071974424
0.8844543025106019 -0.010639816235151178
0.884416639552683 -0.21739041574698395
0.8842195868937623 -0.4243537898243447
0.8838202191438851 -0.6312717121194883
0.8832195271538951 -0.8379293193808974
0.8823190829343169 -1.0441367010612668
0.8807813503113796 -1.249569592032694
0.8780750328373805 -1.4537068210054547
0.8736107463471882 -1.655867494966968
0.8667887108183199 -1.8551130029137284
0.8570517739781225 -2.0501448657602226
0.8439008122739665 -2.2392613078828747
0.8268728070256897 -2.4203839965244325
0.8055113269555797 -2.5911417776872017
0.77935153711361 -2.7489236331684066
0.7479379697463576 -2.890949190125703
0.7109414212080971 -3.014426703187536
0.6685227010038066 -3.1168184580385057
0.6220689848980141 -3.1961783931183883
0.5749595272258379 -3.2516251356736303
0.533114036883722 -3.2842457249702495
0.4912685465416098 -3.2516251356735215
0.44415908886944444 -3.1961783931181715
0.39770537276366963 -3.1168184580381952
0.3552866525594017 -3.014426703187154
0.31829010402116686 -2.8909491901252666
0.2868765366539414 -2.7489236331679296
0.2607167468119986 -2.5911417776866985
0.23935526674191507 -2.4203839965239196
0.22232726149366458 -2.2392613078823658
0.2091762997895322 -2.0501448657597336
0.199439362949355 -1.8551130029132694
0.19261732742050253 -1.6558674949665446
0.18815304093032179 -1.4537068210050736
0.1854467234563302 -1.2495695920323602
0.18390899083339673 -1.0441367010609852
0.18300854661382002 -0.8379293193806675
0.18240785462383052 -0.6312717121193121
0.18200848687395346 -0.4243537898242206
0.18181143421503307 -0.2173904157469131
0.18177377125711425 -0.010639816235134292
0.9361027625888936 -0.010644070089965433
0.9360545140139417 -0.2173886227870448
0.9358431327356389 -0.4243210843088446
0.9354063483635798 -0.6312146330138824
0.9347339813415552 -0.8378425898919851
0.9336752812951326 -1.0439668255090004
0.9318119256550875 -1.249192522318461
0.9285832647166161 -1.452969078690341
0.9233573523790167 -1.6546084487983623
0.9154688308841606 -1.8531760572096765
0.9042814631149946 -2.0473885300099357
0.889211099258583 -2.2355565435672933
0.8697114768656357 -2.4156073808585496
0.8452486547410962 -2.5851690329638894
0.8153027334559334 -2.7416330999761915
0.7794262521508762 -2.882237983676928
0.7373445283658353 -3.004254068925843
0.6892069282037346 -3.1053259989472406
0.6362583624540532 -3.18392168717325
0.5820403541119009 -3.239786756163544
0.53311403688371 -3.2747481606942332
0.4841877196555234 -3.239786756163437
0.42996971131338385 -3.1839216871730374
0.37702114556372285 -3.105325998946936
0.32888354540164805 -3.0042540689254675
0.28680182161663614 -2.8822379836764975
0.2509253403116092 -2.7416330999757212
0.22097941902647678 -2.5851690329633934
0.19651659690196746 -2.415607380858044
0.17701697450904963 -2.235556543566791
0.1619466106526646 -2.0473885300094525
0.150759242883521 -1.853176057209222
0.14287072138868265 -1.6546084487979427
0.1376448090510967 -1.4529690786899627
0.13441614811263403 -1.2491925223181284
0.1325527924725938 -1.0439668255087196
0.1314940924261731 -0.8378425898917552
0.13082172540414888 -0.6312146330137062
0.13038494103209022 -0.4243210843087205
0.1301735597537876 -0.21738862278697393
0.13012531117883575 -0.01064407008994853
0.9877656045848904 -0.010642831592634475
0.9877172161360548 -0.21738186627330477
0.9875004971621273 -0.4242854251613951
0.9870271640019952 -0.6311534772395231
0.9862732731138479 -0.837742593599906
0.9850278232278472 -1.043748663059754
0.9828158122131074 -1.2487189828305751
0.9790582336473241 -1.4520824528240035
0.9730752928505487 -1.653134431213415
0.9641349898977978 -1.850941008391806
0.951517810140666 -2.044230043084081
0.9345503090708593 -2.231324166909738
0.912597541473855 -2.410156689932572
0.8850489281182377 -2.578359054439419
0.8513440190122493 -2.7333362403573025
0.8110439597631511 -2.8723625458510575
0.7639777650916717 -2.9927835023775273
0.7104265195794817 -3.092395252852965
0.6514328322920943 -3.1700027261350368
0.5899023288934407 -3.226094717567016
0.5331140368836979 -3.263484161831352
0.4763257448739596 -3.2260947175669106
0.41479524147532076 -3.170002726134829
0.3558015541879566 -3.0923952528526666
0.3022503086757963 -2.992783502377159
0.2551841140043494 -2.872362545850635
0.2148840547552848 -2.7333362403568398
0.18117914564933033 -2.578359054438931
0.15363053229374676 -2.4101566899320743
0.13167776469677503 -2.2313241669092427
0.11471026362699771 -2.0442300430836045
0.10209308386989076 -1.8509410083913564
0.09315278091715952 -1.6531344312129994
0.0871698401203991 -1.4520824528236278
0.08341226155462578 -1.2487189828302443
0.08120025053989174 -1.043748663059474
0.07995480065389345 -0.8377425935996762
0.07920090976574679 -0.6311534772393467
0.07872757660561504 -0.4242854251612711
0.07851085763168779 -0.21738186627323394
0.07846246918285228 -0.010642831592617587
1.0394377690960739 -0.010641297447631877
1.0394057147401088 -0.21737268169252094
1.039200364635751 -0.42424804879377837
1.0386883542371448 -0.631086966040065
1.037832593507358 -0.8376226878186837
1.0363730537840627 -1.0434737997695245
1.0338005295127735 -1.2481448575036493
1.0295123060840516 -1.4510459532763196
1.0227853297722576 -1.6514479848587467
1.0128175889409456 -1.8484126544608082
0.9988027815295075 -2.0406751869235533
0.9799684765982825 -2.22656886789859
0.9555886633662003 -2.4040361638880667
0.9249910764473498 -2.5707184589092225
0.8875719248957514 -2.724041911044602
0.8429006884506953 -2.861334659374453
0.7909044768829658 -2.980044000887114
0.7320897558270948 -3.078119353079756
0.66769757344361 -3.1545918580958716
0.599724138803581 -3.210423711919827
0.5331140368836853 -3.2499999999999964
0.4665039349637946 -3.2104237119197245
0.39853050032378196 -3.1545918580956687
0.33413831794032384 -3.078119353079465
0.27532359688448665 -2.9800440008867537
0.22332738531679358 -2.861334659374039
0.17865614887177428 -2.7240419110441483
0.14123699732021333 -2.570718458908743
0.11063941040140052 -2.4040361638875773
0.08625959716935391 -2.226568867898103
0.0674252922381612 -2.0406751869230835
0.05341048482674991 -1.848412654460364
0.0434427439954595 -1.6514479848583354
0.03671576768368211 -1.4510459532759472
0.03242754425497122 -1.2481448575033203
0.029855019983688502 -1.0434737997692451
0.02839548026039629 -0.837622687818454
0.027539719530610338 -0.6310869660398888
0.027027709132004783 -0.4242480487936544
0.02682235902764697 -0.21737268169245016
0.026790304671681853 -0.010641297447614965
SCALARS Stress float 6
LOOKUP_TABLE default
-1174.2501890533476 -1970.2192643458066 -1495.660321445071 -21.68251410170317 0.0 0.0
1305.2439818375371 762.2380247039767 960.843213500274 -22.54723821404302 0.0 0.0
582.4039436359215 138.98158624002502 227.7051286705572 -39.43480763657999 0.0 0.0
475.3960281453929 23.276563642058115 152.8955526407307 -2.2140933829121607 0.0 0.0
592.284170736194 67.13723514555006 229.1403950290034 1.7258624981967157 0.0 0.0
698.999340930724 110.36583951215437 339.62291189512695 1.6782600386196291 0.0 0.0
815.7397911351698 153.4411443862178 451.4492470808323 0.746954951166849 0.0 0.0
933.1033317638953 212.45765545534468 555.6962515636652 -0.5214939584376437 0.0 0.0
1057.7604163443639 284.57360570533467 658.8959795472452 -2.003269021968783 0.0 0.0
1197.1994670308532 375.9273478495796 775.4004186170985 -3.5987502985929414 0.0 0.0
1356.4995040960928 491.0659904618144 912.6888851596848 -5.154762837882929 0.0 0.0
1535.8635018600883 630.5577094103197 1071.8182837457118 -6.445784740938443 0.0 0.0
1730.7246104929154 788.2300810083022 1247.6342220579404 -7.2557536429735885 0.0 0.0
1934.5875177399585 957.4188152224846 1433.7066644333627 -7.891769424498062 0.0 0.0
2138.632799199883 1129.1625747430685 1621.1426644287849 -8.317148785332526 0.0 0.0
2333.0297109046383 1293.7570095590165 1800.1994955871432 -8.491591675058736 0.0 0.0
2507.851453335037 1441.8158535442583 1961.277275824846 -8.26234303997006 0.0 0.0
2652.897593769929 1563.8280079369194 2094.5631432597766 -7.520291797724022 0.0 0.0
2764.5379293168517 1656.9113909590699 2196.720302120881 -6.387771844905691 0.0 0.0
2829.985689604997 1709.2425055992628 2255.473234180828 -7.3144217472940465 0.0 0.0
2821.9691543989748 1699.4578596231197 2246.8509364521033 -1.752020750700467e-11 0.0 0.0
2829.9856896046394 1709.24250559895 2255.4732341804493 7.314421747353659 0.0 0.0
2764.5379293161714 1656.9113909584376 2196.720302120238 6.387771844900863 0.0 0.0
2652.8975937690084 1563.82800793606 2094.563143259119 7.520291797741184 0.0 0.0
2507.8514533344187 1441.8158535437628 1961.2772758242659 8.262343039783861 0.0 0.0
2333.0297109019994 1293.757009556472 1800.1994955849277 8.491591675036256 0.0 0.0
2138.63279919937 1129.1625747427538 1621.1426644280555 8.31714878543692 0.0 0.0
1934.5875177380603 957.4188152207212 1433.7066644318193 7.89176942444648 0.0 0.0
1730.7246104927356 788.230081008347 1247.6342220574784 7.255753642939824 0.0 0.0
1535.8635018602652 630.5577094107277 1071.818283745595 6.445784740758485 0.0 0.0
1356.4995040940062 491.0659904599444 912.6888851580662 5.154762837704052 0.0 0.0
1197.1994670295553 375.9273478485248 775.4004186160595 3.598750298595185 0.0 0.0
1057.7604163428527 284.57360570405336 658.8959795461357 2.0032690219423 0.0 0.0
933.1033317636117 212.4576554553385 555.6962515633177 0.5214939583148386 0.0 0.0
815.7397911348708 153.44114438620764 451.44924708043436 -0.7469549514413352 0.0 0.0
698.9993409306986 110.36583951255457 339.62291189490355 -1.6782600386984043 0.0 0.0
592.2841707353433 67.1372351448317 229.14039502839321 -1.7258624982749762 0.0 0.0
475.3960281452238 23.276563642109192 152.89555264068247 2.214093382717909 0.0 0.0
582.4039436354547 138.98158623960552 227.7051286702273 39.434807636417126 0.0 0.0
1305.2439818372054 762.2380247037324 960.8432134998096 22.547238214014676 0.0 0.0
-1174.2501890506894 -1970.2192643431638 -1495.6603214424101 21.68251410118985 0.0 0.0
-1495.7802884396417 -2262.41022497324 -1769.5264216311027 -22.429470290288656 0.0 0.0
888.8311262040495 422.3134956032098 601.1813470340567 -31.323830510525013 0.0 0.0
405.517197514906 55.33277049191759 136.69107294079413 -33.35845981453741 0.0 0.0
420.2700563351858 3.8851255964356715 128.3178371411405 -16.052488884616153 0.0 0.0
527.0456396697825 29.55773864295124 186.42960084559743 -15.798678837333052 0.0 0.0
623.183488158101 41.587435537212386 270.4247422049341 -20.67178262601774 0.0 0.0
704.6174709098553 57.0778459553417 355.1598634971293 -22.723759083293036 0.0 0.0
783.3061821196646 75.72244507367083 421.7555817953592 -23.287620672655205 0.0 0.0
856.4321597102949 95.61346520746434 473.5237127317386 -23.720685813678173 0.0 0.0
926.6526925745071 117.93889493773023 521.081992510854 -24.281515128466957 0.0 0.0
996.2234549117122 143.99526634589114 569.2451207703592 -24.551881009232194 0.0 0.0
1066.4033026652326 174.01968851979214 619.4433739621713 -24.458527021954623 0.0 0.0
1136.4379915183297 207.97171735688025 671.4382565715464 -24.008605799713244 0.0 0.0
1203.7616593420048 241.02992271527015 721.6059048197978 -23.40715392523367 0.0 0.0
1262.4958940014697 267.90187457663154 764.3854571923333 -22.693089339373305 0.0 0.0
1307.908744531779 283.91678414409716 795.0764561814912 -21.67025479054451 0.0 0.0
1336.8387918575925 286.31680357565716 810.7243272192725 -20.092358066496608 0.0 0.0
1349.4160801692333 275.8894723556579 811.7901256619703 -17.879784771468 0.0 0.0
1343.1591877886797 251.0690559990489 796.3469267538648 -15.421190244731385 0.0 0.0
1288.848288379966 183.94735627609782 736.3029924264764 -14.714453367264753 0.0 0.0
1194.3736171746857 88.28456109827435 642.3805752192537 2.277200650269151e-11 0.0 0.0
1288.8482883795207 183.94735627568684 736.3029924260101 14.714453367325063 0.0 0.0
1343.159187788533 251.069055998963 796.3469267536999 15.421190244741933 0.0 0.0
1349.4160801689081 275.8894723554117 811.7901256619069 17.87978477158056 0.0 0.0
1336.8387918580354 286.31680357620223 810.7243272195938 20.09235806637633 0.0 0.0
1307.908744530674 283.9167841431268 795.076456180676 21.67025479063015 0.0 0.0
1262.4958940018294 267.9018745771568 764.3854571924768 22.69308933946774 0.0 0.0
1203.761659340382 241.0299227137886 721.6059048186663 23.40715392520433 0.0 0.0
1136.4379915188467 207.97171735762026 671.4382565718731 24.008605799749752 0.0 0.0
1066.4033026658117 174.01968852058124 619.443373962562 24.4585270219125 0.0 0.0
996.2234549114668 143.995266345899 569.2451207702113 24.551881009157118 0.0 0.0
926.652692574324 117.93889493779788 521.0819925107052 24.281515128497276 0.0 0.0
856.4321597094088 95.6134652068383 473.52371273112857 23.720685813672162 0.0 0.0
783.3061821197251 75.72244507401916 421.75558179532703 23.287620672633786 0.0 0.0
704.6174709096132 57.07784595537375 355.15986349682845 22.723759083212244 0.0 0.0
623.1834881577231 41.587435537117514 270.42474220454756 20.671782625968866 0.0 0.0
527.0456396693169 29.557738642780798 186.4296008452964 15.798678837243566 0.0 0.0
420.2700563349916 3.8851255964693947 128.3178371410894 16.052488884541262 0.0 0.0
405.5171975147243 55.33277049183643 136.69107294071787 33.35845981445264 0.0 0.0
888.8311262035032 422.3134956027851 601.181347033439 31.323830510490605 0.0 0.0
-1495.7802884376365 -2262.4102249711486 -1769.526421628993 22.429470289820934 0.0 0.0
-1243.3615288502135 -1975.484736877881 -1490.0299779031936 -60.77664634926321 0.0 0.0
695.8486153891314 331.73384741907245 457.008762969438 -99.22342700631467 0.0 0.0
283.93498462235766 63.01731950700447 104.09048606523082 -35.688831875771406 0.0 0.0
360.2555444545691 0.3217459249226735 107.97789581053537 -37.1956873161893 0.0 0.0
481.8382309193304 20.510957199869438 159.94546017462937 -38.12021497721411 0.0 0.0
590.3850994472541 36.895577450643785 240.7869926357945 -39.95070239004768 0.0 0.0
675.5405308483217 53.172396199222696 330.46386579267437 -42.496008782367625 0.0 0.0
755.1907518767744 68.31096227314646 400.4613594924195 -43.60224388377856 0.0 0.0
826.1697017870968 85.22528135748632 452.1484369723698 -44.62880326955006 0.0 0.0
892.7990205966346 103.64811668577346 496.5687446018743 -45.54945065977344 0.0 0.0
958.618197935528 126.30396903044313 541.2656399642642 -45.73222252582154 0.0 0.0
1025.1499622109372 153.90837577989953 588.4430311600968 -45.11560143165948 0.0 0.0
1092.2623591134538 184.4669233325083 637.2938715749103 -44.146711116052764 0.0 0.0
1155.705330367273 214.89256716085754 684.2325337028245 -42.96165499401641 0.0 0.0
1211.8921672622018 239.68604255585427 724.704669555577 -41.54666899782521 0.0 0.0
1256.163191173669 254.92411480330827 754.4258150972202 -39.63887138084378 0.0 0.0
1286.1275052057165 258.5198747116238 771.1865911302875 -36.865697310011726 0.0 0.0
1299.0075564758574 248.35269858549034 772.5898637984844 -33.21722213546914 0.0 0.0
1285.2786409433688 215.98790278420546 749.8005019348557 -29.276802582329516 0.0 0.0
1253.2478525363715 171.29543821697206 711.7991764173775 -25.686164794181057 0.0 0.0
1139.3875060064545 56.75836650808553 599.0218105042384 3.0027536013221834e-11 0.0 0.0
1253.2478525364388 171.29543821707477 711.7991764174456 25.686164794240725 0.0 0.0
1285.2786409437558 215.98790278463696 749.8005019351341 29.276802582316453 0.0 0.0
1299.0075564753374 248.35269858504785 772.589863798218 33.21722213546569 0.0 0.0
1286.127505205754 258.5198747117612 771.1865911302253 36.86569731002489 0.0 0.0
1256.163191173771 254.92411480354107 754.4258150974607 39.638871380852756 0.0 0.0
1211.892167261826 239.6860425556018 724.7046695552145 41.546668997809476 0.0 0.0
1155.7053303665818 214.8925671603326 684.2325337023627 42.961654993975344 0.0 0.0
1092.262359113691 184.46692333296247 637.2938715750826 44.146711116090216 0.0 0.0
1025.1499622115437 153.90837578073763 588.443031160533 45.11560143173315 0.0 0.0
958.6181979356681 126.30396903082561 541.2656399644313 45.73222252582329 0.0 0.0
892.7990205972267 103.6481166866449 496.56874460224606 45.54945065979976 0.0 0.0
826.1697017862366 85.22528135689359 452.1484369717776 44.628803269591394 0.0 0.0
755.1907518765254 68.31096227313354 400.461359492194 43.60224388372589 0.0 0.0
675.5405308475248 53.172396198642765 330.46386579202016 42.49600878216107 0.0 0.0
590.385099446874 36.89557745062173 240.7869926354224 39.950702390046324 0.0 0.0
481.8382309189418 20.51095719975611 159.9454601744169 38.12021497719863 0.0 0.0
360.2555444544885 0.32174592518932554 107.97789581060552 37.19568731614859 0.0 0.0
283.9349846223334 63.01731950701113 104.09048606522586 35.688831875683555 0.0 0.0
695.8486153885445 331.7338474187255 457.00876296883905 99.22342700618877 0.0 0.0
-1243.3615288481403 -1975.4847368757585 -1490.0299779010427 60.77664634893272 0.0 0.0
-1012.4982577102942 -1714.016967314467 -1236.8164067038897 -74.26537051270871 0.0 0.0
528.8501746657495 235.98007856087798 332.7018510159059 -144.9896502308679 0.0 0.0
207.27515144705842 55.67877987707749 78.88617939724074 -57.75671281752636 0.0 0.0
299.73377022976774 5.825574519508557 91.62962127162986 -58.505787060551434 0.0 0.0
426.81768406219595 10.820590142143026 133.76012833277335 -62.64702406843696 0.0 0.0
544.5258060611333 30.857118170841108 207.4628225871506 -60.750566140989434 0.0 0.0
643.7089460927795 47.112592603684064 300.1071223694786 -63.64380520919196 0.0 0.0
722.1244919874816 61.078966962136825 374.98292298261214 -64.20435282913894 0.0 0.0
791.8630251055771 75.0161417080745 428.100615857763 -65.27555133662335 0.0 0.0
855.2893747809122 89.93606156484317 470.27204500008133 -66.16633519133528 0.0 0.0
917.053249187939 108.95233539521968 511.35105593983457 -66.03541955596906 0.0 0.0
980.0846214785344 133.02411601955362 555.0471418498631 -64.98696999923227 0.0 0.0
1043.5119273260964 161.3136641592474 600.9484941250872 -63.487948885490695 0.0 0.0
1103.714929866677 187.93382752125422 644.3870802081692 -61.87150888600061 0.0 0.0
1156.9045408452503 210.47654773328583 682.2438519613161 -59.83868850949261 0.0 0.0
1200.8342375542763 225.97175763637688 711.9252566682918 -57.11188658975695 0.0 0.0
1231.8832428991245 230.51116476158717 729.7089229447259 -53.46392528592926 0.0 0.0
1244.637131782908 219.97754818186047 730.92301698331 -48.84958707252462 0.0 0.0
1235.5917121343848 191.96418497752856 712.6238335859983 -43.23539501961556 0.0 0.0
1215.470246350727 158.5083241469547 686.040451937138 -35.440260043724706 0.0 0.0
1055.1594514989486 -2.251078244577272 527.71321534265 -1.6145307313308876e-11 0.0 0.0
1215.4702463516253 158.5083241479541 686.040451937886 35.440260043842045 0.0 0.0
1235.5917121344976 191.96418497767638 712.6238335861512 43.235395019740935 0.0 0.0
1244.637131783134 219.97754818220594 730.9230169834834 48.849587072595405 0.0 0.0
1231.8832428990713 230.5111647616492 729.708922944567 53.46392528609406 0.0 0.0
1200.8342375541927 225.9717576364015 711.9252566683168 57.11188658966721 0.0 0.0
1156.9045408447384 210.4765477329469 682.2438519609294 59.83868850957772 0.0 0.0
1103.7149298672327 187.93382752204982 644.3870802085863 61.871508886228305 0.0 0.0
1043.5119273263706 161.31366415972417 600.9484941252255 63.48794888554144 0.0 0.0
980.084621478735 133.02411601996783 555.0471418499992 64.98696999928366 0.0 0.0
917.0532491880737 108.95233539563955 511.35105593990664 66.0354195560243 0.0 0.0
855.2893747810894 89.93606156527717 470.2720450001617 66.16633519135844 0.0 0.0
791.8630251050804 75.01614170789128 428.10061585743244 65.27555133670977 0.0 0.0
722.124491986674 61.07896696159667 374.9829229820138 64.2043528291725 0.0 0.0
643.7089460920937 47.1125926032087 300.10712236886366 63.64380520901007 0.0 0.0
544.525806061251 30.857118171456996 207.46282258715462 60.75056614097819 0.0 0.0
426.81768406152355 10.820590141745974 133.76012833245147 62.64702406839864 0.0 0.0
299.7337702297628 5.825574519661621 91.62962127166917 58.50578706045123 0.0 0.0
207.27515144707488 55.67877987701397 78.88617939722666 57.7567128173163 0.0 0.0
528.8501746651798 235.9800785606291 332.70185101538976 144.98965023074203 0.0 0.0
-1012.4982577085132 -1714.0169673126136 -1236.816406701974 74.26537051245047 0.0 0.0
-812.5159537020796 -1486.8411984649053 -1014.6259523348393 -73.474005683581 0.0 0.0
405.63397656375474 152.86102476740402 236.43687096543186 -176.12395770226078 0.0 0.0
152.4356854647974 44.80475050466721 59.17213079083939 -87.57566966949136 0.0 0.0
245.36763861297015 12.013425668041954 77.21665693452604 -81.56017282222918 0.0 0.0
362.7725203154197 6.470375515230076 110.69920049476615 -87.4066830515486 0.0 0.0
490.6929890176922 18.785344217666555 171.19773762037556 -86.38287147126776 0.0 0.0
599.7596081828187 39.60887943703084 262.2899831011593 -84.97395305426338 0.0 0.0
683.2152458275625 54.7465775903379 344.771143962456 -85.19777991766269 0.0 0.0
752.6934192054417 65.34046051167684 400.5891087169466 -85.64037007747382 0.0 0.0
813.1663113507126 76.58302393069664 441.3734467945301 -86.09054726804288 0.0 0.0
871.4003585358403 91.73650673829081 479.22759956824507 -85.50742385900337 0.0 0.0
930.3894123371647 112.14387076978049 519.1795438729445 -83.98076275114589 0.0 0.0
990.2332769536263 136.6660711744398 561.4308280975811 -82.14061608106006 0.0 0.0
1046.88917802837 161.42015196473187 602.2105723770366 -80.07172928495137 0.0 0.0
1097.5617743554858 181.3632733649041 637.5386745231319 -77.49813769370981 0.0 0.0
1140.1236411384004 195.20452974017235 665.7036989452125 -74.1635445120357 0.0 0.0
1172.4285026966322 201.38695859382025 684.9449296737713 -69.90298863425933 0.0 0.0
1189.3588142873894 194.73593849805346 690.1847980421901 -64.58875098288296 0.0 0.0
1186.779124103276 172.38025884599028 677.917860530112 -57.18070831251778 0.0 0.0
1172.1715282529017 142.94460371792218 656.0471879779271 -45.487235968213 0.0 0.0
954.4103818028859 -74.99984024597296 441.5028453624988 8.306244581035571e-12 0.0 0.0
1172.171528254088 142.9446037191874 656.0471879788216 45.4872359683468 0.0 0.0
1186.779124102843 172.3802588456227 677.9178605298525 57.180708312646615 0.0 0.0
1189.3588142882093 194.7359384990147 690.1847980427876 64.5887509831073 0.0 0.0
1172.428502696081 201.38695859331233 684.9449296732349 69.90298863430618 0.0 0.0
1140.1236411387583 195.20452974065952 665.7036989454888 74.16354451192181 0.0 0.0
1097.5617743550683 181.36327336464177 637.538674522816 77.49813769373647 0.0 0.0
1046.8891780279873 161.42015196457538 602.2105723768104 80.0717292851522 0.0 0.0
990.2332769542884 136.6660711752954 561.4308280979677 82.14061608111217 0.0 0.0
930.3894123361263 112.14387076885116 519.179543872241 83.98076275101295 0.0 0.0
871.4003585361527 91.73650673886937 479.22759956841435 85.50742385900983 0.0 0.0
813.1663113499918 76.58302393016241 441.37344679406385 86.09054726794838 0.0 0.0
752.6934192050943 65.34046051161907 400.5891087167019 85.64037007749802 0.0 0.0
683.2152458269238 54.74657758995724 344.7711439619205 85.19777991759038 0.0 0.0
599.7596081824348 39.608879436984495 262.2899831007621 84.97395305421855 0.0 0.0
490.6929890171282 18.78534421726143 171.1977376199622 86.38287147108174 0.0 0.0
362.77252031501286 6.470375515150781 110.69920049463484 87.40668305140517 0.0 0.0
245.36763861272485 12.01342566759745 77.21665693431596 81.5601728221775 0.0 0.0
152.43568546479645 44.80475050457171 59.17213079081045 87.5756696692807 0.0 0.0
405.63397656321683 152.86102476715317 236.4368709649725 176.12395770212777 0.0 0.0
-812.5159537006155 -1486.8411984632464 -1014.6259523331469 73.4740056834813 0.0 0.0
-637.0041808975084 -1285.8448580081917 -817.4589750597902 -70.77900731019112 0.0 0.0
308.738957317942 88.53586637887169 162.86249814662568 -193.91095839819252 0.0 0.0
110.52195440985064 31.5534061942727 42.622608181237005 -115.92260089568424 0.0 0.0
195.73226792433388 17.151859100805595 63.86706656489698 -104.91986691410449 0.0 0.0
296.6583896331766 5.054320797495601 90.05286865566129 -111.31064728380706 0.0 0.0
421.8346001991377 9.536708842412136 136.69341328688245 -112.39584800788197 0.0 0.0
538.5489945638865 31.41813617450059 218.51245713190144 -107.827749685965 0.0 0.0
636.8549936077084 45.49417433767555 305.6348201486119 -107.37207821007743 0.0 0.0
705.5530096809646 56.29068051801791 367.5213831908224 -105.60437074251887 0.0 0.0
765.6362804775612 63.399953061744775 408.890805912872 -105.35367132507031 0.0 0.0
820.3715955701367 74.65017785238129 444.05370319846156 -104.13657224771428 0.0 0.0
875.3859752245664 91.31205783304436 480.3883524992351 -102.07846443463708 0.0 0.0
931.2586597147564 112.57209202296988 519.0853191574998 -99.86849033788009 0.0 0.0
984.2774354744436 133.49923379323658 556.1858192585493 -97.55812996405201 0.0 0.0
1032.16738022719 151.5082140036043 589.2002764929646 -94.58976042256396 0.0 0.0
1073.259802270591 164.53618913851776 616.2665888626922 -90.63238353016878 0.0 0.0
1106.845743591687 171.0896032519084 636.3020929897232 -86.00435589405015 0.0 0.0
1130.0454872486423 170.46123985343007 647.6336435846583 -80.28663856379765 0.0 0.0
1135.6562955348913 155.44618295865226 643.129734556609 -71.50094776121452 0.0 0.0
1124.3641498482177 126.99886609476513 623.423387711452 -56.51974053775578 0.0 0.0
838.1015785962255 -158.86809206064368 342.20313015666346 2.913225216616411e-11 0.0 0.0
1124.364149849112 126.998866095761 623.4233877122041 56.51974053795567 0.0 0.0
1135.6562955348563 155.446182958752 643.129734556648 71.50094776150321 0.0 0.0
1130.0454872487835 170.46123985367169 647.6336435848375 80.2866385640079 0.0 0.0
1106.8457435914318 171.0896032517755 636.3020929895114 86.00435589412635 0.0 0.0
1073.2598022710715 164.5361891390999 616.266588863124 90.63238353018683 0.0 0.0
1032.1673802273424 151.50821400387053 589.2002764930035 94.58976042246596 0.0 0.0
984.2774354735003 133.49923379246155 556.1858192579045 97.55812996406986 0.0 0.0
931.2586597149167 112.57209202330583 519.0853191575435 99.86849033790307 0.0 0.0
875.3859752235674 91.31205783219218 480.38835249860483 102.07846443456576 0.0 0.0
820.3715955693583 74.65017785175249 444.05370319787613 104.13657224762048 0.0 0.0
765.6362804769694 63.39995306132859 408.8908059124893 105.35367132492688 0.0 0.0
705.5530096800534 56.29068051731025 367.5213831901566 105.60437074244015 0.0 0.0
636.8549936073341 45.49417433754482 305.63482014822915 107.37207820996362 0.0 0.0
538.5489945636803 31.418136174685266 218.51245713163667 107.82774968585994 0.0 0.0
421.8346001986171 9.536708842165798 136.6934132865816 112.39584800770561 0.0 0.0
296.65838963303577 5.0543207977202576 90.05286865569948 111.31064728377146 0.0 0.0
195.7322679240361 17.151859100308034 63.86706656465852 104.9198669139866 0.0 0.0
110.52195440980363 31.553406194239756 42.62260818121302 115.92260089554985 0.0 0.0
308.73895731751344 88.53586637870293 162.86249814627882 193.9109583980201 0.0 0.0
-637.004180896257 -1285.8448580066884 -817.4589750583077 70.77900731017279 0.0 0.0
-485.85263547325513 -1101.9198973783325 -643.0178374920114 -68.77007416000214 0.0 0.0
232.26573139475718 37.56082584032876 106.80950779572267 -204.58308351226628 0.0 0.0
76.49872323567133 18.440206896389892 28.48158380517903 -139.35458597505112 0.0 0.0
149.01831783186435 20.500442814204554 50.85669734978359 -126.69701907462851 0.0 0.0
232.09698857152918 6.237763097155086 71.35677519513534 -132.3072321691583 0.0 0.0
343.45082035262556 1.0762319915963183 104.24579700697974 -140.06382314245442 0.0 0.0
464.3835698210009 18.18662398003735 169.93025190758308 -134.50705705671402 0.0 0.0
570.0514406212211 37.27580605068724 256.05767898068234 -129.21423003433245 0.0 0.0
651.7075941254624 44.02778434990519 325.22134059131565 -127.35140728989306 0.0 0.0
709.0914547428242 50.51764823224742 370.20413637640326 -123.79288760854585 0.0 0.0
762.5499784398362 57.7581548052798 404.56551388224204 -121.84659883623482 0.0 0.0
813.6653488991337 70.44272422136613 437.5960075198961 -119.27067773943337 0.0 0.0
865.1920458878742 87.94543104635126 472.4347123619612 -116.70938188344944 0.0 0.0
914.238658933378 105.85412295252318 506.1318164158504 -114.15997657674812 0.0 0.0
958.856325565976 121.22808631145128 536.2748067649478 -111.00338270266235 0.0 0.0
997.9323524393969 131.566081744762 561.0364755366078 -106.84088376472772 0.0 0.0
1032.398348865634 140.29504926017214 582.5895070639343 -101.50849715495997 0.0 0.0
1063.649815347461 146.57432519417955 601.2941091673376 -95.67076697913416 0.0 0.0
1079.7220992398397 140.07813144711463 606.2465356063993 -86.54047736823728 0.0 0.0
1072.213514949913 112.65838900547715 589.0549151350187 -69.28323377378375 0.0 0.0
704.2516633938108 -253.44866263216522 229.10908152929915 4.318501112265949e-11 0.0 0.0
1072.213514950739 112.6583890064305 589.0549151356212 69.2832337740047 0.0 0.0
1079.7220992398136 140.07813144722112 606.2465356064572 86.54047736853417 0.0 0.0
1063.6498153479442 146.57432519484132 601.2941091676399 95.67076697934121 0.0 0.0
1032.398348865752 140.29504926041304 582.5895070640393 101.50849715507229 0.0 0.0
997.9323524387753 131.5660817443037 561.0364755362498 106.8408837648259 0.0 0.0
958.8563255667742 121.22808631235537 536.2748067654425 111.00338270268011 0.0 0.0
914.2386589331368 105.85412295247438 506.13181641570515 114.15997657677035 0.0 0.0
865.1920458877803 87.94543104641382 472.43471236185457 116.70938188345279 0.0 0.0
813.6653488988331 70.44272422126176 437.5960075197226 119.2706777394537 0.0 0.0
762.5499784388913 57.75815480433232 404.56551388151934 121.84659883600338 0.0 0.0
709.0914547427956 50.51764823244336 370.20413637638785 123.79288760842881 0.0 0.0
651.707594124772 44.02778434950808 325.2213405907812 127.3514072898753 0.0 0.0
570.0514406206613 37.27580605044149 256.05767898021196 129.21423003430522 0.0 0.0
464.38356982105563 18.18662398077233 169.93025190762307 134.5070570568127 0.0 0.0
343.4508203523857 1.0762319918230214 104.24579700695723 140.0638231422906 0.0 0.0
232.0969885714367 6.2377630973379805 71.35677519516574 132.30723216912864 0.0 0.0
149.01831783198685 20.500442814604806 50.85669734994003 126.69701907440783 0.0 0.0
76.49872323556423 18.440206896263856 28.481583805109207 139.35458597490384 0.0 0.0
232.26573139431872 37.56082584015747 106.80950779542823 204.58308351210633 0.0 0.0
-485.85263547220234 -1101.9198973770176 -643.0178374907579 68.77007415999731 0.0 0.0
-352.75639171224026 -942.5811393548394 -489.72748624361066 -75.68443535668789 0.0 0.0
167.1110829500114 -0.9335765165187553 63.2532891179552 -206.74401360472623 0.0 0.0
47.242753389236896 7.660767837761007 16.470872431552536 -157.20157262703003 0.0 0.0
103.87510493332228 21.866530484331264 37.72366672652203 -145.5064592937269 0.0 0.0
170.2272549238201 8.621998067742737 53.566632350429025 -150.58760632613942 0.0 0.0
256.4874320669006 -1.2975088397957775 75.97982934676718 -163.28883139685965 0.0 0.0
370.4963519926174 5.194160187301819 121.2787054316288 -163.03263393759156 0.0 0.0
482.9392257821157 23.421756074482843 194.73172104656598 -153.05066097134608 0.0 0.0
575.436900800892 33.7469104902334 268.83819544344203 -147.4751525088672 0.0 0.0
641.6879301917421 34.744770805177644 319.9971990460558 -143.18298924248225 0.0 0.0
693.2119645949031 40.09720582275661 356.3384073305249 -138.5596297177498 0.0 0.0
741.3078673221461 49.705257389088274 387.9481731519204 -135.3123803282193 0.0 0.0
788.867885950746 63.42630441861439 419.48780948720844 -132.42011136509606 0.0 0.0
832.9998448763143 77.43075093612482 449.03271639240046 -129.70094852323683 0.0 0.0
874.231718223881 89.96841304660475 476.16986419261787 -126.64543338918891 0.0 0.0
910.8963083206315 99.26999573835577 499.3487302334843 -122.45962213846377 0.0 0.0
944.8346890850681 106.02539372793412 519.7624185204515 -116.74358992308785 0.0 0.0
982.9876826800988 118.93219649813756 545.028357360456 -110.41764105211351 0.0 0.0
1014.5361814610006 127.16206834393113 564.9793527024533 -102.04904477520257 0.0 0.0
1015.431289767819 104.13258718093141 554.4702367584366 -84.69426786103762 0.0 0.0
547.1258254385928 -358.5996430371127 99.61406173352353 4.792610752701876e-11 0.0 0.0
1015.4312897691301 104.13258718244052 554.4702367593452 84.6942678613222 0.0 0.0
1014.5361814605392 127.16206834362475 564.979352702203 102.04904477546216 0.0 0.0
982.987682680543 118.93219649864865 545.0283573607261 110.41764105234513 0.0 0.0
944.8346890849706 106.02539372798833 519.7624185202828 116.74358992317558 0.0 0.0
910.8963083199278 99.26999573778279 499.34873023308705 122.4596221385281 0.0 0.0
874.2317182233742 89.9684130461696 476.1698641922634 126.64543338922132 0.0 0.0
832.9998448761278 77.43075093611937 449.03271639231195 129.70094852324462 0.0 0.0
788.86788595032 63.42630441829108 419.4878094869232 132.42011136518497 0.0 0.0
741.3078673221721 49.70525738931187 387.9481731519122 135.31238032814582 0.0 0.0
693.2119645941868 40.09720582210357 356.33840733000267 138.55962971762395 0.0 0.0
641.687930191833 34.74477080564581 319.9971990461322 143.18298924252971 0.0 0.0
575.4369008006776 33.74691049031394 268.8381954431776 147.4751525088434 0.0 0.0
482.9392257817262 23.42175607456305 194.73172104626818 153.0506609713511 0.0 0.0
370.4963519920503 5.194160186997305 121.27870543128206 163.03263393762057 0.0 0.0
256.4874320665898 -1.2975088394836551 75.97982934679345 163.28883139651023 0.0 0.0
170.22725492368025 8.621998067701396 53.56663235037279 150.5876063260789 0.0 0.0
103.87510493336451 21.86653048463088 37.72366672662524 145.5064592934915 0.0 0.0
47.242753389292105 7.660767837948894 16.4708724316254 157.20157262684853 0.0 0.0
167.1110829496771 -0.9335765167154015 63.253289117720804 206.74401360456147 0.0 0.0
-352.75639171134975 -942.5811393536866 -489.72748624255223 75.68443535663731 0.0 0.0
-252.04566340018442 -788.6797344417338 -366.4208428599803 -83.16289238751419 0.0 0.0
111.15766679497558 -32.12260870944112 30.087540976277182 -202.5670018063535 0.0 0.0
19.849000432972158 0.3748505379737192 6.068826708951489 -169.89705371870278 0.0 0.0
59.904740442800026 21.69819899010967 24.479835958345515 -160.51840772483868 0.0 0.0
108.40419146637555 11.614336336866884 35.94813436222473 -165.02226034945494 0.0 0.0
168.3729966144319 0.7606503730019177 50.50055548825564 -179.75055533307176 0.0 0.0
255.98688580018262 -3.3048314581140104 76.52260297570851 -191.80672542141681 0.0 0.0
366.48469022990986 4.284629447303801 125.1080761970862 -183.35212169173346 0.0 0.0
468.7416296189566 16.142650218176918 190.55284942033757 -168.5790547746277 0.0 0.0
545.2838078091802 18.861503417884887 247.18247478677827 -160.02437944342924 0.0 0.0
601.4040137240937 21.79055776218623 289.27195367512275 -153.54026561106105 0.0 0.0
648.2981939976872 27.635476447974586 321.76703574743857 -149.69126679037183 0.0 0.0
692.2781238826353 38.50891834328324 352.05256062463354 -146.58896021679664 0.0 0.0
731.4247787110589 48.650508049070055 378.1535071400024 -143.7613551489801 0.0 0.0
768.0629042464689 58.19668217940423 401.9861597996031 -141.0625103396705 0.0 0.0
802.753475684777 66.26405430954179 423.8671347022255 -137.52426011025474 0.0 0.0
836.3134748380539 72.78760950770511 444.4446290355447 -131.87533955534292 0.0 0.0
874.9080250289006 84.60460036501671 469.6161319760342 -124.44370912832373 0.0 0.0
924.6638451786426 108.14156825878732 505.83653554981885 -117.25684494875222 0.0 0.0
950.5822600144035 105.34151183571848 518.5106270137754 -104.22544273706949 0.0 0.0
357.94630921324705 -470.49172987836675 -48.3241897299652 1.0467715583217796e-10 0.0 0.0
950.5822600156241 105.34151183712746 518.5106270147359 104.22544273737067 0.0 0.0
924.6638451784532 108.14156825879007 505.83653554970965 117.25684494904161 0.0 0.0
874.9080250281961 84.60460036437775 469.61613197559177 124.44370912852918 0.0 0.0
836.3134748380971 72.78760950783072 444.4446290355261 131.87533955548702 0.0 0.0
802.7534756850755 66.26405431004301 423.8671347024498 137.52426011018767 0.0 0.0
768.0629042457925 58.19668217886017 401.98615979913546 141.0625103396792 0.0 0.0
731.4247787102087 48.6505080482458 378.1535071394035 143.76135514900636 0.0 0.0
692.2781238820662 38.50891834293514 352.0525606242432 146.58896021688503 0.0 0.0
648.2981939975169 27.63547644791506 321.76703574734853 149.69126679037942 0.0 0.0
601.4040137240978 21.79055776245024 289.2719536750653 153.54026561103865 0.0 0.0
545.2838078088375 18.861503417640158 247.18247478648516 160.02437944331382 0.0 0.0
468.7416296188982 16.142650218579373 190.5528494202719 168.57905477465005 0.0 0.0
366.4846902297463 4.284629447771316 125.10807619706816 183.3521216918617 0.0 0.0
255.9868857995383 -3.304831458596072 76.52260297537363 191.8067254211878 0.0 0.0
168.37299661446062 0.7606503734478338 50.50055548840477 179.7505553328119 0.0 0.0
108.40419146623735 11.614336336796999 35.94813436216655 165.0222603492281 0.0 0.0
59.90474044259557 21.69819898955975 24.479835958117956 160.51840772461668 0.0 0.0
19.84900043305288 0.37485053819842085 6.068826709042364 169.89705371851306 0.0 0.0
111.1576667945706 -32.12260870966093 30.0875409760461 202.56700180613524 0.0 0.0
-252.04566339952194 -788.6797344407094 -366.42084285916593 83.16289238750868 0.0 0.0
-172.54663674483783 -654.3583776577755 -268.3853503777262 -98.3740608683837 0.0 0.0
60.70230203199628 -55.55068389868788 4.028958001252234 -192.36695428374094 0.0 0.0
-6.575503309836187 -2.9963106336271217 -2.8717467622958432 -177.7247758075631 0.0 0.0
16.804803891731577 20.493433273751233 11.188668166130451 -171.19714162909563 0.0 0.0
46.598518967538176 14.371049016857619 18.272926279370242 -175.1906717021486 0.0 0.0
81.33878889360345 4.049561016439869 25.495356922683055 -191.35747428642966 0.0 0.0
127.83388171044437 -1.5151596277715806 37.84356536895704 -207.65890764286624 0.0 0.0
200.62150334381326 -5.072438051157493 59.30800789617711 -212.33515481675587 0.0 0.0
296.68448874344637 -11.38946388188184 90.7437759615812 -201.0605158844279 0.0 0.0
386.93097727193447 -17.29354191526629 127.32853026349669 -181.9058213098988 0.0 0.0
449.7119797505928 -12.41025274026413 164.91536002465912 -167.91682149585094 0.0 0.0
495.0476799772898 -0.7550749974770667 198.4235390501846 -160.67526101773598 0.0 0.0
534.7060710916829 9.814225661378515 228.53819283988838 -158.54135775572183 0.0 0.0
569.137419179659 18.33385371526648 254.5698771900711 -157.37560724468526 0.0 0.0
600.7528556893777 26.307195492141503 278.50792200479196 -156.61984329027078 0.0 0.0
632.7319147740367 33.85370300466338 302.18944303954186 -155.57301017212737 0.0 0.0
667.573500366188 40.444857667240576 326.97687070707224 -151.43101068210026 0.0 0.0
705.9376241661242 45.83147806551516 352.62097433195584 -143.1079231272686 0.0 0.0
760.0896241783909 64.26918782602002 389.38925729677663 -134.04298136521368 0.0 0.0
841.4282777745337 106.91519492527735 453.7273616626741 -129.9195199416963 0.0 0.0
103.58469196097018 -584.9613697659499 -227.00091632850652 7.770495358272456e-11 0.0 0.0
841.4282777754607 106.91519492653003 453.72736166341105 129.91951994204027 0.0 0.0
760.0896241783529 64.26918782613114 389.38925729682444 134.04298136559808 0.0 0.0
705.9376241652878 45.831478064499436 352.6209743313799 143.10792312733014 0.0 0.0
667.5735003659281 40.44485766690451 326.97687070682724 151.4310106821411 0.0 0.0
632.7319147744263 33.85370300520958 302.1894430399098 155.57301017214272 0.0 0.0
600.7528556899824 26.307195493062054 278.5079220052536 156.6198432903026 0.0 0.0
569.1374191790014 18.33385371457393 254.56987718954986 157.3756072447315 0.0 0.0
534.7060710920449 9.814225662302714 228.53819284016254 158.54135775580198 0.0 0.0
495.04767997679284 -0.7550749980094587 198.42353904980223 160.6752610177353 0.0 0.0
449.7119797513651 -12.410252739140827 164.91536002512504 167.91682149590497 0.0 0.0
386.9309772714216 -17.293541915920713 127.32853026309255 181.905821309664 0.0 0.0
296.68448874344614 -11.389463881221584 90.74377596175262 201.0605158845414 0.0 0.0
200.62150334324915 -5.072438051571054 59.30800789587802 212.33515481676875 0.0 0.0
127.83388171008657 -1.5151596280256356 37.8435653687737 207.65890764267354 0.0 0.0
81.33878889354224 4.049561016565807 25.495356922704776 191.3574742861138 0.0 0.0
46.598518967508625 14.371049016941715 18.272926279388535 175.1906717019359 0.0 0.0
16.80480389143515 20.49343327302356 11.188668165823357 171.19714162888098 0.0 0.0
-6.575503309758723 -2.996310633463788 -2.8717467622252864 177.72477580737703 0.0 0.0
60.70230203166509 -55.55068389887197 4.028958001076081 192.36695428345956 0.0 0.0
-172.54663674445857 -654.3583776569712 -268.3853503772083 98.37406086846887 0.0 0.0
-124.785848606321 -530.0249397540251 -200.248446034595 -109.62925732616935 0.0 0.0
16.49342273729991 -70.65299054970005 -15.716825990833755 -176.84024116961078 0.0 0.0
-31.54618178741392 -3.939524496022911 -10.640651614043474 -181.46916123176385 0.0 0.0
-25.31250928048665 18.943174459627713 -1.91149552627274 -177.47337796279106 0.0 0.0
-14.432070110189983 16.660539500951977 0.6693326439539322 -180.76159822491957 0.0 0.0
-6.5525773720196465 7.725501914787778 0.3571721971761237 -195.6181225049979 0.0 0.0
-2.691070552530377 1.4392354529921543 -0.3802562445098383 -213.00016456229787 0.0 0.0
-0.7728060298703845 0.11073775274129449 -0.20576446304298202 -217.2838075436687 0.0 0.0
-0.1526529803627099 -0.04350713914039517 -0.06076014204441549 -209.30796897057405 0.0 0.0
0.08439514860239683 0.001108533717291138 0.033206585393912746 -201.174203822163 0.0 0.0
-0.16601673362377767 -0.08610068052201214 -0.1327301110803205 -199.95322142958602 0.0 0.0
-0.7243281677247211 0.19610099267787362 0.15498727862978967 -194.58930259698352 0.0 0.0
-1.9921963191406746 0.6703271702555327 0.23527932852059052 -185.02454255257283 0.0 0.0
-1.4725686067060337 1.6154856585166826 0.6731854602391962 -177.25605951486955 0.0 0.0
4.393194974524647 4.563314369806676 1.6904121089320654 -171.77307563092353 0.0 0.0
23.220724929942975 10.524789762773864 4.681438864005074 -167.05124698824187 0.0 0.0
65.77216540474596 21.584647943652286 11.988094103907116 -161.86660711941784 0.0 0.0
149.59554337774438 29.197001334528395 16.225825930503902 -153.12764889569297 0.0 0.0
359.83932360086715 -20.771757901473222 29.604196265449133 -146.58095685133037 0.0 0.0
559.7685377932987 10.894827944691798 213.09202741073423 -186.6204236892409 0.0 0.0
-521.6335024822721 -806.3423224507134 -587.0007712958353 -8.000711204658728e-12 0.0 0.0
559.7685377934711 10.894827944537198 213.09202741087853 186.6204236893549 0.0 0.0
359.83932360110435 -20.771757900387442 29.60419626591647 146.5809568520433 0.0 0.0
149.59554337701047 29.197001333339685 16.225825929837228 153.12764889601462 0.0 0.0
65.77216540424584 21.58464794280293 11.988094103417623 161.8666071196738 0.0 0.0
23.22072492990678 10.524789763004819 4.681438863978386 167.05124698824397 0.0 0.0
4.393194975157158 4.563314370421352 1.6904121093944298 171.77307563091628 0.0 0.0
-1.472568606692306 1.6154856580348635 0.6731854600751177 177.25605951490414 0.0 0.0
-1.9921963183990101 0.6703271711170729 0.23527932898667814 185.02454255280946 0.0 0.0
-0.7243281674167221 0.19610099231321954 0.15498727861982786 194.58930259698985 0.0 0.0
-0.16601673305608955 -0.0861006804180704 -0.13273011088660525 199.9532214294327 0.0 0.0
0.0843951492633721 0.0011085343040342366 0.03320658577710134 201.17420382193257 0.0 0.0
-0.1526529799218288 -0.04350713872659373 -0.060760141784479416 209.30796897075112 0.0 0.0
-0.7728060300765058 0.11073775201905889 -0.20576446331591125 217.28380754354058 0.0 0.0
-2.6910705523693235 1.4392354532986333 -0.38025624436867034 213.00016456208832 0.0 0.0
-6.552577371990209 7.7255019147407715 0.35717219717064363 195.6181225046803 0.0 0.0
-14.432070110071743 16.660539501095965 0.6693326440319258 180.76159822474656 0.0 0.0
-25.31250928053415 18.94317445933218 -1.9114955263773055 177.47337796255712 0.0 0.0
-31.546181787345425 -3.9395244957817654 -10.640651613949759 181.46916123165136 0.0 0.0
16.493422737117058 -70.65299054981949 -15.716825990927829 176.84024116945935 0.0 0.0
-124.78584860610532 -530.0249397532918 -200.24844603429975 109.62925732610348 0.0 0.0
-101.40529547766077 -417.30915999420995 -155.47544917173462 -109.8192422669905 0.0 0.0
-14.057953749832462 -79.617214233878 -28.119992318377516 -163.79333621398598 0.0 0.0
-54.883437856963965 -4.477660732080171 -17.811872703395764 -181.1463443145252 0.0 0.0
-65.98767018881057 17.551136196065926 -14.530890471338875 -179.18184844748293 0.0 0.0
-74.33595562182389 18.195679595055175 -16.84385509228364 -181.07520123595438 0.0 0.0
-93.27710964193595 11.181524903572724 -24.57827532856264 -193.23652427219344 0.0 0.0
-133.09265896877906 4.6082220214617 -38.4527871702968 -209.13943921986296 0.0 0.0
-201.8968236560212 5.206442114625126 -59.707696950332505 -212.58306006629738 0.0 0.0
-296.7728723511827 11.180307465161382 -90.87387011305225 -201.0673784062518 0.0 0.0
-386.8240541416007 17.301495398726395 -127.27336739080697 -181.8776121053655 0.0 0.0
-450.19255715145835 12.484037576092287 -164.9441008830169 -167.97671253519852 0.0 0.0
-495.4932819857915 0.7289210315231571 -199.06860298545053 -160.5811764561039 0.0 0.0
-535.879749212208 -9.201440652011357 -229.60994663541427 -158.0066717574805 0.0 0.0
-569.3634328262109 -15.147876651495025 -253.9756361222387 -156.5733897984103 0.0 0.0
-594.0760251053714 -17.38980682818962 -270.26035633414244 -156.4869661601643 0.0 0.0
-607.9005467796685 -14.651359577897779 -275.5867138591009 -158.70323913773635 0.0 0.0
-608.8276452205641 -6.938355599148721 -267.73196779241584 -163.45567179614602 0.0 0.0
-602.9307905426986 0.01512405282051077 -246.92816228495812 -173.40863377114542 0.0 0.0
-585.3054555978498 45.133934744531615 -191.39851742362885 -186.93701505134706 0.0 0.0
-324.1704451434116 130.6330209685815 -6.973103014358259 -140.52940457532176 0.0 0.0
-1069.0364022782196 -1049.1454740844397 -1072.140824602841 -2.2291146706265863e-10 0.0 0.0
-324.17044514415926 130.63302096674153 -6.973103015308396 140.52940457612618 0.0 0.0
-585.3054555975763 45.133934744828366 -191.39851742354594 186.93701505172902 0.0 0.0
-602.9307905426584 0.015124052641894536 -246.9281622848682 173.40863377125785 0.0 0.0
-608.8276452213481 -6.938355600511031 -267.7319677930749 163.45567179633548 0.0 0.0
-607.9005467789241 -14.651359576921912 -275.5867138585263 158.7032391377536 0.0 0.0
-594.076025105906 -17.389806829194264 -270.2603563344769 156.48696616030463 0.0 0.0
-569.3634328257365 -15.147876651335842 -253.975636121928 156.57338979841904 0.0 0.0
-535.8797492121241 -9.201440652105791 -229.6099466353025 158.00667175754975 0.0 0.0
-495.4932819855 0.7289210315892198 -199.06860298517282 160.58117645605859 0.0 0.0
-450.19255715227797 12.484037574561821 -164.9441008835568 167.976712535443 0.0 0.0
-386.82405414035685 17.3014953998133 -127.2733673900323 181.87761210531048 0.0 0.0
-296.7728723502503 11.180307465628324 -90.87387011259186 201.06737840632047 0.0 0.0
-201.89682365548532 5.206442114682961 -59.707696950143635 212.58306006621294 0.0 0.0
-133.0926589682199 4.608222022052714 -38.4527871699585 209.1394392197198 0.0 0.0
-93.2771096418054 11.181524903344906 -24.578275328595762 193.23652427198834 0.0 0.0
-74.33595562172437 18.195679594964794 -16.843855092284326 181.07520123583637 0.0 0.0
-65.98767018866084 17.55113619624695 -14.530890471242955 179.18184844729313 0.0 0.0
-54.88343785686372 -4.477660731960073 -17.81187270333278 181.1463443142083 0.0 0.0
-14.05795374991154 -79.61721423395855 -28.119992318422447 163.79333621395574 0.0 0.0
-101.40529547766653 -417.3091599936777 -155.47544917162747 109.81924226675383 0.0 0.0
-83.94765226269918 -319.2416316972791 -120.95994280596183 -101.50918115867312 0.0 0.0
-33.994875776168726 -82.05371624456566 -34.810675040528764 -152.00872355631114 0.0 0.0
-76.62883556684413 -5.108175805221386 -24.514733971944413 -177.21496376649168 0.0 0.0
-104.7349466978657 16.17393981470673 -26.58313183776208 -176.09558607185647 0.0 0.0
-133.17411615051054 19.239988676103952 -34.09603134190894 -177.35002331669398 0.0 0.0
-178.92327557861347 14.458071332444351 -49.05804335790697 -186.09539740223588 0.0 0.0
-258.15889244847307 5.34884399104123 -77.08061481323199 -191.1442885680459 0.0 0.0
-366.7383810197882 -4.487360585719095 -125.42228068946797 -183.7404382072495 0.0 0.0
-468.7816858794839 -16.37569889390557 -190.6541666007024 -168.65912897477386 0.0 0.0
-545.2332637506086 -18.91334139499658 -247.1823062536297 -159.99259625314173 0.0 0.0
-601.3734102355977 -21.740051833900836 -289.2712555389112 -153.4890812062038 0.0 0.0
-648.6112192421951 -27.56585309560178 -321.9691987975448 -149.35611130184034 0.0 0.0
-692.9203346614565 -38.00830551730657 -352.28564994700673 -145.6393215964539 0.0 0.0
-730.8899758275156 -46.23187567248952 -376.9753252309582 -142.4356416466983 0.0 0.0
-761.0421494458226 -50.151761979758206 -394.85458514811 -140.96664652088558 0.0 0.0
-779.5518592639903 -46.98264778043554 -402.8892208867696 -142.02667159904544 0.0 0.0
-785.6227977899052 -37.625852899189084 -401.0514514863854 -146.00126781584066 0.0 0.0
-779.0009247373799 -24.528222946508578 -390.64853892811095 -152.92972352993988 0.0 0.0
-734.7242941454857 17.509024733456044 -348.2863176565117 -161.15887124935585 0.0 0.0
-642.481036553075 94.69881159940778 -267.0449445106768 -168.2139145779456 0.0 0.0
-1832.5521372379412 -1340.5793708431047 -1548.1374188950513 -2.987832203871221e-11 0.0 0.0
-642.4810365535257 94.69881159847114 -267.04494451105836 168.21391457837294 0.0 0.0
-734.7242941458995 17.509024732792895 -348.2863176568265 161.15887124968773 0.0 0.0
-779.0009247373376 -24.52822294656596 -390.64853892804194 152.92972353014815 0.0 0.0
-785.6227977894539 -37.62585289899744 -401.05145148617544 146.00126781586 0.0 0.0
-779.5518592646042 -46.98264778112247 -402.88922088720926 142.02667159921498 0.0 0.0
-761.0421494455451 -50.15176197984874 -394.854585147855 140.96664652086932 0.0 0.0
-730.8899758270696 -46.231875672112956 -376.975325230714 142.43564164671946 0.0 0.0
-692.9203346617451 -38.00830551792474 -352.2856499472689 145.63932159660752 0.0 0.0
-648.6112192422369 -27.565853096062554 -321.9691987975696 149.3561113019439 0.0 0.0
-601.3734102359896 -21.740051834847094 -289.2712555391684 153.48908120635306 0.0 0.0
-545.2332637500438 -18.913341394731678 -247.18230625321115 159.99259625305385 0.0 0.0
-468.7816858788042 -16.375698893657542 -190.6541666002302 168.65912897490387 0.0 0.0
-366.7383810192106 -4.487360585460824 -125.42228068908308 183.7404382072569 0.0 0.0
-258.15889244799473 5.348843990872852 -77.0806148131298 191.144288567937 0.0 0.0
-178.92327557831516 14.458071332283325 -49.05804335787689 186.0953974021221 0.0 0.0
-133.17411615052336 19.23998867555841 -34.09603134208206 177.3500233164411 0.0 0.0
-104.73494669783952 16.17393981455489 -26.583131837805308 176.09558607172374 0.0 0.0
-76.62883556678928 -5.108175805233607 -24.514733971930987 177.2149637663613 0.0 0.0
-33.9948757761871 -82.05371624474401 -34.81067504058806 152.00872355613956 0.0 0.0
-83.94765226260054 -319.24163169691855 -120.95994280582208 101.50918115853972 0.0 0.0
-68.00966347788288 -236.51770721725052 -91.35821120854001 -89.89737301625918 0.0 0.0
-48.584131774099085 -78.80876052359214 -38.21866096279912 -138.9537929419389 0.0 0.0
-96.64878508891572 -5.550143585127991 -30.65325733608569 -169.06869299532758 0.0 0.0
-141.87275506059171 14.82059848438483 -38.083368053663335 -169.21997649356916 0.0 0.0
-189.4942591098784 18.96726504455243 -51.07084852432464 -167.2558672212298 0.0 0.0
-260.81265970924 13.682785158799248 -74.43496659444479 -168.01784134795028 0.0 0.0
-371.04098440743667 -2.4230446015451133 -121.01862853733381 -165.75982980543773 0.0 0.0
-483.116921626308 -23.77610348437011 -194.90548963377628 -153.66320086773962 0.0 0.0
-575.4430363661942 -34.0028740997373 -268.9331815824307 -147.50721915932962 0.0 0.0
-641.643602346498 -34.74784759137116 -320.0075496543112 -143.17929153808439 0.0 0.0
-693.0599796564773 -39.93235998264935 -356.21359949988175 -138.50325386270922 0.0 0.0
-741.3098161599214 -49.43814662065317 -387.8544964510889 -134.9403621840226 0.0 0.0
-789.1715367608394 -62.94369183734824 -419.46711464482587 -131.3075946394135 0.0 0.0
-832.7899016802058 -75.85595111551412 -448.2998404729194 -127.9818868885569 0.0 0.0
-869.2050650701083 -84.09280151362128 -471.0058445789956 -126.16562369123749 0.0 0.0
-892.8108119485016 -83.83413029489006 -482.89664161014286 -127.33167489912967 0.0 0.0
-900.9214850009247 -72.86731056027602 -481.5613344231691 -132.01528504882162 0.0 0.0
-883.3346181773162 -43.370060404625804 -458.16568201322593 -138.49225928925864 0.0 0.0
-832.3261646422847 10.777220198220434 -406.45758911722817 -143.96681168069134 0.0 0.0
-695.4294353460978 135.92242896446677 -279.92013854215406 -147.63314333979875 0.0 0.0
-2277.8905960594266 -1579.4166533669918 -1899.7843409155712 -1.6484591469634324e-11 0.0 0.0
-695.429435345334 135.92242896494383 -279.9201385416266 147.63314334012983 0.0 0.0
-832.3261646417129 10.777220198794083 -406.4575891168181 143.96681168080838 0.0 0.0
-883.3346181769764 -43.37006040450551 -458.1656820129674 138.49225928950344 0.0 0.0
-900.9214849991733 -72.86731055851803 -481.56133442206556 132.01528504880488 0.0 0.0
-892.8108119493014 -83.83413029593467 -482.89664161065366 127.33167489925226 0.0 0.0
-869.2050650685653 -84.09280151207199 -471.0058445779656 126.16562369108074 0.0 0.0
-832.7899016799007 -75.85595111540253 -448.299840472707 127.98188688858671 0.0 0.0
-789.1715367608001 -62.94369183751169 -419.46711464483775 131.30759463944258 0.0 0.0
-741.3098161595385 -49.43814662059866 -387.8544964508206 134.94036218401124 0.0 0.0
-693.059979656422 -39.93235998291486 -356.21359949989676 138.50325386279383 0.0 0.0
-641.6436023458234 -34.747847590919946 -320.00754965380463 143.1792915379638 0.0 0.0
-575.4430363659499 -34.00287410002784 -268.9331815821903 147.507219159415 0.0 0.0
-483.11692162582386 -23.776103484268397 -194.90548963336124 153.6632008677134 0.0 0.0
-371.04098440707924 -2.423044601707845 -121.01862853715765 165.75982980541073 0.0 0.0
-260.81265970878115 13.68278515878723 -74.43496659432216 168.01784134768505 0.0 0.0
-189.49425910987375 18.96726504408676 -51.07084852447032 167.2558672210586 0.0 0.0
-141.87275506040737 14.820598484449444 -38.083368053592096 169.2199764934119 0.0 0.0
-96.64878508890772 -5.550143585234719 -30.65325733611558 169.06869299528304 0.0 0.0
-48.58413177412503 -78.80876052377474 -38.2186609628615 138.95379294175692 0.0 0.0
-68.0096634776358 -236.5177072168615 -91.35821120834916 89.89737301613148 0.0 0.0
-55.322066458656806 -167.38327965813562 -66.81160383503772 -76.93518804563227 0.0 0.0
-59.83038238808609 -71.40573222277776 -39.370815922281864 -123.9312536854391 0.0 0.0
-115.40334206484067 -5.655586230188543 -36.31742878909954 -156.8715277905115 0.0 0.0
-176.90447739401537 12.883558903416201 -49.20013050909773 -157.40870271547303 0.0 0.0
-244.61865950113435 17.90975309714168 -67.70222405570563 -153.5641390041824 0.0 0.0
-343.07374601675514 10.116669691400514 -101.88708126291586 -147.41487727813788 0.0 0.0
-461.83102799002364 -16.81519884424192 -169.31779790465777 -135.3676239575526 0.0 0.0
-570.1780620227657 -37.880409967728184 -256.21089792503517 -129.5375912600104 0.0 0.0
-651.7962092751922 -44.27924707984166 -325.39303739248055 -127.36626416978184 0.0 0.0
-709.025168491778 -50.464154525742096 -370.18505492852967 -123.79570602220338 0.0 0.0
-762.2990427075425 -57.450953827713974 -404.31951587092635 -121.80073058995852 0.0 0.0
-813.2381462315377 -69.83547282937991 -437.1146030889378 -118.89854095325715 0.0 0.0
-864.9177309157442 -87.18202014530081 -471.95162643450897 -115.59239036035018 0.0 0.0
-914.4745337807174 -105.19459528259749 -505.98334095135635 -112.32619951222392 0.0 0.0
-957.3699730211171 -119.07336025902313 -534.6005179463114 -110.2144542796274 0.0 0.0
-986.4539637862847 -121.6371623641343 -550.6305350725777 -111.18197521490507 0.0 0.0
-991.377986836387 -106.21911353529907 -545.6141661925758 -115.35023994272449 0.0 0.0
-962.6161424850986 -62.21557141116671 -509.53974275121635 -121.12676879794131 0.0 0.0
-885.6822372492893 20.873108172629202 -430.5983761131998 -125.10527059946591 0.0 0.0
-725.6531038214813 171.38304072658178 -278.1730836928637 -126.54851211129095 0.0 0.0
-2627.6876621900583 -1822.0453250445305 -2202.4083722825353 -8.597211831329332e-11 0.0 0.0
-725.6531038204828 171.38304072746968 -278.173083692211 126.54851211132522 0.0 0.0
-885.6822372486444 20.873108173146505 -430.5983761127949 125.10527059973143 0.0 0.0
-962.6161424848563 -62.21557141106413 -509.5397427511333 121.12676879812506 0.0 0.0
-991.3779868353834 -106.21911353434263 -545.6141661919576 115.35023994272687 0.0 0.0
-986.4539637855108 -121.63716236343559 -550.6305350720065 111.18197521481079 0.0 0.0
-957.3699730211306 -119.07336025920965 -534.6005179463835 110.21445427966096 0.0 0.0
-914.4745337801601 -105.19459528227824 -505.9833409509214 112.32619951236744 0.0 0.0
-864.917730915199 -87.18202014493912 -471.9516264342645 115.59239036034215 0.0 0.0
-813.2381462305306 -69.8354728285141 -437.11460308827037 118.89854095321569 0.0 0.0
-762.2990427073057 -57.45095382778408 -404.31951587082585 121.80073058994981 0.0 0.0
-709.0251684915709 -50.46415452589101 -370.18505492839444 123.79570602228117 0.0 0.0
-651.7962092747426 -44.2792470797093 -325.3930373920929 127.36626416975821 0.0 0.0
-570.1780620228478 -37.88040996831576 -256.2108979249576 129.53759126006167 0.0 0.0
-461.8310279892204 -16.815198843776734 -169.31779790407288 135.36762395743094 0.0 0.0
-343.0737460162356 10.116669691512055 -101.887081262693 147.41487727805492 0.0 0.0
-244.61865950083006 17.90975309712186 -67.70222405564327 153.5641390040001 0.0 0.0
-176.90447739372212 12.883558903666666 -49.20013050893887 157.40870271538566 0.0 0.0
-115.40334206474853 -5.65558623022777 -36.31742878908238 156.8715277903639 0.0 0.0
-59.83038238809263 -71.4057322227658 -39.37081592228026 123.9312536853412 0.0 0.0
-55.32206645862193 -167.38327965790205 -66.8116038349572 76.93518804550676 0.0 0.0
-46.09852221206416 -111.26292557106004 -47.20843433493725 -63.4451268556267 0.0 0.0
-68.74474962571566 -61.23916399668731 -38.99517408672087 -106.88692626621628 0.0 0.0
-133.0855025346587 -5.195233337045689 -41.48486604779855 -140.69191740731102 0.0 0.0
-210.11011437404892 10.829609144954745 -59.74972421909598 -141.61064656334713 0.0 0.0
-297.18077611999513 13.41215072760503 -85.15755727652936 -133.12441172405926 0.0 0.0
-417.2824489675444 0.7432558111407737 -133.0059472166028 -121.16816838692037 0.0 0.0
-537.0260454683678 -29.8757188674199 -217.37420813816726 -109.30333971054567 0.0 0.0
-637.2652027851996 -46.246516248198766 -305.99482497085694 -107.49148300247106 0.0 0.0
-705.6082332335178 -56.405341846624644 -367.64217701032777 -105.6157415798894 0.0 0.0
-765.5473546417278 -63.30017922656994 -408.8341428080268 -105.36660638710639 0.0 0.0
-820.0057417609609 -74.23239992986984 -443.69657043146424 -104.07595374955513 0.0 0.0
-874.5276060420904 -90.34272577461023 -479.5133619184521 -101.70919801281713 0.0 0.0
-930.2130548148353 -111.30963532658741 -517.9527604891381 -98.8740286225434 0.0 0.0
-984.6707347645447 -133.5085524621835 -556.3788020396128 -95.95147626658377 0.0 0.0
-1034.3742094588765 -153.336927101903 -591.2656458110744 -93.67154865874375 0.0 0.0
-1068.2349877685226 -160.0924981399673 -611.8200016915265 -93.66435879350985 0.0 0.0
-1070.1787796416786 -138.26513638251114 -602.1903619812538 -97.08875989550138 0.0 0.0
-1024.8284859226696 -76.37504913066638 -549.022319738224 -102.09042253034394 0.0 0.0
-922.1276110938246 33.14984466320121 -443.81733238109814 -105.5226595148214 0.0 0.0
-748.135377124282 197.95566098836846 -276.02039935432646 -108.89399083779234 0.0 0.0
-2928.800186291667 -2053.0495266411945 -2472.90768612315 -2.255973186038318e-11 0.0 0.0
-748.1353771230516 197.95566098947123 -276.02039935355833 108.89399083787416 0.0 0.0
-922.1276110941997 33.14984466263614 -443.8173323814043 105.52265951521682 0.0 0.0
-1024.828485922734 -76.37504913085856 -549.0223197383259 102.09042253050447 0.0 0.0
-1070.178779642024 -138.26513638293673 -602.1903619816213 97.08875989553161 0.0 0.0
-1068.2349877674815 -160.09249813901232 -611.8200016907624 93.66435879346358 0.0 0.0
-1034.3742094585477 -153.3369271018079 -591.2656458108731 93.67154865879552 0.0 0.0
-984.6707347652142 -133.5085524631074 -556.3788020399899 95.95147626679262 0.0 0.0
-930.2130548144123 -111.30963532626305 -517.9527604889663 98.87402862242672 0.0 0.0
-874.5276060423763 -90.34272577512226 -479.51336191864107 101.70919801280303 0.0 0.0
-820.0057417606567 -74.23239992977402 -443.6965704313123 104.07595374945416 0.0 0.0
-765.5473546417577 -63.300179226965994 -408.8341428080504 105.36660638713653 0.0 0.0
-705.6082332330452 -56.40534184638822 -367.64217700992856 105.6157415798296 0.0 0.0
-637.265202785128 -46.24651624860776 -305.99482497065225 107.491483002504 0.0 0.0
-537.0260454671318 -29.875718866455966 -217.374208137279 109.30333971054579 0.0 0.0
-417.2824489672269 0.7432558109442922 -133.00594721645936 121.1681683868664 0.0 0.0
-297.1807761194749 13.412150727796288 -85.15755727634274 133.1244117239101 0.0 0.0
-210.11011437396817 10.829609144806266 -59.74972421911419 141.6106465633095 0.0 0.0
-133.08550253456696 -5.19523333710614 -41.484866047788756 140.69191740714203 0.0 0.0
-68.74474962565016 -61.23916399663433 -38.99517408668536 106.88692626611224 0.0 0.0
-46.09852221207437 -111.26292557091007 -47.20843433489534 63.445126855606176 0.0 0.0
-40.043399401465805 -67.82141901435818 -32.35944552474719 -49.736006057903616 0.0 0.0
-75.69203694436575 -49.538567516367735 -37.56918133822004 -87.998278648633 0.0 0.0
-149.7005881317386 -4.163815924013052 -46.15977083640749 -120.53958888472937 0.0 0.0
-241.8490482369769 7.925583812186874 -70.15406998073185 -121.25561059624697 0.0 0.0
-352.6209992551363 8.293892808018454 -103.54763881699446 -110.2482474374686 0.0 0.0
-478.0755231694653 -14.528973112844687 -167.7092534797414 -91.1944542875621 0.0 0.0
-598.690728281585 -38.55115300201147 -261.15939384538024 -85.86347021382333 0.0 0.0
-683.4727735701053 -55.15589569393098 -344.9998849721841 -85.16278081422324 0.0 0.0
-752.7618317712553 -65.40347749750916 -400.6905416151719 -85.64856626225686 0.0 0.0
-813.0537182887514 -76.44620473275049 -441.2829936568239 -86.11436236762653 0.0 0.0
-870.913957677206 -91.20451474747054 -478.75286413961805 -85.42761626897946 0.0 0.0
-929.183943006087 -110.89114234602869 -517.9888008117808 -83.62187106872217 0.0 0.0
-988.5374038576982 -134.97532976078864 -559.7529201537762 -81.35690349702512 0.0 0.0
-1046.7757188580117 -161.37111842014744 -602.0962141540017 -78.9404463239637 0.0 0.0
-1101.3447433780964 -185.1343017431421 -641.3052607689473 -76.65062552606074 0.0 0.0
-1141.213916987876 -196.34052139833972 -667.0425338608571 -75.56003657978991 0.0 0.0
-1142.6190887151877 -173.19584311493594 -656.5929437932712 -77.35080555028321 0.0 0.0
-1081.5000916147092 -93.82968598659173 -586.8844503765245 -81.76905587262927 0.0 0.0
-953.5035653832981 41.979733178886235 -455.64319220474226 -86.660379362002 0.0 0.0
-761.3325772240723 224.2613881005185 -269.1962324612107 -93.97860406238958 0.0 0.0
-3191.9889298419716 -2264.714005431219 -2713.6944913838197 6.194866841724433e-11 0.0 0.0
-761.3325772232249 224.26138810131835 -269.1962324606736 93.97860406254574 0.0 0.0
-953.5035653836505 41.979733178388116 -455.6431922049982 86.66037936219705 0.0 0.0
-1081.5000916145345 -93.82968598649768 -586.8844503764186 81.76905587275684 0.0 0.0
-1142.6190887151859 -173.1958431150456 -656.5929437933252 77.35080555027365 0.0 0.0
-1141.213916986743 -196.34052139736588 -667.0425338600745 75.56003657982374 0.0 0.0
-1101.3447433778892 -185.13430174301578 -641.3052607687772 76.65062552606386 0.0 0.0
-1046.7757188577598 -161.37111842009534 -602.0962141537316 78.94044632389259 0.0 0.0
-988.5374038577696 -134.97532976103986 -559.7529201538719 81.35690349700849 0.0 0.0
-929.1839430059348 -110.89114234612838 -517.9888008116804 83.62187106870911 0.0 0.0
-870.9139576761519 -91.20451474671992 -478.7528641389634 85.42761626903642 0.0 0.0
-813.0537182885398 -76.44620473282903 -441.2829936566862 86.11436236770271 0.0 0.0
-752.7618317708099 -65.4034774973896 -400.6905416148267 85.64856626225017 0.0 0.0
-683.4727735695124 -55.15589569367471 -344.9998849716938 85.16278081424694 0.0 0.0
-598.6907282807767 -38.551153001562945 -261.15939384471295 85.86347021383463 0.0 0.0
-478.0755231689787 -14.528973112801488 -167.70925347942438 91.19445428749866 0.0 0.0
-352.620999254455 8.293892808373151 -103.54763881670574 110.2482474373963 0.0 0.0
-241.84904823689558 7.925583811974418 -70.15406998077191 121.25561059623044 0.0 0.0
-149.7005881316903 -4.163815924092851 -46.15977083641693 120.53958888463876 0.0 0.0
-75.69203694428529 -49.538567516375444 -37.569181338198206 87.99827864856157 0.0 0.0
-40.04339940125667 -67.82141901418062 -32.359445524631184 49.736006057916526 0.0 0.0
-36.48353973819071 -36.84241590334862 -21.997786692461794 -36.15437144063157 0.0 0.0
-80.50853656397291 -37.39452323929923 -35.370917940981634 -67.48665461543145 0.0 0.0
-165.02963565219127 -2.7483749846920444 -50.333403191064995 -96.31411809928453 0.0 0.0
-273.26426109331544 4.167095087133434 -80.67084909699442 -96.53774491261527 0.0 0.0
-405.3316784005529 -0.6492587315485103 -124.27963190289691 -82.00381871781059 0.0 0.0
-536.9924231479378 -25.55745703792506 -202.852338143881 -66.01707063756015 0.0 0.0
-642.5546635204387 -46.57294441355648 -299.26551996247196 -63.90301892061896 0.0 0.0
-722.1707285837109 -61.08089977320835 -374.97877909072554 -64.10040538230834 0.0 0.0
-791.9509591258395 -75.05937695658415 -428.1941045701417 -65.28460922008628 0.0 0.0
-855.1536277884045 -89.76900892520817 -470.1515182384466 -66.19557206780256 0.0 0.0
-916.4398084373659 -108.31133517048912 -510.75537866961724 -65.93949150718998 0.0 0.0
-978.6927626708023 -131.6520713834043 -553.6975741855138 -64.6647310239167 0.0 0.0
-1041.5016561894952 -159.4659560485067 -599.0338284277518 -62.950813561244225 0.0 0.0
-1102.5500182368125 -187.11393069575018 -643.3780309108529 -61.24716419115857 0.0 0.0
-1158.9021606179172 -212.82875185726863 -684.4030063861188 -59.270982628063535 0.0 0.0
-1203.8883495152738 -229.12243978136988 -715.1614481392355 -57.18848984105073 0.0 0.0
-1213.03748237182 -212.1641741819557 -711.6730745108871 -56.81556883027934 0.0 0.0
-1144.0764764268965 -123.48769976538975 -633.4709409228864 -60.47878161391729 0.0 0.0
-987.1515362323704 42.13855108718427 -472.71597135231775 -68.036486494573 0.0 0.0
-762.0919772531734 257.6796985663378 -252.6450800531751 -80.39722304615444 0.0 0.0
-3417.523919349725 -2447.6254793565076 -2920.5998981934445 3.9047876043696306e-11 0.0 0.0
-762.0919772540992 257.67969856530755 -252.64508005397295 80.39722304632608 0.0 0.0
-987.1515362321876 42.13855108729228 -472.7159713521382 68.03648649473702 0.0 0.0
-1144.0764764272058 -123.48769976577877 -633.4709409231941 60.47878161398353 0.0 0.0
-1213.037482370674 -212.16417418088352 -711.6730745100524 56.81556883022791 0.0 0.0
-1203.8883495140499 -229.12243978021397 -715.1614481383749 57.18848984090855 0.0 0.0
-1158.902160618186 -212.82875185774438 -684.4030063862615 59.27098262806534 0.0 0.0
-1102.5500182357061 -187.11393069480968 -643.3780309100799 61.24716419122131 0.0 0.0
-1041.5016561904865 -159.4659560497194 -599.033828428478 62.95081356129616 0.0 0.0
-978.6927626696079 -131.65207138241607 -553.6975741846798 64.66473102384997 0.0 0.0
-916.4398084361035 -108.31133516943173 -510.7553786688377 65.93949150715659 0.0 0.0
-855.153627787856 -89.76900892495902 -470.151518238087 66.19557206779643 0.0 0.0
-791.9509591253918 -75.05937695642565 -428.19410456983826 65.28460922009238 0.0 0.0
-722.1707285836777 -61.080899773534476 -374.97877909059935 64.10040538238094 0.0 0.0
-642.5546635197854 -46.572944413276126 -299.26551996189346 63.90301892062608 0.0 0.0
-536.9924231473856 -25.557457037753196 -202.85233814346998 66.01707063762314 0.0 0.0
-405.3316783999449 -0.6492587312204123 -124.27963190260283 82.00381871774456 0.0 0.0
-273.264261093045 4.167095087101701 -80.67084909695232 96.5377449125385 0.0 0.0
-165.02963565214495 -2.7483749848387102 -50.33340319109511 96.31411809920154 0.0 0.0
-80.50853656385644 -37.394523239259655 -35.37091794093483 67.48665461540031 0.0 0.0
-36.483539738096546 -36.84241590324575 -21.997786692402684 36.154371440569086 0.0 0.0
-34.21463168870444 -17.97699323286076 -15.657487476469555 -23.451643942800313 0.0 0.0
-82.44304272270003 -25.93770657434406 -32.51422478911323 -45.64498897997216 0.0 0.0
-178.69151909319157 -1.4560763700317088 -54.044278638966986 -67.53549551715562 0.0 0.0
-305.6160351471698 -0.36581178613475673 -91.650574456006 -66.93384942317732 0.0 0.0
-453.9756092285067 -13.007211652566536 -148.1196444200127 -51.74836455026048 0.0 0.0
-584.3927409952465 -34.57421678564131 -237.22284247960283 -42.90639951823912 0.0 0.0
-674.2697506309319 -52.22879361120326 -329.48881203412145 -42.480248741886825 0.0 0.0
-755.0327073996923 -67.95984431801817 -400.1952921980553 -43.49028351286976 0.0 0.0
-826.2993613800945 -85.2916595684298 -452.2707404529705 -44.64425592364956 0.0 0.0
-892.6174822362965 -103.43107283582154 -496.3959301365554 -45.57288580877635 0.0 0.0
-957.8885114888033 -125.57450414864239 -540.5625599941108 -45.63780587554906 0.0 0.0
-1023.7284331794784 -152.5719483337116 -587.0885914940806 -44.86814180121773 0.0 0.0
-1090.2102525991438 -182.6664264953449 -635.3846646840677 -43.83875464344281 0.0 0.0
-1153.4107677361933 -213.06213672687107 -682.1836071452958 -42.71276262382568 0.0 0.0
-1209.6559929549353 -238.0598488323468 -722.8037493392961 -41.2987227202089 0.0 0.0
-1253.088297393294 -252.43643400210445 -751.7427633007862 -39.145423410271675 0.0 0.0
-1273.4069590892923 -246.50878364885256 -759.1596992053917 -36.86247610741075 0.0 0.0
-1230.9663417518695 -183.05581306950984 -706.8185761906132 -38.19110323682417 0.0 0.0
-1042.4670742647297 16.14775632321286 -513.6220310758611 -47.996902058161204 0.0 0.0
-738.2464306855445 312.3985010996405 -213.31028534165932 -66.99767446197552 0.0 0.0
-3591.5733696001826 -2584.2509661413233 -3078.164352249669 6.297362631357828e-11 0.0 0.0
-738.2464306859545 312.39850109918547 -213.31028534203807 66.99767446200218 0.0 0.0
-1042.4670742648402 16.14775632305252 -513.6220310759104 47.99690205819293 0.0 0.0
-1230.9663417522108 -183.05581306996467 -706.8185761908741 38.19110323686378 0.0 0.0
-1273.4069590888548 -246.5087836485478 -759.1596992050495 36.862476107611606 0.0 0.0
-1253.0882973930302 -252.43643400194279 -751.742763300489 39.14542341034632 0.0 0.0
-1209.6559929541047 -238.05984883168244 -722.8037493387101 41.29872272016489 0.0 0.0
-1153.4107677358954 -213.06213672676157 -682.1836071450817 42.71276262389445 0.0 0.0
-1090.2102526000065 -182.66642649642847 -635.3846646847368 43.83875464352653 0.0 0.0
-1023.728433178632 -152.57194833308722 -587.0885914934706 44.86814180115355 0.0 0.0
-957.8885114894316 -125.57450414953402 -540.5625599945272 45.63780587551759 0.0 0.0
-892.6174822351612 -103.43107283492247 -496.39593013581447 45.57288580870015 0.0 0.0
-826.2993613800566 -85.29165956869949 -452.2707404529065 44.64425592363477 0.0 0.0
-755.0327073992848 -67.95984431795827 -400.1952921976982 43.49028351293544 0.0 0.0
-674.2697506305377 -52.22879361113624 -329.4888120337064 42.480248741902756 0.0 0.0
-584.3927409947006 -34.57421678547834 -237.22284247912705 42.90639951826622 0.0 0.0
-453.9756092279372 -13.007211652422287 -148.11964441974712 51.748364550300764 0.0 0.0
-305.6160351466718 -0.3658117856850531 -91.65057445573115 66.93384942312505 0.0 0.0
-178.69151909307368 -1.4560763702151132 -54.04427863898663 67.53549551704762 0.0 0.0
-82.44304272268332 -25.9377065743902 -32.514224789122046 45.64498897994315 0.0 0.0
-34.21463168874452 -17.976993232846016 -15.65748747647716 23.45164394276344 0.0 0.0
-30.969546908430843 -10.225803253555592 -12.358605048595926 -13.273397367263879 0.0 0.0
-80.02205889687966 -16.777481808693945 -29.039862211672066 -22.864486931853595 0.0 0.0
-190.0932095010608 -1.209710592512657 -57.390876028072036 -32.95032363174546 0.0 0.0
-339.9369589935982 -4.621785789584863 -103.28885084774895 -31.927780931967987 0.0 0.0
-503.1518990159974 -22.996851300985412 -173.68405027199526 -23.14168865713683 0.0 0.0
-618.6962238403758 -41.35127213455914 -268.30121829863475 -21.76132220162742 0.0 0.0
-702.8007193138509 -55.401646725851585 -353.6290847583403 -22.68035990758526 0.0 0.0
-783.0798746899947 -75.42186422574392 -421.5093276298222 -23.23608678716103 0.0 0.0
-856.594105651257 -95.64193209360506 -473.63145666912374 -23.736049799964533 0.0 0.0
-926.4112511737994 -117.6623385279695 -520.8462318039175 -24.289650123838367 0.0 0.0
-995.4028383503808 -143.20449554123854 -568.460466989769 -24.486450374858553 0.0 0.0
-1065.0335963498596 -172.78562229309074 -618.1595263553576 -24.3178045218844 0.0 0.0
-1134.4411564206057 -206.26856722878745 -669.6109455323137 -23.879505373853323 0.0 0.0
-1200.37508996356 -238.13394052995568 -718.5073713417083 -23.353468910832852 0.0 0.0
-1255.545159671396 -261.6968672269487 -757.8908660576571 -22.6021883794029 0.0 0.0
-1293.5165186220415 -270.67360336199613 -781.4078221894893 -21.144290216455154 0.0 0.0
-1311.4369323771034 -262.80956157747795 -786.4835240175626 -18.680221124080866 0.0 0.0
-1309.7904628154483 -239.83999044020788 -774.3378777695123 -17.09350826802092 0.0 0.0
-1209.3473209239771 -125.83454807862873 -667.8646163267331 -24.186751131689256 0.0 0.0
-720.3822256485377 359.7059521899958 -180.96024749683727 -49.72149623922061 0.0 0.0
-3562.2935546063295 -2519.2741006111546 -3033.395621365922 1.1122480714220728e-10 0.0 0.0
-720.3822256483152 359.7059521901943 -180.9602474966889 49.721496239228784 0.0 0.0
-1209.3473209240822 -125.83454807879761 -667.8646163267773 24.18675113171842 0.0 0.0
-1309.7904628154956 -239.83999044033197 -774.3378777695912 17.093508267996878 0.0 0.0
-1311.4369323764888 -262.809561576998 -786.4835240171144 18.680221124106026 0.0 0.0
-1293.5165186222623 -270.6736033623553 -781.4078221896343 21.144290216537737 0.0 0.0
-1255.5451596706207 -261.696867226316 -757.8908660569874 22.602188379377942 0.0 0.0
-1200.375089963444 -238.13394053002972 -718.5073713416007 23.353468910790408 0.0 0.0
-1134.4411564209217 -206.26856722933627 -669.610945532561 23.87950537401343 0.0 0.0
-1065.033596348672 -172.785622292104 -618.1595263545403 24.317804521821614 0.0 0.0
-995.4028383504519 -143.204495541584 -568.460466989756 24.486450374722644 0.0 0.0
-926.4112511731761 -117.66233852761354 -520.8462318034736 24.289650123846915 0.0 0.0
-856.5941056510094 -95.64193209366296 -473.63145666893803 23.736049799956348 0.0 0.0
-783.0798746891398 -75.42186422516431 -421.5093276292139 23.23608678720325 0.0 0.0
-702.8007193136854 -55.40164672601136 -353.6290847580876 22.68035990753177 0.0 0.0
-618.6962238396621 -41.351272134180384 -268.30121829804006 21.761322201626196 0.0 0.0
-503.1518990153181 -22.996851300577273 -173.68405027156942 23.141688657182527 0.0 0.0
-339.93695899331175 -4.621785789690651 -103.28885084771544 31.927780931912228 0.0 0.0
-190.09320950093678 -1.209710592572871 -57.39087602805289 32.95032363164178 0.0 0.0
-80.02205889682487 -16.777481808782717 -29.03986221168227 22.8644869318184 0.0 0.0
-30.969546908366844 -10.225803253502319 -12.358605048560745 13.273397367121598 0.0 0.0
-19.804879973538892 -5.116058444475849 -7.476281525404422 -8.21657695287785 0.0 0.0
-69.29813862731147 -9.513310436263874 -23.643434719072598 -9.49639554928082 0.0 0.0
-198.29282201660038 -2.8367751131250465 -60.33887913891762 -11.090822937890866 0.0 0.0
-381.8631123251269 -19.255345256986246 -121.18250037298122 -8.68654803959125 0.0 0.0
-568.5003751242219 -62.6491303168732 -216.38437162382996 -0.9173570725940223 0.0 0.0
-701.844171094114 -106.6996497589934 -337.1797246154888 1.09492903839174 0.0 0.0
-814.5295610757332 -152.35211491464517 -450.45900188842364 0.8087638399476766 0.0 0.0
-933.4757684781928 -212.58459526091454 -555.9417356641325 -0.5096411311424305 0.0 0.0
-1058.053028094514 -284.76110434983525 -659.1523086541911 -2.022851129111043 0.0 0.0
-1196.8019251402843 -375.4969713919241 -775.024100196786 -3.6164031120103317 0.0 0.0
-1355.1847342200797 -489.79887192943283 -911.4308053794481 -5.139564527631601 0.0 0.0
-1533.8055381644751 -628.6603891220382 -1069.8628690421222 -6.399927267207875 0.0 0.0
-1727.7813552254827 -785.5893582562232 -1244.874158324229 -7.249239424842461 0.0 0.0
-1928.2320421864626 -951.5534543344758 -1427.6983965243867 -7.97473620678136 0.0 0.0
-2120.0997384329567 -1111.4517286842465 -1603.294467291651 -8.39720194628141 0.0 0.0
-2282.325121885696 -1244.5658288276575 -1750.8316742552731 -8.257134910911368 0.0 0.0
-2388.8649599558753 -1325.7165299932467 -1844.7439477349417 -7.096139097938114 0.0 0.0
-2421.081706087948 -1337.2251988804364 -1866.5088785845835 -5.173051124857757 0.0 0.0
-2445.350486850382 -1346.6630961706392 -1882.1568608499222 -10.205897723218571 0.0 0.0
-2475.654246149256 -1375.2711814008203 -1908.7566864589558 -38.9300850753048 0.0 0.0
-5824.373848696257 -4753.469021694979 -5263.975372697198 8.718359367776429e-11 0.0 0.0
-2475.6542461487766 -1375.2711814003487 -1908.7566864585415 38.93008507524672 0.0 0.0
-2445.3504868497907 -1346.6630961701096 -1882.156860849222 10.20589772311044 0.0 0.0
-2421.0817060873933 -1337.2251988799846 -1866.5088785840258 5.173051124833513 0.0 0.0
-2388.86495995379 -1325.7165299912667 -1844.7439477333216 7.096139097898021 0.0 0.0
-2282.3251218849828 -1244.5658288270672 -1750.8316742546895 8.257134910864593 0.0 0.0
-2120.0997384312823 -1111.4517286827202 -1603.2944672900717 8.397201946189849 0.0 0.0
-1928.2320421859904 -951.5534543341951 -1427.6983965237807 7.974736206680532 0.0 0.0
-1727.7813552248072 -785.5893582557724 -1244.8741583235812 7.249239424898505 0.0 0.0
-1533.8055381620613 -628.6603891198253 -1069.8628690402402 6.399927267164152 0.0 0.0
-1355.184734218206 -489.79887192780797 -911.4308053779974 5.1395645275006245 0.0 0.0
-1196.8019251395508 -375.49697139145536 -775.0241001961402 3.616403111980926 0.0 0.0
-1058.0530280936205 -284.7611043492466 -659.1523086534954 2.0228511290387488 0.0 0.0
-933.475768477196 -212.58459526019112 -555.9417356633488 0.5096411312259654 0.0 0.0
-814.5295610751773 -152.35211491439003 -450.4590018878801 -0.8087638400239534 0.0 0.0
-701.8441710930796 -106.69964975823324 -337.1797246146439 -1.0949290384502248 0.0 0.0
-568.5003751231616 -62.64913031592843 -216.3843716230931 0.9173570725478868 0.0 0.0
-381.86311232494586 -19.255345257466956 -121.18250037304959 8.68654803952223 0.0 0.0
-198.29282201640396 -2.836775113042002 -60.33887913883376 11.090822937873174 0.0 0.0
-69.29813862740262 -9.51331043642071 -23.643434719146992 9.496395549224697 0.0 0.0
-19.804879973488774 -5.116058444402572 -7.476281525367403 8.216576952590996 0.0 0.0
SCALARS Strain float 6
LOOKUP_TABLE default
0.013628352615754208 -0.02290861216544266 0.0 -0.0011909398133360032 0.0 0.0
0.008365483435211797 -0.0023088329951282205 0.0 -0.007004936011360868 0.0 0.0
0.002510798433638895 -0.0006126171165458875 0.0 -0.0007824015775022337 0.0 0.0
0.002170874839412958 -0.000867738550556595 0.0 -9.164447265612128e-06 0.0 0.0
0.0030970352043100547 -0.0013199116024885603 0.0 0.00014619687814582615 0.0 0.0
0.005108319264480049 -0.0028103430798040417 0.0 0.0002820563747943104 0.0 0.0
0.00857205227245086 -0.005730791907246412 0.0 0.00037685863656019907 0.0 0.0
0.013748870814877544 -0.010346356337311735 0.0 0.00041245734027306783 0.0 0.0
0.020853899674397266 -0.01685143967120337 0.0 0.00039230042781505486 0.0 0.0
0.029974428455618374 -0.025277373988623335 0.0 0.0002952222278625588 0.0 0.0
0.041080211128001906 -0.03555970236856665 0.0 0.00015730366092511024 0.0 0.0
0.05408087224569205 -0.04760439325565975 0.0 -2.163327148783597e-05 0.0 0.0
0.06885781552077264 -0.06132463769365429 0.0 -0.0002789283194271073 0.0 0.0
0.08528261003285588 -0.0766311840380641 0.0 -0.0005671577536478533 0.0 0.0
0.10314481872520126 -0.09336694264845763 0.0 -0.0009247798683027584 0.0 0.0
0.12199725989249749 -0.11114328746039595 0.0 -0.0013477152891841083 0.0 0.0
0.14104623347562104 -0.12922434431021274 0.0 -0.001757357142544606 0.0 0.0
0.15913527667227026 -0.14651269918233695 0.0 -0.00199566247095225 0.0 0.0
0.17485727302648132 -0.16162093378168751 0.0 -0.0018874564394534177 0.0 0.0
0.1865285504519935 -0.17293914759322343 0.0 -0.0020475751408952705 0.0 0.0
0.19111646467230978 -0.17757990877136132 0.0 1.5421691701433815e-15 0.0 0.0
0.1865285504519702 -0.17293914759320206 0.0 0.002047575140904508 0.0 0.0
0.17485727302643084 -0.16162093378164116 0.0 0.0018874564394596102 0.0 0.0
0.15913527667219682 -0.14651269918226845 0.0 0.001995662470956708 0.0 0.0
0.14104623347553616 -0.1292243443101313 0.0 0.001757357142540628 0.0 0.0
0.12199725989240909 -0.11114328746032243 0.0 0.0013477152891804697 0.0 0.0
0.10314481872511243 -0.09336694264837192 0.0 0.0009247798683034948 0.0 0.0
0.08528261003276685 -0.07663118403798577 0.0 0.0005671577536449854 0.0 0.0
0.06885781552068582 -0.06132463769356861 0.0 0.0002789283194250501 0.0 0.0
0.05408087224561188 -0.047604393255578664 0.0 2.1633271482728294e-05 0.0 0.0
0.04108021112793202 -0.03555970236850798 0.0 -0.0001573036609293114 0.0 0.0
0.02997442845556194 -0.025277373988573673 0.0 -0.0002952222278644612 0.0 0.0
0.020853899674354345 -0.016851439671168235 0.0 -0.0003923004278153519 0.0 0.0
0.013748870814846586 -0.010346356337282056 0.0 -0.00041245734027451123 0.0 0.0
0.008572052272430675 -0.005730791907227642 0.0 -0.00037685863656365144 0.0 0.0
0.0051083192644687655 -0.0028103430797924507 0.0 -0.00028205637479453046 0.0 0.0
0.003097035204305525 -0.001319911602488387 0.0 -0.00014619687814606947 0.0 0.0
0.0021708748394119095 -0.0008677385505558772 0.0 9.164447263173637e-06 0.0 0.0
0.0025107984336367553 -0.0006126171165461787 0.0 0.0007824015774987536 0.0 0.0
0.00836548343520556 -0.0023088329951240633 0.0 0.007004936011351321 0.0 0.0
0.013628352615745538 -0.02290861216541807 0.0 0.0011909398132913783 0.0 0.0
0.009453201455033823 -0.02050863532512181 0.0 -0.0007195571723735341 0.0 0.0
0.005545631080424566 -0.0017209791427419293 0.0 -0.005657800649510362 0.0 0.0
0.0016727792744977085 -0.0004776971926024725 0.0 -0.0005018947017597184 0.0 0.0
0.0019223086751458595 -0.0008173626370003355 0.0 -0.00019955260581940384 0.0 0.0
0.0026794141329437187 -0.001193348174627055 0.0 -0.00015510229376861144 0.0 0.0
0.0043881281265618745 -0.0025177367947613796 0.0 -0.00021519980875216535 0.0 0.0
0.007467620213508984 -0.005233909852784327 0.0 -0.00047491050168271473 0.0 0.0
0.012161792677646954 -0.009600224259669572 0.0 -0.0008760344900814167 0.0 0.0
0.018641973980373386 -0.015790835305074385 0.0 -0.001434276424952102 0.0 0.0
0.026941747336186095 -0.023810400176139893 0.0 -0.002124169010750137 0.0 0.0
0.03699375004303268 -0.0335748223589768 0.0 -0.002874843557173438 0.0 0.0
0.04870403850711284 -0.04498430577681843 0.0 -0.003637753485310912 0.0 0.0
0.062001839684033624 -0.05797014375314004 0.0 -0.0044376758743824695 0.0 0.0
0.07680455726420436 -0.0724717622904502 0.0 -0.005286244608159545 0.0 0.0
0.09293528869876246 -0.0883457222472215 0.0 -0.00616329147650494 0.0 0.0
0.11000767978324126 -0.1052338758135266 0.0 -0.0069992279064744305 0.0 0.0
0.12732174045211925 -0.122453980606814 0.0 -0.0075862489655856786 0.0 0.0
0.14384808822110093 -0.13897389686472733 0.0 -0.007600833484189925 0.0 0.0
0.15822903693373822 -0.15344788659265507 0.0 -0.006813882146659311 0.0 0.0
0.16855531142052588 -0.16413711414636079 0.0 -0.005691479053701508 0.0 0.0
0.17241847790324202 -0.16856840039625764 0.0 6.557688420061325e-15 0.0 0.0
0.1685553114205036 -0.16413711414634105 0.0 0.005691479053720509 0.0 0.0
0.15822903693369306 -0.1534478865926105 0.0 0.00681388214667773 0.0 0.0
0.1438480882210368 -0.13897389686466427 0.0 0.007600833484201818 0.0 0.0
0.12732174045204467 -0.12245398060673707 0.0 0.007586248965584102 0.0 0.0
0.11000767978316257 -0.10523387581345339 0.0 0.006999227906471753 0.0 0.0
0.09293528869868203 -0.0883457222471392 0.0 0.0061632914765040545 0.0 0.0
0.07680455726412434 -0.07247176229037851 0.0 0.005286244608155848 0.0 0.0
0.06200183968395577 -0.057970143753059145 0.0 0.00443767587437916 0.0 0.0
0.04870403850704012 -0.04498430577674221 0.0 0.0036377534853044495 0.0 0.0
0.036993750042969516 -0.03357482235891439 0.0 0.002874843557165695 0.0 0.0
0.026941747336135018 -0.023810400176089347 0.0 0.0021241690107452523 0.0 0.0
0.01864197398033438 -0.015790835305039632 0.0 0.001434276424949043 0.0 0.0
0.012161792677618952 -0.009600224259640825 0.0 0.0008760344900781929 0.0 0.0
0.007467620213491058 -0.005233909852767422 0.0 0.0004749105016799309 0.0 0.0
0.004388128126552563 -0.0025177367947537867 0.0 0.00021519980875119783 0.0 0.0
0.0026794141329401417 -0.0011933481746253533 0.0 0.00015510229376780536 0.0 0.0
0.0019223086751448872 -0.0008173626369997857 0.0 0.00019955260581847788 0.0 0.0
0.0016727792744972564 -0.000477697192602699 0.0 0.0005018947017582975 0.0 0.0
0.0055456310804177025 -0.001720979142738248 0.0 0.005657800649498841 0.0 0.0
0.00945320145502066 -0.02050863532509623 0.0 0.0007195571723392821 0.0 0.0
0.006897399360490757 -0.01631515184775334 0.0 -0.0036121403515357933 0.0 0.0
0.003920511781084115 -0.0009513293295288316 0.0 -0.005640685648142422 0.0 0.0
0.0011692320332191565 -0.00026714645282997014 0.0 -0.00046378700806765777 0.0 0.0
0.0016340315918963702 -0.0006969212195163161 0.0 -0.000480411914248999 0.0 0.0
0.002300813112167163 -0.0009762238155795039 0.0 -0.0004807189900942993 0.0 0.0
0.0037051135198196417 -0.0019689781807522566 0.0 -0.0005835489077770839 0.0 0.0
0.006375059475965055 -0.004256705890284619 0.0 -0.0010767738762924015 0.0 0.0
0.01056210649909176 -0.00811418035180707 0.0 -0.0018603637101738653 0.0 0.0
0.01638443640095385 -0.013657349560719938 0.0 -0.0029383245944271477 0.0 0.0
0.023838798675912376 -0.02085276691214383 0.0 -0.0042420752622209235 0.0 0.0
0.03282862773387711 -0.029576252120016612 0.0 -0.005649471731650852 0.0 0.0
0.043254922544174436 -0.03971991980587253 0.0 -0.007052928605182989 0.0 0.0
0.055066289988051444 -0.05123824368000971 0.0 -0.008451242266973016 0.0 0.0
0.06822797950223944 -0.06411831863977749 0.0 -0.009921294407582314 0.0 0.0
0.08261187400372125 -0.07825930824497407 0.0 -0.011451884893754472 0.0 0.0
0.09789729550463774 -0.09336626926248921 0.0 -0.012882968354815744 0.0 0.0
0.11350068244868435 -0.10886901450658917 0.0 -0.013868226531043354 0.0 0.0
0.1285070486954199 -0.12386714845770022 0.0 -0.01391584448283496 0.0 0.0
0.14157744216354662 -0.13707530807222165 0.0 -0.012664045405148622 0.0 0.0
0.15098785230302017 -0.1467151673686786 0.0 -0.010063201086691015 0.0 0.0
0.1545450071537241 -0.15095467178768654 0.0 1.2988742026376343e-14 0.0 0.0
0.15098785230299944 -0.14671516736865753 0.0 0.010063201086723553 0.0 0.0
0.14157744216350635 -0.13707530807217935 0.0 0.012664045405180947 0.0 0.0
0.1285070486953638 -0.12386714845764646 0.0 0.013915844482853598 0.0 0.0
0.11350068244861916 -0.1088690145065237 0.0 0.013868226531045219 0.0 0.0
0.09789729550456783 -0.09336626926241824 0.0 0.012882968354809607 0.0 0.0
0.08261187400364878 -0.07825930824490353 0.0 0.01145188489375017 0.0 0.0
0.06822797950216827 -0.06411831863970968 0.0 0.009921294407576517 0.0 0.0
0.05506628998798292 -0.05123824367993943 0.0 0.00845124226696606 0.0 0.0
0.04325492254410992 -0.03971991980580422 0.0 0.007052928605173562 0.0 0.0
0.03282862773382082 -0.029576252119958964 0.0 0.0056494717316395646 0.0 0.0
0.023838798675866652 -0.020852766912094405 0.0 0.00424207526221113 0.0 0.0
0.016384436400918644 -0.013657349560688838 0.0 0.0029383245944215207 0.0 0.0
0.01056210649906703 -0.00811418035178331 0.0 0.0018603637101677348 0.0 0.0
0.006375059475949661 -0.00425670589027329 0.0 0.0010767738762868318 0.0 0.0
0.0037051135198119855 -0.00196897818074615 0.0 0.000583548907776251 0.0 0.0
0.0023008131121645976 -0.000976223815578367 0.0 0.0004807189900942737 0.0 0.0
0.001634031591895744 -0.0006969212195151773 0.0 0.00048041191424855233 0.0 0.0
0.001169232033219037 -0.0002671464528298959 0.0 0.00046378700806651437 0.0 0.0
0.003920511781077804 -0.0009513293295255826 0.0 0.0056406856481283525 0.0 0.0
0.006897399360478109 -0.016315151847727995 0.0 0.003612140351512735 0.0 0.0
0.0051886713633321965 -0.013115334626789512 0.0 -0.004039858707491376 0.0 0.0
0.002882861138947272 -0.0006877969304622028 0.0 -0.00514305072212613 0.0 0.0
0.0008345283183238148 -0.00015084809688106123 0.0 -0.0007508372666278428 0.0 0.0
0.0013515431536618426 -0.00055716522162003 0.0 -0.0007598834775284203 0.0 0.0
0.0019533894548223424 -0.0008105926497481166 0.0 -0.0008022456501500879 0.0 0.0
0.0030774487712690846 -0.0015117572776308335 0.0 -0.0009131361365353247 0.0 0.0
0.005314224889539593 -0.0033323675674077095 0.0 -0.001480551531061809 0.0 0.0
0.008963868804061068 -0.006647496040196607 0.0 -0.002576021109472473 0.0 0.0
0.014103694832517152 -0.011513735267174315 0.0 -0.004048569682430763 0.0 0.0
0.020692580610001222 -0.017861585647309542 0.0 -0.0058205586019425305 0.0 0.0
0.02861053680845773 -0.025535823527411714 0.0 -0.007720799925532967 0.0 0.0
0.03775358332327138 -0.03441727156457546 0.0 -0.009610444578963396 0.0 0.0
0.048082943749241186 -0.044471395578020385 0.0 -0.01148262756728814 0.0 0.0
0.05958942002051548 -0.055717348345323284 0.0 -0.013415138398910379 0.0 0.0
0.07220424203455504 -0.06810499215347528 0.0 -0.015413591915849373 0.0 0.0
0.08569369769447477 -0.0814162351907569 0.0 -0.017300264872361797 0.0 0.0
0.09958187514519322 -0.09519766848398233 0.0 -0.018649362140732574 0.0 0.0
0.1130712311888652 -0.10868015579496897 0.0 -0.018865228556036485 0.0 0.0
0.12495661675338414 -0.12067625729198839 0.0 -0.017326362967148068 0.0 0.0
0.13373027951891422 -0.12961024147404485 0.0 -0.013231521633541698 0.0 0.0
0.13714025311255734 -0.13397900993536316 0.0 1.7922295592054382e-14 0.0 0.0
0.13373027951889488 -0.12961024147401998 0.0 0.013231521633586651 0.0 0.0
0.12495661675334804 -0.12067625729195136 0.0 0.017326362967191627 0.0 0.0
0.11307123118881637 -0.1086801557949187 0.0 0.018865228556061427 0.0 0.0
0.09958187514513656 -0.09519766848392601 0.0 0.018649362140738795 0.0 0.0
0.08569369769441336 -0.08141623519069546 0.0 0.01730026487235316 0.0 0.0
0.07220424203449144 -0.06810499215341421 0.0 0.015413591915844356 0.0 0.0
0.05958942002045303 -0.05571734834525733 0.0 0.013415138398906769 0.0 0.0
0.04808294374918159 -0.04447139557795891 0.0 0.01148262756727815 0.0 0.0
0.037753583323215364 -0.03441727156451798 0.0 0.009610444578949145 0.0 0.0
0.028610536808408325 -0.025535823527361057 0.0 0.00772079992551938 0.0 0.0
0.02069258060996084 -0.017861585647267777 0.0 0.005820558601928682 0.0 0.0
0.01410369483248597 -0.011513735267145157 0.0 0.004048569682422833 0.0 0.0
0.008963868804039167 -0.006647496040178592 0.0 0.0025760211094661284 0.0 0.0
0.005314224889527015 -0.0033323675673986816 0.0 0.001480551531055877 0.0 0.0
0.0030774487712635456 -0.00151175727762382 0.0 0.0009131361365337573 0.0 0.0
0.001953389454820251 -0.000810592649748809 0.0 0.0008022456501501166 0.0 0.0
0.0013515431536614156 -0.0005571652216192286 0.0 0.0007598834775270406 0.0 0.0
0.0008345283183240134 -0.00015084809688138231 0.0 0.0007508372666251121 0.0 0.0
0.002882861138941546 -0.0006877969304591494 0.0 0.005143050722113723 0.0 0.0
0.0051886713633205244 -0.01311533462676673 0.0 0.004039858707474285 0.0 0.0
0.0039189267916688985 -0.010546893000672545 0.0 -0.0036037263851844146 0.0 0.0
0.002147957177421069 -0.000558093432827887 0.0 -0.004594802683830364 0.0 0.0
0.0006062131053807272 -9.33879718601191e-05 0.0 -0.0011384837057033877 0.0 0.0
0.0010930422134544924 -0.00042384677102341587 0.0 -0.0010603131672872507 0.0 0.0
0.0016309024505028829 -0.0006710182578520513 0.0 -0.0011211453551943542 0.0 0.0
0.00251685493252351 -0.0011555027908120407 0.0 -0.0012217316307102336 0.0 0.0
0.0043100642063104285 -0.0025067472648684073 0.0 -0.0017615671378502797 0.0 0.0
0.007385265650611218 -0.005219799715850509 0.0 -0.0029839197832107916 0.0 0.0
0.011823263565114074 -0.009386017588245943 0.0 -0.004756911097824851 0.0 0.0
0.01752828851432337 -0.014866042950171486 0.0 -0.006852439572951342 0.0 0.0
0.024366912026680895 -0.02148218309699615 0.0 -0.009091157261132066 0.0 0.0
0.032224926882781335 -0.02910150122882156 0.0 -0.011311347384472177 0.0 0.0
0.04107065584386661 -0.037693995491415284 0.0 -0.013508541249477257 0.0 0.0
0.05092510877181338 -0.0473040689670731 0.0 -0.015763790088134274 0.0 0.0
0.06176018359449745 -0.0579272561500104 0.0 -0.018070245102091025 0.0 0.0
0.07342243596860881 -0.06942037222896119 0.0 -0.020240144490674673 0.0 0.0
0.0855640786017592 -0.08144655781983078 0.0 -0.02187870699540073 0.0 0.0
0.09753817503946974 -0.09338961593781457 0.0 -0.02235371907897033 0.0 0.0
0.10833326630797813 -0.10425911182101924 0.0 -0.020700079758431942 0.0 0.0
0.11664727317723497 -0.11270494653733731 0.0 -0.015640854802310363 0.0 0.0
0.12000865046062922 -0.11736682368679041 0.0 2.1412559225719718e-14 0.0 0.0
0.11664727317721729 -0.11270494653731303 0.0 0.01564085480236109 0.0 0.0
0.10833326630794629 -0.10425911182098956 0.0 0.020700079758480167 0.0 0.0
0.09753817503942785 -0.09338961593776791 0.0 0.022353719079000772 0.0 0.0
0.08556407860171011 -0.08144655781978488 0.0 0.02187870699540553 0.0 0.0
0.07342243596855565 -0.06942037222890575 0.0 0.020240144490663647 0.0 0.0
0.06176018359444309 -0.057927256149958 0.0 0.018070245102083455 0.0 0.0
0.05092510877175974 -0.047304068967020954 0.0 0.015763790088129566 0.0 0.0
0.041070655843815515 -0.03769399549136038 0.0 0.013508541249465596 0.0 0.0
0.03222492688273356 -0.02910150122877911 0.0 0.011311347384454726 0.0 0.0
0.024366912026638526 -0.02148218309695165 0.0 0.009091157261113453 0.0 0.0
0.017528288514288615 -0.01486604295014017 0.0 0.006852439572934379 0.0 0.0
0.011823263565087479 -0.009386017588220651 0.0 0.0047569110978141526 0.0 0.0
0.007385265650592752 -0.0052197997158351505 0.0 0.002983919783202251 0.0 0.0
0.004310064206300058 -0.002506747264859697 0.0 0.001761567137845642 0.0 0.0
0.0025168549325193627 -0.0011555027908106575 0.0 0.0012217316307068507 0.0 0.0
0.0016309024505015376 -0.0006710182578519404 0.0 0.0011211453551930256 0.0 0.0
0.0010930422134541834 -0.00042384677102490676 0.0 0.001060313167286491 0.0 0.0
0.0006062131053809093 -9.338797186055178e-05 0.0 0.0011384837057006494 0.0 0.0
0.0021479571774161137 -0.0005580934328254263 0.0 0.004594802683819391 0.0 0.0
0.003918926791658713 -0.010546893000652742 0.0 0.003603726385173555 0.0 0.0
0.0029291993784542917 -0.008409815406385275 0.0 -0.002996051649449714 0.0 0.0
0.0015945912617116454 -0.00047431661802476615 0.0 -0.004065065089215076 0.0 0.0
0.0004413457504859888 -7.194981291526794e-05 0.0 -0.0015069938116438958 0.0 0.0
0.0008571717006152097 -0.0003036693134351365 0.0 -0.0013640337031560219 0.0 0.0
0.0013291713070267166 -0.0005456401488540492 0.0 -0.0014307736465045424 0.0 0.0
0.0020169993610214343 -0.0008808699163645693 0.0 -0.0015134165619095058 0.0 0.0
0.0033932107769258455 -0.0018162516011852696 0.0 -0.0019932525690066504 0.0 0.0
0.005862393547799272 -0.0038864255716112763 0.0 -0.003148444023247525 0.0 0.0
0.009558758660267185 -0.007300028513487577 0.0 -0.005033486480995065 0.0 0.0
0.014371488896680287 -0.011895634817775929 0.0 -0.0073273335516594595 0.0 0.0
0.020122402693641152 -0.017444251740399194 0.0 -0.009750534519048101 0.0 0.0
0.02669574920514165 -0.023801576434027943 0.0 -0.01215237564515999 0.0 0.0
0.034061655121935853 -0.030935822980145432 0.0 -0.014518985018446666 0.0 0.0
0.042258943099411445 -0.03891101812235899 0.0 -0.01693446025047076 0.0 0.0
0.05131071774121165 -0.04776496599976415 0.0 -0.01940074512178699 0.0 0.0
0.06112950015162666 -0.05742137499108303 0.0 -0.021719303637518776 0.0 0.0
0.07147095475304202 -0.06764247987337534 0.0 -0.023528627605970975 0.0 0.0
0.08189212100157683 -0.07799584026020344 0.0 -0.024251912974977915 0.0 0.0
0.0916382620328693 -0.08776979760676902 0.0 -0.022769442859924098 0.0 0.0
0.09960612585068195 -0.09585655304337304 0.0 -0.01739117633837909 0.0 0.0
0.10298801109926276 -0.10094513786587819 0.0 2.1768177538294964e-14 0.0 0.0
0.09960612585066611 -0.09585655304335204 0.0 0.017391176338430896 0.0 0.0
0.09163826203284213 -0.08776979760674165 0.0 0.022769442859976417 0.0 0.0
0.0818921210015414 -0.07799584026016675 0.0 0.0242519129750097 0.0 0.0
0.07147095475300008 -0.0676424798733346 0.0 0.023528627605976155 0.0 0.0
0.06112950015158182 -0.05742137499103522 0.0 0.0217193036375099 0.0 0.0
0.05131071774116619 -0.04776496599971773 0.0 0.019400745121775 0.0 0.0
0.04225894309936699 -0.038911018122319264 0.0 0.016934460250462798 0.0 0.0
0.034061655121893256 -0.030935822980101717 0.0 0.014518985018434159 0.0 0.0
0.026695749205101933 -0.0238015764339932 0.0 0.012152375645143442 0.0 0.0
0.020122402693606076 -0.017444251740368105 0.0 0.009750534519027557 0.0 0.0
0.01437148889665131 -0.01189563481774972 0.0 0.007327333551640549 0.0 0.0
0.009558758660245236 -0.0073000285134702005 0.0 0.005033486480982828 0.0 0.0
0.005862393547784513 -0.0038864255715982936 0.0 0.0031484440232380645 0.0 0.0
0.0033932107769179642 -0.0018162516011779608 0.0 0.0019932525690007853 0.0 0.0
0.002016999361018563 -0.0008808699163638334 0.0 0.0015134165619068805 0.0 0.0
0.0013291713070258985 -0.0005456401488529876 0.0 0.0014307736465043657 0.0 0.0
0.0008571717006148279 -0.00030366931343682246 0.0 0.001364033703154488 0.0 0.0
0.000441345750485839 -7.194981291532616e-05 0.0 0.001506993811642148 0.0 0.0
0.0015945912617076478 -0.00047431661802265656 0.0 0.004065065089205274 0.0 0.0
0.002929199378446467 -0.008409815406368976 0.0 0.002996051649443031 0.0 0.0
0.0021480552736416175 -0.00660963601432882 0.0 -0.0024350846750357345 0.0 0.0
0.0011656212026114857 -0.0004123490725498676 0.0 -0.003586160471194114 0.0 0.0
0.0003121061700829354 -6.526514220845478e-05 0.0 -0.001811538431539758 0.0 0.0
0.0006380788897774629 -0.00019732797378575775 0.0 -0.0016471323954499065 0.0 0.0
0.0010405904089659018 -0.00042120735523826236 0.0 -0.0017123002197391073 0.0 0.0
0.0015658431414080356 -0.0006682974427056322 0.0 -0.0018045893502425113 0.0 0.0
0.002567254646828065 -0.0012622537554108214 0.0 -0.0021702889642918064 0.0 0.0
0.0044392425063057555 -0.0027124726550005742 0.0 -0.0031803897503678295 0.0 0.0
0.007354558669374459 -0.005312645231241093 0.0 -0.00492125172057341 0.0 0.0
0.011243399844267277 -0.00898377336556433 0.0 -0.007213856945026766 0.0 0.0
0.01590363522071897 -0.013453887926464264 0.0 -0.009679243065826933 0.0 0.0
0.02119121984820255 -0.01854781168692176 0.0 -0.012117684613599864 0.0 0.0
0.02708201451985192 -0.024230870141259526 0.0 -0.014502014714194891 0.0 0.0
0.033629147572919814 -0.03057669837631634 0.0 -0.01691713203590229 0.0 0.0
0.04088894152007643 -0.03765622308279167 0.0 -0.019371775210416258 0.0 0.0
0.048840357145690134 -0.04545928732624865 0.0 -0.02170671362896163 0.0 0.0
0.057341391612098266 -0.05383082580171883 0.0 -0.023567710226925456 0.0 0.0
0.06613747820730195 -0.06251444170788391 0.0 -0.024488830493178727 0.0 0.0
0.07478929524747176 -0.0711372017148851 0.0 -0.023444056532834236 0.0 0.0
0.08246025586217312 -0.07891240222399233 0.0 -0.018458881439695905 0.0 0.0
0.08591365713673216 -0.08455383297215033 0.0 2.1213066025982386e-14 0.0 0.0
0.08246025586215971 -0.07891240222397412 0.0 0.018458881439747044 0.0 0.0
0.07478929524744914 -0.07113720171486217 0.0 0.02344405653288765 0.0 0.0
0.06613747820727262 -0.06251444170785175 0.0 0.024488830493210476 0.0 0.0
0.05734139161206368 -0.05383082580168326 0.0 0.023567710226929762 0.0 0.0
0.04884035714565297 -0.04545928732621437 0.0 0.02170671362895305 0.0 0.0
0.0408889415200399 -0.037656223082750746 0.0 0.019371775210404084 0.0 0.0
0.03362914757288502 -0.030576698376282387 0.0 0.016917132035893245 0.0 0.0
0.02708201451981867 -0.024230870141226584 0.0 0.014502014714182804 0.0 0.0
0.021191219848171187 -0.018547811686891562 0.0 0.01211768461358401 0.0 0.0
0.015903635220690732 -0.013453887926441244 0.0 0.009679243065804375 0.0 0.0
0.011243399844244393 -0.008983773365541148 0.0 0.007213856945007875 0.0 0.0
0.007354558669357535 -0.00531264523122741 0.0 0.004921251720562597 0.0 0.0
0.004439242506294428 -0.0027124726549917957 0.0 0.003180389750360515 0.0 0.0
0.0025672546468225753 -0.0012622537554036726 0.0 0.0021702889642892034 0.0 0.0
0.0015658431414062477 -0.0006682974427039158 0.0 0.0018045893502403924 0.0 0.0
0.0010405904089651958 -0.0004212073552373146 0.0 0.001712300219738888 0.0 0.0
0.0006380788897772316 -0.000197327973784168 0.0 0.0016471323954470108 0.0 0.0
0.00031210617008269926 -6.526514220882461e-05 0.0 0.0018115384315379288 0.0 0.0
0.001165621202608295 -0.00041234907254848594 0.0 0.0035861604711866137 0.0 0.0
0.002148055273635765 -0.006609636014315719 0.0 0.00243508467503087 0.0 0.0
0.0015313691427266513 -0.005101499177348034 0.0 -0.0020015817009166412 0.0 0.0
0.0008271691674877419 -0.0003683075763848464 0.0 -0.0031540064119044055 0.0 0.0
0.00020002006803623726 -5.727128071913632e-05 0.0 -0.0020436755063501315 0.0 0.0
0.0004300157071111323 -0.00010308510282278106 0.0 -0.0018917389160244581 0.0 0.0
0.0007557511061633005 -0.00029091933547931663 0.0 -0.001950449641646688 0.0 0.0
0.0011539304010697049 -0.0004915908959219607 0.0 -0.002085885969714454 0.0 0.0
0.0018321164436543827 -0.0008381780084312865 0.0 -0.0023327055565984622 0.0 0.0
0.0031347419418931892 -0.0017325565360868601 0.0 -0.003096981581524214 0.0 0.0
0.005263863531450454 -0.0035078195179813155 0.0 -0.0045317826777984205 0.0 0.0
0.00818800666100339 -0.006195146860917434 0.0 -0.006545497197910579 0.0 0.0
0.011732247865363586 -0.00955295270986721 0.0 -0.008851754415038156 0.0 0.0
0.01573678692651118 -0.013378864330784888 0.0 -0.011167950288170544 0.0 0.0
0.020162213551212574 -0.01761864955149941 0.0 -0.013427561006740163 0.0 0.0
0.025064009216179593 -0.022345082591769906 0.0 -0.015685644130945833 0.0 0.0
0.030529409828612755 -0.027648669837686546 0.0 -0.017973170597492715 0.0 0.0
0.03659744110300361 -0.03357841103441863 0.0 -0.020169319637845098 0.0 0.0
0.043208511533147156 -0.04006726653048027 0.0 -0.021965927076765264 0.0 0.0
0.050279657898197466 -0.046985761425120065 0.0 -0.02296528871121747 0.0 0.0
0.05771467991441728 -0.05430132470940253 0.0 -0.022533998300595336 0.0 0.0
0.0650516718271011 -0.06170360359968677 0.0 -0.01872181936731035 0.0 0.0
0.06859786487227115 -0.0680215843840012 0.0 1.8213729136018486e-14 0.0 0.0
0.06505167182709096 -0.06170360359966902 0.0 0.01872181936735799 0.0 0.0
0.05771467991439978 -0.054301324709387096 0.0 0.022533998300646847 0.0 0.0
0.050279657898174526 -0.046985761425094724 0.0 0.02296528871124536 0.0 0.0
0.04320851153312069 -0.040067266530454185 0.0 0.02196592707676791 0.0 0.0
0.03659744110297549 -0.03357841103439392 0.0 0.02016931963783562 0.0 0.0
0.03052940982858514 -0.027648669837661514 0.0 0.017973170597482123 0.0 0.0
0.025064009216154252 -0.02234508259174516 0.0 0.015685644130937808 0.0 0.0
0.02016221355118841 -0.017618649551477333 0.0 0.013427561006729913 0.0 0.0
0.015736786926487355 -0.01337886433076056 0.0 0.011167950288153518 0.0 0.0
0.011732247865342408 -0.009552952709849813 0.0 0.008851754415018911 0.0 0.0
0.008188006660986779 -0.0061951468608995525 0.0 0.006545497197895706 0.0 0.0
0.005263863531438341 -0.003507819517970002 0.0 0.004531782677788611 0.0 0.0
0.0031347419418854424 -0.0017325565360803287 0.0 0.00309698158151841 0.0 0.0
0.001832116443650598 -0.0008381780084299384 0.0 0.002332705556596253 0.0 0.0
0.0011539304010682303 -0.0004915908959204308 0.0 0.002085885969711302 0.0 0.0
0.0007557511061627011 -0.0002909193354791921 0.0 0.001950449641645678 0.0 0.0
0.0004300157071107496 -0.00010308510282150829 0.0 0.001891738916021529 0.0 0.0
0.00020002006803615025 -5.7271280718417425e-05 0.0 0.00204367550634838 0.0 0.0
0.0008271691674857584 -0.000368307576384393 0.0 0.0031540064118984116 0.0 0.0
0.0015313691427223653 -0.005101499177337545 0.0 0.0020015817009120763 0.0 0.0
0.0010667534964331057 -0.003881045977836903 0.0 -0.0017295267495488825 0.0 0.0
0.0005617193660417975 -0.0003434741679181742 0.0 -0.0027748379570018706 0.0 0.0
8.95778300621452e-05 -3.699247470235044e-05 0.0 -0.0022081976450236663 0.0 0.0
0.00023024140147171005 -1.8075850689199617e-05 0.0 -0.0020863516358771658 0.0 0.0
0.00046940633039139915 -0.0001574730060604647 0.0 -0.002137828840142147 0.0 0.0
0.0007582124611412206 -0.0003189440561898416 0.0 -0.0023171026613599726 0.0 0.0
0.0011810121169566318 -0.0005226028023210775 0.0 -0.0025364148051176365 0.0 0.0
0.0019677039033390476 -0.0009759491115904483 0.0 -0.002978600511492819 0.0 0.0
0.0033241254528532777 -0.001973251194338334 0.0 -0.0039509659000911005 0.0 0.0
0.005263576350089412 -0.003640920778061725 0.0 -0.0054395884948290245 0.0 0.0
0.007655739385540206 -0.0058308063352174 0.0 -0.007304669503151919 0.0 0.0
0.010359726813550166 -0.008364325401163962 0.0 -0.009281756917072004 0.0 0.0
0.013324994056892258 -0.011159314851191147 0.0 -0.011270960327352302 0.0 0.0
0.016595580393456783 -0.014279122805656515 0.0 -0.01324755837691565 0.0 0.0
0.02026481952677982 -0.017808328034328892 0.0 -0.015220148297690132 0.0 0.0
0.024427845163480965 -0.021842075834087874 0.0 -0.01715473186322878 0.0 0.0
0.029123600513099313 -0.02641650908633667 0.0 -0.01882750709446318 0.0 0.0
0.034363892766069326 -0.031505635251329454 0.0 -0.019822616714267965 0.0 0.0
0.04034789832279878 -0.03727061442482426 0.0 -0.019809525148869175 0.0 0.0
0.047189504875020445 -0.04404063607729264 0.0 -0.01783521273548785 0.0 0.0
0.05080690642013934 -0.051128645640929574 0.0 1.5698380095852116e-14 0.0 0.0
0.04718950487501419 -0.04404063607727919 0.0 0.017835212735529515 0.0 0.0
0.04034789832278642 -0.03727061442481246 0.0 0.01980952514891505 0.0 0.0
0.03436389276605265 -0.03150563525131628 0.0 0.019822616714291707 0.0 0.0
0.029123600513080397 -0.026416509086317496 0.0 0.018827507094460957 0.0 0.0
0.024427845163461227 -0.02184207583406607 0.0 0.01715473186321638 0.0 0.0
0.020264819526761662 -0.01780832803431409 0.0 0.015220148297681473 0.0 0.0
0.016595580393441275 -0.01427912280564556 0.0 0.01324755837691128 0.0 0.0
0.013324994056877051 -0.011159314851178569 0.0 0.011270960327345531 0.0 0.0
0.01035972681353463 -0.008364325401149062 0.0 0.009281756917057488 0.0 0.0
0.007655739385526911 -0.005830806335203681 0.0 0.007304669503137545 0.0 0.0
0.005263576350078996 -0.0036409207780530688 0.0 0.005439588494815685 0.0 0.0
0.003324125452845808 -0.001973251194330308 0.0 0.003950965900084046 0.0 0.0
0.00196770390333458 -0.0009759491115854087 0.0 0.0029786005114897066 0.0 0.0
0.0011810121169547657 -0.0005226028023221339 0.0 0.0025364148051149503 0.0 0.0
0.0007582124611406425 -0.0003189440561880163 0.0 0.002317102661357516 0.0 0.0
0.000469406330390998 -0.00015747300606059608 0.0 0.002137828840140017 0.0 0.0
0.0002302414014718221 -1.807585069127551e-05 0.0 0.002086351635874137 0.0 0.0
8.957783006209337e-05 -3.6992474701506044e-05 0.0 0.0022081976450217746 0.0 0.0
0.0005617193660400479 -0.0003434741679181363 0.0 0.002774837956997026 0.0 0.0
0.001066753496430218 -0.003881045977829014 0.0 0.0017295267495459564 0.0 0.0
0.0007391906145140094 -0.002929771344074689 0.0 -0.001571567951196316 0.0 0.0
0.00035926533404410514 -0.0003409041817749839 0.0 -0.0024850373145727947 0.0 0.0
-2.407380610638428e-05 -8.133153051340153e-07 0.0 -0.0023103411918254215 0.0 0.0
3.6500378543826716e-05 6.0473432119399835e-05 0.0 -0.002225338020072644 0.0 0.0
0.00018360805126429916 -2.5123062736767048e-05 0.0 -0.0022717186176654334 0.0 0.0
0.00035899087645392474 -0.00013722346278847197 0.0 -0.002466196185490047 0.0 0.0
0.0005822466751685085 -0.00025392210026524875 0.0 -0.002727005502232727 0.0 0.0
0.0009425447941058177 -0.0004328306477281519 0.0 -0.0029923313199878955 0.0 0.0
0.0015730564356105426 -0.0008209788339642504 0.0 -0.0034310270393005313 0.0 0.0
0.002525666807439065 -0.0015317348761987358 0.0 -0.004220222770232084 0.0 0.0
0.0037337930767773384 -0.002529358902707361 0.0 -0.005398855382624898 0.0 0.0
0.005103351153367474 -0.0037179188653074817 0.0 -0.006842933142804931 0.0 0.0
0.006593953686388734 -0.005047836707202831 0.0 -0.008415403507753907 0.0 0.0
0.008240912850772874 -0.006556830550602875 0.0 -0.010060613205254847 0.0 0.0
0.010117989968113339 -0.008306854021740716 0.0 -0.011770343829588817 0.0 0.0
0.01234840248106776 -0.010410852359431276 0.0 -0.013534024443936275 0.0 0.0
0.015088092659429963 -0.013018102201948954 0.0 -0.015202678951563058 0.0 0.0
0.01847268259418515 -0.016263902441057958 0.0 -0.016325798492078734 0.0 0.0
0.02274834912076911 -0.020320852982166758 0.0 -0.016360696840501374 0.0 0.0
0.02866871982161649 -0.025864578152891487 0.0 -0.015555353389901262 0.0 0.0
0.03218085183384729 -0.03359760702211426 0.0 1.2611439670351388e-14 0.0 0.0
0.028668719821613536 -0.02586457815288275 0.0 0.015555353389938013 0.0 0.0
0.022748349120762176 -0.02032085298215957 0.0 0.01636069684053621 0.0 0.0
0.018472682594175296 -0.016263902441052958 0.0 0.01632579849209216 0.0 0.0
0.015088092659420184 -0.013018102201940879 0.0 0.015202678951555793 0.0 0.0
0.012348402481058916 -0.010410852359419827 0.0 0.013534024443924073 0.0 0.0
0.010117989968105987 -0.008306854021729385 0.0 0.011770343829581689 0.0 0.0
0.008240912850766993 -0.006556830550600748 0.0 0.010060613205251288 0.0 0.0
0.006593953686381893 -0.005047836707192871 0.0 0.008415403507745906 0.0 0.0
0.005103351153360202 -0.0037179188653030312 0.0 0.006842933142794352 0.0 0.0
0.0037337930767715544 -0.0025293589026968545 0.0 0.005398855382613614 0.0 0.0
0.0025256668074350214 -0.0015317348761978346 0.0 0.004220222770223536 0.0 0.0
0.0015730564356079807 -0.0008209788339600258 0.0 0.003431027039298127 0.0 0.0
0.0009425447941037926 -0.00043283064772868025 0.0 0.0029923313199861808 0.0 0.0
0.0005822466751674435 -0.0002539221002657741 0.0 0.002727005502230217 0.0 0.0
0.00035899087645344487 -0.00013722346278781925 0.0 0.002466196185486408 0.0 0.0
0.0001836080512640087 -2.5123062736330938e-05 0.0 0.0022717186176631084 0.0 0.0
3.6500378543882024e-05 6.047343211668212e-05 0.0 0.002225338020070305 0.0 0.0
-2.4073806106339928e-05 -8.133153045556824e-07 0.0 0.0023103411918234803 0.0 0.0
0.0003592653340431252 -0.0003409041817753866 0.0 0.002485037314569002 0.0 0.0
0.0007391906145121139 -0.002929771344069391 0.0 0.0015715679511952626 0.0 0.0
0.0005088156576177942 -0.002218934126407677 0.0 -0.0014855320428650664 0.0 0.0
0.00020550675208606505 -0.00034525953969253296 0.0 -0.002285993989160195 0.0 0.0
-0.0001358091831478771 4.355646735291645e-05 0.0 -0.0023575171619071703 0.0 0.0
-0.0001521052517993813 0.00013554359110511794 0.0 -0.002306909783011555 0.0 0.0
-9.816494705854119e-05 0.00010396055112797301 0.0 -0.002346527454277349 0.0 0.0
-4.5417408410935756e-05 4.847760189082425e-05 0.0 -0.0025297957102316604 0.0 0.0
-1.614538135247689e-05 1.2881198664380727e-05 0.0 -0.0028097514393905757 0.0 0.0
-4.5728904025537e-06 2.837224922209594e-06 0.0 -0.0030597326484499746 0.0 0.0
-7.200503284597766e-07 2.062098053648583e-07 0.0 -0.003233517340612373 0.0 0.0
4.40764179628799e-07 -2.0334364420178332e-07 0.0 -0.00363153510953888 0.0 0.0
-2.86184273524232e-07 -4.835107769275509e-07 0.0 -0.00440839271452563 0.0 0.0
-7.489555622211389e-06 6.743075829377201e-06 0.0 -0.0055577347552207244 0.0 0.0
-2.4491419288325596e-05 2.2318239647597243e-05 0.0 -0.006899068308276082 0.0 0.0
-3.730974228113545e-05 3.894194730523677e-05 0.0 -0.00838566871622385 0.0 0.0
1.5711592341791135e-05 5.5822505647355335e-06 0.0 -0.01002177137268999 0.0 0.0
0.0002867264198969609 -0.00020987251278351611 0.0 -0.011796539947776708 0.0 0.0
0.0010472284383125261 -0.0008485386234079143 0.0 -0.013639894740680624 0.0 0.0
0.002622285746604314 -0.0022322490053187653 0.0 -0.015348063113634725 0.0 0.0
0.005225990705044129 -0.004488647181114442 0.0 -0.016600831504340625 0.0 0.0
0.009591990971220134 -0.00802448018492268 0.0 -0.01729334219382587 0.0 0.0
0.012384668812825921 -0.016214622005283577 0.0 9.648531973383001e-15 0.0 0.0
0.009591990971220127 -0.008024480184922338 0.0 0.017293342193849873 0.0 0.0
0.005225990705041941 -0.0044886471811086785 0.0 0.01660083150435449 0.0 0.0
0.0026222857466022993 -0.002232249005321924 0.0 0.015348063113636044 0.0 0.0
0.001047228438313068 -0.0008485386234121338 0.0 0.013639894740673307 0.0 0.0
0.0002867264198987481 -0.00020987251278496775 0.0 0.011796539947766867 0.0 0.0
1.5711592344055166e-05 5.582250565889179e-06 0.0 0.010021771372680862 0.0 0.0
-3.730974227770926e-05 3.894194730054575e-05 0.0 0.008385668716216045 0.0 0.0
-2.449141928494191e-05 2.231823964835071e-05 0.0 0.006899068308265709 0.0 0.0
-7.489555619836553e-06 6.743075826869306e-06 0.0 0.005557734755211804 0.0 0.0
-2.861842711173032e-07 -4.835107776047978e-07 0.0 0.00440839271451553 0.0 0.0
4.4076418156664774e-07 -2.0334364287724063e-07 0.0 0.003631535109535635 0.0 0.0
-7.200503272031321e-07 2.062098063372589e-07 0.0 0.003233517340611573 0.0 0.0
-4.572890402063844e-06 2.8372249193171393e-06 0.0 0.003059732648446815 0.0 0.0
-1.614538135238343e-05 1.2881198665504746e-05 0.0 0.002809751439388393 0.0 0.0
-4.541740841071369e-05 4.847760189055609e-05 0.0 0.0025297957102278245 0.0 0.0
-9.81649470583266e-05 0.0001039605511284389 0.0 0.002346527454276176 0.0 0.0
-0.00015210525179908203 0.00013554359110392353 0.0 0.0023069097830094093 0.0 0.0
-0.00013580918314801623 4.355646735386231e-05 0.0 0.0023575171619053836 0.0 0.0
0.00020550675208553544 -0.00034525953969279604 0.0 0.002285993989158487 0.0 0.0
0.0005088156576172425 -0.0022189341264046364 0.0 0.0014855320428642676 0.0 0.0
0.00035053375385843606 -0.0016989135631456471 0.0 -0.0014241528998008956 0.0 0.0
9.155523912776018e-05 -0.00033514555973193617 0.0 -0.0021293986417566385 0.0 0.0
-0.00024093897298040903 8.659303039552915e-05 0.0 -0.002355450235571019 0.0 0.0
-0.00033441756753670887 0.00020848271860854172 0.0 -0.0023296883055992723 0.0 0.0
-0.00037378814843803536 0.00022781988619993064 0.0 -0.0023546393528591407 0.0 0.0
-0.0004459887600695891 0.0002326410399357374 0.0 -0.002510033773513469 0.0 0.0
-0.000613591759328423 0.0002797173110931948 0.0 -0.0027482226323134627 0.0 0.0
-0.0009517499900231 0.0004389538330396422 0.0 -0.00300350577771346 0.0 0.0
-0.0015741215712275513 0.0008211887012294044 0.0 -0.0034357681186700496 0.0 0.0
-0.0025240110037978527 0.001530419151530491 0.0 -0.004219070850717112 0.0 0.0
-0.003735038409183809 0.0025297331682670415 0.0 -0.0053956180553082385 0.0 0.0
-0.005120385331152225 0.0037327194032727865 0.0 -0.006844404568806589 0.0 0.0
-0.006643555584346967 0.0050941733113477015 0.0 -0.008411925292393064 0.0 0.0
-0.008312117905432424 0.006635144014232531 0.0 -0.010047985921448465 0.0 0.0
-0.01007858989959156 0.008315137523056158 0.0 -0.011775929136321571 0.0 0.0
-0.01177838801662232 0.009982110776188984 0.0 -0.013674659488196416 0.0 0.0
-0.013091266880491784 0.011324270943267533 0.0 -0.01579876548013314 0.0 0.0
-0.013594795785252842 0.011895108127703174 0.0 -0.018235062463211358 0.0 0.0
-0.01282777723388864 0.01136463715733475 0.0 -0.020919956703334658 0.0 0.0
-0.00911644782699152 0.008715426772613147 0.0 -0.02213552079801768 0.0 0.0
-0.006166690730405971 -0.00021395467152503342 0.0 1.0812531425763439e-14 0.0 0.0
-0.009116447826991659 0.008715426772606208 0.0 0.02213552079804189 0.0 0.0
-0.012827777233885267 0.011364637157332684 0.0 0.020919956703351485 0.0 0.0
-0.013594795785243363 0.011895108127693583 0.0 0.018235062463212846 0.0 0.0
-0.013091266880478625 0.011324270943248765 0.0 0.01579876548012596 0.0 0.0
-0.01177838801660969 0.009982110776180943 0.0 0.013674659488185685 0.0 0.0
-0.01007858989957984 0.008315137523040682 0.0 0.011775929136311005 0.0 0.0
-0.008312117905419957 0.006635144014221958 0.0 0.010047985921439824 0.0 0.0
-0.006643555584334028 0.005094173311334962 0.0 0.008411925292382532 0.0 0.0
-0.005120385331140362 0.0037327194032621934 0.0 0.006844404568792643 0.0 0.0
-0.0037350384091733944 0.0025297331682508466 0.0 0.005395618055296062 0.0 0.0
-0.002524011003789815 0.0015304191515286636 0.0 0.004219070850709869 0.0 0.0
-0.0015741215712228144 0.0008211887012283864 0.0 0.0034357681186680472 0.0 0.0
-0.0009517499900205022 0.00043895383303861027 0.0 0.0030035057777104716 0.0 0.0
-0.0006135917593271658 0.00027971731109491444 0.0 0.0027482226323117713 0.0 0.0
-0.00044598876006866114 0.0002326410399345484 0.0 0.0025100337735116775 0.0 0.0
-0.00037378814843750784 0.0002278198861994201 0.0 0.0023546393528585128 0.0 0.0
-0.00033441756753647424 0.00020848271860916053 0.0 0.0023296883055977336 0.0 0.0
-0.0002409389729802032 8.659303039588995e-05 0.0 0.0023554502355676594 0.0 0.0
9.15552391274881e-05 -0.0003351455597320733 0.0 0.0021293986417562404 0.0 0.0
0.00035053375385794253 -0.0016989135631438864 0.0 0.0014241528997988142 0.0 0.0
0.00024059695197075812 -0.0012888954055026384 0.0 -0.0013197026021759897 0.0 0.0
5.322242009725374e-06 -0.00030704077613225174 0.0 -0.0019758945676996856 0.0 0.0
-0.0003385630290692539 0.00012605953838123392 0.0 -0.002302590749560129 0.0 0.0
-0.0005084130079319986 0.0002781247304901563 0.0 -0.0022919262980194035 0.0 0.0
-0.0006411403353679212 0.0003450800177352899 0.0 -0.0022941432873860397 0.0 0.0
-0.0008362104774500406 0.00040916398224188823 0.0 -0.0024013482263481284 0.0 0.0
-0.001210037369811737 0.0005502560432704092 0.0 -0.0025823163899973134 0.0 0.0
-0.0019753931594911726 0.0009820971149012217 0.0 -0.0030008722147306364 0.0 0.0
-0.003323233038467025 0.001971609935718841 0.0 -0.003954498582203776 0.0 0.0
-0.005261324406810578 0.0036386665840121065 0.0 -0.005435828727911161 0.0 0.0
-0.007658435807404039 0.005833666372187219 0.0 -0.007303312206895745 0.0 0.0
-0.010376223981033939 0.00837993143876326 0.0 -0.009278758573423225 0.0 0.0
-0.013367981109297551 0.011201552529046005 0.0 -0.011239347150654607 0.0 0.0
-0.01665490242531942 0.014346708071857499 0.0 -0.013165953584252188 0.0 0.0
-0.02021937536880698 0.017807278375659586 0.0 -0.015160187771114796 0.0 0.0
-0.023891170002117854 0.02143232254625545 0.0 -0.017435025843840685 0.0 0.0
-0.02729717663795922 0.024848576433608254 0.0 -0.020219054986948974 0.0 0.0
-0.029874498688484866 0.027486143315260864 0.0 -0.02362406085031161 0.0 0.0
-0.03055827613030212 0.02842727295616504 0.0 -0.02698463439586511 0.0 0.0
-0.027227722415597698 0.025598068076668982 0.0 -0.02775897055691369 0.0 0.0
-0.024213231943454195 0.014770694089501983 0.0 1.4366979828039916e-14 0.0 0.0
-0.027227722415595082 0.02559806807666286 0.0 0.027758970556952187 0.0 0.0
-0.030558276130293514 0.028427272956153632 0.0 0.026984634395899258 0.0 0.0
-0.029874498688467657 0.027486143315243766 0.0 0.023624060850324813 0.0 0.0
-0.027297176637936203 0.024848576433586952 0.0 0.02021905498694295 0.0 0.0
-0.02389117000209491 0.021432322546229045 0.0 0.01743502584382706 0.0 0.0
-0.02021937536878592 0.017807278375639425 0.0 0.01516018777110267 0.0 0.0
-0.01665490242529798 0.014346708071838184 0.0 0.013165953584240275 0.0 0.0
-0.013367981109275702 0.01120155252902182 0.0 0.011239347150642709 0.0 0.0
-0.010376223981012869 0.008379931438741136 0.0 0.009278758573405892 0.0 0.0
-0.007658435807385292 0.005833666372165278 0.0 0.0073033122068788675 0.0 0.0
-0.005261324406796245 0.0036386665840002714 0.0 0.005435828727897978 0.0 0.0
-0.0033232330384578464 0.001971609935712464 0.0 0.0039544985821985176 0.0 0.0
-0.0019753931594860587 0.0009820971148985491 0.0 0.0030008722147256087 0.0 0.0
-0.001210037369809066 0.0005502560432685625 0.0 0.002582316389995576 0.0 0.0
-0.0008362104774486172 0.0004091639822407998 0.0 0.0024013482263473412 0.0 0.0
-0.0006411403353670753 0.0003450800177329815 0.0 0.0022941432873835447 0.0 0.0
-0.0005084130079317338 0.0002781247304895538 0.0 0.0022919262980187326 0.0 0.0
-0.00033856302906895086 0.00012605953838104307 0.0 0.002302590749558228 0.0 0.0
5.322242009992007e-06 -0.0003070407761330304 0.0 0.001975894567697452 0.0 0.0
0.00024059695197048013 -0.0012888954055011626 0.0 0.001319702602174204 0.0 0.0
0.00015176556024927134 -0.0009435367240566185 0.0 -0.0011686658492113698 0.0 0.0
-6.738637984386481e-05 -0.000263836726677116 0.0 -0.0018064926766374486 0.0 0.0
-0.0004288156403630157 0.00016311126834275686 0.0 -0.0021970971831067987 0.0 0.0
-0.0006735042026677563 0.0003432331534080156 0.0 -0.002196698714188047 0.0 0.0
-0.0008972352589856685 0.00045403957380636727 0.0 -0.002170601163255859 0.0 0.0
-0.001218590330453515 0.0005754606481637439 0.0 -0.0022048099724498765 0.0 0.0
-0.001857425329194035 0.0008684600141014031 0.0 -0.002401021282759434 0.0 0.0
-0.003138470879735109 0.0017348738502461986 0.0 -0.003118468922010767 0.0 0.0
-0.005260030158394476 0.0035032719742977498 0.0 -0.00452944103537369 0.0 0.0
-0.00818660056105785 0.006193802561873489 0.0 -0.006540987737639991 0.0 0.0
-0.01173654592485567 0.00955813404657764 0.0 -0.008851998523624794 0.0 0.0
-0.015749219425625106 0.013392014507161773 0.0 -0.011159856261761426 0.0 0.0
-0.02018691287182819 0.01764374818534218 0.0 -0.013366982892078117 0.0 0.0
-0.025092466935086672 0.022378575548549377 0.0 -0.015519300926032067 0.0 0.0
-0.030476480599837 0.027627873177511572 0.0 -0.017789722318340234 0.0 0.0
-0.036175741388119985 0.0332566582204129 0.0 -0.02051231558109575 0.0 0.0
-0.041744456430182576 0.03883375617021383 0.0 -0.024128834541635693 0.0 0.0
-0.046295142406842425 0.04352540168565206 0.0 -0.02865478357325241 0.0 0.0
-0.04822512636746619 0.04576911330034358 0.0 -0.03283616205926777 0.0 0.0
-0.04450439483741021 0.04282554054756266 0.0 -0.034154823873702084 0.0 0.0
-0.040728743091719095 0.029214559911035116 0.0 1.6518036938251157e-14 0.0 0.0
-0.04450439483740473 0.04282554054756071 0.0 0.03415482387374885 0.0 0.0
-0.04822512636745265 0.045769113300333134 0.0 0.03283616205930891 0.0 0.0
-0.04629514240681847 0.043525401685629586 0.0 0.02865478357327412 0.0 0.0
-0.041744456430151344 0.03883375617019187 0.0 0.0241288345416332 0.0 0.0
-0.036175741388087455 0.033256658220375636 0.0 0.020512315581081797 0.0 0.0
-0.030476480599806677 0.027627873177489513 0.0 0.01778972231832522 0.0 0.0
-0.025092466935056006 0.022378575548519956 0.0 0.01551930092601823 0.0 0.0
-0.020186912871796747 0.017643748185310445 0.0 0.013366982892062906 0.0 0.0
-0.01574921942559544 0.013392014507133511 0.0 0.011159856261741754 0.0 0.0
-0.011736545924829245 0.009558134046550766 0.0 0.00885199852360499 0.0 0.0
-0.008186600561036754 0.006193802561855659 0.0 0.0065409877376222504 0.0 0.0
-0.005260030158380109 0.0035032719742837688 0.0 0.004529441035364394 0.0 0.0
-0.0031384708797266396 0.0017348738502397324 0.0 0.0031184689220040565 0.0 0.0
-0.001857425329189488 0.0008684600140975987 0.0 0.0024010212827552412 0.0 0.0
-0.0012185903304516887 0.0005754606481630563 0.0 0.002204809972447195 0.0 0.0
-0.0008972352589849309 0.0004540395738044159 0.0 0.0021706011632543435 0.0 0.0
-0.0006735042026671143 0.0003432331534080143 0.0 0.0021966987141864287 0.0 0.0
-0.00042881564036276865 0.00016311126834225257 0.0 0.002197097183106216 0.0 0.0
-6.738637984362546e-05 -0.0002638367266778971 0.0 0.001806492676635062 0.0 0.0
0.00015176556024963696 -0.00094353672405533 0.0 0.0011686658492097094 0.0 0.0
7.468199294647603e-05 -0.0006537158928501365 0.0 -0.0010001574445932197 0.0 0.0
-0.000132986783090508 -0.00020822707797578356 0.0 -0.0016111032863916001 0.0 0.0
-0.0005140500643845932 0.00019929735021633567 0.0 -0.002039305089398649 0.0 0.0
-0.0008299165888503218 0.00040347449085092796 0.0 -0.0020459927381754677 0.0 0.0
-0.0011401918929002182 0.0005513696319808215 0.0 -0.00197934451552679 0.0 0.0
-0.0016138311240577634 0.0007441428088812221 0.0 -0.0019480205846615132 0.0 0.0
-0.002584987211293914 0.0012890591618160674 0.0 -0.002239730625139826 0.0 0.0
-0.004436659266173188 0.0027081205263421284 0.0 -0.0031921517669814283 0.0 0.0
-0.007350028371263244 0.005307091383768217 0.0 -0.004914567610480938 0.0 0.0
-0.011244059927306895 0.008984711171414804 0.0 -0.007210081650702704 0.0 0.0
-0.015909083489567242 0.01346094446475487 0.0 -0.009679961631993885 0.0 0.0
-0.02119622217543412 0.0185558457311344 0.0 -0.012104306937778529 0.0 0.0
-0.02707780160782392 0.024229698852832812 0.0 -0.014419794689108733 0.0 0.0
-0.03360710636902267 0.030555801428993307 0.0 -0.016688028354496204 0.0 0.0
-0.04082327086524364 0.0376011831627907 0.0 -0.019078735882838982 0.0 0.0
-0.048583648287416646 0.04526620496497068 0.0 -0.022021652826854227 0.0 0.0
-0.05632068537255373 0.053034262839425125 0.0 -0.026054398593907332 0.0 0.0
-0.06277144869670652 0.059702705783411594 0.0 -0.031182494915557392 0.0 0.0
-0.06566523374523318 0.06307441873485345 0.0 -0.0361493336946105 0.0 0.0
-0.06118638916584267 0.059521502872267165 0.0 -0.038186535222108034 0.0 0.0
-0.056508553520218455 0.04320427080118415 0.0 1.7245753436423428e-14 0.0 0.0
-0.06118638916583341 0.05952150287226296 0.0 0.0381865352221524 0.0 0.0
-0.06566523374521459 0.06307441873483799 0.0 0.03614933369465732 0.0 0.0
-0.06277144869667611 0.05970270578338191 0.0 0.031182494915582074 0.0 0.0
-0.056320685372515236 0.05303426283939185 0.0 0.0260543985939066 0.0 0.0
-0.048583648287375596 0.04526620496493367 0.0 0.02202165282684087 0.0 0.0
-0.040823270865203494 0.037601183162750046 0.0 0.01907873588282373 0.0 0.0
-0.03360710636898258 0.030555801428955837 0.0 0.016688028354484477 0.0 0.0
-0.02707780160778364 0.02422969885279483 0.0 0.014419794689093421 0.0 0.0
-0.021196222175396056 0.01855584573110142 0.0 0.012104306937758484 0.0 0.0
-0.015909083489533682 0.013460944464721862 0.0 0.009679961631971159 0.0 0.0
-0.011244059927279653 0.008984711171387943 0.0 0.007210081650685193 0.0 0.0
-0.007350028371244027 0.005307091383750939 0.0 0.004914567610468907 0.0 0.0
-0.004436659266161257 0.0027081205263290134 0.0 0.0031921517669734117 0.0 0.0
-0.0025849872112872264 0.0012890591618130868 0.0 0.0022397306251350805 0.0 0.0
-0.00161383112405498 0.000744142808880147 0.0 0.0019480205846598335 0.0 0.0
-0.0011401918928993474 0.000551369631980644 0.0 0.0019793445155257042 0.0 0.0
-0.0008299165888495694 0.00040347449085158065 0.0 0.002045992738174825 0.0 0.0
-0.0005140500643840638 0.00019929735021594638 0.0 0.0020393050893965686 0.0 0.0
-0.0001329867830905613 -0.00020822707797571615 0.0 0.0016111032863903292 0.0 0.0
7.468199294617912e-05 -0.0006537158928491417 0.0 0.0010001574445915877 0.0 0.0
7.214428798675106e-06 -0.0004163541930347982 0.0 -0.0008247866491231473 0.0 0.0
-0.00019337224100346597 -0.00014458593441478174 0.0 -0.0013895300414608117 0.0 0.0
-0.0005954242576784283 0.00023589305383942233 0.0 -0.0018290480112461024 0.0 0.0
-0.0009762849107911786 0.00045822445189479797 0.0 -0.0018389363353490764 0.0 0.0
-0.0013765521074995614 0.000638699742161722 0.0 -0.0017259414026533422 0.0 0.0
-0.0020421942592955323 0.0009431039785495192 0.0 -0.0016672896227019238 0.0 0.0
-0.003401185167537608 0.0018326332225896973 0.0 -0.0020459402544597484 0.0 0.0
-0.0058570751870773985 0.0038780620990688866 0.0 -0.0031507987878878524 0.0 0.0
-0.00955543522020185 0.007296123716020909 0.0 -0.00502539143194686 0.0 0.0
-0.014374540419626491 0.011899177066273844 0.0 -0.007325016916440321 0.0 0.0
-0.020127799305073534 0.017451929880828942 0.0 -0.009750400967654407 0.0 0.0
-0.026690774866943268 0.023802007479472965 0.0 -0.012132696429687485 0.0 0.0
-0.03402305868911907 0.030904107787857925 0.0 -0.014425174539276088 0.0 0.0
-0.04217556120996293 0.03882644503143029 0.0 -0.01668961358208043 0.0 0.0
-0.05121686922830863 0.04765891566356488 0.0 -0.01906401263559862 0.0 0.0
-0.06101420993301229 0.0573339149578123 0.0 -0.021892949853042663 0.0 0.0
-0.07087368988402036 0.06725242132800946 0.0 -0.025776654472922125 0.0 0.0
-0.07914229016367093 0.0758418384540877 0.0 -0.0310017138566646 0.0 0.0
-0.08287163874356553 0.08020604854594206 0.0 -0.03662477505087557 0.0 0.0
-0.07764490834427155 0.07599250811329107 0.0 -0.040621172142219934 0.0 0.0
-0.0721463322940962 0.05723681749598415 0.0 1.922160347556101e-14 0.0 0.0
-0.07764490834425869 0.07599250811328448 0.0 0.040621172142265516 0.0 0.0
-0.08287163874354082 0.08020604854591494 0.0 0.036624775050923694 0.0 0.0
-0.07914229016363436 0.07584183845405049 0.0 0.031001713856690406 0.0 0.0
-0.07087368988397472 0.06725242132796144 0.0 0.025776654472922114 0.0 0.0
-0.06101420993296297 0.05733391495776849 0.0 0.02189294985303217 0.0 0.0
-0.051216869228258965 0.04765891566351655 0.0 0.019064012635586363 0.0 0.0
-0.04217556120991388 0.038826445031377214 0.0 0.01668961358206868 0.0 0.0
-0.03402305868907046 0.03090410778781115 0.0 0.014425174539259483 0.0 0.0
-0.026690774866897277 0.023802007479424975 0.0 0.012132696429666691 0.0 0.0
-0.020127799305032914 0.017451929880789425 0.0 0.009750400967630466 0.0 0.0
-0.014374540419593074 0.011899177066239532 0.0 0.007325016916422209 0.0 0.0
-0.009555435220177292 0.007296123715998569 0.0 0.005025391431933296 0.0 0.0
-0.0058570751870614685 0.003878062099052694 0.0 0.003150798787879848 0.0 0.0
-0.003401185167528575 0.0018326332225868415 0.0 0.0020459402544565648 0.0 0.0
-0.0020421942592915485 0.0009431039785460634 0.0 0.0016672896226995635 0.0 0.0
-0.0013765521074982023 0.0006386997421621598 0.0 0.0017259414026524903 0.0 0.0
-0.0009762849107904743 0.0004582244518939217 0.0 0.0018389363353485404 0.0 0.0
-0.000595424257677883 0.0002358930538389592 0.0 0.0018290480112438728 0.0 0.0
-0.0001933722410032713 -0.00014458593441466844 0.0 0.001389530041459459 0.0 0.0
7.214428798336221e-06 -0.0004163541930340958 0.0 0.0008247866491228804 0.0 0.0
-4.994570019867096e-05 -0.0002305028276824715 0.0 -0.000646568078752747 0.0 0.0
-0.0002477985614399471 -7.780101015796001e-05 0.0 -0.0011439776224322295 0.0 0.0
-0.0006730283537029611 0.0002729800039186428 0.0 -0.0015670429318362948 0.0 0.0
-0.0011153279444084314 0.0005071728755973873 0.0 -0.0015751977578690847 0.0 0.0
-0.0016184050357100333 0.0007226555451818082 0.0 -0.0014206012965558422 0.0 0.0
-0.0025153032912062193 0.0011946757916821162 0.0 -0.0013616491301159273 0.0 0.0
-0.004307421024939404 0.0025106184746814487 0.0 -0.0017961592177297935 0.0 0.0
-0.007380221537048769 0.005212964428576328 0.0 -0.0029788615203421996 0.0 0.0
-0.011823237335980443 0.009385525634212577 0.0 -0.004749758834677975 0.0 0.0
-0.0175333174543327 0.014871751620976058 0.0 -0.006851961453485025 0.0 0.0
-0.024370365250704705 0.02148862257757609 0.0 -0.009089664727238931 0.0 0.0
-0.03220796899175976 0.02909184121943196 0.0 -0.011285375785606766 0.0 0.0
-0.04099966084849778 0.03763312954095321 0.0 -0.0134146095287828 0.0 0.0
-0.050782737970123726 0.04716225186725943 0.0 -0.015554048276447786 0.0 0.0
-0.06160859647607281 0.05775302786429243 0.0 -0.017774520249946253 0.0 0.0
-0.07335239005637595 0.06934319611188172 0.0 -0.02021575292061069 0.0 0.0
-0.08524871037368892 0.08130389462244209 0.0 -0.023389935184491235 0.0 0.0
-0.09528999048691071 0.09176556203095514 0.0 -0.028101214982266098 0.0 0.0
-0.09993265186712247 0.09719831781830401 0.0 -0.03447861361287501 0.0 0.0
-0.09420922785013056 0.09259669300696102 0.0 -0.04182923426696961 0.0 0.0
-0.08805446945443153 0.07171367460111752 0.0 2.0540860679041373e-14 0.0 0.0
-0.0942092278501146 0.09259669300694935 0.0 0.04182923426701461 0.0 0.0
-0.09993265186709217 0.09719831781827148 0.0 0.034478613612917805 0.0 0.0
-0.09528999048686777 0.09176556203091285 0.0 0.028101214982289888 0.0 0.0
-0.0852487103736362 0.08130389462238913 0.0 0.023389935184492516 0.0 0.0
-0.07335239005631818 0.06934319611182976 0.0 0.020215752920604863 0.0 0.0
-0.0616085964760143 0.05775302786423488 0.0 0.017774520249935262 0.0 0.0
-0.0507827379700659 0.047162251867202694 0.0 0.01555404827643406 0.0 0.0
-0.0409996608484402 0.03763312954089489 0.0 0.013414609528767926 0.0 0.0
-0.032207968991705346 0.02909184121937785 0.0 0.011285375785588244 0.0 0.0
-0.024370365250657118 0.021488622577533457 0.0 0.009089664727219867 0.0 0.0
-0.017533317454293457 0.014871751620937332 0.0 0.006851961453468988 0.0 0.0
-0.011823237335950821 0.00938552563418477 0.0 0.004749758834666085 0.0 0.0
-0.007380221537028589 0.005212964428558828 0.0 0.002978861520334331 0.0 0.0
-0.004307421024927852 0.0025106184746737426 0.0 0.001796159217725872 0.0 0.0
-0.0025153032912010897 0.0011946757916786797 0.0 0.0013616491301136934 0.0 0.0
-0.0016184050357081854 0.0007226555451826098 0.0 0.0014206012965557462 0.0 0.0
-0.001115327944407647 0.0005071728755962606 0.0 0.0015751977578688813 0.0 0.0
-0.0006730283537025854 0.0002729800039181852 0.0 0.0015670429318351165 0.0 0.0
-0.000247798561439566 -7.780101015815203e-05 0.0 0.0011439776224313005 0.0 0.0
-4.994570019806568e-05 -0.00023050282768207134 0.0 0.0006465680787529147 0.0 0.0
-9.415739479723791e-05 -9.649008987076439e-05 0.0 -0.00047000682872821054 0.0 0.0
-0.0002933945210494432 -1.3153434439064366e-05 0.0 -0.0008773265100006091 0.0 0.0
-0.0007455255109973209 0.00030930268334142415 0.0 -0.0012520835352906989 0.0 0.0
-0.001250074674834004 0.0005505386446276511 0.0 -0.0012529863061961771 0.0 0.0
-0.0018764202619599916 0.0008158991238899952 0.0 -0.0010661444396680444 0.0 0.0
-0.0030477210531439794 0.00151691661648449 0.0 -0.0010156303746467893 0.0 0.0
-0.0053050626211702465 0.00332827636537731 0.0 -0.0014966234601919005 0.0 0.0
-0.008963254955239263 0.006646794140343975 0.0 -0.0025680670205691404 0.0 0.0
-0.014107902523825901 0.011517493642520757 0.0 -0.004043681147459647 0.0 0.0
-0.020698715461331986 0.01786856715142787 0.0 -0.005821621662650963 0.0 0.0
-0.02860987318044162 0.025538860135886667 0.0 -0.007717511476329639 0.0 0.0
-0.037723708690540994 0.03439562387406156 0.0 -0.009581018751413694 0.0 0.0
-0.047986856647983446 0.04438685376665199 0.0 -0.011400772800062062 0.0 0.0
-0.059401587390099625 0.05553550343041269 0.0 -0.013270230294562875 0.0 0.0
-0.07196669651152773 0.06785442867380517 0.0 -0.015222216260797705 0.0 0.0
-0.08551264488189113 0.08121630040701948 0.0 -0.017152149060316865 0.0 0.0
-0.09926908592818866 0.09499533646605933 0.0 -0.019181000828660092 0.0 0.0
-0.11109054538760385 0.10728847515337345 0.0 -0.022564702190921243 0.0 0.0
-0.11695396722246107 0.11411850930946604 0.0 -0.029623630592828725 0.0 0.0
-0.1111936850178652 0.10967957030038539 0.0 -0.041561517582862 0.0 0.0
-0.10461372585528525 0.08704222726148587 0.0 1.6313339568085894e-14 0.0 0.0
-0.11119368501784695 0.10967957030036146 0.0 0.041561517582900546 0.0 0.0
-0.11695396722242521 0.1141185093094311 0.0 0.029623630592867572 0.0 0.0
-0.11109054538755343 0.10728847515332098 0.0 0.022564702190941408 0.0 0.0
-0.09926908592812851 0.09499533646600532 0.0 0.019181000828661934 0.0 0.0
-0.08551264488182535 0.08121630040696005 0.0 0.017152149060310273 0.0 0.0
-0.0719666965114602 0.06785442867373588 0.0 0.015222216260789179 0.0 0.0
-0.05940158739003306 0.055535503430351824 0.0 0.013270230294554899 0.0 0.0
-0.047986856647917596 0.04438685376658026 0.0 0.011400772800051166 0.0 0.0
-0.0377237086904786 0.03439562387400523 0.0 0.009581018751398657 0.0 0.0
-0.028609873180386984 0.025538860135838233 0.0 0.007717511476312338 0.0 0.0
-0.02069871546128704 0.01786856715138524 0.0 0.0058216216626361585 0.0 0.0
-0.014107902523791502 0.011517493642488186 0.0 0.0040436811474494645 0.0 0.0
-0.00896325495521544 0.00664679414031982 0.0 0.0025680670205620883 0.0 0.0
-0.005305062621156363 0.0033282763653664535 0.0 0.0014966234601882448 0.0 0.0
-0.003047721053137744 0.001516916616480526 0.0 0.0010156303746464634 0.0 0.0
-0.001876420261957802 0.0008158991238902661 0.0 0.001066144439667518 0.0 0.0
-0.0012500746748332489 0.0005505386446274576 0.0 0.0012529863061956545 0.0 0.0
-0.0007455255109968242 0.0003093026833406666 0.0 0.0012520835352896203 0.0 0.0
-0.0002933945210489906 -1.3153434439111338e-05 0.0 0.0008773265100002041 0.0 0.0
-9.41573947970101e-05 -9.64900898704799e-05 0.0 0.000470006828727398 0.0 0.0
-0.00012062143737952673 -1.5076787416542815e-05 0.0 -0.0003048713712564041 0.0 0.0
-0.0003245373165683144 4.2747368395999554e-05 0.0 -0.0005933848567396381 0.0 0.0
-0.0008102070629524599 0.00034182331474807927 0.0 -0.0008779614417230233 0.0 0.0
-0.0013864392426047873 0.0005911743998261661 0.0 -0.0008671576883751175 0.0 0.0
-0.0021638338355591813 0.0009336289049570084 0.0 -0.0006715108191331845 0.0 0.0
-0.003652569608084625 0.0019401900075636425 0.0 -0.0006437140654433284 0.0 0.0
-0.006365020723145515 0.004253046010593004 0.0 -0.0010805069680366506 0.0 0.0
-0.010568216595088402 0.008121840907256875 0.0 -0.0018539040501585032 0.0 0.0
-0.016393042290569298 0.013665318767766301 0.0 -0.002935990632366803 0.0 0.0
-0.023844861580027774 0.020859972609610436 0.0 -0.004243706117077551 0.0 0.0
-0.03282216453197216 0.02957411338070904 0.0 -0.005645427134303602 0.0 0.0
-0.04321248281169879 0.03968570486568424 0.0 -0.0070260795763029725 0.0 0.0
-0.05495305564685864 0.05113653295930153 0.0 -0.008391939504918029 0.0 0.0
-0.06801092926212796 0.06391361623891118 0.0 -0.009844143083763185 0.0 0.0
-0.08227800323777518 0.07793696405552207 0.0 -0.011373778898102207 0.0 0.0
-0.09744775636262255 0.09293322137323014 0.0 -0.012746261103096903 0.0 0.0
-0.11277415493392678 0.10821600405003973 0.0 -0.013678299670016613 0.0 0.0
-0.12635770738972757 0.12211602592770357 0.0 -0.015065429930883504 0.0 0.0
-0.13395821761479226 0.1308783349167575 0.0 -0.021256709549978634 0.0 0.0
-0.1289304069629294 0.12765209053307403 0.0 -0.03881908356321517 0.0 0.0
-0.12231579307047209 0.10380781569448967 0.0 1.2644399416394947e-14 0.0 0.0
-0.12893040696290745 0.12765209053304988 0.0 0.03881908356324381 0.0 0.0
-0.13395821761475069 0.13087833491671544 0.0 0.021256709550006952 0.0 0.0
-0.12635770738966987 0.12211602592764376 0.0 0.015065429930897493 0.0 0.0
-0.11277415493385842 0.1082160040499737 0.0 0.013678299670020908 0.0 0.0
-0.09744775636254865 0.09293322137315775 0.0 0.01274626110309552 0.0 0.0
-0.08227800323769918 0.0779369640554502 0.0 0.011373778898097002 0.0 0.0
-0.06801092926205224 0.06391361623883683 0.0 0.00984414308375619 0.0 0.0
-0.05495305564678404 0.051136532959221666 0.0 0.008391939504911667 0.0 0.0
-0.04321248281162862 0.03968570486561819 0.0 0.007026079576291578 0.0 0.0
-0.032822164531910863 0.029574113380643897 0.0 0.00564542713428948 0.0 0.0
-0.023844861579977405 0.0208599726095656 0.0 0.004243706117065725 0.0 0.0
-0.01639304229053034 0.01366531876772702 0.0 0.002935990632358635 0.0 0.0
-0.01056821659506073 0.008121840907230837 0.0 0.0018539040501536798 0.0 0.0
-0.006365020723128604 0.004253046010577846 0.0 0.0010805069680334407 0.0 0.0
-0.0036525696080761923 0.0019401900075575796 0.0 0.0006437140654427856 0.0 0.0
-0.0021638338355561538 0.0009336289049559398 0.0 0.0006715108191340785 0.0 0.0
-0.001386439242603569 0.0005911743998273931 0.0 0.0008671576883744489 0.0 0.0
-0.0008102070629515659 0.0003418233147470148 0.0 0.0008779614417216192 0.0 0.0
-0.00032453731656814823 4.2747368395757065e-05 0.0 0.0005933848567392611 0.0 0.0
-0.00012062143737973778 -1.507678741639759e-05 0.0 0.0003048713712559248 0.0 0.0
-0.00012097112208892693 1.3863211667762176e-05 0.0 -0.0001725541657744304 0.0 0.0
-0.0003313842784538492 7.97054726193578e-05 0.0 -0.0002972383301140968 0.0 0.0
-0.000862565167574427 0.0003651775753311359 0.0 -0.00042835420721269095 0.0 0.0
-0.0015340300603491528 0.0006383348690872885 0.0 -0.00041143118031323236 0.0 0.0
-0.0024991759676850035 0.0010995103665070477 0.0 -0.00025092144627341496 0.0 0.0
-0.0043218261259255685 0.0024651286973784276 0.0 -0.00023162409368465974 0.0 0.0
-0.007461986975653775 0.005238324074057689 0.0 -0.0004742179168821377 0.0 0.0
-0.012175649203198387 0.009615627070107258 0.0 -0.0008741036413718679 0.0 0.0
-0.01865405468690795 0.015802319698079985 0.0 -0.0014333074935482914 0.0 0.0
-0.026946853387353288 0.023817013744341906 0.0 -0.002125724554405737 0.0 0.0
-0.03698085103367293 0.03356671543191015 0.0 -0.0028723560748506274 0.0 0.0
-0.048650335833513685 0.044938378343517105 0.0 -0.003621421862116489 0.0 0.0
-0.06187672619077712 0.05785608485241363 0.0 -0.0044076769092766255 0.0 0.0
-0.07656690307700718 0.07225287027333675 0.0 -0.005262329499645278 0.0 0.0
-0.09250621044385823 0.08795594465794628 0.0 -0.006158407065458358 0.0 0.0
-0.109207817400722 0.10451662151237483 0.0 -0.006936896026185564 0.0 0.0
-0.12577180022958667 0.12105034019364241 0.0 -0.007241141166731345 0.0 0.0
-0.14068116599947184 0.1360332293374215 0.0 -0.007109891580085617 0.0 0.0
-0.15065523835755104 0.1466491453868922 0.0 -0.009928275944779196 0.0 0.0
-0.1478984942604956 0.14681522121858478 0.0 -0.02843287116199285 0.0 0.0
-0.14197073002435165 0.1237408034711848 0.0 8.205242041370298e-15 0.0 0.0
-0.14789849426047127 0.14681522121856155 0.0 0.028432871162009953 0.0 0.0
-0.15065523835750375 0.14664914538684434 0.0 0.009928275944795527 0.0 0.0
-0.14068116599940564 0.1360332293373548 0.0 0.007109891580091919 0.0 0.0
-0.125771800229509 0.12105034019356786 0.0 0.007241141166732135 0.0 0.0
-0.10920781740063937 0.10451662151229078 0.0 0.006936896026185644 0.0 0.0
-0.09250621044377381 0.08795594465786602 0.0 0.006158407065454936 0.0 0.0
-0.07656690307692261 0.07225287027325238 0.0 0.0052623294996399315 0.0 0.0
-0.06187672619069418 0.057856084852328515 0.0 0.004407676909275723 0.0 0.0
-0.048650335833436364 0.044938378343445724 0.0 0.003621421862109151 0.0 0.0
-0.0369808510336054 0.03356671543184183 0.0 0.0028723560748412074 0.0 0.0
-0.02694685338729773 0.0238170137442892 0.0 0.0021257245544000643 0.0 0.0
-0.018654054686864565 0.015802319698037325 0.0 0.0014333074935441352 0.0 0.0
-0.012175649203167176 0.009615627070080133 0.0 0.0008741036413697555 0.0 0.0
-0.007461986975634221 0.005238324074038651 0.0 0.0004742179168794767 0.0 0.0
-0.00432182612591544 0.002465128697371674 0.0 0.00023162409368450917 0.0 0.0
-0.00249917596768121 0.0010995103665062803 0.0 0.00025092144627445113 0.0 0.0
-0.0015340300603480172 0.0006383348690865817 0.0 0.00041143118031259274 0.0 0.0
-0.0008625651675737453 0.00036517757533062006 0.0 0.0004283542072113431 0.0 0.0
-0.00033138427845342687 7.970547261884712e-05 0.0 0.00029723833011363935 0.0 0.0
-0.00012097112208873962 1.386321166787978e-05 0.0 0.00017255416577258072 0.0 0.0
-8.013588991287408e-05 1.5341450026035738e-05 0.0 -0.00010681550038741203 0.0 0.0
-0.0002967555754035527 9.184580783825672e-05 0.0 -0.0001234531421406507 0.0 0.0
-0.0008967006287049381 0.00037376367616765176 0.0 -0.00014418069819258127 0.0 0.0
-0.0017097139104914737 0.0006651119945812846 0.0 -0.00010639642963347932 0.0 0.0
-0.0028941255663526874 0.0011990578122228366 0.0 0.00010966177327822812 0.0 0.0
-0.005040079993230792 0.0027486329022935983 0.0 0.00029959345595050317 0.0 0.0
-0.008575934625014141 0.0057412532692565415 0.0 0.0003819811131684749 0.0 0.0
-0.01376899967564488 0.010364995476838392 0.0 0.00041181517340585223 0.0 0.0
-0.020868396428882403 0.01686446354668531 0.0 0.0003919927364796805 0.0 0.0
-0.029978185303437804 0.0252835393099798 0.0 0.0002919878504733901 0.0 0.0
-0.04106139042832917 0.03554856160527123 0.0 0.00015444709118847934 0.0 0.0
-0.05401764770413412 0.04755299011147683 0.0 -1.954593140883129e-05 0.0 0.0
-0.06872175018866578 0.061205260445053866 0.0 -0.0002757698398352807 0.0 0.0
-0.08502092308806089 0.07640595530197034 0.0 -0.0005857006545471142 0.0 0.0
-0.10261298499581817 0.09294329312700024 0.0 -0.0009911917465174214 0.0 0.0
-0.12083431001598195 0.11027886476604475 0.0 -0.0014353254276972087 0.0 0.0
-0.13851366577950047 0.1273950149041322 0.0 -0.001713749218685702 0.0 0.0
-0.15400862929919454 0.14275899773208856 0.0 -0.001552459034814645 0.0 0.0
-0.16545702127939213 0.15410868039165046 0.0 -0.0027330370349310552 0.0 0.0
-0.16822942069990626 0.15671005647188813 0.0 -0.021042078278753464 0.0 0.0
-0.1665252547997331 0.13484161831355598 0.0 2.6229018956769323e-15 0.0 0.0
-0.16822942069987884 0.1567100564718634 0.0 0.021042078278759258 0.0 0.0
-0.16545702127933842 0.15410868039160017 0.0 0.002733037034935399 0.0 0.0
-0.1540086292991191 0.1427589977320164 0.0 0.0015524590348147734 0.0 0.0
-0.13851366577941274 0.12739501490405578 0.0 0.0017137492186844894 0.0 0.0
-0.1208343100158904 0.11027886476595686 0.0 0.0014353254276971428 0.0 0.0
-0.10261298499572515 0.09294329312691683 0.0 0.00099119174651322 0.0 0.0
-0.08502092308796727 0.07640595530187928 0.0 0.0005857006545425796 0.0 0.0
-0.06872175018857435 0.06120526044496609 0.0 0.0002757698398360084 0.0 0.0
-0.05401764770404917 0.047552990111404854 0.0 1.95459314046827e-05 0.0 0.0
-0.041061390428255046 0.035548561605207016 0.0 -0.00015444709119299266 0.0 0.0
-0.029978185303377078 0.02528353930992281 0.0 -0.00029198785047561925 0.0 0.0
-0.020868396428834722 0.01686446354664201 0.0 -0.00039199273648148633 0.0 0.0
-0.013768999675610308 0.01036499547680882 0.0 -0.0004118151734043079 0.0 0.0
-0.008575934624992001 0.005741253269237099 0.0 -0.000381981113169116 0.0 0.0
-0.005040079993218671 0.0027486329022867583 0.0 -0.00029959345595037795 0.0 0.0
-0.002894125566347696 0.0011990578122233302 0.0 -0.00010966177327813981 0.0 0.0
-0.00170971391048938 0.0006651119945784547 0.0 0.00010639642963264828 0.0 0.0
-0.0008967006287042062 0.00037376367616764655 0.0 0.00014418069819235126 0.0 0.0
-0.00029675557540366157 9.184580783772084e-05 0.0 0.00012345314213992105 0.0 0.0
-8.013588991278889e-05 1.5341450026271403e-05 0.0 0.00010681550038368293 0.0 0.0
SCALARS Statev float 8
LOOKUP_TABLE default
0.0 0.017861537006667746 0.014300784182334627 -0.017062381609461257 0.002761597427126627 -0.0009090671300138633 0.0 0.0
0.0 0.006029282725229912 0.004423885383330486 -0.002720892325641387 -0.0017029930576891008 -0.00671182191457831 0.0 0.0
0.0 0.00010075118930705216 0.00014880878782516128 -9.236143928629498e-05 -5.644734853886629e-05 -0.00026974907822669407 0.0 0.0
0.0 0.00014252161182472166 5.815287311017751e-05 -4.1683997587700374e-05 -1.646887552247729e-05 1.961876671224596e-05 0.0 0.0
0.0 0.0008925173903728679 0.0005800307958909148 -0.00042346092956851403 -0.00015656986632240074 0.0001237606656692688 0.0 0.0
0.0 0.00229895378556329 0.00228830568693735 -0.0018042388981260376 -0.00048406678881131706 0.00026023899429225523 0.0 0.0
0.0 0.005877323494293497 0.005400688903975588 -0.004597214071853498 -0.0008034748321220797 0.0003671482221950302 0.0 0.0
0.0 0.011312971610164688 0.010235585016586581 -0.009175445239597117 -0.0010601397769894661 0.0004192367617327571 0.0 0.0
0.0 0.018986291748223482 0.01698030197055431 -0.015699323105892626 -0.0012809788646616792 0.000418342925100649 0.0 0.0
0.0 0.029017686577797526 0.025715422770164125 -0.024198110899399314 -0.0015173118707648427 0.00034200598174426676 0.0 0.0
0.0 0.041352310420512774 0.036403345920953685 -0.034611249736992054 -0.0017920961839615623 0.00022431557781758837 0.0 0.0
0.0 0.05555537214808521 0.04895511872612568 -0.04684565912430268 -0.002109459601822948 6.216193014436358e-05 0.0 0.0
0.0 0.07185602811909635 0.06325798892290743 -0.060798249849869535 -0.0024597390730378764 -0.00018460352206845073 0.0 0.0
0.0 0.09006074309714229 0.07919636066363984 -0.07636583684091651 -0.0028305238227231476 -0.0004645647511293781 0.0 0.0
0.0 0.10995268157899707 0.0965771125879596 -0.09337309232673 -0.0032040202612295004 -0.0008166569340934359 0.0 0.0
0.0 0.13108466321050138 0.11497304609569353 -0.11141222869845332 -0.0035608173972402333 -0.0012373245974083443 0.0 0.0
0.0 0.15253092482413594 0.1336116159029995 -0.1297297304841942 -0.00388188541880529 -0.0016499466830249962 0.0 0.0
0.0 0.17297095935947607 0.15135837543021566 -0.147210648116477 -0.004147727313738611 -0.0018978986775818386 0.0 0.0
0.0 0.19077932209257537 0.16681503091951705 -0.16246360338932622 -0.004351427530190523 -0.0018044154054696435 0.0 0.0
0.0 0.20382261101106489 0.1783256956136386 -0.173857171735541 -0.0044685238780977545 -0.001952487658180449 0.0 0.0
0.0 0.20923806013809718 0.18292608209442776 -0.17847396793320028 -0.004452114161227379 1.77115266897232e-15 0.0 0.0
0.0 0.20382261101103938 0.17832569561361614 -0.1738571717355192 -0.0044685238780968585 0.0019524876581889115 0.0 0.0
0.0 0.19077932209251974 0.16681503091946798 -0.16246360338927868 -0.00435142753018928 0.0018044154054758987 0.0 0.0
0.0 0.1729709593593943 0.15135837543014452 -0.14721064811640655 -0.0041477273137379925 0.0018978986775860752 0.0 0.0
0.0 0.1525309248240397 0.13361161590291612 -0.12972973048411207 -0.003881885418804059 0.0016499466830234366 0.0 0.0
0.0 0.13108466321040857 0.11497304609561114 -0.11141222869837439 -0.003560817397236933 0.0012373245974049958 0.0 0.0
0.0 0.10995268157889683 0.09657711258787183 -0.09337309232664458 -0.003204020261227095 0.0008166569340928151 0.0 0.0
0.0 0.09006074309704576 0.07919636066355533 -0.07636583684083456 -0.0028305238227209237 0.00046456475112718193 0.0 0.0
0.0 0.0718560281189973 0.06325798892282089 -0.06079824984978502 -0.00245973907303577 0.0001846035220668331 0.0 0.0
0.0 0.055555372147993026 0.04895511872604505 -0.0468456591242235 -0.0021094596018214847 -6.216193014713144e-05 0.0 0.0
0.0 0.041352310420439256 0.036403345920889 -0.03461124973692958 -0.0017920961839594065 -0.0002243155778194636 0.0 0.0
0.0 0.02901768657773693 0.02571542277011104 -0.024198110899347872 -0.0015173118707631778 -0.0003420059817461985 0.0 0.0
0.0 0.018986291748179517 0.016980301970515362 -0.01569932310585501 -0.00128097886466032 -0.0004183429251006018 0.0 0.0
0.0 0.011312971610131357 0.010235585016556513 -0.009175445239568352 -0.0010601397769881636 -0.0004192367617326041 0.0 0.0
0.0 0.005877323494272958 0.005400688903956284 -0.004597214071835722 -0.0008034748321205542 -0.0003671482221949143 0.0 0.0
0.0 0.002298953785552419 0.002288305686926459 -0.00180423889811682 -0.0004840667888096379 -0.0002602389942914512 0.0 0.0
0.0 0.0008925173903693669 0.0005800307958886455 -0.000423460929566941 -0.0001565698663217037 -0.00012376066566849482 0.0 0.0
0.0 0.0001425216118236561 5.815287310997751e-05 -4.168399758756403e-05 -1.6468875522412865e-05 -1.9618766712159206e-05 0.0 0.0
0.0 0.00010075118930590366 0.00014880878782423066 -9.236143928568368e-05 -5.64473485385465e-05 0.0002697490782253311 0.0 0.0
0.0 0.0060292827252193 0.004423885383324845 -0.0027208923256372046 -0.0017029930576876414 0.006711821914569132 0.0 0.0
0.0 0.017861537006646947 0.014300784182320624 -0.0170623816094419 0.0027615974271212726 0.00090906712997591 0.0 0.0
0.0 0.014542560799707416 0.010884197927325518 -0.014094544265361723 0.0032103463380361917 -0.00042797405859978227 0.0 0.0
0.0 0.0036768398428041783 0.002636717713360218 -0.001597527910900819 -0.0010391898024593945 -0.005250590852873535 0.0 0.0
0.0 -6.892409987569644e-05 -6.677094792775428e-05 5.8951360621489544e-05 7.819587306264713e-06 -6.82347241707321e-05 0.0 0.0
0.0 2.7807718401586947e-05 1.9262837576294698e-05 -1.390642476802433e-05 -5.356412808270376e-06 9.129749680606029e-06 0.0 0.0
0.0 0.0004770360200513071 0.0003681669438276286 -0.0002709240070687415 -9.724293675888682e-05 5.028053111671827e-05 0.0 0.0
0.0 0.002012915000420778 0.001740228952384587 -0.0013852616269028886 -0.00035496732548170016 5.353336538606514e-05 0.0 0.0
0.0 0.00497295634499106 0.004562889423138413 -0.003929633080950558 -0.0006332563421878514 -0.00017950163359990544 0.0 0.0
0.0 0.010014829067154804 0.008991478807352174 -0.00817124383916539 -0.0008202349681867927 -0.0005732954213368988 0.0 0.0
0.0 0.017173783117204064 0.015213518948730716 -0.01427396882244866 -0.000939550126282054 -0.001125907509374286 0.0 0.0
0.0 0.026456609313737126 0.023267015204486437 -0.022228492623200504 -0.0010385225812859149 -0.001808509314080066 0.0 0.0
0.0 0.03781182015311307 0.03308249334914849 -0.03194659582718313 -0.0011358975219653916 -0.002555669104053419 0.0 0.0
0.0 0.051226328865889126 0.044562216587509626 -0.0433256342044763 -0.00123658238303332 -0.0033197926340255016 0.0 0.0
0.0 0.06603177063524703 0.05763876468733462 -0.05629818796778964 -0.0013405767195449171 -0.0041255639989862 0.0 0.0
0.0 0.08287519222785902 0.07222970270879697 -0.07078886055778386 -0.0014408421510130767 -0.004981951607131505 0.0 0.0
0.0 0.10126921504212927 0.08817124022640857 -0.08664490959331395 -0.0015263306330945148 -0.005868281315093087 0.0 0.0
0.0 0.12081363371525969 0.10508662592107075 -0.10349898193317719 -0.0015876439878936412 -0.006717514594197352 0.0 0.0
0.0 0.14073529165018506 0.12228310818902367 -0.12066421994607704 -0.0016188882429464882 -0.007325048310721225 0.0 0.0
0.0 0.1598380840376383 0.13873252721728116 -0.1371115349177588 -0.0016209922995225143 -0.007368396282160839 0.0 0.0
0.0 0.1765061407200495 0.1530843649689242 -0.15149397270083648 -0.0015903922680877297 -0.006613406673477808 0.0 0.0
0.0 0.18866888429277673 0.16349144550167988 -0.16201912400653165 -0.0014723214951482871 -0.005500191159927063 0.0 0.0
0.0 0.1938333906877133 0.16754260752184488 -0.1662546919131581 -0.00128791560868683 6.254979173503372e-15 0.0 0.0
0.0 0.1886688842927531 0.16349144550165856 -0.1620191240065112 -0.0014723214951472396 0.005500191159945288 0.0 0.0
0.0 0.17650614071999793 0.1530843649688794 -0.151493972700792 -0.0015903922680872572 0.006613406673496084 0.0 0.0
0.0 0.15983808403756497 0.13873252721721827 -0.13711153491769515 -0.001620992299523054 0.007368396282171271 0.0 0.0
0.0 0.14073529165009738 0.1222831081889482 -0.12066421994600163 -0.0016188882429466122 0.007325048310721207 0.0 0.0
0.0 0.12081363371517244 0.10508662592099494 -0.10349898193310202 -0.0015876439878926788 0.006717514594193562 0.0 0.0
0.0 0.10126921504203594 0.08817124022632733 -0.08664490959323354 -0.001526330633093904 0.005868281315090974 0.0 0.0
0.0 0.08287519222777173 0.07222970270872112 -0.07078886055770892 -0.0014408421510120758 0.0049819516071281916 0.0 0.0
0.0 0.0660317706351558 0.057638764687255775 -0.056298187967711175 -0.001340576719544666 0.004125563998982413 0.0 0.0
0.0 0.05122632886580412 0.04456221658743578 -0.043325634204402566 -0.0012365823830332206 0.0033197926340195875 0.0 0.0
0.0 0.037811820153041235 0.033082493349086334 -0.031946595827121366 -0.0011358975219650073 0.0025556691040466515 0.0 0.0
0.0 0.026456609313679925 0.023267015204436147 -0.02222849262315079 -0.0010385225812853435 0.001808509314074788 0.0 0.0
0.0 0.017173783117163225 0.015213518948694283 -0.014273968822413014 -0.0009395501262812728 0.001125907509371305 0.0 0.0
0.0 0.010014829067123773 0.008991478807324343 -0.00817124383913834 -0.0008202349681860192 0.0005732954213339534 0.0 0.0
0.0 0.004972956344972483 0.0045628894231212955 -0.003929633080934628 -0.0006332563421866625 0.00017950163359817175 0.0 0.0
0.0 0.0020129150004114813 0.0017402289523764452 -0.0013852616268959683 -0.00035496732548047686 -5.3533365386397534e-05 0.0 0.0
0.0 0.00047703602004835855 0.00036816694382567274 -0.00027092400706733735 -9.724293675833541e-05 -5.028053111636096e-05 0.0 0.0
0.0 2.7807718400857425e-05 1.9262837576267166e-05 -1.3906424768011487e-05 -5.356412808255507e-06 -9.129749680558558e-06 0.0 0.0
0.0 -6.8924099875506e-05 -6.677094792753364e-05 5.895136062128202e-05 7.819587306251476e-06 6.823472417041321e-05 0.0 0.0
0.0 0.003676839842793764 0.002636717713354521 -0.0015975279108967606 -0.0010391898024577626 0.0052505908528624615 0.0 0.0
0.0 0.014542560799685352 0.010884197927308631 -0.014094544265340427 0.0032103463380317877 0.00042797405857161015 0.0 0.0
0.0 0.010807213617056267 0.007915934932570215 -0.010537815423494044 0.0026218804909238277 -0.002822043948995372 0.0 0.0
0.0 0.0025590339025861174 0.0016243826197212226 -0.0008807124990863398 -0.0007436701206348846 -0.004350781097060332 0.0 0.0
0.0 -4.669226726150799e-07 2.1881846572081722e-07 -1.9484433360983348e-07 -2.3974132110981485e-08 1.6780631737055547e-07 0.0 0.0
0.0 -3.424624910475554e-06 -4.7966677732879235e-06 3.820211256727129e-06 9.76456516560665e-07 3.1320208614617304e-06 0.0 0.0
0.0 0.00019731468175153308 0.00016230658363225825 -0.00011610306493791135 -4.620351869434715e-05 1.4843804609484284e-05 0.0 0.0
0.0 0.0014180558922040495 0.0011697118777130294 -0.0009066979298809023 -0.0002630139478321259 -6.418977670646407e-05 0.0 0.0
0.0 0.003823035055716643 0.0035728112147112934 -0.003013561276319238 -0.0005592499383920557 -0.0005243257621216225 0.0 0.0
0.0 0.008333805752826792 0.007489311222356237 -0.006722256996119014 -0.0007670542262372165 -0.001293534539684744 0.0 0.0
0.0 0.014726322325242106 0.013059648469513144 -0.012165998759368172 -0.000893649710144974 -0.002358150151922997 0.0 0.0
0.0 0.023114868205419307 0.02027512886486068 -0.01928695584777493 -0.0009881730170857596 -0.0036499324036438664 0.0 0.0
0.0 0.03330038679576038 0.029036891157691536 -0.027957946208319137 -0.0010789449493723647 -0.005054952838815172 0.0 0.0
0.0 0.045047175089835745 0.039242699843529745 -0.038069072194715475 -0.0011736276488142283 -0.006466425786571417 0.0 0.0
0.0 0.05864139604565245 0.0508376193848453 -0.049566243950639695 -0.0012713754342056087 -0.00787733502246433 0.0 0.0
0.0 0.07335328274730718 0.0637981405016986 -0.06243287467947663 -0.0013652658222219262 -0.009362792892660104 0.0 0.0
0.0 0.08977750104057867 0.07799899923557738 -0.07655284320252669 -0.0014461560330508013 -0.010911778196782742 0.0 0.0
0.0 0.1072741014110631 0.09313050444362023 -0.09162500632709941 -0.0015054981165206357 -0.012367663026864774 0.0 0.0
0.0 0.12518999759094354 0.10861460462141864 -0.1070756427356433 -0.0015389618857754262 -0.0133889724660132 0.0 0.0
0.0 0.1424623745313698 0.12354342475661655 -0.12200151582021614 -0.0015419089364004002 -0.013484020595073861 0.0 0.0
0.0 0.1576019230450886 0.13659973156590838 -0.1351026288718253 -0.001497102694082918 -0.012283446971578337 0.0 0.0
0.0 0.1686018235206413 0.14604625496228982 -0.14462407401633284 -0.0014221809459568726 -0.009729280944366661 0.0 0.0
0.0 0.173473321933243 0.1498317398892103 -0.14863084964546092 -0.0012008902437493823 1.259929660601955e-14 0.0 0.0
0.0 0.1686018235206187 0.14604625496226906 -0.14462407401631208 -0.0014221809459569583 0.00972928094439842 0.0 0.0
0.0 0.15760192304504153 0.13659973156586722 -0.13510262887178423 -0.0014971026940830813 0.012283446971610835 0.0 0.0
0.0 0.14246237453130697 0.12354342475656205 -0.12200151582016139 -0.0015419089364005134 0.013484020595092544 0.0 0.0
0.0 0.1251899975908675 0.10861460462135339 -0.10707564273557851 -0.0015389618857748536 0.013388972466014898 0.0 0.0
0.0 0.10727410141098229 0.09313050444355045 -0.09162500632702912 -0.0015054981165213356 0.012367663026858522 0.0 0.0
0.0 0.0897775010404963 0.07799899923550588 -0.07655284320245598 -0.001446156033049931 0.010911778196778648 0.0 0.0
0.0 0.07335328274722747 0.0637981405016294 -0.062432874679407946 -0.001365265822221443 0.009362792892654835 0.0 0.0
0.0 0.05864139604557281 0.05083761938477652 -0.04956624395057108 -0.001271375434205433 0.007877335022456886 0.0 0.0
0.0 0.04504717508975948 0.03924269984346411 -0.038069072194649785 -0.0011736276488142432 0.00646642578656103 0.0 0.0
0.0 0.033300386795695754 0.02903689115763536 -0.02795794620826295 -0.001078944949372417 0.005054952838803861 0.0 0.0
0.0 0.023114868205365978 0.02027512886481386 -0.019286955847728417 -0.0009881730170854227 0.003649932403633733 0.0 0.0
0.0 0.014726322325205175 0.013059648469480468 -0.012165998759336284 -0.0008936497101441926 0.002358150151916833 0.0 0.0
0.0 0.008333805752799668 0.007489311222332391 -0.006722256996095899 -0.0007670542262364816 0.0012935345396792985 0.0 0.0
0.0 0.00382303505570244 0.0035728112146980327 -0.0030135612763071856 -0.0005592499383908491 0.0005243257621187377 0.0 0.0
0.0 0.0014180558921965526 0.0011697118777066833 -0.0009066979298758144 -0.0002630139478308688 6.418977670564875e-05 0.0 0.0
0.0 0.00019731468174954817 0.000162306583631147 -0.00011610306493710933 -4.6203518694037745e-05 -1.4843804609308318e-05 0.0 0.0
0.0 -3.424624910483057e-06 -4.796667773006175e-06 3.820211256517072e-06 9.764565164891278e-07 -3.132020861379423e-06 0.0 0.0
0.0 -4.6692267258452855e-07 2.1881846572502014e-07 -1.9484433361248313e-07 -2.3974132112538272e-08 -1.6780631737180776e-07 0.0 0.0
0.0 0.0025590339025779634 0.001624382619716428 -0.0008807124990831349 -0.0007436701206332907 0.004350781097047898 0.0 0.0
0.0 0.010807213617033842 0.007915934932553608 -0.010537815423472978 0.0026218804909193673 0.0028220439489766106 0.0 0.0
0.0 0.008168003745963095 0.005824912590856133 -0.007919221786838453 0.0020943091959823084 -0.0030744088908261622 0.0 0.0
0.0 0.00183169327252355 0.0010916331599837004 -0.0005753692847441096 -0.0005162638752395885 -0.003258185269124847 0.0 0.0
0.0 0.0 0.0 0.0 0.0 0.0 0.0 0.0
0.0 -5.401385422118255e-07 -9.429038002889383e-07 7.519930345236252e-07 1.9091076576531042e-07 6.917542587486006e-07 0.0 0.0
0.0 5.8604859355549906e-05 3.617211222373631e-05 -2.3828881866377766e-05 -1.2343230357358241e-05 1.2165662739592441e-05 0.0 0.0
0.0 0.0008160881896057734 0.0007122996521004057 -0.0005380599255126133 -0.0001742397265877917 -0.0001233787767024614 0.0 0.0
0.0 0.0029756097154005545 0.00261650973153544 -0.0021522064277327436 -0.0004643033038026978 -0.0006531820633423135 0.0 0.0
0.0 0.006698580131241049 0.006007339179040782 -0.005307229752552149 -0.0007001094264886334 -0.0017413645226936664 0.0 0.0
0.0 0.012351591485668598 0.010899054843338021 -0.010058870514269673 -0.0008401843290683379 -0.003199987515054659 0.0 0.0
0.0 0.0197723268861301 0.01725644589594405 -0.01632292382546227 -0.0009335220704817746 -0.004960396244455172 0.0 0.0
0.0 0.02870606656814274 0.02495572564952062 -0.02393797874669615 -0.0010177469028244347 -0.00686233947130537 0.0 0.0
0.0 0.039152688837400564 0.033885267102682845 -0.03277969449968063 -0.0011055726030021842 -0.008765613968973374 0.0 0.0
0.0 0.050760046672307206 0.044008777350037206 -0.04281127326663983 -0.0011975040833974212 -0.010657284231776759 0.0 0.0
0.0 0.06410492089247183 0.05531932673277625 -0.05403486446781727 -0.0012844622649589494 -0.01261080878339237 0.0 0.0
0.0 0.07841260769757005 0.06775879992987068 -0.06639865230293183 -0.0013601476269387769 -0.014635688965225968 0.0 0.0
0.0 0.09367016842724511 0.0810963720281604 -0.07967695473760494 -0.0014194172905554804 -0.016557810346694957 0.0 0.0
0.0 0.10967750533124343 0.09486278906225709 -0.0934078360590245 -0.0014549530032325622 -0.017954331112015484 0.0 0.0
0.0 0.12519236413890414 0.10827439637769842 -0.10681670331272891 -0.0014576930649693983 -0.01823018392409366 0.0 0.0
0.0 0.1388858318922633 0.12013554022055753 -0.11871375489829543 -0.0014217853222621207 -0.016764302831893063 0.0 0.0
0.0 0.14899398497338373 0.12891975145128678 -0.12755051704734785 -0.00136923440393917 -0.012770798252973276 0.0 0.0
0.0 0.15385763055751758 0.13265264906070967 -0.13159344554387792 -0.0010592035168316928 1.8131329770909588e-14 0.0 0.0
0.0 0.14899398497336075 0.1289197514512655 -0.12755051704732548 -0.001369234403940061 0.012770798253016705 0.0 0.0
0.0 0.13888583189222253 0.1201355402205213 -0.11871375489825878 -0.0014217853222624963 0.016764302831934988 0.0 0.0
0.0 0.12519236413884802 0.10827439637764925 -0.1068167033126798 -0.0014576930649694074 0.01823018392411769 0.0 0.0
0.0 0.1096775053311781 0.09486278906220054 -0.0934078360589688 -0.0014549530032317544 0.01795433111201957 0.0 0.0
0.0 0.0936701684271743 0.08109637202809947 -0.07967695473754374 -0.0014194172905556942 0.016557810346687483 0.0 0.0
0.0 0.07841260769749875 0.06775879992980856 -0.06639865230287044 -0.0013601476269381187 0.014635688965219846 0.0 0.0
0.0 0.06410492089239866 0.05531932673271283 -0.05403486446775385 -0.0012844622649590086 0.012610808783385802 0.0 0.0
0.0 0.05076004667223723 0.04400877734997715 -0.042811273266580144 -0.0011975040833969858 0.01065728423176611 0.0 0.0
0.0 0.0391526888373358 0.03388526710262663 -0.03277969449962472 -0.0011055726030019437 0.00876561396895846 0.0 0.0
0.0 0.02870606656808585 0.02495572564947127 -0.023937978746647284 -0.0010177469028239644 0.006862339471291065 0.0 0.0
0.0 0.019772326886083408 0.01725644589590355 -0.01632292382542228 -0.0009335220704812586 0.004960396244441023 0.0 0.0
0.0 0.012351591485634764 0.010899054843308553 -0.01005887051424084 -0.0008401843290677052 0.0031999875150456056 0.0 0.0
0.0 0.006698580131219591 0.006007339179021215 -0.005307229752533546 -0.0007001094264876636 0.001741364522686886 0.0 0.0
0.0 0.002975609715387677 0.0026165097315246537 -0.0021522064277232893 -0.00046430330380136493 0.0006531820633387459 0.0 0.0
0.0 0.0008160881895991574 0.0007122996520952075 -0.0005380599255084966 -0.0001742397265867109 0.00012337877670104045 0.0 0.0
0.0 5.860485935505975e-05 3.6172112223929373e-05 -2.382888186657644e-05 -1.2343230357352966e-05 -1.2165662739065717e-05 0.0 0.0
0.0 -5.401385427087515e-07 -9.429038004019991e-07 7.519930346114111e-07 1.9091076579060962e-07 -6.917542588257866e-07 0.0 0.0
0.0 0.0 0.0 0.0 0.0 0.0 0.0 0.0
0.0 0.0018316932725165507 0.0010916331599796743 -0.0005753692847414407 -0.0005162638752382357 0.003258185269114076 0.0 0.0
0.0 0.00816800374594392 0.005824912590841211 -0.007919221786819388 0.0020943091959781807 0.003074408890812428 0.0 0.0
0.0 0.005961446470283427 0.0042293058339796805 -0.005853399867403398 0.0016240940334237206 -0.0026485643112978616 0.0 0.0
0.0 0.0014612514501965298 0.0007037341382015495 -0.00035929228537112754 -0.00034444185283042116 -0.002305191233700974 0.0 0.0
0.0 0.0 0.0 0.0 0.0 0.0 0.0 0.0
0.0 -3.7984550156211763e-07 4.914429349347381e-08 -3.745604238144919e-08 -1.1688251112023263e-08 -3.092059827157818e-08 0.0 0.0
0.0 -1.7743960741817922e-05 -7.205787059220656e-06 6.837445787076905e-06 3.683412721437558e-07 1.5141524475777628e-05 0.0 0.0
0.0 0.000436776884994778 0.00034836461019211167 -0.00025659342194327183 -9.17711882488397e-05 -9.875430158375233e-05 0.0 0.0
0.0 0.0021529790251600535 0.0017641144592036194 -0.0014117172751275944 -0.0003523971840760223 -0.000656905748144856 0.0 0.0
0.0 0.0051423389412862935 0.0045684660038025965 -0.003951553019117171 -0.0006169129846854295 -0.0018763486442811771 0.0 0.0
0.0 0.010016857308647884 0.008758690822929797 -0.007982796098920747 -0.0007758947240090556 -0.0036435862868176897 0.0 0.0
0.0 0.016428553220438895 0.014239391663657652 -0.013367148432607107 -0.0008722432310505373 -0.005733262458466785 0.0 0.0
0.0 0.024202115938113673 0.0208663563934615 -0.019914923693531476 -0.0009514326999300292 -0.007979560750965021 0.0 0.0
0.0 0.033181886337533384 0.028519964943059598 -0.027487867148355292 -0.0010320977947043046 -0.01021959746870728 0.0 0.0
0.0 0.043376944541603395 0.03716663480800652 -0.03604982968971066 -0.0011168051182958059 -0.01244071324042348 0.0 0.0
0.0 0.05442736148604581 0.046836108968184194 -0.045637520101288645 -0.0011985888668955315 -0.014722857607429904 0.0 0.0
0.0 0.06693811784963036 0.05750072764455209 -0.056231421843516996 -0.0012693058010350752 -0.017062769312072804 0.0 0.0
0.0 0.08039955203627121 0.0690131801059449 -0.06768765386753664 -0.0013255262384082038 -0.0192760184120182 0.0 0.0
0.0 0.0941722868302589 0.08103143392067745 -0.07966743246424429 -0.0013640014564331793 -0.02096996814315535 0.0 0.0
0.0 0.10788980561135982 0.09291876207284315 -0.09154398021181048 -0.0013747818610327866 -0.021514065316192845 0.0 0.0
0.0 0.12026736764212498 0.1036748178665259 -0.1023239676382991 -0.0013508502282266607 -0.019956730550369204 0.0 0.0
0.0 0.1297621857940293 0.1119849032235142 -0.11067734148158069 -0.0013075617419333998 -0.015049520734723603 0.0 0.0
0.0 0.13479241010752832 0.11578635305928957 -0.11489795464481248 -0.0008883984144771243 2.1301536923257203e-14 0.0 0.0
0.0 0.12976218579400814 0.11198490322349386 -0.11067734148155961 -0.0013075617419341962 0.01504952073477258 0.0 0.0
0.0 0.12026736764209181 0.10367481786649531 -0.10232396763826863 -0.0013508502282265642 0.01995673055041576 0.0 0.0
0.0 0.10788980561131054 0.09291876207279955 -0.09154398021176649 -0.0013747818610331025 0.02151406531622037 0.0 0.0
0.0 0.09417228683020352 0.08103143392062954 -0.07966743246419747 -0.0013640014564320847 0.020969968143159545 0.0 0.0
0.0 0.08039955203620883 0.06901318010589108 -0.0676876538674827 -0.0013255262384083183 0.01927601841200866 0.0 0.0
0.0 0.06693811784956917 0.05750072764449894 -0.05623142184346438 -0.001269305801034515 0.017062769312064886 0.0 0.0
0.0 0.05442736148598548 0.04683610896813188 -0.045637520101236645 -0.0011985888668952077 0.014722857607422582 0.0 0.0
0.0 0.04337694454154262 0.03716663480795397 -0.03604982968965848 -0.0011168051182954635 0.012440713240411136 0.0 0.0
0.0 0.033181886337481335 0.028519964943014574 -0.027487867148310814 -0.001032097794703738 0.010219597468691558 0.0 0.0
0.0 0.024202115938063498 0.02086635639341869 -0.019914923693489156 -0.0009514326999295396 0.007979560750946326 0.0 0.0
0.0 0.01642855322040071 0.014239391663624996 -0.013367148432574904 -0.0008722432310500883 0.005733262458451049 0.0 0.0
0.0 0.010016857308618716 0.008758690822904492 -0.00798279609889605 -0.0007758947240084399 0.0036435862868066794 0.0 0.0
0.0 0.005142338941267414 0.00456846600378595 -0.003951553019101671 -0.0006169129846842809 0.001876348644273575 0.0 0.0
0.0 0.0021529790251486407 0.0017641144591945036 -0.0014117172751198226 -0.0003523971840746818 0.0006569057481408001 0.0 0.0
0.0 0.00043677688499096435 0.0003483646101895564 -0.0002565934219413288 -9.177118824822705e-05 9.875430158278814e-05 0.0 0.0
0.0 -1.7743960741999173e-05 -7.20578705884874e-06 6.837445786777392e-06 3.683412720713e-07 -1.5141524475241616e-05 0.0 0.0
0.0 -3.798455013967622e-07 4.914429342917142e-08 -3.7456042332885895e-08 -1.1688251096291998e-08 3.092059818361306e-08 0.0 0.0
0.0 0.0 0.0 0.0 0.0 0.0 0.0 0.0
0.0 0.0014612514501896642 0.0007037341381982173 -0.00035929228536890775 -0.0003444418528293079 0.002305191233691731 0.0 0.0
0.0 0.005961446470267514 0.004229305833967203 -0.005853399867387154 0.0016240940334199423 0.002648564311288299 0.0 0.0
0.0 0.0043192273766791715 0.0029592645333398615 -0.0041622858502802645 0.0012030213169404017 -0.00207592455441723 0.0 0.0
0.0 0.000871731417145713 0.0004279940219101822 -0.0002095937667222735 -0.00021840025518790826 -0.0015442226300385732 0.0 0.0
0.0 0.0 0.0 0.0 0.0 0.0 0.0 0.0
0.0 -4.1987933484866856e-07 3.8749492093939563e-08 -2.9607205318292003e-08 -9.142286775647592e-09 -7.543327266357638e-08 0.0 0.0
0.0 -1.4444133727339865e-05 -1.1459856959431478e-05 9.155134591729656e-06 2.304722367701834e-06 1.6264768184949308e-05 0.0 0.0
0.0 0.00013716490387661034 0.00012717154321968707 -9.07614403475999e-05 -3.641010287208726e-05 -5.22705378070401e-05 0.0 0.0
0.0 0.0012160105815301934 0.0010753616940660158 -0.0008377501045140904 -0.00023761158955192669 -0.0005914918230891047 0.0 0.0
0.0 0.00395894654493531 0.0032048120714901606 -0.0027001617226651738 -0.0005046503488249838 -0.0017526070065165189 0.0 0.0
0.0 0.00761676333588308 0.006666711707425622 -0.005971870326769987 -0.000694841380655639 -0.00366062966134232 0.0 0.0
0.0 0.013167327657210636 0.011251743632754408 -0.010450843953499 -0.0008008996792554018 -0.0059577358244335445 0.0 0.0
0.0 0.01971248516164011 0.016798600537366735 -0.0159208646815082 -0.0008777358558585319 -0.008396759079827813 0.0 0.0
0.0 0.027224215984258074 0.023176369944517237 -0.02222447523160747 -0.0009518947129097593 -0.010825355607509702 0.0 0.0
0.0 0.03566241364467861 0.030352847940132766 -0.029323167471951895 -0.00102968046818091 -0.013220694644054225 0.0 0.0
0.0 0.04515569297162967 0.038372083501616916 -0.037267819409225675 -0.0011042640923912268 -0.01566620456093808 0.0 0.0
0.0 0.05550572684992188 0.04726094357582057 -0.04609045558470193 -0.0011704879911186312 -0.018171078236293665 0.0 0.0
0.0 0.06665256359827025 0.05693440530727553 -0.05570976635007569 -0.0012246389571997987 -0.020541082651626574 0.0 0.0
0.0 0.0788093719559126 0.06714781357944602 -0.06588320613476277 -0.0012646074446832235 -0.022410570979348322 0.0 0.0
0.0 0.09064283433033431 0.07746903589049077 -0.07618162776322067 -0.0012874081272701845 -0.02320818667364855 0.0 0.0
0.0 0.10156623654303563 0.08715784443146772 -0.08587884947642503 -0.00127899495504273 -0.02183993053902831 0.0 0.0
0.0 0.1106414425171276 0.09510993848215017 -0.09386986606750736 -0.001240072414642787 -0.016656419711388266 0.0 0.0
0.0 0.11600375561101585 0.09907250576342565 -0.09838034034244562 -0.0006921654209799454 2.1387405735318055e-14 0.0 0.0
0.0 0.1106414425171105 0.0951099384821325 -0.09386986606748884 -0.001240072414643712 0.016656419711437467 0.0 0.0
0.0 0.10156623654300792 0.08715784443144094 -0.08587884947639819 -0.0012789949550428286 0.021839930539076874 0.0 0.0
0.0 0.09064283433029471 0.07746903589045524 -0.07618162776318467 -0.0012874081272705043 0.02320818667367759 0.0 0.0
0.0 0.07880937195586482 0.06714781357940486 -0.06588320613472207 -0.0012646074446827468 0.022410570979352513 0.0 0.0
0.0 0.06665256359821671 0.056934405307229805 -0.055709766350029444 -0.0012246389572003634 0.02054108265161748 0.0 0.0
0.0 0.05550572684986895 0.04726094357577478 -0.04609045558465657 -0.0011704879911181988 0.018171078236282945 0.0 0.0
0.0 0.0451556929715819 0.038372083501575026 -0.037267819409184465 -0.001104264092390581 0.01566620456092989 0.0 0.0
0.0 0.035662413644628486 0.030352847940089953 -0.029323167471909554 -0.001029680468180383 0.013220694644041416 0.0 0.0
0.0 0.02722421598421475 0.02317636994448029 -0.022224475231570912 -0.0009518947129093855 0.010825355607494088 0.0 0.0
0.0 0.019712485161600613 0.016798600537333733 -0.015920864681476018 -0.0008777358558577141 0.008396759079808492 0.0 0.0
0.0 0.013167327657178624 0.011251743632727185 -0.010450843953472178 -0.0008008996792549997 0.005957735824416499 0.0 0.0
0.0 0.007616763335860971 0.006666711707406169 -0.0059718703267514365 -0.0006948413806547381 0.0036606296613311074 0.0 0.0
0.0 0.003958946544918268 0.003204812071476503 -0.0027001617226526725 -0.0005046503488238282 0.0017526070065085378 0.0 0.0
0.0 0.0012160105815213521 0.0010753616940590465 -0.0008377501045084118 -0.00023761158955063505 0.0005914918230846061 0.0 0.0
0.0 0.00013716490387468357 0.00012717154321859796 -9.07614403468642e-05 -3.641010287173363e-05 5.2270537806708116e-05 0.0 0.0
0.0 -1.4444133728019017e-05 -1.145985695915057e-05 9.155134591514008e-06 2.304722367636534e-06 -1.6264768184663323e-05 0.0 0.0
0.0 -4.1987933468236624e-07 3.874949209722209e-08 -2.960720532072962e-08 -9.142286776489349e-09 7.543327266227531e-08 0.0 0.0
0.0 0.0 0.0 0.0 0.0 0.0 0.0 0.0
0.0 0.0008717314171400048 0.00042799402190755304 -0.00020959376672048286 -0.00021840025518706966 0.0015442226300310124 0.0 0.0
0.0 0.004319227376666953 0.002959264533330258 -0.004162285850267381 0.001203021316937121 0.002075924554410785 0.0 0.0
0.0 0.0028378272031797285 0.0019599118487023783 -0.002793342236885057 0.0008334303881826758 -0.0015410737109557066 0.0 0.0
0.0 0.000525652428135119 0.00022084804609177671 -9.154034296579176e-05 -0.00012930770312598447 -0.0009265803855346519 0.0 0.0
0.0 3.547722962352453e-07 -4.760043067899587e-09 4.283870871274896e-09 4.761721966247399e-10 7.118613590585807e-08 0.0 0.0
0.0 -3.9933846218285653e-07 2.3010864123224606e-08 -1.7665084308602554e-08 -5.345779814626124e-09 -7.114747973550936e-08 0.0 0.0
0.0 -4.649464510484298e-06 -3.5027264533083777e-06 2.7844749259589046e-06 7.182515273495178e-07 7.693798459950695e-06 0.0 0.0
0.0 4.192476861205886e-06 6.572083142772056e-06 -2.1336766242061114e-06 -4.4384065185659026e-06 1.624035060939632e-05 0.0 0.0
0.0 0.0006566915294099471 0.0005275121115544903 -0.0004017161427181323 -0.00012579596883635787 -0.0004216972225545243 0.0 0.0
0.0 0.002397493703782239 0.0020289855307467053 -0.001659688005851156 -0.0003692975248955492 -0.0015006047599215068 0.0 0.0
0.0 0.005860862828781873 0.00464989438615898 -0.004067390750915452 -0.0005825036352435271 -0.0032656834258047995 0.0 0.0
0.0 0.00983461279818081 0.008329025247466133 -0.0076174182200467256 -0.0007116070274194089 -0.00560454940611567 0.0 0.0
0.0 0.01529150001240447 0.012784370831551074 -0.011992005462007547 -0.0007923653695435369 -0.00809523728095588 0.0 0.0
0.0 0.021374095911000222 0.01788495120131877 -0.017023133273400052 -0.0008618179279187309 -0.01056716580298723 0.0 0.0
0.0 0.02813735962602057 0.02359662450552502 -0.022664157159116537 -0.0009324673464084679 -0.012984792749710053 0.0 0.0
0.0 0.03568437163924473 0.02997593318730548 -0.02897541327805511 -0.0010005199092504007 -0.015433052340404561 0.0 0.0
0.0 0.04402189215150424 0.03708091423186115 -0.036019666815852544 -0.001061247416008598 -0.017928731235281648 0.0 0.0
0.0 0.053443385647699425 0.04488959921941521 -0.043778664493008435 -0.0011109347264068015 -0.02031778214002017 0.0 0.0
0.0 0.06286461714089735 0.05326372670225626 -0.05210981926412534 -0.0011539074381309625 -0.022248099763910983 0.0 0.0
0.0 0.07311328344134313 0.06194103178210693 -0.0607498974470826 -0.0011911343350242294 -0.023245110522449985 0.0 0.0
0.0 0.08307759171168186 0.07051017175185285 -0.0693086394198513 -0.0012015323320015638 -0.022319030327047153 0.0 0.0
0.0 0.09163632121180956 0.07815175824363432 -0.0769837915238923 -0.0011679667197420085 -0.017558199400636715 0.0 0.0
0.0 0.09753120459059123 0.08235588944810882 -0.08188654854160483 -0.00046934090650402744 2.0649280896289923e-14 0.0 0.0
0.0 0.0916363212117962 0.0781517582436191 -0.07698379152387673 -0.001167966719742351 0.017558199400684982 0.0 0.0
0.0 0.08307759171166011 0.0705101717518306 -0.06930863941982887 -0.0012015323320017338 0.0223190303270967 0.0 0.0
0.0 0.07311328344131036 0.061941031782076605 -0.06074989744705259 -0.0011911343350240204 0.023245110522479042 0.0 0.0
0.0 0.06286461714085642 0.05326372670222161 -0.052109819264090626 -0.0011539074381309493 0.02224809976391383 0.0 0.0
0.0 0.053443385647658215 0.04488959921937994 -0.043778664492973345 -0.0011109347264066313 0.020317782140010315 0.0 0.0
0.0 0.044021892151459685 0.037080914231822734 -0.0360196668158142 -0.0010612474160085175 0.01792873123526924 0.0 0.0
0.0 0.03568437163920562 0.02997593318727161 -0.028975413278021497 -0.00100051990925011 0.015433052340395227 0.0 0.0
0.0 0.02813735962598174 0.023596624505492172 -0.022664157159084198 -0.0009324673464079812 0.012984792749697915 0.0 0.0
0.0 0.021374095910963776 0.017884951201288503 -0.01702313327337004 -0.0008618179279184708 0.010567165802971117 0.0 0.0
0.0 0.015291500012372622 0.012784370831525057 -0.011992005461982291 -0.0007923653695427611 0.008095237280936333 0.0 0.0
0.0 0.009834612798153498 0.008329025247443663 -0.007617418220024589 -0.0007116070274190806 0.005604549406098297 0.0 0.0
0.0 0.005860862828762719 0.00464989438614411 -0.004067390750901621 -0.0005825036352424862 0.0032656834257942186 0.0 0.0
0.0 0.00239749370377026 0.0020289855307371015 -0.0016596880058426938 -0.0003692975248944057 0.0015006047599145475 0.0 0.0
0.0 0.0006566915294033414 0.0005275121115498893 -0.00040171614271451603 -0.00012579596883537344 0.00042169722255063933 0.0 0.0
0.0 4.192476860142136e-06 6.572083142489595e-06 -2.133676624016652e-06 -4.438406518473073e-06 -1.6240350609384997e-05 0.0 0.0
0.0 -4.6494645112905685e-06 -3.5027264532324628e-06 2.7844749258991028e-06 7.182515273333602e-07 -7.693798459784173e-06 0.0 0.0
0.0 -3.9933846203843063e-07 2.3010864114477826e-08 -1.766508430182229e-08 -5.345779812654833e-09 7.114747970917023e-08 0.0 0.0
0.0 3.5477229582550476e-07 -4.760043062279326e-09 4.283870866217358e-09 4.761721960621147e-10 -7.118613582206866e-08 0.0 0.0
0.0 0.000525652428131084 0.00022084804609007994 -9.154034296465298e-05 -0.00012930770312542702 0.0009265803855292316 0.0 0.0
0.0 0.002837827203170378 0.0019599118486951137 -0.0027933422368750706 0.0008334303881799597 0.001541073710950905 0.0 0.0
0.0 0.0021309461605349173 0.0011466881628901778 -0.0016523192975076127 0.0005056311346174343 -0.0010176840412796989 0.0 0.0
0.0 0.00017516586531534354 8.509332163983999e-05 -1.80931357003029e-05 -6.700018593953713e-05 -0.0004663342350429637 0.0 0.0
0.0 2.7321700577963384e-07 3.761494023142881e-09 -4.681176757259215e-09 9.196827341169973e-10 -5.50621987407325e-08 0.0 0.0
0.0 -7.356347430910563e-07 2.5478260800852832e-08 -1.95977546709156e-08 -5.880506129937522e-09 -1.5494520600799048e-07 0.0 0.0
0.0 -3.026490685567218e-06 -2.1022228285425748e-06 1.6615050933434077e-06 4.407177351991718e-07 7.189240593125633e-06 0.0 0.0
0.0 -2.64320569112728e-05 -1.6483278504340844e-05 1.3597540397519632e-05 2.8857381068211935e-06 3.686883844472107e-05 0.0 0.0
0.0 0.0002341666497809683 0.00016934398211969204 -0.00012648622323142657 -4.2857758888265386e-05 -0.0002132813154097719 0.0 0.0
0.0 0.00129781521100067 0.0010472760286641839 -0.000833158896216252 -0.00021411713244793228 -0.0011073229888967147 0.0 0.0
0.0 0.0035514272803333436 0.0028405566863465063 -0.0024101414260659817 -0.0004304152602805227 -0.0026146056951831466 0.0 0.0
0.0 0.007098653169695171 0.00551167996482153 -0.004926343021086625 -0.0005853369437348998 -0.004684118337758309 0.0 0.0
0.0 0.010964336850603579 0.008860841462118992 -0.00817911318109285 -0.000681728281026135 -0.007050479228707408 0.0 0.0
0.0 0.015547718333631564 0.012686727735711964 -0.01193350655701923 -0.0007532211786927506 -0.009408889343903697 0.0 0.0
0.0 0.02070982697867368 0.016942245292317578 -0.016123247530435553 -0.0008189977618820011 -0.011706099558993916 0.0 0.0
0.0 0.02639348620365433 0.021688705192790807 -0.020809187504547466 -0.0008795176882433431 -0.013999531800143749 0.0 0.0
0.0 0.03283189803376107 0.027007458653352193 -0.02607290952929482 -0.0009345491240573615 -0.01632677996343326 0.0 0.0
0.0 0.0398462187134023 0.032940887650358214 -0.031959393455279234 -0.0009814941950789394 -0.01857734455004506 0.0 0.0
0.0 0.04766509222899171 0.039423019806094396 -0.03840049783771166 -0.0010225219683827535 -0.020448260407765123 0.0 0.0
0.0 0.055672454835360145 0.04636066031558486 -0.04528839834754993 -0.0010722619680349243 -0.021529859377539998 0.0 0.0
0.0 0.06389594183126834 0.053680211138681856 -0.052567861749876994 -0.001112349388804869 -0.02120736071851771 0.0 0.0
0.0 0.0722290497260586 0.060962419614171065 -0.05986941424580203 -0.0010930053683690575 -0.01762079388511686 0.0 0.0
0.0 0.0789264358622911 0.0654737573731228 -0.06525847633805744 -0.00021528103506539823 1.7594432855094766e-14 0.0 0.0
0.0 0.07222904972604868 0.060962419614157985 -0.059869414245788496 -0.0010930053683693717 0.0176207938851608 0.0 0.0
0.0 0.06389594183125477 0.05368021113866582 -0.052567861749861125 -0.001112349388804768 0.02120736071856584 0.0 0.0
0.0 0.055672454835334444 0.04636066031556088 -0.045288398347526064 -0.0010722619680348427 0.021529859377564874 0.0 0.0
0.0 0.047665092228960884 0.03942301980606825 -0.03840049783768625 -0.001022521968381976 0.02044826040776663 0.0 0.0
0.0 0.03984621871337123 0.032940887650332165 -0.03195939345525332 -0.000981494195078871 0.018577344550034753 0.0 0.0
0.0 0.03283189803373022 0.027007458653325912 -0.0260729095292689 -0.0009345491240570007 0.016326779963422244 0.0 0.0
0.0 0.026393486203625385 0.021688705192766264 -0.020809187504523093 -0.0008795176882431899 0.013999531800135622 0.0 0.0
0.0 0.020709826978645762 0.01694224529229463 -0.016123247530412926 -0.0008189977618816989 0.011706099558982504 0.0 0.0
0.0 0.015547718333602849 0.012686727735688332 -0.011933506556995993 -0.000753221178692335 0.009408889343887622 0.0 0.0
0.0 0.010964336850578819 0.008860841462099638 -0.008179113181074046 -0.0006817282810255783 0.0070504792286898 0.0 0.0
0.0 0.00709865316967408 0.005511679964805279 -0.004926343021070836 -0.0005853369437344433 0.004684118337742819 0.0 0.0
0.0 0.0035514272803188174 0.0028405566863351907 -0.0024101414260557902 -0.0004304152602794009 0.002614605695173647 0.0 0.0
0.0 0.0012978152109925929 0.0010472760286580598 -0.0008331588962111526 -0.0002141171324469074 0.0011073229888908453 0.0 0.0
0.0 0.00023416664977794898 0.00016934398211776555 -0.0001264862232299265 -4.285775888783903e-05 0.00021328131540718524 0.0 0.0
0.0 -2.6432056911617353e-05 -1.648327850375418e-05 1.3597540397062294e-05 2.88573810669192e-06 -3.6868838443331175e-05 0.0 0.0
0.0 -3.0264906861168076e-06 -2.1022228285887995e-06 1.6615050933803411e-06 4.4071773520844987e-07 -7.18924059334861e-06 0.0 0.0
0.0 -7.356347434213768e-07 2.5478260811277018e-08 -1.9597754678105142e-08 -5.880506133171779e-09 1.549452061399222e-07 0.0 0.0
0.0 2.7321700562584734e-07 3.761494051167265e-09 -4.681176785623697e-09 9.196827344568356e-10 5.506219934910438e-08 0.0 0.0
0.0 0.00017516586531276146 8.509332163888095e-05 -1.8093135699719312e-05 -6.700018593916145e-05 0.0004663342350391112 0.0 0.0
0.0 0.0021309461605259214 0.0011466881628847568 -0.0016523192974999647 0.0005056311346152067 0.0010176840412757908 0.0 0.0
0.0 0.0010255952784430868 0.0005943309474814568 -0.0008653470650184807 0.00027101611753702423 -0.0006484091485111981 0.0 0.0
0.0 2.7546514603200727e-05 2.8784304671737166e-06 2.9006687285910438e-05 -3.1885117753084285e-05 -0.000141466933519275 0.0 0.0
0.0 2.013151734919447e-06 -1.6562323278036295e-09 1.0013320666427988e-08 -8.357088338623445e-09 4.640533194697647e-07 0.0 0.0
0.0 1.7354473948541617e-06 -1.5248319607273728e-08 1.0018961970305511e-08 5.2293576369680746e-09 3.8766454573663913e-07 0.0 0.0
0.0 -4.164325861088258e-06 -1.2709208918413217e-06 9.838009981012836e-07 2.8711989374003726e-07 7.460544400768473e-06 0.0 0.0
0.0 -2.027326931524383e-05 -6.760713139052485e-06 5.5630200991800785e-06 1.1976930398724065e-06 1.965455796996021e-05 0.0 0.0
0.0 4.9011486886953276e-05 1.0904345232110163e-05 -7.31441186667061e-06 -3.5899333654396045e-06 -4.292737463921768e-05 0.0 0.0
0.0 0.0005721881915082353 0.00032936951065608365 -0.00025998310918647327 -6.938640146961066e-05 -0.0005950229295002838 0.0 0.0
0.0 0.001812635749294929 0.0012904605542162662 -0.0010650227268702778 -0.00022543782734598777 -0.0017594381880209407 0.0 0.0
0.0 0.0040197948434474665 0.002936223278350504 -0.0025465288712572124 -0.0003896944070932934 -0.0033592715620644423 0.0 0.0
0.0 0.006666235790733787 0.005115313084075702 -0.004603745172929505 -0.0005115679111461936 -0.0053086460502081234 0.0 0.0
0.0 0.009895305552383915 0.0076423396118548495 -0.007047404938786146 -0.0005949346730686999 -0.007335770448797171 0.0 0.0
0.0 0.013413333538638298 0.01044944565593095 -0.009785363416146659 -0.0006640822397842902 -0.009365303844533948 0.0 0.0
0.0 0.017293204443071086 0.013578662522685095 -0.012858007917125273 -0.0007206546055598184 -0.011378660759978908 0.0 0.0
0.0 0.021695278375016665 0.017114779268515987 -0.016344237849156805 -0.0007705414193592058 -0.013386335663274419 0.0 0.0
0.0 0.026707606890359246 0.02114927456857473 -0.020333465190055085 -0.0008158093785196485 -0.01536691648179547 0.0 0.0
0.0 0.0322835058161086 0.025717881496723913 -0.0248593099780648 -0.000858571518659085 -0.017113127680243725 0.0 0.0
0.0 0.03818900939859983 0.030820683739436406 -0.029911872017647143 -0.0009088117217892945 -0.01820484849559976 0.0 0.0
0.0 0.04487129319227577 0.036645546252618476 -0.03566557169502551 -0.0009799745575929495 -0.018285186164535398 0.0 0.0
0.0 0.05275683544411889 0.04337237178322267 -0.04236370430592896 -0.0010086674772936948 -0.01648028197990594 0.0 0.0
0.0 0.0602731264629195 0.0482389509946606 -0.04831175381231281 7.280281765214617e-05 1.4340091614162276e-14 0.0 0.0
0.0 0.05275683544411457 0.04337237178321386 -0.04236370430591929 -0.0010086674772945513 0.016480281979943695 0.0 0.0
0.0 0.04487129319226761 0.03664554625260691 -0.03566557169501417 -0.0009799745575926843 0.018285186164577503 0.0 0.0
0.0 0.03818900939858366 0.03082068373942162 -0.029911872017632492 -0.0009088117217890985 0.018204848495620825 0.0 0.0
0.0 0.03228350581608429 0.025717881496704953 -0.024859309978046213 -0.0008585715186587391 0.017113127680239624 0.0 0.0
0.0 0.02670760689033443 0.02114927456855459 -0.020333465190035 -0.0008158093785195718 0.015366916481783939 0.0 0.0
0.0 0.02169527837499695 0.0171147792684997 -0.01634423784914101 -0.0007705414193586985 0.013386335663265646 0.0 0.0
0.0 0.017293204443055103 0.013578662522671701 -0.012858007917112368 -0.0007206546055593357 0.011378660759974195 0.0 0.0
0.0 0.0134133335386218 0.010449445655917485 -0.00978536341613378 -0.0006640822397837145 0.009365303844526022 0.0 0.0
0.0 0.009895305552363398 0.00764233961183994 -0.007047404938771341 -0.0005949346730685944 0.007335770448782555 0.0 0.0
0.0 0.0066662357907167485 0.005115313084062694 -0.004603745172917187 -0.000511567911145504 0.005308646050194044 0.0 0.0
0.0 0.004019794843433758 0.0029362232783409943 -0.0025465288712482855 -0.0003896944070927094 0.003359271562052606 0.0 0.0
0.0 0.0018126357492856445 0.0012904605542095955 -0.0010650227268644498 -0.0002254378273451437 0.0017594381880135965 0.0 0.0
0.0 0.0005721881915033326 0.0003293695106531081 -0.00025998310918404373 -6.938640146906427e-05 0.0005950229294955042 0.0 0.0
0.0 4.901148688551607e-05 1.0904345232240642e-05 -7.3144118667856615e-06 -3.5899333654549307e-06 4.292737463950871e-05 0.0 0.0
0.0 -2.027326931595435e-05 -6.760713138881287e-06 5.5630200990425356e-06 1.1976930398387213e-06 -1.9654557969038525e-05 0.0 0.0
0.0 -4.164325861177369e-06 -1.270920891743728e-06 9.838009980248505e-07 2.8711989371888827e-07 -7.4605443999485284e-06 0.0 0.0
0.0 1.7354473943376732e-06 -1.5248319639165402e-08 1.001896199602408e-08 5.229357643142191e-09 -3.8766454588031413e-07 0.0 0.0
0.0 2.0131517348310093e-06 -1.6562323098297395e-09 1.0013320644699928e-08 -8.357088334869795e-09 -4.640533188949434e-07 0.0 0.0
0.0 2.754651460089261e-05 2.878430466772878e-06 2.9006687286093288e-05 -3.1885117752866056e-05 0.00014146693351726688 0.0 0.0
0.0 0.0010255952784368335 0.0005943309474780148 -0.0008653470650134979 0.00027101611753548266 0.0006484091485083443 0.0 0.0
0.0 0.00044290285783121227 0.00021780820618494572 -0.00031937743646965656 0.00010156923028471086 -0.0002927051599073279 0.0 0.0
0.0 -3.7003155686084146e-05 -2.1528764962029706e-05 3.394612776832831e-05 -1.2417362806298598e-05 1.5733091115837714e-05 0.0 0.0
0.0 3.7240572242644644e-07 1.6243489122067359e-09 -2.63724519646311e-09 1.0128962842574718e-09 8.089367289818382e-08 0.0 0.0
0.0 3.265706914529537e-07 -4.887550086487663e-10 -3.5261625632945867e-09 4.0149175719412165e-09 2.248211055994604e-07 0.0 0.0
0.0 -3.212687472879604e-06 -4.185806290498965e-07 3.288600493074518e-07 8.9720579742453e-08 5.760114462498308e-06 0.0 0.0
0.0 -1.0038361332184818e-05 -3.3856911054081452e-06 2.7799508537584265e-06 6.057402516496926e-07 2.1450980233538077e-05 0.0 0.0
0.0 2.824463666492213e-05 -2.4301247719352277e-06 2.1698684927112275e-06 2.60256279224009e-07 -2.7439702875465742e-05 0.0 0.0
0.0 0.00015564301573891683 2.079063215428088e-05 -1.757419061237896e-05 -3.2164415419019644e-06 -0.00023197430737006936 0.0 0.0
0.0 0.0005676386951262001 0.00020866546001285953 -0.00018288911749729986 -2.5776342515559235e-05 -0.0008172403328029694 0.0 0.0
0.0 0.0014749640678379254 0.0007560644036017383 -0.0006738779053192578 -8.218649828248137e-05 -0.0018554470932034 0.0 0.0
0.0 0.003023232148570245 0.0017139908389509667 -0.0015453666293431625 -0.00016862420960780272 -0.0032159367031788367 0.0 0.0
0.0 0.004646104460605169 0.0029246154495600864 -0.002673936661778885 -0.0002506787877812041 -0.004754154749574362 0.0 0.0
0.0 0.00659637821940102 0.004277951958682219 -0.0039520414396123655 -0.0003259105190698496 -0.006354365856929523 0.0 0.0
0.0 0.008808235172818209 0.005804581351232587 -0.005412938874624613 -0.00039164247660796765 -0.008014730311073937 0.0 0.0
0.0 0.011297525207410019 0.00757144836591185 -0.007119498832660168 -0.000451949533251681 -0.009734285866815295 0.0 0.0
0.0 0.014208312603346592 0.009688807626263885 -0.009177738837734225 -0.0005110687885296596 -0.011511575311698621 0.0 0.0
0.0 0.017715289823939447 0.012301357750160488 -0.011728500933675267 -0.000572856816485218 -0.013234075812695754 0.0 0.0
0.0 0.02188129150524016 0.015540673151950735 -0.014905221933638411 -0.0006354512183123196 -0.01446539549142424 0.0 0.0
0.0 0.02666311757069389 0.01962838866756135 -0.018917980599084103 -0.000710408068477267 -0.014618138082753602 0.0 0.0
0.0 0.03295933109922646 0.025302542267625742 -0.024456420668362056 -0.0008461215992636529 -0.01386639963065921 0.0 0.0
0.0 0.04253740359537103 0.030444984944900763 -0.03085792450983582 0.000412939564935063 1.1600963245594897e-14 0.0 0.0
0.0 0.032959331099228384 0.025302542267621138 -0.0244564206683571 -0.000846121599264069 0.013866399630691494 0.0 0.0
0.0 0.02666311757068973 0.01962838866755484 -0.018917980599077455 -0.0007104080684773961 0.014618138082783436 0.0 0.0
0.0 0.0218812915052297 0.015540673151942672 -0.014905221933630452 -0.0006354512183122179 0.01446539549143687 0.0 0.0
0.0 0.017715289823923522 0.012301357750151141 -0.011728500933666272 -0.0005728568164848869 0.013234075812687957 0.0 0.0
0.0 0.014208312603332126 0.009688807626254466 -0.00917773883772437 -0.0005110687885300951 0.011511575311686218 0.0 0.0
0.0 0.011297525207399047 0.007571448365903548 -0.007119498832651841 -0.0004519495332517014 0.009734285866807756 0.0 0.0
0.0 0.008808235172811 0.005804581351228173 -0.005412938874620791 -0.0003916424766073865 0.008014730311069779 0.0 0.0
0.0 0.006596378219389892 0.004277951958675365 -0.003952041439606073 -0.0003259105190692915 0.006354365856920479 0.0 0.0
0.0 0.004646104460594576 0.0029246154495539273 -0.0026739366617730908 -0.0002506787877808363 0.004754154749563793 0.0 0.0
0.0 0.0030232321485584813 0.0017139908389437052 -0.0015453666293364146 -0.00016862420960728897 0.003215936703166849 0.0 0.0
0.0 0.0014749640678319892 0.0007560644035986712 -0.00067387790531646 -8.218649828221147e-05 0.0018554470931979037 0.0 0.0
0.0 0.0005676386951233979 0.00020866546001154643 -0.0001828891174961198 -2.5776342515426163e-05 0.000817240332799089 0.0 0.0
0.0 0.00015564301573735433 2.0790632154006983e-05 -1.7574190612134188e-05 -3.216441541872896e-06 0.00023197430736818795 0.0 0.0
0.0 2.8244636663955225e-05 -2.430124771867232e-06 2.169868492644389e-06 2.6025627922284386e-07 2.743970287546077e-05 0.0 0.0
0.0 -1.0038361333219523e-05 -3.385691105360441e-06 2.779950853722252e-06 6.057402516381883e-07 -2.1450980233071548e-05 0.0 0.0
0.0 -3.212687473086327e-06 -4.185806290390291e-07 3.2886004930619395e-07 8.97205797328319e-08 -5.760114462058101e-06 0.0 0.0
0.0 3.2657069119157515e-07 -4.887550233419813e-10 -3.5261625479271964e-09 4.0149175712699974e-09 -2.2482110514783296e-07 0.0 0.0
0.0 3.724057224003002e-07 1.6243489200738952e-09 -2.637245212751225e-09 1.0128962926733444e-09 -8.089367242014664e-08 0.0 0.0
0.0 -3.7003155686746675e-05 -2.1528764961894174e-05 3.394612776808494e-05 -1.241736280619073e-05 -1.5733091115972145e-05 0.0 0.0
0.0 0.0004429028578272099 0.0002178082061831375 -0.0003193774364670342 0.00010156923028389627 0.00029270515990516684 0.0 0.0
0.0 6.387515877982874e-05 3.7334821966469266e-05 -5.63608695989254e-05 1.9026047632456126e-05 -6.035169762486447e-05 0.0 0.0
0.0 -1.123277903077243e-05 -6.515086411235233e-06 9.170308175666682e-06 -2.6552217644314436e-06 1.2929146044745436e-05 0.0 0.0
0.0 3.749476580343554e-06 5.1461624092896724e-08 -2.6160269155062322e-08 -2.5301354937839802e-08 1.5819341057599503e-06 0.0 0.0
0.0 1.0722012354159775e-06 4.8130030844652255e-09 -8.28840315974616e-09 3.475400075284415e-09 2.441305047291278e-07 0.0 0.0
0.0 -1.8641393739220615e-06 -9.788290232419171e-09 1.3747423859094349e-08 -3.959133626675171e-09 3.3733226466057282e-06 0.0 0.0
0.0 -3.0319625118767058e-06 -5.305103828916519e-07 5.569845546200852e-07 -2.647417172843335e-08 1.3239882333312258e-05 0.0 0.0
0.0 3.732615980852407e-05 -1.1015597771015178e-06 1.0780312038596439e-06 2.3528573241863096e-08 -4.074930008070197e-05 0.0 0.0
0.0 0.00013782685440731298 -8.51400318654362e-07 8.156804191330762e-07 3.571989952131047e-08 -0.00023504315038228133 0.0 0.0
0.0 0.00034288467265530586 -1.131863484235428e-07 1.036258174561409e-07 9.56053096740708e-09 -0.000512513743994911 0.0 0.0
0.0 0.0005597477962715376 7.026111528351682e-08 -3.2483711793613966e-08 -3.777740349002991e-08 -0.0010162704598507602 0.0 0.0
0.0 0.001003704488781399 2.1565320719094377e-07 -5.011276413738032e-07 2.854744341829543e-07 -0.0018090008359410124 0.0 0.0
0.0 0.0014814348250275296 -3.3412823766258194e-06 4.908559532345479e-06 -1.5672771557192534e-06 -0.0030280738214599387 0.0 0.0
0.0 0.0023556133521806266 -1.317202794445853e-05 1.6331228310390006e-05 -3.1592003659305543e-06 -0.004493749255092632 0.0 0.0
0.0 0.0034245012355109345 -2.6513892569472036e-05 2.9665444292953022e-05 -3.1515517234798746e-06 -0.006081339942530543 0.0 0.0
0.0 0.0046526665532984094 3.1262071872770972e-06 -8.10891065911257e-06 4.982703471836556e-06 -0.007788721389487985 0.0 0.0
0.0 0.006006182520153355 0.00019343213818741399 -0.00022064321590646314 2.721107771905021e-05 -0.009624873736929563 0.0 0.0
0.0 0.007541824523627486 0.0007687267243601356 -0.0008398214738631975 7.109474950306175e-05 -0.011535628848128192 0.0 0.0
0.0 0.00920117402937849 0.0019424422706131408 -0.002129501958029036 0.00018705968741589027 -0.013357403677990718 0.0 0.0
0.0 0.011557994395782988 0.0034400427445857567 -0.0038006231118076013 0.00036058036722184526 -0.01469527906527333 0.0 0.0
0.0 0.01691798194262537 0.0071291285652867785 -0.006919663476840089 -0.00020946508844668567 -0.014867276685865733 0.0 0.0
0.0 0.02979543101987342 0.01290282168461746 -0.013845861803697169 0.0009430401190796983 9.742207041085749e-15 0.0 0.0
0.0 0.016917981942630722 0.007129128565285897 -0.006919663476838502 -0.00020946508844738073 0.014867276685888263 0.0 0.0
0.0 0.0115579943957793 0.003440042744584714 -0.0038006231118062105 0.0003605803672214933 0.014695279065277926 0.0 0.0
0.0 0.009201174029368804 0.001942442270612012 -0.00212950195802835 0.00018705968741633894 0.013357403677987854 0.0 0.0
0.0 0.007541824523616578 0.0007687267243611694 -0.0008398214738646527 7.109474950348495e-05 0.011535628848117542 0.0 0.0
0.0 0.006006182520148585 0.00019343213818968984 -0.0002206432159091635 2.7211077719475245e-05 0.009624873736919694 0.0 0.0
0.0 0.004652666553290276 3.1262071879926707e-06 -8.108910659389583e-06 4.982703471395557e-06 0.007788721389478949 0.0 0.0
0.0 0.0034245012355047415 -2.6513892567082997e-05 2.9665444290446292e-05 -3.151551723361737e-06 0.006081339942522291 0.0 0.0
0.0 0.0023556133521709884 -1.3172027942790919e-05 1.6331228308646582e-05 -3.1592003658562187e-06 0.004493749255079184 0.0 0.0
0.0 0.0014814348250213709 -3.3412823763536304e-06 4.908559532107931e-06 -1.5672771557542596e-06 0.0030280738214509355 0.0 0.0
0.0 0.001003704488775629 2.156532072062039e-07 -5.011276414281624e-07 2.8547443422176876e-07 0.0018090008359329041 0.0 0.0
0.0 0.0005597477962720912 7.0261115371449e-08 -3.248371183691768e-08 -3.7777403534372083e-08 0.001016270459850511 0.0 0.0
0.0 0.0003428846726532649 -1.1318634836060825e-07 1.0362581741077043e-07 9.560530949762431e-09 0.0005125137439918076 0.0 0.0
0.0 0.00013782685440646576 -8.514003186265813e-07 8.156804191332136e-07 3.5719899493367266e-08 0.00023504315038078697 0.0 0.0
0.0 3.7326159807864954e-05 -1.1015597771419448e-06 1.0780312039046404e-06 2.3528573237322708e-08 4.074930008124516e-05 0.0 0.0
0.0 -3.0319625129978865e-06 -5.305103828955445e-07 5.569845546229072e-07 -2.6474171727369652e-08 -1.3239882333018995e-05 0.0 0.0
0.0 -1.8641393738409107e-06 -9.78829027604301e-09 1.3747423899349854e-08 -3.959133623303364e-09 -3.373322645529267e-06 0.0 0.0
0.0 1.0722012354107475e-06 4.813003021061728e-09 -8.288403104629309e-09 3.4754000835664456e-09 -2.4413050383320993e-07 0.0 0.0
0.0 3.7494765796042357e-06 5.146162411360759e-08 -2.6160269171621144e-08 -2.5301354941976496e-08 -1.581934106084779e-06 0.0 0.0
0.0 -1.1232779031459725e-05 -6.515086411170855e-06 9.17030817558532e-06 -2.6552217644144805e-06 -1.2929146044484524e-05 0.0 0.0
0.0 6.387515877880057e-05 3.7334821966381846e-05 -5.636086959878484e-05 1.9026047632403122e-05 6.03516976249224e-05 0.0 0.0
0.0 7.590358110151575e-07 -1.616682502176896e-06 2.3111198513097264e-06 -6.944373491328469e-07 3.4972496699811943e-06 0.0 0.0
0.0 -3.9544371141457786e-07 2.391980485391616e-07 -3.2640766486105364e-07 8.720961632189472e-08 -8.527097482086902e-08 0.0 0.0
0.0 2.814219579613015e-07 4.391615119691789e-08 -6.163178460956763e-08 1.771563341264941e-08 -5.477594821920673e-07 0.0 0.0
0.0 1.4764323078194563e-06 5.1151994434709675e-08 -5.080336201209197e-08 -3.4863242261925385e-10 -3.242757819936894e-07 0.0 0.0
0.0 -2.304599118144674e-07 -8.063357475854694e-08 7.177215349341273e-08 8.861421265130335e-09 -6.617367917329222e-07 0.0 0.0
0.0 -3.8113058873416873e-06 3.0166250260584263e-07 -4.966203787416086e-08 -2.520004647316399e-07 2.041042025046371e-06 0.0 0.0
0.0 4.8994799712842496e-05 1.1046877922194454e-06 -6.419682227275406e-07 -4.627195694919769e-07 -2.9409922455244845e-05 0.0 0.0
0.0 0.00016615619360090434 -2.4017753996554283e-05 2.0514841556985957e-05 3.502912439568315e-06 -0.0002399259968515941 0.0 0.0
0.0 0.0005696737774849824 -0.0002097975534434743 0.000183817050207245 2.5980503236229413e-05 -0.0008218921993887758 0.0 0.0
0.0 0.0014726756158969226 -0.0007548485410779698 0.000672765542238247 8.20829988397234e-05 -0.0018546618933473617 0.0 0.0
0.0 0.0030327454962626476 -0.0017127657183869027 0.0015446079933348663 0.00016815772505203528 -0.0032119207923506587 0.0 0.0
0.0 0.004674070560689971 -0.002940428444154158 0.0026872319706583076 0.00025319647349584986 -0.004756849274877238 0.0 0.0
0.0 0.006647041843119765 -0.004322373919217065 0.003991945970836325 0.0003304279483807421 -0.006357838559545818 0.0 0.0
0.0 0.008876370781521556 -0.005868986010461967 0.005475874794067329 0.00039311121639463515 -0.00801253185406913 0.0 0.0
0.0 0.011234572343668403 -0.0075396850188082015 0.007105581985037834 0.0004341030337703711 -0.009741598576239435 0.0 0.0
0.0 0.013623861228426874 -0.009174242392879478 0.008730136683120322 0.0004441057097591554 -0.011611517379405844 0.0 0.0
0.0 0.01570123182633006 -0.01045913413947631 0.010044123301743806 0.00041501083773250977 -0.013673841746783244 0.0 0.0
0.0 0.017263057405478805 -0.010950511389887552 0.010620244078197583 0.0003302673116899737 -0.015980750224186473 0.0 0.0
0.0 0.01741929452930171 -0.010120646829918041 0.009973911524079872 0.00014673530583816723 -0.018489775507667148 0.0 0.0
0.0 0.01423972762346205 -0.007310105724343126 0.007565546345533583 -0.0002554406211904538 -0.02030863853853849 0.0 0.0
0.0 0.02862680033086309 -0.004003438167045792 0.0018200068585755725 0.002183431308470215 1.3717325886286602e-14 0.0 0.0
0.0 0.014239727623467712 -0.007310105724343714 0.0075655463455332975 -0.0002554406211895842 0.02030863853855225 0.0 0.0
0.0 0.017419294529299335 -0.01012064682991546 0.009973911524076855 0.00014673530583860807 0.01848977550767901 0.0 0.0
0.0 0.01726305740546615 -0.010950511389878409 0.010620244078189085 0.00033026731168931604 0.015980750224186484 0.0 0.0
0.0 0.015701231826310905 -0.010459134139462263 0.010044123301729683 0.00041501083773258626 0.013673841746773595 0.0 0.0
0.0 0.013623861228411575 -0.009174242392868242 0.008730136683109378 0.00044410570975886293 0.011611517379394887 0.0 0.0
0.0 0.011234572343652608 -0.007539685018795816 0.00710558198502608 0.00043410303376973454 0.009741598576227042 0.0 0.0
0.0 0.008876370781507895 -0.005868986010451171 0.00547587479405714 0.0003931112163940313 0.008012531854060376 0.0 0.0
0.0 0.006647041843102668 -0.00432237391920452 0.003991945970824351 0.00033042794838016737 0.006357838559534384 0.0 0.0
0.0 0.004674070560674287 -0.002940428444143238 0.002687231970648237 0.00025319647349499806 0.004756849274863882 0.0 0.0
0.0 0.003032745496245167 -0.001712765718375496 0.0015446079933242856 0.00016815772505120988 0.0032119207923353016 0.0 0.0
0.0 0.0014726756158885174 -0.0007548485410733588 0.0006727655422340134 8.208299883934617e-05 0.0018546618933408324 0.0 0.0
0.0 0.0005696737774820547 -0.00020979755344200778 0.00018381705020598137 2.5980503236026274e-05 0.0008218921993858821 0.0 0.0
0.0 0.00016615619359910966 -2.40177539962668e-05 2.051484155675212e-05 3.502912439514723e-06 0.00023992599684970471 0.0 0.0
0.0 4.899479971168961e-05 1.104687792074945e-06 -6.419682226166672e-07 -4.627195694582812e-07 2.9409922455413937e-05 0.0 0.0
0.0 -3.811305888200139e-06 3.0166250248979885e-07 -4.966203777788495e-08 -2.520004647119143e-07 -2.0410420241707436e-06 0.0 0.0
0.0 -2.3045991216925795e-07 -8.063357486532189e-08 7.177215358306136e-08 8.861421282251582e-09 6.617367926394119e-07 0.0 0.0
0.0 1.4764323079333858e-06 5.1151994335986417e-08 -5.080336192991607e-08 -3.486324060693424e-10 3.2427578292303535e-07 0.0 0.0
0.0 2.814219576386948e-07 4.391615117618036e-08 -6.163178460443451e-08 1.7715633428249525e-08 5.477594829512245e-07 0.0 0.0
0.0 -3.9544371128419365e-07 2.3919804847425204e-07 -3.264076647812587e-07 8.720961630700562e-08 8.527097481571357e-08 0.0 0.0
0.0 7.590358096114664e-07 -1.6166825016825625e-06 2.311119850561163e-06 -6.944373488785877e-07 -3.4972496689858323e-06 0.0 0.0
0.0 -5.791226492451871e-07 3.285152939261595e-08 -4.863961923435168e-08 1.5788089841737027e-08 -8.324711323925468e-08 0.0 0.0
0.0 1.3205914399179684e-06 3.3962927318872486e-11 1.9478865530404026e-08 -1.9512828457728934e-08 2.188385323593057e-07 0.0 0.0
0.0 -6.510680521429887e-08 1.467840992181344e-07 -1.1493690084195154e-07 -3.184719837619157e-08 1.203779404262844e-06 0.0 0.0
0.0 1.0934312179417698e-06 -3.5206247725301136e-07 2.779136131810297e-07 7.414886407196978e-08 -2.683679085269913e-06 0.0 0.0
0.0 2.0866943945167406e-06 2.446181385924235e-06 -2.0251468838590047e-06 -4.210345020651699e-07 1.1407015730982317e-05 0.0 0.0
0.0 8.945370309484557e-06 6.505942404833035e-06 -5.098352825114171e-06 -1.4075895797188583e-06 1.7891939880938874e-05 0.0 0.0
0.0 6.0100063367174725e-05 -2.6840563802657447e-05 2.0652562422645353e-05 6.188001380012145e-06 -9.744063861271608e-05 0.0 0.0
0.0 0.0005888351806557042 -0.0003365657163050119 0.00026629292526593294 7.027279103907885e-05 -0.0006122465180363926 0.0 0.0
0.0 0.0018122894965154086 -0.0012898694073115167 0.0010643346514680884 0.00022553475584342753 -0.0017619299055317153 0.0 0.0
0.0 0.004015922574179873 -0.0029343015595304743 0.0025446099359807328 0.0003896916235497407 -0.003355924976620319 0.0 0.0
0.0 0.006668688620945136 -0.005118085717285266 0.004606399632694959 0.0005116860845903082 -0.005307954151215099 0.0 0.0
0.0 0.009913271649745432 -0.007657470462662682 0.0070618900771816555 0.0005955803854810287 -0.007337129126499302 0.0 0.0
0.0 0.013454824942749837 -0.010488820369186736 0.009823785079719845 0.0006650352894668891 -0.009346035969900704 0.0 0.0
0.0 0.01734085327618766 -0.013635263347537011 0.012916069498632231 0.0007191938489047838 -0.011314290242845111 0.0 0.0
0.0 0.021629060235633272 -0.017081674142269666 0.016324192083667474 0.000757482058602179 -0.01332762136634328 0.0 0.0
0.0 0.02615622458399456 -0.02066821850879871 0.019893574164931496 0.0007746443438672091 -0.015588679113053098 0.0 0.0
0.0 0.030483401791957007 -0.024027078605588063 0.023256694324189774 0.0007703842813982863 -0.018321038505343046 0.0 0.0
0.0 0.03384546073408408 -0.026602259207609894 0.025854310234495175 0.0007479489731147225 -0.021635974444422404 0.0 0.0
0.0 0.03559539669215143 -0.02738082059895926 0.026715211914794756 0.000665608684164513 -0.024889569069623488 0.0 0.0
0.0 0.033042153902845935 -0.024273836432199214 0.02376028504707631 0.0005135513851228833 -0.0255721896674004 0.0 0.0
0.0 0.03518546749253166 -0.01938354644187172 0.01640255660951801 0.002980989832353689 1.4765098865776594e-14 0.0 0.0
0.0 0.03304215390285156 -0.024273836432196334 0.02376028504707363 0.0005135513851227104 0.02557218966743334 0.0 0.0
0.0 0.03559539669214649 -0.027380820598950077 0.026715211914785573 0.000665608684164473 0.024889569069653315 0.0 0.0
0.0 0.03384546073406516 -0.026602259207592887 0.025854310234478532 0.0007479489731143556 0.021635974444432878 0.0 0.0
0.0 0.030483401791930726 -0.024027078605566694 0.023256694324168485 0.0007703842813982 0.018321038505336774 0.0 0.0
0.0 0.026156224583964077 -0.02066821850877439 0.01989357416490693 0.0007746443438674562 0.015588679113037261 0.0 0.0
0.0 0.02162906023560921 -0.01708167414224975 0.016324192083648565 0.0007574820586011844 0.013327621366331373 0.0 0.0
0.0 0.017340853276163762 -0.013635263347516875 0.012916069498612074 0.0007191938489047967 0.01131429024283292 0.0 0.0
0.0 0.013454824942722375 -0.01048882036916477 0.009823785079697922 0.0006650352894668392 0.009346035969886809 0.0 0.0
0.0 0.009913271649718544 -0.0076574704626421325 0.007061890077161739 0.0005955803854803992 0.007337129126480619 0.0 0.0
0.0 0.006668688620920717 -0.005118085717266366 0.004606399632676778 0.000511686084589587 0.005307954151196276 0.0 0.0
0.0 0.004015922574163048 -0.002934301559517939 0.002544609935969047 0.00038969162354889227 0.0033559249766082783 0.0 0.0
0.0 0.0018122894965059853 -0.001289869407304658 0.0010643346514621998 0.00022553475584245864 0.0017619299055247678 0.0 0.0
0.0 0.0005888351806505061 -0.0003365657163018217 0.0002662929252634127 7.027279103840849e-05 0.0006122465180312688 0.0 0.0
0.0 6.0100063365441905e-05 -2.6840563802477754e-05 2.065256242251143e-05 6.188001379966329e-06 9.744063861239524e-05 0.0 0.0
0.0 8.945370308768836e-06 6.50594240456815e-06 -5.098352824904973e-06 -1.4075895796632724e-06 -1.7891939880246543e-05 0.0 0.0
0.0 2.086694393669012e-06 2.4461813857558754e-06 -2.0251468837187513e-06 -4.210345020371155e-07 -1.1407015730188798e-05 0.0 0.0
0.0 1.093431217645673e-06 -3.5206247741176514e-07 2.779136133121938e-07 7.414886409957724e-08 2.6836790863245296e-06 0.0 0.0
0.0 -6.510680619239955e-08 1.467840992486704e-07 -1.1493690086929516e-07 -3.184719837937047e-08 -1.2037794044685209e-06 0.0 0.0
0.0 1.3205914395446471e-06 3.3962929447268586e-11 1.9478865526904142e-08 -1.9512828456352836e-08 -2.188385323618742e-07 0.0 0.0
0.0 -5.791226488939735e-07 3.285152937202806e-08 -4.863961920387383e-08 1.57880898318369e-08 8.324711318699175e-08 0.0 0.0
0.0 0.0 0.0 0.0 0.0 0.0 0.0 0.0
0.0 -4.597287996738521e-07 -6.853202956288844e-09 2.886835497529438e-09 3.966367458759904e-09 -9.336839224249032e-08 0.0 0.0
0.0 1.3334771039478492e-06 1.2318369974235865e-07 -9.107736910528251e-08 -3.2106330637070886e-08 7.958258324600605e-07 0.0 0.0
0.0 9.622723535722623e-07 9.654182812847911e-07 -8.040236852911552e-07 -1.613945959936361e-07 3.160980228352016e-06 0.0 0.0
0.0 1.3940032976586644e-06 2.0806613440651523e-06 -1.6444128676994869e-06 -4.3624847636570217e-07 3.7251106201282722e-06 0.0 0.0
0.0 -2.087959137783218e-06 -5.655304060783331e-06 4.175282914220382e-06 1.480021146562992e-06 -2.0578034926522678e-05 0.0 0.0
0.0 0.0003067396728048006 -0.0001873829168651695 0.00014248581769197292 4.489709917319652e-05 -0.0002461434952887439 0.0 0.0
0.0 0.0013133905125358644 -0.0010509086612807883 0.0008367207507779223 0.0002141879105028645 -0.0011208473107301516 0.0 0.0
0.0 0.003547344150461581 -0.002837219060086756 0.0024067220178734987 0.00043049704221325607 -0.0026118471863024037 0.0 0.0
0.0 0.007096817010899325 -0.00551051564519388 0.0049250650718291305 0.0005854505733647518 -0.004679656947644895 0.0 0.0
0.0 0.01096512906950195 -0.008865464965797078 0.00818388547775635 0.0006815794880407186 -0.007051456223409577 0.0 0.0
0.0 0.015562011536418207 -0.012698609309433114 0.011945458771348524 0.0007531505380845827 -0.009405631553369133 0.0 0.0
0.0 0.020729573678055585 -0.016964671397747256 0.01614550866742042 0.0008191627303268472 -0.011659984161765741 0.0 0.0
0.0 0.026398562665853924 -0.0217147511140683 0.02083622069089726 0.0008785304231710169 -0.013855536396480825 0.0 0.0
0.0 0.0327363387812979 -0.026963103243625386 0.026038020820606023 0.0009250824230193837 -0.016149569210354143 0.0 0.0
0.0 0.039402313710982455 -0.03256178348623502 0.03161226769154937 0.0009495157946856278 -0.01885700380740705 0.0 0.0
0.0 0.04631117191115515 -0.038071491972653124 0.03712436849387907 0.0009471234787740452 -0.02241263583600102 0.0 0.0
0.0 0.05207760280009176 -0.04263077292958262 0.04173000153738938 0.0009007713921932179 -0.02685438420249205 0.0 0.0
0.0 0.05508624055351632 -0.044657016097633284 0.043857051568713196 0.0007999645289200443 -0.030964593507418793 0.0 0.0
0.0 0.05176102692157375 -0.04124324422504625 0.04068290404190792 0.0005603401831383236 -0.03223559301028471 0.0 0.0
0.0 0.04909667457996732 -0.03455809160284581 0.030845130772407584 0.0037129608304382264 1.6735744734486246e-14 0.0 0.0
0.0 0.05176102692157976 -0.04124324422504309 0.040682904041905554 0.0005603401831375475 0.03223559301032716 0.0 0.0
0.0 0.0550862405535093 -0.04465701609762111 0.043857051568701365 0.0007999645289197125 0.030964593507458397 0.0 0.0
0.0 0.05207760280006799 -0.04263077292955981 0.0417300015373672 0.0009007713921926142 0.02685438420251057 0.0 0.0
0.0 0.046311171911123696 -0.03807149197262635 0.03712436849385259 0.0009471234787737906 0.022412635835998732 0.0 0.0
0.0 0.03940231371094158 -0.03256178348620083 0.031612267691515386 0.0009495157946854139 0.018857003807391512 0.0 0.0
0.0 0.03273633878126608 -0.026963103243598907 0.02603802082058007 0.000925082423018873 0.01614956921034117 0.0 0.0
0.0 0.026398562665818984 -0.021714751114038665 0.020836220690868063 0.0008785304231705806 0.013855536396466599 0.0 0.0
0.0 0.020729573678018018 -0.016964671397716267 0.016145508667389542 0.0008191627303267212 0.01165998416175015 0.0 0.0
0.0 0.015562011536383225 -0.012698609309404873 0.01194545877132097 0.0007531505380838971 0.009405631553349607 0.0 0.0
0.0 0.010965129069469568 -0.008865464965771352 0.008183885477730865 0.0006815794880404786 0.0070514562233886715 0.0 0.0
0.0 0.007096817010875105 -0.0055105156451747215 0.004925065071810814 0.000585450573363908 0.00467965694762872 0.0 0.0
0.0 0.003547344150444724 -0.0028372190600736867 0.002406722017861698 0.0004304970422119852 0.0026118471862919997 0.0 0.0
0.0 0.0013133905125269326 -0.0010509086612739632 0.0008367207507722965 0.0002141879105016677 0.0011208473107237817 0.0 0.0
0.0 0.00030673967279999296 -0.00018738291686239036 0.00014248581768978248 4.489709917260791e-05 0.00024614349528490195 0.0 0.0
0.0 -2.087959138500738e-06 -5.655304061085011e-06 4.175282914465084e-06 1.4800211466199505e-06 2.0578034927289395e-05 0.0 0.0
0.0 1.3940032972251516e-06 2.080661343862816e-06 -1.644412867534003e-06 -4.3624847632881616e-07 -3.725110619419412e-06 0.0 0.0
0.0 9.622723526573898e-07 9.654182812084343e-07 -8.040236852321007e-07 -1.6139459597633008e-07 -3.1609802279267966e-06 0.0 0.0
0.0 1.3334771034153215e-06 1.2318369974445106e-07 -9.107736910874671e-08 -3.2106330635710154e-08 -7.958258324637105e-07 0.0 0.0
0.0 -4.59728799576089e-07 -6.853202954632321e-09 2.8868354967489913e-09 3.9663674578853385e-09 9.336839222251318e-08 0.0 0.0
0.0 0.0 0.0 0.0 0.0 0.0 0.0 0.0
0.0 0.0 0.0 0.0 0.0 0.0 0.0 0.0
0.0 1.5308091780677812e-08 3.0663233307284843e-10 -2.1432744662428963e-10 -9.23048864485231e-11 3.0115191088803258e-09 0.0 0.0
0.0 -4.518441073918445e-07 7.123410677956898e-09 -5.874913631855178e-09 -1.2484970461034696e-09 2.477187800147875e-08 0.0 0.0
0.0 -1.9786015008400893e-06 1.309407112329286e-07 -1.0021552082279856e-07 -3.072519041011988e-08 3.203971256831426e-07 0.0 0.0
0.0 -3.205627998203174e-06 8.21269816760763e-06 -6.660458840146799e-06 -1.5522393274608221e-06 1.698929152758069e-05 0.0 0.0
0.0 8.339760316103319e-05 -3.611801133126026e-05 2.6118219504712858e-05 9.999791826547305e-06 -3.16271800457206e-05 0.0 0.0
0.0 0.000678694869896003 -0.0005550315664671452 0.00042641191719525493 0.00012861964927189052 -0.0004799515136916418 0.0 0.0
0.0 0.002403408032036531 -0.0020269059178985023 0.0016579391362590674 0.0003689667816394346 -0.0015081630806012935 0.0 0.0
0.0 0.005854753294672672 -0.004645555751595766 0.004062703749165915 0.0005828520024298522 -0.0032588061762737733 0.0 0.0
0.0 0.009833983644233062 -0.008329907899029414 0.007618216608913052 0.000711691290116368 -0.00560073747241406 0.0 0.0
0.0 0.015299432922472322 -0.012790243980577487 0.011998271396025738 0.0007919725845517472 -0.008096552134324425 0.0 0.0
0.0 0.02138058084231469 -0.0178904565581539 0.01702949397130059 0.0008609625868533125 -0.010558625905386183 0.0 0.0
0.0 0.02812595048008394 -0.02359191342311491 0.022660304917533944 0.0009316085055809778 -0.012917093614424183 0.0 0.0
0.0 0.035630543664159374 -0.02995150060447002 0.028951087593308188 0.00100041301116181 -0.015227787760837294 0.0 0.0
0.0 0.0438970901857459 -0.03701693181744607 0.03595859422763468 0.0010583375898113477 -0.017645947977203823 0.0 0.0
0.0 0.05315619947601766 -0.04465978001464028 0.04356876402850305 0.00109101598613726 -0.02057628714906046 0.0 0.0
0.0 0.06198632044168588 -0.05234154535796361 0.051259870177558176 0.00108167518040535 -0.024554845474651917 0.0 0.0
0.0 0.07017276995239662 -0.05881600095552459 0.05780554981261295 0.0010104511429116837 -0.029607846921184153 0.0 0.0
0.0 0.07452658950314713 -0.06185141046089757 0.060995632273946554 0.0008557781869510088 -0.03452296517681745 0.0 0.0
0.0 0.07033521947476926 -0.0577183087111847 0.057158848387362744 0.0005594603238219686 -0.036541404564661276 0.0 0.0
0.0 0.06433029276480759 -0.04940679575525874 0.04506935337469792 0.004337442380560793 1.8365517440166457e-14 0.0 0.0
0.0 0.07033521947476999 -0.0577183087111781 0.057158848387356555 0.0005594603238215345 0.036541404564705185 0.0 0.0
0.0 0.07452658950313427 -0.06185141046088085 0.06099563227393008 0.0008557781869507282 0.0345229651768608 0.0 0.0
0.0 0.07017276995236482 -0.05881600095549512 0.057805549812583235 0.0010104511429117856 0.029607846921206445 0.0 0.0
0.0 0.06198632044164452 -0.05234154535792775 0.05125987017752256 0.0010816751804051993 0.024554845474651147 0.0 0.0
0.0 0.05315619947597197 -0.04465978001460121 0.04356876402846456 0.0010910159861366123 0.02057628714904833 0.0 0.0
0.0 0.043897090185698893 -0.03701693181740623 0.03595859422759482 0.0010583375898114073 0.017645947977188135 0.0 0.0
0.0 0.03563054366411495 -0.029951500604431566 0.028951087593270614 0.001000413011160949 0.015227787760823699 0.0 0.0
0.0 0.028125950480038183 -0.023591913423076448 0.022660304917495325 0.0009316085055811154 0.012917093614408973 0.0 0.0
0.0 0.021380580842272554 -0.017890456558118578 0.01702949397126579 0.0008609625868527854 0.010558625905366678 0.0 0.0
0.0 0.01529943292243318 -0.012790243980545069 0.011998271395993585 0.0007919725845514949 0.008096552134301811 0.0 0.0
0.0 0.009833983644201766 -0.008329907899003225 0.00761821660888745 0.0007116912901157799 0.0056007374723955365 0.0 0.0
0.0 0.005854753294650052 -0.004645555751578017 0.004062703749149233 0.0005828520024287868 0.003258806176262051 0.0 0.0
0.0 0.002403408032021783 -0.0020269059178869265 0.0016579391362488843 0.0003689667816380428 0.0015081630805926101 0.0 0.0
0.0 0.000678694869889921 -0.0005550315664628988 0.00042641191719203046 0.00012861964927086866 0.0004799515136884792 0.0 0.0
0.0 8.339760315911109e-05 -3.6118011330573675e-05 2.6118219504193735e-05 9.99979182637991e-06 3.162718004511976e-05 0.0 0.0
0.0 -3.2056279985174338e-06 8.212698167021244e-06 -6.660458839675193e-06 -1.5522393273460292e-06 -1.6989291526297202e-05 0.0 0.0
0.0 -1.978601501237418e-06 1.3094071113289218e-07 -1.0021552074409575e-07 -3.072519038878024e-08 -3.203971251883524e-07 0.0 0.0
0.0 -4.5184410746285117e-07 7.123410713623118e-09 -5.874913661088701e-09 -1.2484970525341496e-09 -2.4771878161948487e-08 0.0 0.0
0.0 1.5308091766584117e-08 3.0663233278746693e-10 -2.1432744642515877e-10 -9.23048863622756e-11 -3.0115191060776662e-09 0.0 0.0
0.0 0.0 0.0 0.0 0.0 0.0 0.0 0.0
0.0 0.0 0.0 0.0 0.0 0.0 0.0 0.0
0.0 0.0 0.0 0.0 0.0 0.0 0.0 0.0
0.0 -3.008317283811859e-07 -1.6894082401111415e-08 1.3667650964936457e-08 3.226431436173586e-09 -5.3084951058647605e-08 0.0 0.0
0.0 -5.494016252062257e-07 8.854884678545076e-07 -7.133517196931701e-07 -1.7213674816131236e-07 2.002069974436363e-06 0.0 0.0
0.0 -1.254351082335445e-05 1.7336632770282127e-06 -1.868511571089847e-06 1.348482940616276e-07 4.675949759428191e-06 0.0 0.0
0.0 0.0002369921645854624 -0.00015417605156600332 0.0001139551052175947 4.022094634840871e-05 -9.210343367195903e-05 0.0 0.0
0.0 0.0012572930580329405 -0.0010869298307041501 0.0008504114365169946 0.00023651839418715488 -0.0006249968382226546 0.0 0.0
0.0 0.003957263135853587 -0.0031991111849799837 0.0026944046386757963 0.0005047065463041877 -0.0017534095088557286 0.0 0.0
0.0 0.007612851083454001 -0.006663465332319691 0.005968274809888266 0.0006951905224314251 -0.003652386791408297 0.0 0.0
0.0 0.013170109407018864 -0.01125500512946975 0.010454105716232065 0.0008008994132376877 -0.005955251033407936 0.0 0.0
0.0 0.01971972456269281 -0.01680466405181073 0.01592753841218965 0.0008771256396210757 -0.00839741356891019 0.0 0.0
0.0 0.027220071882661664 -0.023172920968272406 0.022222659656405214 0.0009502613118672102 -0.010810476855520865 0.0 0.0
0.0 0.03561461652224173 -0.03031588700876848 0.0292884072415349 0.0010274797672335564 -0.013139812167183023 0.0 0.0
0.0 0.04503621075711246 -0.0382870385678929 0.037182413488534974 0.0011046250793579713 -0.015442244390614842 0.0 0.0
0.0 0.05534574106943116 -0.04716190204038371 0.04598714051616948 0.0011747615242142025 -0.01784628250303495 0.0 0.0
0.0 0.06650168348545948 -0.05683090374391693 0.05561429496432206 0.0012166087795948983 -0.02067531318872704 0.0 0.0
0.0 0.07833248334684231 -0.06663347923335762 0.0654351932974876 0.0011982859358699838 -0.02451450059428062 0.0 0.0
0.0 0.08826733156987157 -0.07495624378736095 0.07386293749124971 0.0010933062961111168 -0.029674538363770125 0.0 0.0
0.0 0.09322003300586404 -0.07887700191967326 0.07799138190741366 0.0008856200122595568 -0.0352529804771829 0.0 0.0
0.0 0.08853818384944667 -0.07402132856619908 0.0734664961436313 0.0005548324225677628 -0.03920555026132864 0.0 0.0
0.0 0.08073524398445356 -0.06429126718178435 0.0593995033205679 0.004891763861216456 1.9522577998642987e-14 0.0 0.0
0.0 0.08853818384944317 -0.07402132856618959 0.07346649614362219 0.0005548324225674213 0.03920555026137316 0.0 0.0
0.0 0.09322003300584017 -0.07887700191964798 0.07799138190738834 0.0008856200122596763 0.03525298047722589 0.0 0.0
0.0 0.08826733156983155 -0.07495624378732449 0.07386293749121318 0.0010933062961112408 0.029674538363793836 0.0 0.0
0.0 0.07833248334678848 -0.06663347923331142 0.06543519329744066 0.0011982859358706654 0.024514500594280196 0.0 0.0
0.0 0.0665016834854055 -0.05683090374387022 0.0556142949642762 0.0012166087795940713 0.020675313188717147 0.0 0.0
0.0 0.05534574106937478 -0.047161902040335255 0.04598714051612145 0.0011747615242138324 0.017846282503022025 0.0 0.0
0.0 0.04503621075705419 -0.038287038567842435 0.037182413488484944 0.0011046250793574674 0.015442244390600374 0.0 0.0
0.0 0.035614616522186435 -0.030315887008721256 0.029288407241487402 0.001027479767233818 0.013139812167167935 0.0 0.0
0.0 0.02722007188260676 -0.023172920968226037 0.022222659656359063 0.000950261311866959 0.01081047685550025 0.0 0.0
0.0 0.019719724562645684 -0.01680466405177126 0.015927538412150347 0.0008771256396209156 0.008397413568887561 0.0 0.0
0.0 0.013170109406979814 -0.011255005129436814 0.01045410571619965 0.0008008994132371669 0.005955251033389434 0.0 0.0
0.0 0.007612851083427997 -0.006663465332296541 0.005968274809866048 0.0006951905224304927 0.003652386791395512 0.0 0.0
0.0 0.003957263135834623 -0.003199111184964718 0.0026944046386620617 0.0005047065463026579 0.001753409508847295 0.0 0.0
0.0 0.0012572930580257696 -0.0010869298306985182 0.0008504114365125049 0.00023651839418601333 0.0006249968382194699 0.0 0.0
0.0 0.000236992164581453 -0.00015417605156368532 0.00011395510521581261 4.0220946347872595e-05 9.210343367030023e-05 0.0 0.0
0.0 -1.2543510823401978e-05 1.7336632763524049e-06 -1.8685115705482974e-06 1.348482941958596e-07 -4.6759497583413524e-06 0.0 0.0
0.0 -5.494016260259879e-07 8.854884679049731e-07 -7.13351719733051e-07 -1.7213674817191705e-07 -2.002069974483903e-06 0.0 0.0
0.0 -3.0083172820327663e-07 -1.6894082390560128e-08 1.3667650956397697e-08 3.226431434162971e-09 5.3084951026648725e-08 0.0 0.0
0.0 0.0 0.0 0.0 0.0 0.0 0.0 0.0
0.0 0.0 0.0 0.0 0.0 0.0 0.0 0.0
0.0 0.0 0.0 0.0 0.0 0.0 0.0 0.0
0.0 0.0 0.0 0.0 0.0 0.0 0.0 0.0
0.0 -1.680433764396781e-07 -1.0793184899027673e-08 8.54508648894806e-09 2.2480984100807976e-09 -2.827633481288059e-08 0.0 0.0
0.0 -2.0331289608229227e-06 5.745675236361806e-07 -4.5972079011031974e-07 -1.1484673352588977e-07 1.12517988212586e-06 0.0 0.0
0.0 1.3364852625362189e-05 1.8193415521851932e-06 -3.066875966480403e-06 1.2475344142952677e-06 1.262592013124967e-05 0.0 0.0
0.0 0.00041401254141478893 -0.0003982830152477714 0.0002986434922725294 9.963952297524193e-05 -0.00017612122437761957 0.0 0.0
0.0 0.0021820054328143134 -0.0017635332038025652 0.0014135990565010581 0.000349934147301507 -0.0006799341049500899 0.0 0.0
0.0 0.005136889063683794 -0.004563091340197415 0.00394603491923255 0.0006170564209648658 -0.0018717453697572968 0.0 0.0
0.0 0.010016625096816119 -0.008758569205793187 0.007982364461620482 0.000776204744172713 -0.003636327473268635 0.0 0.0
0.0 0.016434463638028668 -0.0142446426604733 0.013372477576721449 0.000872165083751867 -0.00573247474270588 0.0 0.0
0.0 0.024207623687983192 -0.020870731530649306 0.019920144918588206 0.0009505866120610762 -0.007979105715742198 0.0 0.0
0.0 0.03316489970682321 -0.028505369191466037 0.02747553781543529 0.0010298313760307304 -0.010198291461713376 0.0 0.0
0.0 0.04329522686102702 -0.037099066204081134 0.035985570703739936 0.001113495500341151 -0.01235696978332147 0.0 0.0
0.0 0.054249895796789974 -0.0466940603746949 0.04549579955984215 0.0011982608148527704 -0.01452782247423626 0.0 0.0
0.0 0.06672430536811062 -0.057341532102950454 0.05606472436678757 0.0012768077361628785 -0.01677806211810746 0.0 0.0
0.0 0.08027919071913987 -0.06894139505432535 0.06761251404260031 0.0013288810117249627 -0.019233472445073417 0.0 0.0
0.0 0.09391945400907029 -0.0807802981104753 0.07947105578925408 0.0013092423212211707 -0.022384374712337556 0.0 0.0
0.0 0.10588211828888325 -0.09090356123338185 0.08973213364790122 0.0011714275854806707 -0.027038217255921912 0.0 0.0
0.0 0.1120771864763477 -0.09578562922874476 0.09487469901602752 0.0009109302127170935 -0.033352028681168974 0.0 0.0
0.0 0.10685037931711297 -0.09046996723055124 0.08992959285193053 0.0005403743786207214 -0.04060751241415855 0.0 0.0
0.0 0.09752755155602276 -0.07956213755044424 0.07417871949643494 0.005383418054009315 1.973768370966411e-14 0.0 0.0
0.0 0.1068503793171032 -0.0904699672305375 0.08992959285191691 0.000540374378620509 0.040607512414201526 0.0 0.0
0.0 0.11207718647631609 -0.09578562922871386 0.09487469901599659 0.0009109302127170972 0.03335202868120923 0.0 0.0
0.0 0.10588211828883551 -0.09090356123333948 0.08973213364785892 0.0011714275854805465 0.027038217255944037 0.0 0.0
0.0 0.0939194540090098 -0.08078029811042282 0.07947105578920156 0.0013092423212212787 0.02238437471233896 0.0 0.0
0.0 0.08027919071907705 -0.06894139505427062 0.06761251404254637 0.0013288810117242102 0.01923347244506715 0.0 0.0
0.0 0.06672430536804334 -0.05734153210289254 0.05606472436672998 0.0012768077361625275 0.016778062118096432 0.0 0.0
0.0 0.054249895796724144 -0.04669406037463783 0.045495799559785936 0.0011982608148518752 0.014527822474223458 0.0 0.0
0.0 0.04329522686096066 -0.03709906620402372 0.03598557070368263 0.0011134955003411454 0.012356969783306814 0.0 0.0
0.0 0.0331648997067607 -0.02850536919141239 0.02747553781538207 0.0010298313760303069 0.010198291461695024 0.0 0.0
0.0 0.02420762368793143 -0.020870731530604883 0.01992014491854438 0.0009505866120605104 0.007979105715722395 0.0 0.0
0.0 0.016434463637984287 -0.014244642660435031 0.013372477576683639 0.0008721650837513778 0.005732474742688853 0.0 0.0
0.0 0.01001662509678413 -0.008758569205765093 0.007982364461593262 0.0007762047441718348 0.003636327473256832 0.0 0.0
0.0 0.005136889063662706 -0.004563091340179079 0.0039460349192153915 0.0006170564209636891 0.0018717453697491195 0.0 0.0
0.0 0.002182005432802611 -0.0017635332037933807 0.0014135990564933224 0.00034993414730005555 0.0006799341049460213 0.0 0.0
0.0 0.00041401254141020156 -0.00039828301524453543 0.0002986434922700829 9.963952297445224e-05 0.00017612122437621065 0.0 0.0
0.0 1.3364852624975008e-05 1.8193415515909969e-06 -3.066875965996925e-06 1.2475344144060543e-06 -1.2625920130405371e-05 0.0 0.0
0.0 -2.0331289610126475e-06 5.745675236347637e-07 -4.597207901125776e-07 -1.1484673352218474e-07 -1.1251798821151951e-06 0.0 0.0
0.0 -1.6804337643450485e-07 -1.0793184898566844e-08 8.545086488621468e-09 2.248098409945835e-09 2.8276334812116163e-08 0.0 0.0
0.0 0.0 0.0 0.0 0.0 0.0 0.0 0.0
0.0 0.0 0.0 0.0 0.0 0.0 0.0 0.0
0.0 0.0 0.0 0.0 0.0 0.0 0.0 0.0
0.0 0.0 0.0 0.0 0.0 0.0 0.0 0.0
0.0 0.0 0.0 0.0 0.0 0.0 0.0 0.0
0.0 -2.756285068531866e-06 1.490999617781217e-06 -1.199496093480584e-06 -2.9150352430062465e-07 2.0043776678216616e-06 0.0 0.0
0.0 6.430859139053803e-05 -3.71552059088952e-05 2.472845209256294e-05 1.2426753816332556e-05 -9.479633650658476e-08 0.0 0.0
0.0 0.0008337503614919064 -0.0007053736301769983 0.0005349367597363873 0.0001704368704406107 -0.00015740845635850743 0.0 0.0
0.0 0.002976279498293474 -0.002611047000132095 0.0021484108122207255 0.00046263618791136734 -0.000665884214223854 0.0 0.0
0.0 0.006699080401098548 -0.006006490830616609 0.005306474377698363 0.0007000164529182489 -0.0017347617505991324 0.0 0.0
0.0 0.012356238395624863 -0.01090302795048679 0.010062572931759705 0.0008404550187270728 -0.003194981227598525 0.0 0.0
0.0 0.019780059354190034 -0.017262828113135446 0.016329454477013634 0.000933373636121814 -0.004961079225769527 0.0 0.0
0.0 0.028707416538371736 -0.02495627420901496 0.02393962403107863 0.0010166501779363037 -0.0068602980867361685 0.0 0.0
0.0 0.03912160339282126 -0.03385826934554037 0.03275529872569411 0.0011029706198462594 -0.008740377248102775 0.0 0.0
0.0 0.05065217313610755 -0.043917098043750366 0.04272338031996865 0.0011937177237817563 -0.010582412223765889 0.0 0.0
0.0 0.06388590390405055 -0.05513457524132546 0.05385218101016995 0.001282394231155421 -0.012474017160077818 0.0 0.0
0.0 0.0781220853091269 -0.06751803334580324 0.06615361468258543 0.0013644186632178158 -0.01445169348663288 0.0 0.0
0.0 0.09343046059242031 -0.08090962896619569 0.07948333790944455 0.001426291056751211 -0.016408698692383206 0.0 0.0
0.0 0.10934228092012678 -0.09458965438936882 0.09316909150164504 0.0014205628877237727 -0.018442398433866462 0.0 0.0
0.0 0.12326174287077352 -0.10650560096650177 0.10523959252617575 0.0012660084403260017 -0.021778478029940318 0.0 0.0
0.0 0.13081772440665435 -0.11266407567169688 0.11171801529265307 0.0009460603790438099 -0.02873915626839927 0.0 0.0
0.0 0.12579046805604055 -0.1073756732038296 0.10686906622159419 0.0005066069822356222 -0.040516353683261994 0.0 0.0
0.0 0.1157409062664061 -0.09557844432486158 0.08977316893195365 0.005805275392907875 1.5801596142672736e-14 0.0 0.0
0.0 0.12579046805602112 -0.10737567320380946 0.10686906622157281 0.0005066069822366765 0.04051635368329832 0.0 0.0
0.0 0.1308177244066164 -0.11266407567166153 0.11171801529261814 0.0009460603790433478 0.028739156268435994 0.0 0.0
0.0 0.12326174287071479 -0.10650560096645091 0.10523959252612425 0.0012660084403264946 0.02177847802995962 0.0 0.0
0.0 0.10934228092006108 -0.09458965438931156 0.09316909150158863 0.0014205628877229247 0.018442398433868967 0.0 0.0
0.0 0.09343046059234816 -0.080909628966133 0.07948333790938247 0.001426291056750479 0.01640869869237846 0.0 0.0
0.0 0.0781220853090484 -0.0675180333457353 0.06615361468251793 0.0013644186632174122 0.01445169348662433 0.0 0.0
0.0 0.0638859039039774 -0.05513457524126186 0.0538521810101072 0.0012823942311546268 0.012474017160069021 0.0 0.0
0.0 0.05065217313602847 -0.04391709804368246 0.0427233803199004 0.0011937177237820822 0.010582412223754318 0.0 0.0
0.0 0.03912160339275356 -0.0338582693454812 0.03275529872563588 0.0011029706198453634 0.008740377248088608 0.0 0.0
0.0 0.02870741653831269 -0.024956274208963878 0.023939624031027985 0.0010166501779358859 0.006860298086719304 0.0 0.0
0.0 0.01978005935414028 -0.01726282811309233 0.01632945447697112 0.0009333736361212129 0.004961079225754804 0.0 0.0
0.0 0.012356238395587455 -0.010903027950453935 0.010062572931727472 0.000840455018726466 0.003194981227588263 0.0 0.0
0.0 0.006699080401072565 -0.006006490830593252 0.0053064743776760764 0.0007000164529171792 0.0017347617505911361 0.0 0.0
0.0 0.0029762794982795427 -0.0026110470001201908 0.0021484108122103163 0.0004626361879098749 0.0006658842142201055 0.0 0.0
0.0 0.0008337503614860655 -0.0007053736301726512 0.0005349367597330086 0.00017043687043964204 0.0001574084563573627 0.0 0.0
0.0 6.430859138959683e-05 -3.7155205908813064e-05 2.4728452092546733e-05 1.2426753816266221e-05 9.479633683874195e-08 0.0 0.0
0.0 -2.7562850683632236e-06 1.4909996172003197e-06 -1.1994960930469062e-06 -2.915035241534082e-07 -2.004377667346057e-06 0.0 0.0
0.0 0.0 0.0 0.0 0.0 0.0 0.0 0.0
0.0 0.0 0.0 0.0 0.0 0.0 0.0 0.0
0.0 0.0 0.0 0.0 0.0 0.0 0.0 0.0
0.0 0.0 0.0 0.0 0.0 0.0 0.0 0.0
0.0 0.0 0.0 0.0 0.0 0.0 0.0 0.0
0.0 0.0 0.0 0.0 0.0 0.0 0.0 0.0
0.0 -3.4083223718155504e-06 3.6163537678507213e-06 -2.896455647923843e-06 -7.198981199268943e-07 2.9823541261875736e-06 0.0 0.0
0.0 0.00013690512231565846 -0.0001356460735255151 9.55220827470618e-05 4.0123990778453226e-05 1.2179200202016527e-06 0.0 0.0
0.0 0.001379619146930296 -0.0011383014920062584 0.000880637716279575 0.00025766377572668264 -8.593087170621994e-05 0.0 0.0
0.0 0.003816848430079006 -0.003566248378458842 0.0030085521346514396 0.0005576962438074047 -0.0005282637343921217 0.0 0.0
0.0 0.008349678560582444 -0.0074952857628640505 0.006728798129450346 0.0007664876334137113 -0.0012885303644911959 0.0 0.0
0.0 0.01473485295370618 -0.013067889083700926 0.012173921912858852 0.0008939671708420661 -0.002355615305359359 0.0 0.0
0.0 0.02312307467661891 -0.02028151467330486 0.019293607855230266 0.0009879068180745996 -0.003651258601563458 0.0 0.0
0.0 0.03329565697471263 -0.02903192757074228 0.027954309294227875 0.0010776182765143856 -0.005052135657921465 0.0 0.0
0.0 0.045002285431619445 -0.03920333145554308 0.038032339070342445 0.0011709923852006175 -0.006442793732887139 0.0 0.0
0.0 0.058515990059095274 -0.050729081020632026 0.049461472715853425 0.001267608304778605 -0.00782203569455327 0.0 0.0
0.0 0.07310929092382147 -0.06358674403925525 0.062225535360223294 0.0013612086790318826 -0.009288877169653447 0.0 0.0
0.0 0.08940015038505937 -0.07767101867025797 0.07622857368624246 0.0014424449840155593 -0.010836895502739492 0.0 0.0
0.0 0.10676030767791785 -0.09268858367161045 0.09118815695219953 0.0015004267194108343 -0.01223737059876337 0.0 0.0
0.0 0.12435730848480489 -0.10791562286276166 0.10639969798084198 0.0015159248819197407 -0.01319908748062027 0.0 0.0
0.0 0.1401099404886575 -0.12153768726485839 0.12012462761613742 0.0014130596487209983 -0.014568945588804793 0.0 0.0
0.0 0.14958814994564215 -0.12949209365559763 0.12846346247713053 0.0010286311784670288 -0.020632749823222538 0.0 0.0
0.0 0.14561684410759593 -0.1250905424858647 0.12466276295353501 0.00042777953232944077 -0.037948113795209494 0.0 0.0
0.0 0.13549399369141676 -0.11285154920005767 0.10672446394242152 0.0061270852576360895 1.1834283553113778e-14 0.0 0.0
0.0 0.14561684410757214 -0.12509054248584198 0.12466276295351199 0.0004277795323300382 0.03794811379523778 0.0 0.0
0.0 0.14958814994559538 -0.1294920936555558 0.12846346247708904 0.0010286311784668692 0.020632749823250442 0.0 0.0
0.0 0.14010994048858985 -0.12153768726480008 0.12012462761607892 0.0014130596487211071 0.014568945588818261 0.0 0.0
0.0 0.1243573084847278 -0.10791562286269457 0.10639969798077557 0.0015159248819191446 0.013199087480621955 0.0 0.0
0.0 0.10676030767783343 -0.09268858367153715 0.09118815695212722 0.0015004267194099854 0.012237370598761019 0.0 0.0
0.0 0.08940015038497437 -0.07767101867018422 0.07622857368616939 0.0014424449840148698 0.010836895502734856 0.0 0.0
0.0 0.07310929092373512 -0.06358674403918052 0.06222553536014919 0.0013612086790314244 0.009288877169645564 0.0 0.0
0.0 0.0585159900590069 -0.05072908102055576 0.049461472715776694 0.0012676083047790316 0.00782203569454582 0.0 0.0
0.0 0.0450022854315411 -0.039203331455475304 0.03803233907027547 0.001170992385199774 0.006442793732876581 0.0 0.0
0.0 0.03329565697464108 -0.0290319275706798 0.027954309294165626 0.001077618276514188 0.005052135657907753 0.0 0.0
0.0 0.02312307467656541 -0.0202815146732577 0.019293607855183754 0.000987906818073946 0.003651258601552624 0.0 0.0
0.0 0.01473485295366281 -0.013067889083662465 0.012173921912821073 0.0008939671708413986 0.0023556153053513828 0.0 0.0
0.0 0.008349678560553282 -0.007495285762837788 0.006728798129425153 0.0007664876334126268 0.0012885303644855192 0.0 0.0
0.0 0.0038168484300619633 -0.003566248378443179 0.0030085521346371615 0.0005576962438060214 0.0005282637343887049 0.0 0.0
0.0 0.0013796191469223793 -0.001138301491999598 0.0008806377162742299 0.0002576637757253672 8.593087170532488e-05 0.0 0.0
0.0 0.00013690512231382619 -0.0001356460735247216 9.552208274652504e-05 4.012399077819651e-05 -1.2179200198314133e-06 0.0 0.0
0.0 -3.4083223719869763e-06 3.6163537676656505e-06 -2.8964556477861417e-06 -7.198981198795303e-07 -2.9823541261768646e-06 0.0 0.0
0.0 0.0 0.0 0.0 0.0 0.0 0.0 0.0
0.0 0.0 0.0 0.0 0.0 0.0 0.0 0.0
0.0 0.0 0.0 0.0 0.0 0.0 0.0 0.0
0.0 0.0 0.0 0.0 0.0 0.0 0.0 0.0
0.0 0.0 0.0 0.0 0.0 0.0 0.0 0.0
0.0 0.0 0.0 0.0 0.0 0.0 0.0 0.0
0.0 -5.127581377515845e-06 3.788779662837472e-06 -3.39491672680778e-06 -3.9386293602968953e-07 3.62997180235142e-06 0.0 0.0
0.0 0.0003555544936731937 -0.0002784378249644883 0.000199240699079986 7.919712588450243e-05 4.9920506269363796e-05 0.0 0.0
0.0 0.001910754925287245 -0.001692823742373479 0.0013413888948427069 0.00035143484753077166 5.127309493649659e-05 0.0 0.0
0.0 0.00496428869720664 -0.004561529476310808 0.003930687601578662 0.0006308418747321479 -0.00017937323808352916 0.0 0.0
0.0 0.010019408651011485 -0.009005646617531763 0.008185852587756254 0.0008197940297755026 -0.0005720345131387749 0.0 0.0
0.0 0.017193065753584647 -0.01522499424179576 0.014285191015067443 0.000939803226728326 -0.001124738846148752 0.0 0.0
0.0 0.02646403566122167 -0.023272559986982126 0.022234439212515177 0.0010381207744669342 -0.0018099591027958381 0.0 0.0
0.0 0.03780011469707277 -0.033071334285717534 0.03193694295160612 0.0011343913341114174 -0.0025540322199774663 0.0 0.0
0.0 0.051169036878628026 -0.044511585574737056 0.043277516770924715 0.0012340688038123626 -0.0033052904033319913 0.0 0.0
0.0 0.06589384499789964 -0.05751833967781575 0.05618134953562819 0.0013369901421874794 -0.004097243339416533 0.0 0.0
0.0 0.08261321580456724 -0.07199998959499689 0.07056521628402862 0.0014347733109682688 -0.00495873440380445 0.0 0.0
0.0 0.10080088890347272 -0.08775786624542817 0.08624427495548742 0.00151359128994077 -0.005864578616526121 0.0 0.0
0.0 0.1199395772334968 -0.104318356945939 0.10275760301796753 0.0015607539279713903 -0.006662020253371644 0.0 0.0
0.0 0.13900252141025832 -0.12078855519609377 0.11921750731693785 0.0015710478791559402 -0.006998298292118297 0.0 0.0
0.0 0.15619906675613882 -0.13565348048770914 0.13410623677874514 0.0015472437089640765 -0.006887675972601346 0.0 0.0
0.0 0.16795104833435032 -0.14579905049953923 0.14446250022140925 0.001336550278129757 -0.009613848180067237 0.0 0.0
0.0 0.16672110660533862 -0.14402846457521318 0.1436646777479168 0.00036378682729637334 -0.027786491710882984 0.0 0.0
0.0 0.15799358442519815 -0.13248826683428566 0.12644364021028218 0.0060446266240033845 6.761952109357594e-15 0.0 0.0
0.0 0.1667211066053126 -0.14402846457518947 0.14366467774789313 0.0003637868272962629 0.02778649171089998 0.0 0.0
0.0 0.16795104833429594 -0.14579905049949177 0.14446250022136203 0.0013365502781295677 0.009613848180083186 0.0 0.0
0.0 0.15619906675606207 -0.13565348048764309 0.1341062367786788 0.0015472437089642148 0.006887675972607958 0.0 0.0
0.0 0.13900252141017067 -0.12078855519601774 0.11921750731686241 0.001571047879155343 0.0069982982921187546 0.0 0.0
0.0 0.11993957723340105 -0.10431835694585602 0.10275760301788474 0.0015607539279712448 0.006662020253370657 0.0 0.0
0.0 0.10080088890337789 -0.08775786624534565 0.08624427495540618 0.0015135912899395323 0.005864578616523022 0.0 0.0
0.0 0.08261321580447019 -0.07199998959491284 0.07056521628394495 0.0014347733109677937 0.004958734403799656 0.0 0.0
0.0 0.06589384499780337 -0.05751833967773243 0.056181349535544975 0.0013369901421874184 0.00409724333941355 0.0 0.0
0.0 0.05116903687854284 -0.04451158557466297 0.043277516770851426 0.0012340688038115378 0.0033052904033254705 0.0 0.0
0.0 0.037800114696995124 -0.03307133428565015 0.031936942951539427 0.0011343913341107263 0.0025540322199698135 0.0 0.0
0.0 0.026464035661160706 -0.023272559986928485 0.0222344392124623 0.0010381207744661846 0.001809959102790055 0.0 0.0
0.0 0.017193065753536987 -0.015224994241753423 0.014285191015025725 0.0009398032267276818 0.0011247388461447026 0.0 0.0
0.0 0.010019408650979647 -0.009005646617503044 0.008185852587728424 0.0008197940297746131 0.0005720345131361132 0.0 0.0
0.0 0.004964288697186184 -0.004561529476291942 0.003930687601561047 0.0006308418747308928 0.00017937323808156377 0.0 0.0
0.0 0.0019107549252780705 -0.0016928237423654599 0.0013413888948360228 0.0003514348475294367 -5.127309493663121e-05 0.0 0.0
0.0 0.0003555544936704464 -0.00027843782496283955 0.00019924069907883543 7.919712588400414e-05 -4.992050626892176e-05 0.0 0.0
0.0 -5.1275813775968935e-06 3.78877966243192e-06 -3.394916726505612e-06 -3.938629359262468e-07 -3.629971802266131e-06 0.0 0.0
0.0 0.0 0.0 0.0 0.0 0.0 0.0 0.0
0.0 0.0 0.0 0.0 0.0 0.0 0.0 0.0
0.0 0.0 0.0 0.0 0.0 0.0 0.0 0.0
0.0 0.0 0.0 0.0 0.0 0.0 0.0 0.0
0.0 0.0 0.0 0.0 0.0 0.0 0.0 0.0
0.0 0.0 0.0 0.0 0.0 0.0 0.0 0.0
0.0 1.236735263963584e-05 -1.1055117310790336e-05 6.8203018190539235e-06 4.234815491736521e-06 6.528694881206884e-06 0.0 0.0
0.0 0.0006353520944725675 -0.00047017394364263143 0.00033497634368512437 0.0001351975999575068 0.00012158741522195053 0.0 0.0
0.0 0.0024742874719860617 -0.002196678199321945 0.0017235953075241607 0.00047308289179778264 0.0002853593784514105 0.0 0.0
0.0 0.0058659823128483935 -0.00540750349484008 0.004605530999383532 0.0008019724954565508 0.000371467183249155 0.0 0.0
0.0 0.011340813198760102 -0.010254410329641486 0.009193792196929475 0.0010606181327120013 0.00041844050811070375 0.0 0.0
0.0 0.019003489599394626 -0.016994001407915873 0.015712461063311426 0.001281540344604432 0.0004182898011581245 0.0 0.0
0.0 0.029024126278142506 -0.025719957285119444 0.024203285128933813 0.0015166721561856165 0.00033900109092952456 0.0 0.0
0.0 0.0413354247727602 -0.03638731127319208 0.0345976326555191 0.0017896786176729714 0.00022126143004769054 0.0 0.0
0.0 0.05548943263339949 -0.04889640490055799 0.046790789446277126 0.0021056154542808416 6.365312306487111e-05 0.0 0.0
0.0 0.07170923279942949 -0.06312853868740906 0.06067422396601042 0.002454314721398586 -0.00018152972731232814 0.0 0.0
0.0 0.08978136998319965 -0.07894864065341686 0.07612982691557643 0.0028188137378405277 -0.0004820290838589564 0.0 0.0
0.0 0.10940173909719988 -0.09608460559761722 0.09291546046183455 0.0031691451357824508 -0.0008820281212157631 0.0 0.0
0.0 0.12990804114078558 -0.11391578066117786 0.11045195871597159 0.003463821945206336 -0.0013279826738553623 0.0 0.0
0.0 0.1499872135305126 -0.13132503169631338 0.12767318419256218 0.0036518475037510267 -0.0016214994104125045 0.0 0.0
0.0 0.1677660375364252 -0.14670882188495232 0.1430137378494819 0.00369508403547034 -0.0014852093701914915 0.0 0.0
0.0 0.18070859813227214 -0.15807349878067106 0.1543507348509532 0.00372276392971808 -0.0026003603645292153 0.0 0.0
0.0 0.18323805919547417 -0.16077719127094967 0.15700979597997994 0.0037673952909696665 -0.020535987172774505 0.0 0.0
0.0 0.17903562316916932 -0.15242955214784012 0.14197643958994072 0.010453112557899139 1.4988010832439613e-15 0.0 0.0
0.0 0.1832380591954444 -0.1607771912709233 0.15700979597995415 0.0037673952909690204 0.02053598717278105 0.0 0.0
0.0 0.18070859813221196 -0.1580734987806185 0.15435073485090223 0.0037227639297162606 0.002600360364534964 0.0 0.0
0.0 0.16776603753633984 -0.14670882188487813 0.14301373784940916 0.003695084035469062 0.0014852093701919374 0.0 0.0
0.0 0.1499872135304181 -0.13132503169623067 0.12767318419248144 0.003651847503749024 0.0016214994104118141 0.0 0.0
0.0 0.12990804114068236 -0.11391578066108812 0.1104519587158827 0.0034638219452053725 0.0013279826738559035 0.0 0.0
0.0 0.1094017390970985 -0.09608460559752792 0.0929154604617484 0.0031691451357793556 0.0008820281212127482 0.0 0.0
0.0 0.08978136998309362 -0.0789486406533243 0.07612982691548562 0.002818813737838627 0.000482029083855735 0.0 0.0
0.0 0.07170923279932676 -0.06312853868731935 0.06067422396592237 0.0024543147213970363 0.0001815297273123264 0.0 0.0
0.0 0.055489432633309355 -0.04889640490047897 0.04679078944620053 0.002105615454278373 -6.365312306845245e-05 0.0 0.0
0.0 0.04133542477268123 -0.036387311273122724 0.03459763265545175 0.0017896786176709683 -0.0002212614300505008 0.0 0.0
0.0 0.029024126278075185 -0.025719957285060713 0.024203285128876546 0.001516672156184192 -0.00033900109093137117 0.0 0.0
0.0 0.01900348959934346 -0.01699400140787073 0.01571246106326757 0.0012815403446031753 -0.0004182898011589895 0.0 0.0
0.0 0.01134081319872483 -0.010254410329609638 0.00919379219689896 0.0010606181327106649 -0.0004184405081102457 0.0 0.0
0.0 0.005865982312826221 -0.00540750349481952 0.004605530999364464 0.0008019724954550498 -0.0003714671832488045 0.0 0.0
0.0 0.002474287471976295 -0.002196678199312588 0.0017235953075163397 0.0004730828917962502 -0.00028535937845052504 0.0 0.0
0.0 0.0006353520944693003 -0.000470173943640421 0.00033497634368359066 0.00013519759995683084 -0.00012158741522126221 0.0 0.0
0.0 1.2367352639044815e-05 -1.1055117310425292e-05 6.820301818796392e-06 4.234815491628869e-06 -6.528694881140807e-06 0.0 0.0
0.0 0.0 0.0 0.0 0.0 0.0 0.0 0.0
0.0 0.0 0.0 0.0 0.0 0.0 0.0 0.0
0.0 0.0 0.0 0.0 0.0 0.0 0.0 0.0
SCALARS Wm float 4
LOOKUP_TABLE default
12.403337838972675 2.003886956431338 5.155280087608254 5.244170794933078
6.13555214744821 2.9575589597651777 1.4198244979746422 1.7581686897083946
0.6864444913994097 0.6445315860589981 0.004988781089361501 0.03692412425104998
0.5224225679840518 0.49712800363672816 0.006886648890789956 0.01840791545653386
1.0395340932161605 0.7588105416311006 0.09998245947543485 0.18074109210962444
2.2292707526033326 1.0853057851879746 0.41770641696425026 0.7262585504511064
4.600303682348212 1.544631221189529 1.3023186748396696 1.7533537863190145
8.45493259131517 2.1108083953693777 2.954228450711849 3.389895745233942
14.158273250467555 2.824171180045873 5.641503821978207 5.692598248443478
21.984365408130785 3.719107895980221 9.58123811085213 8.684019401298448
32.07445830707678 4.823093156324854 14.905287465658919 12.346077685093011
44.36390321487769 6.146335780258077 21.57182511304993 16.645742321569692
58.97689704641317 7.673699480830077 29.75653025706468 21.546667308518415
75.85866451789434 9.389556665269803 39.4558215498426 27.013286302781964
94.77282183681652 11.167292106908208 50.63307366564098 32.972456064267284
115.14000067121705 12.784392639166981 63.080225213982004 39.27538281806808
135.8744784989886 13.970669584365023 76.22051994577753 45.68328896884609
155.4922463986384 14.51704380683113 89.18344601882076 51.79175657298644
172.37207108093793 14.461487185185272 100.79477123337176 57.115812662380996
184.22558357493716 13.657069416964143 109.47528048953278 61.09323366844016
188.09626585392652 12.180394473893184 113.12427984236334 62.791591537669994
184.22558357491076 13.657069416961905 109.4752804895156 61.093233668433236
172.37207108088577 14.461487185187268 100.79477123333474 57.1158126623637
155.4922463985569 14.517043806827033 89.18344601876797 51.791756572961816
135.87447849889938 13.970669584364614 76.22051994571748 45.68328896881719
115.14000067110864 12.78439263914259 63.080225213926056 39.27538281803998
94.77282183672536 11.16729210690492 50.63307366558339 32.97245606423706
75.85866451780123 9.389556665258729 39.45582154978971 27.013286302752743
58.97689704632873 7.673699480826672 29.756530257013374 21.54666730848869
44.36390321480713 6.146335780260035 21.571825113005104 16.64574232154201
32.074458307013145 4.823093156316522 14.905287465625694 12.34607768507091
21.984365408077473 3.7191078959699837 9.581238110827158 8.684019401280338
14.1582732504316 2.8241711800395857 5.641503821961848 5.692598248430169
8.454932591290833 2.1108083953661363 2.9542284507009584 3.3898957452237397
4.600303682334154 1.5446312211876323 1.302318674833944 1.7533537863125759
2.2292707525964603 1.0853057851870598 0.4177064169620539 0.7262585504473461
1.0395340932132997 0.758810541629402 0.09998245947496677 0.18074109210893055
0.522422567983496 0.4971280036362857 0.006886648890743403 0.018407915456466944
0.6864444913981635 0.644531586058088 0.004988781089272778 0.036924124250802014
6.135552147443001 2.9575589597662106 1.4198244979716148 1.758168689705173
12.403337838945207 2.003886956417719 5.155280087600649 5.244170794926851
14.756477225792128 6.462866307937101 3.9913968436723564 4.3022140741826655
2.4322583711025576 0.5328878232086076 0.7945262295785576 1.1048443183153924
0.26370604492913563 0.3030790068214834 -0.012433545294334351 -0.02693941659801352
0.40839490616528473 0.4013682514772624 0.0012129701000381018 0.005813684587984118
0.7867034942086255 0.6223808281933414 0.04995684825786505 0.11436581775741914
1.783022374757531 0.9083288248151319 0.32297197656539756 0.5517215733770013
3.7749242402672816 1.231722795892241 1.055198015671903 1.4880034287031374
7.1552889322896975 1.6243551662078737 2.5331883684567114 2.9977453976251107
12.187144739184912 2.0748495841070653 4.972565763876728 5.139729391201118
19.041151011047535 2.5863024189766315 8.533580032379737 7.921268559691159
27.805649836271463 3.156195627291076 13.333729443968357 11.315724765012023
38.55674297380606 3.798006695773306 19.473964808973868 15.28477146905888
51.105376948405485 4.523010194187188 26.7751956803433 19.807171073874997
65.7226360751684 5.305635564217069 35.562791764321574 24.854208746629755
82.14827543313342 6.0917392612342605 45.68083916060841 30.375697011290764
99.94554147651088 6.760928296457804 56.94842163310761 36.23619154694543
118.27503592263484 7.166079500931253 68.92692253777668 42.18203388392686
135.8914339066517 7.202266104769972 80.81190351601872 47.877264285863006
151.12289979908743 6.7956001924607925 91.47098797134304 52.856311635283554
161.8866978712442 5.995887674903843 99.41081368061167 56.47999651572866
165.9292591527771 5.094287687124949 102.82167115732355 58.01330030832865
161.88669787121904 5.995887674901108 99.41081368059619 56.47999651572172
151.1228997990428 6.795600192465218 91.47098797130953 52.85631163526813
135.89143390658063 7.20226610476715 80.81190351597233 47.87726428584114
118.27503592255546 7.166079500931962 68.92692253772302 42.18203388390044
99.94554147643164 6.7609282964560915 56.948421633056185 36.236191546919365
82.14827543305361 6.091739261235246 45.68083916055569 30.375697011262663
65.72263607508752 5.305635564209098 35.56279176427469 24.854208746603717
51.1053769483306 4.523010194186044 26.77519568029703 19.807171073847506
38.556742973739425 3.7980066957728376 19.47396480893336 15.284771469033227
27.80564983622018 3.1561956272930782 13.333729443936683 11.31572476499043
19.041151011004175 2.5863024189736974 8.533580032356639 7.921268559673829
12.187144739154428 2.0748495841039887 4.972565763861869 5.13972939118857
7.1552889322689675 1.6243551662065188 2.5331883684468743 2.9977453976155766
3.774924240255068 1.2317227958906871 1.0551980156670118 1.4880034286973682
1.7830223747513874 0.9083288248135045 0.32297197656349086 0.5517215733743925
0.7867034942067475 0.6223808281924111 0.049956848257516284 0.1143658177568201
0.40839490616483304 0.4013682514768367 0.0012129701000220326 0.0058136845879742305
0.26370604492912925 0.3030790068213045 -0.012433545294264613 -0.0269394165979106
2.4322583710956653 0.5328878232075449 0.7945262295757367 1.1048443183123844
14.756477225766119 6.462866307925429 3.991396843664699 4.302214074175981
11.100207735683082 5.122662818467237 2.758470474206366 3.219074443009476
1.505224892608298 0.20967801445916603 0.5283912627406758 0.7671556154084569
0.1656851576190503 0.1656001266505973 9.207890845583867e-06 7.58230776073976e-05
0.3044032243080405 0.3065248913471323 -0.0005034418027212358 -0.0016182252363705696
0.5978754380957022 0.5319642515472156 0.016476974782032233 0.04943421176645457
1.386536293643914 0.8143391594809078 0.2036070456703424 0.3685900884926644
3.051687775000538 1.125646985307318 0.7654016354788918 1.1606391542143273
5.999286956017606 1.4939978067691166 2.0106110961776564 2.494678053070831
10.421331603306324 1.9012945308804956 4.102180643237347 4.417856429188484
16.47212342830482 2.3481938311077863 7.2050458044259145 6.91888379277112
24.167514137029706 2.8401930250746963 11.369868086765768 9.957453025189238
33.483018718829776 3.3906734009575987 16.59610316190101 13.496242155971158
44.59314361035291 4.022285740145352 23.0600229305655 17.51083493964206
57.25683836358456 4.72381281841683 30.530225097228143 22.002800447939567
71.65773663251102 5.436393949055105 39.297249969506176 26.924092713949726
87.33785551043343 6.07804125467959 49.08667809672327 32.17313615903057
103.60452171138313 6.527136116121058 59.523821641386846 37.55356395387525
119.32913644933521 6.642887861584402 69.96497290426402 42.72127568348674
132.93348399574444 6.312076373140503 79.38646522298455 47.234942399619456
142.5842135281953 5.701781576612591 86.38348232680039 50.49894962478236
146.07247189792756 4.605332156598035 89.51006732646817 51.95707241486134
142.5842135281802 5.701781576618792 86.38348232678594 50.498949624775356
132.9334839957076 6.3120763731475105 79.38646522295484 47.23494239960526
119.32913644927677 6.6428878615836355 69.96497290422546 42.721275683467645
103.60452171131007 6.527136116116068 59.52382164134162 37.55356395385239
87.33785551036566 6.078041254682284 49.08667809667699 32.17313615900641
71.65773663243579 5.436393949049542 39.29724996946111 26.92409271392512
57.2568383635183 4.723812818416065 30.530225097186616 22.0028004479156
44.59314361028863 4.0222857401442536 23.060022930526273 17.510834939618107
33.48301871877248 3.390673400958317 16.59610316186589 13.496242155948288
24.167514136979964 2.840193025072354 11.369868086738043 9.957453025169565
16.472123428268194 2.348193831108254 7.2050458044050725 6.91888379275487
10.421331603278487 1.9012945308768134 4.10218064322447 4.417856429177201
5.999286955998977 1.4939978067668653 2.010611096169498 2.494678053062617
3.0516877749900613 1.1256469853048325 0.7654016354754414 1.1606391542097863
1.3865362936393688 0.8143391594797527 0.20360704566897808 0.3685900884906381
0.5978754380943286 0.5319642515463635 0.01647697478185271 0.049434211766112394
0.30440322430780725 0.30652489134679484 -0.0005034418027048828 -0.001618225236282634
0.16568515761899832 0.16560012665054402 9.207890845500532e-06 7.582307760880072e-05
1.5052248926033776 0.20967801445888845 0.5283912627385476 0.7671556154059405
11.100207735657678 5.122662818455983 2.758470474199089 3.219074443002611
8.366189993662392 3.9858083519219876 1.9428479465318147 2.43753369520859
1.0058358872459663 0.10108758504246464 0.34837359190079736 0.5563747103027034
0.11638511355419731 0.11638511355419731 0.0 0.0
0.22871140399242249 0.22907195011467316 -3.7469296032633726e-05 -0.0003230768262179714
0.45418054539273556 0.4422875142838277 0.0019112370192894991 0.009981794089618362
1.0326296296323703 0.7037733949003334 0.1046327378255151 0.22422349690652216
2.4095740043849485 1.0224451352981203 0.5365222708690356 0.8506065982177922
4.890500431470181 1.3587648050712926 1.5269810731483187 2.004754553250569
8.717114415524513 1.7262289018283712 3.288124036479487 3.7027614772166544
13.958370788364117 2.115799503666079 5.923583660855879 5.918987623842159
20.582655199116875 2.535186380015677 9.444739968328104 8.6027288507731
28.636511414168957 3.00878554133996 13.917058672977015 11.710667199851981
38.04964603603075 3.5521674062843296 19.26902632104383 15.228452308702606
49.093431740690086 4.1643303367766125 25.7760853432315 19.153016060681974
61.458846685875656 4.815938351976452 33.16727693867629 23.475631395222912
74.98638225912583 5.4336202116396315 41.43964262048021 28.113119427006026
89.26750841307526 5.916171485366077 50.45977660803318 32.891560319676
103.18791276667935 6.118878630985445 59.52580686446643 37.543227271227494
115.3416909338061 5.926218717304572 67.75973862533483 41.65573359116665
124.10698484272676 5.439711069907123 73.97397683921616 44.69329693360348
127.2821710890548 4.127646191428672 77.01967610979398 46.134848787832155
124.1069848427125 5.439711069913846 73.97397683920192 44.693296933596706
115.34169093376852 5.926218717304296 67.7597386253099 41.65573359115437
103.18791276663453 6.118878630990784 59.525806864432965 37.54322727121079
89.26750841301957 5.916171485367739 50.45977660799562 32.89156031965621
74.98638225906193 5.433620211636137 41.439642620441035 28.113119426984788
61.4588466858161 4.815938351976161 33.16727693863852 23.475631395201393
49.09343174062833 4.1643303367738165 25.77608534319463 19.153016060659883
38.04964603597802 3.552167406285727 19.26902632101064 15.228452308681646
28.63651141411883 3.0087855413384226 13.917058672948125 11.71066719983229
20.582655199075937 2.5351863800155026 9.444739968304651 8.60272885075578
13.95837078833113 2.1157995036647765 5.923583660838344 5.918987623828
8.717114415500806 1.726228901826167 3.2881240364682585 3.7027614772063795
4.89050043145464 1.3587648050686114 1.5269810731422662 2.004754553243761
2.409574004376288 1.0224451352959585 0.5365222708661181 0.8506065982142113
1.0326296296291637 0.7037733948998381 0.1046327378244799 0.22422349690484572
0.4541805453918123 0.4422875142828158 0.0019112370192875792 0.009981794089708897
0.22871140399213288 0.22907195011442863 -3.74692960382732e-05 -0.0003230768262574642
0.11638511355410362 0.11638511355410362 0.0 0.0
1.005835887241908 0.1010875850422222 0.3483735918990677 0.5563747103006188
8.366189993641852 3.985808351913461 1.9428479465259902 2.437533695202402
6.2136596022418455 3.0787795226416845 1.321669966657073 1.8132101129430898
0.7361306418828174 0.10962772588483549 0.2460994757709602 0.3804034402270215
0.10597567242447285 0.10597567242447285 0.0 0.0
0.18308839177932537 0.18307121978211582 1.867500215503517e-06 1.530449699404006e-05
0.34761165567128666 0.353202569077849 -0.0022441283219418406 -0.0033467850846204852
0.7571638592784989 0.6055900955387641 0.04253883935926621 0.1090349243804681
1.824716557823309 0.8987674936933826 0.3495823791829121 0.5763666849470157
3.8460449965134793 1.2202061026913522 1.0920403023331278 1.5337985914889993
7.07217104473571 1.5489501657228677 2.524846052380421 2.998374826632423
11.509245667084738 1.8871418090428738 4.69633599069358 4.925767867348285
17.124279608117313 2.2453045962852127 7.62604367935237 7.252931332479724
23.89069936915213 2.6448748052572424 11.313874027792899 9.931950536101985
31.870462277529676 3.1116006282199677 15.808806595246185 12.950055054063517
40.98283177483654 3.645981773313855 21.016049522376 16.32080047914668
51.47034127580736 4.2220033433657775 27.21312141457105 20.035216517870527
63.06619402047372 4.810762758669586 34.2105001761459 24.04493108565826
75.25980550352531 5.328659853912969 41.70090748792129 28.230238161691044
87.41576736793168 5.635752387891886 49.42933899917583 32.350675980863954
98.26716473351503 5.5918995075944 56.61322834076734 36.06203688515333
106.37004563985722 5.2108165610644415 62.25087457849505 38.9083545002977
109.36195832414941 3.6638937859797513 65.28082786843981 40.41723666972992
106.37004563984414 5.21081656107037 62.25087457848246 38.90835450029128
98.26716473348569 5.591899507594607 56.61322834074775 36.06203688514331
87.41576736788899 5.635752387892402 49.42933899914753 32.350675980849054
75.25980550347161 5.32865985390648 41.70090748789055 28.230238161674563
63.06619402042732 4.810762758675195 34.21050017611264 24.044931085639465
51.47034127575306 4.222003343360918 27.213121414539945 20.035216517852213
40.98283177478111 3.645981773305686 21.016049522346826 16.32080047912858
31.870462277485526 3.1116006282220523 15.808806595218382 12.950055054045077
23.890699369108706 2.644874805251941 11.313874027770623 9.931950536086141
17.124279608079373 2.2453045962823572 7.626043679332552 7.2529313324644695
11.509245667056021 1.8871418090393435 4.69633599067994 4.925767867336741
7.072171044714889 1.548950165720182 2.5248460523712613 2.998374826623442
3.8460449965008294 1.2202061026894788 1.0920403023281007 1.5337985914832506
1.824716557816216 0.8987674936916829 0.3495823791805938 0.5763666849439387
0.7571638592758628 0.6055900955373958 0.04253883935882277 0.10903492437964382
0.3476116556706936 0.35320256907707537 -0.00224412832190929 -0.003346785084472429
0.18308839177911446 0.1830712197819314 1.8675002140277645e-06 1.5304496969083264e-05
0.10597567242427147 0.10597567242427147 0.0 0.0
0.7361306418793728 0.1096277258846211 0.24609947576947855 0.3804034402252744
6.213659602225723 3.078779522635207 1.3216699666525729 1.8132101129379425
4.52839119255459 2.3588243118281342 0.8742891819940974 1.2952776987323582
0.5212170954769455 0.14277393584982706 0.1315832705235459 0.2468598891035724
0.11934248928359689 0.11934248928359689 0.0 0.0
0.1614143414075323 0.16139622169272028 1.2341449529766347e-06 1.6885569859025763e-05
0.27869005902199745 0.2845241982065953 -0.0012111261702054776 -0.004623013014392409
0.5460050850504832 0.4984832481413171 0.008154814960797499 0.03936702194836874
1.2906318875862977 0.7580584662097933 0.1748727718466936 0.3577006495298109
2.9223122650668496 1.0723917966271024 0.7595202894114385 1.0904001790283095
5.479441858816667 1.3671277440875613 1.8031425904017278 2.3091715243273794
9.15908465317719 1.6625556607725605 3.5534916616804044 3.9430373307242226
13.77280296996288 1.9655273398793915 5.896339256706296 5.910936373377187
19.29710542053397 2.3017664874543717 8.832822412263596 8.162516520816004
25.760010919881392 2.696119920125922 12.379984594024108 10.683906405731364
33.27649510896013 3.155136064964763 16.62516584596505 13.496193198030333
41.802732177187586 3.6733067158004515 21.52002860663634 16.60939685475077
51.28025481092846 4.211991246931426 27.07743429468674 19.990829269310293
61.651567762879395 4.742161440694769 33.36242129587888 23.546985026305766
72.05071137415646 5.16937746311698 39.74470607699084 27.136627834048646
81.61027098811043 5.292234445558668 45.8390139195009 30.47902262305082
89.20419563604655 5.016826540702062 51.01186788667584 33.175501208668635
92.12679276913887 3.222615288307241 54.1218045464223 34.78237293440935
89.20419563603632 5.016826540707059 51.01186788666589 33.17550120866334
81.61027098808987 5.292234445562279 45.8390139194852 30.47902262304241
72.0507113741193 5.169377463113367 39.74470607696901 27.13662783403694
61.651567762845154 4.742161440700039 33.362421295853565 23.546985026291544
51.280254810880265 4.211991246926551 27.077434294659557 19.990829269294192
41.80273217715178 3.673306715806245 21.52002860661064 16.6093968547349
33.27649510891866 3.1551360649598443 16.625165845943 13.496193198015822
25.760010919842777 2.69611992012421 12.37998459400231 10.683906405716263
19.29710542050052 2.3017664874516703 8.832822412246001 8.162516520802852
13.772802969932595 1.9655273398758866 5.896339256691495 5.910936373365216
9.159084653154464 1.662555660770438 3.553491661669602 3.94303733071442
5.479441858800371 1.3671277440847813 1.8031425903951337 2.3091715243204574
2.922312265056267 1.0723917966254644 0.7595202894072897 1.0904001790235127
1.2906318875811547 0.75805846620863 0.17487277184512992 0.3577006495273945
0.5460050850490349 0.49848324814033823 0.00815481496065396 0.03936702194804268
0.27869005902174426 0.2845241982062182 -0.0012111261701817984 -0.004623013014292115
0.1614143414072389 0.16139622169242593 1.2341449529798399e-06 1.688556986004494e-05
0.11934248928340918 0.11934248928340918 0.0 0.0
0.5212170954742812 0.14277393584970172 0.13158327052243854 0.24685988910214093
4.528391192542185 2.358824311822885 0.8742891819909188 1.295277698728381
3.1821010790268938 1.7799156544332613 0.5258323167945755 0.8763531077990581
0.39097038882473867 0.18658189228946986 0.06532534554559712 0.13906315098967142
0.143124695843879 0.143137124272382 -6.591917487488861e-07 -1.1769236754219564e-05
0.15703668875025273 0.15702240273413567 9.176681420014073e-07 1.3368347975063384e-05
0.23647290288142814 0.23861179567010438 -0.0004031493042719019 -0.001735743484404405
0.40295343272566286 0.40708330575808516 -0.0038965590418169093 -0.0002333139906053347
0.8871100043389064 0.6301058776305063 0.07415881859788695 0.18284530811051297
2.0179485465842206 0.8947764076123954 0.4125282128610128 0.7106439261108126
4.08473325001595 1.1852455627053868 1.2521264815408792 1.6473612057696836
6.884298456535795 1.4362073990381672 2.474630398627555 2.9734606588700725
10.559274751916963 1.694405765082721 4.283924669535758 4.580944317298488
14.900876978242854 1.9753413475124046 6.520921830464638 6.404613800265812
19.93820877187427 2.3051873591472587 9.200044513235344 8.432976899491669
25.77134867542211 2.6958784492228625 12.38589953229349 10.68957069390575
32.458115966411604 3.1465942621951837 16.111844671682082 13.199677032534339
40.10188903043037 3.6454458051642544 20.508700618234602 15.947742607031515
48.215406902875785 4.165199145455161 25.165952809838913 18.884254947581727
56.95748765790289 4.681104891715962 30.385801571863723 21.890581194323183
65.48109217242289 4.999804085440478 35.63796634090525 24.84332174607717
72.59241373281293 4.8647378904277945 40.293605417351614 27.434070425033564
75.57581873174026 2.8169675244250256 43.56163546102086 29.197215746294383
72.59241373280665 4.8647378904328615 40.29360541734429 27.43407042502949
65.4810921724017 4.999804085437494 35.63796634089351 24.843321746070714
56.957487657883064 4.681104891723101 30.38580157184667 21.890581194313313
48.215406902836435 4.16519914544853 25.165952809818418 18.884254947569488
40.10188903039471 3.6454458051607332 20.508700618214743 15.947742607019222
32.458115966376795 3.1465942621943497 16.111844671661608 13.199677032520828
25.77134867539268 2.6958784492222607 12.385899532276492 10.689570693893927
19.938208771845733 2.3051873591463465 9.200044513219439 8.432976899479952
14.900876978216361 1.975341347510824 6.520921830450704 6.404613800254832
10.559274751894097 1.6944057650807485 4.283924669524574 4.580944317288778
6.8842984565175 1.4362073990367459 2.4746303986189355 2.973460658861819
4.084733250003657 1.1852455627036118 1.2521264815357414 1.6473612057643046
2.017948546576471 0.894776407610684 0.4125282128583935 0.7106439261073938
0.8871100043356416 0.6301058776298674 0.07415881859690798 0.18284530810886643
0.40295343272467515 0.40708330575717483 -0.0038965590418237454 -0.00023331399067568251
0.23647290288122336 0.23861179566985705 -0.0004031493042653725 -0.0017357434843682986
0.15703668874986235 0.1570224027337506 9.176681415783688e-07 1.336834797013782e-05
0.14312469584362864 0.143137124272117 -6.591917477816558e-07 -1.1769236740542314e-05
0.3909703888228996 0.18658189228928604 0.06532534554491151 0.1390631509887017
3.1821010790176922 1.7799156544293435 0.5258323167923851 0.8763531077959656
2.210876357488494 1.3605511867781146 0.32289152223774936 0.5274336484726299
0.28853795088146666 0.21048519494794654 0.01530087839660417 0.062751877536916
0.16827041080851882 0.16825927423699347 1.1949102780360654e-06 9.941661247314356e-06
0.16402937159720818 0.16400105743672846 2.0805025310116727e-06 2.623365794871867e-05
0.21253208182709366 0.21421786890825295 -0.0002772831236263814 -0.0014085039575328316
0.31740232101919935 0.3297213350647603 -0.004036055738626984 -0.00828295830693408
0.5849513356650853 0.5036815799864699 0.015589921090432939 0.06567983458818236
1.2986802543379554 0.7184307734187686 0.1875130893779733 0.39273639154121387
2.6917899820181215 0.9666857652516062 0.6751243996711295 1.049979817095386
4.844845588775037 1.2062639920062275 1.6044203368860783 2.0341612598827297
7.502864429780128 1.4226781866179998 2.8138787246548604 3.2663075185072703
10.698342281749374 1.6567834573306124 4.37677566726566 4.664783157153097
14.400281493221064 1.9307592415791826 6.265745533198108 6.203776718443772
18.656772337237914 2.2552050079978074 8.491294241274305 7.910273087965802
23.61609701453745 2.6468914674248647 11.15357212268935 9.815633424423233
29.2440951768271 3.0969364017654395 14.214677281430276 11.932481493631387
35.585961623955086 3.586690458131415 17.780001492825917 14.219269672997761
42.385965397701966 4.151291922577033 21.586464919009344 16.648208556115605
49.51903531185433 4.671984068175108 25.67647956285642 19.170571680822807
56.31527314060065 4.751183059379047 29.927444074475684 21.63664600674592
59.52498472738836 2.4579062959034217 33.445623703293215 23.621454728191726
56.31527314060006 4.751183059386399 29.927444074470515 21.636646006743153
49.51903531184166 4.671984068173532 25.6764795628495 19.17057168081865
42.38596539767583 4.151291922571225 21.58646491899679 16.648208556107836
35.58596162393306 3.586690458133116 17.78000149281145 14.21926967298848
29.24409517680014 3.096936401761664 14.214677281416414 11.932481493622065
23.616097014507933 2.6468914674178556 11.153572122676158 9.815633424413916
18.656772337214328 2.2552050079945807 8.491294241262642 7.910273087957105
14.40028149319819 1.9307592415753503 6.265745533187486 6.203776718435348
10.698342281730568 1.6567834573307683 4.376775667255499 4.664783157144301
7.502864429762676 1.4226781866160774 2.813878724646872 3.266307518499725
4.844845588762121 1.2062639920055205 1.60442033688002 2.034161259876582
2.691789982009854 0.966685765250999 0.6751243996676503 1.0499798170912042
1.2986802543332543 0.7184307734178341 0.1875130893764911 0.39273639153892853
0.584951335662888 0.503681579985379 0.015589921090104469 0.06567983458740462
0.31740232101837285 0.32972133506357404 -0.004036055738569299 -0.008282958306632116
0.21253208182683064 0.21421786890803157 -0.0002772831236246944 -0.0014085039575762535
0.16402937159671932 0.16400105743621587 2.0805025319944343e-06 2.6233657971442312e-05
0.16827041080826816 0.16825927423662887 1.1949102869383848e-06 9.941661352316327e-06
0.2885379508802216 0.21048519494769144 0.015300878396259116 0.06275187753627089
2.210876357481489 1.3605511867751938 0.32289152223600354 0.5274336484702923
1.4319228078671455 1.0080369422002073 0.13800789558344553 0.28587797008349225
0.2288954142386914 0.22042129136865493 -0.002525601885936384 0.010999724755972887
0.1898470278045663 0.18992813650551346 -7.150694962872851e-06 -7.395800598423692e-05
0.17746137559185343 0.17752929382829685 -4.5068862973087754e-06 -6.34113501461105e-05
0.20188868292812898 0.20351152904258843 -0.00027148975827910783 -0.0013513563561803699
0.26987545204896213 0.276067220009165 -0.00219066045191348 -0.004001107508289361
0.4037038202131505 0.3981716734067219 -0.0029358331348265814 0.008467979941255126
0.7610550342474632 0.5528794256105856 0.05650871466252046 0.15166689397435762
1.5548165515786392 0.7370442460966846 0.2829326955608072 0.5348396099211464
2.885067282515699 0.9344976680984933 0.7836084946975419 1.1669611197196652
4.632150914865278 1.1219048929498074 1.5103285035753597 1.999917518340112
6.757804951300134 1.32016348999256 2.4779958313608925 2.9596456299466793
9.199049942151797 1.547224417997903 3.6353589510175257 4.016466573136369
11.997236333609722 1.811369601174317 5.001515388987169 5.184351343448237
15.27381088924425 2.1378365982726866 6.642661221831668 6.493313069139891
19.126285346210175 2.5407937298166234 8.611849279325348 7.973642337068218
23.54728615863026 3.0048742950070335 10.913648756272483 9.628763107350744
28.438559246292158 3.5184550982854588 13.48603776480492 11.434066383201777
34.15362279762205 4.200800303178782 16.50044997395739 13.452372520485863
40.60872152912288 4.6710471544036825 20.183772558536116 15.753901816183053
44.17460522104121 2.1916944583518556 23.87028668743029 18.112624075259077
40.60872152911809 4.671047154402319 20.183772558533995 15.753901816181772
34.153622797618425 4.200800303181425 16.500449973953597 13.452372520483397
28.43855924627583 3.5184550982810325 13.486037764797755 11.434066383197042
23.54728615860953 3.0048742950039844 10.913648756262113 9.62876310734342
19.126285346199527 2.540793729823387 8.611849279315354 7.973642337060787
15.273810889230528 2.1378365982723553 6.642661221824149 6.493313069134021
11.997236333594365 1.8113696011695601 5.001515388981351 5.184351343443458
9.19904994214063 1.5472244179975625 3.635358951011851 4.016466573131214
6.757804951284731 1.3201634899896877 2.477995831354411 2.9596456299406366
4.632150914855614 1.121904892950312 1.5103285035704666 1.9999175183348343
2.8850672825065247 0.9344976680965753 0.7836084946941511 1.1669611197157979
1.5548165515737153 0.7370442460962405 0.2829326955589501 0.5348396099185253
0.7610550342449325 0.5528794256100524 0.05650871466183002 0.1516668939730501
0.40370382021216933 0.3981716734057011 -0.0029358331348421176 0.008467979941310502
0.26987545204837693 0.2760672200083898 -0.0021906604518875427 -0.004001107508125174
0.2018886829277321 0.2035115290420342 -0.0002714897582665873 -0.0013513563560355955
0.17746137559131564 0.17752929382778806 -4.506886298576199e-06 -6.341135017384089e-05
0.1898470278042396 0.18992813650508295 -7.150694957622929e-06 -7.395800588569666e-05
0.22889541423783422 0.22042129136824523 -0.002525601886081234 0.010999724755670156
1.4319228078623922 1.008036942198045 0.13800789558242016 0.2858779700819268
0.9144125851206044 0.7596933753194153 0.04421058602636554 0.11050862377482368
0.1951279663809134 0.21021427400300838 -0.005275447369002637 -0.0098108602530923
0.20551232852702153 0.20552628966420114 -1.0830325320665905e-06 -1.2878104647571486e-05
0.19335388459660716 0.19339705568725235 -4.780535018951701e-06 -3.839055562623248e-05
0.20295715617718152 0.20420540476999083 -0.00024214725754956838 -0.001006101335259828
0.24616831013659712 0.2516903308154671 -0.0016851588510295888 -0.0038368618278404286
0.32068197438989143 0.31704677723846636 -0.0008013888902072044 0.004436586041632171
0.4392807822743165 0.38955870416345917 0.00969198930228725 0.040030088808570084
0.713532241698839 0.48844743417433206 0.06284305228886183 0.162241755235645
1.2714453588782666 0.6171373147310489 0.22229748239590902 0.4320105617513088
2.153387807290258 0.7487135498435431 0.5476561772179639 0.8570180802287507
3.2275444716343316 0.8828431730600699 0.9600016694472647 1.3846996291269977
4.51605227942232 1.0470853250249532 1.4972403076013772 1.971726646795988
6.0284444001071265 1.246691357617193 2.1533126926678086 2.6284403498221245
7.817346922348651 1.498067243389127 2.943440349987524 3.3758393289720035
10.007797873801483 1.8333495338447545 3.9215487154099375 4.252899624546783
12.724918962614671 2.2647981660498 5.161599147428965 5.298521649135906
15.962393365532305 2.7324448632888845 6.715450899181471 6.514497603061947
19.809992036104717 3.2912874672197283 8.584397351267835 7.934307217617151
25.39476974104206 4.342542016038795 11.199238670836442 9.852989054166832
30.27893693668082 2.131765528142972 15.417825855050694 12.729345553487152
25.394769741048442 4.3425420160438355 11.199238670837255 9.852989054167347
19.8099920360984 3.291287467216348 8.58439735126611 7.934307217615943
15.962393365521454 2.7324448632852394 6.715450899177406 6.514497603058809
12.724918962600716 2.2647981660464294 5.1615991474230745 5.2985216491312155
10.007797873783932 1.8333495338366985 3.9215487154048483 4.252899624542383
7.817346922344025 1.49806724339144 2.943440349983976 3.37583932896861
6.028444400102897 1.2466913576170984 2.153312692665679 2.6284403498201176
4.516052279417585 1.0470853250268295 1.4972403075981346 1.9717266467926189
3.227544471627521 0.8828431730592395 0.9600016694444582 1.3846996291238232
2.153387807284904 0.7487135498444502 0.5476561772152208 0.857018080225233
1.2714453588751087 0.6171373147303629 0.222297482394907 0.43201056174983943
0.7135322416974206 0.4884474341741821 0.06284305228842502 0.1622417552348132
0.43928078227329914 0.38955870416293237 0.009691989302135554 0.04003008880823139
0.3206819743891267 0.31704677723771685 -0.0008013888902235835 0.004436586041633227
0.24616831013587812 0.25169033081465253 -0.001685158851013697 -0.0038368618277607475
0.2029571561767916 0.20420540476951327 -0.00024214725753673075 -0.001006101335184926
0.19335388459615704 0.19339705568671597 -4.780535010007995e-06 -3.8390555548899666e-05
0.20551232852667978 0.20552628966376985 -1.0830325245907838e-06 -1.2878104565451337e-05
0.19512796638035293 0.2102142740023908 -0.005275447368977125 -0.009810860253060648
0.9144125851178821 0.7596933753180516 0.044210586025894935 0.1105086237739356
0.5770318100693873 0.5525967535802657 0.004239643844928331 0.020195412644193365
0.18172123950853264 0.1861919319161523 -0.0007730589630652297 -0.0036976334445544203
0.21502336451601478 0.21531394322741576 -2.7792867535070407e-05 -0.00026278584386591256
0.2090862310309989 0.20913243062431539 -6.4938816258677585e-06 -3.9705711690622776e-05
0.21325323474088476 0.21404874471578084 -0.00021196691767082302 -0.0005835430572251961
0.2434305241179096 0.2470249135341648 -0.0013196772599854737 -0.0022747121562696985
0.29858372878212447 0.29084063019055206 0.0006178035977308004 0.007125294993841811
0.3512931248611145 0.29850914905955644 0.012104688783794646 0.04067928701776346
0.3929499937094732 0.2657993152464574 0.038978071934433686 0.08817260652858228
0.4785633917683577 0.2307794426787559 0.08213920201056875 0.16564474707903293
0.6924954794736056 0.2521255975634611 0.17074435505735996 0.2696255268527845
1.0239436726781108 0.2955413200482273 0.2863116379631487 0.44209071466673444
1.4870860354412203 0.30293741555343967 0.47981054766159087 0.70433807222619
2.071183764928178 0.3095959295190956 0.7401297151562379 1.0214581202528459
2.7936952183622985 0.3362491931868939 1.0691297937717847 1.3883162314036177
3.658827246959525 0.4026647562127359 1.455242717057158 1.8009197736896325
4.719283098200459 0.530810771926939 1.9318778496223803 2.25659447665114
5.975850409569946 0.716931385673148 2.504535816695521 2.7543832072012786
7.805998333890096 1.065180352507912 3.304010614044153 3.436807367338033
12.429141758885363 2.539227855673612 4.84540493976262 5.04450896344913
20.76262406409979 2.2051225296084556 9.661290036240397 8.896211498250942
12.429141758878732 2.5392278556636825 4.845404939764555 5.044508963450499
7.805998333893793 1.0651803525136012 3.3040106140430003 3.43680736733719
5.97585040956392 0.7169313856725488 2.5045358166926563 2.7543832071987144
4.719283098191808 0.5308107719246549 1.9318778496191165 2.256594476648034
3.6588272469595964 0.4026647562160385 1.455242717055547 1.8009197736880096
2.79369521835539 0.3362491931842676 1.0691297937696729 1.3883162314014492
2.07118376492427 0.309595929518513 0.7401297151547093 1.0214581202510487
1.4870860354345283 0.30293741555171483 0.47981054765938613 0.7043380722234275
1.0239436726748663 0.2955413200473583 0.2863116379620374 0.44209071466547095
0.6924954794691447 0.25212559756088193 0.17074435505644722 0.2696255268518152
0.4785633917687794 0.2307794426790469 0.08213920201064898 0.16564474707908378
0.392949993708985 0.2657993152468193 0.038978071934113075 0.08817260652805256
0.35129312486052156 0.2985091490593451 0.012104688783672903 0.040679287017503625
0.2985837287817996 0.2908406301901515 0.0006178035977141613 0.007125294993934017
0.2434305241170754 0.2470249135332847 -0.0013196772599857471 -0.002274712156223704
0.2132532347406946 0.21404874471537777 -0.00021196691764395405 -0.0005835430570392385
0.20908623103061474 0.20913243062375572 -6.493881605457176e-06 -3.9705711535582434e-05
0.21502336451566786 0.21531394322713357 -2.779286754114335e-05 -0.00026278584392456074
0.18172123950841718 0.18619193191596367 -0.0007730589630467251 -0.0036976334444998957
0.5770318100679288 0.5525967535789145 0.0042396438448547265 0.02019541264415965
0.37594600415240076 0.37705230470171613 -0.0001797716952281951 -0.0009265288540872675
0.17206847238827044 0.1719937090279552 1.6690483905202836e-05 5.807287641005339e-05
0.2186052709602845 0.21851231617210887 1.7526657842750154e-06 9.120212239137392e-05
0.22262200093314147 0.22257265939944057 -5.699382291592285e-06 5.504091599248657e-05
0.22939196005065582 0.22940026924645734 -0.0001225486294469094 0.00011423943364541591
0.26229358290876015 0.2637634311635552 -0.0010959000195327716 -0.00037394823526247896
0.33015761344771627 0.32504096631816315 0.0002070197466308045 0.0049096273829223195
0.44365422996553006 0.39122011452706257 0.010738466998537553 0.04169564843992987
0.714729571283909 0.4882661861321719 0.06334725230597801 0.16311613284575893
1.2703114388145047 0.6166939188012233 0.22196236349261156 0.43165515652067005
2.155320290161579 0.7504283238203147 0.5481487404858412 0.8567432258554243
3.2416688232932533 0.885171758939266 0.9669560208862418 1.3895410434677453
4.548747342088147 1.0519854657929164 1.5108170265427083 1.9859448497525198
6.068932868110913 1.2495881063325271 2.1731297368591247 2.6462150249192624
7.7603010322775585 1.477573377314041 2.9260447725632597 3.3566828824002566
9.544405852751437 1.7392008076019438 3.7316884865859743 4.073516558563519
11.191895912748333 2.018474029643908 4.471701787798652 4.701720095305775
12.516579225628242 2.3424447077277266 5.060506369298466 5.113628148602054
12.98497395831841 2.565953589489493 5.23318734710832 5.185833021720597
10.412011562068361 1.6072395341726704 4.527092219948104 4.2776798079475835
21.025732422803653 3.633743241219901 8.878718471293006 8.513270710290746
10.412011562076714 1.6072395341762298 4.527092219950697 4.277679807949783
12.984973958304117 2.565953589477071 5.233187347107173 5.185833021719883
12.516579225620463 2.342444707728621 5.060506369293641 5.113628148598197
11.19189591273278 2.018474029641148 4.471701787791716 4.7017200952999225
9.54440585273752 1.7392008075979035 3.7316884865807403 4.073516558558875
7.760301032264131 1.4775733773109618 2.92604477255795 3.356682882395222
6.068932868103472 1.249588106333332 2.1731297368549196 2.646215024915218
4.548747342076896 1.0519854657918282 1.5108170265377256 1.985944849747344
3.2416688232835615 0.8851717589384149 0.9669560208820965 1.3895410434630495
2.155320290152496 0.7504283238201644 0.5481487404818552 0.8567432258504754
1.270311438809114 0.6166939187992004 0.22196236349122156 0.4316551565186914
0.7147295712819709 0.4882661861313451 0.06334725230558186 0.16311613284504378
0.4436542299643407 0.39122011452638594 0.010738466998368114 0.04169564843958665
0.3301576134470431 0.32504096631745955 0.00020701974662248228 0.004909627382961126
0.26229358290834764 0.2637634311629679 -0.0010959000195104865 -0.00037394823510980297
0.2293919600504616 0.22940026924608675 -0.00012254862942883413 0.00011423943380380717
0.22262200093286408 0.22257265939898113 -5.699382272394357e-06 5.504091615542094e-05
0.2186052709596395 0.21851231617132547 1.7526657925259647e-06 9.120212252147221e-05
0.17206847238826806 0.17199370902797428 1.669048389924402e-05 5.80728763945349e-05
0.37594600415157214 0.3770523047005712 -0.00017977169519280264 -0.0009265288538064078
0.2435230652810823 0.24350232615096007 1.3476233019465938e-06 1.9391506820260498e-05
0.15841555517938608 0.1584537584458062 -1.8967072458589485e-06 -3.630655917425295e-05
0.2156595583011437 0.2158989564147643 -2.6179291586126956e-05 -0.00021321882203448415
0.2322485465961811 0.23172231276344177 5.2699647806123886e-05 0.0004735341849332943
0.2497010273757015 0.2523611658789327 -0.0005613110127246857 -0.0020988274905066793
0.3007329140761499 0.30585773952150785 -0.0015180932728215842 -0.003606732172536581
0.4187464384605488 0.39970997936200603 -0.00012622255042231108 0.019162681648964952
0.768115726039069 0.5536872203748531 0.05897468854691515 0.15545381711730083
1.5547651779379235 0.7368332398567915 0.28296312126209955 0.5349688168190325
2.8832258946382323 0.9343626892154495 0.7826935590707673 1.1661696463520148
4.634254148824839 1.1223519924092105 1.5110344738744697 2.0008676825411578
6.7705831208790945 1.3219777245458868 2.4835882133424536 2.9650171829907515
9.227956451199768 1.549928331402914 3.6493607790821443 4.028667340714713
12.025460088711593 1.8087046952021346 5.0187903044339865 5.197965089075469
15.196300975415648 2.1066387787978376 6.617954201070003 6.471707995547806
18.634105289964253 2.4349536571301913 8.392902002214685 7.806249630619371
22.054829863530973 2.7928881678439375 10.168242211255386 9.093699484431644
25.00236756466329 3.204030733151932 11.63135864524098 10.166978186270377
26.464404818628967 3.366109422717829 12.414465727964116 10.683829667947021
24.50345704412461 3.2950186251909317 11.396927873267629 9.81151054566605
30.055889702467873 7.357006355192091 12.133329326727281 10.565554020548477
24.503457044130972 3.2950186251930527 11.396927873270215 9.8115105456677
26.46440481863022 3.3661094227226984 12.414465727961975 10.68382966794555
25.00236756464648 3.2040307331489726 11.631358645232758 10.166978186264753
22.054829863520858 2.792888167852673 10.168242211244403 9.093699484423775
18.634105289935214 2.434953657122616 8.392902002202378 7.806249630610219
15.196300975404363 2.1066387788029752 6.617954201060821 6.471707995540565
12.025460088690956 1.8087046951975712 5.018790304425221 5.1979650890681555
9.227956451180894 1.5499283314016965 3.649360779072755 4.028667340706446
6.770583120860667 1.3219777245439674 2.4835882133339613 2.9650171829827383
4.634254148812079 1.1223519924108427 1.5110344738674892 2.0008676825337464
2.883225894627326 0.9343626892134205 0.7826935590666333 1.166169646347274
1.554765177931851 0.7368332398552238 0.2829631212602183 0.5349688168164084
0.7681157260358993 0.5536872203738357 0.05897468854616346 0.15545381711590053
0.4187464384594841 0.3997099793610835 -0.00012622255047624277 0.019162681648876894
0.3007329140756721 0.30585773952085826 -0.0015180932727922895 -0.0036067321723938766
0.24970102737508723 0.2523611658781445 -0.0005613110126943974 -0.0020988274903629457
0.23224854659599986 0.23172231276305308 5.269964782593164e-05 0.0004735341851208018
0.2156595583007875 0.21589895641445284 -2.617929159216418e-05 -0.00021321882207317761
0.15841555517910783 0.15845375844552798 -1.896707244983882e-06 -3.630655917519907e-05
0.24352306528054496 0.24350232615043577 1.3476233008971399e-06 1.9391506808273514e-05
0.15050280969298518 0.15050280969298518 0.0 0.0
0.13953720683186444 0.1395208537049023 9.89853957466213e-07 1.5363273004669434e-05
0.20589631880615486 0.20605338470447965 -1.6586446199200472e-05 -0.00014047945212565985
0.23808915715769402 0.23882971996361152 -0.00012076796403538634 -0.0006197948418823013
0.2738048721579949 0.2750559572562308 -0.00038354721510140157 -0.0008675378831343804
0.3541197538282955 0.35211621563912726 -0.001935230343542533 0.003938768532710996
0.6088709367851103 0.5125410248394775 0.0222156125725764 0.07411429937305643
1.3044157990170497 0.7191579330584403 0.1900861628523103 0.39517170310629907
2.689604900514182 0.9666502483290913 0.6741042519993059 1.0488504001857837
4.843959196686489 1.2064895852546913 1.6041278133392964 2.0333417980925015
7.5054331365503675 1.4229591995692226 2.8138056688985187 3.2686682680826262
10.708366465703872 1.6575691725149768 4.3818289564299 4.668968336759004
14.414349920602726 1.9312651022779201 6.273378610296685 6.209706208028118
18.65426660411165 2.2489964800424547 8.493584168439783 7.911685955629415
23.5114238028496 2.6116710840100232 11.113223296940525 9.786529421899044
28.817352210403257 3.0018430751314673 14.017345790619794 11.798163344651998
34.37637156788375 3.4111558748718727 17.153155734571463 13.812059958440415
39.15530831857484 3.7118193051580395 19.87005216172432 15.573436851692467
41.6050958495825 3.7556889415695864 21.354858426386457 16.494548481626442
38.651935966324764 3.3021400172723885 19.83035081017617 15.519445138876208
43.396349915922464 10.240548209441073 18.45931294038395 14.69648876609746
38.651935966334854 3.302140017277643 19.830350810179176 15.51944513887802
41.605095849578085 3.755688941570736 21.354858426383018 16.49454848162434
39.15530831855881 3.71181930516056 19.870052161712955 15.573436851685301
34.37637156785161 3.41115587486378 17.15315573455682 13.812059958431
28.817352210378495 3.0018430751372 14.017345790601587 11.798163344639704
23.51142380281978 2.6116710840032833 11.113223296926995 9.7865294218895
18.654266604087017 2.2489964800423667 8.4935841684257 7.911685955618949
14.41434992057786 1.931265102278575 6.273378610282446 6.209706208016848
10.708366465681618 1.657569172515513 4.381828956417577 4.668968336748525
7.50543313652839 1.4229591995673996 2.8138056688880595 3.2686682680729335
4.843959196670694 1.2064895852528923 1.6041278133323642 2.0333417980854365
2.689604900503977 0.9666502483276955 0.6741042519952816 1.048850400181
1.3044157990116405 0.7191579330572117 0.19008616285066088 0.39517170310376803
0.6088709367824784 0.5125410248385168 0.022215612572037812 0.0741142993719234
0.35411975382731203 0.35211621563796336 -0.0019352303435225238 0.003938768532871089
0.27380487215759197 0.27505595725567134 -0.00038354721508124256 -0.0008675378829981353
0.23808915715733375 0.23882971996316743 -0.0001207679640258666 -0.0006197948418077316
0.20589631880602752 0.20605338470435516 -1.6586446200312674e-05 -0.00014047945212735432
0.13953720683161006 0.13952085370465142 9.898539572355688e-07 1.5363273001379168e-05
0.15050280969256508 0.15050280969256508 0.0 0.0
0.08806840271084858 0.08806840271084858 0.0 0.0
0.11647431012636766 0.11647483982204115 -2.2971052855553653e-08 -5.067246206468004e-07
0.19035026417025225 0.190357642604482 -1.7360224142374513e-06 -5.642411815554239e-06
0.2405650424456106 0.24067461310338467 -3.2297403289952254e-05 -7.72732544841524e-05
0.2998339502338939 0.30492076671233936 -0.0011634941975835805 -0.003923322280861847
0.44368761415283886 0.42978676946082855 0.0012808405579629919 0.012620004134047258
0.9035570251137811 0.6271351936846364 0.0803052412244429 0.19611659020470157
2.0194641630699888 0.8951967157509163 0.4134373715148108 0.7108300758042612
4.081755898874656 1.1857005790575377 1.2504279053744842 1.6456274144426333
6.884625132726797 1.436629989137145 2.474390800094576 2.9736043434950776
10.564070848444072 1.6943625067140562 4.286785163864906 4.58292317786511
14.904019794467466 1.9739969289411188 6.523473742886339 6.4065491226399995
19.925912584221933 2.300855989409366 9.195576784027386 8.42947981078519
25.721640338616034 2.6856051197596917 12.36279988840261 10.673235330453721
32.34004301495522 3.123014746128206 16.05486591644913 13.162162352377885
39.82539562406738 3.59228898309014 20.370973901592954 15.862132739384293
47.33551331374227 3.98742773410266 24.727297556592067 18.620788023047552
54.02716629527853 4.147538382107133 28.870015352172608 21.00961256099876
57.27704588903033 3.8694153187167974 31.13581353152192 22.27181703879161
53.44919739244772 3.3839974560593853 29.01436476033662 21.050835176051717
58.218873109074124 13.027350202634814 25.899264150773387 19.29225875566592
53.44919739243945 3.383997456050448 29.014364760337042 21.05083517605196
57.2770458890141 3.869415318711112 31.13581353151516 22.27181703878783
54.02716629524653 4.147538382101061 28.87001535215612 21.009612560989332
47.3355133137035 3.9874277340970385 24.727297556571425 18.620788023035022
39.82539562403128 3.5922889830896745 20.370973901571016 15.86213273937059
32.34004301491016 3.1230147461189643 16.05486591642754 13.162162352363639
25.72164033857973 2.6856051197561013 12.362799888383275 10.673235330440345
19.925912584187447 2.3008559894073817 9.19557678400864 8.429479810771413
14.904019794434248 1.9739969289368782 6.523473742870186 6.406549122627181
10.564070848417485 1.6943625067131933 4.286785163851156 4.582923177853135
6.884625132704696 1.4366299891344747 2.4743908000846693 2.973604343485552
4.081755898860602 1.1857005790559347 1.2504279053683962 1.6456274144362713
2.019464163061567 0.8951967157498605 0.41343737151161036 0.710830075800097
0.903557025110175 0.627135193683375 0.08030524122356407 0.19611659020323527
0.44368761415144387 0.42978676945976374 0.0012808405578733494 0.012620004133806866
0.2998339502335398 0.3049207667116357 -0.0011634941975226353 -0.003923322280573174
0.2405650424453529 0.2406746131030301 -3.229740328288692e-05 -7.727325439430593e-05
0.1903502641698541 0.19035764260411794 -1.7360224184193152e-06 -5.642411845344809e-06
0.11647431012618369 0.1164748398218567 -2.297105282889122e-08 -5.067246201801207e-07
0.08806840271058225 0.08806840271058225 0.0 0.0
0.04849424127206746 0.04849424127206746 0.0 0.0
0.0919814088175653 0.0919814088175653 0.0 0.0
0.17061914897082528 0.1706084903765309 6.366593226293898e-07 1.002193497175889e-05
0.24030330723976967 0.24083624494876976 -8.441468288354375e-05 -0.00044852302611653015
0.3309310525208685 0.33327418771877626 -0.0013471401564751123 -0.00099599504143273
0.5802124083019955 0.5140565073353236 0.015509529207008503 0.05064637175966322
1.3034840922957445 0.7584197121646651 0.18090411132044287 0.3641602688106366
2.920756850791461 1.0733145489720868 0.758551653916186 1.0888906479031883
5.477617058358895 1.3679348817181398 1.8019757306899193 2.307706445950835
9.161443626229627 1.6629832737270966 3.554449089291439 3.944011263211088
13.777109833577901 1.964882947842554 5.89907758777219 5.913149297963161
19.28970993470358 2.2971956738120642 8.831222226789345 8.161292034102168
25.71303190578795 2.6841328103987014 12.359399818945292 10.669499276443958
33.17119740769909 3.1405769962796275 16.570379013001375 13.460241398418084
41.67762541526371 3.673283891657988 21.442779066824542 16.56156245678119
51.15239423329265 4.205826829337318 27.000520967186468 19.946046436768874
61.085404633784435 4.571211350339203 33.10960363213719 23.404589651308047
69.37101013190032 4.501855097894112 38.44625525284222 26.42289978116398
73.06167196336165 3.8876798652695586 41.190861644587784 27.98313045350431
68.73638278708482 3.562945148644532 38.65733884620155 26.516098792238715
74.37963142264448 15.847813644700755 34.3984098729443 24.13340790499938
68.73638278708702 3.562945148649709 38.657338846199714 26.516098792237628
73.06167196333628 3.887679865264621 41.19086164457457 27.983130453497076
69.37101013186935 4.501855097897043 38.44625525282042 26.42289978115192
61.08540463373348 4.571211350332898 33.1096036321086 23.40458965129199
51.15239423324323 4.205826829331502 27.000520967159076 19.94604643675267
41.677625415223154 3.673283891661842 21.442779066797176 16.5615624567641
33.17119740765142 3.140576996276454 16.57037901297448 13.4602413984005
25.713031905746277 2.6841328103978044 12.359399818921236 10.669499276427246
19.289709934661996 2.297195673809421 8.83122222676701 8.161292034085559
13.777109833543191 1.9648829478398013 5.899077587754514 5.913149297948873
9.161443626204319 1.6629832737267316 3.554449089278272 3.9440112631993176
5.477617058340212 1.3679348817154233 1.801975730682175 2.307706445942613
2.920756850780843 1.0733145489713511 0.7585516539116023 1.0888906478978888
1.3034840922903093 0.7584197121624117 0.18090411131917727 0.3641602688087211
0.5802124082997404 0.5140565073342473 0.015509529206621544 0.050646371758871045
0.3309310525203474 0.33327418771792017 -0.0013471401564246577 -0.000995995041148013
0.24030330723951282 0.24083624494853434 -8.441468288678637e-05 -0.00044852302613479587
0.17061914897044891 0.17060849037616102 6.366593221431451e-07 1.0021934965748754e-05
0.09198140881737171 0.09198140881737171 0.0 0.0
0.04849424127198723 0.04849424127198723 0.0 0.0
0.02504882139611471 0.02504882139611471 0.0 0.0
0.0687538196361132 0.0687538196361132 0.0 0.0
0.14906505169638576 0.1490590775533421 3.662909033654852e-07 5.6078521402870744e-06
0.2394850548335898 0.2398143759554798 -5.8489740911044805e-05 -0.00027083138097885466
0.37798438786462074 0.38107809847202867 -0.0014646109291697425 -0.0016290996782381282
0.7660584075031883 0.5913819008309792 0.04604279450487464 0.1286337121673345
1.8299634287807087 0.8990393662857588 0.352918161611312 0.5780059008836375
3.8440491532798395 1.2213680794004536 1.0903786592792613 1.5323024146001256
7.072553883655425 1.5498257568888516 2.5248273673152823 2.9979007594512908
11.513415205738239 1.8874575852036002 4.698455401160268 4.9275022193743725
17.12641677007591 2.2435841326472366 7.628242504347565 7.2545901330811
23.870024146310918 2.6365015662487017 11.306687804829874 9.926834775232342
31.78888366286188 3.091758390514717 15.771639066418414 12.92548620592875
40.824001851196 3.6258739900218733 20.930614001691797 16.26751385948233
51.312783097682235 4.236802484530195 27.10474401193467 19.971236601217385
63.00542022652774 4.848752083876074 34.14687642925734 24.00979171339431
74.8815801007991 5.165687100978747 41.56063852421962 28.155254475600746
84.8399408162505 4.81171302828069 48.28032746140402 31.74790032656582
89.34578918281963 3.902725139663055 51.83898141611575 33.60408262704081
84.69486027912797 3.774075706562686 48.87408645125317 32.04669812131209
91.51718589192977 18.675273199281204 43.580184473343635 29.261728219304953
84.69486027910439 3.7740757065475536 48.874086451247564 32.04669812130926
89.34578918279797 3.90272513966937 51.83898141609737 33.60408262703121
84.83994081620779 4.811713028279509 48.28032746137673 31.747900326551523
74.88158010075713 5.16568710098838 41.56063852418615 28.15525447558259
63.00542022647045 4.848752083871194 34.14687642922382 24.009791713375407
51.31278309761665 4.236802484519024 27.104744011900465 19.971236601197173
40.82400185115026 3.6258739900276713 20.930614001660047 16.267513859462536
31.788883662809216 3.0917583905125743 15.77163906638804 12.925486205908596
23.870024146266474 2.6365015662499056 11.306687804803177 9.926834775213393
17.126416770038446 2.2435841326459696 7.6282425043271305 7.254590133065335
11.513415205705826 1.8874575852005648 4.698455401144359 4.9275022193609
7.07255388363333 1.5498257568867175 2.5248273673052504 2.9979007594413596
3.8440491532652095 1.2213680793977844 1.090378659273619 1.5323024145938073
1.8299634287729927 0.8990393662834555 0.35291816160896855 0.5780059008805671
0.766058407500343 0.5913819008297839 0.046042794504284945 0.12863371216627448
0.37798438786392824 0.3810780984710421 -0.001464610929112309 -0.0016290996780015713
0.2394850548333282 0.23981437595522118 -5.8489740915096516e-05 -0.00027083138097792165
0.14906505169618306 0.14905907755313957 3.662909033509835e-07 5.607852140109466e-06
0.06875381963602474 0.06875381963602474 0.0 0.0
0.025048821396081614 0.025048821396081614 0.0 0.0
0.012281468758795322 0.012281468758795322 0.0 0.0
0.04888443012487001 0.04888443012487001 0.0 0.0
0.12833847426079772 0.12833847426079772 0.0 0.0
0.24163611207139962 0.24233557509832124 -0.00011059651949567531 -0.0005888665074259787
0.44774298451436323 0.43488633586194014 0.0020746624823495758 0.010781986170073433
1.0288430282215968 0.6996042871884115 0.10549476474951168 0.22374397628367404
2.4084707886738976 1.022158607295532 0.5362066056670813 0.8501055757112855
4.891259242876479 1.3596057907775716 1.527196612210091 2.004456839888815
8.720601495897736 1.727056999647962 3.2896354822695852 3.703909013980189
13.963375883037187 2.1157156022685735 5.926465902930977 5.921194377837632
20.580291764644468 2.5319000302125545 9.44530504709712 8.603086687334802
28.60140785357156 2.996845118107695 13.90325995560683 11.701302779857043
37.94114975274219 3.527174488203892 19.21790823968677 15.196067024851544
48.89025312590014 4.13679921258993 25.66608249530709 19.087371418003105
61.22231616230443 4.819596390166295 33.01402464551402 23.388695126624103
74.82433502066975 5.475333213914218 41.30774590147476 28.0412559052808
88.82320540495427 5.7641432064657065 50.26774368675233 32.79131851173622
100.50401841292447 5.162436634387317 58.37834122452492 36.963240554012266
106.0486136387708 3.9437164093740043 62.86652186265654 39.23837536674024
101.58530555591801 3.9605011743426597 59.9051511314336 37.71965325014177
110.14026624863398 21.459185499173806 53.97834406115155 34.70273668830861
101.58530555589806 3.960501174340071 59.905151131422045 37.719653250135984
106.04861363873331 3.9437164093707437 62.86652186263372 39.238375366728825
100.50401841287287 5.162436634387899 58.37834122449009 36.963240553994865
88.8232054048926 5.764143206461504 50.267743686714645 32.791318511716476
74.82433502059993 5.475333213905811 41.30774590143487 28.04125590525925
61.2223161622434 4.819596390170363 33.01402464547251 23.38869512660052
48.89025312583326 4.1367992125818835 25.66608249527025 19.08737141798114
37.94114975268337 3.5271744882063083 19.217908239649272 15.196067024827798
28.601407853514743 2.9968451181017284 13.903259955576646 11.701302779836386
20.580291764595 2.5319000302053754 9.445305047072763 8.603086687316868
13.963375883001063 2.115715602266164 5.9264659029123115 5.9211943778225855
8.720601495870987 1.7270569996451681 3.289635482257079 3.7039090139687407
4.891259242859131 1.3596057907757169 1.5271966122028426 2.004456839880572
2.408470788664716 1.0221586072934397 0.5362066056639331 0.8501055757073435
1.028843028217862 0.6996042871869461 0.1054947647486378 0.223743976282278
0.447742984513352 0.434886335860944 0.0020746624823332143 0.010781986170074483
0.2416361120711162 0.24233557509782747 -0.00011059651948377544 -0.0005888665072273319
0.12833847426063918 0.12833847426063918 0.0 0.0
0.048884430124808496 0.048884430124808496 0.0 0.0
0.012281468758749607 0.012281468758749607 0.0 0.0
0.005954002370080406 0.005954002370080406 0.0 0.0
0.03363290209092945 0.03363290209092945 0.0 0.0
0.11138024422826633 0.11138024422826633 0.0 0.0
0.25242856469950964 0.25393836676666026 -0.0002502106235646728 -0.0012595914435858547
0.5492233000912299 0.49647899600508394 0.01177900165199505 0.040965302434150676
1.3645710517940577 0.8081994630226613 0.1971610402291986 0.3592105485421972
3.049052970694819 1.1255610064880492 0.7634493152959894 1.1600426489107796
6.006314318973268 1.4944866674875732 2.0153284211200604 2.496499230365635
10.427599994728617 1.9017830964434612 4.105247386772192 4.420569511512964
16.476773229715707 2.347435913076435 7.208195281042961 6.921142035596317
24.158738027257108 2.834984360810121 11.367823102301212 9.955930564145769
33.4342142041726 3.376078090914853 16.57541975012749 13.482716363130253
44.46674130414273 3.9952699782413457 22.998315847476857 17.473155478424506
57.02175785447377 4.6888051289564245 30.403362381698273 21.929590343819072
71.30426613270255 5.4022430818408065 39.09111114892258 26.810911901939157
86.84643204481857 6.033636467984408 48.793827468201684 32.018968108632485
102.66471654963195 6.33097817555748 59.03371209294374 37.30002628113072
116.22101778946576 5.682868839261816 68.51422833868924 42.02392061151469
123.2060372890537 4.012174595463101 74.36802150500135 44.82584118858923
119.61263030309756 4.05051593001127 71.93298711035074 43.62912726273549
130.4164250270281 24.069304836575675 65.7092917684165 40.637828422035916
119.61263030307862 4.050515930014097 71.93298711033611 43.62912726272838
123.20603728900946 4.012174595462165 74.36802150497212 44.82584118857518
116.22101778941085 5.682868839268496 68.51422833864798 42.023920611494326
102.66471654955973 6.330978175554391 59.03371209289786 37.300026281107485
86.84643204473807 6.033636467977445 48.79382746815346 32.01896810860716
71.30426613262439 5.402243081834521 39.091111148876074 26.810911901913776
57.02175785440077 4.688805128954333 30.403362381653377 21.929590343793063
44.46674130407638 3.9952699782450627 22.998315847433407 17.47315547839793
33.434214204106574 3.3760780909084853 16.5754197500914 13.4827163631067
24.158738027203526 2.834984360809035 11.367823102270542 9.955930564123946
16.476773229674112 2.3474359130721 7.208195281022027 6.921142035579978
10.427599994697932 1.901783096441252 4.105247386757053 4.42056951149963
6.006314318953611 1.4944866674857502 2.0153284211112377 2.496499230356624
3.049052970683225 1.1255610064859547 0.7634493152919443 1.1600426489053253
1.3645710517890262 0.8081994630211795 0.19716104022777983 0.35921054854006723
0.5492233000897175 0.4964789960039596 0.011779001651839078 0.04096530243391903
0.2524285646991009 0.25393836676618864 -0.00025021062355703224 -0.0012595914435307857
0.11138024422798506 0.11138024422798506 0.0 0.0
0.03363290209088998 0.03363290209088998 0.0 0.0
0.00595400237007024 0.00595400237007024 0.0 0.0
0.002825555465426323 0.002825555465426323 0.0 0.0
0.023170429751834705 0.023170429751834705 0.0 0.0
0.10212346716957516 0.10212346716957516 0.0 0.0
0.2809870957756716 0.2828724585224172 -0.000547557730414999 -0.001337805016330677
0.7050675818081783 0.5837888829236655 0.035818357900720244 0.0854603409837924
1.7469363320899225 0.9024838811673449 0.3078720143977754 0.5365804365248014
3.7725514580177135 1.2312134877048273 1.0532431928939203 1.4880947774189663
7.161700421242564 1.6239204921967527 2.5349734944599898 3.0028064345858194
12.197678876576127 2.074983312653723 4.979031911567205 5.143663652355203
19.04442658554922 2.584664864716986 8.536510209206371 7.923251511625865
27.789564068705168 3.1489585624881085 13.328518575764761 11.312086930452296
38.49582700687516 3.7816907839200953 19.44664938337987 15.26748683957518
50.96675320091187 4.495700216512835 26.70526920128101 19.765783783118046
65.46020652696944 5.2622989714401935 35.42229938861441 24.77560816691484
81.65789313086538 6.005804243725539 45.41722357695655 30.234865310183295
98.96563315631474 6.556897027168909 56.43408338724991 35.974652741895866
116.25536315027469 6.720296390157034 67.86642866290998 41.66863809720767
131.6005748724296 6.286229024237526 78.52025886376212 46.794086984429924
140.6671127875388 4.4130319828775555 85.95831400648878 50.29576679817246
138.91989259233105 3.850106180191306 85.17760881988038 49.89217759225938
152.5482849244311 25.55426268463446 79.65656877011652 47.33745346968014
138.91989259229751 3.8501061801821086 85.17760881986372 49.89217759225169
140.667112787491 4.413031982881248 85.958314006454 50.29576679815578
131.6005748723595 6.286229024238741 78.52025886371382 46.794086984406974
116.2553631501945 6.720296390156493 67.86642866285649 41.66863809718142
98.96563315622979 6.5568970271692555 56.43408338719355 35.97465274186703
81.65789313078128 6.005804243723309 45.41722357690314 30.234865310154866
65.46020652688352 5.262298971435422 35.422299388562365 24.775608166885743
50.96675320083516 4.495700216513758 26.70526920123222 19.765783783089162
38.49582700680342 3.781690783914548 19.44664938333937 15.267486839549502
27.789564068647994 3.148958562488488 13.328518575730527 11.312086930428983
19.04442658550222 2.58466486471314 8.536510209181701 7.9232515116073765
12.197678876541794 2.074983312651324 4.979031911549887 5.143663652340578
7.161700421219135 1.6239204921932457 2.534973494449913 3.002806434575979
3.7725514580044863 1.2312134877033516 1.0532431928885513 1.4880947774125823
1.7469363320835787 0.9024838811653818 0.30787201439593614 0.5365804365222608
0.705067581806094 0.5837888829223804 0.03581835790042394 0.08546034098328965
0.28098709577518766 0.2828724585217909 -0.0005475577303989788 -0.001337805016204162
0.10212346716938718 0.10212346716938718 0.0 0.0
0.023170429751789026 0.023170429751789026 0.0 0.0
0.0028255554654080368 0.0028255554654080368 0.0 0.0
0.000851025970351776 0.000851025970351776 0.0 0.0
0.01686513062662177 0.01686513062662177 0.0 0.0
0.10652249263739058 0.10652249263739058 0.0 0.0
0.34381239177296546 0.3403138513593844 0.00028705360499409324 0.0032114868085870215
0.9296878430341765 0.7120201943407581 0.07208704298115433 0.14558060571226406
2.225274032189322 1.103719694074751 0.4263892099556875 0.6951651281588831
4.599751381916613 1.543801419906421 1.2996292039814494 1.7563207580287425
8.470410351827496 2.1111033098627145 2.962885227450662 3.3964218145141234
14.168947847608914 2.823894527335033 5.647775151631138 5.69727816864275
21.984484171184896 3.7149982574310827 9.583801774140642 8.685684139613166
32.048347551515164 4.8098937318645465 14.897583005928869 12.340870813721748
44.286768965445354 6.121083989904877 21.53975383276946 16.62593114277103
58.81488308726161 7.631791269271652 29.680469413841507 21.502622404148454
75.52578939335606 9.293563536089822 39.302763622994526 26.929462234271682
94.00889492848088 10.88493346450085 50.31500579286569 32.808955671114326
113.3202544022882 12.02187542232165 62.37302372708935 38.9253552528772
131.82836249665093 12.267763270023703 74.63543929934228 44.925159927284966
147.5908158407075 11.510031815658518 85.84294999017915 50.237834034869806
158.65659568961638 10.357574783887435 94.19067854201992 54.108342363709056
154.69051729117268 3.9164011482994248 95.83296983562661 54.94114630724658
217.19342247351742 70.59603826615361 93.08374079955105 53.51364340781281
154.69051729114057 3.9164011482956216 95.83296983560727 54.94114630723768
158.65659568956295 10.357574783890716 94.19067854198069 54.10834236369145
147.59081584062847 11.510031815659715 85.84294999012471 50.23783403484418
131.82836249654574 12.267763270005823 74.63543929928358 44.9251599272564
113.32025440219353 12.021875422319894 62.373023727027345 38.9253552528462
94.00889492838108 10.884933464490109 50.31500579280727 32.808955671083744
75.52578939326276 9.293563536086243 39.302763622936446 26.929462234240063
58.8148830871729 7.631791269266927 29.680469413788423 21.502622404117595
44.28676896535838 6.121083989888673 21.539753832725726 16.62593114274396
32.04834755144391 4.809893731852651 14.897583005893248 12.340870813698029
21.98448417113071 3.714998257424793 9.583801774112894 8.685684139593027
14.168947847569713 2.8238945273303044 5.647775151612121 5.697278168627289
8.470410351800263 2.1111033098578353 2.9628852274391235 3.396421814503305
4.5997513819011635 1.543801419903947 1.2996292039753554 1.7563207580218625
2.225274032180929 1.1037196940714695 0.426389209953669 0.6951651281557898
0.9296878430309745 0.7120201943386519 0.07208704298073818 0.1455806057115844
0.3438123917721733 0.3403138513587348 0.0002870536049640439 0.003211486808474398
0.10652249263716036 0.10652249263716036 0.0 0.0
0.016865130626633307 0.016865130626633307 0.0 0.0
0.0008510259703283991 0.0008510259703283991 0.0 0.0
CELL_DATA 800
SCALARS Stress float 6
LOOKUP_TABLE default
163.21281595442588 -515.193338938556 -181.99224946157372 -108.9403747988164 0.0 0.0
400.54549286985196 -61.90110096233877 116.16182029505235 56.46344075045481 0.0 0.0
403.5063228780986 9.360894949975293 123.66397934351741 -3.3602418773278133 0.0 0.0
463.1029155418306 -12.172679328552288 142.12886885766818 -14.597005103156116 0.0 0.0
538.9351579433787 -17.507277898968155 194.26147467694088 -11.555418910955977 0.0 0.0
611.3176119948572 -12.226584218237349 265.59589568720776 -10.0382513011882 0.0 0.0
681.4830709243213 -5.414073326531039 324.5095140164735 -10.38131910051389 0.0 0.0
752.0228286063463 9.182576553658713 374.811766220304 -11.819539957129308 0.0 0.0
824.6162247075029 31.276208517367124 424.3748056945648 -13.39411573696994 0.0 0.0
899.3646251170126 60.06774391632119 476.91578369559795 -14.493998892536263 0.0 0.0
974.9556155859752 93.51104239901491 531.8727794493219 -14.98367345511508 0.0 0.0
1050.1381695013888 130.44216431864083 588.2539617621873 -14.918353253065678 0.0 0.0
1124.8959220747672 169.49593658925787 645.388277898572 -14.696208357353248 0.0 0.0
1200.0592691710392 211.25661176792138 704.0005264681694 -14.407339346839992 0.0 0.0
1276.2965514307575 256.50331834807935 764.8482359515791 -13.92962961859709 0.0 0.0
1352.9978429711616 304.8864477851056 827.4719715171254 -13.071273518890095 0.0 0.0
1427.844314062204 354.73049985610976 889.8870718896218 -11.670307181660501 0.0 0.0
1497.9677993839491 403.96907052725714 949.6145768234525 -9.880878325444266 0.0 0.0
1561.410751215503 451.6297034962118 1005.1344939293264 -8.860804988200721 0.0 0.0
1644.5257636083284 526.068677701758 1083.3771114352799 -13.126653495646943 0.0 0.0
1644.5257636073636 526.068677700803 1083.3771114345413 13.126653495630997 0.0 0.0
1561.410751215527 451.62970349628273 1005.1344939292892 8.86080498828072 0.0 0.0
1497.9677993831967 403.9690705265734 949.6145768229105 9.880878325511151 0.0 0.0
1427.8443140619122 354.7304998559194 889.887071889404 11.670307181581103 0.0 0.0
1352.997842970319 304.88644778436554 827.4719715165049 13.071273518844526 0.0 0.0
1276.2965514299995 256.50331834745293 764.8482359509179 13.929629618511905 0.0 0.0
1200.0592691706322 211.25661176768898 704.0005264677693 14.407339346977984 0.0 0.0
1124.8959220742747 169.49593658895063 645.3882778981186 14.696208357249262 0.0 0.0
1050.138169501914 130.4421643193981 588.2539617624362 14.91835325309185 0.0 0.0
974.9556155856708 93.51104239892581 531.8727794490229 14.983673454991006 0.0 0.0
899.3646251152205 60.067743914744966 476.91578369434905 14.493998892447447 0.0 0.0
824.6162247068909 31.276208516999347 424.3748056941388 13.3941157369346 0.0 0.0
752.0228286055325 9.182576553109087 374.81176621975715 11.819539957042291 0.0 0.0
681.4830709243198 -5.414073326231005 324.5095140164118 10.381319100423983 0.0 0.0
611.3176119948936 -12.226584217902065 265.5958956871222 10.038251300989257 0.0 0.0
538.9351579432492 -17.507277898804116 194.26147467679846 11.55541891089726 0.0 0.0
463.10291554152593 -12.172679328629366 142.12886885753474 14.597005103031737 0.0 0.0
403.50632287796685 9.360894949933698 123.66397934346855 3.3602418771434692 0.0 0.0
400.5454928697719 -61.901100962245415 116.16182029500885 -56.46344075049834 0.0 0.0
163.21281595499897 -515.1933389380052 -181.99224946103712 108.94037479846168 0.0 0.0
63.42910590311365 -543.9850930996879 -242.23975271143098 -155.63186960099048 0.0 0.0
262.2298415751598 -49.60320856052459 63.81895410489842 10.405065527439005 0.0 0.0
353.5991087576571 29.588521308319777 114.95579889346514 -9.972876091962627 0.0 0.0
426.898206106345 -9.890950397122966 127.13558327428659 -34.53725151438638 0.0 0.0
510.39220664803275 -18.123217257388095 172.28011250772894 -32.82731669160505 0.0 0.0
587.3860267194626 -13.270850742333252 244.4381541840288 -29.685615027875198 0.0 0.0
661.3323423497193 -6.330404244703047 309.46500437363903 -30.388185067251882 0.0 0.0
732.874966319371 7.851959166709726 362.8949450740596 -32.561940930948865 0.0 0.0
804.280174387734 28.59516535461387 412.21287446711176 -34.97720716668809 0.0 0.0
876.1422766312522 54.89929861039079 462.38671268719804 -36.377721748932736 0.0 0.0
947.4771895826805 84.81900982660837 513.5820610146868 -36.54789482290177 0.0 0.0
1017.8366374894326 117.02087577647033 565.2375624614349 -35.91773932094589 0.0 0.0
1087.4786394952412 151.81706582919287 617.7094384750503 -35.02746269329595 0.0 0.0
1157.438286573294 189.10607709275178 671.510689685125 -34.04631709426301 0.0 0.0
1227.9956437077178 229.13985891940789 726.9386948969725 -32.74529539909736 0.0 0.0
1298.64684806645 271.8054555222403 783.699372147448 -30.717582651982557 0.0 0.0
1368.1444090459315 316.402320823628 840.8149146441381 -27.760967006626313 0.0 0.0
1435.167220069096 362.4949606094361 897.3832827499396 -24.43408650950268 0.0 0.0
1504.0976313597357 415.7913610744434 958.3415793148203 -22.0860831306713 0.0 0.0
1555.1814936228573 457.9085129302813 1004.7880775276029 -20.338009852143863 0.0 0.0
1555.1814936226176 457.9085129300586 1004.7880775272898 20.338009852191664 0.0 0.0
1504.0976313596504 415.79136107440945 958.3415793146489 22.08608313075647 0.0 0.0
1435.1672200683754 362.4949606087828 897.3832827493152 24.43408650956898 0.0 0.0
1368.1444090454545 316.4023208232504 840.8149146437503 27.76096700660746 0.0 0.0
1298.6468480665721 271.80545552247037 783.6993721474357 30.71758265198426 0.0 0.0
1227.9956437077292 229.13985891958293 726.9386948969017 32.74529539924076 0.0 0.0
1157.4382865726548 189.106077092267 671.5106896846942 34.046317094294025 0.0 0.0
1087.4786394944156 151.81706582853164 617.7094384744006 35.0274626931938 0.0 0.0
1017.8366374895442 117.02087577680757 565.2375624614934 35.91773932103166 0.0 0.0
947.4771895835627 84.81900982773982 513.5820610153199 36.54789482287315 0.0 0.0
876.1422766316152 54.89929861101621 462.3867126874656 36.37772174893736 0.0 0.0
804.2801743878027 28.595165354948534 412.212874467135 34.97720716668466 0.0 0.0
732.874966319303 7.85195916693479 362.89494507397166 32.56194093095303 0.0 0.0
661.332342349492 -6.3304042446637325 309.4650043734296 30.388185067191145 0.0 0.0
587.3860267187708 -13.270850742772197 244.43815418351153 29.685615027889398 0.0 0.0
510.3922066477433 -18.12321725737554 172.28011250752527 32.827316691564775 0.0 0.0
426.8982061062962 -9.890950396777216 127.13558327436074 34.53725151437259 0.0 0.0
353.5991087575874 29.58852130831574 114.95579889344341 9.972876092026466 0.0 0.0
262.22984157521864 -49.603208560211456 63.818954105012196 -10.405065527511763 0.0 0.0
63.42910590347003 -543.985093099354 -242.23975271108515 155.6318696007301 0.0 0.0
12.909027022378012 -550.5433350470785 -263.6426558714742 -170.183886797071 0.0 0.0
149.2611307032494 -41.640724830834095 32.28612176172458 -43.44778850012832 0.0 0.0
287.5539432722079 33.30648639255819 96.25812889942982 -33.346089600056345 0.0 0.0
380.22840463307045 -1.3802580992562796 114.09817953847748 -54.04502223150091 0.0 0.0
472.6214017933708 -16.811330219718265 150.59305180867426 -56.262084248305506 0.0 0.0
560.0828981492155 -16.030896638076896 218.9013780979933 -51.218333560854944 0.0 0.0
637.0316152436403 -6.397941260937667 291.08954469364124 -50.72051002558337 0.0 0.0
709.3484899212048 6.590031200942988 347.9786097989331 -53.2328632232238 0.0 0.0
779.979868602514 26.00175415552569 397.83877625521154 -56.09700317810852 0.0 0.0
848.8980105287856 49.5124713196188 445.6475134941953 -57.527947756116255 0.0 0.0
916.0999948781605 75.65752828721922 493.05361373621673 -57.3297332512623 0.0 0.0
981.6001876852255 103.84084997310805 540.340242769587 -56.14084812311263 0.0 0.0
1046.4470508707573 133.90512226970128 588.0851287589932 -54.75376247215834 0.0 0.0
1111.0266990443947 166.47725093022888 636.8720933042998 -53.143002750089586 0.0 0.0
1175.7135098524702 201.11744372938233 686.7009265362371 -51.05186097198985 0.0 0.0
1240.3603879708774 237.89832677491148 737.537137100726 -48.060755998664725 0.0 0.0
1304.7263473389876 277.2667199698394 789.4646412513429 -43.99799392554956 0.0 0.0
1369.989085239635 321.40911977841733 844.1356317769157 -39.43722392099736 0.0 0.0
1431.2105937352385 366.5493231376312 897.2332328505377 -34.24504453437625 0.0 0.0
1474.342390666026 399.74804053281656 935.2982373548579 -26.566576955588708 0.0 0.0
1474.3423906665278 399.7480405333325 935.2982373553032 26.566576955552215 0.0 0.0
1431.210593736072 366.54932313852856 897.2332328512477 34.24504453451774 0.0 0.0
1369.9890852396002 321.4091197784397 844.1356317768954 39.43722392093532 0.0 0.0
1304.7263473383077 277.26671996924836 789.4646412508567 43.997993925624684 0.0 0.0
1240.3603879707312 237.89832677488437 737.5371371006107 48.06075599867069 0.0 0.0
1175.7135098520519 201.11744372907913 686.7009265360105 51.051860971951044 0.0 0.0
1111.0266990437183 166.47725092969387 636.8720933038084 53.143002750041575 0.0 0.0
1046.447050871584 133.90512227073464 588.085128759498 54.753762472247345 0.0 0.0
981.6001876855365 103.84084997365471 540.3402427697729 56.14084812321646 0.0 0.0
916.0999948779656 75.65752828726283 493.0536137360875 57.329733251302486 0.0 0.0
848.898010528695 49.512471319794884 445.647513494116 57.5279477561647 0.0 0.0
779.9798686019614 26.001754155223708 397.83877625486565 56.097003178135 0.0 0.0
709.3484899202621 6.590031200269621 347.97860979832484 53.232863223272886 0.0 0.0
637.0316152429061 -6.397941261446839 291.0895446930911 50.720510025385366 0.0 0.0
560.0828981489574 -16.030896638067453 218.9013780977011 51.21833356067461 0.0 0.0
472.6214017931327 -16.811330219597078 150.59305180855185 56.26208424833608 0.0 0.0
380.2284046327988 -1.3802580992134796 114.09817953842534 54.045022231441024 0.0 0.0
287.55394327232796 33.306486392817064 96.25812889954351 33.34608959994959 0.0 0.0
149.26113070350453 -41.64072483030994 32.28612176195837 43.44778849994043 0.0 0.0
12.90902702259146 -550.543335046794 -263.6426558711823 170.1838867968757 0.0 0.0
-5.9952388692204295 -537.4546222851008 -258.42173386927345 -172.36597171740917 0.0 0.0
87.106657638425 -41.37638287844558 13.719082427993825 -89.02418840551933 0.0 0.0
224.9835525860724 30.74511765634834 76.71860107272622 -64.32729579551706 0.0 0.0
328.13333004296703 6.2371930217043 100.31178238685945 -75.23285151207871 0.0 0.0
425.1519721704697 -14.359474266225368 129.3690839736979 -81.78580152143326 0.0 0.0
521.9934911132991 -16.907738947319295 190.591774196372 -74.74344985109309 0.0 0.0
605.8593099427596 -7.819868357970037 266.39893812295026 -71.83475365002582 0.0 0.0
681.225758636316 5.942423296234267 329.76051018646126 -73.94971906880572 0.0 0.0
750.8679160251268 23.264255524029707 380.47031102178784 -76.72396568979964 0.0 0.0
817.0639682753816 43.89878589044325 426.31552942410605 -77.95100583981242 0.0 0.0
880.3404738179506 66.37167334283444 470.1949923872404 -77.33673408329368 0.0 0.0
941.420865149976 90.40808435690047 513.2984130738803 -75.67512700012612 0.0 0.0
1001.0766198734308 116.01723848773372 556.2713289605206 -73.79334842850328 0.0 0.0
1060.5439352473973 143.63236638728375 600.0671123351947 -71.67485289473552 0.0 0.0
1119.459129688534 172.64294661346605 644.233498480388 -68.91108721670281 0.0 0.0
1177.8108996517299 203.5268900821225 688.9968251320878 -65.14676529758258 0.0 0.0
1237.2240415954698 237.72060596259308 735.8588707390963 -60.343579358048245 0.0 0.0
1297.461100290374 276.2483594016637 785.2198500106986 -54.46153203853515 0.0 0.0
1353.4594266058355 315.04359643836665 832.555743384539 -46.208343086943735 0.0 0.0
1393.7957011388667 343.74438225467253 866.9865032212165 -33.15097385635565 0.0 0.0
1393.7957011394249 343.74438225525034 866.9865032215924 33.15097385636733 0.0 0.0
1353.4594266063752 315.0435964389958 832.5557433849187 46.208343087199665 0.0 0.0
1297.4611002901033 276.24835940147995 785.219850010461 54.461532038667215 0.0 0.0
1237.2240415961144 237.72060596338986 735.8588707394119 60.34357935829243 0.0 0.0
1177.810899651586 203.52689008208694 688.9968251318355 65.14676529752542 0.0 0.0
1119.459129688098 172.6429466131526 644.2334984800008 68.91108721669534 0.0 0.0
1060.5439352473488 143.63236638743922 600.0671123351524 71.67485289491587 0.0 0.0
1001.0766198740974 116.01723848868019 556.2713289609546 73.79334842874208 0.0 0.0
941.4208651500406 90.40808435719191 513.2984130738226 75.67512700022155 0.0 0.0
880.3404738178031 66.37167334287946 470.1949923870464 77.33673408319673 0.0 0.0
817.0639682757912 43.89878589115142 426.31552942434473 77.95100583990404 0.0 0.0
750.8679160248574 23.264255524022488 380.47031102156274 76.72396568982136 0.0 0.0
681.2257586363478 5.94242329662606 329.7605101864561 73.9497190689381 0.0 0.0
605.8593099421544 -7.819868358255064 266.3989381224722 71.83475365003825 0.0 0.0
521.9934911132792 -16.90773894693836 190.5917741962986 74.74344985108245 0.0 0.0
425.1519721703094 -14.359474265972608 129.3690839736784 81.78580152134914 0.0 0.0
328.13333004265166 6.237193021501318 100.31178238671164 75.2328515119774 0.0 0.0
224.9835525860732 30.74511765627548 76.71860107270459 64.3272957952694 0.0 0.0
87.10665763858273 -41.37638287819498 13.719082428116321 89.0241884053101 0.0 0.0
-5.995238869178209 -537.4546222848664 -258.4217338690375 172.36597171730662 0.0 0.0
-10.043794968932488 -513.0011175873319 -238.64562788925286 -170.0922217040619 0.0 0.0
51.896724534969934 -42.23346535230046 2.8989777548008444 -124.49882569074506 0.0 0.0
171.08820040532513 25.32195387109816 58.923046282926975 -95.57113560687131 0.0 0.0
272.9923978603675 10.765996591453284 85.1285829358835 -97.91215216182536 0.0 0.0
367.73446404893093 -9.502792322091592 109.52725621361986 -106.91436725807918 0.0 0.0
472.66372254570143 -17.018490777690612 160.4501785475177 -101.45896562534315 0.0 0.0
567.1570794065641 -9.730348159866443 235.7454737109661 -94.82206199917519 0.0 0.0
646.7696852609153 4.83233294315173 306.07338914472365 -94.74007967505193 0.0 0.0
716.2732476555318 20.62737936887862 359.4441811859965 -96.90007928735359 0.0 0.0
779.9721534647997 38.081677166621155 403.90056986923355 -97.69844633879583 0.0 0.0
839.6826193119196 56.94315204142192 444.66099624593676 -96.6033058899546 0.0 0.0
896.2319021305427 76.84654481559805 483.6029072869736 -94.4675225451537 0.0 0.0
951.0273684178611 97.97431837049606 521.9990991676643 -92.24317285730024 0.0 0.0
1004.8305832476124 120.62563235621784 560.5299411386502 -89.61829740603163 0.0 0.0
1058.1124328722053 144.27272226614713 599.2364337207864 -86.27063382716476 0.0 0.0
1110.9729876057957 169.1833480040091 638.3075636610515 -82.01531874505014 0.0 0.0
1163.8497033108833 196.83160560159948 678.6583063116134 -76.63499741988309 0.0 0.0
1218.0966036539344 228.58203500740015 721.6492945661735 -69.60227003104045 0.0 0.0
1270.1802719869602 261.6514679381813 764.1648932263662 -58.60806568607992 0.0 0.0
1310.6490779814221 287.9098633668765 797.4206432471929 -40.65243958188341 0.0 0.0
1310.6490779820883 287.9098633675608 797.4206432476998 40.65243958192262 0.0 0.0
1270.1802719867533 261.6514679380587 764.1648932262543 58.60806568628838 0.0 0.0
1218.096603653502 228.58203500707026 721.6492945658345 69.6022700312379 0.0 0.0
1163.8497033107383 196.83160560158296 678.6583063114884 76.63499742003128 0.0 0.0
1110.97298760538 169.1833480036681 638.3075636607284 82.01531874495771 0.0 0.0
1058.1124328722483 144.27272226635148 599.2364337207746 86.27063382724022 0.0 0.0
1004.8305832463334 120.62563235507446 560.5299411377498 89.61829740604723 0.0 0.0
951.0273684180531 97.97431837090298 521.9990991677853 92.24317285741807 0.0 0.0
896.2319021297326 76.84654481496071 483.6029072864139 94.4675225451065 0.0 0.0
839.6826193109 56.943152040523074 444.66099624521325 96.6033058897986 0.0 0.0
779.9721534638586 38.08167716586871 403.9005698686121 97.69844633870497 0.0 0.0
716.2732476548301 20.627379368349168 359.4441811855122 96.90007928720678 0.0 0.0
646.7696852602211 4.8323329426680885 306.07338914420177 94.74007967490064 0.0 0.0
567.1570794059662 -9.730348160250635 235.74547371046995 94.8220619990198 0.0 0.0
472.6637225451205 -17.018490778109395 160.45017854710179 101.45896562513522 0.0 0.0
367.73446404836255 -9.502792322585842 109.52725621330855 106.91436725789316 0.0 0.0
272.99239786010685 10.765996591244637 85.12858293574908 97.91215216174128 0.0 0.0
171.0882004051271 25.321953870671692 58.92304628273962 95.57113560674748 0.0 0.0
51.89672453509537 -42.2334653520149 2.898977754924145 124.49882569055718 0.0 0.0
-10.04379496885457 -513.0011175870532 -238.64562788899258 170.09222170397356 0.0 0.0
-7.39404317290392 -480.94634253178106 -210.68988050002895 -166.57246456581865 0.0 0.0
30.47612752671505 -42.52244001468704 -3.613893746391598 -150.8906277227901 0.0 0.0
125.05505380909763 19.042929506491625 43.22939499467677 -123.1945129035589 0.0 0.0
217.16177266696633 12.626210496583884 68.93241849048151 -120.58801537036848 0.0 0.0
304.5307688343632 -3.7256001209834166 90.83649731119402 -130.0305116034495 0.0 0.0
407.3299476224554 -15.7191169834602 129.42577168320614 -130.2438017587501 0.0 0.0
513.3164356575214 -10.527699072533013 198.87790414196556 -120.71653067670084 0.0 0.0
601.7087714269971 2.3328198928944914 273.5261529566609 -116.62365296933763 0.0 0.0
674.5232091011508 17.640692622357175 332.859207770822 -116.8924402712517 0.0 0.0
736.4986288528647 32.23743231201384 377.4997518865761 -116.78237041509844 0.0 0.0
792.6004366874965 47.273013076877916 415.46852012416474 -115.15327701346806 0.0 0.0
844.9869804295282 63.21618485224282 450.69551933117907 -112.57724373203031 0.0 0.0
894.7449192289987 79.99025117148405 484.55405025256744 -109.98383753076587 0.0 0.0
943.060830065245 97.47478621411585 517.8468798328952 -107.08603242030264 0.0 0.0
990.9598243374953 115.88444377575709 551.2832321879044 -103.30244922840618 0.0 0.0
1037.7325227969393 135.2613071239979 584.5919627705872 -98.46017009109971 0.0 0.0
1083.8725210784792 155.43454632537052 617.9059863610523 -92.73380392454915 0.0 0.0
1131.0317017166963 178.84294860774486 653.2133721474696 -85.03357125792436 0.0 0.0
1179.3430555457621 205.95323467042587 690.8396729715887 -71.93703519559318 0.0 0.0
1222.221484384991 230.9335238607582 724.6024015077605 -49.67084735335117 0.0 0.0
1222.2214843856384 230.93352386144002 724.6024015082567 49.67084735346211 0.0 0.0
1179.3430555458701 205.9532346706544 690.839672971697 71.93703519590565 0.0 0.0
1131.0317017167054 178.84294860791175 653.213372147543 85.03357125818489 0.0 0.0
1083.8725210784255 155.43454632544336 617.9059863610935 92.73380392466467 0.0 0.0
1037.7325227975039 135.26130712470734 584.5919627709975 98.46017009114772 0.0 0.0
990.9598243379556 115.88444377632038 551.2832321881756 103.30244922832767 0.0 0.0
943.0608300650221 97.47478621397761 517.846879832701 107.08603242020402 0.0 0.0
894.7449192287025 79.9902511713384 484.5540502523213 109.98383753073487 0.0 0.0
844.9869804289388 63.21618485177575 450.6955193307326 112.57724373196336 0.0 0.0
792.600436687081 47.273013076655246 415.4685201238445 115.15327701342842 0.0 0.0
736.4986288520142 32.23743231124445 377.4997518859329 116.78237041487014 0.0 0.0
674.5232091006255 17.64069262204586 332.85920777042287 116.89244027119697 0.0 0.0
601.7087714263762 2.3328198925701003 273.52615295616266 116.62365296931878 0.0 0.0
513.3164356571831 -10.527699072494276 198.8779041416613 120.71653067665841 0.0 0.0
407.32994762269163 -15.719116982547998 129.42577168343863 130.2438017587391 0.0 0.0
304.5307688345099 -3.725600120204815 90.83649731146913 130.03051160345774 0.0 0.0
217.16177266682703 12.626210496529986 68.93241849042495 120.58801537026883 0.0 0.0
125.05505380902879 19.042929506352316 43.229394994614324 123.19451290335822 0.0 0.0
30.476127526747078 -42.522440014441514 -3.613893746308331 150.89062772268335 0.0 0.0
-7.394043172799471 -480.94634253143784 -210.68988049973936 166.5724645657496 0.0 0.0
-1.792823248704309 -442.83026124682493 -178.1694256229496 -163.11141396012917 0.0 0.0
15.286261565240032 -42.83641115495054 -8.265101460138608 -169.3628907466226 0.0 0.0
84.5074331717679 13.056792167927473 29.269267601908606 -145.59648419937287 0.0 0.0
161.76224961993856 13.799459459795042 52.66538914623288 -141.36552401924584 0.0 0.0
237.8023194620801 0.7653934551023323 71.87467325509323 -150.5989666393578 0.0 0.0
329.7038084084253 -11.571854907201255 100.02741640274574 -158.12409135777992 0.0 0.0
440.84241971234286 -11.033374637488745 156.60779482652958 -150.17781872915404 0.0 0.0
541.2063632381744 0.08816714197368114 230.94234753972967 -140.8542041848867 0.0 0.0
620.5256398683125 13.484218048961251 296.2639341018092 -137.35558835893977 0.0 0.0
683.8154015085304 26.17827553868855 344.58128708144903 -135.43933289394545 0.0 0.0
736.7778701657762 37.38473856580635 380.9646917134728 -133.02263101142074 0.0 0.0
785.2163914487885 49.57974826327569 413.1330985864928 -130.00681488212166 0.0 0.0
830.0349722162888 61.983313081778476 442.6882546848986 -127.1020702219339 0.0 0.0
872.5970109211593 74.55594504643406 470.8475296578288 -123.99591638358105 0.0 0.0
914.3719178604075 87.39921684090368 498.507754174754 -120.02067669061236 0.0 0.0
956.4562347556049 101.62695726485298 526.940630610998 -114.71952808320484 0.0 0.0
995.6015657299799 114.69212315244326 553.3180784374813 -108.40465582834696 0.0 0.0
1033.744609274189 128.06873717304302 579.1860010006644 -100.6094043592663 0.0 0.0
1077.4839121404545 147.02995293394423 610.40534211133 -86.69675985217067 0.0 0.0
1125.0539139190928 171.3218915219937 646.0467479860862 -61.099372138790706 0.0 0.0
1125.0539139192251 171.32189152218237 646.0467479861431 61.0993721389907 0.0 0.0
1077.4839121404568 147.0299529340839 610.4053421113158 86.69675985247389 0.0 0.0
1033.7446092744995 128.0687371735321 579.1860010007738 100.6094043595613 0.0 0.0
995.6015657297804 114.69212315240438 553.3180784372771 108.40465582848448 0.0 0.0
956.4562347550913 101.62695726449115 526.9406306106295 114.71952808334248 0.0 0.0
914.3719178603801 87.39921684112215 498.50775417470913 120.02067669082383 0.0 0.0
872.5970109211727 74.55594504661764 470.84752965782457 123.99591638363583 0.0 0.0
830.0349722162916 61.9833130820615 442.6882546849753 127.1020702221418 0.0 0.0
785.2163914489591 49.579748263666445 413.13309858659693 130.00681488215704 0.0 0.0
736.7778701653469 37.384738565555026 380.96469171317085 133.0226310113686 0.0 0.0
683.815401507775 26.178275537943748 344.581287080895 135.43933289368766 0.0 0.0
620.525639868051 13.484218048968884 296.26393410160597 137.35558835891965 0.0 0.0
541.2063632376977 0.08816714185080343 230.94234753935058 140.8542041848881 0.0 0.0
440.8424197119669 -11.033374637338747 156.6077948263043 150.1778187292267 0.0 0.0
329.7038084082869 -11.571854906759109 100.02741640280271 158.12409135766967 0.0 0.0
237.80231946186012 0.7653934551000043 71.87467325503101 150.59896663917806 0.0 0.0
161.76224962000788 13.799459460194665 52.66538914637457 141.3655240191032 0.0 0.0
84.50743317188585 13.056792168295232 29.269267602054324 145.59648419906114 0.0 0.0
15.286261565253433 -42.836411154851895 -8.265101460104932 169.36289074642664 0.0 0.0
-1.7928232487098583 -442.83026124655527 -178.16942562272095 163.11141396006136 0.0 0.0
3.078900576975485 -400.128958617923 -145.67404482495004 -160.4565261012022 0.0 0.0
1.0078969843254169 -43.717305581304075 -12.812080972749188 -180.16097964856138 0.0 0.0
47.44220265180449 8.248642375224131 16.706850436861043 -162.7614814256214 0.0 0.0
107.66381494153711 15.058117343763715 36.81522289700491 -158.69134936754847 0.0 0.0
168.73765054261565 3.6486219769172346 51.8992288903506 -168.7482166982982 0.0 0.0
240.15318573114848 -5.503170283878628 72.28136153364511 -180.37245816624846 0.0 0.0
341.9461205391699 -9.088952272117332 111.63334605734863 -181.59624971441514 0.0 0.0
454.9914723188281 -1.9071156219538432 176.4312585796886 -169.5407648592935 0.0 0.0
546.3929770665152 8.714373842687055 244.40073995608776 -159.84728163023036 0.0 0.0
613.9973973292019 19.248463373885905 298.3590756244638 -154.20779238691372 0.0 0.0
666.7394263944041 27.200233247477904 336.7300022316795 -150.54340838918364 0.0 0.0
711.150488068147 35.68761434847082 367.0304928849413 -146.84102988147842 0.0 0.0
751.132523934522 44.22125412921995 393.2366751609475 -143.5663747566258 0.0 0.0
787.8688897644706 51.89928058567961 416.5652638220934 -140.34430170764102 0.0 0.0
823.4284842340502 59.209132677906496 438.62327567450336 -136.50124745290626 0.0 0.0
859.738199083916 67.57732101304703 461.2839148964743 -130.95229543540432 0.0 0.0
895.213300414597 75.74585473461443 483.46065540294586 -123.7511806900124 0.0 0.0
923.6331886962627 78.30103576252814 499.3211900433694 -115.84016797133752 0.0 0.0
957.3140130241526 83.95540786419184 518.8260877218663 -102.93396896378415 0.0 0.0
1010.9494852094309 106.67462732222312 556.432667554035 -76.21137751614327 0.0 0.0
1010.9494852100347 106.67462732287743 556.4326675544571 76.21137751626979 0.0 0.0
957.3140130251759 83.95540786544126 518.8260877226012 102.9339689641311 0.0 0.0
923.6331886957046 78.3010357621448 499.321190043036 115.84016797163122 0.0 0.0
895.2133004146162 75.74585473473363 483.46065540290414 123.75118069014889 0.0 0.0
859.738199083486 67.57732101275852 461.2839148961566 130.95229543542564 0.0 0.0
823.4284842324295 59.20913267629004 438.62327567346614 136.50124745280615 0.0 0.0
787.8688897638444 51.89928058503287 416.56526382165947 140.34430170748305 0.0 0.0
751.1325239340217 44.221254128770624 393.23667516054604 143.56637475660227 0.0 0.0
711.1504880676706 35.687614348078256 367.03049288457794 146.84102988139617 0.0 0.0
666.7394263944061 27.200233247716938 336.7300022316509 150.54340838919273 0.0 0.0
613.9973973289618 19.248463373900634 298.359075624238 154.20779238692162 0.0 0.0
546.3929770668572 8.714373843491828 244.4007399562469 159.84728163029337 0.0 0.0
454.99147231835497 -1.9071156220939791 176.4312585793301 169.54076485928044 0.0 0.0
341.9461205385675 -9.088952272343555 111.6333460570323 181.59624971434698 0.0 0.0
240.1531857308874 -5.503170283932653 72.28136153354399 180.3724581659789 0.0 0.0
168.73765054251405 3.6486219770853925 51.89922889037424 168.74821669816976 0.0 0.0
107.66381494145179 15.05811734376632 36.81522289698352 158.69134936737254 0.0 0.0
47.44220265184543 8.248642375316244 16.70685043690147 162.76148142548402 0.0 0.0
1.0078969843898196 -43.71730558105248 -12.812080972655783 180.16097964837002 0.0 0.0
3.0789005770069338 -400.12895861764986 -145.67404482473077 160.45652610104375 0.0 0.0
2.8419539153503734 -353.6140220290615 -117.74721437124836 -156.67781741035682 0.0 0.0
-15.872203078559746 -46.276691793533104 -18.643007587136204 -185.79999209499348 0.0 0.0
12.775555800275326 5.45480529837112 5.4688124877369555 -174.89574930052967 0.0 0.0
55.09274563773348 16.10567183845104 21.358411519354924 -172.02369264056048 0.0 0.0
97.88122356625931 7.197763649709268 31.644476801451415 -182.14158697021128 0.0 0.0
145.06021428368376 -1.3221804804166326 44.01276331105227 -197.41817041954891 0.0 0.0
215.2970922278493 -3.6783533438924376 67.35286285292152 -206.91214041768313 0.0 0.0
320.4705693534181 -1.4566279831834805 110.47948871022548 -202.33676189504314 0.0 0.0
428.37281741370566 4.616345883890421 169.39299769927106 -187.78754943633908 0.0 0.0
507.7859305418534 11.025096441395732 225.15732629824862 -175.2129974810701 0.0 0.0
563.4847448696534 17.082481694761434 268.5202537334951 -168.17638474229577 0.0 0.0
605.5453284148434 21.392321037872684 299.8464721952933 -163.42701306764712 0.0 0.0
641.1938917080807 26.40122550312674 325.2004337054675 -159.56618068412092 0.0 0.0
672.0751865485762 29.81010303953815 345.4924506140888 -156.06081910191742 0.0 0.0
700.5759719286908 31.589839118242708 362.45419293513345 -152.36967007076194 0.0 0.0
729.9182354788117 33.10811732867958 378.76587672773996 -147.34353373140837 0.0 0.0
763.155086771979 36.263514100923885 397.3079043877765 -139.4165819615783 0.0 0.0
791.7883277586953 34.99176479817373 411.6841824781282 -129.89421042701875 0.0 0.0
807.1101784566713 17.691652884239858 411.04572176784666 -119.53870627798426 0.0 0.0
863.600004406933 31.158776235329327 444.6759667623704 -97.09604588536833 0.0 0.0
863.6000044076221 31.15877623617422 444.6759667629176 97.0960458856954 0.0 0.0
807.1101784567201 17.691652884442988 411.0457217679385 119.53870627834661 0.0 0.0
791.7883277581723 34.99176479787201 411.68418247780494 129.89421042732624 0.0 0.0
763.1550867717257 36.26351410080349 397.30790438760164 139.4165819616746 0.0 0.0
729.9182354797193 33.10811732964646 378.7658767283185 147.34353373132097 0.0 0.0
700.5759719291768 31.589839119059206 362.45419293550947 152.3696700709501 0.0 0.0
672.0751865479655 29.81010303920131 345.49245061369635 156.06081910217645 0.0 0.0
641.193891707707 26.40122550290667 325.2004337051899 159.56618068424066 0.0 0.0
605.5453284141319 21.392321037394964 299.84647219484697 163.42701306769675 0.0 0.0
563.484744869746 17.082481694956783 268.5202537334712 168.17638474220266 0.0 0.0
507.7859305415413 11.025096441247236 225.1573262979879 175.21299748091965 0.0 0.0
428.372817413174 4.616345883412571 169.3929976988511 187.7875494362815 0.0 0.0
320.4705693532849 -1.4566279825097297 110.47948871030951 202.33676189516183 0.0 0.0
215.29709222753394 -3.678353343643159 67.35286285288355 206.91214041758462 0.0 0.0
145.0602142836746 -1.3221804801818182 44.01276331111802 197.41817041939115 0.0 0.0
97.88122356606333 7.197763649557271 31.644476801348375 182.1415869699339 0.0 0.0
55.09274563757611 16.105671838165076 21.35841151922233 172.02369264032177 0.0 0.0
12.775555800184573 5.454805298002745 5.468812487599336 174.89574930026623 0.0 0.0
-15.872203078705844 -46.276691793727466 -18.643007587239836 185.79999209475469 0.0 0.0
2.841953915297996 -353.61402202872733 -117.74721437108597 156.67781741024385 0.0 0.0
-3.437090096697471 -304.2095183702789 -95.68427620317354 -149.41303689439624 0.0 0.0
-34.653195797983244 -50.4843403423053 -25.53851260203117 -188.70588590241505 0.0 0.0
-20.20104784234099 4.471083584955823 -4.719430909561378 -182.5160160065947 0.0 0.0
3.9981632463332426 16.975374455245063 6.293551361481658 -180.70593681513793 0.0 0.0
26.706240557821708 11.097178444906714 11.379863780770828 -190.17497591919624 0.0 0.0
46.74204372307984 3.0208524053594914 15.221918486093292 -206.8388329644202 0.0 0.0
71.85309237826449 -0.3410690189299226 22.511650621854344 -221.5777308650707 0.0 0.0
113.93946480265284 0.37192048347361784 37.02909464607836 -226.59460962419016 0.0 0.0
181.82673863967653 4.001692433814366 62.45303886224117 -217.12891913031777 0.0 0.0
256.58748328883286 5.592940006598912 93.95921253046534 -202.23678593014665 0.0 0.0
320.53601632846096 8.734398094303067 128.86802012231308 -188.877933063226 0.0 0.0
370.4656398410028 8.521639309548718 159.9557964268676 -181.23030234674795 0.0 0.0
405.3915083546339 9.498615666307956 185.58071786950947 -175.18740688765752 0.0 0.0
431.4722763515401 8.371395744646577 205.38445617938206 -170.50193005412814 0.0 0.0
454.5056829958645 4.814573975929562 221.01392148400146 -166.5377165459465 0.0 0.0
481.4111051980069 -1.0714824449010791 235.27176675536475 -162.42416526894758 0.0 0.0
517.6674016179057 -6.15848410410922 252.38849112447656 -155.82549922309346 0.0 0.0
564.5516566731874 -7.153266408332797 275.9052382061063 -144.68339602791644 0.0 0.0
592.8873403406111 -30.838521011332176 280.53607960530735 -131.52666737403996 0.0 0.0
621.888295344059 -74.91374746906007 270.8178423830912 -122.8250866797991 0.0 0.0
621.888295344479 -74.9137474685902 270.8178423834032 122.82508668008217 0.0 0.0
592.8873403404692 -30.83852101116048 280.53607960533327 131.52666737453035 0.0 0.0
564.5516566732169 -7.153266408003617 275.9052382062337 144.68339602820657 0.0 0.0
517.6674016172306 -6.158484105110688 252.38849112394755 155.8254992231495 0.0 0.0
481.41110519708275 -1.0714824460990542 235.27176675467027 162.42416526884972 0.0 0.0
454.50568299626786 4.814573976396304 221.01392148421445 166.5377165459173 0.0 0.0
431.4722763520531 8.371395745437695 205.3844561797843 170.50193005418924 0.0 0.0
405.39150835531257 9.498615666979859 185.58071786986625 175.18740688767338 0.0 0.0
370.4656398414142 8.521639310650578 159.95579642722788 181.2303023468939 0.0 0.0
320.5360163289615 8.734398095330882 128.86802012267196 188.87793306318036 0.0 0.0
256.58748328898565 5.592940006969243 93.95921253058073 202.23678593000784 0.0 0.0
181.82673863967895 4.001692433968778 62.45303886226482 217.12891913036745 0.0 0.0
113.93946480242178 0.37192048307382564 37.02909464587655 226.59460962412396 0.0 0.0
71.85309237762543 -0.34106902000775996 22.511650621336923 221.57773086488595 0.0 0.0
46.74204372294958 3.0208524050531267 15.221918485960938 206.838832964189 0.0 0.0
26.7062405578209 11.097178445003541 11.379863780799704 190.1749759189206 0.0 0.0
3.9981632463213446 16.975374455139168 6.293551361446797 180.7059368149262 0.0 0.0
-20.201047842322332 4.471083584884168 -4.7194309095777704 182.5160160064375 0.0 0.0
-34.65319579803457 -50.48434034225323 -25.538512602031915 188.70588590228436 0.0 0.0
-3.4370900967723657 -304.209518370011 -95.68427620308982 149.41303689417788 0.0 0.0
-15.410411154916556 -255.16833943237413 -81.34827689059217 -138.59392810631977 0.0 0.0
-51.80724984229467 -52.883012806597975 -31.407107008566445 -188.72464778091125 0.0 0.0
-51.92625945873563 3.935654308173258 -14.40366091492011 -186.10975501758145 0.0 0.0
-45.55236318569339 17.72880996234204 -8.361620557812794 -184.57436136725644 0.0 0.0
-43.674891293016444 14.832106055441528 -8.706260847225554 -192.3792737255223 0.0 0.0
-52.43962415554294 7.577562102822727 -13.774862692019688 -207.78732895219792 0.0 0.0
-73.84704431327563 2.6405597810709693 -22.44439068033732 -221.7483200120564 0.0 0.0
-114.46671268761365 0.03180896967433 -37.07293418749529 -226.75275043795816 0.0 0.0
-181.6280193694824 -3.8693592167369175 -62.346201068796574 -217.19487354802393 0.0 0.0
-256.3368543353436 -5.47738181246509 -93.83661808821938 -202.21681042598175 0.0 0.0
-320.6555183249372 -7.669026824784751 -128.4251661465976 -188.79206402482885 0.0 0.0
-371.7605945480157 -6.991285662952926 -159.92612286559844 -180.80663439774358 0.0 0.0
-409.3117032289799 -8.642802216059906 -186.91302599792695 -174.62530427417622 0.0 0.0
-437.87558326858067 -12.821468871350362 -210.15446378276508 -170.58233706283255 0.0 0.0
-457.96027979254717 -20.793518356149463 -230.42839823372967 -168.87971272179539 0.0 0.0
-467.38587678432634 -31.987127230996037 -247.00741465058744 -169.19495347453127 0.0 0.0
-456.7064123826066 -44.30139130360749 -256.0786304699035 -170.03923009214293 0.0 0.0
-396.66415199353116 -40.55695352448973 -242.50625394530343 -170.27314379550532 0.0 0.0
-214.37032101105285 -34.81739023433275 -177.70858444802454 -172.827083633889 0.0 0.0
0.3901828936945435 -174.7308227574821 -67.12816322473275 -153.46784671485966 0.0 0.0
0.39018289379106363 -174.7308227575045 -67.12816322473952 153.4678467153093 0.0 0.0
-214.37032101113914 -34.817390234696575 -177.7085844481844 172.8270836343806 0.0 0.0
-396.6641519935513 -40.55695352421952 -242.5062539452061 170.27314379568855 0.0 0.0
-456.7064123827355 -44.30139130396864 -256.078630469995 170.0392300922434 0.0 0.0
-467.3858767843441 -31.987127231461443 -247.00741465067463 169.19495347462507 0.0 0.0
-457.96027979205167 -20.793518355482092 -230.42839823331013 168.87971272166703 0.0 0.0
-437.87558326845726 -12.82146887149625 -210.1544637826599 170.58233706284693 0.0 0.0
-409.31170322896503 -8.642802216804313 -186.91302599803078 174.6253042743454 0.0 0.0
-371.7605945475473 -6.991285663123932 -159.92612286536882 180.80663439771092 0.0 0.0
-320.6555183248947 -7.6690268258496275 -128.42516614674136 188.79206402484192 0.0 0.0
-256.3368543341532 -5.477381811715524 -93.83661808757802 202.21681042597083 0.0 0.0
-181.62801936867663 -3.8693592163308566 -62.3462010683987 217.19487354814393 0.0 0.0
-114.46671268711972 0.03180896981243997 -37.07293418729464 226.752750437859 0.0 0.0
-73.8470443128572 2.64055978175458 -22.444390679996076 221.74832001191479 0.0 0.0
-52.439624155217466 7.577562103306398 -13.774862691774134 207.78732895201256 0.0 0.0
-43.67489129298035 14.832106055234993 -8.706260847277157 192.37927372537973 0.0 0.0
-45.552363185574386 17.728809962501913 -8.361620557730845 184.57436136707912 0.0 0.0
-51.92625945857318 3.9356543083226074 -14.403660914829452 186.1097550173558 0.0 0.0
-51.80724984234055 -52.88301280658191 -31.407107008578258 188.7246477807759 0.0 0.0
-15.410411154978558 -255.16833943211765 -81.3482768905551 138.59392810620633 0.0 0.0
-24.327008078148445 -208.35427057766623 -69.80122597877605 -125.56112766465569 0.0 0.0
-66.06417576186993 -52.26563947373705 -35.49937292581808 -184.9498776069346 0.0 0.0
-82.18241288137057 3.315293654356583 -23.675526143795484 -185.7288599926645 0.0 0.0
-93.52714223430466 18.26482240223349 -22.603115446813735 -183.7335989612894 0.0 0.0
-112.56538763290558 17.762020228150107 -28.656001629748225 -188.46306079873466 0.0 0.0
-149.66468652409543 11.438527884412997 -42.52156591418775 -199.75283387894518 0.0 0.0
-216.7848183156954 5.892010597459119 -67.24005510042782 -207.88666275352227 0.0 0.0
-320.34992748552094 1.7541432098877117 -110.43881555694782 -202.6861519122599 0.0 0.0
-428.0521197531947 -4.533655338104168 -169.25112962657926 -187.9127910707827 0.0 0.0
-507.5182909501614 -10.77565797063123 -224.94745130471796 -175.177742147108 0.0 0.0
-563.1242655267702 -16.283096297159744 -268.04763177271536 -167.95828602785286 0.0 0.0
-605.456979809521 -20.009906516704618 -299.2198621048643 -162.76083619765376 0.0 0.0
-642.431368853106 -25.644175036916494 -325.37900169708394 -158.45874116357632 0.0 0.0
-676.5137792443902 -33.52022218331959 -349.21696341741074 -155.66300411960398 0.0 0.0
-709.0544877549291 -45.270885029035284 -373.0468196249573 -155.31492994293015 0.0 0.0
-738.6214386725212 -60.57344922884499 -396.66510302217677 -157.5982384880013 0.0 0.0
-760.472889370518 -76.67777130663737 -416.88308067763194 -162.86607984345778 0.0 0.0
-770.1043887458538 -90.47022757243107 -429.91792689599004 -171.17144111614041 0.0 0.0
-805.9238936147416 -144.94800412904073 -476.02724290933475 -180.15974866434732 0.0 0.0
-803.1224546453631 -227.68646792835418 -517.4723716561816 -198.57954956716105 0.0 0.0
-803.1224546450817 -227.6864679278249 -517.4723716560106 198.5795495672917 0.0 0.0
-805.9238936153987 -144.94800413023304 -476.0272429099276 180.15974866490478 0.0 0.0
-770.1043887466999 -90.47022757379722 -429.9179268966651 171.17144111652863 0.0 0.0
-760.4728893708044 -76.67777130708723 -416.88308067779684 162.86607984356655 0.0 0.0
-738.621438672523 -60.57344922933794 -396.66510302230864 157.59823848832866 0.0 0.0
-709.0544877551974 -45.27088502937987 -373.0468196250541 155.31492994290673 0.0 0.0
-676.5137792443046 -33.52022218379042 -349.21696341745195 155.66300411991352 0.0 0.0
-642.4313688528798 -25.644175036959354 -325.3790016969551 158.45874116370828 0.0 0.0
-605.4569798092837 -20.009906516685312 -299.2198621046605 162.7608361976038 0.0 0.0
-563.1242655269612 -16.283096297778172 -268.04763177276806 167.95828602795183 0.0 0.0
-507.5182909502248 -10.775657971480207 -224.94745130479055 175.1777421472405 0.0 0.0
-428.0521197522242 -4.533655337508739 -169.2511296259599 187.9127910708647 0.0 0.0
-320.3499274845405 1.7541432106245178 -110.43881555634755 202.68615191222756 0.0 0.0
-216.78481831531332 5.892010597354579 -67.24005510031674 207.88666275338147 0.0 0.0
-149.66468652384174 11.438527884343591 -42.52156591412919 199.75283387886546 0.0 0.0
-112.56538763264872 17.76202022824686 -28.65600162964385 188.46306079857578 0.0 0.0
-93.52714223421734 18.264822402158696 -22.603115446812375 183.73359896112413 0.0 0.0
-82.18241288120855 3.3152936546355 -23.675526143667422 185.72885999246338 0.0 0.0
-66.06417576178801 -52.26563947375136 -35.49937292580243 184.94987760669952 0.0 0.0
-24.327008078153018 -208.35427057751536 -69.80122597873415 125.56112766451929 0.0 0.0
-27.421102522438936 -164.5883449164946 -57.60283423168006 -111.30797951940214 0.0 0.0
-77.83925886726048 -49.18381633914676 -38.10498836809999 -177.13423628975082 0.0 0.0
-110.70159287014361 2.7508555600220173 -32.38818576370782 -181.2390708639743 0.0 0.0
-139.7708998506833 18.317193338390613 -36.47867425028105 -178.00273704562753 0.0 0.0
-179.50059843832088 19.32155338739673 -48.49143485157656 -178.89335586220648 0.0 0.0
-242.79251451666386 14.714096838782487 -70.71201879809207 -184.05468955805293 0.0 0.0
-341.6404089283009 10.955868314503967 -111.30375776906729 -182.80688453865804 0.0 0.0
-454.3362566666368 2.177437648339996 -176.1589099214482 -170.06207319759622 0.0 0.0
-546.1857391078104 -8.660271210403977 -244.28187429387322 -159.8860101507617 0.0 0.0
-613.8287552622207 -19.06775373399838 -298.2227527212136 -154.1761259732416 0.0 0.0
-666.4619809392374 -26.624532023278505 -336.36042234644503 -150.34096394450722 0.0 0.0
-710.9289613363951 -34.56938217254795 -366.39844919815346 -146.08768319597635 0.0 0.0
-751.7991750273889 -43.407261058320245 -393.0985302180796 -142.1035899600412 0.0 0.0
-791.2604325089371 -54.48174635266152 -419.31866577102255 -139.25049386961575 0.0 0.0
-831.07958074863 -69.89483751000918 -447.45851366069826 -138.8545472194752 0.0 0.0
-869.742421629886 -89.52120029022683 -477.0560164277989 -141.7537753205834 0.0 0.0
-904.3089392920999 -111.09051532427787 -505.61610368708716 -147.83032275931964 0.0 0.0
-943.246522682615 -144.41522182872933 -542.1961870014657 -154.53740202116308 0.0 0.0
-986.03021459058 -193.49152176798958 -588.5779271107942 -160.80764984353965 0.0 0.0
-1076.0015177431926 -324.1242981995391 -697.6862340014424 -170.14324856776696 0.0 0.0
-1076.0015177437717 -324.12429820033304 -697.6862340019043 170.1432485680799 0.0 0.0
-986.0302145908123 -193.49152176851499 -588.5779271110191 160.8076498439044 0.0 0.0
-943.2465226822501 -144.41522182843758 -542.1961870011704 154.53740202130672 0.0 0.0
-904.3089392911049 -111.09051532340169 -505.6161036864341 147.83032275933564 0.0 0.0
-869.7424216293246 -89.52120028971152 -477.0560164273945 141.75377532060332 0.0 0.0
-831.0795807486376 -69.89483751016844 -447.45851366073236 138.85454721942014 0.0 0.0
-791.2604325085999 -54.481746352390346 -419.31866577083633 139.2504938695247 0.0 0.0
-751.7991750275188 -43.40726105858042 -393.09853021815854 142.10358996001747 0.0 0.0
-710.9289613368417 -34.569382173306394 -366.3984491984382 146.08768319603521 0.0 0.0
-666.4619809393881 -26.624532023927014 -336.360422346579 150.34096394467753 0.0 0.0
-613.8287552615421 -19.067753733523908 -298.2227527207438 154.176125973109 0.0 0.0
-546.1857391076074 -8.660271210640978 -244.28187429370092 159.88601015080633 0.0 0.0
-454.3362566664139 2.177437647946233 -176.15890992129113 170.0620731976956 0.0 0.0
-341.6404089276786 10.955868314620123 -111.30375776875792 182.80688453862714 0.0 0.0
-242.79251451630523 14.714096838447249 -70.71201879807387 184.05468955792833 0.0 0.0
-179.50059843849402 19.321553386597667 -48.49143485186725 178.8933558620333 0.0 0.0
-139.77089985067948 18.317193337930895 -36.47867425042188 178.00273704546075 0.0 0.0
-110.70159287031396 2.750855559503114 -32.38818576392063 181.23907086382496 0.0 0.0
-77.83925886726932 -49.18381633938306 -38.10498836817405 177.1342362895914 0.0 0.0
-27.421102522412912 -164.58834491643393 -57.60283423165404 111.30797951922278 0.0 0.0
-28.589863756229793 -124.7731572762903 -46.00890630975602 -96.57099892358582 0.0 0.0
-87.74353488668157 -43.914903671353656 -39.49739377280015 -165.05288965790774 0.0 0.0
-137.36088839347644 2.2134992713763504 -40.54249728035796 -172.4255022200933 0.0 0.0
-184.16556305450231 17.384645850507475 -50.11831913365551 -167.56935736967026 0.0 0.0
-243.2696001849224 19.944245553090582 -67.68744689311892 -164.11331403190036 0.0 0.0
-328.71353798262277 18.847749640933735 -98.56118284458454 -162.3076147933011 0.0 0.0
-439.2493138244099 12.852077546191769 -155.70741411701943 -151.82365374410705 0.0 0.0
-540.755241294742 0.06506140069507893 -230.65639050914183 -141.12202378410228 0.0 0.0
-620.4854949595735 -13.516662344763361 -296.25634164266125 -137.33752768087723 0.0 0.0
-683.7160501324124 -26.064234127259013 -344.5012262685209 -135.41831765955828 0.0 0.0
-736.6428559065164 -37.03072588289207 -380.7417029014521 -132.8365830298776 0.0 0.0
-785.1283239108704 -48.858880396259934 -412.7406637245596 -129.2367695428473 0.0 0.0
-830.3065975106279 -61.147196564438204 -442.37759607434504 -125.45275539512636 0.0 0.0
-874.3034162584966 -75.52104867035396 -472.0634362671521 -122.43363199768756 0.0 0.0
-919.0306985150906 -93.98135262022714 -503.9199259869148 -121.8639533169986 0.0 0.0
-965.6130925675955 -118.62682475001316 -539.7531739041574 -124.83693660536527 0.0 0.0
-1014.9155337457041 -151.34778402429694 -581.0097065489999 -130.45122393783313 0.0 0.0
-1068.4220415199766 -194.9142593986955 -629.796863454528 -136.00628919947047 0.0 0.0
-1137.5110431541757 -264.61457099946085 -699.0805147746582 -138.34357806157013 0.0 0.0
-1231.0254623639303 -388.50271260685065 -807.4274575649272 -142.71257561077948 0.0 0.0
-1231.0254623626302 -388.5027126054777 -807.4274575640845 142.7125756107591 0.0 0.0
-1137.5110431528487 -264.61457099829784 -699.0805147737393 138.34357806184488 0.0 0.0
-1068.4220415188981 -194.91425939769096 -629.7968634537615 136.0062891996155 0.0 0.0
-1014.9155337445584 -151.3477840232955 -581.009706548162 130.45122393797186 0.0 0.0
-965.6130925665951 -118.62682474910166 -539.7531739034541 124.83693660532455 0.0 0.0
-919.0306985140699 -93.98135261930379 -503.9199259862096 121.86395331694669 0.0 0.0
-874.303416257548 -75.52104866954858 -472.06343626651153 122.43363199775843 0.0 0.0
-830.3065975099687 -61.14719656405224 -442.3775960739349 125.45275539526608 0.0 0.0
-785.1283239098176 -48.8588803953937 -412.74066372385937 129.23676954282644 0.0 0.0
-736.6428559057799 -37.03072588238642 -380.74170290094827 132.83658302987635 0.0 0.0
-683.7160501320539 -26.064234127246174 -344.5012262682808 135.41831765958003 0.0 0.0
-620.4854949589238 -13.516662344402896 -296.2563416421594 137.33752768085523 0.0 0.0
-540.7552412944251 0.0650614005809933 -230.6563905088519 141.12202378412184 0.0 0.0
-439.24931382423756 12.852077545936641 -155.70741411684617 151.82365374397406 0.0 0.0
-328.71353798228563 18.847749640611703 -98.56118284452333 162.30761479317925 0.0 0.0
-243.26960018457578 19.944245553454593 -67.68744689290664 164.1133140317075 0.0 0.0
-184.16556305411862 17.384645850925054 -50.11831913342287 167.56935736956314 0.0 0.0
-137.36088839321997 2.2134992716249693 -40.542497280210824 172.42550221996825 0.0 0.0
-87.74353488666097 -43.91490367140619 -39.497393772809865 165.05288965774383 0.0 0.0
-28.5898637561921 -124.7731572761952 -46.00890630971619 96.57099892348762 0.0 0.0
-29.357251635490364 -89.49933631487588 -35.656976385109864 -81.48321987845918 0.0 0.0
-96.60752510216221 -37.05487397350577 -40.098719722700395 -149.08886730893215 0.0 0.0
-162.33262111720103 1.8377353665777498 -48.14723346917234 -159.17855883577698 0.0 0.0
-226.97113005809038 15.63427809172643 -63.43506970385533 -152.7823999741908 0.0 0.0
-303.8095042238804 20.734770190017745 -86.14860072968925 -145.25591013628784 0.0 0.0
-404.59002358740463 21.199218257242052 -127.81230034824947 -135.06180867107895 0.0 0.0
-511.68828042164535 12.048794395680819 -197.7274169452374 -121.7460186961869 0.0 0.0
-601.6054273510535 -2.3869859745619024 -273.4259633494551 -116.65638577486345 0.0 0.0
-674.577292529435 -17.7203923145629 -332.9326970463006 -116.86961603699525 0.0 0.0
-736.4832390857957 -32.174631198708695 -377.473060322249 -116.76879636065914 0.0 0.0
-792.6370393712109 -47.14561545668188 -415.4228078482488 -114.96674758489169 0.0 0.0
-845.1210015005772 -62.95244702312536 -450.6298678681884 -111.85193753962915 0.0 0.0
-894.6503821109374 -79.22190656292514 -484.13009215316214 -108.3988739350121 0.0 0.0
-942.5646425183351 -96.5019290439941 -517.0897610075297 -105.4049106726912 0.0 0.0
-992.0314291368505 -118.01532219301436 -552.7364573279632 -104.43907152851479 0.0 0.0
-1046.628321417511 -148.8404297491343 -595.5189537356014 -106.74326097485127 0.0 0.0
-1108.8567160788048 -191.7329237383546 -648.1968557766965 -111.74207433965768 0.0 0.0
-1180.099911473167 -250.5404572146518 -713.2853584382033 -116.0498655549512 0.0 0.0
-1261.9575413009463 -331.97979814555487 -794.8908781828281 -117.40269364802685 0.0 0.0
-1346.0953465931448 -444.0991539806207 -893.008636731842 -122.96829827234245 0.0 0.0
-1346.0953465923758 -444.09915397978506 -893.0086367313852 122.96829827221936 0.0 0.0
-1261.957541300473 -331.97979814523524 -794.8908781825876 117.40269364836166 0.0 0.0
-1180.09991147338 -250.54045721506793 -713.2853584384657 116.0498655552096 0.0 0.0
-1108.856716078638 -191.7329237383481 -648.1968557766389 111.74207433978057 0.0 0.0
-1046.6283214166235 -148.84042974830155 -595.5189537349678 106.74326097475165 0.0 0.0
-992.031429136412 -118.01532219265357 -552.7364573276558 104.43907152844196 0.0 0.0
-942.5646425189602 -96.50192904489472 -517.089761007945 105.4049106728846 0.0 0.0
-894.6503821109648 -79.22190656318975 -484.13009215321813 108.39887393509 0.0 0.0
-845.1210014998748 -62.95244702257341 -450.62986786773547 111.85193753953494 0.0 0.0
-792.6370393702887 -47.14561545588303 -415.4228078476295 114.96674758469811 0.0 0.0
-736.4832390856153 -32.174631198816556 -377.47306032211844 116.7687963606648 0.0 0.0
-674.5772925293022 -17.720392314833795 -332.9326970462272 116.869616037076 0.0 0.0
-601.6054273510115 -2.3869859748682654 -273.4259633493165 116.65638577484972 0.0 0.0
-511.68828042141024 12.048794395391853 -197.7274169450315 121.74601869626933 0.0 0.0
-404.5900235863558 21.19921825794463 -127.8123003476417 135.0618086710479 0.0 0.0
-303.8095042236115 20.73477018994236 -86.14860072963302 145.2559101361182 0.0 0.0
-226.97113005794068 15.634278091534348 -63.43506970387542 152.78239997412007 0.0 0.0
-162.33262111711338 1.8377353664051 -48.147233469198405 159.17855883563624 0.0 0.0
-96.60752510205387 -37.05487397345934 -40.09871972265396 149.08886730873996 0.0 0.0
-29.35725163548056 -89.49933631470353 -35.65697638505522 81.48321987839512 0.0 0.0
-30.094377446863028 -59.263477786262044 -26.807356569937518 -65.97609791083507 0.0 0.0
-104.77191542461034 -29.183101763362615 -40.18650515639188 -129.6575736248281 0.0 0.0
-185.8866673609114 1.4954512946067595 -55.3151777140709 -141.63183325578083 0.0 0.0
-267.05731493236584 13.081990086427028 -76.29056800834785 -133.5857650920424 0.0 0.0
-359.8136146135321 21.950442336839274 -104.36229285617429 -122.3674619361471 0.0 0.0
-468.05771455261254 21.030303449568507 -158.31168932489604 -106.00177941650217 0.0 0.0
-566.126085821096 10.68020760097967 -234.8180369568031 -95.20883600302469 0.0 0.0
-646.875338210888 -4.995536683770808 -306.15495059557446 -94.63580091421807 0.0 0.0
-716.374207998408 -20.72462958396555 -359.55135349373097 -96.89414548174564 0.0 0.0
-780.0201541257749 -38.07333987237149 -403.920248177213 -97.6786540365677 0.0 0.0
-839.8673130670402 -57.0095520441611 -444.7745209378431 -96.40559454771008 0.0 0.0
-896.5274523198399 -76.95640940912767 -483.8001098775265 -93.84079609960564 0.0 0.0
-950.621057545827 -97.33767335301332 -521.5074742462818 -90.97400367024233 0.0 0.0
-1002.526935105128 -118.18250695082423 -558.1922617958404 -88.11572850582608 0.0 0.0
-1056.0002661443286 -142.61428631574876 -597.2514432412163 -86.4986697513405 0.0 0.0
-1118.0704997393136 -178.65737979753 -646.2808625106421 -87.73460686509104 0.0 0.0
-1192.5404028991695 -232.39347081642262 -710.3729069218199 -91.67651964758004 0.0 0.0
-1278.7433205284601 -305.24967958222385 -789.9243609485832 -95.80253577466604 0.0 0.0
-1367.7951590786884 -394.0165776516363 -878.8766775672236 -98.94505826504296 0.0 0.0
-1446.2490204021142 -499.04009418867383 -970.7668341815728 -108.15882130978035 0.0 0.0
-1446.2490204005785 -499.0400941871541 -970.7668341805063 108.1588213098334 0.0 0.0
-1367.7951590784355 -394.01657765147763 -878.8766775671004 98.94505826522217 0.0 0.0
-1278.7433205285602 -305.24967958248885 -789.9243609485801 95.80253577492584 0.0 0.0
-1192.5404028993435 -232.39347081670925 -710.3729069219144 91.67651964763397 0.0 0.0
-1118.0704997393616 -178.65737979771623 -646.2808625106735 87.73460686513444 0.0 0.0
-1056.0002661432063 -142.614286314778 -597.2514432403561 86.49866975137024 0.0 0.0
-1002.5269351051435 -118.18250695098706 -558.1922617958288 88.11572850580859 0.0 0.0
-950.6210575462734 -97.33767335370382 -521.5074742465687 90.97400367034372 0.0 0.0
-896.5274523199721 -76.95640940945543 -483.80010987762165 93.84079609955887 0.0 0.0
-839.8673130676121 -57.009552045042966 -444.7745209382457 96.40559454779067 0.0 0.0
-780.0201541253036 -38.073339872193245 -403.9202481769105 97.67865403658095 0.0 0.0
-716.3742079978763 -20.724629583690394 -359.5513534933357 96.89414548167841 0.0 0.0
-646.8753382104921 -4.995536683700745 -306.15495059522726 94.63580091421154 0.0 0.0
-566.126085820321 10.680207601437683 -234.81803695620104 95.20883600302128 0.0 0.0
-468.0577145522089 21.030303449477678 -158.31168932462924 106.00177941649044 0.0 0.0
-359.81361461315436 21.950442336841824 -104.36229285604809 122.36746193605674 0.0 0.0
-267.0573149321131 13.081990086372215 -76.29056800830286 133.5857650920108 0.0 0.0
-185.88666736084528 1.4954512945332668 -55.315177714073954 141.63183325569062 0.0 0.0
-104.7719154245332 -29.18310176342106 -40.186505156386275 129.65757362470424 0.0 0.0
-30.094377446805783 -59.26347778621387 -26.80735656990589 65.9760979108137 0.0 0.0
-30.629922395709986 -34.52030738593984 -19.545068934494942 -49.98574580040032 0.0 0.0
-112.03923576243487 -20.83948088593689 -39.86361499451152 -107.14097209545244 0.0 0.0
-208.1973707940533 1.0842526133165196 -62.13393545422102 -119.77388296697127 0.0 0.0
-306.0617563973641 10.544546892000028 -88.78053729806618 -110.81480548266784 0.0 0.0
-413.2667721613696 22.4149676574142 -123.67043232363329 -95.82112706244486 0.0 0.0
-518.5384504953696 19.893572366257143 -188.2164652947157 -77.98409244556984 0.0 0.0
-605.6087397733279 8.036264414110704 -266.0695000940973 -71.68239509275008 0.0 0.0
-681.401631880517 -6.096673729370536 -329.9201034530685 -73.81986760027257 0.0 0.0
-750.9913268171686 -23.357371239868456 -380.5794253196992 -76.72810400964588 0.0 0.0
-817.1776820392032 -43.95645940492595 -426.3934698702201 -77.92063992892068 0.0 0.0
-880.6065214297744 -66.57062335574253 -470.412611357917 -77.13238244212789 0.0 0.0
-941.7076901314022 -90.68410791390981 -513.5765799605647 -75.18674718466221 0.0 0.0
-1000.463207501165 -115.51549019749802 -555.7451802947984 -72.95647203415882 0.0 0.0
-1057.6497253450923 -140.92393536478954 -597.3162525722361 -70.57364602505503 0.0 0.0
-1115.2350197992992 -168.6493895024087 -640.0854699898132 -68.35152785402184 0.0 0.0
-1181.093779332129 -207.74963458587627 -692.4720776199525 -67.86606578954043 0.0 0.0
-1265.9233710779558 -270.255511169164 -766.0146894634684 -70.66119131812016 0.0 0.0
-1365.052099147812 -355.200969011294 -858.0692296550629 -75.66966000858761 0.0 0.0
-1463.3911568119238 -453.30324371618497 -956.3870391737421 -82.21550810530061 0.0 0.0
-1541.4885349880633 -557.0036515932246 -1047.5173251731312 -96.13507589934618 0.0 0.0
-1541.4885349883025 -557.003651593529 -1047.5173251733536 96.13507589950329 0.0 0.0
-1463.3911568120266 -453.3032437163925 -956.3870391738707 82.21550810551585 0.0 0.0
-1365.0520991475971 -355.2009690111884 -858.0692296549585 75.6696600087484 0.0 0.0
-1265.9233710769142 -270.255511168227 -766.0146894626748 70.66119131817074 0.0 0.0
-1181.0937793304106 -207.74963458423474 -692.4720776187019 67.8660657894293 0.0 0.0
-1115.2350197992969 -168.64938950252275 -640.0854699897957 68.35152785396023 0.0 0.0
-1057.649725344897 -140.92393536475936 -597.3162525720024 70.57364602505459 0.0 0.0
-1000.4632075004737 -115.51549019699503 -555.7451802942192 72.95647203418834 0.0 0.0
-941.7076901305034 -90.6841079132062 -513.5765799599529 75.18674718459475 0.0 0.0
-880.606521428048 -66.57062335419467 -470.41261135675165 77.13238244204155 0.0 0.0
-817.1776820380582 -43.9564594040279 -426.39346986943497 77.920639928891 0.0 0.0
-750.9913268167782 -23.357371239805943 -380.57942531946304 76.72810400972637 0.0 0.0
-681.4016318798208 -6.096673728982317 -329.9201034525874 73.81986760029854 0.0 0.0
-605.6087397729696 8.036264414095648 -266.06950009377357 71.68239509279366 0.0 0.0
-518.5384504948289 19.89357236641912 -188.21646529432846 77.98409244562316 0.0 0.0
-413.2667721608756 22.414967657569548 -123.67043232340124 95.82112706235564 0.0 0.0
-306.0617563970654 10.544546891938221 -88.78053729801155 110.81480548261042 0.0 0.0
-208.19737079406872 1.0842526130170849 -62.13393545431549 119.7738829669243 0.0 0.0
-112.03923576232332 -20.839480885925678 -39.8636149944747 107.14097209537557 0.0 0.0
-30.62992239560737 -34.52030738587832 -19.545068934445705 49.98574580036616 0.0 0.0
-30.33228214405428 -15.703829572830754 -13.810833515065507 -33.63596641450592 0.0 0.0
-117.55076227369013 -12.468485546668553 -39.0057743461076 -81.74561409805077 0.0 0.0
-229.59852885967257 0.2650492866157741 -68.80004387191703 -93.53564941300984 0.0 0.0
-344.6019568302965 9.2848789241668 -100.82331830764188 -84.5037850950379 0.0 0.0
-460.6288676829623 21.9763578161215 -144.3000534370463 -67.08402309634468 0.0 0.0
-558.154230342365 17.103337108512036 -217.26610488187072 -52.80952871569836 0.0 0.0
-637.2580974864993 6.199711806228251 -291.27304874756817 -50.42664752249269 0.0 0.0
-709.5472709099924 -6.708678805196641 -348.14710835628097 -53.10941601469817 0.0 0.0
-780.1051269835425 -26.078990660177396 -397.93434053961676 -56.10402261594971 0.0 0.0
-849.0667933028573 -49.63659034421258 -445.7833613588942 -57.48944381734776 0.0 0.0
-916.3634724719926 -75.91307592788792 -493.3017622842628 -57.144011988412856 0.0 0.0
-981.7210494011838 -104.07688928182594 -540.5193834226027 -55.8095431445008 0.0 0.0
-1045.7399436783162 -133.49899767101712 -587.5489573197815 -54.30306345939946 0.0 0.0
-1108.636928757669 -164.51138287176784 -634.726354009581 -52.51232537484228 0.0 0.0
-1171.6637096656916 -197.4351923519159 -682.8324156993444 -50.169184636477205 0.0 0.0
-1239.6763601259204 -237.7147227073522 -736.9273430597123 -48.02432116341938 0.0 0.0
-1324.9382882045238 -299.70408751435696 -810.3244708810644 -48.9576225782646 0.0 0.0
-1438.745562995186 -398.3076307805003 -916.460374887281 -55.02918221186838 0.0 0.0
-1552.050711450824 -510.5164792008011 -1029.3854302401126 -66.0369122252218 0.0 0.0
-1640.2061100642513 -622.5548786973391 -1129.7592774224815 -85.54716071653462 0.0 0.0
-1640.2061100649855 -622.5548786981141 -1129.759277423119 85.5471607166028 0.0 0.0
-1552.050711451681 -510.5164792017551 -1029.3854302406894 66.03691222541659 0.0 0.0
-1438.7455629954236 -398.3076307808164 -916.4603748873524 55.029182211924464 0.0 0.0
-1324.9382882041787 -299.70408751411804 -810.3244708807772 48.9576225783581 0.0 0.0
-1239.6763601246064 -237.71472270616158 -736.9273430586952 48.02432116348143 0.0 0.0
-1171.663709664481 -197.43519235081365 -682.832415698426 50.169184636325404 0.0 0.0
-1108.636928757625 -164.51138287190867 -634.7263540095613 52.51232537494647 0.0 0.0
-1045.7399436785843 -133.49899767149748 -587.5489573200055 54.3030634594693 0.0 0.0
-981.7210494006612 -104.07688928152245 -540.5193834222239 55.80954314449756 0.0 0.0
-916.3634724716826 -75.91307592784325 -493.30176228400296 57.14401198847192 0.0 0.0
-849.0667933020775 -49.636590343687544 -445.7833613584238 57.4894438173156 0.0 0.0
-780.105126982939 -26.078990659839334 -397.9343405392235 56.10402261588338 0.0 0.0
-709.547270909834 -6.708678805367704 -348.1471083561261 53.109416014731664 0.0 0.0
-637.2580974862094 6.199711806173632 -291.27304874729384 50.426647522550425 0.0 0.0
-558.1542303419234 17.103337108584846 -217.26610488149302 52.80952871578083 0.0 0.0
-460.6288676825719 21.97635781608573 -144.30005343685983 67.0840230964346 0.0 0.0
-344.6019568298214 9.28487892443112 -100.82331830744108 84.5037850949553 0.0 0.0
-229.59852885953003 0.26504928654264637 -68.80004387189621 93.53564941300556 0.0 0.0
-117.55076227355642 -12.468485546623452 -39.005774346053954 81.74561409796537 0.0 0.0
-30.332282144037798 -15.703829572817213 -13.810833515056501 33.635966414407704 0.0 0.0
-27.90956892596734 -3.1755173737853966 -9.325525889925817 -17.443356279836294 0.0 0.0
-119.60162650661704 -4.647223239577169 -37.27465492385826 -53.43790533508274 0.0 0.0
-250.4347915208171 -0.9391724004026933 -75.4121891763659 -62.39235803377016 0.0 0.0
-384.8178945628689 9.470527596828763 -113.18366079543381 -54.77135992726087 0.0 0.0
-500.0772876236929 21.178213836394523 -165.79778066351741 -39.036058089620745 0.0 0.0
-586.9661208845951 12.958406807752226 -243.84160233306397 -30.162651473039734 0.0 0.0
-661.870868486234 5.888780544532366 -310.0042166590344 -30.145939635400726 0.0 0.0
-732.9954152282694 -7.925502667829946 -363.00366287517454 -32.46213894825006 0.0 0.0
-804.4005394516718 -28.654756971602765 -412.2939762868629 -34.981374809460114 0.0 0.0
-876.3496046157723 -55.08183606847061 -462.57140393840893 -36.33952176989103 0.0 0.0
-947.6637456711035 -85.05485406923071 -513.7880206191945 -36.41514253393393 0.0 0.0
-1017.733939692484 -117.10843938494307 -565.2324058097718 -35.738609128722636 0.0 0.0
-1086.7801890221376 -151.49028203010982 -617.2030779266331 -34.83781227776036 0.0 0.0
-1156.040887377557 -188.24750129886843 -670.3852473942688 -33.7395391210177 0.0 0.0
-1226.169283242687 -227.9870640954144 -725.4378871092886 -31.97205033413103 0.0 0.0
-1297.6311510751125 -271.73090438593704 -783.0760444000948 -29.212589408871626 0.0 0.0
-1376.130401072465 -326.54659021120034 -849.5699486710555 -27.52305734888978 0.0 0.0
-1480.3430926893259 -414.1317971745673 -945.1654270827714 -32.64277386728017 0.0 0.0
-1640.6396877790237 -570.8696991206876 -1103.8113642506983 -48.505718032468444 0.0 0.0
-1751.9961202220907 -703.3763760932097 -1226.1646288691425 -75.43966059637174 0.0 0.0
-1751.9961202219215 -703.3763760930908 -1226.164628869045 75.43966059646768 0.0 0.0
-1640.639687778671 -570.8696991203745 -1103.8113642504327 48.50571803248401 0.0 0.0
-1480.3430926891958 -414.1317971745075 -945.1654270826097 32.64277386726239 0.0 0.0
-1376.130401071956 -326.54659021078857 -849.5699486705362 27.523057348918357 0.0 0.0
-1297.631151074831 -271.73090438579896 -783.0760443997151 29.212589409063167 0.0 0.0
-1226.1692832427022 -227.98706409557937 -725.4378871091853 31.972050334148438 0.0 0.0
-1156.0408873768927 -188.24750129837426 -670.3852473937902 33.739539121027185 0.0 0.0
-1086.780189022242 -151.4902820304237 -617.2030779265981 34.83781227788636 0.0 0.0
-1017.7339396922367 -117.10843938492312 -565.2324058095603 35.73860912868845 0.0 0.0
-947.6637456715257 -85.05485406989513 -513.788020619434 36.41514253376524 0.0 0.0
-876.3496046159688 -55.08183606893651 -462.57140393848755 36.33952176989041 0.0 0.0
-804.4005394509655 -28.654756971169 -412.2939762863539 34.981374809413815 0.0 0.0
-732.9954152278614 -7.92550266772615 -363.00366287488987 32.462138948274166 0.0 0.0
-661.8708684858012 5.888780544644817 -310.0042166586793 30.145939635391798 0.0 0.0
-586.9661208844193 12.95840680758451 -243.8416023328318 30.162651473022237 0.0 0.0
-500.0772876233486 21.178213836358687 -165.79778066329476 39.03605808973162 0.0 0.0
-384.81789456243985 9.470527596903747 -113.18366079530635 54.77135992720761 0.0 0.0
-250.43479152051083 -0.9391724001738493 -75.41218917620537 62.39235803368048 0.0 0.0
-119.60162650657995 -4.647223239793079 -37.274654923911896 53.43790533496317 0.0 0.0
-27.909568925987355 -3.1755173738587894 -9.325525889953843 17.443356279853376 0.0 0.0
-20.888217508059526 2.826726327787023 -5.418447354081751 -2.6698523661627096 0.0 0.0
-115.18039265335959 1.802851940389509 -34.01326221389102 -21.67900756116204 0.0 0.0
-271.6708704937129 -2.2682114479763325 -82.18172458250676 -25.26331628079829 0.0 0.0
-424.9981372752348 11.537087469317466 -126.52875970195076 -22.155458393300314 0.0 0.0
-533.6260024835707 18.692514731478553 -188.76233942856885 -13.341904034474183 0.0 0.0
-612.2339525272773 10.738091360048863 -266.36714971350887 -9.979010230105132 0.0 0.0
-682.0056836742438 4.978138763025058 -325.036515130776 -10.28118179429461 0.0 0.0
-752.1941080789283 -9.212669309480717 -374.92665958686473 -11.761944103804897 0.0 0.0
-824.7389954440841 -31.333171744224543 -424.454483685106 -13.38444414601998 0.0 0.0
-899.5753892170646 -60.275092778290585 -477.1162695477341 -14.471215765150939 0.0 0.0
-975.04398255933 -93.69033056309067 -532.0065083345266 -14.932810190548356 0.0 0.0
-1049.847143902744 -130.37622709912932 -588.0770080449366 -14.8678609320842 0.0 0.0
-1124.304538773184 -169.2864806624025 -644.9802153502351 -14.63458604944137 0.0 0.0
-1199.7435709042475 -211.52701753589656 -703.9552153094419 -14.20212346596972 0.0 0.0
-1277.1172871316708 -258.28929373856613 -766.1137547157832 -13.283501064291388 0.0 0.0
-1355.5223686798352 -309.1865699714705 -830.8250433095492 -11.509753508592603 0.0 0.0
-1432.0960980269524 -362.41318415728017 -895.7166637979647 -8.873840802621421 0.0 0.0
-1510.527699567078 -423.47041617424924 -965.2508976196622 -9.277820290298003 0.0 0.0
-1626.3861161871814 -531.9032534804023 -1076.9876886246936 -24.89480127789963 0.0 0.0
-1952.5472649822186 -872.5137366971818 -1411.0165079820931 -62.00884442890502 0.0 0.0
-1952.547264983176 -872.5137366981871 -1411.016507982771 62.00884442898161 0.0 0.0
-1626.3861161870796 -531.9032534803455 -1076.9876886245502 24.894801277875175 0.0 0.0
-1510.5276995662575 -423.4704161735025 -965.2508976189695 9.277820290266078 0.0 0.0
-1432.0960980261389 -362.4131841565686 -895.7166637973505 8.873840802579224 0.0 0.0
-1355.5223686793915 -309.18656997115403 -830.8250433092892 11.509753508622627 0.0 0.0
-1277.1172871311624 -258.2892937381996 -766.1137547153684 13.283501064240296 0.0 0.0
-1199.7435709035767 -211.52701753538943 -703.9552153088406 14.202123465864286 0.0 0.0
-1124.304538772918 -169.28648066232864 -644.9802153500143 14.634586049447242 0.0 0.0
-1049.8471439016805 -130.37622709828912 -588.0770080441202 14.867860932171538 0.0 0.0
-975.0439825580095 -93.69033056200539 -532.0065083335505 14.932810190436019 0.0 0.0
-899.5753892161337 -60.2750927776158 -477.1162695470749 14.471215765104185 0.0 0.0
-824.7389954436936 -31.333171744108185 -424.45448368484665 13.384444145940567 0.0 0.0
-752.1941080782663 -9.212669309106808 -374.92665958644415 11.761944103877521 0.0 0.0
-682.0056836737964 4.978138763171479 -325.0365151304521 10.28118179427543 0.0 0.0
-612.2339525265168 10.738091360561913 -266.36714971294884 9.979010230006255 0.0 0.0
-533.626002482994 18.69251473179579 -188.7623394281598 13.341904034526987 0.0 0.0
-424.9981372749022 11.537087469225131 -126.52875970186744 22.15545839317434 0.0 0.0
-271.6708704935523 -2.268211448224692 -82.18172458253308 25.263316280721426 0.0 0.0
-115.18039265333003 1.8028519403472725 -34.013262213894826 21.67900756108518 0.0 0.0
-20.88821750805222 2.8267263277627035 -5.418447354086855 2.6698523660089863 0.0 0.0
SCALARS Strain float 6
LOOKUP_TABLE default
0.01154077703539401 -0.01260872258028542 0.0 -0.006966269738487463 0.0 0.0
0.0023703374802423512 -0.0014607250558372198 0.0 0.001164592320610336 0.0 0.0
0.0018132402278942528 -0.00074017783355107 0.0 -4.31211111916463e-05 0.0 0.0
0.002279943286664563 -0.0010938250765226698 0.0 -0.0002119451734376443 0.0 0.0
0.003496506050589203 -0.0020651273411465 0.0 -0.0002663806854681372 0.0 0.0
0.005999941340452713 -0.004270567493525057 0.0 -0.0004032528202033703 0.0 0.0
0.010039731145507125 -0.008038574122278597 0.0 -0.0006396090307932423 0.0 0.0
0.015870932347017353 -0.013598898004256732 0.0 -0.0010015641053804647 0.0 0.0
0.02362494130775327 -0.021064406829914395 0.0 -0.0015035956263507178 0.0 0.0
0.03329123448405118 -0.030418538178593302 0.0 -0.0021041310757802245 0.0 0.0
0.04478272668698337 -0.04158204781211472 0.0 -0.002727620552210902 0.0 0.0
0.058002184065821506 -0.05446451547465703 0.0 -0.0033422719793783084 0.0 0.0
0.0728574711389847 -0.06897791086585947 0.0 -0.003954492826935829 0.0 0.0
0.08922969615807547 -0.08499906334326113 0.0 -0.0045628592076998875 0.0 0.0
0.10685041126588816 -0.1022551150544273 0.0 -0.005148874079858146 0.0 0.0
0.12515452840985047 -0.12018381588530369 0.0 -0.005600771414340067 0.0 0.0
0.14321344551788973 -0.13786852174627384 0.0 -0.005702731284863538 0.0 0.0
0.15976991937548135 -0.15406681648201204 0.0 -0.005221337102773338 0.0 0.0
0.17331639058473805 -0.16728004068745594 0.0 -0.004337902631990409 0.0 0.0
0.1817674712877811 -0.1752595281822904 0.0 -0.004651110473909981 0.0 0.0
0.18176747128777052 -0.17525952818228507 0.0 0.004651110473915754 0.0 0.0
0.17331639058470313 -0.16728004068742086 0.0 0.004337902632011947 0.0 0.0
0.15976991937542057 -0.1540668164819552 0.0 0.005221337102784274 0.0 0.0
0.1432134455178129 -0.13786852174619835 0.0 0.005702731284868534 0.0 0.0
0.12515452840976787 -0.12018381588522553 0.0 0.00560077141433124 0.0 0.0
0.10685041126580369 -0.10225511505434692 0.0 0.005148874079855648 0.0 0.0
0.08922969615799073 -0.08499906334317853 0.0 0.004562859207701164 0.0 0.0
0.07285747113890043 -0.06897791086577776 0.0 0.00395449282693372 0.0 0.0
0.058002184065741064 -0.05446451547457354 0.0 0.0033422719793726463 0.0 0.0
0.04478272668691091 -0.041582047812043665 0.0 0.002727620552205434 0.0 0.0
0.03329123448399063 -0.03041853817854201 0.0 0.0021041310757719534 0.0 0.0
0.02362494130770626 -0.021064406829870208 0.0 0.0015035956263481642 0.0 0.0
0.015870932346982447 -0.013598898004225646 0.0 0.0010015641053766067 0.0 0.0
0.010039731145483177 -0.008038574122254172 0.0 0.0006396090307907998 0.0 0.0
0.00599994134043863 -0.004270567493510402 0.0 0.0004032528201994845 0.0 0.0
0.0034965060505827705 -0.0020651273411402826 0.0 0.0002663806854665829 0.0 0.0
0.0022799432866628666 -0.0010938250765220037 0.0 0.00021194517343592345 0.0 0.0
0.0018132402278938087 -0.00074017783355107 0.0 4.312111118925932e-05 0.0 0.0
0.002370337480240181 -0.0014607250558351104 0.0 -0.0011645923206089481 0.0 0.0
0.011540777035383087 -0.012608722580271178 0.0 0.006966269738454378 0.0 0.0
0.008175300407762293 -0.009620891887578309 0.0 -0.008387781863770205 0.0 0.0
0.001290842453746388 -0.0007379512795073206 0.0 0.00013591885905461787 0.0 0.0
0.0015511688539704659 -0.0005548819960515816 0.0 -0.0001296437499310743 0.0 0.0
0.0020051714130717505 -0.0009168857351047333 0.0 -0.00046639151141392166 0.0 0.0
0.002975055832039126 -0.0016459576282423782 0.0 -0.000601847591712279 0.0 0.0
0.0051181858143423895 -0.0034810791540200725 0.0 -0.0009379597112159077 0.0 0.0
0.008724493875131651 -0.006795559990174338 0.0 -0.001539365973429685 0.0 0.0
0.013999405301607072 -0.011792161560486791 0.0 -0.002407827372945315 0.0 0.0
0.02102700507972017 -0.01853682865130124 0.0 -0.0035495448919130035 0.0 0.0
0.029753540932378295 -0.02696668435652061 0.0 -0.004867364832650517 0.0 0.0
0.040068836844531476 -0.03697708032368352 0.0 -0.0062167645145789485 0.0 0.0
0.051890124206755796 -0.04848993405530111 0.0 -0.007514633478801436 0.0 0.0
0.06517800546532929 -0.06146399517773027 0.0 -0.008824094903581187 0.0 0.0
0.07985453130111453 -0.07581842119441218 0.0 -0.010169646612463362 0.0 0.0
0.09569263140136913 -0.0913244830063209 0.0 -0.011464748561415217 0.0 0.0
0.11221234388650984 -0.10750404053503759 0.0 -0.012482850380031385 0.0 0.0
0.12861007901429372 -0.12355935572526633 0.0 -0.01279602303644406 0.0 0.0
0.14374505790222708 -0.1383549669753701 0.0 -0.012018551519903942 0.0 0.0
0.15606142119505778 -0.1503049600515598 0.0 -0.010282361215359026 0.0 0.0
0.1634817425284883 -0.1574459863603268 0.0 -0.007407964075480722 0.0 0.0
0.16348174252847786 -0.15744598636031792 0.0 0.00740796407550115 0.0 0.0
0.15606142119502522 -0.15030496005152783 0.0 0.010282361215396607 0.0 0.0
0.1437450579021742 -0.13835496697532124 0.0 0.012018551519928478 0.0 0.0
0.12861007901422647 -0.12355935572520149 0.0 0.012796023036454995 0.0 0.0
0.11221234388643733 -0.10750404053496432 0.0 0.01248285038002217 0.0 0.0
0.09569263140129297 -0.09132448300624452 0.0 0.011464748561413884 0.0 0.0
0.07985453130103773 -0.07581842119433846 0.0 0.010169646612460004 0.0 0.0
0.06517800546525482 -0.0614639951776601 0.0 0.008824094903576829 0.0 0.0
0.051890124206683985 -0.04848993405522828 0.0 0.007514633478793442 0.0 0.0
0.04006883684446616 -0.03697708032361291 0.0 0.006216764514569428 0.0 0.0
0.029753540932324185 -0.026966684356463988 0.0 0.004867364832637944 0.0 0.0
0.021027005079677502 -0.01853682865125772 0.0 0.0035495448919070083 0.0 0.0
0.013999405301575452 -0.011792161560455039 0.0 0.002407827372939375 0.0 0.0
0.008724493875110428 -0.00679555999015391 0.0 0.001539365973425133 0.0 0.0
0.005118185814330212 -0.0034810791540111907 0.0 0.0009379597112136318 0.0 0.0
0.002975055832034279 -0.0016459576282384925 0.0 0.0006018475917108357 0.0 0.0
0.0020051714130704945 -0.0009168857351027349 0.0 0.0004663915114135886 0.0 0.0
0.001551168853970164 -0.0005548819960514706 0.0 0.00012964374993190697 0.0 0.0
0.0012908424537461105 -0.0007379512795060716 0.0 -0.00013591885905561707 0.0 0.0
0.008175300407749442 -0.009620891887563383 0.0 0.008387781863742672 0.0 0.0
0.006043035361911475 -0.007645589289703825 0.0 -0.007768486691759724 0.0 0.0
0.0007603375581199112 -0.0004805245028516314 0.0 -0.0005648212505016681 0.0 0.0
0.0012434227934230574 -0.0004091856762946655 0.0 -0.00043349916480073247 0.0 0.0
0.0017421519521351528 -0.0007562592999905693 0.0 -0.0007094743035681583 0.0 0.0
0.0025120506148543567 -0.0012992443680897026 0.0 -0.0008985838724162032 0.0 0.0
0.004270511676234379 -0.0027446049170161135 0.0 -0.0013370398952433082 0.0 0.0
0.007418772689270277 -0.0055753262519175895 0.0 -0.0022039782409802866 0.0 0.0
0.012107202613882546 -0.009979368352040385 0.0 -0.0034880693932456963 0.0 0.0
0.01838092861958844 -0.015973287821561932 0.0 -0.005135664903910098 0.0 0.0
0.026150450666325167 -0.023462334675639962 0.0 -0.007008579431310474 0.0 0.0
0.03528871387600969 -0.03231909160220647 0.0 -0.008924899197789937 0.0 0.0
0.045719791991436116 -0.04246822943058026 0.0 -0.01077532524094102 0.0 0.0
0.057429441745856485 -0.05389256714205759 0.0 -0.01261641060844132 0.0 0.0
0.07038795777689848 -0.06655920569034057 0.0 -0.014525117857716485 0.0 0.0
0.08442815826137777 -0.08030109450114153 0.0 -0.016398581756247366 0.0 0.0
0.09916283493773474 -0.0947312432340417 0.0 -0.017888483757748708 0.0 0.0
0.11391972265614284 -0.10917680723902246 0.0 -0.01846650079113793 0.0 0.0
0.1276585572281422 -0.12258748955455223 0.0 -0.017620647613948104 0.0 0.0
0.1388755016887886 -0.13348551538934172 0.0 -0.014869304789768445 0.0 0.0
0.1458426301331459 -0.14022385279603844 0.0 -0.009405273596932329 0.0 0.0
0.14584263013313556 -0.14022385279602512 0.0 0.009405273596964414 0.0 0.0
0.13887550168875878 -0.13348551538930709 0.0 0.014869304789819515 0.0 0.0
0.12765855722809552 -0.1225874895545056 0.0 0.017620647613980633 0.0 0.0
0.11391972265608463 -0.10917680723896783 0.0 0.01846650079115464 0.0 0.0
0.09916283493767114 -0.09473124323397863 0.0 0.017888483757741103 0.0 0.0
0.08442815826131012 -0.08030109450107581 0.0 0.016398581756241537 0.0 0.0
0.07038795777683018 -0.06655920569027574 0.0 0.014525117857711378 0.0 0.0
0.057429441745791066 -0.053892567141987424 0.0 0.012616410608436324 0.0 0.0
0.045719791991373354 -0.042468229430515425 0.0 0.010775325240927947 0.0 0.0
0.03528871387595184 -0.032319091602149186 0.0 0.008924899197777614 0.0 0.0
0.02615045066627722 -0.023462334675592 0.0 0.00700857943129507 0.0 0.0
0.01838092861955029 -0.015973287821526183 0.0 0.005135664903900383 0.0 0.0
0.01210720261385434 -0.009979368352016627 0.0 0.0034880693932382023 0.0 0.0
0.0074187726892518124 -0.0055753262519027125 0.0 0.002203978240972404 0.0 0.0
0.0042705116762248585 -0.002744604917007676 0.0 0.0013370398952377571 0.0 0.0
0.0025120506148506583 -0.001299244368086483 0.0 0.000898583872415315 0.0 0.0
0.0017421519521341466 -0.0007562592999901252 0.0 0.0007094743035675477 0.0 0.0
0.001243422793423099 -0.0004091856762937218 0.0 0.0004334991647993447 0.0 0.0
0.00076033755812005 -0.000480524502849744 0.0 0.0005648212504992256 0.0 0.0
0.006043035361899318 -0.007645589289690089 0.0 0.0077684866917372974 0.0 0.0
0.004553799077500559 -0.00615754226754775 0.0 -0.006599319397285641 0.0 0.0
0.0004770192388678027 -0.00035812052449185616 0.0 -0.0011573144492717513 0.0 0.0
0.0009637221848367503 -0.0002988276422064562 0.0 -0.0008362548453417218 0.0 0.0
0.001480863182279607 -0.0006114985713765453 0.0 -0.0009780575678485226 0.0 0.0
0.0021034287230456347 -0.0010231055592897498 0.0 -0.001179354824533796 0.0 0.0
0.0034908749807469677 -0.0020995199280222643 0.0 -0.0016293886236147803 0.0 0.0
0.006133414115103056 -0.004404537355687577 0.0 -0.0026432609023198106 0.0 0.0
0.01021572033956921 -0.008181862955331187 0.0 -0.004236591576808502 0.0 0.0
0.01571123805806198 -0.013402033092920096 0.0 -0.006253348671628134 0.0 0.0
0.022509631066262595 -0.019935074499082717 0.0 -0.00853015619308678 0.0 0.0
0.030467817768876013 -0.027634003489779957 0.0 -0.010850413924261448 0.0 0.0
0.0395106924371767 -0.0364204377120152 0.0 -0.013103277839831007 0.0 0.0
0.0496429071559311 -0.04629617678128772 0.0 -0.01535808706205205 0.0 0.0
0.060871621636397796 -0.057263134808458016 0.0 -0.017655224139453085 0.0 0.0
0.0730928039926547 -0.06922013284308992 0.0 -0.01990529372883021 0.0 0.0
0.08602332967042892 -0.08188266044069703 0.0 -0.02178339895713044 0.0 0.0
0.09912262407652354 -0.09470101703992917 0.0 -0.022682636454730454 0.0 0.0
0.1114867821518113 -0.10676892353240586 0.0 -0.021854141395411697 0.0 0.0
0.12180310090955092 -0.11680098337669342 0.0 -0.018347369383464596 0.0 0.0
0.12857445178659824 -0.1233653986133687 0.0 -0.011043768490736516 0.0 0.0
0.12857445178658833 -0.12336539861335583 0.0 0.011043768490779371 0.0 0.0
0.12180310090952387 -0.11680098337666323 0.0 0.018347369383524326 0.0 0.0
0.11148678215177049 -0.10676892353236633 0.0 0.021854141395452276 0.0 0.0
0.09912262407647371 -0.09470101703987588 0.0 0.022682636454749994 0.0 0.0
0.08602332967037299 -0.08188266044064196 0.0 0.021783398957121114 0.0 0.0
0.07309280399259604 -0.06922013284303352 0.0 0.01990529372882166 0.0 0.0
0.06087162163633841 -0.05726313480839851 0.0 0.01765522413944931 0.0 0.0
0.049642907155874355 -0.04629617678122688 0.0 0.015358087062046777 0.0 0.0
0.039510692437122685 -0.036420437711960574 0.0 0.013103277839815686 0.0 0.0
0.030467817768826122 -0.027634003489730663 0.0 0.010850413924243574 0.0 0.0
0.02250963106622067 -0.019935074499038086 0.0 0.008530156193067406 0.0 0.0
0.015711238058028792 -0.0134020330928879 0.0 0.0062533486716160325 0.0 0.0
0.010215720339544737 -0.008181862955305874 0.0 0.004236591576799453 0.0 0.0
0.006133414115087221 -0.004404537355674476 0.0 0.00264326090231376 0.0 0.0
0.003490874980739772 -0.0020995199280144927 0.0 0.001629388623610728 0.0 0.0
0.002103428723043116 -0.0010231055592870852 0.0 0.0011793548245315755 0.0 0.0
0.0014808631822787188 -0.0006114985713769894 0.0 0.0009780575678473569 0.0 0.0
0.000963722184836896 -0.00029882764220678926 0.0 0.0008362548453385021 0.0 0.0
0.00047701923886803166 -0.0003581205244910235 0.0 0.0011573144492690313 0.0 0.0
0.004553799077489568 -0.006157542267535732 0.0 0.006599319397268599 0.0 0.0
0.003424063085061574 -0.004947444165952608 0.0 -0.005405618338540807 0.0 0.0
0.0003184853540710991 -0.00029336088019615847 0.0 -0.001618484733979686 0.0 0.0
0.0007290735017955879 -0.0002184071006768873 0.0 -0.001242424762889327 0.0 0.0
0.0012211404122740993 -0.00048336645749869067 0.0 -0.0012728839478395315 0.0 0.0
0.001738933345255489 -0.0008034154893745704 0.0 -0.001450486022684383 0.0 0.0
0.0027949209482894533 -0.001562730127658396 0.0 -0.0018742567380652386 0.0 0.0
0.004908354034946813 -0.0033220096250314857 0.0 -0.0028793519956228364 0.0 0.0
0.008339305163463664 -0.006423954348766081 0.0 -0.004613049822913495 0.0 0.0
0.013042717061917605 -0.01085002744549679 0.0 -0.006894553339890197 0.0 0.0
0.018857060349086074 -0.01641315154808476 0.0 -0.009425419645435307 0.0 0.0
0.02563225437123598 -0.022949680836037434 0.0 -0.012000010077911571 0.0 0.0
0.03328842171668703 -0.030375059008220795 0.0 -0.014498252974770753 0.0 0.0
0.04184388924911543 -0.038701887677203395 0.0 -0.016994308266484515 0.0 0.0
0.05134016262210937 -0.047968190308624425 0.0 -0.01955214146550338 0.0 0.0
0.061730738713599784 -0.05812749553588148 0.0 -0.022041322931798002 0.0 0.0
0.07282119740663573 -0.068984269608094 0.0 -0.024139391902543883 0.0 0.0
0.08421383594816552 -0.08013515671771732 0.0 -0.02531915675305474 0.0 0.0
0.09521646009288108 -0.09087980422642605 0.0 -0.024674262689032167 0.0 0.0
0.10475506824796636 -0.10016307498166332 0.0 -0.02084819070417343 0.0 0.0
0.1114983307799505 -0.10670637161075947 0.0 -0.012431164359223423 0.0 0.0
0.11149833077994137 -0.10670637161074659 0.0 0.012431164359268498 0.0 0.0
0.10475506824794192 -0.10016307498163979 0.0 0.02084819070423516 0.0 0.0
0.09521646009284646 -0.09087980422639363 0.0 0.024674262689077353 0.0 0.0
0.08421383594812276 -0.08013515671767513 0.0 0.0253191567530755 0.0 0.0
0.07282119740658735 -0.06898426960804782 0.0 0.024139391902535556 0.0 0.0
0.06173073871355003 -0.0581274955358313 0.0 0.022041322931789398 0.0 0.0
0.05134016262205923 -0.047968190308580905 0.0 0.019552141465497108 0.0 0.0
0.041843889249067595 -0.0387018876771541 0.0 0.01699430826647752 0.0 0.0
0.03328842171664129 -0.03037505900817905 0.0 0.0144982529747536 0.0 0.0
0.02563225437119429 -0.02294968083600102 0.0 0.012000010077891532 0.0 0.0
0.018857060349050353 -0.016413151548053673 0.0 0.009425419645411992 0.0 0.0
0.01304271706188953 -0.010850027445472143 0.0 0.0068945533398748204 0.0 0.0
0.008339305163443167 -0.006423954348748984 0.0 0.004613049822900506 0.0 0.0
0.004908354034934087 -0.0033220096250217157 0.0 0.0028793519956140656 0.0 0.0
0.0027949209482839577 -0.0015627301276557315 0.0 0.0018742567380590214 0.0 0.0
0.0017389333452539624 -0.0008034154893757917 0.0 0.001450486022681996 0.0 0.0
0.001221140412273447 -0.0004833664574992458 0.0 0.0012728839478386433 0.0 0.0
0.0007290735017955186 -0.0002184071006784416 0.0 0.0012424247628877172 0.0 0.0
0.000318485354071113 -0.00029336088019510376 0.0 0.0016184847339772435 0.0 0.0
0.003424063085052581 -0.004947444165942384 0.0 0.005405618338527096 0.0 0.0
0.002538627326047954 -0.003936687858457383 0.0 -0.004363012195582938 0.0 0.0
0.00022158513827519322 -0.0002529055507439204 0.0 -0.001961578160396271 0.0 0.0
0.0005318667822937356 -0.00015721202567320347 0.0 -0.001601528667746266 0.0 0.0
0.0009633838080989332 -0.0003659430047908696 0.0 -0.0015674398784146781 0.0 0.0
0.0014063779078936772 -0.0006230945758445294 0.0 -0.0017157557046211802 0.0 0.0
0.002176464594535757 -0.0011343913898913538 0.0 -0.0020947669917750766 0.0 0.0
0.0037840008292181343 -0.002380667547764226 0.0 -0.0030199711235873727 0.0 0.0
0.0065176352248869085 -0.004762499736333803 0.0 -0.004690641948468022 0.0 0.0
0.01039568210475475 -0.00834563588576609 0.0 -0.007026426650228679 0.0 0.0
0.015219206636192806 -0.012926735010089896 0.0 -0.009680703349439435 0.0 0.0
0.020806831278167334 -0.018296147338390245 0.0 -0.012354503284195129 0.0 0.0
0.02708013777517687 -0.024362340405950977 0.0 -0.014948383361374995 0.0 0.0
0.034063531866610874 -0.031144953425304767 0.0 -0.017537235322725775 0.0 0.0
0.04182455880572038 -0.03870779381349587 0.0 -0.020169276121899893 0.0 0.0
0.0503751004555677 -0.047058845454965414 0.0 -0.02274831433807012 0.0 0.0
0.05959475684174906 -0.05607958525636603 0.0 -0.02497238603737728 0.0 0.0
0.0692175895233912 -0.06550316341586138 0.0 -0.026330971932927272 0.0 0.0
0.0788120096854876 -0.0748858336405438 0.0 -0.025975582134367847 0.0 0.0
0.08761554759485347 -0.08346327566847789 0.0 -0.022343559713173367 0.0 0.0
0.09445083411800162 -0.09009531929849457 0.0 -0.013595881362523432 0.0 0.0
0.09445083411799327 -0.09009531929848258 0.0 0.013595881362569062 0.0 0.0
0.08761554759483253 -0.08346327566845613 0.0 0.022343559713235983 0.0 0.0
0.07881200968545879 -0.07488583364051449 0.0 0.0259755821344142 0.0 0.0
0.06921758952335536 -0.0655031634158254 0.0 0.026330971932946867 0.0 0.0
0.05959475684170851 -0.05607958525632206 0.0 0.024972386037368732 0.0 0.0
0.05037510045552637 -0.04705884545492145 0.0 0.022748314338057907 0.0 0.0
0.04182455880567976 -0.03870779381345635 0.0 0.020169276121888235 0.0 0.0
0.03406353186657218 -0.031144953425267463 0.0 0.017537235322715672 0.0 0.0
0.02708013777513968 -0.024362340405916783 0.0 0.014948383361357842 0.0 0.0
0.02080683127813343 -0.01829614733835827 0.0 0.012354503284175977 0.0 0.0
0.015219206636163413 -0.012926735010065027 0.0 0.009680703349414288 0.0 0.0
0.010395682104732296 -0.008345635885746105 0.0 0.007026426650213802 0.0 0.0
0.006517635224870477 -0.004762499736320258 0.0 0.0046906419484570305 0.0 0.0
0.0037840008292084892 -0.002380667547755788 0.0 0.0030199711235798787 0.0 0.0
0.0021764645945320793 -0.0011343913898849145 0.0 0.0020947669917710243 0.0 0.0
0.0014063779078927474 -0.0006230945758411988 0.0 0.0017157557046211247 0.0 0.0
0.0009633838080984336 -0.0003659430047908696 0.0 0.0015674398784134569 0.0 0.0
0.000531866782293694 -0.00015721202567370307 0.0 0.0016015286677436569 0.0 0.0
0.00022158513827486015 -0.0002529055507428657 0.0 0.0019615781603948834 0.0 0.0
0.002538627326041154 -0.003936687858449106 0.0 0.004363012195572613 0.0 0.0
0.0018397122081841716 -0.00308529722842113 0.0 -0.003502586388420048 0.0 0.0
0.00015307816191510726 -0.0002247086640148055 0.0 -0.00220163101018811 0.0 0.0
0.0003590480762040854 -0.00010538109032087739 0.0 -0.0018927542945918474 0.0 0.0
0.0007090465206845142 -0.00025259232423258116 0.0 -0.0018375011300433286 0.0 0.0
0.0010872949944446958 -0.00046641022210014427 0.0 -0.001976653251721694 0.0 0.0
0.0016324785480330561 -0.0007961598082251164 0.0 -0.002285407178084564 0.0 0.0
0.002766892542449398 -0.00159405886264663 0.0 -0.003061405248921789 0.0 0.0
0.004807091905749558 -0.0032626181499098017 0.0 -0.004544962584641321 0.0 0.0
0.007811330295075386 -0.005950782711037217 0.0 -0.006694466764046947 0.0 0.0
0.011620076210195285 -0.009510926281937948 0.0 -0.00925770659330849 0.0 0.0
0.01601580687588726 -0.013705552274997146 0.0 -0.011897938357683158 0.0 0.0
0.020912199898826478 -0.018416341422229365 0.0 -0.014438716367344062 0.0 0.0
0.026332028172238023 -0.023662615092272077 0.0 -0.01695390224009591 0.0 0.0
0.0323611286168614 -0.02952512764561055 0.0 -0.01951073847811896 0.0 0.0
0.039057222731827795 -0.03605666495407567 0.0 -0.02202168345984923 0.0 0.0
0.04638057551686596 -0.043210527871603066 0.0 -0.02420296586415871 0.0 0.0
0.05416932762837949 -0.05084210409373968 0.0 -0.02565283886941333 0.0 0.0
0.0622478084771199 -0.05876580978222412 0.0 -0.02569494515538151 0.0 0.0
0.07025616668476906 -0.06658632827039757 0.0 -0.02275362705034034 0.0 0.0
0.0772557610045051 -0.07337091589765077 0.0 -0.014523362445705956 0.0 0.0
0.0772557610044983 -0.07337091589764322 0.0 0.01452336244575092 0.0 0.0
0.07025616668475237 -0.06658632827038069 0.0 0.022753627050402625 0.0 0.0
0.06224780847709646 -0.05876580978219881 0.0 0.025694945155428583 0.0 0.0
0.05416932762835061 -0.050842104093711704 0.0 0.025652838869431815 0.0 0.0
0.04638057551683375 -0.04321052787157331 0.0 0.024202965864151382 0.0 0.0
0.039057222731794794 -0.03605666495404236 0.0 0.02202168345984068 0.0 0.0
0.03236112861683024 -0.02952512764557902 0.0 0.01951073847810969 0.0 0.0
0.026332028172208977 -0.023662615092242323 0.0 0.016953902240089413 0.0 0.0
0.020912199898798056 -0.01841634142219961 0.0 0.01443871636732752 0.0 0.0
0.016015806875860433 -0.013705552274972277 0.0 0.011897938357663174 0.0 0.0
0.011620076210172747 -0.009510926281919518 0.0 0.009257706593283788 0.0 0.0
0.007811330295058483 -0.00595078271102123 0.0 0.006694466764033402 0.0 0.0
0.004807091905737387 -0.0032626181498995876 0.0 0.004544962584631329 0.0 0.0
0.0027668925424425006 -0.001594058862640635 0.0 0.003061405248916682 0.0 0.0
0.0016324785480306692 -0.0007961598082220078 0.0 0.002285407178081289 0.0 0.0
0.0010872949944437937 -0.0004664102220998112 0.0 0.00197665325171964 0.0 0.0
0.0007090465206840701 -0.0002525923242309158 0.0 0.0018375011300415522 0.0 0.0
0.000359048076203905 -0.0001053810903194341 0.0 0.001892754294587795 0.0 0.0
0.00015307816191498236 -0.00022470866401438916 0.0 0.0022016310101856673 0.0 0.0
0.0018397122081790507 -0.0030852972284150237 0.0 0.003502586388412665 0.0 0.0
0.0012990613195798667 -0.002384509525311662 0.0 -0.002829435640559097 0.0 0.0
8.98272139496642e-05 -0.0002008701930891199 0.0 -0.002342010153940366 0.0 0.0
0.00019977068414873955 -5.4975293220960175e-05 0.0 -0.0021157705114967507 0.0 0.0
0.00046048642443409504 -0.0001414121140694835 0.0 -0.0020628669414793355 0.0 0.0
0.0007646710121205907 -0.0003161000093008237 0.0 -0.00221125028698016 0.0 0.0
0.0011474718500903702 -0.00053360909612854 0.0 -0.0024917038997213092 0.0 0.0
0.0018656567105206773 -0.0009766756818718747 0.0 -0.0030685143184410735 0.0 0.0
0.003236789134711565 -0.0019777579041584392 0.0 -0.0042224426642859525 0.0 0.0
0.0053511998495921476 -0.003752183667861564 0.0 -0.005996134696645172 0.0 0.0
0.008100383161500649 -0.006237173288845543 0.0 -0.008203142663009366 0.0 0.0
0.011287604089403144 -0.009226264765656023 0.0 -0.010580885368248028 0.0 0.0
0.014808909650658203 -0.012581172460055079 0.0 -0.012915640542936757 0.0 0.0
0.01867829795744662 -0.016301117050997238 0.0 -0.015222162473302103 0.0 0.0
0.022981291652189748 -0.020468624783845257 0.0 -0.017536449126666687 0.0 0.0
0.027812937703202853 -0.02517041591802993 0.0 -0.019824167037577667 0.0 0.0
0.03321234856328174 -0.03043514969329486 0.0 -0.021851947604064503 0.0 0.0
0.039119763482964726 -0.03621092386186042 0.0 -0.02321735422335114 0.0 0.0
0.04552378718130207 -0.04252127635229774 0.0 -0.02359050689882425 0.0 0.0
0.052538791055914025 -0.04941860003869358 0.0 -0.02183953272953887 0.0 0.0
0.05970238564620753 -0.05635427208603616 0.0 -0.015152525266448835 0.0 0.0
0.05970238564620292 -0.05635427208602817 0.0 0.015152525266486139 0.0 0.0
0.052538791055902256 -0.04941860003867582 0.0 0.02183953272959427 0.0 0.0
0.045523787181284 -0.0425212763522822 0.0 0.02359050689886666 0.0 0.0
0.03911976348294316 -0.03621092386183866 0.0 0.02321735422336557 0.0 0.0
0.033212348563257915 -0.0304351496932731 0.0 0.021851947604053623 0.0 0.0
0.027812937703178747 -0.02517041591801439 0.0 0.019824167037566398 0.0 0.0
0.022981291652168112 -0.02046862478382705 0.0 0.01753644912665675 0.0 0.0
0.01867829795742748 -0.016301117050980807 0.0 0.015222162473294443 0.0 0.0
0.01480890965063797 -0.012581172460037315 0.0 0.01291564054292238 0.0 0.0
0.011287604089384035 -0.009226264765636483 0.0 0.01058088536823043 0.0 0.0
0.008100383161485314 -0.0062371732888311104 0.0 0.00820314266299188 0.0 0.0
0.005351199849580546 -0.003752183667847353 0.0 0.005996134696633237 0.0 0.0
0.003236789134703627 -0.001977757904152444 0.0 0.00422244266427757 0.0 0.0
0.001865656710516389 -0.0009766756818698763 0.0 0.0030685143184358554 0.0 0.0
0.0011474718500890935 -0.0005336090961280959 0.0 0.002491703899717035 0.0 0.0
0.000764671012119883 -0.00031610000929993554 0.0 0.002211250286978883 0.0 0.0
0.00046048642443377585 -0.00014141211406937249 0.0 0.0020628669414776146 0.0 0.0
0.00019977068414875343 -5.497529322062711e-05 0.0 0.0021157705114950853 0.0 0.0
8.982721394951154e-05 -0.00020087019308814846 0.0 0.0023420101539389226 0.0 0.0
0.0012990613195762724 -0.00238450952530702 0.0 0.002829435640552158 0.0 0.0
0.0009029720554735304 -0.0018400106204434497 0.0 -0.0023466247899976422 0.0 0.0
1.8012644612347417e-05 -0.00017959644953080556 0.0 -0.0024149887547612603 0.0 0.0
4.749137934340064e-05 -9.303217063383329e-08 0.0 -0.0022734779723957987 0.0 0.0
0.00021925040067212465 -3.413674268104572e-05 0.0 -0.0022360197163778794 0.0 0.0
0.00043376398098356195 -0.0001603170529487219 0.0 -0.002387735548989911 0.0 0.0
0.0006834393566115537 -0.0003079377623829149 0.0 -0.0026927506647665966 0.0 0.0
0.0010798194355135654 -0.0005218762320398085 0.0 -0.0031226274346325966 0.0 0.0
0.0018304292619313045 -0.0009714424017703838 0.0 -0.003845029006564471 0.0 0.0
0.0030667526265324985 -0.0018619883045387642 0.0 -0.0050316366687506164 0.0 0.0
0.0047224905309959375 -0.0032345538244329397 0.0 -0.006623115555416559 0.0 0.0
0.00666704193132156 -0.004968866970725738 0.0 -0.008468517953612698 0.0 0.0
0.008796036035596033 -0.006942467792300011 0.0 -0.010385902913205514 0.0 0.0
0.011122911707684952 -0.009137320605851595 0.0 -0.012348912974414428 0.0 0.0
0.0137135815365447 -0.011618826056140286 0.0 -0.014310503826174603 0.0 0.0
0.016669227958348437 -0.014479987950384299 0.0 -0.016253314407191022 0.0 0.0
0.020107019686200267 -0.017823435227129814 0.0 -0.018055653308362896 0.0 0.0
0.024104673486328998 -0.021711220475807647 0.0 -0.01935212049031987 0.0 0.0
0.02873190187392549 -0.026254973323855513 0.0 -0.019796016576942632 0.0 0.0
0.034364345569642435 -0.03189265046342493 0.0 -0.01922737346904324 0.0 0.0
0.041493879126994565 -0.038815009632185316 0.0 -0.015254335389040419 0.0 0.0
0.04149387912699207 -0.038815009632178654 0.0 0.015254335389074947 0.0 0.0
0.03436434556963561 -0.03189265046341738 0.0 0.019227373469093423 0.0 0.0
0.028731901873913 -0.0262549733238453 0.0 0.019796016576978492 0.0 0.0
0.024104673486315037 -0.021711220475794768 0.0 0.019352120490328084 0.0 0.0
0.02010701968618564 -0.017823435227110274 0.0 0.018055653308347575 0.0 0.0
0.016669227958334476 -0.01447998795036698 0.0 0.016253314407180697 0.0 0.0
0.013713581536533126 -0.011618826056131404 0.0 0.014310503826172827 0.0 0.0
0.01112291170767521 -0.009137320605843602 0.0 0.012348912974413317 0.0 0.0
0.008796036035583876 -0.006942467792291129 0.0 0.0103859029131953 0.0 0.0
0.006667041931310985 -0.004968866970714636 0.0 0.008468517953596821 0.0 0.0
0.004722490530987389 -0.0032345538244258343 0.0 0.006623115555400794 0.0 0.0
0.003066752626526531 -0.0018619883045356556 0.0 0.005031636668742068 0.0 0.0
0.0018304292619272244 -0.0009714424017650547 0.0 0.0038450290065606962 0.0 0.0
0.0010798194355111368 -0.000521876232037588 0.0 0.003122627434629155 0.0 0.0
0.0006834393566110264 -0.0003079377623818047 0.0 0.002692750664764265 0.0 0.0
0.00043376398098299296 -0.00016031705294905496 0.0 0.002387735548986525 0.0 0.0
0.000219250400671972 -3.413674268204492e-05 0.0 0.002236019716374882 0.0 0.0
4.749137934370595e-05 -9.303217213263437e-08 0.0 0.002273477972392468 0.0 0.0
1.801264461206986e-05 -0.00017959644953141618 0.0 0.0024149887547585958 0.0 0.0
0.0009029720554711573 -0.0018400106204401884 0.0 0.002346624789993923 0.0 0.0
0.0006240031360659481 -0.0014306649054062481 0.0 -0.002016913076897553 0.0 0.0
-5.923104993571515e-05 -0.0001621210475489243 0.0 -0.0024526893154597773 0.0 0.0
-0.00010065193931854677 5.975314898465367e-05 0.0 -0.002373214526347922 0.0 0.0
-1.4952933936995816e-05 6.948711206311575e-05 0.0 -0.002351935510560399 0.0 0.0
0.00010039603814276932 -2.0294725757707965e-06 0.0 -0.0024941761962539166 0.0 0.0
0.00021317742990023536 -8.320780067117006e-05 0.0 -0.0028210876720962674 0.0 0.0
0.000352923863915805 -0.00016487651595342712 0.0 -0.003265023378387799 0.0 0.0
0.000585048039787428 -0.00028236707992301824 0.0 -0.0037275691611126094 0.0 0.0
0.0009872883454946912 -0.0004907254056232269 0.0 -0.004285658662083358 0.0 0.0
0.001538819226124033 -0.0008265399544722385 0.0 -0.005098120547253893 0.0 0.0
0.0021946876663797854 -0.0012784107972896308 0.0 -0.006239788738626628 0.0 0.0
0.0029011739313655194 -0.0018232877802106806 0.0 -0.007610373363269085 0.0 0.0
0.0036682883357349316 -0.0024673466519540277 0.0 -0.009167771365551025 0.0 0.0
0.004535314772756843 -0.0032448585162057064 0.0 -0.01088383982572294 0.0 0.0
0.0055983867876982785 -0.0042377184307866855 0.0 -0.012736939391798985 0.0 0.0
0.007036742113266409 -0.005605519334249465 0.0 -0.014594024684207896 0.0 0.0
0.009098578984476025 -0.0075707841671994736 0.0 -0.016071554935104593 0.0 0.0
0.011996389356313447 -0.01032978209937152 0.0 -0.016554985300014646 0.0 0.0
0.01597795046949982 -0.014292780671630645 0.0 -0.01604927270430101 0.0 0.0
0.02228276032333676 -0.020647175542820584 0.0 -0.014847335736891787 0.0 0.0
0.02228276032333651 -0.02064717554281792 0.0 0.014847335736918654 0.0 0.0
0.015977950469497265 -0.01429278067162798 0.0 0.016049272704340645 0.0 0.0
0.011996389356306869 -0.010329782099363971 0.0 0.016554985300035963 0.0 0.0
0.009098578984470723 -0.007570784167198585 0.0 0.016071554935105592 0.0 0.0
0.007036742113262551 -0.005605519334251241 0.0 0.014594024684194906 0.0 0.0
0.005598386787695114 -0.0042377184307813565 0.0 0.012736939391788216 0.0 0.0
0.004535314772754928 -0.0032448585162003774 0.0 0.010883839825715946 0.0 0.0
0.0036682883357343488 -0.002467346651950031 0.0 0.009167771365543587 0.0 0.0
0.002901173931362605 -0.0018232877802040193 0.0 0.007610373363259093 0.0 0.0
0.002194687666377787 -0.0012784107972838576 0.0 0.00623978873861597 0.0 0.0
0.0015388192261226452 -0.000826539954469574 0.0 0.005098120547243068 0.0 0.0
0.0009872883454939418 -0.0004907254056221166 0.0 0.0042856586620803605 0.0 0.0
0.0005850480397868729 -0.00028236707992412846 0.0 0.0037275691611085016 0.0 0.0
0.00035292386391488906 -0.00016487651595697983 0.0 0.0032650233783838023 0.0 0.0
0.0002131774299002076 -8.320780067228029e-05 0.0 0.002821087672092437 0.0 0.0
0.00010039603814257503 -2.0294725753267073e-06 0.0 0.002494176196250253 0.0 0.0
-1.4952933936857038e-05 6.948711206267166e-05 0.0 0.002351935510558456 0.0 0.0
-0.00010065193931835248 5.97531489843206e-05 0.0 0.0023732145263466453 0.0 0.0
-5.923104993604822e-05 -0.00016212104754859125 0.0 0.002452689315458223 0.0 0.0
0.0006240031360646991 -0.0014306649054044458 0.0 0.0020169130768941668 0.0 0.0
0.00042967470573809785 -0.0011335287606938638 0.0 -0.0018057365871677056 0.0 0.0
-0.00013261271452433276 -0.00013958202479058546 0.0 -0.0024534991946491558 0.0 0.0
-0.00024413544160398204 0.00011934690947301707 0.0 -0.002421809277525444 0.0 0.0
-0.00024238737773205066 0.00017001703016972236 0.0 -0.00240624954424673 0.0 0.0
-0.00022956571776450163 0.00015446762559490068 0.0 -0.0025298660194814637 0.0 0.0
-0.0002618404507160055 0.00014456660122652565 0.0 -0.002836458125997532 0.0 0.0
-0.0003678966899647862 0.00018059493953970218 0.0 -0.0032702230107401475 0.0 0.0
-0.000588426190460789 0.00028541051464991973 0.0 -0.0037311532142578763 0.0 0.0
-0.0009864154310952333 0.0004907282717852013 0.0 -0.004287187489653843 0.0 0.0
-0.0015371548085229558 0.0008258531000508995 0.0 -0.005096519927117182 0.0 0.0
-0.0021981697849343396 0.0012846703623417 0.0 -0.006239003285492983 0.0 0.0
-0.0029297051018401243 0.0018523490956869892 0.0 -0.0076157210319949264 0.0 0.0
-0.0037383419017951447 0.0025286068389092087 0.0 -0.009175333135843844 0.0 0.0
-0.00461108574591837 0.0032893827140729748 0.0 -0.01089023972750569 0.0 0.0
-0.005451792561331409 0.004033428168566555 0.0 -0.012756955524880986 0.0 0.0
-0.006039869035393969 0.004547108198062144 0.0 -0.014733597155502931 0.0 0.0
-0.006004169406785276 0.00448999653847304 0.0 -0.016787912864971277 0.0 0.0
-0.004968340631863272 0.0036088859129366213 0.0 -0.018956253915453303 0.0 0.0
-0.002633445896981307 0.0017796533055944863 0.0 -0.020896038119577742 0.0 0.0
0.003108989041209903 -0.003591926647386945 0.0 -0.019384518147565255 0.0 0.0
0.003108989041210042 -0.003591926647386945 0.0 0.019384518147580798 0.0 0.0
-0.00263344589698164 0.0017796533055935981 0.0 0.020896038119595173 0.0 0.0
-0.00496834063186169 0.003608885912935733 0.0 0.018956253915455745 0.0 0.0
-0.006004169406779336 0.004489996538465935 0.0 0.016787912864963506 0.0 0.0
-0.006039869035386225 0.004547108198053262 0.0 0.014733597155491274 0.0 0.0
-0.005451792561324692 0.0040334281685630025 0.0 0.012756955524869329 0.0 0.0
-0.004611085745911098 0.0032893827140658694 0.0 0.010890239727495699 0.0 0.0
-0.003738341901786596 0.0025286068388989946 0.0 0.00917533313583685 0.0 0.0
-0.0029297051018324083 0.001852349095680328 0.0 0.007615721031983047 0.0 0.0
-0.0021981697849277892 0.0012846703623328182 0.0 0.006239003285482325 0.0 0.0
-0.001537154808516683 0.0008258531000497893 0.0 0.0050965199271078565 0.0 0.0
-0.0009864154310915696 0.0004907282717847572 0.0 0.004287187489652178 0.0 0.0
-0.0005884261904584576 0.0002854105146492536 0.0 0.0037311532142542125 0.0 0.0
-0.00036789668996412006 0.00018059493954192263 0.0 0.0032702230107368724 0.0 0.0
-0.00026184045071545037 0.00014456660122807996 0.0 0.002836458125994812 0.0 0.0
-0.00022956571776394652 0.00015446762559390148 0.0 0.0025298660194797984 0.0 0.0
-0.00024238737773188412 0.00017001703017027747 0.0 0.002406249544245176 0.0 0.0
-0.00024413544160362122 0.00011934690947346116 0.0 0.0024218092775235567 0.0 0.0
-0.00013261271452458256 -0.00013958202479041892 0.0 0.002453499194647879 0.0 0.0
0.0004296747057375705 -0.0011335287606928732 0.0 0.0018057365871667064 0.0 0.0
0.00029556535291452857 -0.0009005303621837102 0.0 -0.0016322114125272846 0.0 0.0
-0.00019868787177712566 -0.00010897050454572454 0.0 -0.0024046073099686094 0.0 0.0
-0.00038081413027249433 0.00017572883953087537 0.0 -0.002417856683348263 0.0 0.0
-0.0004620164451962505 0.0002662855746384807 0.0 -0.0023946675788570904 0.0 0.0
-0.0005529120386097153 0.00030599330054070784 0.0 -0.002488828999756998 0.0 0.0
-0.0007292871989099114 0.000367791749802171 0.0 -0.0027434587898049756 0.0 0.0
-0.0010943419302303359 0.0005380762045930076 0.0 -0.0031451805418803436 0.0 0.0
-0.0018328012192838916 0.0009747320196187292 0.0 -0.003856225438225891 0.0 0.0
-0.0030645533904106737 0.0018608795809749168 0.0 -0.005033350603455777 0.0 0.0
-0.004720782020197739 0.003234299219746717 0.0 -0.006621608689453273 0.0 0.0
-0.006672692196390051 0.004977782209196757 0.0 -0.008467754686499185 0.0 0.0
-0.008823917115796082 0.006974543618933904 0.0 -0.010376627012141704 0.0 0.0
-0.011187619577848473 0.009200710486674257 0.0 -0.012312805356853307 0.0 0.0
-0.013779400752903431 0.011660898823213195 0.0 -0.014264861673974005 0.0 0.0
-0.016518564515495132 0.014263820130677285 0.0 -0.016320768444399336 0.0 0.0
-0.019150993503245034 0.016759273521397944 0.0 -0.01856928354244114 0.0 0.0
-0.02123745001520591 0.01872938253249634 0.0 -0.021086087752224092 0.0 0.0
-0.02223184445853174 0.019650859372103202 0.0 -0.02378024132690415 0.0 0.0
-0.021154208905658972 0.018300410624352725 0.0 -0.024956634214541973 0.0 0.0
-0.01518996133693018 0.012093398748470374 0.0 -0.022626500168959396 0.0 0.0
-0.015189961336929986 0.01209339874847215 0.0 0.02262650016898826 0.0 0.0
-0.02115420890565675 0.01830041062434562 0.0 0.024956634214584272 0.0 0.0
-0.022231844458522 0.01965085937208766 0.0 0.023780241326928686 0.0 0.0
-0.021237450015189063 0.01872938253247769 0.0 0.021086087752223093 0.0 0.0
-0.019150993503225855 0.016759273521377516 0.0 0.01856928354243148 0.0 0.0
-0.016518564515478784 0.014263820130659521 0.0 0.016320768444385902 0.0 0.0
-0.013779400752886972 0.011660898823195875 0.0 0.014264861673965179 0.0 0.0
-0.011187619577830973 0.009200710486657382 0.0 0.012312805356845702 0.0 0.0
-0.008823917115778734 0.0069745436189174725 0.0 0.010376627012125661 0.0 0.0
-0.006672692196374452 0.004977782209179438 0.0 0.008467754686482365 0.0 0.0
-0.004720782020184167 0.0032342992197311737 0.0 0.006621608689436842 0.0 0.0
-0.0030645533904018613 0.001860879580970476 0.0 0.00503335060344845 0.0 0.0
-0.0018328012192788123 0.0009747320196182852 0.0 0.003856225438221117 0.0 0.0
-0.0010943419302277824 0.0005380762045912313 0.0 0.003145180541876069 0.0 0.0
-0.0007292871989085375 0.0003677917498012828 0.0 0.002743458789803477 0.0 0.0
-0.0005529120386087993 0.00030599330054070784 0.0 0.0024888289997553326 0.0 0.0
-0.00046201644519577867 0.0002662855746380366 0.0 0.002394667578855425 0.0 0.0
-0.00038081413027241107 0.00017572883953193008 0.0 0.002417856683346542 0.0 0.0
-0.00019868787177673708 -0.00010897050454594659 0.0 0.0024046073099661114 0.0 0.0
0.00029556535291423713 -0.0009005303621830423 0.0 0.0016322114125255638 0.0 0.0
0.00019618125611006731 -0.0006954058194512946 0.0 -0.001447003733752228 0.0 0.0
-0.0002582453939441176 -7.201073320489693e-05 0.0 -0.0023024907088496915 0.0 0.0
-0.0005091332754881273 0.00022845542934046836 0.0 -0.002356513083650591 0.0 0.0
-0.0006727839351116371 0.0003569191735864896 0.0 -0.002318984472736929 0.0 0.0
-0.0008655916592419932 0.0004482506994369917 0.0 -0.0023688346710729613 0.0 0.0
-0.0011892091486616352 0.000591628275709688 0.0 -0.0025728449794829023 0.0 0.0
-0.0018782535503441833 0.0009942769535784546 0.0 -0.003105648874500766 0.0 0.0
-0.003235610488882129 0.001978975031002639 0.0 -0.004235014036652607 0.0 0.0
-0.005347652707979378 0.0037493969387552006 0.0 -0.005993495855765363 0.0 0.0
-0.00810027225988913 0.006238033736454263 0.0 -0.00820161916172829 0.0 0.0
-0.011294709472370601 0.009235815601752684 0.0 -0.01057879971609954 0.0 0.0
-0.01483073393428841 0.012606940348874218 0.0 -0.012887460214654145 0.0 0.0
-0.018724160046837413 0.016347550114229836 0.0 -0.01512077989655336 0.0 0.0
-0.023023209313568715 0.020493087624303463 0.0 -0.0173731024829481 0.0 0.0
-0.02767264665507521 0.024975780791236524 0.0 -0.019853169833931816 0.0 0.0
-0.03239426473516255 0.029521625458466705 0.0 -0.022841040104810584 0.0 0.0
-0.03664736833297921 0.033605337216372266 0.0 -0.02651799620504347 0.0 0.0
-0.03952227276234807 0.03626255689932245 0.0 -0.03020002235041208 0.0 0.0
-0.0392611297354202 0.03572493040848146 0.0 -0.032064404231152976 0.0 0.0
-0.032470987517587674 0.028275363417699317 0.0 -0.028395403795312357 0.0 0.0
-0.032470987517585564 0.028275363417693544 0.0 0.028395403795349994 0.0 0.0
-0.03926112973541418 0.035724930408473465 0.0 0.032064404231203714 0.0 0.0
-0.03952227276233197 0.03626255689930824 0.0 0.030200022350444167 0.0 0.0
-0.036647368332954136 0.03360533721635228 0.0 0.026517996205047134 0.0 0.0
-0.03239426473513336 0.029521625458440504 0.0 0.022841040104799037 0.0 0.0
-0.02767264665504897 0.02497578079120988 0.0 0.019853169833915385 0.0 0.0
-0.023023209313543583 0.020493087624279926 0.0 0.017373102482933 0.0 0.0
-0.01872416004681038 0.01634755011420186 0.0 0.015120779896540204 0.0 0.0
-0.014830733934262083 0.012606940348844908 0.0 0.01288746021463566 0.0 0.0
-0.011294709472346273 0.009235815601726483 0.0 0.010578799716079335 0.0 0.0
-0.00810027225986834 0.006238033736436721 0.0 0.008201619161706919 0.0 0.0
-0.005347652707964667 0.0037493969387407677 0.0 0.005993495855752762 0.0 0.0
-0.003235610488873275 0.001978975030993757 0.0 0.004235014036644835 0.0 0.0
-0.0018782535503394232 0.00099427695357579 0.0 0.0031056488744959365 0.0 0.0
-0.0011892091486591094 0.0005916282757072455 0.0 0.0025728449794804042 0.0 0.0
-0.0008655916592411883 0.000448250699433661 0.0 0.0023688346710705743 0.0 0.0
-0.0006727839351108322 0.0003569191735844912 0.0 0.0023189844727352638 0.0 0.0
-0.000509133275488044 0.00022845542933858098 0.0 0.0023565130836495918 0.0 0.0
-0.0002582453939437013 -7.201073320595164e-05 0.0 0.002302490708847693 0.0 0.0
0.00019618125611006731 -0.0006954058194510691 0.0 0.0014470037337498964 0.0 0.0
0.00011322377659792049 -0.0005119676312824728 0.0 -0.0012554229860066157 0.0 0.0
-0.0003135969395322846 -2.871472512938622e-05 0.0 -0.002145665087268156 0.0 0.0
-0.0006292687652153517 0.0002778889924104355 0.0 -0.002241321240467553 0.0 0.0
-0.0008741520263026714 0.0004403535536273706 0.0 -0.002186406261508622 0.0 0.0
-0.0011632751255831464 0.0005812495225332448 0.0 -0.0021810496375428423 0.0 0.0
-0.001669146328928034 0.0008522923865554866 0.0 -0.002393609135462549 0.0 0.0
-0.002773266211559877 0.001609056910769402 0.0 -0.003103755103801842 0.0 0.0
-0.004801863934348477 0.003259170793542099 0.0 -0.004548066858751865 0.0 0.0
-0.007808194595309209 0.005947677597415213 0.0 -0.006688819933750145 0.0 0.0
-0.011622465893055434 0.009513902871999047 0.0 -0.009257225863439855 0.0 0.0
-0.016023163521367484 0.013714332951985764 0.0 -0.011894728962880796 0.0 0.0
-0.020922278079691797 0.018428822343628415 0.0 -0.014394955377905583 0.0 0.0
-0.026342436399960256 0.023674773619661416 0.0 -0.016795329532409697 0.0 0.0
-0.03235713690414907 0.029513361101757063 0.0 -0.019227334249040218 0.0 0.0
-0.038942614560931565 0.03590875060668708 0.0 -0.021971269884045408 0.0 0.0
-0.04581677511460508 0.04256878893216154 0.0 -0.025465403981377976 0.0 0.0
-0.05224836668813132 0.048753820639493295 0.0 -0.029879519790792952 0.0 0.0
-0.05681822441541762 0.05303195808667116 0.0 -0.03439617969737385 0.0 0.0
-0.0570721356972817 0.05286972343942509 0.0 -0.03665041123239676 0.0 0.0
-0.04861864830597118 0.04376473704089978 0.0 -0.03326955039397361 0.0 0.0
-0.048618648305966405 0.043764737040902 0.0 0.0332695503940128 0.0 0.0
-0.057072135697271764 0.05286972343942198 0.0 0.03665041123245294 0.0 0.0
-0.05681822441539547 0.05303195808665473 0.0 0.0343961796974136 0.0 0.0
-0.05224836668809914 0.048753820639467094 0.0 0.029879519790803277 0.0 0.0
-0.04581677511456743 0.04256878893212912 0.0 0.02546540398136793 0.0 0.0
-0.03894261456089562 0.03590875060665644 0.0 0.021971269884031253 0.0 0.0
-0.03235713690411453 0.02951336110172731 0.0 0.019227334249026118 0.0 0.0
-0.02634243639992402 0.02367477361962811 0.0 0.016795329532398706 0.0 0.0
-0.020922278079656367 0.018428822343598217 0.0 0.014394955377887153 0.0 0.0
-0.016023163521335135 0.013714332951956898 0.0 0.011894728962858647 0.0 0.0
-0.011622465893027789 0.009513902871972624 0.0 0.009257225863417151 0.0 0.0
-0.007808194595288642 0.0059476775973976714 0.0 0.006688819933735379 0.0 0.0
-0.004801863934335501 0.0032591707935301084 0.0 0.004548066858741651 0.0 0.0
-0.0027732662115523693 0.0016090569107620745 0.0 0.0031037551037922384 0.0 0.0
-0.0016691463289243286 0.0008522923865519338 0.0 0.002393609135457997 0.0 0.0
-0.0011632751255822998 0.000581249522534244 0.0 0.0021810496375404 0.0 0.0
-0.0008741520263019359 0.0004403535536287029 0.0 0.0021864062615079005 0.0 0.0
-0.0006292687652147688 0.00027788899241115717 0.0 0.0022413212404663874 0.0 0.0
-0.00031359693953209034 -2.8714725129663776e-05 0.0 0.0021456650872660465 0.0 0.0
0.00011322377659790661 -0.0005119676312821137 0.0 0.001255422986005339 0.0 0.0
4.094821087252676e-05 -0.00034997533954347904 0.0 -0.0010592818584199692 0.0 0.0
-0.00036730723496650186 1.9784997369765023e-05 0.0 -0.001938155275016118 0.0 0.0
-0.0007421670870965402 0.00032488284865694883 0.0 -0.0020692073271942335 0.0 0.0
-0.0010640344125450452 0.0005144905692046065 0.0 -0.0019881865911445806 0.0 0.0
-0.0014527095878547613 0.0007142629183276572 0.0 -0.0019452247809735868 0.0 0.0
-0.002203315795498567 0.0011809095841417427 0.0 -0.0022022378514154894 0.0 0.0
-0.0037828565833329386 0.0023881227773905334 0.0 -0.003048391863431976 0.0 0.0
-0.006510877869917608 0.0047560411165674665 0.0 -0.004686636383023468 0.0 0.0
-0.010394585721547528 0.00834412495776693 0.0 -0.007019361769742938 0.0 0.0
-0.015224014625385862 0.012931752764172355 0.0 -0.00968019882729243 0.0 0.0
-0.020812868169254845 0.01830245724390256 0.0 -0.012347747936653386 0.0 0.0
-0.027074128873122466 0.02435672224033869 0.0 -0.014893436154651107 0.0 0.0
-0.03402673142382048 0.03111072666216641 0.0 -0.017348221326738522 0.0 0.0
-0.041755936155165096 0.03864362349002537 0.0 -0.01981566788197786 0.0 0.0
-0.0502842039383872 0.046958637521071545 0.0 -0.022591925890518505 0.0 0.0
-0.0593136542820418 0.05573167887223729 0.0 -0.026150919954979757 0.0 0.0
-0.0678807209745323 0.06398314798334459 0.0 -0.03074704177339338 0.0 0.0
-0.07403301788584518 0.06974516643159312 0.0 -0.03566602488650972 0.0 0.0
-0.07450385460295356 0.06972619816769487 0.0 -0.03871660410729938 0.0 0.0
-0.06432744290716069 0.05896103663254948 0.0 -0.03763292172098698 0.0 0.0
-0.06432744290715392 0.058961036632546815 0.0 0.03763292172102639 0.0 0.0
-0.07450385460293817 0.06972619816768155 0.0 0.038716604107355945 0.0 0.0
-0.07403301788581722 0.06974516643156337 0.0 0.03566602488655096 0.0 0.0
-0.06788072097449324 0.06398314798330595 0.0 0.03074704177340415 0.0 0.0
-0.05931365428199668 0.05573167887219688 0.0 0.026150919954969598 0.0 0.0
-0.050284203938341876 0.04695863752102847 0.0 0.02259192589050557 0.0 0.0
-0.04175593615512056 0.038643623489976964 0.0 0.019815667881963483 0.0 0.0
-0.034026731423775866 0.031110726662121113 0.0 0.017348221326725977 0.0 0.0
-0.02707412887307821 0.024356722240297835 0.0 0.014893436154631512 0.0 0.0
-0.020812868169215085 0.018302457243867476 0.0 0.012347747936627407 0.0 0.0
-0.015224014625351473 0.012931752764138382 0.0 0.009680198827268893 0.0 0.0
-0.01039458572152123 0.008344124957740506 0.0 0.007019361769727839 0.0 0.0
-0.006510877869900095 0.004756041116549703 0.0 0.004686636383011866 0.0 0.0
-0.0037828565833226413 0.0023881227773805414 0.0 0.003048391863424982 0.0 0.0
-0.0022033157954931826 0.0011809095841410766 0.0 0.0022022378514126584 0.0 0.0
-0.0014527095878533736 0.000714262918326769 0.0 0.0019452247809713108 0.0 0.0
-0.0010640344125441709 0.0005144905692036073 0.0 0.0019881865911441365 0.0 0.0
-0.0007421670870958186 0.00032488284865600514 0.0 0.002069207327192457 0.0 0.0
-0.0003673072349660994 1.9784997369765023e-05 0.0 0.00193815527501362 0.0 0.0
4.0948210872235324e-05 -0.000349975339542714 0.0 0.0010592818584191366 0.0 0.0
-2.1365635700015817e-05 -0.0002109647879061094 0.0 -0.0008576892728408558 0.0 0.0
-0.00041980516674341994 7.152212205469022e-05 0.0 -0.0016855484571227652 0.0 0.0
-0.0008486474446379177 0.0003692346570771665 0.0 -0.001841057017774539 0.0 0.0
-0.0012429654105615695 0.000582433624852996 0.0 -0.001741199155376738 0.0 0.0
-0.001751991732647895 0.0008675408023821607 0.0 -0.001689225963122265 0.0 0.0
-0.0028055058178537984 0.001594827616997918 0.0 -0.0019789413683433676 0.0 0.0
-0.004903100374623215 0.0033225725442693754 0.0 -0.00289627207688381 0.0 0.0
-0.008334196349502998 0.006418144698522532 0.0 -0.004602280127623537 0.0 0.0
-0.013044476206679312 0.010851175824527104 0.0 -0.0068883386483791775 0.0 0.0
-0.018863381667279883 0.01641935418292917 0.0 -0.009424937009398449 0.0 0.0
-0.025634782888498464 0.022951480116400358 0.0 -0.011988555443235627 0.0 0.0
-0.03326396097020459 0.030349393026991578 0.0 -0.014436803717025937 0.0 0.0
-0.041758758567412235 0.038619826157122006 0.0 -0.01681190996764992 0.0 0.0
-0.051199540612674455 0.04784173720497087 0.0 -0.01920671085262904 0.0 0.0
-0.06162592509170692 0.05803419310030433 0.0 -0.021764852234438026 0.0 0.0
-0.07274067489768118 0.0688546574135862 0.0 -0.024893443440985208 0.0 0.0
-0.08338172536002794 0.07911111179875308 0.0 -0.029109901483237777 0.0 0.0
-0.09105055529055361 0.08630272056843502 0.0 -0.03419262178000915 0.0 0.0
-0.09175373532013437 0.08647235849153923 0.0 -0.03880607113282464 0.0 0.0
-0.08010040087426773 0.074268288976723 0.0 -0.04178112760239483 0.0 0.0
-0.08010040087425996 0.07426828897672344 0.0 0.04178112760243846 0.0 0.0
-0.09175373532011331 0.08647235849151924 0.0 0.03880607113287887 0.0 0.0
-0.09105055529051968 0.08630272056840038 0.0 0.03419262178005045 0.0 0.0
-0.08338172535998242 0.07911111179870645 0.0 0.029109901483248324 0.0 0.0
-0.07274067489762846 0.06885465741353292 0.0 0.024893443440978935 0.0 0.0
-0.061625925091652614 0.058034193100255926 0.0 0.02176485223442992 0.0 0.0
-0.051199540612620636 0.04784173720491669 0.0 0.019206710852615605 0.0 0.0
-0.04175875856735915 0.03861982615706605 0.0 0.016811909967636818 0.0 0.0
-0.03326396097015151 0.0303493930269374 0.0 0.014436803717007451 0.0 0.0
-0.025634782888451085 0.022951480116349288 0.0 0.011988555443212368 0.0 0.0
-0.018863381667238915 0.01641935418289009 0.0 0.009424937009376133 0.0 0.0
-0.013044476206647601 0.010851175824497794 0.0 0.006888338648363357 0.0 0.0
-0.008334196349480502 0.00641814469850166 0.0 0.004602280127611713 0.0 0.0
-0.004903100374609552 0.0033225725442593834 0.0 0.002896272076876538 0.0 0.0
-0.0028055058178468664 0.001594827616992145 0.0 0.0019789413683389823 0.0 0.0
-0.0017519917326457718 0.0008675408023810505 0.0 0.0016892259631204887 0.0 0.0
-0.0012429654105606397 0.0005824336248525519 0.0 0.0017411991553769601 0.0 0.0
-0.0008486474446374945 0.00036923465707672243 0.0 0.0018410570177734287 0.0 0.0
-0.00041980516674295504 7.152212205427388e-05 0.0 0.0016855484571211554 0.0 0.0
-2.1365635699849284e-05 -0.00021096478790600184 0.0 0.0008576892728405783 0.0 0.0
-7.205154749789777e-05 -9.73390499343918e-05 0.0 -0.0006498146954052042 0.0 0.0
-0.0004691415349915018 0.00012365687170573514 0.0 -0.0013928326372408817 0.0 0.0
-0.0009494123297089097 0.000410918222438994 0.0 -0.0015570604785706266 0.0 0.0
-0.001415990289533653 0.0006473947959267923 0.0 -0.0014446949539302922 0.0 0.0
-0.002078835008136465 0.0010497905344812875 0.0 -0.0013932365596055485 0.0 0.0
-0.00348418933621375 0.002110466649366094 0.0 -0.0017092062758101156 0.0 0.0
-0.006128294309895949 0.004401010358989321 0.0 -0.00264555912194403 0.0 0.0
-0.010215182182392063 0.00818034536426615 0.0 -0.004223561632627548 0.0 0.0
-0.015715957677414266 0.013406101430660788 0.0 -0.006248656246366946 0.0 0.0
-0.0225160752382505 0.019941020015621813 0.0 -0.008529077254100514 0.0 0.0
-0.030464163192895827 0.027628983680608954 0.0 -0.01083387670304814 0.0 0.0
-0.03946751448940494 0.03637557773339317 0.0 -0.013041789852781815 0.0 0.0
-0.049519003007076345 0.046175555251089406 0.0 -0.015212312162637631 0.0 0.0
-0.06066532235314695 0.0570735425265827 0.0 -0.01738839026919614 0.0 0.0
-0.07290997063445354 0.06906203087587048 0.0 -0.019562174739129357 0.0 0.0
-0.08595506430381356 0.0817924333207376 0.0 -0.021886432188540916 0.0 0.0
-0.09856273199806401 0.09395834485464283 0.0 -0.025059068265629758 0.0 0.0
-0.10781780387645054 0.1026611592808222 0.0 -0.030010434777504424 0.0 0.0
-0.10906881521313291 0.10332265233372917 0.0 -0.03697368820711866 0.0 0.0
-0.09633409765486275 0.09004207863135383 0.0 -0.04569964372281832 0.0 0.0
-0.09633409765485396 0.09004207863134361 0.0 0.045699643722860506 0.0 0.0
-0.10906881521310753 0.10332265233370297 0.0 0.03697368820716851 0.0 0.0
-0.10781780387640985 0.10266115928078223 0.0 0.030010434777541117 0.0 0.0
-0.09856273199801138 0.09395834485459575 0.0 0.02505906826563875 0.0 0.0
-0.08595506430375328 0.08179243332068653 0.0 0.021886432188536975 0.0 0.0
-0.0729099706343902 0.06906203087580698 0.0 0.019562174739120697 0.0 0.0
-0.06066532235308435 0.05707354252652097 0.0 0.017388390269184484 0.0 0.0
-0.0495190030070146 0.04617555525103123 0.0 0.015212312162626584 0.0 0.0
-0.03946751448934318 0.036375577733335884 0.0 0.013041789852765717 0.0 0.0
-0.030464163192840767 0.02762898368056277 0.0 0.01083387670302699 0.0 0.0
-0.02251607523820335 0.01994102001558029 0.0 0.008529077254080836 0.0 0.0
-0.015715957677377136 0.01340610143062504 0.0 0.00624865624635465 0.0 0.0
-0.010215182182365175 0.008180345364242392 0.0 0.004223561632617667 0.0 0.0
-0.006128294309878851 0.004401010358973556 0.0 0.002645559121937202 0.0 0.0
-0.003484189336205354 0.0021104666493598767 0.0 0.0017092062758069515 0.0 0.0
-0.002078835008133481 0.0010497905344800662 0.0 0.001393236559603439 0.0 0.0
-0.001415990289532515 0.0006473947959262372 0.0 0.0014446949539300147 0.0 0.0
-0.0009494123297083962 0.00041091822243766174 0.0 0.001557060478570016 0.0 0.0
-0.0004691415349910161 0.0001236568717055686 0.0 0.0013928326372398825 0.0 0.0
-7.205154749755083e-05 -9.7339049934312e-05 0.0 0.0006498146954047601 0.0 0.0
-0.000107389416088427 -1.2304474375474106e-05 0.0 -0.000437267563388577 0.0 0.0
-0.0005105424215292864 0.0001724923771963538 0.0 -0.00106269298327466 0.0 0.0
-0.001045190152420411 0.0004489231055304632 0.0 -0.001215963442369128 0.0 0.0
-0.0015913237650183876 0.0007190429725908443 0.0 -0.0011040381376149488 0.0 0.0
-0.0024489303325008482 0.0012830252058930736 0.0 -0.001061258879351712 0.0 0.0
-0.004251360328727832 0.0027347263324963844 0.0 -0.0013893662034906162 0.0 0.0
-0.007418723015587908 0.005574060146732229 0.0 -0.002198195566082639 0.0 0.0
-0.012112748534739731 0.009983942418596792 0.0 -0.003475865531597344 0.0 0.0
-0.01838819627965546 0.015979959363288776 0.0 -0.005132764959246916 0.0 0.0
-0.02615538076170429 0.023466407271692358 0.0 -0.007006373544877265 0.0 0.0
-0.03527665695070939 0.0323055003293411 0.0 -0.00890568899256794 0.0 0.0
-0.045659534551530295 0.04240689990731905 0.0 -0.010722123293204877 0.0 0.0
-0.05728037774331174 0.05374680194597348 0.0 -0.012519303457824038 0.0 0.0
-0.07013213890891579 0.06631638957763775 0.0 -0.01436478247768469 0.0 0.0
-0.08411256084038712 0.08000869820495327 0.0 -0.01609065708833257 0.0 0.0
-0.09884784040412656 0.09441920355234057 0.0 -0.017410050077150352 0.0 0.0
-0.11319540045798876 0.10832546676478882 0.0 -0.01889293430212735 0.0 0.0
-0.1242528523193426 0.1187458251820166 0.0 -0.023076505352529586 0.0 0.0
-0.1266593325179107 0.12047542727612726 0.0 -0.03278874222140893 0.0 0.0
-0.11346475946288392 0.10667971893051575 0.0 -0.04907335785388145 0.0 0.0
-0.11346475946287349 0.1066797189305011 0.0 0.049073357853912536 0.0 0.0
-0.1266593325178809 0.12047542727609262 0.0 0.03278874222145162 0.0 0.0
-0.12425285231929499 0.11874582518196775 0.0 0.023076505352560617 0.0 0.0
-0.11319540045792831 0.1083254667647302 0.0 0.018892934302134623 0.0 0.0
-0.0988478404040586 0.09441920355227973 0.0 0.017410050077150074 0.0 0.0
-0.08411256084031539 0.08000869820488798 0.0 0.016090657088326077 0.0 0.0
-0.07013213890884401 0.0663163895775658 0.0 0.014364782477678806 0.0 0.0
-0.05728037774324124 0.05374680194590109 0.0 0.012519303457815462 0.0 0.0
-0.04565953455146037 0.04240689990725155 0.0 0.01072212329319469 0.0 0.0
-0.03527665695064686 0.03230550032927981 0.0 0.008905688992552008 0.0 0.0
-0.02615538076165099 0.02346640727164262 0.0 0.007006373544859779 0.0 0.0
-0.018388196279613474 0.015979959363249474 0.0 0.005132764959234898 0.0 0.0
-0.01211274853470836 0.009983942418565706 0.0 0.0034758655315885456 0.0 0.0
-0.007418723015567792 0.0055740601467131334 0.0 0.0021981955660768104 0.0 0.0
-0.004251360328717167 0.0027347263324875026 0.0 0.0013893662034880627 0.0 0.0
-0.002448930332496768 0.001283025205890076 0.0 0.001061258879351601 0.0 0.0
-0.0015913237650171733 0.0007190429725915104 0.0 0.0011040381376142827 0.0 0.0
-0.00104519015241962 0.0004489231055298526 0.0 0.0012159634423690724 0.0 0.0
-0.000510542421528766 0.00017249237719629829 0.0 0.0010626929832735499 0.0 0.0
-0.00010738941608837843 -1.2304474375444616e-05 0.0 0.0004372675633873002 0.0 0.0
-0.00012079627973426987 3.997505535491275e-05 0.0 -0.00022676363163787183 0.0 0.0
-0.0005351253152879321 0.00021207830594782706 0.0 -0.0006946927693560756 0.0 0.0
-0.0011376469152389324 0.00048407460904376087 0.0 -0.000811100654439012 0.0 0.0
-0.0017828223877149885 0.0008057603321920404 0.0 -0.0007208044945672398 0.0 0.0
-0.002880187415529145 0.0015907937066275135 0.0 -0.0007037128210425347 0.0 0.0
-0.005094208318481008 0.003458509685661193 0.0 -0.0009628782716801787 0.0 0.0
-0.00873279938031829 0.006800826771116819 0.0 -0.001530755512996529 0.0 0.0
-0.01401106641796851 0.011803217256425969 0.0 -0.002399638610592003 0.0 0.0
-0.021036030559508756 0.018545332014088478 0.0 -0.0035472345612858613 0.0 0.0
-0.02975568440787235 0.02696767871862704 0.0 -0.004864354169125118 0.0 0.0
-0.04004733115777276 0.036954317917053725 0.0 -0.006199887539030224 0.0 0.0
-0.05181548748743969 0.04841533791766528 0.0 -0.0074778282901357684 0.0 0.0
-0.06501429435019596 0.06130334725223818 0.0 -0.008773330838429239 0.0 0.0
-0.07956353798893911 0.07553419071679768 0.0 -0.010093771495446324 0.0 0.0
-0.09522067569269421 0.09086148722379939 0.0 -0.011244020650161057 0.0 0.0
-0.11143489807065027 0.10673002187092795 0.0 -0.011791580528674128 0.0 0.0
-0.12711105709286327 0.12200656321295389 0.0 -0.011590460113127032 0.0 0.0
-0.13992781629633613 0.13424853566244277 0.0 -0.01328364581616226 0.0 0.0
-0.14468563967600714 0.13805499817370626 0.0 -0.02476410242993632 0.0 0.0
-0.13214326154741782 0.12478018729704887 0.0 -0.051128687086143376 0.0 0.0
-0.13214326154740588 0.12478018729703777 0.0 0.051128687086168245 0.0 0.0
-0.1446856396759728 0.13805499817367384 0.0 0.024764102429967016 0.0 0.0
-0.13992781629628168 0.13424853566238903 0.0 0.013283645816183187 0.0 0.0
-0.12711105709279386 0.12200656321288728 0.0 0.011590460113130086 0.0 0.0
-0.11143489807057358 0.1067300218708529 0.0 0.011791580528675294 0.0 0.0
-0.09522067569261439 0.09086148722371945 0.0 0.011244020650158865 0.0 0.0
-0.07956353798885854 0.0755341907167204 0.0 0.010093771495441689 0.0 0.0
-0.06501429435011631 0.0613033472521578 0.0 0.00877333083842391 0.0 0.0
-0.0518154874873619 0.04841533791758845 0.0 0.007477828290128968 0.0 0.0
-0.04004733115770306 0.03695431791698134 0.0 0.006199887539015347 0.0 0.0
-0.029755684407813197 0.026967678718566424 0.0 0.004864354169112545 0.0 0.0
-0.021036030559461943 0.018545332014044957 0.0 0.003547234561278423 0.0 0.0
-0.014011066417932958 0.011803217256391996 0.0 0.002399638610586091 0.0 0.0
-0.008732799380294955 0.006800826771095281 0.0 0.001530755512992199 0.0 0.0
-0.0050942083184678695 0.0034585096856485364 0.0 0.0009628782716770701 0.0 0.0
-0.0028801874155237536 0.0015907937066231836 0.0 0.0007037128210428678 0.0 0.0
-0.0017828223877136146 0.0008057603321919293 0.0 0.0007208044945667402 0.0 0.0
-0.0011376469152379852 0.00048407460904420496 0.0 0.0008111006544378463 0.0 0.0
-0.0005351253152873423 0.00021207830594677235 0.0 0.0006946927693545213 0.0 0.0
-0.00012079627973421783 3.9975055354617844e-05 0.0 0.00022676363163809388 0.0 0.0
-0.00010055350600085555 5.359362893214703e-05 0.0 -3.470808076011522e-05 0.0 0.0
-0.0005275863478565457 0.00023280474200282342 0.0 -0.00028182709829510655 0.0 0.0
-0.00123167944842284 0.0005194378353744478 0.0 -0.00032842311165037774 0.0 0.0
-0.002012064522417756 0.0009320849034020195 0.0 -0.0003034945304519754 0.0 0.0
-0.003381237011619964 0.001973845357258641 0.0 -0.0002987220147303571 0.0 0.0
-0.005980669107536418 0.004244943085774944 0.0 -0.0004019826017729322 0.0 0.0
-0.010057252493131497 0.008053124373047504 0.0 -0.0006367585256537578 0.0 0.0
-0.015887396385711794 0.013614729511761237 0.0 -0.0009969656726142584 0.0 0.0
-0.023635054730078542 0.021074001428331712 0.0 -0.0015008786512792915 0.0 0.0
-0.03328998396071248 0.030416050457626298 0.0 -0.0021016067838272035 0.0 0.0
-0.04475225750128964 0.041550775858375744 0.0 -0.002719061419542146 0.0 0.0
-0.05791572603635825 0.054379125278264606 0.0 -0.003328326666544479 0.0 0.0
-0.07268275034308472 0.06880560787351309 0.0 -0.003939473302714269 0.0 0.0
-0.08890507582198345 0.08467462421448424 0.0 -0.004525526503507904 0.0 0.0
-0.106214119617693 0.101611078946521 0.0 -0.004975644424275338 0.0 0.0
-0.12382800779901099 0.11883693983508925 0.0 -0.004995670154720466 0.0 0.0
-0.14045745821007616 0.1350770063181117 0.0 -0.004159138140561791 0.0 0.0
-0.15423233708859024 0.14843383906186824 0.0 -0.0029600858770894023 0.0 0.0
-0.16187992254835298 0.15540936843176834 0.0 -0.00947205126163686 0.0 0.0
-0.15424799241204887 0.14577583739272582 0.0 -0.047098115879993685 0.0 0.0
-0.15424799241203596 0.1457758373927076 0.0 0.047098115880003344 0.0 0.0
-0.16187992254831418 0.15540936843173014 0.0 0.009472051261652126 0.0 0.0
-0.15423233708852802 0.1484338390618105 0.0 0.0029600858770990612 0.0 0.0
-0.14045745820999678 0.13507700631803665 0.0 0.004159138140559682 0.0 0.0
-0.12382800779892504 0.11883693983500532 0.0 0.004995670154719856 0.0 0.0
-0.1062141196176048 0.10161107894643528 0.0 0.0049756444242747 0.0 0.0
-0.0889050758218942 0.08467462421439853 0.0 0.0045255265035029635 0.0 0.0
-0.07268275034299572 0.06880560787342516 0.0 0.003939473302711383 0.0 0.0
-0.05791572603627287 0.05437912527818467 0.0 0.0033283266665438127 0.0 0.0
-0.0447522575012127 0.04155077585830558 0.0 0.00271906141953393 0.0 0.0
-0.03328998396064776 0.030416050457566124 0.0 0.00210160678382057 0.0 0.0
-0.023635054730027052 0.021074001428281752 0.0 0.0015008786512756 0.0 0.0
-0.015887396385672242 0.0136147295117246 0.0 0.0009969656726125098 0.0 0.0
-0.010057252493105236 0.00805312437302308 0.0 0.0006367585256518149 0.0 0.0
-0.005980669107520984 0.004244943085763175 0.0 0.0004019826017703232 0.0 0.0
-0.003381237011613138 0.0019738453572544223 0.0 0.0002987220147305236 0.0 0.0
-0.0020120645224157765 0.0009320849034006873 0.0 0.00030349453045025454 0.0 0.0
-0.0012316794484216248 0.0005194378353730045 0.0 0.00032842311164937854 0.0 0.0
-0.0005275863478563288 0.00023280474200257362 0.0 0.00028182709829410735 0.0 0.0
-0.00010055350600077489 5.359362893202213e-05 0.0 3.470808075811682e-05 0.0 0.0
SCALARS Statev float 8
LOOKUP_TABLE default
0.0 0.012544924841573532 0.009678934573021686 -0.01006092503585336 0.0003819904628316733 -0.005550044866102849 0.0 0.0
0.0 0.0006494750248036157 0.00044900109489216165 -0.00037615858127816956 -7.284251361399203e-05 0.0004305675908544234 0.0 0.0
0.0 3.342380937738801e-05 -4.754075056001044e-06 3.773145031477424e-06 9.809300245235895e-07 5.62033213615258e-07 0.0 0.0
0.0 0.00023792788833670766 0.00015936299324908375 -0.00012511400328066023 -3.4248989968423557e-05 -2.218410709661481e-05 0.0 0.0
0.0 0.001341864781553253 0.0010669615560392686 -0.0008777960027211799 -0.00018916555331808876 -0.00011616023962570949 0.0 0.0
0.0 0.0036543884824152472 0.0033234072476818824 -0.002894064310910773 -0.0004293429367711094 -0.00027275555328792363 0.0 0.0
0.0 0.007954359727531144 0.007110958951920432 -0.00650251487823475 -0.0006084440736856819 -0.0005046518824865617 0.0 0.0
0.0 0.014353667461889506 0.012686809718146565 -0.01195455899478505 -0.0007322507233615127 -0.0008479100859377838 0.0 0.0
0.0 0.023002222629293793 0.020185336705533654 -0.01934730132689813 -0.0008380353786355193 -0.0013294721217701085 0.0 0.0
0.0 0.03388976719238028 0.029599886649883993 -0.02865445628495599 -0.0009454303649279888 -0.0019157090901772533 0.0 0.0
0.0 0.046941154110780994 0.04084602434182599 -0.03978936043155684 -0.0010566639102691246 -0.002532832797294406 0.0 0.0
0.0 0.06176166019906019 0.053829537407435804 -0.052659138099354866 -0.0011703993080808919 -0.0031483333870884543 0.0 0.0
0.0 0.07855013726710287 0.06845531785034262 -0.06716996424884575 -0.0012853536014968223 -0.0037634421182902375 0.0 0.0
0.0 0.0971642255425923 0.08460228551957441 -0.08319925670864192 -0.0014030288109324067 -0.004375563796190968 0.0 0.0
0.0 0.11722906824805027 0.10200095584018387 -0.10047591446509418 -0.001525041375089641 -0.004967788894816384 0.0 0.0
0.0 0.13812911333435035 0.12008807682394801 -0.11843754340249679 -0.0016505334214512268 -0.005430844858594495 0.0 0.0
0.0 0.15876559181619626 0.13794115030519727 -0.13616557716662664 -0.0017755731385706392 -0.005551017291501951 0.0 0.0
0.0 0.17767642317772833 0.15431045584958764 -0.1524152882703372 -0.0018951675792504541 -0.0050928856845425625 0.0 0.0
0.0 0.1931315936761737 0.16769448312479884 -0.16568837133721975 -0.0020061117875790602 -0.0042227121671438 0.0 0.0
0.0 0.20251409281213825 0.175959011153445 -0.1737980172582338 -0.002160993895211271 -0.00448046397846657 0.0 0.0
0.0 0.20251409281212915 0.1759590111534367 -0.17379801725822622 -0.0021609938952104574 0.004480463978472551 0.0 0.0
0.0 0.1931315936761336 0.16769448312476387 -0.16568837133718506 -0.002006111787578732 0.004222712167164298 0.0 0.0
0.0 0.17767642317766047 0.15431045584952882 -0.1524152882702789 -0.0018951675792498982 0.005092885684552628 0.0 0.0
0.0 0.15876559181610872 0.1379411503051213 -0.13616557716655098 -0.0017755731385702732 0.005551017291507979 0.0 0.0
0.0 0.1381291133342577 0.12008807682386759 -0.11843754340241713 -0.0016505334214504982 0.005430844858586262 0.0 0.0
0.0 0.11722906824795552 0.10200095584010124 -0.1004759144650128 -0.0015250413750884121 0.004967788894814993 0.0 0.0
0.0 0.09716422554249621 0.08460228551949076 -0.08319925670855938 -0.0014030288109313654 0.00437556379619045 0.0 0.0
0.0 0.07855013726700749 0.06845531785025966 -0.06716996424876392 -0.0012853536014957561 0.0037634421182894794 0.0 0.0
0.0 0.06176166019896623 0.053829537407354244 -0.052659138099274 -0.0011703993080802132 0.003148333387082452 0.0 0.0
0.0 0.046941154110699115 0.04084602434175448 -0.03978936043148625 -0.0010566639102682195 0.002532832797290551 0.0 0.0
0.0 0.033889767192316296 0.029599886649828166 -0.02865445628490138 -0.0009454303649267973 0.0019157090901701366 0.0 0.0
0.0 0.023002222629242532 0.020185336705488513 -0.01934730132685366 -0.0008380353786348589 0.0013294721217680145 0.0 0.0
0.0 0.014353667461853148 0.012686809718114082 -0.011954558994753256 -0.0007322507233608234 0.0008479100859350569 0.0 0.0
0.0 0.007954359727505026 0.007110958951896849 -0.006502514878211919 -0.0006084440736849257 0.000504651882485288 0.0 0.0
0.0 0.0036543884824003256 0.0033234072476679925 -0.0028940643108978682 -0.000429342936770124 0.00027275555328662416 0.0 0.0
0.0 0.001341864781546267 0.0010669615560335156 -0.0008777960027161907 -0.00018916555331732472 0.00011616023962491851 0.0 0.0
0.0 0.0002379278883351332 0.0001593629932485948 -0.00012511400328026585 -3.424898996832894e-05 2.218410709651085e-05 0.0 0.0
0.0 3.342380937687491e-05 -4.754075055922566e-06 3.7731450314146314e-06 9.80930024507978e-07 -5.620332136057866e-07 0.0 0.0
0.0 0.0006494750248007154 0.0004490010948904664 -0.0003761585812767121 -7.284251361375456e-05 -0.00043056759085246973 0.0 0.0
0.0 0.012544924841555397 0.009678934573009529 -0.010060925035840208 0.0003819904628306766 0.005550044866074376 0.0 0.0
0.0 0.009234434257282665 0.006678817609530046 -0.007169182392292346 0.0004903647827622936 -0.006364567558957329 0.0 0.0
0.0 2.7750376898119856e-06 1.0168641871495532e-06 -8.620431846103695e-07 -1.5482100253918887e-07 6.530071979107776e-07 0.0 0.0
0.0 9.430826945183483e-08 -1.020951514236367e-08 7.758883502814768e-09 2.450631639548195e-09 3.6392644398315674e-09 0.0 0.0
0.0 8.244319931684785e-05 4.654733185577094e-05 -3.638029904817112e-05 -1.0167032807600044e-05 -1.740724172689874e-05 0.0 0.0
0.0 0.0008768387653964065 0.0006543301416744734 -0.0005313330632217954 -0.00012299707845267794 -0.00017509247472141345 0.0 0.0
0.0 0.002776289798056754 0.0025280066359076193 -0.002166988628953169 -0.00036101800695445 -0.00055204671585353 0.0 0.0
0.0 0.006571257659346517 0.005872534063576459 -0.005307711948865785 -0.0005648221147106706 -0.0011443195675554104 0.0 0.0
0.0 0.012338045519256059 0.010891150826371371 -0.010187766489230194 -0.000703384337141177 -0.0019845221408429795 0.0 0.0
0.0 0.020156678409837134 0.01766681626751409 -0.01685506490479204 -0.0008117513627220372 -0.0030948411987460583 0.0 0.0
0.0 0.029965134251611424 0.02614875856616842 -0.025233387365594887 -0.0009153712005735257 -0.004394454449914391 0.0 0.0
0.0 0.04163721127266193 0.03622905250288001 -0.03520958649692051 -0.0010194660059595015 -0.005741641881881226 0.0 0.0
0.0 0.05511943221890881 0.04782432867666549 -0.046700427134257164 -0.00112390154240832 -0.00704770286762914 0.0 0.0
0.0 0.0700709860310845 0.06089490202430944 -0.059665298389920796 -0.0012296036343886004 -0.008368737888568338 0.0 0.0
0.0 0.08669599640241518 0.07535826501841489 -0.0740205281154883 -0.0013377369029265573 -0.009727044490237945 0.0 0.0
0.0 0.1047289078119244 0.09098677101355512 -0.0895377807930109 -0.0014489902205441737 -0.01103905972122695 0.0 0.0
0.0 0.12354204274792131 0.10730236688768213 -0.10573954848232794 -0.0015628184053542045 -0.012083521805555612 0.0 0.0
0.0 0.14222180284081884 0.1235051828222657 -0.12182792834384937 -0.0016772544784163517 -0.012435130465357916 0.0 0.0
0.0 0.15946588357420755 0.13845903916692065 -0.13666861602418873 -0.0017904231427319005 -0.011700908395280407 0.0 0.0
0.0 0.1734495784503171 0.150602132448843 -0.14869025804092018 -0.0019118744079228327 -0.009995242134660298 0.0 0.0
0.0 0.18182294759124945 0.1578998799460608 -0.15589557456825254 -0.002004305377808307 -0.007143569947402853 0.0 0.0
0.0 0.18182294759123857 0.1578998799460508 -0.15589557456824335 -0.002004305377807435 0.007143569947422658 0.0 0.0
0.0 0.1734495784502807 0.15060213244881054 -0.14869025804088842 -0.001911874407922155 0.009995242134696773 0.0 0.0
0.0 0.15946588357414965 0.13845903916686947 -0.1366686160241386 -0.00179042314273084 0.01170090839530408 0.0 0.0
0.0 0.14222180284074315 0.12350518282219969 -0.12182792834378393 -0.0016772544784156946 0.0124351304653691 0.0 0.0
0.0 0.12354204274783716 0.10730236688760933 -0.10573954848225564 -0.001562818405353615 0.012083521805546376 0.0 0.0
0.0 0.10472890781183679 0.09098677101347906 -0.08953778079293548 -0.0014489902205435405 0.011039059721223755 0.0 0.0
0.0 0.0866959964023287 0.07535826501833989 -0.07402052811541376 -0.0013377369029260882 0.00972704449023418 0.0 0.0
0.0 0.07007098603100152 0.06089490202423714 -0.05966529838984953 -0.0012296036343875827 0.00836873788856531 0.0 0.0
0.0 0.05511943221882609 0.04782432867659371 -0.04670042713418576 -0.0011239015424079398 0.007047702867620031 0.0 0.0
0.0 0.04163721127258427 0.03622905250281294 -0.03520958649685328 -0.0010194660059596463 0.0057416418818720776 0.0 0.0
0.0 0.02996513425154845 0.02614875856611383 -0.025233387365540448 -0.0009153712005733808 0.004394454449901758 0.0 0.0
0.0 0.02015667840978902 0.017666816267471616 -0.016855064904750056 -0.0008117513627215482 0.003094841198740108 0.0 0.0
0.0 0.01233804551922093 0.010891150826340297 -0.0101877664891998 -0.0007033843371405015 0.0019845221408369856 0.0 0.0
0.0 0.006571257659323981 0.005872534063556117 -0.00530771194884621 -0.0005648221147099057 0.001144319567551648 0.0 0.0
0.0 0.0027762897980453493 0.0025280066358974664 -0.002166988628943906 -0.0003610180069535598 0.0005520467158510695 0.0 0.0
0.0 0.0008768387653913809 0.0006543301416707865 -0.0005313330632187119 -0.00012299707845207474 0.0001750924747204936 0.0 0.0
0.0 8.244319931573091e-05 4.6547331855389095e-05 -3.63802990478635e-05 -1.016703280752544e-05 1.7407241726744894e-05 0.0 0.0
0.0 9.430826938068039e-08 -1.0209515134588993e-08 7.758883496907494e-09 2.4506316376819497e-09 -3.6392644370560787e-09 0.0 0.0
0.0 2.7750376896789616e-06 1.0168641872184337e-06 -8.620431846681329e-07 -1.548210025502967e-07 -6.530071979641704e-07 0.0 0.0
0.0 0.009234434257262048 0.006678817609516434 -0.007169182392278034 0.0004903647827616001 0.00636456755893318 0.0 0.0
0.0 0.006952530877015312 0.004757211240421756 -0.0052689730577420765 0.0005117618173203204 -0.0055560961633978004 0.0 0.0
0.0 0.0 0.0 0.0 0.0 0.0 0.0 0.0
0.0 0.0 0.0 0.0 0.0 0.0 0.0 0.0
0.0 1.4449479116727532e-05 1.0086811128632302e-05 -7.868133236966046e-06 -2.218677891666273e-06 -6.8890145586465e-06 0.0 0.0
0.0 0.00046557062498581115 0.00034961618827093657 -0.0002803660365880437 -6.925015168289266e-05 -0.00016717677718823169 0.0 0.0
0.0 0.002136126962326673 0.0017744029076781753 -0.0014959740194549157 -0.0002784288882232586 -0.000671201558952194 0.0 0.0
0.0 0.00524111367676182 0.00466065201820113 -0.004151154805706979 -0.0005094972124941523 -0.0015446116106477025 0.0 0.0
0.0 0.010345535709669902 0.009092313125776335 -0.008426327858464894 -0.0006659852673114439 -0.0027960421713437867 0.0 0.0
0.0 0.017335610869347796 0.015116790072191976 -0.014336568625052974 -0.000780221447138998 -0.004406403862594687 0.0 0.0
0.0 0.026077199649287383 0.02264870059090196 -0.02176807874620358 -0.0008806218446983701 -0.006260716110480962 0.0 0.0
0.0 0.036444858490559756 0.03156128061465404 -0.030583648830721004 -0.0009776317839330145 -0.008179612665523528 0.0 0.0
0.0 0.04825798120100663 0.04177806269212403 -0.04070452303476359 -0.0010735396573604348 -0.010045494215340555 0.0 0.0
0.0 0.06166546953545396 0.05328019186804574 -0.05211029448396147 -0.0011698973840842783 -0.01190461169630326 0.0 0.0
0.0 0.07629760457387799 0.06603784829802829 -0.06476974375646867 -0.0012681045415595643 -0.01383425882196532 0.0 0.0
0.0 0.0922353214992211 0.07988131826751385 -0.07851306006520538 -0.0013682582023084077 -0.015734907563611497 0.0 0.0
0.0 0.10901797047860512 0.0944241861936938 -0.09295388858030885 -0.001470297613384947 -0.017263693929766066 0.0 0.0
0.0 0.12578729835706406 0.10899618796127968 -0.10742185435598614 -0.0015743336052934742 -0.017894526870105783 0.0 0.0
0.0 0.14133135934875807 0.12255692892927703 -0.1208733480779195 -0.0016835808513575002 -0.017107963702975137 0.0 0.0
0.0 0.15395544310269632 0.13361512255409463 -0.13182559626515122 -0.0017895262889433845 -0.014424119210821554 0.0 0.0
0.0 0.16171037121283088 0.1404734875966473 -0.1386081320566712 -0.0018653555399760265 -0.009059908096509677 0.0 0.0
0.0 0.1617103712128179 0.14047348759663586 -0.13860813205665903 -0.0018653555399767265 0.009059908096542236 0.0 0.0
0.0 0.15395544310266096 0.1336151225540631 -0.13182559626511875 -0.0017895262889443386 0.014424119210870785 0.0 0.0
0.0 0.1413313593487058 0.12255692892923052 -0.12087334807787306 -0.0016835808513574178 0.017107963703008475 0.0 0.0
0.0 0.12578729835699995 0.10899618796122326 -0.10742185435593032 -0.001574333605292951 0.017894526870121517 0.0 0.0
0.0 0.10901797047853215 0.09442418619363072 -0.09295388858024603 -0.0014702976133846302 0.017263693929758385 0.0 0.0
0.0 0.09223532149914442 0.07988131826744749 -0.07851306006513911 -0.0013682582023083567 0.015734907563606175 0.0 0.0
0.0 0.07629760457380165 0.06603784829796185 -0.06476974375640292 -0.0012681045415589235 0.013834258821960838 0.0 0.0
0.0 0.06166546953537645 0.05328019186797849 -0.052110294483894475 -0.0011698973840840125 0.011904611696297107 0.0 0.0
0.0 0.04825798120093326 0.041778062692060816 -0.040704523034700735 -0.0010735396573600781 0.010045494215326134 0.0 0.0
0.0 0.03644485849049423 0.03156128061459704 -0.030583648830664417 -0.000977631783932595 0.008179612665510682 0.0 0.0
0.0 0.026077199649232934 0.02264870059085461 -0.021768078746156758 -0.0008806218446978457 0.006260716110464928 0.0 0.0
0.0 0.017335610869306135 0.015116790072155618 -0.01433656862501706 -0.0007802214471385512 0.004406403862584628 0.0 0.0
0.0 0.010345535709641075 0.009092313125750921 -0.008426327858440094 -0.0006659852673108268 0.0027960421713356548 0.0 0.0
0.0 0.005241113676743507 0.004660652018184748 -0.004151154805691483 -0.0005094972124932667 0.0015446116106423943 0.0 0.0
0.0 0.0021361269623163042 0.001774402907669522 -0.001495974019447351 -0.0002784288882221707 0.0006712015589489873 0.0 0.0
0.0 0.0004655706249822195 0.00034961618826842686 -0.0002803660365859708 -6.925015168245596e-05 0.00016717677718694598 0.0 0.0
0.0 1.4449479116505086e-05 1.0086811128970561e-05 -7.86813323722169e-06 -2.218677891748888e-06 6.889014558814339e-06 0.0 0.0
0.0 0.0 0.0 0.0 0.0 0.0 0.0 0.0
0.0 0.0 0.0 0.0 0.0 0.0 0.0 0.0
0.0 0.006952530876997337 0.004757211240409396 -0.005268973057729006 0.0005117618173196076 0.005556096163377914 0.0 0.0
0.0 0.0051726712367293716 0.0033899607376150992 -0.003866894615229987 0.0004769338776148856 -0.004358561764959322 0.0 0.0
0.0 0.0 0.0 0.0 0.0 0.0 0.0 0.0
0.0 0.0 0.0 0.0 0.0 0.0 0.0 0.0
0.0 2.4853413462009056e-06 1.9995177617359217e-08 -1.6867840327052475e-08 -3.1273372902912542e-09 -3.049819149921723e-08 0.0 0.0
0.0 0.00020869438216545425 0.0001501832767544948 -0.0001195266037423715 -3.065667301212315e-05 -0.00011613940475516357 0.0 0.0
0.0 0.0014312401675356198 0.0011414335780540513 -0.0009461033353211614 -0.00019533024273289036 -0.0006577237755505701 0.0 0.0
0.0 0.0040278419092696265 0.003491986170036728 -0.003057050641799162 -0.0004349355282375669 -0.001709409104869475 0.0 0.0
0.0 0.008402240672760058 0.007313145946611674 -0.006695095668578193 -0.0006180502780334811 -0.003275245228914027 0.0 0.0
0.0 0.014535718341854496 0.012562500327755074 -0.011821347029969873 -0.0007411532977852047 -0.005255937117660738 0.0 0.0
0.0 0.02219818807749884 0.01912963269785751 -0.0182894991819857 -0.000840133515871793 -0.007516793117169219 0.0 0.0
0.0 0.031239329578936534 0.026870965398381373 -0.025940058657186342 -0.0009309067411950244 -0.009845036381178632 0.0 0.0
0.0 0.04154759840919416 0.03570914785757299 -0.03469039921646391 -0.0010187486411090874 -0.012119501188829367 0.0 0.0
0.0 0.05310294658827652 0.04564595690773633 -0.044540241050475465 -0.0011057158572608562 -0.014398773532481507 0.0 0.0
0.0 0.06595174597596128 0.05668445117824453 -0.05549038006902055 -0.0011940711092239525 -0.016723451051821523 0.0 0.0
0.0 0.07993069480914668 0.06872082301185281 -0.06743780863390386 -0.00128301437794894 -0.019009449595013075 0.0 0.0
0.0 0.0944834069126689 0.08147306074499158 -0.08010008330393191 -0.0013729774410596606 -0.020936491008261865 0.0 0.0
0.0 0.1093506073464576 0.09439687308359872 -0.09292999570124028 -0.0014668773823583875 -0.021898169923075826 0.0 0.0
0.0 0.1232791240410461 0.10659167896447798 -0.10502614390396256 -0.0015655350605154367 -0.021146141478910738 0.0 0.0
0.0 0.13476175499257517 0.11675720278625609 -0.1150971786038997 -0.0016600241823563923 -0.017746660923334327 0.0 0.0
0.0 0.14214940150518293 0.12342156960911774 -0.12169294721810194 -0.0017286223910157744 -0.010612805830603894 0.0 0.0
0.0 0.1421494015051709 0.12342156960910647 -0.12169294721809056 -0.0017286223910159503 0.010612805830646596 0.0 0.0
0.0 0.13476175499254506 0.11675720278622786 -0.11509717860387125 -0.0016600241823565374 0.01774666092339073 0.0 0.0
0.0 0.12327912404100239 0.10659167896443789 -0.10502614390392288 -0.0015655350605149308 0.021146141478949602 0.0 0.0
0.0 0.1093506073463999 0.09439687308354734 -0.09292999570118954 -0.0014668773823578033 0.021898169923092195 0.0 0.0
0.0 0.09448340691260483 0.08147306074493595 -0.08010008330387727 -0.001372977441058669 0.020936491008253285 0.0 0.0
0.0 0.07993069480908035 0.06872082301179529 -0.06743780863384714 -0.0012830143779481284 0.01900944959500462 0.0 0.0
0.0 0.06595174597589348 0.05668445117818555 -0.05549038006896195 -0.0011940711092235804 0.016723451051815406 0.0 0.0
0.0 0.05310294658820974 0.045645956907678316 -0.044540241050417706 -0.0011057158572606064 0.014398773532473132 0.0 0.0
0.0 0.04154759840913194 0.035709147857519004 -0.03469039921641073 -0.0010187486411082647 0.012119501188812805 0.0 0.0
0.0 0.031239329578879756 0.026870965398331996 -0.025940058657137787 -0.0009309067411942083 0.009845036381162017 0.0 0.0
0.0 0.022198188077449044 0.019129632697814956 -0.018289499181943638 -0.0008401335158713097 0.007516793117148654 0.0 0.0
0.0 0.01453571834181743 0.012562500327722884 -0.011821347029938383 -0.0007411532977844941 0.005255937117648355 0.0 0.0
0.0 0.008402240672732333 0.007313145946587621 -0.006695095668554799 -0.0006180502780328198 0.003275245228903258 0.0 0.0
0.0 0.004027841909253466 0.003491986170022775 -0.003057050641786261 -0.00043493552823651216 0.0017094091048632624 0.0 0.0
0.0 0.0014312401675267664 0.0011414335780474158 -0.0009461033353154343 -0.00019533024273198167 0.0006577237755466561 0.0 0.0
0.0 0.00020869438216282053 0.00015018327675312727 -0.0001195266037412405 -3.065667301188689e-05 0.0001161394047540366 0.0 0.0
0.0 2.485341345795053e-06 1.9995177780036924e-08 -1.686784045113289e-08 -3.1273373288935963e-09 3.049819165066696e-08 0.0 0.0
0.0 0.0 0.0 0.0 0.0 0.0 0.0 0.0
0.0 0.0 0.0 0.0 0.0 0.0 0.0 0.0
0.0 0.005172671236713522 0.003389960737604603 -0.0038668946152187237 0.0004769338776141207 0.004358561764943613 0.0 0.0
0.0 0.003721803396770206 0.0023468119416913593 -0.002755472712303227 0.0004086607706118681 -0.0031944194563880025 0.0 0.0
0.0 0.0 0.0 0.0 0.0 0.0 0.0 0.0
0.0 0.0 0.0 0.0 0.0 0.0 0.0 0.0
0.0 3.743788670950005e-07 2.029226326707516e-08 -1.4969261580674828e-08 -5.323001686400497e-09 -2.596973580173056e-08 0.0 0.0
0.0 7.95959612578517e-05 5.029772084812682e-05 -4.000894737028637e-05 -1.0288773477840478e-05 -6.0599248329353636e-05 0.0 0.0
0.0 0.0008480107653109326 0.0006467498672156865 -0.0005279668221301144 -0.00011878304508557239 -0.0005552901849357776 0.0 0.0
0.0 0.0029957628472954954 0.0024115913262406415 -0.002069004054555858 -0.00034258727168478414 -0.0016466651896335587 0.0 0.0
0.0 0.006573120907543611 0.005571815320290901 -0.005018851401873381 -0.000552963918417518 -0.0033814287871378203 0.0 0.0
0.0 0.011776391065379567 0.010031458164472259 -0.009339588199078892 -0.0006918699653933668 -0.0056348523091546004 0.0 0.0
0.0 0.018358008646496046 0.015620172952315858 -0.014827750848916814 -0.0007924221033990366 -0.008155339843030962 0.0 0.0
0.0 0.02608515423607562 0.02218624749710742 -0.02130788117290776 -0.0008783663241996713 -0.010744167101342161 0.0 0.0
0.0 0.03482824726153598 0.02964793638418817 -0.028689539518172512 -0.0009583968660156572 -0.013270175181683757 0.0 0.0
0.0 0.044676930925507924 0.03801871253333337 -0.03698221956767759 -0.0010364929656557862 -0.015795147019339612 0.0 0.0
0.0 0.05547583258162699 0.047337743066113616 -0.04622327768382612 -0.0011144653822875064 -0.01838710359922497 0.0 0.0
0.0 0.06738713184053809 0.057555440283219156 -0.056362835847322726 -0.0011926044358964037 -0.020919804692044863 0.0 0.0
0.0 0.08015237030164131 0.06847756883610434 -0.06720626552121378 -0.0012713033148905506 -0.023073192758858233 0.0 0.0
0.0 0.09292674278272922 0.07970782229948092 -0.07835555273129156 -0.0013522695681893427 -0.024322901786596258 0.0 0.0
0.0 0.1051985552003491 0.09055132406897178 -0.0891130955541329 -0.0014382285148388657 -0.023769433178628643 0.0 0.0
0.0 0.11568938896203905 0.09994289142977837 -0.09841981457353424 -0.0015230768562441187 -0.02008628585025439 0.0 0.0
0.0 0.12289512648205386 0.1065730811499645 -0.10498381634575092 -0.0015892648042135167 -0.011902682644658939 0.0 0.0
0.0 0.1228951264820427 0.10657308114995381 -0.10498381634573971 -0.0015892648042140256 0.011902682644703504 0.0 0.0
0.0 0.1156893889620152 0.09994289142975463 -0.09841981457351057 -0.0015230768562440548 0.02008628585031341 0.0 0.0
0.0 0.1051985552003141 0.0905513240689383 -0.08911309555409998 -0.001438228514838315 0.023769433178671258 0.0 0.0
0.0 0.09292674278268262 0.07970782229943868 -0.07835555273124971 -0.0013522695681889604 0.024322901786615093 0.0 0.0
0.0 0.08015237030158687 0.06847756883605705 -0.067206265521167 -0.0012713033148900703 0.023073192758851106 0.0 0.0
0.0 0.06738713184048081 0.05755544028316948 -0.05636283584727352 -0.0011926044358959735 0.020919804692035276 0.0 0.0
0.0 0.055475832581573487 0.0473377430660668 -0.04622327768378015 -0.0011144653822866375 0.018387103599218496 0.0 0.0
0.0 0.044676930925452975 0.038018712533285356 -0.036982219567629857 -0.001036492965655493 0.015795147019331088 0.0 0.0
0.0 0.03482824726148552 0.029647936384144688 -0.028689539518129636 -0.0009583968660150297 0.013270175181667216 0.0 0.0
0.0 0.02608515423603015 0.022186247497068393 -0.021307881172869466 -0.0008783663241989319 0.01074416710132415 0.0 0.0
0.0 0.018358008646456276 0.015620172952282782 -0.01482775084888431 -0.0007924221033984696 0.008155339843008827 0.0 0.0
0.0 0.011776391065349057 0.010031458164446172 -0.009339588199053376 -0.0006918699653927921 0.005634852309141132 0.0 0.0
0.0 0.006573120907521501 0.005571815320272367 -0.00501885140185569 -0.0005529639184166752 0.0033814287871267975 0.0 0.0
0.0 0.0029957628472818036 0.0024115913262295844 -0.002069004054545808 -0.00034258727168377643 0.0016466651896268082 0.0 0.0
0.0 0.0008480107653052996 0.0006467498672118436 -0.0005279668221268511 -0.00011878304508499234 0.0005552901849322636 0.0 0.0
0.0 7.959596125713246e-05 5.029772084823384e-05 -4.0008947370355925e-05 -1.028877347787784e-05 6.059924832938481e-05 0.0 0.0
0.0 3.7437886694357073e-07 2.029226340341987e-08 -1.496926168516378e-08 -5.3230017182542015e-09 2.5969736006643798e-08 0.0 0.0
0.0 0.0 0.0 0.0 0.0 0.0 0.0 0.0
0.0 0.0 0.0 0.0 0.0 0.0 0.0 0.0
0.0 0.003721803396756869 0.0023468119416827854 -0.0027554727122938885 0.0004086607706111012 0.0031944194563754396 0.0 0.0
0.0 0.0025176443308832014 0.0015381432073647587 -0.0018590820313078768 0.0003209388239431174 -0.0021975701562272952 0.0 0.0
0.0 0.0 0.0 0.0 0.0 0.0 0.0 0.0
0.0 0.0 0.0 0.0 0.0 0.0 0.0 0.0
0.0 1.2459832782016668e-06 -8.711175530045244e-08 6.722946238267231e-08 1.9882292917777628e-08 2.0432140011233723e-07 0.0 0.0
0.0 3.346546142893197e-05 1.4390409507177066e-05 -1.141567602127654e-05 -2.9747334859005242e-06 -2.5359053776336383e-05 0.0 0.0
0.0 0.0004248098804529864 0.0003103748384730986 -0.00025066222601556056 -5.9712612457537865e-05 -0.0004015975689113256 0.0 0.0
0.0 0.0019345045148496057 0.001499943958534676 -0.0012597375427023303 -0.00024020641583234536 -0.0014506562247902617 0.0 0.0
0.0 0.004849722010236919 0.003922879827026255 -0.0034613114492227886 -0.00046156837780346726 -0.0031745344598666323 0.0 0.0
0.0 0.009126071675987517 0.0075488159098387655 -0.006922765723569917 -0.0006260501862688485 -0.005506824926702406 0.0 0.0
0.0 0.014573735796367334 0.012151319268226365 -0.011416924600540803 -0.0007343946676855633 -0.008162532534043155 0.0 0.0
0.0 0.02096110776555548 0.017537941394531416 -0.016720408968557143 -0.0008175324259742621 -0.010857510683020044 0.0 0.0
0.0 0.028172203278571905 0.023626070429304365 -0.022734897580571133 -0.000891172848733239 -0.0134848791928586 0.0 0.0
0.0 0.036213586388431855 0.030436623722601957 -0.02947595622693984 -0.000960667495662113 -0.01610744543482582 0.0 0.0
0.0 0.04516279358032248 0.038032237154464674 -0.03700380617971924 -0.001028430974745435 -0.01877715770043596 0.0 0.0
0.0 0.055048513105612054 0.04642105284782572 -0.0453249030890561 -0.0010961497587696444 -0.02140538249810084 0.0 0.0
0.0 0.06545286416126192 0.055485874132606236 -0.05432240506363473 -0.0011634690689715313 -0.023692403826192986 0.0 0.0
0.0 0.07646347843163628 0.06495823771702844 -0.06372766838632893 -0.0012305693306994868 -0.02512543248190813 0.0 0.0
0.0 0.08721009894090698 0.07440493565803694 -0.07310368077278627 -0.0013012548852506865 -0.024870145708014834 0.0 0.0
0.0 0.09660292977521165 0.08306402167858769 -0.08168776774905398 -0.0013762539295336623 -0.021408378255630654 0.0 0.0
0.0 0.1037502554989208 0.08977303058412944 -0.08832975108895923 -0.0014432794951701794 -0.012950160346929867 0.0 0.0
0.0 0.10375025549891102 0.08977303058411962 -0.08832975108894894 -0.001443279495170666 0.012950160346974056 0.0 0.0
0.0 0.09660292977519194 0.0830640216785667 -0.08168776774903305 -0.0013762539295336985 0.02140837825568921 0.0 0.0
0.0 0.08721009894087835 0.07440493565800844 -0.07310368077275767 -0.0013012548852507897 0.024870145708057796 0.0 0.0
0.0 0.07646347843159766 0.06495823771699304 -0.06372766838629335 -0.0012305693306996642 0.025125432481926224 0.0 0.0
0.0 0.06545286416121328 0.05548587413256455 -0.054322405063592843 -0.0011634690689716716 0.02369240382618381 0.0 0.0
0.0 0.05504851310556278 0.04642105284778334 -0.04532490308901386 -0.0010961497587694633 0.021405382498089646 0.0 0.0
0.0 0.04516279358027635 0.038032237154424664 -0.03700380617967965 -0.0010284309747450062 0.018777157700425585 0.0 0.0
0.0 0.036213586388388355 0.030436623722564157 -0.02947595622690262 -0.0009606674956615461 0.01610744543481612 0.0 0.0
0.0 0.028172203278529963 0.023626070429268748 -0.022734897580536158 -0.0008911728487325916 0.01348487919284232 0.0 0.0
0.0 0.02096110776551669 0.017537941394498775 -0.01672040896852516 -0.0008175324259736183 0.010857510683001406 0.0 0.0
0.0 0.014573735796334131 0.012151319268199108 -0.01141692460051433 -0.0007343946676847764 0.008162532534020975 0.0 0.0
0.0 0.009126071675962587 0.007548815909817871 -0.006922765723549763 -0.0006260501862681074 0.0055068249266882405 0.0 0.0
0.0 0.004849722010219077 0.003922879827011695 -0.0034613114492093003 -0.0004615683778023938 0.003174534459855886 0.0 0.0
0.0 0.0019345045148388106 0.0014999439585263237 -0.00125973754269505 -0.0002402064158312733 0.0014506562247833194 0.0 0.0
0.0 0.0004248098804479623 0.00031037483846995675 -0.0002506622260129791 -5.97126124569777e-05 0.00040159756890741614 0.0 0.0
0.0 3.346546142790147e-05 1.4390409507094273e-05 -1.1415676021206182e-05 -2.974733485888081e-06 2.5359053776174112e-05 0.0 0.0
0.0 1.245983277765114e-06 -8.711175526903953e-08 6.722946235833695e-08 1.9882292910690027e-08 -2.0432140003799813e-07 0.0 0.0
0.0 0.0 0.0 0.0 0.0 0.0 0.0 0.0
0.0 0.0 0.0 0.0 0.0 0.0 0.0 0.0
0.0 0.0025176443308728303 0.0015381432073583857 -0.0018590820313007254 0.000320938823942341 0.0021975701562178683 0.0 0.0
0.0 0.0015791492067711627 0.0009171767941230315 -0.0011410892954944862 0.00022391250137145425 -0.0013821380069383687 0.0 0.0
0.0 4.3237046965141747e-07 -5.414833726629138e-09 5.131917599336839e-09 2.829161272924473e-10 8.656951798426124e-08 0.0 0.0
0.0 0.0 0.0 0.0 0.0 0.0 0.0 0.0
0.0 1.343535810957597e-06 -6.745450613659108e-08 5.1836617700734505e-08 1.5617888435866596e-08 2.5068220686766373e-07 0.0 0.0
0.0 1.749874145194675e-05 7.243497199588487e-06 -5.721700299895961e-06 -1.521796899692528e-06 -1.886668541004257e-05 0.0 0.0
0.0 0.00021637350122993794 0.00011664284823424626 -9.370369647235366e-05 -2.293915176189263e-05 -0.0002297939904334252 0.0 0.0
0.0 0.001110295205313943 0.0007810420741712445 -0.0006427166676508777 -0.00013832540652036662 -0.0011090936054427866 0.0 0.0
0.0 0.0032251266822699454 0.0024476058615812406 -0.002104835919452814 -0.00034276994212842615 -0.0027138579302377944 0.0 0.0
0.0 0.006569194404345143 0.005173324323959979 -0.004643019440326841 -0.0005303048836331355 -0.00490884411538073 0.0 0.0
0.0 0.010869604797307066 0.00875713854658284 -0.008099222626746422 -0.000657915919836417 -0.007496995265687199 0.0 0.0
0.0 0.01591289516108021 0.012959441670477296 -0.012215862125007304 -0.0007435795454699904 -0.010168644154534688 0.0 0.0
0.0 0.021573132300072788 0.017680187211857188 -0.01686671592849282 -0.000813471283364368 -0.01274862777387648 0.0 0.0
0.0 0.027879715040206546 0.022938860662806593 -0.022063446817329187 -0.0008754138454773925 -0.015301575327210768 0.0 0.0
0.0 0.03485434146468301 0.028816248774311996 -0.027882740559974237 -0.0009335082143377544 -0.017898791565132407 0.0 0.0
0.0 0.04261844979017626 0.03536422359904925 -0.03437434153022745 -0.0009898820688218034 -0.02046141466287127 0.0 0.0
0.0 0.051039749824942894 0.04254114572490171 -0.04149356735987743 -0.001047578365024304 -0.022711611999077043 0.0 0.0
0.0 0.05983526572526872 0.050193335102114475 -0.04909218524325071 -0.001101149858863772 -0.02424357834364482 0.0 0.0
0.0 0.06883014873284497 0.05813996753800952 -0.056986757552677056 -0.0011532099853324741 -0.024387022898711048 0.0 0.0
0.0 0.07752865159914843 0.0660049000666347 -0.0647896441536896 -0.0012152559129450524 -0.02162656917226212 0.0 0.0
0.0 0.08476476574344287 0.07285654439417175 -0.07157087436240298 -0.0012856700317688014 -0.013729070607901676 0.0 0.0
0.0 0.08476476574343694 0.07285654439416465 -0.07157087436239608 -0.001285670031768604 0.013729070607944042 0.0 0.0
0.0 0.07752865159913501 0.06600490006661819 -0.06478964415367346 -0.0012152559129447685 0.02162656917232046 0.0 0.0
0.0 0.06883014873282287 0.05813996753798542 -0.056986757552653554 -0.0011532099853318217 0.024387022898754288 0.0 0.0
0.0 0.05983526572523935 0.050193335102086234 -0.04909218524322314 -0.0011011498588631092 0.024243578343661518 0.0 0.0
0.0 0.05103974982490723 0.04254114572487098 -0.04149356735984719 -0.0010475783650237742 0.02271161199906793 0.0 0.0
0.0 0.04261844979013827 0.03536422359901664 -0.034374341530195335 -0.0009898820688212925 0.02046141466285997 0.0 0.0
0.0 0.03485434146464703 0.028816248774281045 -0.02788274055994361 -0.0009335082143374378 0.017898791565122425 0.0 0.0
0.0 0.027879715040173354 0.022938860662778074 -0.02206344681730073 -0.0008754138454773468 0.01530157532720157 0.0 0.0
0.0 0.02157313230003851 0.017680187211828655 -0.016866715928464608 -0.0008134712833640466 0.012748627773859478 0.0 0.0
0.0 0.015912895161048858 0.012959441670451786 -0.012215862124982275 -0.0007435795454695015 0.010168644154515382 0.0 0.0
0.0 0.010869604797280327 0.00875713854656213 -0.008099222626726231 -0.0006579159198358968 0.007496995265665848 0.0 0.0
0.0 0.0065691944043249 0.00517332432394409 -0.004643019440311589 -0.0005303048836325001 0.004908844115367446 0.0 0.0
0.0 0.00322512668225612 0.0024476058615707005 -0.002104835919443269 -0.00034276994212743025 0.0027138579302277838 0.0 0.0
0.0 0.0011102952053066424 0.0007810420741661144 -0.0006427166676465344 -0.0001383254065195795 0.0011090936054367353 0.0 0.0
0.0 0.000216373501227515 0.00011664284823330009 -9.370369647157798e-05 -2.2939151761721972e-05 0.0002297939904315835 0.0 0.0
0.0 1.749874145146583e-05 7.243497199689402e-06 -5.721700299974516e-06 -1.5217968997148897e-06 1.8866685410325405e-05 0.0 0.0
0.0 1.343535810551308e-06 -6.74545061154224e-08 5.1836617684484416e-08 1.561788843093987e-08 -2.5068220678900275e-07 0.0 0.0
0.0 0.0 0.0 0.0 0.0 0.0 0.0 0.0
0.0 4.3237046913438544e-07 -5.414833720036132e-09 5.131917593071955e-09 2.82916126964362e-10 -8.656951787897293e-08 0.0 0.0
0.0 0.0015791492067634392 0.0009171767941186859 -0.0011410892954893937 0.00022391250137070723 0.0013821380069318676 0.0 0.0
0.0 0.0008650450425639569 0.0004649623115306799 -0.0005977574485940089 0.000132795137063329 -0.0007435008012434688 0.0 0.0
0.0 7.811347630461365e-07 -6.3508030427696475e-09 1.0058834764796625e-08 -3.7080317220283166e-09 8.258149093205035e-08 0.0 0.0
0.0 6.305102464673167e-07 -7.0898921551877894e-09 5.074535917472657e-09 2.0153562377156586e-09 1.2874703632778445e-07 0.0 0.0
0.0 9.009536961636716e-07 -2.2639912437581907e-08 1.585596951091421e-08 6.783942926669904e-09 1.2060029879503227e-07 0.0 0.0
0.0 1.4405999180703298e-05 4.3045357084143105e-06 -3.3878000359605597e-06 -9.167356724537625e-07 -1.7523469902283325e-05 0.0 0.0
0.0 0.00011950384276121251 4.687320830927729e-05 -3.744142381195646e-05 -9.431784497320814e-06 -0.00014686194356007938 0.0 0.0
0.0 0.0005607941109190665 0.0003097426985026747 -0.0002508617206165104 -5.888097788616439e-05 -0.0007077630721536765 0.0 0.0
0.0 0.0018389222200668124 0.0012236179875540268 -0.001021088229700895 -0.00020252975785313174 -0.002018412721115137 0.0 0.0
0.0 0.004180546140965767 0.0029989076349577334 -0.002609564961541095 -0.0003893426734166356 -0.003918120035452177 0.0 0.0
0.0 0.007234587644285495 0.0055068074833521646 -0.004964880896284475 -0.0005419265870676875 -0.006198441361979488 0.0 0.0
0.0 0.011012511568300945 0.00849980231064986 -0.007857061788954288 -0.000642740521695575 -0.00862382105918864 0.0 0.0
0.0 0.01509148172221335 0.011857234371167586 -0.0111423390603678 -0.0007148953107997798 -0.011006707154477538 0.0 0.0
0.0 0.019624340480536767 0.015578822231709259 -0.014805669523000133 -0.0007731527087091248 -0.013355799601465967 0.0 0.0
0.0 0.02469597568222076 0.019744644019979052 -0.018921469956393808 -0.000823174063585242 -0.015711973204467353 0.0 0.0
0.0 0.03041743341898092 0.024442543894561214 -0.023573383941556635 -0.0008691599530045819 -0.018049650820689885 0.0 0.0
0.0 0.036668757991828886 0.02970694942172645 -0.02879150312738951 -0.0009154462943369267 -0.02014956776340425 0.0 0.0
0.0 0.043437198980033113 0.035482506746098076 -0.03452164220180718 -0.0009608645442909124 -0.02160858887438098 0.0 0.0
0.0 0.050505399635888196 0.0417720545765296 -0.040778349963000934 -0.0009937046135286612 -0.02208458471519686 0.0 0.0
0.0 0.05796136874626469 0.048656393234172354 -0.047624166926895514 -0.001032226307276815 -0.020501391133009677 0.0 0.0
0.0 0.06519076421233652 0.055642299162474755 -0.05453657199350208 -0.001105727168972694 -0.014161777358738973 0.0 0.0
0.0 0.06519076421233198 0.05564229916246875 -0.05453657199349582 -0.0011057271689729174 0.014161777358774632 0.0 0.0
0.0 0.057961368746254474 0.048656393234158435 -0.04762416692688136 -0.0010322263072770803 0.020501391133060563 0.0 0.0
0.0 0.05050539963587526 0.04177205457651324 -0.040778349962984815 -0.0009937046135284064 0.02208458471523545 0.0 0.0
0.0 0.043437198980010916 0.03548250674607654 -0.03452164220178605 -0.0009608645442904958 0.021608588874393635 0.0 0.0
0.0 0.036668757991801776 0.029706949421703856 -0.028791503127367432 -0.0009154462943364168 0.020149567763393092 0.0 0.0
0.0 0.030417433418956932 0.024442543894541233 -0.023573383941536994 -0.0008691599530042515 0.018049650820679917 0.0 0.0
0.0 0.024695975682196832 0.019744644019958926 -0.01892146995637396 -0.0008231740635849817 0.01571197320445947 0.0 0.0
0.0 0.01962434048051581 0.01557882223169135 -0.014805669522982809 -0.000773152708708542 0.013355799601458614 0.0 0.0
0.0 0.015091481722189997 0.011857234371148601 -0.011142339060349333 -0.0007148953107992666 0.011006707154464229 0.0 0.0
0.0 0.011012511568276775 0.008499802310631056 -0.007857061788935981 -0.0006427405216950701 0.008623821059170925 0.0 0.0
0.0 0.007234587644265707 0.0055068074833377135 -0.004964880896270814 -0.0005419265870668968 0.006198441361961899 0.0 0.0
0.0 0.004180546140949886 0.002998907634945868 -0.0026095649615301563 -0.0003893426734157111 0.003918120035439424 0.0 0.0
0.0 0.001838922220057906 0.0012236179875477063 -0.0010210882296954465 -0.0002025297578522591 0.002018412721106925 0.0 0.0
0.0 0.0005607941109148697 0.0003097426985005844 -0.0002508617206147589 -5.888097788582554e-05 0.0007077630721493447 0.0 0.0
0.0 0.00011950384275974281 4.6873208309073505e-05 -3.744142381178564e-05 -9.431784497287862e-06 0.0001468619435593089 0.0 0.0
0.0 1.4405999180375945e-05 4.304535708502241e-06 -3.387800036030122e-06 -9.167356724721107e-07 1.7523469902676057e-05 0.0 0.0
0.0 9.0095369590662e-07 -2.263991235841805e-08 1.5855969448862062e-08 6.783942909552981e-09 -1.2060029822848423e-07 0.0 0.0
0.0 6.305102458760242e-07 -7.089892147158693e-09 5.074535912009278e-09 2.015356235150372e-09 -1.2874703620679312e-07 0.0 0.0
0.0 7.811347625368266e-07 -6.350802999942556e-09 1.0058834715014069e-08 -3.7080317150715705e-09 -8.258148988773314e-08 0.0 0.0
0.0 0.0008650450425578185 0.00046496231152766686 -0.0005977574485903567 0.00013279513706268976 0.0007435008012385893 0.0 0.0
0.0 0.00034268581272936955 0.00018172043129631384 -0.00024429840098198893 6.257796968567515e-05 -0.00030981316366300327 0.0 0.0
0.0 2.0865449497753703e-06 -5.889065857815771e-09 1.4193438316061408e-08 -8.304372458245416e-09 4.111424736552742e-07 0.0 0.0
0.0 8.129603515550081e-07 -9.729788138728575e-10 -5.062304710215263e-10 1.479209284894036e-09 1.6676851108718092e-07 0.0 0.0
0.0 1.3942118126280809e-06 -1.7202479833820512e-08 1.1633862331670308e-08 5.568617502153395e-09 2.882879494068393e-07 0.0 0.0
0.0 1.5267848212657177e-05 2.621223829006376e-06 -2.0173206457021488e-06 -6.03903183304232e-07 -1.9894918377164426e-05 0.0 0.0
0.0 9.613112986513085e-05 2.2174159439088452e-05 -1.7717393588727792e-05 -4.456765850360667e-06 -0.00012631444931246103 0.0 0.0
0.0 0.00030276141976212656 9.884573863786254e-05 -7.950953269919008e-05 -1.933620593867237e-05 -0.00043276960920271584 0.0 0.0
0.0 0.0008417782386197465 0.00039161070625477675 -0.000317734174759001 -7.387653149577547e-05 -0.00121465110192891 0.0 0.0
0.0 0.002082056795066541 0.0011859025548387125 -0.0009884213112887512 -0.00019748124354996148 -0.002590398526078209 0.0 0.0
0.0 0.003934972499855159 0.0025378345123961365 -0.002190264421379765 -0.0003475700910163693 -0.004345346588162647 0.0 0.0
0.0 0.006211504143555632 0.004278022310115677 -0.0038062718812948227 -0.00047175042882085334 -0.006282224951962852 0.0 0.0
0.0 0.008849476943967316 0.0062501675833715655 -0.005691341696574169 -0.0005588258867973926 -0.0082613517433261 0.0 0.0
0.0 0.011716203354358481 0.00844434473795744 -0.007819735245246907 -0.0006246094927105264 -0.010274552625520855 0.0 0.0
0.0 0.014918470325033491 0.010916159434282258 -0.010241525115593978 -0.0006746343186882726 -0.012281713177849676 0.0 0.0
0.0 0.018537999925072473 0.013757414146785047 -0.013043391898679778 -0.0007140222481052676 -0.014272508696271117 0.0 0.0
0.0 0.02264763576852231 0.017075239499890836 -0.016325949645463387 -0.0007492898544274627 -0.016140187369854585 0.0 0.0
0.0 0.027284648248437696 0.020939255180202152 -0.02015184355957263 -0.0007874116206295283 -0.01753970492481935 0.0 0.0
0.0 0.03243961635611885 0.025442974156046468 -0.024624723382491148 -0.0008182507735553372 -0.018107391841391388 0.0 0.0
0.0 0.03855226983919565 0.030971900739337206 -0.030153874877509354 -0.0008180258618278667 -0.017673370287429446 0.0 0.0
0.0 0.04562301803161681 0.03788963121945645 -0.037008389556608005 -0.0008812416628484587 -0.01399208679253063 0.0 0.0
0.0 0.045623018031615115 0.03788963121945259 -0.03700838955660372 -0.0008812416628488937 0.013992086792560907 0.0 0.0
0.0 0.03855226983919437 0.03097190073933058 -0.03015387487750261 -0.0008180258618279476 0.017673370287474916 0.0 0.0
0.0 0.03243961635611229 0.025442974156035657 -0.024624723382480694 -0.0008182507735549586 0.01810739184142325 0.0 0.0
0.0 0.027284648248424286 0.020939255180189013 -0.020151843559559797 -0.0007874116206292146 0.017539704924826316 0.0 0.0
0.0 0.022647635768499805 0.01707523949987399 -0.01632594964544645 -0.000749289854427544 0.0161401873698404 0.0 0.0
0.0 0.018537999925053006 0.013757414146770444 -0.013043391898665246 -0.0007140222481051934 0.014272508696258346 0.0 0.0
0.0 0.014918470325021641 0.010916159434272646 -0.010241525115584918 -0.0006746343186877319 0.012281713177844534 0.0 0.0
0.0 0.011716203354348538 0.00844434473794882 -0.00781973524523879 -0.0006246094927100292 0.010274552625518189 0.0 0.0
0.0 0.008849476943953475 0.00625016758336158 -0.005691341696564636 -0.0005588258867969449 0.008261351743315241 0.0 0.0
0.0 0.006211504143539863 0.004278022310104897 -0.003806271881284594 -0.00047175042882030164 0.006282224951948186 0.0 0.0
0.0 0.003934972499842614 0.0025378345123885353 -0.002190264421372777 -0.0003475700910157569 0.004345346588148838 0.0 0.0
0.0 0.002082056795059259 0.0011859025548340563 -0.0009884213112846807 -0.00019748124354937574 0.002590398526070408 0.0 0.0
0.0 0.0008417782386152473 0.00039161070625249954 -0.00031773417475711445 -7.38765314953849e-05 0.0012146511019235924 0.0 0.0
0.0 0.0003027614197600357 9.884573863732786e-05 -7.950953269874613e-05 -1.933620593858166e-05 0.00043276960920055475 0.0 0.0
0.0 9.613112986377856e-05 2.2174159439057614e-05 -1.771739358870668e-05 -4.456765850350921e-06 0.00012631444931218025 0.0 0.0
0.0 1.5267848212206745e-05 2.621223829034729e-06 -2.017320645723751e-06 -6.039031833109794e-07 1.989491837738359e-05 0.0 0.0
0.0 1.3942118121365584e-06 -1.7202479827439693e-08 1.1633862327329383e-08 5.568617500112952e-09 -2.8828794930130727e-07 0.0 0.0
0.0 8.12960351106587e-07 -9.729788137991681e-10 -5.062304704954294e-10 1.479209284295063e-09 -1.667685109932312e-07 0.0 0.0
0.0 2.086544949239011e-06 -5.889065851857994e-09 1.419343830263358e-08 -8.304372450775904e-09 -4.1114247321548686e-07 0.0 0.0
0.0 0.0003426858127259518 0.0001817204312949475 -0.0002442984009802336 6.257796968528593e-05 0.0003098131636607527 0.0 0.0
0.0 8.414300053459376e-05 4.134789468925687e-05 -5.829936300466019e-05 1.695146831540331e-05 -7.454359727040153e-05 0.0 0.0
0.0 2.3409661729961703e-06 6.496376963596438e-10 1.3091562580591183e-08 -1.3741200276949575e-08 4.872012716183131e-07 0.0 0.0
0.0 1.219300257840867e-06 -1.9221093750151447e-08 1.7012932021005964e-08 2.2081617291454166e-09 -5.063182621910382e-07 0.0 0.0
0.0 2.7512258090153884e-06 -4.036144357195297e-08 4.78116986127888e-08 -7.4502550408352275e-09 -2.758331963606003e-06 0.0 0.0
0.0 1.883651539128078e-05 5.803986921770646e-07 -3.8620829241556544e-07 -1.9419039976150577e-07 -2.1901509304365465e-05 0.0 0.0
0.0 9.204359386044637e-05 6.831367622015327e-06 -5.3661193842078324e-06 -1.4652482378074802e-06 -0.00013218284355880463 0.0 0.0
0.0 0.0002431135760515787 2.6914274428869078e-05 -2.162405635859923e-05 -5.290218070269866e-06 -0.00038451287714188 0.0 0.0
0.0 0.0005124346777765718 7.145223846849177e-05 -5.7773843167289525e-05 -1.367839530120215e-05 -0.0007818392359981373 0.0 0.0
0.0 0.0009064548544350621 0.0001778367492403917 -0.00014431420153942216 -3.352254770096946e-05 -0.0014629827133892269 0.0 0.0
0.0 0.0016057252206172815 0.0004052100384854649 -0.00032868461077628576 -7.652542770917907e-05 -0.002469042330161986 0.0 0.0
0.0 0.002455666666471502 0.0007984112120624048 -0.0006479767330849852 -0.00015043447897741943 -0.00378437560880469 0.0 0.0
0.0 0.0035770184587647753 0.0013015618857651298 -0.0010702638223566187 -0.00023129806340851111 -0.005254379432761362 0.0 0.0
0.0 0.0049101609200032075 0.001933949794265488 -0.0016283813909493527 -0.00030556840331613454 -0.006890335076011477 0.0 0.0
0.0 0.006478741394332185 0.002698587168885186 -0.0023314303961325562 -0.00036715677275263054 -0.008667314735019275 0.0 0.0
0.0 0.008281794999134343 0.0036646011159088524 -0.003248511893946535 -0.00041608922196231633 -0.01057194907670168 0.0 0.0
0.0 0.010440660350421106 0.004980987013742069 -0.004525137614094902 -0.000455849399647165 -0.012482510535711578 0.0 0.0
0.0 0.012992895127487629 0.006879586986917047 -0.006384907907565355 -0.000494679079351688 -0.01404582344520438 0.0 0.0
0.0 0.01601506982943829 0.009576759030644168 -0.009033330425010916 -0.0005434286056332494 -0.014674101151651733 0.0 0.0
0.0 0.020035007987789306 0.013388060105687726 -0.012828452936655107 -0.0005596071690326187 -0.01433942602843849 0.0 0.0
0.0 0.026213063575396257 0.01946717498898751 -0.01893354759888456 -0.0005336273901029576 -0.0132506096100544 0.0 0.0
0.0 0.026213063575397575 0.019467174988986334 -0.018933547598883146 -0.0005336273901031831 0.013250609610077586 0.0 0.0
0.0 0.020035007987793382 0.013388060105686177 -0.012828452936653474 -0.0005596071690327037 0.01433942602847175 0.0 0.0
0.0 0.01601506982943482 0.00957675903063813 -0.009033330425004777 -0.0005434286056333487 0.014674101151669276 0.0 0.0
0.0 0.012992895127481802 0.006879586986912827 -0.006384907907561264 -0.0004946790793515582 0.01404582344520465 0.0 0.0
0.0 0.010440660350414011 0.004980987013739994 -0.004525137614093116 -0.00045584939964687596 0.01248251053569986 0.0 0.0
0.0 0.008281794999125121 0.003664601115904691 -0.0032485118939426147 -0.0004160892219620761 0.010571949076691291 0.0 0.0
0.0 0.006478741394325436 0.002698587168882495 -0.0023314303961298097 -0.0003671567727526855 0.008667314735011485 0.0 0.0
0.0 0.004910160919996828 0.0019339497942630545 -0.001628381390947162 -0.00030556840331589266 0.006890335076003833 0.0 0.0
0.0 0.003577018458756078 0.0013015618857623516 -0.0010702638223543091 -0.00023129806340804228 0.005254379432749472 0.0 0.0
0.0 0.002455666666464178 0.0007984112120599836 -0.0006479767330830618 -0.0001504344789769214 0.003784375608794626 0.0 0.0
0.0 0.0016057252206110588 0.00040521003848404194 -0.00032868461077507064 -7.652542770897143e-05 0.002469042330152966 0.0 0.0
0.0 0.0009064548544327722 0.0001778367492398976 -0.00014431420153904493 -3.352254770085252e-05 0.0014629827133855835 0.0 0.0
0.0 0.0005124346777746151 7.145223846818947e-05 -5.777384316705011e-05 -1.3678395301139299e-05 0.0007818392359948897 0.0 0.0
0.0 0.00024311357604970955 2.6914274428755653e-05 -2.1624056358497515e-05 -5.290218070258119e-06 0.0003845128771402848 0.0 0.0
0.0 9.204359385893228e-05 6.831367621980813e-06 -5.366119384180155e-06 -1.4652482378006576e-06 0.00013218284355797985 0.0 0.0
0.0 1.8836515390669684e-05 5.803986921753587e-07 -3.86208292413498e-07 -1.941903997618641e-07 2.1901509304285146e-05 0.0 0.0
0.0 2.751225808901148e-06 -4.036144358481828e-08 4.7811698628037014e-08 -7.4502550432188055e-09 2.7583319644157465e-06 0.0 0.0
0.0 1.2193002577818905e-06 -1.9221093781214468e-08 1.701293204960989e-08 2.208161731604365e-09 5.063182629576936e-07 0.0 0.0
0.0 2.340966172321822e-06 6.496376968874008e-10 1.3091562575233056e-08 -1.3741200272117913e-08 -4.87201271473837e-07 0.0 0.0
0.0 8.414300053308087e-05 4.13478946889098e-05 -5.829936300418399e-05 1.695146831527414e-05 7.45435972698543e-05 0.0 0.0
0.0 5.9234130780569826e-06 1.95183702823119e-06 -2.8250956002561135e-06 8.732585720249149e-07 -4.015521785548702e-06 0.0 0.0
0.0 2.182960353282882e-06 -1.1645035606050822e-08 1.1503966112777733e-08 1.4106949327794824e-10 -7.877349730944204e-08 0.0 0.0
0.0 3.263682279635406e-06 -2.061542204241927e-07 1.7375737166718827e-07 3.239684875700527e-08 -2.382462296885357e-06 0.0 0.0
0.0 5.516490478097306e-06 -5.747776967898568e-07 5.020047427529027e-07 7.277295403695445e-08 -6.7828464723965526e-06 0.0 0.0
0.0 2.403557139411256e-05 -2.002493487095424e-06 1.7353671073300417e-06 2.6712637976539155e-07 -2.8935461049673906e-05 0.0 0.0
0.0 9.87956039736145e-05 -8.938280822086217e-06 7.357060441068076e-06 1.5812203810181285e-06 -0.00013522284961895877 0.0 0.0
0.0 0.0002448497065000966 -2.836721474730754e-05 2.2954988143927906e-05 5.4122266033796195e-06 -0.0003874948505834139 0.0 0.0
0.0 0.0005126736325357064 -7.165431484945223e-05 5.794199948888469e-05 1.371231536056749e-05 -0.0007833674585644199 0.0 0.0
0.0 0.0009064858159986157 -0.00017759867467612145 0.00014411373721146743 3.3484937464653926e-05 -0.001463654133529532 0.0 0.0
0.0 0.0016042884349675116 -0.0004044415366972644 0.00032797980047788054 7.646173621938388e-05 -0.0024677013915794196 0.0 0.0
0.0 0.0024658740275099868 -0.000799033482766727 0.0006493944697583215 0.00014963901300840514 -0.003784706453170209 0.0 0.0
0.0 0.0035926873267300716 -0.0013212782418928729 0.0010897754478813328 0.00023150279401153932 -0.005265234784824261 0.0 0.0
0.0 0.004952284609459688 -0.001985117127971225 0.0016774837561491476 0.00030763337182207506 -0.006905204180279553 0.0 0.0
0.0 0.006522041993808051 -0.0027561717285566395 0.002381444987852708 0.000374726740703929 -0.008672669345688867 0.0 0.0
0.0 0.008172683520111643 -0.0035388240372534914 0.0031048127433078872 0.0004340112939456035 -0.010561519259497646 0.0 0.0
0.0 0.009788268681662103 -0.004121431464294712 0.0036354538970647535 0.00048597756722995394 -0.012534062760334025 0.0 0.0
0.0 0.011060203647142264 -0.004171207377532509 0.003642325930712312 0.0005288814468201967 -0.01457740287377342 0.0 0.0
0.0 0.011846394078703108 -0.0034096146831003055 0.0028529150716508182 0.0005566996114494858 -0.016742703046111734 0.0 0.0
0.0 0.01211462838381586 -0.0018803832539495788 0.0013656218985775342 0.0005147613553720445 -0.018649286032337183 0.0 0.0
0.0 0.01180069329724653 0.0027442496477681085 -0.0028183795040960915 7.412985632798242e-05 -0.01738943614027208 0.0 0.0
0.0 0.011800693297250517 0.002744249647767721 -0.002818379504095845 7.412985632812737e-05 0.017389436140281777 0.0 0.0
0.0 0.012114628383819907 -0.0018803832539502656 0.0013656218985780956 0.0005147613553721684 0.018649286032348222 0.0 0.0
0.0 0.011846394078697762 -0.003409614683098071 0.0028529150716486945 0.0005566996114493744 0.016742703046111793 0.0 0.0
0.0 0.011060203647131027 -0.004171207377526604 0.003642325930706682 0.000528881446819919 0.014577402873764342 0.0 0.0
0.0 0.00978826868164986 -0.004121431464287708 0.003635453897058042 0.0004859775672296649 0.012534062760321148 0.0 0.0
0.0 0.008172683520101164 -0.003538824037247622 0.0031048127433023704 0.0004340112939452501 0.010561519259487657 0.0 0.0
0.0 0.0065220419937966605 -0.0027561717285500458 0.002381444987846675 0.00037472674070336944 0.008672669345678688 0.0 0.0
0.0 0.004952284609448148 -0.0019851171279640233 0.0016774837561425227 0.0003076333718215 0.006905204180270359 0.0 0.0
0.0 0.0035926873267189286 -0.0013212782418874107 0.0010897754478765734 0.00023150279401083738 0.005265234784812806 0.0 0.0
0.0 0.002465874027500565 -0.0007990334827622024 0.0006493944697546123 0.00014963901300759047 0.00378470645315938 0.0 0.0
0.0 0.001604288434960423 -0.0004044415366948572 0.00032797980047577003 7.646173621908701e-05 0.002467701391570236 0.0 0.0
0.0 0.0009064858159962769 -0.00017759867467528081 0.00014411373721079856 3.3484937464482304e-05 0.0014636541335263063 0.0 0.0
0.0 0.0005126736325339294 -7.165431484908222e-05 5.794199948856987e-05 1.3712315360512315e-05 0.0007833674585620458 0.0 0.0
0.0 0.0002448497064984177 -2.8367214747196294e-05 2.2954988143869827e-05 5.412226603326459e-06 0.0003874948505819799 0.0 0.0
0.0 9.879560397231254e-05 -8.938280822064651e-06 7.357060441060579e-06 1.5812203810040839e-06 0.0001352228496186486 0.0 0.0
0.0 2.4035571393516225e-05 -2.002493487108026e-06 1.7353671073402605e-06 2.6712637976776133e-07 2.893546104986185e-05 0.0 0.0
0.0 5.516490477989193e-06 -5.747776968555793e-07 5.020047428100713e-07 7.27729540455085e-08 6.782846473147307e-06 0.0 0.0
0.0 3.263682279221853e-06 -2.061542205156252e-07 1.7375737174420212e-07 3.239684877142371e-08 2.3824622979313987e-06 0.0 0.0
0.0 2.1829603526804612e-06 -1.1645035620046988e-08 1.1503966112426482e-08 1.4106950762540424e-10 7.877349779204949e-08 0.0 0.0
0.0 5.9234130776427945e-06 1.9518370284542644e-06 -2.8250956005855085e-06 8.732585721312466e-07 4.015521786024289e-06 0.0 0.0
0.0 5.791226492451869e-07 -3.285152939261594e-08 4.863961923435166e-08 -1.578808984173702e-08 8.324711323925464e-08 0.0 0.0
0.0 1.028617479439216e-06 -1.4511567108649322e-08 1.2369791428735504e-08 2.141775679912281e-09 -2.589010784598043e-07 0.0 0.0
0.0 4.149100615975044e-06 -4.4241459979986095e-07 3.654627213433885e-07 7.695187845646817e-08 -3.381503443624428e-06 0.0 0.0
0.0 8.904455744833204e-06 -8.881735915975797e-07 7.660761056356489e-07 1.2209748596194424e-07 -6.130792360328127e-06 0.0 0.0
0.0 3.08226445146482e-05 -6.426072547584585e-06 5.351115505976626e-06 1.0749570416079632e-06 -3.880920937344734e-05 0.0 0.0
0.0 0.00010881761436597634 -2.7588323334096375e-05 2.2319731722681244e-05 5.268591611415116e-06 -0.00014667194937868823 0.0 0.0
0.0 0.0003152523548269519 -0.00010243990540631198 8.257884148152726e-05 1.986106392478473e-05 -0.00044265392608455403 0.0 0.0
0.0 0.0008472929716900384 -0.00039407859037687696 0.00031977818900558766 7.430040137128925e-05 -0.0012213054633665123 0.0 0.0
0.0 0.0020799381014167733 -0.0011849699690917254 0.0009875929835957767 0.00019737698549594811 -0.002590484319535602 0.0 0.0
0.0 0.0039328319701376745 -0.0025367752293599557 0.002189478896217554 0.0003472963331424009 -0.0043442980415408705 0.0 0.0
0.0 0.0062173567706392445 -0.004283566960861013 0.0038124398447333275 0.000471127116127682 -0.006284296968137097 0.0 0.0
0.0 0.008873597868390247 -0.006275476869680829 0.005717577888645849 0.0005578989810349833 -0.008260736141572205 0.0 0.0
0.0 0.011766680274716206 -0.008501997498683942 0.007877215806033556 0.0006247816926503861 -0.010252841721726814 0.0 0.0
0.0 0.014961433649981143 -0.010970937635082577 0.010289903820137091 0.0006810338149454891 -0.012241242620419153 0.0 0.0
0.0 0.01838775961170462 -0.013600768633701476 0.012867022594752631 0.0007337460389488402 -0.014301674355141243 0.0 0.0
0.0 0.021798026867677595 -0.01614374413825896 0.015359210955000122 0.0007845331832588348 -0.016520506442097124 0.0 0.0
0.0 0.02480614462497845 -0.018175426846329723 0.017346737433957305 0.0008286894123724271 -0.01896882871425914 0.0 0.0
0.0 0.026801751814001365 -0.019161904746505105 0.01830317703650259 0.0008587277100025232 -0.021555012592394326 0.0 0.0
0.0 0.026194210690133862 -0.018056052308142827 0.017102223940211814 0.0009538283679310001 -0.022614557481905453 0.0 0.0
0.0 0.020529320016205523 -0.012292087323080169 0.011250938848659828 0.0010411484744203329 -0.020044966024586303 0.0 0.0
0.0 0.020529320016213083 -0.01229208732308033 0.011250938848659636 0.0010411484744206937 0.02004496602461347 0.0 0.0
0.0 0.02619421069013916 -0.01805605230814 0.017102223940208796 0.0009538283679311907 0.02261455748194051 0.0 0.0
0.0 0.0268017518139936 -0.019161904746494193 0.0183031770364916 0.0008587277100025803 0.021555012592413814 0.0 0.0
0.0 0.0248061446249586 -0.01817542684631237 0.01734673743394022 0.0008286894123721468 0.01896882871425673 0.0 0.0
0.0 0.021798026867654557 -0.01614374413824071 0.015359210954981958 0.0007845331832587519 0.016520506442083208 0.0 0.0
0.0 0.01838775961168295 -0.013600768633684448 0.012867022594736044 0.0007337460389484046 0.014301674355128115 0.0 0.0
0.0 0.014961433649961352 -0.010970937635067313 0.010289903820122194 0.0006810338149451174 0.012241242620406304 0.0 0.0
0.0 0.011766680274696423 -0.008501997498667447 0.007877215806017426 0.0006247816926500168 0.010252841721717493 0.0 0.0
0.0 0.008873597868368478 -0.006275476869664335 0.005717577888629983 0.000557898981034349 0.00826073614155681 0.0 0.0
0.0 0.006217356770617565 -0.004283566960845466 0.0038124398447187346 0.00047112711612673134 0.006284296968118991 0.0 0.0
0.0 0.003932831970119087 -0.0025367752293474484 0.002189478896206052 0.0003472963331413953 0.004344298041522715 0.0 0.0
0.0 0.0020799381014083326 -0.0011849699690859431 0.0009875929835907436 0.00019737698549520018 0.0025904843195272086 0.0 0.0
0.0 0.0008472929716862056 -0.00039407859037469435 0.00031977818900383054 7.430040137086384e-05 0.0012213054633621588 0.0 0.0
0.0 0.00031525235482441813 -0.00010243990540565896 8.257884148101335e-05 1.98610639246456e-05 0.0004426539260821101 0.0 0.0
0.0 0.00010881761436446884 -2.758832333400732e-05 2.2319731722608514e-05 5.268591611398787e-06 0.00014667194937822612 0.0 0.0
0.0 3.0822644513904456e-05 -6.42607254765121e-06 5.351115506034706e-06 1.0749570416164862e-06 3.880920937384747e-05 0.0 0.0
0.0 8.904455744487226e-06 -8.881735916725087e-07 7.660761056985618e-07 1.2209748597394993e-07 6.130792360810986e-06 0.0 0.0
0.0 4.149100615443249e-06 -4.424145999161895e-07 3.6546272143863534e-07 7.695187847755391e-08 3.3815034445177776e-06 0.0 0.0
0.0 1.0286174790342497e-06 -1.451156712767674e-08 1.2369791424550698e-08 2.1417757031263886e-09 2.5890107901769025e-07 0.0 0.0
0.0 5.791226488939735e-07 -3.285152937202806e-08 4.863961920387383e-08 -1.57880898318369e-08 -8.324711318699175e-08 0.0 0.0
0.0 0.0 0.0 0.0 0.0 0.0 0.0 0.0
0.0 1.2508586812791678e-06 1.7693331314728913e-08 -8.022362203851962e-09 -9.670969110877117e-09 2.5436291706895875e-07 0.0 0.0
0.0 3.75447165909097e-06 -8.13064429378912e-08 6.648358958116858e-08 1.4822853356718862e-08 -4.0516241892555893e-07 0.0 0.0
0.0 1.124677502918691e-05 -1.1716572260563137e-06 9.588457430900687e-07 2.1281148296625343e-07 -4.948891143771077e-06 0.0 0.0
0.0 3.823604497231731e-05 -1.184348924665846e-05 9.654882565161886e-06 2.1886066814965846e-06 -4.3221044864276965e-05 0.0 0.0
0.0 0.00014582771363643685 -5.9243459017280086e-05 4.780099154364167e-05 1.1442467473638378e-05 -0.00018013401522821467 0.0 0.0
0.0 0.000584390631780647 -0.0003205733398845236 0.0002600813619598826 6.049197792464109e-05 -0.0007291593754982117 0.0 0.0
0.0 0.0018429450801968165 -0.001224901413958607 0.0010223450928788114 0.00020255632107979595 -0.002024207085083856 0.0 0.0
0.0 0.004175535266765904 -0.0029961372306967415 0.0026069968747046953 0.0003891403559920447 -0.00391497772380546 0.0 0.0
0.0 0.007233758254576654 -0.005507064243260843 0.004965295243149103 0.0005417690001117394 -0.006197329524076149 0.0 0.0
0.0 0.01101993131772495 -0.008506876999229 0.007864704656940552 0.0006421723422884516 -0.008624367184820948 0.0 0.0
0.0 0.01510853251327584 -0.011877540874662487 0.011163796143935137 0.0007137447307273527 -0.010988320333106451 0.0 0.0
0.0 0.019647314819680205 -0.015619922858615068 0.014847239861653237 0.0007726829969618345 -0.013273433227072823 0.0 0.0
0.0 0.024694868094300642 -0.019777607769209556 0.018949627708646832 0.0008279800605627149 -0.015562846062643096 0.0 0.0
0.0 0.03025461658633269 -0.024293278778088123 0.023407447837172576 0.0008858309409155325 -0.018048060720078637 0.0 0.0
0.0 0.035971419377582095 -0.028895418452090156 0.027949033802831313 0.0009463846492588257 -0.020998241025643 0.0 0.0
0.0 0.041396103595185973 -0.03305088356503576 0.032045902228524874 0.0010049813365108691 -0.024596202009172313 0.0 0.0
0.0 0.04513969102223489 -0.035835957262180286 0.03475646894393998 0.0010794883182403121 -0.02819103612413696 0.0 0.0
0.0 0.04533495348341174 -0.035504082835785475 0.03433047580476934 0.0011736070310161173 -0.029973904783186962 0.0 0.0
0.0 0.03722632859626859 -0.02862369572717318 0.027235453281080062 0.0013882424460931145 -0.026183541563931385 0.0 0.0
0.0 0.03722632859627249 -0.028623695727170058 0.027235453281076696 0.001388242446093365 0.026183541563964956 0.0 0.0
0.0 0.045334953483414514 -0.03550408283577942 0.0343304758047633 0.0011736070310161052 0.029973904783232957 0.0 0.0
0.0 0.04513969102222432 -0.03583595726216513 0.0347564689439253 0.0010794883182398203 0.02819103612416718 0.0 0.0
0.0 0.041396103595162013 -0.033050883565013366 0.03204590222850298 0.0010049813365104107 0.02459620200917577 0.0 0.0
0.0 0.035971419377549316 -0.0288954184520624 0.02794903380280398 0.0009463846492584185 0.020998241025631192 0.0 0.0
0.0 0.030254616586300888 -0.024293278778062134 0.023407447837146666 0.000885830940915453 0.018048060720062924 0.0 0.0
0.0 0.024694868094271336 -0.019777607769185423 0.018949627708622723 0.0008279800605626964 0.015562846062629181 0.0 0.0
0.0 0.01964731481964802 -0.015619922858587893 0.014847239861626244 0.000772682996961644 0.013273433227059978 0.0 0.0
0.0 0.015108532513242512 -0.011877540874635491 0.01116379614390852 0.000713744730726969 0.010988320333087203 0.0 0.0
0.0 0.01101993131769427 -0.008506876999205092 0.007864704656917167 0.0006421723422879225 0.008624367184798528 0.0 0.0
0.0 0.0072337582545516955 -0.0055070642432420314 0.004965295243130913 0.0005417690001111202 0.006197329524056502 0.0 0.0
0.0 0.0041755352667483545 -0.002996137230683143 0.0026069968746920105 0.00038914035599113225 0.00391497772379228 0.0 0.0
0.0 0.0018429450801865294 -0.0012249014139512225 0.0010223450928724684 0.00020255632107875414 0.002024207085074792 0.0 0.0
0.0 0.0005843906317759596 -0.0003205733398822367 0.0002600813619580347 6.049197792420197e-05 0.0007291593754937835 0.0 0.0
0.0 0.0001458277136346364 -5.924345901702312e-05 4.7800991543440666e-05 1.1442467473582413e-05 0.00018013401522733603 0.0 0.0
0.0 3.8236044971074205e-05 -1.1843489246622675e-05 9.654882565130837e-06 2.1886066814918035e-06 4.322104486414119e-05 0.0 0.0
0.0 1.1246775028457876e-05 -1.1716572261713005e-06 9.588457431847248e-07 2.1281148298656396e-07 4.948891144273593e-06 0.0 0.0
0.0 3.7544716587422013e-06 -8.130644310046124e-08 6.648358971354923e-08 1.4822853386918403e-08 4.05162419867337e-07 0.0 0.0
0.0 1.2508586809248778e-06 1.7693331309732382e-08 -8.022362201433076e-09 -9.67096910830339e-09 -2.543629169952669e-07 0.0 0.0
0.0 0.0 0.0 0.0 0.0 0.0 0.0 0.0
0.0 0.0 0.0 0.0 0.0 0.0 0.0 0.0
0.0 1.142611525848342e-07 2.288734892542505e-09 -1.5997618405167106e-09 -6.88973052025528e-10 2.247828464461184e-08 0.0 0.0
0.0 2.2211957022591627e-06 4.217973855808265e-08 -3.358245719780191e-08 -8.597281360285588e-09 2.1028839365999326e-07 0.0 0.0
0.0 1.1016906364735112e-05 -2.424720954881885e-06 2.0045010925965346e-06 4.2021986228534593e-07 -8.004615702908632e-06 0.0 0.0
0.0 4.797658257269115e-05 -1.854192666857679e-05 1.5092724150729941e-05 3.4492025178468776e-06 -4.757655512813788e-05 0.0 0.0
0.0 0.0002534876417156189 -0.0001451487888203963 0.00011714155711000705 2.800723171038923e-05 -0.0002836101431496343 0.0 0.0
0.0 0.0011391527207644516 -0.0007913026472940691 0.0006523614311262991 0.00013894121616777 -0.00113004760512845 0.0 0.0
0.0 0.0032226928107008303 -0.0024439747215374372 0.002101728038832798 0.0003422466827046389 -0.0027134805495585353 0.0 0.0
0.0 0.006563961835145151 -0.005170426626492478 0.004640148154235677 0.0005302784722568013 -0.004903432073898741 0.0 0.0
0.0 0.010869473267852705 -0.008759733832987043 0.008101898128033943 0.0006578357049530977 -0.007496787733865598 0.0 0.0
0.0 0.015920598802075 -0.012966607885011416 0.01222340974318827 0.0007431981418231477 -0.010167853383492386 0.0 0.0
0.0 0.021575803338085238 -0.017689035776318675 0.01687631326415657 0.000812722512162103 -0.012714877373848568 0.0 0.0
0.0 0.027860436592880348 -0.022946190601365293 0.022071483312106146 0.0008747072892591264 -0.015164443712273054 0.0 0.0
0.0 0.03479432831693835 -0.028806996550262847 0.027871416066320362 0.0009355804839424849 -0.01763569703307028 0.0 0.0
0.0 0.042472522249939484 -0.035244312986266825 0.034244231433035205 0.0010000815532315978 -0.020387038490924426 0.0 0.0
0.0 0.0506047240463255 -0.04197627964974836 0.04090387365620398 0.0010724059935443746 -0.023842523805508227 0.0 0.0
0.0 0.05831733112614252 -0.048272325255262746 0.04711667169917272 0.0011556535560899982 -0.02818365387960112 0.0 0.0
0.0 0.06399693454332492 -0.05271318089209757 0.05145920102620288 0.001253979865894632 -0.03262809793778074 0.0 0.0
0.0 0.06450809935091173 -0.052830123110171996 0.05143790895752914 0.0013922141526428364 -0.03485194471759635 0.0 0.0
0.0 0.0544824145420947 -0.044257416249409195 0.04264957122404075 0.0016078450253684648 -0.031414286911033484 0.0 0.0
0.0 0.054482414542100406 -0.0442574162494076 0.04264957122403932 0.0016078450253682612 0.03141428691107294 0.0 0.0
0.0 0.06450809935091395 -0.05283012311016558 0.051437908957523586 0.0013922141526419773 0.03485194471764896 0.0 0.0
0.0 0.06399693454330975 -0.05271318089207816 0.0514592010261842 0.001253979865893924 0.032628097937818595 0.0 0.0
0.0 0.05831733112611162 -0.048272325255233534 0.04711667169914449 0.0011556535560890294 0.02818365387960964 0.0 0.0
0.0 0.05060472404628514 -0.04197627964971329 0.040903873656169557 0.0010724059935437254 0.02384252380549871 0.0 0.0
0.0 0.04247252224990041 -0.03524431298623354 0.03424423143300254 0.0010000815532309878 0.020387038490910947 0.0 0.0
0.0 0.03479432831690049 -0.028806996550230876 0.027871416066288963 0.0009355804839419126 0.01763569703305526 0.0 0.0
0.0 0.02786043659284047 -0.022946190601331157 0.022071483312072517 0.0008747072892586435 0.015164443712260247 0.0 0.0
0.0 0.021575803338046644 -0.01768903577628616 0.01687631326412467 0.0008127225121614803 0.01271487737383041 0.0 0.0
0.0 0.015920598802038083 -0.012966607884981236 0.012223409743158737 0.0007431981418224918 0.010167853383470255 0.0 0.0
0.0 0.01086947326781979 -0.00875973383296081 0.008101898128008354 0.0006578357049524543 0.00749678773384261 0.0 0.0
0.0 0.006563961835121809 -0.005170426626473866 0.004640148154218061 0.000530278472255807 0.004903432073884261 0.0 0.0
0.0 0.003222692810685913 -0.002443974721525782 0.002101728038822288 0.00034224668270349344 0.0027134805495480667 0.0 0.0
0.0 0.0011391527207550724 -0.0007913026472875456 0.0006523614311207658 0.0001389412161667794 0.0011300476051205757 0.0 0.0
0.0 0.00025348764171192095 -0.00014514878881876774 0.00011714155710866193 2.8007231710105863e-05 0.0002836101431466664 0.0 0.0
0.0 4.797658257170266e-05 -1.854192666859893e-05 1.509272415074741e-05 3.4492025178514685e-06 4.7576555128202324e-05 0.0 0.0
0.0 1.1016906364158332e-05 -2.42472095508936e-06 2.004501092765352e-06 4.2021986232399996e-07 8.00461570357951e-06 0.0 0.0
0.0 2.2211957016703266e-06 4.217973845213866e-08 -3.358245711381532e-08 -8.597281338325243e-09 -2.102883932000038e-07 0.0 0.0
0.0 1.1426115247963744e-07 2.288734890412389e-09 -1.5997618390303778e-09 -6.889730513817681e-10 -2.247828462369251e-08 0.0 0.0
0.0 0.0 0.0 0.0 0.0 0.0 0.0 0.0
0.0 0.0 0.0 0.0 0.0 0.0 0.0 0.0
0.0 0.0 0.0 0.0 0.0 0.0 0.0 0.0
0.0 6.301117771691601e-07 3.177133557320747e-08 -2.5610055499987776e-08 -6.161280073216576e-09 1.139376708674144e-07 0.0 0.0
0.0 1.0511585016603887e-05 -8.799496727866e-07 7.098791030557844e-07 1.7007056973082634e-07 -2.0153914801000395e-06 0.0 0.0
0.0 7.62211821144803e-05 -3.178281254486632e-05 2.565190994721403e-05 6.1309025976522815e-06 -5.689794920184455e-05 0.0 0.0
0.0 0.0004848706991785908 -0.00034028530069805506 0.00027631000695205144 6.397529374600356e-05 -0.0004464343386914632 0.0 0.0
0.0 0.0019513120716218519 -0.0015029331150490462 0.0012637552593618051 0.00023917785568724012 -0.0014656936203815466 0.0 0.0
0.0 0.00484343989107114 -0.003916570157148366 0.003455428960389513 0.00046114119675885246 -0.0031701033679502433 0.0 0.0
0.0 0.009123093744646473 -0.007547678892941648 0.006921461934976141 0.0006262169579655062 -0.005500056761261999 0.0 0.0
0.0 0.014578851474310135 -0.01215606996723832 0.011421691471053833 0.0007343784961844885 -0.00816220447460386 0.0 0.0
0.0 0.02096637321584747 -0.01754353560735619 0.016726095550356777 0.0008174400569994052 -0.010853180218049794 0.0 0.0
0.0 0.028156221166883058 -0.02361889733795655 0.02272785817140117 0.0008910391665553882 -0.013439360966635928 0.0 0.0
0.0 0.036144013205533634 -0.03039850751133993 0.029438665483584883 0.0009598420277550174 -0.015939035965583364 0.0 0.0
0.0 0.045037140057763 -0.03796350047765071 0.036936651529956545 0.0010268489476941544 -0.018445404043232874 0.0 0.0
0.0 0.05492417190277227 -0.04633017446198442 0.0452315623023394 0.0010986121596450189 -0.02123421796064781 0.0 0.0
0.0 0.06526874242142747 -0.055197051750181345 0.05401266010825329 0.0011843916419280389 -0.02476325756230669 0.0 0.0
0.0 0.07544521684930389 -0.06359633206341085 0.062306232244253114 0.0012900998191577432 -0.02929439480697783 0.0 0.0
0.0 0.0828445264818364 -0.06957825705195864 0.06815779081279932 0.0014204662391592887 -0.034157376634295356 0.0 0.0
0.0 0.08352697452914776 -0.06988437291094139 0.06830082452919699 0.0015835483817443897 -0.03719036908987503 0.0 0.0
0.0 0.07184770247282787 -0.059602627860263664 0.05782287642746511 0.0017797514327985622 -0.03603433384344653 0.0 0.0
0.0 0.07184770247282908 -0.0596026278602588 0.0578228764274601 0.0017797514327986853 0.03603433384348754 0.0 0.0
0.0 0.08352697452913964 -0.06988437291092753 0.06830082452918314 0.001583548381744376 0.03719036908992724 0.0 0.0
0.0 0.08284452648180954 -0.06957825705193062 0.06815779081277094 0.001420466239159657 0.03415737663433324 0.0 0.0
0.0 0.07544521684926174 -0.06359633206337253 0.06230623224421478 0.0012900998191577157 0.029294394806987003 0.0 0.0
0.0 0.0652687424213782 -0.05519705175013847 0.05401266010821099 0.0011843916419274516 0.024763257562297827 0.0 0.0
0.0 0.054924171902721114 -0.04633017446194028 0.045231562302295636 0.0010986121596446804 0.021234217960635828 0.0 0.0
0.0 0.04503714005770952 -0.03796350047760502 0.03693665152991108 0.0010268489476939428 0.018445404043215985 0.0 0.0
0.0 0.036144013205482245 -0.030398507511295653 0.029438665483540787 0.0009598420277548592 0.015939035965569805 0.0 0.0
0.0 0.02815622116683351 -0.0236188973379143 0.022727858171359284 0.0008910391665550051 0.013439360966617558 0.0 0.0
0.0 0.020966373215802754 -0.01754353560731891 0.016726095550320015 0.0008174400569988902 0.010853180218026332 0.0 0.0
0.0 0.014578851474269898 -0.012156069967204797 0.011421691471020864 0.0007343784961839445 0.008162204474580251 0.0 0.0
0.0 0.009123093744615972 -0.007547678892916309 0.0069214619349513805 0.0006262169579649323 0.005500056761245851 0.0 0.0
0.0 0.004843439891050408 -0.003916570157131314 0.0034554289603735524 0.0004611411967577628 0.0031701033679388197 0.0 0.0
0.0 0.0019513120716099306 -0.0015029331150400492 0.0012637552593539195 0.00023917785568612998 0.0014656936203734806 0.0 0.0
0.0 0.0004848706991747591 -0.00034028530069594895 0.00027631000695035727 6.397529374559178e-05 0.0004464343386890355 0.0 0.0
0.0 7.622118211330348e-05 -3.1782812544852056e-05 2.5651909947190496e-05 6.1309025976614514e-06 5.689794920177448e-05 0.0 0.0
0.0 1.0511585016082218e-05 -8.799496729790344e-07 7.098791032113787e-07 1.7007056976766634e-07 2.0153914805755634e-06 0.0 0.0
0.0 6.301117768796378e-07 3.177133555832444e-08 -2.5610055487985994e-08 -6.161280070339225e-09 -1.1393767081387647e-07 0.0 0.0
0.0 0.0 0.0 0.0 0.0 0.0 0.0 0.0
0.0 0.0 0.0 0.0 0.0 0.0 0.0 0.0
0.0 0.0 0.0 0.0 0.0 0.0 0.0 0.0
0.0 0.0 0.0 0.0 0.0 0.0 0.0 0.0
0.0 9.159772724021529e-07 5.630253744311479e-08 -4.536700834069255e-08 -1.0935529102421052e-08 1.5681455061216043e-07 0.0 0.0
0.0 7.768296512912564e-06 -2.49170278262135e-06 2.001850009790351e-06 4.898527728310403e-07 -4.584209180186898e-06 0.0 0.0
0.0 0.00012525195398280402 -7.654143535923706e-05 6.152472949340479e-05 1.5016705865832298e-05 -9.844895795235265e-05 0.0 0.0
0.0 0.0008828034604276521 -0.0006711393239037266 0.0005501219939338127 0.00012101732996991422 -0.0006009182359288395 0.0 0.0
0.0 0.003001081623141935 -0.00240867668955147 0.0020677553220976286 0.000340921367453841 -0.0016585572088444892 0.0 0.0
0.0 0.006566690901202358 -0.005566545389367576 0.005013576948731693 0.0005529684406358843 -0.0033720147157387022 0.0 0.0
0.0 0.011777176746731736 -0.010033019141303817 0.009340910630208723 0.0006921085110950949 -0.005628714757116484 0.0 0.0
0.0 0.01836478376615991 -0.015626271278725384 0.014833810278836545 0.0007924609998888456 -0.008155114506923068 0.0 0.0
0.0 0.026085667965057686 -0.022188122432636268 0.02130956512561384 0.0008785573070224136 -0.010735282714115396 0.0 0.0
0.0 0.0347916944138261 -0.029622458487535374 0.028663683730741164 0.0009587747567941814 -0.013216873367731063 0.0 0.0
0.0 0.04456001166234902 -0.03793392100108205 0.036898321726198904 0.0010355992748831487 -0.015629247919936768 0.0 0.0
0.0 0.05528471860088289 -0.04720146809026881 0.04609157094437354 0.001109897145895274 -0.0180612063820533 0.0 0.0
0.0 0.0672456731442102 -0.05745572235532072 0.05626738696780476 0.0011883353875159664 -0.0206403695276706 0.0 0.0
0.0 0.08011407544475367 -0.06838772976244686 0.06710141726919892 0.0012863124932479453 -0.023752893551739023 0.0 0.0
0.0 0.09226666481504776 -0.07883317291213945 0.0774187091881037 0.0014144637240357115 -0.027918106727819237 0.0 0.0
0.0 0.1011730934091406 -0.08629959974870752 0.08472596744413058 0.0015736323045768908 -0.03294718881493849 0.0 0.0
0.0 0.10225636933528254 -0.08682409940756922 0.08507243362482853 0.0017516657827406307 -0.037519785375379075 0.0 0.0
0.0 0.08960676817243783 -0.07507386616481253 0.07313796566579084 0.001935900499021682 -0.04037506292536769 0.0 0.0
0.0 0.08960676817244004 -0.07507386616480856 0.07313796566578759 0.0019359004990209322 0.040375062925410626 0.0 0.0
0.0 0.10225636933526572 -0.08682409940754901 0.08507243362480832 0.0017516657827406326 0.037519785375430985 0.0 0.0
0.0 0.10117309340910614 -0.08629959974867349 0.08472596744409712 0.0015736323045763274 0.03294718881497641 0.0 0.0
0.0 0.09226666481499658 -0.07883317291209364 0.0774187091880581 0.001414463724035493 0.02791810672782908 0.0 0.0
0.0 0.08011407544469296 -0.06838772976239424 0.06710141726914644 0.001286312493247751 0.02375289355173219 0.0 0.0
0.0 0.06724567314415139 -0.05745572235526928 0.056267386967754476 0.0011883353875148045 0.020640369527662107 0.0 0.0
0.0 0.05528471860082074 -0.047201468090215144 0.04609157094432016 0.0011098971458949483 0.018061206382040094 0.0 0.0
0.0 0.04456001166228686 -0.03793392100102819 0.03689832172614531 0.0010355992748828776 0.01562924791992235 0.0 0.0
0.0 0.03479169441376445 -0.029622458487482264 0.028663683730688286 0.0009587747567939672 0.013216873367713185 0.0 0.0
0.0 0.026085667965000565 -0.022188122432587956 0.021309565125565717 0.0008785573070222458 0.010735282714091089 0.0 0.0
0.0 0.01836478376611331 -0.01562627127868605 0.014833810278797734 0.0007924609998883075 0.00815511450690058 0.0 0.0
0.0 0.011777176746696757 -0.010033019141273757 0.009340910630179429 0.0006921085110943286 0.005628714757101538 0.0 0.0
0.0 0.006566690901177559 -0.005566545389346433 0.005013576948711585 0.000552968440634847 0.003372014715726963 0.0 0.0
0.0 0.0030010816231278545 -0.002408676689540092 0.002067755322087412 0.00034092136745268026 0.0016585572088372615 0.0 0.0
0.0 0.0008828034604204491 -0.0006711393238985491 0.0005501219939294995 0.00012101732996904946 0.0006009182359246065 0.0 0.0
0.0 0.0001252519539811002 -7.654143535880953e-05 6.152472949303777e-05 1.5016705865771747e-05 9.844895795175116e-05 0.0 0.0
0.0 7.768296512822543e-06 -2.4917027829698285e-06 2.0018500100668436e-06 4.898527729029623e-07 4.584209180819429e-06 0.0 0.0
0.0 9.159772720464821e-07 5.630253742091469e-08 -4.5367008322703315e-08 -1.0935529098212496e-08 -1.5681455054918204e-07 0.0 0.0
0.0 0.0 0.0 0.0 0.0 0.0 0.0 0.0
0.0 0.0 0.0 0.0 0.0 0.0 0.0 0.0
0.0 0.0 0.0 0.0 0.0 0.0 0.0 0.0
0.0 0.0 0.0 0.0 0.0 0.0 0.0 0.0
0.0 0.0 0.0 0.0 0.0 0.0 0.0 0.0
0.0 7.079816822830298e-06 -3.035493155931633e-06 2.4086209236467968e-06 6.268722322848562e-07 -4.10248265561039e-06 0.0 0.0
0.0 0.00023331144452835197 -0.0001643843443289457 0.00013230988946671222 3.207445486223353e-05 -0.00014756190779376523 0.0 0.0
0.0 0.0014512397284953053 -0.0011439814231295896 0.0009508664138496804 0.0001931150092799099 -0.0006954130740177078 0.0 0.0
0.0 0.004025153934991709 -0.0034873004645492893 0.00305331167711763 0.00043398878743166095 -0.001713687985738279 0.0 0.0
0.0 0.008401205115620074 -0.007312199188763136 0.006693846129912626 0.0006183530588505114 -0.0032639033538240047 0.0 0.0
0.0 0.014540689476790731 -0.012566906238167775 0.011825532158654829 0.0007413740795129407 -0.00525119089424155 0.0 0.0
0.0 0.022205041296306988 -0.0191357117219672 0.018295445584782306 0.0008402661371849068 -0.007516108935024546 0.0 0.0
0.0 0.031232440702303587 -0.026866605437817444 0.025935308098206128 0.0009312973396113099 -0.009831155731300478 0.0 0.0
0.0 0.04149137093225693 -0.035665367070559645 0.03464607186782477 0.0010192952027348557 -0.012064362139381207 0.0 0.0
0.0 0.05295049718235967 -0.04552357797530897 0.04441882012038295 0.0011047578549259977 -0.014263878026193565 0.0 0.0
0.0 0.06570249188981069 -0.05648443400832703 0.05529571323653065 0.001188720771796358 -0.016470932870870425 0.0 0.0
0.0 0.07970449701920734 -0.06854689782469538 0.06727229708869886 0.0012746007359965051 -0.018673604877027072 0.0 0.0
0.0 0.09439771941631275 -0.08139992797546167 0.08002083270823886 0.0013790952672227549 -0.021004173333276893 0.0 0.0
0.0 0.10878840811009396 -0.09378752044362317 0.0922617153196765 0.0015258051239466618 -0.024140472778494196 0.0 0.0
0.0 0.11944737787074858 -0.10281244867871103 0.10110248213267435 0.0017099665460366563 -0.029026729197392787 0.0 0.0
0.0 0.12122866482361117 -0.10386639485340819 0.10195950125833161 0.001906893595076548 -0.03590488660174975 0.0 0.0
0.0 0.10784409358861642 -0.09103343644507197 0.08894358809907815 0.0020898483459937246 -0.04444988773612682 0.0 0.0
0.0 0.10784409358861137 -0.09103343644506277 0.08894358809906877 0.0020898483459940217 0.04444988773616697 0.0 0.0
0.0 0.12122866482358663 -0.10386639485338278 0.10195950125830608 0.001906893595076725 0.035904886601796804 0.0 0.0
0.0 0.1194473778707054 -0.10281244867867109 0.10110248213263434 0.0017099665460366146 0.029026729197427388 0.0 0.0
0.0 0.10878840811003768 -0.09378752044357316 0.09226171531962751 0.0015258051239456626 0.02414047277850253 0.0 0.0
0.0 0.09439771941624892 -0.08139992797540563 0.08002083270818404 0.0013790952672215414 0.021004173333274395 0.0 0.0
0.0 0.07970449701913436 -0.06854689782463219 0.06727229708863595 0.0012746007359962493 0.018673604877019214 0.0 0.0
0.0 0.06570249188973903 -0.056484434008265 0.05529571323646942 0.0011887207717955284 0.016470932870858775 0.0 0.0
0.0 0.05295049718229093 -0.04552357797524906 0.044418820120324165 0.001104757854924893 0.014263878026182137 0.0 0.0
0.0 0.041491370932188756 -0.0356653670705004 0.034646071867766234 0.0010192952027342004 0.012064362139365986 0.0 0.0
0.0 0.031232440702245307 -0.02686660543776695 0.025935308098156543 0.0009312973396103945 0.00983115573128045 0.0 0.0
0.0 0.02220504129625616 -0.01913571172192325 0.01829544558473919 0.0008402661371840459 0.0075161089350052526 0.0 0.0
0.0 0.014540689476749812 -0.012566906238132149 0.011825532158619707 0.0007413740795124395 0.005251190894228207 0.0 0.0
0.0 0.008401205115591859 -0.007312199188738425 0.006693846129888692 0.0006183530588497327 0.0032639033538137867 0.0 0.0
0.0 0.004025153934973383 -0.0034873004645335198 0.003053311677102963 0.00043398878743055685 0.0017136879857308847 0.0 0.0
0.0 0.0014512397284865129 -0.0011439814231230733 0.000950866413844045 0.00019311500927902777 0.0006954130740138504 0.0 0.0
0.0 0.00023331144452584356 -0.0001643843443278508 0.00013230988946580333 3.2074454862047284e-05 0.0001475619077928158 0.0 0.0
0.0 7.079816822539968e-06 -3.035493156297717e-06 2.4086209239306456e-06 6.268722323670853e-07 4.102482656079177e-06 0.0 0.0
0.0 0.0 0.0 0.0 0.0 0.0 0.0 0.0
0.0 0.0 0.0 0.0 0.0 0.0 0.0 0.0
0.0 0.0 0.0 0.0 0.0 0.0 0.0 0.0
0.0 0.0 0.0 0.0 0.0 0.0 0.0 0.0
0.0 0.0 0.0 0.0 0.0 0.0 0.0 0.0
0.0 0.0 0.0 0.0 0.0 0.0 0.0 0.0
0.0 1.0276948409241574e-05 -5.621639942117761e-06 4.480665263102766e-06 1.1409746790149841e-06 -5.488931379455997e-06 0.0 0.0
0.0 0.0004421477289549314 -0.00032927153751742343 0.0002657500351324531 6.35215023849703e-05 -0.00018916657909923105 0.0 0.0
0.0 0.002124845768296903 -0.001760833328676045 0.0014860791441174705 0.00027475418455857425 -0.0007028423301865376 0.0 0.0
0.0 0.005239922707509399 -0.004660042533567421 0.004150264868349987 0.0005097776652174344 -0.001542649148290234 0.0 0.0
0.0 0.01035212458909601 -0.009097295860931984 0.008430944243723364 0.0006663516172086214 -0.002785443123406268 0.0 0.0
0.0 0.017343837074286567 -0.015123690641537438 0.014343295115304924 0.0007803955262325041 -0.00440341266523957 0.0 0.0
0.0 0.02608232994986856 -0.022653176722744663 0.021772314991420794 0.0008808617313238664 -0.006259010775251743 0.0 0.0
0.0 0.036428699920124666 -0.03154866184566765 0.030570567856846153 0.0009780939888214934 -0.008162816836718573 0.0 0.0
0.0 0.04818482639422923 -0.04171782371358102 0.0406439237044925 0.001073900009088499 -0.009996599232326367 0.0 0.0
0.0 0.06149110258052837 -0.053133249957406356 0.051964363582831415 0.0011688863745749078 -0.011813363632851846 0.0 0.0
0.0 0.07600255325696584 -0.06578781087044946 0.06452390156784571 0.00126390930260375 -0.01368212224781174 0.0 0.0
0.0 0.09186465586035344 -0.07957464370413556 0.0782141299786653 0.0013605137254703113 -0.015438457688058366 0.0 0.0
0.0 0.10861822471983892 -0.09411142170214756 0.09264287161109888 0.001468550091048653 -0.016785733902025902 0.0 0.0
0.0 0.12489074526020708 -0.10823575185455928 0.10662109306373221 0.0016146587908270006 -0.018256485208609913 0.0 0.0
0.0 0.13746147345686738 -0.11903127651286835 0.11720455442909539 0.0018267220837728762 -0.022361125983775296 0.0 0.0
0.0 0.1405657160115808 -0.12120893182481794 0.11915585545959487 0.002053076365223125 -0.031930262362481046 0.0 0.0
0.0 0.12723269197280063 -0.10789220014674239 0.10563754524277236 0.0022546549039700226 -0.0479612447645665 0.0 0.0
0.0 0.1272326919727903 -0.10789220014673041 0.1056375452427595 0.0022546549039709467 0.0479612447645967 0.0 0.0
0.0 0.14056571601154708 -0.12120893182478615 0.11915585545956284 0.0020530763652232935 0.0319302623625212 0.0 0.0
0.0 0.13746147345681375 -0.11903127651282011 0.11720455442904766 0.0018267220837724022 0.0223611259838056 0.0 0.0
0.0 0.12489074526013899 -0.10823575185449977 0.10662109306367336 0.0016146587908264414 0.018256485208615968 0.0 0.0
0.0 0.10861822471976501 -0.09411142170208285 0.09264287161103558 0.0014685500910473243 0.016785733902024813 0.0 0.0
0.0 0.09186465586027466 -0.07957464370406685 0.0782141299785977 0.0013605137254691882 0.015438457688053847 0.0 0.0
0.0 0.0760025532568834 -0.0657878108703781 0.06452390156777457 0.0012639093026035062 0.0136821222478045 0.0 0.0
0.0 0.061491102580446586 -0.05313324995733557 0.05196436358276069 0.0011688863745749048 0.01181336363284236 0.0 0.0
0.0 0.0481848263941505 -0.04171782371351269 0.040643923704424836 0.0010739000090878444 0.009996599232316222 0.0 0.0
0.0 0.03642869992005423 -0.031548661845606216 0.030570567856785504 0.0009780939888207264 0.008162816836701873 0.0 0.0
0.0 0.026082329949809968 -0.02265317672269377 0.021772314991370306 0.0008808617313234715 0.006259010775234676 0.0 0.0
0.0 0.017343837074240843 -0.015123690641497371 0.014343295115265426 0.0007803955262319499 0.004403412665228414 0.0 0.0
0.0 0.01035212458906145 -0.009097295860901432 0.008430944243693604 0.0006663516172078283 0.002785443123397034 0.0 0.0
0.0 0.005239922707488051 -0.004660042533548426 0.004150264868332011 0.0005097776652164155 0.001542649148283655 0.0 0.0
0.0 0.0021248457682859073 -0.001760833328666912 0.0014860791441094537 0.00027475418455745725 0.0007028423301829118 0.0 0.0
0.0 0.0004421477289511744 -0.0003292715375150694 0.0002657500351304997 6.352150238456992e-05 0.00018916657909795107 0.0 0.0
0.0 1.0276948408949026e-05 -5.621639942581198e-06 4.480665263461117e-06 1.1409746791200901e-06 5.488931379863709e-06 0.0 0.0
0.0 0.0 0.0 0.0 0.0 0.0 0.0 0.0
0.0 0.0 0.0 0.0 0.0 0.0 0.0 0.0
0.0 0.0 0.0 0.0 0.0 0.0 0.0 0.0
0.0 0.0 0.0 0.0 0.0 0.0 0.0 0.0
0.0 0.0 0.0 0.0 0.0 0.0 0.0 0.0
0.0 0.0 0.0 0.0 0.0 0.0 0.0 0.0
0.0 2.4439594724136218e-05 -1.4302614698551456e-05 1.1405361170442576e-05 2.897253528108912e-06 -8.776815512848556e-06 0.0 0.0
0.0 0.0007847913120372061 -0.0005967303276513652 0.0004860900350147256 0.00011064029263663976 -0.00019624406587746512 0.0 0.0
0.0 0.0027549437182254467 -0.0025057025073460006 0.0021475060667959433 0.0003581964405500557 -0.0005707638025306621 0.0 0.0
0.0 0.006577839742535522 -0.005879618192058872 0.005313570240676255 0.0005660479513826196 -0.0011388582977363195 0.0 0.0
0.0 0.012343359184999653 -0.01090248309014167 0.010198846152609953 0.000703636937531724 -0.001977630804264752 0.0 0.0
0.0 0.02016746645523044 -0.017675450962138094 0.01686356402533869 0.0008118869367994032 -0.0030924766887628794 0.0 0.0
0.0 0.02996711255307979 -0.02615041624480381 0.025234706386138124 0.0009157098586656805 -0.004391940386116535 0.0 0.0
0.0 0.04161111867529389 -0.03620727674144988 0.03518741453796443 0.0010198622034854716 -0.005726490686089083 0.0 0.0
0.0 0.05503247361261086 -0.04775032905676934 0.04662643059633661 0.0011238984604327188 -0.007013226371462374 0.0 0.0
0.0 0.06988346788020058 -0.060733433445020385 0.05950482376196557 0.0012286096830547949 -0.008320439278818353 0.0 0.0
0.0 0.08636335600725004 -0.07507128267509104 0.07373578902113428 0.0013354936539567057 -0.009655157486873093 0.0 0.0
0.0 0.10417973252774078 -0.09051996670328784 0.08907401178874849 0.001445954914539291 -0.010828383995817354 0.0 0.0
0.0 0.12260897648707837 -0.10652895273845375 0.10496761559964482 0.0015613371388089 -0.011411816866358797 0.0 0.0
0.0 0.14038448614159302 -0.12199457989582432 0.12030074563939461 0.0016938342564297793 -0.011232660367591464 0.0 0.0
0.0 0.1548931133030215 -0.13456504666927552 0.13268093186865745 0.0018841148006180177 -0.012859289755887618 0.0 0.0
0.0 0.16049791798891938 -0.1389944628321691 0.1367926700912651 0.002201792740903925 -0.02413352809551423 0.0 0.0
0.0 0.14830466998555697 -0.1262775924537509 0.12382982805387807 0.0024477643998727628 -0.05014797149839054 0.0 0.0
0.0 0.14830466998554653 -0.12627759245373948 0.12382982805386678 0.002447764399872706 0.05014797149841417 0.0 0.0
0.0 0.1604979179888825 -0.13899446283213568 0.13679267009123205 0.002201792740903596 0.024133528095544726 0.0 0.0
0.0 0.1548931133029598 -0.13456504666922137 0.13268093186860386 0.0018841148006174947 0.012859289755908776 0.0 0.0
0.0 0.14038448614151489 -0.12199457989575606 0.1203007456393275 0.0016938342564285643 0.011232660367594148 0.0 0.0
0.0 0.12260897648699116 -0.10652895273837769 0.10496761559957007 0.0015613371388076309 0.011411816866357474 0.0 0.0
0.0 0.104179732527649 -0.09051996670320803 0.08907401178866951 0.0014459549145385046 0.010828383995814934 0.0 0.0
0.0 0.08636335600715933 -0.07507128267501231 0.07373578902105626 0.0013354936539560515 0.009655157486868335 0.0 0.0
0.0 0.06988346788010877 -0.060733433444940636 0.05950482376188666 0.0012286096830539926 0.008320439278811386 0.0 0.0
0.0 0.055032473612522635 -0.04775032905669244 0.04662643059626037 0.0011238984604320617 0.007013226371456019 0.0 0.0
0.0 0.04161111867521262 -0.03620727674137942 0.035187414537894375 0.001019862203485039 0.0057264906860763996 0.0 0.0
0.0 0.029967112553011686 -0.02615041624474449 0.02523470638607942 0.0009157098586650801 0.004391940386103969 0.0 0.0
0.0 0.020167466455180028 -0.0176754509620934 0.016863564025294826 0.0008118869367985675 0.0030924766887560433 0.0 0.0
0.0 0.012343359184961173 -0.010902483090107575 0.0101988461525765 0.0007036369375310684 0.001977630804258527 0.0 0.0
0.0 0.006577839742511348 -0.005879618192037 0.005313570240655336 0.000566047951381662 0.0011388582977321057 0.0 0.0
0.0 0.002754943718211838 -0.0025057025073336437 0.0021475060667847374 0.000358196440548907 0.000570763802527781 0.0 0.0
0.0 0.0007847913120317639 -0.0005967303276474145 0.00048609003501142524 0.00011064029263598888 0.0001962440658763567 0.0 0.0
0.0 2.4439594723663943e-05 -1.4302614699019148e-05 1.1405361170791379e-05 2.8972535282277233e-06 8.776815513041163e-06 0.0 0.0
0.0 0.0 0.0 0.0 0.0 0.0 0.0 0.0
0.0 0.0 0.0 0.0 0.0 0.0 0.0 0.0
0.0 0.0 0.0 0.0 0.0 0.0 0.0 0.0
0.0 0.0 0.0 0.0 0.0 0.0 0.0 0.0
0.0 0.0 0.0 0.0 0.0 0.0 0.0 0.0
0.0 0.0 0.0 0.0 0.0 0.0 0.0 0.0
0.0 7.880743849527082e-05 -5.95613443905317e-05 4.710912058965397e-05 1.2452223800877863e-05 -1.5473571339071342e-05 0.0 0.0
0.0 0.0012710115843320598 -0.000968211736247746 0.0007968002707330392 0.0001714114655147061 -0.0001252772622821927 0.0 0.0
0.0 0.0036316108583495693 -0.0033029429324302213 0.0028733509756135203 0.0004295919568167017 -0.00027225546878156543 0.0 0.0
0.0 0.007964075043588176 -0.007127311639311904 0.006517670381024849 0.0006096412582870521 -0.0005031031623279279 0.0 0.0
0.0 0.014373771555457226 -0.01270263483866167 0.011970111706809951 0.0007325231318517104 -0.0008440603992647948 0.0 0.0
0.0 0.023014544605069815 -0.020195041236002118 0.01935687706835905 0.0008381641676430673 -0.0013268808773810317 0.0 0.0
0.0 0.03388805121538064 -0.02959819405811619 0.028652388433370552 0.0009458056247456375 -0.0019134809788802411 0.0 0.0
0.0 0.04690571315540503 -0.040815582846839414 0.03975865177485041 0.0010569310719890025 -0.0025249348870650173 0.0 0.0
0.0 0.06166276626379222 -0.05374417016956063 0.052574120185838735 0.0011700499837218733 -0.0031350444744273846 0.0 0.0
0.0 0.07835082992106313 -0.06828262769323776 0.06699811314563997 0.001284514547597796 -0.003749223684071532 0.0 0.0
0.0 0.09679049306629514 -0.08427958131673022 0.08287671112284319 0.001402870193886994 -0.004340898898450298 0.0 0.0
0.0 0.11648413225592447 -0.10136513775471617 0.09983767885244263 0.0015274589022735612 -0.0048029589104395505 0.0 0.0
0.0 0.13655454854290405 -0.11876041337553334 0.11710335156696253 0.0016570618085707874 -0.004846043359108763 0.0 0.0
0.0 0.15549008256669475 -0.13518417249187425 0.13339735309616071 0.0017868193957134744 -0.0040437782101277134 0.0 0.0
0.0 0.17110436889238168 -0.1487627805614457 0.14683752324695937 0.0019252573144863205 -0.0028394742133155283 0.0 0.0
0.0 0.1797953472412271 -0.15616132838057473 0.15401382399195254 0.0021475043886220926 -0.009148418845024164 0.0 0.0
0.0 0.17257749444679768 -0.14791055145415669 0.14509306041676526 0.0028174910373913657 -0.04629200090241792 0.0 0.0
0.0 0.17257749444678072 -0.1479105514541415 0.1450930604167496 0.0028174910373918102 0.046292000902426585 0.0 0.0
0.0 0.17979534724118304 -0.15616132838053615 0.15401382399191443 0.002147504388621614 0.009148418845039748 0.0 0.0
0.0 0.17110436889231262 -0.14876278056138545 0.1468375232469002 0.0019252573144852075 0.0028394742133256022 0.0 0.0
0.0 0.1554900825666058 -0.13518417249179696 0.13339735309608425 0.0017868193957126923 0.004043778210126152 0.0 0.0
0.0 0.1365545485428063 -0.11876041337544874 0.11710335156687807 0.0016570618085706282 0.004846043359107762 0.0 0.0
0.0 0.11648413225582449 -0.10136513775462934 0.09983767885235649 0.0015274589022727994 0.004802958910439576 0.0 0.0
0.0 0.09679049306619454 -0.08427958131664268 0.08287671112275685 0.0014028701938857543 0.004340898898446728 0.0 0.0
0.0 0.07835082992096154 -0.06828262769314963 0.0669981131455524 0.001284514547597202 0.0037492236840685686 0.0 0.0
0.0 0.061662766263697516 -0.05374417016947808 0.05257412018575742 0.0011700499837206467 0.003135044474425583 0.0 0.0
0.0 0.046905713155321 -0.04081558284676599 0.03975865177477827 0.0010569310719877308 0.002524934887058262 0.0 0.0
0.0 0.03388805121530926 -0.029598194058054125 0.02865238843330939 0.0009458056247447506 0.0019134809788742156 0.0 0.0
0.0 0.023014544605012763 -0.020195041235952012 0.019356877068309485 0.0008381641676425306 0.0013268808773783725 0.0 0.0
0.0 0.014373771555415171 -0.012702634838624237 0.011970111706773067 0.0007325231318511613 0.0008440603992621021 0.0 0.0
0.0 0.007964075043560667 -0.007127311639287176 0.0065176703810008495 0.0006096412582863233 0.0005031031623262343 0.0 0.0
0.0 0.003631610858335373 -0.003302942932416981 0.0028733509756011673 0.0004295919568158122 0.0002722554687802419 0.0 0.0
0.0 0.0012710115843253807 -0.0009682117362427142 0.000796800270728713 0.00017141146551400183 0.0001252772622816728 0.0 0.0
0.0 7.880743849418207e-05 -5.956134439022899e-05 4.710912058940729e-05 1.2452223800821696e-05 1.5473571338988136e-05 0.0 0.0
0.0 0.0 0.0 0.0 0.0 0.0 0.0 0.0
0.0 0.0 0.0 0.0 0.0 0.0 0.0 0.0
0.0 0.0 0.0 0.0 0.0 0.0 0.0 0.0