# vtk DataFile Version 3.0
Some data
ASCII
DATASET UNSTRUCTURED_GRID
POINTS 861 float
0.0 0.0 0.0
0.4 0.0 0.0
0.8 0.0 0.0
1.2000000000000002 0.0 0.0
1.6 0.0 0.0
2.0 0.0 0.0
2.4000000000000004 0.0 0.0
2.8000000000000003 0.0 0.0
3.2 0.0 0.0
3.6 0.0 0.0
4.0 0.0 0.0
4.4 0.0 0.0
4.800000000000001 0.0 0.0
5.2 0.0 0.0
5.6000000000000005 0.0 0.0
6.0 0.0 0.0
6.4 0.0 0.0
6.800000000000001 0.0 0.0
7.2 0.0 0.0
7.6000000000000005 0.0 0.0
8.0 0.0 0.0
8.4 0.0 0.0
8.8 0.0 0.0
9.200000000000001 0.0 0.0
9.600000000000001 0.0 0.0
10.0 0.0 0.0
10.4 0.0 0.0
10.8 0.0 0.0
11.200000000000001 0.0 0.0
11.600000000000001 0.0 0.0
12.0 0.0 0.0
12.4 0.0 0.0
12.8 0.0 0.0
13.200000000000001 0.0 0.0
13.600000000000001 0.0 0.0
14.0 0.0 0.0
14.4 0.0 0.0
14.8 0.0 0.0
15.200000000000001 0.0 0.0
15.600000000000001 0.0 0.0
16.0 0.0 0.0
0.0 0.1 0.0
0.4 0.1 0.0
0.8 0.1 0.0
1.2000000000000002 0.1 0.0
1.6 0.1 0.0
2.0 0.1 0.0
2.4000000000000004 0.1 0.0
2.8000000000000003 0.1 0.0
3.2 0.1 0.0
3.6 0.1 0.0
4.0 0.1 0.0
4.4 0.1 0.0
4.800000000000001 0.1 0.0
5.2 0.1 0.0
5.6000000000000005 0.1 0.0
6.0 0.1 0.0
6.4 0.1 0.0
6.800000000000001 0.1 0.0
7.2 0.1 0.0
7.6000000000000005 0.1 0.0
8.0 0.1 0.0
8.4 0.1 0.0
8.8 0.1 0.0
9.200000000000001 0.1 0.0
9.600000000000001 0.1 0.0
10.0 0.1 0.0
10.4 0.1 0.0
10.8 0.1 0.0
11.200000000000001 0.1 0.0
11.600000000000001 0.1 0.0
12.0 0.1 0.0
12.4 0.1 0.0
12.8 0.1 0.0
13.200000000000001 0.1 0.0
13.600000000000001 0.1 0.0
14.0 0.1 0.0
14.4 0.1 0.0
14.8 0.1 0.0
15.200000000000001 0.1 0.0
15.600000000000001 0.1 0.0
16.0 0.1 0.0
0.0 0.2 0.0
0.4 0.2 0.0
0.8 0.2 0.0
1.2000000000000002 0.2 0.0
1.6 0.2 0.0
2.0 0.2 0.0
2.4000000000000004 0.2 0.0
2.8000000000000003 0.2 0.0
3.2 0.2 0.0
3.6 0.2 0.0
4.0 0.2 0.0
4.4 0.2 0.0
4.800000000000001 0.2 0.0
5.2 0.2 0.0
5.6000000000000005 0.2 0.0
6.0 0.2 0.0
6.4 0.2 0.0
6.800000000000001 0.2 0.0
7.2 0.2 0.0
7.6000000000000005 0.2 0.0
8.0 0.2 0.0
8.4 0.2 0.0
8.8 0.2 0.0
9.200000000000001 0.2 0.0
9.600000000000001 0.2 0.0
10.0 0.2 0.0
10.4 0.2 0.0
10.8 0.2 0.0
11.200000000000001 0.2 0.0
11.600000000000001 0.2 0.0
12.0 0.2 0.0
12.4 0.2 0.0
12.8 0.2 0.0
13.200000000000001 0.2 0.0
13.600000000000001 0.2 0.0
14.0 0.2 0.0
14.4 0.2 0.0
14.8 0.2 0.0
15.200000000000001 0.2 0.0
15.600000000000001 0.2 0.0
16.0 0.2 0.0
0.0 0.30000000000000004 0.0
0.4 0.30000000000000004 0.0
0.8 0.30000000000000004 0.0
1.2000000000000002 0.30000000000000004 0.0
1.6 0.30000000000000004 0.0
2.0 0.30000000000000004 0.0
2.4000000000000004 0.30000000000000004 0.0
2.8000000000000003 0.30000000000000004 0.0
3.2 0.30000000000000004 0.0
3.6 0.30000000000000004 0.0
4.0 0.30000000000000004 0.0
4.4 0.30000000000000004 0.0
4.800000000000001 0.30000000000000004 0.0
5.2 0.30000000000000004 0.0
5.6000000000000005 0.30000000000000004 0.0
6.0 0.30000000000000004 0.0
6.4 0.30000000000000004 0.0
6.800000000000001 0.30000000000000004 0.0
7.2 0.30000000000000004 0.0
7.6000000000000005 0.30000000000000004 0.0
8.0 0.30000000000000004 0.0
8.4 0.30000000000000004 0.0
8.8 0.30000000000000004 0.0
9.200000000000001 0.30000000000000004 0.0
9.600000000000001 0.30000000000000004 0.0
10.0 0.30000000000000004 0.0
10.4 0.30000000000000004 0.0
10.8 0.30000000000000004 0.0
11.200000000000001 0.30000000000000004 0.0
11.600000000000001 0.30000000000000004 0.0
12.0 0.30000000000000004 0.0
12.4 0.30000000000000004 0.0
12.8 0.30000000000000004 0.0
13.200000000000001 0.30000000000000004 0.0
13.600000000000001 0.30000000000000004 0.0
14.0 0.30000000000000004 0.0
14.4 0.30000000000000004 0.0
14.8 0.30000000000000004 0.0
15.200000000000001 0.30000000000000004 0.0
15.600000000000001 0.30000000000000004 0.0
16.0 0.30000000000000004 0.0
0.0 0.4 0.0
0.4 0.4 0.0
0.8 0.4 0.0
1.2000000000000002 0.4 0.0
1.6 0.4 0.0
2.0 0.4 0.0
2.4000000000000004 0.4 0.0
2.8000000000000003 0.4 0.0
3.2 0.4 0.0
3.6 0.4 0.0
4.0 0.4 0.0
4.4 0.4 0.0
4.800000000000001 0.4 0.0
5.2 0.4 0.0
5.6000000000000005 0.4 0.0
6.0 0.4 0.0
6.4 0.4 0.0
6.800000000000001 0.4 0.0
7.2 0.4 0.0
7.6000000000000005 0.4 0.0
8.0 0.4 0.0
8.4 0.4 0.0
8.8 0.4 0.0
9.200000000000001 0.4 0.0
9.600000000000001 0.4 0.0
10.0 0.4 0.0
10.4 0.4 0.0
10.8 0.4 0.0
11.200000000000001 0.4 0.0
11.600000000000001 0.4 0.0
12.0 0.4 0.0
12.4 0.4 0.0
12.8 0.4 0.0
13.200000000000001 0.4 0.0
13.600000000000001 0.4 0.0
14.0 0.4 0.0
14.4 0.4 0.0
14.8 0.4 0.0
15.200000000000001 0.4 0.0
15.600000000000001 0.4 0.0
16.0 0.4 0.0
0.0 0.5 0.0
0.4 0.5 0.0
0.8 0.5 0.0
1.2000000000000002 0.5 0.0
1.6 0.5 0.0
2.0 0.5 0.0
2.4000000000000004 0.5 0.0
2.8000000000000003 0.5 0.0
3.2 0.5 0.0
3.6 0.5 0.0
4.0 0.5 0.0
4.4 0.5 0.0
4.800000000000001 0.5 0.0
5.2 0.5 0.0
5.6000000000000005 0.5 0.0
6.0 0.5 0.0
6.4 0.5 0.0
6.800000000000001 0.5 0.0
7.2 0.5 0.0
7.6000000000000005 0.5 0.0
8.0 0.5 0.0
8.4 0.5 0.0
8.8 0.5 0.0
9.200000000000001 0.5 0.0
9.600000000000001 0.5 0.0
10.0 0.5 0.0
10.4 0.5 0.0
10.8 0.5 0.0
11.200000000000001 0.5 0.0
11.600000000000001 0.5 0.0
12.0 0.5 0.0
12.4 0.5 0.0
12.8 0.5 0.0
13.200000000000001 0.5 0.0
13.600000000000001 0.5 0.0
14.0 0.5 0.0
14.4 0.5 0.0
14.8 0.5 0.0
15.200000000000001 0.5 0.0
15.600000000000001 0.5 0.0
16.0 0.5 0.0
0.0 0.6000000000000001 0.0
0.4 0.6000000000000001 0.0
0.8 0.6000000000000001 0.0
1.2000000000000002 0.6000000000000001 0.0
1.6 0.6000000000000001 0.0
2.0 0.6000000000000001 0.0
2.4000000000000004 0.6000000000000001 0.0
2.8000000000000003 0.6000000000000001 0.0
3.2 0.6000000000000001 0.0
3.6 0.6000000000000001 0.0
4.0 0.6000000000000001 0.0
4.4 0.6000000000000001 0.0
4.800000000000001 0.6000000000000001 0.0
5.2 0.6000000000000001 0.0
5.6000000000000005 0.6000000000000001 0.0
6.0 0.6000000000000001 0.0
6.4 0.6000000000000001 0.0
6.800000000000001 0.6000000000000001 0.0
7.2 0.6000000000000001 0.0
7.6000000000000005 0.6000000000000001 0.0
8.0 0.6000000000000001 0.0
8.4 0.6000000000000001 0.0
8.8 0.6000000000000001 0.0
9.200000000000001 0.6000000000000001 0.0
9.600000000000001 0.6000000000000001 0.0
10.0 0.6000000000000001 0.0
10.4 0.6000000000000001 0.0
10.8 0.6000000000000001 0.0
11.200000000000001 0.6000000000000001 0.0
11.600000000000001 0.6000000000000001 0.0
12.0 0.6000000000000001 0.0
12.4 0.6000000000000001 0.0
12.8 0.6000000000000001 0.0
13.200000000000001 0.6000000000000001 0.0
13.600000000000001 0.6000000000000001 0.0
14.0 0.6000000000000001 0.0
14.4 0.6000000000000001 0.0
14.8 0.6000000000000001 0.0
15.200000000000001 0.6000000000000001 0.0
15.600000000000001 0.6000000000000001 0.0
16.0 0.6000000000000001 0.0
0.0 0.7000000000000001 0.0
0.4 0.7000000000000001 0.0
0.8 0.7000000000000001 0.0
1.2000000000000002 0.7000000000000001 0.0
1.6 0.7000000000000001 0.0
2.0 0.7000000000000001 0.0
2.4000000000000004 0.7000000000000001 0.0
2.8000000000000003 0.7000000000000001 0.0
3.2 0.7000000000000001 0.0
3.6 0.7000000000000001 0.0
4.0 0.7000000000000001 0.0
4.4 0.7000000000000001 0.0
4.800000000000001 0.7000000000000001 0.0
5.2 0.7000000000000001 0.0
5.6000000000000005 0.7000000000000001 0.0
6.0 0.7000000000000001 0.0
6.4 0.7000000000000001 0.0
6.800000000000001 0.7000000000000001 0.0
7.2 0.7000000000000001 0.0
7.6000000000000005 0.7000000000000001 0.0
8.0 0.7000000000000001 0.0
8.4 0.7000000000000001 0.0
8.8 0.7000000000000001 0.0
9.200000000000001 0.7000000000000001 0.0
9.600000000000001 0.7000000000000001 0.0
10.0 0.7000000000000001 0.0
10.4 0.7000000000000001 0.0
10.8 0.7000000000000001 0.0
11.200000000000001 0.7000000000000001 0.0
11.600000000000001 0.7000000000000001 0.0
12.0 0.7000000000000001 0.0
12.4 0.7000000000000001 0.0
12.8 0.7000000000000001 0.0
13.200000000000001 0.7000000000000001 0.0
13.600000000000001 0.7000000000000001 0.0
14.0 0.7000000000000001 0.0
14.4 0.7000000000000001 0.0
14.8 0.7000000000000001 0.0
15.200000000000001 0.7000000000000001 0.0
15.600000000000001 0.7000000000000001 0.0
16.0 0.7000000000000001 0.0
0.0 0.8 0.0
0.4 0.8 0.0
0.8 0.8 0.0
1.2000000000000002 0.8 0.0
1.6 0.8 0.0
2.0 0.8 0.0
2.4000000000000004 0.8 0.0
2.8000000000000003 0.8 0.0
3.2 0.8 0.0
3.6 0.8 0.0
4.0 0.8 0.0
4.4 0.8 0.0
4.800000000000001 0.8 0.0
5.2 0.8 0.0
5.6000000000000005 0.8 0.0
6.0 0.8 0.0
6.4 0.8 0.0
6.800000000000001 0.8 0.0
7.2 0.8 0.0
7.6000000000000005 0.8 0.0
8.0 0.8 0.0
8.4 0.8 0.0
8.8 0.8 0.0
9.200000000000001 0.8 0.0
9.600000000000001 0.8 0.0
10.0 0.8 0.0
10.4 0.8 0.0
10.8 0.8 0.0
11.200000000000001 0.8 0.0
11.600000000000001 0.8 0.0
12.0 0.8 0.0
12.4 0.8 0.0
12.8 0.8 0.0
13.200000000000001 0.8 0.0
13.600000000000001 0.8 0.0
14.0 0.8 0.0
14.4 0.8 0.0
14.8 0.8 0.0
15.200000000000001 0.8 0.0
15.600000000000001 0.8 0.0
16.0 0.8 0.0
0.0 0.9 0.0
0.4 0.9 0.0
0.8 0.9 0.0
1.2000000000000002 0.9 0.0
1.6 0.9 0.0
2.0 0.9 0.0
2.4000000000000004 0.9 0.0
2.8000000000000003 0.9 0.0
3.2 0.9 0.0
3.6 0.9 0.0
4.0 0.9 0.0
4.4 0.9 0.0
4.800000000000001 0.9 0.0
5.2 0.9 0.0
5.6000000000000005 0.9 0.0
6.0 0.9 0.0
6.4 0.9 0.0
6.800000000000001 0.9 0.0
7.2 0.9 0.0
7.6000000000000005 0.9 0.0
8.0 0.9 0.0
8.4 0.9 0.0
8.8 0.9 0.0
9.200000000000001 0.9 0.0
9.600000000000001 0.9 0.0
10.0 0.9 0.0
10.4 0.9 0.0
10.8 0.9 0.0
11.200000000000001 0.9 0.0
11.600000000000001 0.9 0.0
12.0 0.9 0.0
12.4 0.9 0.0
12.8 0.9 0.0
13.200000000000001 0.9 0.0
13.600000000000001 0.9 0.0
14.0 0.9 0.0
14.4 0.9 0.0
14.8 0.9 0.0
15.200000000000001 0.9 0.0
15.600000000000001 0.9 0.0
16.0 0.9 0.0
0.0 1.0 0.0
0.4 1.0 0.0
0.8 1.0 0.0
1.2000000000000002 1.0 0.0
1.6 1.0 0.0
2.0 1.0 0.0
2.4000000000000004 1.0 0.0
2.8000000000000003 1.0 0.0
3.2 1.0 0.0
3.6 1.0 0.0
4.0 1.0 0.0
4.4 1.0 0.0
4.800000000000001 1.0 0.0
5.2 1.0 0.0
5.6000000000000005 1.0 0.0
6.0 1.0 0.0
6.4 1.0 0.0
6.800000000000001 1.0 0.0
7.2 1.0 0.0
7.6000000000000005 1.0 0.0
8.0 1.0 0.0
8.4 1.0 0.0
8.8 1.0 0.0
9.200000000000001 1.0 0.0
9.600000000000001 1.0 0.0
10.0 1.0 0.0
10.4 1.0 0.0
10.8 1.0 0.0
11.200000000000001 1.0 0.0
11.600000000000001 1.0 0.0
12.0 1.0 0.0
12.4 1.0 0.0
12.8 1.0 0.0
13.200000000000001 1.0 0.0
13.600000000000001 1.0 0.0
14.0 1.0 0.0
14.4 1.0 0.0
14.8 1.0 0.0
15.200000000000001 1.0 0.0
15.600000000000001 1.0 0.0
16.0 1.0 0.0
0.0 1.1 0.0
0.4 1.1 0.0
0.8 1.1 0.0
1.2000000000000002 1.1 0.0
1.6 1.1 0.0
2.0 1.1 0.0
2.4000000000000004 1.1 0.0
2.8000000000000003 1.1 0.0
3.2 1.1 0.0
3.6 1.1 0.0
4.0 1.1 0.0
4.4 1.1 0.0
4.800000000000001 1.1 0.0
5.2 1.1 0.0
5.6000000000000005 1.1 0.0
6.0 1.1 0.0
6.4 1.1 0.0
6.800000000000001 1.1 0.0
7.2 1.1 0.0
7.6000000000000005 1.1 0.0
8.0 1.1 0.0
8.4 1.1 0.0
8.8 1.1 0.0
9.200000000000001 1.1 0.0
9.600000000000001 1.1 0.0
10.0 1.1 0.0
10.4 1.1 0.0
10.8 1.1 0.0
11.200000000000001 1.1 0.0
11.600000000000001 1.1 0.0
12.0 1.1 0.0
12.4 1.1 0.0
12.8 1.1 0.0
13.200000000000001 1.1 0.0
13.600000000000001 1.1 0.0
14.0 1.1 0.0
14.4 1.1 0.0
14.8 1.1 0.0
15.200000000000001 1.1 0.0
15.600000000000001 1.1 0.0
16.0 1.1 0.0
0.0 1.2000000000000002 0.0
0.4 1.2000000000000002 0.0
0.8 1.2000000000000002 0.0
1.2000000000000002 1.2000000000000002 0.0
1.6 1.2000000000000002 0.0
2.0 1.2000000000000002 0.0
2.4000000000000004 1.2000000000000002 0.0
2.8000000000000003 1.2000000000000002 0.0
3.2 1.2000000000000002 0.0
3.6 1.2000000000000002 0.0
4.0 1.2000000000000002 0.0
4.4 1.2000000000000002 0.0
4.800000000000001 1.2000000000000002 0.0
5.2 1.2000000000000002 0.0
5.6000000000000005 1.2000000000000002 0.0
6.0 1.2000000000000002 0.0
6.4 1.2000000000000002 0.0
6.800000000000001 1.2000000000000002 0.0
7.2 1.2000000000000002 0.0
7.6000000000000005 1.2000000000000002 0.0
8.0 1.2000000000000002 0.0
8.4 1.2000000000000002 0.0
8.8 1.2000000000000002 0.0
9.200000000000001 1.2000000000000002 0.0
9.600000000000001 1.2000000000000002 0.0
10.0 1.2000000000000002 0.0
10.4 1.2000000000000002 0.0
10.8 1.2000000000000002 0.0
11.200000000000001 1.2000000000000002 0.0
11.600000000000001 1.2000000000000002 0.0
12.0 1.2000000000000002 0.0
12.4 1.2000000000000002 0.0
12.8 1.2000000000000002 0.0
13.200000000000001 1.2000000000000002 0.0
13.600000000000001 1.2000000000000002 0.0
14.0 1.2000000000000002 0.0
14.4 1.2000000000000002 0.0
14.8 1.2000000000000002 0.0
15.200000000000001 1.2000000000000002 0.0
15.600000000000001 1.2000000000000002 0.0
16.0 1.2000000000000002 0.0
0.0 1.3 0.0
0.4 1.3 0.0
0.8 1.3 0.0
1.2000000000000002 1.3 0.0
1.6 1.3 0.0
2.0 1.3 0.0
2.4000000000000004 1.3 0.0
2.8000000000000003 1.3 0.0
3.2 1.3 0.0
3.6 1.3 0.0
4.0 1.3 0.0
4.4 1.3 0.0
4.800000000000001 1.3 0.0
5.2 1.3 0.0
5.6000000000000005 1.3 0.0
6.0 1.3 0.0
6.4 1.3 0.0
6.800000000000001 1.3 0.0
7.2 1.3 0.0
7.6000000000000005 1.3 0.0
8.0 1.3 0.0
8.4 1.3 0.0
8.8 1.3 0.0
9.200000000000001 1.3 0.0
9.600000000000001 1.3 0.0
10.0 1.3 0.0
10.4 1.3 0.0
10.8 1.3 0.0
11.200000000000001 1.3 0.0
11.600000000000001 1.3 0.0
12.0 1.3 0.0
12.4 1.3 0.0
12.8 1.3 0.0
13.200000000000001 1.3 0.0
13.600000000000001 1.3 0.0
14.0 1.3 0.0
14.4 1.3 0.0
14.8 1.3 0.0
15.200000000000001 1.3 0.0
15.600000000000001 1.3 0.0
16.0 1.3 0.0
0.0 1.4000000000000001 0.0
0.4 1.4000000000000001 0.0
0.8 1.4000000000000001 0.0
1.2000000000000002 1.4000000000000001 0.0
1.6 1.4000000000000001 0.0
2.0 1.4000000000000001 0.0
2.4000000000000004 1.4000000000000001 0.0
2.8000000000000003 1.4000000000000001 0.0
3.2 1.4000000000000001 0.0
3.6 1.4000000000000001 0.0
4.0 1.4000000000000001 0.0
4.4 1.4000000000000001 0.0
4.800000000000001 1.4000000000000001 0.0
5.2 1.4000000000000001 0.0
5.6000000000000005 1.4000000000000001 0.0
6.0 1.4000000000000001 0.0
6.4 1.4000000000000001 0.0
6.800000000000001 1.4000000000000001 0.0
7.2 1.4000000000000001 0.0
7.6000000000000005 1.4000000000000001 0.0
8.0 1.4000000000000001 0.0
8.4 1.4000000000000001 0.0
8.8 1.4000000000000001 0.0
9.200000000000001 1.4000000000000001 0.0
9.600000000000001 1.4000000000000001 0.0
10.0 1.4000000000000001 0.0
10.4 1.4000000000000001 0.0
10.8 1.4000000000000001 0.0
11.200000000000001 1.4000000000000001 0.0
11.600000000000001 1.4000000000000001 0.0
12.0 1.4000000000000001 0.0
12.4 1.4000000000000001 0.0
12.8 1.4000000000000001 0.0
13.200000000000001 1.4000000000000001 0.0
13.600000000000001 1.4000000000000001 0.0
14.0 1.4000000000000001 0.0
14.4 1.4000000000000001 0.0
14.8 1.4000000000000001 0.0
15.200000000000001 1.4000000000000001 0.0
15.600000000000001 1.4000000000000001 0.0
16.0 1.4000000000000001 0.0
0.0 1.5 0.0
0.4 1.5 0.0
0.8 1.5 0.0
1.2000000000000002 1.5 0.0
1.6 1.5 0.0
2.0 1.5 0.0
2.4000000000000004 1.5 0.0
2.8000000000000003 1.5 0.0
3.2 1.5 0.0
3.6 1.5 0.0
4.0 1.5 0.0
4.4 1.5 0.0
4.800000000000001 1.5 0.0
5.2 1.5 0.0
5.6000000000000005 1.5 0.0
6.0 1.5 0.0
6.4 1.5 0.0
6.800000000000001 1.5 0.0
7.2 1.5 0.0
7.6000000000000005 1.5 0.0
8.0 1.5 0.0
8.4 1.5 0.0
8.8 1.5 0.0
9.200000000000001 1.5 0.0
9.600000000000001 1.5 0.0
10.0 1.5 0.0
10.4 1.5 0.0
10.8 1.5 0.0
11.200000000000001 1.5 0.0
11.600000000000001 1.5 0.0
12.0 1.5 0.0
12.4 1.5 0.0
12.8 1.5 0.0
13.200000000000001 1.5 0.0
13.600000000000001 1.5 0.0
14.0 1.5 0.0
14.4 1.5 0.0
14.8 1.5 0.0
15.200000000000001 1.5 0.0
15.600000000000001 1.5 0.0
16.0 1.5 0.0
0.0 1.6 0.0
0.4 1.6 0.0
0.8 1.6 0.0
1.2000000000000002 1.6 0.0
1.6 1.6 0.0
2.0 1.6 0.0
2.4000000000000004 1.6 0.0
2.8000000000000003 1.6 0.0
3.2 1.6 0.0
3.6 1.6 0.0
4.0 1.6 0.0
4.4 1.6 0.0
4.800000000000001 1.6 0.0
5.2 1.6 0.0
5.6000000000000005 1.6 0.0
6.0 1.6 0.0
6.4 1.6 0.0
6.800000000000001 1.6 0.0
7.2 1.6 0.0
7.6000000000000005 1.6 0.0
8.0 1.6 0.0
8.4 1.6 0.0
8.8 1.6 0.0
9.200000000000001 1.6 0.0
9.600000000000001 1.6 0.0
10.0 1.6 0.0
10.4 1.6 0.0
10.8 1.6 0.0
11.200000000000001 1.6 0.0
11.600000000000001 1.6 0.0
12.0 1.6 0.0
12.4 1.6 0.0
12.8 1.6 0.0
13.200000000000001 1.6 0.0
13.600000000000001 1.6 0.0
14.0 1.6 0.0
14.4 1.6 0.0
14.8 1.6 0.0
15.200000000000001 1.6 0.0
15.600000000000001 1.6 0.0
16.0 1.6 0.0
0.0 1.7000000000000002 0.0
0.4 1.7000000000000002 0.0
0.8 1.7000000000000002 0.0
1.2000000000000002 1.7000000000000002 0.0
1.6 1.7000000000000002 0.0
2.0 1.7000000000000002 0.0
2.4000000000000004 1.7000000000000002 0.0
2.8000000000000003 1.7000000000000002 0.0
3.2 1.7000000000000002 0.0
3.6 1.7000000000000002 0.0
4.0 1.7000000000000002 0.0
4.4 1.7000000000000002 0.0
4.800000000000001 1.7000000000000002 0.0
5.2 1.7000000000000002 0.0
5.6000000000000005 1.7000000000000002 0.0
6.0 1.7000000000000002 0.0
6.4 1.7000000000000002 0.0
6.800000000000001 1.7000000000000002 0.0
7.2 1.7000000000000002 0.0
7.6000000000000005 1.7000000000000002 0.0
8.0 1.7000000000000002 0.0
8.4 1.7000000000000002 0.0
8.8 1.7000000000000002 0.0
9.200000000000001 1.7000000000000002 0.0
9.600000000000001 1.7000000000000002 0.0
10.0 1.7000000000000002 0.0
10.4 1.7000000000000002 0.0
10.8 1.7000000000000002 0.0
11.200000000000001 1.7000000000000002 0.0
11.600000000000001 1.7000000000000002 0.0
12.0 1.7000000000000002 0.0
12.4 1.7000000000000002 0.0
12.8 1.7000000000000002 0.0
13.200000000000001 1.7000000000000002 0.0
13.600000000000001 1.7000000000000002 0.0
14.0 1.7000000000000002 0.0
14.4 1.7000000000000002 0.0
14.8 1.7000000000000002 0.0
15.200000000000001 1.7000000000000002 0.0
15.600000000000001 1.7000000000000002 0.0
16.0 1.7000000000000002 0.0
0.0 1.8 0.0
0.4 1.8 0.0
0.8 1.8 0.0
1.2000000000000002 1.8 0.0
1.6 1.8 0.0
2.0 1.8 0.0
2.4000000000000004 1.8 0.0
2.8000000000000003 1.8 0.0
3.2 1.8 0.0
3.6 1.8 0.0
4.0 1.8 0.0
4.4 1.8 0.0
4.800000000000001 1.8 0.0
5.2 1.8 0.0
5.6000000000000005 1.8 0.0
6.0 1.8 0.0
6.4 1.8 0.0
6.800000000000001 1.8 0.0
7.2 1.8 0.0
7.6000000000000005 1.8 0.0
8.0 1.8 0.0
8.4 1.8 0.0
8.8 1.8 0.0
9.200000000000001 1.8 0.0
9.600000000000001 1.8 0.0
10.0 1.8 0.0
10.4 1.8 0.0
10.8 1.8 0.0
11.200000000000001 1.8 0.0
11.600000000000001 1.8 0.0
12.0 1.8 0.0
12.4 1.8 0.0
12.8 1.8 0.0
13.200000000000001 1.8 0.0
13.600000000000001 1.8 0.0
14.0 1.8 0.0
14.4 1.8 0.0
14.8 1.8 0.0
15.200000000000001 1.8 0.0
15.600000000000001 1.8 0.0
16.0 1.8 0.0
0.0 1.9000000000000001 0.0
0.4 1.9000000000000001 0.0
0.8 1.9000000000000001 0.0
1.2000000000000002 1.9000000000000001 0.0
1.6 1.9000000000000001 0.0
2.0 1.9000000000000001 0.0
2.4000000000000004 1.9000000000000001 0.0
2.8000000000000003 1.9000000000000001 0.0
3.2 1.9000000000000001 0.0
3.6 1.9000000000000001 0.0
4.0 1.9000000000000001 0.0
4.4 1.9000000000000001 0.0
4.800000000000001 1.9000000000000001 0.0
5.2 1.9000000000000001 0.0
5.6000000000000005 1.9000000000000001 0.0
6.0 1.9000000000000001 0.0
6.4 1.9000000000000001 0.0
6.800000000000001 1.9000000000000001 0.0
7.2 1.9000000000000001 0.0
7.6000000000000005 1.9000000000000001 0.0
8.0 1.9000000000000001 0.0
8.4 1.9000000000000001 0.0
8.8 1.9000000000000001 0.0
9.200000000000001 1.9000000000000001 0.0
9.600000000000001 1.9000000000000001 0.0
10.0 1.9000000000000001 0.0
10.4 1.9000000000000001 0.0
10.8 1.9000000000000001 0.0
11.200000000000001 1.9000000000000001 0.0
11.600000000000001 1.9000000000000001 0.0
12.0 1.9000000000000001 0.0
12.4 1.9000000000000001 0.0
12.8 1.9000000000000001 0.0
13.200000000000001 1.9000000000000001 0.0
13.600000000000001 1.9000000000000001 0.0
14.0 1.9000000000000001 0.0
14.4 1.9000000000000001 0.0
14.8 1.9000000000000001 0.0
15.200000000000001 1.9000000000000001 0.0
15.600000000000001 1.9000000000000001 0.0
16.0 1.9000000000000001 0.0
0.0 2.0 0.0
0.4 2.0 0.0
0.8 2.0 0.0
1.2000000000000002 2.0 0.0
1.6 2.0 0.0
2.0 2.0 0.0
2.4000000000000004 2.0 0.0
2.8000000000000003 2.0 0.0
3.2 2.0 0.0
3.6 2.0 0.0
4.0 2.0 0.0
4.4 2.0 0.0
4.800000000000001 2.0 0.0
5.2 2.0 0.0
5.6000000000000005 2.0 0.0
6.0 2.0 0.0
6.4 2.0 0.0
6.800000000000001 2.0 0.0
7.2 2.0 0.0
7.6000000000000005 2.0 0.0
8.0 2.0 0.0
8.4 2.0 0.0
8.8 2.0 0.0
9.200000000000001 2.0 0.0
9.600000000000001 2.0 0.0
10.0 2.0 0.0
10.4 2.0 0.0
10.8 2.0 0.0
11.200000000000001 2.0 0.0
11.600000000000001 2.0 0.0
12.0 2.0 0.0
12.4 2.0 0.0
12.8 2.0 0.0
13.200000000000001 2.0 0.0
13.600000000000001 2.0 0.0
14.0 2.0 0.0
14.4 2.0 0.0
14.8 2.0 0.0
15.200000000000001 2.0 0.0
15.600000000000001 2.0 0.0
16.0 2.0 0.0
CELLS 800 4000
4 0 1 42 41
4 1 2 43 42
4 2 3 44 43
4 3 4 45 44
4 4 5 46 45
4 5 6 47 46
4 6 7 48 47
4 7 8 49 48
4 8 9 50 49
4 9 10 51 50
4 10 11 52 51
4 11 12 53 52
4 12 13 54 53
4 13 14 55 54
4 14 15 56 55
4 15 16 57 56
4 16 17 58 57
4 17 18 59 58
4 18 19 60 59
4 19 20 61 60
4 20 21 62 61
4 21 22 63 62
4 22 23 64 63
4 23 24 65 64
4 24 25 66 65
4 25 26 67 66
4 26 27 68 67
4 27 28 69 68
4 28 29 70 69
4 29 30 71 70
4 30 31 72 71
4 31 32 73 72
4 32 33 74 73
4 33 34 75 74
4 34 35 76 75
4 35 36 77 76
4 36 37 78 77
4 37 38 79 78
4 38 39 80 79
4 39 40 81 80
4 41 42 83 82
4 42 43 84 83
4 43 44 85 84
4 44 45 86 85
4 45 46 87 86
4 46 47 88 87
4 47 48 89 88
4 48 49 90 89
4 49 50 91 90
4 50 51 92 91
4 51 52 93 92
4 52 53 94 93
4 53 54 95 94
4 54 55 96 95
4 55 56 97 96
4 56 57 98 97
4 57 58 99 98
4 58 59 100 99
4 59 60 101 100
4 60 61 102 101
4 61 62 103 102
4 62 63 104 103
4 63 64 105 104
4 64 65 106 105
4 65 66 107 106
4 66 67 108 107
4 67 68 109 108
4 68 69 110 109
4 69 70 111 110
4 70 71 112 111
4 71 72 113 112
4 72 73 114 113
4 73 74 115 114
4 74 75 116 115
4 75 76 117 116
4 76 77 118 117
4 77 78 119 118
4 78 79 120 119
4 79 80 121 120
4 80 81 122 121
4 82 83 124 123
4 83 84 125 124
4 84 85 126 125
4 85 86 127 126
4 86 87 128 127
4 87 88 129 128
4 88 89 130 129
4 89 90 131 130
4 90 91 132 131
4 91 92 133 132
4 92 93 134 133
4 93 94 135 134
4 94 95 136 135
4 95 96 137 136
4 96 97 138 137
4 97 98 139 138
4 98 99 140 139
4 99 100 141 140
4 100 101 142 141
4 101 102 143 142
4 102 103 144 143
4 103 104 145 144
4 104 105 146 145
4 105 106 147 146
4 106 107 148 147
4 107 108 149 148
4 108 109 150 149
4 109 110 151 150
4 110 111 152 151
4 111 112 153 152
4 112 113 154 153
4 113 114 155 154
4 114 115 156 155
4 115 116 157 156
4 116 117 158 157
4 117 118 159 158
4 118 119 160 159
4 119 120 161 160
4 120 121 162 161
4 121 122 163 162
4 123 124 165 164
4 124 125 166 165
4 125 126 167 166
4 126 127 168 167
4 127 128 169 168
4 128 129 170 169
4 129 130 171 170
4 130 131 172 171
4 131 132 173 172
4 132 133 174 173
4 133 134 175 174
4 134 135 176 175
4 135 136 177 176
4 136 137 178 177
4 137 138 179 178
4 138 139 180 179
4 139 140 181 180
4 140 141 182 181
4 141 142 183 182
4 142 143 184 183
4 143 144 185 184
4 144 145 186 185
4 145 146 187 186
4 146 147 188 187
4 147 148 189 188
4 148 149 190 189
4 149 150 191 190
4 150 151 192 191
4 151 152 193 192
4 152 153 194 193
4 153 154 195 194
4 154 155 196 195
4 155 156 197 196
4 156 157 198 197
4 157 158 199 198
4 158 159 200 199
4 159 160 201 200
4 160 161 202 201
4 161 162 203 202
4 162 163 204 203
4 164 165 206 205
4 165 166 207 206
4 166 167 208 207
4 167 168 209 208
4 168 169 210 209
4 169 170 211 210
4 170 171 212 211
4 171 172 213 212
4 172 173 214 213
4 173 174 215 214
4 174 175 216 215
4 175 176 217 216
4 176 177 218 217
4 177 178 219 218
4 178 179 220 219
4 179 180 221 220
4 180 181 222 221
4 181 182 223 222
4 182 183 224 223
4 183 184 225 224
4 184 185 226 225
4 185 186 227 226
4 186 187 228 227
4 187 188 229 228
4 188 189 230 229
4 189 190 231 230
4 190 191 232 231
4 191 192 233 232
4 192 193 234 233
4 193 194 235 234
4 194 195 236 235
4 195 196 237 236
4 196 197 238 237
4 197 198 239 238
4 198 199 240 239
4 199 200 241 240
4 200 201 242 241
4 201 202 243 242
4 202 203 244 243
4 203 204 245 244
4 205 206 247 246
4 206 207 248 247
4 207 208 249 248
4 208 209 250 249
4 209 210 251 250
4 210 211 252 251
4 211 212 253 252
4 212 213 254 253
4 213 214 255 254
4 214 215 256 255
4 215 216 257 256
4 216 217 258 257
4 217 218 259 258
4 218 219 260 259
4 219 220 261 260
4 220 221 262 261
4 221 222 263 262
4 222 223 264 263
4 223 224 265 264
4 224 225 266 265
4 225 226 267 266
4 226 227 268 267
4 227 228 269 268
4 228 229 270 269
4 229 230 271 270
4 230 231 272 271
4 231 232 273 272
4 232 233 274 273
4 233 234 275 274
4 234 235 276 275
4 235 236 277 276
4 236 237 278 277
4 237 238 279 278
4 238 239 280 279
4 239 240 281 280
4 240 241 282 281
4 241 242 283 282
4 242 243 284 283
4 243 244 285 284
4 244 245 286 285
4 246 247 288 287
4 247 248 289 288
4 248 249 290 289
4 249 250 291 290
4 250 251 292 291
4 251 252 293 292
4 252 253 294 293
4 253 254 295 294
4 254 255 296 295
4 255 256 297 296
4 256 257 298 297
4 257 258 299 298
4 258 259 300 299
4 259 260 301 300
4 260 261 302 301
4 261 262 303 302
4 262 263 304 303
4 263 264 305 304
4 264 265 306 305
4 265 266 307 306
4 266 267 308 307
4 267 268 309 308
4 268 269 310 309
4 269 270 311 310
4 270 271 312 311
4 271 272 313 312
4 272 273 314 313
4 273 274 315 314
4 274 275 316 315
4 275 276 317 316
4 276 277 318 317
4 277 278 319 318
4 278 279 320 319
4 279 280 321 320
4 280 281 322 321
4 281 282 323 322
4 282 283 324 323
4 283 284 325 324
4 284 285 326 325
4 285 286 327 326
4 287 288 329 328
4 288 289 330 329
4 289 290 331 330
4 290 291 332 331
4 291 292 333 332
4 292 293 334 333
4 293 294 335 334
4 294 295 336 335
4 295 296 337 336
4 296 297 338 337
4 297 298 339 338
4 298 299 340 339
4 299 300 341 340
4 300 301 342 341
4 301 302 343 342
4 302 303 344 343
4 303 304 345 344
4 304 305 346 345
4 305 306 347 346
4 306 307 348 347
4 307 308 349 348
4 308 309 350 349
4 309 310 351 350
4 310 311 352 351
4 311 312 353 352
4 312 313 354 353
4 313 314 355 354
4 314 315 356 355
4 315 316 357 356
4 316 317 358 357
4 317 318 359 358
4 318 319 360 359
4 319 320 361 360
4 320 321 362 361
4 321 322 363 362
4 322 323 364 363
4 323 324 365 364
4 324 325 366 365
4 325 326 367 366
4 326 327 368 367
4 328 329 370 369
4 329 330 371 370
4 330 331 372 371
4 331 332 373 372
4 332 333 374 373
4 333 334 375 374
4 334 335 376 375
4 335 336 377 376
4 336 337 378 377
4 337 338 379 378
4 338 339 380 379
4 339 340 381 380
4 340 341 382 381
4 341 342 383 382
4 342 343 384 383
4 343 344 385 384
4 344 345 386 385
4 345 346 387 386
4 346 347 388 387
4 347 348 389 388
4 348 349 390 389
4 349 350 391 390
4 350 351 392 391
4 351 352 393 392
4 352 353 394 393
4 353 354 395 394
4 354 355 396 395
4 355 356 397 396
4 356 357 398 397
4 357 358 399 398
4 358 359 400 399
4 359 360 401 400
4 360 361 402 401
4 361 362 403 402
4 362 363 404 403
4 363 364 405 404
4 364 365 406 405
4 365 366 407 406
4 366 367 408 407
4 367 368 409 408
4 369 370 411 410
4 370 371 412 411
4 371 372 413 412
4 372 373 414 413
4 373 374 415 414
4 374 375 416 415
4 375 376 417 416
4 376 377 418 417
4 377 378 419 418
4 378 379 420 419
4 379 380 421 420
4 380 381 422 421
4 381 382 423 422
4 382 383 424 423
4 383 384 425 424
4 384 385 426 425
4 385 386 427 426
4 386 387 428 427
4 387 388 429 428
4 388 389 430 429
4 389 390 431 430
4 390 391 432 431
4 391 392 433 432
4 392 393 434 433
4 393 394 435 434
4 394 395 436 435
4 395 396 437 436
4 396 397 438 437
4 397 398 439 438
4 398 399 440 439
4 399 400 441 440
4 400 401 442 441
4 401 402 443 442
4 402 403 444 443
4 403 404 445 444
4 404 405 446 445
4 405 406 447 446
4 406 407 448 447
4 407 408 449 448
4 408 409 450 449
4 410 411 452 451
4 411 412 453 452
4 412 413 454 453
4 413 414 455 454
4 414 415 456 455
4 415 416 457 456
4 416 417 458 457
4 417 418 459 458
4 418 419 460 459
4 419 420 461 460
4 420 421 462 461
4 421 422 463 462
4 422 423 464 463
4 423 424 465 464
4 424 425 466 465
4 425 426 467 466
4 426 427 468 467
4 427 428 469 468
4 428 429 470 469
4 429 430 471 470
4 430 431 472 471
4 431 432 473 472
4 432 433 474 473
4 433 434 475 474
4 434 435 476 475
4 435 436 477 476
4 436 437 478 477
4 437 438 479 478
4 438 439 480 479
4 439 440 481 480
4 440 441 482 481
4 441 442 483 482
4 442 443 484 483
4 443 444 485 484
4 444 445 486 485
4 445 446 487 486
4 446 447 488 487
4 447 448 489 488
4 448 449 490 489
4 449 450 491 490
4 451 452 493 492
4 452 453 494 493
4 453 454 495 494
4 454 455 496 495
4 455 456 497 496
4 456 457 498 497
4 457 458 499 498
4 458 459 500 499
4 459 460 501 500
4 460 461 502 501
4 461 462 503 502
4 462 463 504 503
4 463 464 505 504
4 464 465 506 505
4 465 466 507 506
4 466 467 508 507
4 467 468 509 508
4 468 469 510 509
4 469 470 511 510
4 470 471 512 511
4 471 472 513 512
4 472 473 514 513
4 473 474 515 514
4 474 475 516 515
4 475 476 517 516
4 476 477 518 517
4 477 478 519 518
4 478 479 520 519
4 479 480 521 520
4 480 481 522 521
4 481 482 523 522
4 482 483 524 523
4 483 484 525 524
4 484 485 526 525
4 485 486 527 526
4 486 487 528 527
4 487 488 529 528
4 488 489 530 529
4 489 490 531 530
4 490 491 532 531
4 492 493 534 533
4 493 494 535 534
4 494 495 536 535
4 495 496 537 536
4 496 497 538 537
4 497 498 539 538
4 498 499 540 539
4 499 500 541 540
4 500 501 542 541
4 501 502 543 542
4 502 503 544 543
4 503 504 545 544
4 504 505 546 545
4 505 506 547 546
4 506 507 548 547
4 507 508 549 548
4 508 509 550 549
4 509 510 551 550
4 510 511 552 551
4 511 512 553 552
4 512 513 554 553
4 513 514 555 554
4 514 515 556 555
4 515 516 557 556
4 516 517 558 557
4 517 518 559 558
4 518 519 560 559
4 519 520 561 560
4 520 521 562 561
4 521 522 563 562
4 522 523 564 563
4 523 524 565 564
4 524 525 566 565
4 525 526 567 566
4 526 527 568 567
4 527 528 569 568
4 528 529 570 569
4 529 530 571 570
4 530 531 572 571
4 531 532 573 572
4 533 534 575 574
4 534 535 576 575
4 535 536 577 576
4 536 537 578 577
4 537 538 579 578
4 538 539 580 579
4 539 540 581 580
4 540 541 582 581
4 541 542 583 582
4 542 543 584 583
4 543 544 585 584
4 544 545 586 585
4 545 546 587 586
4 546 547 588 587
4 547 548 589 588
4 548 549 590 589
4 549 550 591 590
4 550 551 592 591
4 551 552 593 592
4 552 553 594 593
4 553 554 595 594
4 554 555 596 595
4 555 556 597 596
4 556 557 598 597
4 557 558 599 598
4 558 559 600 599
4 559 560 601 600
4 560 561 602 601
4 561 562 603 602
4 562 563 604 603
4 563 564 605 604
4 564 565 606 605
4 565 566 607 606
4 566 567 608 607
4 567 568 609 608
4 568 569 610 609
4 569 570 611 610
4 570 571 612 611
4 571 572 613 612
4 572 573 614 613
4 574 575 616 615
4 575 576 617 616
4 576 577 618 617
4 577 578 619 618
4 578 579 620 619
4 579 580 621 620
4 580 581 622 621
4 581 582 623 622
4 582 583 624 623
4 583 584 625 624
4 584 585 626 625
4 585 586 627 626
4 586 587 628 627
4 587 588 629 628
4 588 589 630 629
4 589 590 631 630
4 590 591 632 631
4 591 592 633 632
4 592 593 634 633
4 593 594 635 634
4 594 595 636 635
4 595 596 637 636
4 596 597 638 637
4 597 598 639 638
4 598 599 640 639
4 599 600 641 640
4 600 601 642 641
4 601 602 643 642
4 602 603 644 643
4 603 604 645 644
4 604 605 646 645
4 605 606 647 646
4 606 607 648 647
4 607 608 649 648
4 608 609 650 649
4 609 610 651 650
4 610 611 652 651
4 611 612 653 652
4 612 613 654 653
4 613 614 655 654
4 615 616 657 656
4 616 617 658 657
4 617 618 659 658
4 618 619 660 659
4 619 620 661 660
4 620 621 662 661
4 621 622 663 662
4 622 623 664 663
4 623 624 665 664
4 624 625 666 665
4 625 626 667 666
4 626 627 668 667
4 627 628 669 668
4 628 629 670 669
4 629 630 671 670
4 630 631 672 671
4 631 632 673 672
4 632 633 674 673
4 633 634 675 674
4 634 635 676 675
4 635 636 677 676
4 636 637 678 677
4 637 638 679 678
4 638 639 680 679
4 639 640 681 680
4 640 641 682 681
4 641 642 683 682
4 642 643 684 683
4 643 644 685 684
4 644 645 686 685
4 645 646 687 686
4 646 647 688 687
4 647 648 689 688
4 648 649 690 689
4 649 650 691 690
4 650 651 692 691
4 651 652 693 692
4 652 653 694 693
4 653 654 695 694
4 654 655 696 695
4 656 657 698 697
4 657 658 699 698
4 658 659 700 699
4 659 660 701 700
4 660 661 702 701
4 661 662 703 702
4 662 663 704 703
4 663 664 705 704
4 664 665 706 705
4 665 666 707 706
4 666 667 708 707
4 667 668 709 708
4 668 669 710 709
4 669 670 711 710
4 670 671 712 711
4 671 672 713 712
4 672 673 714 713
4 673 674 715 714
4 674 675 716 715
4 675 676 717 716
4 676 677 718 717
4 677 678 719 718
4 678 679 720 719
4 679 680 721 720
4 680 681 722 721
4 681 682 723 722
4 682 683 724 723
4 683 684 725 724
4 684 685 726 725
4 685 686 727 726
4 686 687 728 727
4 687 688 729 728
4 688 689 730 729
4 689 690 731 730
4 690 691 732 731
4 691 692 733 732
4 692 693 734 733
4 693 694 735 734
4 694 695 736 735
4 695 696 737 736
4 697 698 739 738
4 698 699 740 739
4 699 700 741 740
4 700 701 742 741
4 701 702 743 742
4 702 703 744 743
4 703 704 745 744
4 704 705 746 745
4 705 706 747 746
4 706 707 748 747
4 707 708 749 748
4 708 709 750 749
4 709 710 751 750
4 710 711 752 751
4 711 712 753 752
4 712 713 754 753
4 713 714 755 754
4 714 715 756 755
4 715 716 757 756
4 716 717 758 757
4 717 718 759 758
4 718 719 760 759
4 719 720 761 760
4 720 721 762 761
4 721 722 763 762
4 722 723 764 763
4 723 724 765 764
4 724 725 766 765
4 725 726 767 766
4 726 727 768 767
4 727 728 769 768
4 728 729 770 769
4 729 730 771 770
4 730 731 772 771
4 731 732 773 772
4 732 733 774 773
4 733 734 775 774
4 734 735 776 775
4 735 736 777 776
4 736 737 778 777
4 738 739 780 779
4 739 740 781 780
4 740 741 782 781
4 741 742 783 782
4 742 743 784 783
4 743 744 785 784
4 744 745 786 785
4 745 746 787 786
4 746 747 788 787
4 747 748 789 788
4 748 749 790 789
4 749 750 791 790
4 750 751 792 791
4 751 752 793 792
4 752 753 794 793
4 753 754 795 794
4 754 755 796 795
4 755 756 797 796
4 756 757 798 797
4 757 758 799 798
4 758 759 800 799
4 759 760 801 800
4 760 761 802 801
4 761 762 803 802
4 762 763 804 803
4 763 764 805 804
4 764 765 806 805
4 765 766 807 806
4 766 767 808 807
4 767 768 809 808
4 768 769 810 809
4 769 770 811 810
4 770 771 812 811
4 771 772 813 812
4 772 773 814 813
4 773 774 815 814
4 774 775 816 815
4 775 776 817 816
4 776 777 818 817
4 777 778 819 818
4 779 780 821 820
4 780 781 822 821
4 781 782 823 822
4 782 783 824 823
4 783 784 825 824
4 784 785 826 825
4 785 786 827 826
4 786 787 828 827
4 787 788 829 828
4 788 789 830 829
4 789 790 831 830
4 790 791 832 831
4 791 792 833 832
4 792 793 834 833
4 793 794 835 834
4 794 795 836 835
4 795 796 837 836
4 796 797 838 837
4 797 798 839 838
4 798 799 840 839
4 799 800 841 840
4 800 801 842 841
4 801 802 843 842
4 802 803 844 843
4 803 804 845 844
4 804 805 846 845
4 805 806 847 846
4 806 807 848 847
4 807 808 849 848
4 808 809 850 849
4 809 810 851 850
4 810 811 852 851
4 811 812 853 852
4 812 813 854 853
4 813 814 855 854
4 814 815 856 855
4 815 816 857 856
4 816 817 858 857
4 817 818 859 858
4 818 819 860 859
CELL_TYPES 800
9
9
9
9
9
9
9
9
9
9
9
9
9
9
9
9
9
9
9
9
9
9
9
9
9
9
9
9
9
9
9
9
9
9
9
9
9
9
9
9
9
9
9
9
9
9
9
9
9
9
9
9
9
9
9
9
9
9
9
9
9
9
9
9
9
9
9
9
9
9
9
9
9
9
9
9
9
9
9
9
9
9
9
9
9
9
9
9
9
9
9
9
9
9
9
9
9
9
9
9
9
9
9
9
9
9
9
9
9
9
9
9
9
9
9
9
9
9
9
9
9
9
9
9
9
9
9
9
9
9
9
9
9
9
9
9
9
9
9
9
9
9
9
9
9
9
9
9
9
9
9
9
9
9
9
9
9
9
9
9
9
9
9
9
9
9
9
9
9
9
9
9
9
9
9
9
9
9
9
9
9
9
9
9
9
9
9
9
9
9
9
9
9
9
9
9
9
9
9
9
9
9
9
9
9
9
9
9
9
9
9
9
9
9
9
9
9
9
9
9
9
9
9
9
9
9
9
9
9
9
9
9
9
9
9
9
9
9
9
9
9
9
9
9
9
9
9
9
9
9
9
9
9
9
9
9
9
9
9
9
9
9
9
9
9
9
9
9
9
9
9
9
9
9
9
9
9
9
9
9
9
9
9
9
9
9
9
9
9
9
9
9
9
9
9
9
9
9
9
9
9
9
9
9
9
9
9
9
9
9
9
9
9
9
9
9
9
9
9
9
9
9
9
9
9
9
9
9
9
9
9
9
9
9
9
9
9
9
9
9
9
9
9
9
9
9
9
9
9
9
9
9
9
9
9
9
9
9
9
9
9
9
9
9
9
9
9
9
9
9
9
9
9
9
9
9
9
9
9
9
9
9
9
9
9
9
9
9
9
9
9
9
9
9
9
9
9
9
9
9
9
9
9
9
9
9
9
9
9
9
9
9
9
9
9
9
9
9
9
9
9
9
9
9
9
9
9
9
9
9
9
9
9
9
9
9
9
9
9
9
9
9
9
9
9
9
9
9
9
9
9
9
9
9
9
9
9
9
9
9
9
9
9
9
9
9
9
9
9
9
9
9
9
9
9
9
9
9
9
9
9
9
9
9
9
9
9
9
9
9
9
9
9
9
9
9
9
9
9
9
9
9
9
9
9
9
9
9
9
9
9
9
9
9
9
9
9
9
9
9
9
9
9
9
9
9
9
9
9
9
9
9
9
9
9
9
9
9
9
9
9
9
9
9
9
9
9
9
9
9
9
9
9
9
9
9
9
9
9
9
9
9
9
9
9
9
9
9
9
9
9
9
9
9
9
9
9
9
9
9
9
9
9
9
9
9
9
9
9
9
9
9
9
9
9
9
9
9
9
9
9
9
9
9
9
9
9
9
9
9
9
9
9
9
9
9
9
9
9
9
9
9
9
9
9
9
9
9
9
9
9
9
9
9
9
9
9
9
9
9
9
9
9
9
9
9
9
9
9
9
9
9
9
9
9
9
9
9
9
9
9
9
9
9
9
9
9
9
9
9
9
9
9
9
9
9
9
9
9
9
9
9
9
9
9
9
9
9
9
9
9
9
9
9
9
9
9
9
9
9
9
9
9
9
9
9
9
9
9
9
9
9
9
9
9
9
9
9
9
9
9
9
9
9
9
9
9
9
9
9
9
9
9
9
9
9
9
9
9
9
9
9
9
9
9
9
9
9
9
9
9
9
9
9
9
9
9
9
9
9
9
9
9
9
9
9
9
9
9
9
9
9
9
9
9
9
9
9
9
9
9
9
9
9
9
9
9
9
9
9
9
9
9
9
9
9
9
9
9
9
POINT_DATA 861
SCALARS Disp float 2
LOOKUP_TABLE default
0.0 0.0
0.00651735375877798 -0.3275486082761505
0.008037264480208353 -0.6448798091319158
0.008864002728136575 -0.9609599163159652
0.009991003088555139 -1.2766033987949394
0.011967455729345667 -1.5912778721250609
0.015622276517345386 -1.9042634045977918
0.02199533694311894 -2.214650818846645
0.03231523148804018 -2.5212910658765444
0.04791434827009166 -2.8226605329448105
0.07010325258942961 -3.116689422495231
0.10008282527160643 -3.4006900350774605
0.13890519843643953 -3.6714246547519
0.1874609246942144 -3.925255544647393
0.2464645994540589 -4.158245811273069
0.3163797615392189 -4.366252030228071
0.3972964676084422 -4.545051755902638
0.48879635045463404 -4.690539362664462
0.5898485730125035 -4.799011506819849
0.6987803725030428 -4.867427383357311
0.812959345730363 -4.8937885603349915
0.9271383189576761 -4.867427383357156
1.0360701184481917 -4.799011506819535
1.1371223410060218 -4.690539362664007
1.2286222238521636 -4.54505175590207
1.3095389299213305 -4.366252030227419
1.3794540920064327 -4.158245811272355
1.4384577667662204 -3.925255544646638
1.4870134930239394 -3.6714246547511267
1.5258358661887188 -3.4006900350766927
1.5558154388708478 -3.1166894224944914
1.5780043431901465 -2.822660532944115
1.5936034599721673 -2.5212910658759027
1.6039233545170666 -2.2146508188460663
1.6102964149428247 -1.9042634045972824
1.6139512357308146 -1.5912778721246303
1.615927688371601 -1.2766033987945877
1.617054688732018 -0.9609599163156967
1.617881426979946 -0.6448798091317293
1.6194013377013747 -0.3275486082760487
1.6259186914601491 0.0
0.08169863766695283 -0.002664999106661453
0.08633062656689892 -0.32788556640500777
0.08710842319952256 -0.6449455928793821
0.08783399512682029 -0.9610565886461592
0.08880968791346965 -1.276783039449373
0.09047422749465305 -1.5917042762571254
0.09360771292277022 -1.9051699502963289
0.09919145857480076 -2.216317131850476
0.10837586438885342 -2.5240294259182354
0.12237371855424405 -2.826787744044785
0.1423533558195898 -3.122502275998619
0.16937264682291742 -3.4084533303697913
0.20436534517202476 -3.681368623923963
0.24813893286348973 -3.9375733176929026
0.3013440329545823 -4.1730835512996896
0.3644139970169177 -4.383685313730024
0.4374591910856973 -4.565053735808458
0.5201466954835374 -4.712950446971404
0.6115869690563118 -4.823514600944216
0.7101484092274769 -4.893514469755016
0.8129593457303438 -4.920535848526805
0.915770282233204 -4.893514469754857
1.0143317224043475 -4.823514600943893
1.105771995977087 -4.712950446970938
1.1884595003748837 -4.565053735807877
1.261504694443613 -4.38368531372936
1.3245746585058962 -4.173083551298963
1.3777797585969378 -3.937573317692135
1.4215533462883518 -3.6813686239231767
1.4565460446374117 -3.408453330369012
1.483565335640696 -3.122502275997869
1.503544972906006 -2.8267877440440814
1.517542827071369 -2.5240294259175875
1.5267272328854016 -2.2163171318498933
1.532310978537418 -1.905169950295817
1.535444463965527 -1.5917042762566935
1.5371090035467068 -1.2767830394490212
1.5380846963333552 -0.9610565886458906
1.5388102682606528 -0.6449455928791954
1.539588064893276 -0.3278855664049056
1.5442200537932163 -0.002664999106658858
0.16232449317035103 -0.004800179903807596
0.16575902558268388 -0.3280566699516027
0.16619896226430234 -0.6449755861276515
0.16678775285130515 -0.9611407230762488
0.16762451070608503 -1.276923193251758
0.16900842320558737 -1.5920420009346903
0.171635201414438 -1.9059246237389142
0.17643232757395033 -2.217753382102931
0.18445939762323912 -2.526435593078478
0.19681315194003615 -2.8304485688339893
0.21452727363515667 -3.127679558433844
0.23852729331598704 -3.415379396881381
0.2696299444468913 -3.6902479185803165
0.3085494300125277 -3.948580691303763
0.3558773224492849 -4.186353226968066
0.4120220071887001 -4.399291924793197
0.47712817682418424 -4.58298531630193
0.5509621800202046 -4.733076863108291
0.6327495101985565 -4.845548668703339
0.7209154192254476 -4.916929373395456
0.8129593457303252 -4.94453581130176
0.9050032722351963 -4.916929373395294
0.9931691812620685 -4.845548668703009
1.0749565114403896 -4.733076863107816
1.1487905146363715 -4.582985316301337
1.2138966842718117 -4.399291924792522
1.27004136901118 -4.186353226967328
1.3173692614478918 -3.9485806913029826
1.3562887470134832 -3.6902479185795185
1.387391398144345 -3.4153793968805912
1.411391417825137 -3.1276795584330848
1.429105539520226 -2.830448568833278
1.4414592938369981 -2.5264355930778244
1.4494863638862685 -2.2177533821023445
1.4542834900457684 -1.9059246237384
1.456910268254612 -1.5920420009342575
1.4582941807541119 -1.2769231932514054
1.459130938608891 -0.9611407230759803
1.4597197291958939 -0.6449755861274648
1.4601596658775124 -0.3280566699515001
1.4635941982898393 -0.004800179903802115
0.24237937481855706 -0.00652584151016345
0.2450001236027317 -0.3281729779207493
0.24526630722369952 -0.6449914375041252
0.24572552011062157 -0.9612070021916258
0.24643116150314784 -1.2770336333432408
0.2475672177448596 -1.5923007720612146
0.24971635446051405 -1.9065324095351424
0.25373682543788884 -2.218960057025323
0.26059862307551435 -2.528504414684265
0.2712838596061037 -2.833634029483809
0.2866971180271539 -3.132210203870999
0.30763605093684016 -3.42145682339338
0.33480443328558884 -3.6980502195555642
0.3688224717962357 -3.95826271971035
0.41021431105577677 -4.19803829058098
0.45937045315153935 -4.413055697283089
0.5164739847893288 -4.598832788213559
0.5813867272165943 -4.750907453535254
0.6534644456700139 -4.865102277267306
0.7313575489046046 -4.937736648748005
0.8129593457303069 -4.965933280564513
0.8945611425560035 -4.93773664874784
0.9724542457905777 -4.8651022772669705
1.04453196424397 -4.7509074535347695
1.1094447066712014 -4.598832788212957
1.1665482383089532 -4.413055697282403
1.2157043804046745 -4.198038290580231
1.2570962196641755 -3.958262719709559
1.2911142581747832 -3.698050219554757
1.3182826405234946 -3.4214568233925813
1.3392215734331478 -3.132210203870232
1.35463483185417 -2.8336340294830915
1.3653200683847375 -2.528504414683607
1.3721818660223468 -2.218960057024733
1.3762023369997107 -1.906532409534626
1.3783514737153597 -1.5923007720607811
1.3794875299570695 -1.2770336333428882
1.3801931713495954 -0.9612070021913574
1.3806523842365175 -0.6449914375039387
1.3809185678574853 -0.3281729779206463
1.3835393166416545 -0.006525841510155299
0.32211042788599564 -0.007927022774835025
0.32411674642623683 -0.3282623468740866
0.3242894874092953 -0.6450003865975826
0.32464079340123475 -0.9612577549158042
0.3252255629849354 -1.2771204607089939
0.32614340696313066 -1.5924942117108176
0.32785946843117286 -1.907002667377888
0.33112241596254255 -2.2199403371162494
0.33682662933523544 -2.5302353437418055
0.3458365851370736 -2.836340086969187
0.3589327814029877 -3.136088394661946
0.3767889830906237 -3.4266784228827074
0.3999955403224456 -3.7047675782056517
0.42908123377609525 -3.966610659424279
0.4645066379232403 -4.2081279432652225
0.5066312665106654 -4.424963626717686
0.5556696718168115 -4.612580535263131
0.6115837666834162 -4.766424923562773
0.673913341137848 -4.882179078783081
0.7416056627946801 -4.955985248989654
0.8129593457302893 -4.9848051650134915
0.8843130286658932 -4.955985248989486
0.9520053503227104 -4.882179078782742
1.0143349247771185 -4.766424923562282
1.0702490196436938 -4.612580535262522
1.1192874249498073 -4.424963626716991
1.1614120535371968 -4.208127943264464
1.196837457684308 -3.9666106594234796
1.2259231511379236 -3.7047675782048355
1.2491297083697137 -3.4266784228819005
1.2669859100573215 -3.1360883946611717
1.2800821063232117 -2.836340086968464
1.289092062125031 -2.5302353437411425
1.2947962754977098 -2.219940337115656
1.2980592230290708 -1.9070026673773703
1.2997752844971087 -1.5924942117103837
1.3006931284753025 -1.277120460708641
1.301277898059003 -0.9612577549155359
1.3016292040509425 -0.6450003865973961
1.301801945034001 -0.3282623468739833
1.3038082635742374 -0.007927022774824525
0.40162874264457704 -0.009058193002225498
0.40314728339099914 -0.3283338586160138
0.4032662854200161 -0.6450071010444377
0.40352967493804887 -0.9612954007384937
0.40400123828484635 -1.2771887921795488
0.4047309235694284 -1.5926355763329194
0.40605880307760434 -1.907350369716909
0.40861276147573544 -2.220701486908967
0.4131764053249648 -2.531631779846975
0.42052159074189993 -2.838567708197975
0.431303338010664 -3.1393131645046823
0.44607377353742633 -3.4310421774679836
0.4653123658325762 -3.7103969139956567
0.48945566613825164 -3.973620684332234
0.5188989231506206 -4.216617788245919
0.5539730309929853 -4.435007422280187
0.5949025249356941 -4.624213184850539
0.6417445040261036 -4.779612741890752
0.6942652297114593 -4.896777577397068
0.751763125400021 -4.97170081026666
0.8129593457302714 -5.001197179006026
0.8741555660605175 -4.971700810266491
0.9316534617490659 -4.896777577396724
0.9841741874344019 -4.779612741890255
1.0310161665247861 -4.624213184849922
1.0719456604674673 -4.435007422279485
1.1070197683098024 -4.216617788245154
1.1364630253221428 -3.9736206843314266
1.16060632562779 -3.7103969139948334
1.1798449179229136 -3.4310421774671704
1.1946153534496526 -3.1393131645039025
1.205397100718397 -2.838567708197247
1.2127422861353165 -2.5316317798463084
1.2173059299845341 -2.2207014869083714
1.2198598883826584 -1.90735036971639
1.221187767890831 -1.5926355763324846
1.2219174531754122 -1.277188792179196
1.2223890165222095 -0.9612954007382254
1.2226524060402424 -0.6450071010442512
1.2227714080692593 -0.3283338586159102
1.2242899488156775 -0.009058193002212948
0.48099140427595166 -0.009960940741022422
0.4821175643888234 -0.3283912747805048
0.48220249204442994 -0.6450139039082216
0.4823919201328277 -0.9613216099736683
0.482754694738075 -1.2772420645265692
0.48332071796153386 -1.5927371457245079
0.4843061716096772 -1.9075940722383227
0.48620954639138625 -2.221259558858508
0.4896834815616707 -2.5327018210798906
0.4953895938678481 -2.8403225637605867
0.5038781616054414 -3.141888833442891
0.5155797578002239 -3.434551321038285
0.5308636566688095 -3.7149407030388852
0.5500751380353812 -3.9792945631885503
0.5735444296501356 -4.223508247389445
0.6015650738886995 -4.443184549482163
0.6343641468408986 -4.633720691793716
0.6720774108267582 -4.790453782022449
0.7147001638133731 -4.90888445975658
0.7619306616599522 -4.984886248278928
0.8129593457302532 -5.015129741707328
0.8639880298005512 -4.984886248278755
0.9112185276471191 -4.908884459756232
0.9538412806337176 -4.790453782021948
0.9915545446195563 -4.633720691793093
1.0243536175717332 -4.443184549481455
1.0523742618102732 -4.223508247388672
1.0758435534250042 -3.979294563187737
1.0950550347915544 -3.7149407030380552
1.1103389336601188 -3.4345513210374667
1.122040529854883 -3.1418888334421062
1.1305290975924602 -2.840322563759855
1.1362352098986255 -2.532701821079221
1.139709145068901 -2.22125955885791
1.1416125198506049 -1.9075940722378029
1.1425979734987457 -1.5927371457240729
1.1431639967222043 -1.2772420645262164
1.1435267713274513 -0.9613216099734
1.1437161994158491 -0.645013903908035
1.1438011270714554 -0.32839127478040103
1.1449272871843246 -0.009960940741008156
0.5602357745026574 -0.010669024194933466
0.5610466921863917 -0.32843738481609874
0.5611065149208863 -0.6450212696786881
0.561229737766462 -0.9613376222693367
0.5614855558709447 -1.2772816019581967
0.5619023299540725 -1.5928090669479555
0.5625956186989887 -1.90775343379063
0.563911873185494 -2.2216368134776037
0.5663679172853924 -2.533462849136715
0.5704935527106152 -2.841616106409066
0.5767284717724691 -3.143824978134747
0.5853959324484732 -3.4372147515532756
0.5967605383499491 -3.7184075582886664
0.6110731566326888 -3.9836399688938164
0.6285935139893362 -4.228805689894466
0.6495806523099613 -4.449498816171634
0.6742571893940906 -4.641100130395723
0.7028028988706245 -4.798932211289073
0.7354154350038052 -4.918473326578697
0.7722208482800987 -4.995519785684786
0.8129593457302348 -5.02659811185181
0.8536978431803688 -4.995519785684611
0.8905032564566534 -4.918473326578346
0.9231157925898212 -4.798932211288567
0.9516615020663391 -4.641100130395096
0.976338039150451 -4.4494988161709195
0.997325177471058 -4.228805689893689
1.014845534827688 -3.983639968892998
1.0291581531104124 -3.7184075582878324
1.0405227590118729 -3.437214751552453
1.0491902196878626 -3.1438249781339587
1.0554251387497051 -2.841616106408331
1.0595507741749188 -2.533462849136043
1.062006818274811 -2.2216368134770046
1.0633230727613125 -1.9077534337901096
1.0640163615062275 -1.5928090669475203
1.064433135589355 -1.2772816019578441
1.0646889536938378 -0.9613376222690684
1.0648121765394134 -0.6450212696785016
1.064871999273908 -0.3284373848159948
1.06568291695764 -0.010669024194917847
0.6393853763008231 -0.011213751351813756
0.6399519687055852 -0.32847476574873036
0.6399860697935763 -0.6450283524713971
0.6400467709594406 -0.9613443652242708
0.6401972524162403 -1.2773070850738293
0.6404684279311924 -1.5928578505917403
0.6409103771563438 -1.9078497940583963
0.6417162720589173 -2.2218615338525685
0.6432412409227162 -2.5339418439159176
0.6458732371237597 -2.8424697432584565
0.6499256218424627 -3.1451382996017974
0.6556174843298915 -3.439048107484785
0.6631165963916313 -3.7208130739599237
0.6725848099135546 -3.9866718735632114
0.6842054833429192 -4.23252272589683
0.6981927504252641 -4.45396078047893
0.7147748769852957 -4.646359114049099
0.7341650092979716 -4.805038634293401
0.7566540405953103 -4.92550610761661
0.7827766297271163 -5.003551110960559
0.8129593457302158 -5.035569033244728
0.843142061733314 -5.003551110960383
0.8692646508651144 -4.925506107616256
0.8917536821624434 -4.805038634292892
0.911143814475108 -4.646359114048469
0.9277259410351273 -4.453960780478212
0.9417132081174607 -4.2325227258960485
0.953333881546814 -3.9866718735623903
0.9628020950687284 -3.7208130739590866
0.9703012071304578 -3.439048107483959
0.9759930696178772 -3.145138299601007
0.9800454543365732 -2.842469743257719
0.9826774505376111 -2.5339418439152444
0.984202419401406 -2.221861533851969
0.9850083143039774 -1.9078497940578754
0.985450263529128 -1.5928578505913054
0.9857214390440802 -1.2773070850734762
0.9858719205008799 -0.9613443652240025
0.9859326216667441 -0.6450283524712106
0.985966722754735 -0.3284747657486265
0.9865333151594957 -0.011213751351797106
0.7184579743555074 -0.011625778127151288
0.7188449286325581 -0.32850655564078624
0.718848542555353 -0.6450332516855153
0.7188470677749097 -0.9613425529337154
0.7188949738027205 -1.277317977885766
0.7190170752349053 -1.5928856228411186
0.7192321751538603 -1.907901236458993
0.7196068652252054 -2.221969510936155
0.7203072041563559 -2.5341787379610143
0.7215577364584087 -2.8429188475284675
0.7235290131785344 -3.1458586164202056
0.7263325310599874 -3.4400778215572125
0.7300410221597868 -3.7221825225242875
0.7347358290080236 -3.9884155503835204
0.7405251610963239 -4.234682438447263
0.7475638303285729 -4.456588596222097
0.7560751510320237 -4.649514520588259
0.7663434095185501 -4.808784282306349
0.7786998805139793 -4.9299481510887455
0.7938159699691145 -5.008894921635175
0.8129593457301961 -5.041969128572947
0.8321027214912775 -5.008894921634999
0.8472188109464099 -4.929948151088391
0.8595752819418333 -4.808784282305838
0.8698435404283535 -4.649514520587625
0.8783548611317983 -4.456588596221376
0.8853935303640419 -4.234682438446479
0.8911828624523378 -3.988415550382698
0.8958776693005708 -3.722182522523449
0.8995861604003659 -3.4400778215563848
0.9023896782818149 -3.145858616419414
0.9043609550019374 -2.842918847527729
0.905611487303988 -2.53417873796034
0.9063118262351364 -2.2219695109355553
0.9066865163064808 -1.9079012364584718
0.9069016162254356 -1.5928856228406831
0.9070237176576206 -1.2773179778854133
0.9070716236854314 -0.961342552933447
0.9070701489049879 -0.6450332516853287
0.9070737628277826 -0.32850655564068243
0.9074607171048327 -0.011625778127133871
0.7974724403039197 -0.01193199123696343
0.7977314714142434 -0.328536304459472
0.7976993461670163 -0.6450337683258414
0.797635507753383 -0.9613325820313339
0.7975832637222755 -1.2773142460358688
0.7975560862165642 -1.5928918006125445
0.7975449208765223 -1.907917131088302
0.7975402460073893 -2.221999778087339
0.7975381767195696 -2.5342383492769263
0.7975376885325312 -2.8430316634879307
0.7975375922932515 -3.1460471598770585
0.7975345046715332 -3.440359369014362
0.7975214110611178 -3.722569252650938
0.7974988889646648 -3.9889224537139056
0.7974964980185372 -4.235333488292282
0.7976110192718265 -4.45742449059246
0.7980535089413466 -4.650601326812649
0.7991945924950381 -4.810212900338867
0.8015232545068427 -4.9318261265833625
0.8055908232677294 -5.01146114326112
0.8129593457301758 -5.045669416918286
0.8203278681926236 -5.011461143260943
0.8243954369535097 -4.931826126583007
0.8267240989653121 -4.810212900338355
0.8278651825190034 -4.650601326812015
0.8283076721885242 -4.457424490591739
0.8284221934418148 -4.235333488291499
0.828419802495689 -3.988922453713083
0.8283972803992375 -3.722569252650099
0.8283841867888242 -3.4403593690135343
0.8283810991671078 -3.1460471598762663
0.828381002927829 -2.8430316634871926
0.8283805147407913 -2.5342383492762526
0.8283784454529718 -2.221999778086739
0.8283737705838389 -1.9079171310877812
0.8283626052437973 -1.5928918006121093
0.8283354277380861 -1.2773142460355165
0.8282831837069787 -0.9613325820310655
0.8282193452933454 -0.6450337683256546
0.8281872200461181 -0.32853630445936827
0.8284462511564412 -0.011931991236945457
0.8764406665049758 -0.012159152246947306
0.8766105454971203 -0.3285660183690031
0.8765433071940815 -0.6450285999553632
0.8764175843284295 -0.9613146275775197
0.876267815181734 -1.2772961960312261
0.8760934814157827 -1.592876070463152
0.8758563493681815 -1.9078986624612988
0.8754718945431322 -2.2219684602706007
0.8747680470698069 -2.5341783374041205
0.87351746145591 -2.8429187856796228
0.8715459612227736 -3.145858077614574
0.8687344887587255 -3.4400740142608037
0.8649993870310749 -3.7221734914239666
0.8602622397027024 -3.9884065694153255
0.8544751530143626 -4.2346999874385025
0.8476739702175742 -4.456700567213898
0.8400383631201063 -4.6498518207497455
0.8319490355808403 -4.809549113042647
0.8239595563999407 -4.931360425171777
0.8168727532081945 -5.011364335865294
0.8129593457301549 -5.046745926756426
0.8090459382521152 -5.0113643358651165
0.80195913506037 -4.9313604251714205
0.7939696558794745 -4.809549113042135
0.7858803283402163 -4.649851820749113
0.7782447212427561 -4.456700567213178
0.7714435384459754 -4.234699987437721
0.765656451757643 -3.988406569414504
0.7609193044292781 -3.7221734914231295
0.7571842027016357 -3.440074014259977
0.754372730237595 -3.145858077613783
0.7524012300044641 -2.8429187856788847
0.751150644390571 -2.534178337403447
0.7504467969172478 -2.2219684602700007
0.7500623420921997 -1.907898662460778
0.7498252100445993 -1.592876070462717
0.7496508762786482 -1.2772961960308735
0.7495011071319527 -0.9613146275772515
0.7493753842663009 -0.6450285999551766
0.7493081459632622 -0.3285660183688994
0.7494780249554063 -0.012159152246929003
0.9553724632586578 -0.012330423407028166
0.9554828212455974 -0.3285947679641181
0.955384353413252 -0.6450178861782323
0.9551990671693645 -0.9612888008129467
0.9549551513466272 -1.2772644207503052
0.9546372608035293 -1.592838789410913
0.9541728534559739 -1.9078441652309064
0.9533586137475992 -2.221859135585668
0.9518327007122723 -2.533941239458882
0.9492019111523202 -2.8424697414343454
0.9451483968512414 -3.1451367343026484
0.9394480471982327 -3.439040140821787
0.9319263329525125 -3.720795316668175
0.922425870613561 -3.986655497456187
0.9108208779364508 -4.232561474500777
0.8970779626460057 -4.4541902488753555
0.881339907983958 -4.647032953847636
0.8639800152558256 -4.806540210958096
0.8456708918584281 -4.928342443427344
0.8277487043893896 -5.0087283354368175
0.8129593457301348 -5.045380816621044
0.7981699870708808 -5.00872833543664
0.7802477996018455 -4.92834244342699
0.7619386762044567 -4.806540210957587
0.744578783476337 -4.647032953847006
0.7288407288143038 -4.454190248874639
0.7150978135238727 -4.232561474499996
0.7034928208467762 -3.9866554974553683
0.6939923585078382 -3.7207953166673406
0.6864706442621314 -3.4390401408209628
0.6807702946091355 -3.1451367343018597
0.676716780308067 -2.8424697414336086
0.674085990748122 -2.5339412394582093
0.6725600777127991 -2.2218591355850688
0.6717458380044273 -1.9078441652303864
0.6712814306568732 -1.592838789410478
0.6709635401137756 -1.2772644207499526
0.6707196242910384 -0.9612888008126782
0.6705343380471511 -0.6450178861780456
0.6704358702148057 -0.3285947679640144
0.6705462282017451 -0.012330423407009652
1.0342849546284494 -0.012458129542188287
1.0343526688559528 -0.3286208429780731
1.034227060785339 -0.6450023107816164
1.0339856304110602 -0.9612554028153445
1.0336513557132412 -1.2772197537140548
1.0331941065225057 -1.5927803784622905
1.0324802691732309 -1.9077440692972538
1.0311595742057407 -2.2216336820392555
1.0287059802846712 -2.533462602876484
1.0245814487735476 -2.841616029559914
1.0183440564673076 -3.143822122730787
1.0096695818262973 -3.437203400489576
0.9982930259546117 -3.7183839627403286
0.9839703247506838 -3.9836206670730676
0.9664864359058881 -4.228868181761009
0.9457236975952198 -4.44983770745742
0.9217623843827013 -4.642077117459544
0.8950009251510586 -4.801115805262461
0.8663720387459312 -4.922724875570927
0.8377395558924383 -5.00345795091289
0.8129593457301153 -5.04166051550744
0.7881791355677943 -5.003457950912713
0.7595466527143071 -4.922724875570575
0.7309177663091916 -4.801115805261955
0.7041563070775667 -4.642077117458919
0.6801949938650689 -4.449837707456708
0.6594322555544204 -4.228868181760233
0.6419483667096448 -3.9836206670722527
0.6276256655057361 -3.718383962739499
0.6162491096340694 -3.4372034004887557
0.6075746349930768 -3.1438221227300014
0.6013372426868517 -2.8416160295591806
0.5972127111757389 -2.533462602875813
0.594759117254676 -2.221633682038657
0.59343842228719 -1.907744069296734
0.5927245849379171 -1.5927803784618557
0.5922673357471823 -1.2772197537137022
0.5919330610493635 -0.961255402815076
0.5916916306750848 -0.6450023107814298
0.5915660226044711 -0.32862084297796945
0.5916337368319745 -0.012458129542169622
1.1131933983508162 -0.01254932591702332
1.1132260990531282 -0.3286427542133837
1.1130758572021604 -0.6449823754762163
1.112782066924048 -0.9612149927269604
1.1123618964206254 -1.277163256652472
1.111764192316286 -1.5926987913584587
1.110762962368802 -1.9075813732627287
1.1088612544236855 -2.2212570129390223
1.1053910512492973 -2.5327021398376366
1.0996848772422179 -2.840322059282428
1.0911926663951221 -3.1418846232639277
1.0794877037145856 -3.4345383488123526
1.0642085780008916 -3.7149165772623904
1.0450205977692422 -3.9792799641030947
1.0216155436952212 -4.223595873650285
0.9937769377312056 -4.443611337549916
0.9615170398406512 -4.634945483951668
0.9253056625348453 -4.793252119485851
0.886393724879137 -4.914511207900066
0.847360732202571 -4.995653703366566
0.8129593457300964 -5.035701875520594
0.7785579592576246 -4.99565370336639
0.7395249665810676 -4.914511207899716
0.7006130289253747 -4.793252119485349
0.6644016516195909 -4.634945483951048
0.632141753729062 -4.44361133754921
0.6043031477650724 -4.223595873649514
0.580898093691077 -3.9792799641022856
0.5617101134594529 -3.7149165772615667
0.5464309877457836 -3.4345383488115373
0.5347260250652698 -3.1418846232631474
0.5262338142181929 -2.840322059281698
0.5205276402111277 -2.5327021398369682
0.5170574370367489 -2.221257012938425
0.5151557290916383 -1.9075813732622093
0.5141544991441572 -1.592698791358024
0.5135567950398187 -1.277163256652119
0.5131366245363966 -0.9612149927266922
0.512842834258284 -0.6449823754760295
0.5126925924073165 -0.3286427542132801
0.5127252931096284 -0.01254932591700451
1.1921069769989658 -0.012610264169935924
1.192109707044447 -0.32865918452713455
1.191935933474903 -0.6449583513082995
1.1915935744638284 -0.961168336340222
1.1910923158663251 -1.2770959076373438
1.1903434892304474 -1.5925887869186335
1.1890088216678858 -1.9073360900000484
1.186459079666775 -2.2207003209125373
1.1818988050412425 -2.531632464525755
1.1745520060426107 -2.8385664066934466
1.163766359955221 -3.139307847851518
1.1489982198315873 -3.4310301281359674
1.129784595365335 -3.7103792556298028
1.1057040089313277 -3.973620754363496
1.0763590724774612 -4.216732070217327
1.0414317558230937 -4.435496758705696
1.0008783352983381 -4.625626384738363
0.9552558639294183 -4.782949154909315
0.9061862435509997 -4.9037375311251035
0.8569253316216446 -4.985374014672615
0.8129593457300776 -5.0275256207998416
0.7689933598385142 -4.98537401467244
0.7197324479091713 -4.903737531124756
0.670662827530772 -4.782949154908818
0.6250403561618783 -4.62562638473775
0.5844869356371535 -4.435496758704996
0.5495596189828172 -4.216732070216564
0.5202146825289824 -3.9736207543626936
0.4961340960950062 -3.7103792556289856
0.4769204716287841 -3.4310301281351587
0.4621523315051772 -3.139307847850743
0.4513666854178112 -2.8385664066927214
0.444019886419197 -2.531632464525089
0.43945961179367654 -2.2207003209119422
0.4369098697925736 -1.9073360899995302
0.43557520223001595 -1.5925887869181992
0.43482637559413945 -1.2770959076369912
0.4343251169966367 -0.9611683363399537
0.43398275798556235 -0.6449583513081127
0.43380898441601834 -0.3286591845270309
0.43381171446149935 -0.012610264169917049
1.271031826237027 -0.01264688246316
1.2710093165135998 -0.32866928100984466
1.2708129501695427 -0.644930306892436
1.270425039668878 -0.9611162901865311
1.269844281686888 -1.277017315964529
1.2689243931657987 -1.5924416175479617
1.2672099369752394 -1.9069885566178897
1.2639517500752584 -2.2199404560212934
1.258248876992197 -2.530236009987407
1.249235924715691 -2.836337746663548
1.2361368841421696 -3.1360826270599444
1.2182905661938868 -3.426670322902479
1.1951289927717479 -3.704763644936688
1.1661424401711873 -3.966636061714243
1.13085776314019 -4.208274041338338
1.0888859079413322 -4.42549876408772
1.0401271374973344 -4.6141322090696
0.9852180691550138 -4.7702297998556356
0.9261132255537556 -4.890431920132175
0.8666430151923593 -4.972622628309784
0.8129593457300589 -5.017095802440193
0.7592756762677634 -4.972622628309612
0.6998054659063819 -4.890431920131833
0.6407006223051471 -4.770229799855144
0.5857915539628568 -4.614132209068995
0.5370327835188948 -4.4254987640870285
0.495060928320074 -4.2082740413375825
0.4597762512891136 -3.966636061713449
0.43078969868859013 -3.704763644935879
0.4076281252664865 -3.426670322901678
0.38978180731823564 -3.136082627059176
0.37668276674474155 -2.8363377466628283
0.36766981446825636 -2.530236009986745
0.3619669413852103 -2.219940456020701
0.3587087544852392 -1.9069885566173728
0.3569942982946849 -1.5924416175475276
0.3560744097735971 -1.2770173159641767
0.35549365179160775 -0.9611162901862629
0.3551057412909434 -0.6449303068922494
0.35490937494688624 -0.32866928100974113
0.3548868652234591 -0.012646882463141081
1.3499718979837423 -0.012665034407860019
1.3499297712028857 -0.3286727384193673
1.3497126928701 -0.6448982671827896
1.3492813838891304 -0.9610595329346802
1.348618888719482 -1.27692592349016
1.3475001532762851 -1.5922463814470063
1.3453579330535226 -1.9065193579426531
1.3413399819539784 -2.2189608156582
1.3344767966136513 -2.5285045716652093
1.3237875571024538 -2.8336306364677175
1.3083740920811247 -3.132205094379988
1.2874538680874072 -3.4214558311592818
1.2603474099036829 -3.6980661239448733
1.2264564533391502 -3.9583231639995358
1.1852534556578442 -4.198227709906278
1.136317865026028 -4.413639595578669
1.0795293445421938 -4.600500300339384
1.0155428125569692 -4.755131283129858
0.9465091198740556 -4.874602899968875
0.8767052473296768 -4.9573567474613975
0.8129593457300405 -5.004330578931705
0.74921344413041 -4.957356747461228
0.6794095715860482 -4.8746028999685365
0.6103758789031619 -4.755131283129374
0.5463893469179726 -4.600500300338785
0.4896008264341796 -4.413639595577988
0.44066523580240563 -4.198227709905532
0.3994622381211422 -3.958323163998752
0.3655712815566517 -3.6980661239440744
0.3384648233729681 -3.4214558311584895
0.31754459937928736 -3.1322050943792275
0.3021311343579896 -2.833630636467004
0.2914418948468162 -2.528504571664553
0.2845787095065071 -2.2189608156576104
0.28056075840697464 -1.9065193579421376
0.2784185381842182 -1.5922463814465728
0.2772998027410236 -1.2769259234898078
0.27663730757137606 -0.9610595329344117
0.27620599859040684 -0.644898267182603
0.2759889202576212 -0.3286727384192637
0.2759467934767646 -0.01266503440784107
1.4289289889491035 -0.012670620261825723
1.4288748292063536 -0.32866987678077664
1.4286414091433108 -0.6448623957409834
1.428168123461093 -0.9609985626654513
1.4274145460564032 -1.2768178176292089
1.4260633689739854 -1.59198968168457
1.423445252875552 -1.9059123693783486
1.4186470856613782 -2.2177538840638444
1.4106155192038508 -2.526434737328378
1.3982574990106311 -2.830444383439831
1.3805471079661003 -3.127676579185434
1.3565748213077593 -3.4153884594747668
1.3255471388609796 -3.6902880952361143
1.286774072343095 -3.9486839150201707
1.2396823869465174 -4.186602862470369
1.1838809244159316 -4.399953781301775
1.1193009460712366 -4.584794141284151
1.0465602822323328 -4.73770795110142
0.9677269034733836 -4.856243980657249
0.8873551136560647 -4.939488155082525
0.8129593457300216 -4.989092686006932
0.7385635778039856 -4.939488155082358
0.6581917879866863 -4.856243980656917
0.5793584092277684 -4.737707951100944
0.5066177453889055 -4.584794141283564
0.4420377670442567 -4.399953781301104
0.38623630451371865 -4.186602862469635
0.3391446191171892 -3.948683915019398
0.3003715525993524 -3.690288095235326
0.26934387015261835 -3.4153884594739847
0.2453715834943189 -3.1276765791846817
0.22766119244982305 -2.8304443834391244
0.21530317225663054 -2.526434737327727
0.20727160579912388 -2.2177538840632587
0.20247343858496392 -1.9059123693778353
0.19985532248653773 -1.5919896816841377
0.19850414540412312 -1.2768178176288572
0.19775056799943413 -0.9609985626651828
0.19727728231721656 -0.6448623957407967
0.19704386225417403 -0.3286698767806731
0.19698970251142428 -0.012670620261806705
1.507902130272054 -0.012669612757254067
1.5078470788688962 -0.3286618439458555
1.5076064684735642 -0.644823320827278
1.507090589868099 -0.9609327242534368
1.5062268807051409 -1.2766868417998356
1.5046051347010982 -1.591656250783938
1.501479471943757 -1.9051577161423119
1.4958899044296714 -2.2163163255527047
1.486698380320495 -2.52402717242358
1.4726968109205385 -2.826783265613433
1.4527253944741347 -3.1225030465127195
1.4257421622769741 -3.4084749942219603
1.3908345310103654 -3.681436188281801
1.3472223564020251 -3.9377254360130527
1.2942996823073207 -4.1734127871796
1.2317215475003565 -4.3844757557061005
1.159554006429007 -4.567089496119354
1.0784871166967192 -4.718059066755266
0.9902833086362685 -4.835361537689269
0.8989799241747892 -4.9188659505976915
0.8129593457300027 -4.97115984330955
0.7269387672852242 -4.918865950597528
0.6356353828237671 -4.835361537688945
0.5474315747633515 -4.718059066754801
0.4663646850311104 -4.567089496118777
0.39419714395981353 -4.384475755705442
0.33161900915290254 -4.173412787178878
0.27869633505825103 -3.9377254360122924
0.23508416044996414 -3.681436188281025
0.20017652918340662 -3.4084749942211894
0.1731932969862919 -3.1225030465119774
0.15322188053992628 -2.8267832656127347
0.1392203111400006 -2.524027172422935
0.13002878703084714 -2.2163163255521234
0.12443921951677682 -1.9051577161418007
0.12131355675944466 -1.591656250783507
0.11969181075540583 -1.276686841799484
0.11882810159244887 -0.9609327242531684
0.11831222298698399 -0.6448233208270915
0.11807161259165229 -0.328661843945752
0.1180165611884944 -0.012669612757235037
1.5868862460930278 -0.012667867849719648
1.586847782443432 -0.3286511969306126
1.5866177791719032 -0.6447823792313515
1.586052897909101 -0.9608590467296148
1.5850494667927828 -1.2765228926487495
1.5831226281985338 -1.5912351649431928
1.5794705534766236 -1.9042498142392863
1.5730871525674692 -2.214647835358808
1.5627585939154491 -2.5212872282948173
1.5471568185101117 -2.822656372242832
1.5249803820658332 -3.116695474162081
1.4950439813561403 -3.4007264489480735
1.4563157517114615 -3.6715222156708336
1.4079379074721916 -3.92546259769561
1.349268324119507 -4.158675439184824
1.280002521633824 -4.367230835247881
1.2003576716254554 -4.54744358799829
1.111269223319588 -4.6963140552523495
1.0145204817488471 -4.812115364438848
0.9129620404472312 -4.895298234119182
0.8129593457299833 -4.94999999999999
0.712956651012744 -4.895298234119023
0.6113982097111523 -4.812115364438532
0.5146494681404519 -4.696314055251893
0.4255610198346381 -4.547443587997727
0.3459161698263279 -4.367230835247236
0.27665036734070336 -4.158675439184117
0.21798078398807738 -3.925462597694864
0.16960293974886606 -3.6715222156700715
0.13087471010424379 -3.4007264489473155
0.10093830939460147 -3.11669547416135
0.07876187295036421 -2.8226563722421427
0.06316009754506015 -2.5212872282941787
0.052831538893065855 -2.2146478353582317
0.04644813798392854 -1.9042498142387785
0.04279606326202855 -1.5912351649427634
0.040869224667784414 -1.2765228926483985
0.039865793551467334 -0.9608590467293464
0.039300912288665835 -0.6447823792311651
0.039070909017137244 -0.32865119693050915
0.03903244536754173 -0.012667867849700634
SCALARS Stress float 6
LOOKUP_TABLE default
-1346.623086733151 -2155.7532197309483 -1675.9270283707065 -32.636993240420054 0.0 0.0
1419.7942501996583 841.0811920897368 1077.6242135545501 -18.6284355250965 0.0 0.0
659.2665933733647 194.10719399400136 284.36308115051327 -43.27052971871179 0.0 0.0
518.5331403450197 41.246945285335855 177.94489361677725 -0.07132777505065535 0.0 0.0
655.4646911380944 98.93503970003988 287.05512274914474 3.7759514704946264 0.0 0.0
793.4599302331412 161.9037607515097 432.1615416859812 1.5593078579755155 0.0 0.0
938.8328768483168 230.86444948502796 564.9999395909746 0.01549094067193324 0.0 0.0
1090.9038177299126 318.574176713689 692.0538430860453 -1.5523631599788326 0.0 0.0
1255.2281537201902 424.065862509189 828.2878546738515 -3.4915616993314 0.0 0.0
1440.1526075151532 555.0662256459825 986.2388553350113 -5.607659108345117 0.0 0.0
1651.46817035631 717.0689160517182 1172.4935225992 -7.514158558214959 0.0 0.0
1888.430661788063 909.5536570766092 1386.7553738626104 -8.89023072650839 0.0 0.0
2144.5673108956535 1124.8708985394592 1622.0280693792267 -9.735410280866134 0.0 0.0
2411.490243228246 1354.4224732424457 1869.8476919941115 -10.368330344223946 0.0 0.0
2678.610062709493 1587.4344946194776 2119.5283376961056 -10.735725486377964 0.0 0.0
2933.446054794383 1811.437372908326 2358.616659018501 -10.712330710187661 0.0 0.0
3162.811093322869 2013.548399960162 2574.1090497501705 -10.137385906153417 0.0 0.0
3354.224835517268 2181.692500572138 2753.727006739836 -9.0418695050348 0.0 0.0
3508.6931115978696 2317.3128036063567 2898.537243218637 -8.109818312252463 0.0 0.0
3610.3775185784093 2405.35541434308 2993.068027222078 -11.566803729201965 0.0 0.0
3603.2842494234797 2398.0253107050557 2985.9660149460465 -1.0727418953138113e-10 0.0 0.0
3610.3775185756585 2405.3554143403157 2993.068027220268 11.566803729234728 0.0 0.0
3508.69311159901 2317.3128036076164 2898.5372432191866 8.10981831228571 0.0 0.0
3354.224835516319 2181.692500571261 2753.727006738627 9.041869505227575 0.0 0.0
3162.8110933224675 2013.5483999599585 2574.109049749534 10.13738590614725 0.0 0.0
2933.446054793224 1811.4373729072763 2358.6166590177395 10.712330710427526 0.0 0.0
2678.610062706004 1587.4344946161264 2119.5283376934344 10.735725486075387 0.0 0.0
2411.4902432259614 1354.4224732403711 1869.8476919922564 10.368330344440027 0.0 0.0
2144.5673108950346 1124.870898539082 1622.0280693784518 9.735410280901974 0.0 0.0
1888.4306617863099 909.5536570750749 1386.755373861094 8.89023072653263 0.0 0.0
1651.4681703552762 717.0689160509756 1172.4935225981367 7.514158558357364 0.0 0.0
1440.1526075144116 555.0662256454938 986.2388553342893 5.607659108197645 0.0 0.0
1255.228153719544 424.06586250884345 828.2878546732379 3.49156169920634 0.0 0.0
1090.9038177273794 318.57417671141144 692.0538430842087 1.5523631601524759 0.0 0.0
938.8328768461686 230.86444948311305 564.9999395894497 -0.015490940654844465 0.0 0.0
793.4599302324084 161.9037607510824 432.1615416852725 -1.5593078579578368 0.0 0.0
655.4646911373727 98.93503969958441 287.0551227485517 -3.7759514704092805 0.0 0.0
518.5331403445452 41.24694528501705 177.94489361648724 0.07132777503329013 0.0 0.0
659.2665933729705 194.10719399385172 284.3630811502731 43.270529718870264 0.0 0.0
1419.7942501992097 841.0811920892172 1077.624213554012 18.62843552487319 0.0 0.0
-1346.623086730458 -2155.7532197281444 -1675.9270283679307 32.636993240181965 0.0 0.0
-1714.5791319977498 -2495.568658126663 -2000.3158444619992 -36.04483179508255 0.0 0.0
968.7050607457929 462.9715766557993 679.2851318240467 -26.057119224198885 0.0 0.0
463.2139542743402 75.41741412024847 161.53149221744755 -38.38232415758855 0.0 0.0
455.57571547123325 11.10980164639987 144.5880283907476 -15.470535330704548 0.0 0.0
577.4542335068966 45.16149923241052 228.04335510955494 -17.765886343343045 0.0 0.0
686.591723029236 65.6381810496589 336.21370266085637 -24.078848187669628 0.0 0.0
781.3575187374005 88.75642976703386 425.1076237820369 -25.044721938959928 0.0 0.0
871.2170661775573 112.63773526300841 489.8317241462764 -25.321516827643368 0.0 0.0
951.7704614865627 133.88382710664325 541.9401937245434 -26.2221003983083 0.0 0.0
1024.5437097148465 153.10365276328554 588.1950587850629 -27.28313893563289 0.0 0.0
1093.210293647411 173.17178868831627 632.6082390520811 -27.880675227161955 0.0 0.0
1160.4608423239488 195.98113076479854 677.6468623819662 -27.932236666569075 0.0 0.0
1225.935129696453 221.61698753324418 723.21708708698 -27.573177248313932 0.0 0.0
1287.0520896774408 245.85145756519194 765.9096759322186 -27.00477899718367 0.0 0.0
1338.7094689425116 263.88579403907136 800.7805954186185 -26.187940989047718 0.0 0.0
1376.8655414460263 271.618827824388 823.7530498595454 -24.86019860856103 0.0 0.0
1399.3095332739633 267.02723294 832.6987771921171 -22.807241531085303 0.0 0.0
1406.6211000823323 251.0933879388692 828.3956340390655 -20.227665171106533 0.0 0.0
1389.9737090390547 215.69114922123305 802.5015229779001 -18.224778258348636 0.0 0.0
1294.4318628855694 107.14435518303739 701.184107841164 -20.081676564051875 0.0 0.0
1141.302182256314 -45.23453846690765 549.4755678683424 -8.208189683500677e-11 0.0 0.0
1294.431862883187 107.14435518069394 701.1841078396136 20.08167656407294 0.0 0.0
1389.973709040377 215.69114922263276 802.5015229789723 18.224778258537707 0.0 0.0
1406.6211000833623 251.09338793997117 828.3956340397099 20.227665171241988 0.0 0.0
1399.3095332753749 267.0272329415586 832.6987771931405 22.807241530922973 0.0 0.0
1376.8655414445293 271.6188278230302 823.7530498587072 24.860198608709197 0.0 0.0
1338.7094689403596 263.8857940370644 800.780595417257 26.187940988895328 0.0 0.0
1287.0520896768319 245.85145756482487 765.9096759317998 27.004778997483516 0.0 0.0
1225.9351296967093 221.6169875337081 723.2170870872492 27.57317724844475 0.0 0.0
1160.4608423232137 195.98113076428393 677.6468623815426 27.932236666497094 0.0 0.0
1093.2102936471338 173.17178868831175 632.6082390519117 27.880675227306288 0.0 0.0
1024.5437097151464 153.10365276388129 588.195058785258 27.28313893562858 0.0 0.0
951.7704614866127 133.88382710698858 541.9401937245134 26.22210039844874 0.0 0.0
871.2170661765747 112.63773526232279 489.8317241455988 25.3215168277375 0.0 0.0
781.3575187363897 88.75642976628916 425.1076237812994 25.04472193879822 0.0 0.0
686.591723028135 65.63818104877672 336.21370266002185 24.078848187554918 0.0 0.0
577.4542335069799 45.1614992329621 228.04335510952095 17.76588634343388 0.0 0.0
455.57571547070125 11.109801645923332 144.58802839045677 15.470535330683362 0.0 0.0
463.2139542741053 75.417414120172 161.53149221736032 38.38232415759678 0.0 0.0
968.7050607451838 462.9715766552805 679.2851318233768 26.057119224068945 0.0 0.0
-1714.5791319955651 -2495.5686581244513 -2000.3158444598128 36.044831794728005 0.0 0.0
-1451.5973670930487 -2197.3295415516404 -1710.0135846943388 -74.676405588614 0.0 0.0
794.8469698658599 370.3330545739029 537.8343699260923 -93.82414641529783 0.0 0.0
319.79919056453645 86.5649596317155 121.97883083450844 -43.46205351630154 0.0 0.0
391.6569881431639 3.922044375696106 119.35487992885774 -37.47771708381746 0.0 0.0
531.9894489331746 34.59318864147308 194.85159918243068 -40.389454947433606 0.0 0.0
652.2679179025615 59.19930737414603 303.9749572213397 -44.68159811347228 0.0 0.0
750.2112190223808 82.23740689006748 401.34350728048616 -46.113736038751924 0.0 0.0
838.842904631893 101.82090967018462 467.1458790810558 -46.98050505208829 0.0 0.0
915.6063686830112 118.89183953530735 516.0451055118813 -48.686765276168884 0.0 0.0
984.283171595792 134.13343887950555 558.2922994122895 -50.09595634752985 0.0 0.0
1049.891172213823 151.7088258647019 599.9186809409842 -50.47965367896427 0.0 0.0
1114.5065316043601 173.02336975591547 642.9067970004701 -49.99793636395215 0.0 0.0
1177.5799363013607 196.1995640437338 686.0668559912008 -49.10147782118473 0.0 0.0
1235.8756689786399 218.72568555299043 726.5048533450113 -47.90161722624594 0.0 0.0
1286.5537436805284 236.30781815517915 760.6509700498127 -46.30469260546474 0.0 0.0
1325.6809317323414 245.37887947532232 784.7652904433083 -43.979730913198885 0.0 0.0
1350.50909238171 243.29702589023123 796.1708886666456 -40.66711980633758 0.0 0.0
1355.725690284619 225.23615558805062 789.8551034846964 -36.81004076441688 0.0 0.0
1325.2101465354112 176.06612104747163 750.3074279679894 -33.67311731582352 0.0 0.0
1272.783255834 110.99730286684631 691.9191661853173 -32.50169526523487 0.0 0.0
1100.1465702444011 -60.041984948360806 521.2234515287832 -1.1011636047442153e-10 0.0 0.0
1272.7832558315006 110.99730286438762 691.9191661835764 32.50169526515971 0.0 0.0
1325.2101465358478 176.06612104796193 750.3074279682845 33.67311731604816 0.0 0.0
1355.7256902860124 225.2361555895607 789.855103485912 36.81004076448764 0.0 0.0
1350.5090923818057 243.29702589032925 796.1708886666922 40.66711980607493 0.0 0.0
1325.6809317296152 245.37887947275155 784.7652904414688 43.97973091306673 0.0 0.0
1286.5537436784673 236.3078181532574 760.6509700484038 46.30469260548131 0.0 0.0
1235.8756689789186 218.72568555345893 726.5048533451492 47.90161722624376 0.0 0.0
1177.579936300048 196.1995640426719 686.0668559904382 49.101477821312244 0.0 0.0
1114.506531603513 173.02336975524753 642.9067969999659 49.99793636387509 0.0 0.0
1049.8911722133498 151.7088258645486 599.9186809407756 50.47965367919436 0.0 0.0
984.2831715957601 134.13343887975674 558.2922994122772 50.09595634767763 0.0 0.0
915.6063686823799 118.8918395349719 516.0451055114255 48.68676527627555 0.0 0.0
838.8429046315414 101.82090967012601 467.14587908083786 46.98050505212467 0.0 0.0
750.2112190221502 82.23740689008997 401.3435072801996 46.11373603846502 0.0 0.0
652.2679179013572 59.19930737319889 303.97495722041884 44.681598113360764 0.0 0.0
531.9894489329535 34.59318864163853 194.85159918226546 40.38945494752131 0.0 0.0
391.65698814254733 3.922044375074643 119.35487992849768 37.47771708383825 0.0 0.0
319.7991905643622 86.56495963132701 121.97883083433545 43.46205351623503 0.0 0.0
794.8469698651896 370.33305457358495 537.8343699254317 93.82414641522692 0.0 0.0
-1451.597367090954 -2197.329541549585 -1710.0135846921567 74.67640558816593 0.0 0.0
-1196.1270558910492 -1911.143627184524 -1433.9005142746316 -88.54346215140681 0.0 0.0
612.2301423085538 275.38668355805703 402.52362113762393 -146.04621273448745 0.0 0.0
229.8158613487512 71.23924834590468 90.31653290839675 -64.60804720235758 0.0 0.0
325.7862352311074 9.43677437688698 100.23131615851636 -61.13152887364336 0.0 0.0
475.6898173555827 21.425656265576677 160.7769046877901 -65.60242569357864 0.0 0.0
606.0631363933037 51.17097310593434 265.4845485362203 -66.42389215903935 0.0 0.0
715.1431124578654 73.93317186061941 371.8194263905175 -68.46730858482982 0.0 0.0
801.6163117218355 91.2046587135095 441.20938064503974 -68.75622128529318 0.0 0.0
875.2908149126729 104.2161560834807 488.01272582047386 -70.6742847625973 0.0 0.0
940.231331813922 115.8100645936448 526.7226103724562 -72.05623765024565 0.0 0.0
1002.3689119562591 130.4950641572308 565.1650353423554 -72.10698375703912 0.0 0.0
1064.3680309213669 149.45871390375535 605.6802883791695 -71.2136084730944 0.0 0.0
1124.6327072886693 171.05463081880214 646.6766356773284 -69.7788801686652 0.0 0.0
1180.566653952178 191.02531005446656 684.6613410686139 -68.02131592454604 0.0 0.0
1229.9277060373129 207.9581161918444 717.8117819490664 -65.71289603855844 0.0 0.0
1270.4840784976377 218.95467146725088 743.6025222828814 -62.57524863498953 0.0 0.0
1296.991871225463 218.45806155003183 756.6739548834938 -58.49335423972672 0.0 0.0
1300.909875681956 198.928669154374 749.0483693900594 -53.801401811432584 0.0 0.0
1279.2260072205258 158.34795260229043 718.1643958256975 -48.84338256208343 0.0 0.0
1248.7676371615057 114.59133290491619 681.2645821273417 -43.142416984727845 0.0 0.0
1008.4700829085056 -123.45744078300498 443.84911067112284 -8.08686451136964e-11 0.0 0.0
1248.7676371588016 114.59133290233045 681.264582125336 43.142416984925084 0.0 0.0
1279.226007220539 158.34795260233085 718.1643958256452 48.843382562343734 0.0 0.0
1300.909875680957 198.9286691534418 749.0483693896201 53.80140181139237 0.0 0.0
1296.9918712228884 218.45806154744912 756.6739548817436 58.49335423946684 0.0 0.0
1270.4840784963926 218.95467146618753 743.6025222820067 62.5752486348956 0.0 0.0
1229.927706036633 207.95811619135682 717.8117819486708 65.71289603879877 0.0 0.0
1180.5666539512442 191.02531005372663 684.6613410679576 68.02131592462739 0.0 0.0
1124.6327072877386 171.0546308181159 646.676635676684 69.77888016873385 0.0 0.0
1064.3680309206143 149.45871390321295 605.6802883787658 71.21360847315185 0.0 0.0
1002.3689119561099 130.49506415738315 565.1650353422299 72.1069837571028 0.0 0.0
940.2313318130762 115.81006459304689 526.7226103719105 72.05623765032404 0.0 0.0
875.2908149120256 104.21615608318375 488.0127258200682 70.67428476266238 0.0 0.0
801.6163117216529 91.20465871362634 441.20938064489314 68.75622128530074 0.0 0.0
715.1431124574639 73.93317186050639 371.8194263900893 68.46730858473866 0.0 0.0
606.0631363926076 51.170973105542984 265.4845485356497 66.42389215900913 0.0 0.0
475.689817355173 21.425656265475638 160.7769046875645 65.60242569352462 0.0 0.0
325.7862352309174 9.436774376562932 100.23131615836404 61.13152887364383 0.0 0.0
229.81586134884643 71.23924834591331 90.31653290842792 64.6080472023163 0.0 0.0
612.2301423080004 275.38668355782744 402.5236211370699 146.04621273439415 0.0 0.0
-1196.1270558891727 -1911.1436271826485 -1433.9005142726483 88.54346215107432 0.0 0.0
-971.6671787343557 -1661.392675751779 -1189.92070036742 -86.85992581115642 0.0 0.0
475.9578138537331 189.12485215488545 294.627797892347 -179.8811021937301 0.0 0.0
167.32530486709928 54.49816328093988 66.54704044441172 -95.72069773569976 0.0 0.0
264.21688611821804 15.860101980531326 83.97387950669118 -87.00259249305532 0.0 0.0
409.1427724031094 12.243824272668489 129.84978873869306 -92.68826125838869 0.0 0.0
549.783317304272 37.9883346975398 221.40857263482073 -91.5575270560464 0.0 0.0
669.1761183950185 64.35020754614351 333.4538442741002 -91.12544705252297 0.0 0.0
758.5864510679768 81.09067180330487 411.22373305866654 -90.89087554217122 0.0 0.0
830.2549143421312 90.18315068763204 457.504762277071 -92.09421111546628 0.0 0.0
891.4793832263706 97.85394856436292 492.8149251383958 -93.13319590829383 0.0 0.0
950.3804030911559 109.38228045334695 528.0844532165369 -92.7792061698804 0.0 0.0
1009.2597775693565 125.79616703210618 565.7831935522785 -91.47782685984146 0.0 0.0
1066.8597272223303 144.85780916603466 604.2030417986111 -89.66831954495872 0.0 0.0
1120.3589431960827 163.72139028325125 640.4441123055619 -87.32326018924823 0.0 0.0
1168.3829336347333 179.3607377207398 672.2826254075391 -84.34400823848956 0.0 0.0
1209.0769430124906 190.37254044820037 698.1342072733762 -80.67611402181075 0.0 0.0
1237.9677815253242 192.58454685086932 713.7686871440711 -76.21583700816997 0.0 0.0
1248.0100899073989 178.91411832216855 712.1482286738551 -70.84061653556238 0.0 0.0
1236.5795316080637 147.76438842107154 691.0908251032562 -63.7874368158714 0.0 0.0
1216.5716629749752 112.93996838938999 663.8374422733199 -54.011481078265625 0.0 0.0
893.8080999638578 -206.69646983955005 345.2459356009198 8.602718537531473e-11 0.0 0.0
1216.5716629729523 112.9399683873279 663.8374422719238 54.011481078247684 0.0 0.0
1236.5795316079432 147.76438842094888 691.0908251033959 63.787436815616594 0.0 0.0
1248.010089907416 178.91411832232762 712.1482286738343 70.84061653566712 0.0 0.0
1237.967781523297 192.58454684891126 713.768687142622 76.2158370080626 0.0 0.0
1209.076943012162 190.37254044803763 698.1342072731934 80.67611402179378 0.0 0.0
1168.3829336326667 179.36073771874587 672.2826254061292 84.34400823852039 0.0 0.0
1120.358943195953 163.7213902833924 640.4441123054761 87.32326018937992 0.0 0.0
1066.8597272225547 144.85780916647775 604.2030417987395 89.66831954500852 0.0 0.0
1009.2597775679116 125.79616703086579 565.7831935514323 91.47782685988851 0.0 0.0
950.380403090649 109.38228045294281 528.0844532160952 92.77920616968285 0.0 0.0
891.479383226558 97.85394856497854 492.8149251386089 93.13319590843552 0.0 0.0
830.2549143420613 90.18315068796169 457.5047622770818 92.0942111157709 0.0 0.0
758.5864510678119 81.09067180337846 411.2237330584646 90.8908755420345 0.0 0.0
669.1761183945973 64.35020754614571 333.4538442736888 91.12544705259404 0.0 0.0
549.7833173038687 37.98833469753555 221.408572634454 91.55752705601833 0.0 0.0
409.14277240306575 12.243824273323916 129.84978873882477 92.68826125834171 0.0 0.0
264.2168861180173 15.860101980211338 83.97387950653419 87.0025924930246 0.0 0.0
167.32530486714126 54.498163281074525 66.54704044446471 95.72069773558134 0.0 0.0
475.9578138530892 189.12485215460475 294.6277978917961 179.8811021935831 0.0 0.0
-971.6671787328265 -1661.3926757500797 -1189.9207003656668 86.85992581101742 0.0 0.0
-773.5118965284513 -1440.8639015694685 -972.2431843430212 -81.5046248264637 0.0 0.0
368.8843727536525 121.57451339440416 210.68558245585135 -200.18117332355246 0.0 0.0
120.89148949050211 36.955840464960396 47.35411035355143 -125.91790338125074 0.0 0.0
210.49241102965618 20.04958036751272 69.1659044616094 -113.18706714921652 0.0 0.0
336.5215977330309 7.33004345817503 102.91920948274613 -120.40501021654208 0.0 0.0
478.3947292057424 24.277600619441156 175.97063142310475 -118.2799904040466 0.0 0.0
607.8704349606502 53.98907221851958 285.77703317549964 -114.91280919059214 0.0 0.0
708.0865294195138 68.87194294014739 373.48857659428614 -113.87456306065475 0.0 0.0
777.7840047196828 76.40904045054899 422.6319009697829 -112.96337789464349 0.0 0.0
837.18157063543 80.06295883141705 455.8964205952568 -113.3125050362162 0.0 0.0
892.7241261416683 88.32614610304871 487.96702259679813 -112.45334717495156 0.0 0.0
948.4622378473794 102.12638686525273 522.8083750397386 -110.72161453285003 0.0 0.0
1003.1229324830989 119.04213469845241 558.7057252481909 -108.5550361222844 0.0 0.0
1054.0461206001514 135.37079938590009 592.4219931114044 -105.83729108769279 0.0 0.0
1100.1543069900108 149.7449107110643 622.6935059520911 -102.27384755045364 0.0 0.0
1140.5070864565969 160.9606187700649 648.4764992524595 -98.05991279982968 0.0 0.0
1173.0481920275572 166.28203932127562 667.4490878843095 -93.51418834689126 0.0 0.0
1192.5678964849644 161.81771388574188 675.1587252912193 -87.80183059080653 0.0 0.0
1192.4025588049603 140.89713148415598 664.886234663246 -79.12222841025479 0.0 0.0
1178.6531664406014 109.9510903082542 642.7200318234352 -65.9178916913077 0.0 0.0
759.2402732651518 -304.82649195387876 229.41989690611774 -1.2212630906560662e-10 0.0 0.0
1178.6531664408653 109.95109030871643 642.7200318237255 65.9178916914151 0.0 0.0
1192.4025588041711 140.89713148335454 664.8862346629494 79.12222841038741 0.0 0.0
1192.5678964855017 161.8177138863877 675.1587252916647 87.80183059096666 0.0 0.0
1173.0481920276386 166.2820393215398 667.4490878842631 93.51418834707118 0.0 0.0
1140.5070864564218 160.96061877001048 648.4764992524374 98.05991279977601 0.0 0.0
1100.154306989392 149.74491071068076 622.693505951579 102.273847550602 0.0 0.0
1054.0461206005223 135.37079938637598 592.4219931117403 105.83729108759799 0.0 0.0
1003.1229324839964 119.04213469964117 558.705725248832 108.55503612242624 0.0 0.0
948.4622378463858 102.12638686441552 522.8083750391042 110.72161453270624 0.0 0.0
892.7241261409553 88.32614610253182 487.96702259631974 112.45334717490425 0.0 0.0
837.1815706358682 80.06295883209495 455.89642059554484 113.3125050361315 0.0 0.0
777.7840047193934 76.40904045072593 422.63190096965906 112.96337789486657 0.0 0.0
708.0865294189916 68.87194294006264 373.4885765939139 113.87456306079841 0.0 0.0
607.8704349601473 53.989072218448484 285.7770331750394 114.91280919065288 0.0 0.0
478.3947292055561 24.27760061968839 175.970631422936 118.27999040402128 0.0 0.0
336.52159773290805 7.330043458640265 102.91920948286928 120.40501021647356 0.0 0.0
210.49241102966465 20.049580367376656 69.16590446156613 113.18706714912881 0.0 0.0
120.89148949055192 36.95584046489174 47.35411035354583 125.91790338107413 0.0 0.0
368.88437275328204 121.5745133941926 210.68558245546225 200.1811733232609 0.0 0.0
-773.5118965269879 -1440.8639015677516 -972.2431843413689 81.50462482645017 0.0 0.0
-601.1300531477939 -1240.5853546380986 -777.6624328942728 -76.06281396147192 0.0 0.0
283.89206136801926 68.52118324799167 145.70111047049758 -213.27750476739294 0.0 0.0
84.15681068657113 20.497498792783375 31.39644489730459 -150.90741667978452 0.0 0.0
161.48812543966 22.801154416833484 55.28357656431182 -137.31960205799666 0.0 0.0
261.76354545156573 6.807964650989946 79.90268621935593 -144.98298621953006 0.0 0.0
394.75107531164736 9.73088255148724 131.4645492978788 -148.45846926931873 0.0 0.0
530.8454381782246 38.64387553607931 228.3682706415252 -141.513338787411 0.0 0.0
640.8356747543977 57.35854387836471 324.30807977015075 -136.69855271909282 0.0 0.0
718.3777702383832 60.41976321388344 381.05891498825315 -134.68438861713537 0.0 0.0
774.3259919034426 62.317423960448934 414.0360837649898 -132.47279999806275 0.0 0.0
827.9864872771351 67.4192769362531 443.91261835998955 -131.013519563888 0.0 0.0
880.419288409124 78.35418593479551 475.72572703063685 -128.85695079233304 0.0 0.0
931.6743747483016 92.67643367207742 508.651106028364 -126.38261289437096 0.0 0.0
979.8893691767081 107.22643200132613 540.1559081949582 -123.41525863835497 0.0 0.0
1023.5227210661375 119.65565073975837 568.2774151465392 -119.49888656436838 0.0 0.0
1062.4505171878052 128.98382684845498 592.4041715773469 -114.87464196028921 0.0 0.0
1098.5596563109616 138.8999626151525 615.3871043975594 -109.9593767410867 0.0 0.0
1130.4214424856177 145.94158775252237 634.9740817540716 -104.4814780547882 0.0 0.0
1144.1820420246195 137.00812488868593 637.7186497625486 -95.3233747572508 0.0 0.0
1136.050859966844 108.70348356946064 619.7958091976384 -79.73924802657186 0.0 0.0
603.4041310765308 -416.35608635788935 96.47492869739186 -3.846167828669422e-11 0.0 0.0
1136.0508599691696 108.70348357195554 619.7958091991107 79.73924802684132 0.0 0.0
1144.1820420239744 137.0081248881015 637.7186497622627 95.32337475735665 0.0 0.0
1130.4214424858953 145.94158775292115 634.9740817543326 104.48147805478229 0.0 0.0
1098.5596563108402 138.89996261516745 615.3871043974085 109.95937674124202 0.0 0.0
1062.450517187971 128.9838268487071 592.4041715774681 114.87464196016151 0.0 0.0
1023.5227210671263 119.65565074095755 568.277415147348 119.4988865645803 0.0 0.0
979.8893691762884 107.22643200105738 540.1559081946194 123.41525863821315 0.0 0.0
931.6743747484957 92.67643367256282 508.6511060285619 126.38261289469534 0.0 0.0
880.4192884090988 78.3541859350837 475.7257270306667 128.85695079240728 0.0 0.0
827.9864872765789 67.41927693581519 443.91261835962933 131.013519563847 0.0 0.0
774.3259919037464 62.3174239609582 414.0360837651434 132.47279999795717 0.0 0.0
718.3777702378336 60.41976321359504 381.0589149878738 134.68438861710396 0.0 0.0
640.8356747541899 57.358543878613084 324.30807976997767 136.698552719184 0.0 0.0
530.8454381774463 38.64387553544899 228.36827064084108 141.5133387871685 0.0 0.0
394.7510753112921 9.730882551733778 131.46454929774822 148.45846926934516 0.0 0.0
261.76354545103845 6.807964650400262 79.90268621904632 144.98298621941564 0.0 0.0
161.48812543955236 22.801154416722817 55.28357656424545 137.31960205774124 0.0 0.0
84.15681068646684 20.497498792703176 31.396444897249193 150.90741667963914 0.0 0.0
283.89206136754916 68.52118324778358 145.70111047014674 213.2775047672583 0.0 0.0
-601.130053146489 -1240.585354636608 -777.6624328928359 76.06281396140608 0.0 0.0
-448.929339343669 -1065.0396878491838 -604.4103951176148 -77.64129091061426 0.0 0.0
212.2011133912891 28.3826753868118 94.90155205110462 -218.69869805478237 0.0 0.0
53.246188672197846 6.9716550671151625 18.064235865632117 -169.59807299403292 0.0 0.0
114.43660259373222 24.035168643390016 41.54069604319101 -157.74825212858536 0.0 0.0
190.19357353185404 8.390970352313136 59.23420522272121 -165.7016025148909 0.0 0.0
299.01969754038504 0.7863620921130529 92.22103981370779 -177.4456174246796 0.0 0.0
431.30984810641985 20.466190832540995 164.8839305155874 -170.57491305266478 0.0 0.0
553.0921421466624 40.94851024482592 258.70847895967665 -160.72077327710602 0.0 0.0
640.7172519947411 45.83323319898818 326.94212793924055 -155.20738967026205 0.0 0.0
701.0117980826424 42.53387407826765 363.85213758657284 -151.64883730600567 0.0 0.0
751.8750537080166 45.80762282450661 392.639262363861 -148.2729381155765 0.0 0.0
801.347975492528 54.572737496590854 422.1547816853216 -145.6019213088687 0.0 0.0
849.1130724081461 66.19163332871601 452.03310680248677 -142.85536230065512 0.0 0.0
893.6458419907074 78.22579976043048 480.4621962124916 -139.8024965516187 0.0 0.0
935.1028861640867 89.11711555459465 506.76852811307225 -135.9534390071197 0.0 0.0
972.1554123769852 97.48521952416687 529.579004153885 -130.999999588037 0.0 0.0
1008.707420963561 106.7155523049677 552.4254886874609 -125.55824777524774 0.0 0.0
1052.5064020698185 125.56538480998874 583.7010418090987 -120.37481273988674 0.0 0.0
1087.6442977136076 137.03631281446556 607.4181203182783 -112.416894562609 0.0 0.0
1089.8638717318731 114.8695765943238 598.0540516136975 -96.58058017197247 0.0 0.0
420.8242125789781 -540.2370379584607 -55.69420544923722 2.2082247141952394e-10 0.0 0.0
1089.86387173254 114.86957659502175 598.0540516141529 96.5805801724029 0.0 0.0
1087.6442977141355 137.03631281533794 607.4181203186263 112.4168945629547 0.0 0.0
1052.506402071456 125.56538481164391 583.7010418102395 120.37481274002485 0.0 0.0
1008.7074209633116 106.71555230485828 552.4254886871502 125.55824777527212 0.0 0.0
972.1554123769428 97.485219524073 529.5790041538444 130.99999958786958 0.0 0.0
935.1028861635772 89.11711555441441 506.7685281127282 135.953439007154 0.0 0.0
893.6458419906808 78.22579976051094 480.4621962124001 139.8024965517504 0.0 0.0
849.1130724075098 66.19163332830381 452.03310680201963 142.85536230072785 0.0 0.0
801.3479754924009 54.572737496817886 422.15478168531763 145.60192130903312 0.0 0.0
751.8750537072688 45.80762282368591 392.6392623632459 148.27293811534292 0.0 0.0
701.0117980835324 42.533874079729614 363.85213758724984 151.64883730615907 0.0 0.0
640.7172519945807 45.83323319914386 326.94212793903756 155.2073896702664 0.0 0.0
553.0921421453158 40.94851024352489 258.70847895873743 160.7207732769981 0.0 0.0
431.3098481064282 20.466190833072687 164.8839305155251 170.57491305258924 0.0 0.0
299.01969753991165 0.7863620917959357 92.22103981346085 177.44561742450705 0.0 0.0
190.19357353170238 8.390970352226823 59.23420522265744 165.70160251461135 0.0 0.0
114.43660259372241 24.035168643468047 41.540696043217245 157.748252128444 0.0 0.0
53.24618867215788 6.97165506708334 18.064235865608953 169.59807299394487 0.0 0.0
212.2011133907634 28.38267538637398 94.90155205071386 218.69869805471984 0.0 0.0
-448.929339342743 -1065.0396878479673 -604.4103951164847 77.6412909106132 0.0 0.0
-327.2386069229875 -897.8365440472096 -458.56917362160436 -80.83837916657325 0.0 0.0
150.82157663418104 -4.067170514022944 55.751965131972014 -217.89445222139668 0.0 0.0
24.979150519344927 -2.440935526886842 6.758176599644046 -182.6745542694892 0.0 0.0
68.26730919226664 23.788567560261185 27.606601465275464 -174.0320256632185 0.0 0.0
121.53152974300319 11.350422719579786 39.71383595971384 -181.7020237577118 0.0 0.0
196.3830901852633 -0.8598338640610195 58.78997333543076 -199.9331889585542 0.0 0.0
306.1083081014487 2.7479557569542328 101.53964506129519 -203.07587926905936 0.0 0.0
433.0311629876121 17.593564227326926 174.42148039247311 -188.58669459138457 0.0 0.0
534.9260865492276 25.550245011828153 247.90477321520828 -175.19454638170455 0.0 0.0
603.2025559428602 22.74615648106225 294.936563914671 -168.46770395292356 0.0 0.0
655.259878665802 23.899319797384962 326.8995917232555 -163.55958938827888 0.0 0.0
701.9827060258248 29.92797142787117 354.77340593471286 -160.4166898654799 0.0 0.0
745.7798754524389 39.397727922326084 381.9902973616765 -157.48532411617 0.0 0.0
785.8708363041494 48.764087620307116 406.96569637050726 -154.51262898425102 0.0 0.0
824.0543375984709 58.103856429696066 430.9332437980211 -151.14835324720053 0.0 0.0
860.7718485693724 66.75158137331363 453.8974703839804 -146.6584218947754 0.0 0.0
896.2668493183041 74.552449247277 475.8670155388964 -140.6933200106309 0.0 0.0
942.0836840685291 93.86313652636237 508.3528924744321 -134.74664033940394 0.0 0.0
1005.3012928404171 131.12026359717828 558.7799366566973 -129.71518107875494 0.0 0.0
1038.7924695243464 135.2514431754903 578.9319206461577 -118.36447442015114 0.0 0.0
201.73064705668276 -671.6423046337602 -229.23514139370118 1.000444171950221e-11 0.0 0.0
1038.792469523043 135.2514431741521 578.93192064533 118.3644744201878 0.0 0.0
1005.3012928388666 131.12026359537782 558.7799366557388 129.71518107879217 0.0 0.0
942.0836840672346 93.86313652497944 508.3528924738123 134.74664033937242 0.0 0.0
896.2668493183575 74.55244924774945 475.8670155389053 140.69332001101745 0.0 0.0
860.771848570248 66.75158137461602 453.8974703845585 146.65842189498372 0.0 0.0
824.0543375990527 58.10385643044073 430.93324379838947 151.1483532472992 0.0 0.0
785.8708363031963 48.76408761940375 406.96569636984196 154.51262898431585 0.0 0.0
745.7798754523437 39.39772792248017 381.99029736158104 157.48532411628486 0.0 0.0
701.9827060253141 29.927971427506616 354.77340593443233 160.41668986550758 0.0 0.0
655.2598786653869 23.899319797074345 326.8995917229876 163.55958938822982 0.0 0.0
603.2025559427021 22.74615648122439 294.9365639146453 168.4677039530291 0.0 0.0
534.9260865492834 25.550245012269137 247.90477321519694 175.19454638178394 0.0 0.0
433.03116298596285 17.593564225267052 174.42148039121943 188.58669459107264 0.0 0.0
306.10830810171865 2.7479557582398044 101.53964506167705 203.07587926916497 0.0 0.0
196.38309018516713 -0.859833863694623 58.78997333551728 199.93318895830316 0.0 0.0
121.53152974306403 11.350422719673697 39.71383595976769 181.70202375741258 0.0 0.0
68.26730919246873 23.788567560757464 27.60660146548351 174.0320256630979 0.0 0.0
24.979150519085266 -2.4409355270768724 6.758176599508918 182.67455426926838 0.0 0.0
150.82157663365174 -4.06717051447983 55.75196513160901 217.89445222116038 0.0 0.0
-327.2386069222855 -897.8365440461215 -458.56917362070766 80.83837916664955 0.0 0.0
-227.20489871437672 -747.9196333085989 -336.782334537724 -92.16060015788095 0.0 0.0
95.84126695079284 -30.371996597162713 24.7890776954937 -211.06427101212688 0.0 0.0
-2.423228351999292 -6.944175331087032 -2.835268457271199 -190.14291464400517 0.0 0.0
22.46810873853989 22.518491690793695 13.490911517610515 -185.11339895623377 0.0 0.0
53.35467758976511 14.644897147170083 20.352682661401676 -192.92440601046783 0.0 0.0
94.42222547826857 2.4270644648863295 29.02650250834737 -213.93233386892695 0.0 0.0
156.0639344889954 -2.870022790074235 47.08225747296336 -228.07297116364157 0.0 0.0
254.05234264070558 -7.3784545997169575 79.60865159476198 -223.2118558681077 0.0 0.0
367.35826063511377 -13.186542220255374 123.85939981565546 -199.50827615612852 0.0 0.0
449.62491606805355 -10.159562070347889 169.36471117756312 -177.87996551906446 0.0 0.0
505.80592845536813 -1.973846469509489 208.26385585011127 -172.39979275223973 0.0 0.0
548.076113219512 5.217974493252939 238.5577016265345 -171.19742602793835 0.0 0.0
584.6673173340475 12.825074182984217 264.1220984704929 -170.48032451367322 0.0 0.0
618.5139026911377 20.541825704532613 287.0807302047477 -169.50538109664365 0.0 0.0
651.8544551224379 28.7666321773728 309.97374941381366 -167.93630100941647 0.0 0.0
687.2123086234876 37.66884496443183 334.58727239801675 -165.14675905411238 0.0 0.0
725.1629030141419 45.912622401466066 360.62955945009537 -159.84816050606628 0.0 0.0
765.0830532036977 52.82027878391676 386.88748056806946 -152.43638913827564 0.0 0.0
837.6593712903352 90.42620978802373 442.21728364289464 -147.58873052500792 0.0 0.0
945.0636214037079 158.79548346959763 533.2259038589796 -148.082615538767 0.0 0.0
-87.42505277654104 -800.5560071104306 -433.7584226572601 4.1318060084449826e-11 0.0 0.0
945.06362140375 158.7954834698544 533.2259038588959 148.08261553886803 0.0 0.0
837.6593712882777 90.42620978582748 442.21728364154205 147.58873052495244 0.0 0.0
765.0830532033674 52.820278784002824 386.88748056791525 152.43638913853388 0.0 0.0
725.1629030135812 45.91262240079425 360.629559449562 159.84816050621941 0.0 0.0
687.2123086249667 37.66884496645014 334.5872723990672 165.1467590542017 0.0 0.0
651.8544551211431 28.766632175527732 309.97374941310613 167.9363010093429 0.0 0.0
618.5139026904382 20.54182570403149 287.08073020435586 169.5053810968039 0.0 0.0
584.667317333684 12.825074182525569 264.1220984701973 170.48032451357432 0.0 0.0
548.0761132192458 5.217974493161897 238.557701626361 171.1974260279376 0.0 0.0
505.80592845424883 -1.9738464708251122 208.26385584942102 172.39979275221256 0.0 0.0
449.6249160673471 -10.15956207107471 169.36471117706253 177.8799655188932 0.0 0.0
367.3582606339304 -13.18654222154076 123.85939981492066 199.50827615615282 0.0 0.0
254.05234264006353 -7.378454600015604 79.60865159445498 223.21185586808554 0.0 0.0
156.06393448895813 -2.870022789769832 47.0822574730342 228.0729711635352 0.0 0.0
94.42222547849177 2.427064465552065 29.026502508620887 213.9323338686372 0.0 0.0
53.354677589487345 14.644897146646736 20.352682661164792 192.92440601010034 0.0 0.0
22.46810873855407 22.518491691066593 13.490911517696874 185.1133989560134 0.0 0.0
-2.423228352080311 -6.9441753310744065 -2.8352684572933793 190.14291464383086 0.0 0.0
95.8412669506354 -30.371996597221003 24.789077695394187 211.06427101193134 0.0 0.0
-227.204898713692 -747.9196333076746 -336.7823345369911 92.16060015780175 0.0 0.0
-156.4288707742696 -609.0208674460398 -244.196673365146 -105.2996880563013 0.0 0.0
44.587863297801206 -51.21522350712201 -0.21329589742998412 -197.48940240511786 0.0 0.0
-29.6442229266569 -7.539591043384955 -11.164148687681083 -193.97115491163183 0.0 0.0
-22.857416919188573 20.76666188972227 -0.6473824438799287 -191.45067851698764 0.0 0.0
-14.017881241187299 17.725498760357656 1.1085583181418694 -198.64667957655476 0.0 0.0
-7.063556139016658 6.987324746958038 -0.007102286880173558 -219.14044191331962 0.0 0.0
-3.432392055903577 0.769603580662257 -0.8023480250752879 -235.9072990814094 0.0 0.0
-1.391236090128011 0.17045394888122445 -0.3676520690758647 -238.71036705268685 0.0 0.0
-0.4255505439631264 -0.029412092159851966 -0.14206691452382358 -233.73834643784255 0.0 0.0
-0.15983527910407247 -0.0024375000852359108 -0.048371558799210845 -228.04143950311715 0.0 0.0
-0.5463550483722628 -0.008926913336281928 -0.08761708179989114 -215.07599963724923 0.0 0.0
-1.1718336735248442 0.2547651289969508 0.322039483376102 -202.35732880863915 0.0 0.0
-1.5946801085563322 1.2718153659332785 0.6407987518211087 -193.83360975393117 0.0 0.0
1.8408615685524694 3.726327682953439 1.3145796224653452 -187.30468612410579 0.0 0.0
14.243667076593766 8.841825152525658 3.1234716496484225 -182.55103246390308 0.0 0.0
42.368247583841196 17.823001096962386 8.013098570584873 -178.266624912498 0.0 0.0
95.5742048784854 32.501274439658076 18.407381474501477 -172.5651562341442 0.0 0.0
187.1031247557767 43.80079418459246 25.61021874630208 -163.45545088148722 0.0 0.0
413.90117485215643 5.72219822558543 47.33565227953315 -160.18541894190727 0.0 0.0
657.654415855592 45.33718791860565 271.0298355078413 -208.9306302708259 0.0 0.0
-808.176140733955 -1064.9456787318943 -858.2205611708025 9.327294492322835e-11 0.0 0.0
657.6544158581942 45.337187922497094 271.0298355097865 208.93063027074868 0.0 0.0
413.90117485188074 5.722198224953331 47.33565227911424 160.18541894272846 0.0 0.0
187.10312475686757 43.80079418636805 25.610218747147798 163.4554508824384 0.0 0.0
95.57420487711423 32.50127443724895 18.40738147299325 172.56515623438884 0.0 0.0
42.36824758448154 17.8230010975455 8.013098571028848 178.26662491227086 0.0 0.0
14.243667073792821 8.841825148488766 3.123471647127829 182.55103246387785 0.0 0.0
1.840861568594434 3.726327683140653 1.3145796224723654 187.30468612412352 0.0 0.0
-1.5946801086162168 1.2718153656260753 0.6407987516626719 193.8336097542302 0.0 0.0
-1.1718336731310757 0.25476512887735936 0.3220394834273108 202.3573288085808 0.0 0.0
-0.546355048864271 -0.008926914485169135 -0.0876170824285154 215.07599963714875 0.0 0.0
-0.15983527867334857 -0.002437500179052421 -0.04837155871295451 228.0414395027809 0.0 0.0
-0.42555054411998583 -0.02941209326455052 -0.14206691492183054 233.73834643785116 0.0 0.0
-1.391236089495834 0.17045395011951792 -0.3676520685024496 238.71036705275407 0.0 0.0
-3.432392055767526 0.7696035806766468 -0.8023480250306472 235.90729908128745 0.0 0.0
-7.063556139168561 6.9873247462942025 -0.007102287124701956 219.1404419130332 0.0 0.0
-14.017881241002403 17.725498760662738 1.10855831828855 198.64667957622586 0.0 0.0
-22.85741691922702 20.76666188948801 -0.647382443963064 191.45067851682555 0.0 0.0
-29.644222926664163 -7.539591043341874 -11.16414868767168 193.97115491156796 0.0 0.0
44.58786329742438 -51.215223507299896 -0.21329589762029944 197.48940240489625 0.0 0.0
-156.4288707739477 -609.0208674453005 -244.19667336470494 105.29968805626036 0.0 0.0
-116.95389572788841 -485.0689955677013 -181.70879368570036 -115.47434949260537 0.0 0.0
1.1129168034122898 -64.32256667159578 -18.798681055770203 -179.78856054500056 0.0 0.0
-55.814168389213066 -6.396975419472025 -18.684217600673808 -192.8860529366933 0.0 0.0
-67.32823013362501 19.100381558446056 -14.50161317334459 -192.79927459786637 0.0 0.0
-80.13673276507893 20.146375725412117 -18.010749455969858 -198.5231281032143 0.0 0.0
-107.07886654672635 11.280926851708761 -28.840189696572565 -215.14695353814477 0.0 0.0
-161.87395342402692 4.365346141563903 -48.56854463533853 -229.0161440248106 0.0 0.0
-255.615878814411 7.362802273224325 -80.32960576621595 -223.63481010356753 0.0 0.0
-367.67637576045735 13.046729467907 -124.11648810964512 -199.6488941378688 0.0 0.0
-449.6741321811209 10.097131573285758 -169.4215198244393 -177.8322237366925 0.0 0.0
-506.3890008173306 1.8136114260832272 -208.71861032439688 -172.40880030818056 0.0 0.0
-549.0203019442757 -4.976247238835072 -239.54183918979152 -170.93851350008066 0.0 0.0
-585.3058215792094 -10.740990509899774 -264.2688910175886 -169.72406220042248 0.0 0.0
-614.556456423076 -13.762714866830933 -281.93644485879213 -168.87581251758223 0.0 0.0
-633.9346998876368 -12.857637218048922 -290.84161233559445 -169.13271443301437 0.0 0.0
-641.5808760430791 -6.87405635706304 -288.9344587518061 -171.10738306157631 0.0 0.0
-636.4931527454502 3.815492914580375 -274.47407559294254 -175.63302358227446 0.0 0.0
-628.0252530162588 11.671028948914653 -251.17652411036056 -184.83827024827832 0.0 0.0
-600.0398570464481 69.1626590872577 -182.5913948961614 -198.24106269991424 0.0 0.0
-321.18375096945147 207.3670790363611 70.70456407259925 -175.49601944830752 0.0 0.0
-1397.6922881773198 -1355.6300856410592 -1416.936230627967 -1.9196733092030627e-10 0.0 0.0
-321.1837509684446 207.36707903861395 70.70456407360248 175.4960194489782 0.0 0.0
-600.03985704655 69.16265908692147 -182.59139489613037 198.24106269988272 0.0 0.0
-628.0252530163177 11.671028948484377 -251.1765241103435 184.8382702485304 0.0 0.0
-636.4931527462898 3.8154929134690576 -274.4740755934588 175.6330235822466 0.0 0.0
-641.5808760427764 -6.874056356869076 -288.93445875156146 171.10738306153658 0.0 0.0
-633.9346998878077 -12.85763721880545 -290.84161233542966 169.13271443291137 0.0 0.0
-614.5564564229305 -13.762714866968793 -281.93644485872494 168.8758125176898 0.0 0.0
-585.3058215795854 -10.740990510531354 -264.2688910178629 169.72406220056268 0.0 0.0
-549.0203019438436 -4.976247238939763 -239.5418391894888 170.9385135000915 0.0 0.0
-506.38900081708516 1.8136114259755267 -208.71861032417098 172.4088003080175 0.0 0.0
-449.6741321802832 10.097131573970957 -169.42151982380145 177.83222373666723 0.0 0.0
-367.6763757597817 13.04672946801093 -124.11648810932502 199.64889413808288 0.0 0.0
-255.6158788139505 7.362802273135538 -80.32960576605575 223.63481010360172 0.0 0.0
-161.87395342383792 4.365346140899078 -48.56854463546645 229.01614402475107 0.0 0.0
-107.07886654631127 11.280926851880857 -28.840189696401737 215.14695353785706 0.0 0.0
-80.13673276475788 20.146375725866285 -18.0107494557421 198.5231281029594 0.0 0.0
-67.32823013354376 19.100381558523864 -14.501613173299615 192.799274597739 0.0 0.0
-55.81416838912694 -6.396975419376535 -18.68421760062001 192.88605293663107 0.0 0.0
1.1129168032438874 -64.3225666718244 -18.79868105588879 179.78856054488494 0.0 0.0
-116.95389572795239 -485.0689955668753 -181.70879368554068 115.47434949241939 0.0 0.0
-98.16356472582841 -370.70140322143743 -140.63078648063959 -110.77729936747482 0.0 0.0
-27.647106546613692 -72.07356356581788 -29.9095059410205 -165.3797810031744 0.0 0.0
-80.43148119660596 -5.442543339715568 -25.74933874203109 -188.5907160860659 0.0 0.0
-110.12679561153993 17.706783525367516 -27.769374116116733 -189.05956751294912 0.0 0.0
-144.98273638319415 21.869178279435403 -36.90962761478719 -193.3708799759342 0.0 0.0
-205.28110173066847 13.779805744735523 -58.20488351878676 -203.72883179784324 0.0 0.0
-307.9159792610777 -2.055359931471772 -102.70016065112836 -203.2010994944665 0.0 0.0
-433.13025012683767 -17.785369404720548 -174.73426691833868 -189.32640695411283 0.0 0.0
-534.8811187893698 -25.732904152905554 -247.98878001643823 -175.33424761469888 0.0 0.0
-603.1132460387322 -22.757391949987678 -294.92897588422693 -168.48558039038963 0.0 0.0
-655.3881172940945 -23.882449445656988 -327.0071950975688 -163.43050139148238 0.0 0.0
-702.5279881314511 -29.68546637208081 -355.04205413372034 -159.75138735589505 0.0 0.0
-745.799762468579 -37.81230785609422 -381.4265859990819 -156.2172115603425 0.0 0.0
-781.3345771659078 -42.792594745834066 -402.02635748258615 -153.61167060849763 0.0 0.0
-806.4675525251175 -42.0577216015775 -414.4030118621658 -152.87559636812725 0.0 0.0
-818.5664647177787 -33.680110486907665 -416.21025390751856 -154.3163251517589 0.0 0.0
-819.3942775074247 -20.497470789611782 -409.5671450599576 -158.1343953549205 0.0 0.0
-809.3568992484718 -4.521641861649442 -395.9870868842316 -164.11706428598956 0.0 0.0
-756.9244901344302 45.42518845269586 -344.1959877182551 -170.9824858525922 0.0 0.0
-621.9380710689989 162.67826855811592 -219.4941466613421 -178.60020064602568 0.0 0.0
-2212.0055176791257 -1655.7744664128732 -1905.390217509836 -8.37019342725398e-12 0.0 0.0
-621.9380710692717 162.67826855755396 -219.49414666170958 178.60020064624268 0.0 0.0
-756.9244901341505 45.42518845321122 -344.1959877180799 170.98248585257505 0.0 0.0
-809.3568992485121 -4.5216418619882575 -395.9870868843036 164.1170642861012 0.0 0.0
-819.394277507111 -20.497470789362396 -409.5671450598752 158.1343953548926 0.0 0.0
-818.5664647192577 -33.68011048892275 -416.21025390861917 154.3163251521199 0.0 0.0
-806.4675525235239 -42.05772159977386 -414.4030118610247 152.8755963679944 0.0 0.0
-781.3345771659613 -42.792594746352556 -402.0263574827683 153.61167060872557 0.0 0.0
-745.7997624687822 -37.81230785647212 -381.4265859992688 156.21721156031805 0.0 0.0
-702.5279881310842 -29.685466372070028 -355.04205413351366 159.75138735598026 0.0 0.0
-655.3881172936059 -23.88244944538738 -327.0071950973115 163.43050139131694 0.0 0.0
-603.1132460386505 -22.757391950245513 -294.92897588422585 168.48558039047353 0.0 0.0
-534.8811187888512 -25.73290415264922 -247.9887800159837 175.334247614666 0.0 0.0
-433.13025012658306 -17.785369405189197 -174.73426691815445 189.32640695414702 0.0 0.0
-307.9159792604977 -2.0553599316872893 -102.70016065092291 203.20109949448874 0.0 0.0
-205.2811017301611 13.779805744869913 -58.2048835185874 203.72883179769036 0.0 0.0
-144.9827363830624 21.86917827931699 -36.90962761479854 193.37087997564225 0.0 0.0
-110.12679561143385 17.70678352540677 -27.769374116078726 189.0595675128839 0.0 0.0
-80.43148119658758 -5.442543339750974 -25.749338742041267 188.59071608583966 0.0 0.0
-27.647106546792102 -72.07356356605825 -29.909505941146165 165.37978100316576 0.0 0.0
-98.16356472564294 -370.7014032209652 -140.63078648042847 110.77729936735801 0.0 0.0
-80.71302571605692 -275.14350552130577 -106.75695937120878 -100.16216376305198 0.0 0.0
-47.16669276306318 -72.94842052599975 -36.034161819097775 -151.0585031829062 0.0 0.0
-103.18025950275688 -5.019402941461246 -32.42261057354368 -180.06704662691234 0.0 0.0
-151.32041423892298 16.457551436369 -40.4325922932507 -181.23831975197643 0.0 0.0
-207.5706995862859 21.66646256181478 -55.887948738590346 -181.2050851340328 0.0 0.0
-299.8771847619786 9.294100165930107 -91.3508717751872 -180.7341019109447 0.0 0.0
-431.11876308809536 -18.830713289476048 -164.65330115560363 -173.2905935151367 0.0 0.0
-553.1662058068548 -41.528519425959075 -258.92921350294796 -161.36866604819573 0.0 0.0
-640.6048339201909 -45.98437638809658 -326.9901316999203 -155.3088575950169 0.0 0.0
-700.8350232530522 -42.412739886554945 -363.74924291824135 -151.70030768010184 0.0 0.0
-751.6845224832687 -45.518504976084955 -392.436217769084 -148.12245810351575 0.0 0.0
-801.3880738624689 -54.054635765844225 -421.9713372213071 -144.82605435698758 0.0 0.0
-848.9403748857346 -64.85872567113148 -451.3880572399363 -141.27127512535245 0.0 0.0
-890.1091460718093 -73.58954458657757 -476.58670706296283 -138.45393043313433 0.0 0.0
-920.8671764439437 -75.9243889599473 -493.34828053059846 -137.64174551627156 0.0 0.0
-937.4636278583462 -69.34363912983008 -498.44662140079527 -139.62664517005936 0.0 0.0
-939.0310551993297 -52.9615994692557 -491.06538301150886 -144.1507526456532 0.0 0.0
-916.6040598835694 -19.229828974976442 -462.90345351368325 -149.37957227916579 0.0 0.0
-855.2043377244433 45.27704799330536 -400.33967871059076 -152.99753085756006 0.0 0.0
-678.0379169970604 212.222040300483 -230.5370825585444 -152.0236825076158 0.0 0.0
-2650.9808827048546 -1881.6903455446163 -2245.2387235270135 2.0373036591081473e-10 0.0 0.0
-678.0379169972377 212.22204030016167 -230.53708255869736 152.02368250785221 0.0 0.0
-855.2043377242387 45.27704799343465 -400.33967871039727 152.99753085772932 0.0 0.0
-916.6040598823903 -19.229828973742727 -462.90345351294127 149.3795722790872 0.0 0.0
-939.0310551986928 -52.96159946873631 -491.0653830112499 144.15075264563774 0.0 0.0
-937.4636278607102 -69.34363913273505 -498.4466214025211 139.6266451703755 0.0 0.0
-920.8671764441281 -75.92438896033269 -493.34828053068406 137.6417455165241 0.0 0.0
-890.1091460715938 -73.58954458658648 -476.5867070628386 138.453930433098 0.0 0.0
-848.9403748860086 -64.8587256715455 -451.3880572402344 141.27127512524552 0.0 0.0
-801.3880738624625 -54.05463576625408 -421.9713372213365 144.82605435715217 0.0 0.0
-751.6845224836284 -45.51850497685696 -392.436217769465 148.122458103649 0.0 0.0
-700.8350232535153 -42.41273988747067 -363.7492429185792 151.7003076801567 0.0 0.0
-640.6048339194831 -45.98437638769099 -326.9901316994178 155.30885759505523 0.0 0.0
-553.1662058063132 -41.528519425784225 -258.9292135024435 161.3686660481635 0.0 0.0
-431.1187630874324 -18.830713289207385 -164.65330115509934 173.29059351503622 0.0 0.0
-299.8771847609013 9.294100166683624 -91.35087177461423 180.73410191091034 0.0 0.0
-207.57069958577688 21.66646256223097 -55.88794873832714 181.20508513394998 0.0 0.0
-151.32041423909453 16.45755143563854 -40.43259229353386 181.23831975203422 0.0 0.0
-103.1802595026874 -5.019402941395452 -32.42261057349931 180.06704662666078 0.0 0.0
-47.166692763038064 -72.94842052612725 -36.03416181913086 151.0585031829819 0.0 0.0
-80.71302571584215 -275.14350552091605 -106.75695937102745 100.16216376296748 0.0 0.0
-65.75988945215957 -195.36371937800163 -78.33708264904834 -86.41991448597936 0.0 0.0
-61.67678512124922 -68.56697358061344 -39.073331861635374 -135.0842362671639 0.0 0.0
-124.17435498720951 -4.785100805239713 -38.66194159027221 -167.2024140546084 0.0 0.0
-190.20283335277617 14.367391400551282 -52.72385870097868 -168.19275991165114 0.0 0.0
-270.1054984717017 19.235136437574262 -75.68607603963586 -164.3407754673655 0.0 0.0
-390.62520614253594 -0.519304941690999 -129.2104121629743 -154.58798340275735 0.0 0.0
-528.8726600271332 -37.96270900837163 -227.55257082587067 -142.5830640711656 0.0 0.0
-641.1234287461184 -58.21100376396572 -324.70720038565895 -137.04119521563058 0.0 0.0
-718.2857188423304 -60.48987328928325 -381.114269462436 -134.77940747405472 0.0 0.0
-774.0530603716734 -62.06278351876381 -413.8175238004726 -132.5218606476683 0.0 0.0
-827.4345976945682 -66.76375051488455 -443.34790838710967 -130.85253423451798 0.0 0.0
-879.7111089115114 -77.28928410546237 -474.87396935629556 -128.06663508825727 0.0 0.0
-931.0866448544741 -91.34931440012303 -507.7374802707567 -124.7266290765066 0.0 0.0
-978.087834843788 -104.6844476232784 -538.092384647562 -121.82623367903305 0.0 0.0
-1014.9569235625011 -111.77618111847812 -560.275559887376 -120.8284830369764 0.0 0.0
-1035.2144682011003 -106.1973991305569 -567.7811624640144 -122.87201019019558 0.0 0.0
-1031.157238997111 -82.51463736622986 -554.043318408774 -127.0422042028055 0.0 0.0
-994.2191488386254 -31.16620171620977 -510.06061752525807 -131.36363384095833 0.0 0.0
-901.0871936820089 68.27655261399707 -414.40970204441646 -132.4129223794581 0.0 0.0
-709.9742414243076 251.7142103925692 -228.38633643187222 -128.74159888311056 0.0 0.0
-3000.7273601966867 -2119.617358311564 -2544.1516030900675 4.831335331800801e-11 0.0 0.0
-709.9742414233963 251.71421039331693 -228.3863364311576 128.7415988832105 0.0 0.0
-901.0871936807364 68.27655261513333 -414.4097020434027 132.41292237971476 0.0 0.0
-994.2191488382919 -31.16620171601521 -510.0606175249766 131.36363384117556 0.0 0.0
-1031.1572389966927 -82.51463736588912 -554.0433184085601 127.0422042027613 0.0 0.0
-1035.2144682016228 -106.19739913135167 -567.781162464398 122.87201019035103 0.0 0.0
-1014.9569235618756 -111.7761811180119 -560.2755598867877 120.82848303706834 0.0 0.0
-978.0878348429221 -104.68444762245554 -538.0923846469575 121.82623367882181 0.0 0.0
-931.086644854395 -91.34931440035427 -507.73748027078614 124.72662907654168 0.0 0.0
-879.7111089117326 -77.28928410595144 -474.8739693564128 128.06663508839483 0.0 0.0
-827.4345976944999 -66.76375051507874 -443.34790838708807 130.8525342343355 0.0 0.0
-774.0530603716221 -62.06278351897197 -413.8175238004565 132.52186064765186 0.0 0.0
-718.2857188413307 -60.489873288461496 -381.11426946169263 134.77940747384008 0.0 0.0
-641.1234287461325 -58.21100376440048 -324.7072003855074 137.0411952156196 0.0 0.0
-528.8726600264147 -37.962709008096084 -227.55257082527598 142.58306407110405 0.0 0.0
-390.62520614172536 -0.5193049411603887 -129.21041216248764 154.58798340274504 0.0 0.0
-270.10549847099895 19.23513643805791 -75.68607603929115 164.34077546719848 0.0 0.0
-190.20283335270958 14.367391400279024 -52.723858701052485 168.19275991143377 0.0 0.0
-124.17435498715983 -4.785100805128788 -38.66194159022853 167.20241405450204 0.0 0.0
-61.676785121118456 -68.56697358052948 -39.07333186157061 135.0842362671834 0.0 0.0
-65.75988945197649 -195.36371937771193 -78.33708264890653 86.41991448576519 0.0 0.0
-54.44509215870906 -130.53860667977858 -55.49510965154628 -71.55088168780227 0.0 0.0
-72.8666454793419 -60.37888812955903 -39.97366008267028 -116.84781696897306 0.0 0.0
-143.6936491227995 -4.3224079002135944 -44.39534641281744 -150.13165474439626 0.0 0.0
-227.58964381475718 11.704319793142444 -64.61933026646797 -151.14148394077378 0.0 0.0
-331.34726079093895 12.503497275644634 -97.60778749069293 -140.66712530981874 0.0 0.0
-471.8789758209854 -15.504386051096613 -171.86598590918106 -125.28867544319563 0.0 0.0
-607.0614984302223 -53.714394444210264 -284.9384723238924 -115.92589820907142 0.0 0.0
-708.5884168696701 -69.69719654696604 -374.08248391355374 -114.04699989324679 0.0 0.0
-777.6499514735693 -76.34653508196786 -422.5999029721289 -113.05262534438299 0.0 0.0
-836.7917409343768 -79.66044847931069 -455.5444421507327 -113.34602540136275 0.0 0.0
-891.7871131831608 -87.30828033449309 -487.03047841441105 -112.25954231025442 0.0 0.0
-946.9201262243935 -100.41143285761243 -521.2065349135265 -109.98241196589771 0.0 0.0
-1001.8295587094146 -117.45454124569366 -557.2668984519578 -107.10023152837992 0.0 0.0
-1053.9591398081066 -135.01127246166064 -592.2254205206594 -104.34699129193709 0.0 0.0
-1097.542209811707 -147.5642319586823 -620.4709710082934 -102.98843396362122 0.0 0.0
-1120.4271050908053 -143.49095598568425 -630.1090203885889 -104.26095361147146 0.0 0.0
-1109.2438873546225 -109.67386836550642 -607.8274726570094 -107.88761500812329 0.0 0.0
-1050.3836240719618 -35.01970360718326 -541.3549388640432 -111.29057665222473 0.0 0.0
-930.870762642696 91.3860279363991 -418.8785379264484 -111.80311829696008 0.0 0.0
-737.2023350794019 277.6161499114588 -229.5373109531918 -110.14448601680067 0.0 0.0
-3295.526530398811 -2341.0877024845086 -2805.685430570349 4.5922377012175275e-11 0.0 0.0
-737.2023350801709 277.6161499106213 -229.537310953982 110.14448601701662 0.0 0.0
-930.870762642555 91.38602793645883 -418.8785379264837 111.80311829707522 0.0 0.0
-1050.3836240735932 -35.01970360900761 -541.3549388651383 111.29057665252883 0.0 0.0
-1109.243887354754 -109.67386836563998 -607.8274726571999 107.88761500789145 0.0 0.0
-1120.4271050891332 -143.49095598410506 -630.109020387525 104.26095361130348 0.0 0.0
-1097.5422098104495 -147.56423195748383 -620.4709710073753 102.98843396341884 0.0 0.0
-1053.9591398077891 -135.011272461428 -592.2254205203434 104.34699129175937 0.0 0.0
-1001.8295587091128 -117.45454124560283 -557.2668984518497 107.10023152836038 0.0 0.0
-946.920126224001 -100.41143285743274 -521.206534913197 109.98241196582507 0.0 0.0
-891.7871131819154 -87.30828033336076 -487.030478413713 112.25954230995599 0.0 0.0
-836.7917409341877 -79.6604484794566 -455.54444215064 113.34602540138675 0.0 0.0
-777.649951472394 -76.34653508088671 -422.59990297128513 113.05262534409833 0.0 0.0
-708.5884168693241 -69.69719654693714 -374.0824839132348 114.04699989317336 0.0 0.0
-607.0614984293553 -53.714394443742464 -284.93847232317955 115.9258982090983 0.0 0.0
-471.87897582069746 -15.504386051364959 -171.86598590895227 125.28867544320741 0.0 0.0
-331.34726079037364 12.503497275840015 -97.60778749045006 140.6671253096687 0.0 0.0
-227.58964381447032 11.704319793238756 -64.61933026636186 151.14148394054854 0.0 0.0
-143.6936491228799 -4.322407900438058 -44.39534641290768 150.13165474441988 0.0 0.0
-72.86664547948203 -60.37888812964986 -39.97366008273957 116.84781696880154 0.0 0.0
-54.44509215892831 -130.53860667975127 -55.495109651603855 71.55088168770837 0.0 0.0
-46.748989570816555 -80.22235588647328 -38.09140363718694 -56.26088021763994 0.0 0.0
-81.4797682300621 -49.81428773895598 -39.38821679070542 -96.45844187716585 0.0 0.0
-161.9657983019082 -3.3897452963691115 -49.60717057795672 -128.84095468261754 0.0 0.0
-263.91375053039974 7.329482927874356 -76.8250202023922 -129.03740959505555 0.0 0.0
-393.9920688497199 3.253235734708424 -122.20486335048076 -113.82811132037436 0.0 0.0
-539.4879067270181 -33.63517575693935 -217.32868322803546 -95.05612426022496 0.0 0.0
-668.8787011424761 -64.32392219511235 -332.86916476221523 -91.64777580198378 0.0 0.0
-758.8485243126763 -81.48384152077944 -411.56698772423255 -90.94920588877486 0.0 0.0
-830.1369471881711 -90.07708253845846 -457.4446686396948 -92.16520155882506 0.0 0.0
-890.9549399445038 -97.29798418021988 -492.3170428194314 -93.14377443932861 0.0 0.0
-949.098603230446 -108.05041729181039 -526.8163767818905 -92.55418787739899 0.0 0.0
-1007.040952047831 -123.5677244992522 -563.5809882527575 -90.84464809812849 0.0 0.0
-1064.7610476263415 -142.8518256625816 -602.1366785755135 -88.6093319098447 0.0 0.0
-1120.6047539833594 -164.16152186299354 -640.7763339755569 -86.20529346982951 0.0 0.0
-1169.6230849908213 -180.9787030362733 -673.8300780082543 -84.38159840053305 0.0 0.0
-1197.0069328107688 -179.62924558536326 -687.0970308207465 -84.45119718576122 0.0 0.0
-1179.898692954567 -138.83030509219327 -658.4592459551484 -86.88798507078162 0.0 0.0
-1100.666547816699 -42.41268405746925 -570.9362842178195 -90.11833843160579 0.0 0.0
-957.2246406337314 108.47399248328897 -424.08018793778837 -92.40551754346754 0.0 0.0
-754.8794746841913 302.8443774689636 -225.97176454770945 -94.6278417523922 0.0 0.0
-3546.7489860831147 -2538.02667269522 -3032.2064987530066 -4.9617199238127796e-11 0.0 0.0
-754.8794746857709 302.8443774672857 -225.97176454898874 94.62784175245487 0.0 0.0
-957.224640632939 108.47399248401106 -424.0801879373849 92.4055175435179 0.0 0.0
-1100.666547818294 -42.412684059202064 -570.9362842189591 90.11833843173802 0.0 0.0
-1179.8986929525406 -138.83030509029976 -658.4592459540028 86.88798507070416 0.0 0.0
-1197.0069328101536 -179.62924558485648 -687.0970308203356 84.45119718587836 0.0 0.0
-1169.6230849901503 -180.97870303569414 -673.8300780077948 84.3815984004349 0.0 0.0
-1120.6047539839176 -164.16152186368979 -640.7763339758889 86.20529346964236 0.0 0.0
-1064.761047626239 -142.85182566268202 -602.1366785755202 88.60933190972415 0.0 0.0
-1007.040952046619 -123.56772449829027 -563.5809882519519 90.8446480981548 0.0 0.0
-949.0986032290741 -108.05041729062877 -526.8163767810552 92.55418787730726 0.0 0.0
-890.9549399442335 -97.29798418026522 -492.3170428192686 93.14377443932035 0.0 0.0
-830.136947188268 -90.0770825388494 -457.44466863975504 92.16520155877073 0.0 0.0
-758.8485243115504 -81.48384151991749 -411.5669877234398 90.94920588867195 0.0 0.0
-668.8787011414522 -64.3239221944155 -332.8691647613725 91.64777580188493 0.0 0.0
-539.4879067264537 -33.63517575668724 -217.32868322753214 95.0561242600948 0.0 0.0
-393.9920688489269 3.253235735173158 -122.20486335007003 113.82811132028962 0.0 0.0
-263.91375052996455 7.329482928138891 -76.8250202021918 129.03740959495497 0.0 0.0
-161.96579830195182 -3.38974529656575 -49.60717057802874 128.8409546826105 0.0 0.0
-81.47976822997624 -49.81428773896634 -39.388216790682755 96.45844187704948 0.0 0.0
-46.748989570586374 -80.22235588634226 -38.09140363707858 56.260880217730666 0.0 0.0
-42.04944788367113 -44.10668498937892 -25.846839861915008 -41.0343437220085 0.0 0.0
-87.57620416726493 -38.18735226061798 -37.72906692836486 -74.15211576104191 0.0 0.0
-179.02693979650448 -2.0991925017077118 -54.33806016716793 -103.16827618223608 0.0 0.0
-301.16397688325713 1.54960038169258 -89.69441493497006 -102.13009411050707 0.0 0.0
-453.58457577207 -10.251695277940405 -150.68702367801913 -83.01116107831916 0.0 0.0
-599.891345043133 -47.15312542108764 -261.2131622813767 -69.51268706877322 0.0 0.0
-714.5758489882421 -73.75662423488131 -371.3065043654324 -68.58488044143853 0.0 0.0
-801.7016189190151 -91.2769746981965 -441.3017876784916 -68.75262050697287 0.0 0.0
-875.1460042117649 -104.0398014173036 -487.8980790023426 -70.7256863369163 0.0 0.0
-939.5754978153682 -115.11977897499548 -526.0869967462108 -72.04111187314416 0.0 0.0
-1000.8277947539016 -128.95294103297195 -563.6552123408209 -71.87377774280901 0.0 0.0
-1061.80243421616 -147.02046399057417 -603.1948934133217 -70.73097951842288 0.0 0.0
-1121.8413755868878 -168.61437268595327 -644.0542179554021 -69.14957222919001 0.0 0.0
-1179.331826323809 -190.33047889273317 -683.6923632502196 -67.37772559237777 0.0 0.0
-1230.6056235076412 -209.21321744253513 -718.8516848277495 -65.35609798906401 0.0 0.0
-1264.0107942063707 -213.29238122053556 -737.8093069913505 -63.882924401186095 0.0 0.0
-1251.2658791596668 -175.22221652399043 -712.750233855194 -64.64332071291878 0.0 0.0
-1158.2669788605886 -63.853024273185156 -610.898528915498 -68.23492012693349 0.0 0.0
-985.7371369194409 116.69042929735585 -434.5828721206944 -73.52482904760309 0.0 0.0
-758.1551324739385 336.6064823778802 -210.87712176439277 -80.69509384369945 0.0 0.0
-3754.366961492221 -2700.8902843697683 -3219.3286705278465 8.117950756059145e-13 0.0 0.0
-758.1551324740185 336.60648237767685 -210.87712176450037 80.6950938440113 0.0 0.0
-985.7371369173202 116.69042929952525 -434.5828721191915 73.52482904756951 0.0 0.0
-1158.2669788597157 -63.85302427245085 -610.8985289149794 68.2349201268471 0.0 0.0
-1251.2658791596405 -175.22221652394967 -712.7502338552865 64.64332071285577 0.0 0.0
-1264.0107942048587 -213.29238121927668 -737.8093069902507 63.88292440114346 0.0 0.0
-1230.6056235088315 -209.21321744388405 -718.8516848285423 65.35609798925745 0.0 0.0
-1179.331826324834 -190.33047889394675 -683.6923632509042 67.37772559226873 0.0 0.0
-1121.841375585974 -168.6143726852423 -644.0542179548352 69.14957222910697 0.0 0.0
-1061.8024342158794 -147.0204639905496 -603.1948934130593 70.73097951847224 0.0 0.0
-1000.8277947524819 -128.95294103170252 -563.6552123398731 71.87377774251243 0.0 0.0
-939.5754978146327 -115.11977897452326 -526.0869967457566 72.04111187305574 0.0 0.0
-875.1460042117384 -104.03980141766148 -487.89807900235195 70.7256863369836 0.0 0.0
-801.7016189184628 -91.27697469796956 -441.3017876780972 68.75262050703151 0.0 0.0
-714.5758489874719 -73.75662423442539 -371.3065043647984 68.58488044137101 0.0 0.0
-599.8913450427597 -47.1531254210645 -261.21316228093355 69.51268706862324 0.0 0.0
-453.58457577161954 -10.251695278013162 -150.6870236777989 83.01116107839513 0.0 0.0
-301.1639768827184 1.5496003820801147 -89.69441493471702 102.13009411044442 0.0 0.0
-179.02693979633395 -2.099192501533952 -54.33806016706435 103.16827618200941 0.0 0.0
-87.57620416728865 -38.18735226074 -37.72906692840859 74.15211576103155 0.0 0.0
-42.049447883599754 -44.10668498925302 -25.846839861855827 41.03434372202131 0.0 0.0
-39.09502842434423 -21.786165362153824 -18.26435813594941 -26.690758139846118 0.0 0.0
-90.4963922310964 -26.81221918497134 -35.19258342482032 -50.244693761146955 0.0 0.0
-194.59538224447363 -1.0393885315908067 -58.69043123281933 -72.45994911719646 0.0 0.0
-340.8481548217573 -5.200681959870981 -103.71888942720224 -69.81897649515963 0.0 0.0
-508.2141563593634 -26.498742330252544 -183.05442994177758 -52.00419834573574 0.0 0.0
-647.5254019361993 -57.07256460913959 -300.88361381634644 -46.26739010205988 0.0 0.0
-749.227279966163 -81.40634285120898 -400.43894670897873 -46.05945230729064 0.0 0.0
-838.7600040632011 -101.60609859602121 -466.9921784143679 -46.94680647072491 0.0 0.0
-915.436532489131 -118.66741234404198 -515.8896078120115 -48.724832971301616 0.0 0.0
-983.4915764776658 -133.31881930264169 -557.519492103208 -50.06153056873415 0.0 0.0
-1048.199318157354 -150.07568101595282 -598.2788969491987 -50.27785213268455 0.0 0.0
-1111.8713079940699 -170.61686365675234 -640.4001757450014 -49.68594669989012 0.0 0.0
-1174.265910139883 -193.3619259860613 -683.0011091102815 -48.8080195408462 0.0 0.0
-1232.1849830185956 -215.76095213938842 -723.2040451715102 -47.63932795752409 0.0 0.0
-1281.8821752595977 -232.52672008353449 -756.5017424361515 -45.90313641826977 0.0 0.0
-1316.0777315069306 -236.85172127041062 -775.8714128525218 -43.595330113123495 0.0 0.0
-1318.850717481636 -213.65405609708495 -765.8860410931238 -42.26197759290221 0.0 0.0
-1246.871938693328 -121.92944277688991 -684.4343057099113 -45.07057579464107 0.0 0.0
-1033.747493883653 100.76736180480889 -466.84452907338886 -53.791199606718536 0.0 0.0
-731.5424932488535 396.5820218462096 -167.77095893210904 -67.15964824666227 0.0 0.0
-3904.519826478653 -2811.89224397772 -3351.458781708458 -5.121769675042742e-11 0.0 0.0
-731.5424932489989 396.58202184593864 -167.77095893213232 67.15964824696267 0.0 0.0
-1033.747493884394 100.76736180400607 -466.8445290739231 53.79119960690928 0.0 0.0
-1246.8719386931261 -121.92944277673254 -684.4343057098778 45.0705757944603 0.0 0.0
-1318.8507174831916 -213.65405609886955 -765.8860410942415 42.26197759308886 0.0 0.0
-1316.0777315054424 -236.85172126896956 -775.8714128514657 43.59533011315585 0.0 0.0
-1281.8821752616038 -232.526720085774 -756.5017424376183 45.903136418303234 0.0 0.0
-1232.1849830187211 -215.76095213971308 -723.2040451715521 47.63932795750661 0.0 0.0
-1174.2659101384995 -193.3619259848681 -683.0011091093717 48.80801954069727 0.0 0.0
-1111.8713079939555 -170.6168636569612 -640.4001757449197 49.685946700068506 0.0 0.0
-1048.199318156811 -150.07568101564058 -598.2788969488968 50.27785213271299 0.0 0.0
-983.4915764770668 -133.31881930230767 -557.5194921027702 50.06153056860048 0.0 0.0
-915.4365324874378 -118.66741234266166 -515.8896078109817 48.724832971344 0.0 0.0
-838.76000406352 -101.60609859668453 -466.99217841451105 46.94680647075988 0.0 0.0
-749.2272799655601 -81.40634285097117 -400.4389467084692 46.05945230731352 0.0 0.0
-647.5254019360393 -57.07256460939841 -300.88361381601123 46.267390102078664 0.0 0.0
-508.2141563588337 -26.49874233021812 -183.05442994144295 52.004198345775734 0.0 0.0
-340.84815482138737 -5.200681959834887 -103.71888942709211 69.81897649516374 0.0 0.0
-194.5953822443163 -1.0393885315504494 -58.69043123276002 72.45994911698779 0.0 0.0
-90.4963922310309 -26.81221918504591 -35.19258342482303 50.244693761115926 0.0 0.0
-39.095028424238286 -21.786165361988395 -18.264358135868008 26.690758139892054 0.0 0.0
-35.46589898734926 -12.175042306602798 -14.292282388185617 -14.945557836959695 0.0 0.0
-88.72473016638739 -17.497576484449063 -31.866691995250928 -25.182223241326305 0.0 0.0
-208.424273557621 -1.3944583029094582 -62.94561955815912 -35.13463396254252 0.0 0.0
-381.7806200700537 -12.182871054949942 -119.48902454853601 -32.12224985200232 0.0 0.0
-559.122804015751 -40.06610148192439 -216.90812273012983 -23.974882419199183 0.0 0.0
-682.5259436112095 -64.25814589356614 -334.0545329167147 -24.56241797784179 0.0 0.0
-779.7931354901963 -87.25033133366789 -423.58760516139506 -24.962675579266666 0.0 0.0
-871.0427887542098 -112.39309517973844 -489.62461801343096 -25.31082068414944 0.0 0.0
-951.585530837473 -133.5932438854761 -541.7320845848585 -26.242414172198735 0.0 0.0
-1023.6188449125715 -152.1765003048789 -587.2928162600351 -27.24479992019408 0.0 0.0
-1091.4491453810672 -171.52468163575318 -630.9190168289502 -27.751420413390907 0.0 0.0
-1157.8689053872167 -193.67939939199124 -675.2150433436959 -27.778508732010074 0.0 0.0
-1222.134559453284 -218.3389871500274 -719.7062120380715 -27.47726999448523 0.0 0.0
-1280.6899500575512 -240.29024176079326 -760.0069361827682 -26.91593994582766 0.0 0.0
-1326.7809315101417 -253.12281828605688 -789.5435998822256 -25.83935924909395 0.0 0.0
-1354.7566125237354 -251.25511567288606 -802.6705610126835 -23.87223680597002 0.0 0.0
-1363.194410309391 -233.77360217548596 -798.1680251367937 -21.453175473430576 0.0 0.0
-1344.9396372455597 -194.80851792615266 -769.6983426109258 -21.566359884002402 0.0 0.0
-1204.6077129421046 -42.08661629327469 -623.7604509676671 -30.30822715215761 0.0 0.0
-697.1255930624437 462.47301760991877 -118.02183260483082 -51.33280221219087 0.0 0.0
-3831.0976728732967 -2701.6985454018945 -3261.2118203530076 6.391509543846041e-11 0.0 0.0
-697.12559306305 462.47301760927127 -118.02183260528096 51.33280221233946 0.0 0.0
-1204.6077129444873 -42.08661629576467 -623.7604509692696 30.308227152305406 0.0 0.0
-1344.939637245026 -194.80851792572875 -769.6983426105681 21.56635988391923 0.0 0.0
-1363.1944103085743 -233.77360217478113 -798.1680251362901 21.45317547350627 0.0 0.0
-1354.7566125235346 -251.25511567286938 -802.6705610124147 23.87223680606793 0.0 0.0
-1326.7809315123143 -253.12281828841316 -789.5435998837455 25.839359249142706 0.0 0.0
-1280.6899500573097 -240.2902417607674 -760.0069361824796 26.915939945888102 0.0 0.0
-1222.1345594529469 -218.33898714988555 -719.7062120380172 27.477269994352717 0.0 0.0
-1157.868905386345 -193.67939939138745 -675.2150433431918 27.77850873207227 0.0 0.0
-1091.4491453814803 -171.52468163643772 -630.9190168292397 27.75142041341497 0.0 0.0
-1023.6188449123746 -152.1765003049933 -587.2928162598242 27.24479992009222 0.0 0.0
-951.5855308354375 -133.59324388369333 -541.7320845836082 26.242414172130253 0.0 0.0
-871.0427887546618 -112.3930951805351 -489.6246180136576 25.310820684049364 0.0 0.0
-779.7931354900853 -87.2503313338621 -423.5876051612401 24.962675579193196 0.0 0.0
-682.5259436112657 -64.25814589404878 -334.05453291652896 24.56241797772529 0.0 0.0
-559.1228040147228 -40.066101481197066 -216.90812272941906 23.974882419283446 0.0 0.0
-381.78062006953434 -12.182871054699897 -119.48902454829789 32.12224985189628 0.0 0.0
-208.42427355750834 -1.3944583030471862 -62.94561955816665 35.13463396258765 0.0 0.0
-88.72473016631594 -17.49757648449533 -31.866691995243375 25.182223241268066 0.0 0.0
-35.465898987378445 -12.175042306598606 -14.292282388193117 14.9455578370399 0.0 0.0
-23.875640072853862 -6.397455559962859 -9.081928689845018 -9.012653268621975 0.0 0.0
-78.0644270212949 -10.056149508267088 -26.436172958868593 -10.469498590763079 0.0 0.0
-220.26891529241954 -4.419434188093973 -67.40650484415404 -11.285020412190015 0.0 0.0
-431.5524625946916 -35.21200145069955 -145.04315379487204 -6.1561730249285205 0.0 0.0
-638.4838778913614 -96.59076256702146 -276.59817321663206 1.371983365046443 0.0 0.0
-793.9815698267702 -157.6351084296908 -429.77494061622656 1.3739227691983622 0.0 0.0
-938.1326233158183 -230.24305439733342 -564.2870765729158 0.0623802313289481 0.0 0.0
-1091.338990671027 -318.8101620061642 -692.374603574219 -1.574232258417645 0.0 0.0
-1254.9731639842653 -423.7274743366172 -828.0375037150282 -3.5190742976035523 0.0 0.0
-1438.6166255836604 -553.5447588498982 -984.7541685705157 -5.605209556672408 0.0 0.0
-1648.5977883741791 -714.3433341812272 -1169.7203454858156 -7.47054521760864 0.0 0.0
-1884.241668426309 -905.6806172110619 -1382.7453164115373 -8.858487049722568 0.0 0.0
-2137.6026595772505 -1118.4380601635055 -1615.3924028890276 -9.777875461078574 0.0 0.0
-2395.908819864273 -1339.6761173402342 -1854.8657205545028 -10.436201319973943 0.0 0.0
-2640.2430729661173 -1550.4112151381123 -2082.2218869935195 -10.600852742273467 0.0 0.0
-2845.7802198606732 -1726.0378012771403 -2272.7374965464905 -9.97331172430447 0.0 0.0
-2986.7014480610515 -1841.314544155224 -2400.7548488643406 -8.386875964759106 0.0 0.0
-3062.030790147917 -1895.969084739524 -2465.1862834047242 -7.704168101256496 0.0 0.0
-3165.6070233657765 -1985.3414419799014 -2560.174577773576 -15.934194216744922 0.0 0.0
-3308.9560973317753 -2127.3544444205613 -2700.817077490388 -41.54409582968635 0.0 0.0
-6987.886153756669 -5830.40658481768 -6385.859110184414 8.905942650017096e-11 0.0 0.0
-3308.956097332386 -2127.3544444211866 -2700.8170774907894 41.544095829724775 0.0 0.0
-3165.607023366643 -1985.341441980905 -2560.174577773747 15.934194216802126 0.0 0.0
-3062.030790143426 -1895.9690847350935 -2465.1862834011567 7.704168101306472 0.0 0.0
-2986.7014480598345 -1841.3145441541321 -2400.754848863232 8.386875964816 0.0 0.0
-2845.780219857461 -1726.0378012740712 -2272.737496543903 9.97331172428391 0.0 0.0
-2640.2430729681478 -1550.4112151403554 -2082.221886994506 10.600852742220326 0.0 0.0
-2395.9088198626614 -1339.6761173388463 -1854.865720552843 10.436201320153955 0.0 0.0
-2137.602659577011 -1118.438060163498 -1615.3924028886822 9.777875461095455 0.0 0.0
-1884.241668424112 -905.6806172091018 -1382.7453164098376 8.85848704967561 0.0 0.0
-1648.5977883736573 -714.3433341809725 -1169.7203454852006 7.470545217515298 0.0 0.0
-1438.6166255828275 -553.5447588493753 -984.754168569686 5.605209556495229 0.0 0.0
-1254.9731639817956 -423.72747433441253 -828.0375037133166 3.519074297425373 0.0 0.0
-1091.3389906703753 -318.8101620058497 -692.3746035736403 1.5742322582829011 0.0 0.0
-938.132623316284 -230.24305439818556 -564.2870765729904 -0.062380231396144126 0.0 0.0
-793.9815698267639 -157.63510843012426 -429.77494061593325 -1.3739227693138218 0.0 0.0
-638.4838778900748 -96.59076256593488 -276.59817321568073 -1.3719833649065265 0.0 0.0
-431.55246259408875 -35.21200145027729 -145.04315379453482 6.1561730247848985 0.0 0.0
-220.26891529212935 -4.419434187985036 -67.40650484403429 11.285020412280442 0.0 0.0
-78.06442702121316 -10.056149508405824 -26.436172958885695 10.469498590634526 0.0 0.0
-23.875640072664623 -6.397455559928225 -9.081928689777856 9.012653268813432 0.0 0.0
SCALARS Strain float 6
LOOKUP_TABLE default
0.01629338439694495 -0.026649991066614545 0.0 -0.0018851440208480378 0.0 0.0
0.010046580600260441 -0.0033695812885725426 0.0 -0.007967033333685463 0.0 0.0
0.002933311211698246 -0.0006578374746624873 0.0 -0.0010525478566262905 0.0 0.0
0.002442173260433491 -0.0009667233019392259 0.0 4.543690805777529e-05 0.0 0.0
0.003879316251511382 -0.0017964065443368225 0.0 0.00028940348777580616 0.0 0.0
0.00703909178598781 -0.004264041320646552 0.0 0.0004927103995090441 0.0 0.0
0.012534851517216589 -0.009065456985367936 0.0 0.0006381806522688816 0.0 0.0
0.020866193713368508 -0.0166631300383092 0.0 0.0006766397183776713 0.0 0.0
0.03239876415871592 -0.02738360041690946 0.0 0.0005941863854258044 0.0 0.0
0.047235026376736836 -0.04127211099974454 0.0 0.0003457570681658482 0.0 0.0
0.0652105962518935 -0.058128535033879034 0.0 -3.584536420998157e-05 0.0 0.0
0.08600243230876248 -0.07763295292330778 0.0 -0.0005208248077257293 0.0 0.0
0.10922262427826004 -0.09943969172063138 0.0 -0.001105419606563012 0.0 0.0
0.13444925127202437 -0.12317773045509459 0.0 -0.0017463639587085005 0.0 0.0
0.161148546056256 -0.1483774002662056 0.0 -0.002451271970615638 0.0 0.0
0.18853983519297934 -0.17433283501953675 0.0 -0.00316507600997379 0.0 0.0
0.21552073614426892 -0.20001979905820266 0.0 -0.0037319307729377043 0.0 0.0
0.24069013175507664 -0.22411084306941798 0.0 -0.003946238357479013 0.0 0.0
0.26248002756051103 -0.24503094124366476 0.0 -0.0037260654279780833 0.0 0.0
0.27888846589732474 -0.26087086397703807 0.0 -0.004790949649587543 0.0 0.0
0.2854474330682921 -0.26747288191814267 0.0 1.5543122344752192e-15 0.0 0.0
0.27888846589728594 -0.26087086397701376 0.0 0.0047909496496002894 0.0 0.0
0.2624800275604321 -0.24503094124357988 0.0 0.0037260654279938077 0.0 0.0
0.24069013175496473 -0.22411084306931228 0.0 0.003946238357485912 0.0 0.0
0.21552073614413592 -0.2000197990580722 0.0 0.003731930772933774 0.0 0.0
0.18853983519283646 -0.1743328350193998 0.0 0.003165076009970952 0.0 0.0
0.1611485460561122 -0.14837740026608115 0.0 0.002451271970610562 0.0 0.0
0.13444925127188326 -0.12317773045496613 0.0 0.0017463639587108597 0.0 0.0
0.10922262427812313 -0.09943969172049777 0.0 0.0011054196065591075 0.0 0.0
0.0860024323086359 -0.07763295292319082 0.0 0.000520824807721411 0.0 0.0
0.06521059625178477 -0.05812853503377595 0.0 3.5845364204289184e-05 0.0 0.0
0.047235026376649586 -0.04127211099966128 0.0 -0.00034575706817106464 0.0 0.0
0.032398764158650124 -0.02738360041684687 0.0 -0.0005941863854264852 0.0 0.0
0.020866193713321327 -0.016663130038275294 0.0 -0.0006766397183754925 0.0 0.0
0.012534851517184751 -0.00906545698534729 0.0 -0.0006381806522686437 0.0 0.0
0.007039091785970361 -0.004264041320632843 0.0 -0.0004927103995075282 0.0 0.0
0.003879316251504416 -0.0017964065443333943 0.0 -0.0002894034877736461 0.0 0.0
0.0024421732604312184 -0.0009667233019391177 0.0 -4.543690805775096e-05 0.0 0.0
0.00293331121169586 -0.000657837474661667 0.0 0.0010525478566267331 0.0 0.0
0.010046580600253801 -0.003369581288568925 0.0 0.007967033333672113 0.0 0.0
0.01629338439693565 -0.026649991066588722 0.0 0.0018851440207984951 0.0 0.0
0.011579972249865258 -0.024000899519038082 0.0 -0.0014289523941106578 0.0 0.0
0.006762231915712154 -0.002540308377260874 0.0 -0.00664238309637133 0.0 0.0
0.001879210699901691 -0.00047888497867761785 0.0 -0.0006552888809689259 0.0 0.0
0.002126580892433844 -0.0009040338014170825 0.0 -0.0001780575966457762 0.0 0.0
0.0033002904597909267 -0.0015989722840932018 0.0 -0.0001420714260585809 0.0 0.0
0.005997531261625712 -0.0038206440481462134 0.0 -0.0002788011774862182 0.0 0.0
0.010896538850184656 -0.008306095705611716 0.0 -0.000701445006225368 0.0 0.0
0.01846018933260402 -0.015512816281430346 0.0 -0.0013893913732264285 0.0 0.0
0.02897782497430411 -0.0257226360096686 0.0 -0.002367434566891004 0.0 0.0
0.04247186428842048 -0.03894017944589413 0.0 -0.003597044250757131 0.0 0.0
0.0587486603358417 -0.054950679693066155 0.0 -0.004961877677622531 0.0 0.0
0.0775149866905437 -0.07344680901960216 0.0 -0.0063605946847767126 0.0 0.0
0.09845785755071543 -0.09411631914208203 0.0 -0.007776254101630764 0.0 0.0
0.12122335972819705 -0.11662573328184736 0.0 -0.009201132628091597 0.0 0.0
0.14534383019178512 -0.14053707847498456 0.0 -0.010576380070271669 0.0 0.0
0.17014394766389376 -0.1651994728256339 0.0 -0.011751502388554408 0.0 0.0
0.1946658730832743 -0.18966780199646202 0.0 -0.012422870473014581 0.0 0.0
0.21765972246326795 -0.21268750221914745 0.0 -0.012246933591843295 0.0 0.0
0.23750214217992438 -0.23268580941744788 0.0 -0.011200342549250666 0.0 0.0
0.2517154708425406 -0.24750995019072097 0.0 -0.010601325866214786 0.0 0.0
0.25702734125715937 -0.253736254833844 0.0 8.468052647980784e-15 0.0 0.0
0.2517154708425044 -0.24750995019069733 0.0 0.010601325866242484 0.0 0.0
0.2375021421798539 -0.23268580941736983 0.0 0.011200342549284125 0.0 0.0
0.21765972246317047 -0.2126875022190444 0.0 0.01224693359186175 0.0 0.0
0.1946658730831578 -0.18966780199633776 0.0 0.012422870473009912 0.0 0.0
0.17014394766376553 -0.16519947282551264 0.0 0.011751502388548732 0.0 0.0
0.14534383019165573 -0.14053707847486638 0.0 0.010576380070267715 0.0 0.0
0.12122335972806986 -0.11662573328172293 0.0 0.00920113262809202 0.0 0.0
0.09845785755059268 -0.09411631914195737 0.0 0.00777625410162391 0.0 0.0
0.07751498669043015 -0.07344680901949216 0.0 0.00636059468476597 0.0 0.0
0.05874866033574276 -0.05495067969296804 0.0 0.004961877677611328 0.0 0.0
0.042471864288340905 -0.03894017944581228 0.0 0.003597044250747628 0.0 0.0
0.028977824974244497 -0.02572263600960826 0.0 0.00236743456688868 0.0 0.0
0.018460189332561633 -0.015512816281392661 0.0 0.0013893913732229328 0.0 0.0
0.010896538850156894 -0.008306095705588925 0.0 0.0007014450062204279 0.0 0.0
0.005997531261611254 -0.0038206440481373793 0.0 0.00027880117748399204 0.0 0.0
0.0033002904597856627 -0.0015989722840867374 0.0 0.00014207142606008152 0.0 0.0
0.0021265808924327456 -0.0009040338014185828 0.0 0.00017805759664572742 0.0 0.0
0.0018792106999010443 -0.00047888497867776963 0.0 0.0006552888809686601 0.0 0.0
0.006762231915704532 -0.0025403083772568462 0.0 0.006642383096357838 0.0 0.0
0.011579972249850985 -0.02400089951901065 0.0 0.0014289523940702845 0.0 0.0
0.008586331030832072 -0.019304212017510126 0.0 -0.004737539361466817 0.0 0.0
0.00484308636743911 -0.0014370575787074034 0.0 -0.006871772600641146 0.0 0.0
0.0012859090857766083 -0.00022922312371508703 0.0 -0.0005656462849226153 0.0 0.0
0.0017819355522283903 -0.0007520677273329544 0.0 -0.00047688398612673734 0.0 0.0
0.0027758379428528125 -0.0012529694693386554 0.0 -0.0005192293746610387 0.0 0.0
0.005013363385441258 -0.002982479020445161 0.0 -0.0007868368579122722 0.0 0.0
0.009279880460453705 -0.006812296194067832 0.0 -0.0015960187715818202 0.0 0.0
0.016030245261001413 -0.01321462587423514 0.0 -0.0029118773590149963 0.0 0.0
0.025476030457607293 -0.022374943830146862 0.0 -0.004755189980517787 0.0 0.0
0.03758484501489692 -0.034231427195121775 0.0 -0.007004251434909139 0.0 0.0
0.05214267671993861 -0.048539639361899534 0.0 -0.009444724021419324 0.0 0.0
0.0688783385146683 -0.06501746511794684 0.0 -0.011893429613476204 0.0 0.0
0.08752767087067584 -0.08340797815800316 0.0 -0.014306177460156583 0.0 0.0
0.10780922250299199 -0.10344701008723876 0.0 -0.01671394082095816 0.0 0.0
0.1293407214702156 -0.12477369640644478 0.0 -0.0190376513558215 0.0 0.0
0.1515635679686242 -0.14685191776532214 0.0 -0.021007830994221936 0.0 0.0
0.1736752160393803 -0.16889526202550345 0.0 -0.022157204375708568 0.0 0.0
0.1945266667179651 -0.1897850328192504 0.0 -0.022004031836475063 0.0 0.0
0.21244154900655354 -0.20793838161545156 0.0 -0.020428254790446316 0.0 0.0
0.22526229441471127 -0.2211108949649384 0.0 -0.017688229862388254 0.0 0.0
0.23010981626218635 -0.22698716018853676 0.0 1.7492084170012134e-14 0.0 0.0
0.22526229441467915 -0.22111089496492012 0.0 0.01768822986243619 0.0 0.0
0.21244154900649193 -0.207938381615388 0.0 0.020428254790497945 0.0 0.0
0.1945266667178787 -0.1897850328191556 0.0 0.022004031836506066 0.0 0.0
0.1736752160392775 -0.16889526202539995 0.0 0.022157204375703683 0.0 0.0
0.1515635679685107 -0.14685191776522308 0.0 0.021007830994211794 0.0 0.0
0.12934072147009987 -0.12477369640633951 0.0 0.019037651355816056 0.0 0.0
0.10780922250287911 -0.10344701008712408 0.0 0.016713940820951234 0.0 0.0
0.08752767087056687 -0.08340797815790048 0.0 0.014306177460146993 0.0 0.0
0.06887833851456722 -0.06501746511784971 0.0 0.011893429613457698 0.0 0.0
0.05214267671985096 -0.04853963936181365 0.0 0.009444724021403962 0.0 0.0
0.03758484501482634 -0.03423142719505074 0.0 0.007004251434895959 0.0 0.0
0.025476030457553346 -0.022374943830095802 0.0 0.004755189980509526 0.0 0.0
0.016030245260962823 -0.013214625874197774 0.0 0.00291187735900697 0.0 0.0
0.009279880460429256 -0.006812296194044384 0.0 0.0015960187715723323 0.0 0.0
0.005013363385429106 -0.0029824790204391553 0.0 0.0007868368579094687 0.0 0.0
0.0027758379428484926 -0.0012529694693347781 0.0 0.0005192293746619646 0.0 0.0
0.0017819355522271116 -0.0007520677273348719 0.0 0.0004768839861271783 0.0 0.0
0.0012859090857765285 -0.0002292231237164793 0.0 0.0005656462849217042 0.0 0.0
0.004843086367431626 -0.001437057578703201 0.0 0.006871772600625792 0.0 0.0
0.008586331030816784 -0.019304212017482204 0.0 0.004737539361437131 0.0 0.0
0.0065518719604366425 -0.015634214355137076 0.0 -0.00518816744824141 0.0 0.0
0.003608665506428044 -0.0010283846124195682 0.0 -0.006293390774687783 0.0 0.0
0.000906745634862304 -0.00012400234965619845 0.0 -0.0008399046136306489 0.0 0.0
0.0014560678493104012 -0.0005851591977773798 0.0 -0.0007875420492463257 0.0 0.0
0.002302122042797512 -0.0009863372861796118 0.0 -0.0008619509427343422 0.0 0.0
0.004106491196707774 -0.002261053880636853 0.0 -0.001198551452160288 0.0 0.0
0.007712009616286599 -0.0053902181948685905 0.0 -0.0022027711214616607 0.0 0.0
0.013602835768750347 -0.010934775066589573 0.0 -0.004014564493442107 0.0 0.0
0.02193379271026847 -0.018998753316635208 0.0 -0.006506307013125612 0.0 0.0
0.03262311868954943 -0.029457590675989367 0.0 -0.009515070498230357 0.0 0.0
0.04544023916342053 -0.04204418114050875 0.0 -0.012750953547807862 0.0 0.0
0.0601341440730436 -0.056495130006635 0.0 -0.01599157073252245 0.0 0.0
0.07648302607424443 -0.0725982981266748 0.0 -0.019179391018440878 0.0 0.0
0.09426234721273495 -0.09014984060258438 0.0 -0.02232606996393274 0.0 0.0
0.11318497669412976 -0.10887358148577324 0.0 -0.025344644596146042 0.0 0.0
0.13282459216693998 -0.12835850962244447 0.0 -0.027946825430898676 0.0 0.0
0.15252034258131847 -0.14797609480600055 0.0 -0.029607220352069873 0.0 0.0
0.17123807610085642 -0.16674030227240352 0.0 -0.029728928001124613 0.0 0.0
0.1874635271100128 -0.18315205039871577 0.0 -0.027717339319481112 0.0 0.0
0.19936862507536632 -0.1952793779709792 0.0 -0.022587536275344437 0.0 0.0
0.20400449206424873 -0.20134676855865544 0.0 2.5664366465338873e-14 0.0 0.0
0.1993686250753382 -0.1952793779709654 0.0 0.02258753627541233 0.0 0.0
0.18746352710995814 -0.1831520503986609 0.0 0.0277173393195482 0.0 0.0
0.17123807610077954 -0.1667403022723315 0.0 0.029728928001161482 0.0 0.0
0.15252034258122896 -0.14797609480592488 0.0 0.029607220352069787 0.0 0.0
0.13282459216684167 -0.12835850962235232 0.0 0.027946825430886425 0.0 0.0
0.11318497669402788 -0.10887358148567469 0.0 0.025344644596139 0.0 0.0
0.09426234721263585 -0.09014984060249008 0.0 0.02232606996392447 0.0 0.0
0.07648302607414896 -0.07259829812658386 0.0 0.01917939101842565 0.0 0.0
0.06013414407295581 -0.05649513000655071 0.0 0.015991570732500626 0.0 0.0
0.04544023916334428 -0.04204418114043278 0.0 0.012750953547785156 0.0 0.0
0.03262311868948685 -0.02945759067593077 0.0 0.00951507049821112 0.0 0.0
0.021933792710220824 -0.018998753316590258 0.0 0.006506307013112417 0.0 0.0
0.013602835768716622 -0.01093477506655627 0.0 0.0040145644934312975 0.0 0.0
0.007712009616266273 -0.00539021819485015 0.0 0.002202771121453793 0.0 0.0
0.004106491196698748 -0.0022610538806311447 0.0 0.0011985514521578153 0.0 0.0
0.00230212204279488 -0.0009863372861784526 0.0 0.0008619509427337394 0.0 0.0
0.0014560678493102063 -0.0005851591977785173 0.0 0.0007875420492463508 0.0 0.0
0.0009067456348627203 -0.00012400234965634488 0.0 0.000839904613630112 0.0 0.0
0.0036086655064215154 -0.001028384612415723 0.0 0.006293390774673839 0.0 0.0
0.006551871960423062 -0.01563421435511202 0.0 0.005188167448220043 0.0 0.0
0.005015796350603033 -0.012661757460310133 0.0 -0.004591471118028787 0.0 0.0
0.0027238244041246427 -0.0008044034763227117 0.0 -0.0056059058370977015 0.0 0.0
0.000655058718747469 -7.831770156256694e-05 0.0 -0.001244369070564097 0.0 0.0
0.001170094469550095 -0.00044199273433921334 0.0 -0.0011293185021273712 0.0 0.0
0.0018782669523697928 -0.0007757941815408509 0.0 -0.0011951870852745482 0.0 0.0
0.0032923818077967753 -0.0016740213585235096 0.0 -0.0015342292132727506 0.0 0.0
0.0062237612492648834 -0.004089800908834354 0.0 -0.002595413671337697 0.0 0.0
0.011208951130078257 -0.008707149418218369 0.0 -0.004661165265664033 0.0 0.0
0.01839271146816381 -0.01563682581355015 0.0 -0.007610776068918834 0.0 0.0
0.02763269008469033 -0.024668393570832045 0.0 -0.011127657971194352 0.0 0.0
0.03869049744193762 -0.03551480316841556 0.0 -0.014891819974350188 0.0 0.0
0.051328448649322345 -0.047926770373014856 0.0 -0.01866036642670073 0.0 0.0
0.06536531335683944 -0.06173347220046546 0.0 -0.022375632942027726 0.0 0.0
0.08063887200099354 -0.07678982310942384 0.0 -0.02603448461438412 0.0 0.0
0.0969375409182128 -0.09289748832468671 0.0 -0.02951814864254068 0.0 0.0
0.11395379236696407 -0.10975862498549595 0.0 -0.03255285079015574 0.0 0.0
0.1311906252159384 -0.12690198318489793 0.0 -0.0346839203245313 0.0 0.0
0.1478045866512955 -0.14352644177748847 0.0 -0.035209295352392145 0.0 0.0
0.16252737013907995 -0.15837650064881492 0.0 -0.03294648657637678 0.0 0.0
0.173807505740552 -0.16982080759327675 0.0 -0.026254725310931915 0.0 0.0
0.17838420733901655 -0.17631949220756593 0.0 3.258764785796231e-14 0.0 0.0
0.1738075057405262 -0.16982080759326182 0.0 0.026254725311004742 0.0 0.0
0.16252737013903165 -0.158376500648767 0.0 0.032946486576444764 0.0 0.0
0.1478045866512293 -0.1435264417774222 0.0 0.03520929535243292 0.0 0.0
0.1311906252158612 -0.1269019831848315 0.0 0.034683920324537626 0.0 0.0
0.11395379236687891 -0.10975862498541217 0.0 0.03255285079014353 0.0 0.0
0.09693754091812577 -0.09289748832461074 0.0 0.029518148642528635 0.0 0.0
0.08063887200090866 -0.07678982310933899 0.0 0.026034484614373257 0.0 0.0
0.0653653133567573 -0.06173347220038161 0.0 0.02237563294200835 0.0 0.0
0.051328448649247585 -0.047926770372947104 0.0 0.01866036642667692 0.0 0.0
0.0386904974418728 -0.03551480316835343 0.0 0.014891819974318717 0.0 0.0
0.027632690084636986 -0.02466839357077669 0.0 0.011127657971171483 0.0 0.0
0.018392711468122654 -0.015636825813508427 0.0 0.0076107760689054175 0.0 0.0
0.011208951130049853 -0.008707149418190554 0.0 0.004661165265649259 0.0 0.0
0.0062237612492486005 -0.0040898009088197315 0.0 0.002595413671331804 0.0 0.0
0.003292381807789448 -0.001674021358517731 0.0 0.0015342292132696674 0.0 0.0
0.001878266952367502 -0.0007757941815370731 0.0 0.0011951870852738727 0.0 0.0
0.0011700944695497925 -0.0004419927343402669 0.0 0.001129318502126944 0.0 0.0
0.0006550587187473977 -7.831770156203636e-05 0.0 0.0012443690705625573 0.0 0.0
0.0027238244041184172 -0.0008044034763194343 0.0 0.005605905837084618 0.0 0.0
0.0050157963505910496 -0.012661757460288206 0.0 0.004591471118015271 0.0 0.0
0.0037963518660551303 -0.01016958983093702 0.0 -0.0037842820846906815 0.0 0.0
0.0020469284692987864 -0.0006446395320909685 0.0 -0.0049320452398328605 0.0 0.0
0.00047798943381219575 -6.758655319416788e-05 0.0 -0.0016369044774270918 0.0 0.0
0.0009186910810378365 -0.0003192752893202795 0.0 -0.0014714802609235291 0.0 0.0
0.0015015607892244476 -0.0006080190878765435 0.0 -0.0015295607273343394 0.0 0.0
0.002571955990947517 -0.0012146700684509408 0.0 -0.001815416929683989 0.0 0.0
0.004852297382883797 -0.0029570243021744555 0.0 -0.0028488723275377813 0.0 0.0
0.008897002809200607 -0.006596108711292698 0.0 -0.004916110518363715 0.0 0.0
0.014886036582705688 -0.01233238669042568 0.0 -0.008048515479084209 0.0 0.0
0.022658665857124102 -0.019912383956999888 0.0 -0.011836687168262515 0.0 0.0
0.03194022849440807 -0.02900219390472502 0.0 -0.015866185575243028 0.0 0.0
0.04251128477739025 -0.039364490777885466 0.0 -0.019900813315717466 0.0 0.0
0.05422736575103164 -0.050865624166172185 0.0 -0.023882551848493697 0.0 0.0
0.06698319664755552 -0.06341951882136054 0.0 -0.027806571516399207 0.0 0.0
0.08064670606841717 -0.07690152062111096 0.0 -0.03154446380046657 0.0 0.0
0.09500450223134176 -0.09110461382238341 0.0 -0.03482520886560313 0.0 0.0
0.10971434129139757 -0.10570078265293127 0.0 -0.037284274392768844 0.0 0.0
0.12420338096970632 -0.12014429229838253 0.0 -0.03823726996645231 0.0 0.0
0.13752327671739661 -0.13352690486749186 0.0 -0.036175972092259125 0.0 0.0
0.1483676450235154 -0.14450499644637088 0.0 -0.02889950768483753 0.0 0.0
0.1529905508256209 -0.15162288346918582 0.0 3.0573633902353237e-14 0.0 0.0
0.14836764502349303 -0.14450499644634632 0.0 0.028899507684916767 0.0 0.0
0.1375232767173555 -0.13352690486745453 0.0 0.03617597209233763 0.0 0.0
0.12420338096965022 -0.12014429229832299 0.0 0.038237269966497955 0.0 0.0
0.10971434129133176 -0.10570078265286485 0.0 0.03728427439277785 0.0 0.0
0.09500450223127035 -0.09110461382231279 0.0 0.03482520886558982 0.0 0.0
0.0806467060683443 -0.07690152062104093 0.0 0.03154446380045408 0.0 0.0
0.06698319664748452 -0.06341951882128724 0.0 0.02780657151638151 0.0 0.0
0.05422736575096334 -0.05086562416609843 0.0 0.023882551848474855 0.0 0.0
0.04251128477732805 -0.03936449077782825 0.0 0.019900813315689544 0.0 0.0
0.0319402284943542 -0.0290021939046746 0.0 0.01586618557521255 0.0 0.0
0.022658665857079586 -0.019912383956952568 0.0 0.01183668716823355 0.0 0.0
0.014886036582671083 -0.012332386690391542 0.0 0.008048515479067984 0.0 0.0
0.008897002809176978 -0.006596108711271041 0.0 0.004916110518352774 0.0 0.0
0.004852297382870681 -0.002957024302163408 0.0 0.0028488723275313537 0.0 0.0
0.002571955990942258 -0.0012146700684458962 0.0 0.0018154169296807294 0.0 0.0
0.001501560789223521 -0.0006080190878746859 0.0 0.0015295607273346573 0.0 0.0
0.0009186910810380362 -0.00031927528932082115 0.0 0.0014714802609221622 0.0 0.0
0.00047798943381255875 -6.758655319457968e-05 0.0 0.001636904477424819 0.0 0.0
0.0020469284692944288 -0.0006446395320885523 0.0 0.004932045239819708 0.0 0.0
0.0037963518660459397 -0.010169589830918164 0.0 0.0037842820846825938 0.0 0.0
0.0028154002821794933 -0.008054155963539832 0.0 -0.0030406758083039616 0.0 0.0
0.001513859710597855 -0.0005176310004248375 0.0 -0.004319159982036413 0.0 0.0
0.00034294468000533907 -7.084317125202085e-05 0.0 -0.0019617714871038674 0.0 0.0
0.0006902533670562723 -0.00021110765421466143 0.0 -0.001784886630868867 0.0 0.0
0.0011609972858826413 -0.00046404889323881744 0.0 -0.001847831758057852 0.0 0.0
0.0019393460895027479 -0.0008674530751807213 0.0 -0.0020829777164708212 0.0 0.0
0.0036110355373154164 -0.002015320368603758 0.0 -0.0029689383105784657 0.0 0.0
0.00672163743999183 -0.004676632843186 0.0 -0.004889127503167615 0.0 0.0
0.011475059345577307 -0.00915534644869627 0.0 -0.007871196325461653 0.0 0.0
0.017743350054713364 -0.015241991055455602 0.0 -0.011623955610174826 0.0 0.0
0.025237704915469818 -0.022559068150323075 0.0 -0.015660277788097775 0.0 0.0
0.03373186882921027 -0.030862870426461173 0.0 -0.0197040424397578 0.0 0.0
0.04311922529394657 -0.04005322146504901 0.0 -0.023688190100966185 0.0 0.0
0.053350966226657665 -0.05009642280791175 0.0 -0.027621977966014444 0.0 0.0
0.06436241981664811 -0.060939508242743176 0.0 -0.03138952867343866 0.0 0.0
0.07602464648845385 -0.0724569694572267 0.0 -0.034727448920459786 0.0 0.0
0.08814042117257347 -0.08443472772592614 0.0 -0.03731321838337466 0.0 0.0
0.10042002121559325 -0.09659734699160867 0.0 -0.03866273573097547 0.0 0.0
0.1123165635414924 -0.10847874590814084 0.0 -0.03728955635886924 0.0 0.0
0.12282397739610021 -0.11909487709063227 0.0 -0.03051798803804862 0.0 0.0
0.12757171017574911 -0.1270046642289171 0.0 3.1166909331137305e-14 0.0 0.0
0.12282397739608228 -0.11909487709060193 0.0 0.0305179880381277 0.0 0.0
0.11231656354145798 -0.1084787459081094 0.0 0.037289556358946076 0.0 0.0
0.10042002121554673 -0.09659734699156047 0.0 0.03866273573101852 0.0 0.0
0.08814042117251965 -0.08443472772587278 0.0 0.037313218383383306 0.0 0.0
0.07602464648839628 -0.07245696945716802 0.0 0.034727448920442903 0.0 0.0
0.06436241981658888 -0.06093950824267799 0.0 0.031389528673423345 0.0 0.0
0.053350966226601855 -0.05009642280785791 0.0 0.027621977965997094 0.0 0.0
0.0431192252938934 -0.04005322146499418 0.0 0.023688190100951887 0.0 0.0
0.03373186882916074 -0.030862870426411067 0.0 0.019704042439732998 0.0 0.0
0.025237704915426873 -0.02255906815028281 0.0 0.01566027778806755 0.0 0.0
0.017743350054678256 -0.015241991055418555 0.0 0.011623955610146322 0.0 0.0
0.011475059345550908 -0.00915534644867231 0.0 0.00787119632544361 0.0 0.0
0.006721637439974264 -0.004676632843168698 0.0 0.004889127503156675 0.0 0.0
0.003611035537306 -0.002015320368598526 0.0 0.0029689383105686684 0.0 0.0
0.001939346089499017 -0.0008674530751774688 0.0 0.0020829777164695267 0.0 0.0
0.0011609972858819028 -0.0004640488932409327 0.0 0.0018478317580575242 0.0 0.0
0.0006902533670559791 -0.00021110765421493755 0.0 0.0017848866308654916 0.0 0.0
0.0003429446800050219 -7.084317125218339e-05 0.0 0.0019617714871020256 0.0 0.0
0.0015138597105941753 -0.0005176310004232161 0.0 0.004319159982028056 0.0 0.0
0.002815400282172691 -0.00805415596352456 0.0 0.0030406758082971797 0.0 0.0
0.002027294209335718 -0.0062640530539566554 0.0 -0.0024510414285548758 0.0 0.0
0.0010884255227860634 -0.0004174548411276523 0.0 -0.0037682852708845515 0.0 0.0
0.00022880697508781276 -7.224281587792257e-05 0.0 -0.0022074080708150423 0.0 0.0
0.00047380118757304915 -0.00011377625301242254 0.0 -0.002051161216320639 0.0 0.0
0.0008407402345132087 -0.00032510273629943176 0.0 -0.002126517457446993 0.0 0.0
0.0013875785350548646 -0.0006035243361624526 0.0 -0.0023512399422479747 0.0 0.0
0.0025119290392768092 -0.0012786091003677118 0.0 -0.0030136554287266922 0.0 0.0
0.004715373233004707 -0.003009874970302376 0.0 -0.004603140844950358 0.0 0.0
0.008227099406401477 -0.006200114180135537 0.0 -0.007185319359100481 0.0 0.0
0.01295069310884583 -0.010735897489350854 0.0 -0.010534444967981784 0.0 0.0
0.01862797467232253 -0.01624733079452975 0.0 -0.014261005245155523 0.0 0.0
0.0250400832218502 -0.02248393223250134 0.0 -0.018039592544060293 0.0 0.0
0.03209653023026954 -0.02936185460519085 0.0 -0.02176682306156696 0.0 0.0
0.03979121954923369 -0.036886551873306375 0.0 -0.025449305116382107 0.0 0.0
0.048134369596590613 -0.045072392536927075 0.0 -0.02901829063335502 0.0 0.0
0.057079594255943014 -0.053881154983832905 0.0 -0.03222966794374973 0.0 0.0
0.06652780820082874 -0.06319211127691673 0.0 -0.034738093174812974 0.0 0.0
0.07644780701214297 -0.072924261354765 0.0 -0.03627850287264855 0.0 0.0
0.08677243676184274 -0.08310823930015 0.0 -0.03596508408495518 0.0 0.0
0.09692988840803726 -0.09332431340815743 0.0 -0.030926141255569743 0.0 0.0
0.10184624362533777 -0.10219645768699528 0.0 3.279234522812757e-14 0.0 0.0
0.09692988840802323 -0.09332431340813979 0.0 0.030926141255645266 0.0 0.0
0.0867724367618157 -0.0831082393001195 0.0 0.03596508408503373 0.0 0.0
0.07644780701210721 -0.07292426135472038 0.0 0.03627850287269054 0.0 0.0
0.06652780820078723 -0.06319211127687654 0.0 0.03473809317481648 0.0 0.0
0.05707959425589858 -0.0538811549837889 0.0 0.03222966794372882 0.0 0.0
0.048134369596545976 -0.0450723925368845 0.0 0.029018290633339307 0.0 0.0
0.03979121954919283 -0.03688655187326566 0.0 0.02544930511637117 0.0 0.0
0.032096530230231096 -0.029361854605155426 0.0 0.0217668230615518 0.0 0.0
0.02504008322181257 -0.02248393223246348 0.0 0.018039592544038408 0.0 0.0
0.018627974672289934 -0.016247330794501514 0.0 0.014261005245124421 0.0 0.0
0.012950693108820233 -0.010735897489319211 0.0 0.010534444967958452 0.0 0.0
0.008227099406382464 -0.0062001141801169436 0.0 0.0071853193590852675 0.0 0.0
0.0047153732329921925 -0.003009874970297037 0.0 0.0046031408449398745 0.0 0.0
0.0025119290392707945 -0.0012786091003607416 0.0 0.003013655428718808 0.0 0.0
0.0013875785350531988 -0.000603524336162862 0.0 0.0023512399422455695 0.0 0.0
0.0008407402345128489 -0.0003251027362996756 0.0 0.0021265174574440077 0.0 0.0
0.00047380118757292923 -0.00011377625301211379 0.0 0.00205116121631991 0.0 0.0
0.00022880697508769604 -7.224281587799569e-05 0.0 0.002207408070814157 0.0 0.0
0.0010884255227833705 -0.0004174548411276678 0.0 0.0037682852708789414 0.0 0.0
0.002027294209330327 -0.006264053053944717 0.0 0.0024510414285505394 0.0 0.0
0.0014164810119054367 -0.00478376966108904 0.0 -0.0020415367280412124 0.0 0.0
0.000750866865941641 -0.0003458541234373802 0.0 -0.00327706916864778 0.0 0.0
0.0001185028173194165 -5.991003413521221e-05 0.0 -0.002376861172091581 0.0 0.0
0.00026397827833002174 -2.465332189441507e-05 0.0 -0.0022617657108016786 0.0 0.0
0.0005270712146897035 -0.00018187963784510982 0.0 -0.0023447670504580225 0.0 0.0
0.0008914059251294677 -0.00038277946581620145 0.0 -0.002604659826543913 0.0 0.0
0.0015598051596560517 -0.0007390133418166557 0.0 -0.003071821801675701 0.0 0.0
0.0029135797079653247 -0.0016634872927505002 0.0 -0.0041401021233449815 0.0 0.0
0.005196206331053009 -0.00357944412150048 0.0 -0.0060638274025431385 0.0 0.0
0.008355476149683327 -0.006513705597006142 0.0 -0.008674650868382351 0.0 0.0
0.01218030900766487 -0.010168191427291985 0.0 -0.011720248252585818 0.0 0.0
0.016488718186460687 -0.014315350019683867 0.0 -0.0149104748900862 0.0 0.0
0.02120915697957886 -0.018874821178105967 0.0 -0.018127288548845447 0.0 0.0
0.026361108689109954 -0.023877907448520034 0.0 -0.021323703044458325 0.0 0.0
0.03200992563963688 -0.029383742763984498 0.0 -0.02445289810971016 0.0 0.0
0.03821174205297063 -0.03544890025231723 0.0 -0.027379595097278525 0.0 0.0
0.04496532359088428 -0.042071950962675325 0.0 -0.02975750907842105 0.0 0.0
0.052348954512518135 -0.04926035508637957 0.0 -0.031231188719759773 0.0 0.0
0.06076452553643093 -0.057374122550242296 0.0 -0.03171836828307733 0.0 0.0
0.07038163141863203 -0.06687567975194009 0.0 -0.02960304859006709 0.0 0.0
0.07545679000774723 -0.07685508360568884 0.0 2.6333102365327932e-14 0.0 0.0
0.07038163141862322 -0.06687567975193812 0.0 0.02960304859013317 0.0 0.0
0.0607645255364119 -0.0573741225502319 0.0 0.03171836828314661 0.0 0.0
0.05234895451249204 -0.04926035508635999 0.0 0.031231188719795452 0.0 0.0
0.04496532359085487 -0.04207195096264488 0.0 0.02975750907842184 0.0 0.0
0.03821174205294097 -0.03544890025228211 0.0 0.02737959509726131 0.0 0.0
0.03200992563960829 -0.02938374276395253 0.0 0.02445289810969561 0.0 0.0
0.026361108689084606 -0.02387790744849974 0.0 0.02132370304445289 0.0 0.0
0.02120915697955465 -0.01887482117808182 0.0 0.018127288548831787 0.0 0.0
0.016488718186436022 -0.01431535001966152 0.0 0.014910474890066278 0.0 0.0
0.01218030900764432 -0.010168191427273415 0.0 0.01172024825256342 0.0 0.0
0.008355476149667272 -0.006513705596990133 0.0 0.008674650868364614 0.0 0.0
0.005196206331040993 -0.003579444121487492 0.0 0.006063827402531312 0.0 0.0
0.00291357970795794 -0.0016634872927530418 0.0 0.004140102123336033 0.0 0.0
0.0015598051596526696 -0.0007390133418093979 0.0 0.003071821801671588 0.0 0.0
0.0008914059251285189 -0.0003827794658145391 0.0 0.0026046598265416954 0.0 0.0
0.0005270712146899314 -0.00018187963784492043 0.0 0.0023447670504551706 0.0 0.0
0.00026397827832993885 -2.4653321892519332e-05 0.0 0.0022617657107999937 0.0 0.0
0.00011850281731864232 -5.991003413560771e-05 0.0 0.002376861172089889 0.0 0.0
0.0007508668659393607 -0.000345854123437798 0.0 0.00327706916864138 0.0 0.0
0.0014164810119018103 -0.004783769661080042 0.0 0.0020415367280393823 0.0 0.0
0.000967385692626875 -0.003591199425748274 0.0 -0.0017666237686043973 0.0 0.0
0.0004882102498069465 -0.00030769355370869895 0.0 -0.0028618284046641675 0.0 0.0
2.6739279394932906e-06 -2.7079272220208346e-05 0.0 -0.0024786147489613687 0.0 0.0
5.8039059209520226e-05 5.891596468436799e-05 0.0 -0.0024122237806018325 0.0 0.0
0.00021250932499466407 -3.5804810197990245e-05 0.0 -0.002498780854077978 0.0 0.0
0.0004215016889248466 -0.000169750104021842 0.0 -0.0027907817896751855 0.0 0.0
0.000737237487875247 -0.0003366851495314779 0.0 -0.003182141517902481 0.0 0.0
0.0013437862531195726 -0.0006912211738480716 0.0 -0.0037270071351672906 0.0 0.0
0.0024385890415040824 -0.001482526805043053 0.0 -0.0047019917561230765 0.0 0.0
0.004027261277723207 -0.00280960114737267 0.0 -0.0062775910301319056 0.0 0.0
0.005968493251973455 -0.0045443013763015105 0.0 -0.00838886528198835 0.0 0.0
0.008140011226565588 -0.006556307647886992 0.0 -0.01081978092189333 0.0 0.0
0.010504122435045268 -0.00878089345507022 0.0 -0.013398087685452668 0.0 0.0
0.013105173670671542 -0.011252900753470702 0.0 -0.01605449964816805 0.0 0.0
0.016035001650686678 -0.014053811977259432 0.0 -0.018761233920130065 0.0 0.0
0.019437487419624623 -0.017318550567652764 0.0 -0.021448758443433583 0.0 0.0
0.02347447398747147 -0.02121106381774006 0.0 -0.02385144782506182 0.0 0.0
0.02828091185244458 -0.025871330227333178 0.0 -0.02539412214027629 0.0 0.0
0.03434070056320561 -0.031600094833763116 0.0 -0.025792229603372314 0.0 0.0
0.04282433152027101 -0.039550161502806415 0.0 -0.025955254152188467 0.0 0.0
0.04785843940270374 -0.05050191836779219 0.0 1.9758500391375833e-14 0.0 0.0
0.04282433152026714 -0.0395501615028022 0.0 0.025955254152243104 0.0 0.0
0.03434070056319456 -0.03160009483376325 0.0 0.025792229603425566 0.0 0.0
0.02828091185242943 -0.02587133022731884 0.0 0.025394122140300172 0.0 0.0
0.023474473987456213 -0.02121106381772836 0.0 0.023851447825055026 0.0 0.0
0.01943748741961046 -0.01731855056762949 0.0 0.021448758443417235 0.0 0.0
0.016035001650674473 -0.014053811977254926 0.0 0.01876123392011786 0.0 0.0
0.013105173670661222 -0.011252900753463574 0.0 0.01605449964816412 0.0 0.0
0.010504122435035233 -0.00878089345506243 0.0 0.013398087685437765 0.0 0.0
0.00814001122655523 -0.006556307647877683 0.0 0.010819780921877431 0.0 0.0
0.005968493251964403 -0.004544301376298711 0.0 0.008388865281973761 0.0 0.0
0.004027261277716435 -0.002809601147369762 0.0 0.006277591030120845 0.0 0.0
0.0024385890414988496 -0.0014825268050442286 0.0 0.004701991756117387 0.0 0.0
0.001343786253116027 -0.0006912211738470209 0.0 0.0037270071351631455 0.0 0.0
0.0007372374878741358 -0.0003366851495296907 0.0 0.003182141517898547 0.0 0.0
0.0004215016889247152 -0.0001697501040193857 0.0 0.0027907817896719762 0.0 0.0
0.00021250932499447038 -3.5804810199872576e-05 0.0 0.0024987808540741525 0.0 0.0
5.80390592090375e-05 5.891596468559761e-05 0.0 0.0024122237805995973 0.0 0.0
2.6739279391009966e-06 -2.707927221999719e-05 0.0 0.0024786147489597008 0.0 0.0
0.0004882102498060039 -0.0003076935537083867 0.0 0.002861828404659734 0.0 0.0
0.0009673856926251045 -0.0035911994257418205 0.0 0.0017666237686008758 0.0 0.0
0.0006475777758093038 -0.0026668705989802153 0.0 -0.0015973223089296696 0.0 0.0
0.0002836323288708935 -0.000297313641084395 0.0 -0.002549137038286978 0.0 0.0
-0.00011995457607559142 2.3258650760145505e-05 0.0 -0.0025215237711848945 0.0 0.0
-0.00014510305592608833 0.00013962678097939585 0.0 -0.0024980143699350876 0.0 0.0
-9.927692102343547e-05 0.0001089092726980599 0.0 -0.0025848163314461884 0.0 0.0
-4.792855719151976e-05 4.7761889833642214e-05 0.0 -0.002871575411154792 0.0 0.0
-1.980026146864179e-05 1.2869988468008686e-05 0.0 -0.003264100771886757 0.0 0.0
-8.430196191001296e-06 5.253327770355899e-06 0.0 -0.0035763761461460094 0.0 0.0
-3.1968435726533145e-06 2.0027844713594255e-06 0.0 -0.003985642183484813 0.0 0.0
-7.305328975357791e-07 3.092442215587882e-07 0.0 -0.004962388262658366 0.0 0.0
-3.9798262475558175e-06 2.6940281605393013e-06 0.0 -0.006574891686843995 0.0 0.0
-2.0226540167161576e-05 1.9036482044857425e-05 0.0 -0.008642827473659057 0.0 0.0
-4.451963358556338e-05 4.515550160396134e-05 0.0 -0.010912031517989041 0.0 0.0
-3.114130322605401e-05 4.490484097399792e-05 0.0 -0.013323241078285423 0.0 0.0
0.0001401628839521247 -8.774495619458917e-05 0.0 -0.015877586507999024 0.0 0.0
0.0006962636535118431 -0.0005598549590090695 0.0 -0.01853409870545309 0.0 0.0
0.001979466529014341 -0.0016865008074290493 0.0 -0.021169451742594943 0.0 0.0
0.0043371819568699425 -0.0038241536814965973 0.0 -0.02350286940193799 0.0 0.0
0.007995288465864002 -0.007061370415149446 0.0 -0.025261924223007052 0.0 0.0
0.014295114029166542 -0.012347071150602467 0.0 -0.027020196723254956 0.0 0.0
0.018421306156118002 -0.023883990917391313 0.0 1.4153608840494769e-14 0.0 0.0
0.014295114029167473 -0.012347071150586501 0.0 0.027020196723287412 0.0 0.0
0.007995288465860622 -0.007061370415148732 0.0 0.02526192422303513 0.0 0.0
0.004337181956867333 -0.0038241536814865654 0.0 0.02350286940194756 0.0 0.0
0.001979466529015374 -0.0016865008074406624 0.0 0.021169451742582758 0.0 0.0
0.00069626365351418 -0.000559854959008072 0.0 0.01853409870543385 0.0 0.0
0.00014016288395604995 -8.774495621722937e-05 0.0 0.015877586507986423 0.0 0.0
-3.114130322145743e-05 4.490484096987145e-05 0.0 0.013323241078274966 0.0 0.0
-4.451963358098284e-05 4.5155501598328584e-05 0.0 0.010912031517973372 0.0 0.0
-2.0226540162254802e-05 1.9036482040601173e-05 0.0 0.008642827473640468 0.0 0.0
-3.979826244073902e-06 2.6940281525181567e-06 0.0 0.006574891686829648 0.0 0.0
-7.305328955848657e-07 3.0924422045423014e-07 0.0 0.004962388262650706 0.0 0.0
-3.196843571563339e-06 2.002784466950436e-06 0.0 0.003985642183481518 0.0 0.0
-8.430196190544292e-06 5.253327774786776e-06 0.0 0.0035763761461454855 0.0 0.0
-1.980026146801874e-05 1.2869988467775728e-05 0.0 0.003264100771883794 0.0 0.0
-4.79285571908916e-05 4.776188983089349e-05 0.0 0.002871575411151601 0.0 0.0
-9.927692102321579e-05 0.00010890927269911356 0.0 0.0025848163314426066 0.0 0.0
-0.0001451030559258683 0.00013962678097846414 0.0 0.0024980143699339535 0.0 0.0
-0.00011995457607571632 2.3258650760360858e-05 0.0 0.0025215237711846356 0.0 0.0
0.00028363232886981313 -0.0002973136410848049 0.0 0.0025491370382850725 0.0 0.0
0.0006475777758078021 -0.002666870598975708 0.0 0.00159732230892737 0.0 0.0
0.0004246974803611685 -0.001992160850323749 0.0 -0.0015170505314494689 0.0 0.0
0.0001283008613821006 -0.0002923175232300082 0.0 -0.002330060478749788 0.0 0.0
-0.00024120146086331162 7.941073804459372e-05 0.0 -0.002510725279467171 0.0 0.0
-0.00034436501543423284 0.00021890609193718578 0.0 -0.0025166980149209732 0.0 0.0
-0.00040512864080855936 0.000249126427817286 0.0 -0.002592365485281428 0.0 0.0
-0.0005143322669407064 0.00026505600815752593 0.0 -0.002847210102765261 0.0 0.0
-0.0007769835908130378 0.0003648292869774347 0.0 -0.0032258243620528954 0.0 0.0
-0.0013603778729681416 0.0007032125083533361 0.0 -0.003757754977477076 0.0 0.0
-0.0024430413590278664 0.0014855490902234746 0.0 -0.004715286797764094 0.0 0.0
-0.004027607308791706 0.0028096102679271554 0.0 -0.006278562164122462 0.0 0.0
-0.0059787158714805794 0.004552127872049285 0.0 -0.00839001293652707 0.0 0.0
-0.008183217739623222 0.006596140962877417 0.0 -0.010826554628242594 0.0 0.0
-0.010590311320028738 0.00886967991381533 0.0 -0.013391084486179792 0.0 0.0
-0.013155292520890316 0.011334781288592936 0.0 -0.016023211773690784 0.0 0.0
-0.015735336856410247 0.013860068957527685 0.0 -0.018745597658647355 0.0 0.0
-0.018045987367820388 0.016171208585516465 0.0 -0.02160507476815704 0.0 0.0
-0.019656168295917254 0.01784186482506964 0.0 -0.024628687072878255 0.0 0.0
-0.020098508400207018 0.018363446903851617 0.0 -0.02795864172360119 0.0 0.0
-0.01884535296580739 0.0174184157800967 0.0 -0.03153084177038294 0.0 0.0
-0.013750263337232192 0.013664039121511217 0.0 -0.03344247137251237 0.0 0.0
-0.009783518695098994 0.001443001486206289 0.0 1.7806936480901925e-14 0.0 0.0
-0.013750263337231245 0.013664039121518784 0.0 0.03344247137254349 0.0 0.0
-0.018845352965800956 0.017418415780089427 0.0 0.03153084177040434 0.0 0.0
-0.020098508400192096 0.018363446903835744 0.0 0.02795864172360621 0.0 0.0
-0.019656168295898013 0.01784186482504548 0.0 0.024628687072862664 0.0 0.0
-0.0180459873678011 0.016171208585498666 0.0 0.02160507476813675 0.0 0.0
-0.015735336856391426 0.01386006895750733 0.0 0.018745597658632 0.0 0.0
-0.013155292520871553 0.011334781288574305 0.0 0.016023211773676563 0.0 0.0
-0.010590311320009219 0.008869679913793263 0.0 0.013391084486163145 0.0 0.0
-0.00818321773960412 0.00659614096285957 0.0 0.010826554628219836 0.0 0.0
-0.005978715871464522 0.004552127872033963 0.0 0.008390012936505252 0.0 0.0
-0.0040276073087799815 0.002809610267919752 0.0 0.006278562164110777 0.0 0.0
-0.002443041359020314 0.0014855490902181236 0.0 0.004715286797758371 0.0 0.0
-0.0013603778729639915 0.0007032125083502494 0.0 0.0037577549774713923 0.0 0.0
-0.0007769835908105191 0.0003648292869737086 0.0 0.0032258243620499863 0.0 0.0
-0.000514332266939234 0.0002650560081575696 0.0 0.002847210102762034 0.0 0.0
-0.0004051286408081402 0.0002491264278188729 0.0 0.002592365485279244 0.0 0.0
-0.0003443650154340955 0.0002189060919374564 0.0 0.002516698014920095 0.0 0.0
-0.0002412014608631183 7.941073804487127e-05 0.0 0.002510725279466753 0.0 0.0
0.0001283008613816797 -0.00029231752323061834 0.0 0.0023300604787486975 0.0 0.0
0.0004246974803601008 -0.001992160850320838 0.0 0.0015170505314488056 0.0 0.0
0.0002758949673490318 -0.001494886476204843 0.0 -0.0014394207753569755 0.0 0.0
1.4862693242843299e-05 -0.0002741230453497475 0.0 -0.002148711669841282 0.0 0.0
-0.0003546925952909836 0.00013144586873427833 0.0 -0.0024487731047482786 0.0 0.0
-0.000536502583280846 0.0002961238108762677 0.0 -0.002467937801937128 0.0 0.0
-0.000702257957294065 0.000382211585856973 0.0 -0.0025197830899219616 0.0 0.0
-0.0009778723633168175 0.0004784600043073778 0.0 -0.002721555067135639 0.0 0.0
-0.0015983088199126006 0.000772965820225245 0.0 -0.003155833693195915 0.0 0.0
-0.0029251909296269117 0.0016738911567271168 0.0 -0.0041829444719265535 0.0 0.0
-0.0051958782440988255 0.003578672638181398 0.0 -0.006073591236525135 0.0 0.0
-0.008355379826288699 0.006513780598542798 0.0 -0.008674431966520771 0.0 0.0
-0.012192329942609315 0.010179774418934676 0.0 -0.011722523011632393 0.0 0.0
-0.016527579873411243 0.014353068856136759 0.0 -0.01489776261904803 0.0 0.0
-0.021277720730839868 0.018947643418192345 0.0 -0.0180510011753171 0.0 0.0
-0.026381818770077246 0.023929511711288553 0.0 -0.02116727205084583 0.0 0.0
-0.0316848849594442 0.029159028387466444 0.0 -0.024362024816334243 0.0 0.0
-0.03685121244061593 0.03431429878239152 0.0 -0.027840712295345897 0.0 0.0
-0.041372434237724964 0.03887351645101095 0.0 -0.03181734629045081 0.0 0.0
-0.04458627015691228 0.04216653890092363 0.0 -0.036377414123546885 0.0 0.0
-0.0452891385830448 0.04317774800424478 0.0 -0.04067274386844966 0.0 0.0
-0.04088943266036657 0.0395319247620221 0.0 -0.041963953070907375 0.0 0.0
-0.03697339664813623 0.025427056244932512 0.0 2.2376198116624835e-14 0.0 0.0
-0.040889432660361685 0.03953192476201483 0.0 0.041963953070963705 0.0 0.0
-0.045289138583030186 0.04317774800423215 0.0 0.040672743868501504 0.0 0.0
-0.044586270156885675 0.04216653890089608 0.0 0.036377414123565474 0.0 0.0
-0.041372434237691026 0.03887351645097831 0.0 0.031817346290439204 0.0 0.0
-0.036851212440580476 0.03431429878234684 0.0 0.02784071229532644 0.0 0.0
-0.031684884959409576 0.029159028387440958 0.0 0.024362024816313207 0.0 0.0
-0.026381818770043128 0.023929511711252925 0.0 0.021167272050829154 0.0 0.0
-0.021277720730805944 0.018947643418156874 0.0 0.01805100117529651 0.0 0.0
-0.016527579873378332 0.014353068856105006 0.0 0.01489776261902076 0.0 0.0
-0.012192329942580522 0.010179774418907913 0.0 0.011722523011602603 0.0 0.0
-0.008355379826266933 0.006513780598520692 0.0 0.008674431966500506 0.0 0.0
-0.005195878244085026 0.0035786726381700582 0.0 0.006073591236513562 0.0 0.0
-0.0029251909296185725 0.0016738911567187173 0.0 0.004182944471917766 0.0 0.0
-0.0015983088199074747 0.0007729658202212591 0.0 0.0031558336931916727 0.0 0.0
-0.0009778723633146237 0.0004784600043068663 0.0 0.0027215550671331186 0.0 0.0
-0.0007022579572936277 0.0003822115858565398 0.0 0.002519783089919655 0.0 0.0
-0.0005365025832806013 0.00029612381087638966 0.0 0.002467937801937414 0.0 0.0
-0.00035469259529086894 0.00013144586873410906 0.0 0.0024487731047461918 0.0 0.0
1.4862693242533956e-05 -0.00027412304535052713 0.0 0.002148711669840893 0.0 0.0
0.0002758949673487874 -0.0014948864762028612 0.0 0.0014394207753551068 0.0 0.0
0.00016928556875848717 -0.0010945125499756305 0.0 -0.0013021081289196759 0.0 0.0
-7.236730388816357e-05 -0.000239931246328158 0.0 -0.0019638375116288005 0.0 0.0
-0.0004587980561159413 0.00017755351008041744 0.0 -0.0023356808520481735 0.0 0.0
-0.0007196313401223224 0.00036904042993071305 0.0 -0.002356804892128285 0.0 0.0
-0.0009894048606931898 0.000505820489167067 0.0 -0.0023724941886897276 0.0 0.0
-0.0014638581750131 0.0006999902622706287 0.0 -0.0025207369152118997 0.0 0.0
-0.0025431653959565185 0.001313959840890168 0.0 -0.0031160849070662935 0.0 0.0
-0.004717861110699684 0.003010613233228158 0.0 -0.004634963593606355 0.0 0.0
-0.008222656790241048 0.0061954981062246174 0.0 -0.007186181715696989 0.0 0.0
-0.012952404771704363 0.010738410759588668 0.0 -0.010534569368389387 0.0 0.0
-0.018639833684063276 0.016260555193606394 0.0 -0.014262865942672774 0.0 0.0
-0.025063788140870163 0.0225089600471709 0.0 -0.01800401743016136 0.0 0.0
-0.032124071344516884 0.029393697028923305 0.0 -0.021610357987469783 0.0 0.0
-0.03975823756090451 0.03687766676546178 0.0 -0.025131637997444396 0.0 0.0
-0.04780828394433017 0.04482800425246125 0.0 -0.028797971686588833 0.0 0.0
-0.05590506440398363 0.05289455662720565 0.0 -0.033016294197169095 0.0 0.0
-0.06340346555520161 0.06043734947984132 0.0 -0.03821196297283618 0.0 0.0
-0.06923793204596261 0.06644045736121815 0.0 -0.044181461244131 0.0 0.0
-0.07157671157327525 0.0691561776363917 0.0 -0.04931351695949009 0.0 0.0
-0.06676586626976994 0.06537316035125976 0.0 -0.05060941085473305 0.0 0.0
-0.061950525405805035 0.048394705502252104 0.0 2.848069002858722e-14 0.0 0.0
-0.0667658662697602 0.06537316035124867 0.0 0.05060941085480037 0.0 0.0
-0.07157671157325345 0.06915617763637101 0.0 0.04931351695955749 0.0 0.0
-0.06923793204592545 0.06644045736118727 0.0 0.044181461244160836 0.0 0.0
-0.0634034655551534 0.060437349479796135 0.0 0.038211962972829375 0.0 0.0
-0.05590506440393289 0.052894556627140904 0.0 0.033016294197148625 0.0 0.0
-0.04780828394427994 0.04482800425240963 0.0 0.02879797168656715 0.0 0.0
-0.039758237560855496 0.036877666765413444 0.0 0.0251316379974217 0.0 0.0
-0.03212407134446935 0.029393697028873747 0.0 0.021610357987444866 0.0 0.0
-0.025063788140823967 0.02250896004712385 0.0 0.01800401743013325 0.0 0.0
-0.018639833684022007 0.01626055519356212 0.0 0.014262865942640084 0.0 0.0
-0.01295240477167233 0.010738410759553197 0.0 0.010534569368363422 0.0 0.0
-0.00822265679021965 0.00619549810620646 0.0 0.007186181715682444 0.0 0.0
-0.0047178611106859945 0.003010613233216914 0.0 0.0046349635935946515 0.0 0.0
-0.0025431653959483553 0.0013139598408848764 0.0 0.0031160849070572118 0.0 0.0
-0.0014638581750096198 0.000699990262271956 0.0 0.002520736915211928 0.0 0.0
-0.0009894048606920482 0.000505820489168302 0.0 0.0023724941886897307 0.0 0.0
-0.0007196313401219632 0.00036904042992798325 0.0 0.0023568048921304456 0.0 0.0
-0.00045879805611568226 0.00017755351008051775 0.0 0.002335680852044439 0.0 0.0
-7.236730388780977e-05 -0.00023993124632878265 0.0 0.001963837511629973 0.0 0.0
0.00016928556875870444 -0.001094512549974276 0.0 0.0013021081289185772 0.0 0.0
8.17517557797771e-05 -0.0007606731387381962 0.0 -0.001123458888317732 0.0 0.0
-0.0001469264358197566 -0.00019170774530723956 0.0 -0.0017561210065175602 0.0 0.0
-0.0005550401613499813 0.00021979736658453842 0.0 -0.002170934694150271 0.0 0.0
-0.0008924509769187138 0.00043533237561230675 0.0 -0.002186381206477159 0.0 0.0
-0.001272343259702699 0.000619230383555172 0.0 -0.00214994752395138 0.0 0.0
-0.0019986675647790573 0.0009579577182846544 0.0 -0.0022757322231100013 0.0 0.0
-0.0036286723657503895 0.002039896486027638 0.0 -0.0030550145024286312 0.0 0.0
-0.006714888899381148 0.004666805633589658 0.0 -0.004903430913462267 0.0 0.0
-0.011470471476834696 0.009150691753646594 0.0 -0.00786718414640043 0.0 0.0
-0.017747981067718948 0.01524811433233714 0.0 -0.011625317937548237 0.0 0.0
-0.025246466909540514 0.022571374396347384 0.0 -0.015658844472838374 0.0 0.0
-0.03373011049278841 0.030866361768041833 0.0 -0.01964675247162704 0.0 0.0
-0.04308388243167931 0.04002353555262861 0.0 -0.023469172059810438 0.0 0.0
-0.053241292882088107 0.04999956354785884 0.0 -0.027180699581647916 0.0 0.0
-0.06405457504754598 0.06068055771840927 0.0 -0.031051033950661507 0.0 0.0
-0.07512312981821245 0.07170474375862106 0.0 -0.035646721737358375 0.0 0.0
-0.08558909399545037 0.08225366360590608 0.0 -0.04147122284173355 0.0 0.0
-0.0939041437018928 0.09083325176573259 0.0 -0.04818246104369821 0.0 0.0
-0.09743116291534291 0.09493672222911795 0.0 -0.05393095582555136 0.0 0.0
-0.09179297393630094 0.09041968120137371 0.0 -0.055559455879628815 0.0 0.0
-0.08600346618118311 0.07067447353798635 0.0 2.941917542909067e-14 0.0 0.0
-0.09179297393628584 0.09041968120136337 0.0 0.05555945587969657 0.0 0.0
-0.09743116291531231 0.09493672222909416 0.0 0.05393095582562295 0.0 0.0
-0.093904143701846 0.09083325176568727 0.0 0.048182461043736725 0.0 0.0
-0.08558909399539096 0.08225366360584868 0.0 0.04147122284173004 0.0 0.0
-0.07512312981814806 0.07170474375855335 0.0 0.0356467217373395 0.0 0.0
-0.06405457504748108 0.0606805577183477 0.0 0.031051033950638025 0.0 0.0
-0.05324129288202444 0.04999956354779971 0.0 0.02718069958162251 0.0 0.0
-0.043083882431616864 0.04002353555256579 0.0 0.02346917205978602 0.0 0.0
-0.03373011049272887 0.030866361767980674 0.0 0.01964675247159733 0.0 0.0
-0.0252464669094883 0.02257137439629494 0.0 0.01565884447280053 0.0 0.0
-0.01774798106767759 0.015248114332295493 0.0 0.011625317937519256 0.0 0.0
-0.011470471476804984 0.009150691753622018 0.0 0.007867184146379004 0.0 0.0
-0.006714888899361749 0.004666805633569668 0.0 0.0049034309134483745 0.0 0.0
-0.0036286723657396854 0.00203989648602011 0.0 0.0030550145024206103 0.0 0.0
-0.001998667564774608 0.0009579577182838612 0.0 0.0022757322231080415 0.0 0.0
-0.00127234325970072 0.0006192303835562554 0.0 0.0021499475239498272 0.0 0.0
-0.0008924509769181652 0.00043533237561119907 0.0 0.00218638120647535 0.0 0.0
-0.0005550401613500279 0.0002197973665849934 0.0 0.002170934694149142 0.0 0.0
-0.00014692643581932393 -0.00019170774530711317 0.0 0.001756121006517789 0.0 0.0
8.17517557800452e-05 -0.0007606731387372354 0.0 0.0011234588883149478 0.0 0.0
6.825113703441961e-06 -0.00048778273068351 0.0 -0.0009301614619414292 0.0 0.0
-0.00021380440507836555 -0.000132633982304777 0.0 -0.0015190216205966506 0.0 0.0
-0.0006451657257730605 0.00026034291890139925 0.0 -0.0019509749294473293 0.0 0.0
-0.0010545220107223586 0.0004935127021461928 0.0 -0.0019570816871552505 0.0 0.0
-0.0015626065417264714 0.0007297034397144966 0.0 -0.0018636368917008947 0.0 0.0
-0.0026043677480491736 0.001285869052486647 0.0 -0.001999223705817406 0.0 0.0
-0.004855511954590113 0.0029640832241934634 0.0 -0.0029045444601923766 0.0 0.0
-0.008887520783304136 0.00658278458864376 0.0 -0.0049179898992687925 0.0 0.0
-0.014883842030205981 0.01233064925115064 0.0 -0.008043478511638606 0.0 0.0
-0.02266555635752663 0.01992156309439781 0.0 -0.011838991789837706 0.0 0.0
-0.031942232763778805 0.029009981019914637 0.0 -0.015858563067914198 0.0 0.0
-0.042477205737357596 0.03934012954936655 0.0 -0.019824947326349755 0.0 0.0
-0.05411776362532471 0.05076466162851042 0.0 -0.023636208930129812 0.0 0.0
-0.0667819036098423 0.06321951194426156 0.0 -0.02733180622468107 0.0 0.0
-0.08034031638529254 0.07660916155973514 0.0 -0.03113390820290981 0.0 0.0
-0.09435092147390381 0.09056286731097365 0.0 -0.03557304210066248 0.0 0.0
-0.10771986486709414 0.10406637441033988 0.0 -0.04126500697110757 0.0 0.0
-0.11836511468417296 0.1151115981510864 0.0 -0.04807689988258185 0.0 0.0
-0.12291316538471703 0.1203964388394515 0.0 -0.054433571331031515 0.0 0.0
-0.11653362227615274 0.11515537528391051 0.0 -0.05832369714447985 0.0 0.0
-0.10991496472891307 0.09303036540200575 0.0 3.038021223478182e-14 0.0 0.0
-0.11653362227613281 0.11515537528388589 0.0 0.05832369714455053 0.0 0.0
-0.12291316538467809 0.120396438839413 0.0 0.05443357133110084 0.0 0.0
-0.1183651146841165 0.1151115981510209 0.0 0.04807689988261964 0.0 0.0
-0.10771986486702315 0.10406637441026789 0.0 0.04126500697110429 0.0 0.0
-0.09435092147382626 0.09056286731090459 0.0 0.035573042100645436 0.0 0.0
-0.08034031638521383 0.07660916155966316 0.0 0.031133908202885703 0.0 0.0
-0.06678190360976402 0.06321951194418499 0.0 0.027331806224656002 0.0 0.0
-0.054117763625248005 0.05076466162843482 0.0 0.023636208930105422 0.0 0.0
-0.042477205737286264 0.039340129549296964 0.0 0.019824947326318298 0.0 0.0
-0.03194223276371617 0.029009981019858175 0.0 0.01585856306787615 0.0 0.0
-0.022665556357475292 0.019921563094346707 0.0 0.011838991789809227 0.0 0.0
-0.014883842030168376 0.012330649251119243 0.0 0.008043478511616116 0.0 0.0
-0.008887520783279172 0.006582784588620179 0.0 0.004917989899254212 0.0 0.0
-0.00485551195457573 0.002964083224183173 0.0 0.002904544460185169 0.0 0.0
-0.00260436774804273 0.0012858690524807 0.0 0.0019992237058139 0.0 0.0
-0.0015626065417241044 0.0007297034397141368 0.0 0.0018636368916988034 0.0 0.0
-0.0010545220107214368 0.0004935127021462497 0.0 0.00195708168715289 0.0 0.0
-0.0006451657257729609 0.0002603429189005096 0.0 0.0019509749294475444 0.0 0.0
-0.00021380440507882606 -0.00013263398230491693 0.0 0.0015190216205944202 0.0 0.0
6.825113702391132e-06 -0.00048778273068295807 0.0 0.0009301614619402088 0.0 0.0
-5.627430856859246e-05 -0.00027385118962036117 0.0 -0.0007313914428293193 0.0 0.0
-0.0002735950843558185 -6.776946116362861e-05 0.0 -0.0012539597444031565 0.0 0.0
-0.0007303460559021719 0.00030042062754970374 0.0 -0.0016749644948738682 0.0 0.0
-0.0012108356033184175 0.0005440170277085822 0.0 -0.0016697142136075918 0.0 0.0
-0.0018758081288494512 0.0008499207359184665 0.0 -0.0015237949360041203 0.0 0.0
-0.0032929308895608333 0.0017120273581368458 0.0 -0.0016807305875145132 0.0 0.0
-0.006215803863175358 0.004083660286975751 0.0 -0.0026279911634830362 0.0 0.0
-0.01120132497880302 0.008697526271687647 0.0 -0.0046548052758818 0.0 0.0
-0.018394781699459278 0.01563946430272661 0.0 -0.0076066554407761 0.0 0.0
-0.02763999106253446 0.02467885112864617 0.0 -0.01113051604145753 0.0 0.0
-0.038681698152255556 0.035513767357647275 0.0 -0.01487705966914769 0.0 0.0
-0.0512598642130272 0.04787148488342746 0.0 -0.018573031066829396 0.0 0.0
-0.06518515752837443 0.06156565842464552 0.0 -0.022143100822967367 0.0 0.0
-0.08033903703944781 0.07648795181980401 0.0 -0.025625773462952018 0.0 0.0
-0.09657066528731924 0.09252180155524863 0.0 -0.029106462064935175 0.0 0.0
-0.1134132820535696 0.10928581563513577 0.0 -0.032892163649406565 0.0 0.0
-0.12958479848289808 0.12563042199489427 0.0 -0.03765874849061509 0.0 0.0
-0.1425173899294733 0.13908935889728932 0.0 -0.04393989569046403 0.0 0.0
-0.148218817453318 0.14567315578114137 0.0 -0.05137665395240528 0.0 0.0
-0.1414423497796212 0.14008633605609536 0.0 -0.059430274344862116 0.0 0.0
-0.13420917365574503 0.1159752093406825 0.0 2.750751015856423e-14 0.0 0.0
-0.1414423497795961 0.14008633605606108 0.0 0.059430274344928036 0.0 0.0
-0.1482188174532704 0.14567315578109757 0.0 0.05137665395246881 0.0 0.0
-0.14251738992940644 0.13908935889721355 0.0 0.043939895690496965 0.0 0.0
-0.12958479848281546 0.1256304219948216 0.0 0.03765874849061657 0.0 0.0
-0.11341328205347857 0.10928581563504787 0.0 0.032892163649396094 0.0 0.0
-0.09657066528722645 0.09252180155515918 0.0 0.02910646206491664 0.0 0.0
-0.0803390370393549 0.07648795181970777 0.0 0.025625773462928846 0.0 0.0
-0.06518515752828397 0.06156565842455505 0.0 0.02214310082294353 0.0 0.0
-0.0512598642129431 0.04787148488334941 0.0 0.018573031066802043 0.0 0.0
-0.03868169815218113 0.03551376735757967 0.0 0.014877059669114932 0.0 0.0
-0.02763999106247404 0.024678851128586476 0.0 0.011130516041431332 0.0 0.0
-0.018394781699414078 0.015639464302680334 0.0 0.0076066554407561385 0.0 0.0
-0.011201324978771408 0.00869752627166159 0.0 0.004654805275867486 0.0 0.0
-0.006215803863156731 0.00408366028696225 0.0 0.002627991163474577 0.0 0.0
-0.0032929308895525717 0.0017120273581312246 0.0 0.0016807305875095825 0.0 0.0
-0.00187580812884635 0.000849920735918702 0.0 0.0015237949360029307 0.0 0.0
-0.0012108356033171536 0.0005440170277091185 0.0 0.0016697142136065846 0.0 0.0
-0.0007303460559019854 0.00030042062754889265 0.0 0.0016749644948737723 0.0 0.0
-0.0002735950843554075 -6.776946116384326e-05 0.0 0.0012539597444016432 0.0 0.0
-5.62743085678006e-05 -0.0002738511896202139 0.0 0.0007313914428304987 0.0 0.0
-0.00010531695214141475 -0.00011868899332851543 0.0 -0.0005334464683861106 0.0 0.0
-0.00032400639205285036 -2.978854659645226e-06 0.0 -0.0009639775048935451 0.0 0.0
-0.0008104841421940587 0.0003395557572632983 0.0 -0.0013411982753018415 0.0 0.0
-0.0013672551882722272 0.0005886376053991576 0.0 -0.0013191514231383032 0.0 0.0
-0.00222653826605659 0.0009974916766005313 0.0 -0.0011322387928319117 0.0 0.0
-0.004076194582449427 0.002259679316958232 0.0 -0.0012969140246837482 0.0 0.0
-0.007700214152883267 0.005380936197706152 0.0 -0.00221646326243058 0.0 0.0
-0.013601420549839028 0.010932859787247616 0.0 -0.004004839222596907 0.0 0.0
-0.021940531064405445 0.019006363295142614 0.0 -0.0065040649536281985 0.0 0.0
-0.03262838066565789 0.02946681611858474 0.0 -0.009517781918773121 0.0 0.0
-0.04541711126880813 0.042030239372552715 0.0 -0.012730374244805076 0.0 0.0
-0.060033352721802394 0.0564093171385623 0.0 -0.01590501138674308 0.0 0.0
-0.07624676843532133 0.07237774850286485 0.0 -0.018993435604159555 0.0 0.0
-0.09386744280729827 0.0897607334703647 0.0 -0.022043821592219622 0.0 0.0
-0.11267323539140311 0.10835589433984723 0.0 -0.02502242044227926 0.0 0.0
-0.132155138894563 0.12772491392972657 0.0 -0.02786565566838513 0.0 0.0
-0.1509688155863231 0.1466903389272455 0.0 -0.030995566569475774 0.0 0.0
-0.1662752808351727 0.16260924377107405 0.0 -0.035917184150268774 0.0 0.0
-0.17354695653411556 0.17093969737462994 0.0 -0.044713440816283846 0.0 0.0
-0.16693721768001918 0.1656723661362985 0.0 -0.058599106385010966 0.0 0.0
-0.1593647539990838 0.14001558216630397 0.0 2.53182891318815e-14 0.0 0.0
-0.16693721767999029 0.16567236613626865 0.0 0.05859910638507147 0.0 0.0
-0.17354695653406013 0.1709396973745861 0.0 0.0447134408163383 0.0 0.0
-0.1662752808350946 0.16260924377100033 0.0 0.0359171841502941 0.0 0.0
-0.15096881558622802 0.14669033892715008 0.0 0.030995566569474976 0.0 0.0
-0.13215513889445885 0.12772491392963012 0.0 0.027865655668376184 0.0 0.0
-0.11267323539129677 0.10835589433973411 0.0 0.02502242044226786 0.0 0.0
-0.09386744280719254 0.0897607334702532 0.0 0.022043821592200384 0.0 0.0
-0.07624676843521772 0.07237774850276575 0.0 0.018993435604140366 0.0 0.0
-0.06003335272170563 0.05640931713846668 0.0 0.015905011386719174 0.0 0.0
-0.04541711126872335 0.04203023937247523 0.0 0.012730374244774157 0.0 0.0
-0.03262838066558891 0.029466816118519083 0.0 0.009517781918750124 0.0 0.0
-0.021940531064353102 0.0190063632950896 0.0 0.006504064953612282 0.0 0.0
-0.013601420549801959 0.010932859787212895 0.0 0.004004839222585748 0.0 0.0
-0.007700214152861129 0.0053809361976877275 0.0 0.0022164632624225664 0.0 0.0
-0.004076194582438795 0.0022596793169492825 0.0 0.0012969140246787455 0.0 0.0
-0.002226538266052671 0.0009974916765978076 0.0 0.0011322387928326075 0.0 0.0
-0.0013672551882710168 0.000588637605400306 0.0 0.0013191514231379712 0.0 0.0
-0.0008104841421936152 0.0003395557572637505 0.0 0.001341198275298881 0.0 0.0
-0.0003240063920527203 -2.978854660154225e-06 0.0 0.0009639775048934103 0.0 0.0
-0.00010531695214133551 -0.00011868899332808175 0.0 0.000533446468386277 0.0 0.0
-0.0001353993568745663 -2.289174697032867e-05 0.0 -0.0003469798558179995 0.0 0.0
-0.00035947475724079457 5.447236755901837e-05 0.0 -0.0006531810188949106 0.0 0.0
-0.000883382181575753 0.0003747317775579854 0.0 -0.0009419793385235539 0.0 0.0
-0.0015335788586345355 0.0006340434062168741 0.0 -0.000898247465439031 0.0 0.0
-0.0026309431088845005 0.0011954084516217142 0.0 -0.0006989388456046004 0.0 0.0
-0.004961616476064335 0.002950653315340964 0.0 -0.0008432825623592466 0.0 0.0
-0.009270354140759407 0.006808209001706698 0.0 -0.0015975585229194803 0.0 0.0
-0.016037167089626637 0.013222450527479477 0.0 -0.0029033475590728836 0.0 0.0
-0.025486983313434117 0.022386996208143734 0.0 -0.004755205685764451 0.0 0.0
-0.03758551404718817 0.034236854271421154 0.0 -0.007006033230895684 0.0 0.0
-0.0521033471285897 0.04851023933634465 0.0 -0.009423583078620264 0.0 0.0
-0.06874996138140069 0.06490418468660895 0.0 -0.011822924115515667 0.0 0.0
-0.08725093620583031 0.08314967831535797 0.0 -0.014183713898342793 0.0 0.0
-0.10733093989307776 0.10298863993241869 0.0 -0.01656394372844287 0.0 0.0
-0.12861643490895427 0.12407461363339559 0.0 -0.01885619960462355 0.0 0.0
-0.15047680109410108 0.1458191993628414 0.0 -0.02072068614558532 0.0 0.0
-0.17165080272949831 0.16705402110015447 0.0 -0.02206940281549014 0.0 0.0
-0.18946755324731623 0.18536108187295597 0.0 -0.024590778517621797 0.0 0.0
-0.19900646072033518 0.1962068113980307 0.0 -0.03335431116531696 0.0 0.0
-0.1934594471792028 0.19245398431853308 0.0 -0.05468749746154105 0.0 0.0
-0.18598941981509906 0.1658536781107695 0.0 1.890154699424329e-14 0.0 0.0
-0.19345944717916902 0.19245398431849836 0.0 0.054687497461588894 0.0 0.0
-0.1990064607202719 0.19620681139796356 0.0 0.03335431116536272 0.0 0.0
-0.18946755324722625 0.18536108187286668 0.0 0.024590778517638523 0.0 0.0
-0.17165080272938965 0.16705402110003734 0.0 0.02206940281549043 0.0 0.0
-0.1504768010939835 0.14581919936273186 0.0 0.020720686145582305 0.0 0.0
-0.12861643490883423 0.1240746136332643 0.0 0.01885619960461589 0.0 0.0
-0.10733093989295801 0.10298863993229801 0.0 0.016563943728430758 0.0 0.0
-0.0872509362057138 0.08314967831524822 0.0 0.014183713898329849 0.0 0.0
-0.06874996138129194 0.06490418468650021 0.0 0.011822924115500458 0.0 0.0
-0.05210334712849417 0.0485102393362514 0.0 0.00942358307860021 0.0 0.0
-0.037585514047110406 0.0342368542713461 0.0 0.007006033230876592 0.0 0.0
-0.025486983313373936 0.022386996208091793 0.0 0.004755205685753786 0.0 0.0
-0.01603716708958328 0.013222450527433842 0.0 0.0029033475590634046 0.0 0.0
-0.00927035414073272 0.006808209001682733 0.0 0.0015975585229141159 0.0 0.0
-0.004961616476051008 0.0029506533153281066 0.0 0.0008432825623571213 0.0 0.0
-0.0026309431088794694 0.0011954084516184785 0.0 0.0006989388456050937 0.0 0.0
-0.001533578858633197 0.0006340434062165682 0.0 0.0008982474654392484 0.0 0.0
-0.0008833821815751157 0.0003747317775578622 0.0 0.0009419793385208413 0.0 0.0
-0.0003594747572403509 5.4472367558551266e-05 0.0 0.0006531810188945071 0.0 0.0
-0.00013539935687440684 -2.2891746969782565e-05 0.0 0.0003469798558185967 0.0 0.0
-0.00013762850789456374 1.3762060530288338e-05 0.0 -0.000194292251880476 0.0 0.0
-0.000369577248112387 9.339925082021211e-05 0.0 -0.00032736890213724194 0.0 0.0
-0.0009456112509965025 0.0004000825481591229 0.0 -0.0004567502415130529 0.0 0.0
-0.0017244847105292063 0.0006975796791821263 0.0 -0.0004055289756564849 0.0 0.0
-0.0031068189587509687 0.0014746249022953577 0.0 -0.00022980448122726768 0.0 0.0
-0.005934260951729627 0.003772583706886645 0.0 -0.0002922968053531479 0.0 0.0
-0.010894037839283357 0.008312775695312836 0.0 -0.000698590455598251 0.0 0.0
-0.018476364529077378 0.015530243525182594 0.0 -0.0013864858211307051 0.0 0.0
-0.02899136688641609 0.025737545167800482 0.0 -0.0023683015179172787 0.0 0.0
-0.042466232307950276 0.03894005598499529 0.0 -0.0035982451140197445 0.0 0.0
-0.058693310804455515 0.054905525116763984 0.0 -0.0049482902619930715 0.0 0.0
-0.07736357932971206 0.07331005263346628 0.0 -0.006320626969445965 0.0 0.0
-0.09814975734368621 0.09382939782640334 0.0 -0.007719987986454515 0.0 0.0
-0.12066856087880576 0.11610658662280351 0.0 -0.009151572976764168 0.0 0.0
-0.14437601112708628 0.13963711642772952 0.0 -0.010508213751362898 0.0 0.0
-0.1684320948478921 0.1636147302694732 0.0 -0.011487900085228602 0.0 0.0
-0.19154303850454643 0.18675276642930333 0.0 -0.011695511040361047 0.0 0.0
-0.21158837224092322 0.20696947924535794 0.0 -0.011795346526116286 0.0 0.0
-0.22438399065241224 0.22064308109200603 0.0 -0.01704071342571283 0.0 0.0
-0.22165495363283247 0.22094960481671755 0.0 -0.04171324806951852 0.0 0.0
-0.21505144611195656 0.1954634300347 0.0 1.2915016278647329e-14 0.0 0.0
-0.22165495363279433 0.22094960481667614 0.0 0.041713248069547876 0.0 0.0
-0.22438399065234102 0.2206430810919219 0.0 0.017040713425738856 0.0 0.0
-0.21158837224082097 0.20696947924525835 0.0 0.011795346526125884 0.0 0.0
-0.19154303850442247 0.18675276642918312 0.0 0.011695511040361112 0.0 0.0
-0.16843209484775987 0.163614730269342 0.0 0.011487900085228209 0.0 0.0
-0.14437601112695306 0.13963711642758433 0.0 0.01050821375135924 0.0 0.0
-0.12066856087867321 0.11610658662267198 0.0 0.009151572976758112 0.0 0.0
-0.09814975734355569 0.09382939782627403 0.0 0.007719987986447059 0.0 0.0
-0.0773635793295904 0.07331005263334861 0.0 0.006320626969436837 0.0 0.0
-0.05869331080435053 0.05490552511665625 0.0 0.0049482902619813595 0.0 0.0
-0.04246623230786409 0.038940055984909704 0.0 0.0035982451140078794 0.0 0.0
-0.02899136688634892 0.02573754516774343 0.0 0.00236830151791038 0.0 0.0
-0.018476364529029756 0.01553024352513203 0.0 0.00138648582112427 0.0 0.0
-0.010894037839253117 0.00831277569528273 0.0 0.000698590455593958 0.0 0.0
-0.0059342609517137575 0.0037725837068700706 0.0 0.00029229680535065156 0.0 0.0
-0.003106818958744735 0.0014746249022940558 0.0 0.00022980448122893898 0.0 0.0
-0.001724484710527299 0.0006975796791822348 0.0 0.00040552897565521693 0.0 0.0
-0.000945611250995721 0.00040008254815827654 0.0 0.0004567502415136395 0.0 0.0
-0.00036957724811197183 9.339925081986235e-05 0.0 0.0003273689021364849 0.0 0.0
-0.00013762850789470466 1.3762060530364309e-05 0.0 0.00019429225188151878 0.0 0.0
-9.615912398955754e-05 1.7449075344234014e-05 0.0 -0.00011716449249208568 0.0 0.0
-0.0003355836514057711 0.0001064701524289098 0.0 -0.00013610348167992004 0.0 0.0
-0.0009936056679137257 0.0004094159592643905 0.0 -0.00014670526535847018 0.0 0.0
-0.001960390473900545 0.0007367752382200185 0.0 -5.256136172433649e-05 0.0 0.0
-0.003662837138208867 0.0016394915108588364 0.0 0.00025571310944923914 0.0 0.0
-0.006973641645198895 0.004210858407453519 0.0 0.0005162829861867455 0.0 0.0
-0.012544344538830764 0.009079019030258643 0.0 0.0006449773091483253 0.0 0.0
-0.020889949451468284 0.016684901938965487 0.0 0.0006757138085651323 0.0 0.0
-0.03241291757169691 0.02739944128762507 0.0 0.0005914648445146243 0.0 0.0
-0.047222764812019674 0.041268933706011444 0.0 0.00033976856165439644 0.0 0.0
-0.0651410464424643 0.058075723506381884 0.0 -3.7719964565940435e-05 0.0 0.0
-0.08583078794296435 0.07748545273886642 0.0 -0.0005152360942772384 0.0 0.0
-0.10888259235493566 0.09913972610967604 0.0 -0.0011079789234550094 0.0 0.0
-0.13380928448994325 0.1226283831744252 0.0 -0.0017860186908206458 0.0 0.0
-0.1599192322979595 0.14737347994776406 0.0 -0.002523878818474939 0.0 0.0
-0.18613831561756453 0.1724492045821957 0.0 -0.0031504446821574786 0.0 0.0
-0.21091662289279428 0.19645908121063277 0.0 -0.003317373041100722 0.0 0.0
-0.23229648734575964 0.21745011502917505 0.0 -0.0030186543220070312 0.0 0.0
-0.24788397859044609 0.23246173250420754 0.0 -0.00635849245775252 0.0 0.0
-0.25195142002358006 0.2356771647850948 0.0 -0.0325346317270092 0.0 0.0
-0.25000673679310914 0.2115984330955912 0.0 6.342149028171207e-15 0.0 0.0
-0.2519514200235384 0.23567716478504946 0.0 0.03253463172702044 0.0 0.0
-0.24788397859036482 0.2324617325041219 0.0 0.0063584924577630535 0.0 0.0
-0.23229648734564248 0.2174501150290833 0.0 0.003018654322009387 0.0 0.0
-0.21091662289265486 0.19645908121050043 0.0 0.003317373041097669 0.0 0.0
-0.1861383156174184 0.17244920458206695 0.0 0.003150444682154835 0.0 0.0
-0.1599192322978129 0.14737347994760688 0.0 0.002523878818471159 0.0 0.0
-0.13380928448979665 0.12262838317428776 0.0 0.0017860186908182814 0.0 0.0
-0.10888259235479211 0.09913972610953359 0.0 0.0011079789234529954 0.0 0.0
-0.08583078794283075 0.07748545273874455 0.0 0.0005152360942715754 0.0 0.0
-0.06514104644234953 0.05807572350626984 0.0 3.7719964560176816e-05 0.0 0.0
-0.04722276481192658 0.04126893370592275 0.0 -0.00033976856165986516 0.0 0.0
-0.03241291757162289 0.027399441287563848 0.0 -0.0005914648445192283 0.0 0.0
-0.020889949451414445 0.016684901938914698 0.0 -0.0006757138085668052 0.0 0.0
-0.012544344538796633 0.009079019030221699 0.0 -0.0006449773091481475 0.0 0.0
-0.006973641645180182 0.004210858407434542 0.0 -0.000516282986186617 0.0 0.0
-0.003662837138201501 0.0016394915108581226 0.0 -0.00025571310944589795 0.0 0.0
-0.001960390473898217 0.0007367752382204142 0.0 5.256136172261829e-05 0.0 0.0
-0.0009936056679126176 0.0004094159592643201 0.0 0.00014670526535964578 0.0 0.0
-0.0003355836514051287 0.00010647015242811917 0.0 0.00013610348167824882 0.0 0.0
-9.615912398876401e-05 1.7449075344022588e-05 0.0 0.00011716449249457461 0.0 0.0
SCALARS Statev float 8
LOOKUP_TABLE default
0.0 0.02143727758056014 0.017278979458458223 -0.02040505014061559 0.003126070682157382 -0.0014608631087225763 0.0 0.0
0.0 0.007793439707466209 0.005825667457728579 -0.003828859553389914 -0.001996807904338658 -0.007724863671859208 0.0 0.0
0.0 0.00029442206969259086 0.0003546836575481943 -0.0002129289328466774 -0.000141754724701517 -0.000490030970283037 0.0 0.0
0.0 0.00026604873467116094 0.00017829531706156163 -0.0001282409774232095 -5.005433963835294e-05 4.6364169133433806e-05 0.0 0.0
0.0 0.0015214170498134639 0.001180978039494686 -0.0008773020220061631 -0.00030367601748852214 0.00024031611865937602 0.0 0.0
0.0 0.004116216858878367 0.003962890088478342 -0.003235127916525417 -0.0007277621719529291 0.00047243939735536243 0.0 0.0
0.0 0.009940640829994747 0.00903448371658901 -0.00796403000813414 -0.0010704537084548563 0.0006379792700401465 0.0 0.0
0.0 0.018897497941145622 0.016927616654418547 -0.015581564430653706 -0.0013460522237648239 0.0006968204394573959 0.0 0.0
0.0 0.031541523012939617 0.028001153965889546 -0.026378655716864347 -0.0016224982490251894 0.0006395766875171129 0.0 0.0
0.0 0.04801296032311519 0.04234622096063255 -0.040407854933699194 -0.0019383660269333535 0.0004186566365743339 0.0 0.0
0.0 0.06810245528717136 0.05978759905808831 -0.057477937074704354 -0.002309661983383956 6.183869704681354e-05 0.0 0.0
0.0 0.09110874554215526 0.08000474254623097 -0.0772679421552148 -0.002736800391016046 -0.0004052518082811197 0.0 0.0
0.0 0.11695568720259797 0.10262013617565983 -0.09941415314291635 -0.0032059830327434654 -0.0009788592729117543 0.0 0.0
0.0 0.14511767836138978 0.127228205303738 -0.12352783591847329 -0.0037003693852645184 -0.0016115756642335853 0.0 0.0
0.0 0.17501073206125134 0.15331593999118187 -0.1491173651386946 -0.004198574852487075 -0.0023117075392927247 0.0 0.0
0.0 0.20581072543530785 0.18012768596689765 -0.1754519278133591 -0.0046757581535384445 -0.003025815710741354 0.0 0.0
0.0 0.2362439823953809 0.20658816685222 -0.20148216084339393 -0.0051060060088263075 -0.0036001447561577085 0.0 0.0
0.0 0.26471054513163916 0.2313221368384582 -0.22585737780889303 -0.005464759029565068 -0.003828694053913561 0.0 0.0
0.0 0.28937529684922414 0.2527603370727592 -0.2470066597294718 -0.005753677343286845 -0.0036206377899188017 0.0 0.0
0.0 0.30772778254666794 0.26893421346678054 -0.2629924727300528 -0.005941740736728155 -0.004640581201107913 0.0 0.0
0.0 0.3158241491430117 0.2755069988096513 -0.26957913307511366 -0.005927865734537435 2.942091015256665e-15 0.0 0.0
0.0 0.30772778254663163 0.26893421346674845 -0.2629924727300215 -0.005941740736727379 0.0046405812011202415 0.0 0.0
0.0 0.28937529684913066 0.2527603370726772 -0.24700665972939073 -0.0057536773432859956 0.003620637789934095 0.0 0.0
0.0 0.2647105451315133 0.23132213683834799 -0.22585737780878629 -0.005464759029561772 0.0038286940539179488 0.0 0.0
0.0 0.2362439823952288 0.20658816685208783 -0.20148216084326404 -0.0051060060088240315 0.003600144756153863 0.0 0.0
0.0 0.2058107254351473 0.18012768596675785 -0.17545192781321978 -0.0046757581535379475 0.0030258157107353944 0.0 0.0
0.0 0.17501073206109646 0.15331593999104656 -0.1491173651385626 -0.0041985748524839776 0.002311707539291585 0.0 0.0
0.0 0.14511767836123457 0.12722820530360238 -0.12352783591834068 -0.0037003693852617845 0.0016115756642331369 0.0 0.0
0.0 0.11695568720244226 0.10262013617552428 -0.09941415314278296 -0.003205983032741085 0.0009788592729073836 0.0 0.0
0.0 0.09110874554201538 0.08000474254610859 -0.07726794215509505 -0.0027368003910133902 0.0004052518082764884 0.0 0.0
0.0 0.06810245528704978 0.05978759905798205 -0.05747793707460073 -0.0023096619833813063 -6.183869705435677e-05 0.0 0.0
0.0 0.04801296032301753 0.042346220960547194 -0.04040785493361568 -0.001938366026931589 -0.00041865663657763294 0.0 0.0
0.0 0.0315415230128668 0.028001153965825545 -0.026378655716801914 -0.001622498249023609 -0.0006395766875161679 0.0 0.0
0.0 0.01889749794110037 0.01692761665437786 -0.015581564430614968 -0.0013460522237628573 -0.000696820439457475 0.0 0.0
0.0 0.00994064082996618 0.009034483716562751 -0.007964030008109428 -0.001070453708453326 -0.0006379792700401312 0.0 0.0
0.0 0.004116216858862292 0.003962890088462852 -0.003235127916511735 -0.0007277621719511265 -0.0004724393973540763 0.0 0.0
0.0 0.0015214170498071178 0.0011809780394897557 -0.0008773020220024299 -0.0003036760174873227 -0.00024031611865832548 0.0 0.0
0.0 0.0002660487346694726 0.00017829531706074715 -0.00012824097742265397 -5.005433963809248e-05 -4.63641691331837e-05 0.0 0.0
0.0 0.0002944220696913892 0.000354683657547194 -0.00021292893284606036 -0.00014175472470113237 0.0004900309702814198 0.0 0.0
0.0 0.00779343970745448 0.005825667457722596 -0.003828859553385179 -0.00199680790433742 0.007724863671848764 0.0 0.0
0.0 0.02143727758053811 0.017278979458443828 -0.020405050140595578 0.00312607068215175 0.00146086310867613 0.0 0.0
0.0 0.017703656636502505 0.013409041155971012 -0.01709539869309439 0.0036863575371233795 -0.000960369580774584 0.0 0.0
0.0 0.0050365734540351505 0.003632091674702959 -0.0023831809716851116 -0.0012489107030178449 -0.0063036405464567445 0.0 0.0
0.0 -0.00010485731965222037 -8.143571196346658e-05 8.114612045882163e-05 2.895915046449673e-07 -0.00015631866692027472 0.0 0.0
0.0 9.149294967961088e-05 8.224906013339894e-05 -5.933719385611046e-05 -2.291186627728844e-05 2.3059362653382937e-05 0.0 0.0
0.0 0.0009498513704220365 0.0008228265737693919 -0.0006165333973305769 -0.00020629317643881427 8.888509640487867e-05 0.0 0.0
0.0 0.0035637426670287278 0.0031673504720453024 -0.002614626814859368 -0.0005527236571859399 3.422384895348694e-05 0.0 0.0
0.0 0.008576908911490915 0.007760547336821259 -0.00694018014066773 -0.0008203671961535334 -0.00037586362101888897 0.0 0.0
0.0 0.016900630449004122 0.015007808190830162 -0.01403443177225964 -0.0009733764185705331 -0.0010602116544670653 0.0 0.0
0.0 0.028700480831558524 0.025232708698118063 -0.024151489162385152 -0.001081219535732908 -0.002026547261712997 0.0 0.0
0.0 0.04398051036714993 0.03846109380716878 -0.0372865895569607 -0.001174504250208117 -0.003242363444593903 0.0 0.0
0.0 0.06254044127798797 0.05449127890921525 -0.053227810837458485 -0.0012634680717568153 -0.004599428899669425 0.0 0.0
0.0 0.08412984845297286 0.07302312446864408 -0.0716695531163673 -0.0013535713522767107 -0.005997475608111313 0.0 0.0
0.0 0.1077962883147391 0.09374543301416349 -0.09230067575457308 -0.0014447572595903554 -0.007417802797402681 0.0 0.0
0.0 0.13387545180804128 0.11630574098005599 -0.11477554792125885 -0.0015301930587971442 -0.008850070501128212 0.0 0.0
0.0 0.16154095750178465 0.1402472824312591 -0.13864727234863825 -0.001600010082620719 -0.010235936837414049 0.0 0.0
0.0 0.1900543611363217 0.16490267777318957 -0.16325663907779747 -0.0016460386953921055 -0.011428319806643114 0.0 0.0
0.0 0.21833693783163494 0.1893189144321027 -0.18765492569546294 -0.001663988736639639 -0.012126376333110474 0.0 0.0
0.0 0.2449309231541048 0.21224585049582317 -0.21059044405765973 -0.0016554064381635234 -0.01198397394461891 0.0 0.0
0.0 0.2679339739437008 0.23207956264302781 -0.23047555231552863 -0.0016040103274990681 -0.010963420431892131 0.0 0.0
0.0 0.28471497286930775 0.24645580422264904 -0.24505224801054606 -0.0014035562121029086 -0.010340264070882113 0.0 0.0
0.0 0.29220480967372736 0.2520771918899799 -0.2509739155163224 -0.0011032763736576032 9.528836053540601e-15 0.0 0.0
0.0 0.2847149728692742 0.24645580422261898 -0.2450522480105166 -0.0014035562121022477 0.010340264070909537 0.0 0.0
0.0 0.2679339739436153 0.2320795626429545 -0.23047555231545397 -0.0016040103275003484 0.01096342043192313 0.0 0.0
0.0 0.24493092315398884 0.21224585049572323 -0.21059044405755967 -0.0016554064381635496 0.011983973944635604 0.0 0.0
0.0 0.21833693783149555 0.18931891443198304 -0.18765492569534278 -0.0016639887366403014 0.012126376333107916 0.0 0.0
0.0 0.19005436113617796 0.16490267777306553 -0.163256639077673 -0.001646038695392197 0.011428319806635508 0.0 0.0
0.0 0.16154095750164255 0.14024728243113538 -0.1386472723485153 -0.0016000100826201505 0.010235936837412075 0.0 0.0
0.0 0.13387545180789662 0.11630574097993068 -0.11477554792113412 -0.0015301930587965143 0.008850070501124735 0.0 0.0
0.0 0.1077962883145963 0.09374543301404056 -0.09230067575444997 -0.001444757259590619 0.007417802797394129 0.0 0.0
0.0 0.0841298484528447 0.07302312446853282 -0.07166955311625642 -0.0013535713522764676 0.005997475608101508 0.0 0.0
0.0 0.06254044127787473 0.05449127890911742 -0.05322781083736102 -0.0012634680717563895 0.004599428899656345 0.0 0.0
0.0 0.04398051036705831 0.038461093807088884 -0.03728658955688107 -0.001174504250207749 0.0032423634445844568 0.0 0.0
0.0 0.028700480831491113 0.025232708698058676 -0.024151489162326515 -0.0010812195357321646 0.0020265472617088465 0.0 0.0
0.0 0.016900630448959616 0.015007808190790641 -0.01403443177222102 -0.0009733764185696479 0.0010602116544623456 0.0 0.0
0.0 0.00857690891146319 0.00776054733679633 -0.006940180140643839 -0.000820367196152479 0.00037586362101605107 0.0 0.0
0.0 0.0035637426670155153 0.003167350472033775 -0.0026146268148490278 -0.0005527236571847415 -3.422384895422174e-05 0.0 0.0
0.0 0.0009498513704159594 0.0008228265737644871 -0.000616533397326797 -0.00020629317643769206 -8.888509640455895e-05 0.0 0.0
0.0 9.149294967943184e-05 8.224906013380968e-05 -5.933719385646257e-05 -2.2911866277346943e-05 -2.305936265315625e-05 0.0 0.0
0.0 -0.0001048573196526333 -8.143571196318312e-05 8.114612045856861e-05 2.8959150461413954e-07 0.0001563186669199018 0.0 0.0
0.0 0.005036573454023478 0.003632091674696595 -0.0023831809716804084 -0.0012489107030161878 0.006303640546444943 0.0 0.0
0.0 0.017703656636478025 0.013409041155952416 -0.017095398693071466 0.00368635753711904 0.0009603695807388208 0.0 0.0
0.0 0.013462681260618524 0.009983303176928348 -0.013059980737433 0.00307667756050466 -0.0037667460888148345 0.0 0.0
0.0 0.003467431581624258 0.002231102654859804 -0.00128970084188899 -0.000941401812970817 -0.0056520586972422715 0.0 0.0
0.0 -1.8516522041401088e-06 -2.711813467385792e-07 6.19110224902929e-07 -3.47928878164345e-07 -6.395892106952165e-07 0.0 0.0
0.0 9.775653146011326e-06 8.565997969400862e-06 -5.160147103402424e-06 -3.405850865998566e-06 1.0326335962889477e-05 0.0 0.0
0.0 0.000503463960883838 0.00046005787992279483 -0.0003356738403726128 -0.00012438403955018198 5.83353965559832e-06 0.0 0.0
0.0 0.002631686192714418 0.0022967851928216787 -0.001844111244630039 -0.0004526739481916376 -0.00020597608243713247 0.0 0.0
0.0 0.0068364329671246424 0.006254195736597632 -0.00549615113906387 -0.0007580445975337587 -0.0009965402030780448 0.0 0.0
0.0 0.014298464910614391 0.01268948092096881 -0.011764747247016639 -0.0009247336739521631 -0.002301130793337849 0.0 0.0
0.0 0.024880148148327744 0.021850404031763013 -0.02082192581653106 -0.001028478215231928 -0.004122262031927591 0.0 0.0
0.0 0.038667834396701836 0.03370206776435565 -0.03258823118300717 -0.0011138365813485008 -0.006353004002391249 0.0 0.0
0.0 0.05531982050894496 0.04802066211907802 -0.046823468711490845 -0.001197193407587134 -0.008788488523592788 0.0 0.0
0.0 0.07439489820507342 0.06452970110678108 -0.06324646197381918 -0.0012832391329619366 -0.011243456440744832 0.0 0.0
0.0 0.09593373464878682 0.08296317081922143 -0.081593505789783 -0.001369665029438363 -0.013667858248481182 0.0 0.0
0.0 0.11891771547360808 0.1030476899664458 -0.10159706773151822 -0.0014506222349276086 -0.01609121979701696 0.0 0.0
0.0 0.1436453178525931 0.12440339093412044 -0.12288442842662513 -0.001518962507495503 -0.018435690351950456 0.0 0.0
0.0 0.16919465722777638 0.14648037956484045 -0.1449131428294353 -0.0015672367354050457 -0.020436094492350346 0.0 0.0
0.0 0.19465406215155193 0.16848187244930712 -0.16689172718338208 -0.0015901452659253176 -0.02162853181822618 0.0 0.0
0.0 0.21869530138487014 0.18927067515515114 -0.1876928424065367 -0.0015778327486144778 -0.02152550130653764 0.0 0.0
0.0 0.23947342817828085 0.20720505859739966 -0.2057054358589338 -0.0014996227384656239 -0.01999050426534061 0.0 0.0
0.0 0.25447762448154126 0.22010275283911954 -0.2187188278462437 -0.0013839249928753181 -0.01726570782394021 0.0 0.0
0.0 0.2615214802613233 0.22530085561083502 -0.22425489523113518 -0.0010459603796998554 1.892843520812093e-14 0.0 0.0
0.0 0.2544776244815143 0.22010275283909353 -0.2187188278462195 -0.001383924992874051 0.01726570782398912 0.0 0.0
0.0 0.23947342817820927 0.20720505859733712 -0.2057054358588716 -0.0014996227384657089 0.01999050426538932 0.0 0.0
0.0 0.21869530138476617 0.1892706751550619 -0.1876928424064455 -0.0015778327486161996 0.02152550130656772 0.0 0.0
0.0 0.19465406215143155 0.168481872449204 -0.16689172718327894 -0.001590145265925257 0.021628531818224706 0.0 0.0
0.0 0.16919465722765417 0.14648037956473398 -0.14491314282933024 -0.0015672367354037948 0.020436094492341926 0.0 0.0
0.0 0.14364531785246598 0.12440339093401004 -0.12288442842651551 -0.0015189625074944302 0.018435690351944794 0.0 0.0
0.0 0.11891771547347714 0.10304768996633246 -0.10159706773140528 -0.001450622234927181 0.016091219797010066 0.0 0.0
0.0 0.09593373464866495 0.0829631708191163 -0.08159350578967814 -0.001369665029438111 0.01366785824846993 0.0 0.0
0.0 0.07439489820495886 0.06452970110668249 -0.06324646197372073 -0.0012832391329616875 0.01124345644072732 0.0 0.0
0.0 0.05531982050884572 0.04802066211899222 -0.046823468711405206 -0.0011971934075870301 0.008788488523574433 0.0 0.0
0.0 0.03866783439662171 0.0337020677642856 -0.03258823118293746 -0.001113836581348111 0.006353004002376149 0.0 0.0
0.0 0.02488014814826836 0.021850404031711047 -0.020821925816479948 -0.0010284782152311 0.004122262031917943 0.0 0.0
0.0 0.014298464910571502 0.012689480920931565 -0.01176474724697984 -0.0009247336739516879 0.0023011307933293486 0.0 0.0
0.0 0.006836432967098198 0.006254195736573939 -0.005496151139041307 -0.0007580445975326382 0.0009965402030722873 0.0 0.0
0.0 0.0026316861927040028 0.002296785192812746 -0.0018441112446224857 -0.0004526739481902601 0.00020597608243577866 0.0 0.0
0.0 0.0005034639608796118 0.0004600578799195815 -0.00033567384037014195 -0.00012438403954943941 -5.833539655812374e-06 0.0 0.0
0.0 9.775653146187799e-06 8.565997969732948e-06 -5.1601471036775106e-06 -3.4058508660553897e-06 -1.0326335962718912e-05 0.0 0.0
0.0 -1.851652204009301e-06 -2.7118134678875076e-07 6.191102249321994e-07 -3.4792887814344956e-07 6.395892106487561e-07 0.0 0.0
0.0 0.003467431581614594 0.0022311026548542017 -0.0012897008418851937 -0.0009414018129689972 0.005652058697227843 0.0 0.0
0.0 0.01346268126059229 0.009983303176908945 -0.01305998073740895 0.0030766775604999766 0.003766746088790974 0.0 0.0
0.0 0.010384182819124965 0.007514941027703159 -0.01002353757446298 0.002508596546759799 -0.00403710244027312 0.0 0.0
0.0 0.0025844481552257464 0.001564380251928798 -0.0008831873850405882 -0.0006811928668882036 -0.004394790009139446 0.0 0.0
0.0 0.0 0.0 0.0 0.0 0.0 0.0 0.0
0.0 -9.453599124532169e-06 -8.36119104203066e-06 6.683257422620903e-06 1.6779336194097538e-06 7.167826111038345e-06 0.0 0.0
0.0 0.00022180363310645378 0.00019697679744964779 -0.00013876548444243577 -5.8211313007211285e-05 -9.119408717819861e-06 0.0 0.0
0.0 0.0017157277100612323 0.001551158797204486 -0.0012095872187722384 -0.0003415715784322449 -0.00033504085409277637 0.0 0.0
0.0 0.005433433834909459 0.0048049229513739775 -0.004129440245899115 -0.0006754827054748609 -0.0013126961098588728 0.0 0.0
0.0 0.01175477774993235 0.01039337526917899 -0.009526559821606807 -0.0008668154475721811 -0.003120733616733295 0.0 0.0
0.0 0.021132088838456152 0.018445681958561038 -0.01747487878595289 -0.0009708031726081398 -0.005587541311211845 0.0 0.0
0.0 0.03334402859120469 0.028885761042928972 -0.027836210085678017 -0.0010495509572509304 -0.008578339408777166 0.0 0.0
0.0 0.04799792055843059 0.04147188475288861 -0.040345355540346975 -0.001126529212541543 -0.011813562758966356 0.0 0.0
0.0 0.06491918196322771 0.05594501242186115 -0.05473735109720299 -0.0012076613246581643 -0.015065793822372222 0.0 0.0
0.0 0.08354439756778245 0.07208645943754527 -0.07079660726631981 -0.001289852171225436 -0.01827226557624823 0.0 0.0
0.0 0.10419891561746211 0.0896730439196587 -0.08830712516032552 -0.001365918759333104 -0.021441792856913635 0.0 0.0
0.0 0.1258461561428323 0.10842399301115452 -0.1069917628347529 -0.001432230176401596 -0.024490376947644766 0.0 0.0
0.0 0.14824531225345738 0.127916007565077 -0.1264321530786099 -0.0014838544864670758 -0.027133347198643812 0.0 0.0
0.0 0.17098178286237475 0.14749808124984143 -0.14598788637458726 -0.001510194875254226 -0.028846806746953432 0.0 0.0
0.0 0.19255011931162155 0.16615549228026327 -0.16466000825056737 -0.001495484029695804 -0.029029509777576 0.0 0.0
0.0 0.2112748745907758 0.18238216559655218 -0.1809477045571579 -0.0014344610393942647 -0.027082375346174036 0.0 0.0
0.0 0.2250012481448327 0.19431857076210715 -0.19295728630657044 -0.0013612844555370759 -0.02202668485454298 0.0 0.0
0.0 0.23206681205119808 0.1994427291545384 -0.198551002564371 -0.0008917265901673645 2.671387416830484e-14 0.0 0.0
0.0 0.22500124814481223 0.1943185707620857 -0.19295728630655082 -0.001361284455534984 0.022026684854608302 0.0 0.0
0.0 0.21127487459071498 0.1823821655964974 -0.1809477045571033 -0.0014344610393939232 0.027082375346237732 0.0 0.0
0.0 0.19255011931153676 0.16615549228018933 -0.16466000825049285 -0.0014954840296965036 0.029029509777613385 0.0 0.0
0.0 0.17098178286227858 0.14749808124975833 -0.14598788637450516 -0.001510194875253211 0.028846806746956725 0.0 0.0
0.0 0.14824531225334764 0.127916007564982 -0.12643215307851563 -0.0014838544864661633 0.02713334719863278 0.0 0.0
0.0 0.1258461561427174 0.10842399301105478 -0.10699176283465353 -0.0014322301764013688 0.024490376947634618 0.0 0.0
0.0 0.10419891561735131 0.08967304391956218 -0.0883071251602299 -0.0013659187593323319 0.021441792856904313 0.0 0.0
0.0 0.0835443975676744 0.07208645943745247 -0.07079660726622777 -0.0012898521712246377 0.018272265576232113 0.0 0.0
0.0 0.06491918196312871 0.055945012421775714 -0.05473735109711771 -0.0012076613246580902 0.015065793822349655 0.0 0.0
0.0 0.04799792055834293 0.041471884752813166 -0.04034535554027218 -0.0011265292125409118 0.011813562758942818 0.0 0.0
0.0 0.03334402859113516 0.028885761042868906 -0.027836210085618523 -0.0010495509572503686 0.008578339408756908 0.0 0.0
0.0 0.021132088838403555 0.018445681958515574 -0.017474878785908036 -0.0009708031726075279 0.005587541311197807 0.0 0.0
0.0 0.011754777749895124 0.01039337526914613 -0.009526559821574581 -0.0008668154475715466 0.0031207336167223885 0.0 0.0
0.0 0.00543343383488676 0.004804922951354847 -0.004129440245881353 -0.0006754827054734914 0.0013126961098521904 0.0 0.0
0.0 0.0017157277100526057 0.0015511587971974976 -0.0012095872187664737 -0.0003415715784310228 0.00033504085409069654 0.0 0.0
0.0 0.00022180363310461682 0.0001969767974485748 -0.00013876548444172467 -5.8211313006849784e-05 9.119408717919212e-06 0.0 0.0
0.0 -9.453599124774602e-06 -8.361191041990462e-06 6.683257422590222e-06 1.6779336194002713e-06 -7.167826111018956e-06 0.0 0.0
0.0 0.0 0.0 0.0 0.0 0.0 0.0 0.0
0.0 0.0025844481552172666 0.0015643802519238585 -0.0008831873850372548 -0.000681192866886608 0.004394790009126715 0.0 0.0
0.0 0.010384182819102746 0.007514941027685982 -0.010023537574441506 0.0025085965467555094 0.004037102440256079 0.0 0.0
0.0 0.007781679380508631 0.005597162180096014 -0.007597175900203901 0.002000013720107898 -0.0034622920824837534 0.0 0.0
0.0 0.002074924536412816 0.001069664309926826 -0.0005941493194780189 -0.0004755149904488075 -0.00326745150857921 0.0 0.0
0.0 0.0 0.0 0.0 0.0 0.0 0.0 0.0
0.0 -1.3625838740658285e-06 -1.2389888101620113e-06 9.929041954938756e-07 2.4608461466813885e-07 1.7152002823481933e-06 0.0 0.0
0.0 3.254358992380001e-05 4.5693509871288356e-05 -2.852446119148968e-05 -1.7169048679798742e-05 9.760311084504334e-06 0.0 0.0
0.0 0.0010680517937427746 0.0009325605822739546 -0.0007071751971025691 -0.00022538538517138574 -0.0003439813615441475 0.0 0.0
0.0 0.0040816466758078545 0.003474586735020154 -0.0029076070025613934 -0.0005669797324587585 -0.0014107828596548984 0.0 0.0
0.0 0.009312152103506725 0.00815449048203133 -0.007357887501044928 -0.0007966029809864106 -0.0034795838836158056 0.0 0.0
0.0 0.01743273821967751 0.015062968765900202 -0.014156102052059506 -0.00090686671384071 -0.006413551324417771 0.0 0.0
0.0 0.02801776781660171 0.024061296479112607 -0.023081221851106715 -0.000980074628005878 -0.009916926424386527 0.0 0.0
0.0 0.04075572347431273 0.03489479552698667 -0.033844017286220746 -0.0010507782407659298 -0.01368569029414174 0.0 0.0
0.0 0.05534438208863025 0.047319518802352155 -0.046193186751492935 -0.0011263320508591984 -0.017471154677522794 0.0 0.0
0.0 0.07162334729898685 0.061154605997174774 -0.059951167092764227 -0.0012034389044105085 -0.02120994478794326 0.0 0.0
0.0 0.08901424382155276 0.07624332553889634 -0.07496722547758762 -0.0012761000613088094 -0.02489928223192389 0.0 0.0
0.0 0.10789987376270428 0.09237309129473152 -0.09103329367472698 -0.0013397976200044852 -0.028421676535440313 0.0 0.0
0.0 0.12758555862296533 0.10924116777348394 -0.10784967096230816 -0.0013914968111758443 -0.031504061307872186 0.0 0.0
0.0 0.14726401121101435 0.12636031615930424 -0.12493730121614818 -0.0014230149431560645 -0.033693114443425085 0.0 0.0
0.0 0.16634719849017315 0.14290112972225252 -0.14148077489122743 -0.0014203548310249266 -0.034288367337429834 0.0 0.0
0.0 0.183248944966899 0.15760275530132617 -0.15622381705585336 -0.0013789382454725782 -0.032117249897770456 0.0 0.0
0.0 0.19611084964370162 0.16888981354167118 -0.1675648937773513 -0.0013249197643200523 -0.02555257605691447 0.0 0.0
0.0 0.20346797396294708 0.17412299103783935 -0.17342742880502102 -0.000695562232818138 3.146875121595727e-14 0.0 0.0
0.0 0.19611084964368214 0.1688898135416504 -0.16756489377733114 -0.0013249197643191981 0.02555257605698752 0.0 0.0
0.0 0.18324894496684743 0.1576027553012785 -0.15622381705580474 -0.0013789382454736428 0.03211724989784174 0.0 0.0
0.0 0.16634719849009882 0.1429011297221865 -0.1414807748911619 -0.0014203548310245536 0.03428836733746923 0.0 0.0
0.0 0.1472640112109309 0.12636031615923204 -0.12493730121607718 -0.0014230149431547969 0.033693114443432814 0.0 0.0
0.0 0.1275855586228683 0.10924116777339994 -0.10784967096222434 -0.0013914968111756664 0.03150406130786021 0.0 0.0
0.0 0.10789987376261004 0.09237309129464977 -0.0910332936746463 -0.0013397976200035277 0.028421676535427865 0.0 0.0
0.0 0.08901424382145565 0.0762433255388122 -0.07496722547750381 -0.0012761000613083619 0.024899282231911322 0.0 0.0
0.0 0.07162334729889092 0.06115460599709237 -0.059951167092682056 -0.0012034389044101497 0.02120994478792324 0.0 0.0
0.0 0.05534438208854762 0.047319518802281475 -0.04619318675142242 -0.001126332050858996 0.01747115467749837 0.0 0.0
0.0 0.04075572347423785 0.03489479552692311 -0.03384401728615803 -0.0010507782407650885 0.013685690294112846 0.0 0.0
0.0 0.028017767816539318 0.024061296479059573 -0.023081221851053838 -0.00098007462800574 0.009916926424361821 0.0 0.0
0.0 0.01743273821963038 0.015062968765859913 -0.014156102052019523 -0.0009068667138403744 0.006413551324400395 0.0 0.0
0.0 0.009312152103474455 0.008154490482003559 -0.0073578875010180305 -0.0007966029809855384 0.003479583883602811 0.0 0.0
0.0 0.0040816466757897015 0.0034745867350053656 -0.0029076070025480317 -0.0005669797324573293 0.0014107828596480808 0.0 0.0
0.0 0.0010680517937352511 0.0009325605822680884 -0.0007071751970979253 -0.00022538538517016387 0.00034398136154142916 0.0 0.0
0.0 3.254358992234809e-05 4.5693509870396545e-05 -2.852446119085708e-05 -1.7169048679539533e-05 -9.760311084569608e-06 0.0 0.0
0.0 -1.362583874140756e-06 -1.2389888101755808e-06 9.929041955035034e-07 2.4608461467205955e-07 -1.715200282375723e-06 0.0 0.0
0.0 0.0 0.0 0.0 0.0 0.0 0.0 0.0
0.0 0.0020749245364044817 0.0010696643099225714 -0.0005941493194751306 -0.0004755149904474397 0.0032674515085680386 0.0 0.0
0.0 0.0077816793804902475 0.0055971621800815635 -0.007597175900185546 0.0020000137201039753 0.003462292082472043 0.0 0.0
0.0 0.005786589554434206 0.004044250719828654 -0.005583902944396885 0.0015396522245682263 -0.0027247219619466532 0.0 0.0
0.0 0.0013542667102032864 0.0007008967493059066 -0.0003831571662487333 -0.00031773958305717176 -0.0023296899866266777 0.0 0.0
0.0 1.4483749750251462e-07 -3.087412547042466e-09 2.644247110450392e-09 4.4316543659177474e-10 2.8266529167811133e-08 0.0 0.0
0.0 -4.210945985082734e-07 5.225313323834742e-08 -3.571792094463958e-08 -1.653521229370779e-08 -4.838798371404126e-08 0.0 0.0
0.0 -2.5052585057396203e-05 -1.567332002932548e-05 1.449190565624702e-05 1.1814143730784661e-06 3.570440548070826e-05 0.0 0.0
0.0 0.0005284531675822707 0.0004803546929826236 -0.00035451003060487594 -0.00012584466237774828 -0.0002777770544313827 0.0 0.0
0.0 0.002642974313305513 0.002322594366171574 -0.0018864984610628289 -0.00043609590510874355 -0.0013550058080600837 0.0 0.0
0.0 0.007277316852699561 0.006020110941404686 -0.005318105766972735 -0.0007020051744319387 -0.003435741198575203 0.0 0.0
0.0 0.013685113887760256 0.011745677971237775 -0.010913808034144223 -0.0008318699370935674 -0.006579991566453844 0.0 0.0
0.0 0.0227817968610005 0.019276697073086966 -0.018373081764310947 -0.0009036153087760137 -0.010363624602791706 0.0 0.0
0.0 0.03352528886815856 0.0283410476167495 -0.027372787912132567 -0.000968259704616915 -0.01440429206196866 0.0 0.0
0.0 0.04576717361957288 0.038706375731010836 -0.03766821679288106 -0.0010381589381297455 -0.018461432326790414 0.0 0.0
0.0 0.05934103563221513 0.05022837287853612 -0.049118091853067515 -0.001110281025468627 -0.022471336378904003 0.0 0.0
0.0 0.07420210181502697 0.06280465523330073 -0.0616266706477227 -0.0011779845855779453 -0.0264306867322592 0.0 0.0
0.0 0.08995744023216727 0.07630459215846183 -0.0750659734552531 -0.0012386187032088426 -0.030214903782310665 0.0 0.0
0.0 0.10639348467808295 0.09051612247609256 -0.08922594153767015 -0.0012901809384223042 -0.033550429999205336 0.0 0.0
0.0 0.12361825991644063 0.10509969702206817 -0.10377144692966989 -0.0013282500923982989 -0.03606858994425926 0.0 0.0
0.0 0.14015184159151792 0.11949600614604693 -0.11815179093514694 -0.0013442152109000383 -0.037095846168771845 0.0 0.0
0.0 0.15516771818270084 0.13276993897259293 -0.13144545733471036 -0.0013244816378825558 -0.03514738312292582 0.0 0.0
0.0 0.16745337416659284 0.14360338587450994 -0.14232269210051607 -0.0012806937739938938 -0.028042575092850536 0.0 0.0
0.0 0.17535729843427716 0.1490812395667235 -0.14861576075415953 -0.0004654788125636786 3.2166110053299946e-14 0.0 0.0
0.0 0.16745337416657255 0.14360338587448734 -0.14232269210049306 -0.0012806937739942566 0.02804257509292838 0.0 0.0
0.0 0.155167718182661 0.1327699389725541 -0.1314454573346706 -0.001324481637883459 0.0351473831230026 0.0 0.0
0.0 0.14015184159145416 0.11949600614598978 -0.11815179093508915 -0.0013442152109004886 0.03709584616881539 0.0 0.0
0.0 0.12361825991636441 0.10509969702200225 -0.10377144692960469 -0.0013282500923975493 0.03606858994426593 0.0 0.0
0.0 0.10639348467800078 0.0905161224760219 -0.08922594153759957 -0.001290180938422538 0.03355042999919274 0.0 0.0
0.0 0.08995744023208549 0.07630459215839072 -0.0750659734551829 -0.0012386187032077862 0.030214903782296253 0.0 0.0
0.0 0.07420210181494363 0.06280465523322908 -0.061626670647650726 -0.0011779845855783564 0.026430686732242734 0.0 0.0
0.0 0.05934103563213267 0.05022837287846607 -0.049118091852997384 -0.001110281025468703 0.022471336378883308 0.0 0.0
0.0 0.04576717361950257 0.03870637573095141 -0.03766821679282209 -0.0010381589381293194 0.018461432326764365 0.0 0.0
0.0 0.033525288868096206 0.028341047616697694 -0.027372787912081357 -0.0009682597046163679 0.014404292061938795 0.0 0.0
0.0 0.022781796860946543 0.019276697073041707 -0.01837308176426592 -0.0009036153087757795 0.01036362460276384 0.0 0.0
0.0 0.01368511388772143 0.011745677971204693 -0.010913808034111593 -0.0008318699370931155 0.00657999156643472 0.0 0.0
0.0 0.00727731685267271 0.006020110941382984 -0.005318105766951996 -0.000702005174430988 0.003435741198562395 0.0 0.0
0.0 0.0026429743132913514 0.002322594366160175 -0.0018864984610528707 -0.00043609590510730313 0.0013550058080528658 0.0 0.0
0.0 0.0005284531675766566 0.0004803546929784133 -0.0003545100306015999 -0.00012584466237681316 0.00027777705442845317 0.0 0.0
0.0 -2.505258505750088e-05 -1.567332002875488e-05 1.4491905655778828e-05 1.1814143729760116e-06 -3.5704405479499046e-05 0.0 0.0
0.0 -4.210945985195076e-07 5.225313312693263e-08 -3.5717920858240156e-08 -1.653521226868923e-08 4.8387983487743714e-08 0.0 0.0
0.0 1.4483749738291524e-07 -3.0874125444692183e-09 2.6442471082460284e-09 4.431654362230215e-10 -2.8266529144286692e-08 0.0 0.0
0.0 0.0013542667101963382 0.0007008967493025004 -0.0003831571662463991 -0.00031773958305609916 0.002329689986617315 0.0 0.0
0.0 0.005786589554419706 0.0040442507198172 -0.00558390294438194 0.0015396522245647356 0.0027247219619387425 0.0 0.0
0.0 0.0039895740678869895 0.0027936788666199064 -0.003919417919412438 0.0011257390527925255 -0.002051859226804827 0.0 0.0
0.0 0.0008932497596417014 0.0004157328443354927 -0.00021584715890702076 -0.00019988568542847186 -0.0015465524200603037 0.0 0.0
0.0 1.1853683892268223e-07 1.5421076153843974e-09 -7.818401241691979e-10 -7.602674912153491e-10 2.4929733331571593e-08 0.0 0.0
0.0 7.539136004455925e-09 -6.016367030979551e-08 4.412670712877513e-08 1.603696318101753e-08 2.6819588509020174e-07 0.0 0.0
0.0 -2.767522209553216e-05 -1.7754465069669082e-05 1.4410631012615296e-05 3.3438340570538474e-06 3.6947062796038826e-05 0.0 0.0
0.0 0.00020719807969752597 0.00017738386071856012 -0.00012678405102386814 -5.0599809694692046e-05 -0.0001530176159696786 0.0 0.0
0.0 0.001641606262992184 0.0013573265656907 -0.0010697191830545299 -0.0002876073826361704 -0.0011292649063421238 0.0 0.0
0.0 0.0048859096147986815 0.004089959001692616 -0.0035157099307910017 -0.0005742490709016105 -0.003112046317819409 0.0 0.0
0.0 0.01061980401716829 0.0085453885116886 -0.00780829023692573 -0.0007370982747628658 -0.006120299273438893 0.0 0.0
0.0 0.017490738124033293 0.014586250356784307 -0.013771035061755199 -0.0008152152950291115 -0.009901809210200004 0.0 0.0
0.0 0.02636992291132073 0.021864770322028514 -0.020988315876548657 -0.000876454445479866 -0.013957102033767231 0.0 0.0
0.0 0.036292401353493126 0.030160892256612788 -0.02922042383297551 -0.000940468423637305 -0.018028902079457468 0.0 0.0
0.0 0.047228036141411335 0.03936284472975572 -0.0383561154122444 -0.001006729317511252 -0.02204521613333936 0.0 0.0
0.0 0.05915490895750739 0.04942259289106855 -0.04835248705186087 -0.00107010583920774 -0.026017579603715823 0.0 0.0
0.0 0.0719258513839856 0.06027670581014685 -0.05915008629212294 -0.001126619518023852 -0.02983604314810187 0.0 0.0
0.0 0.08569432544409107 0.07179447590015353 -0.07061960655832127 -0.001174869341832344 -0.033234078574976025 0.0 0.0
0.0 0.09931348832420062 0.0837790534915377 -0.08255830739793912 -0.0012207460935986262 -0.035883746485740525 0.0 0.0
0.0 0.1135880221352119 0.09593928750742506 -0.09467896164401178 -0.001260325863413147 -0.03730447651626323 0.0 0.0
0.0 0.12726097696493868 0.10775774349334612 -0.10649093549490352 -0.0012668079984427846 -0.036050352487024984 0.0 0.0
0.0 0.13895109166210148 0.1182364720354166 -0.11700462450473284 -0.0012318475306837356 -0.029481377813703188 0.0 0.0
0.0 0.14771179582612493 0.1240748677838757 -0.12387306520746681 -0.00020180257640899695 3.166997913917058e-14 0.0 0.0
0.0 0.13895109166208158 0.11823647203539302 -0.1170046245047093 -0.001231847530683866 0.029481377813778752 0.0 0.0
0.0 0.12726097696490726 0.1077577434933137 -0.10649093549487057 -0.0012668079984431994 0.03605035248710043 0.0 0.0
0.0 0.11358802213516116 0.09593928750737815 -0.09467896164396473 -0.0012603258634134393 0.03730447651630635 0.0 0.0
0.0 0.09931348832413847 0.0837790534914843 -0.08255830739788624 -0.001220746093598033 0.03588374648574716 0.0 0.0
0.0 0.08569432544402324 0.07179447590009569 -0.07061960655826344 -0.001174869341832323 0.0332340785749608 0.0 0.0
0.0 0.07192585138391429 0.060276705810085714 -0.059150086292061074 -0.0011266195180246142 0.029836043148083802 0.0 0.0
0.0 0.05915490895744408 0.04942259289101394 -0.04835248705180684 -0.0010701058392070801 0.02601757960370032 0.0 0.0
0.0 0.04722803614134827 0.03936284472970262 -0.03835611541219141 -0.001006729317511223 0.022045216133320847 0.0 0.0
0.0 0.03629240135343411 0.030160892256563876 -0.02922042383292683 -0.0009404684236370594 0.018028902079431704 0.0 0.0
0.0 0.026369922911269602 0.021864770321987144 -0.020988315876507582 -0.0008764544454795557 0.013957102033737536 0.0 0.0
0.0 0.017490738123989765 0.014586250356748681 -0.01377103506172001 -0.0008152152950286611 0.009901809210172875 0.0 0.0
0.0 0.010619804017136835 0.008545388511663945 -0.007808290236901723 -0.0007370982747622263 0.00612029927342126 0.0 0.0
0.0 0.004885909614778139 0.0040899590016762015 -0.0035157099307755115 -0.0005742490709006842 0.003112046317807283 0.0 0.0
0.0 0.0016416062629819267 0.0013573265656832024 -0.0010697191830483408 -0.0002876073826348624 0.0011292649063354783 0.0 0.0
0.0 0.00020719807969454853 0.00017738386071677995 -0.0001267840510225774 -5.0599809694202644e-05 0.0001530176159680399 0.0 0.0
0.0 -2.767522209530796e-05 -1.7754465069119368e-05 1.4410631012192984e-05 3.343834056926382e-06 -3.6947062794879326e-05 0.0 0.0
0.0 7.539135738014307e-09 -6.016367033052875e-08 4.4126707145041466e-08 1.603696318548864e-08 -2.6819588514415175e-07 0.0 0.0
0.0 1.1853683869198745e-07 1.5421076161875886e-09 -7.818401251826872e-10 -7.602674910048665e-10 -2.492973328350805e-08 0.0 0.0
0.0 0.0008932497596366591 0.00041573284433332465 -0.0002158471589055902 -0.00019988568542773466 0.001546552420053697 0.0 0.0
0.0 0.0039895740678755325 0.00279367886661097 -0.003919417919400505 0.0011257390527895338 0.0020518592267989018 0.0 0.0
0.0 0.00301755132964652 0.0017677657816038655 -0.0025188642164026623 0.000751098434798795 -0.0014417046467168904 0.0 0.0
0.0 0.0004363534367318486 0.00021234629698649237 -9.87142198981208e-05 -0.00011363207708837171 -0.0009252021961723802 0.0 0.0
0.0 1.7330227265199004e-06 1.298681259445297e-07 -1.3545440675344214e-07 5.586280808912811e-09 -2.6331218926142175e-06 0.0 0.0
0.0 -6.319438335094804e-07 -1.8028365740451455e-08 1.38517260122139e-08 4.176639728237328e-09 -4.3393864902922465e-07 0.0 0.0
0.0 -1.5148362756467153e-05 -8.789869783510159e-06 7.084080070865537e-06 1.7057897126446175e-06 2.760337524658847e-05 0.0 0.0
0.0 4.248188045878742e-05 3.199115021167055e-05 -2.0595040591878724e-05 -1.13961096197918e-05 -4.444691572714045e-05 0.0 0.0
0.0 0.0008366975826848732 0.0006334049807669021 -0.00048664938659740586 -0.00014675559416949565 -0.0007961815590420499 0.0 0.0
0.0 0.003010472836572444 0.002399398006078147 -0.0019969165898669964 -0.0004024814162111509 -0.0025137707923479796 0.0 0.0
0.0 0.00702064901931849 0.005582676188135115 -0.004977791276229505 -0.0006048849119056088 -0.005167623293387074 0.0 0.0
0.0 0.01283121990609754 0.010055213135929875 -0.009351270956238372 -0.0007039421796914995 -0.00856301008300371 0.0 0.0
0.0 0.019326913436537297 0.015526269731565 -0.014759597434544462 -0.0007666722970205199 -0.012333457049653029 0.0 0.0
0.0 0.02684901572452186 0.021748434623160427 -0.020921541784217516 -0.00082689283894293 -0.016146767567045 0.0 0.0
0.0 0.03520649616981553 0.028628301978425617 -0.02774109350301848 -0.0008872084754071412 -0.019909703351658443 0.0 0.0
0.0 0.04426342899819653 0.03616102233323954 -0.035216518814803734 -0.0009445035184357509 -0.023631872661211063 0.0 0.0
0.0 0.054153390776052204 0.04435268363127167 -0.043355170993284314 -0.0009975126379873397 -0.02725089592626247 0.0 0.0
0.0 0.064578650955456 0.05315941352957516 -0.052115979456657434 -0.0010434340729176968 -0.030526667949105253 0.0 0.0
0.0 0.07570764838467112 0.06247298265749955 -0.061383989673965016 -0.0010889929835345112 -0.03310583595373476 0.0 0.0
0.0 0.0870032633780683 0.07224917464172254 -0.07109777711299657 -0.0011513975287257823 -0.034713630307030015 0.0 0.0
0.0 0.0985410257086439 0.08245089692297383 -0.08125082723717453 -0.0012000696857992813 -0.034503664455641264 0.0 0.0
0.0 0.10999520212019506 0.09254995449168993 -0.09136678440611068 -0.0011831700855791925 -0.029670593713334116 0.0 0.0
0.0 0.12004929840512243 0.09884822569733132 -0.09894757748650837 9.935178917696175e-05 2.99257146840759e-14 0.0 0.0
0.0 0.1099952021201857 0.09254995449167432 -0.09136678440609486 -0.0011831700855794245 0.02967059371340403 0.0 0.0
0.0 0.09854102570861979 0.08245089692294601 -0.08125082723714706 -0.0012000696857989205 0.03450366445571532 0.0 0.0
0.0 0.08700326337802525 0.07224917464168275 -0.07109777711295606 -0.0011513975287265484 0.03471363030707021 0.0 0.0
0.0 0.07570764838462299 0.06247298265745867 -0.06138398967392516 -0.0010889929835334955 0.03310583595373792 0.0 0.0
0.0 0.06457865095540276 0.053159413529530734 -0.05211597945661309 -0.0010434340729176988 0.03052666794908651 0.0 0.0
0.0 0.05415339077600199 0.044352683631228816 -0.04335517099324211 -0.0009975126379866543 0.027250895926246306 0.0 0.0
0.0 0.04426342899814892 0.03616102233319882 -0.03521651881476359 -0.0009445035184352131 0.023631872661198407 0.0 0.0
0.0 0.03520649616977144 0.02862830197838903 -0.02774109350298265 -0.0008872084754063764 0.019909703351642338 0.0 0.0
0.0 0.02684901572447693 0.02174843462312377 -0.020921541784180993 -0.0008268928389427604 0.01614676756702098 0.0 0.0
0.0 0.01932691343649743 0.015526269731533985 -0.014759597434514177 -0.0007666722970197969 0.012333457049624961 0.0 0.0
0.0 0.012831219906062787 0.01005521313590304 -0.009351270956211685 -0.0007039421796913559 0.008563010082978384 0.0 0.0
0.0 0.007020649019295148 0.005582676188116832 -0.004977791276212235 -0.000604884911904601 0.005167623293371803 0.0 0.0
0.0 0.003010472836560212 0.002399398006069006 -0.001996916589858581 -0.00040248141621042544 0.002513770792338899 0.0 0.0
0.0 0.0008366975826773322 0.0006334049807615496 -0.0004866493865931749 -0.0001467555941683744 0.0007961815590351487 0.0 0.0
0.0 4.248188045753692e-05 3.199115021152598e-05 -2.059504059178303e-05 -1.1396109619742846e-05 4.444691572697767e-05 0.0 0.0
0.0 -1.5148362757522166e-05 -8.789869783336714e-06 7.084080070730105e-06 1.7057897126065804e-06 -2.7603375245940288e-05 0.0 0.0
0.0 -6.319438335339472e-07 -1.8028365654863527e-08 1.3851725955440379e-08 4.176639699422466e-09 4.339386501379809e-07 0.0 0.0
0.0 1.7330227262620373e-06 1.29868125945093e-07 -1.3545440676213037e-07 5.586280817037824e-09 2.633121892873074e-06 0.0 0.0
0.0 0.0004363534367285607 0.000212346296985185 -9.871421989732182e-05 -0.00011363207708786323 0.0009252021961675841 0.0 0.0
0.0 0.0030175513296362383 0.001767765781597366 -0.0025188642163937237 0.0007510984347963583 0.0014417046467125672 0.0 0.0
0.0 0.001654830407956894 0.0010180654700171533 -0.001473298611669879 0.00045523314165272637 -0.0009906377988757604 0.0 0.0
0.0 0.00019262082146523775 7.428617469765933e-05 -1.5657958218036167e-05 -5.862821647962288e-05 -0.0004444412897696237 0.0 0.0
0.0 4.271862306447518e-06 8.292633182765046e-08 -9.936582229455599e-08 1.643949046690656e-08 -2.0919665882210578e-06 0.0 0.0
0.0 1.3423106381087701e-06 -2.655140930065221e-07 2.147062905921388e-07 5.0807802414383325e-08 6.506228201621971e-07 0.0 0.0
0.0 -9.11925904555706e-06 -3.990046006372005e-06 3.2362971110667594e-06 7.537488953052482e-07 1.735925839223146e-05 0.0 0.0
0.0 -5.996271492756996e-06 -3.614316589794443e-06 4.279298785144808e-06 -6.649821953503271e-07 -5.528370082708416e-06 0.0 0.0
0.0 0.000343693544835808 0.0001856950203761822 -0.00014128119085731104 -4.4413829518871605e-05 -0.00043183537117792893 0.0 0.0
0.0 0.0015861127982076438 0.001036446459956964 -0.0008402761488170072 -0.0001961703111399571 -0.0016884750936569817 0.0 0.0
0.0 0.004038989595515315 0.0029317584256474244 -0.0025329490569129666 -0.0003988093687344579 -0.003786298299580979 0.0 0.0
0.0 0.007851490513934306 0.005815987450562626 -0.005280227699625157 -0.0005357597509374715 -0.006484570716994346 0.0 0.0
0.0 0.012343660126163565 0.009430207981616824 -0.008814448820695323 -0.0006157591609214977 -0.009593973590538192 0.0 0.0
0.0 0.01761213214555584 0.013555856722375437 -0.012879855708882412 -0.0006760010134930214 -0.012825057921834962 0.0 0.0
0.0 0.023343585038865994 0.01811233964024267 -0.017380154558496428 -0.0007321850817462358 -0.016079979335335226 0.0 0.0
0.0 0.02957618289288968 0.023115349183575426 -0.022332473087609585 -0.0007828760959658514 -0.019315038867663063 0.0 0.0
0.0 0.03643027232683646 0.028623209601986103 -0.027791780674038244 -0.0008314289279478567 -0.022487969517496556 0.0 0.0
0.0 0.043929395894900386 0.03468885638775971 -0.03381065418075378 -0.000878202207005873 -0.02547303561264644 0.0 0.0
0.0 0.05195385989662567 0.041309618541472005 -0.040386512411625906 -0.0009231061298461111 -0.027928495918282836 0.0 0.0
0.0 0.06032779113825203 0.048541860135676684 -0.04755401590419693 -0.0009878442314798237 -0.029479482395347516 0.0 0.0
0.0 0.06979527605807717 0.05677286937260965 -0.05568360202398251 -0.0010892673486270932 -0.030032070929053505 0.0 0.0
0.0 0.08081395325595116 0.06625894411674278 -0.06512535038256179 -0.0011335937341810348 -0.02806431042260513 0.0 0.0
0.0 0.09248153098740036 0.07309682060342262 -0.07353812882402554 0.00044130822060288943 2.6205600189843636e-14 0.0 0.0
0.0 0.08081395325595599 0.06625894411673723 -0.0651253503825563 -0.001133593734180858 0.02806431042267073 0.0 0.0
0.0 0.06979527605806767 0.05677286937259425 -0.055683602023966904 -0.0010892673486273285 0.030032070929122315 0.0 0.0
0.0 0.0603277911382277 0.04854186013565406 -0.047554015904173304 -0.000987844231480743 0.029479482395383602 0.0 0.0
0.0 0.051953859896589065 0.04130961854144307 -0.04038651241159772 -0.0009231061298453659 0.02792849591827861 0.0 0.0
0.0 0.043929395894861376 0.03468885638772849 -0.03381065418072298 -0.0008782022070054965 0.025473035612626517 0.0 0.0
0.0 0.03643027232680004 0.028623209601956273 -0.027791780674008573 -0.0008314289279477075 0.022487969517480715 0.0 0.0
0.0 0.02957618289286277 0.02311534918355249 -0.0223324730875872 -0.0007828760959653108 0.019315038867656783 0.0 0.0
0.0 0.02334358503883609 0.018112339640219025 -0.017380154558473332 -0.0007321850817456693 0.016079979335320085 0.0 0.0
0.0 0.01761213214552491 0.013555856722352362 -0.012879855708859432 -0.0006760010134929303 0.012825057921814681 0.0 0.0
0.0 0.012343660126137343 0.009430207981597476 -0.008814448820676224 -0.0006157591609212468 0.009593973590516433 0.0 0.0
0.0 0.00785149051391277 0.005815987450547564 -0.0052802276996102345 -0.0005357597509373364 0.0064845707169752355 0.0 0.0
0.0 0.004038989595499265 0.0029317584256357753 -0.002532949056902117 -0.0003988093687336562 0.003786298299568119 0.0 0.0
0.0 0.0015861127982016395 0.001036446459952855 -0.0008402761488136036 -0.0001961703111392521 0.001688475093652088 0.0 0.0
0.0 0.00034369354483011457 0.00018569502037395124 -0.0001412811908555033 -4.441382951844766e-05 0.00043183537117244254 0.0 0.0
0.0 -5.996271493063118e-06 -3.614316589583251e-06 4.279298784960805e-06 -6.649821953776242e-07 5.528370083754195e-06 0.0 0.0
0.0 -9.119259046702216e-06 -3.990046006226612e-06 3.2362971109585746e-06 7.53748895268046e-07 -1.7359258391193087e-05 0.0 0.0
0.0 1.3423106378607064e-06 -2.655140930434475e-07 2.1470629062170877e-07 5.080780242173969e-08 -6.50622820278576e-07 0.0 0.0
0.0 4.271862305765872e-06 8.2926331864097e-08 -9.936582233207978e-08 1.643949046798341e-08 2.0919665893989875e-06 0.0 0.0
0.0 0.00019262082146208437 7.428617469679556e-05 -1.5657958217507693e-05 -5.862821647928724e-05 0.00044444128976629425 0.0 0.0
0.0 0.001654830407949845 0.0010180654700129943 -0.0014732986116639238 0.0004552331416509277 0.000990637798872938 0.0 0.0
0.0 0.0008511582159169643 0.00047635723442927423 -0.0006975821090834303 0.00022122487465415678 -0.0005685359665519454 0.0 0.0
0.0 2.738691406048141e-05 6.295367004786379e-07 2.5111946246544594e-05 -2.574148294702336e-05 -0.00011799288150651799 0.0 0.0
0.0 5.125776380490606e-06 1.2090401695241034e-07 -2.4614077867891895e-07 1.2523676172650903e-07 -6.756858589301638e-06 0.0 0.0
0.0 4.224021152554238e-06 -2.87379670572937e-07 2.6203661462512496e-07 2.5343055947807337e-08 -5.749594170794283e-06 0.0 0.0
0.0 -3.639146407470946e-06 -1.7676932413038773e-06 1.5317444429095153e-06 2.359487983943698e-07 9.236424058103556e-06 0.0 0.0
0.0 7.0511473973924024e-06 -3.4290880066457794e-06 3.2876656336502617e-06 1.4142237299549745e-07 -9.661449379135086e-06 0.0 0.0
0.0 0.00014099901704401642 2.323616745460383e-05 -1.761574763816866e-05 -5.620419816435114e-06 -0.0002171928927751393 0.0 0.0
0.0 0.0005475781424414364 0.00018186983540861222 -0.00015383740949628558 -2.8032425912326995e-05 -0.0008252530088818904 0.0 0.0
0.0 0.0015785960065806954 0.0007678070247216131 -0.0006797676032656226 -8.803942145598975e-05 -0.0021083841660934056 0.0 0.0
0.0 0.0034573193226868307 0.002017944421043762 -0.0018303188961525062 -0.0001876255248912573 -0.003965151478384067 0.0 0.0
0.0 0.006094723519247443 0.003748898623767517 -0.003463327467495743 -0.0002855711562717687 -0.006147667976209232 0.0 0.0
0.0 0.008885327258641867 0.005765294174647708 -0.005402446798084187 -0.00036284737656352533 -0.008594214383530134 0.0 0.0
0.0 0.01211922620195662 0.007996206607355246 -0.007571834702278331 -0.00042437190507691667 -0.011181843466774912 0.0 0.0
0.0 0.015708588904704432 0.010474037991079774 -0.009997217932649537 -0.00047682005843023323 -0.01385092969391168 0.0 0.0
0.0 0.019675227853582763 0.013283839947461266 -0.012754902831341917 -0.0005289371161193518 -0.016578062007007646 0.0 0.0
0.0 0.024162758977623367 0.01655981005255086 -0.01597419542094267 -0.0005856146316082051 -0.01930185057573013 0.0 0.0
0.0 0.02932062319679265 0.020458472745178095 -0.019811938236051038 -0.0006465345091270654 -0.021773421738482963 0.0 0.0
0.0 0.035162931248111734 0.025115058225454064 -0.024407475820595114 -0.0007075824048589253 -0.023412449081478715 0.0 0.0
0.0 0.041907698905475986 0.03095136894690031 -0.03013241090030339 -0.0008189580465969367 -0.023873576106547213 0.0 0.0
0.0 0.05109092935658691 0.039137045494245334 -0.038126704632260366 -0.0010103408619849383 -0.024030180150184495 0.0 0.0
0.0 0.06623216636459846 0.04644409302193491 -0.04728091354539074 0.0008368205234558438 1.9223338199036988e-14 0.0 0.0
0.0 0.05109092935659548 0.03913704549424152 -0.03812670463225751 -0.0010103408619840735 0.024030180150237824 0.0 0.0
0.0 0.04190769890547586 0.03095136894689423 -0.030132410900297647 -0.000818958046596552 0.02387357610660119 0.0 0.0
0.0 0.035162931248094255 0.02511505822544047 -0.024407475820581923 -0.0007075824048585211 0.023412449081499226 0.0 0.0
0.0 0.02932062319676889 0.020458472745163842 -0.019811938236037618 -0.0006465345091262463 0.021773421738474172 0.0 0.0
0.0 0.024162758977599764 0.016559810052533902 -0.015974195420925683 -0.0005856146316082114 0.019301850575712612 0.0 0.0
0.0 0.019675227853568004 0.013283839947451708 -0.012754902831331188 -0.0005289371161205237 0.0165780620069964 0.0 0.0
0.0 0.01570858890469222 0.010474037991071612 -0.00999721793264154 -0.0004768200584300741 0.01385092969390567 0.0 0.0
0.0 0.012119226201940383 0.007996206607345898 -0.007571834702269235 -0.0004243719050766722 0.011181843466761298 0.0 0.0
0.0 0.00888532725862566 0.005765294174638285 -0.005402446798075082 -0.0003628473765631934 0.008594214383514244 0.0 0.0
0.0 0.00609472351923508 0.003748898623761051 -0.0034633274674890804 -0.0002855711562719694 0.006147667976194997 0.0 0.0
0.0 0.00345731932267793 0.00201794442103868 -0.001830318896147774 -0.00018762552489090398 0.003965151478375233 0.0 0.0
0.0 0.0015785960065759128 0.0007678070247192666 -0.0006797676032632481 -8.803942145601885e-05 0.0021083841660874004 0.0 0.0
0.0 0.0005475781424383011 0.00018186983540736848 -0.0001538374094951651 -2.8032425912203216e-05 0.0008252530088780325 0.0 0.0
0.0 0.00014099901704149825 2.3236167454241444e-05 -1.761574763785299e-05 -5.620419816388486e-06 0.00021719289277258918 0.0 0.0
0.0 7.051147396715846e-06 -3.4290880064841893e-06 3.2876656335229074e-06 1.4142237296129428e-07 9.66144937969293e-06 0.0 0.0
0.0 -3.639146408385151e-06 -1.7676932412491151e-06 1.5317444428719346e-06 2.3594879837717395e-07 -9.236424057152099e-06 0.0 0.0
0.0 4.224021152338589e-06 -2.8737967058766314e-07 2.620366146410365e-07 2.5343055946627857e-08 5.749594171423266e-06 0.0 0.0
0.0 5.125776380228986e-06 1.209040169508694e-07 -2.461407786856977e-07 1.252367617348247e-07 6.756858589899797e-06 0.0 0.0
0.0 2.7386914058715147e-05 6.295367000867237e-07 2.511194624676247e-05 -2.574148294684925e-05 0.00011799288150462668 0.0 0.0
0.0 0.0008511582159117713 0.00047635723442656633 -0.000697582109079472 0.00022122487465290534 0.0005685359665494533 0.0 0.0
0.0 0.000259319084637108 0.00014989581846387343 -0.00022270457795913978 7.280875949526607e-05 -0.00022842636419775257 0.0 0.0
0.0 -2.5850366157374567e-05 -1.64497667249404e-05 2.5324327551771744e-05 -8.874560826831286e-06 1.8225192979554536e-05 0.0 0.0
0.0 5.057879921036364e-06 2.1092896109401599e-07 -2.559514444366757e-07 4.5022483342655826e-08 1.0124266631938516e-07 0.0 0.0
0.0 6.309384895349348e-06 -6.370521613819615e-07 5.362724861817761e-07 1.0077967520018867e-07 -9.155549214248478e-06 0.0 0.0
0.0 1.951444869441841e-06 -9.36429199749651e-07 9.177945117034684e-07 1.863468804618068e-08 -2.4094969509764055e-06 0.0 0.0
0.0 1.7637235228478254e-05 -2.1404428063197024e-06 2.219278460006752e-06 -7.883565368705397e-08 -2.274966628163691e-05 0.0 0.0
0.0 0.00012721828071025621 -2.6874178557435695e-06 2.6698604432290947e-06 1.7557412514473454e-08 -0.0001973058838284333 0.0 0.0
0.0 0.00027142747470017075 -1.7698129206531995e-06 1.7627257871440588e-06 7.087133509129609e-09 -0.000473141374461081 0.0 0.0
0.0 0.0005604168835257762 -1.3263093628631742e-06 1.2984187444283771e-06 2.789061843475304e-08 -0.0009470436797928598 0.0 0.0
0.0 0.001000446551910596 -7.570090341987292e-09 9.121465130074494e-09 -1.5513747880329916e-09 -0.0019978495491178444 0.0 0.0
0.0 0.00204398180305518 -1.3928669983990344e-06 1.7877045319625296e-06 -3.9483753356316987e-07 -0.0037789036915597545 0.0 0.0
0.0 0.003348716532687422 -1.3502164880978317e-05 1.6487965114649528e-05 -2.9858002336722e-06 -0.006012182199146746 0.0 0.0
0.0 0.004976919705127107 -3.3677311866150386e-05 3.7365602739191056e-05 -3.6882908730398564e-06 -0.008392194591187934 0.0 0.0
0.0 0.006799294687078184 -3.2784250110687806e-05 3.100636434575732e-05 1.7778857649321657e-06 -0.010888280158672046 0.0 0.0
0.0 0.008782871352978616 8.689249377241649e-05 -0.00010590337386785461 1.901088009543728e-05 -0.013504423085968277 0.0 0.0
0.0 0.010874807092961706 0.0005231765650939577 -0.0005733979452622406 5.022138016828041e-05 -0.016216632581590604 0.0 0.0
0.0 0.01310361394251093 0.001577958488493153 -0.0016780348000978592 0.00010007631160470856 -0.018926104711551085 0.0 0.0
0.0 0.015388556083220064 0.003505782852487401 -0.003724087637166441 0.00021830478467904266 -0.02137794854047866 0.0 0.0
0.0 0.018473676692726353 0.006005369367360899 -0.00639812616557984 0.00039275679821894723 -0.02317951377676226 0.0 0.0
0.0 0.02636775396047258 0.011481392485028252 -0.011180730713150346 -0.0003006617718779096 -0.024304098529734208 0.0 0.0
0.0 0.04744072749989313 0.01957743749993373 -0.021058857576588975 0.001481420076655239 1.2945373939476923e-14 0.0 0.0
0.0 0.02636775396048007 0.01148139248502493 -0.011180730713147013 -0.0003006617718778952 0.02430409852976769 0.0 0.0
0.0 0.018473676692721434 0.006005369367357321 -0.0063981261655770075 0.0003927567982196808 0.02317951377677966 0.0 0.0
0.0 0.015388556083202025 0.003505782852483266 -0.0037240876371623824 0.00021830478467911433 0.02137794854047586 0.0 0.0
0.0 0.013103613942491944 0.0015779584884951668 -0.0016780348001017439 0.00010007631160657859 0.018926104711535694 0.0 0.0
0.0 0.010874807092948725 0.000523176565094634 -0.0005733979452625329 5.0221380167896464e-05 0.01621663258157433 0.0 0.0
0.0 0.00878287135296713 8.689249378051093e-05 -0.00010590337387829331 1.9010880097783438e-05 0.013504423085956011 0.0 0.0
0.0 0.006799294687068961 -3.278425010601034e-05 3.1006364340769015e-05 1.7778857652407838e-06 0.01088828015866136 0.0 0.0
0.0 0.004976919705113692 -3.367731186196851e-05 3.736560273476708e-05 -3.68829087279873e-06 0.008392194591168377 0.0 0.0
0.0 0.0033487165326739313 -1.350216487814237e-05 1.6487965111658647e-05 -2.9858002335170236e-06 0.006012182199128915 0.0 0.0
0.0 0.002043981803045992 -1.3928669951237139e-06 1.7877045280051103e-06 -3.948375328816133e-07 0.003778903691546715 0.0 0.0
0.0 0.001000446551907675 -7.570090556279852e-09 9.121465270194072e-09 -1.5513747138058004e-09 0.0019978495491145536 0.0 0.0
0.0 0.0005604168835237333 -1.3263093632430109e-06 1.2984187447106051e-06 2.789061853232107e-08 0.0009470436797894523 0.0 0.0
0.0 0.00027142747469941983 -1.7698129206395283e-06 1.7627257871916934e-06 7.087133447789177e-09 0.00047314137445968256 0.0 0.0
0.0 0.00012721828070848902 -2.6874178557121336e-06 2.669860443195253e-06 1.755741251691725e-08 0.0001973058838270575 0.0 0.0
0.0 1.763723522771023e-05 -2.1404428062945323e-06 2.219278459982548e-06 -7.883565368802627e-08 2.2749666282168393e-05 0.0 0.0
0.0 1.9514448687408567e-06 -9.364291997767685e-07 9.177945117290268e-07 1.8634688047745964e-08 2.409496951670575e-06 0.0 0.0
0.0 6.309384894629156e-06 -6.370521614457663e-07 5.362724862389683e-07 1.0077967520679822e-07 9.15554921522124e-06 0.0 0.0
0.0 5.057879920199376e-06 2.109289610842046e-07 -2.5595144443355366e-07 4.502248334935779e-08 -1.0124266574743252e-07 0.0 0.0
0.0 -2.5850366157447988e-05 -1.6449766724689036e-05 2.532432755140082e-05 -8.874560826711824e-06 -1.822519297857956e-05 0.0 0.0
0.0 0.00025931908463390437 0.0001498958184625322 -0.00022270457795718507 7.280875949465307e-05 0.0002284263641959854 0.0 0.0
0.0 1.976437486652101e-05 9.300275120508089e-06 -1.4809906605625491e-05 5.509631485117372e-06 -1.5883988045599486e-05 0.0 0.0
0.0 -4.257269263020292e-06 -1.945594226009717e-06 2.7666637494339733e-06 -8.21069523424259e-07 7.190808335219967e-06 0.0 0.0
0.0 1.7726501095131717e-06 2.475915525350815e-07 -3.5196384287649016e-07 1.0437229034140833e-07 -3.206591290158292e-06 0.0 0.0
0.0 8.58625160370265e-06 -8.257121884556024e-07 6.594191845010885e-07 1.6629300395451206e-07 -1.0307445148709826e-05 0.0 0.0
0.0 6.814891475354917e-06 -1.2415375790011917e-06 1.1733258586521108e-06 6.82117203490812e-08 -1.1564819939643046e-05 0.0 0.0
0.0 2.6661906307729563e-05 -5.27682847437027e-06 4.772789534033827e-06 5.0403894033649e-07 -5.029970676937912e-05 0.0 0.0
0.0 0.0001809918165858933 -3.3918621433565356e-05 2.7338809180567124e-05 6.579812252998142e-06 -0.00024861448973035737 0.0 0.0
0.0 0.0005702216732626249 -0.000191748684135574 0.00016248027011627408 2.926841401929975e-05 -0.0008505024461306983 0.0 0.0
0.0 0.0015857057553689629 -0.0007712641181881865 0.0006826261470787857 8.863797110940011e-05 -0.002119851173971799 0.0 0.0
0.0 0.0034573203578145174 -0.00201822323026283 0.0018304811320523865 0.00018774209821044327 -0.00396674325554546 0.0 0.0
0.0 0.006115777673295579 -0.0037571283657413957 0.003470398398206277 0.0002867299675351137 -0.006148698532520725 0.0 0.0
0.0 0.00894077418978692 -0.005804893359544782 0.0054381789873704876 0.0003667143721742918 -0.008604353952741542 0.0 0.0
0.0 0.012203791310148975 -0.008076297034423923 0.007649022797469636 0.0004272742369542794 -0.011184671677574297 0.0 0.0
0.0 0.01574464274040829 -0.01052605897836337 0.010058855511004286 0.00046720346735910006 -0.013827826210962218 0.0 0.0
0.0 0.01933257523677996 -0.013021212231302521 0.012537192675283082 0.0004840195560194437 -0.01654687237101817 0.0 0.0
0.0 0.022736166406583116 -0.015281795760268297 0.014809805865109452 0.0004719898951588169 -0.019380678788356545 0.0 0.0
0.0 0.025484939840924287 -0.016879690406207546 0.01645633651798914 0.00042335388821840774 -0.02234545776630869 0.0 0.0
0.0 0.027344989473472914 -0.017317640377867895 0.016986289093417106 0.00033135128445078776 -0.02555574421037358 0.0 0.0
0.0 0.027321764582512866 -0.016015296784288494 0.015898655606746498 0.00011664117754202108 -0.028953707955284066 0.0 0.0
0.0 0.022358032450884593 -0.011727237117721492 0.01225148494598414 -0.0005242478282626318 -0.031161023119684352 0.0 0.0
0.0 0.04598494822693959 -0.006953906728615931 0.0039992091362036535 0.0029546975924122664 2.029799939240462e-14 0.0 0.0
0.0 0.022358032450892126 -0.011727237117720692 0.012251484945983446 -0.0005242478282627581 0.031161023119706765 0.0 0.0
0.0 0.027321764582508665 -0.016015296784282023 0.015898655606740805 0.00011664117754120988 0.02895370795530587 0.0 0.0
0.0 0.027344989473453173 -0.017317640377853303 0.016986289093403335 0.000331351284449967 0.025555744210375313 0.0 0.0
0.0 0.025484939840894977 -0.016879690406186542 0.016456336517968514 0.0004233538882180627 0.02234545776629345 0.0 0.0
0.0 0.022736166406557776 -0.015281795760249853 0.014809805865091511 0.000471989895158339 0.019380678788336776 0.0 0.0
0.0 0.01933257523675766 -0.013021212231283741 0.0125371926752665 0.00048401955601722925 0.016546872371004155 0.0 0.0
0.0 0.015744642740384854 -0.01052605897834544 0.010058855510986665 0.0004672034673587754 0.013827826210946591 0.0 0.0
0.0 0.012203791310121365 -0.008076297034403882 0.007649022797449747 0.00042727423695413974 0.011184671677555826 0.0 0.0
0.0 0.008940774189761571 -0.005804893359527545 0.00543817898735427 0.00036671437217326885 0.008604353952718644 0.0 0.0
0.0 0.006115777673272717 -0.003757128365726389 0.0034703983981922027 0.00028672996753419106 0.0061486985325010235 0.0 0.0
0.0 0.003457320357800543 -0.0020182232302533103 0.0018304811320437712 0.0001877420982095388 0.0039667432555341026 0.0 0.0
0.0 0.0015857057553608242 -0.0007712641181833767 0.0006826261470744092 8.863797110896909e-05 0.0021198511739632924 0.0 0.0
0.0 0.0005702216732576873 -0.0001917486841336189 0.0001624802701145621 2.926841401905624e-05 0.0008505024461245713 0.0 0.0
0.0 0.0001809918165832911 -3.3918621433180776e-05 2.7338809180256754e-05 6.579812252924103e-06 0.0002486144897282222 0.0 0.0
0.0 2.6661906306730054e-05 -5.276828474458824e-06 4.7727895340957535e-06 5.040389403630601e-07 5.029970676989319e-05 0.0 0.0
0.0 6.814891475049638e-06 -1.2415375791645871e-06 1.1733258587914933e-06 6.821172037308492e-08 1.156481994077154e-05 0.0 0.0
0.0 8.586251603107623e-06 -8.257121885403609e-07 6.594191845720964e-07 1.6629300396826174e-07 1.0307445149488954e-05 0.0 0.0
0.0 1.7726501089776292e-06 2.4759155252164866e-07 -3.5196384286646716e-07 1.0437229034481376e-07 3.206591290548905e-06 0.0 0.0
0.0 -4.257269263439186e-06 -1.945594226109515e-06 2.7666637495363186e-06 -8.210695234268047e-07 -7.190808334806358e-06 0.0 0.0
0.0 1.976437486611375e-05 9.300275121238956e-06 -1.4809906606700945e-05 5.509631485461997e-06 1.588398804735346e-05 0.0 0.0
0.0 1.8044520568427533e-06 -2.85493574941565e-07 4.290130926423381e-07 -1.4351951770069562e-07 6.84116420197026e-07 0.0 0.0
0.0 -6.259928286829531e-09 1.2362171565419935e-07 -9.014625210943837e-08 -3.347546354477561e-08 1.2254831999858209e-06 0.0 0.0
0.0 -1.1004993402830558e-06 6.769875694261961e-07 -6.126444750993835e-07 -6.434309432682227e-08 2.9062043705772066e-06 0.0 0.0
0.0 5.281523673124077e-06 -9.624911092701511e-07 7.456386579450942e-07 2.1685245132504845e-07 -1.0163424268789855e-05 0.0 0.0
0.0 1.2401671626985606e-05 9.505061887830685e-08 2.7148462823924043e-08 -1.2219908170216646e-07 -5.96165023481631e-06 0.0 0.0
0.0 6.794260181751418e-05 -1.8104471324552115e-05 1.4331997709517451e-05 3.772473615034563e-06 -7.308025376367701e-05 0.0 0.0
0.0 0.0003768694138561447 -0.000215862204481112 0.00016731841001429475 4.854379446681771e-05 -0.0005142193997678503 0.0 0.0
0.0 0.0016126540952015123 -0.0010483191334773128 0.0008510212281829556 0.00019729790529435617 -0.0017217011815230847 0.0 0.0
0.0 0.004041361362042589 -0.002932055176405991 0.002533032310737214 0.00039902286566877794 -0.00379424601753405 0.0 0.0
0.0 0.007851145963920012 -0.0058163431478463565 0.005280504225408296 0.0005358389224380548 -0.006484119421445705 0.0 0.0
0.0 0.012357323292790164 -0.009441723822953683 0.008825593697575466 0.0006161301253782168 -0.009597926493543124 0.0 0.0
0.0 0.017652812423487846 -0.013592031213512684 0.012915141124599403 0.0006768900889133041 -0.012820994583421393 0.0 0.0
0.0 0.02340386454824763 -0.018177580259279732 0.017445865434771324 0.0007317148245084 -0.01602017742503265 0.0 0.0
0.0 0.029567583948006456 -0.02314237431259034 0.02236843328304499 0.0007739410295453175 -0.019170320332935354 0.0 0.0
0.0 0.036058069087294566 -0.02833723829701422 0.027538011148893416 0.0007992271481207875 -0.02237464206354859 0.0 0.0
0.0 0.04252730701735143 -0.03343321566361866 0.03263053425688812 0.0008026814067305628 -0.025834600068373036 0.0 0.0
0.0 0.04837930261753368 -0.03792055977396219 0.03713256167110794 0.0007879981028542334 -0.029761599150836843 0.0 0.0
0.0 0.05273939685701616 -0.041140248753788744 0.04038113113103281 0.0007591176227559767 -0.03424389228782901 0.0 0.0
0.0 0.05479451622726838 -0.041952672331270986 0.04129894134520226 0.0006537309860686745 -0.03844997155236596 0.0 0.0
0.0 0.05132394497781463 -0.037864966122176394 0.037456385092636005 0.0004085810295403858 -0.039642150462509046 0.0 0.0
0.0 0.05643876452160966 -0.03125511608562465 0.027529834974213435 0.003725281111411184 2.247160790780356e-14 0.0 0.0
0.0 0.05132394497782333 -0.037864966122171564 0.037456385092630586 0.000408581029540971 0.039642150462562545 0.0 0.0
0.0 0.05479451622726191 -0.041952672331256734 0.041298941345187745 0.0006537309860689916 0.03844997155241803 0.0 0.0
0.0 0.05273939685698684 -0.04114024875376256 0.040381131131006796 0.0007591176227557679 0.03424389228784616 0.0 0.0
0.0 0.04837930261749265 -0.03792055977392932 0.03713256167107462 0.0007879981028546667 0.029761599150825595 0.0 0.0
0.0 0.04252730701730367 -0.033433215663580505 0.03263053425684965 0.0008026814067308247 0.025834600068348885 0.0 0.0
0.0 0.03605806908725642 -0.028337238296983154 0.027538011148862996 0.0007992271481201777 0.02237464206352928 0.0 0.0
0.0 0.029567583947966648 -0.023142374312556998 0.022368433283011593 0.0007739410295453703 0.01917032033291572 0.0 0.0
0.0 0.023403864548205106 -0.01817758025924564 0.017445865434737157 0.0007317148245084628 0.01602017742501237 0.0 0.0
0.0 0.017652812423446677 -0.013592031213481284 0.012915141124568458 0.0006768900889128372 0.01282099458339302 0.0 0.0
0.0 0.012357323292754392 -0.009441723822926544 0.008825593697548473 0.0006161301253780681 0.00959792649351548 0.0 0.0
0.0 0.007851145963891835 -0.005816343147825388 0.005280504225387604 0.0005358389224377856 0.006484119421424352 0.0 0.0
0.0 0.004041361362026432 -0.0029320551763937185 0.002533032310726052 0.00039902286566766794 0.0037942460175229044 0.0 0.0
0.0 0.0016126540951917393 -0.0010483191334706718 0.0008510212281775573 0.00019729790529311386 0.0017217011815138547 0.0 0.0
0.0 0.0003768694138511091 -0.0002158622044789013 0.00016731841001256463 4.8543794466337063e-05 0.0005142193997633187 0.0 0.0
0.0 6.794260181595671e-05 -1.810447132439414e-05 1.4331997709393852e-05 3.7724736150002194e-06 7.308025376314338e-05 0.0 0.0
0.0 1.2401671626571356e-05 9.505061846197215e-08 2.714846316341919e-08 -1.2219908162539166e-07 5.961650236306194e-06 0.0 0.0
0.0 5.281523673033907e-06 -9.6249110943986e-07 7.456386580868653e-07 2.1685245135299961e-07 1.0163424269923095e-05 0.0 0.0
0.0 -1.1004993406746126e-06 6.769875693808693e-07 -6.126444750793613e-07 -6.43430943015026e-08 -2.9062043697241152e-06 0.0 0.0
0.0 -6.259928521142455e-09 1.2362171568792826e-07 -9.014625214316885e-08 -3.347546354475667e-08 -1.225483200262161e-06 0.0 0.0
0.0 1.8044520566832176e-06 -2.854935750883599e-07 4.2901309285786713e-07 -1.435195177695481e-07 -6.841164205476367e-07 0.0 0.0
0.0 0.0 0.0 0.0 0.0 0.0 0.0 0.0
0.0 2.3086669823878593e-07 -7.713590493947102e-09 9.574428599408205e-09 -1.8608381054655543e-09 -7.697025101910797e-08 0.0 0.0
0.0 -1.6801328842698796e-06 9.402211253360225e-07 -7.537803267272013e-07 -1.8644079860881346e-07 5.190754101687107e-06 0.0 0.0
0.0 2.993059444637024e-06 1.0081697869698623e-06 -8.768370493923789e-07 -1.3133273757748552e-07 -7.067353525904977e-07 0.0 0.0
0.0 1.4394925298813544e-05 -2.8835920269238854e-06 2.3002038706787384e-06 5.83388156245096e-07 -1.6828081947300493e-05 0.0 0.0
0.0 0.00012137717111387615 -8.75574086170927e-05 6.66776766352296e-05 2.0879731981863348e-05 -0.00017119359036961852 0.0 0.0
0.0 0.0009319830010571367 -0.0006627976021836611 0.0005144553109719997 0.00014834229121166092 -0.0008633071913695158 0.0 0.0
0.0 0.0030287101647128913 -0.00240271668105877 0.0020001127013932482 0.0004026039796655189 -0.002537170934979809 0.0 0.0
0.0 0.007017306640215493 -0.005579094382772116 0.0049740275397349345 0.0006050668430371703 -0.005167166566961767 0.0 0.0
0.0 0.012834306132928592 -0.010057472629646295 0.009353598059764505 0.0007038745698817961 -0.008562465368548062 0.0 0.0
0.0 0.019337326773930363 -0.015538343155764685 0.014771966608108287 0.0007663765476563903 -0.01233727398732707 0.0 0.0
0.0 0.026872533319056674 -0.021770886731038545 0.020944194109374457 0.0008266926216640668 -0.016121278723520517 0.0 0.0
0.0 0.03521417515803524 -0.028653739644454813 0.027767498009090452 0.0008862416353643825 -0.019773831410840208 0.0 0.0
0.0 0.044175912196516336 -0.036132956208019776 0.03519557070869251 0.0009373854993272341 -0.023331736901813643 0.0 0.0
0.0 0.05374963079356205 -0.04405785706634629 0.043086303011799186 0.000971554054547156 -0.027008628994877302 0.0 0.0
0.0 0.06337317952924423 -0.05206943165548785 0.05108740944896609 0.0009820222065217124 -0.03120114780995832 0.0 0.0
0.0 0.07273890056673449 -0.059524350752926114 0.05855701281987136 0.0009673379330546657 -0.03633800318844269 0.0 0.0
0.0 0.08023378861207886 -0.06537811167027777 0.06446734523599713 0.0009107664342805982 -0.042239526804501853 0.0 0.0
0.0 0.08394995636885809 -0.06783328383072895 0.0670464763717726 0.0007868074589562472 -0.04732454905834181 0.0 0.0
0.0 0.07956692343885977 -0.06340314924817171 0.06294918765042394 0.0004539615977478558 -0.048633102982134045 0.0 0.0
0.0 0.07784051968965938 -0.0548860145958882 0.0504588278206274 0.004427186775260861 2.582829783381868e-14 0.0 0.0
0.0 0.07956692343886274 -0.06340314924816182 0.06294918765041395 0.0004539615977478739 0.04863310298219829 0.0 0.0
0.0 0.08394995636884521 -0.06783328383070769 0.06704647637175186 0.0007868074589557814 0.047324549058406995 0.0 0.0
0.0 0.08023378861204301 -0.0653781116702435 0.06446734523596298 0.0009107664342805074 0.04223952680453269 0.0 0.0
0.0 0.07273890056667966 -0.059524350752879915 0.05855701281982489 0.0009673379330551058 0.036338003188436066 0.0 0.0
0.0 0.06337317952917723 -0.05206943165543221 0.05108740944890974 0.0009820222065224384 0.031201147809933737 0.0 0.0
0.0 0.0537496307935013 -0.04405785706629582 0.04308630301174907 0.0009715540545467299 0.027008628994852332 0.0 0.0
0.0 0.04417591219645929 -0.03613295620797167 0.03519557070864473 0.0009373854993269231 0.02333173690179142 0.0 0.0
0.0 0.03521417515797717 -0.02865373964440698 0.027767498009042112 0.0008862416353648399 0.01977383141081667 0.0 0.0
0.0 0.02687253331900021 -0.021770886730993044 0.020944194109329423 0.0008266926216636081 0.016121278723490267 0.0 0.0
0.0 0.01933732677387785 -0.015538343155723347 0.014771966608066761 0.0007663765476565971 0.012337273987292651 0.0 0.0
0.0 0.012834306132887623 -0.010057472629613826 0.00935359805973241 0.0007038745698814171 0.008562465368521387 0.0 0.0
0.0 0.007017306640190819 -0.005579094382752893 0.004974027539716564 0.0006050668430363278 0.005167166566946724 0.0 0.0
0.0 0.003028710164697318 -0.0024027166810467707 0.0020001127013827016 0.00040260397966407184 0.002537170934968525 0.0 0.0
0.0 0.0009319830010481024 -0.0006627976021776535 0.0005144553109671158 0.00014834229121053703 0.0008633071913617412 0.0 0.0
0.0 0.0001213771711127826 -8.75574086170095e-05 6.667767663526462e-05 2.0879731981744855e-05 0.0001711935903700942 0.0 0.0
0.0 1.439492529866669e-05 -2.8835920273080792e-06 2.3002038709911364e-06 5.833881563169397e-07 1.6828081948381026e-05 0.0 0.0
0.0 2.9930594443387044e-06 1.008169786666843e-06 -8.768370491521092e-07 -1.31332737514727e-07 7.06735354000626e-07 0.0 0.0
0.0 -1.6801328848135898e-06 9.402211254127153e-07 -7.537803267850312e-07 -1.8644079862769123e-07 -5.190754102151365e-06 0.0 0.0
0.0 2.3086669751538176e-07 -7.713590506673284e-09 9.574428600290572e-09 -1.8608380936143201e-09 7.697025120822393e-08 0.0 0.0
0.0 0.0 0.0 0.0 0.0 0.0 0.0 0.0
0.0 0.0 0.0 0.0 0.0 0.0 0.0 0.0
0.0 -1.3075163678298636e-07 -2.968376883690807e-09 1.9471215008150875e-09 1.0212553828761417e-09 -2.5935044429845048e-08 0.0 0.0
0.0 -1.0891190578783624e-06 6.610499927983399e-07 -5.315742554855716e-07 -1.294757373127708e-07 2.696688559637829e-06 0.0 0.0
0.0 -2.485414809009597e-06 1.0284888945256436e-06 -8.946194710818555e-07 -1.338694234437783e-07 1.2467237430653095e-07 0.0 0.0
0.0 2.056660494054785e-05 -6.492176747282344e-06 4.367339600294289e-06 2.1248371469880794e-06 -1.3517442875628055e-05 0.0 0.0
0.0 0.0003385251087823434 -0.00024013610972337509 0.00018080081553484365 5.93352941885312e-05 -0.0002660884388741559 0.0 0.0
0.0 0.0016661014827529148 -0.0013825819853660855 0.0010950721847899903 0.000287509800576096 -0.0012014346695034784 0.0 0.0
0.0 0.0048881833483503815 -0.00408364906187499 0.0035091147087118195 0.0005745343531631688 -0.0031218953756590676 0.0 0.0
0.0 0.010614777621764812 -0.00854144909675062 0.007804041137635859 0.0007374079591147592 -0.006115051849237719 0.0 0.0
0.0 0.01749617015753205 -0.014591536226839437 0.013776622373672736 0.0008149138531667075 -0.009902533749128547 0.0 0.0
0.0 0.02638306838622172 -0.02187446140942066 0.02099901938979929 0.0008754420196213689 -0.01395776152778964 0.0 0.0
0.0 0.03628752078408906 -0.030159799828423477 0.02922093057116743 0.0009388692572560176 -0.0179818862154797 0.0 0.0
0.0 0.04716356735661574 -0.03932707939941325 0.03832204593694137 0.0010050334624718874 -0.021847725881815844 0.0 0.0
0.0 0.05897158049363296 -0.04931501895627542 0.0482487154567382 0.0010663034995372098 -0.02559695854382048 0.0 0.0
0.0 0.07151967055169621 -0.059987868041242266 0.058876589898826825 0.00111127814241541 -0.0294802636711808 0.0 0.0
0.0 0.08476766832284635 -0.07095802531959883 0.06983123730827613 0.0011267880113225858 -0.03404938560488584 0.0 0.0
0.0 0.09696244552108119 -0.08138814473412732 0.08028843595662838 0.0010997087774988579 -0.03981967418709709 0.0 0.0
0.0 0.10753221960462485 -0.08974488818656189 0.08873266312476782 0.0010122250617940372 -0.04647473380376575 0.0 0.0
0.0 0.11281257219518123 -0.09344492667107848 0.09262209412245832 0.000822832548620065 -0.0522095878346184 0.0 0.0
0.0 0.10736745741584788 -0.08820811091823835 0.08775356928262658 0.0004545416356117531 -0.05388581509414836 0.0 0.0
0.0 0.10143143728804292 -0.07799548282230212 0.07295524188461405 0.0050402409376879625 2.879467497773902e-14 0.0 0.0
0.0 0.10736745741584607 -0.08820811091822563 0.08775356928261495 0.00045454163561066917 0.05388581509421483 0.0 0.0
0.0 0.11281257219516058 -0.093444926671051 0.09262209412243229 0.0008228325486186082 0.052209587834686655 0.0 0.0
0.0 0.10753221960457615 -0.08974488818651605 0.0887326631247224 0.001012225061793422 0.04647473380380145 0.0 0.0
0.0 0.09696244552101356 -0.08138814473406918 0.08028843595657026 0.0010997087774989281 0.03981967418709414 0.0 0.0
0.0 0.08476766832276969 -0.07095802531953355 0.06983123730821104 0.0011267880113225283 0.034049385604864944 0.0 0.0
0.0 0.07151967055162213 -0.05998786804117889 0.05887658989876477 0.0011112781424141072 0.029480263671156137 0.0 0.0
0.0 0.058971580493561084 -0.04931501895621394 0.04824871545667717 0.0010663034995367204 0.025596958543797826 0.0 0.0
0.0 0.04716356735654257 -0.0393270793993516 0.0383220459368798 0.0010050334624718059 0.021847725881790975 0.0 0.0
0.0 0.03628752078401749 -0.030159799828363754 0.029220930571108215 0.0009388692572555382 0.017981886215448203 0.0 0.0
0.0 0.026383068386158882 -0.021874461409369054 0.02099901938974795 0.000875442019621073 0.013957761527754168 0.0 0.0
0.0 0.017496170157482692 -0.01459153622679862 0.013776622373632228 0.0008149138531663916 0.009902533749099784 0.0 0.0
0.0 0.010614777621730636 -0.008541449096723558 0.00780404113760979 0.0007374079591137745 0.006115051849219083 0.0 0.0
0.0 0.0048881833483264865 -0.004083649061855948 0.0035091147086942108 0.0005745343531617379 0.0031218953756453186 0.0 0.0
0.0 0.0016661014827416022 -0.0013825819853576686 0.0010950721847830548 0.0002875098005746135 0.0012014346694962574 0.0 0.0
0.0 0.00033852510877893454 -0.00024013610972145317 0.00018080081553334358 5.933529418810957e-05 0.0002660884388723552 0.0 0.0
0.0 2.0566604939730666e-05 -6.492176747575065e-06 4.367339600530701e-06 2.1248371470443614e-06 1.3517442876247083e-05 0.0 0.0
0.0 -2.4854148090097957e-06 1.0284888942225597e-06 -8.946194708391316e-07 -1.3386942338341057e-07 -1.2467237328815605e-07 0.0 0.0
0.0 -1.0891190578963367e-06 6.610499927353739e-07 -5.315742554451371e-07 -1.2947573729023723e-07 -2.6966885593845115e-06 0.0 0.0
0.0 -1.3075163665647826e-07 -2.9683768817357188e-09 1.947121500571764e-09 1.0212553811632798e-09 2.5935044404943458e-08 0.0 0.0
0.0 0.0 0.0 0.0 0.0 0.0 0.0 0.0
0.0 0.0 0.0 0.0 0.0 0.0 0.0 0.0
0.0 0.0 0.0 0.0 0.0 0.0 0.0 0.0
0.0 -6.781226625872009e-07 2.2588837139080545e-07 -1.7853490095830482e-07 -4.735347043250184e-08 7.365822298216974e-07 0.0 0.0
0.0 -5.2826796553478805e-06 4.053692641439299e-06 -3.3223579413570586e-06 -7.313347000822147e-07 7.7576040748089e-06 0.0 0.0
0.0 3.102579923051473e-05 -3.352667309434909e-05 2.3753380913825673e-05 9.773292180523289e-06 -3.496426267325124e-05 0.0 0.0
0.0 0.0006618810702051143 -0.0005260284268846628 0.00039777354014688054 0.00012825488673778263 -0.00037047092505586255 0.0 0.0
0.0 0.002681243446190734 -0.0023281837625911553 0.0018946552402833421 0.0004335285223078132 -0.001397507783474449 0.0 0.0
0.0 0.007270943446162579 -0.006010248219646565 0.005307264220203754 0.000702983999442814 -0.003435378900656584 0.0 0.0
0.0 0.013683480501551317 -0.011744011929919279 0.010912007144891933 0.0008320047850273386 -0.00657379438216163 0.0 0.0
0.0 0.022790678966524768 -0.01928440498879981 0.018381361062166698 0.0009030439266331336 -0.01036549345961999 0.0 0.0
0.0 0.03353035361156305 -0.028344805335986344 0.027378296034190737 0.0009665093017955733 -0.014399189017880893 0.0 0.0
0.0 0.04572696798500927 -0.03867503205789234 0.037639996721947726 0.0010350353359446249 -0.018395175970793088 0.0 0.0
0.0 0.059196352472955835 -0.0501206979913241 0.049013289648996816 0.001107408342327127 -0.02224390592026088 0.0 0.0
0.0 0.07391854573369908 -0.06260296295027527 0.061425291466076726 0.0011776714841986466 -0.025975295337885892 0.0 0.0
0.0 0.08954330353551462 -0.07600465814068448 0.07476996294829857 0.001234695192385885 -0.029795058561382728 0.0 0.0
0.0 0.10570365668155089 -0.0899091859130112 0.08865451790268299 0.001254668010328211 -0.03421764970371334 0.0 0.0
0.0 0.12177772134708044 -0.10324989744185485 0.10203913671214998 0.0012107607297048547 -0.03986246797600197 0.0 0.0
0.0 0.13466619223457094 -0.11397775852751998 0.1128990888247183 0.0010786697028014984 -0.04663012238610294 0.0 0.0
0.0 0.14072297899376876 -0.11875005033648862 0.11791488474891573 0.0008351655875727973 -0.05298013079317103 0.0 0.0
0.0 0.13477571591389445 -0.11277549234231833 0.11231718506530435 0.00045830727701404503 -0.056891818826261424 0.0 0.0
0.0 0.12667394031353083 -0.10115749177650131 0.09558398597297453 0.005573505803526765 2.977826318861787e-14 0.0 0.0
0.0 0.1347757159138797 -0.11277549234229702 0.11231718506528152 0.0004583072770155854 0.05689181882632929 0.0 0.0
0.0 0.14072297899373282 -0.11875005033645035 0.11791488474887718 0.0008351655875732753 0.05298013079323888 0.0 0.0
0.0 0.13466619223450435 -0.11397775852745975 0.11289908882465784 0.0010786697028017903 0.046630122386136764 0.0 0.0
0.0 0.12177772134699796 -0.10324989744178364 0.10203913671207816 0.0012107607297054091 0.0398624679760017 0.0 0.0
0.0 0.10570365668146585 -0.08990918591293805 0.08865451790261013 0.0012546680103277682 0.03421764970369848 0.0 0.0
0.0 0.08954330353542642 -0.07600465814060889 0.07476996294822384 0.0012346951923849763 0.029795058561361255 0.0 0.0
0.0 0.07391854573360927 -0.06260296295019774 0.06142529146599993 0.0011776714841978924 0.025975295337863125 0.0 0.0
0.0 0.05919635247286751 -0.05012069799124863 0.049013289648921404 0.0011074083423271762 0.022243905920236735 0.0 0.0
0.0 0.04572696798492635 -0.03867503205782222 0.03763999672187834 0.0010350353359438343 0.01839517597076257 0.0 0.0
0.0 0.03353035361149187 -0.028344805335927196 0.027378296034131534 0.0009665093017956508 0.014399189017846724 0.0 0.0
0.0 0.022790678966464733 -0.019284404988749497 0.018381361062116748 0.0009030439266327344 0.010365493459591197 0.0 0.0
0.0 0.013683480501511486 -0.011744011929884664 0.010912007144858158 0.0008320047850265051 0.006573794382142835 0.0 0.0
0.0 0.007270943446133083 -0.0060102482196228105 0.005307264220181027 0.0007029839994417823 0.003435378900642959 0.0 0.0
0.0 0.0026812434461761167 -0.0023281837625793358 0.001894655240273083 0.00043352852230625107 0.0013975077834668904 0.0 0.0
0.0 0.0006618810701980752 -0.0005260284268797183 0.0003977735401430503 0.00012825488673666785 0.00037047092505220364 0.0 0.0
0.0 3.1025799229294185e-05 -3.352667309415116e-05 2.3753380913701183e-05 9.773292180449952e-06 3.4964262673110164e-05 0.0 0.0
0.0 -5.282679655728415e-06 4.0536926412304045e-06 -3.322357941192336e-06 -7.313347000380663e-07 -7.757604074241241e-06 0.0 0.0
0.0 -6.781226624092304e-07 2.2588837141983123e-07 -1.7853490098139364e-07 -4.735347043843602e-08 -7.365822299143762e-07 0.0 0.0
0.0 0.0 0.0 0.0 0.0 0.0 0.0 0.0
0.0 0.0 0.0 0.0 0.0 0.0 0.0 0.0
0.0 0.0 0.0 0.0 0.0 0.0 0.0 0.0
0.0 0.0 0.0 0.0 0.0 0.0 0.0 0.0
0.0 -1.9259891853480113e-07 -1.2438204119640457e-08 9.900711751953166e-09 2.537492367688598e-09 -3.208399983975565e-08 0.0 0.0
0.0 -7.62049721477372e-06 4.489843421804697e-06 -3.738543029977579e-06 -7.513003918271453e-07 7.772111128129539e-06 0.0 0.0
0.0 0.00010833225753582431 -8.427522602450968e-05 5.9359158944623067e-05 2.49160670798867e-05 -4.4029488839253495e-05 0.0 0.0
0.0 0.0010411690421585737 -0.0009719371444032029 0.0007449783519889626 0.0002269587924142408 -0.0004450009721315882 0.0 0.0
0.0 0.004104939649220662 -0.0034671999878989703 0.0029026580990942764 0.0005645418888046943 -0.0014365700780572478 0.0 0.0
0.0 0.009303509112155333 -0.008146658601107158 0.0073493222112361815 0.0007973363898709791 -0.0034724655993277264 0.0 0.0
0.0 0.01743577588669943 -0.015065379590285649 0.014158477291677102 0.0009069022986085298 -0.006408507820511373 0.0 0.0
0.0 0.028028177330759997 -0.024069638903311416 0.023090433075401366 0.000979205827910071 -0.00991964697374626 0.0 0.0
0.0 0.040749133976875705 -0.03488850532721388 0.033840146974087805 0.0010483583531260689 -0.013673855226741497 0.0 0.0
0.0 0.05526689351250507 -0.047255382521916064 0.04613339059547286 0.001121991926443164 -0.017392050641553726 0.0 0.0
0.0 0.07140606407652451 -0.06097883504659986 0.059779570963655645 0.0011992640829441839 -0.020991179508139383 0.0 0.0
0.0 0.08863483931848117 -0.07594342005328886 0.07466668779718061 0.0012767322561082549 -0.024505104647844233 0.0 0.0
0.0 0.10742469097745928 -0.09200476303393192 0.09066151532593136 0.0013432477080006296 -0.02800950128572825 0.0 0.0
0.0 0.1269705047297365 -0.10872833680412493 0.10735780591761529 0.0013705308865095346 -0.03179429808599168 0.0 0.0
0.0 0.14570494731022754 -0.12488123934469628 0.12356703661199067 0.001314202732705601 -0.03652920468469494 0.0 0.0
0.0 0.16119088652816835 -0.13793408064280271 0.13679401806952488 0.0011400625732778452 -0.042768357290853154 0.0 0.0
0.0 0.16876276135508475 -0.14390610354333108 0.1430588285758676 0.0008472749674632779 -0.050175382224340204 0.0 0.0
0.0 0.16241513248154218 -0.13755264348681834 0.13710083730990266 0.0004518061769157067 -0.05820011240208102 0.0 0.0
0.0 0.15267805396320502 -0.12483077848250182 0.11879690947690442 0.006033869005597533 2.8133745333391857e-14 0.0 0.0
0.0 0.1624151324815172 -0.1375526434867898 0.13710083730987246 0.00045180617691721614 0.05820011240214612 0.0 0.0
0.0 0.16876276135503857 -0.14390610354328576 0.14305882857582203 0.0008472749674635323 0.05017538222440309 0.0 0.0
0.0 0.16119088652808827 -0.1379340806427322 0.1367940180694537 0.001140062573278551 0.04276835729088438 0.0 0.0
0.0 0.1457049473101387 -0.12488123934461919 0.12356703661191323 0.001314202732705754 0.03652920468469742 0.0 0.0
0.0 0.12697050472963353 -0.10872833680403562 0.10735780591752644 0.0013705308865091634 0.03179429808597967 0.0 0.0
0.0 0.10742469097735342 -0.09200476303384093 0.09066151532584074 0.0013432477080002096 0.02800950128571099 0.0 0.0
0.0 0.08863483931837171 -0.07594342005319468 0.07466668779708652 0.0012767322561080324 0.024505104647823493 0.0 0.0
0.0 0.07140606407642046 -0.06097883504651008 0.05977957096356582 0.0011992640829442199 0.02099117950811712 0.0 0.0
0.0 0.055266893512410736 -0.04725538252183537 0.046133390595393016 0.0011219919264423954 0.017392050641526033 0.0 0.0
0.0 0.040749133976792744 -0.03488850532714328 0.03384014697401762 0.001048358353125722 0.013673855226709938 0.0 0.0
0.0 0.028028177330690827 -0.024069638903252175 0.023090433075342552 0.0009792058279095954 0.009919646973720168 0.0 0.0
0.0 0.017435775886647034 -0.015065379590240647 0.01415847729163255 0.0009069022986081 0.0064085078204921195 0.0 0.0
0.0 0.009303509112122153 -0.008146658601078688 0.007349322211208693 0.0007973363898699973 0.003472465599314749 0.0 0.0
0.0 0.004104939649201131 -0.003467199987883152 0.0029026580990800903 0.0005645418888030613 0.0014365700780500726 0.0 0.0
0.0 0.001041169042150204 -0.0009719371443966313 0.0007449783519836815 0.00022695879241294896 0.00044500097212834936 0.0 0.0
0.0 0.00010833225753420977 -8.42752260240604e-05 5.9359158944340835e-05 2.4916067079719617e-05 4.402948883916542e-05 0.0 0.0
0.0 -7.620497214766475e-06 4.489843421590063e-06 -3.7385430298105495e-06 -7.51300391779512e-07 -7.772111127830199e-06 0.0 0.0
0.0 -1.9259891850927365e-07 -1.243820411784055e-08 9.900711750511593e-09 2.5374923673294314e-09 3.208399983580417e-08 0.0 0.0
0.0 0.0 0.0 0.0 0.0 0.0 0.0 0.0
0.0 0.0 0.0 0.0 0.0 0.0 0.0 0.0
0.0 0.0 0.0 0.0 0.0 0.0 0.0 0.0
0.0 0.0 0.0 0.0 0.0 0.0 0.0 0.0
0.0 -7.18462332870173e-08 -5.322214849680892e-09 4.219826328331633e-09 1.102388521349622e-09 -1.0684932772376604e-08 0.0 0.0
0.0 -8.910867155687779e-06 6.3474743141425815e-06 -5.397984236646148e-06 -9.494900774964236e-07 8.53980029828897e-06 0.0 0.0
0.0 0.0002344088910419185 -0.00020002346563017972 0.00014234275381509978 5.768071181508008e-05 -5.309369881376253e-05 0.0 0.0
0.0 0.0017332631928572986 -0.0015392872887874584 0.0012037881830769053 0.0003354991057105528 -0.0003932490927896961 0.0 0.0
0.0 0.005430040864116012 -0.004794929600842525 0.0041208957888500455 0.0006740338119924765 -0.0013248598166918783 0.0 0.0
0.0 0.011753939163502099 -0.010391780598808983 0.009524739550842338 0.0008670410479666411 -0.0031110551560062597 0.0 0.0
0.0 0.02114056830031762 -0.01845270786397609 0.01748199617740797 0.0009707116865681111 -0.005584631031248285 0.0 0.0
0.0 0.03335281635287425 -0.02889231334016286 0.027843921271617344 0.001048392068545509 -0.008581247464422246 0.0 0.0
0.0 0.04797569396269347 -0.0414518845250993 0.04032827956707549 0.0011236049580237947 -0.011796015134148562 0.0 0.0
0.0 0.06480703201449389 -0.055849663586827455 0.054646923467070965 0.0012027401197565075 -0.014985508653003583 0.0 0.0
0.0 0.08327148375968024 -0.07185656444334894 0.07057197697598118 0.0012845874673677498 -0.01809449116518009 0.0 0.0
0.0 0.10373233768586827 -0.08928181793889367 0.08791784958046732 0.001363968358426285 -0.021167911159518715 0.0 0.0
0.0 0.12522984735674977 -0.10791230462727032 0.10647777446455682 0.0014345301627134836 -0.024172791168421436 0.0 0.0
0.0 0.14745924585344983 -0.12726173745584898 0.12578864568403267 0.001473091771816393 -0.027035177651169716 0.0 0.0
0.0 0.16932485005474385 -0.14604444486609355 0.14462042584034318 0.001424019025750484 -0.030155203400207827 0.0 0.0
0.0 0.18743127311663366 -0.1614960732706528 0.1602747606307759 0.00122131263987683 -0.03503013018861865 0.0 0.0
0.0 0.19677826000685164 -0.16909510951375337 0.168225765214583 0.0008693442991703453 -0.043757618038665 0.0 0.0
0.0 0.1909081460877678 -0.16295784797672924 0.1625357853430516 0.00042206263367787673 -0.057550070165042856 0.0 0.0
0.0 0.18048863222041348 -0.14947324762396907 0.14305949014012265 0.006413757483846249 2.5320023855357476e-14 0.0 0.0
0.0 0.19090814608774095 -0.16295784797670043 0.1625357853430225 0.00042206263367799036 0.057550070165099346 0.0 0.0
0.0 0.19677826000679804 -0.16909510951370305 0.16822576521453372 0.0008693442991692651 0.0437576180387199 0.0 0.0
0.0 0.1874312731165475 -0.16149607327057716 0.16027476063070048 0.0012213126398766471 0.035030130188645085 0.0 0.0
0.0 0.16932485005463332 -0.14604444486599868 0.14462042584024742 0.0014240190257510475 0.03015520340020785 0.0 0.0
0.0 0.147459245853335 -0.12726173745574884 0.12578864568393386 0.0014730917718150495 0.027035177651161316 0.0 0.0
0.0 0.125229847356623 -0.10791230462716125 0.10647777446444749 0.0014345301627136404 0.024172791168407516 0.0 0.0
0.0 0.10373233768574328 -0.08928181793878567 0.08791784958035935 0.0013639683584263508 0.021167911159500896 0.0 0.0
0.0 0.08327148375956306 -0.07185656444324799 0.07057197697588077 0.001284587467367351 0.018094491165161975 0.0 0.0
0.0 0.06480703201438322 -0.05584966358673163 0.05464692346697602 0.0012027401197556536 0.01498550865297904 0.0 0.0
0.0 0.04797569396259937 -0.04145188452501831 0.04032827956699521 0.0011236049580230902 0.011796015134121495 0.0 0.0
0.0 0.033352816352796896 -0.028892313340096166 0.027843921271551133 0.0010483920685450492 0.0085812474644004 0.0 0.0
0.0 0.021140568300258004 -0.018452707863924424 0.01748199617735677 0.0009707116865676599 0.0055846310312314944 0.0 0.0
0.0 0.01175393916346201 -0.010391780598773744 0.009524739550807902 0.000867041047965837 0.0031110551559943383 0.0 0.0
0.0 0.0054300408640925125 -0.0047949296008226025 0.00412089578883145 0.000674033811991146 0.0013248598166847438 0.0 0.0
0.0 0.0017332631928457486 -0.0015392872887779933 0.001203788183069065 0.00033549910570893147 0.0003932490927866436 0.0 0.0
0.0 0.00023440889103907298 -0.00020002346562829118 0.0001423427538137457 5.768071181454564e-05 5.3093698813470504e-05 0.0 0.0
0.0 -8.91086715594528e-06 6.347474313619926e-06 -5.3979842362476206e-06 -9.494900773723001e-07 -8.539800297806016e-06 0.0 0.0
0.0 -7.184623319621463e-08 -5.322214842869262e-09 4.219826322927047e-09 1.1023885199412321e-09 1.0684932758656047e-08 0.0 0.0
0.0 0.0 0.0 0.0 0.0 0.0 0.0 0.0
0.0 0.0 0.0 0.0 0.0 0.0 0.0 0.0
0.0 0.0 0.0 0.0 0.0 0.0 0.0 0.0
0.0 0.0 0.0 0.0 0.0 0.0 0.0 0.0
0.0 0.0 0.0 0.0 0.0 0.0 0.0 0.0
0.0 -8.667105448355865e-06 7.282558393641616e-06 -6.803750357210378e-06 -4.788080364312712e-07 9.399228998044393e-06 0.0 0.0
0.0 0.00041309235967454513 -0.0004042020854957295 0.00029099928382126555 0.00011320280167446415 -2.2884267110035953e-05 0.0 0.0
0.0 0.002590813078400762 -0.0022609237340215664 0.0018134026147578431 0.0004475211192637242 -0.00024180649103246806 0.0 0.0
0.0 0.006830172134787719 -0.006246985675268871 0.005490741375950032 0.000756244299318836 -0.0009987856429247016 0.0 0.0
0.0 0.014314904149734617 -0.012696264484826211 0.011771852746743229 0.0009244117380830056 -0.0022930390749534594 0.0 0.0
0.0 0.02489245409778448 -0.02186163618122254 0.020833344059412232 0.0010282921218102976 -0.0041217828571375285 0.0 0.0
0.0 0.03867203105337177 -0.033704313631908615 0.03259193176506306 0.0011123818668455794 -0.006355233333502141 0.0 0.0
0.0 0.05527985168262756 -0.04798488240475066 0.04679090041876459 0.0011939819859860335 -0.008769971000895367 0.0 0.0
0.0 0.07425324507414943 -0.06440713040053297 0.0631288617792841 0.0012782686212487746 -0.011177006808417095 0.0 0.0
0.0 0.09562169593645123 -0.0826941512077754 0.08133058741641302 0.0013635637913624904 -0.013549209644311791 0.0 0.0
0.0 0.1183744724549726 -0.10257846247395114 0.10113436115083048 0.0014441013231205758 -0.015944632464995053 0.0 0.0
0.0 0.1428197895807339 -0.1236905667264358 0.12217967135726968 0.0015108953691660575 -0.01825945883118604 0.0 0.0
0.0 0.16795128416452348 -0.14541549713775084 0.14386553425265428 0.001549962885096596 -0.020153946854114715 0.0 0.0
0.0 0.19236338768832445 -0.16652585928787547 0.1649951862427778 0.0015306730450975392 -0.021519997106782412 0.0 0.0
0.0 0.21313035288032825 -0.18444273917657983 0.1830737697202356 0.00136896945634423 -0.02400486103229146 0.0 0.0
0.0 0.2250234368269789 -0.1943868390018198 0.1934520865545711 0.0009347524472486782 -0.03265502557042961 0.0 0.0
0.0 0.22063092264936923 -0.1894585181185874 0.18912210403103058 0.0003364140875565794 -0.05381442203433445 0.0 0.0
0.0 0.21030282724984306 -0.17571184722123503 0.16902917141837742 0.006682675802857732 1.957461970292229e-14 0.0 0.0
0.0 0.220630922649334 -0.18945851811855333 0.18912210403099697 0.0003364140875560704 0.05381442203437836 0.0 0.0
0.0 0.2250234368269061 -0.19438683900175474 0.19345208655450608 0.0009347524472490337 0.0326550255704729 0.0 0.0
0.0 0.21313035288022436 -0.18444273917649057 0.1830737697201458 0.0013689694563446015 0.024004861032310535 0.0 0.0
0.0 0.19236338768819441 -0.16652585928776337 0.16499518624266554 0.0015306730450981168 0.021519997106780275 0.0 0.0
0.0 0.1679512841643923 -0.14541549713763693 0.1438655342525414 0.0015499628850957113 0.020153946854111274 0.0 0.0
0.0 0.14281978958058933 -0.1236905667263113 0.12217967135714435 0.0015108953691670257 0.018259458831177945 0.0 0.0
0.0 0.1183744724548341 -0.10257846247383129 0.1011343611507112 0.0014441013231201105 0.01594463246498317 0.0 0.0
0.0 0.09562169593632115 -0.08269415120766264 0.08133058741630077 0.001363563791361807 0.013549209644300782 0.0 0.0
0.0 0.07425324507402427 -0.06440713040042499 0.0631288617791767 0.0012782686212482247 0.01117700680839957 0.0 0.0
0.0 0.055279851682519504 -0.047984882404656926 0.04679090041867104 0.0011939819859858073 0.008769971000874944 0.0 0.0
0.0 0.03867203105328496 -0.033704313631832704 0.03259193176498788 0.001112381866844789 0.006355233333484786 0.0 0.0
0.0 0.024892454097721388 -0.02186163618116721 0.02083334405935747 0.001028292121809759 0.004121782857126314 0.0 0.0
0.0 0.014314904149684891 -0.012696264484782472 0.01177185274670022 0.0009244117380822484 0.0022930390749435255 0.0 0.0
0.0 0.006830172134759983 -0.006246985675244082 0.005490741375926546 0.0007562442993175497 0.0009987856429190401 0.0 0.0
0.0 0.0025908130783861365 -0.002260923734008925 0.0018134026147470228 0.0004475211192618992 0.00024180649103009875 0.0 0.0
0.0 0.00041309235967047276 -0.0004042020854927923 0.0002909992838191542 0.00011320280167363743 2.2884267110009133e-05 0.0 0.0
0.0 -8.667105448387515e-06 7.282558393349318e-06 -6.803750356976612e-06 -4.788080363727387e-07 -9.399228997880147e-06 0.0 0.0
0.0 0.0 0.0 0.0 0.0 0.0 0.0 0.0
0.0 0.0 0.0 0.0 0.0 0.0 0.0 0.0
0.0 0.0 0.0 0.0 0.0 0.0 0.0 0.0
0.0 0.0 0.0 0.0 0.0 0.0 0.0 0.0
0.0 0.0 0.0 0.0 0.0 0.0 0.0 0.0
0.0 0.0 0.0 0.0 0.0 0.0 0.0 0.0
0.0 1.0470801381802687e-05 -1.3089453584166195e-05 6.589567528991434e-06 6.499886055174787e-06 1.2060272419545275e-05 0.0 0.0
0.0 0.0007881397706343872 -0.0006966662749902949 0.0005109090195861588 0.00018575725540413625 8.186899022232168e-05 0.0 0.0
0.0 0.0034613964873616955 -0.0031191002518890006 0.0025690037215625908 0.0005500965303264104 2.701462835879541e-05 0.0 0.0
0.0 0.008571242647993053 -0.007761329066574968 0.006943956241003791 0.000817372825571179 -0.00037407567306778453 0.0 0.0
0.0 0.01690771403618182 -0.015024177155096088 0.014051207890929823 0.000972969264166233 -0.0010574451522367629 0.0 0.0
0.0 0.028722642241242265 -0.025246427224934236 0.024165534964094362 0.001080892260839869 -0.002027150133678695 0.0 0.0
0.0 0.04397790649224167 -0.038457342058234804 0.03728457099476078 0.001172771063474 -0.0032440627150572216 0.0 0.0
0.0 0.062482752502448204 -0.05443973062524722 0.05317959628162772 0.0012601343436195213 -0.00458752179661899 0.0 0.0
0.0 0.08396349609497787 -0.07287757646687952 0.07152882370732987 0.001348752759549667 -0.005959506355929834 0.0 0.0
0.0 0.10745308178596791 -0.09344615234520194 0.09200833160491645 0.0014378207402853905 -0.007362783476526209 0.0 0.0
0.0 0.1332576073039506 -0.11576555689543334 0.11424699250224697 0.001518564393186324 -0.008801665757468411 0.0 0.0
0.0 0.16046613623313744 -0.13930610609678803 0.13772824372207124 0.001577862374716831 -0.010172302081124674 0.0 0.0
0.0 0.18814534124633667 -0.16323920030030176 0.16163486508753305 0.001604335212768486 -0.01117756100675099 0.0 0.0
0.0 0.2148012761397355 -0.18627497889396788 0.18467959078701154 0.0015953881069566535 -0.011416619759206449 0.0 0.0
0.0 0.23797345089672486 -0.2063104343455011 0.20477156486520395 0.0015388694802970617 -0.011514983847624255 0.0 0.0
0.0 0.25312976570881957 -0.21935972268859313 0.21811096192760773 0.0012487607609852668 -0.016646706472734783 0.0 0.0
0.0 0.2521546393807135 -0.21765264889001262 0.21741451859016706 0.00023813029984536677 -0.041045921640760034 0.0 0.0
0.0 0.24351094335004836 -0.20484032329622248 0.19833345852187 0.006506864774352251 1.2091022627558345e-14 0.0 0.0
0.0 0.25215463938067 -0.2176526488899731 0.21741451859012725 0.00023813029984573486 0.041045921640787464 0.0 0.0
0.0 0.25312976570873064 -0.2193597226885161 0.21811096192753018 0.00124876076098597 0.016646706472758885 0.0 0.0
0.0 0.23797345089660854 -0.20631043434540025 0.20477156486510367 0.001538869480296708 0.011514983847634932 0.0 0.0
0.0 0.21480127613959446 -0.18627497889384623 0.18467959078688978 0.001595388106956416 0.011416619759205528 0.0 0.0
0.0 0.18814534124618562 -0.1632392003001701 0.1616348650874024 0.0016043352127674694 0.011177561006749328 0.0 0.0
0.0 0.16046613623297687 -0.13930610609664973 0.1377282437219323 0.0015778623747176373 0.010172302081120386 0.0 0.0
0.0 0.13325760730379854 -0.11576555689530148 0.11424699250211615 0.0015185643931852828 0.008801665757461566 0.0 0.0
0.0 0.10745308178581844 -0.0934461523450728 0.09200833160478704 0.001437820740285837 0.007362783476520471 0.0 0.0
0.0 0.08396349609484038 -0.07287757646676056 0.07152882370721125 0.001348752759549361 0.005959506355919899 0.0 0.0
0.0 0.06248275250232603 -0.054439730625141666 0.05317959628152238 0.0012601343436193224 0.004587521796606964 0.0 0.0
0.0 0.04397790649214407 -0.03845734205814943 0.03728457099467635 0.0011727710634730692 0.00324406271504668 0.0 0.0
0.0 0.02872264224117228 -0.02524642722487267 0.02416553496403333 0.0010808922608393457 0.0020271501336726863 0.0 0.0
0.0 0.01690771403612712 -0.015024177155047733 0.014051207890882236 0.0009729692641654924 0.001057445152231628 0.0 0.0
0.0 0.008571242647959937 -0.007761329066545348 0.006943956240975054 0.0008173728255702795 0.0003740756730644464 0.0 0.0
0.0 0.0034613964873438374 -0.0031191002518732957 0.0025690037215486215 0.0005500965303246731 -2.701462835977711e-05 0.0 0.0
0.0 0.000788139770629994 -0.0006966662749870458 0.0005109090195838288 0.00018575725540321568 -8.18689902217459e-05 0.0 0.0
0.0 1.0470801381272746e-05 -1.308945358412399e-05 6.589567528985811e-06 6.499886055138281e-06 -1.2060272419434707e-05 0.0 0.0
0.0 0.0 0.0 0.0 0.0 0.0 0.0 0.0
0.0 0.0 0.0 0.0 0.0 0.0 0.0 0.0
0.0 0.0 0.0 0.0 0.0 0.0 0.0 0.0
0.0 0.0 0.0 0.0 0.0 0.0 0.0 0.0
0.0 0.0 0.0 0.0 0.0 0.0 0.0 0.0
0.0 0.0 0.0 0.0 0.0 0.0 0.0 0.0
0.0 7.438051861331062e-05 -7.301089379544428e-05 4.7941820889170936e-05 2.5069072906273392e-05 2.7468887599734287e-05 0.0 0.0
0.0 0.0012188952086637853 -0.0010302011524275403 0.0007498222470319538 0.000280378905395586 0.00023787732570363542 0.0 0.0
0.0 0.00430510026565621 -0.003884848869633921 0.0031633991839374784 0.0007214496856964415 0.0004984219901871666 0.0 0.0
0.0 0.00993432089491411 -0.009045476618707048 0.00797660475241221 0.0010688718662948521 0.0006441663661410491 0.0 0.0
0.0 0.018929417038759284 -0.01695003164648373 0.01560338235762844 0.0013466492888553085 0.0006961788279245618 0.0 0.0
0.0 0.0315600929618548 -0.028015699218853052 0.026393562657759218 0.0016221365610938178 0.0006372128103834707 0.0 0.0
0.0 0.048004755073826726 -0.04233713007523199 0.04040160130902967 0.0019355287662022414 0.00041263628589113723 0.0 0.0
0.0 0.06803234068244858 -0.05972415302009398 0.057419962976498026 0.00230419004359597 5.9397123262971974e-05 0.0 0.0
0.0 0.09092497381298244 -0.0798422185012667 0.07711337534766496 0.0027288431536016304 -0.00040007576263084363 0.0 0.0
0.0 0.11658739180296561 -0.10229532475162822 0.09910242381679416 0.0031929009348340043 -0.000980866542460988 0.0 0.0
0.0 0.14443348915537102 -0.126621553147464 0.12295060195049823 0.003670951196965755 -0.0016503480736609864 0.0 0.0
0.0 0.17372195096670673 -0.1521669665863264 0.14804183858351516 0.004125128002811254 -0.0023860677328253876 0.0 0.0
0.0 0.20332732012891747 -0.1779075774649966 0.17340161701397067 0.004505960451025732 -0.003020791629741523 0.0 0.0
0.0 0.23149312452541893 -0.20234621974201836 0.19758446948602082 0.004761750255997293 -0.0032083436535588553 0.0 0.0
0.0 0.25590266914243154 -0.2235280664472364 0.21863913484254374 0.004888931604692463 -0.002918500136690698 0.0 0.0
0.0 0.2732940706797592 -0.23887421750324744 0.23379976731239802 0.005074450190849365 -0.0061513479329348385 0.0 0.0
0.0 0.2770362973200612 -0.24264889681978768 0.23729927724496436 0.005349619574823435 -0.031994558481223276 0.0 0.0
0.0 0.2732850093890118 -0.23339170456682898 0.220689848123768 0.012701856443060551 5.162537064506978e-15 0.0 0.0
0.0 0.27703629732001156 -0.24264889681974444 0.23729927724492064 0.00534961957482359 0.03199455848123402 0.0 0.0
0.0 0.2732940706796631 -0.23887421750316357 0.2337997673123159 0.005074450190847412 0.006151347932944626 0.0 0.0
0.0 0.25590266914231014 -0.22352806644712972 0.21863913484244188 0.004888931604688007 0.0029185001366924014 0.0 0.0
0.0 0.2314931245252626 -0.20234621974188172 0.19758446948588648 0.004761750255995208 0.003208343653555056 0.0 0.0
0.0 0.2033273201287591 -0.17790757746485808 0.17340161701383525 0.004505960451022215 0.0030207916297391446 0.0 0.0
0.0 0.17372195096653215 -0.15216696658617446 0.14804183858336467 0.0041251280028097755 0.002386067732822298 0.0 0.0
0.0 0.14443348915520773 -0.12662155314732088 0.12295060195035873 0.0036709511969619576 0.0016503480736562801 0.0 0.0
0.0 0.11658739180280109 -0.10229532475148533 0.09910242381665255 0.003192900934832647 0.0009808665424587536 0.0 0.0
0.0 0.09092497381283526 -0.0798422185011386 0.07711337534753913 0.0027288431535993684 0.00040007576262579385 0.0 0.0
0.0 0.06803234068231853 -0.05972415301998049 0.05741996297638642 0.002304190043594058 -5.939712326752215e-05 0.0 0.0
0.0 0.04800475507372262 -0.042337130075141054 0.04040160130894087 0.0019355287662001252 -0.00041263628589430223 0.0 0.0
0.0 0.031560092961777884 -0.02801569921878551 0.026393562657693236 0.001622136561092272 -0.0006372128103857575 0.0 0.0
0.0 0.018929417038700866 -0.0169500316464318 0.015603382357577926 0.0013466492888538648 -0.0006961788279244829 0.0 0.0
0.0 0.009934320894875184 -0.009045476618671978 0.007976604752378717 0.001068871866293248 -0.0006441663661399981 0.0 0.0
0.0 0.004305100265636241 -0.003884848869615448 0.0031633991839211187 0.0007214496856943343 -0.0004984219901855375 0.0 0.0
0.0 0.0012188952086586954 -0.0010302011524235498 0.0007498222470291639 0.00028037890539438893 -0.00023787732570211296 0.0 0.0
0.0 7.43805186126316e-05 -7.301089379499042e-05 4.7941820888865394e-05 2.5069072906125076e-05 -2.746888759958546e-05 0.0 0.0
0.0 0.0 0.0 0.0 0.0 0.0 0.0 0.0
0.0 0.0 0.0 0.0 0.0 0.0 0.0 0.0
0.0 0.0 0.0 0.0 0.0 0.0 0.0 0.0
SCALARS Wm float 4
LOOKUP_TABLE default
14.921995247413555 2.114776501945601 6.490325782264263 6.31689296320368
7.949916944099183 3.72059733466449 1.9419042471133978 2.2874153623212994
0.9347085354617753 0.810431356705824 0.029251794945600932 0.09502538381035021
0.6574173516187926 0.5798130241001714 0.02213827212603177 0.05546605539258902
1.5215587780136364 0.9329690374180033 0.21917878484394654 0.3694109557516855
3.572665920099789 1.4492921126609923 0.8519366638806269 1.2714371435581715
7.67235913761084 2.185518513840358 2.514492020965162 2.9723486028053188
14.469214428928511 3.192441241047479 5.611519687727471 5.6652535001535576
24.64760773530389 4.547114965175351 10.641325200054988 9.459167570073536
38.626314804206054 6.259360485623178 17.984352849663402 14.382601468919487
56.49377176608998 8.299570182288342 27.8230805246582 20.371121059143455
77.97463602585628 10.620987101330257 40.04189468628419 27.311754238241868
102.95191810492933 13.162640728551828 54.71271245663554 35.076564919741955
131.02062085630675 15.848443937387973 71.64181016180177 43.53036675711697
161.48305856457927 18.455402964374198 90.53778452007805 52.489871080126996
193.22008200987904 20.64964546656902 110.87723516889264 61.69320137441744
224.60841771177485 22.08918660427498 131.72202494549572 70.79720616200417
253.7324588145594 22.579306447150078 151.83952012882486 79.31363223858443
278.72072155376276 22.311658402201804 169.71445821867778 86.69460493288341
296.21267602503593 20.681270636231517 183.26662129761166 92.26478409119235
301.5689548753728 17.487552403333467 189.31398662943172 94.76741584260783
296.2126760249654 20.68127063619849 183.26662129758452 92.26478409118229
278.7207215537002 22.311658402236844 169.7144582186086 86.69460493285465
253.7324588144304 22.579306447149925 151.8395201287346 79.31363223854585
224.60841771164075 22.089186604291832 131.72202494538988 70.79720616195902
193.22008200971925 20.649645466565772 110.87723516878415 61.69320137436934
161.48305856440686 18.455402964348867 90.53778451997805 52.48987108007993
131.02062085613414 15.848443937357821 71.64181016170593 43.53036675707037
102.95191810479717 13.162640728557403 54.71271245654451 35.07656491969525
77.97463602571987 10.620987101312737 40.04189468620727 27.31175423819989
56.49377176597987 8.299570182276746 27.823080524596026 20.371121059107104
38.626314804122934 6.25936048561508 17.984352849617707 14.382601468890163
24.64760773524346 4.547114965167562 10.641325200024315 9.45916757005159
14.469214428886808 3.1924412410363354 5.6115196877107 5.665253500139765
7.672359137583227 2.1855185138306528 2.51449202095611 2.9723486027964636
3.572665920086835 1.4492921126573013 0.8519366638766886 1.2714371435528435
1.521558778009112 0.9329690374161422 0.2191787848428318 0.3694109557501386
0.6574173516174129 0.5798130240991852 0.02213827212589322 0.05546605539233475
0.9347085354603608 0.8104313567048206 0.029251794945453005 0.09502538381008552
7.949916944092559 3.7205973346650634 1.9419042471097823 2.2874153623177125
14.921995247383446 2.1147765019305487 6.4903257822558045 6.316892963197099
18.108311184680844 7.7438209567256635 5.113947654675591 5.250542573279597
3.428593303494624 0.7554368099359836 1.160356592434939 1.5127999011236999
0.3176292319539546 0.37856115525432277 -0.023013286110058064 -0.0379186371903101
0.49751589255991047 0.46532093748495285 0.007205916553290067 0.024989038521667666
1.1325583752074926 0.7485492242543055 0.12779873769462935 0.25621041325855803
2.839506169550542 1.1433776782380976 0.6791589648117908 1.0169695265006526
6.2962120694444526 1.6388921661930813 2.0881311237265425 2.569188779524831
12.234484389645303 2.2957962061336343 4.875202520428573 5.063485663083093
21.162025957649114 3.113164651620539 9.451122644725057 8.597738661303522
33.35322400389502 4.063128196000795 16.1116569649404 13.178438842953838
48.86050654748783 5.10992415993726 25.016271331361462 18.734311056189096
67.62959131881705 6.247625172589278 36.226138859840304 25.15582728638749
89.2115614569092 7.463854827557174 49.411180329381466 32.33652629997057
113.6258097126934 8.697469754938163 64.77405343728135 40.154286520473875
140.22111777736876 9.85479847509357 81.90909966450339 48.45721963777188
168.13444524874203 10.769649001666908 100.356386570672 57.00840967640304
196.0885284319911 11.259473924725345 119.36652683713706 65.46252767012868
222.41934140985924 11.207303237168478 137.8069222243408 73.40511594834994
244.9114865604721 10.46543573760702 154.16138944540057 80.28466137746443
260.810633560304 9.19920855675249 166.31760318277912 85.29382182077241
267.095495615594 7.768095926116416 171.80267622282824 87.52472346664922
260.81063356026664 9.199208556749538 166.31760318275494 85.29382182076219
244.9114865603921 10.465435737614682 154.16138944533918 80.2846613774384
222.41934140975582 11.207303237181119 137.8069222242591 73.40511594831577
196.08852843187336 11.2594739247446 119.3665268370416 65.46252767008698
168.13444524858994 10.769649001652677 100.35638657057707 57.008409676360195
140.22111777722407 9.854798475081779 81.909099664413 48.45721963772927
113.62580971255642 8.697469754932017 64.77405343719381 40.15428652043057
89.21156145677894 7.46385482755179 49.41118032929965 32.33652629992748
67.62959131870244 6.247625172582367 36.22613885977123 25.15582728634883
48.86050654738908 5.109924159929255 25.01627133130478 18.734311056155054
33.353224003821936 4.063128195997224 16.111656964898405 13.178438842926317
21.162025957596715 3.1131646516164793 9.451122644697248 8.597738661282973
12.234484389613431 2.295796206131361 4.875202520412539 5.063485663069533
6.29621206942307 1.6388921661885685 2.0881311237181737 2.569188779516325
2.8395061695399653 1.1433776782344802 0.6791589648086123 1.0169695264968737
1.1325583752044677 0.7485492242538055 0.12779873769364306 0.25621041325701926
0.4975158925593095 0.46532093748419706 0.00720591655331051 0.024989038521801864
0.31762923195380816 0.37856115525397843 -0.02301328610999248 -0.03791863719017763
3.428593303486444 0.7554368099345572 1.1603565924315933 1.512799901120295
18.108311184651278 7.743820956712397 5.113947654666677 5.2505425732721935
13.89926054399715 6.246620977633239 3.6369251431849055 4.015714423178995
2.1732397722970616 0.35464270831416395 0.7789317356960942 1.0396653282868056
0.19247841033982463 0.19266494258048647 4.7581559535919e-05 -0.00023411380019775158
0.3611190106538087 0.35927415407458274 -0.0002839941113377042 0.0021288506905636456
0.8441431615458566 0.6445776356756389 0.05828651980627468 0.14127900606394303
2.2137399977477643 1.0204212977343152 0.46063978162475056 0.7326789183886991
5.129834413763846 1.487159830001571 1.5780165691860744 2.0646580145762012
10.31264355121418 2.0767056955943435 3.951862283701259 4.284075571918573
18.15418354394248 2.7871884747264275 7.902990944987426 7.464004124228627
28.891348001166193 3.5951656078164906 13.711408769501189 11.584773623848518
42.5005129021239 4.486090329733196 21.451139464717336 16.563283107673378
58.83524052359573 5.460391403466698 31.074290067546197 22.300559052582823
77.90532605645787 6.52249461813881 42.68429497002159 28.698536468297466
99.1663261865833 7.640246929990925 55.85394905959052 35.67213019700181
122.53721596577124 8.726034849367544 70.72674343379622 43.0844376826075
147.1924493980789 9.662541233202724 86.7806053214314 50.74930284344484
172.05440284242627 10.277534617697908 103.38408494953029 58.392783275198006
195.5389283580773 10.359175668407826 119.58859903752514 65.5911536521444
215.5244940715584 9.764721937850297 133.96337852009668 71.7963936136115
229.6167912387924 8.806744451196883 144.5483583811705 76.26168840642502
234.84614939962933 6.911797361683831 149.56283482333203 78.3715172146135
229.6167912387497 8.806744451182261 144.54835838115113 76.26168840641623
215.52449407148433 9.764721937848108 133.96337852004652 71.79639361358966
195.53892835798806 10.35917566842082 119.58859903745416 65.59115365211308
172.05440284230124 10.2775346176894 103.38408494945024 58.39278327516155
147.19244939795823 9.662541233196821 86.78060532135304 50.74930284340836
122.5372159656376 8.726034849350215 70.72674343371791 43.08443768256947
99.16632618646364 7.640246929987245 55.853949059513646 35.67213019696266
77.9053260563382 6.522494618123613 42.68429496995374 28.69853646826089
58.83524052349418 5.4603914034593695 31.074290067486412 22.30055905254843
42.50051290203655 4.486090329724074 21.451139464669158 16.563283107643294
28.891348001099523 3.595165607809752 13.71140876946557 11.584773623824194
18.15418354389419 2.7871884747197484 7.902990944963843 7.464004124210603
10.312643551183516 2.07670569559143 3.9518622836864545 4.284075571905633
5.1298344137461624 1.4871598299996112 1.5780165691785655 2.064658014567985
2.213739997739478 1.020421297731179 0.4606397816225026 0.7326789183857962
0.844143161543231 0.6445776356746065 0.05828651980569554 0.14127900606292862
0.3611190106533264 0.35927415407395574 -0.00028399411130313823 0.002128850690673866
0.19247841033975557 0.19266494258043262 4.7581559535282146e-05 -0.00023411380021225753
2.17323977228995 0.35464270831273903 0.7789317356933697 1.0396653282838393
13.89926054396874 6.2466209776218005 3.636925143175922 4.015714423171024
10.61991208843318 4.889136841452582 2.6283881434188876 3.102387103561715
1.4833652915852298 0.16007369604863717 0.5410903867194341 0.7822012088171577
0.1335659247356554 0.1335659247356554 0.0 0.0
0.2643653292611399 0.268060985545721 -0.0007556140882344568 -0.0029400421963465912
0.6203355976430566 0.5420267866635258 0.019382663671958882 0.058926147307571716
1.6517380467224216 0.8842562504168304 0.2733665816506627 0.49411521465492825
4.082607849854088 1.3350424177212976 1.1596121956746417 1.5879532364581486
8.467490476407193 1.8569131204415226 3.0889638687630137 3.5216134872026603
15.242898366332867 2.4685152438110474 6.437472513165705 6.336910609356112
24.5282285182985 3.149929697947502 11.387800703606706 9.990498116744297
36.24945735071861 3.8984487822221703 17.960723540137465 14.39028502835898
50.36775027112827 4.732509026862908 26.194626130586954 19.44061511367842
66.63861341796476 5.653614819576822 35.921241055329766 25.06375754305814
85.15487637333749 6.647322930937598 47.32633900501919 31.181214437380717
105.31103107196492 7.67463800436886 59.93069718084361 37.705695886752466
126.6857874750825 8.632144468691074 73.56798046877613 44.48566253761528
148.55514141517932 9.351766609032914 87.92053127185098 51.282843534295445
169.3422152737518 9.603510006180414 101.98815155083835 57.75055371673294
187.1444283441894 9.25115344984548 114.52082884247832 63.37244605186554
199.8564936626743 8.469617528169962 123.89140174773358 67.49547438677078
204.6024824445174 6.215785243302102 128.789096816422 69.59760038479328
199.85649366264897 8.469617528164276 123.8914017477195 67.49547438676512
187.1444283441411 9.251153449857314 114.52082884243686 63.37244605184689
169.34221527364699 9.603510006157267 101.98815155078205 57.75055371670768
148.55514141505995 9.351766609004756 87.92053127178913 51.282843534266135
126.68578747498397 8.632144468693111 73.56798046870804 44.48566253758276
105.31103107186424 7.674638004371366 59.93069718077517 37.70569588671761
85.1548763732227 6.647322930919301 47.3263390049561 31.181214437347332
66.63861341787401 5.653614819576516 35.92124105527177 25.0637575430257
50.36775027104074 4.7325090268554275 26.194626130536925 19.440615113648388
36.249457350648775 3.898448782219987 17.960723540096396 14.390285028332416
24.52822851824202 3.149929697941692 11.38780070357701 9.990498116723318
15.242898366292538 2.4685152438066673 6.437472513145671 6.3369106093402
8.46749047638236 1.856913120440395 3.08896386875083 3.5216134871911304
4.08260784983925 1.3350424177190774 1.1596121956685546 1.5879532364516187
1.6517380467162994 0.8842562504146465 0.2733665816490056 0.49411521465264685
0.6203355976417759 0.5420267866627386 0.019382663671772903 0.058926147307263914
0.264365329261021 0.2680609855455826 -0.0007556140882275442 -0.0029400421963340184
0.13356592473579829 0.13356592473579829 0.0 0.0
1.4833652915797146 0.1600736960479371 0.5410903867171526 0.7822012088146246
10.619912088409402 4.88913684144304 2.6283881434117378 3.102387103554629
8.000085318333774 3.796968862715709 1.8438367274536587 2.35927972816441
1.088094419136905 0.12907559888588693 0.39451343572873865 0.5645053845222792
0.12121621640170253 0.12121621640170253 0.0 0.0
0.21010016070615722 0.21065897339740317 -6.629343339893073e-05 -0.0004925192578470192
0.45269011942544934 0.4412218970283656 -0.0003283356930908828 0.01179655809017467
1.2003845427378457 0.7566493896371099 0.14531780305383463 0.29841735004690106
3.1211714746859296 1.1637028857697815 0.8025021620971088 1.1549664268190392
6.727213486015534 1.640562614547892 2.3019088633512768 2.784742008116367
12.435577893961412 2.1590924778391076 5.053346448713405 5.223138967408898
20.285995189535832 2.7274274572353603 9.15603550255379 8.402532229746685
30.203758606965472 3.352316813322623 14.632428210730405 12.219013582912424
42.087823246309384 4.055393525014053 21.451730473612542 16.580699247682773
55.885734282596886 4.855387356420083 29.6063710667634 21.423975859413382
71.31369553225494 5.7431001793878504 38.87373019326031 26.69686515960676
88.45048172238124 6.6871217877693505 49.439616660319416 32.32374327429248
106.8039938807506 7.647804787191245 60.95545605530461 38.20073303825473
125.5790252985126 8.479376957983458 72.94189291363884 44.157755426890255
143.7786127526835 8.944247380376554 84.94647164437127 49.887893727935676
159.66445326260103 8.840445734571054 95.86749777455687 54.956509753473114
171.38391228394 8.22135030222673 104.34960976650655 58.81295221520672
175.87414802078442 5.588737228095779 109.26550797097929 61.019902821709415
171.38391228391995 8.221350302225526 104.34960976649378 58.81295221520056
159.6644532625532 8.84044573457294 95.86749777452282 54.956509753457475
143.77861275264667 8.94424738041002 84.94647164432389 49.887893727912775
125.57902529843908 8.479376957986117 72.9418929135873 44.15775542686568
106.80399388065952 7.647804787187721 60.955456055246465 38.20073303822533
88.45048172226983 6.687121787740481 49.43961666026526 32.32374327426413
71.31369553218093 5.743100179395976 38.87373019320731 26.69686515957764
55.88573428251385 4.855387356415629 29.606371066713695 21.423975859384512
42.087823246234166 4.055393525003929 21.451730473572436 16.580699247657797
30.20375860690036 3.352316813313838 14.632428210696752 12.219013582889767
20.28599518948962 2.727427457233476 9.156035502528301 8.402532229727848
12.435577893928025 2.159092477837104 5.053346448696356 5.223138967394565
6.727213485993098 1.6405626145452412 2.301908863341263 2.784742008106593
3.1211714746748243 1.1637028857682177 0.8025021620926636 1.1549664268139446
1.200384542733431 0.7566493896358958 0.14531780305257072 0.2984173500449649
0.45269011942439247 0.4412218970276775 -0.00032833569320163706 0.011796558089916911
0.2101001607060093 0.21065897339725972 -6.629343339736422e-05 -0.0004925192578531569
0.12121621640161873 0.12121621640161873 0.0 0.0
1.088094419132102 0.12907559888526998 0.39451343572673836 0.5645053845200954
8.000085318315147 3.7969688627085176 1.8438367274481104 2.359279728158514
5.921630749824121 2.922073463705418 1.2640711131293325 1.7354861729893711
0.7750729979765288 0.14793682137629194 0.23550276848825782 0.39163340811197866
0.13758426645304692 0.13758926099535276 -1.966034484966458e-07 -4.797938857358676e-06
0.18726774101555727 0.18724836140565213 2.8559315466673895e-06 1.6523678358466968e-05
0.34571027798725823 0.35764295209522634 -0.004127108987222729 -0.007805565120745259
0.8410924238218831 0.6257289192687153 0.058610006019830595 0.1567534985333372
2.237668928208671 0.9817553711821647 0.47012416193182605 0.7857893950946796
5.163379339771318 1.4155879374444238 1.661880862016542 2.085910540310353
9.732884231907159 1.860828036359997 3.7423797723603216 4.129676423186842
16.215781467688263 2.329607951581023 7.058795461212546 6.827378054894687
24.354232305593452 2.844173089136364 11.455281737432088 10.054777479024997
34.07103397897973 3.4340876169836543 16.911542557318526 13.725403804677555
45.31215324254124 4.1221284985261795 23.40253175511302 17.787492988902045
58.06571839628642 4.91082312383829 30.944779430133703 22.210115842314416
72.10158731294126 5.7868518561210385 39.369824593539626 26.944910863280572
87.21095536069681 6.711264080832071 48.58658570258433 31.913105577280422
103.20629086888924 7.626559632894355 58.59007987358718 36.98965136240773
118.87663927827518 8.334324998687409 68.55298439322497 41.9893298863628
132.94840945932276 8.512948674937167 77.87599398330877 46.559466801076766
143.93539781746318 8.058567993033373 85.65775048816316 50.21907933626661
148.3623020053346 5.030920194244756 90.7429491973671 52.58843261372284
143.93539781747012 8.058567993059176 85.65775048815016 50.21907933626075
132.9484094592819 8.512948674933439 77.87599398328373 46.559466801064836
118.87663927819158 8.334324998661998 68.55298439318568 41.98932988634387
103.2062908688197 7.626559632892617 58.59007987354194 36.989651362385096
87.21095536062921 6.711264080836455 48.58658570253748 31.913105577255312
72.10158731289631 5.786851856145173 39.369824593494904 26.944910863256272
58.065718396203735 4.91082312382432 30.944779430090147 22.210115842289248
45.312153242483575 4.122128498534007 23.402531755072356 17.787492988877222
34.07103397892428 3.4340876169818895 16.911542557286033 13.725403804656342
24.354232305544944 2.8441730891333785 11.45528173740543 10.054777479006143
16.215781467648675 2.3296079515787578 7.058795461191618 6.8273780548783005
9.732884231879998 1.8608280363580783 3.742379772347014 4.129676423174903
5.163379339753454 1.4155879374419997 1.661880862008847 2.0859105403026055
2.2376689281996476 0.9817553711802951 0.47012416192868534 0.7857893950906669
0.8410924238185913 0.6257289192676567 0.05861000601902955 0.1567534985319052
0.34571027798694587 0.357642952094583 -0.004127108987164753 -0.007805565120472615
0.18726774101539528 0.1872483614055492 2.855931539859899e-06 1.652367830619691e-05
0.13758426645283092 0.1375892609951326 -1.9660344829240563e-07 -4.797938853403843e-06
0.7750729979728289 0.147936821375939 0.23550276848672605 0.39163340811016417
5.9216307498089265 2.922073463698933 1.2640711131252866 1.7354861729847084
4.240547699185768 2.2155955690571236 0.8030750689110674 1.2218770612175787
0.5748326920801721 0.18969028567762045 0.1358636011379252 0.24927880526462634
0.1661291004144144 0.16613326029803974 -2.3246729076969345e-07 -3.92741633463526e-06
0.1846481351261601 0.18470476575221037 -6.626860334490545e-06 -5.0003765715794545e-05
0.28458804629709045 0.29592495538180436 -0.0027725469127044254 -0.008564362172009628
0.5868681824871709 0.5123782422236759 0.013842767744783753 0.06064717251871149
1.5371915254970687 0.8078485208360071 0.2510234559877865 0.4783195486732752
3.6483895519588034 1.1747147673519918 1.0165068407987436 1.4571679438080698
7.320722633683745 1.570176430189496 2.675503208981865 3.075042994512386
12.301107846744852 1.953482682433727 5.077327030736389 5.270298133574735
18.75234767416577 2.374524056198229 8.473352449752676 7.904471168214858
26.389082349746392 2.8644801142737752 12.644496807327105 10.880105428145512
35.195510540868995 3.452530830625391 17.58279986418509 14.160179846058512
45.18953518340341 4.152800983396967 23.306002315412695 17.730731884593755
56.29178849716108 4.952404041623613 29.768519660075533 21.57086479546195
68.49242620929435 5.834898049333921 37.03450363432679 25.623024525633628
81.18397293215372 6.787635536495352 44.577421145283786 29.818916250374613
94.46307792274145 7.711185695002395 52.71888957084963 34.0330026568894
107.08998054879507 8.23135680757321 60.760286747821645 38.09833699340018
117.44918597944616 7.994443667359696 67.82624206776245 41.628500244324066
122.02408918065345 4.556617710919112 73.21608170835728 44.25138976137699
117.44918597943835 7.994443667370215 67.82624206775017 41.628500244317955
107.08998054877111 8.231356807577576 60.76028674780282 38.098336993390774
94.46307792271702 7.711185695022688 52.71888957082016 34.03300265687418
81.18397293209124 6.787635536486599 44.57742114524888 29.81891625035578
68.49242620923762 5.834898049334103 37.034503634290076 25.623024525613467
56.291788497079686 4.952404041600829 29.768519660038443 21.570864795440404
45.18953518335436 4.152800983398221 23.30600231538147 17.730731884574663
35.19551054081318 3.452530830618091 17.58279986415561 14.16017984603949
26.38908234969997 2.8644801142708736 12.644496807301337 10.880105428127747
18.752347674125385 2.374524056193926 8.473352449732076 7.904471168199384
12.301107846715587 1.9534826824334166 5.077327030720553 5.270298133561617
7.320722633662091 1.570176430186847 2.6755032089719313 3.075042994503312
3.6483895519452556 1.174714767349802 1.0165068407933695 1.4571679438020864
1.5371915254905184 0.8078485208341604 0.25102345598582765 0.47831954867053017
0.5868681824853004 0.5123782422227023 0.013842767744510615 0.060647172518087794
0.2845880462967653 0.295924955381153 -0.002772546912647267 -0.008564362171740555
0.1846481351256688 0.18470476575173242 -6.626860336346319e-06 -5.000376572717466e-05
0.16612910041409762 0.1661332602977148 -2.3246729021856114e-07 -3.927416326937905e-06
0.5748326920780136 0.1896902856776166 0.1358636011369741 0.2492788052634228
4.240547699173954 2.2155955690519384 0.8030750689081589 1.2218770612138588
3.0003414493280722 1.6849487981965248 0.5219775131078682 0.7934151380236797
0.4183124839868555 0.22096151491103067 0.056295809480243354 0.14105515959558165
0.19566631527681028 0.19514531391324186 6.242205956503431e-05 0.0004585793040034013
0.19370996521720876 0.19364151641339236 -1.954424763963901e-06 7.040322858033594e-05
0.2549481765295234 0.26201375736387367 -0.0015386642639524744 -0.005526916570397822
0.42813839010426746 0.4184818193378398 -0.002863778043127791 0.01252034880955523
0.9861568292331688 0.637842656197177 0.10187514108650658 0.246439031949485
2.3910777106138346 0.9357360897188094 0.5488084960423121 0.906533124852715
4.95453452949784 1.2643744738959286 1.5994145993530386 2.0907454562488716
8.747633270179614 1.5921033889785117 3.4015990198456776 3.7539308613554265
13.439448108218073 1.9343376112561939 5.730030100333967 5.775080396627917
19.063780023809002 2.340274005591198 8.668333666730941 8.05517235148687
25.560459459277478 2.8379773968108823 12.169704599105431 10.552777463361167
32.9336337313269 3.4501778046052176 16.212200008127702 13.271255918593965
41.261710682548824 4.1874374501308935 20.86219199885175 16.212081233566185
50.3777989235281 5.017940296986669 26.007647500042125 19.35221112649931
60.29566503270086 5.93768035710943 31.72594821984385 22.632036455747553
70.80935562715612 7.014090717663444 37.74781396427722 26.047450945215488
81.64308238730455 7.938331828406072 44.14065413249908 29.56409642639937
91.6547297798523 8.042449372343366 50.6457900035045 32.96649040400441
96.65153223678404 4.1865085049458965 56.50671383221123 35.95830989962689
91.65472977983157 8.042449372330733 50.64579000349906 32.96649040400176
81.64308238729403 7.938331828416392 44.14065413248544 29.564096426392222
70.8093556271111 7.014090717655005 37.747813964253716 26.04745094520241
60.29566503266153 5.937680357109744 31.725948219818605 22.632036455733196
50.37779892348022 5.0179402969816165 26.007647500015253 19.35221112648332
41.26171068251255 4.187437450133912 20.862191998827527 16.212081233551114
32.93363373128575 3.4501778046002496 16.212200008105853 13.27125591857965
25.56045945924677 2.8379773968125406 12.16970459908632 10.552777463347887
19.0637800237751 2.3402740055891216 8.668333666712732 8.055172351473242
13.43944810818918 1.9343376112542185 5.730030100319131 5.775080396615833
8.747633270158428 1.59210338897918 3.401599019834068 3.7539308613451796
4.954534529484594 1.2643744738961453 1.5994145993464008 2.0907454562420487
2.3910777106037417 0.9357360897150641 0.5488084960394964 0.9065331248491806
0.9861568292292006 0.6378426561965683 0.10187514108528134 0.24643903194735095
0.4281383901030545 0.4184818193367302 -0.0028637780431763544 0.012520348809500644
0.2549481765290844 0.26201375736327304 -0.0015386642639127483 -0.005526916570275764
0.19370996521709954 0.1936415164130766 -1.9544247506702187e-06 7.040322877365076e-05
0.19566631527663034 0.1951453139130147 6.242205956824494e-05 0.00045857930404735666
0.4183124839854519 0.22096151491098293 0.05629580947971082 0.14105515959475756
3.000341449319764 1.6849487981931681 0.5219775131056422 0.7934151380209535
1.9806577150917435 1.2481340405314538 0.25787521158497523 0.47464846297531404
0.31894387394660106 0.24094106842547486 0.017480794857126197 0.06052201066399992
0.2198987647867488 0.21945688155786475 7.05950799886855e-05 0.0003712881488954109
0.20913672900601352 0.20927039164612438 -1.4565595953560344e-05 -0.00011909704415709754
0.24340485140174278 0.2477148186463499 -0.0010790080767804314 -0.003230959167826755
0.34623186243857323 0.3501902855224882 -0.004345709448528884 0.00038728636461382126
0.6189727613893878 0.49615452245591307 0.025945654635865865 0.09687258429760867
1.3893169799233134 0.7018075409150054 0.23166554564092204 0.45584389336738584
2.944979336462583 0.952176507159078 0.7900579716615803 1.202744857641924
5.36573791408881 1.2147910221832048 1.8344779754721294 2.3164689164334757
8.467555558389323 1.4957186084654817 3.268692555773279 3.7031443941505633
12.212285506758795 1.832794777910333 5.104797277992625 5.2746934508558345
16.52281826813693 2.2527932965378614 7.274483014415409 6.995541957183652
21.436125976184066 2.777609697374376 9.78927143410925 8.869244844700445
27.05983946601734 3.437969643276534 12.708058601416894 10.913811221323906
33.43339147528441 4.2340081113644015 16.059204397342736 13.140178966577288
40.44156350727776 5.105590366902633 19.80610392705786 15.529869213317278
48.0866174373653 6.114704591785615 23.89621215034595 18.075700695233728
57.04798173614603 7.443657354812897 28.67475763599634 20.929566745336793
66.82526683693243 8.231838905185448 34.42239229162154 24.1710356401254
72.5347068587471 3.9897752253978567 40.76979009132083 27.775141542028436
66.82526683692699 8.231838905176105 34.42239229162405 24.17103564012683
57.04798173609804 7.443657354772944 28.67475763599122 20.929566745333865
48.0866174373199 6.114704591759648 23.89621215033375 18.075700695226516
40.441563507245974 5.105590366899449 19.80610392704029 15.529869213306226
33.433391475261274 4.234008111370841 16.059204397324862 13.140178966565598
27.059839465987533 3.4379696432734743 12.708058601401014 10.913811221313026
21.43612597615773 2.777609697367249 9.789271434098094 8.869244844692393
16.522818268111923 2.2527932965338353 7.274483014403596 6.995541957174492
12.212285506733636 1.8327947779056284 5.104797277981358 5.274693450846653
8.467555558369728 1.4957186084627183 3.268692555764478 3.7031443941425293
5.3657379140721515 1.2147910221791351 1.8344779754657612 2.3164689164272594
2.9449793364530272 0.952176507158145 0.7900579716576104 1.2027448576372728
1.3893169799184173 0.7018075409128327 0.23166554563983635 0.45584389336574815
0.6189727613869452 0.4961545224553911 0.025945654635167525 0.09687258429638661
0.3462318624381629 0.35019028552183673 -0.004345709448478072 0.0003872863648044533
0.24340485140115076 0.24771481864555642 -0.0010790080767622524 -0.003230959167643449
0.20913672900578795 0.20927039164591776 -1.4565595950429512e-05 -0.00011909704417937934
0.2198987647864044 0.21945688155729964 7.059508000845061e-05 0.0003712881490963113
0.31894387394535356 0.24094106842514185 0.017480794856768525 0.06052201066344306
1.9806577150862061 1.2481340405290526 0.2578752115836444 0.4746484629735098
1.2697616325925778 0.9280847930413251 0.10869166180286544 0.23298517774838784
0.25002940620791275 0.2421536282035291 -0.0016303926000090319 0.009506170604392537
0.23645992827567391 0.23509570305363517 0.0001904528807928883 0.001173772341245999
0.22693096667702234 0.22579046964020527 0.00014339906891718953 0.000997097967899769
0.24478658325162747 0.24724343380425748 -0.0008156861005159632 -0.0016411644521140455
0.31431264337231857 0.3148906102261394 -0.002018047633927023 0.001440080780106148
0.43659262305286023 0.39154904442814376 0.006780703175636149 0.038262875449080164
0.6942182305751451 0.47975049259919356 0.05685719332891851 0.15761054464703309
1.316743259726931 0.6149203492885262 0.23611567995162147 0.4657072304867833
2.4584103931678376 0.7815658616159148 0.6498946636819053 1.0269498678700175
4.101085821180614 0.9884119457651113 1.3342846706014266 1.778389204814076
6.0655027493669955 1.2400452343276689 2.1689915853589152 2.656465929680412
8.404873724272406 1.5662373466425081 3.2100557610700537 3.6285806165598475
11.137666269472266 1.992802698485488 4.446317437372416 4.69854613361436
14.336161795231641 2.549435088130179 5.89757686823073 5.889149838870725
18.135157903026382 3.2697592995404805 7.6261653834795045 7.2392332200064
22.614307722781398 4.128027371456951 9.706159112466402 8.780121238858037
27.647132011731163 4.976707549627216 12.171435391666774 10.498989070437178
33.80984235798911 6.1683226162006335 15.133838998870155 12.507680742918314
42.85179798617707 8.169882864540382 19.38944880515767 15.29246631647902
50.8596454704064 4.206560989795289 26.81531414785778 19.83777033275334
42.85179798621066 8.16988286456734 19.38944880516182 15.292466316481512
33.809842358012105 6.168322616223639 15.133838998870162 12.507680742918291
27.647132011741213 4.97670754965007 12.17143539165921 10.49898907043194
22.614307722749658 4.128027371442183 9.706159112456435 8.78012123885103
18.135157903004316 3.269759299534893 7.626165383470167 7.2392332199992495
14.336161795203632 2.5494350881123604 5.8975768682250855 5.889149838866192
11.137666269465885 1.9928026984868121 4.4463174373682195 4.698546133610854
8.404873724258936 1.5662373466394666 3.2100557610645195 3.628580616554945
6.065502749357501 1.2400452343280266 2.168991585353922 2.656465929675554
4.101085821169756 0.9884119457614711 1.3342846705979077 1.778389204810378
2.458410393163216 0.7815658616156502 0.6498946636799325 1.0269498678676323
1.3167432597226632 0.6149203492866903 0.2361156799505952 0.4657072304853775
0.6942182305735826 0.4797504925988764 0.056857193328483796 0.15761054464622257
0.43659262305161545 0.39154904442759236 0.0067807031754075105 0.03826287544861555
0.31431264337142023 0.3148906102251481 -0.002018047633938351 0.0014400807802104334
0.24478658325092945 0.24724343380336897 -0.0008156861004874681 -0.0016411644519521448
0.22693096667656942 0.2257904696396376 0.0001433990689244554 0.0009970979680073142
0.23645992827537538 0.23509570305322458 0.00019045288080260126 0.0011737723413481702
0.2500294062071241 0.242153628203175 -0.0016303926001431574 0.009506170604092352
1.2697616325885246 0.9280847930392999 0.10869166180207969 0.23298517774714447
0.7817780795239636 0.6778897424103363 0.025100858993136677 0.07878747812049067
0.21118643023495623 0.22253828634879622 -0.0033456184681940125 -0.008006237645646092
0.2456833274129077 0.2456794586059034 1.3859152604725449e-05 -9.990345600387942e-06
0.24392195906856745 0.24206270901811128 0.0002588651141836608 0.0016003849362723525
0.25709731644890266 0.25706529539027084 -0.00040676221925435135 0.0004387832778860562
0.3109505172372435 0.3078987415903919 -0.0009047470658589053 0.003956522712710687
0.39471963986807024 0.3522096795154244 0.008416998992329564 0.03409296136031641
0.45431998674950647 0.3443957238315909 0.029164820390066393 0.08075944252784913
0.5309508004512039 0.3001516234462205 0.07810517356342982 0.15269400344155382
0.7635514373751906 0.2981349336352403 0.16940884935473535 0.2960076543852156
1.2813352876965034 0.3116183781763945 0.3874619858674304 0.5822549236526763
2.0264139534628485 0.31634930322875604 0.7077895817376634 1.00227506849643
2.9924899156410545 0.3554121917488507 1.146348262630274 1.4907294612619275
4.169014577400584 0.4564524685845054 1.6786664028567897 2.033895705959295
5.5774706302513 0.6467497746517666 2.303343578936666 2.627377276662868
7.212697506131379 0.9493913471347388 3.0017995527499557 3.261506606246681
9.116721348716615 1.3879042568453643 3.803686636322773 3.9251304555484747
11.225623892457442 1.9088187666507155 4.7062081047562785 4.610597021050451
14.061659885219555 2.6511511571974125 5.898997525505911 5.511511202516233
21.69388464223585 5.35626530552411 8.458180840509227 7.8794384962025195
36.20674990557784 4.729301276675118 17.287652144183802 14.189796484718904
21.693884642257267 5.356265305540303 8.458180840512469 7.879438496204499
14.061659885206225 2.651151157186713 5.898997525504471 5.511511202515048
11.225623892430946 1.9088187666355636 4.706208104749983 4.6105970210454
9.116721348698935 1.3879042568396902 3.8036866363162902 3.9251304555429476
7.212697506116498 0.9493913471282708 3.001799552745638 3.2615066062425884
5.577470630241296 0.6467497746483766 2.303343578933226 2.6273772766596926
4.169014577393385 0.45645246858266586 1.6786664028541338 2.033895705956585
2.99248991563318 0.355412191748927 1.1463482626262307 1.4907294612580229
2.0264139534543837 0.3163493032270186 0.7077895817343962 1.0022750684929698
1.2813352876935586 0.3116183781775877 0.3874619858654783 0.5822549236504918
0.7635514373735302 0.2981349336340877 0.16940884935449418 0.29600765438494947
0.5309508004515132 0.3001516234474502 0.07810517356304447 0.1526940034410179
0.4543199867495224 0.34439572383196587 0.02916482038993828 0.08075944252761869
0.39471963986729086 0.3522096795150632 0.008416998992151713 0.03409296136007585
0.3109505172365289 0.3078987415895997 -0.0009047470658688362 0.003956522712797993
0.2570973164482294 0.2570652953894671 -0.0004067622192418281 0.000438783278004328
0.24392195906832903 0.2420627090176865 0.000258865114202865 0.001600384936439638
0.24568332741284518 0.24567945860572674 1.3859152623340097e-05 -9.990345504957792e-06
0.21118643023473505 0.2225382863483082 -0.0033456184681499115 -0.008006237645423318
0.781778079521614 0.6778897424090347 0.025100858992767126 0.07878747811981232
0.48898513881531586 0.4829290972039326 0.0007659877610836274 0.005290053850299656
0.19220001847137388 0.1941180601695705 -0.0002612621632399935 -0.001656779534956557
0.24793020989886955 0.24737518037810347 1.6455767377616435e-05 0.0005385737533884797
0.257936665593492 0.2558442848934539 0.0002847747742631699 0.0018076059257750782
0.27605846406777057 0.27410692682953375 -9.140891409564532e-05 0.00204294615233258
0.33540869685702335 0.32681082820109253 -0.0002469913832121866 0.008844860039143043
0.45409651125252726 0.3988849041122162 0.010702930166796881 0.04450867697351438
0.7055830434254872 0.4822483686960225 0.06041946963728678 0.16291520509217758
1.3207631437340746 0.6150141275450198 0.23780549504041876 0.4679435211486349
2.4586120103785842 0.7813029398614579 0.6500013504743244 1.0273077200428018
4.111047960212707 0.9911665329641596 1.3383003792704558 1.7815810479780945
6.100643089079951 1.2456267935041432 2.185464738658139 2.66955155691767
8.462277662789099 1.5719738499480576 3.237334579672565 3.6529692331684784
11.147879417586223 1.9814849860394306 4.459698103806963 4.706696327739829
14.040029484825864 2.475090831529808 5.778855005150052 5.786083648146
16.950242223404572 3.049210834149467 7.093823308291067 6.807208080964044
19.52467938601949 3.6777450252683304 8.210101957179138 7.636832403572022
21.575937353736443 4.423636725692413 9.014093052263487 8.13820757578055
22.262189054167067 4.933203025109908 9.172412095518581 8.156573933538569
18.47458950605209 3.893518475069415 7.86790081816031 6.7131702128223685
36.69342729172296 6.847827683382105 16.12488988586676 13.720709722474082
18.474589506034768 3.8935184750455276 7.867900818164127 6.713170212825115
22.262189054172406 4.9332030251183925 9.172412095516721 8.156573933537299
21.575937353708134 4.423636725678477 9.014093052255081 8.13820757577456
19.524679386006184 3.677745025275882 8.210101957167215 7.6368324035630994
16.95024222338426 3.0492108341466917 7.093823308281165 6.8072080809564
14.040029484832633 2.475090831551834 5.778855005141792 5.78608364813901
11.147879417568433 1.9814849860369887 4.4596981037985906 4.706696327732859
8.462277662768017 1.5719738499446085 3.2373345796632655 3.652969233160142
6.100643089064126 1.2456267935038001 2.1854647386502517 2.6695515569100756
4.111047960198732 0.9911665329630087 1.3383003792641444 1.7815810479715783
2.458612010370789 0.781302939860606 0.6500013504711971 1.0273077200389862
1.3207631437287612 0.6150141275435972 0.23780549503882498 0.467943521146339
0.7055830434223267 0.4822483686948903 0.06041946963654499 0.1629152050908909
0.4540965112513329 0.39888490411161015 0.010702930166603092 0.04450867697311918
0.3354086968561826 0.3268108282001884 -0.0002469913832385199 0.008844860039232648
0.27605846406730855 0.2741069268288518 -9.140891407584059e-05 0.00204294615253269
0.2579366655933097 0.25584428489312494 0.0002847747742744814 0.0018076059259102995
0.24793020989876 0.24737518037792627 1.6455767378793255e-05 0.0005385737534547608
0.19220001847132734 0.19411806016946792 -0.00026126216323594506 -0.001656779534904491
0.4889851388141189 0.48292909720225746 0.0007659877611192173 0.005290053850742121
0.3128392269727171 0.3130301835898521 -1.9102481887317784e-05 -0.00017185413524755224
0.17721846419876783 0.17744556458509325 -2.27534463108778e-05 -0.00020434694001456375
0.2437836596410905 0.24446577888408713 -0.0001450861850185416 -0.0005370330579780268
0.2675295637898705 0.2655779609942217 0.0001838286416269677 0.001767774154021676
0.29992781892369674 0.29927412480043764 -0.00033182147370163233 0.0009855155969608338
0.38949397640089095 0.3741944436708133 0.0012071214578495927 0.014092411272227635
0.645425088681062 0.4982583017070316 0.03297331015981815 0.11419347681421185
1.4020369690240133 0.7024789988152242 0.23695884596259698 0.4625991242461922
2.946124873655151 0.951673427207029 0.7907619754111419 1.203689471036981
5.366178630596027 1.2150284812916499 1.8344143913620745 2.316735757942301
8.478498769930203 1.497814011201053 3.2732271038042056 3.7074576549249456
12.243388930987432 1.8369654596290335 5.119544224914559 5.286879246443838
16.5645904584789 2.2531238072227957 7.298087504763377 7.013379146492734
21.404186732115736 2.7517158096260923 9.786486659887167 8.86598426260246
26.68469089092741 3.3355204833749212 12.54875978093903 10.800410626613466
32.13845815959066 3.9920339686516524 15.428849899819104 12.717574291119918
37.33494441298186 4.734270140121353 18.138204641760282 14.462469631100216
41.65935571219081 5.567841798457424 20.256354954155096 15.835158959578248
43.76667783113633 6.032866791859428 21.290245595686432 16.44356544359047
40.96550286528276 5.927784484166198 19.74167014445519 15.296048236661356
50.60901468960836 11.756389236574535 21.9110870015743 16.941538451459536
40.96550286528928 5.927784484165881 19.741670144459498 15.296048236663914
43.76667783112174 6.032866791849981 21.290245595683253 16.44356544358849
41.65935571217721 5.5678417984667075 20.25635495414093 15.83515895956958
37.33494441294585 4.734270140116934 18.13820464174092 14.46246963108799
32.13845815953625 3.992033968633404 15.428849899797282 12.717574291105574
26.684690890881747 3.3355204833574135 12.54875978092235 10.800410626601982
21.40418673207968 2.75171580961876 9.786486659870558 8.86598426259037
16.564590458451452 2.25312380722476 7.2980875047467375 7.013379146479957
12.243388930954815 1.8369654596237408 5.1195442248995375 5.2868792464315355
8.478498769904686 1.4978140111983016 3.2732271037922507 3.7074576549141347
5.3661786305758925 1.2150284812879906 1.834414391353754 2.3167357579341488
2.9461248736456023 0.9516734272060917 0.7907619754071752 1.2036894710323376
1.4020369690190395 0.7024789988149024 0.2369588459607186 0.4625991242434193
0.6454250886785362 0.4982583017061875 0.03297331015921612 0.1141934768131329
0.3894939763997665 0.3741944436698481 0.0012071214578003283 0.014092411272118062
0.29992781892313347 0.29927412479954496 -0.0003318214736589319 0.0009855155972473325
0.26752956378987913 0.26557796099400804 0.0001838286416479803 0.001767774154223144
0.24378365964064927 0.2444657788834858 -0.00014508618500469074 -0.000537033057831877
0.17721846419885234 0.177445564585226 -2.2753446313882008e-05 -0.00020434694005977573
0.31283922697192706 0.31303018358916207 -1.910248189841241e-05 -0.00017185413533668688
0.19499061078075483 0.19499061078075483 0.0 0.0
0.1581127920319759 0.15809682898217817 2.3032519912096513e-06 1.3659797806515498e-05
0.23312462528460187 0.2342418313091295 -0.00017054200853459592 -0.0009466640159930185
0.2734102245356578 0.2735631248282651 -0.00014232933680382836 -1.0570955803497413e-05
0.3280456489194783 0.3252932086484691 -0.0002802710859884079 0.0030327113569976194
0.4806144179386454 0.4335000997010676 0.0061359966697634985 0.04097832156781458
1.0207778953084226 0.643625776892158 0.11546488358998767 0.26168723482627654
2.398003098486238 0.9355943666004118 0.5526416795619424 0.909767052323884
4.952740896385464 1.264506312656506 1.5983963214505457 2.0898382622784095
8.750322985792465 1.5928664984502419 3.402868371769696 3.7545881155725267
13.449662156138803 1.9357237883098164 5.733610887544388 5.780327480284602
19.081486005101617 2.3413818527543 8.677979309019896 8.062124843327423
25.560206965242557 2.83169418251076 12.173426146590128 10.555086636141661
32.82970875331186 3.4120374961699396 16.17278045185505 13.244890805286879
40.83232397355993 4.072930006497378 20.668876990759124 16.090516976303423
49.19399972713888 4.800180155004899 25.40439663398425 18.989422938149726
57.50605949540306 5.580262498706927 30.1854186093583 21.740378387337856
64.37818476937379 6.223085767895011 34.134806477631585 24.020292523847218
67.7796538946702 6.45264869507471 36.17334205070975 25.153663148885713
63.620693861941476 5.834033885342396 33.92544664245972 23.861213334139386
71.02727347638655 14.854081769088511 32.85355414271145 23.319637564586564
63.620693861945924 5.834033885344262 33.92544664246138 23.86121333414026
67.77965389466077 6.452648695076105 36.17334205070285 25.15366314888185
64.37818476934034 6.22308576789152 34.134806477612436 24.020292523836407
57.50605949535111 5.580262498699982 30.18541860932976 21.74037838732136
49.19399972709829 4.800180155018001 25.40439663395064 18.989422938129653
40.83232397350731 4.072930006492204 20.66887699072989 16.090516976285222
32.82970875326899 3.412037496170281 16.172780451828913 13.24489080526977
25.56020696519439 2.8316941825052155 12.173426146564937 10.555086636124257
19.081486005062157 2.341381852754591 8.677979308997052 8.062124843310496
13.449662156099437 1.9357237883057767 5.733610887524809 5.78032748026886
8.750322985767282 1.5928664984507976 3.4028683717560355 3.7545881155604484
4.952740896368256 1.2645063126534717 1.5983963214435077 2.0898382622712757
2.398003098476619 0.9355943665989286 0.5526416795583288 0.9097670523193606
1.0207778953027695 0.6436257768903728 0.11546488358852157 0.2616872348238756
0.48061441793762727 0.4335000997000261 0.00613599666973968 0.04097832156786145
0.32804564891926613 0.32529320864800637 -0.00028027108595996366 0.0030327113572198713
0.2734102245359157 0.2735631248282296 -0.00014232933677026024 -1.0570955543914178e-05
0.23312462528391692 0.23424183130853934 -0.00017054200854422103 -0.0009466640160781837
0.15811279203222287 0.15809682898239133 2.303251993233315e-06 1.3659797838299971e-05
0.1949906107803204 0.1949906107803204 0.0 0.0
0.1146941974851915 0.1146941974851915 0.0 0.0
0.13415254238081062 0.13414795673911323 2.4297873496715517e-07 4.342662962442389e-06
0.21669317854520126 0.21728947263888343 -8.464941649703312e-05 -0.0005116446771850873
0.2757014237978994 0.2761759827267843 -0.00028418154647948677 -0.0001903773824054842
0.36270386327996973 0.3604031942591208 -0.0009076768741652266 0.0032083458950139163
0.6434534809580907 0.5250035730913547 0.029291647452458238 0.08915826041427746
1.5553239970279154 0.8041830959237242 0.25880248858840876 0.4923384125157825
3.6484215269184337 1.1755044892729856 1.0166551212003117 1.456261916445136
7.318623659937988 1.5711319144724343 2.67385760524819 3.073634140217362
12.305928229106335 1.9544083961087795 5.079259657819047 5.272260175178515
18.760672117894703 2.373883374141405 8.478774946822071 7.908013796931223
26.37990798185867 2.8586683077196517 12.642608574607852 10.878631099531168
35.12865176651833 3.434638601317373 17.553248296860108 14.140764868340877
45.00088866069432 4.109095341860482 23.216246949274403 17.67554636955939
55.87216260762209 4.864382182018084 29.558844042433524 21.44893638317047
67.54346410864653 5.663007973725932 36.53488299287557 25.345573142045005
78.74482049511246 6.366792801919796 43.26440243159642 29.113625261596265
88.20261883298947 6.746092673382647 49.23907880552252 32.21744735408429
92.49191862663875 6.435642643633529 52.298664253273174 33.75761172973204
87.28028280971964 5.890138513693443 49.229639206140305 32.16050508988587
94.21484165437394 18.019620229320502 45.772624911126414 30.422596513927
87.28028280971984 5.890138513695365 49.229639206139304 32.16050508988513
92.49191862662087 6.435642643633904 52.29866425326109 33.757611729725824
88.20261883293246 6.74609267336829 49.239078805494515 32.21744735406964
78.7448204950514 6.366792801916805 43.264402431558615 29.113625261576015
67.54346410858972 5.66300797373369 36.5348829928342 25.34557314202179
55.87216260756279 4.864382182019473 29.558844042395208 21.44893638314812
45.000888660630004 4.109095341853265 23.21624694923896 17.675546369537777
35.12865176646338 3.4346386013184578 17.553248296826002 14.140764868318914
26.37990798180351 2.858668307717434 12.642608574576585 10.878631099509498
18.760672117851257 2.3738833741422676 8.478774946796815 7.908013796912162
12.3059282290716 1.9544083961069552 5.079259657801084 5.272260175163563
7.318623659913954 1.5711319144690206 2.673857605237409 3.07363414020753
3.6484215269045257 1.1755044892722468 1.0166551211940538 1.4562619164382267
1.5553239970208967 0.8041830959219066 0.2588024885862428 0.49233841251274657
0.6434534809556168 0.5250035730899214 0.029291647452104157 0.08915826041359123
0.36270386327911575 0.36040319425810796 -0.0009076768741439371 0.003208345895151916
0.2757014237974851 0.27617598272614835 -0.0002841815464583931 -0.00019037738220498672
0.2166931785450329 0.21728947263866527 -8.464941649509779e-05 -0.0005116446771372254
0.13415254238081223 0.1341479567391192 2.4297873480463597e-07 4.342662958242992e-06
0.1146941974847652 0.1146941974847652 0.0 0.0
0.06337621162286702 0.06337621162286702 0.0 0.0
0.10743317650841042 0.10743317650841042 0.0 0.0
0.1955006952731984 0.19566957381816724 -2.2220723988395406e-05 -0.00014665782098045323
0.275807703823976 0.2781868181692013 -0.0005222531964773075 -0.0018568611487480267
0.4116376606140621 0.3997273505212474 -0.00016449158728144755 0.012074801680096075
0.8854100764907299 0.6324199272252831 0.07487711227379767 0.17811303699164915
2.2493509629076978 0.9810334274928131 0.4769725018091667 0.7913450336057191
5.159863374510603 1.417425269069411 1.6594441062425749 2.0829939991986146
9.733029693770433 1.8623372911272829 3.7417974000595495 4.128895002583604
16.22260695444699 2.330152722058338 7.0622721383457945 6.830182094042858
24.35393357411677 2.8400573025687876 11.457538265917831 10.056338005630156
34.024121940617896 3.417565726803784 16.893195352590404 13.713360861223718
45.164187212828956 4.088569340025454 23.331597816332355 17.74402005647112
57.79266675178898 4.8703097526502415 30.79741512221322 22.12494187692551
71.70935461302338 5.744849569047601 39.1436739374182 26.820831106557584
86.4790445743422 6.579620207815012 48.19278628473708 31.706638081790118
101.08741969330887 7.147897387687271 57.50136166378939 36.438160641832205
112.65985758795695 7.099886866487038 65.21741289060014 40.34255783086977
117.52285381734444 6.347626573748532 68.94121313067149 42.2340141129244
111.90093873545986 6.147737021014529 65.36584508558553 40.387356628859784
119.53814997103397 21.19494727099518 60.428192447606904 37.91501025243191
111.90093873541547 6.1477370209836355 65.36584508557654 40.387356628855294
117.52285381728912 6.3476265737262665 68.94121313064936 42.23401411291353
112.65985758788864 7.09988686647909 65.2174128905597 40.34255783084983
101.0874196932333 7.147897387685382 57.50136166374057 36.438160641807364
86.47904457427076 6.579620207817088 48.192786284688694 31.706638081764993
71.70935461293502 5.744849569034132 39.14367393736993 26.820831106530925
57.792666751711295 4.870309752646472 30.79741512216636 22.12494187689846
45.164187212751564 4.08856934001837 23.33159781628876 17.744020056444462
34.0241219405545 3.4175657268036974 16.893195352552073 13.713360861198721
24.353933574056956 2.840057302560898 11.45753826588741 10.056338005608652
16.222606954402295 2.3301527220549523 7.062272138322536 6.830182094024809
9.733029693738933 1.8623372911218488 3.7417974000458583 4.128895002571224
5.159863374492022 1.4174252690677507 1.6594441062341119 2.0829939991901583
2.249350962897735 0.9810334274902524 0.4769725018059131 0.791345033601571
0.8854100764869555 0.6324199272242188 0.07487711227278848 0.17811303698994785
0.4116376606129272 0.39972735052022684 -0.00016449158732847818 0.012074801680028932
0.27580770382335956 0.2781868181684463 -0.0005222531964556417 -0.0018568611486311775
0.19550069527322586 0.19566957381821426 -2.2220723989926174e-05 -0.0001466578209984215
0.10743317650818161 0.10743317650818161 0.0 0.0
0.06337621162274924 0.06337621162274924 0.0 0.0
0.03279577698784748 0.03279577698784748 0.0 0.0
0.0811997117710192 0.0811997117710192 0.0 0.0
0.17196224526477494 0.171955428501107 3.960330448053176e-07 6.420730623111643e-06
0.27684955431057334 0.27942078715133467 -0.0005936633145883645 -0.0019775695261730767
0.49222638821104686 0.45945204459636135 0.005913220119906899 0.026861123494778642
1.2079927323778032 0.7438478228870943 0.14736428976197855 0.3167806197287304
3.1245921342303977 1.1643452984447575 0.8053612089384378 1.1548856268472028
6.723972022366546 1.6426769663148455 2.299007171234327 2.7822878848173698
12.438904000905579 2.1607555771615576 5.054502560379204 5.22364586336482
20.292819574192425 2.7268890273443747 9.160314236491747 8.405616310356315
30.18981102151374 3.343217234583564 14.629550576781448 12.217043210148713
41.99878476495524 4.027011894142694 21.414339962206938 16.557432908605602
55.65947059247591 4.806401682883902 29.49433155277646 21.358737356815574
70.95199152617623 5.701883346208602 38.66711128868461 26.582996891283102
88.02686599414027 6.677566175584433 49.167947612744534 32.18135220581125
106.16042040449489 7.554679040011342 60.58855573719702 38.01718562728647
123.58612147083772 7.917882110934446 71.97733739046063 43.690901969442635
137.403136484219 7.395566268684937 81.66703968647967 48.34053052905447
143.42354844955128 6.315928646224236 86.4978648561865 50.60975494714057
137.707261329063 6.492787276807167 82.49835190324711 48.71612214900877
146.48316887062168 24.34489628865373 76.33140100460824 45.806871577359686
137.70726132905736 6.492787276824439 82.49835190323131 48.71612214900152
143.4235484495273 6.315928646243868 86.49786485615698 50.60975494712649
137.40313648415864 7.3955662686993175 81.66703968642891 48.34053052903032
123.58612147077508 7.9178821109532915 71.97733739040565 43.69090196941616
106.16042040437047 7.554679039979674 60.58855573713542 38.017185627255415
88.02686599404325 6.677566175579709 49.16794761268393 32.18135220577966
70.95199152607917 5.701883346203895 38.667111288624845 26.582996891250396
55.65947059238891 4.806401682882206 29.494331552722564 21.35873735678411
41.9987847648731 4.027011894134836 21.41433996216121 16.55743290857703
30.189811021443294 3.3432172345755675 14.629550576744137 12.21704321012359
20.292819574138605 2.726889027339795 9.160314236463414 8.405616310335402
12.438904000867677 2.160755577158662 5.054502560360241 5.223645863348774
6.72397202234244 1.642676966310997 2.2990071712240217 2.782287884807419
3.124592134217323 1.164345298441869 0.8053612089336681 1.1548856268417842
1.207992732372366 0.7438478228852945 0.14736428976053487 0.31678061972653654
0.49222638820959647 0.4594520445951156 0.005913220119833976 0.026861123494646904
0.2768495543100882 0.2794207871507526 -0.0005936633145765376 -0.0019775695260877877
0.17196224526471954 0.17195542850105255 3.960330447626668e-07 6.4207306222634735e-06
0.08119971177086893 0.08119971177086893 0.0 0.0
0.032795776987888214 0.032795776987888214 0.0 0.0
0.016051573445642977 0.016051573445642977 0.0 0.0
0.05824594522384198 0.05824594522384198 0.0 0.0
0.1492385012863783 0.1492359989617066 1.22441077168008e-07 2.379883594554421e-06
0.2837365688007491 0.28707601548442224 -0.0008148881990363629 -0.002524558484636925
0.6133051493632729 0.5310200529499036 0.020473021344275855 0.061812075069093114
1.6481298992219906 0.8798865960602866 0.27464560816828176 0.4935976949934227
4.080312846753594 1.3358918716299557 1.1581875868103941 1.5862333883132442
8.468409487440544 1.858736479491247 3.0887588975687454 3.520914110380554
15.249759794027593 2.4698787315134956 6.440673151668971 6.339207910845128
24.531798086894977 3.1472225262945654 11.391554101553595 9.993021459046812
36.21748797869016 3.8835501548765077 17.95036792604268 14.383569897770998
50.23951114169463 4.694452059766264 26.138127734381545 19.406931347546823
66.34932378518053 5.592689474290012 35.77477413046948 24.981860180421066
84.69297923954677 6.589916187875845 47.06176154271955 31.041301508951324
104.73443939097001 7.648901867860362 59.56451384540266 37.521023677707014
125.86413854591804 8.532923789018536 73.08132345096567 44.24989130593389
146.3518993481078 8.708799206400418 86.85701136638333 50.786088775324
162.57258711488817 7.750666026739555 98.60782198992132 56.214099098227344
170.1563985330895 6.35254090823465 104.77732178372307 59.02653584113179
165.04848564182615 6.857630000679071 100.93590087596039 57.25495476518674
175.64890378413253 27.434013132824294 94.08784413432026 54.12704651698793
165.04848564179633 6.857630000675099 100.93590087594261 57.25495476517869
170.15639853302062 6.352540908217794 104.77732178368731 59.02653584111547
162.5725871148173 7.750666026751183 98.60782198986442 56.214099098201736
146.3518993479632 8.708799206359597 86.85701136631252 50.78608877529106
125.86413854582389 8.53292378902959 73.08132345089463 44.24989130589956
104.73443939085082 7.648901867854719 59.56451384532711 37.52102367766901
84.69297923944177 6.589916187879505 47.06176154264859 31.04130150891371
66.34932378508236 5.592689474290015 35.77477413040657 24.981860180385723
50.23951114159863 4.694452059759729 26.138127734325586 19.406931347513307
36.21748797860962 3.883550154868487 17.950367925998627 14.3835698977425
24.53179808683322 3.147222526289217 11.391554101520514 9.993021459023486
15.249759793986222 2.4698787315130133 6.440673151646219 6.339207910826992
8.468409487410431 1.8587364794866104 3.0887588975557336 3.52091411036809
4.080312846736536 1.3358918716259958 1.1581875868041065 1.5862333883064332
1.6481298992149898 0.8798865960586412 0.27464560816603606 0.49359769499031164
0.6133051493614377 0.5310200529489375 0.020473021343978208 0.06181207506852212
0.28373656880026266 0.2870760154837348 -0.0008148881990187552 -0.002524558484453164
0.14923850128598531 0.14923599896131678 1.2244107697319608e-07 2.3798835915387224e-06
0.058245945223840606 0.058245945223840606 0.0 0.0
0.016051573445628048 0.016051573445628048 0.0 0.0
0.007725961165544687 0.007725961165544687 0.0 0.0
0.040417486149821165 0.040417486149821165 0.0 0.0
0.13077985134226636 0.13077985134226636 0.0 0.0
0.30489249784359995 0.3089812681926982 -0.001251530732005392 -0.0028372396170927793
0.7866312695644995 0.6154380284165012 0.04737176316414292 0.1238214779838552
2.1918854911543435 1.0169976589144758 0.45231935925460365 0.7225684729852646
5.127677091120017 1.4878581051691397 1.575779740066922 2.0640392458839534
10.321863536101663 2.0783107669602536 3.9574860941394174 4.286066675001994
18.16323255049308 2.787397675940754 7.907985072889839 7.467849801662492
28.88842384567178 3.5893701363345976 13.713224785930237 11.585828923406934
42.44850908279968 4.465576022661768 21.43174411137181 16.551188948766086
58.674456381023454 5.41610622141141 31.00034593906541 22.258004220546674
77.5688415454227 6.453229909650988 42.51074444970293 28.604867186068734
98.59729616322014 7.5528507194921755 55.53530071055378 35.50914473317424
121.66937380440703 8.613156186261742 70.21941402056848 42.83680359757675
145.79265000175147 9.431233875760817 85.985155147166 50.37626097882456
169.1211833085597 9.549834680481197 101.86949885386093 57.70184977421759
188.0268607927699 8.310490739293439 115.78632649527388 63.930043558202584
197.7891078392336 6.400725268593219 123.93195587247897 67.45642669816142
194.28062434546374 7.202083480066915 120.94519171234836 66.13334915304833
207.33107714181625 30.37037482648558 113.88023208308854 63.08047023224204
194.28062434542346 7.202083480060727 120.94519171232437 66.1333491530384
197.78910783913742 6.400725268569807 123.93195587242826 67.4564266981394
188.0268607926481 8.310490739272993 115.78632649520362 63.930043558171484
169.1211833084676 9.54983468051456 101.86949885377479 57.70184977417825
145.79265000158958 9.431233875722802 85.98515514708207 50.37626097878474
121.66937380428807 8.613156186275287 70.21941402047955 42.83680359753325
98.59729616309932 7.552850719494116 55.53530071047254 35.50914473313271
77.56884154530432 6.4532299096439525 42.51074444963061 28.604867186029793
58.67445638091437 5.416106221405337 31.00034593900006 22.25800422050897
42.448509082704064 4.4655760226513355 21.431744111319347 16.5511889487334
28.888423845600038 3.589370136327807 13.71322478589166 11.58582892338057
18.16323255044341 2.7873976759354293 7.907985072864724 7.4678498016432595
10.321863536065889 2.0783107669569048 3.957486094122175 4.2860666749868095
5.127677091100509 1.4878581051660662 1.5757797400591582 2.064039245875285
2.1918854911456376 1.0169976589131025 0.45231935925141165 0.7225684729811243
0.7866312695619025 0.6154380284153339 0.04737176316361785 0.12382147798295108
0.30489249784308503 0.30898126819206373 -0.0012515307319831796 -0.00283723961699571
0.1307798513419216 0.1307798513419216 0.0 0.0
0.04041748614975371 0.04041748614975371 0.0 0.0
0.00772596116555319 0.00772596116555319 0.0 0.0
0.0036716883168821843 0.0036716883168821843 0.0 0.0
0.028231860320400887 0.028231860320400887 0.0 0.0
0.12150819045319616 0.12150819045319616 0.0 0.0
0.3538917958608618 0.3509650285372422 -0.0004149454501556492 0.003341712773775033
1.039471473204685 0.720882667804979 0.1033528891842794 0.21523591621542665
2.8031978892845943 1.1406900370458353 0.6607353043441011 1.0017725478946575
6.296347909591984 1.6394490259212886 2.0867183341844595 2.5701805494862366
12.243526984716267 2.2961678260206044 4.878061260502995 5.069297898192665
21.17400531091938 3.1117565266360634 9.459712231243437 8.602536553039887
33.34171744566561 4.053914897435305 16.110389818827485 13.177412729402809
48.78875581771753 5.084517215965015 24.98736037260086 18.71687822915161
67.44183830017342 6.199524635751385 36.136489118595605 25.105824545826415
88.83486321255221 7.386742974799391 49.214565500876155 32.23355473687668
112.93930679427628 8.5698138583191 64.4005674160936 39.96892551986355
138.96895951888035 9.605782861551441 81.22873722860119 48.1344394287278
165.78297107919343 10.248467707071397 99.09812147521872 56.436381896903214
191.5926106449165 10.230582752172982 116.95376343375979 64.4082644589838
213.43792135010773 9.179462552818467 132.93205703254645 71.3264017647428
225.9609428867368 6.5285590216905 143.58300306706147 75.84938079798486
225.74286366045692 7.319713191121265 142.90091409419793 75.52223637513754
242.25997786558 32.446953665633316 136.82037100014875 72.99265319979799
225.74286366040155 7.319713191110415 142.90091409416715 75.52223637512414
225.9609428866655 6.528559021709119 143.58300306699851 75.84938079795788
213.43792135002076 9.179462552847875 132.93205703246502 71.32640176470784
191.59261064476368 10.230582752158421 116.95376343366377 64.40826445894146
165.78297107905618 10.24846770707935 99.09812147511902 56.436381896857846
138.96895951872963 9.605782861550255 81.22873722849957 48.13443942867977
112.93930679413602 8.569813858316127 64.40056741600182 39.968925519818065
88.83486321241341 7.386742974791305 49.214565500790464 32.2335547368316
67.44183830004809 6.1995246357413505 36.1364891185216 25.105824545785133
48.78875581761333 5.084517215958664 24.987360372539804 18.716878229114858
33.34171744558869 4.053914897432641 16.110389818782764 13.177412729373298
21.174005310860082 3.111756526627 9.459712231214521 8.602536553018565
12.243526984677835 2.296167826018645 4.878061260483221 5.069297898175967
6.2963479095691035 1.6394490259186132 2.08671833417443 2.570180549476059
2.8031978892735983 1.140690037044228 0.660735304339855 1.0017725478895156
1.0394714732012076 0.7208826678031302 0.1033528891836463 0.2152359162144309
0.35389179585989744 0.3509650285363103 -0.0004149454501792642 0.0033417127737666295
0.12150819045308232 0.12150819045308232 0.0 0.0
0.028231860320330794 0.028231860320330794 0.0 0.0
0.0036716883168921898 0.0036716883168921898 0.0 0.0
0.0012241593153188147 0.0012241593153188147 0.0 0.0
0.02101629987852365 0.02101629987852365 0.0 0.0
0.12986624302671687 0.12986624302671687 0.0 0.0
0.4540230058624581 0.42646374534972864 0.005743825711643131 0.021815434801086324
1.3976167992954587 0.9013574932008557 0.1756157839591517 0.32064352213545166
3.579259334192614 1.4656117785618483 0.8692389639887106 1.2444085916420542
7.676187929677822 2.186444286653602 2.512921685946569 2.9768219570776484
14.48804949897498 3.192136342060908 5.622910337516398 5.673002819397675
24.655476995131753 4.542192738967531 10.649025138499633 9.464259117664605
38.60083368009276 6.240576036339702 17.98038492033349 14.379872723419572
56.394114115511584 8.257037348598356 27.787131263475978 20.349945503437315
77.74317347635343 10.545742682722551 39.94083740026764 27.256593393363183
102.48530224596541 13.021984151472289 54.497248109839155 34.96606998465402
130.07097758536258 15.526326110908146 71.21955361059082 43.325097863863675
159.48874796973996 17.679922945552317 89.70380588933475 52.10501913485275
189.1079793519242 18.949821136623427 109.20701931877402 60.95113889652681
216.68378679050835 18.887177715781444 128.4196758516396 69.37693322308724
239.86823091813858 17.63758408639999 145.55182341121173 76.67882342052698
255.62278926698977 15.7300091898578 158.0087974035202 81.88398267361174
251.30627630275646 7.516960779150868 160.70869813828037 83.08061738532537
339.9491376329298 100.17796724896948 157.98271881472172 81.78845156923877
251.30627630272423 7.516960779168821 160.70869813824442 83.08061738531094
255.622789266929 15.730009189894812 158.00879740345076 81.88398267358326
239.86823091796717 17.637584086351865 145.5518234111256 76.67882342048989
216.68378679034436 18.887177715773976 128.419675851531 69.37693322303944
189.1079793517356 18.94982113658789 109.20701931866765 60.951138896479975
159.48874796960104 17.679922945578937 89.70380588922188 52.105019134800294
130.070977585196 15.526326110891423 71.21955361049015 43.325097863814406
102.48530224582134 13.021984151473394 54.49724810974308 34.96606998460489
77.74317347620982 10.545742682704123 39.94083740018695 27.256593393318756
56.39411411539269 8.257037348584857 27.7871312634095 20.34994550339834
38.60083368000508 6.240576036331757 17.98038492028479 14.379872723388534
24.655476995062116 4.542192738953551 10.649025138467191 9.46425911764138
14.48804949892861 3.192136342054013 5.622910337494646 5.673002819379958
7.676187929653054 2.186444286652988 2.512921685934301 2.9768219570657664
3.5792593341798957 1.4656117785602465 0.869238963983753 1.2444085916358951
1.3976167992905384 0.901357493198022 0.17561578395829167 0.32064352213422415
0.4540230058612894 0.4264637453487581 0.005743825711582818 0.02181543480094805
0.12986624302645244 0.12986624302645244 0.0 0.0
0.021016299878470937 0.021016299878470937 0.0 0.0
0.001224159315314148 0.001224159315314148 0.0 0.0
CELL_DATA 800
SCALARS Stress float 6
LOOKUP_TABLE default
173.82580145551606 -528.1825643517105 -182.19716419799173 -111.46194240457301 0.0 0.0
405.80901612323476 -92.18727333584715 115.59066268761298 53.75467254323803 0.0 0.0
427.0584533100373 6.4223815546601974 130.57283050088458 -2.4804242105986933 0.0 0.0
486.23015171652617 -19.058473006544784 156.22907663873576 -16.18481080667472 0.0 0.0
565.6803832162858 -26.352432112274133 221.1802213841558 -11.661329717328787 0.0 0.0
642.5417030691432 -23.625608156312488 291.4007136562972 -10.65175631668281 0.0 0.0
716.7840648420053 -18.595215764671522 342.66819363082004 -11.929450514826382 0.0 0.0
792.7767114739843 -4.701598429600509 390.4299975098258 -14.139168739349278 0.0 0.0
872.6288653157058 18.6708321657361 442.8792905063271 -16.13299996186553 0.0 0.0
955.2013830490313 49.775768510121026 500.19983046260313 -17.33420408361436 0.0 0.0
1038.131397926509 85.76656434330371 560.0198518743127 -17.804674793088747 0.0 0.0
1120.0168582470747 125.26379078939087 620.9778861917799 -17.80811860314625 0.0 0.0
1201.1251504912075 167.50118909546563 682.8393347555595 -17.639471825386654 0.0 0.0
1282.3080031016675 213.05490039013532 746.338698019426 -17.2900615427357 0.0 0.0
1363.955220668948 262.3051429744134 811.8846571053593 -16.59303995577091 0.0 0.0
1445.085002739991 314.37818772050696 878.5658763568422 -15.353006291124174 0.0 0.0
1523.1997643844586 367.1701902908444 944.086540938489 -13.509240976450524 0.0 0.0
1596.343946530719 419.2727181228926 1006.747338728594 -11.55826608790737 0.0 0.0
1666.1495342863843 473.1419900268791 1068.531959076303 -11.693376568584194 0.0 0.0
1778.9718070227623 577.253469349327 1176.5318312008346 -19.94077619615857 0.0 0.0
1778.9718070214913 577.2534693480497 1176.531831199985 19.94077619610473 0.0 0.0
1666.1495342856024 473.141990026143 1068.5319590756953 11.69337656856251 0.0 0.0
1596.34394653106 419.2727181233212 1006.7473387285761 11.558266088168047 0.0 0.0
1523.1997643854136 367.1701902919221 944.0865409390307 13.50924097632946 0.0 0.0
1445.0850027396496 314.37818772030874 878.5658763567124 15.353006291373205 0.0 0.0
1363.9552206679546 262.3051429735856 811.8846571048095 16.593039955744118 0.0 0.0
1282.3080030994647 213.05490038809006 746.338698017953 17.29006154273178 0.0 0.0
1201.1251504914655 167.501189095965 682.8393347557399 17.639471825612933 0.0 0.0
1120.0168582462265 125.26379078877608 620.9778861910924 17.808118603236665 0.0 0.0
1038.1313979259294 85.7665643429794 560.0198518738312 17.80467479310511 0.0 0.0
955.2013830487335 49.77576851010963 500.1998304623713 17.334204083665863 0.0 0.0
872.6288653151706 18.670832165461917 442.87929050597705 16.13299996173164 0.0 0.0
792.7767114731373 -4.701598430197322 390.4299975092334 14.139168739422825 0.0 0.0
716.7840648400239 -18.595215766391263 342.6681936295442 11.92945051485947 0.0 0.0
642.5417030682687 -23.625608156889754 291.4007136556904 10.651756316702091 0.0 0.0
565.6803832159804 -26.352432112305063 221.1802213838971 11.661329717380825 0.0 0.0
486.2301517161397 -19.058473006712145 156.2290766385193 16.18481080677055 0.0 0.0
427.0584533099801 6.422381554861731 130.5728305009293 2.480424210582239 0.0 0.0
405.8090161231278 -92.18727333577348 115.59066268756177 -53.75467254322663 0.0 0.0
173.82580145605567 -528.1825643512552 -182.19716419749363 111.46194240425324 0.0 0.0
73.12838184485176 -553.4233418271128 -243.84007919606117 -163.33228316008282 0.0 0.0
287.45865171175944 -89.212025904943 60.094708433990874 7.2785626065137645 0.0 0.0
376.38554072893 36.01775471462567 123.75408009714937 -9.49584609460538 0.0 0.0
451.89417721433097 -17.796957640611726 137.96385013348473 -36.898523895650186 0.0 0.0
538.6584142579616 -26.186568151639435 198.1145044483909 -33.95927093407316 0.0 0.0
619.690057742671 -23.975759467552322 273.4551744539719 -31.449129914919457 0.0 0.0
697.5304618372398 -18.037194559830297 331.2423773356315 -33.22750257188643 0.0 0.0
774.4101594826061 -4.1197640331653815 380.8384873938835 -36.57491251198072 0.0 0.0
852.5472027783817 17.710684240713547 432.0175407302893 -39.45728802850475 0.0 0.0
931.4625829677461 45.749427204552006 486.11927904514766 -40.7809471217144 0.0 0.0
1009.507623343294 77.66977930576905 541.5194079114266 -40.81045119859047 0.0 0.0
1086.256699952072 112.38916966162947 597.544635535944 -40.23046139568116 0.0 0.0
1161.9569211854046 150.08737626783238 654.4558202032392 -39.40013251202943 0.0 0.0
1237.344052803699 190.59299631665291 712.560082695398 -38.30798864056563 0.0 0.0
1312.5694829475856 233.9163507666975 771.9528385059059 -36.65470666200153 0.0 0.0
1387.1402063280614 279.7425653808053 832.2406518422713 -34.07796419563357 0.0 0.0
1460.344169916477 327.7217443499902 892.8847559974647 -30.655344863158287 0.0 0.0
1532.5348284959198 378.9342673009988 954.5735086306887 -27.57900311095375 0.0 0.0
1612.3941930348055 443.24712268509785 1026.5234341554676 -26.763940504169597 0.0 0.0
1671.7800615713984 493.89435426588585 1081.4489255154028 -28.53080262737666 0.0 0.0
1671.7800615707547 493.89435426524653 1081.448925514951 28.530802627296257 0.0 0.0
1612.3941930344988 443.2471226848339 1026.5234341553478 26.7639405043407 0.0 0.0
1532.534828496326 378.93426730149275 954.5735086310127 27.579003111047292 0.0 0.0
1460.3441699174236 327.72174435105643 892.8847559979954 30.655344863188297 0.0 0.0
1387.1402063270205 279.7425653798626 832.2406518414791 34.077964195515044 0.0 0.0
1312.569482944523 233.91635076378333 771.9528385038531 36.65470666198142 0.0 0.0
1237.344052802658 190.59299631576215 712.5600826946054 38.30798864046334 0.0 0.0
1161.9569211844396 150.08737626708904 654.4558202025821 39.40013251219218 0.0 0.0
1086.2566999518046 112.38916966162003 597.5446355357819 40.23046139583394 0.0 0.0
1009.5076233425044 77.66977930519641 541.519407910984 40.8104511985057 0.0 0.0
931.4625829679525 45.74942720506232 486.1192790453283 40.78094712184573 0.0 0.0
852.5472027790792 17.710684241743905 432.0175407307458 39.457288028785975 0.0 0.0
774.4101594830124 -4.1197640324290035 380.8384873941612 36.57491251209942 0.0 0.0
697.530461836803 -18.03719455997866 331.2423773353527 33.22750257172954 0.0 0.0
619.6900577418444 -23.97575946817893 273.45517445341693 31.449129914643382 0.0 0.0
538.6584142577217 -26.18656815157077 198.1145044481696 33.95927093407004 0.0 0.0
451.8941772143435 -17.79695764023516 137.96385013356036 36.898523895754984 0.0 0.0
376.3855407286925 36.01775471427216 123.75408009697705 9.495846094574006 0.0 0.0
287.4586517118812 -89.21202590456797 60.094708434149744 -7.27856260659763 0.0 0.0
73.12838184510838 -553.4233418268421 -243.84007919577135 163.33228315982632 0.0 0.0
16.32141392811593 -564.2398511778431 -272.4547536891407 -179.7250998405622 0.0 0.0
161.3908639740195 -76.06253700052113 25.598498092049503 -48.42344631201982 0.0 0.0
305.31050073388104 40.594069709250185 103.77137113293934 -34.639688581088286 0.0 0.0
408.18516806332093 -8.399679874922864 122.41602422844684 -57.91832906938765 0.0 0.0
503.3274569801378 -24.87804210673575 173.50300336721057 -58.234745989747005 0.0 0.0
593.0655122884727 -25.298486951894965 250.78749559845903 -53.76441502606558 0.0 0.0
674.2654768861021 -16.605637350576217 317.1865744692786 -54.903565259824205 0.0 0.0
751.525043970611 -3.467420333762135 368.74336023767773 -58.79346459968495 0.0 0.0
828.0948985347834 16.694274420264748 418.8744676449701 -62.140722462247815 0.0 0.0
903.30991180617 41.403455255889014 469.6339881079706 -63.37041947666376 0.0 0.0
976.7260307790784 69.21095959275752 520.7285058152092 -62.97555670049946 0.0 0.0
1048.3464759366923 99.64734831688459 572.083382412251 -61.84067424004844 0.0 0.0
1118.8123556100518 132.38856148056618 623.9281759988485 -60.45181992824483 0.0 0.0
1188.188293114117 167.53470775830866 676.3792605640582 -58.64875985873958 0.0 0.0
1256.8067826303106 204.70284174750634 729.4168905975667 -56.124378537078314 0.0 0.0
1325.0978715011317 244.36721338812242 783.4872071065422 -52.56124214524226 0.0 0.0
1393.9348619606321 287.91615324290746 839.7091528735442 -48.1717105437799 0.0 0.0
1465.6856026166747 338.5894215490815 900.8828933678409 -43.96694044365794 0.0 0.0
1533.473486001607 390.5102419954709 960.6891441413045 -40.053178943396844 0.0 0.0
1582.324722680676 429.72877365343356 1004.6620470277662 -35.673279931906066 0.0 0.0
1582.3247226795102 429.72877365224434 1004.6620470268967 35.67327993169106 0.0 0.0
1533.4734860005294 390.51024199445766 960.6891441402067 40.053178943687406 0.0 0.0
1465.6856026170447 338.58942154953394 900.8828933679838 43.96694044362562 0.0 0.0
1393.9348619595735 287.9161532419351 839.709152873 48.17171054369946 0.0 0.0
1325.0978714993967 244.36721338641303 783.4872071052667 52.56124214483251 0.0 0.0
1256.8067826275683 204.70284174491206 729.4168905956859 56.1243785371816 0.0 0.0
1188.1882931130135 167.53470775737662 676.3792605631488 58.64875985872962 0.0 0.0
1118.8123556093465 132.3885614800364 623.928175998306 60.451819928207286 0.0 0.0
1048.346475934977 99.64734831540352 572.0833824111505 61.840674240121956 0.0 0.0
976.7260307781129 69.21095959202074 520.7285058145183 62.97555670054421 0.0 0.0
903.3099118052671 41.403455255295995 469.6339881073885 63.37041947684675 0.0 0.0
828.0948985333079 16.694274419000834 418.8744676439851 62.1407224620987 0.0 0.0
751.5250439700536 -3.4674203339826875 368.7433602373245 58.79346459984754 0.0 0.0
674.2654768857716 -16.60563735059239 317.18657446903984 54.90356525973303 0.0 0.0
593.0655122878777 -25.298486952238896 250.78749559798962 53.76441502595662 0.0 0.0
503.32745697975304 -24.878042106837412 173.50300336695483 58.234745989809056 0.0 0.0
408.1851680627657 -8.399679875430724 122.41602422813598 57.918329069301556 0.0 0.0
305.3105007337673 40.59406970900626 103.77137113283206 34.639688581084016 0.0 0.0
161.39086397425382 -76.06253700015229 25.59849809223045 48.423446311878905 0.0 0.0
16.32141392825801 -564.2398511777044 -272.45475368894427 179.72509984032354 0.0 0.0
-6.071442578478781 -555.3941501461951 -272.9928745377593 -181.7437592611837 0.0 0.0
90.99306089646703 -69.04478356611577 6.584483199105374 -95.89300677579433 0.0 0.0
238.32742021150685 36.533929941251564 82.4584050458275 -69.14606739288472 0.0 0.0
353.39879356867783 2.0924974692025042 107.0653442754313 -81.01625381648557 0.0 0.0
458.3308748004984 -23.084106574207016 147.7733308250831 -85.15058155365425 0.0 0.0
557.6015959817993 -24.822093411429588 223.72563136892512 -77.77668519387191 0.0 0.0
644.4713695880247 -16.24725713833061 297.56762133607583 -77.19640605222853 0.0 0.0
723.9510780230147 -2.2798851201852557 354.0628173794473 -80.85686485783638 0.0 0.0
798.5998252142456 15.467563887713169 402.9614613689987 -84.15918766854836 0.0 0.0
870.3556526257676 36.85245194410837 450.5803839708095 -85.11768181268822 0.0 0.0
939.3120341290332 60.64047900415876 497.53090950709714 -84.30655543951197 0.0 0.0
1006.0445365246546 86.63226854393548 544.265084249944 -82.69858040574894 0.0 0.0
1071.0117500097924 114.57835289148666 590.9964647425963 -80.7232394329613 0.0 0.0
1134.660890961868 144.2508883316196 637.884354457508 -78.27816249881587 0.0 0.0
1196.803588211877 175.145476621659 684.5773150595228 -75.05765934394736 0.0 0.0
1258.5826332127704 208.62903533327105 732.3077109915135 -70.85317061358472 0.0 0.0
1322.714622178741 247.2909603208341 783.7250334437254 -65.83232106158312 0.0 0.0
1388.5856597722882 291.53135329170493 838.7621961087407 -60.15556096664211 0.0 0.0
1449.895120973952 335.9130034662844 891.5780391374968 -52.91224837751622 0.0 0.0
1495.0766945899986 369.8183131861119 931.0681164750891 -43.1804457032763 0.0 0.0
1495.0766945897851 369.8183131859269 931.0681164748762 43.180445703422954 0.0 0.0
1449.8951209733511 335.91300346576026 891.5780391370772 52.91224837769916 0.0 0.0
1388.585659769404 291.5313532888406 838.7621961067359 60.15556096654519 0.0 0.0
1322.7146221748744 247.29096031703517 783.7250334409741 65.83232106154291 0.0 0.0
1258.5826332108934 208.62903533144834 732.307710990197 70.85317061336949 0.0 0.0
1196.8035882119107 175.14547662189852 684.5773150595546 75.05765934418265 0.0 0.0
1134.6608909608915 144.25088833082208 637.8843544568599 78.27816249890108 0.0 0.0
1071.0117500086264 114.57835289056192 590.9964647417438 80.72323943310315 0.0 0.0
1006.0445365246269 86.63226854420697 544.2650842499538 82.69858040601045 0.0 0.0
939.3120341288156 60.6404790041818 497.530909506939 84.30655543946777 0.0 0.0
870.3556526252984 36.85245194385024 450.58038397043435 85.1176818126336 0.0 0.0
798.5998252143528 15.46756388819702 402.96146136909556 84.15918766875791 0.0 0.0
723.9510780234642 -2.279885119364991 354.0628173797498 80.85686485787403 0.0 0.0
644.4713695877597 -16.24725713828579 297.56762133587256 77.19640605221522 0.0 0.0
557.6015959809305 -24.822093412013643 223.72563136832338 77.7766851938385 0.0 0.0
458.3308748004217 -23.084106573821266 147.7733308250726 85.15058155368449 0.0 0.0
353.3987935684552 2.0924974691180047 107.065344275343 81.01625381632888 0.0 0.0
238.32742021164935 36.533929941434636 82.45840504592519 69.14606739285482 0.0 0.0
90.99306089675207 -69.04478356549342 6.5844831993775905 95.89300677573027 0.0 0.0
-6.071442578445556 -555.3941501460295 -272.9928745375787 181.7437592610341 0.0 0.0
-11.838814526609099 -534.2314167223667 -257.5976378805785 -178.7054475591147 0.0 0.0
53.052250920304836 -63.226165849727735 -3.0521744788268697 -132.8790624988269 0.0 0.0
181.27621804181373 28.94225878202652 63.06554304715206 -104.12979059015298 0.0 0.0
294.0936290793969 9.896695508574888 91.27452386223337 -105.36707139288823 0.0 0.0
401.76507999185833 -19.044061280438573 122.74453888240895 -113.63885742964376 0.0 0.0
511.6402023249915 -23.948764385059345 192.1042693895373 -104.73438988326637 0.0 0.0
607.566409340679 -16.086267184456872 271.95573443469743 -100.75465105839987 0.0 0.0
690.0370430250572 -1.5632555109147717 334.97223146873796 -102.83548875412792 0.0 0.0
763.5212185551821 14.294204484583979 384.00450379820154 -105.52870006327095 0.0 0.0
831.9611336995584 32.15019984771598 428.625696815542 -106.0752156617849 0.0 0.0
896.7120093237071 51.98777366309993 471.6374059825819 -104.80144300107332 0.0 0.0
958.3747968364391 73.46624537524971 513.6514739433692 -102.74524222459044 0.0 0.0
1017.9669055290117 96.47793351717469 555.2745156299706 -100.31390893403758 0.0 0.0
1075.7500251496895 120.86854851812893 596.6199294022381 -97.20617948278701 0.0 0.0
1131.7787101366205 145.94593065301356 637.3842698365024 -93.37905224844098 0.0 0.0
1187.2429951662841 172.87269859440607 678.7084619978505 -88.85703474681608 0.0 0.0
1244.1790681486343 204.2798404718423 722.9175260443674 -83.3850222947154 0.0 0.0
1303.5152828509856 241.13112268756416 770.9988269138914 -76.39053714103036 0.0 0.0
1360.5841294841387 279.4764304472984 818.6755534543864 -66.17766101701402 0.0 0.0
1406.1587432700194 311.29185613967707 857.3007678983759 -51.69601190929352 0.0 0.0
1406.158743268942 311.2918561386139 857.3007678977273 51.69601190924719 0.0 0.0
1360.5841294837642 279.4764304469774 818.675553454292 66.17766101708584 0.0 0.0
1303.5152828515108 241.13112268813967 770.9988269142295 76.3905371410682 0.0 0.0
1244.1790681491298 204.27984047250823 722.9175260446319 83.38502229488745 0.0 0.0
1187.2429951667648 172.87269859499617 678.708461998111 88.85703474677348 0.0 0.0
1131.778710134124 145.94593065066766 637.3842698347783 93.37905224852872 0.0 0.0
1075.7500251477409 120.86854851621933 596.6199294007196 97.20617948257126 0.0 0.0
1017.9669055296488 96.47793351803392 555.2745156304527 100.31390893408667 0.0 0.0
958.3747968350261 73.46624537398105 513.6514739423918 102.74524222447815 0.0 0.0
896.7120093220332 51.98777366156105 471.63740598143806 104.8014430009387 0.0 0.0
831.9611336992839 32.15019984763708 428.62569681531977 106.0752156616845 0.0 0.0
763.5212185555242 14.294204485362457 384.0045037984997 105.52870006354397 0.0 0.0
690.037043024386 -1.5632555112173492 334.97223146832584 102.83548875421428 0.0 0.0
607.5664093404039 -16.086267184388433 271.9557344344473 100.75465105838873 0.0 0.0
511.64020232513303 -23.948764384335814 192.10426938957414 104.73438988337429 0.0 0.0
401.76507999211685 -19.044061279451846 122.74453888270403 113.63885742967699 0.0 0.0
294.0936290793069 9.89669550861645 91.2745238622263 105.36707139280793 0.0 0.0
181.27621804197068 28.942258782264574 63.06554304727056 104.1297905900505 0.0 0.0
53.05225092044043 -63.22616584942564 -3.052174478695562 132.87906249857923 0.0 0.0
-11.838814526557911 -534.2314167221762 -257.59763788038526 178.70544755901864 0.0 0.0
-10.087754491140046 -504.7334317285672 -232.65053494145027 -174.4209530179004 0.0 0.0
31.58099748035739 -57.0359746336291 -7.636540644309853 -160.57049861335372 0.0 0.0
133.34509891890562 20.870867714248483 46.26478998994622 -134.8267771857626 0.0 0.0
234.93756926245337 13.338434568821544 74.48126070964882 -129.9147224889879 0.0 0.0
334.69522833228893 -11.879509713397459 99.89775238457194 -140.62618403041566 0.0 0.0
449.4079844513752 -22.955424085258286 156.20087982847443 -135.315852309739 0.0 0.0
558.0090415136813 -14.988338492771732 238.37635699237973 -126.39502010214184 0.0 0.0
646.5833491935343 -1.9582259949632643 308.5788078566053 -125.29001913022952 0.0 0.0
721.3149302753466 12.805335651057653 360.69882220138754 -126.50916616141836 0.0 0.0
787.0071159333326 27.445905030994908 403.1826059582438 -126.24650229270895 0.0 0.0
847.4922618172224 43.22148514873473 442.27480772291585 -124.47234540902046 0.0 0.0
904.2354755717308 60.259334324436985 479.73063361344254 -121.98427557800221 0.0 0.0
958.161082829968 78.30382087417296 516.1038925859638 -119.13434752683601 0.0 0.0
1010.2509257452615 97.30718973223624 551.9397768655524 -115.58777257242645 0.0 0.0
1060.8132553476626 117.08368044289983 587.3572510351116 -111.19366398747012 0.0 0.0
1109.2567779821763 137.52193893092044 621.9902295209881 -106.24322508271023 0.0 0.0
1157.8902926989892 160.0945311424192 657.6744116381864 -100.64621036645867 0.0 0.0
1209.5195585013741 187.9448036932596 697.4035797657119 -92.95436880774973 0.0 0.0
1263.2452561106606 220.6412328813135 740.5585410255263 -80.48646955099004 0.0 0.0
1312.3043096230824 252.4033541831808 780.8558026142119 -61.938213167060475 0.0 0.0
1312.304309624442 252.40335418449973 780.855802615144 61.938213166915844 0.0 0.0
1263.2452561106875 220.64123288149278 740.5585410256112 80.48646955136897 0.0 0.0
1209.5195584995902 187.94480369152603 697.4035797645945 92.95436880778281 0.0 0.0
1157.8902926980697 160.09453114156986 657.6744116376624 100.6462103664947 0.0 0.0
1109.2567779828357 137.52193893176303 621.9902295213731 106.24322508277518 0.0 0.0
1060.8132553483456 117.08368044378335 587.3572510355227 111.193663987632 0.0 0.0
1010.2509257469144 97.30718973418607 551.9397768668057 115.5877725725557 0.0 0.0
958.1610828308686 78.30382087527653 516.1038925866201 119.13434752696331 0.0 0.0
904.2354755719914 60.25933432501256 479.7306336136248 121.98427557810544 0.0 0.0
847.492261817334 43.22148514918794 442.27480772302647 124.47234540919794 0.0 0.0
787.0071159334217 27.445905031292256 403.1826059582918 126.24650229258708 0.0 0.0
721.3149302750392 12.805335650944158 360.6988222011277 126.50916616136493 0.0 0.0
646.5833491932714 -1.9582259947394505 308.5788078564652 125.29001913042806 0.0 0.0
558.0090415136013 -14.988338492347097 238.37635699228431 126.3950201022565 0.0 0.0
449.4079844506284 -22.95542408564344 156.20087982799646 135.3158523097105 0.0 0.0
334.6952283320325 -11.879509713282367 99.89775238453294 140.62618403041088 0.0 0.0
234.9375692622614 13.33843456862322 74.48126070953951 129.91472248875039 0.0 0.0
133.34509891893552 20.870867714261294 46.26478998995904 134.82677718561743 0.0 0.0
31.580997480422297 -57.035974633405814 -7.636540644223353 160.5704986130453 0.0 0.0
-10.087754490968365 -504.73343172826213 -232.65053494116756 174.4209530177823 0.0 0.0
-4.750470317100962 -468.56668088347453 -201.492949683167 -170.54590979031704 0.0 0.0
17.864242592349665 -51.11095300291355 -9.973810927627541 -180.19415927057594 0.0 0.0
91.7333881667409 13.622216728218998 31.606063501313834 -159.3034564500973 0.0 0.0
176.12013248058383 14.450641541349745 57.17535131951893 -152.8391797573764 0.0 0.0
261.2337380093915 -4.120871402866201 78.48881232175412 -163.77031996168915 0.0 0.0
370.70856607744673 -19.293167852974168 119.59165805097948 -167.82215149820797 0.0 0.0
490.2960617541459 -14.606199488412155 195.03800186026922 -155.88303436159495 0.0 0.0
590.0964880232949 -2.1280022971895445 272.561868338849 -148.9741394998595 0.0 0.0
668.0755921333615 10.486155828529128 329.85382090424054 -147.45993604770408 0.0 0.0
732.8369836194606 22.585640694716034 372.5382745030068 -145.83210406515394 0.0 0.0
789.2602502682786 34.33054639548304 408.13173046150285 -143.33519352698124 0.0 0.0
841.171371524311 47.144511873944694 441.28518596150286 -140.39066383475824 0.0 0.0
889.3380826853324 60.17721441535024 472.39459610110185 -137.21772632836561 0.0 0.0
935.2196243867579 73.72547458377835 502.4649824365401 -133.4040687255632 0.0 0.0
980.0666142313875 88.15531251876756 532.369186514341 -128.57739240937246 0.0 0.0
1023.2415571700567 103.06820146795255 561.6832853726977 -123.0601806699241 0.0 0.0
1062.5812084444174 116.39587770541108 588.2116562664613 -117.26912177296684 0.0 0.0
1103.8916745027593 132.8369660431841 617.0868374738171 -109.78660057791332 0.0 0.0
1153.7571233845035 158.12941659522085 654.5473418752761 -96.4837285406476 0.0 0.0
1209.4515238780223 191.4312525928912 698.8367979522543 -74.96997927330767 0.0 0.0
1209.4515238794252 191.43125259442036 698.8367979530248 74.96997927370616 0.0 0.0
1153.7571233850965 158.1294165959955 654.547341875602 96.4837285409406 0.0 0.0
1103.8916745033703 132.8369660439866 617.0868374741603 109.78660057812087 0.0 0.0
1062.5812084457157 116.39587770688223 588.2116562673414 117.26912177310487 0.0 0.0
1023.2415571699651 103.06820146799299 561.6832853725608 123.06018066997302 0.0 0.0
980.0666142298385 88.15531251721683 532.369186513263 128.577392409196 0.0 0.0
935.2196243865986 73.72547458379711 502.46498243642077 133.40406872564137 0.0 0.0
889.3380826851876 60.17721441543506 472.39459610099055 137.2177263285131 0.0 0.0
841.1713715229467 47.14451187270896 441.28518596058393 140.39066383471857 0.0 0.0
789.2602502676929 34.33054639524593 408.13173046107863 143.33519352712105 0.0 0.0
732.8369836188403 22.585640694099396 372.53827450250856 145.83210406490193 0.0 0.0
668.0755921331712 10.486155828597276 329.85382090411656 147.45993604764706 0.0 0.0
590.0964880222143 -2.1280022982237625 272.5618683380372 148.9741394996314 0.0 0.0
490.29606175363165 -14.60619948869811 195.03800185984713 155.88303436142314 0.0 0.0
370.70856607704025 -19.293167853029235 119.591658050747 167.82215149814027 0.0 0.0
261.23373800936105 -4.120871402690601 78.4888123217894 163.77031996148492 0.0 0.0
176.12013248035868 14.450641540930528 57.175351319330666 152.83917975717839 0.0 0.0
91.73338816657898 13.622216727932091 31.60606350117982 159.30345645001387 0.0 0.0
17.864242592381075 -51.11095300267795 -9.9738109275476 180.19415927053464 0.0 0.0
-4.7504703169961005 -468.5666808830845 -201.4929496828724 170.54590979026648 0.0 0.0
0.8529383617702777 -427.06804669977 -168.1113101313485 -168.0369692733677 0.0 0.0
5.937034138138643 -46.28818205874447 -12.105776377274791 -191.9128136594976 0.0 0.0
53.91618280432112 7.919137573974125 18.55281766390809 -177.47467091182537 0.0 0.0
118.03435531363684 15.303249596710852 40.034444474694965 -171.9400261189376 0.0 0.0
185.8124269785771 1.5241184841382882 56.965054794103345 -183.376190697993 0.0 0.0
273.71115055677353 -11.669275434384078 84.62207729174125 -196.1430657436174 0.0 0.0
393.97538445548025 -13.137060476814696 142.80343736829718 -190.21706826172414 0.0 0.0
510.6065302739802 -2.8905554409629355 221.12924205885398 -176.25049481578426 0.0 0.0
597.7209071758627 7.861529380507394 286.35825837535856 -169.15611831689193 0.0 0.0
662.9356473413898 17.219119608068375 332.01430479675554 -165.06709581506664 0.0 0.0
716.6023486849978 25.24525821679316 366.03587384422326 -161.61855360561907 0.0 0.0
763.4233131330236 33.99754775260191 395.22385920783876 -158.04128298984105 0.0 0.0
805.7010400557276 42.407159536777215 421.3608266902465 -154.46995276063947 0.0 0.0
844.9403717791693 50.37684837745978 445.4753417026138 -150.595254677363 0.0 0.0
883.3600992726955 58.881581495515675 469.2609219362327 -145.74864184579465 0.0 0.0
921.8290618297934 68.75734650770323 493.7084675821784 -139.51829551994564 0.0 0.0
955.79360735417 75.9368455227609 514.6540211178574 -132.96209711543386 0.0 0.0
983.2856522239997 77.73191618507002 529.4519700634381 -126.31197475057698 0.0 0.0
1023.8142288313982 90.22218061403629 555.6993114014228 -114.51473480235578 0.0 0.0
1088.8734489835952 125.72101729036811 605.5472702729977 -92.39053532089824 0.0 0.0
1088.8734489833057 125.72101729013508 605.5472702729398 92.39053532112246 0.0 0.0
1023.8142288319837 90.2221806146805 555.6993114017865 114.51473480248525 0.0 0.0
983.2856522242059 77.73191618552647 529.4519700634557 126.31197475085087 0.0 0.0
955.7936073539959 75.93684552265034 514.6540211176055 132.96209711544495 0.0 0.0
921.8290618296227 68.75734650767038 493.70846758209746 139.5182955199142 0.0 0.0
883.3600992735345 58.88158149651912 469.2609219367239 145.74864184587142 0.0 0.0
844.9403717794347 50.37684837809675 445.4753417027716 150.59525467765422 0.0 0.0
805.7010400553049 42.407159536501496 421.3608266898883 154.46995276074307 0.0 0.0
763.4233131328934 33.997547752766195 395.22385920776435 158.04128298994414 0.0 0.0
716.6023486849118 25.24525821689349 366.03587384419313 161.61855360555646 0.0 0.0
662.9356473417997 17.219119608686412 332.0143047969603 165.06709581503344 0.0 0.0
597.7209071766171 7.8615293819939325 286.3582583759228 169.15611831720796 0.0 0.0
510.6065302732733 -2.890555441305594 221.12924205840514 176.25049481580442 0.0 0.0
393.97538445483616 -13.13706047709486 142.80343736787518 190.21706826171533 0.0 0.0
273.71115055663785 -11.669275434122271 84.62207729173997 196.14306574344488 0.0 0.0
185.8124269784031 1.5241184839693318 56.96505479400224 183.37619069770116 0.0 0.0
118.03435531394385 15.303249597349907 40.03444447498403 171.94002611873947 0.0 0.0
53.916182804203956 7.919137573981761 18.55281766387883 177.47467091170475 0.0 0.0
5.937034137964934 -46.288182058943356 -12.105776377387917 191.91281365930286 0.0 0.0
0.852938361649251 -427.0680466996769 -168.11131013123676 168.036969273306 0.0 0.0
3.7138257497279668 -380.9708548606844 -136.31796323952597 -165.62042291837392 0.0 0.0
-8.493236623953003 -43.92380699389678 -15.733840075826922 -197.57389898954847 0.0 0.0
18.139763089232577 4.391620893416983 6.767797998763005 -189.48266850090553 0.0 0.0
61.40405002313259 16.47633842668115 23.410485978372748 -186.2501408690294 0.0 0.0
108.35388009824337 6.0012263417464675 34.78033223275571 -198.63147303744216 0.0 0.0
165.69189358118655 -4.010322034618143 50.93751858156985 -216.41050531297185 0.0 0.0
259.550708847264 -6.803642442390997 86.56983183775216 -223.02598689952495 0.0 0.0
383.5558995008993 -3.0901919818075694 148.17384261779995 -210.49678848414834 0.0 0.0
489.63002199252446 5.102074338396164 216.85243033587392 -194.4437919468587 0.0 0.0
561.134357722736 11.12849911817353 268.9728213799409 -184.90471621135822 0.0 0.0
612.7135672395835 16.467947365050435 305.35398885841397 -179.41226000430507 0.0 0.0
654.1442573150323 20.698768735587592 332.0023579323098 -175.0792472748046 0.0 0.0
690.133753496445 24.851221944141543 354.0892942290665 -170.97577104525547 0.0 0.0
722.2960727300328 27.757810414454468 372.7261385413973 -166.94036557662736 0.0 0.0
752.9003998447229 29.833798151546944 389.6552646245576 -162.35580563823186 0.0 0.0
784.9907032492558 32.854200248808326 407.5039303639725 -156.28166911414294 0.0 0.0
819.276865806507 37.37520744224611 427.20579598627273 -148.15101994005542 0.0 0.0
841.7451690427382 31.39850495222595 436.0665462786217 -140.79884884066257 0.0 0.0
858.0563700238799 15.475178053024536 436.0072018844454 -133.6998522511338 0.0 0.0
931.8685451216991 48.78477228938283 488.38902811220584 -117.12775572465326 0.0 0.0
931.8685451216144 48.7847722893336 488.3890281121337 117.1277557247547 0.0 0.0
858.0563700204422 15.475178049345175 436.0072018822321 133.69985225098995 0.0 0.0
841.7451690387879 31.39850494772901 436.0665462760121 140.79884884037506 0.0 0.0
819.2768658051756 37.375207440677855 427.20579598542224 148.15101994000673 0.0 0.0
784.9907032499889 32.85420024993215 407.50393036443126 156.28166911437745 0.0 0.0
752.9003998461612 29.83379815365737 389.6552646256264 162.35580563859844 0.0 0.0
722.2960727295716 27.75781041415479 372.72613854113786 166.94036557676841 0.0 0.0
690.1337534956065 24.851221943316915 354.0892942284143 170.97577104518527 0.0 0.0
654.144257314368 20.698768735047906 332.002357931838 175.07924727484487 0.0 0.0
612.7135672388138 16.467947364450723 305.3539888579261 179.41226000436495 0.0 0.0
561.1343577215562 11.128499116952483 268.97282137913504 184.90471621120733 0.0 0.0
489.63002199172985 5.102074337583083 216.8524303352611 194.4437919467611 0.0 0.0
383.55589949979776 -3.0901919829581246 148.17384261699902 210.4967884839735 0.0 0.0
259.55070884664724 -6.803642442900317 86.56983183735183 223.0259868993802 0.0 0.0
165.69189358161535 -4.010322033339003 50.937518582068456 216.41050531277574 0.0 0.0
108.35388009863897 6.001226342642255 34.780332233143504 198.63147303729008 0.0 0.0
61.404050023017106 16.476338426442542 23.41048597826888 186.2501408688072 0.0 0.0
18.139763089214988 4.391620893679143 6.767797998837622 189.48266850057507 0.0 0.0
-8.49323662405897 -43.92380699387405 -15.733840075854705 197.5738989893408 0.0 0.0
3.7138257498020906 -380.9708548603894 -136.31796323932053 165.6204229182425 0.0 0.0
2.781947877672639 -331.0102239972369 -107.9356780163065 -161.2374589705744 0.0 0.0
-27.055222836926543 -44.842731915120176 -21.585270547529234 -199.00991968223207 0.0 0.0
-16.467408615382098 3.250070206404324 -3.967752749883353 -196.30978071883152 0.0 0.0
6.479928299498373 17.768985377785256 7.296714958811812 -195.3096341620278 0.0 0.0
30.1334274487507 10.67721301706483 12.402009757986741 -207.67683997312187 0.0 0.0
53.162129853673044 1.8810539073745742 17.23492622133174 -227.8349284838077 0.0 0.0
88.33760093717302 -1.0143361618689735 28.531785374272918 -242.43643485647698 0.0 0.0
156.63076409871786 1.3780800502468562 53.713515193255326 -242.80589180921362 0.0 0.0
250.96069957523176 5.655581126101605 93.59310274372395 -227.03386758772072 0.0 0.0
333.81348059722364 7.170361932698924 137.60541720828184 -209.90721109255674 0.0 0.0
390.64882941639814 8.480657696678946 175.91214021479078 -198.0095635704149 0.0 0.0
426.74343952251974 8.60676328152148 203.57926856020745 -191.04237901830453 0.0 0.0
453.4367121977841 8.35799220952984 224.2996228694172 -185.8771383500649 0.0 0.0
476.37269625700793 5.898391398845405 239.68418769052676 -181.3666258826314 0.0 0.0
499.84114054956325 1.5390637252474448 252.00331073158048 -176.98303063398268 0.0 0.0
528.5905801705704 -3.6893135461842803 264.47872960183366 -172.0191035702092 0.0 0.0
566.86290166829 -6.36666728824963 281.781898483414 -164.59663613581404 0.0 0.0
612.8787494233028 -5.85669424152411 304.702256499011 -153.67953048832203 0.0 0.0
626.0800213366917 -41.10975789203542 294.3233201631509 -146.98063937053084 0.0 0.0
668.4789438708673 -64.90657390382958 300.08909152591707 -149.92268403281216 0.0 0.0
668.4789438723946 -64.90657390213977 300.0890915269303 149.92268403308964 0.0 0.0
626.08002133745 -41.109757890636104 294.3233201637546 146.980639371261 0.0 0.0
612.8787494238086 -5.856694240401282 304.702256499423 153.67953048902154 0.0 0.0
566.8629016698063 -6.366667285781091 281.78189848452445 164.5966361362439 0.0 0.0
528.5905801700361 -3.689313547188874 264.47872960134464 172.01910356993113 0.0 0.0
499.84114054814665 1.5390637236396287 252.00331073066684 176.9830306339682 0.0 0.0
476.3726962562562 5.898391397355965 239.6841876898543 181.36662588259483 0.0 0.0
453.43671219726446 8.357992209017567 224.29962286914395 185.8771383501494 0.0 0.0
426.7434395225536 8.606763281471231 203.5792685601547 191.04237901823808 0.0 0.0
390.6488294160091 8.480657696272417 175.91214021450477 198.0095635703653 0.0 0.0
333.8134805968162 7.170361932202056 137.6054172079235 209.90721109241684 0.0 0.0
250.9606995744568 5.655581124999209 93.59310274314511 227.0338675878087 0.0 0.0
156.63076409804444 1.3780800495482985 53.713515192809304 242.80589180921072 0.0 0.0
88.33760093724422 -1.0143361613747288 28.531785374442954 242.4364348564108 0.0 0.0
53.162129853539476 1.8810539068677485 17.23492622113948 227.834928483522 0.0 0.0
30.133427448555622 10.677213016491725 12.402009757755724 207.6768399727894 0.0 0.0
6.479928299426452 17.768985377654047 7.29671495875126 195.30963416179623 0.0 0.0
-16.46740861537462 3.250070206450781 -3.9677527498679 196.30978071871465 0.0 0.0
-27.055222837029806 -44.84273191509794 -21.585270547559237 199.00991968213415 0.0 0.0
2.7819478777531472 -331.0102239969132 -107.93567801611209 161.2374589703145 0.0 0.0
-7.150364731305288 -279.2488434237 -87.71927658971774 -152.5704854198023 0.0 0.0
-47.571908343539675 -47.381665611912744 -28.5124925932334 -198.34178545401292 0.0 0.0
-50.240032894070616 3.6022023482887917 -14.030908277095868 -198.70771915703455 0.0 0.0
-46.77311007032003 18.940869340248103 -8.414849254575937 -198.89435732416723 0.0 0.0
-47.16666180816491 15.40771053150413 -9.735208424427938 -209.8478153184103 0.0 0.0
-60.26188371053166 7.278446553820126 -16.705489130875037 -228.72411614210813 0.0 0.0
-92.00535945650509 2.5586342303076535 -29.293224285209167 -242.60947749742152 0.0 0.0
-157.92219494979582 -0.8863948243211262 -54.06516208122723 -243.0505794766587 0.0 0.0
-250.85285330478126 -5.351550070495794 -93.49251942434778 -227.17399969999443 0.0 0.0
-333.5119553223939 -6.54913261622859 -137.28653033919812 -209.8814068904532 0.0 0.0
-390.95312935688395 -6.7640369692718 -175.29034716952134 -197.7878757373743 0.0 0.0
-428.86246070913666 -7.173976697643937 -203.79569755995718 -190.56831480754866 0.0 0.0
-458.1656269681264 -10.354667493870778 -227.15928217461905 -185.70779201750275 0.0 0.0
-481.06501963930737 -16.639565020283015 -247.25605598397658 -182.64908482090655 0.0 0.0
-495.476040336812 -25.94824065519819 -264.17860284068604 -181.22592887911202 0.0 0.0
-497.958914004525 -37.19594165763729 -276.96993314188086 -180.89102862074606 0.0 0.0
-479.73217065772485 -47.46703226703744 -282.2198902515144 -180.600474601879 0.0 0.0
-411.54389294577385 -39.3448027510712 -263.4002654690141 -180.23449645612362 0.0 0.0
-231.0256653456699 -43.3575791603746 -206.36625625097628 -183.31011771095672 0.0 0.0
-38.408686326406496 -175.3769267777151 -76.02362742780741 -183.43362069079762 0.0 0.0
-38.408686324455175 -175.37692677461985 -76.02362742633352 183.43362069105112 0.0 0.0
-231.0256653447983 -43.357579158719375 -206.3662562502139 183.31011771133362 0.0 0.0
-411.54389294674024 -39.34480275250206 -263.40026546972666 180.23449645648157 0.0 0.0
-479.73217065784644 -47.46703226736713 -282.21989025159195 180.60047460200713 0.0 0.0
-497.9589140055825 -37.19594165933725 -276.969933142704 180.89102862071678 0.0 0.0
-495.476040338603 -25.94824065732047 -264.1786028419202 181.22592887912407 0.0 0.0
-481.0650196399363 -16.63956502198107 -247.25605598464932 182.64908482103453 0.0 0.0
-458.1656269683923 -10.354667494490712 -227.15928217483037 185.70779201764566 0.0 0.0
-428.86246070866764 -7.173976697473265 -203.79569755965326 190.56831480739993 0.0 0.0
-390.9531293567956 -6.764036970128146 -175.29034716959973 197.78787573730528 0.0 0.0
-333.51195532211403 -6.549132616952917 -137.28653033918349 209.88140689037135 0.0 0.0
-250.85285330377815 -5.351550069892788 -93.49251942378896 227.17399970006474 0.0 0.0
-157.92219494908898 -0.8863948237336885 -54.06516208080064 243.0505794766549 0.0 0.0
-92.00535945593802 2.5586342309824346 -29.293224284813448 242.60947749727472 0.0 0.0
-60.261883710333294 7.27844655353262 -16.70548913089695 228.72411614193413 0.0 0.0
-47.16666180803561 15.407710531566009 -9.7352084243693 209.84781531820474 0.0 0.0
-46.77311007018808 18.94086934054377 -8.41484925444844 198.89435732401964 0.0 0.0
-50.24003289398378 3.602202348310656 -14.030908277065794 198.7077191569066 0.0 0.0
-47.57190834369112 -47.38166561217021 -28.512492593365742 198.34178545389358 0.0 0.0
-7.150364731502945 -279.24884342350794 -87.71927658972002 152.57048541973313 0.0 0.0
-21.09755361635463 -228.82296812375375 -74.98325432198254 -139.8853088773029 0.0 0.0
-66.12725361095721 -48.202387442409396 -34.326238521849106 -194.99861795198314 0.0 0.0
-83.21532356147242 4.023607378714399 -23.83762301913523 -197.25059576495613 0.0 0.0
-98.34968834012525 19.986152304360758 -23.684456124361326 -197.16421622775673 0.0 0.0
-122.64592468199083 19.32637352290053 -31.679809097592017 -204.92259559781297 0.0 0.0
-171.22902655474908 12.636626607530772 -50.42401544739558 -218.5773115840969 0.0 0.0
-260.892170729366 8.236306536750334 -86.97343088413297 -224.04477387631368 0.0 0.0
-382.9863055846538 3.4901745144052114 -148.04761140901496 -211.15339333183212 0.0 0.0
-489.1286778159192 -4.810950330871151 -216.56437921945593 -194.65866242777167 0.0 0.0
-560.6531922080196 -10.502753165894148 -268.50924550361026 -184.85544556815634 0.0 0.0
-612.21013359269 -15.121025020192974 -304.5157871923965 -179.0225129195958 0.0 0.0
-654.4964026518453 -19.40283089957967 -331.49026278432007 -174.1958367166295 0.0 0.0
-692.9320210221942 -26.43170010301168 -356.02553362661916 -170.22484654649523 0.0 0.0
-728.9496262807672 -36.860025268297875 -380.2777096968868 -168.12340726149586 0.0 0.0
-762.4510742485501 -50.73679528916571 -404.79524431417093 -168.1662289288126 0.0 0.0
-791.0941406901079 -66.58767678736052 -427.8936805901138 -170.25033219944098 0.0 0.0
-809.8797915645226 -80.99886904126936 -445.46153986733947 -174.9121979075682 0.0 0.0
-818.177807980893 -94.25745001166518 -456.98178098674134 -182.1481291579863 0.0 0.0
-848.8395730591343 -146.7977558497239 -500.0264018083208 -191.87048810262203 0.0 0.0
-876.683929418142 -245.16140410337786 -564.60709264325 -210.2152831148044 0.0 0.0
-876.6839294172598 -245.16140410229542 -564.6070926426086 210.21528311493273 0.0 0.0
-848.8395730597233 -146.79775585055853 -500.0264018088162 191.870488102866 0.0 0.0
-818.1778079809304 -94.25745001159044 -456.981780986747 182.14812915812328 0.0 0.0
-809.8797915642238 -80.99886904133336 -445.4615398672134 174.9121979076999 0.0 0.0
-791.0941406896515 -66.58767678684703 -427.8936805896656 170.25033219930782 0.0 0.0
-762.4510742470972 -50.736795287847144 -404.795244313201 168.16622892878524 0.0 0.0
-728.94962627874 -36.86002526603957 -380.2777096954835 168.12340726133797 0.0 0.0
-692.9320210227086 -26.431700103959315 -356.02553362698234 170.2248465467336 0.0 0.0
-654.4964026512554 -19.40283089929696 -331.4902627839308 174.1958367166562 0.0 0.0
-612.2101335920255 -15.121025019866693 -304.51578719194373 179.022512919564 0.0 0.0
-560.6531922073 -10.50275316558885 -268.5092455031378 184.85544556821395 0.0 0.0
-489.1286778151716 -4.810950330442505 -216.56437921892655 194.6586624278138 0.0 0.0
-382.9863055845193 3.4901745139908655 -148.04761140891574 211.15339333185133 0.0 0.0
-260.8921707295242 8.236306535282514 -86.9734308845193 224.04477387639884 0.0 0.0
-171.22902655443096 12.636626607027397 -50.42401544743235 218.5773115839486 0.0 0.0
-122.64592468169539 19.326373523171227 -31.679809097422634 204.9225955975754 0.0 0.0
-98.34968833996363 19.986152304660273 -23.684456124225708 197.16421622759617 0.0 0.0
-83.21532356119084 4.023607379161074 -23.837623018919796 197.25059576486643 0.0 0.0
-66.12725361090838 -48.202387442293656 -34.32623852180551 194.9986179518554 0.0 0.0
-21.09755361642313 -228.82296812345712 -74.98325432192962 139.88530887705525 0.0 0.0
-28.791744628854516 -181.32959287951613 -63.03640125251119 -124.77904542175833 0.0 0.0
-81.46122526102775 -46.4580875222835 -38.37716991366466 -187.88113066546282 0.0 0.0
-114.97491381010312 4.06897997842239 -33.35846697723814 -191.87596498447698 0.0 0.0
-148.1876272829015 20.56375374640302 -38.582617179388144 -190.17674015501598 0.0 0.0
-195.55025154533055 22.15604365107376 -53.37316356892555 -193.5524513578362 0.0 0.0
-275.21337267905096 18.999795405774403 -83.92215255760493 -199.33900184827638 0.0 0.0
-392.5862044660684 14.502396225779673 -142.37666401247637 -191.8749804506351 0.0 0.0
-509.6512005130661 3.313083612627011 -220.6284088221053 -176.90105060747666 0.0 0.0
-597.3902349790774 -7.679403735636242 -286.13488863448504 -169.2595023728692 0.0 0.0
-662.5791180796447 -16.768792265722027 -331.6601034970662 -165.03646394875796 0.0 0.0
-716.2219484137659 -24.268737347109266 -365.39473781952427 -161.18956313627774 0.0 0.0
-763.5746224696499 -32.894583948195816 -394.7139668178379 -156.88645899523615 0.0 0.0
-807.8400702160657 -43.410409157055426 -422.76595751145123 -153.09336007709388 0.0 0.0
-850.9091818337004 -57.54176639136301 -451.79219574860736 -150.99961281698117 0.0 0.0
-893.1569161501524 -75.8311809283999 -482.46000935770303 -151.3850647503235 0.0 0.0
-932.0154015739477 -96.48537982198104 -512.6596251366865 -154.4961708163731 0.0 0.0
-966.0766720491246 -118.23339805857785 -540.9296954367148 -159.80024225125806 0.0 0.0
-1003.7572440602978 -151.04226228524493 -576.5227401056727 -165.62695310676867 0.0 0.0
-1049.5146301046677 -202.21192457675477 -625.0614460380409 -170.31237812951406 0.0 0.0
-1159.8996398376491 -343.6813743937955 -750.6854054229977 -172.66524696227725 0.0 0.0
-1159.8996398377972 -343.68137439409463 -750.6854054233638 172.6652469624486 0.0 0.0
-1049.5146301057232 -202.2119245780068 -625.0614460390734 170.31237812973438 0.0 0.0
-1003.7572440590673 -151.0422622838941 -576.5227401048899 165.62695310656926 0.0 0.0
-966.0766720482654 -118.2333980576953 -540.9296954361796 159.80024225114195 0.0 0.0
-932.0154015755911 -96.48537982386918 -512.6596251379472 154.49617081652957 0.0 0.0
-893.1569161518644 -75.83118093077002 -482.4600093590272 151.38506475083005 0.0 0.0
-850.9091818335046 -57.54176639135291 -451.7921957484948 150.99961281702045 0.0 0.0
-807.8400702165086 -43.41040915789313 -422.7659575118279 153.09336007724457 0.0 0.0
-763.5746224697798 -32.89458394849793 -394.71396681793266 156.88645899519258 0.0 0.0
-716.2219484136599 -24.26873734732581 -365.3947378195589 161.18956313624233 0.0 0.0
-662.5791180796468 -16.768792265997956 -331.66010349710825 165.0364639487152 0.0 0.0
-597.3902349791686 -7.679403736188977 -286.13488863460327 169.2595023729483 0.0 0.0
-509.6512005123407 3.3130836131223202 -220.6284088215497 176.9010506074089 0.0 0.0
-392.58620446482456 14.502396226665004 -142.3766640116632 191.87498045057592 0.0 0.0
-275.21337267836816 18.99979540599525 -83.92215255727345 199.33900184815315 0.0 0.0
-195.55025154524805 22.15604365060909 -53.373163569042944 193.5524513577168 0.0 0.0
-148.18762728306018 20.563753745766267 -38.58261717963355 190.1767401549775 0.0 0.0
-114.97491381011184 4.068979978190466 -33.35846697731668 191.87596498427615 0.0 0.0
-81.46122526119609 -46.458087522689596 -38.377169913839616 187.8811306653713 0.0 0.0
-28.79174462886232 -181.32959287949163 -63.03640125250618 124.77904542175831 0.0 0.0
-31.460904473097077 -137.77732185728786 -50.77146789911548 -108.52365904559299 0.0 0.0
-93.97542759652049 -42.445040852276954 -40.9255573159211 -176.17758726127565 0.0 0.0
-144.99800939276543 3.786111850319621 -42.437525741775346 -182.4631139705811 0.0 0.0
-196.1267916475042 20.102054134732718 -53.23563834608139 -178.21886710581248 0.0 0.0
-264.7133552738306 25.02052022700607 -74.44256083896497 -176.71027652977628 0.0 0.0
-367.72620176797 24.898471946970183 -118.38148476037078 -171.91323682931696 0.0 0.0
-488.07283506240776 16.22185479270445 -193.7380032135859 -157.6006022130178 0.0 0.0
-589.6038672556984 2.2873990480003243 -272.2263687524042 -149.2697375559946 0.0 0.0
-667.9278282365453 -10.417103757932495 -329.76272604795633 -147.51974237432498 0.0 0.0
-732.6565012750228 -22.33107703994122 -372.34003165520323 -145.80824587923925 0.0 0.0
-789.1577743157916 -33.790944578281284 -407.8217468658986 -142.8899691230084 0.0 0.0
-841.347781370373 -46.38252700062412 -440.97779458661404 -139.10043179254774 0.0 0.0
-890.5219256817719 -60.41384713931882 -473.019004636673 -135.43514354203035 0.0 0.0
-938.8053145290063 -78.01311807502861 -506.24318991238954 -133.2453445337032 0.0 0.0
-987.1690016801853 -100.20658306100938 -541.7695413636484 -133.78570024749948 0.0 0.0
-1035.7763038212352 -127.50336053580395 -579.9687366108041 -137.16968434727593 0.0 0.0
-1085.8167610942708 -161.63361288102269 -622.2742507159799 -142.1032251205622 0.0 0.0
-1140.6451192534983 -206.67759044264034 -672.3087096475602 -145.95594422757188 0.0 0.0
-1216.5126308345316 -281.9062428377571 -747.7152896498476 -145.2622134662954 0.0 0.0
-1316.9131494362184 -404.8744633244768 -859.4914510642936 -141.78683483343485 0.0 0.0
-1316.9131494361404 -404.87446332460615 -859.4914510641627 141.7868348337028 0.0 0.0
-1216.5126308339184 -281.90624283738674 -747.7152896492148 145.26221346666597 0.0 0.0
-1140.6451192532443 -206.67759044264625 -672.3087096473157 145.9559442278955 0.0 0.0
-1085.8167610932187 -161.6336128800538 -622.2742507151995 142.10322512059764 0.0 0.0
-1035.7763038214066 -127.50336053610818 -579.9687366108625 137.16968434730475 0.0 0.0
-987.1690016799018 -100.20658306101194 -541.7695413635868 133.7857002477869 0.0 0.0
-938.8053145289446 -78.01311807517702 -506.24318991243007 133.24534453365675 0.0 0.0
-890.5219256820665 -60.413847139700714 -473.0190046367885 135.43514354184651 0.0 0.0
-841.3477813711409 -46.382527001737664 -440.97779458713217 139.1004317927117 0.0 0.0
-789.1577743156442 -33.79094457846142 -407.8217468657623 142.88996912308613 0.0 0.0
-732.6565012754941 -22.33107704100395 -372.34003165554344 145.80824587948518 0.0 0.0
-667.9278282362347 -10.417103757929889 -329.7627260477314 147.5197423742979 0.0 0.0
-589.6038672560509 2.2873990472491172 -272.2263687525078 149.2697375559639 0.0 0.0
-488.0728350618094 16.221854792865386 -193.7380032131103 157.60060221299176 0.0 0.0
-367.72620176707255 24.89847194743694 -118.3814847598892 171.91323682933455 0.0 0.0
-264.7133552727638 25.02052022831063 -74.4425608382693 176.7102765296602 0.0 0.0
-196.1267916471435 20.102054134829107 -53.23563834595564 178.21886710577925 0.0 0.0
-144.9980093928601 3.7861118500907174 -42.43752574188196 182.4631139705188 0.0 0.0
-93.97542759630811 -42.44504085204033 -40.925557315787245 176.17758726117157 0.0 0.0
-31.46090447297131 -137.77732185713674 -50.77146789903241 108.52365904560153 0.0 0.0
-32.71190218313311 -99.03978957678163 -39.52550752797442 -91.69250920044041 0.0 0.0
-104.6625814227038 -36.51049735048798 -42.351923631957526 -160.00490266834595 0.0 0.0
-173.1386614822399 3.2540666171564077 -51.00732423859934 -168.56995703358257 0.0 0.0
-242.4333907570124 19.029323815418827 -67.47561647039387 -161.96685899694884 0.0 0.0
-330.6971908249991 28.110415325493015 -95.61129975259249 -154.74055987869792 0.0 0.0
-445.15415430460996 27.58599636699296 -154.14852957681694 -139.8883729150637 0.0 0.0
-556.3901577871211 16.231472056751258 -237.05930774950912 -127.21437807542819 0.0 0.0
-646.4857901241901 1.8802665689835578 -308.5247554780011 -125.37386426614077 0.0 0.0
-721.2855103148886 -12.806408488450828 -360.69645760829536 -126.56554690936106 0.0 0.0
-787.0375128946584 -27.386127153350884 -403.1669405284319 -126.20727961280294 0.0 0.0
-847.7113077875758 -43.14628202382727 -442.3414408079386 -124.02812124257377 0.0 0.0
-904.4852324799435 -59.93277073924574 -479.6950868162641 -120.7358413822692 0.0 0.0
-958.1009477341959 -77.67873562496297 -515.7460522110329 -117.307371643013 0.0 0.0
-1010.6107331439174 -98.15070490162663 -552.4497104936692 -115.05189095949166 0.0 0.0
-1065.1274932046645 -124.56363156671858 -593.0548187764622 -115.32130927160007 0.0 0.0
-1123.8701447016801 -159.98769586565356 -640.2710251904075 -118.31326011516114 0.0 0.0
-1188.7703641980431 -206.26257817650824 -695.9630047238477 -122.5354729133756 0.0 0.0
-1263.4802915793725 -268.79347386067445 -764.5966271415373 -124.69948412052946 0.0 0.0
-1348.631557539432 -352.5771824292176 -849.0679664509526 -122.88756918343891 0.0 0.0
-1434.6750777650159 -459.4280529356123 -945.646060068623 -120.4456763874544 0.0 0.0
-1434.6750777645457 -459.42805293516346 -945.6460600683422 120.44567638753806 0.0 0.0
-1348.631557537593 -352.57718242746523 -849.0679664497534 122.8875691836364 0.0 0.0
-1263.4802915781258 -268.79347385949853 -764.5966271406014 124.69948412064242 0.0 0.0
-1188.770364198542 -206.26257817718138 -695.9630047240751 122.53547291343813 0.0 0.0
-1123.870144701022 -159.98769586509164 -640.2710251897735 118.31326011511342 0.0 0.0
-1065.1274932035292 -124.56363156575624 -593.054818775523 115.3213092715968 0.0 0.0
-1010.6107331431338 -98.15070490092202 -552.449710493012 115.05189095935211 0.0 0.0
-958.1009477330877 -77.67873562398702 -515.7460522102401 117.30737164296602 0.0 0.0
-904.4852324793794 -59.93277073895794 -479.6950868158734 120.73584138234324 0.0 0.0
-847.7113077869458 -43.14628202333407 -442.34144080747865 124.0281212422708 0.0 0.0
-787.0375128939994 -27.38612715279598 -403.16694052798783 126.20727961257137 0.0 0.0
-721.2855103140071 -12.806408487803665 -360.6964576077195 126.56554690924376 0.0 0.0
-646.4857901238136 1.8802665690777438 -308.5247554776661 125.37386426608217 0.0 0.0
-556.3901577863267 16.231472057293217 -237.05930774890953 127.21437807530751 0.0 0.0
-445.1541543041611 27.585996366921854 -154.14852957650737 139.88837291504092 0.0 0.0
-330.6971908250234 28.110415324854642 -95.61129975274159 154.74055987858918 0.0 0.0
-242.43339075660177 19.02932381545681 -67.47561647025968 161.96685899662418 0.0 0.0
-173.13866148227137 3.254066617244398 -51.00732423858649 168.56995703346362 0.0 0.0
-104.66258142257516 -36.510497350408464 -42.351923631895076 160.0049026683289 0.0 0.0
-32.71190218313765 -99.03978957667834 -39.5255075279448 91.69250920018848 0.0 0.0
-33.607454655430416 -65.73811346134823 -29.803670435033588 -74.37346875263864 0.0 0.0
-114.21174025810775 -29.224885216825815 -43.03098764248006 -139.7776931334386 0.0 0.0
-199.56634209809994 2.4938743620787562 -59.11955321498587 -150.20828643274632 0.0 0.0
-286.1981896031695 17.71903856241294 -81.18664487860059 -141.39869227062243 0.0 0.0
-391.3162265727981 30.531573596558157 -117.75971141202695 -127.95256116318544 0.0 0.0
-507.09847641373443 27.591979577247656 -189.43896678798953 -108.27792453293861 0.0 0.0
-606.8699597484949 16.614142299973636 -271.20406222662643 -100.90782467008603 0.0 0.0
-690.0737249201449 1.4439039543321854 -335.0389229262503 -102.84257482508302 0.0 0.0
-763.6052663928554 -14.367768357106655 -384.08509159466524 -105.57393515736277 0.0 0.0
-832.1730705327672 -32.27390048253133 -428.7801383740969 -106.00240506509735 0.0 0.0
-897.1737934004119 -52.29043682976973 -472.00700206437875 -104.3785963953108 0.0 0.0
-958.6274358902367 -73.51518902335408 -513.8162388235434 -101.71512983021482 0.0 0.0
-1016.8417506363346 -95.24045108081373 -554.1213389680761 -98.7897218078916 0.0 0.0
-1073.3887368424762 -118.90503554640782 -594.4108350428661 -96.38284518248929 0.0 0.0
-1133.205058843875 -149.1925555180723 -639.5260514908423 -95.9231604238309 0.0 0.0
-1201.8790582542963 -192.34141871291337 -695.4731616580901 -98.06047740710792 0.0 0.0
-1281.44330809166 -251.8808704169707 -765.0613349072239 -101.4160823181784 0.0 0.0
-1370.5760667975762 -328.21410956065745 -847.8346944196959 -103.55436936732261 0.0 0.0
-1460.3430970845147 -416.96199024693 -937.1529549878561 -103.60914884989971 0.0 0.0
-1538.2005129889303 -514.7177177253759 -1025.1045592526693 -104.70285093056745 0.0 0.0
-1538.200512990092 -514.717717726545 -1025.1045592535313 104.70285093058934 0.0 0.0
-1460.343097086854 -416.96199024938977 -937.1529549897424 103.60914885004803 0.0 0.0
-1370.5760667986765 -328.2141095618857 -847.8346944205923 103.55436936748328 0.0 0.0
-1281.4433080933352 -251.8808704187795 -765.0613349084924 101.4160823181605 0.0 0.0
-1201.8790582524161 -192.34141871112715 -695.473161657023 98.06047740703116 0.0 0.0
-1133.2050588421541 -149.19255551639483 -639.5260514897584 95.92316042361483 0.0 0.0
-1073.388736842413 -118.90503554641782 -594.4108350428053 96.38284518222267 0.0 0.0
-1016.8417506357871 -95.24045108035251 -554.1213389676363 98.78972180763742 0.0 0.0
-958.6274358893552 -73.51518902269143 -513.8162388229563 101.71512983018738 0.0 0.0
-897.1737933989629 -52.290436828518594 -472.00700206348597 104.3785963952513 0.0 0.0
-832.1730705321838 -32.273900482233465 -428.7801383737331 106.00240506504325 0.0 0.0
-763.6052663926007 -14.367768357089858 -384.0850915944567 105.57393515720935 0.0 0.0
-690.0737249193835 1.4439039549143047 -335.0389229257305 102.84257482485613 0.0 0.0
-606.8699597480311 16.614142300062106 -271.20406222623507 100.90782467009011 0.0 0.0
-507.09847641311217 27.591979577367187 -189.43896678755823 108.27792453305244 0.0 0.0
-391.31622657216684 30.531573596922907 -117.75971141168365 127.95256116309844 0.0 0.0
-286.19818960275154 17.71903856245358 -81.18664487846242 141.39869227045986 0.0 0.0
-199.56634209814615 2.4938743618107067 -59.119553215080984 150.20828643276712 0.0 0.0
-114.21174025820437 -29.224885217086822 -43.03098764258735 139.77769313326777 0.0 0.0
-33.60745465548106 -65.73811346140234 -29.803670435065015 74.37346875262155 0.0 0.0
-34.21960483932592 -38.41208803289342 -21.789507861665797 -56.53815521038214 0.0 0.0
-122.65024694297011 -21.155270531709466 -43.14165524240387 -115.93895063872078 0.0 0.0
-224.47277619960335 1.3800586901378562 -66.92705476875051 -127.20509984218509 0.0 0.0
-329.2801150006093 17.18155524811539 -94.56034447178902 -117.1372041543712 0.0 0.0
-446.59032561032154 30.92832762364344 -141.90654138126928 -97.77486660091981 0.0 0.0
-554.939287197248 27.073921643545994 -221.47045229241246 -79.60844870938054 0.0 0.0
-644.3702857918759 16.278278591540825 -297.3966466778416 -77.01730909482859 0.0 0.0
-724.0672716624294 2.158188893651399 -354.18071862173633 -80.84205978407708 0.0 0.0
-798.7801213091641 -15.604880313402504 -403.11357062238807 -84.18023170402664 0.0 0.0
-870.7023818591824 -37.13101402415933 -450.8754114306163 -85.01319477889935 0.0 0.0
-939.8455549662707 -61.14410467814881 -498.03799622194083 -83.93671589872349 0.0 0.0
-1006.1718159644851 -86.85830916501371 -544.4577910056742 -81.98046477222186 0.0 0.0
-1069.467996824104 -113.30513872254267 -589.6233263326924 -79.68918648155186 0.0 0.0
-1131.0742482957173 -141.13085695472984 -634.5187230207882 -77.36468466152392 0.0 0.0
-1195.3011165578273 -174.66867716983023 -683.4339976634631 -75.87777941628876 0.0 0.0
-1270.582887307889 -223.39325277692626 -745.3875916413593 -76.50612751410841 0.0 0.0
-1362.710339099972 -294.1482679366154 -826.8279576949681 -79.35704310434573 0.0 0.0
-1464.0295024386674 -382.1584154662849 -921.5550370081753 -82.84772459083706 0.0 0.0
-1561.5147318254255 -478.82103387669684 -1018.7135211888947 -86.33435116683768 0.0 0.0
-1637.3723706127398 -573.9812908583506 -1104.3673600530851 -92.14466489668064 0.0 0.0
-1637.3723706125513 -573.9812908581974 -1104.367360053064 92.14466489676978 0.0 0.0
-1561.514731824094 -478.8210338754338 -1018.7135211879863 86.33435116697052 0.0 0.0
-1464.0295024369805 -382.15841546460865 -921.5550370069857 82.84772459068914 0.0 0.0
-1362.7103390975872 -294.1482679343235 -826.8279576933169 79.35704310435798 0.0 0.0
-1270.5828873061114 -223.39325277521493 -745.3875916399628 76.50612751394553 0.0 0.0
-1195.3011165593316 -174.66867717160997 -683.4339976642759 75.87777941663437 0.0 0.0
-1131.0742482954886 -141.13085695465531 -634.5187230205094 77.36468466139917 0.0 0.0
-1069.4679968243252 -113.30513872294208 -589.6233263328776 79.6891864814399 0.0 0.0
-1006.1718159638937 -86.85830916462825 -544.4577910052433 81.980464772178 0.0 0.0
-939.8455549649813 -61.14410467711378 -498.03799622101064 83.93671589867643 0.0 0.0
-870.702381858348 -37.13101402351449 -450.8754114300093 85.01319477869701 0.0 0.0
-798.7801213092908 -15.604880313881083 -403.1135706224937 84.1802317040984 0.0 0.0
-724.0672716620204 2.158188893678897 -354.180718621482 80.84205978418737 0.0 0.0
-644.3702857905787 16.27827859261641 -297.39664667695814 77.0173090945995 0.0 0.0
-554.9392871963397 27.07392164422286 -221.47045229173506 79.60844870914741 0.0 0.0
-446.59032560995945 30.928327623704945 -141.9065413810336 97.77486660077994 0.0 0.0
-329.2801149999428 17.18155524855281 -94.56034447147042 117.13720415432783 0.0 0.0
-224.47277619930742 1.380058690504487 -66.92705476855264 127.20509984210041 0.0 0.0
-122.65024694301069 -21.15527053186105 -43.14165524246151 115.93895063864392 0.0 0.0
-34.21960483924619 -38.41208803280702 -21.78950786161596 56.53815521037361 0.0 0.0
-33.975781237781916 -17.55469237120392 -15.459142082695749 -38.30429376357085 0.0 0.0
-129.2640291364034 -12.835045017931181 -42.629722246300375 -88.7452516264132 0.0 0.0
-248.5606783601012 -0.10654233553727721 -74.60016620869153 -99.57781689082448 0.0 0.0
-372.43590038580385 18.067038593277953 -107.9861717187765 -88.8642329899192 0.0 0.0
-493.73510982567643 29.56040283284794 -167.50656304782274 -66.89207192239006 0.0 0.0
-592.048265167735 25.77905456388983 -249.72017329111523 -54.368111060733376 0.0 0.0
-674.4119851455487 16.4662545243216 -317.3278188010273 -54.66497874775607 0.0 0.0
-751.7236758992524 3.325668220300969 -368.9070380131749 -58.75758550379948 0.0 0.0
-828.3457035331273 -16.88862737742278 -419.08457255600723 -62.139684309320195 0.0 0.0
-903.7098830705202 -41.774938090728654 -470.0046638992112 -63.255179576898556 0.0 0.0
-977.1652076538974 -69.73373452128038 -521.2030176885935 -62.694757320978255 0.0 0.0
-1048.2853506191561 -99.8745471910309 -572.1770130700868 -61.42178729482303 0.0 0.0
-1117.4493820509215 -131.53264835489216 -622.8381757939026 -59.889834391145065 0.0 0.0
-1185.1438138882052 -165.1365261646464 -673.6555454371182 -57.89784020702021 0.0 0.0
-1254.112466332569 -202.8440161171295 -727.0474620439362 -55.62049689072258 0.0 0.0
-1331.7764261887037 -252.81004388739393 -790.7919674379827 -54.4551729901796 0.0 0.0
-1428.0910776187495 -326.80889928651777 -875.8697039989396 -56.47176225061399 0.0 0.0
-1545.3090742487634 -429.90132977864977 -986.0808969786464 -61.889541623469434 0.0 0.0
-1655.9000399085473 -539.05210100505 -1096.0576089015144 -69.82655496820527 0.0 0.0
-1740.5721652834095 -641.8312724615257 -1189.9267566925228 -81.32987558109339 0.0 0.0
-1740.5721652820823 -641.8312724602127 -1189.9267566915687 81.32987558120413 0.0 0.0
-1655.9000399077604 -539.0521010043974 -1096.0576089009448 69.82655496852439 0.0 0.0
-1545.3090742472705 -429.9013297771943 -986.0808969775542 61.88954162331957 0.0 0.0
-1428.0910776192432 -326.80889928715646 -875.8697039991825 56.47176225079751 0.0 0.0
-1331.7764261877583 -252.8100438865947 -790.7919674373373 54.45517299023943 0.0 0.0
-1254.1124663324708 -202.84401611716828 -727.047462043951 55.620496890640524 0.0 0.0
-1185.1438138889812 -165.1365261656365 -673.6555454376927 57.897840207102604 0.0 0.0
-1117.4493820508603 -131.53264835506764 -622.8381757937248 59.889834391267456 0.0 0.0
-1048.2853506179397 -99.87454719005086 -572.1770130691306 61.421787294809135 0.0 0.0
-977.1652076529723 -69.73373452061114 -521.2030176879871 62.69475732097276 0.0 0.0
-903.7098830693221 -41.774938089750904 -470.0046638984154 63.2551795767332 0.0 0.0
-828.3457035322632 -16.888627376807918 -419.0845725554216 62.13968430922698 0.0 0.0
-751.7236758983413 3.325668220881667 -368.9070380126259 58.75758550383459 0.0 0.0
-674.4119851455943 16.466254523880956 -317.32781880103016 54.66497874785346 0.0 0.0
-592.0482651681108 25.779054563020978 -249.7201732912407 54.368111060897945 0.0 0.0
-493.7351098256618 29.56040283236101 -167.5065630477842 66.89207192241494 0.0 0.0
-372.43590038547404 18.067038593045606 -107.98617171874908 88.8642329899651 0.0 0.0
-248.560678359889 -0.10654233537315294 -74.60016620857866 99.57781689062378 0.0 0.0
-129.26402913626168 -12.835045017846046 -42.62972224623232 88.74525162623812 0.0 0.0
-33.975781237738346 -17.554692371194783 -15.459142082679936 38.304293763605 0.0 0.0
-31.538170549982013 -3.5819198040281752 -10.536027106203054 -20.18497745961753 0.0 0.0
-132.35193389930467 -4.955500652966583 -41.19223036568137 -58.1499875428497 0.0 0.0
-272.3649089010947 -1.438449177634146 -82.14100742361865 -66.87186553756295 0.0 0.0
-415.9111497091959 19.773477401751713 -122.63082900346794 -56.80874617300316 0.0 0.0
-531.9105840810764 27.823690501188793 -192.97321044465042 -38.31533049127848 0.0 0.0
-619.7552489675389 23.508374790514708 -273.4045690103777 -31.535401099921724 0.0 0.0
-697.9120468222145 17.73371135460326 -331.62650175371596 -33.01590329784805 0.0 0.0
-774.6027470969029 3.97655570634484 -380.9968729558825 -36.523928977468536 0.0 0.0
-852.8331311140835 -17.941821159038255 -432.26171547270366 -39.44541789968808 0.0 0.0
-931.8461645906201 -46.15350530515366 -486.5037641570377 -40.68593401768045 0.0 0.0
-1009.7603610487129 -78.09040268324992 -541.8537071531001 -40.64067195528475 0.0 0.0
-1086.0501760425057 -112.56137852437945 -597.5289985013518 -40.03692526607984 0.0 0.0
-1161.0906594082774 -149.82902060787058 -653.8911202959008 -39.142268130185805 0.0 0.0
-1235.96723582094 -190.04244132856127 -711.5792601834266 -37.78629699021556 0.0 0.0
-1311.5515948086654 -234.00907792989102 -771.4354471188104 -35.62883332058521 0.0 0.0
-1390.0696656856849 -284.5143262231194 -835.9387419367217 -33.12229157356099 0.0 0.0
-1480.0919033369084 -351.48278016872285 -914.3225211115055 -33.04409499693556 0.0 0.0
-1595.8926563355617 -451.7598138717819 -1022.271006580743 -39.278254915186956 0.0 0.0
-1752.7331733514961 -605.1220098634044 -1177.5101089993086 -52.506835931456166 0.0 0.0
-1857.0447639881295 -725.5222102744488 -1290.0315519678581 -71.21220284002442 0.0 0.0
-1857.0447639883955 -725.5222102747636 -1290.0315519680732 71.21220284019802 0.0 0.0
-1752.7331733523988 -605.1220098643784 -1177.5101089998625 52.50683593156067 0.0 0.0
-1595.8926563380414 -451.75981387439276 -1022.2710065823869 39.27825491528597 0.0 0.0
-1480.091903336326 -351.48278016823326 -914.3225211110391 33.044094996849275 0.0 0.0
-1390.069665685794 -284.5143262233768 -835.9387419366103 33.122291573631735 0.0 0.0
-1311.5515948098114 -234.00907793121172 -771.4354471195 35.6288333206173 0.0 0.0
-1235.967235821326 -190.0424413291437 -711.5792601836174 37.786296990206054 0.0 0.0
-1161.0906594072758 -149.82902060706056 -653.891120295162 39.142268130036854 0.0 0.0
-1086.050176041211 -112.56137852329613 -597.528998500453 40.03692526603239 0.0 0.0
-1009.7603610486353 -78.09040268349125 -541.8537071530259 40.6406719555126 0.0 0.0
-931.8461645909767 -46.15350530580203 -486.5037641572463 40.68593401759835 0.0 0.0
-852.833131113425 -17.941821158674784 -432.26171547230285 39.44541789973812 0.0 0.0
-774.6027470960148 3.97655570689129 -380.99687295528474 36.52392897746096 0.0 0.0
-697.91204682179 17.733711354728328 -331.6265017534309 33.015903297735676 0.0 0.0
-619.7552489670264 23.508374790702106 -273.4045690099679 31.535401099824746 0.0 0.0
-531.9105840808571 27.82369050105158 -192.97321044445164 38.315330491314754 0.0 0.0
-415.911149708752 19.77347740170999 -122.63082900333231 56.80874617308234 0.0 0.0
-272.36490890108263 -1.4384491778729962 -82.14100742368669 66.87186553739642 0.0 0.0
-132.35193389915122 -4.955500653010617 -41.19223036564854 58.14998754287532 0.0 0.0
-31.53817054998728 -3.58191980405293 -10.536027106212062 20.184977459579102 0.0 0.0
-24.322225766731925 3.1936865145990696 -6.338561775639857 -3.4887199475334225 0.0 0.0
-128.6169391343901 1.569236161385744 -38.1143108919013 -23.519431794174828 0.0 0.0
-297.5908481196891 -1.58385826180292 -89.7524119144476 -28.03807375530901 0.0 0.0
-455.3148605628039 21.693695939155795 -139.27482265401804 -22.51562406864613 0.0 0.0
-563.2154704212425 25.71010144448079 -217.7725253772159 -12.887269199007525 0.0 0.0
-643.5518083723872 22.356831680844607 -292.4215884130374 -10.6329394647544 0.0 0.0
-717.2393469293361 18.224268858801054 -343.109944148389 -11.789689873410289 0.0 0.0
-792.9922642774225 4.605445452591965 -390.57910027493926 -14.096228057646158 0.0 0.0
-872.9273905467865 -18.926549839970107 -443.1428145130749 -16.114598644107243 0.0 0.0
-955.5268705880123 -50.16448640585554 -500.5523965844525 -17.29030889686677 0.0 0.0
-1038.2093019083484 -86.06172284302966 -560.2054807195407 -17.747985208247524 0.0 0.0
-1119.7678195234032 -125.42490285567476 -620.9256350395187 -17.745524539105944 0.0 0.0
-1200.9020191840232 -167.91815399336838 -682.9142855531953 -17.487114239083226 0.0 0.0
-1282.8347872075644 -214.54846444529596 -747.3118724184508 -16.844192927421517 0.0 0.0
-1366.0822279288334 -265.9769557474666 -814.730491739675 -15.557087015803527 0.0 0.0
-1449.6711604317147 -321.60991170668837 -884.3919044771344 -13.439468066510567 0.0 0.0
-1532.6526959441503 -381.3807831146697 -955.7537348352753 -11.378172506022612 0.0 0.0
-1623.6393238495352 -455.55048628718254 -1038.1918260132784 -14.20302570918027 0.0 0.0
-1756.025700495984 -580.9809411067315 -1166.910138006118 -30.199377925720015 0.0 0.0
-2064.3163857568347 -900.2811746857328 -1481.0486956571756 -59.4223134820212 0.0 0.0
-2064.316385756863 -900.2811746858131 -1481.0486956572395 59.422313482180066 0.0 0.0
-1756.025700497897 -580.9809411087035 -1166.9101380073503 30.19937792568569 0.0 0.0
-1623.6393238478033 -455.55048628554164 -1038.19182601177 14.203025709327854 0.0 0.0
-1532.652695942194 -381.3807831128236 -955.7537348338207 11.378172506079421 0.0 0.0
-1449.6711604307177 -321.6099117058366 -884.3919044764484 13.439468066541794 0.0 0.0
-1366.0822279290014 -265.97695574781403 -814.730491739689 15.557087015796956 0.0 0.0
-1282.8347872083214 -214.54846444624093 -747.3118724188175 16.84419292746947 0.0 0.0
-1200.902019184543 -167.91815399412633 -682.9142855534996 17.48711423927148 0.0 0.0
-1119.7678195228586 -125.42490285536859 -620.9256350391515 17.745524539060625 0.0 0.0
-1038.2093019075446 -86.06172284249142 -560.2054807190038 17.74798520818512 0.0 0.0
-955.5268705881329 -50.164486406257595 -500.55239658447744 17.290308896725502 0.0 0.0
-872.9273905458128 -18.92654983928027 -443.14281451245904 16.114598644059686 0.0 0.0
-792.9922642766403 4.605445453067375 -390.57910027445575 14.096228057367489 0.0 0.0
-717.2393469297234 18.224268858052852 -343.1099441486291 11.789689873366523 0.0 0.0
-643.5518083726679 22.356831680198745 -292.4215884131653 10.632939464623535 0.0 0.0
-563.2154704210764 25.71010144433155 -217.7725253770369 12.887269199029632 0.0 0.0
-455.31486056218466 21.69369593951443 -139.27482265369053 22.515624068671528 0.0 0.0
-297.5908481194082 -1.5838582617069168 -89.75241191433452 28.03807375517664 0.0 0.0
-128.61693913419853 1.5692361614190364 -38.114310891833846 23.519431794221795 0.0 0.0
-24.322225766681015 3.1936865145328155 -6.338561775644461 3.4887199475547725 0.0 0.0
SCALARS Strain float 6
LOOKUP_TABLE default
0.013936678323405094 -0.015009786177593465 0.0 -0.008401917092752176 0.0 0.0
0.0028721341925674916 -0.00201370938161749 0.0 0.0014331234745010302 0.0 0.0
0.001940387719032443 -0.0008122803883012786 0.0 -3.312309854308637e-05 0.0 0.0
0.0026283664338348917 -0.0013815649231374572 0.0 -0.0002690304847443037 0.0 0.0
0.004551240277467419 -0.003030223932491083 0.0 -0.0003673547212326711 0.0 0.0
0.00848538277014611 -0.006664749153007854 0.0 -0.0006029672862565283 0.0 0.0
0.014946007597255135 -0.01286429351183882 0.0 -0.001010454568217245 0.0 0.0
0.024380375448717375 -0.02202336522760895 0.0 -0.001656903709598312 0.0 0.0
0.03699621368430262 -0.03432785570832708 0.0 -0.0025597155686909456 0.0 0.0
0.05271067698085466 -0.049700323016811154 0.0 -0.0036319093087555654 0.0 0.0
0.0712485796068805 -0.06788074397859223 0.0 -0.004739959784395509 0.0 0.0
0.09226883939242558 -0.08853632232196906 0.0 -0.005812550101283065 0.0 0.0
0.1154116424365498 -0.11130871108786522 0.0 -0.006853705056237891 0.0 0.0
0.14026096856367154 -0.135777565360649 0.0 -0.007838416941586213 0.0 0.0
0.1662314076843694 -0.1613551176428718 0.0 -0.008691631840559655 0.0 0.0
0.19245237517250355 -0.18717631703886894 0.0 -0.009225389916482418 0.0 0.0
0.21773423405503942 -0.21206532106381193 0.0 -0.009165054875168832 0.0 0.0
0.24061562016330496 -0.23457089215654037 0.0 -0.008351667296690457 0.0 0.0
0.25936654957713035 -0.25295090261035114 0.0 -0.007487517844115943 0.0 0.0
0.2712373871627349 -0.26417187294758904 0.0 -0.009888011064764224 0.0 0.0
0.27123738716271645 -0.2641718729475775 0.0 0.00988801106477366 0.0 0.0
0.2593665495770737 -0.25295090261029873 0.0 0.0074875178441489165 0.0 0.0
0.24061562016321225 -0.23457089215644622 0.0 0.008351667296712773 0.0 0.0
0.21773423405492298 -0.21206532106369025 0.0 0.009165054875173384 0.0 0.0
0.19245237517237074 -0.1871763170387375 0.0 0.00922538991647337 0.0 0.0
0.16623140768423128 -0.16135511764273858 0.0 0.008691631840556768 0.0 0.0
0.1402609685635366 -0.13577756536052554 0.0 0.007838416941586157 0.0 0.0
0.11541164243641655 -0.11130871108773022 0.0 0.006853705056240167 0.0 0.0
0.09226883939229918 -0.08853632232184694 0.0 0.005812550101274128 0.0 0.0
0.07124857960676667 -0.0678807439784812 0.0 0.004739959784387349 0.0 0.0
0.05271067698076076 -0.04970032301671834 0.0 0.0036319093087422427 0.0 0.0
0.03699621368422967 -0.03432785570825647 0.0 0.0025597155686859496 0.0 0.0
0.024380375448664893 -0.022023365227560543 0.0 0.0016569037095949257 0.0 0.0
0.014946007597218092 -0.01286429351181173 0.0 0.0010104545682154686 0.0 0.0
0.008485382770123562 -0.006664749152989424 0.0 0.0006029672862550295 0.0 0.0
0.004551240277458013 -0.0030302239324828673 0.0 0.00036735472123239354 0.0 0.0
0.002628366433832019 -0.0013815649231361249 0.0 0.0002690304847452474 0.0 0.0
0.001940387719031822 -0.0008122803883002794 0.0 3.3123098542864327e-05 0.0 0.0
0.0028721341925650457 -0.002013709381615214 0.0 -0.0014331234744988652 0.0 0.0
0.013936678323393403 -0.015009786177578796 0.0 0.008401917092713984 0.0 0.0
0.010083151640348662 -0.011531421718705304 0.0 -0.010325049086761018 0.0 0.0
0.0015221666428026012 -0.0010054839743209865 0.0 0.00012101208979492517 0.0 0.0
0.001642953142875686 -0.0005706383917942759 0.0 -0.00012368194789408316 0.0 0.0
0.0022655633017865245 -0.0011214411623721166 0.0 -0.0005432486379028378 0.0 0.0
0.0038105651008572064 -0.0023893923997477806 0.0 -0.0008049630956070142 0.0 0.0
0.00720032954620977 -0.005461990600751587 0.0 -0.001376950041273195 0.0 0.0
0.0129760897644286 -0.010954618475202516 0.0 -0.0023781374436187552 0.0 0.0
0.021514344829176843 -0.019212087063490202 0.0 -0.0038711201364564074 0.0 0.0
0.03293951060273455 -0.030334959747235768 0.0 -0.005849284251685849 0.0 0.0
0.047117198700582855 -0.04419053612214796 0.0 -0.008115145935316814 0.0 0.0
0.06377413835519741 -0.06051674473407642 0.0 -0.010420794480202833 0.0 0.0
0.08261918685001454 -0.07902680583971522 0.0 -0.012633540226703155 0.0 0.0
0.1033663415713767 -0.09943334133606374 0.0 -0.014796350995959662 0.0 0.0
0.1256662406598123 -0.12138524639618087 0.0 -0.016884528370160634 0.0 0.0
0.14901831100218843 -0.14438143365774803 0.0 -0.018719076986907335 0.0 0.0
0.17268920463032955 -0.1676909577832273 0.0 -0.01994228743261195 0.0 0.0
0.1956518844923251 -0.19028998315179724 0.0 -0.02006297108586086 0.0 0.0
0.21653450468890795 -0.21080241948005263 0.0 -0.018904821065265365 0.0 0.0
0.23340918649757 -0.22724485699781916 0.0 -0.017077961177570877 0.0 0.0
0.2435685787596817 -0.23707433207697637 0.0 -0.014449720857857007 0.0 0.0
0.24356857875966392 -0.23707433207696216 0.0 0.014449720857886983 0.0 0.0
0.23340918649751968 -0.2272448569977703 0.0 0.01707796117762883 0.0 0.0
0.21653450468882607 -0.21080241947996825 0.0 0.018904821065304 0.0 0.0
0.19565188449222293 -0.19028998315168977 0.0 0.020062971085876846 0.0 0.0
0.17268920463021226 -0.16769095778311538 0.0 0.019942287432596073 0.0 0.0
0.14901831100206403 -0.14438143365763967 0.0 0.018719076986900784 0.0 0.0
0.1256662406596915 -0.1213852463960654 0.0 0.016884528370155527 0.0 0.0
0.1033663415712574 -0.09943334133594917 0.0 0.014796350995956331 0.0 0.0
0.08261918684990222 -0.07902680583960375 0.0 0.012633540226688611 0.0 0.0
0.06377413835509521 -0.060516744733977834 0.0 0.010420794480187068 0.0 0.0
0.04711719870049852 -0.04419053612206181 0.0 0.008115145935297607 0.0 0.0
0.03293951060266875 -0.030334959747165602 0.0 0.005849284251680742 0.0 0.0
0.021514344829129062 -0.019212087063439576 0.0 0.0038711201364481918 0.0 0.0
0.012976089764395349 -0.010954618475170985 0.0 0.002378137443610262 0.0 0.0
0.007200329546190876 -0.00546199060073671 0.0 0.0013769500412652014 0.0 0.0
0.003810565100849539 -0.0023893923997408972 0.0 0.0008049630956055709 0.0 0.0
0.0022655633017845678 -0.00112144116236923 0.0 0.0005432486379035595 0.0 0.0
0.0016429531428753807 -0.0005706383917954971 0.0 0.00012368194789369458 0.0 0.0
0.0015221666428022473 -0.0010054839743193211 0.0 -0.00012101208979581335 0.0 0.0
0.010083151640333798 -0.011531421718688817 0.0 0.010325049086729043 0.0 0.0
0.0075691014956343755 -0.009209847877512112 0.0 -0.009649634731707213 0.0 0.0
0.0008826503782328049 -0.0006607967281017091 0.0 -0.0006295048020562577 0.0 0.0
0.0013100043424061208 -0.00041065245925397953 0.0 -0.0004503159515541477 0.0 0.0
0.0019279990591326845 -0.0008835960342989946 0.0 -0.0007892863770094238 0.0 0.0
0.0031499609265176337 -0.0018460560900364076 0.0 -0.0011552063194576467 0.0 0.0
0.0059698936556313725 -0.004332784613761298 0.0 -0.0019430874209480642 0.0 0.0
0.011021996421108904 -0.009072303593099296 0.0 -0.00339225276767513 0.0 0.0
0.018611084608642844 -0.01637748264089378 0.0 -0.00556459421204214 0.0 0.0
0.028798738559232928 -0.026271411278032897 0.0 -0.008378572602105505 0.0 0.0
0.041409225145213474 -0.03858053043487342 0.0 -0.011556194693482624 0.0 0.0
0.056173690738145696 -0.05304035974577159 0.0 -0.014790062398144899 0.0 0.0
0.0728387918495662 -0.06939863743623453 0.0 -0.017911165028646314 0.0 0.0
0.09117190509535404 -0.08742164690917509 0.0 -0.02094393798576305 0.0 0.0
0.11089966462037291 -0.10683546009749989 0.0 -0.023884981217668688 0.0 0.0
0.1316260335439724 -0.12724418051402164 0.0 -0.02651795781239452 0.0 0.0
0.15276212659159183 -0.14805622200760027 0.0 -0.028366833409085745 0.0 0.0
0.173433432029107 -0.16839031169295282 0.0 -0.028855989352396638 0.0 0.0
0.1923313107897145 -0.1869209949546473 0.0 -0.02763587331963968 0.0 0.0
0.20757376532685187 -0.201804419582575 0.0 -0.024233519462947273 0.0 0.0
0.21705715416322574 -0.21102372307650175 0.0 -0.01754318875782268 0.0 0.0
0.21705715416320925 -0.21102372307649198 0.0 0.017543188757868422 0.0 0.0
0.207573765326808 -0.2018044195825377 0.0 0.024233519463024544 0.0 0.0
0.19233131078964205 -0.1869209949545727 0.0 0.027635873319690196 0.0 0.0
0.17343343202901634 -0.16839031169286756 0.0 0.028855989352415845 0.0 0.0
0.1527621265914902 -0.1480562220075079 0.0 0.028366833409067427 0.0 0.0
0.13162603354386204 -0.12724418051392572 0.0 0.02651795781238775 0.0 0.0
0.11089966462026574 -0.10683546009739864 0.0 0.02388498121766225 0.0 0.0
0.09117190509524925 -0.08742164690907384 0.0 0.02094393798575378 0.0 0.0
0.07283879184946651 -0.0693986374361435 0.0 0.01791116502862633 0.0 0.0
0.05617369073805656 -0.053040359745687216 0.0 0.014790062398125081 0.0 0.0
0.04140922514513873 -0.03858053043480281 0.0 0.011556194693459032 0.0 0.0
0.02879873855917442 -0.026271411277981827 0.0 0.008378572602089629 0.0 0.0
0.018611084608599726 -0.016377482640852925 0.0 0.005564594212031371 0.0 0.0
0.01102199642107976 -0.009072303593071318 0.0 0.0033922527676653047 0.0 0.0
0.005969893655615677 -0.004332784613748419 0.0 0.0019430874209408477 0.0 0.0
0.003149960926512152 -0.0018460560900324108 0.0 0.001155206319456259 0.0 0.0
0.001927999059131269 -0.0008835960343003268 0.0 0.0007892863770083136 0.0 0.0
0.0013100043424060792 -0.0004106524592548677 0.0 0.0004503159515540922 0.0 0.0
0.0008826503782331518 -0.0006607967281004878 0.0 0.0006295048020544258 0.0 0.0
0.007569101495620012 -0.009209847877496798 0.0 0.009649634731680012 0.0 0.0
0.005783834155519807 -0.007452751090044674 0.0 -0.008239696182578304 0.0 0.0
0.0005486557550328508 -0.0004915902339739375 0.0 -0.0012466090880853264 0.0 0.0
0.0010131485985769156 -0.00029850908817974364 0.0 -0.0008988988761075012 0.0 0.0
0.0016130137202835654 -0.0006879004496569419 0.0 -0.0010632973190023431 0.0 0.0
0.0025673752748837236 -0.001401335076780974 0.0 -0.0014481586494538012 0.0 0.0
0.004831497729620826 -0.0033184874617422366 0.0 -0.002328600481597498 0.0 0.0
0.009104273135930666 -0.007252689668359125 0.0 -0.00406312405911502 0.0 0.0
0.01570751376289793 -0.013556045742333378 0.0 -0.0067312214337483245 0.0 0.0
0.024618990415534336 -0.02218493271459243 0.0 -0.0101392885802008 0.0 0.0
0.03563681835870541 -0.032921241381624 0.0 -0.013963658065917872 0.0 0.0
0.04849391824665275 -0.04549895140137217 0.0 -0.017852832030840426 0.0 0.0
0.06296867447571323 -0.05969479069707617 0.0 -0.021632993403208844 0.0 0.0
0.07887966495537066 -0.07532649182008289 0.0 -0.025320131633184417 0.0 0.0
0.09602155425835786 -0.09218796199085588 0.0 -0.028860624152852454 0.0 0.0
0.11410096335398467 -0.10998791059419855 0.0 -0.0320506615602677 0.0 0.0
0.13267742117991935 -0.12827838242084422 0.0 -0.034459997411850796 0.0 0.0
0.15103354661733753 -0.1463260853854509 0.0 -0.03543518455514627 0.0 0.0
0.16800911613481426 -0.16297135771646865 0.0 -0.034206549017171906 0.0 0.0
0.18198178111427837 -0.1766270087871229 0.0 -0.029565630319541958 0.0 0.0
0.19119434970163995 -0.1856024234531377 0.0 -0.020030115350143207 0.0 0.0
0.1911943497016254 -0.1856024234531244 0.0 0.020030115350208377 0.0 0.0
0.18198178111423896 -0.17662700878708648 0.0 0.029565630319628555 0.0 0.0
0.16800911613475072 -0.16297135771642068 0.0 0.03420654901722986 0.0 0.0
0.15103354661725804 -0.14632608538539227 0.0 0.03543518455517081 0.0 0.0
0.13267742117983206 -0.12827838242076695 0.0 0.03445999741183958 0.0 0.0
0.11410096335388853 -0.10998791059410173 0.0 0.03205066156025649 0.0 0.0
0.09602155425826508 -0.09218796199076795 0.0 0.02886062415284285 0.0 0.0
0.07887966495527948 -0.07532649181999762 0.0 0.025320131633174814 0.0 0.0
0.06296867447562671 -0.05969479069698913 0.0 0.02163299340318592 0.0 0.0
0.04849391824657656 -0.04549895140129667 0.0 0.017852832030814114 0.0 0.0
0.035636818358640576 -0.032921241381561384 0.0 0.01396365806588551 0.0 0.0
0.02461899041548332 -0.02218493271454003 0.0 0.010139288580184425 0.0 0.0
0.015707513762860226 -0.013556045742292522 0.0 0.006731221433731838 0.0 0.0
0.009104273135906282 -0.007252689668335588 0.0 0.0040631240591042506 0.0 0.0
0.004831497729608503 -0.003318487461734021 0.0 0.0023286004815913364 0.0 0.0
0.0025673752748796574 -0.001401335076776311 0.0 0.001448158649452136 0.0 0.0
0.0016130137202827743 -0.0006879004496569419 0.0 0.0010632973190003447 0.0 0.0
0.001013148598577207 -0.00029850908817918853 0.0 0.0008988988761071126 0.0 0.0
0.0005486557550329341 -0.0004915902339716616 0.0 0.0012466090880844938 0.0 0.0
0.005783834155507039 -0.00745275109003115 0.0 0.008239696182557488 0.0 0.0
0.0044060741083291055 -0.0060134098465882135 0.0 -0.006769478524581429 0.0 0.0
0.00036467876509435615 -0.0003911309439108557 0.0 -0.0017274278124847497 0.0 0.0
0.0007683693874653008 -0.00022180134772331606 0.0 -0.0013536872776719888 0.0 0.0
0.0013204161631226174 -0.0005298864662222069 0.0 -0.0013723373591804089 0.0 0.0
0.0020594115784716427 -0.001048480463283985 0.0 -0.0017097094129492896 0.0 0.0
0.0038049262202726475 -0.002445334805613708 0.0 -0.0025948050501778397 0.0 0.0
0.007271132411876019 -0.005544260658694178 0.0 -0.004412582864902148 0.0 0.0
0.01283482152740284 -0.010787929489437076 0.0 -0.007331016939844004 0.0 0.0
0.020443926523466632 -0.01812028666979071 0.0 -0.011126931500198 0.0 0.0
0.02984742941834774 -0.027261955357622103 0.0 -0.015339393936820767 0.0 0.0
0.04078329651799793 -0.03794262214005917 0.0 -0.01962206620768292 0.0 0.0
0.053056436908714685 -0.049965451876404554 0.0 -0.02379678502860616 0.0 0.0
0.06653624219915637 -0.06319680348980405 0.0 -0.02787727508257054 0.0 0.0
0.08108582644939263 -0.07749934944325254 0.0 -0.03180939674560357 0.0 0.0
0.09649842053723737 -0.09266820271598508 0.0 -0.03536139830991425 0.0 0.0
0.11245987406106844 -0.10838222574955125 0.0 -0.03815525088873184 0.0 0.0
0.12844509244626753 -0.12410233957693784 0.0 -0.039586979366967756 0.0 0.0
0.14356287517473434 -0.13893158470982936 0.0 -0.038585608826788076 0.0 0.0
0.15648777168174227 -0.15157029945497058 0.0 -0.0333649979504449 0.0 0.0
0.16568737908232514 -0.16053787634770877 0.0 -0.022108042927390104 0.0 0.0
0.16568737908231237 -0.16053787634770167 0.0 0.022108042927457383 0.0 0.0
0.1564877716817069 -0.15157029945493683 0.0 0.03336499795053616 0.0 0.0
0.14356287517468033 -0.13893158470977252 0.0 0.038585608826855466 0.0 0.0
0.12844509244619934 -0.12410233957686678 0.0 0.03958697936699496 0.0 0.0
0.11245987406099367 -0.10838222574947398 0.0 0.03815525088872196 0.0 0.0
0.09649842053715574 -0.09266820271591669 0.0 0.035361398309901926 0.0 0.0
0.08108582644931434 -0.07749934944318504 0.0 0.031809396745590135 0.0 0.0
0.06653624219907867 -0.06319680348972234 0.0 0.02787727508255511 0.0 0.0
0.05305643690864209 -0.04996545187633927 0.0 0.023796785028578515 0.0 0.0
0.04078329651793372 -0.03794262214000366 0.0 0.019622066207652722 0.0 0.0
0.02984742941829327 -0.027261955357568812 0.0 0.015339393936785295 0.0 0.0
0.020443926523423306 -0.018120286669744523 0.0 0.011126931500178627 0.0 0.0
0.01283482152737031 -0.010787929489407322 0.0 0.007331016939827184 0.0 0.0
0.007271132411856451 -0.005544260658675526 0.0 0.004412582864890879 0.0 0.0
0.0038049262202629053 -0.0024453348056021618 0.0 0.002594805050171789 0.0 0.0
0.0020594115784687284 -0.0010484804632779898 0.0 0.0017097094129471802 0.0 0.0
0.0013204161631222844 -0.0005298864662219849 0.0 0.0013723373591796317 0.0 0.0
0.0007683693874655506 -0.0002218013477225389 0.0 0.0013536872776706566 0.0 0.0
0.0003646787650943839 -0.00039113094390974545 0.0 0.00172742781248153 0.0 0.0
0.004406074108318392 -0.0060134098465766325 0.0 0.0067694785245648315 0.0 0.0
0.0033058760741173088 -0.004800819516439625 0.0 -0.005467786420594423 0.0 0.0
0.000254912105779298 -0.00032109514137446116 0.0 -0.002087401333986272 0.0 0.0
0.0005660220080382361 -0.00016506049479203533 0.0 -0.001752748103414914 0.0 0.0
0.0010429224400559378 -0.00039740791097409023 0.0 -0.001688799252408002 0.0 0.0
0.0016196356350511587 -0.0007742086930442316 0.0 -0.001961077462466654 0.0 0.0
0.002891666445399066 -0.0017263595650098829 0.0 -0.0027788352513639647 0.0 0.0
0.005571666474800119 -0.0040088723547735405 0.0 -0.004549987526686339 0.0 0.0
0.010046973774392315 -0.00814056591228196 0.0 -0.007446388187455466 0.0 0.0
0.016314122153890692 -0.014124483977635105 0.0 -0.011320441976350959 0.0 0.0
0.02408789375794676 -0.021652622504101604 0.0 -0.015675523882638154 0.0 0.0
0.03309003965193111 -0.030424062542553365 0.0 -0.02008533641049426 0.0 0.0
0.04315311395466939 -0.0402646630676502 0.0 -0.024393772665187163 0.0 0.0
0.054193477090308834 -0.05108833949772862 0.0 -0.02861822444098905 0.0 0.0
0.06614068578390433 -0.06282168999921822 0.0 -0.032688593160001944 0.0 0.0
0.07886844010116087 -0.07533793172750958 0.0 -0.036394673182589155 0.0 0.0
0.09216070861863473 -0.08842317072576655 0.0 -0.03940905709778597 0.0 0.0
0.10569405384533637 -0.10174273537437717 0.0 -0.04119316555688679 0.0 0.0
0.11892934833996319 -0.11473961245604247 0.0 -0.040655187037717866 0.0 0.0
0.13091049191892576 -0.12646160185889066 0.0 -0.03564392493069979 0.0 0.0
0.14028113050068985 -0.13559000356784878 0.0 -0.023837146410144894 0.0 0.0
0.1402811305006801 -0.1355900035678319 0.0 0.023837146410213172 0.0 0.0
0.13091049191889514 -0.12646160185885957 0.0 0.035643924930796045 0.0 0.0
0.11892934833991836 -0.11473961245600695 0.0 0.04065518703778581 0.0 0.0
0.10569405384527852 -0.10174273537432388 0.0 0.04119316555691466 0.0 0.0
0.09216070861857278 -0.08842317072570083 0.0 0.039409057097775646 0.0 0.0
0.07886844010109384 -0.07533793172743852 0.0 0.03639467318257461 0.0 0.0
0.06614068578383941 -0.06282168999914362 0.0 0.03268859315998651 0.0 0.0
0.05419347709024708 -0.05108833949766156 0.0 0.02861822444097406 0.0 0.0
0.043153113954609745 -0.04026466306758847 0.0 0.024393772665161184 0.0 0.0
0.03309003965187918 -0.030424062542500074 0.0 0.020085336410466392 0.0 0.0
0.02408789375790188 -0.021652622504055863 0.0 0.015675523882601405 0.0 0.0
0.016314122153856025 -0.014124483977601798 0.0 0.011320441976326867 0.0 0.0
0.010046973774366197 -0.008140565912256204 0.0 0.007446388187439701 0.0 0.0
0.005571666474785075 -0.004008872354757997 0.0 0.004549987526676236 0.0 0.0
0.0028916664453916274 -0.001726359565005664 0.0 0.002778835251357692 0.0 0.0
0.0016196356350496877 -0.0007742086930431213 0.0 0.0019610774624663208 0.0 0.0
0.0010429224400556047 -0.00039740791097475636 0.0 0.001688799252405282 0.0 0.0
0.0005660220080383471 -0.00016506049479203533 0.0 0.0017527481034130266 0.0 0.0
0.00025491210577915924 -0.000321095141373573 0.0 0.002087401333982275 0.0 0.0
0.0033058760741092597 -0.004800819516430056 0.0 0.0054677864205811 0.0 0.0
0.002421347245757599 -0.0037709674475250865 0.0 -0.004380878204438887 0.0 0.0
0.00018093798762633395 -0.0002673790303027168 0.0 -0.002342389117759802 0.0 0.0
0.0003908136674668494 -0.00011689033067430188 0.0 -0.002070870769665334 0.0 0.0
0.000773240887162463 -0.00027774863647955783 0.0 -0.0019871489696809963 0.0 0.0
0.0012284966332333502 -0.0005572932753767912 0.0 -0.0022158171075796207 0.0 0.0
0.0020984279913243142 -0.0011564138787734102 0.0 -0.002896321286359471 0.0 0.0
0.004024536585267968 -0.0026830808570159626 0.0 -0.004477213466852703 0.0 0.0
0.007412474087728577 -0.005691413379598664 0.0 -0.007151559761470194 0.0 0.0
0.012289684664250233 -0.010272853526517967 0.0 -0.010775527108865424 0.0 0.0
0.01840435849930902 -0.01614843670167465 0.0 -0.014947581711007407 0.0 0.0
0.025461321088483396 -0.022997876034232867 0.0 -0.019232902191017587 0.0 0.0
0.033310630962577054 -0.03065142882385752 0.0 -0.023412454273043504 0.0 0.0
0.041905124561639084 -0.039061304775235506 0.0 -0.027508337051283083 0.0 0.0
0.05123706121425228 -0.04821424105143812 0.0 -0.03148874181938921 0.0 0.0
0.061259728198986424 -0.05805854597245741 0.0 -0.035138471660047466 0.0 0.0
0.07184451254541038 -0.06846852645738899 0.0 -0.038128715797283386 0.0 0.0
0.0828237168279917 -0.07928933934315907 0.0 -0.04011381091730992 0.0 0.0
0.0940441113997445 -0.09033648044370501 0.0 -0.040260945108200885 0.0 0.0
0.10504488890359068 -0.1011120211398806 0.0 -0.03628302048265286 0.0 0.0
0.11470897690054685 -0.11050953775170047 0.0 -0.02520134139364061 0.0 0.0
0.11470897690054008 -0.11050953775168626 0.0 0.02520134139371255 0.0 0.0
0.10504488890356548 -0.10111202113985218 0.0 0.03628302048274512 0.0 0.0
0.09404411139970817 -0.09033648044366505 0.0 0.04026094510826961 0.0 0.0
0.08282371682794565 -0.07928933934310578 0.0 0.040113810917337345 0.0 0.0
0.07184451254536117 -0.06846852645734014 0.0 0.03812871579727317 0.0 0.0
0.06125972819893366 -0.058058545972413 0.0 0.03513847166002826 0.0 0.0
0.05123706121420113 -0.048214241051387496 0.0 0.031488741819375 0.0 0.0
0.041905124561593454 -0.03906130477519021 0.0 0.027508337051271203 0.0 0.0
0.033310630962530896 -0.03065142882381844 0.0 0.023412454273019523 0.0 0.0
0.02546132108844229 -0.02299787603419423 0.0 0.01923290219099083 0.0 0.0
0.018404358499274465 -0.016148436701643565 0.0 0.014947581710971325 0.0 0.0
0.012289684664223977 -0.01027285352649221 0.0 0.01077552710884333 0.0 0.0
0.0074124740877093975 -0.005691413379585342 0.0 0.007151559761452098 0.0 0.0
0.004024536585257088 -0.002683080857007525 0.0 0.0044772134668398245 0.0 0.0
0.002098427991319818 -0.0011564138787703016 0.0 0.002896321286353476 0.0 0.0
0.0012284966332326008 -0.000557293275375681 0.0 0.002215817107576179 0.0 0.0
0.000773240887162352 -0.00027774863648111214 0.0 0.001987148969678776 0.0 0.0
0.0003908136674666829 -0.00011689033067530108 0.0 0.0020708707696643347 0.0 0.0
0.00018093798762602864 -0.0002673790303017176 0.0 0.0023423891177594136 0.0 0.0
0.0024213472457516594 -0.0037709674475175665 0.0 0.004380878204430283 0.0 0.0
0.0017218876106205872 -0.0029105404475592844 0.0 -0.003512327185805797 0.0 0.0
0.00011740477810709415 -0.0002223186267028554 0.0 -0.0024976825221524335 0.0 0.0
0.00022990501430014687 -6.912873821574017e-05 0.0 -0.002307516351058747 0.0 0.0
0.0005078744516029132 -0.00016113035283282784 0.0 -0.0022397257316523755 0.0 0.0
0.0008599369975999527 -0.0003713337970863151 0.0 -0.0024588155225097053 0.0 0.0
0.001419047462584394 -0.0007257195577561326 0.0 -0.0030161057142868986 0.0 0.0
0.0026526867363484696 -0.0016054032136545437 0.0 -0.004273112697539716 0.0 0.0
0.004976266204621549 -0.0035185757708378063 0.0 -0.006494319599339993 0.0 0.0
0.008447039532832934 -0.006663158142969472 0.0 -0.009586405516270768 0.0 0.0
0.012859129725696222 -0.010834791582203795 0.0 -0.013212612670587265 0.0 0.0
0.01794915395429117 -0.015733386992799137 0.0 -0.017030966869836073 0.0 0.0
0.023579647454019664 -0.021194358013832737 0.0 -0.020809166897658993 0.0 0.0
0.029726039755828715 -0.027187101703263217 0.0 -0.024525456147807656 0.0 0.0
0.03642628848251503 -0.033744703358796535 0.0 -0.028152603495590567 0.0 0.0
0.04371800675371251 -0.04089500154830361 0.0 -0.031543638729656265 0.0 0.0
0.051573329555201136 -0.048604739803361774 0.0 -0.03435063121028381 0.0 0.0
0.05991980223651194 -0.056827033288522344 0.0 -0.036240511329301284 0.0 0.0
0.0688769592881493 -0.06569602021120424 0.0 -0.03700715567178181 0.0 0.0
0.07866000301012438 -0.07532053156843066 0.0 -0.034892392869934175 0.0 0.0
0.08865151681654479 -0.08501123334345095 0.0 -0.026091403328997953 0.0 0.0
0.08865151681654015 -0.0850112333434474 0.0 0.026091403329061014 0.0 0.0
0.07866000301010626 -0.07532053156840934 0.0 0.034892392870019884 0.0 0.0
0.06887695928812135 -0.06569602021117493 0.0 0.037007155671846204 0.0 0.0
0.05991980223647797 -0.05682703328848948 0.0 0.03624051132932116 0.0 0.0
0.051573329555164166 -0.04860473980332536 0.0 0.03435063121026605 0.0 0.0
0.043718006753675404 -0.04089500154826187 0.0 0.0315436387296375 0.0 0.0
0.03642628848247895 -0.03374470335875834 0.0 0.028152603495579465 0.0 0.0
0.029726039755798628 -0.02718710170323524 0.0 0.02452545614779955 0.0 0.0
0.023579647453987163 -0.02119435801380032 0.0 0.02080916689763712 0.0 0.0
0.017949153954261388 -0.015733386992769383 0.0 0.01703096686980865 0.0 0.0
0.012859129725672935 -0.010834791582178038 0.0 0.013212612670556956 0.0 0.0
0.00844703953281456 -0.006663158142945491 0.0 0.009586405516254004 0.0 0.0
0.004976266204608781 -0.0035185757708280363 0.0 0.00649431959932667 0.0 0.0
0.0026526867363413364 -0.0016054032136501029 0.0 0.0042731126975315 0.0 0.0
0.0014190474625819793 -0.0007257195577534681 0.0 0.003016105714280626 0.0 0.0
0.0008599369975995086 -0.0003713337970867592 0.0 0.002458815522505986 0.0 0.0
0.000507874451603163 -0.0001611303528306074 0.0 0.002239725731650488 0.0 0.0
0.00022990501429964727 -6.912873821551813e-05 0.0 0.002307516351057859 0.0 0.0
0.00011740477810673333 -0.00022231862670346603 0.0 0.002497682522150879 0.0 0.0
0.0017218876106160352 -0.0029105404475545642 0.0 0.003512327185799191 0.0 0.0
0.0011919333522661668 -0.0022190833369671314 0.0 -0.0028494499799045503 0.0 0.0
4.7143763482443424e-05 -0.00018344553086979687 0.0 -0.0025731900154969956 0.0 0.0
7.403298177643958e-05 -1.5434617813614437e-05 0.0 -0.002467794615113428 0.0 0.0
0.0002479843557631478 -4.540260690677478e-05 0.0 -0.0024325899922653105 0.0 0.0
0.0004915961839212779 -0.00019332530657578673 0.0 -0.00266616964061428 0.0 0.0
0.0008213114301329483 -0.0003960732498766717 0.0 -0.0031572198495148363 0.0 0.0
0.0014757312173983017 -0.000797097420913051 0.0 -0.004038062020144673 0.0 0.0
0.002781634743686562 -0.0017243556434127782 0.0 -0.005579139360622487 0.0 0.0
0.0048531606288705065 -0.003429991575536917 0.0 -0.007832698296046714 0.0 0.0
0.007529576798536025 -0.005847105442094325 0.0 -0.01057095319024659 0.0 0.0
0.01061922546110225 -0.008750154454176151 0.0 -0.013569075944156017 0.0 0.0
0.014009503951924018 -0.011995813183958148 0.0 -0.016639721811509967 0.0 0.0
0.017703775462700133 -0.015565626923360831 0.0 -0.019737560015029354 0.0 0.0
0.021762506897081313 -0.019516946853709527 0.0 -0.022793691257333104 0.0 0.0
0.026282420393242245 -0.023937641468000592 0.0 -0.025726477162600125 0.0 0.0
0.03136680907935305 -0.028916111411628975 0.0 -0.02829855267023107 0.0 0.0
0.037072988499002646 -0.03450527276053261 0.0 -0.030043231116457125 0.0 0.0
0.043556877865959964 -0.0409384574254128 0.0 -0.030917976935770364 0.0 0.0
0.05154834823367657 -0.04892927073375386 0.0 -0.030813816559636886 0.0 0.0
0.06165761470522663 -0.058719530014180066 0.0 -0.02616846031753306 0.0 0.0
0.061657614705224434 -0.05871953001417829 0.0 0.02616846031758513 0.0 0.0
0.05154834823366594 -0.048929270733761854 0.0 0.030813816559712826 0.0 0.0
0.043556877865940535 -0.040938457425415464 0.0 0.030917976935823543 0.0 0.0
0.03707298849898094 -0.0345052727605184 0.0 0.030043231116472557 0.0 0.0
0.03136680907933015 -0.02891611141160144 0.0 0.028298552670215527 0.0 0.0
0.02628242039322129 -0.023937641467970394 0.0 0.02572647716258658 0.0 0.0
0.021762506897061495 -0.019516946853691763 0.0 0.022793691257323667 0.0 0.0
0.017703775462684396 -0.015565626923349729 0.0 0.019737560015024136 0.0 0.0
0.01400950395190556 -0.01199581318394305 0.0 0.016639721811492647 0.0 0.0
0.010619225461085652 -0.008750154454163273 0.0 0.013569075944136588 0.0 0.0
0.007529576798522952 -0.005847105442087663 0.0 0.010570953190225496 0.0 0.0
0.0048531606288607365 -0.003429991575531588 0.0 0.007832698296033724 0.0 0.0
0.0027816347436791233 -0.001724355643411446 0.0 0.005579139360610941 0.0 0.0
0.0014757312173948045 -0.0007970974209126069 0.0 0.004038062020137345 0.0 0.0
0.0008213114301320323 -0.0003960732498713426 0.0 0.0031572198495100068 0.0 0.0
0.0004915961839213057 -0.00019332530657245606 0.0 0.0026661696406120594 0.0 0.0
0.00024798435576312006 -4.540260690766296e-05 0.0 0.002432589992262979 0.0 0.0
7.403298177585671e-05 -1.5434617812393192e-05 0.0 0.002467794615109875 0.0 0.0
4.714376348194382e-05 -0.0001834455308695193 0.0 0.0025731900154951637 0.0 0.0
0.001191933352263419 -0.0022190833369632353 0.0 0.002849449979898555 0.0 0.0
0.000807481734218074 -0.0016798096424898157 0.0 -0.002351319769690774 0.0 0.0
-3.563915554019581e-05 -0.00015132729505895615 0.0 -0.002593467922129722 0.0 0.0
-8.164149259587417e-05 4.72713102781519e-05 0.0 -0.0025639257414321603 0.0 0.0
-5.422504120750071e-06 6.851376139294096e-05 0.0 -0.0025627117055905257 0.0 0.0
0.00011865490809195856 -1.222960764435399e-05 0.0 -0.002794994908966175 0.0 0.0
0.0002549182236414038 -0.00011036200367664506 0.0 -0.0032923965954348433 0.0 0.0
0.00046251900276522706 -0.0002308089024660731 0.0 -0.003958019321018913 0.0 0.0
0.0008728370541633557 -0.00044939233547891533 0.0 -0.0047379810410703715 0.0 0.0
0.0015625551437680463 -0.0008621363768779311 0.0 -0.005862156536389662 0.0 0.0
0.0024639756010575997 -0.0015067970815811904 0.0 -0.007501425656884386 0.0 0.0
0.0035005378246683316 -0.0023504545700125945 0.0 -0.009611504211573085 0.0 0.0
0.004619246861730125 -0.003341387919001626 0.0 -0.011981418190178617 0.0 0.0
0.005840355939729536 -0.004468167285176072 0.0 -0.014515541862888726 0.0 0.0
0.0072336764277159404 -0.005789765877023179 0.0 -0.01717541890837493 0.0 0.0
0.008941488106922912 -0.007434721076910122 0.0 -0.019903820766430713 0.0 0.0
0.011192262966213617 -0.009613502973761179 0.0 -0.02250071647005536 0.0 0.0
0.014261677550272273 -0.012577121284545356 0.0 -0.024453964626330316 0.0 0.0
0.018356416259042274 -0.016532967635680684 0.0 -0.025098583936856156 0.0 0.0
0.023979572770027324 -0.022220985602811716 0.0 -0.025236097572843397 0.0 0.0
0.03313987277941022 -0.03133254985642431 0.0 -0.025228834250700327 0.0 0.0
0.03313987277941158 -0.0313325498564172 0.0 0.02522883425074207 0.0 0.0
0.023979572770023078 -0.022220985602801946 0.0 0.0252360975729089 0.0 0.0
0.018356416259032143 -0.016532967635666473 0.0 0.02509858393689912 0.0 0.0
0.014261677550264695 -0.012577121284527593 0.0 0.024453964626333646 0.0 0.0
0.0111922629662069 -0.009613502973758514 0.0 0.022500716470034154 0.0 0.0
0.008941488106917694 -0.007434721076912787 0.0 0.019903820766415947 0.0 0.0
0.007233676427712776 -0.005789765877025843 0.0 0.01717541890836538 0.0 0.0
0.005840355939726927 -0.004468167285176072 0.0 0.014515541862882397 0.0 0.0
0.004619246861727322 -0.0033413879189989615 0.0 0.011981418190160742 0.0 0.0
0.0035005378246657226 -0.0023504545700121504 0.0 0.009611504211556987 0.0 0.0
0.00246397560105463 -0.0015067970815807463 0.0 0.007501425656869953 0.0 0.0
0.0015625551437662422 -0.0008621363768810397 0.0 0.005862156536385665 0.0 0.0
0.000872837054161052 -0.0004493923354802476 0.0 0.0047379810410653755 0.0 0.0
0.00046251900276447766 -0.00023080890246385266 0.0 0.0039580193210165815 0.0 0.0
0.0002549182236417369 -0.00011036200367864346 0.0 0.0032923965954298473 0.0 0.0
0.0001186549080921806 -1.2229607646574436e-05 0.0 0.0027949949089613457 0.0 0.0
-5.422504120833338e-06 6.851376139249687e-05 0.0 0.0025627117055879722 0.0 0.0
-8.164149259595743e-05 4.7271310278373946e-05 0.0 0.002563925741431272 0.0 0.0
-3.563915554069541e-05 -0.0001513272950586786 0.0 0.002593467922129611 0.0 0.0
0.0008074817342164642 -0.001679809642487009 0.0 0.002351319769685112 0.0 0.0
0.0005361376280852426 -0.001284374597574689 0.0 -0.0020274727610417043 0.0 0.0
-0.00012420443783225932 -0.0001227276952651124 0.0 -0.002584881266202599 0.0 0.0
-0.00023695159910663843 0.00011561412146088301 0.0 -0.0026008636490029158 0.0 0.0
-0.0002525164722536055 0.00018002229228430977 0.0 -0.0026209004002771263 0.0 0.0
-0.0002518890895783499 0.00016890077017617244 0.0 -0.002837052967367304 0.0 0.0
-0.00031037173455389366 0.00017099388197872045 0.0 -0.0033157846379915368 0.0 0.0
-0.00048641211772773585 0.00024893221870492255 0.0 -0.003975170873412925 0.0 0.0
-0.0008823959514313306 0.0004566484477206423 0.0 -0.004752965973983669 0.0 0.0
-0.001563842251169234 0.0008644484055699841 0.0 -0.005868986740052429 0.0 0.0
-0.0024644955905200605 0.001509800353964419 0.0 -0.0075027761405952464 0.0 0.0
-0.0035182001072081026 0.002372185080216749 0.0 -0.009618417145845881 0.0 0.0
-0.00468524417258237 0.003405579902648892 0.0 -0.011996900713927672 0.0 0.0
-0.00594958678103194 0.004558227627758704 0.0 -0.014526215277935739 0.0 0.0
-0.007236847043084388 0.00574692576179725 0.0 -0.01717053708262717 0.0 0.0
-0.008358326929373716 0.0067871211617083205 0.0 -0.01990644788660112 0.0 0.0
-0.008991396784934769 0.007367147207326674 0.0 -0.02267108657250838 0.0 0.0
-0.008685304981968067 0.007066466795615511 0.0 -0.025439595951088245 0.0 0.0
-0.007076021461368959 0.0056474435390372335 0.0 -0.02832694807253011 0.0 0.0
-0.0037740430385743706 0.002812544037060327 0.0 -0.030957500046279174 0.0 0.0
0.004318893730508699 -0.004898512211572559 0.0 -0.030577680983151723 0.0 0.0
0.004318893730510198 -0.0048985122115610125 0.0 0.030577680983169264 0.0 0.0
-0.00377404303857401 0.0028125440370665444 0.0 0.030957500046300157 0.0 0.0
-0.007076021461366294 0.005647443539028352 0.0 0.02832694807253522 0.0 0.0
-0.008685304981958464 0.007066466795604853 0.0 0.02543959595107914 0.0 0.0
-0.008991396784924166 0.007367147207308911 0.0 0.022671086572485954 0.0 0.0
-0.008358326929362697 0.006787121161687004 0.0 0.01990644788658391 0.0 0.0
-0.0072368470430726195 0.005746925761779487 0.0 0.017170537082612514 0.0 0.0
-0.005949586781020366 0.004558227627744937 0.0 0.014526215277923082 0.0 0.0
-0.004685244172569825 0.003405579902638234 0.0 0.01199690071390569 0.0 0.0
-0.003518200107196473 0.002372185080203426 0.0 0.009618417145823233 0.0 0.0
-0.002464495590512039 0.0015098003539555371 0.0 0.007502776140578149 0.0 0.0
-0.001563842251163572 0.0008644484055686519 0.0 0.005868986740045767 0.0 0.0
-0.000882395951428333 0.00045664844772108637 0.0 0.004752965973978451 0.0 0.0
-0.00048641211772623705 0.0002489322187066989 0.0 0.0039751708734083735 0.0 0.0
-0.00031037173455233935 0.0001709938819769441 0.0 0.0033157846379878175 0.0 0.0
-0.0002518890895778503 0.00016890077017617244 0.0 0.00283705296736414 0.0 0.0
-0.0002525164722536055 0.00018002229228542 0.0 0.002620900400275461 0.0 0.0
-0.00023695159910636088 0.00011561412146088301 0.0 0.0026008636490021386 0.0 0.0
-0.0001242044378324536 -0.00012272769526600058 0.0 0.002584881266202377 0.0 0.0
0.0005361376280839936 -0.0012843745975734556 0.0 0.002027472761041038 0.0 0.0
0.0003502962238551288 -0.0010001037759793108 0.0 -0.0018186508381357602 0.0 0.0
-0.00020713266923017004 -9.017908992026147e-05 0.0 -0.002540514912354297 0.0 0.0
-0.0003887613869241746 0.00018270270852038806 0.0 -0.0025835325205602055 0.0 0.0
-0.0004921062117909658 0.00028801022747071414 0.0 -0.0026023904596903513 0.0 0.0
-0.0006152803863116452 0.00034528166579828046 0.0 -0.0027872261024675105 0.0 0.0
-0.0008769242439459202 0.00045889141315669235 0.0 -0.0032335423949793607 0.0 0.0
-0.0014983681667798399 0.0008191095766263423 0.0 -0.004089843743781407 0.0 0.0
-0.002787200635815279 0.001732113150856751 0.0 -0.0056081120237552184 0.0 0.0
-0.004851718967311347 0.0034307109525788526 0.0 -0.007840671119329068 0.0 0.0
-0.007531268167769056 0.005851937786014005 0.0 -0.0105734293796782 0.0 0.0
-0.010639777646320958 0.008776083754710395 0.0 -0.013569208616833972 0.0 0.0
-0.014071019966713505 0.012060240974042014 0.0 -0.016615794457214728 0.0 0.0
-0.0177970120841551 0.015646233574651447 0.0 -0.019663689312733768 0.0 0.0
-0.021740099206812552 0.019447924484320644 0.0 -0.02270246466997672 0.0 0.0
-0.025680122609041928 0.023244156381338144 0.0 -0.02578810593486991 0.0 0.0
-0.029217077199394398 0.02664592620325923 0.0 -0.0289647616737434 0.0 0.0
-0.031811525334247914 0.029138844933301655 0.0 -0.03234306406001819 0.0 0.0
-0.03287325322287146 0.030134419144912883 0.0 -0.03580535508060956 0.0 0.0
-0.03126123832598071 0.028269910864546333 0.0 -0.03755082018032718 0.0 0.0
-0.023378457671617947 0.020005552819288397 0.0 -0.03566283418832339 0.0 0.0
-0.02337845767161717 0.020005552819292838 0.0 0.03566283418836935 0.0 0.0
-0.03126123832597566 0.02826991086453745 0.0 0.037550820180387356 0.0 0.0
-0.03287325322285545 0.030134419144896896 0.0 0.03580535508064808 0.0 0.0
-0.031811525334222324 0.029138844933276786 0.0 0.0323430640600183 0.0 0.0
-0.029217077199366698 0.02664592620323436 0.0 0.028964761673720307 0.0 0.0
-0.025680122609014894 0.023244156381318604 0.0 0.025788105934849148 0.0 0.0
-0.021740099206786073 0.019447924484305545 0.0 0.022702464669959843 0.0 0.0
-0.017797012084128566 0.01564623357462125 0.0 0.019663689312721222 0.0 0.0
-0.014071019966686554 0.012060240974017589 0.0 0.01661579445719108 0.0 0.0
-0.010639777646295867 0.008776083754688191 0.0 0.01356920861680544 0.0 0.0
-0.007531268167749183 0.00585193778599713 0.0 0.010573429379653998 0.0 0.0
-0.004851718967297719 0.0034307109525686386 0.0 0.007840671119315856 0.0 0.0
-0.002787200635807646 0.0017321131508487575 0.0 0.005608112023744338 0.0 0.0
-0.0014983681667749826 0.0008191095766174605 0.0 0.004089843743773747 0.0 0.0
-0.0008769242439430336 0.0004588914131533617 0.0 0.0032335423949751974 0.0 0.0
-0.0006152803863108403 0.0003452816657989466 0.0 0.002787226102464402 0.0 0.0
-0.0004921062117908825 0.00028801022747182436 0.0 0.002602390459688686 0.0 0.0
-0.00038876138692384155 0.00018270270852194237 0.0 0.0025835325205596504 0.0 0.0
-0.0002071326692301978 -9.017908991981738e-05 0.0 0.0025405149123534088 0.0 0.0
0.00035029622385443493 -0.0010001037759780548 0.0 0.0018186508381329847 0.0 0.0
0.00022259026805376836 -0.0007689057455755322 0.0 -0.001622127590482858 0.0 0.0
-0.00028009487869901095 -5.249808669494094e-05 0.0 -0.0024429576098600747 0.0 0.0
-0.0005333957727077787 0.00024486697108994093 0.0 -0.0025086552666395145 0.0 0.0
-0.0007227381506954011 0.0003903251692636278 0.0 -0.002511125503536882 0.0 0.0
-0.0009689246672918705 0.0005153899243655058 0.0 -0.00265349133310111 0.0 0.0
-0.00147280587103793 0.0007925344113761668 0.0 -0.003140026137528562 0.0 0.0
-0.0026686683448312043 0.0016277474003256742 0.0 -0.00433884799396167 0.0 0.0
-0.004974383695495577 0.003520450644050488 0.0 -0.006517580735351802 0.0 0.0
-0.008444151338844352 0.006661742284145955 0.0 -0.009588324855485553 0.0 0.0
-0.012863633259148688 0.010841617231463818 0.0 -0.013215371362501616 0.0 0.0
-0.01796853036752394 0.01575675952036315 0.0 -0.01701988412675537 0.0 0.0
-0.023622837646757433 0.021240471300286057 0.0 -0.020728534470607407 0.0 0.0
-0.029778954428599236 0.02723092155483009 0.0 -0.02431537070482881 0.0 0.0
-0.03636110190238245 0.0336406156144351 0.0 -0.027891804132864628 0.0 0.0
-0.04313206700139194 0.0402291707885194 0.0 -0.0316914104954803 0.0 0.0
-0.04962420984320762 0.046541889030142336 0.0 -0.036011586978216936 0.0 0.0
-0.05515168994971892 0.05190121041863005 0.0 -0.040965499671842154 0.0 0.0
-0.05867251225315598 0.055209867760253495 0.0 -0.04565384455846344 0.0 0.0
-0.05819333790316411 0.05443976190172517 0.0 -0.047938717236535755 0.0 0.0
-0.04946196102697245 0.04495342818766357 0.0 -0.04361454970832623 0.0 0.0
-0.04946196102696876 0.04495342818765824 0.0 0.043614549708382855 0.0 0.0
-0.058193337903153036 0.054439761901707406 0.0 0.04793871723661114 0.0 0.0
-0.05867251225313058 0.05520986776023484 0.0 0.04565384455851096 0.0 0.0
-0.05515168994968056 0.0519012104185963 0.0 0.040965499671845707 0.0 0.0
-0.04962420984316385 0.046541889030089045 0.0 0.03601158697819795 0.0 0.0
-0.043132067001349444 0.040229170788466107 0.0 0.031691410495460315 0.0 0.0
-0.03636110190234007 0.033640615614393354 0.0 0.027891804132841314 0.0 0.0
-0.0297789544285586 0.027230921554786125 0.0 0.02431537070481138 0.0 0.0
-0.023622837646716743 0.021240471300244312 0.0 0.020728534470579207 0.0 0.0
-0.017968530367485608 0.015756759520324515 0.0 0.017019884126720508 0.0 0.0
-0.012863633259116908 0.0108416172314314 0.0 0.013215371362468309 0.0 0.0
-0.008444151338822342 0.006661742284122418 0.0 0.00958832485546579 0.0 0.0
-0.004974383695482254 0.003520450644040718 0.0 0.006517580735338591 0.0 0.0
-0.0026686683448222115 0.0016277474003225656 0.0 0.004338847993952122 0.0 0.0
-0.0014728058710336833 0.0007925344113743904 0.0 0.003140026137522678 0.0 0.0
-0.0009689246672906493 0.0005153899243632853 0.0 0.0026534913330996668 0.0 0.0
-0.0007227381506950403 0.0003903251692611853 0.0 0.0025111255035370483 0.0 0.0
-0.0005333957727075289 0.00024486697108905275 0.0 0.0025086552666379047 0.0 0.0
-0.00028009487869901095 -5.249808669643974e-05 0.0 0.0024429576098592976 0.0 0.0
0.0002225902680536851 -0.0007689057455754055 0.0 0.001622127590482858 0.0 0.0
0.00012551866226911956 -0.0005655380507281205 0.0 -0.001410807567592709 0.0 0.0
-0.0003448124019769794 -9.879649552457792e-06 0.0 -0.0022902282629848614 0.0 0.0
-0.0006690258154889439 0.00030172696892050155 0.0 -0.002380971956542133 0.0 0.0
-0.0009430565015521308 0.00048453574983442493 0.0 -0.0023558824284146684 0.0 0.0
-0.001318691618843737 0.0006904208270721579 0.0 -0.0024670668119524675 0.0 0.0
-0.002143834120948318 0.0012214156917855767 0.0 -0.00304394597728197 0.0 0.0
-0.004028003640758393 0.002696825673791814 0.0 -0.004534698455287978 0.0 0.0
-0.0074047463693223126 0.005685660695402106 0.0 -0.007158803756947885 0.0 0.0
-0.012288381897753387 0.010272166581668518 0.0 -0.01077418549379383 0.0 0.0
-0.018412003941669808 0.01615734872172947 0.0 -0.014950629458041154 0.0 0.0
-0.025474296651933792 0.023012755720413836 0.0 -0.019210095053502352 0.0 0.0
-0.03331960198172462 0.03066218577580937 0.0 -0.023280118703146058 0.0 0.0
-0.04188835179447159 0.03904044223955605 0.0 -0.027170988642612026 0.0 0.0
-0.051111178648521105 0.048065055403488266 0.0 -0.031057376254457925 0.0 0.0
-0.06075168034335493 0.05749339009114518 0.0 -0.03531949736845719 0.0 0.0
-0.0702765138788411 0.06679001707690535 0.0 -0.04042746753516524 0.0 0.0
-0.07871604567181087 0.07497659642242827 0.0 -0.04638468996269207 0.0 0.0
-0.08442603007604452 0.08038676723735705 0.0 -0.05195308081838834 0.0 0.0
-0.08458184441257355 0.08008957608592926 0.0 -0.05413015129388443 0.0 0.0
-0.07397699579349723 0.06881443766584727 0.0 -0.04970753938515349 0.0 0.0
-0.0739769957934909 0.06881443766584106 0.0 0.04970753938521921 0.0 0.0
-0.0845818444125552 0.08008957608591416 0.0 0.05413015129396881 0.0 0.0
-0.08442603007601063 0.08038676723732419 0.0 0.05195308081845218 0.0 0.0
-0.07871604567176083 0.07497659642238386 0.0 0.04638468996270684 0.0 0.0
-0.07027651387878348 0.06679001707684673 0.0 0.04042746753514803 0.0 0.0
-0.06075168034329739 0.05749339009108834 0.0 0.0353194973684382 0.0 0.0
-0.05111117864846362 0.048065055403430534 0.0 0.03105737625443017 0.0 0.0
-0.04188835179441633 0.03904044223949921 0.0 0.0271709886425876 0.0 0.0
-0.033319601981669916 0.03066218577574986 0.0 0.023280118703118524 0.0 0.0
-0.025474296651882944 0.02301275572036321 0.0 0.019210095053467047 0.0 0.0
-0.01841200394162737 0.016157348721683285 0.0 0.014950629458006959 0.0 0.0
-0.01228838189772255 0.010272166581638764 0.0 0.010774185493769739 0.0 0.0
-0.007404746369302079 0.0056856606953794575 0.0 0.007158803756929455 0.0 0.0
-0.004028003640745709 0.0026968256737816 0.0 0.004534698455275432 0.0 0.0
-0.002143834120942406 0.0012214156917833563 0.0 0.003043945977277085 0.0 0.0
-0.0013186916188418218 0.0006904208270763768 0.0 0.0024670668119519124 0.0 0.0
-0.0009430565015509651 0.00048453574983442493 0.0 0.002355882428415168 0.0 0.0
-0.0006690258154891382 0.0003017269689198354 0.0 0.0023809719565422993 0.0 0.0
-0.0003448124019764798 -9.879649551791658e-06 0.0 0.0022902282629835846 0.0 0.0
0.00012551866226939712 -0.0005655380507276781 0.0 0.00141080756759282 0.0 0.0
4.4288434741468485e-05 -0.0003868428333172469 0.0 -0.0011920026196057254 0.0 0.0
-0.00040501927563985074 3.796927082955204e-05 0.0 -0.0020800637346884976 0.0 0.0
-0.0007951866114832562 0.0003534027732758904 0.0 -0.0021953337907165693 0.0 0.0
-0.001151786376157815 0.00057002700933384 0.0 -0.00213515910089096 0.0 0.0
-0.0016831634252714167 0.0008867672747672195 0.0 -0.0022369356847891653 0.0 0.0
-0.002919871887556935 0.0017764385125280668 0.0 -0.0029115751658788658 0.0 0.0
-0.0055643124327836024 0.004009876445823846 0.0 -0.004581415525110488 0.0 0.0
-0.010038097249901456 0.008131836691835037 0.0 -0.007443692964614335 0.0 0.0
-0.016316216257139082 0.014126639504315808 0.0 -0.011317914053913691 0.0 0.0
-0.024097321168106534 0.021662140006953656 0.0 -0.015675894622005027 0.0 0.0
-0.03309137850521271 0.030424980443974015 0.0 -0.020048958905589 0.0 0.0
-0.04311593772493327 0.04022771154486238 0.0 -0.024226527522615116 0.0 0.0
-0.054085708332070825 0.0509826568609304 0.0 -0.028208964335351583 0.0 0.0
-0.0659374881598595 0.0626150658627811 0.0 -0.03214933202964998 0.0 0.0
-0.07845740327297895 0.07489191138588325 0.0 -0.0364834561143601 0.0 0.0
-0.09101664801913739 0.08716839028762191 0.0 -0.041749147795148156 0.0 0.0
-0.10229231084340712 0.0981103189492103 0.0 -0.04797927287011716 0.0 0.0
-0.10997694754265852 0.10538320675749535 0.0 -0.05384573045532581 0.0 0.0
-0.11036738075740132 0.10526682734456205 0.0 -0.0566881333128314 0.0 0.0
-0.0979592154550524 0.0922797170735139 0.0 -0.05492672575629498 0.0 0.0
-0.0979592154550438 0.09227971707350768 0.0 0.054926725756359596 0.0 0.0
-0.11036738075737487 0.10526682734454518 0.0 0.05668813331291467 0.0 0.0
-0.10997694754261547 0.10538320675745894 0.0 0.05384573045538876 0.0 0.0
-0.10229231084334692 0.09811031894914723 0.0 0.04797927287013182 0.0 0.0
-0.09101664801906714 0.0871683902875553 0.0 0.04174914779513317 0.0 0.0
-0.07845740327290715 0.07489191138581752 0.0 0.03648345611434056 0.0 0.0
-0.06593748815978773 0.06261506586271359 0.0 0.03214933202962289 0.0 0.0
-0.05408570833200066 0.050982656860866005 0.0 0.028208964335329045 0.0 0.0
-0.04311593772486419 0.04022771154479576 0.0 0.024226527522587693 0.0 0.0
-0.03309137850515094 0.030424980443915395 0.0 0.02004895890554792 0.0 0.0
-0.024097321168053493 0.02166214000690392 0.0 0.01567589462196517 0.0 0.0
-0.016316216257099336 0.01412663950428028 0.0 0.011317914053888323 0.0 0.0
-0.01003809724987409 0.00813183669180928 0.0 0.007443692964595461 0.0 0.0
-0.005564312432766852 0.004009876445810967 0.0 0.004581415525096499 0.0 0.0
-0.002919871887548456 0.0017764385125209614 0.0 0.0029115751658713718 0.0 0.0
-0.0016831634252688216 0.0008867672747630007 0.0 0.002236935684785224 0.0 0.0
-0.0011517863761559832 0.0005700270093331739 0.0 0.00213515910088663 0.0 0.0
-0.0007951866114836725 0.00035340277327644554 0.0 0.0021953337907154036 0.0 0.0
-0.00040501927563942053 3.796927082966306e-05 0.0 0.0020800637346882755 0.0 0.0
4.428843474124644e-05 -0.0003868428333167681 0.0 0.0011920026196024502 0.0 0.0
-2.4724597432579376e-05 -0.00023357387967104515 0.0 -0.0009668550937843023 0.0 0.0
-0.00046267489200157996 8.973966576675263e-05 0.0 -0.0018171100107347016 0.0 0.0
-0.000912836889673696 0.0004004528477716818 0.0 -0.0019525509090750903 0.0 0.0
-0.0013525207243670345 0.0006531891325283201 0.0 -0.0018685912158381557 0.0 0.0
-0.002085893946208839 0.0011288052174323049 0.0 -0.0019821273013327367 0.0 0.0
-0.0038114046914012323 0.0024735137641522797 0.0 -0.002707706475655214 0.0 0.0
-0.007259911126364316 0.005536991367014021 0.0 -0.0044262343156822315 0.0 0.0
-0.012828934635742917 0.010781597147958788 0.0 -0.007320910176975781 0.0 0.0
-0.020449689093922307 0.018125572841233062 0.0 -0.011124645434618552 0.0 0.0
-0.029855858326138796 0.027269404107360007 0.0 -0.015335687642941687 0.0 0.0
-0.040768072589895676 0.037925130125306517 0.0 -0.019573117412489904 0.0 0.0
-0.052968997360489156 0.0498770796330148 0.0 -0.023619343066494047 0.0 0.0
-0.06633392379320985 0.0630015167118394 0.0 -0.02747825115769953 0.0 0.0
-0.08078701685608031 0.07721360764121687 0.0 -0.0312510098344696 0.0 0.0
-0.09612396481653157 0.09228011748482601 0.0 -0.035222550142355535 0.0 0.0
-0.11164023871094181 0.10746085143369122 0.0 -0.03993906718200946 0.0 0.0
-0.12566442463905036 0.1210676536122186 0.0 -0.04572041407327432 0.0 0.0
-0.13521807997459587 0.13012483023304 0.0 -0.051792184473652636 0.0 0.0
-0.13591390286343916 0.13028498677880052 0.0 -0.05656066178904762 0.0 0.0
-0.1220620691923347 0.11590602361240077 0.0 -0.059692557468564944 0.0 0.0
-0.12206206919232337 0.115906023612383 0.0 0.059692557468629115 0.0 0.0
-0.13591390286340546 0.13028498677875344 0.0 0.056560661789126665 0.0 0.0
-0.13521807997454283 0.1301248302329805 0.0 0.05179218447371259 0.0 0.0
-0.12566442463897998 0.12106765361213867 0.0 0.045720414073288085 0.0 0.0
-0.11164023871085865 0.1074608514336175 0.0 0.039939067181998245 0.0 0.0
-0.09612396481644628 0.09228011748474962 0.0 0.03522255014233888 0.0 0.0
-0.08078701685599404 0.07721360764113072 0.0 0.031251009834442955 0.0 0.0
-0.06633392379312486 0.06300151671175724 0.0 0.027478251157675326 0.0 0.0
-0.0529689973604071 0.04987707963293708 0.0 0.023619343066467458 0.0 0.0
-0.04076807258982228 0.03792513012524035 0.0 0.019573117412454544 0.0 0.0
-0.029855858326075027 0.027269404107298723 0.0 0.015335687642905493 0.0 0.0
-0.02044968909387429 0.01812557284118599 0.0 0.011124645434592684 0.0 0.0
-0.012828934635708111 0.010781597147927702 0.0 0.007320910176954465 0.0 0.0
-0.007259911126342444 0.005536991366994037 0.0 0.004426234315670019 0.0 0.0
-0.003811404691390005 0.002473513764143398 0.0 0.002707706475649496 0.0 0.0
-0.0020858939462052722 0.0011288052174314167 0.0 0.0019821273013299057 0.0 0.0
-0.001352520724365175 0.000653189132527654 0.0 0.0018685912158359907 0.0 0.0
-0.0009128368896734046 0.00040045284777057155 0.0 0.0019525509090754234 0.0 0.0
-0.0004626748920015106 8.973966576575343e-05 0.0 0.0018171100107324811 0.0 0.0
-2.4724597432704276e-05 -0.0002335738796711926 0.0 0.0009668550937840803 0.0 0.0
-8.079563035479076e-05 -0.00010804677111297956 0.0 -0.0007349960177349679 0.0 0.0
-0.0005168058460536806 0.00014291150061951363 0.0 -0.0015072063583033701 0.0 0.0
-0.0010240243520426295 0.0004439848074861974 0.0 -0.001653626703434885 0.0 0.0
-0.0015540664395480852 0.0007407486310995193 0.0 -0.0015545141526162043 0.0 0.0
-0.0025482799553580016 0.0014331428766221066 0.0 -0.0016791137099480546 0.0 0.0
-0.00482084551665235 0.003322173880960122 0.0 -0.0024061135131231426 0.0 0.0
-0.009095172499406334 0.0072441951916499825 0.0 -0.004060556613674882 0.0 0.0
-0.015707573029235755 0.013555393426454732 0.0 -0.006718379965533705 0.0 0.0
-0.02462773973462906 0.022192742590139147 0.0 -0.010136991807227935 0.0 0.0
-0.03564063199356321 0.032923214378935306 0.0 -0.013954971257247761 0.0 0.0
-0.048458177427500304 0.045460122115767554 0.0 -0.01779549161490812 0.0 0.0
-0.06283503950732922 0.05956006367505884 0.0 -0.021470923397474806 0.0 0.0
-0.07859688645636648 0.07505209353260778 0.0 -0.02499966954078381 0.0 0.0
-0.0956095933903795 0.09179614573383699 0.0 -0.028379628485463604 0.0 0.0
-0.11363430728834267 0.10952749970556042 0.0 -0.03165751251546833 0.0 0.0
-0.1319341136597898 0.12745538619633745 0.0 -0.03519686653046783 0.0 0.0
-0.1486195004094314 0.14365212727996823 0.0 -0.03977596473656342 0.0 0.0
-0.16017317035521472 0.1546376844453885 0.0 -0.04598898278316943 0.0 0.0
-0.1615926036322189 0.15547450505843674 0.0 -0.05389006229957638 0.0 0.0
-0.1467869638274215 0.14015552178437307 0.0 -0.0639975963144015 0.0 0.0
-0.1467869638274073 0.14015552178435975 0.0 0.06399759631446289 0.0 0.0
-0.16159260363217895 0.15547450505840388 0.0 0.05389006229965154 0.0 0.0
-0.16017317035515158 0.15463768444533432 0.0 0.04598898278321917 0.0 0.0
-0.1486195004093495 0.14365212727989896 0.0 0.03977596473657574 0.0 0.0
-0.13193411365969393 0.1274553861962513 0.0 0.035196866530457505 0.0 0.0
-0.11363430728824343 0.10952749970545295 0.0 0.03165751251546134 0.0 0.0
-0.09560959339027975 0.0917961457337384 0.0 0.028379628485442676 0.0 0.0
-0.0785968864562677 0.07505209353250741 0.0 0.024999669540762604 0.0 0.0
-0.06283503950723397 0.05956006367496647 0.0 0.021470923397449826 0.0 0.0
-0.04845817742741472 0.045460122115688506 0.0 0.017795491614875536 0.0 0.0
-0.03564063199348977 0.03292321437886603 0.0 0.013954971257213289 0.0 0.0
-0.02462773973457319 0.02219274259008186 0.0 0.01013699180720834 0.0 0.0
-0.01570757302919397 0.01355539342641432 0.0 0.006718379965517274 0.0 0.0
-0.009095172499379398 0.007244195191629554 0.0 0.004060556613660948 0.0 0.0
-0.0048208455166385 0.003322173880950796 0.0 0.002406113513113761 0.0 0.0
-0.0025482799553529084 0.0014331428766183318 0.0 0.0016791137099432807 0.0 0.0
-0.0015540664395461284 0.0007407486311004075 0.0 0.0015545141526159267 0.0 0.0
-0.001024024352042019 0.0004439848074873076 0.0 0.0016536267034338303 0.0 0.0
-0.0005168058460535696 0.000142911500618903 0.0 0.001507206358302371 0.0 0.0
-8.079563035459647e-05 -0.0001080467711127419 0.0 0.0007349960177348569 0.0 0.0
-0.00012035815450806009 -1.3621076875303118e-05 0.0 -0.000497955818926421 0.0 0.0
-0.0005631229947856697 0.00019366540198439974 0.0 -0.0011536882711433716 0.0 0.0
-0.0011307433289841629 0.00048420855517550265 0.0 -0.0012945116195807183 0.0 0.0
-0.0017700907179227232 0.0008453806509001183 0.0 -0.001195072354628457 0.0 0.0
-0.003087390657018352 0.0018240281169370487 0.0 -0.0013210373421520538 0.0 0.0
-0.005950420401495127 0.004318441633705206 0.0 -0.00199190263813237 0.0 0.0
-0.011020147892147392 0.009069600793302879 0.0 -0.003381597854156815 0.0 0.0
-0.01861843974731825 0.01638382965593399 0.0 -0.0055516301014315594 0.0 0.0
-0.028809074630521403 0.02628043682358827 0.0 -0.008376316150566998 0.0 0.0
-0.04140482008232477 0.038573841112203855 0.0 -0.011543528106578771 0.0 0.0
-0.05611563831507316 0.05297943439534558 0.0 -0.014733425809144496 0.0 0.0
-0.07266767578812999 0.06922700196636944 0.0 -0.01778399979542966 0.0 0.0
-0.09083002885302155 0.08708638844062211 0.0 -0.020729334992190318 0.0 0.0
-0.1103683538473545 0.10632048207637457 0.0 -0.02354661523308499 0.0 0.0
-0.13092131645300292 0.1265533085640156 0.0 -0.02599355223686306 0.0 0.0
-0.15171062353566117 0.14695986666063288 0.0 -0.027953026334129882 0.0 0.0
-0.17090899478016025 0.1656474554183518 0.0 -0.030485634737645873 0.0 0.0
-0.18483383930232855 0.17891125670031638 0.0 -0.036333291620098906 0.0 0.0
-0.18771957795212205 0.1811375584524919 0.0 -0.04815927776866924 0.0 0.0
-0.17267708690709985 0.16553242651822497 0.0 -0.06747362136154644 0.0 0.0
-0.17267708690708294 0.1655324265182152 0.0 0.06747362136159574 0.0 0.0
-0.18771957795207633 0.18113755845245016 0.0 0.0481592777687353 0.0 0.0
-0.18483383930225564 0.17891125670025154 0.0 0.03633329162014054 0.0 0.0
-0.1709089947800652 0.1656474554182541 0.0 0.03048563473765764 0.0 0.0
-0.15171062353555234 0.14695986666052896 0.0 0.027953026334121833 0.0 0.0
-0.1309213164528899 0.1265533085639028 0.0 0.025993552236855677 0.0 0.0
-0.11036835384724107 0.10632048207625644 0.0 0.023546615233070722 0.0 0.0
-0.09083002885290946 0.0870863884405102 0.0 0.020729334992177162 0.0 0.0
-0.07266767578802201 0.06922700196626774 0.0 0.01778399979541212 0.0 0.0
-0.056115638314975486 0.05297943439525232 0.0 0.01473342580911774 0.0 0.0
-0.041404820082242 0.03857384111212703 0.0 0.011543528106550238 0.0 0.0
-0.02880907463045731 0.02628043682352832 0.0 0.008376316150548568 0.0 0.0
-0.018618439747269747 0.01638382965588958 0.0 0.005551630101417737 0.0 0.0
-0.0110201478921155 0.009069600793270016 0.0 0.003381597854147711 0.0 0.0
-0.005950420401478328 0.004318441633685666 0.0 0.0019919026381279292 0.0 0.0
-0.0030873906570114476 0.0018240281169292771 0.0 0.0013210373421493893 0.0 0.0
-0.001770090717920697 0.0008453806508983419 0.0 0.0011950723546289566 0.0 0.0
-0.0011307433289835175 0.0004842085551758357 0.0 0.0012945116195781092 0.0 0.0
-0.000563122994785191 0.00019366540198451077 0.0 0.0011536882711410956 0.0 0.0
-0.00012035815450787968 -1.3621076875346486e-05 0.0 0.0004979558189268651 0.0 0.0
-0.00013651393238456322 4.5201697464136714e-05 0.0 -0.00026240470697502793 0.0 0.0
-0.0005925380729685514 0.0002355387431326461 0.0 -0.0007559498380570462 0.0 0.0
-0.0012364553596035943 0.0005245666285988992 0.0 -0.0008693342519883185 0.0 0.0
-0.002021608209560044 0.0009840712069382196 0.0 -0.0007927103589778772 0.0 0.0
-0.003716153858075333 0.002322033650026256 0.0 -0.0009060894200774716 0.0 0.0
-0.007179723569718632 0.005440420683343827 0.0 -0.0014002673386007691 0.0 0.0
-0.01298466841032414 0.01096105873588149 0.0 -0.0023649659373703447 0.0 0.0
-0.021528863208379823 0.019225617079686952 0.0 -0.0038612257445749254 0.0 0.0
-0.03294948699147027 0.03034341365597859 0.0 -0.005846308993873728 0.0 0.0
-0.04710225936366813 0.044173252495562476 0.0 -0.008101978716402503 0.0 0.0
-0.06369439856937703 0.06043498962760685 0.0 -0.01037664761196977 0.0 0.0
-0.08241914214173557 0.0788268610355991 0.0 -0.012552371683482666 0.0 0.0
-0.10298155140778092 0.09905192980715682 0.0 -0.014677953352555062 0.0 0.0
-0.1250179493641026 0.12074277148943668 0.0 -0.016679976172265576 0.0 0.0
-0.14797449667193802 0.14334050443222335 0.0 -0.018227766971245396 0.0 0.0
-0.17093439927005516 0.16591335380236405 0.0 -0.018849208283558516 0.0 0.0
-0.19225944196398947 0.18676764755475528 0.0 -0.01895475145569181 0.0 0.0
-0.20879648352424984 0.20265663657067368 0.0 -0.022381927475931596 0.0 0.0
-0.21459396784849755 0.20752323726406896 0.0 -0.03752965575907696 0.0 0.0
-0.20052043296353764 0.1927752359110766 0.0 -0.0692489769518031 0.0 0.0
-0.2005204329635179 0.19277523591105528 0.0 0.06924897695184229 0.0 0.0
-0.21459396784844542 0.20752323726401212 0.0 0.037529655759127145 0.0 0.0
-0.2087964835241673 0.20265663657057775 0.0 0.022381927475964458 0.0 0.0
-0.19225944196387984 0.1867676475546487 0.0 0.018954751455694918 0.0 0.0
-0.1709343992699322 0.1659133538022406 0.0 0.018849208283554353 0.0 0.0
-0.14797449667181115 0.14334050443209012 0.0 0.018227766971243953 0.0 0.0
-0.1250179493639761 0.1207427714893079 0.0 0.01667997617225697 0.0 0.0
-0.102981551407655 0.09905192980703603 0.0 0.014677953352544348 0.0 0.0
-0.08241914214161444 0.07882686103548453 0.0 0.012552371683471897 0.0 0.0
-0.06369439856926792 0.060434989627497604 0.0 0.010376647611954004 0.0 0.0
-0.047102259363576815 0.04417325249546877 0.0 0.008101978716381408 0.0 0.0
-0.03294948699139768 0.03034341365590887 0.0 0.005846308993863292 0.0 0.0
-0.021528863208325158 0.019225617079636326 0.0 0.0038612257445658216 0.0 0.0
-0.012984668410287836 0.010961058735846851 0.0 0.0023649659373611853 0.0 0.0
-0.007179723569697982 0.005440420683325398 0.0 0.001400267338594996 0.0 0.0
-0.003716153858066777 0.0023220336500182626 0.0 0.0009060894200756953 0.0 0.0
-0.002021608209557414 0.0009840712069366653 0.0 0.0007927103589785989 0.0 0.0
-0.001236455359603074 0.000524566628597789 0.0 0.0008693342519861536 0.0 0.0
-0.0005925380729677673 0.0002355387431321465 0.0 0.0007559498380573793 0.0 0.0
-0.00013651393238453893 4.5201697464034366e-05 0.0 0.00026240470697452833 0.0 0.0
-0.00011689381594209847 6.195961388655302e-05 0.0 -4.5353359317934494e-05 0.0 0.0
-0.0005882670835761772 0.0002579430558463658 0.0 -0.0003057526133242727 0.0 0.0
-0.0013509498353340699 0.0005730955987421904 0.0 -0.00036449495881901717 0.0 0.0
-0.0023339253490956002 0.0011881333745402678 0.0 -0.0003479836886947085 0.0 0.0
-0.004435730747864297 0.0029251749591563403 0.0 -0.000401703672792908 0.0 0.0
-0.008472171849064347 0.006644938718855187 0.0 -0.0006022681665711627 0.0 0.0
-0.01496621052904984 0.012881960484611987 0.0 -0.0010041398090698817 0.0 0.0
-0.024400103451495903 0.022042171613296357 0.0 -0.0016504910948443863 0.0 0.0
-0.037004181006617176 0.03433418749681749 0.0 -0.0025554404996946944 0.0 0.0
-0.052684816113352795 0.04967232860619619 0.0 -0.003623627616809788 0.0 0.0
-0.07114954113356703 0.06778058812262522 0.0 -0.004719619764716576 0.0 0.0
-0.09204482613910947 0.08831258942427223 0.0 -0.005781002076936881 0.0 0.0
-0.11498752355951253 0.11088405464205131 0.0 -0.006803178338718019 0.0 0.0
-0.13949032180923654 0.13500093156109383 0.0 -0.007704276407936472 0.0 0.0
-0.16480492161580929 0.15991134226497739 0.0 -0.008274876008677268 0.0 0.0
-0.1897654888496474 0.18445414289641615 0.0 -0.008109919804996757 0.0 0.0
-0.21269417254769346 0.20695459811990524 0.0 -0.0068711882658762935 0.0 0.0
-0.2311906870389896 0.22495592376668938 0.0 -0.00628332647338814 0.0 0.0
-0.24107728220386893 0.23406944864465107 0.0 -0.01726265631084234 0.0 0.0
-0.23252909145254375 0.2236377989403442 0.0 -0.0638339918787203 0.0 0.0
-0.23252909145252207 0.22363779894032199 0.0 0.06383399187873928 0.0 0.0
-0.24107728220381078 0.23406944864458268 0.0 0.017262656310866764 0.0 0.0
-0.23119068703889525 0.224955923766605 0.0 0.0062833264734059036 0.0 0.0
-0.21269417254756834 0.20695459811979067 0.0 0.0068711882658762935 0.0 0.0
-0.18976548884950908 0.18445414289628292 0.0 0.00810991980499226 0.0 0.0
-0.1648049216156693 0.15991134226483616 0.0 0.008274876008676935 0.0 0.0
-0.13949032180909676 0.13500093156094994 0.0 0.00770427640793192 0.0 0.0
-0.11498752355937315 0.11088405464190876 0.0 0.0068031783387159095 0.0 0.0
-0.09204482613897466 0.08831258942413989 0.0 0.005781002076932162 0.0 0.0
-0.07114954113344653 0.06778058812250842 0.0 0.004719619764705252 0.0 0.0
-0.05268481611325356 0.04967232860609583 0.0 0.0036236276167974646 0.0 0.0
-0.037004181006537115 0.034334187496742 0.0 0.0025554404996888658 0.0 0.0
-0.0244001034514347 0.022042171613238626 0.0 0.001650491094836004 0.0 0.0
-0.014966210529009509 0.01288196048456891 0.0 0.001004139809066551 0.0 0.0
-0.008472171849040255 0.0066449387188289855 0.0 0.0006022681665674434 0.0 0.0
-0.004435730747853689 0.0029251749591461262 0.0 0.0004017036727920753 0.0 0.0
-0.0023339253490925454 0.0011881333745398237 0.0 0.00034798368869481955 0.0 0.0
-0.0013509498353329787 0.0005730955987420794 0.0 0.0003644949588172963 0.0 0.0
-0.0005882670835753705 0.00025794305584614374 0.0 0.00030575261332488335 0.0 0.0
-0.00011689381594173764 6.19596138861523e-05 0.0 4.535335931821205e-05 0.0 0.0
SCALARS Statev float 8
LOOKUP_TABLE default
0.0 0.01540934384509688 0.01200197972330296 -0.012381430399948625 0.0003794506766456673 -0.006952911841492726 0.0 0.0
0.0 0.0011905149006333732 0.0008781941959789665 -0.0007706734967219827 -0.00010752069925698353 0.0007343127314389358 0.0 0.0
0.0 4.9553829590929994e-05 1.0588270565573541e-05 -7.945370358196789e-06 -2.642900207376781e-06 -8.77583805303364e-07 0.0 0.0
0.0 0.0004990738317596494 0.00040297158070054723 -0.0003225837155718404 -8.038786512870696e-05 -5.862794425753237e-05 0.0 0.0
0.0 0.0023915755363054752 0.002015080045293812 -0.00171817086502905 -0.0002969091802647616 -0.00021575743490739684 0.0 0.0
0.0 0.00633578821462564 0.005674336913050371 -0.005145707487138131 -0.0005286294259122401 -0.0004644944541396518 0.0 0.0
0.0 0.013421308618918108 0.011848196739844332 -0.011182139045306225 -0.0006660576945380998 -0.0008553717115245021 0.0 0.0
0.0 0.02396370449373363 0.02099508448996779 -0.02022504717198523 -0.0007700373179825533 -0.0014730945159867714 0.0 0.0
0.0 0.03820285781218312 0.03332539454173219 -0.03244794763542271 -0.000877446906309473 -0.002349986569186694 0.0 0.0
0.0 0.05605211366017593 0.048759633464068586 -0.04776610003909431 -0.0009935334249742873 -0.003406564655668579 0.0 0.0
0.0 0.07722242584667241 0.06702660224157436 -0.06591234992560752 -0.0011142523159668447 -0.004508499012085355 0.0 0.0
0.0 0.10103652224065537 0.08778811761666196 -0.08655114915925774 -0.001236968457404202 -0.005581044559442163 0.0 0.0
0.0 0.12738411381916218 0.11068152746987031 -0.1093202703054724 -0.0013612571643977873 -0.006624391922507864 0.0 0.0
0.0 0.1557789667562421 0.13528851894577754 -0.13379986981091804 -0.001488649134859426 -0.007613646141530649 0.0 0.0
0.0 0.18547958242878532 0.16102291628114432 -0.15940288354108242 -0.0016200327400617545 -0.008475922321134633 0.0 0.0
0.0 0.21551641798580784 0.18701636625491963 -0.18526273165882623 -0.0017536345960934645 -0.009025800834697804 0.0 0.0
0.0 0.24448786832618477 0.21208512032996113 -0.21020024255728173 -0.0018848777726794912 -0.008989434742474975 0.0 0.0
0.0 0.27069461041896675 0.23477293051592857 -0.23276261881926585 -0.002010311696662553 -0.008201409837547663 0.0 0.0
0.0 0.2921508838593676 0.2533483128293532 -0.25121459032044147 -0.00213372250891162 -0.007335503948724349 0.0 0.0
0.0 0.30544094326161747 0.2649732060784463 -0.26262488483700025 -0.002348321241446039 -0.00962878097421416 0.0 0.0
0.0 0.3054409432616003 0.264973206078431 -0.26262488483698554 -0.0023483212414456135 0.009628780974224298 0.0 0.0
0.0 0.2921508838593052 0.2533483128292984 -0.2512145903203875 -0.0021337225089108594 0.007335503948757604 0.0 0.0
0.0 0.270694610418859 0.2347729305158348 -0.23276261881917337 -0.002010311696661309 0.008201409837566589 0.0 0.0
0.0 0.24448786832604766 0.21208512032984234 -0.21020024255716319 -0.0018848777726791508 0.008989434742481102 0.0 0.0
0.0 0.2155164179856554 0.187016366254788 -0.1852627316586945 -0.001753634596093625 0.009025800834685519 0.0 0.0
0.0 0.18547958242862927 0.1610229162810091 -0.15940288354094734 -0.0016200327400617389 0.008475922321132095 0.0 0.0
0.0 0.15577896675609332 0.13528851894564833 -0.13379986981078984 -0.0014886491348584329 0.007613646141530644 0.0 0.0
0.0 0.12738411381900794 0.11068152746973678 -0.10932027030533924 -0.0013612571643975536 0.0066243919225071985 0.0 0.0
0.0 0.10103652224051249 0.08778811761653786 -0.08655114915913484 -0.0012369684574029577 0.005581044559432051 0.0 0.0
0.0 0.07722242584654367 0.06702660224146224 -0.06591234992549645 -0.001114252315965793 0.004508499012076983 0.0 0.0
0.0 0.056052113660068736 0.04875963346397581 -0.04776610003900223 -0.0009935334249735921 0.0034065646556545866 0.0 0.0
0.0 0.03820285781210161 0.033325394541660974 -0.03244794763535206 -0.0008774469063089368 0.0023499865691834383 0.0 0.0
0.0 0.02396370449367704 0.02099508448991776 -0.020225047171936 -0.0007700373179817568 0.001473094515982429 0.0 0.0
0.0 0.01342130861888271 0.0118481967398127 -0.011182139045275423 -0.0006660576945372718 0.0008553717115222955 0.0 0.0
0.0 0.006335788214603628 0.005674336913030418 -0.005145707487119036 -0.0005286294259113836 0.0004644944541379023 0.0 0.0
0.0 0.0023915755362955205 0.0020150800452854983 -0.0017181708650215255 -0.00029690918026397257 0.00021575743490644282 0.0 0.0
0.0 0.0004990738317569531 0.00040297158069903125 -0.00032258371557057576 -8.038786512845538e-05 5.8627944257230234e-05 0.0 0.0
0.0 4.955382959036959e-05 1.0588270565607824e-05 -7.945370358223994e-06 -2.6429002073837823e-06 8.775838052952244e-07 0.0 0.0
0.0 0.0011905149006301618 0.000878194195977089 -0.0007706734967203123 -0.00010752069925677743 -0.000734312731436919 0.0 0.0
0.0 0.01540934384507712 0.012001979723290002 -0.012381430399934678 0.0003794506766446693 0.006952911841458692 0.0 0.0
0.0 0.011681427016874512 0.008521614599589642 -0.009020372555596554 0.0004987579560069141 -0.00820172940567994 0.0 0.0
0.0 5.0638589054569023e-05 4.119740803737589e-05 -3.8093804577646074e-05 -3.1036034597298148e-06 2.6390775910246243e-05 0.0 0.0
0.0 1.298253938926125e-06 6.831914486989044e-07 -5.177341282853424e-07 -1.654573204135636e-07 -2.3594866421325335e-07 0.0 0.0
0.0 0.00023339700642340276 0.0001863427544541792 -0.00014766933314733447 -3.867342130684488e-05 -6.356782725938538e-05 0.0 0.0
0.0 0.0016733828433536852 0.001375164934012526 -0.0011533001809300551 -0.0002218647530824716 -0.00036349257346406316 0.0 0.0
0.0 0.004995559755174399 0.004476098379976044 -0.0040023939551188615 -0.0004737044248571816 -0.000968111352379242 0.0 0.0
0.0 0.011296851342514532 0.009958245229406103 -0.009321273243644058 -0.0006369719857620433 -0.0019461799101842317 0.0 0.0
0.0 0.02083153712071278 0.018207372116804888 -0.017458615273009643 -0.0007487568437952567 -0.003395646273800658 0.0 0.0
0.0 0.03372685476364108 0.029351366926299142 -0.02849666605317633 -0.0008547008731228036 -0.005336339507315287 0.0 0.0
0.0 0.04983053291126785 0.04325768884511867 -0.04229291046515138 -0.0009647783799672915 -0.007584993622734527 0.0 0.0
0.0 0.06882719211931891 0.05965538401930674 -0.05857855308372319 -0.0010768309355835386 -0.009890258614621159 0.0 0.0
0.0 0.0904215100534505 0.07825280405805055 -0.07706304968479136 -0.0011897543732591687 -0.0121105442285593 0.0 0.0
0.0 0.11398793834541068 0.09876337176015627 -0.09745915910531994 -0.0013042126548363417 -0.01428414927330328 0.0 0.0
0.0 0.13941783380956324 0.12083425001431188 -0.1194133551745155 -0.0014208948397964629 -0.01638652451783328 0.0 0.0
0.0 0.16612624543388482 0.1439642673713594 -0.1424242319294013 -0.0015400354419581059 -0.018242565800301314 0.0 0.0
0.0 0.19318770605572144 0.16742147842452387 -0.16576059932287582 -0.0016608791016480568 -0.019499273898068714 0.0 0.0
0.0 0.21942809201256958 0.1901810733932639 -0.18839874848467628 -0.0017823249085876238 -0.0196644516026398 0.0 0.0
0.0 0.24328347252483234 0.21087209221032588 -0.20896642831086773 -0.001905663899458065 -0.018546294024822964 0.0 0.0
0.0 0.26250140393860816 0.2275518713676568 -0.22550271617045925 -0.0020491551971974836 -0.016730029951016672 0.0 0.0
0.0 0.27401908670717456 0.23757269337149664 -0.23541396036767562 -0.0021587330038210875 -0.014078820423701111 0.0 0.0
0.0 0.27401908670715663 0.23757269337148046 -0.23541396036765982 -0.002158733003820754 0.014078820423732132 0.0 0.0
0.0 0.2625014039385522 0.22755187136760746 -0.2255027161704097 -0.0020491551971977403 0.016730029951072402 0.0 0.0
0.0 0.24328347252473748 0.2108720922102432 -0.2089664283107847 -0.0019056638994583352 0.018546294024860386 0.0 0.0
0.0 0.2194280920124492 0.19018107339315937 -0.18839874848457194 -0.0017823249085872563 0.019664451602655397 0.0 0.0
0.0 0.19318770605558871 0.16742147842440916 -0.16576059932276194 -0.0016608791016470715 0.01949927389805438 0.0 0.0
0.0 0.16612624543375082 0.14396426737124288 -0.14242423192928602 -0.0015400354419568057 0.018242565800295027 0.0 0.0
0.0 0.1394178338094272 0.12083425001419376 -0.11941335517439833 -0.0014208948397953962 0.016386524517829505 0.0 0.0
0.0 0.11398793834527633 0.0987633717600397 -0.09745915910520407 -0.0013042126548356181 0.014284149273297832 0.0 0.0
0.0 0.09042151005332194 0.0782528040579393 -0.07706304968468047 -0.0011897543732587727 0.012110544228542769 0.0 0.0
0.0 0.06882719211920346 0.05965538401920696 -0.058578553083623586 -0.0010768309355833686 0.009890258614606493 0.0 0.0
0.0 0.049830532911170185 0.043257688845034344 -0.042292910465067196 -0.0009647783799671195 0.007584993622713613 0.0 0.0
0.0 0.03372685476356441 0.02935136692623209 -0.028496666053109583 -0.0008547008731224943 0.005336339507306524 0.0 0.0
0.0 0.020831537120657422 0.0182073721167566 -0.01745861527296167 -0.000748756843794931 0.0033956462737908992 0.0 0.0
0.0 0.011296851342478612 0.009958245229374395 -0.009321273243612859 -0.000636971985761527 0.0019461799101777781 0.0 0.0
0.0 0.004995559755155356 0.004476098379959511 -0.004002393955102924 -0.00047370442485658663 0.0009681113523748374 0.0 0.0
0.0 0.0016733828433452668 0.0013751649340058287 -0.0011533001809242065 -0.00022186475308162189 0.00036349257346266026 0.0 0.0
0.0 0.00023339700642120926 0.00018634275445283778 -0.00014766933314619847 -3.8673421306639234e-05 6.356782725874468e-05 0.0 0.0
0.0 1.2982539388026695e-06 6.831914487920939e-07 -5.177341283537163e-07 -1.6545732043837986e-07 2.3594866423249883e-07 0.0 0.0
0.0 5.063858905398265e-05 4.1197408037213716e-05 -3.809380457743486e-05 -3.1036034597788466e-06 -2.639077591004415e-05 0.0 0.0
0.0 0.011681427016851091 0.008521614599574337 -0.009020372555580601 0.0004987579560062564 0.008201729405651302 0.0 0.0
0.0 0.009005208484047818 0.00623245251869332 -0.006772848631264433 0.0005403961125711128 -0.007313208433779904 0.0 0.0
0.0 0.0 0.0 0.0 0.0 0.0 0.0 0.0
0.0 0.0 0.0 0.0 0.0 0.0 0.0 0.0
0.0 6.806407093402504e-05 5.809773534636589e-05 -4.569584648672873e-05 -1.2401888859637176e-05 -3.634809910738434e-05 0.0 0.0
0.0 0.001031093599134308 0.0008562610835076567 -0.0007064201889817064 -0.00014984089452594986 -0.00039815462159093574 0.0 0.0
0.0 0.003928123344158964 0.0033427996071588545 -0.0029405126671714255 -0.00040228693998742846 -0.0012441500256092114 0.0 0.0
0.0 0.009243484254440614 0.008101540442356447 -0.007502097329313344 -0.0005994431130431042 -0.002678506419297415 0.0 0.0
0.0 0.01772340950193478 0.015401373298645661 -0.014679742932912536 -0.0007216303657331159 -0.004800279172246236 0.0 0.0
0.0 0.02926421147343247 0.025311617179656864 -0.02448442860086459 -0.0008271885787922788 -0.007570743210096284 0.0 0.0
0.0 0.04362790756787505 0.037659231751228414 -0.03672813186128165 -0.0009310998899467646 -0.010732379240285994 0.0 0.0
0.0 0.06052068508278826 0.052174969782362246 -0.05114023273884395 -0.0010347370435182923 -0.013971380161038405 0.0 0.0
0.0 0.07955551594302238 0.06860465556597643 -0.06746622939029553 -0.0011384261756808903 -0.017107236263525685 0.0 0.0
0.0 0.10063163858464126 0.08671231842352291 -0.08546947891916457 -0.0012428395043583157 -0.020158064326695865 0.0 0.0
0.0 0.12309552108755845 0.10622459410728587 -0.10487628230577417 -0.001348311801511653 -0.023122547339505074 0.0 0.0
0.0 0.14675886131146754 0.12674317922933848 -0.12528835921291737 -0.0014548200164211087 -0.025788340891412503 0.0 0.0
0.0 0.17091970770637224 0.14767841886482816 -0.14611518045662938 -0.0015632384081988296 -0.0276835372611976 0.0 0.0
0.0 0.19448358432040241 0.1681551956784785 -0.1664794264369161 -0.0016757692415624126 -0.0282297571153275 0.0 0.0
0.0 0.2159379603587586 0.1868620912490065 -0.18506408931841595 -0.001798001930590571 -0.02706430309387213 0.0 0.0
0.0 0.23315763200953565 0.201933196976049 -0.20001572684733798 -0.0019174701287109058 -0.02371282813668311 0.0 0.0
0.0 0.2437480811204442 0.21129711678084417 -0.20929188679020622 -0.002005229990637667 -0.017079436118707905 0.0 0.0
0.0 0.2437480811204299 0.2112971167808304 -0.2092918867901936 -0.0020052299906368532 0.01707943611875644 0.0 0.0
0.0 0.23315763200949152 0.2019331969760073 -0.2000157268472989 -0.0019174701287085541 0.023712828136756608 0.0 0.0
0.0 0.21593796035867613 0.1868620912489331 -0.1850640893183428 -0.001798001930590052 0.02706430309392306 0.0 0.0
0.0 0.19448358432030227 0.16815519567839085 -0.16647942643682836 -0.0016757692415627365 0.028229757115347753 0.0 0.0
0.0 0.17091970770625975 0.1476784188647307 -0.14611518045653296 -0.001563238408197619 0.027683537261184603 0.0 0.0
0.0 0.1467588613113488 0.1267431792292351 -0.1252883592128154 -0.0014548200164197088 0.025788340891404388 0.0 0.0
0.0 0.12309552108743876 0.10622459410718145 -0.10487628230567127 -0.0013483118015101593 0.023122547339498763 0.0 0.0
0.0 0.10063163858452287 0.08671231842342003 -0.08546947891906255 -0.001242839504357456 0.020158064326687083 0.0 0.0
0.0 0.07955551594291224 0.06860465556588147 -0.06746622939020132 -0.0011384261756801823 0.017107236263504744 0.0 0.0
0.0 0.060520685082688666 0.05217496978227581 -0.051140232738758375 -0.0010347370435173917 0.013971380161018006 0.0 0.0
0.0 0.0436279075677916 0.037659231751156416 -0.0367281318612103 -0.0009310998899460986 0.010732379240260024 0.0 0.0
0.0 0.02926421147336993 0.02531161717960236 -0.02448442860081089 -0.0008271885787914625 0.007570743210082345 0.0 0.0
0.0 0.01772340950188746 0.01540137329860447 -0.014679742932871944 -0.0007216303657325163 0.004800279172233352 0.0 0.0
0.0 0.009243484254408747 0.008101540442328574 -0.007502097329286139 -0.0005994431130424304 0.0026785064192887753 0.0 0.0
0.0 0.003928123344142206 0.0033427996071449142 -0.002940512667158424 -0.00040228693998649014 0.0012441500256034116 0.0 0.0
0.0 0.0010310935991288553 0.0008562610835035628 -0.000706420188978162 -0.00014984089452540084 0.00039815462158874116 0.0 0.0
0.0 6.806407093356637e-05 5.8097735346498275e-05 -4.56958464868208e-05 -1.2401888859677524e-05 3.634809910739344e-05 0.0 0.0
0.0 0.0 0.0 0.0 0.0 0.0 0.0 0.0
0.0 0.0 0.0 0.0 0.0 0.0 0.0 0.0
0.0 0.00900520848402649 0.006232452518678749 -0.006772848631249307 0.0005403961125705519 0.007313208433755806 0.0 0.0
0.0 0.006867309438141341 0.004571610831386269 -0.005094376814988056 0.0005227659836017859 -0.005877027312182917 0.0 0.0
0.0 0.0 0.0 0.0 0.0 0.0 0.0 0.0
0.0 0.0 0.0 0.0 0.0 0.0 0.0 0.0
0.0 1.4653232065876037e-05 9.756515057126756e-06 -7.666730236790694e-06 -2.0897848203360454e-06 -1.0086019388030645e-05 0.0 0.0
0.0 0.0005694771795170556 0.0004627547372575455 -0.0003767582354715667 -8.59965017859785e-05 -0.00034120108925629605 0.0 0.0
0.0 0.002819432227631631 0.0023418450566480725 -0.0020223861536590023 -0.00031945890298907105 -0.0013175035740771632 0.0 0.0
0.0 0.007332265478740116 0.006303896834287159 -0.005758394896281321 -0.000545501938005838 -0.0030595707804360484 0.0 0.0
0.0 0.01467504795439429 0.01261543277117175 -0.011927625473628758 -0.0006878072975429925 -0.005680082190596451 0.0 0.0
0.0 0.024821919309935835 0.021253634827348176 -0.02045992860415613 -0.0007937062231920559 -0.009045219140509672 0.0 0.0
0.0 0.03742449771616593 0.032016189349448956 -0.031124099586449676 -0.0008920897629992339 -0.012857128202352925 0.0 0.0
0.0 0.05218214358944129 0.04463461515877447 -0.04364688938093876 -0.0009877257778356976 -0.01675684681012677 0.0 0.0
0.0 0.06881313740483123 0.058884797822280774 -0.05780248760863395 -0.0010823102136468352 -0.020557911857934107 0.0 0.0
0.0 0.0870831593833046 0.07458296843177283 -0.07340637126241173 -0.0011765971693610633 -0.02427072952055592 0.0 0.0
0.0 0.10679168964136468 0.0915214526677322 -0.09025039856438491 -0.0012710541033473094 -0.027843008040367847 0.0 0.0
0.0 0.1275491153539379 0.10940652960044706 -0.10804156662239975 -0.0013649629780473102 -0.031074911988796385 0.0 0.0
0.0 0.14860773049739254 0.12779591313334268 -0.12633519208120414 -0.0014607210521385052 -0.033538906193874195 0.0 0.0
0.0 0.16950152070126728 0.14596649749709067 -0.14440288070362137 -0.0015636167934692646 -0.03457936438134569 0.0 0.0
0.0 0.18868568301053099 0.1627616281600535 -0.16108799269910562 -0.0016736354609477135 -0.033424526724605566 0.0 0.0
0.0 0.20428976312516453 0.17657354207331427 -0.1747943640642871 -0.00177917800902713 -0.028877771090634247 0.0 0.0
0.0 0.21435843253613718 0.18567029587318173 -0.18381229780247063 -0.0018579980707112808 -0.019468769556000617 0.0 0.0
0.0 0.214358432536123 0.1856702958731677 -0.18381229780245703 -0.0018579980707108138 0.01946876955606388 0.0 0.0
0.0 0.20428976312512526 0.17657354207327644 -0.17479436406424964 -0.0017791780090267199 0.028877771090718464 0.0 0.0
0.0 0.18868568301047034 0.16276162815999706 -0.1610879926990507 -0.0016736354609463134 0.03342452672466477 0.0 0.0
0.0 0.1695015207011896 0.14596649749702068 -0.14440288070355367 -0.0015636167934670073 0.03457936438137075 0.0 0.0
0.0 0.14860773049729756 0.12779591313326005 -0.12633519208112254 -0.001460721052137473 0.03353890619386578 0.0 0.0
0.0 0.1275491153538267 0.10940652960035116 -0.10804156662230403 -0.0013649629780470602 0.031074911988782115 0.0 0.0
0.0 0.10679168964126097 0.09152145266764215 -0.09025039856429543 -0.0012710541033467298 0.027843008040357137 0.0 0.0
0.0 0.08708315938320377 0.07458296843168481 -0.07340637126232488 -0.001176597169359937 0.024270729520544473 0.0 0.0
0.0 0.06881313740473124 0.058884797822194815 -0.057802487608548295 -0.001082310213646518 0.020557911857907785 0.0 0.0
0.0 0.052182143589353774 0.04463461515869916 -0.04364688938086395 -0.000987725777835199 0.016756846810101034 0.0 0.0
0.0 0.037424497716091264 0.032016189349385514 -0.03112409958638704 -0.0008920897629984491 0.012857128202321272 0.0 0.0
0.0 0.02482191930987685 0.021253634827297495 -0.020459928604105844 -0.0007937062231916535 0.009045219140490572 0.0 0.0
0.0 0.014675047954349579 0.012615432771133483 -0.011927625473590876 -0.0006878072975426004 0.005680082190579475 0.0 0.0
0.0 0.007332265478712633 0.006303896834263864 -0.0057583948962587105 -0.0005455019380051517 0.0030595707804254527 0.0 0.0
0.0 0.002819432227618966 0.0023418450566383146 -0.002022386153650072 -0.0003194589029882417 0.001317503574071436 0.0 0.0
0.0 0.000569477179512447 0.0004627547372544257 -0.0003767582354689633 -8.599650178546243e-05 0.0003412010892542374 0.0 0.0
0.0 1.4653232065183029e-05 9.756515057189965e-06 -7.666730236834689e-06 -2.0897848203552705e-06 1.008601938806909e-05 0.0 0.0
0.0 0.0 0.0 0.0 0.0 0.0 0.0 0.0
0.0 0.0 0.0 0.0 0.0 0.0 0.0 0.0
0.0 0.006867309438122733 0.004571610831373855 -0.005094376814975039 0.0005227659836011812 0.0058770273121640446 0.0 0.0
0.0 0.005092171374539725 0.0032775245990577335 -0.0037464074415871616 0.00046888284252942893 -0.004446307706312938 0.0 0.0
0.0 0.0 0.0 0.0 0.0 0.0 0.0 0.0
0.0 0.0 0.0 0.0 0.0 0.0 0.0 0.0
0.0 2.6706817051771473e-06 1.7048467818451048e-06 -1.317714352635983e-06 -3.8713242920912145e-07 -2.565431072861773e-06 0.0 0.0
0.0 0.0002737445912298977 0.00020613689491530638 -0.00016649572857039128 -3.9641166344915106e-05 -0.0002324042663639206 0.0 0.0
0.0 0.0018646031053942325 0.0014989584661544068 -0.0012699742761166182 -0.00022898419003778838 -0.0012332579816953764 0.0 0.0
0.0 0.0056339508134501635 0.004617104566047984 -0.004144546107108829 -0.0004725584589391539 -0.00310277240114295 0.0 0.0
0.0 0.011762665211008173 0.009884749776214289 -0.00924259930014181 -0.0006421504760724762 -0.0059941555860403405 0.0 0.0
0.0 0.020428277786443166 0.0172237684931149 -0.01647046910868355 -0.0007532993844313587 -0.00975505839937548 0.0 0.0
0.0 0.03125915703815195 0.026378787594844834 -0.02553182611108803 -0.0008469614837567986 -0.013960416133217564 0.0 0.0
0.0 0.04388311752321032 0.037085174240847917 -0.03615003688541523 -0.0009351373554326995 -0.018259647448668967 0.0 0.0
0.0 0.05803752440237374 0.04914523950351042 -0.04812474369711109 -0.0010204958063993125 -0.022461096879686487 0.0 0.0
0.0 0.07364018827374345 0.062424036345232026 -0.06131933102565145 -0.0011047053195805735 -0.02657319426642805 0.0 0.0
0.0 0.09032250947162535 0.07678330904052474 -0.07559513725401529 -0.0011881717865094633 -0.030545716412327336 0.0 0.0
0.0 0.10805800075685568 0.09201452228728853 -0.09074418789929048 -0.0012703343879980615 -0.03414747063068452 0.0 0.0
0.0 0.12644402144372544 0.10780103082612541 -0.10644766205677708 -0.0013533687693482173 -0.03700010943702323 0.0 0.0
0.0 0.144477958861168 0.12361499315529867 -0.12217309388800754 -0.0014418992672911226 -0.03850297407713645 0.0 0.0
0.0 0.16141072337739062 0.1385634936848816 -0.13702546915861985 -0.0015380245262616328 -0.03759253184395468 0.0 0.0
0.0 0.1756563472092859 0.1513320790101741 -0.1496987920827993 -0.0016332869273747773 -0.03250468835722371 0.0 0.0
0.0 0.18548281740623218 0.16040947430203212 -0.15869914636165455 -0.0017103279403773357 -0.021435994772569286 0.0 0.0
0.0 0.18548281740622344 0.16040947430202218 -0.15869914636164473 -0.0017103279403773018 0.02143599477263717 0.0 0.0
0.0 0.1756563472092519 0.15133207901014 -0.14969879208276463 -0.0016332869273753487 0.03250468835731404 0.0 0.0
0.0 0.16141072337733228 0.13856349368482634 -0.1370254691585646 -0.0015380245262616723 0.03759253184402157 0.0 0.0
0.0 0.1444779588610909 0.12361499315522939 -0.12217309388793868 -0.001441899267290703 0.038502974077161425 0.0 0.0
0.0 0.126444021443638 0.1078010308260495 -0.10644766205670164 -0.001353368769347914 0.0370001094370139 0.0 0.0
0.0 0.1080580007567693 0.09201452228721328 -0.09074418789921668 -0.0012703343879967035 0.034147470630671056 0.0 0.0
0.0 0.09032250947154127 0.07678330904045104 -0.07559513725394346 -0.0011881717865076576 0.03054571641231671 0.0 0.0
0.0 0.07364018827365226 0.06242403634515315 -0.06131933102557237 -0.0011047053195807396 0.026573194266411984 0.0 0.0
0.0 0.05803752440229339 0.04914523950344152 -0.048124743697043046 -0.0010204958063984482 0.0224610968796603 0.0 0.0
0.0 0.04388311752314 0.037085174240788055 -0.03615003688535626 -0.0009351373554317992 0.018259647448640517 0.0 0.0
0.0 0.03125915703808746 0.026378787594791283 -0.025531826111035095 -0.0008469614837562171 0.013960416133183395 0.0 0.0
0.0 0.020428277786391592 0.017223768493071476 -0.0164704691086403 -0.0007532993844311681 0.009755058399352555 0.0 0.0
0.0 0.011762665210971784 0.009884749776184042 -0.009242599300112167 -0.0006421504760718762 0.005994155586022398 0.0 0.0
0.0 0.005633950813427479 0.00461710456602952 -0.004144546107091307 -0.00047255845893821326 0.003102772401131826 0.0 0.0
0.0 0.0018646031053820913 0.001498958466145098 -0.0012699742761084223 -0.0002289841900366753 0.0012332579816879232 0.0 0.0
0.0 0.0002737445912262041 0.00020613689491302196 -0.00016649572856849927 -3.964116634452261e-05 0.000232404266361379 0.0 0.0
0.0 2.6706817050753738e-06 1.7048467820138372e-06 -1.3177143527673518e-06 -3.871324292464828e-07 2.5654310731286922e-06 0.0 0.0
0.0 0.0 0.0 0.0 0.0 0.0 0.0 0.0
0.0 0.0 0.0 0.0 0.0 0.0 0.0 0.0
0.0 0.005092171374523801 0.0032775245990473395 -0.0037464074415761665 0.0004688828425288254 0.004446307706297589 0.0 0.0
0.0 0.0035979092821247683 0.0022502388965679825 -0.0026412597919456744 0.0003910208953776907 -0.0032003140313617176 0.0 0.0
0.0 7.761818097908707e-08 -1.6545393973634885e-09 1.4170477556670242e-09 2.3749164169630387e-10 1.5147987326691532e-08 0.0 0.0
0.0 0.0 0.0 0.0 0.0 0.0 0.0 0.0
0.0 1.3300206817857162e-06 -3.586333862355897e-08 2.8161139955298867e-08 7.702198668257621e-09 9.213994884071351e-08 0.0 0.0
0.0 0.0001255733561786126 7.818685739647542e-05 -6.292167340195292e-05 -1.5265183994522462e-05 -0.00013293707007125036 0.0 0.0
0.0 0.0011082933895221264 0.0008444947067570139 -0.000703169148163817 -0.0001413255585931967 -0.0010197291713373577 0.0 0.0
0.0 0.003936311448837402 0.0031167032949811243 -0.0027393525645505903 -0.00037735073043053435 -0.002906852265358495 0.0 0.0
0.0 0.008984880683972496 0.007273987901217106 -0.006698031546731935 -0.0005759563544851702 -0.0058176179387624824 0.0 0.0
0.0 0.01616376466971785 0.013267803739292627 -0.012565490027175292 -0.0007023137121173314 -0.00967582281625252 0.0 0.0
0.0 0.025157237701347982 0.020798800944763954 -0.020004567446419215 -0.0007942334983447278 -0.014034319352832936 0.0 0.0
0.0 0.035611335826641895 0.029580822782152467 -0.02870551936398683 -0.0008753034181656438 -0.018467195920176992 0.0 0.0
0.0 0.047308995627040454 0.03944192152871756 -0.03849001057549462 -0.0009519109532229611 -0.022807977082673136 0.0 0.0
0.0 0.06013044748722636 0.0502942832463492 -0.04926846113897558 -0.0010258221073736079 -0.027069477923140177 0.0 0.0
0.0 0.07398354848020368 0.062063301605074714 -0.06096493989396318 -0.0010983617111115164 -0.031185952116560403 0.0 0.0
0.0 0.08873091346719086 0.07462103522163958 -0.07345109437014992 -0.0011699408514897146 -0.034949155550752044 0.0 0.0
0.0 0.10384656930830853 0.0877536929814017 -0.08651390990916641 -0.0012397830722352954 -0.038027895171710735 0.0 0.0
0.0 0.11934293534319503 0.10113125579601234 -0.0998198609735835 -0.0013113948224288197 -0.03988476482212283 0.0 0.0
0.0 0.13419501045162496 0.11420977312264477 -0.11281895176710813 -0.00139082135553661 -0.03944678024321712 0.0 0.0
0.0 0.1470526777026287 0.1260360652992327 -0.12455910232759294 -0.0014769629716396707 -0.03459760082653692 0.0 0.0
0.0 0.15683063338896633 0.13526949768777055 -0.13371228017040873 -0.0015572175173616646 -0.023031949638973107 0.0 0.0
0.0 0.1568306333889542 0.13526949768775737 -0.13371228017039505 -0.0015572175173623076 0.023031949639043266 0.0 0.0
0.0 0.14705267770260097 0.12603606529920236 -0.12455910232756259 -0.001476962971639787 0.03459760082662825 0.0 0.0
0.0 0.13419501045158574 0.11420977312260461 -0.1128189517670683 -0.001390821355536298 0.039446780243284636 0.0 0.0
0.0 0.11934293534313484 0.10113125579595703 -0.09981986097352814 -0.0013113948224288525 0.039884764822150226 0.0 0.0
0.0 0.10384656930823516 0.08775369298133831 -0.08651390990910333 -0.001239783072234968 0.03802789517169956 0.0 0.0
0.0 0.08873091346711132 0.07462103522157107 -0.07345109437008163 -0.0011699408514894202 0.0349491555507354 0.0 0.0
0.0 0.07398354848012413 0.06206330160500633 -0.06096493989389397 -0.001098361711112378 0.03118595211654329 0.0 0.0
0.0 0.06013044748715225 0.05029428324628558 -0.04926846113891171 -0.0010258221073738826 0.027069477923123537 0.0 0.0
0.0 0.04730899562696958 0.03944192152865775 -0.03849001057543511 -0.0009519109532226181 0.022807977082645814 0.0 0.0
0.0 0.03561133582657976 0.029580822782100828 -0.028705519363935474 -0.0008753034181653494 0.01846719592014682 0.0 0.0
0.0 0.025157237701292825 0.02079880094471915 -0.020004567446374754 -0.0007942334983443883 0.014034319352797774 0.0 0.0
0.0 0.01616376466967708 0.013267803739258937 -0.01256549002714227 -0.0007023137121166638 0.009675822816229123 0.0 0.0
0.0 0.00898488068394189 0.007273987901192429 -0.006698031546707901 -0.0005759563544845282 0.005817617938744137 0.0 0.0
0.0 0.0039363114488193286 0.0031167032949669738 -0.0027393525645374333 -0.00037735073042954024 0.0029068522653469013 0.0 0.0
0.0 0.0011082933895147124 0.0008444947067520149 -0.0007031691481595095 -0.00014132555859250508 0.0010197291713314556 0.0 0.0
0.0 0.0001255733561775408 7.818685739640095e-05 -6.29216734018614e-05 -1.526518399453952e-05 0.0001329370700709793 0.0 0.0
0.0 1.3300206815688914e-06 -3.586333845813445e-08 2.816113982884112e-08 7.702198629280773e-09 -9.21399484730271e-08 0.0 0.0
0.0 0.0 0.0 0.0 0.0 0.0 0.0 0.0
0.0 7.761818091499395e-08 -1.6545393959844891e-09 1.4170477544857094e-09 2.374916414986896e-10 -1.5147987314084823e-08 0.0 0.0
0.0 0.0035979092821120415 0.002250238896559957 -0.002641259791936949 0.00039102089537699207 0.0032003140313499297 0.0 0.0
0.0 0.0024024245140842884 0.0014400101514931414 -0.0017374991731081155 0.0002974890216149718 -0.0021637813771647656 0.0 0.0
0.0 6.808126749334917e-07 -1.0371231226033877e-08 1.1382208934150606e-08 -1.010977708115995e-09 1.3495275768488005e-07 0.0 0.0
0.0 3.7869285625906513e-07 -1.0853022555903305e-08 7.76318668522007e-09 3.0898358706842675e-09 7.416418593090768e-08 0.0 0.0
0.0 1.6652270082070488e-06 7.921405084686344e-08 -5.86184861524815e-08 -2.059556469437187e-08 -2.396328351031359e-07 0.0 0.0
0.0 6.638192472650728e-05 3.3879854564724396e-05 -2.7105092865741758e-05 -6.774761698982666e-06 -8.680294807766188e-05 0.0 0.0
0.0 0.0006281396995113203 0.00039533289623408844 -0.0003244977033159001 -7.08351929181886e-05 -0.0007146333168827675 0.0 0.0
0.0 0.002523928633695843 0.001843703980055024 -0.0015820487641522792 -0.0002616552159027455 -0.0024507340201519686 0.0 0.0
0.0 0.006338887392966422 0.0048676424466745916 -0.0043867858335695014 -0.0004808566131050872 -0.005214895947972021 0.0 0.0
0.0 0.012021471877790088 0.00945981666868258 -0.008828390186104209 -0.0006314264825783668 -0.008858547940245272 0.0 0.0
0.0 0.019154824132597885 0.0153328594540083 -0.01460330201796453 -0.0007295574360437687 -0.013051764358160406 0.0 0.0
0.0 0.027423497029177527 0.022178713252427484 -0.021373440795115613 -0.0008052724573118721 -0.017369544675166833 0.0 0.0
0.0 0.03663332095653263 0.02983741865170867 -0.02896346654699852 -0.000873952104710131 -0.021587375643191648 0.0 0.0
0.0 0.04673074757087553 0.0382572918639871 -0.03731959182913261 -0.0009377000348544854 -0.02572450660901433 0.0 0.0
0.0 0.057616930425473556 0.04742524877784897 -0.046426341514122074 -0.0009989072637268963 -0.02975448892595689 0.0 0.0
0.0 0.06927834056040644 0.05729018187637915 -0.05623066883393266 -0.0010595130424464723 -0.03346696555872562 0.0 0.0
0.0 0.08148693111037758 0.06772543198982107 -0.06660648020091463 -0.0011189517889064755 -0.03652893344857437 0.0 0.0
0.0 0.09395910762534748 0.07856772208672741 -0.07739512943461982 -0.0011725926521075638 -0.038589312334261355 0.0 0.0
0.0 0.10650288574837524 0.08964953873250621 -0.08841919750595606 -0.0012303412265501704 -0.03883371930068801 0.0 0.0
0.0 0.11842983272748014 0.1004951184243739 -0.09919021152496704 -0.0013049068994067945 -0.035028732011624444 0.0 0.0
0.0 0.12836943862968445 0.10999712135697445 -0.10860426153191952 -0.0013928598250549015 -0.024226731663087607 0.0 0.0
0.0 0.1283694386296768 0.10999712135696411 -0.10860426153190969 -0.0013928598250543558 0.02422673166315437 0.0 0.0
0.0 0.11842983272745862 0.10049511842434738 -0.0991902115249411 -0.001304906899406372 0.03502873201171289 0.0 0.0
0.0 0.10650288574834027 0.08964953873246854 -0.08841919750591867 -0.0012303412265497666 0.038833719300754035 0.0 0.0
0.0 0.09395910762529536 0.07856772208667841 -0.07739512943457061 -0.00117259265210781 0.03858931233428698 0.0 0.0
0.0 0.08148693111032121 0.06772543198977217 -0.06660648020086632 -0.0011189517889058673 0.03652893344856352 0.0 0.0
0.0 0.0692783405603493 0.057290181876330185 -0.05623066883388443 -0.0010595130424457318 0.03346696555870871 0.0 0.0
0.0 0.05761693042541479 0.04742524877779847 -0.046426341514071955 -0.0009989072637265103 0.029754488925941663 0.0 0.0
0.0 0.04673074757082337 0.03825729186394215 -0.03731959182908812 -0.0009377000348540195 0.02572450660900053 0.0 0.0
0.0 0.036633320956481794 0.029837418651666104 -0.02896346654695669 -0.000873952104709436 0.02158737564316818 0.0 0.0
0.0 0.027423497029129544 0.02217871325238831 -0.021373440795077303 -0.0008052724573109851 0.01736954467513826 0.0 0.0
0.0 0.01915482413255527 0.015332859453975174 -0.014603302017932038 -0.000729557436043134 0.013051764358127601 0.0 0.0
0.0 0.012021471877757728 0.009459816668657191 -0.008828390186079265 -0.0006314264825779302 0.008858547940223917 0.0 0.0
0.0 0.006338887392944978 0.004867642446658046 -0.0043867858335538456 -0.00048085661310420027 0.005214895947956889 0.0 0.0
0.0 0.0025239286336830083 0.001843703980045653 -0.0015820487641438163 -0.0002616552159018353 0.0024507340201413235 0.0 0.0
0.0 0.0006281396995060441 0.00039533289623119346 -0.0003244977033134746 -7.083519291771866e-05 0.0007146333168776523 0.0 0.0
0.0 6.63819247247746e-05 3.387985456444362e-05 -2.7105092865502267e-05 -6.774761698941355e-06 8.680294807687501e-05 0.0 0.0
0.0 1.6652270079813304e-06 7.921405095044142e-08 -5.861848623085725e-08 -2.0595564719582247e-08 2.3963283545692604e-07 0.0 0.0
0.0 3.786928558295237e-07 -1.0853022544114866e-08 7.763186676628835e-09 3.0898358674860974e-09 -7.416418584570931e-08 0.0 0.0
0.0 6.808126741997652e-07 -1.0371231215047161e-08 1.1382208922371451e-08 -1.0109777073237724e-09 -1.34952757536912e-07 0.0 0.0
0.0 0.0024024245140750232 0.0014400101514877048 -0.0017374991731019466 0.0002974890216142412 0.002163781377156819 0.0 0.0
0.0 0.0014586631791215692 0.0008248538835650581 -0.0010260877717148016 0.00020123388814974287 -0.0013278465852520167 0.0 0.0
0.0 2.462231759339102e-06 1.2866976237206355e-07 -1.3082976783729298e-07 2.1600054652281768e-09 -2.815944578964481e-06 0.0 0.0
0.0 9.072715876131095e-07 3.2033135364585354e-08 -2.0925383266987392e-08 -1.1107752097597445e-08 -3.456292050172532e-07 0.0 0.0
0.0 3.6807800133216805e-06 7.092161418377532e-07 -5.434011338844208e-07 -1.6581500795333043e-07 -4.505392106186731e-06 0.0 0.0
0.0 5.1613691843770257e-05 1.8608622624429524e-05 -1.4788166847985861e-05 -3.820455776443674e-06 -7.492504343579662e-05 0.0 0.0
0.0 0.00034059893056174155 0.0001599209125865623 -0.00012987333881144013 -3.0047573775122174e-05 -0.0004662458596198726 0.0 0.0
0.0 0.001449949450588425 0.0008773093794082918 -0.0007345496785348041 -0.00014275970087348756 -0.001800290810137302 0.0 0.0
0.0 0.003978743006948536 0.0027505915831784844 -0.0024065193351337404 -0.0003440722480447441 -0.004203063166734798 0.0 0.0
0.0 0.008080944524936828 0.00589976467858742 -0.005376347041545177 -0.0005234176370422377 -0.007387375978151173 0.0 0.0
0.0 0.013251628674663445 0.010068301625596509 -0.00942846225203692 -0.0006398393735595905 -0.011066740424991398 0.0 0.0
0.0 0.01940921496182133 0.014953063908957705 -0.014235655950089271 -0.00071740795886843 -0.014929925672963024 0.0 0.0
0.0 0.026091934921418578 0.02040636299879521 -0.019626374994084456 -0.0007799880047107556 -0.018754630218791056 0.0 0.0
0.0 0.03341121683399865 0.026393186534890613 -0.02555854470082814 -0.0008346418340624758 -0.022517346761919344 0.0 0.0
0.0 0.041385132978699245 0.0329453649087393 -0.03206096403046116 -0.0008844008782781251 -0.02619486518478485 0.0 0.0
0.0 0.05003784392221599 0.040093420012496654 -0.0391604779239678 -0.0009329420885288476 -0.029648906385660933 0.0 0.0
0.0 0.05915856964141689 0.04780788296718699 -0.04682522024178233 -0.0009826627254046472 -0.03253689336852452 0.0 0.0
0.0 0.06875209689562495 0.05602672049970202 -0.0550010460734281 -0.0010256744262738913 -0.03451200406680065 0.0 0.0
0.0 0.07874503338442371 0.06487130685640206 -0.06381557335869843 -0.001055733497703586 -0.03536510000002431 0.0 0.0
0.0 0.0891995094801781 0.07450981410399057 -0.07340237216115161 -0.001107441942838962 -0.03340370131750355 0.0 0.0
0.0 0.09926787098304933 0.08430405200297188 -0.0830982073510179 -0.0012058446519540439 -0.024890326369826275 0.0 0.0
0.0 0.09926787098304979 0.08430405200296824 -0.08309820735101371 -0.0012058446519545385 0.024890326369886424 0.0 0.0
0.0 0.0891995094801658 0.07450981410397103 -0.07340237216113209 -0.0011074419428389367 0.033403701317587575 0.0 0.0
0.0 0.0787450333844008 0.0648713068563738 -0.06381557335867108 -0.0010557334977026808 0.035365100000085144 0.0 0.0
0.0 0.06875209689559067 0.05602672049966837 -0.05500104607339533 -0.0010256744262730586 0.03451200406682037 0.0 0.0
0.0 0.059158569641373074 0.0478078829671507 -0.04682522024174613 -0.0009826627254045479 0.03253689336850716 0.0 0.0
0.0 0.05003784392216873 0.040093420012457595 -0.03916047792392907 -0.0009329420885285393 0.029648906385641174 0.0 0.0
0.0 0.04138513297865619 0.032945364908703076 -0.03206096403042552 -0.0008844008782775612 0.02619486518476996 0.0 0.0
0.0 0.033411216833965154 0.026393186534861685 -0.02555854470079996 -0.0008346418340617322 0.02251734676190989 0.0 0.0
0.0 0.026091934921379078 0.020406362998763493 -0.01962637499405316 -0.0007799880047103322 0.01875463021876785 0.0 0.0
0.0 0.019409214961783702 0.01495306390892846 -0.014235655950060194 -0.0007174079588682581 0.014929925672936417 0.0 0.0
0.0 0.013251628674630152 0.010068301625572408 -0.00942846225201333 -0.0006398393735590726 0.011066740424961521 0.0 0.0
0.0 0.00808094452491108 0.005899764678568349 -0.005376347041526651 -0.0005234176370416977 0.0073873759781303006 0.0 0.0
0.0 0.00397874300693383 0.0027505915831680643 -0.002406519335123991 -0.00034407224804407433 0.004203063166721213 0.0 0.0
0.0 0.0014499494505804188 0.0008773093794033264 -0.0007345496785305617 -0.00014275970087276407 0.0018002908101292009 0.0 0.0
0.0 0.0003405989305580124 0.0001599209125852164 -0.00012987333881028996 -3.0047573774926475e-05 0.00046624585961584227 0.0 0.0
0.0 5.1613691842430305e-05 1.8608622624450487e-05 -1.4788166847997854e-05 -3.820455776452611e-06 7.492504343587087e-05 0.0 0.0
0.0 3.6807800131399423e-06 7.092161419446695e-07 -5.434011339651485e-07 -1.6581500797952423e-07 4.505392106874957e-06 0.0 0.0
0.0 9.07271587347821e-07 3.203313541836086e-08 -2.092538330276463e-08 -1.1107752115595277e-08 3.4562920569707543e-07 0.0 0.0
0.0 2.4622317587908985e-06 1.2866976241175133e-07 -1.3082976788370867e-07 2.160005471957288e-09 2.815944579941813e-06 0.0 0.0
0.0 0.0014586631791145134 0.0008248538835614185 -0.0010260877717105609 0.00020123388814914244 0.0013278465852462132 0.0 0.0
0.0 0.0007179399193050766 0.00039743099636721144 -0.0005131352688984063 0.0001157042725311952 -0.0006963844819656891 0.0 0.0
0.0 5.061401441350981e-06 1.234759976228887e-07 -1.6711094998282564e-07 4.3634952359937087e-08 -4.7293286328656265e-06 0.0 0.0
0.0 4.121757592970197e-06 7.329466854667607e-08 -3.1380648705980285e-08 -4.191401984069598e-08 -4.519924601656042e-06 0.0 0.0
0.0 8.161743830411235e-06 7.943422550656667e-07 -5.624950379225102e-07 -2.318472171431532e-07 -1.1338160967928101e-05 0.0 0.0
0.0 5.4377636036540145e-05 1.0999121291814211e-05 -8.630119788020437e-06 -2.369001503793779e-06 -8.396049112753194e-05 0.0 0.0
0.0 0.00022934434249499445 6.324275704744305e-05 -5.10775214594464e-05 -1.216523558799667e-05 -0.000343883280446202 0.0 0.0
0.0 0.0007655343329299372 0.00029762695725502346 -0.00024389839767357182 -5.37285595814514e-05 -0.001138724190450848 0.0 0.0
0.0 0.002064019982861083 0.001081480722136054 -0.0009113100703256915 -0.00017017065181036228 -0.0028426811103285585 0.0 0.0
0.0 0.004469478194147992 0.002737942275919289 -0.0023957782687363005 -0.00034216400718298874 -0.0053049290007375505 0.0 0.0
0.0 0.007726502556570452 0.005144056990669516 -0.0046575871690311774 -0.00048646982163834027 -0.008167191879498933 0.0 0.0
0.0 0.011548721549986263 0.008038390529239528 -0.007455392856854407 -0.0005829976723851192 -0.01123671656410005 0.0 0.0
0.0 0.01585890519280711 0.011267834355350703 -0.010620087104765074 -0.0006477472505856193 -0.014363691596937506 0.0 0.0
0.0 0.020511891971205665 0.014821517469477722 -0.014123548461493272 -0.000697969007984453 -0.017514874991441033 0.0 0.0
0.0 0.025598977455180718 0.018751752456864928 -0.018013202588874656 -0.0007385498679902562 -0.02062346650483695 0.0 0.0
0.0 0.031175292206354163 0.023147151988182787 -0.022372976962054404 -0.0007741750261283843 -0.023615851689303108 0.0 0.0
0.0 0.03726637902975149 0.02810239275902594 -0.027291640462453175 -0.0008107522965727658 -0.02626689097174721 0.0 0.0
0.0 0.04387665975789694 0.03367347567511289 -0.03282242480505468 -0.0008510508700582348 -0.028117267857236405 0.0 0.0
0.0 0.051195205670615675 0.04004934959759254 -0.03917873237719189 -0.000870617220400663 -0.02908759190084175 0.0 0.0
0.0 0.05996425676776109 0.047935289953463384 -0.0470655512661565 -0.0008697386873068702 -0.02907571848037215 0.0 0.0
0.0 0.07005489151089606 0.05780403268022051 -0.056833067515776124 -0.0009709651644444067 -0.024645799493112568 0.0 0.0
0.0 0.0700548915108996 0.05780403268021856 -0.05683306751577434 -0.0009709651644442475 0.02464579949316332 0.0 0.0
0.0 0.05996425676777001 0.047935289953461094 -0.04706555126615457 -0.0008697386873064796 0.029075718480449958 0.0 0.0
0.0 0.051195205670614176 0.040049349597582204 -0.039178732377181905 -0.0008706172204002855 0.029087591900898668 0.0 0.0
0.0 0.04387665975787892 0.03367347567509422 -0.032822424805035895 -0.0008510508700583313 0.028117267857252472 0.0 0.0
0.0 0.03726637902971996 0.028102392759001747 -0.02729164046242947 -0.0008107522965722751 0.02626689097172862 0.0 0.0
0.0 0.031175292206323382 0.023147151988159406 -0.022372976962031 -0.0007741750261284049 0.023615851689284803 0.0 0.0
0.0 0.025598977455157254 0.018751752456846574 -0.018013202588856476 -0.0007385498679900995 0.020623466504825678 0.0 0.0
0.0 0.02051189197118951 0.01482151746946396 -0.014123548461480282 -0.0006979690079836865 0.017514874991436728 0.0 0.0
0.0 0.015858905192784087 0.011267834355334051 -0.01062008710474898 -0.0006477472505850663 0.014363691596919664 0.0 0.0
0.0 0.011548721549964931 0.008038390529225148 -0.007455392856840417 -0.0005829976723847339 0.011236716564079843 0.0 0.0
0.0 0.007726502556553485 0.005144056990659302 -0.004657587169021388 -0.00048646982163791223 0.008167191879479802 0.0 0.0
0.0 0.004469478194136186 0.0027379422759113534 -0.002395778268729017 -0.0003421640071823362 0.00530492900072583 0.0 0.0
0.0 0.002064019982852901 0.0010814807221311957 -0.0009113100703214602 -0.0001701706518097357 0.0028426811103192855 0.0 0.0
0.0 0.0007655343329255166 0.0002976269572532455 -0.0002438983976721068 -5.372855958113882e-05 0.0011387241904454025 0.0 0.0
0.0 0.00022934434249242155 6.324275704704974e-05 -5.107752145912192e-05 -1.2165235587927785e-05 0.00034388328044392206 0.0 0.0
0.0 5.43776360353976e-05 1.099912129178932e-05 -8.630119787993617e-06 -2.369001503795699e-06 8.396049112728842e-05 0.0 0.0
0.0 8.161743830182573e-06 7.943422551016728e-07 -5.624950379467046e-07 -2.3184721715496528e-07 1.1338160968485659e-05 0.0 0.0
0.0 4.1217575921550794e-06 7.329466855691512e-08 -3.138064870999547e-08 -4.191401984691893e-08 4.519924602399079e-06 0.0 0.0
0.0 5.061401441063059e-06 1.2347599764554703e-07 -1.6711095001953139e-07 4.3634952373984e-08 4.729328633733382e-06 0.0 0.0
0.0 0.0007179399192998949 0.00039743099636484365 -0.0005131352688955656 0.00011570427253072164 0.0006963844819614026 0.0 0.0
0.0 0.00025508414273466506 0.00013515314180939574 -0.00018248911771158192 4.733597590218617e-05 -0.0002552328030733063 0.0 0.0
0.0 6.284122646416885e-06 -5.04504953719686e-09 -7.437556003890804e-08 7.942060957610606e-08 -6.338966260704964e-06 0.0 0.0
0.0 8.710465296422053e-06 -3.809733341822077e-07 3.682171982321021e-07 1.2756135950106225e-08 -1.189859208735091e-05 0.0 0.0
0.0 1.5328634885988017e-05 -2.2359511334633269e-07 3.337993914799519e-07 -1.1020427813361989e-07 -2.3686461484164213e-05 0.0 0.0
0.0 6.206236031490513e-05 2.6066050107823924e-06 -1.8125169195719792e-06 -7.940880912104189e-07 -9.519598931559094e-05 0.0 0.0
0.0 0.00020729123963397284 1.7781544566098088e-05 -1.4171689101010775e-05 -3.6098554650872877e-06 -0.0003305425251453432 0.0 0.0
0.0 0.0004901663164533382 6.210717189796782e-05 -5.043314218955932e-05 -1.1674029708408531e-05 -0.000806345667884712 0.0 0.0
0.0 0.0009898508284544596 0.0001723206265350196 -0.00014076631679218988 -3.155430974282959e-05 -0.001581504447550595 0.0 0.0
0.0 0.00181701338275747 0.0004566246716966257 -0.00037358357903000567 -8.304109266661972e-05 -0.0029107162577492927 0.0 0.0
0.0 0.0031772180086562475 0.0010120718667829525 -0.0008355205445364269 -0.0001765513222465254 -0.00477263191268115 0.0 0.0
0.0 0.00483949183851444 0.0018238828744535458 -0.0015430164040492061 -0.00028086647040433853 -0.007037379885157691 0.0 0.0
0.0 0.006878964717159018 0.0028038087118801196 -0.0024389376732851424 -0.00036487103859497575 -0.009497867262940657 0.0 0.0
0.0 0.009151001404628307 0.003922158801359035 -0.0034933527436229192 -0.00042880605773611515 -0.012099139064337882 0.0 0.0
0.0 0.011700934194064512 0.005220186815064958 -0.004745172508096103 -0.0004750143069688536 -0.014817652771900721 0.0 0.0
0.0 0.014547561522696009 0.006822595965860338 -0.006314649718614645 -0.0005079462472456867 -0.017603041368188937 0.0 0.0
0.0 0.01782885236419545 0.00894049418944424 -0.008405452441371652 -0.0005350417480725889 -0.02026446812364264 0.0 0.0
0.0 0.021568452987479562 0.011840485888723568 -0.011272320747876551 -0.0005681651408470102 -0.022314208356564735 0.0 0.0
0.0 0.025864775430961315 0.015740290855311992 -0.015127312655589593 -0.0006129781997223872 -0.023100750040507968 0.0 0.0
0.0 0.03180774823473879 0.02122899300675054 -0.02063483180110177 -0.0005941612056487705 -0.023325349261026494 0.0 0.0
0.0 0.040993372241932204 0.030150251836489013 -0.029555164933809983 -0.0005950869026790294 -0.02327983935827377 0.0 0.0
0.0 0.04099337224193479 0.03015025183648679 -0.029555164933807516 -0.0005950869026792696 0.023279839358311905 0.0 0.0
0.0 0.031807748234742694 0.021228993006745505 -0.02063483180109696 -0.0005941612056485526 0.02332534926108251 0.0 0.0
0.0 0.025864775430955965 0.015740290855301632 -0.01512731265557962 -0.0006129781997220044 0.02310075004054184 0.0 0.0
0.0 0.02156845298746567 0.011840485888713777 -0.01127232074786719 -0.0005681651408465842 0.022314208356562476 0.0 0.0
0.0 0.017828852364180754 0.008940494189437955 -0.008405452441365499 -0.0005350417480724523 0.02026446812362505 0.0 0.0
0.0 0.014547561522687453 0.006822595965858421 -0.006314649718612764 -0.0005079462472456547 0.01760304136817436 0.0 0.0
0.0 0.011700934194056451 0.005220186815062311 -0.004745172508093458 -0.00047501430696885355 0.014817652771891648 0.0 0.0
0.0 0.009151001404622357 0.003922158801357847 -0.003493352743621548 -0.0004288060577362966 0.012099139064330454 0.0 0.0
0.0 0.006878964717147105 0.002803808711876993 -0.0024389376732822554 -0.00036487103859473625 0.009497867262923647 0.0 0.0
0.0 0.0048394918385050185 0.0018238828744518427 -0.0015430164040477416 -0.0002808664704041017 0.007037379885142239 0.0 0.0
0.0 0.0031772180086473683 0.0010120718667807373 -0.0008355205445346472 -0.00017655132224609022 0.004772631912668534 0.0 0.0
0.0 0.0018170133827545031 0.0004566246716961747 -0.000373583579029633 -8.304109266654156e-05 0.0029107162577441522 0.0 0.0
0.0 0.0009898508284514297 0.0001723206265343662 -0.00014076631679170852 -3.155430974265748e-05 0.0015815044475456363 0.0 0.0
0.0 0.0004901663164515386 6.210717189785892e-05 -5.0433142189448295e-05 -1.1674029708410601e-05 0.0008063456678832411 0.0 0.0
0.0 0.00020729123963219423 1.7781544566050363e-05 -1.4171689100963791e-05 -3.609855465086574e-06 0.00033054252514406145 0.0 0.0
0.0 6.206236031342812e-05 2.6066050107736667e-06 -1.812516919566056e-06 -7.940880912076127e-07 9.519598931508345e-05 0.0 0.0
0.0 1.5328634884948894e-05 -2.2359511335763144e-07 3.3379939149318964e-07 -1.1020427813555816e-07 2.3686461484620876e-05 0.0 0.0
0.0 8.710465295663186e-06 -3.8097333421000326e-07 3.682171982562593e-07 1.2756135953743222e-08 1.1898592087981976e-05 0.0 0.0
0.0 6.284122646331323e-06 -5.0450495321485605e-09 -7.43755600724265e-08 7.942060960457755e-08 6.33896626186679e-06 0.0 0.0
0.0 0.00025508414273153784 0.0001351531418081605 -0.0001824891177099809 4.7335975901820347e-05 0.0002552328030710233 0.0 0.0
0.0 4.343208356380025e-05 2.143727172164233e-05 -3.043484243772314e-05 8.997570716080794e-06 -4.405645058427393e-05 0.0 0.0
0.0 5.860430494573458e-06 -1.8613342228010558e-07 5.40313892917417e-08 1.321020329883687e-07 -6.438055300430704e-06 0.0 0.0
0.0 1.2181086932465798e-05 -1.394493529495947e-06 1.1966979626893331e-06 1.977955668066137e-07 -1.766329996146672e-05 0.0 0.0
0.0 2.267164207400599e-05 -2.8618917734971255e-06 2.5360065957253184e-06 3.2588517777180847e-07 -3.5273755062952455e-05 0.0 0.0
0.0 7.184817494904586e-05 -7.547027376911056e-06 6.509412169762534e-06 1.0376152071485275e-06 -0.00010903136822796996 0.0 0.0
0.0 0.00021951198518056756 -2.320287986681768e-05 1.9150589947509784e-05 4.052289919307892e-06 -0.0003423711281441311 0.0 0.0
0.0 0.0004992337034963639 -6.648720552756257e-05 5.4191171940812875e-05 1.2296033586749674e-05 -0.0008212476659464458 0.0 0.0
0.0 0.0009966198097852274 -0.000175212312040674 0.0001430993862957134 3.211292574496075e-05 -0.0015933084407871063 0.0 0.0
0.0 0.0018189385390257442 -0.0004578440888875929 0.0003746880968287696 8.31559920588233e-05 -0.002915724743952501 0.0 0.0
0.0 0.0031780696562854717 -0.0010126893083412308 0.000836348288553174 0.00017634101978805693 -0.004774317851019355 0.0 0.0
0.0 0.004862720272397383 -0.0018365160366318725 0.0015566400502734997 0.0002798759863583732 -0.007047174761260015 0.0 0.0
0.0 0.0069240420716731145 -0.0028573863804230884 0.002492462548733471 0.00036492383168961487 -0.009519512621429539 0.0 0.0
0.0 0.009221894142842985 -0.004015029570694043 0.0035820136015139396 0.00043301596918009965 -0.012112013981708204 0.0 0.0
0.0 0.011688677536907926 -0.00522736537639424 0.004737641973463739 0.0004897234029304972 -0.014796098979955383 0.0 0.0
0.0 0.01411601978364161 -0.006316136992933482 0.005777380400218065 0.0005387565927154152 -0.017550510811172666 0.0 0.0
0.0 0.016300187311541554 -0.006972851027111421 0.006390733644895253 0.0005821173822161608 -0.02031950320043868 0.0 0.0
0.0 0.017875458442338926 -0.00678117451245727 0.006160873865586841 0.0006203006468704286 -0.02309178978126382 0.0 0.0
0.0 0.018747654587763535 -0.005472419598970216 0.004831751315170408 0.0006406682837998024 -0.025983899618600505 0.0 0.0
0.0 0.018926506393081226 -0.002993500464963047 0.002373244050467231 0.0006202564144958144 -0.028574468516036736 0.0 0.0
0.0 0.019051889131846914 0.0041338363308324475 -0.004193276048315305 5.943971748285455e-05 -0.028193043914171354 0.0 0.0
0.0 0.01905188913185033 0.004133836330831044 -0.004193276048314095 5.943971748305528e-05 0.0281930439141856 0.0 0.0
0.0 0.018926506393083867 -0.002993500464963418 0.002373244050467623 0.0006202564144957934 0.028574468516052817 0.0 0.0
0.0 0.0187476545877541 -0.005472419598965936 0.004831751315166163 0.0006406682837997701 0.02598389961860096 0.0 0.0
0.0 0.017875458442321388 -0.00678117451244767 0.006160873865577532 0.0006203006468701394 0.02309178978125305 0.0 0.0
0.0 0.016300187311519963 -0.006972851027099316 0.006390733644883167 0.0005821173822161408 0.020319503200416637 0.0 0.0
0.0 0.014116019783617963 -0.006316136992918543 0.005777380400202822 0.0005387565927157164 0.017550510811155298 0.0 0.0
0.0 0.011688677536889066 -0.0052273653763828835 0.004737641973452514 0.0004897234029303706 0.014796098979939065 0.0 0.0
0.0 0.009221894142824807 -0.004015029570682387 0.003582013601502557 0.00043301596917982735 0.01211201398169369 0.0 0.0
0.0 0.0069240420716532095 -0.002857386380412176 0.002492462548723119 0.000364923831689055 0.00951951262140949 0.0 0.0
0.0 0.004862720272378543 -0.0018365160366220867 0.0015566400502644738 0.0002798759863576132 0.007047174761238263 0.0 0.0
0.0 0.0031780696562715995 -0.0010126893083356736 0.0008363482885483556 0.00017634101978731715 0.004774317851003322 0.0 0.0
0.0 0.0018189385390201772 -0.0004578440888852037 0.0003746880968267652 8.315599205843845e-05 0.0029157247439449254 0.0 0.0
0.0 0.0009966198097817066 -0.00017521231203968955 0.00014309938629492042 3.21129257447692e-05 0.0015933084407819377 0.0 0.0
0.0 0.0004992337034939655 -6.648720552729346e-05 5.4191171940659535e-05 1.229603358663388e-05 0.0008212476659438023 0.0 0.0
0.0 0.00021951198517859837 -2.320287986671936e-05 1.9150589947435634e-05 4.052289919283742e-06 0.00034237112814267394 0.0 0.0
0.0 7.184817494741102e-05 -7.547027376877156e-06 6.50941216973504e-06 1.0376152071421017e-06 0.00010903136822747804 0.0 0.0
0.0 2.2671642073534603e-05 -2.861891773522107e-06 2.536006595746372e-06 3.258851777757333e-07 3.527375506320563e-05 0.0 0.0
0.0 1.2181086931958733e-05 -1.3944935295746702e-06 1.1966979627553733e-06 1.9779556681929724e-07 1.7663299962352737e-05 0.0 0.0
0.0 5.860430494461942e-06 -1.8613342230192573e-07 5.403138926519894e-08 1.3210203303673155e-07 6.438055301760467e-06 0.0 0.0
0.0 4.343208356296133e-05 2.1437271721666395e-05 -3.043484243775023e-05 8.997570716083828e-06 4.405645058450748e-05 0.0 0.0
0.0 1.996237900634057e-06 7.465826829758112e-08 -1.1014726804775514e-07 3.548899975019247e-08 -1.4182273082289668e-07 0.0 0.0
0.0 4.087384805318963e-06 -2.893401217716884e-07 1.5260909257606592e-07 1.3673102919562084e-07 -5.532878978516105e-06 0.0 0.0
0.0 1.356500190204572e-05 -2.405792577443761e-06 2.0052517559046084e-06 4.005408215391485e-07 -1.927477561577625e-05 0.0 0.0
0.0 2.903967749068925e-05 -5.905225820340371e-06 5.028249252180489e-06 8.769765681598953e-07 -3.925564872951387e-05 0.0 0.0
0.0 8.190594106630235e-05 -2.0580916263728196e-05 1.7161197514403576e-05 3.4197187493246213e-06 -0.0001232323596959421 0.0 0.0
0.0 0.0002604540877891611 -7.746019443197202e-05 6.322871711582153e-05 1.4231477316150502e-05 -0.0003920373443861012 0.0 0.0
0.0 0.0007982267685402224 -0.00031201299965408365 0.00025612964152234226 5.5883358131741324e-05 -0.001177261683389329 0.0 0.0
0.0 0.002079202824522035 -0.0010891052632339242 0.000918111402794222 0.0001709938604397019 -0.002863117910441401 0.0 0.0
0.0 0.0044701723084819185 -0.0027381385725572414 0.0023962261186801456 0.00034191245387709415 -0.005310108507768035 0.0 0.0
0.0 0.007729303303348024 -0.005146520204733215 0.004660707895276032 0.00048581230945718087 -0.008170308587292167 0.0 0.0
0.0 0.011569351700257184 -0.008058182196676391 0.007476599998633731 0.000581582198042658 -0.011241915948879227 0.0 0.0
0.0 0.01590959485727464 -0.01132487759398013 0.010678275130385663 0.000646602463594463 -0.014351248579898543 0.0 0.0
0.0 0.020574083869928626 -0.014906037829638575 0.014204955743193286 0.0007010820864452869 -0.01745076630762933 0.0 0.0
0.0 0.025534339387241537 -0.018721057677856492 0.017968383606695653 0.0007526740711608365 -0.020516860375577272 0.0 0.0
0.0 0.030569489141887906 -0.022551165297204183 0.02174697087993989 0.0008041944172642811 -0.02360194495879535 0.0 0.0
0.0 0.03526993071308134 -0.026003328532010067 0.0251503828552757 0.0008529456767343663 -0.026751507355150667 0.0 0.0
0.0 0.039157857658559364 -0.028551816989788214 0.027660827281360205 0.0008909897084280091 -0.030069205487219804 0.0 0.0
0.0 0.041547451315364366 -0.02960922302946461 0.028692967011519757 0.0009162560179448697 -0.03343742940155574 0.0 0.0
0.0 0.04068216894899069 -0.027987276697172103 0.02698060068149377 0.0010066760156783167 -0.03505650383499309 0.0 0.0
0.0 0.03344279170410653 -0.020209690769647178 0.0190694233067132 0.0011402674629339702 -0.03293003550783093 0.0 0.0
0.0 0.033442791704119686 -0.020209690769648226 0.019069423306714513 0.0011402674629337102 0.032930035507875224 0.0 0.0
0.0 0.04068216894899776 -0.027987276697166105 0.026980600681487436 0.0010066760156786586 0.0350565038350501 0.0 0.0
0.0 0.04154745131535504 -0.029609223029448302 0.028692967011503333 0.0009162560179449537 0.03343742940159248 0.0 0.0
0.0 0.03915785765853213 -0.028551816989764025 0.027660827281336297 0.0008909897084277315 0.0300692054872182 0.0 0.0
0.0 0.03526993071304731 -0.02600332853198321 0.02515038285524962 0.0008529456767335806 0.02675150735512931 0.0 0.0
0.0 0.03056948914185781 -0.02255116529718098 0.02174697087991739 0.000804194417263589 0.02360194495877494 0.0 0.0
0.0 0.025534339387214118 -0.018721057677834656 0.01796838360667441 0.0007526740711602483 0.02051686037556245 0.0 0.0
0.0 0.020574083869895732 -0.014906037829611436 0.01420495574316651 0.0007010820864449102 0.017450766307613684 0.0 0.0
0.0 0.015909594857241638 -0.011324877593955118 0.010678275130361294 0.0006466024635938259 0.014351248579874548 0.0 0.0
0.0 0.011569351700224943 -0.008058182196653454 0.007476599998611571 0.0005815821980418806 0.011241915948851107 0.0 0.0
0.0 0.007729303303322317 -0.005146520204715774 0.004660707895259418 0.00048581230945635596 0.008170308587267217 0.0 0.0
0.0 0.004470172308466418 -0.0027381385725459145 0.0023962261186697043 0.0003419124538762117 0.005310108507754277 0.0 0.0
0.0 0.0020792028245120247 -0.001089105263227437 0.0009181114027886506 0.00017099386043878623 0.002863117910430271 0.0 0.0
0.0 0.0007982267685333071 -0.0003120129996512169 0.0002561296415199828 5.588335813123411e-05 0.0011772616833805618 0.0 0.0
0.0 0.00026045408778654444 -7.746019443148608e-05 6.32287171154297e-05 1.4231477316056434e-05 0.00039203734438386575 0.0 0.0
0.0 8.190594106530969e-05 -2.0580916263740332e-05 1.7161197514413388e-05 3.4197187493269435e-06 0.00012323235969592187 0.0 0.0
0.0 2.9039677489987082e-05 -5.905225820412544e-06 5.0282492522390114e-06 8.769765681735352e-07 3.925564872993521e-05 0.0 0.0
0.0 1.3565001901346498e-05 -2.4057925775253836e-06 2.00525175597104e-06 4.0054082155434206e-07 1.927477561638696e-05 0.0 0.0
0.0 4.087384805038403e-06 -2.8934012180457773e-07 1.5260909258006325e-07 1.3673102922451472e-07 5.532878979288192e-06 0.0 0.0
0.0 1.996237900250234e-06 7.465826847053702e-08 -1.1014726829832422e-07 3.548899982778739e-08 1.418227312666456e-07 0.0 0.0
0.0 0.0 0.0 0.0 0.0 0.0 0.0 0.0
0.0 2.0221515534800273e-06 -4.163854779440156e-08 3.475815443794353e-08 6.880393356455349e-09 -5.029112090582136e-07 0.0 0.0
0.0 1.2150960240399377e-05 -2.4554341554867802e-06 2.0220000168171127e-06 4.3343413866966204e-07 -1.4267721841313918e-05 0.0 0.0
0.0 3.246642386177547e-05 -8.828309430371255e-06 7.351033838178268e-06 1.4772755921929948e-06 -3.882788152167406e-05 0.0 0.0
0.0 9.938295375938995e-05 -3.799908944199539e-05 3.1224583438752854e-05 6.774506003242545e-06 -0.00013730946544923984 0.0 0.0
0.0 0.0004037701886093601 -0.00019412254337042097 0.00015883214649231098 3.529039687810993e-05 -0.0005486191135009693 0.0 0.0
0.0 0.0014901898142416546 -0.0008975487241809072 0.0007527911164789588 0.0001447576077019488 -0.0018444732481034136 0.0 0.0
0.0 0.003985865698651828 -0.0027521006807444633 0.002408465811984596 0.0003436348687598681 -0.004217867077454606 0.0 0.0
0.0 0.008078036878990948 -0.005897921602504147 0.005374851617403793 0.000523069985100355 -0.007387951324638253 0.0 0.0
0.0 0.01325713067896343 -0.010073381012394647 0.009434102360427363 0.000639278651967281 -0.011069897331167762 0.0 0.0
0.0 0.019427169135731337 -0.01497191583820506 0.014255678177748761 0.0007162376604563089 -0.014924419805983758 0.0 0.0
0.0 0.026116952562906536 -0.020446377360558234 0.019667511336095803 0.0007788660244624215 -0.018689010503669338 0.0 0.0
0.0 0.03341124082022072 -0.026439018627521665 0.02560206455902409 0.0008369540684975749 -0.022325157023826585 0.0 0.0
0.0 0.04124111519363719 -0.032870556936423906 0.03197427238001845 0.000896284556405442 -0.02592880916624387 0.0 0.0
0.0 0.049421702536092765 -0.039503719206070334 0.03854490130489961 0.0009588179011706871 -0.029723404653726093 0.0 0.0
0.0 0.057395487261025516 -0.04587785034277588 0.04485730338918629 0.0010205469535895396 -0.03400313675760409 0.0 0.0
0.0 0.064530632903038 -0.05131005122971624 0.05023186785769418 0.0010781833720220212 -0.0388880965225758 0.0 0.0
0.0 0.06924583370033016 -0.05474507353644086 0.05359465909543076 0.0011504144410100503 -0.04350069416807544 0.0 0.0
0.0 0.06934010522161188 -0.054186674808562964 0.05293895741039488 0.0012477173981680712 -0.04572465632085207 0.0 0.0
0.0 0.05901984040601303 -0.04530401299750939 0.04380595749174158 0.0014980555057678222 -0.04136990149781663 0.0 0.0
0.0 0.05901984040602058 -0.045304012997505964 0.04380595749173698 0.0014980555057689817 0.04136990149787102 0.0 0.0
0.0 0.06934010522161171 -0.05418667480855004 0.052938957410380245 0.0012477173981697723 0.045724656320924595 0.0 0.0
0.0 0.06924583370031548 -0.05474507353641842 0.05359465909540838 0.0011504144410100074 0.04350069416812556 0.0 0.0
0.0 0.06453063290299894 -0.05131005122968004 0.05023186785765811 0.001078183372021957 0.038888096522580864 0.0 0.0
0.0 0.05739548726096868 -0.045877850342728614 0.044857303389138084 0.0010205469535905461 0.03400313675758307 0.0 0.0
0.0 0.049421702536036935 -0.03950371920602482 0.03854490130485362 0.0009588179011711848 0.02972340465369952 0.0 0.0
0.0 0.04124111519358671 -0.032870556936382314 0.03197427237997712 0.0008962845564051883 0.02592880916622005 0.0 0.0
0.0 0.03341124082017191 -0.02643901862748064 0.025602064558983086 0.0008369540684975368 0.022325157023807198 0.0 0.0
0.0 0.0261169525628564 -0.02044637736051749 0.019667511336055234 0.0007788660244622469 0.018689010503641704 0.0 0.0
0.0 0.019427169135683136 -0.014971915838167635 0.014255678177711315 0.000716237660456316 0.014924419805949357 0.0 0.0
0.0 0.013257130678921805 -0.010073381012363334 0.009434102360396256 0.0006392786519670739 0.01106989733113501 0.0 0.0
0.0 0.00807803687896299 -0.005897921602482687 0.005374851617382706 0.00052306998509998 0.0073879513246174625 0.0 0.0
0.0 0.003985865698636697 -0.002752100680733191 0.0024084658119742706 0.0003436348687589211 0.004217867077442275 0.0 0.0
0.0 0.001490189814232813 -0.000897548724175586 0.000752791116474509 0.0001447576077010767 0.0018444732480946352 0.0 0.0
0.0 0.00040377018860507423 -0.0001941225433687598 0.00015883214649095177 3.529039687780795e-05 0.000548619113496687 0.0 0.0
0.0 9.938295375832228e-05 -3.799908944205977e-05 3.1224583438803446e-05 6.774506003256281e-06 0.0001373094654493483 0.0 0.0
0.0 3.246642386115646e-05 -8.828309430540279e-06 7.351033838313392e-06 1.4772755922268666e-06 3.8827881522340515e-05 0.0 0.0
0.0 1.2150960240086144e-05 -2.4554341556590396e-06 2.0220000169576838e-06 4.3343413870136256e-07 1.4267721842314506e-05 0.0 0.0
0.0 2.022151553099506e-06 -4.163854782428055e-08 3.4758154454690954e-08 6.880393369585888e-09 5.029112094702504e-07 0.0 0.0
0.0 0.0 0.0 0.0 0.0 0.0 0.0 0.0
0.0 0.0 0.0 0.0 0.0 0.0 0.0 0.0
0.0 4.063806097121623e-07 8.83875332606981e-09 -5.922659735395461e-09 -2.916093590674856e-09 8.037141172206253e-08 0.0 0.0
0.0 7.946014822068799e-06 -2.0128893623004324e-06 1.6431069670923327e-06 3.697823952080954e-07 -8.951474924578288e-06 0.0 0.0
0.0 3.171587973207575e-05 -1.2122919631632822e-05 9.981834170383033e-06 2.1410854612497737e-06 -3.903715603910617e-05 0.0 0.0
0.0 0.0001370294979372531 -6.925790339252218e-05 5.6584351767934204e-05 1.2673551624588003e-05 -0.00016983321706537553 0.0 0.0
0.0 0.0006987047768083678 -0.00044542763132856904 0.0003677618022582148 7.766582907035433e-05 -0.0008090738985008495 0.0 0.0
0.0 0.0025572046998782036 -0.0018539136880776762 0.001593000142414301 0.00026091354566337455 -0.0024858906265187468 0.0 0.0
0.0 0.0063350053645177574 -0.004861635487600426 0.004381478346149951 0.00048015714145047405 -0.005218297168719955 0.0 0.0
0.0 0.01201938172751034 -0.009459012501279493 0.008827716269031428 0.0006312962322480651 -0.008856428842927606 0.0 0.0
0.0 0.01916123879490907 -0.015340728098337409 0.014611509307533837 0.0007292187908035702 -0.013055122261611044 0.0 0.0
0.0 0.027432797528032384 -0.022190926817521103 0.021386241161532708 0.0008046856559883837 -0.01735252545490324 0.0 0.0
0.0 0.03661560076198977 -0.029843903557253616 0.02897061004687701 0.0008732935103765746 -0.021471813089842938 0.0 0.0
0.0 0.04664417361082042 -0.038235891443726716 0.03729720007977498 0.000938691363951729 -0.025410331776565633 0.0 0.0
0.0 0.05739153506953297 -0.0472935365378572 0.04628754823720131 0.0010059883006558953 -0.02932518677551978 0.0 0.0
0.0 0.06873725414845773 -0.05677879952159099 0.05570101519188448 0.0010777843297064505 -0.033580283265239694 0.0 0.0
0.0 0.08011506631801421 -0.06615884050545484 0.06500391631893632 0.0011549241865184622 -0.03864426163865066 0.0 0.0
0.0 0.09035178458823973 -0.07446282366173501 0.07322262796911799 0.0012401956926169592 -0.04453734803612476 0.0 0.0
0.0 0.09750221740555091 -0.08004128392991232 0.07870072444621866 0.0013405594836935933 -0.050055653543429904 0.0 0.0
0.0 0.09788768130785602 -0.0800437135571323 0.07855276541939148 0.001490948137740805 -0.0522417425188226 0.0 0.0
0.0 0.08533708963190473 -0.06928897891789929 0.06757420308171888 0.0017147758361804257 -0.047864310532318835 0.0 0.0
0.0 0.08533708963190975 -0.06928897891789335 0.06757420308171364 0.0017147758361796938 0.04786431053238108 0.0 0.0
0.0 0.09788768130785164 -0.08004371355711551 0.07855276541937639 0.001490948137739117 0.05224174251890215 0.0 0.0
0.0 0.09750221740552432 -0.08004128392987934 0.07870072444618657 0.0013405594836927437 0.05005565354348954 0.0 0.0
0.0 0.09035178458818942 -0.0744628236616876 0.0732226279690715 0.0012401956926160888 0.04453734803613907 0.0 0.0
0.0 0.08011506631794693 -0.06615884050539689 0.06500391631887886 0.0011549241865180407 0.03864426163863307 0.0 0.0
0.0 0.06873725414839109 -0.05677879952153478 0.05570101519182817 0.0010777843297065633 0.03358028326521697 0.0 0.0
0.0 0.05739153506946497 -0.0472935365378003 0.04628754823714436 0.0010059883006559682 0.02932518677549263 0.0 0.0
0.0 0.04664417361075458 -0.038235891443670726 0.03729720007971943 0.0009386913639512919 0.025410331776543595 0.0 0.0
0.0 0.03661560076192279 -0.029843903557197515 0.02897061004682114 0.0008732935103763434 0.02147181308981327 0.0 0.0
0.0 0.027432797527970995 -0.02219092681747106 0.021386241161483407 0.0008046856559876533 0.017352525454866926 0.0 0.0
0.0 0.019161238794855248 -0.015340728098294721 0.014611509307491749 0.0007292187908029704 0.013055122261573652 0.0 0.0
0.0 0.012019381727472953 -0.009459012501249867 0.008827716269002465 0.0006312962322474102 0.008856428842903868 0.0 0.0
0.0 0.006335005364491446 -0.004861635487579712 0.004381478346130374 0.000480157141449337 0.005218297168701924 0.0 0.0
0.0 0.0025572046998635243 -0.0018539136880670287 0.0015930001424048934 0.00026091354566213547 0.0024858906265065395 0.0 0.0
0.0 0.0006987047768028231 -0.0004454276313257214 0.00036776180225572895 7.766582906999265e-05 0.0008090738984957357 0.0 0.0
0.0 0.0001370294979369316 -6.925790339294084e-05 5.6584351768274e-05 1.2673551624666815e-05 0.00016983321706632985 0.0 0.0
0.0 3.1715879731681475e-05 -1.2122919631937266e-05 9.981834170630657e-06 2.141085461306604e-06 3.9037156040037485e-05 0.0 0.0
0.0 7.946014821803485e-06 -2.0128893625245493e-06 1.6431069672687673e-06 3.697823952557807e-07 8.951474925555117e-06 0.0 0.0
0.0 4.063806093257621e-07 8.838753319458759e-09 -5.922659733024222e-09 -2.916093586432878e-09 -8.037141164573473e-08 0.0 0.0
0.0 0.0 0.0 0.0 0.0 0.0 0.0 0.0
0.0 0.0 0.0 0.0 0.0 0.0 0.0 0.0
0.0 0.0 0.0 0.0 0.0 0.0 0.0 0.0
0.0 3.7287823307624265e-06 -1.123190504221059e-06 9.134616088495624e-07 2.097288953715001e-07 -3.924349279996174e-06 0.0 0.0
0.0 3.054130216647855e-05 -1.2288861355215555e-05 1.0016879415636507e-05 2.2719819395790616e-06 -2.9589933930624965e-05 0.0 0.0
0.0 0.00022018197979240185 -0.00013092879778707055 0.00010675246227336718 2.4176335513703395e-05 -0.00022530840636609246 0.0 0.0
0.0 0.0011861891967362304 -0.0008839449158486212 0.0007395545048709618 0.00014439041097765928 -0.0010930263179830375 0.0 0.0
0.0 0.003948389243076798 -0.0031136033973871336 0.0027385448872351446 0.0003750585101519909 -0.0029276286101299217 0.0 0.0
0.0 0.008976545242265288 -0.007265635032644032 0.006689919540586833 0.0005757154920571961 -0.005813832729154504 0.0 0.0
0.0 0.01616528878603476 -0.013270043004709757 0.012567698594873286 0.0007023444098364678 -0.009672561944091999 0.0 0.0
0.0 0.025167336859562836 -0.020807963205155915 0.020013763962585775 0.0007941992425701458 -0.01403519998703859 0.0 0.0
0.0 0.0356054234763651 -0.029581053550522478 0.02870563273119988 0.0008754208193225885 -0.01843659332943554 0.0 0.0
0.0 0.047238986295460014 -0.039402953348866815 0.038451104919614294 0.0009518484292525369 -0.022656961584645616 0.0 0.0
0.0 0.05994666552786929 -0.05018534077515384 0.04916028003913737 0.0010250607360164261 -0.026683968503992413 0.0 0.0
0.0 0.07367813689874805 -0.061860335117232865 0.060761228721832844 0.0010991063954000299 -0.030653657447176588 0.0 0.0
0.0 0.08827632197239846 -0.0742081934824704 0.07302745607574515 0.0011807374067252367 -0.034984279093829306 0.0 0.0
0.0 0.10284084311695403 -0.08659768537721307 0.08532211701211205 0.0012755683651010368 -0.040211075413651064 0.0 0.0
0.0 0.11630753205799871 -0.09770179739676745 0.09631453178670998 0.001387265610057412 -0.046386311722243286 0.0 0.0
0.0 0.1255680076774144 -0.10520963123626498 0.10368505874871736 0.0015245724875476154 -0.05222463716175893 0.0 0.0
0.0 0.12613603106568141 -0.1054266906930244 0.10373316397072256 0.0016935267223017892 -0.05509059491344669 0.0 0.0
0.0 0.1118934638605302 -0.09289345123573368 0.0910063756314415 0.0018870756042921736 -0.05336093196325807 0.0 0.0
0.0 0.11189346386053198 -0.09289345123572633 0.09100637563143417 0.0018870756042921473 0.0533609319633216 0.0 0.0
0.0 0.12613603106566873 -0.10542669069300274 0.10373316397070148 0.0016935267223011803 0.0550905949135274 0.0 0.0
0.0 0.125568007677378 -0.105209631236225 0.10368505874867834 0.0015245724875465711 0.052224637161820416 0.0 0.0
0.0 0.11630753205793154 -0.09770179739670608 0.09631453178664921 0.0013872656100567906 0.04638631172225712 0.0 0.0
0.0 0.10284084311687515 -0.08659768537714432 0.08532211701204456 0.0012755683650996974 0.04021107541363669 0.0 0.0
0.0 0.08827632197231894 -0.07420819348240143 0.07302745607567773 0.0011807374067236871 0.0349842790938098 0.0 0.0
0.0 0.07367813689866655 -0.061860335117162955 0.06076122872176398 0.0010991063953989767 0.030653657447151317 0.0 0.0
0.0 0.059946665527791154 -0.05018534077508656 0.04916028003907095 0.0010250607360155883 0.026683968503970486 0.0 0.0
0.0 0.047238986295381064 -0.039402953348799535 0.038451104919547674 0.0009518484292518611 0.022656961584617233 0.0 0.0
0.0 0.035605423476292856 -0.02958105355046243 0.028705632731140428 0.0008754208193219739 0.0184365933293984 0.0 0.0
0.0 0.025167336859500577 -0.02080796320510467 0.02001376396253492 0.0007941992425697464 0.01403519998700174 0.0 0.0
0.0 0.016165288785989846 -0.013270043004672584 0.01256769859483671 0.0007023444098358811 0.009672561944068153 0.0 0.0
0.0 0.008976545242233274 -0.007265635032617904 0.006689919540561672 0.0005757154920562271 0.005813832729136393 0.0 0.0
0.0 0.0039483892430579705 -0.003113603397372643 0.0027385448872216467 0.00037505851015099756 0.0029276286101175015 0.0 0.0
0.0 0.00118618919672674 -0.0008839449158420283 0.0007395545048653494 0.00014439041097667805 0.0010930263179758396 0.0 0.0
0.0 0.0002201819797890572 -0.0001309287977855351 0.00010675246227208007 2.4176335513454906e-05 0.00022530840636356437 0.0 0.0
0.0 3.054130216553911e-05 -1.2288861355178679e-05 1.0016879415597674e-05 2.271981939581015e-06 2.958993393051555e-05 0.0 0.0
0.0 3.7287823306376234e-06 -1.1231905043287745e-06 9.134616089367417e-07 2.0972889539203083e-07 3.924349280376457e-06 0.0 0.0
0.0 0.0 0.0 0.0 0.0 0.0 0.0 0.0
0.0 0.0 0.0 0.0 0.0 0.0 0.0 0.0
0.0 0.0 0.0 0.0 0.0 0.0 0.0 0.0
0.0 0.0 0.0 0.0 0.0 0.0 0.0 0.0
0.0 9.159772724021529e-07 5.630253744311479e-08 -4.536700834069255e-08 -1.0935529102421052e-08 1.5681455061216043e-07 0.0 0.0
0.0 2.9012572253497236e-05 -1.6731185825468497e-05 1.3516687993600332e-05 3.214497831868201e-06 -3.0408216320064245e-05 0.0 0.0
0.0 0.00035981018772612025 -0.00026015502006805164 0.00021253344247227664 4.7621577595774944e-05 -0.00031874400621132614 0.0 0.0
0.0 0.0018998073315221746 -0.0015186827901486728 0.0012907477014634555 0.0002279350886852175 -0.0013000934567270117 0.0 0.0
0.0 0.005631968911419852 -0.0046074462075118205 0.004136809622551471 0.00047063658496035037 -0.0031144325949711135 0.0 0.0
0.0 0.011755633273801153 -0.00987895853960007 0.009236708656417535 0.0006422498831825327 -0.0059839567042497014 0.0 0.0
0.0 0.020434108844624977 -0.01722934205188569 0.016475876146037315 0.0007534659058483833 -0.009752184277572837 0.0 0.0
0.0 0.03126713424083413 -0.026386574031759903 0.025539343796412366 0.0008472302353475367 -0.013957656377095421 0.0 0.0
0.0 0.04385725622985255 -0.037068649781234836 0.03613281111625818 0.0009358386649766218 -0.018216195659350863 0.0 0.0
0.0 0.05791439949874174 -0.04905685732280832 0.0480359900660609 0.001020867256747331 -0.022297046378701255 0.0 0.0
0.0 0.07336564660181645 -0.06222375772510151 0.06112127433283685 0.0011024833922646578 -0.02619398477419694 0.0 0.0
0.0 0.08992711883660112 -0.07649004697775184 0.0753064334611209 0.0011836135166310047 -0.029998032847097244 0.0 0.0
0.0 0.10761641317256324 -0.09164101743282557 0.09036698359691428 0.0012740338359112915 -0.03397554905684574 0.0 0.0
0.0 0.1256590087130447 -0.10696256529022682 0.1055765301973872 0.0013860350928396362 -0.03866428097571706 0.0 0.0
0.0 0.1418302886253553 -0.12078262140657836 0.11925730099980514 0.0015253204067731743 -0.044402005003138 0.0 0.0
0.0 0.15299361092871389 -0.13012927284657852 0.12843828463901738 0.0016909882075611298 -0.050445977671877446 0.0 0.0
0.0 0.15410097427379357 -0.13064335979586877 0.1287735526519266 0.0018698071439421135 -0.05521374285399892 0.0 0.0
0.0 0.1390168768813232 -0.11668080004285712 0.11463465459266525 0.002046145450191888 -0.05833142040646756 0.0 0.0
0.0 0.13901687688131537 -0.11668080004284302 0.11463465459265029 0.0020461454501927018 0.058331420406531456 0.0 0.0
0.0 0.1541009742737572 -0.1306433597958299 0.1287735526518855 0.001869807143944347 0.05521374285407604 0.0 0.0
0.0 0.15299361092865654 -0.13012927284652315 0.128438284638961 0.0016909882075621181 0.0504459776719353 0.0 0.0
0.0 0.14183028862527158 -0.1207826214065042 0.11925730099972982 0.0015253204067742908 0.044402005003152 0.0 0.0
0.0 0.12565900871295452 -0.1069625652901488 0.10557653019730898 0.0013860350928397997 0.038664280975706844 0.0 0.0
0.0 0.10761641317246984 -0.09164101743274473 0.09036698359683373 0.0012740338359109697 0.033975549056831894 0.0 0.0
0.0 0.08992711883650095 -0.07649004697766582 0.07530643346103498 0.0011836135166307803 0.029998032847074065 0.0 0.0
0.0 0.07336564660171997 -0.06222375772501791 0.06112127433275387 0.0011024833922639728 0.02619398477417604 0.0 0.0
0.0 0.05791439949864945 -0.0490568573227288 0.04803599006598207 0.0010208672567467115 0.022297046378675023 0.0 0.0
0.0 0.04385725622977045 -0.037068649781165475 0.03613281111618927 0.0009358386649762081 0.018216195659316276 0.0 0.0
0.0 0.03126713424076038 -0.026386574031698057 0.025539343796351012 0.0008472302353470398 0.01395765637705993 0.0 0.0
0.0 0.02043410884456949 -0.017229342051838605 0.016475876145990852 0.000753465905847748 0.009752184277548962 0.0 0.0
0.0 0.01175563327376225 -0.009878958539567419 0.00923670865638546 0.0006422498831819486 0.005983956704231335 0.0 0.0
0.0 0.005631968911395026 -0.0046074462074915485 0.004136809622532328 0.0004706365849592222 0.0031144325949588473 0.0 0.0
0.0 0.0018998073315103642 -0.001518682790139731 0.0012907477014555565 0.00022793508868417368 0.0013000934567198143 0.0 0.0
0.0 0.00035981018772312037 -0.00026015502006657896 0.00021253344247102647 4.762157759555237e-05 0.00031874400620962595 0.0 0.0
0.0 2.90125722528376e-05 -1.673118582543042e-05 1.3516687993565195e-05 3.2144978318652058e-06 3.0408216320012458e-05 0.0 0.0
0.0 9.159772720464821e-07 5.630253742091469e-08 -4.5367008322703315e-08 -1.0935529098212496e-08 -1.5681455054918204e-07 0.0 0.0
0.0 0.0 0.0 0.0 0.0 0.0 0.0 0.0
0.0 0.0 0.0 0.0 0.0 0.0 0.0 0.0
0.0 0.0 0.0 0.0 0.0 0.0 0.0 0.0
0.0 0.0 0.0 0.0 0.0 0.0 0.0 0.0
0.0 2.633745482838499e-07 1.9034837468267232e-08 -1.5232417022672714e-08 -3.80242044559584e-09 3.959451352121644e-08 0.0 0.0
0.0 3.423512517250759e-05 -2.373404838054921e-05 1.9080165650344926e-05 4.653882730204312e-06 -3.173049860937855e-05 0.0 0.0
0.0 0.0006069195198204878 -0.00048179564794283234 0.00039575593801650314 8.603970992632928e-05 -0.000408040444136097 0.0 0.0
0.0 0.002834867175828752 -0.00233774387663941 0.0020221896635079016 0.0003155542131315095 -0.0013712036799011955 0.0 0.0
0.0 0.007324292901932052 -0.006294998622576407 0.005750153399987702 0.0005448452225887057 -0.00305933159544211 0.0 0.0
0.0 0.014674902670316821 -0.012615270465515735 0.011927230496560226 0.0006880399689555149 -0.005667433188340704 0.0 0.0
0.0 0.024831487288412377 -0.021261916804486927 0.02046792645380883 0.0007939903506780906 -0.009042648795075589 0.0 0.0
0.0 0.037426531061112996 -0.03201912972244946 0.031126502759121405 0.0008926269633280688 -0.01284979972512207 0.0 0.0
0.0 0.052133207478570844 -0.04459772280401908 0.04360901731237598 0.000988705491643075 -0.016704314308224714 0.0 0.0
0.0 0.0686440258490695 -0.058751154577762824 0.05766841081042867 0.0010827437673341226 -0.02040517735543592 0.0 0.0
0.0 0.0867355526511242 -0.0743039391698288 0.07312998224148529 0.0011739569283434927 -0.023963710116523634 0.0 0.0
0.0 0.10628906556007409 -0.0911176965188642 0.08985341056163587 0.0012642859572282701 -0.027373887584863792 0.0 0.0
0.0 0.1269833253185269 -0.10894495571780348 0.10758274042007762 0.0013622152977258292 -0.03067110138305658 0.0 0.0
0.0 0.1477749023697748 -0.12703437048987778 0.1255483967417982 0.0014859737480795747 -0.03420228687278442 0.0 0.0
0.0 0.16694409465652466 -0.1434874130523789 0.1418385611744589 0.00164885187791996 -0.03874432317620692 0.0 0.0
0.0 0.18035101923122143 -0.15480859302173308 0.1529700997135497 0.0018384933081834485 -0.044911962363488545 0.0 0.0
0.0 0.18243099599561427 -0.15603133180569015 0.15399826784829873 0.0020330639573912903 -0.052767715734407486 0.0 0.0
0.0 0.16685859344776413 -0.14111762495072497 0.13891281864266608 0.0022048063080587917 -0.06279971567074465 0.0 0.0
0.0 0.16685859344775622 -0.14111762495071145 0.1389128186426523 0.002204806308059197 0.06279971567080489 0.0 0.0
0.0 0.1824309959955799 -0.1560313318056536 0.15399826784826293 0.0020330639573906406 0.05276771573448093 0.0 0.0
0.0 0.18035101923115837 -0.15480859302167407 0.1529700997134914 0.0018384933081825447 0.04491196236354021 0.0 0.0
0.0 0.16694409465643914 -0.143487413052303 0.1418385611743842 0.0016488518779187188 0.03874432317621909 0.0 0.0
0.0 0.14777490236966997 -0.12703437048978614 0.12554839674170826 0.0014859737480778248 0.03420228687277621 0.0 0.0
0.0 0.1269833253184085 -0.1089449557177006 0.10758274041997559 0.0013622152977249677 0.030671101383045095 0.0 0.0
0.0 0.10628906555995939 -0.09111769651876506 0.08985341056153767 0.0012642859572273317 0.027373887584844485 0.0 0.0
0.0 0.0867355526510094 -0.0743039391697298 0.07312998224138631 0.0011739569283434875 0.023963710116503886 0.0 0.0
0.0 0.06864402584896137 -0.058751154577669315 0.057668410810335906 0.0010827437673334344 0.020405177355411513 0.0 0.0
0.0 0.05213320747847547 -0.044597722803937 0.043609017312295086 0.0009887054916419107 0.016704314308192744 0.0 0.0
0.0 0.03742653106102983 -0.03201912972237832 0.031126502759051065 0.0008926269633272529 0.012849799725090228 0.0 0.0
0.0 0.02483148728834788 -0.021261916804431298 0.020467926453753588 0.0007939903506777107 0.00904264879505506 0.0 0.0
0.0 0.014674902670270086 -0.012615270465475571 0.011927230496520672 0.0006880399689548979 0.005667433188322838 0.0 0.0
0.0 0.007324292901904542 -0.006294998622553017 0.005750153399965167 0.0005448452225878476 0.003059331595431155 0.0 0.0
0.0 0.00283486717581423 -0.0023377438766280694 0.0020221896634975696 0.0003155542131305002 0.0013712036798948447 0.0 0.0
0.0 0.000606919519814879 -0.0004817956479391041 0.00039575593801331765 8.603970992578634e-05 0.0004080404441331413 0.0 0.0
0.0 3.4235125172047146e-05 -2.373404838079076e-05 1.9080165650523585e-05 4.653882730267181e-06 3.173049860966487e-05 0.0 0.0
0.0 2.633745479801639e-07 1.90348374459991e-08 -1.5232417004860948e-08 -3.802420441135515e-09 -3.959451347502403e-08 0.0 0.0
0.0 0.0 0.0 0.0 0.0 0.0 0.0 0.0
0.0 0.0 0.0 0.0 0.0 0.0 0.0 0.0
0.0 0.0 0.0 0.0 0.0 0.0 0.0 0.0
0.0 0.0 0.0 0.0 0.0 0.0 0.0 0.0
0.0 0.0 0.0 0.0 0.0 0.0 0.0 0.0
0.0 5.446308312632136e-05 -4.278991568195184e-05 3.4412349776858046e-05 8.377565905093798e-06 -3.983732575950722e-05 0.0 0.0
0.0 0.0010013182095685138 -0.0008256343482124313 0.0006843635934625602 0.00014127075474987093 -0.0004514404071609829 0.0 0.0
0.0 0.003913920141429378 -0.0033260907537472897 0.002926893703197481 0.0003991970505498084 -0.0012851171943428362 0.0 0.0
0.0 0.009240197448164069 -0.008099380312834706 0.007499659814761407 0.0005997204980732961 -0.002670953130435986 0.0 0.0
0.0 0.017732068431599638 -0.015408193422511297 0.014686255243963844 0.0007219381785474475 -0.004787781489882166 0.0 0.0
0.0 0.029275508773315088 -0.025321305912755915 0.024493734546341683 0.000827571366414211 -0.0075685002545458355 0.0 0.0
0.0 0.043620490529004324 -0.03765394006995708 0.0367221439822029 0.000931796087754183 -0.01072121077207909 0.0 0.0
0.0 0.060448103340495336 -0.05211621740511849 0.051080550729938244 0.0010356666751802014 -0.013918393963971779 0.0 0.0
0.0 0.07935048237904054 -0.06843432637542589 0.06729568115679073 0.0011386452186351538 -0.01698551656059696 0.0 0.0
0.0 0.10023005456403493 -0.08637433817899014 0.08513362034562934 0.0012407178333607924 -0.019950767145105436 0.0 0.0
0.0 0.12247283041631958 -0.10570082288531611 0.10435796566820982 0.0013428572171063145 -0.022793943310393725 0.0 0.0
0.0 0.14591811031752872 -0.12604559133858168 0.12459578875203647 0.001449802586545133 -0.025270485777283663 0.0 0.0
0.0 0.1696480250187301 -0.1466171444217057 0.14504006428962982 0.0015770801320757672 -0.027245109085257544 0.0 0.0
0.0 0.1915428499928042 -0.1655725572969947 0.16382555874235785 0.0017469985546367973 -0.029751501828387893 0.0 0.0
0.0 0.20752345683561946 -0.17923126727122068 0.1772636783923685 0.0019675888788521123 -0.0355287275789938 0.0 0.0
0.0 0.2113525198991087 -0.18189274231743915 0.17970488248430208 0.0021878598331371755 -0.04725153255408256 0.0 0.0
0.0 0.19618786034590663 -0.16672186312441387 0.1643458344975687 0.0023760286268452117 -0.06641633297899223 0.0 0.0
0.0 0.19618786034589686 -0.1667218631244002 0.1643458344975558 0.0023760286268444007 0.0664163329790401 0.0 0.0
0.0 0.2113525198990635 -0.18189274231739555 0.17970488248425912 0.0021878598331364876 0.04725153255414448 0.0 0.0
0.0 0.20752345683554285 -0.1792312672711514 0.17726367839230028 0.0019675888788510745 0.035528727579037384 0.0 0.0
0.0 0.19154284999269383 -0.1655725572968985 0.16382555874226223 0.0017469985546363141 0.02975150182839727 0.0 0.0
0.0 0.16964802501860743 -0.14661714442159945 0.1450400642895243 0.0015770801320751583 0.02724510908524872 0.0 0.0
0.0 0.14591811031739885 -0.12604559133846924 0.124595788751924 0.001449802586545297 0.02527048577727735 0.0 0.0
0.0 0.12247283041618623 -0.10570082288520116 0.1043579656680946 0.0013428572171065372 0.02279394331037839 0.0 0.0
0.0 0.10023005456390627 -0.08637433817887835 0.08513362034551865 0.0012407178333597323 0.019950767145090684 0.0 0.0
0.0 0.07935048237891987 -0.06843432637532108 0.0672956811566874 0.0011386452186336678 0.016985516560579603 0.0 0.0
0.0 0.060448103340385584 -0.05211621740502352 0.05108055072984394 0.0010356666751795605 0.013918393963945095 0.0 0.0
0.0 0.04362049052891245 -0.03765394006987764 0.03672214398212418 0.0009317960877534678 0.010721210772052707 0.0 0.0
0.0 0.02927550877324436 -0.025321305912694336 0.02449373454628083 0.0008275713664135014 0.0075685002545286175 0.0 0.0
0.0 0.017732068431547204 -0.015408193422465657 0.014686255243918723 0.0007219381785469405 0.004787781489867887 0.0 0.0
0.0 0.00924019744812795 -0.008099380312803252 0.007499659814730675 0.0005997204980725809 0.002670953130425616 0.0 0.0
0.0 0.003913920141408933 -0.003326090753730103 0.0029268937031815337 0.00039919705054856897 0.001285117194336256 0.0 0.0
0.0 0.0010013182095604692 -0.0008256343482062732 0.0006843635934573032 0.0001412707547489699 0.00045144040715799493 0.0 0.0
0.0 5.4463083125388866e-05 -4.2789915681881895e-05 3.441234977677927e-05 8.377565905102658e-06 3.983732575941011e-05 0.0 0.0
0.0 0.0 0.0 0.0 0.0 0.0 0.0 0.0
0.0 0.0 0.0 0.0 0.0 0.0 0.0 0.0
0.0 0.0 0.0 0.0 0.0 0.0 0.0 0.0
0.0 0.0 0.0 0.0 0.0 0.0 0.0 0.0
0.0 0.0 0.0 0.0 0.0 0.0 0.0 0.0
0.0 0.0 0.0 0.0 0.0 0.0 0.0 0.0
0.0 0.00011555775150983032 -9.633848841663873e-05 7.739085186046534e-05 1.894763655617342e-05 -5.4196658728836046e-05 0.0 0.0
0.0 0.0015682780502712132 -0.0013043252175851433 0.0010955895057317222 0.00020873571185342065 -0.00040799012369085135 0.0 0.0
0.0 0.00497598265983459 -0.0044557916162107315 0.003983139082424379 0.0004726525337863523 -0.0009903071243017867 0.0 0.0
0.0 0.011304198842004828 -0.009965947361811738 0.009328082356244579 0.0006378650055671633 -0.0019357591944983198 0.0 0.0
0.0 0.020839861842383296 -0.018221379948769614 0.01747233487107605 0.0007490450776935756 -0.0033864146678678343 0.0 0.0
0.0 0.033738042131383976 -0.029360626640847463 0.028505480491893602 0.0008551461489538358 -0.005333518561177783 0.0 0.0
0.0 0.0498115142021197 -0.043242014444908314 0.04227649512896675 0.0009655193159415281 -0.007573061574172657 0.0 0.0
0.0 0.0687323574649158 -0.05957551292888799 0.058498020538720386 0.0010774923901675565 -0.009848318876551066 0.0 0.0
0.0 0.09018857525051441 -0.07805402682706164 0.07686429916640522 0.0011897276606564313 -0.012031891655023629 0.0 0.0
0.0 0.11354335402424154 -0.09838167832209518 0.09707860224063991 0.001303076081455282 -0.014169103866862647 0.0 0.0
0.0 0.13866621910685445 -0.12019054573726587 0.11877166395207293 0.0014188817851928815 -0.016188754311392772 0.0 0.0
0.0 0.16489840603268913 -0.14292490548546774 0.1413860692589816 0.001538836226486218 -0.017764592138077788 0.0 0.0
0.0 0.19108981043770712 -0.1656647305438665 0.16399691282204604 0.0016678177218204028 -0.018418618493102223 0.0 0.0
0.0 0.2153673548663308 -0.1867576903992253 0.18493343981892627 0.0018242505802990813 -0.018525178220731648 0.0 0.0
0.0 0.23422304644162062 -0.2030280664732508 0.20098819014565814 0.0020398763275927 -0.021871310162034165 0.0 0.0
0.0 0.2412379879540494 -0.20850425016003413 0.20615348238985975 0.002350767770174193 -0.03684706689196804 0.0 0.0
0.0 0.22768108394485995 -0.19425853978696045 0.19168223248851485 0.0025763072984454245 -0.06832321831488278 0.0 0.0
0.0 0.2276810839448399 -0.19425853978694016 0.19168223248849436 0.0025763072984456284 0.06832321831491972 0.0 0.0
0.0 0.2412379879539894 -0.20850425015997978 0.2061534823898056 0.0023507677701741472 0.036847066892016854 0.0 0.0
0.0 0.23422304644151892 -0.20302806647316227 0.20098819014556907 0.002039876327593283 0.02187131016206574 0.0 0.0
0.0 0.2153673548662066 -0.18675769039911713 0.18493343981881882 0.0018242505802983566 0.018525178220735877 0.0 0.0
0.0 0.1910898104375651 -0.16566473054374323 0.16399691282192386 0.0016678177218192964 0.01841861849309714 0.0 0.0
0.0 0.16489840603253977 -0.14292490548533815 0.14138606925885222 0.0015388362264859663 0.01776459213807593 0.0 0.0
0.0 0.1386662191067075 -0.12019054573713861 0.1187716639519462 0.0014188817851923832 0.016188754311384293 0.0 0.0
0.0 0.11354335402409964 -0.09838167832197195 0.09707860224051768 0.001303076081454306 0.014169103866853869 0.0 0.0
0.0 0.09018857525037932 -0.07805402682694401 0.07686429916628851 0.001189727660655505 0.012031891655013475 0.0 0.0
0.0 0.06873235746479055 -0.05957551292877952 0.05849802053861257 0.0010774923901669391 0.009848318876532342 0.0 0.0
0.0 0.04981151420201374 -0.043242014444816505 0.04227649512887545 0.0009655193159410631 0.007573061574152629 0.0 0.0
0.0 0.033738042131303464 -0.029360626640777023 0.02850548049182365 0.000855146148953365 0.005333518561166696 0.0 0.0
0.0 0.020839861842324225 -0.018221379948717673 0.017472334871024918 0.0007490450776927388 0.003386414667858829 0.0 0.0
0.0 0.011304198841965367 -0.009965947361776941 0.009328082356210379 0.000637865005566562 0.0019357591944906215 0.0 0.0
0.0 0.004975982659813149 -0.004455791616191748 0.003983139082406396 0.000472652533785353 0.0009903071242972742 0.0 0.0
0.0 0.0015682780502616462 -0.0013043252175775914 0.0010955895057250416 0.00020873571185254993 0.0004079901236886035 0.0 0.0
0.0 0.00011555775150823267 -9.633848841608767e-05 7.739085185998892e-05 1.8947636556098692e-05 5.4196658728528444e-05 0.0 0.0
0.0 0.0 0.0 0.0 0.0 0.0 0.0 0.0
0.0 0.0 0.0 0.0 0.0 0.0 0.0 0.0
0.0 0.0 0.0 0.0 0.0 0.0 0.0 0.0
0.0 0.0 0.0 0.0 0.0 0.0 0.0 0.0
0.0 0.0 0.0 0.0 0.0 0.0 0.0 0.0
0.0 0.0 0.0 0.0 0.0 0.0 0.0 0.0
0.0 0.0002661656517084411 -0.00023372273635387407 0.00018778037001925603 4.594236633461813e-05 -5.5280575802308854e-05 0.0 0.0
0.0 0.0023097455805712354 -0.0019077470316571873 0.0016251424582362489 0.00028260457342093714 -0.00023416917320581015 0.0 0.0
0.0 0.006318995928439557 -0.005659509942300701 0.005129194465272827 0.0005303154770278735 -0.0004640399535293555 0.0 0.0
0.0 0.013434455604920324 -0.011867342307337542 0.011200315203701395 0.0006670271036361426 -0.000850873840715548 0.0 0.0
0.0 0.023987457448285895 -0.021014102612342312 0.020243787339204858 0.0007703152731374507 -0.0014672401300949863 0.0 0.0
0.0 0.038211962264226684 -0.03333264810041281 0.03245471493842755 0.0008779331619852398 -0.0023459507173213003 0.0 0.0
0.0 0.05602131452142221 -0.048733257084898195 0.047739032137466775 0.0009942249474314607 -0.0033988536011505203 0.0 0.0
0.0 0.07710756318441095 -0.06692789542936915 0.06581327456289854 0.0011146208664706363 -0.004488895957009359 0.0 0.0
0.0 0.10077845498283468 -0.08756551284833525 0.08632867375670622 0.0012368390916289768 -0.005550310257928504 0.0 0.0
0.0 0.1268947745462623 -0.11025926212291226 0.10889792095491233 0.0013613411679998892 -0.006575845853609938 0.0 0.0
0.0 0.15488376273060275 -0.13451893837849432 0.1330284538938813 0.0014904844846129635 -0.0074853018998799915 0.0 0.0
0.0 0.1838078985776361 -0.15959557164739582 0.15797000796421196 0.0016255636831839252 -0.008072633877471822 0.0 0.0
0.0 0.2123446429095863 -0.18432613577176454 0.18256109785758634 0.0017650379141780671 -0.007935206720132119 0.0 0.0
0.0 0.23853279285760054 -0.2070366108448976 0.20512889238930945 0.001907718455588147 -0.006723272023298 0.0 0.0
0.0 0.2595896324860736 -0.2253131038881926 0.22324092947333107 0.0020721744148613167 -0.006098687139168796 0.0 0.0
0.0 0.270965662304441 -0.23491899032005828 0.23258994959243157 0.0023290407276265173 -0.01687006439780798 0.0 0.0
0.0 0.26320353594727314 -0.22577950432927393 0.22282115719165185 0.0029583471376220275 -0.06306150180345402 0.0 0.0
0.0 0.26320353594724943 -0.2257795043292523 0.2228211571916299 0.0029583471376221845 0.06306150180347093 0.0 0.0
0.0 0.2709656623043688 -0.23491899031999539 0.23258994959236834 0.0023290407276268504 0.01687006439783285 0.0 0.0
0.0 0.2595896324859706 -0.22531310388810222 0.22324092947324337 0.0020721744148588335 0.0060986871391846414 0.0 0.0
0.0 0.23853279285746237 -0.20703661084477734 0.20512889238919077 0.0019077184555865774 0.006723272023297261 0.0 0.0
0.0 0.21234464290942995 -0.18432613577162893 0.18256109785745137 0.001765037914177411 0.007935206720127218 0.0 0.0
0.0 0.18380789857747432 -0.15959557164725552 0.15797000796407218 0.001625563683183221 0.008072633877471574 0.0 0.0
0.0 0.1548837627304394 -0.13451893837835274 0.13302845389374043 0.001490484484612245 0.007485301899874818 0.0 0.0
0.0 0.12689477454610024 -0.11025926212277187 0.10889792095477233 0.001361341167999494 0.006575845853605381 0.0 0.0
0.0 0.10077845498268106 -0.08756551284820213 0.08632867375657372 0.0012368390916284173 0.005550310257924374 0.0 0.0
0.0 0.07710756318427478 -0.06692789542925104 0.06581327456278106 0.0011146208664699658 0.004488895956998845 0.0 0.0
0.0 0.0560213145213077 -0.04873325708479899 0.0477390321373682 0.0009942249474308015 0.003398853601140033 0.0 0.0
0.0 0.03821196226413838 -0.033332648100335656 0.03245471493835099 0.0008779331619846556 0.0023459507173160896 0.0 0.0
0.0 0.02398745744821914 -0.021014102612283585 0.020243787339146644 0.0007703152731369196 0.0014672401300902266 0.0 0.0
0.0 0.013434455604874076 -0.011867342307296755 0.011200315203661116 0.0006670271036356397 0.0008508738407127861 0.0 0.0
0.0 0.006318995928412404 -0.0056595099422763655 0.005129194465249242 0.0005303154770271227 0.00046403995352733746 0.0 0.0
0.0 0.002309745580559059 -0.0019077470316473657 0.0016251424582272985 0.0002826045734200675 0.00023416917320469012 0.0 0.0
0.0 0.0002661656517066079 -0.00023372273635288644 0.00018778037001843895 4.594236633444745e-05 5.5280575802089676e-05 0.0 0.0
0.0 0.0 0.0 0.0 0.0 0.0 0.0 0.0
0.0 0.0 0.0 0.0 0.0 0.0 0.0 0.0
0.0 0.0 0.0 0.0 0.0 0.0 0.0 0.0