# vtk DataFile Version 3.0
Some data
ASCII
DATASET UNSTRUCTURED_GRID
POINTS 861 float
0.0 0.0 0.0
0.4 0.0 0.0
0.8 0.0 0.0
1.2000000000000002 0.0 0.0
1.6 0.0 0.0
2.0 0.0 0.0
2.4000000000000004 0.0 0.0
2.8000000000000003 0.0 0.0
3.2 0.0 0.0
3.6 0.0 0.0
4.0 0.0 0.0
4.4 0.0 0.0
4.800000000000001 0.0 0.0
5.2 0.0 0.0
5.6000000000000005 0.0 0.0
6.0 0.0 0.0
6.4 0.0 0.0
6.800000000000001 0.0 0.0
7.2 0.0 0.0
7.6000000000000005 0.0 0.0
8.0 0.0 0.0
8.4 0.0 0.0
8.8 0.0 0.0
9.200000000000001 0.0 0.0
9.600000000000001 0.0 0.0
10.0 0.0 0.0
10.4 0.0 0.0
10.8 0.0 0.0
11.200000000000001 0.0 0.0
11.600000000000001 0.0 0.0
12.0 0.0 0.0
12.4 0.0 0.0
12.8 0.0 0.0
13.200000000000001 0.0 0.0
13.600000000000001 0.0 0.0
14.0 0.0 0.0
14.4 0.0 0.0
14.8 0.0 0.0
15.200000000000001 0.0 0.0
15.600000000000001 0.0 0.0
16.0 0.0 0.0
0.0 0.1 0.0
0.4 0.1 0.0
0.8 0.1 0.0
1.2000000000000002 0.1 0.0
1.6 0.1 0.0
2.0 0.1 0.0
2.4000000000000004 0.1 0.0
2.8000000000000003 0.1 0.0
3.2 0.1 0.0
3.6 0.1 0.0
4.0 0.1 0.0
4.4 0.1 0.0
4.800000000000001 0.1 0.0
5.2 0.1 0.0
5.6000000000000005 0.1 0.0
6.0 0.1 0.0
6.4 0.1 0.0
6.800000000000001 0.1 0.0
7.2 0.1 0.0
7.6000000000000005 0.1 0.0
8.0 0.1 0.0
8.4 0.1 0.0
8.8 0.1 0.0
9.200000000000001 0.1 0.0
9.600000000000001 0.1 0.0
10.0 0.1 0.0
10.4 0.1 0.0
10.8 0.1 0.0
11.200000000000001 0.1 0.0
11.600000000000001 0.1 0.0
12.0 0.1 0.0
12.4 0.1 0.0
12.8 0.1 0.0
13.200000000000001 0.1 0.0
13.600000000000001 0.1 0.0
14.0 0.1 0.0
14.4 0.1 0.0
14.8 0.1 0.0
15.200000000000001 0.1 0.0
15.600000000000001 0.1 0.0
16.0 0.1 0.0
0.0 0.2 0.0
0.4 0.2 0.0
0.8 0.2 0.0
1.2000000000000002 0.2 0.0
1.6 0.2 0.0
2.0 0.2 0.0
2.4000000000000004 0.2 0.0
2.8000000000000003 0.2 0.0
3.2 0.2 0.0
3.6 0.2 0.0
4.0 0.2 0.0
4.4 0.2 0.0
4.800000000000001 0.2 0.0
5.2 0.2 0.0
5.6000000000000005 0.2 0.0
6.0 0.2 0.0
6.4 0.2 0.0
6.800000000000001 0.2 0.0
7.2 0.2 0.0
7.6000000000000005 0.2 0.0
8.0 0.2 0.0
8.4 0.2 0.0
8.8 0.2 0.0
9.200000000000001 0.2 0.0
9.600000000000001 0.2 0.0
10.0 0.2 0.0
10.4 0.2 0.0
10.8 0.2 0.0
11.200000000000001 0.2 0.0
11.600000000000001 0.2 0.0
12.0 0.2 0.0
12.4 0.2 0.0
12.8 0.2 0.0
13.200000000000001 0.2 0.0
13.600000000000001 0.2 0.0
14.0 0.2 0.0
14.4 0.2 0.0
14.8 0.2 0.0
15.200000000000001 0.2 0.0
15.600000000000001 0.2 0.0
16.0 0.2 0.0
0.0 0.30000000000000004 0.0
0.4 0.30000000000000004 0.0
0.8 0.30000000000000004 0.0
1.2000000000000002 0.30000000000000004 0.0
1.6 0.30000000000000004 0.0
2.0 0.30000000000000004 0.0
2.4000000000000004 0.30000000000000004 0.0
2.8000000000000003 0.30000000000000004 0.0
3.2 0.30000000000000004 0.0
3.6 0.30000000000000004 0.0
4.0 0.30000000000000004 0.0
4.4 0.30000000000000004 0.0
4.800000000000001 0.30000000000000004 0.0
5.2 0.30000000000000004 0.0
5.6000000000000005 0.30000000000000004 0.0
6.0 0.30000000000000004 0.0
6.4 0.30000000000000004 0.0
6.800000000000001 0.30000000000000004 0.0
7.2 0.30000000000000004 0.0
7.6000000000000005 0.30000000000000004 0.0
8.0 0.30000000000000004 0.0
8.4 0.30000000000000004 0.0
8.8 0.30000000000000004 0.0
9.200000000000001 0.30000000000000004 0.0
9.600000000000001 0.30000000000000004 0.0
10.0 0.30000000000000004 0.0
10.4 0.30000000000000004 0.0
10.8 0.30000000000000004 0.0
11.200000000000001 0.30000000000000004 0.0
11.600000000000001 0.30000000000000004 0.0
12.0 0.30000000000000004 0.0
12.4 0.30000000000000004 0.0
12.8 0.30000000000000004 0.0
13.200000000000001 0.30000000000000004 0.0
13.600000000000001 0.30000000000000004 0.0
14.0 0.30000000000000004 0.0
14.4 0.30000000000000004 0.0
14.8 0.30000000000000004 0.0
15.200000000000001 0.30000000000000004 0.0
15.600000000000001 0.30000000000000004 0.0
16.0 0.30000000000000004 0.0
0.0 0.4 0.0
0.4 0.4 0.0
0.8 0.4 0.0
1.2000000000000002 0.4 0.0
1.6 0.4 0.0
2.0 0.4 0.0
2.4000000000000004 0.4 0.0
2.8000000000000003 0.4 0.0
3.2 0.4 0.0
3.6 0.4 0.0
4.0 0.4 0.0
4.4 0.4 0.0
4.800000000000001 0.4 0.0
5.2 0.4 0.0
5.6000000000000005 0.4 0.0
6.0 0.4 0.0
6.4 0.4 0.0
6.800000000000001 0.4 0.0
7.2 0.4 0.0
7.6000000000000005 0.4 0.0
8.0 0.4 0.0
8.4 0.4 0.0
8.8 0.4 0.0
9.200000000000001 0.4 0.0
9.600000000000001 0.4 0.0
10.0 0.4 0.0
10.4 0.4 0.0
10.8 0.4 0.0
11.200000000000001 0.4 0.0
11.600000000000001 0.4 0.0
12.0 0.4 0.0
12.4 0.4 0.0
12.8 0.4 0.0
13.200000000000001 0.4 0.0
13.600000000000001 0.4 0.0
14.0 0.4 0.0
14.4 0.4 0.0
14.8 0.4 0.0
15.200000000000001 0.4 0.0
15.600000000000001 0.4 0.0
16.0 0.4 0.0
0.0 0.5 0.0
0.4 0.5 0.0
0.8 0.5 0.0
1.2000000000000002 0.5 0.0
1.6 0.5 0.0
2.0 0.5 0.0
2.4000000000000004 0.5 0.0
2.8000000000000003 0.5 0.0
3.2 0.5 0.0
3.6 0.5 0.0
4.0 0.5 0.0
4.4 0.5 0.0
4.800000000000001 0.5 0.0
5.2 0.5 0.0
5.6000000000000005 0.5 0.0
6.0 0.5 0.0
6.4 0.5 0.0
6.800000000000001 0.5 0.0
7.2 0.5 0.0
7.6000000000000005 0.5 0.0
8.0 0.5 0.0
8.4 0.5 0.0
8.8 0.5 0.0
9.200000000000001 0.5 0.0
9.600000000000001 0.5 0.0
10.0 0.5 0.0
10.4 0.5 0.0
10.8 0.5 0.0
11.200000000000001 0.5 0.0
11.600000000000001 0.5 0.0
12.0 0.5 0.0
12.4 0.5 0.0
12.8 0.5 0.0
13.200000000000001 0.5 0.0
13.600000000000001 0.5 0.0
14.0 0.5 0.0
14.4 0.5 0.0
14.8 0.5 0.0
15.200000000000001 0.5 0.0
15.600000000000001 0.5 0.0
16.0 0.5 0.0
0.0 0.6000000000000001 0.0
0.4 0.6000000000000001 0.0
0.8 0.6000000000000001 0.0
1.2000000000000002 0.6000000000000001 0.0
1.6 0.6000000000000001 0.0
2.0 0.6000000000000001 0.0
2.4000000000000004 0.6000000000000001 0.0
2.8000000000000003 0.6000000000000001 0.0
3.2 0.6000000000000001 0.0
3.6 0.6000000000000001 0.0
4.0 0.6000000000000001 0.0
4.4 0.6000000000000001 0.0
4.800000000000001 0.6000000000000001 0.0
5.2 0.6000000000000001 0.0
5.6000000000000005 0.6000000000000001 0.0
6.0 0.6000000000000001 0.0
6.4 0.6000000000000001 0.0
6.800000000000001 0.6000000000000001 0.0
7.2 0.6000000000000001 0.0
7.6000000000000005 0.6000000000000001 0.0
8.0 0.6000000000000001 0.0
8.4 0.6000000000000001 0.0
8.8 0.6000000000000001 0.0
9.200000000000001 0.6000000000000001 0.0
9.600000000000001 0.6000000000000001 0.0
10.0 0.6000000000000001 0.0
10.4 0.6000000000000001 0.0
10.8 0.6000000000000001 0.0
11.200000000000001 0.6000000000000001 0.0
11.600000000000001 0.6000000000000001 0.0
12.0 0.6000000000000001 0.0
12.4 0.6000000000000001 0.0
12.8 0.6000000000000001 0.0
13.200000000000001 0.6000000000000001 0.0
13.600000000000001 0.6000000000000001 0.0
14.0 0.6000000000000001 0.0
14.4 0.6000000000000001 0.0
14.8 0.6000000000000001 0.0
15.200000000000001 0.6000000000000001 0.0
15.600000000000001 0.6000000000000001 0.0
16.0 0.6000000000000001 0.0
0.0 0.7000000000000001 0.0
0.4 0.7000000000000001 0.0
0.8 0.7000000000000001 0.0
1.2000000000000002 0.7000000000000001 0.0
1.6 0.7000000000000001 0.0
2.0 0.7000000000000001 0.0
2.4000000000000004 0.7000000000000001 0.0
2.8000000000000003 0.7000000000000001 0.0
3.2 0.7000000000000001 0.0
3.6 0.7000000000000001 0.0
4.0 0.7000000000000001 0.0
4.4 0.7000000000000001 0.0
4.800000000000001 0.7000000000000001 0.0
5.2 0.7000000000000001 0.0
5.6000000000000005 0.7000000000000001 0.0
6.0 0.7000000000000001 0.0
6.4 0.7000000000000001 0.0
6.800000000000001 0.7000000000000001 0.0
7.2 0.7000000000000001 0.0
7.6000000000000005 0.7000000000000001 0.0
8.0 0.7000000000000001 0.0
8.4 0.7000000000000001 0.0
8.8 0.7000000000000001 0.0
9.200000000000001 0.7000000000000001 0.0
9.600000000000001 0.7000000000000001 0.0
10.0 0.7000000000000001 0.0
10.4 0.7000000000000001 0.0
10.8 0.7000000000000001 0.0
11.200000000000001 0.7000000000000001 0.0
11.600000000000001 0.7000000000000001 0.0
12.0 0.7000000000000001 0.0
12.4 0.7000000000000001 0.0
12.8 0.7000000000000001 0.0
13.200000000000001 0.7000000000000001 0.0
13.600000000000001 0.7000000000000001 0.0
14.0 0.7000000000000001 0.0
14.4 0.7000000000000001 0.0
14.8 0.7000000000000001 0.0
15.200000000000001 0.7000000000000001 0.0
15.600000000000001 0.7000000000000001 0.0
16.0 0.7000000000000001 0.0
0.0 0.8 0.0
0.4 0.8 0.0
0.8 0.8 0.0
1.2000000000000002 0.8 0.0
1.6 0.8 0.0
2.0 0.8 0.0
2.4000000000000004 0.8 0.0
2.8000000000000003 0.8 0.0
3.2 0.8 0.0
3.6 0.8 0.0
4.0 0.8 0.0
4.4 0.8 0.0
4.800000000000001 0.8 0.0
5.2 0.8 0.0
5.6000000000000005 0.8 0.0
6.0 0.8 0.0
6.4 0.8 0.0
6.800000000000001 0.8 0.0
7.2 0.8 0.0
7.6000000000000005 0.8 0.0
8.0 0.8 0.0
8.4 0.8 0.0
8.8 0.8 0.0
9.200000000000001 0.8 0.0
9.600000000000001 0.8 0.0
10.0 0.8 0.0
10.4 0.8 0.0
10.8 0.8 0.0
11.200000000000001 0.8 0.0
11.600000000000001 0.8 0.0
12.0 0.8 0.0
12.4 0.8 0.0
12.8 0.8 0.0
13.200000000000001 0.8 0.0
13.600000000000001 0.8 0.0
14.0 0.8 0.0
14.4 0.8 0.0
14.8 0.8 0.0
15.200000000000001 0.8 0.0
15.600000000000001 0.8 0.0
16.0 0.8 0.0
0.0 0.9 0.0
0.4 0.9 0.0
0.8 0.9 0.0
1.2000000000000002 0.9 0.0
1.6 0.9 0.0
2.0 0.9 0.0
2.4000000000000004 0.9 0.0
2.8000000000000003 0.9 0.0
3.2 0.9 0.0
3.6 0.9 0.0
4.0 0.9 0.0
4.4 0.9 0.0
4.800000000000001 0.9 0.0
5.2 0.9 0.0
5.6000000000000005 0.9 0.0
6.0 0.9 0.0
6.4 0.9 0.0
6.800000000000001 0.9 0.0
7.2 0.9 0.0
7.6000000000000005 0.9 0.0
8.0 0.9 0.0
8.4 0.9 0.0
8.8 0.9 0.0
9.200000000000001 0.9 0.0
9.600000000000001 0.9 0.0
10.0 0.9 0.0
10.4 0.9 0.0
10.8 0.9 0.0
11.200000000000001 0.9 0.0
11.600000000000001 0.9 0.0
12.0 0.9 0.0
12.4 0.9 0.0
12.8 0.9 0.0
13.200000000000001 0.9 0.0
13.600000000000001 0.9 0.0
14.0 0.9 0.0
14.4 0.9 0.0
14.8 0.9 0.0
15.200000000000001 0.9 0.0
15.600000000000001 0.9 0.0
16.0 0.9 0.0
0.0 1.0 0.0
0.4 1.0 0.0
0.8 1.0 0.0
1.2000000000000002 1.0 0.0
1.6 1.0 0.0
2.0 1.0 0.0
2.4000000000000004 1.0 0.0
2.8000000000000003 1.0 0.0
3.2 1.0 0.0
3.6 1.0 0.0
4.0 1.0 0.0
4.4 1.0 0.0
4.800000000000001 1.0 0.0
5.2 1.0 0.0
5.6000000000000005 1.0 0.0
6.0 1.0 0.0
6.4 1.0 0.0
6.800000000000001 1.0 0.0
7.2 1.0 0.0
7.6000000000000005 1.0 0.0
8.0 1.0 0.0
8.4 1.0 0.0
8.8 1.0 0.0
9.200000000000001 1.0 0.0
9.600000000000001 1.0 0.0
10.0 1.0 0.0
10.4 1.0 0.0
10.8 1.0 0.0
11.200000000000001 1.0 0.0
11.600000000000001 1.0 0.0
12.0 1.0 0.0
12.4 1.0 0.0
12.8 1.0 0.0
13.200000000000001 1.0 0.0
13.600000000000001 1.0 0.0
14.0 1.0 0.0
14.4 1.0 0.0
14.8 1.0 0.0
15.200000000000001 1.0 0.0
15.600000000000001 1.0 0.0
16.0 1.0 0.0
0.0 1.1 0.0
0.4 1.1 0.0
0.8 1.1 0.0
1.2000000000000002 1.1 0.0
1.6 1.1 0.0
2.0 1.1 0.0
2.4000000000000004 1.1 0.0
2.8000000000000003 1.1 0.0
3.2 1.1 0.0
3.6 1.1 0.0
4.0 1.1 0.0
4.4 1.1 0.0
4.800000000000001 1.1 0.0
5.2 1.1 0.0
5.6000000000000005 1.1 0.0
6.0 1.1 0.0
6.4 1.1 0.0
6.800000000000001 1.1 0.0
7.2 1.1 0.0
7.6000000000000005 1.1 0.0
8.0 1.1 0.0
8.4 1.1 0.0
8.8 1.1 0.0
9.200000000000001 1.1 0.0
9.600000000000001 1.1 0.0
10.0 1.1 0.0
10.4 1.1 0.0
10.8 1.1 0.0
11.200000000000001 1.1 0.0
11.600000000000001 1.1 0.0
12.0 1.1 0.0
12.4 1.1 0.0
12.8 1.1 0.0
13.200000000000001 1.1 0.0
13.600000000000001 1.1 0.0
14.0 1.1 0.0
14.4 1.1 0.0
14.8 1.1 0.0
15.200000000000001 1.1 0.0
15.600000000000001 1.1 0.0
16.0 1.1 0.0
0.0 1.2000000000000002 0.0
0.4 1.2000000000000002 0.0
0.8 1.2000000000000002 0.0
1.2000000000000002 1.2000000000000002 0.0
1.6 1.2000000000000002 0.0
2.0 1.2000000000000002 0.0
2.4000000000000004 1.2000000000000002 0.0
2.8000000000000003 1.2000000000000002 0.0
3.2 1.2000000000000002 0.0
3.6 1.2000000000000002 0.0
4.0 1.2000000000000002 0.0
4.4 1.2000000000000002 0.0
4.800000000000001 1.2000000000000002 0.0
5.2 1.2000000000000002 0.0
5.6000000000000005 1.2000000000000002 0.0
6.0 1.2000000000000002 0.0
6.4 1.2000000000000002 0.0
6.800000000000001 1.2000000000000002 0.0
7.2 1.2000000000000002 0.0
7.6000000000000005 1.2000000000000002 0.0
8.0 1.2000000000000002 0.0
8.4 1.2000000000000002 0.0
8.8 1.2000000000000002 0.0
9.200000000000001 1.2000000000000002 0.0
9.600000000000001 1.2000000000000002 0.0
10.0 1.2000000000000002 0.0
10.4 1.2000000000000002 0.0
10.8 1.2000000000000002 0.0
11.200000000000001 1.2000000000000002 0.0
11.600000000000001 1.2000000000000002 0.0
12.0 1.2000000000000002 0.0
12.4 1.2000000000000002 0.0
12.8 1.2000000000000002 0.0
13.200000000000001 1.2000000000000002 0.0
13.600000000000001 1.2000000000000002 0.0
14.0 1.2000000000000002 0.0
14.4 1.2000000000000002 0.0
14.8 1.2000000000000002 0.0
15.200000000000001 1.2000000000000002 0.0
15.600000000000001 1.2000000000000002 0.0
16.0 1.2000000000000002 0.0
0.0 1.3 0.0
0.4 1.3 0.0
0.8 1.3 0.0
1.2000000000000002 1.3 0.0
1.6 1.3 0.0
2.0 1.3 0.0
2.4000000000000004 1.3 0.0
2.8000000000000003 1.3 0.0
3.2 1.3 0.0
3.6 1.3 0.0
4.0 1.3 0.0
4.4 1.3 0.0
4.800000000000001 1.3 0.0
5.2 1.3 0.0
5.6000000000000005 1.3 0.0
6.0 1.3 0.0
6.4 1.3 0.0
6.800000000000001 1.3 0.0
7.2 1.3 0.0
7.6000000000000005 1.3 0.0
8.0 1.3 0.0
8.4 1.3 0.0
8.8 1.3 0.0
9.200000000000001 1.3 0.0
9.600000000000001 1.3 0.0
10.0 1.3 0.0
10.4 1.3 0.0
10.8 1.3 0.0
11.200000000000001 1.3 0.0
11.600000000000001 1.3 0.0
12.0 1.3 0.0
12.4 1.3 0.0
12.8 1.3 0.0
13.200000000000001 1.3 0.0
13.600000000000001 1.3 0.0
14.0 1.3 0.0
14.4 1.3 0.0
14.8 1.3 0.0
15.200000000000001 1.3 0.0
15.600000000000001 1.3 0.0
16.0 1.3 0.0
0.0 1.4000000000000001 0.0
0.4 1.4000000000000001 0.0
0.8 1.4000000000000001 0.0
1.2000000000000002 1.4000000000000001 0.0
1.6 1.4000000000000001 0.0
2.0 1.4000000000000001 0.0
2.4000000000000004 1.4000000000000001 0.0
2.8000000000000003 1.4000000000000001 0.0
3.2 1.4000000000000001 0.0
3.6 1.4000000000000001 0.0
4.0 1.4000000000000001 0.0
4.4 1.4000000000000001 0.0
4.800000000000001 1.4000000000000001 0.0
5.2 1.4000000000000001 0.0
5.6000000000000005 1.4000000000000001 0.0
6.0 1.4000000000000001 0.0
6.4 1.4000000000000001 0.0
6.800000000000001 1.4000000000000001 0.0
7.2 1.4000000000000001 0.0
7.6000000000000005 1.4000000000000001 0.0
8.0 1.4000000000000001 0.0
8.4 1.4000000000000001 0.0
8.8 1.4000000000000001 0.0
9.200000000000001 1.4000000000000001 0.0
9.600000000000001 1.4000000000000001 0.0
10.0 1.4000000000000001 0.0
10.4 1.4000000000000001 0.0
10.8 1.4000000000000001 0.0
11.200000000000001 1.4000000000000001 0.0
11.600000000000001 1.4000000000000001 0.0
12.0 1.4000000000000001 0.0
12.4 1.4000000000000001 0.0
12.8 1.4000000000000001 0.0
13.200000000000001 1.4000000000000001 0.0
13.600000000000001 1.4000000000000001 0.0
14.0 1.4000000000000001 0.0
14.4 1.4000000000000001 0.0
14.8 1.4000000000000001 0.0
15.200000000000001 1.4000000000000001 0.0
15.600000000000001 1.4000000000000001 0.0
16.0 1.4000000000000001 0.0
0.0 1.5 0.0
0.4 1.5 0.0
0.8 1.5 0.0
1.2000000000000002 1.5 0.0
1.6 1.5 0.0
2.0 1.5 0.0
2.4000000000000004 1.5 0.0
2.8000000000000003 1.5 0.0
3.2 1.5 0.0
3.6 1.5 0.0
4.0 1.5 0.0
4.4 1.5 0.0
4.800000000000001 1.5 0.0
5.2 1.5 0.0
5.6000000000000005 1.5 0.0
6.0 1.5 0.0
6.4 1.5 0.0
6.800000000000001 1.5 0.0
7.2 1.5 0.0
7.6000000000000005 1.5 0.0
8.0 1.5 0.0
8.4 1.5 0.0
8.8 1.5 0.0
9.200000000000001 1.5 0.0
9.600000000000001 1.5 0.0
10.0 1.5 0.0
10.4 1.5 0.0
10.8 1.5 0.0
11.200000000000001 1.5 0.0
11.600000000000001 1.5 0.0
12.0 1.5 0.0
12.4 1.5 0.0
12.8 1.5 0.0
13.200000000000001 1.5 0.0
13.600000000000001 1.5 0.0
14.0 1.5 0.0
14.4 1.5 0.0
14.8 1.5 0.0
15.200000000000001 1.5 0.0
15.600000000000001 1.5 0.0
16.0 1.5 0.0
0.0 1.6 0.0
0.4 1.6 0.0
0.8 1.6 0.0
1.2000000000000002 1.6 0.0
1.6 1.6 0.0
2.0 1.6 0.0
2.4000000000000004 1.6 0.0
2.8000000000000003 1.6 0.0
3.2 1.6 0.0
3.6 1.6 0.0
4.0 1.6 0.0
4.4 1.6 0.0
4.800000000000001 1.6 0.0
5.2 1.6 0.0
5.6000000000000005 1.6 0.0
6.0 1.6 0.0
6.4 1.6 0.0
6.800000000000001 1.6 0.0
7.2 1.6 0.0
7.6000000000000005 1.6 0.0
8.0 1.6 0.0
8.4 1.6 0.0
8.8 1.6 0.0
9.200000000000001 1.6 0.0
9.600000000000001 1.6 0.0
10.0 1.6 0.0
10.4 1.6 0.0
10.8 1.6 0.0
11.200000000000001 1.6 0.0
11.600000000000001 1.6 0.0
12.0 1.6 0.0
12.4 1.6 0.0
12.8 1.6 0.0
13.200000000000001 1.6 0.0
13.600000000000001 1.6 0.0
14.0 1.6 0.0
14.4 1.6 0.0
14.8 1.6 0.0
15.200000000000001 1.6 0.0
15.600000000000001 1.6 0.0
16.0 1.6 0.0
0.0 1.7000000000000002 0.0
0.4 1.7000000000000002 0.0
0.8 1.7000000000000002 0.0
1.2000000000000002 1.7000000000000002 0.0
1.6 1.7000000000000002 0.0
2.0 1.7000000000000002 0.0
2.4000000000000004 1.7000000000000002 0.0
2.8000000000000003 1.7000000000000002 0.0
3.2 1.7000000000000002 0.0
3.6 1.7000000000000002 0.0
4.0 1.7000000000000002 0.0
4.4 1.7000000000000002 0.0
4.800000000000001 1.7000000000000002 0.0
5.2 1.7000000000000002 0.0
5.6000000000000005 1.7000000000000002 0.0
6.0 1.7000000000000002 0.0
6.4 1.7000000000000002 0.0
6.800000000000001 1.7000000000000002 0.0
7.2 1.7000000000000002 0.0
7.6000000000000005 1.7000000000000002 0.0
8.0 1.7000000000000002 0.0
8.4 1.7000000000000002 0.0
8.8 1.7000000000000002 0.0
9.200000000000001 1.7000000000000002 0.0
9.600000000000001 1.7000000000000002 0.0
10.0 1.7000000000000002 0.0
10.4 1.7000000000000002 0.0
10.8 1.7000000000000002 0.0
11.200000000000001 1.7000000000000002 0.0
11.600000000000001 1.7000000000000002 0.0
12.0 1.7000000000000002 0.0
12.4 1.7000000000000002 0.0
12.8 1.7000000000000002 0.0
13.200000000000001 1.7000000000000002 0.0
13.600000000000001 1.7000000000000002 0.0
14.0 1.7000000000000002 0.0
14.4 1.7000000000000002 0.0
14.8 1.7000000000000002 0.0
15.200000000000001 1.7000000000000002 0.0
15.600000000000001 1.7000000000000002 0.0
16.0 1.7000000000000002 0.0
0.0 1.8 0.0
0.4 1.8 0.0
0.8 1.8 0.0
1.2000000000000002 1.8 0.0
1.6 1.8 0.0
2.0 1.8 0.0
2.4000000000000004 1.8 0.0
2.8000000000000003 1.8 0.0
3.2 1.8 0.0
3.6 1.8 0.0
4.0 1.8 0.0
4.4 1.8 0.0
4.800000000000001 1.8 0.0
5.2 1.8 0.0
5.6000000000000005 1.8 0.0
6.0 1.8 0.0
6.4 1.8 0.0
6.800000000000001 1.8 0.0
7.2 1.8 0.0
7.6000000000000005 1.8 0.0
8.0 1.8 0.0
8.4 1.8 0.0
8.8 1.8 0.0
9.200000000000001 1.8 0.0
9.600000000000001 1.8 0.0
10.0 1.8 0.0
10.4 1.8 0.0
10.8 1.8 0.0
11.200000000000001 1.8 0.0
11.600000000000001 1.8 0.0
12.0 1.8 0.0
12.4 1.8 0.0
12.8 1.8 0.0
13.200000000000001 1.8 0.0
13.600000000000001 1.8 0.0
14.0 1.8 0.0
14.4 1.8 0.0
14.8 1.8 0.0
15.200000000000001 1.8 0.0
15.600000000000001 1.8 0.0
16.0 1.8 0.0
0.0 1.9000000000000001 0.0
0.4 1.9000000000000001 0.0
0.8 1.9000000000000001 0.0
1.2000000000000002 1.9000000000000001 0.0
1.6 1.9000000000000001 0.0
2.0 1.9000000000000001 0.0
2.4000000000000004 1.9000000000000001 0.0
2.8000000000000003 1.9000000000000001 0.0
3.2 1.9000000000000001 0.0
3.6 1.9000000000000001 0.0
4.0 1.9000000000000001 0.0
4.4 1.9000000000000001 0.0
4.800000000000001 1.9000000000000001 0.0
5.2 1.9000000000000001 0.0
5.6000000000000005 1.9000000000000001 0.0
6.0 1.9000000000000001 0.0
6.4 1.9000000000000001 0.0
6.800000000000001 1.9000000000000001 0.0
7.2 1.9000000000000001 0.0
7.6000000000000005 1.9000000000000001 0.0
8.0 1.9000000000000001 0.0
8.4 1.9000000000000001 0.0
8.8 1.9000000000000001 0.0
9.200000000000001 1.9000000000000001 0.0
9.600000000000001 1.9000000000000001 0.0
10.0 1.9000000000000001 0.0
10.4 1.9000000000000001 0.0
10.8 1.9000000000000001 0.0
11.200000000000001 1.9000000000000001 0.0
11.600000000000001 1.9000000000000001 0.0
12.0 1.9000000000000001 0.0
12.4 1.9000000000000001 0.0
12.8 1.9000000000000001 0.0
13.200000000000001 1.9000000000000001 0.0
13.600000000000001 1.9000000000000001 0.0
14.0 1.9000000000000001 0.0
14.4 1.9000000000000001 0.0
14.8 1.9000000000000001 0.0
15.200000000000001 1.9000000000000001 0.0
15.600000000000001 1.9000000000000001 0.0
16.0 1.9000000000000001 0.0
0.0 2.0 0.0
0.4 2.0 0.0
0.8 2.0 0.0
1.2000000000000002 2.0 0.0
1.6 2.0 0.0
2.0 2.0 0.0
2.4000000000000004 2.0 0.0
2.8000000000000003 2.0 0.0
3.2 2.0 0.0
3.6 2.0 0.0
4.0 2.0 0.0
4.4 2.0 0.0
4.800000000000001 2.0 0.0
5.2 2.0 0.0
5.6000000000000005 2.0 0.0
6.0 2.0 0.0
6.4 2.0 0.0
6.800000000000001 2.0 0.0
7.2 2.0 0.0
7.6000000000000005 2.0 0.0
8.0 2.0 0.0
8.4 2.0 0.0
8.8 2.0 0.0
9.200000000000001 2.0 0.0
9.600000000000001 2.0 0.0
10.0 2.0 0.0
10.4 2.0 0.0
10.8 2.0 0.0
11.200000000000001 2.0 0.0
11.600000000000001 2.0 0.0
12.0 2.0 0.0
12.4 2.0 0.0
12.8 2.0 0.0
13.200000000000001 2.0 0.0
13.600000000000001 2.0 0.0
14.0 2.0 0.0
14.4 2.0 0.0
14.8 2.0 0.0
15.200000000000001 2.0 0.0
15.600000000000001 2.0 0.0
16.0 2.0 0.0
CELLS 800 4000
4 0 1 42 41
4 1 2 43 42
4 2 3 44 43
4 3 4 45 44
4 4 5 46 45
4 5 6 47 46
4 6 7 48 47
4 7 8 49 48
4 8 9 50 49
4 9 10 51 50
4 10 11 52 51
4 11 12 53 52
4 12 13 54 53
4 13 14 55 54
4 14 15 56 55
4 15 16 57 56
4 16 17 58 57
4 17 18 59 58
4 18 19 60 59
4 19 20 61 60
4 20 21 62 61
4 21 22 63 62
4 22 23 64 63
4 23 24 65 64
4 24 25 66 65
4 25 26 67 66
4 26 27 68 67
4 27 28 69 68
4 28 29 70 69
4 29 30 71 70
4 30 31 72 71
4 31 32 73 72
4 32 33 74 73
4 33 34 75 74
4 34 35 76 75
4 35 36 77 76
4 36 37 78 77
4 37 38 79 78
4 38 39 80 79
4 39 40 81 80
4 41 42 83 82
4 42 43 84 83
4 43 44 85 84
4 44 45 86 85
4 45 46 87 86
4 46 47 88 87
4 47 48 89 88
4 48 49 90 89
4 49 50 91 90
4 50 51 92 91
4 51 52 93 92
4 52 53 94 93
4 53 54 95 94
4 54 55 96 95
4 55 56 97 96
4 56 57 98 97
4 57 58 99 98
4 58 59 100 99
4 59 60 101 100
4 60 61 102 101
4 61 62 103 102
4 62 63 104 103
4 63 64 105 104
4 64 65 106 105
4 65 66 107 106
4 66 67 108 107
4 67 68 109 108
4 68 69 110 109
4 69 70 111 110
4 70 71 112 111
4 71 72 113 112
4 72 73 114 113
4 73 74 115 114
4 74 75 116 115
4 75 76 117 116
4 76 77 118 117
4 77 78 119 118
4 78 79 120 119
4 79 80 121 120
4 80 81 122 121
4 82 83 124 123
4 83 84 125 124
4 84 85 126 125
4 85 86 127 126
4 86 87 128 127
4 87 88 129 128
4 88 89 130 129
4 89 90 131 130
4 90 91 132 131
4 91 92 133 132
4 92 93 134 133
4 93 94 135 134
4 94 95 136 135
4 95 96 137 136
4 96 97 138 137
4 97 98 139 138
4 98 99 140 139
4 99 100 141 140
4 100 101 142 141
4 101 102 143 142
4 102 103 144 143
4 103 104 145 144
4 104 105 146 145
4 105 106 147 146
4 106 107 148 147
4 107 108 149 148
4 108 109 150 149
4 109 110 151 150
4 110 111 152 151
4 111 112 153 152
4 112 113 154 153
4 113 114 155 154
4 114 115 156 155
4 115 116 157 156
4 116 117 158 157
4 117 118 159 158
4 118 119 160 159
4 119 120 161 160
4 120 121 162 161
4 121 122 163 162
4 123 124 165 164
4 124 125 166 165
4 125 126 167 166
4 126 127 168 167
4 127 128 169 168
4 128 129 170 169
4 129 130 171 170
4 130 131 172 171
4 131 132 173 172
4 132 133 174 173
4 133 134 175 174
4 134 135 176 175
4 135 136 177 176
4 136 137 178 177
4 137 138 179 178
4 138 139 180 179
4 139 140 181 180
4 140 141 182 181
4 141 142 183 182
4 142 143 184 183
4 143 144 185 184
4 144 145 186 185
4 145 146 187 186
4 146 147 188 187
4 147 148 189 188
4 148 149 190 189
4 149 150 191 190
4 150 151 192 191
4 151 152 193 192
4 152 153 194 193
4 153 154 195 194
4 154 155 196 195
4 155 156 197 196
4 156 157 198 197
4 157 158 199 198
4 158 159 200 199
4 159 160 201 200
4 160 161 202 201
4 161 162 203 202
4 162 163 204 203
4 164 165 206 205
4 165 166 207 206
4 166 167 208 207
4 167 168 209 208
4 168 169 210 209
4 169 170 211 210
4 170 171 212 211
4 171 172 213 212
4 172 173 214 213
4 173 174 215 214
4 174 175 216 215
4 175 176 217 216
4 176 177 218 217
4 177 178 219 218
4 178 179 220 219
4 179 180 221 220
4 180 181 222 221
4 181 182 223 222
4 182 183 224 223
4 183 184 225 224
4 184 185 226 225
4 185 186 227 226
4 186 187 228 227
4 187 188 229 228
4 188 189 230 229
4 189 190 231 230
4 190 191 232 231
4 191 192 233 232
4 192 193 234 233
4 193 194 235 234
4 194 195 236 235
4 195 196 237 236
4 196 197 238 237
4 197 198 239 238
4 198 199 240 239
4 199 200 241 240
4 200 201 242 241
4 201 202 243 242
4 202 203 244 243
4 203 204 245 244
4 205 206 247 246
4 206 207 248 247
4 207 208 249 248
4 208 209 250 249
4 209 210 251 250
4 210 211 252 251
4 211 212 253 252
4 212 213 254 253
4 213 214 255 254
4 214 215 256 255
4 215 216 257 256
4 216 217 258 257
4 217 218 259 258
4 218 219 260 259
4 219 220 261 260
4 220 221 262 261
4 221 222 263 262
4 222 223 264 263
4 223 224 265 264
4 224 225 266 265
4 225 226 267 266
4 226 227 268 267
4 227 228 269 268
4 228 229 270 269
4 229 230 271 270
4 230 231 272 271
4 231 232 273 272
4 232 233 274 273
4 233 234 275 274
4 234 235 276 275
4 235 236 277 276
4 236 237 278 277
4 237 238 279 278
4 238 239 280 279
4 239 240 281 280
4 240 241 282 281
4 241 242 283 282
4 242 243 284 283
4 243 244 285 284
4 244 245 286 285
4 246 247 288 287
4 247 248 289 288
4 248 249 290 289
4 249 250 291 290
4 250 251 292 291
4 251 252 293 292
4 252 253 294 293
4 253 254 295 294
4 254 255 296 295
4 255 256 297 296
4 256 257 298 297
4 257 258 299 298
4 258 259 300 299
4 259 260 301 300
4 260 261 302 301
4 261 262 303 302
4 262 263 304 303
4 263 264 305 304
4 264 265 306 305
4 265 266 307 306
4 266 267 308 307
4 267 268 309 308
4 268 269 310 309
4 269 270 311 310
4 270 271 312 311
4 271 272 313 312
4 272 273 314 313
4 273 274 315 314
4 274 275 316 315
4 275 276 317 316
4 276 277 318 317
4 277 278 319 318
4 278 279 320 319
4 279 280 321 320
4 280 281 322 321
4 281 282 323 322
4 282 283 324 323
4 283 284 325 324
4 284 285 326 325
4 285 286 327 326
4 287 288 329 328
4 288 289 330 329
4 289 290 331 330
4 290 291 332 331
4 291 292 333 332
4 292 293 334 333
4 293 294 335 334
4 294 295 336 335
4 295 296 337 336
4 296 297 338 337
4 297 298 339 338
4 298 299 340 339
4 299 300 341 340
4 300 301 342 341
4 301 302 343 342
4 302 303 344 343
4 303 304 345 344
4 304 305 346 345
4 305 306 347 346
4 306 307 348 347
4 307 308 349 348
4 308 309 350 349
4 309 310 351 350
4 310 311 352 351
4 311 312 353 352
4 312 313 354 353
4 313 314 355 354
4 314 315 356 355
4 315 316 357 356
4 316 317 358 357
4 317 318 359 358
4 318 319 360 359
4 319 320 361 360
4 320 321 362 361
4 321 322 363 362
4 322 323 364 363
4 323 324 365 364
4 324 325 366 365
4 325 326 367 366
4 326 327 368 367
4 328 329 370 369
4 329 330 371 370
4 330 331 372 371
4 331 332 373 372
4 332 333 374 373
4 333 334 375 374
4 334 335 376 375
4 335 336 377 376
4 336 337 378 377
4 337 338 379 378
4 338 339 380 379
4 339 340 381 380
4 340 341 382 381
4 341 342 383 382
4 342 343 384 383
4 343 344 385 384
4 344 345 386 385
4 345 346 387 386
4 346 347 388 387
4 347 348 389 388
4 348 349 390 389
4 349 350 391 390
4 350 351 392 391
4 351 352 393 392
4 352 353 394 393
4 353 354 395 394
4 354 355 396 395
4 355 356 397 396
4 356 357 398 397
4 357 358 399 398
4 358 359 400 399
4 359 360 401 400
4 360 361 402 401
4 361 362 403 402
4 362 363 404 403
4 363 364 405 404
4 364 365 406 405
4 365 366 407 406
4 366 367 408 407
4 367 368 409 408
4 369 370 411 410
4 370 371 412 411
4 371 372 413 412
4 372 373 414 413
4 373 374 415 414
4 374 375 416 415
4 375 376 417 416
4 376 377 418 417
4 377 378 419 418
4 378 379 420 419
4 379 380 421 420
4 380 381 422 421
4 381 382 423 422
4 382 383 424 423
4 383 384 425 424
4 384 385 426 425
4 385 386 427 426
4 386 387 428 427
4 387 388 429 428
4 388 389 430 429
4 389 390 431 430
4 390 391 432 431
4 391 392 433 432
4 392 393 434 433
4 393 394 435 434
4 394 395 436 435
4 395 396 437 436
4 396 397 438 437
4 397 398 439 438
4 398 399 440 439
4 399 400 441 440
4 400 401 442 441
4 401 402 443 442
4 402 403 444 443
4 403 404 445 444
4 404 405 446 445
4 405 406 447 446
4 406 407 448 447
4 407 408 449 448
4 408 409 450 449
4 410 411 452 451
4 411 412 453 452
4 412 413 454 453
4 413 414 455 454
4 414 415 456 455
4 415 416 457 456
4 416 417 458 457
4 417 418 459 458
4 418 419 460 459
4 419 420 461 460
4 420 421 462 461
4 421 422 463 462
4 422 423 464 463
4 423 424 465 464
4 424 425 466 465
4 425 426 467 466
4 426 427 468 467
4 427 428 469 468
4 428 429 470 469
4 429 430 471 470
4 430 431 472 471
4 431 432 473 472
4 432 433 474 473
4 433 434 475 474
4 434 435 476 475
4 435 436 477 476
4 436 437 478 477
4 437 438 479 478
4 438 439 480 479
4 439 440 481 480
4 440 441 482 481
4 441 442 483 482
4 442 443 484 483
4 443 444 485 484
4 444 445 486 485
4 445 446 487 486
4 446 447 488 487
4 447 448 489 488
4 448 449 490 489
4 449 450 491 490
4 451 452 493 492
4 452 453 494 493
4 453 454 495 494
4 454 455 496 495
4 455 456 497 496
4 456 457 498 497
4 457 458 499 498
4 458 459 500 499
4 459 460 501 500
4 460 461 502 501
4 461 462 503 502
4 462 463 504 503
4 463 464 505 504
4 464 465 506 505
4 465 466 507 506
4 466 467 508 507
4 467 468 509 508
4 468 469 510 509
4 469 470 511 510
4 470 471 512 511
4 471 472 513 512
4 472 473 514 513
4 473 474 515 514
4 474 475 516 515
4 475 476 517 516
4 476 477 518 517
4 477 478 519 518
4 478 479 520 519
4 479 480 521 520
4 480 481 522 521
4 481 482 523 522
4 482 483 524 523
4 483 484 525 524
4 484 485 526 525
4 485 486 527 526
4 486 487 528 527
4 487 488 529 528
4 488 489 530 529
4 489 490 531 530
4 490 491 532 531
4 492 493 534 533
4 493 494 535 534
4 494 495 536 535
4 495 496 537 536
4 496 497 538 537
4 497 498 539 538
4 498 499 540 539
4 499 500 541 540
4 500 501 542 541
4 501 502 543 542
4 502 503 544 543
4 503 504 545 544
4 504 505 546 545
4 505 506 547 546
4 506 507 548 547
4 507 508 549 548
4 508 509 550 549
4 509 510 551 550
4 510 511 552 551
4 511 512 553 552
4 512 513 554 553
4 513 514 555 554
4 514 515 556 555
4 515 516 557 556
4 516 517 558 557
4 517 518 559 558
4 518 519 560 559
4 519 520 561 560
4 520 521 562 561
4 521 522 563 562
4 522 523 564 563
4 523 524 565 564
4 524 525 566 565
4 525 526 567 566
4 526 527 568 567
4 527 528 569 568
4 528 529 570 569
4 529 530 571 570
4 530 531 572 571
4 531 532 573 572
4 533 534 575 574
4 534 535 576 575
4 535 536 577 576
4 536 537 578 577
4 537 538 579 578
4 538 539 580 579
4 539 540 581 580
4 540 541 582 581
4 541 542 583 582
4 542 543 584 583
4 543 544 585 584
4 544 545 586 585
4 545 546 587 586
4 546 547 588 587
4 547 548 589 588
4 548 549 590 589
4 549 550 591 590
4 550 551 592 591
4 551 552 593 592
4 552 553 594 593
4 553 554 595 594
4 554 555 596 595
4 555 556 597 596
4 556 557 598 597
4 557 558 599 598
4 558 559 600 599
4 559 560 601 600
4 560 561 602 601
4 561 562 603 602
4 562 563 604 603
4 563 564 605 604
4 564 565 606 605
4 565 566 607 606
4 566 567 608 607
4 567 568 609 608
4 568 569 610 609
4 569 570 611 610
4 570 571 612 611
4 571 572 613 612
4 572 573 614 613
4 574 575 616 615
4 575 576 617 616
4 576 577 618 617
4 577 578 619 618
4 578 579 620 619
4 579 580 621 620
4 580 581 622 621
4 581 582 623 622
4 582 583 624 623
4 583 584 625 624
4 584 585 626 625
4 585 586 627 626
4 586 587 628 627
4 587 588 629 628
4 588 589 630 629
4 589 590 631 630
4 590 591 632 631
4 591 592 633 632
4 592 593 634 633
4 593 594 635 634
4 594 595 636 635
4 595 596 637 636
4 596 597 638 637
4 597 598 639 638
4 598 599 640 639
4 599 600 641 640
4 600 601 642 641
4 601 602 643 642
4 602 603 644 643
4 603 604 645 644
4 604 605 646 645
4 605 606 647 646
4 606 607 648 647
4 607 608 649 648
4 608 609 650 649
4 609 610 651 650
4 610 611 652 651
4 611 612 653 652
4 612 613 654 653
4 613 614 655 654
4 615 616 657 656
4 616 617 658 657
4 617 618 659 658
4 618 619 660 659
4 619 620 661 660
4 620 621 662 661
4 621 622 663 662
4 622 623 664 663
4 623 624 665 664
4 624 625 666 665
4 625 626 667 666
4 626 627 668 667
4 627 628 669 668
4 628 629 670 669
4 629 630 671 670
4 630 631 672 671
4 631 632 673 672
4 632 633 674 673
4 633 634 675 674
4 634 635 676 675
4 635 636 677 676
4 636 637 678 677
4 637 638 679 678
4 638 639 680 679
4 639 640 681 680
4 640 641 682 681
4 641 642 683 682
4 642 643 684 683
4 643 644 685 684
4 644 645 686 685
4 645 646 687 686
4 646 647 688 687
4 647 648 689 688
4 648 649 690 689
4 649 650 691 690
4 650 651 692 691
4 651 652 693 692
4 652 653 694 693
4 653 654 695 694
4 654 655 696 695
4 656 657 698 697
4 657 658 699 698
4 658 659 700 699
4 659 660 701 700
4 660 661 702 701
4 661 662 703 702
4 662 663 704 703
4 663 664 705 704
4 664 665 706 705
4 665 666 707 706
4 666 667 708 707
4 667 668 709 708
4 668 669 710 709
4 669 670 711 710
4 670 671 712 711
4 671 672 713 712
4 672 673 714 713
4 673 674 715 714
4 674 675 716 715
4 675 676 717 716
4 676 677 718 717
4 677 678 719 718
4 678 679 720 719
4 679 680 721 720
4 680 681 722 721
4 681 682 723 722
4 682 683 724 723
4 683 684 725 724
4 684 685 726 725
4 685 686 727 726
4 686 687 728 727
4 687 688 729 728
4 688 689 730 729
4 689 690 731 730
4 690 691 732 731
4 691 692 733 732
4 692 693 734 733
4 693 694 735 734
4 694 695 736 735
4 695 696 737 736
4 697 698 739 738
4 698 699 740 739
4 699 700 741 740
4 700 701 742 741
4 701 702 743 742
4 702 703 744 743
4 703 704 745 744
4 704 705 746 745
4 705 706 747 746
4 706 707 748 747
4 707 708 749 748
4 708 709 750 749
4 709 710 751 750
4 710 711 752 751
4 711 712 753 752
4 712 713 754 753
4 713 714 755 754
4 714 715 756 755
4 715 716 757 756
4 716 717 758 757
4 717 718 759 758
4 718 719 760 759
4 719 720 761 760
4 720 721 762 761
4 721 722 763 762
4 722 723 764 763
4 723 724 765 764
4 724 725 766 765
4 725 726 767 766
4 726 727 768 767
4 727 728 769 768
4 728 729 770 769
4 729 730 771 770
4 730 731 772 771
4 731 732 773 772
4 732 733 774 773
4 733 734 775 774
4 734 735 776 775
4 735 736 777 776
4 736 737 778 777
4 738 739 780 779
4 739 740 781 780
4 740 741 782 781
4 741 742 783 782
4 742 743 784 783
4 743 744 785 784
4 744 745 786 785
4 745 746 787 786
4 746 747 788 787
4 747 748 789 788
4 748 749 790 789
4 749 750 791 790
4 750 751 792 791
4 751 752 793 792
4 752 753 794 793
4 753 754 795 794
4 754 755 796 795
4 755 756 797 796
4 756 757 798 797
4 757 758 799 798
4 758 759 800 799
4 759 760 801 800
4 760 761 802 801
4 761 762 803 802
4 762 763 804 803
4 763 764 805 804
4 764 765 806 805
4 765 766 807 806
4 766 767 808 807
4 767 768 809 808
4 768 769 810 809
4 769 770 811 810
4 770 771 812 811
4 771 772 813 812
4 772 773 814 813
4 773 774 815 814
4 774 775 816 815
4 775 776 817 816
4 776 777 818 817
4 777 778 819 818
4 779 780 821 820
4 780 781 822 821
4 781 782 823 822
4 782 783 824 823
4 783 784 825 824
4 784 785 826 825
4 785 786 827 826
4 786 787 828 827
4 787 788 829 828
4 788 789 830 829
4 789 790 831 830
4 790 791 832 831
4 791 792 833 832
4 792 793 834 833
4 793 794 835 834
4 794 795 836 835
4 795 796 837 836
4 796 797 838 837
4 797 798 839 838
4 798 799 840 839
4 799 800 841 840
4 800 801 842 841
4 801 802 843 842
4 802 803 844 843
4 803 804 845 844
4 804 805 846 845
4 805 806 847 846
4 806 807 848 847
4 807 808 849 848
4 808 809 850 849
4 809 810 851 850
4 810 811 852 851
4 811 812 853 852
4 812 813 854 853
4 813 814 855 854
4 814 815 856 855
4 815 816 857 856
4 816 817 858 857
4 817 818 859 858
4 818 819 860 859
CELL_TYPES 800
9
9
9
9
9
9
9
9
9
9
9
9
9
9
9
9
9
9
9
9
9
9
9
9
9
9
9
9
9
9
9
9
9
9
9
9
9
9
9
9
9
9
9
9
9
9
9
9
9
9
9
9
9
9
9
9
9
9
9
9
9
9
9
9
9
9
9
9
9
9
9
9
9
9
9
9
9
9
9
9
9
9
9
9
9
9
9
9
9
9
9
9
9
9
9
9
9
9
9
9
9
9
9
9
9
9
9
9
9
9
9
9
9
9
9
9
9
9
9
9
9
9
9
9
9
9
9
9
9
9
9
9
9
9
9
9
9
9
9
9
9
9
9
9
9
9
9
9
9
9
9
9
9
9
9
9
9
9
9
9
9
9
9
9
9
9
9
9
9
9
9
9
9
9
9
9
9
9
9
9
9
9
9
9
9
9
9
9
9
9
9
9
9
9
9
9
9
9
9
9
9
9
9
9
9
9
9
9
9
9
9
9
9
9
9
9
9
9
9
9
9
9
9
9
9
9
9
9
9
9
9
9
9
9
9
9
9
9
9
9
9
9
9
9
9
9
9
9
9
9
9
9
9
9
9
9
9
9
9
9
9
9
9
9
9
9
9
9
9
9
9
9
9
9
9
9
9
9
9
9
9
9
9
9
9
9
9
9
9
9
9
9
9
9
9
9
9
9
9
9
9
9
9
9
9
9
9
9
9
9
9
9
9
9
9
9
9
9
9
9
9
9
9
9
9
9
9
9
9
9
9
9
9
9
9
9
9
9
9
9
9
9
9
9
9
9
9
9
9
9
9
9
9
9
9
9
9
9
9
9
9
9
9
9
9
9
9
9
9
9
9
9
9
9
9
9
9
9
9
9
9
9
9
9
9
9
9
9
9
9
9
9
9
9
9
9
9
9
9
9
9
9
9
9
9
9
9
9
9
9
9
9
9
9
9
9
9
9
9
9
9
9
9
9
9
9
9
9
9
9
9
9
9
9
9
9
9
9
9
9
9
9
9
9
9
9
9
9
9
9
9
9
9
9
9
9
9
9
9
9
9
9
9
9
9
9
9
9
9
9
9
9
9
9
9
9
9
9
9
9
9
9
9
9
9
9
9
9
9
9
9
9
9
9
9
9
9
9
9
9
9
9
9
9
9
9
9
9
9
9
9
9
9
9
9
9
9
9
9
9
9
9
9
9
9
9
9
9
9
9
9
9
9
9
9
9
9
9
9
9
9
9
9
9
9
9
9
9
9
9
9
9
9
9
9
9
9
9
9
9
9
9
9
9
9
9
9
9
9
9
9
9
9
9
9
9
9
9
9
9
9
9
9
9
9
9
9
9
9
9
9
9
9
9
9
9
9
9
9
9
9
9
9
9
9
9
9
9
9
9
9
9
9
9
9
9
9
9
9
9
9
9
9
9
9
9
9
9
9
9
9
9
9
9
9
9
9
9
9
9
9
9
9
9
9
9
9
9
9
9
9
9
9
9
9
9
9
9
9
9
9
9
9
9
9
9
9
9
9
9
9
9
9
9
9
9
9
9
9
9
9
9
9
9
9
9
9
9
9
9
9
9
9
9
9
9
9
9
9
9
9
9
9
9
9
9
9
9
9
9
9
9
9
9
9
9
9
9
9
9
9
9
9
9
9
9
9
9
9
9
9
9
9
9
9
9
9
9
9
9
9
9
9
9
9
9
9
9
9
9
9
9
9
9
9
9
9
9
9
9
9
9
9
9
9
9
9
9
9
9
9
9
9
9
9
9
9
9
9
9
9
9
9
9
9
9
9
9
9
9
9
9
9
9
9
9
9
9
9
9
POINT_DATA 861
SCALARS Disp float 2
LOOKUP_TABLE default
0.0 0.0
0.0041187205361464104 -0.12454039910577017
0.0051057664331927545 -0.24219034226752656
0.005817458924481871 -0.3591917222753568
0.006666857420366818 -0.47590528441373153
0.007835437300670501 -0.5921195178231522
0.00961581875465337 -0.7075687565264297
0.012290470628977868 -0.8219543537035326
0.016172247045146946 -0.9349078208977213
0.0215953779757935 -1.0459525084466956
0.02891270941093755 -1.154448325607095
0.038528535672861464 -1.2595441220834103
0.05092931436480609 -1.3601589961988765
0.06667461836547772 -1.4550076224394315
0.0863893976681507 -1.5426282868716765
0.11068540104376064 -1.6214052116498656
0.14002129045541256 -1.6895955392481687
0.174528268374767 -1.7453797362536987
0.21385444022223324 -1.7869866433241268
0.25709261794944827 -1.8129148045931527
0.30274087600373367 -1.8221484620151112
0.34838913405801786 -1.8129148045931074
0.3916273117852269 -1.7869866433240336
0.43095348363268204 -1.745379736253564
0.4654604615520227 -1.689595539247999
0.4947963509636596 -1.6214052116496727
0.5190923543392547 -1.5426282868714638
0.5388071336419125 -1.4550076224392052
0.554552437642568 -1.3601589961986438
0.566953216334497 -1.259544122083178
0.5765690425964066 -1.1544483256068696
0.5838863740315388 -1.0459525084464822
0.5893095049621757 -0.9349078208975228
0.5931912813783375 -0.8219543537033521
0.5958659332526565 -0.7075687565262689
0.5976463147066358 -0.5921195178230146
0.5988148945869378 -0.47590528441361757
0.5996642930828223 -0.3591917222752681
0.6003759855741113 -0.24219034226746253
0.6013630314711568 -0.1245403991057325
0.6054817520073005 0.0
0.03108219213852446 -0.0018191941720308738
0.03383990511419107 -0.1246577473846077
0.03438411029658954 -0.24225470741713187
0.035026863320859115 -0.35926951768021315
0.035787335508064365 -0.4760053464798327
0.03680410596622349 -0.5923007201211979
0.03835855867398332 -0.7079006149935784
0.04072220605617722 -0.8225079300422409
0.044186792725358796 -0.9357615700835368
0.04905163107461029 -1.0471856437591014
0.05562722122255114 -1.1561461159281705
0.06426245028388501 -1.2618084468417394
0.0753815300948647 -1.3631140417613057
0.0895012310809737 -1.4587972560288036
0.10719865936693437 -1.54740729817572
0.12904777760704422 -1.627312065015694
0.15548399655506565 -1.6967122223734978
0.1866449319520489 -1.7536905011228947
0.2222342450591711 -1.7963482686142216
0.26142617491496817 -1.8230450819732258
0.3027408760037282 -1.8325818920398593
0.34405557709248674 -1.8230450819731798
0.38324750694827825 -1.7963482686141263
0.41883682005539097 -1.7536905011227568
0.44999775545236237 -1.6967122223733249
0.47643397440037055 -1.6273120650154975
0.49828309264046683 -1.5474072981755043
0.5159805209264139 -1.4587972560285738
0.5301002219125085 -1.3631140417610694
0.5412193017234743 -1.2618084468415038
0.5498545307847953 -1.1561461159279423
0.5564301209327253 -1.0471856437588858
0.561294959281968 -0.9357615700833363
0.564759545951143 -0.8225079300420589
0.5671231933333318 -0.7079006149934166
0.5686776460410887 -0.5923007201210599
0.5696944164992465 -0.4760053464797186
0.5704548886864514 -0.3592695176801245
0.5710976417107209 -0.24225470741706784
0.5716418468931194 -0.12465774738456988
0.5743995598687819 -0.0018191941720287403
0.06140174997427373 -0.003236247707545631
0.06337010999493622 -0.12470942842391422
0.06368686487877093 -0.2422942962344108
0.06421260059874936 -0.3593406087188129
0.06489030684497184 -0.4760904419545877
0.06577177075167379 -0.5924457004336099
0.06709923736488842 -0.7081753245979481
0.06915042308970626 -0.8229797795622277
0.07219080282099542 -0.9365027746482676
0.07648857561225247 -1.0482669625923735
0.082313427977783 -1.1576420062949697
0.08996458043990961 -1.2638063292775177
0.09980665116994308 -1.3657235233995149
0.11229608313297397 -1.462151196536277
0.12796696051988118 -1.551648852296895
0.1473476311560115 -1.6325709696999193
0.17085255223901166 -1.703068582529162
0.1986412589243481 -1.761137527162364
0.2304825433574103 -1.8047626796970972
0.26562576342422745 -1.8321579523531375
0.3027408760037229 -1.841976697606275
0.3398559885832171 -1.8321579523530906
0.37499920865002917 -1.8047626796970002
0.4068404930830831 -1.7611375271622236
0.4346291997684092 -1.7030685825289866
0.45813412085139765 -1.6325709696997197
0.47751479148751586 -1.5516488522966763
0.4931856688744109 -1.4621511965360443
0.5056751008374292 -1.3657235233992755
0.5155171715674504 -1.2638063292772794
0.5231683240295655 -1.157642006294739
0.5289931763950864 -1.0482669625921557
0.5332909491863355 -0.9365027746480654
0.5363313289176186 -0.8229797795620445
0.5383825146424321 -0.7081753245977855
0.5397099812556443 -0.5924457004334714
0.5405914451623453 -0.4760904419544736
0.5412691514085675 -0.3593406087187243
0.5417948871285457 -0.2422942962343468
0.5421116420123806 -0.12470942842387615
0.5440800020330393 -0.003236247707541319
0.09132408288494948 -0.004364634853989552
0.09277774687051712 -0.12474441161959168
0.09297150948470878 -0.24231648072890408
0.09338216324447891 -0.35939957293016117
0.09397000359129372 -0.47616519694058623
0.09473420021114566 -0.5925599127444603
0.095845633199925 -0.7083935436881293
0.0975823620222139 -0.8233710120404268
0.10019489318733704 -0.9371310523020046
0.10391972701863283 -1.0491958522838185
0.10898901473636304 -1.1589355900278806
0.11565399016269742 -1.2655394189798277
0.12422342345576554 -1.3679902897230976
0.1350917523705423 -1.4650698207226336
0.1487309401138707 -1.555351087258975
0.16562989797235722 -1.6371773956071103
0.186182955719558 -1.7086586723828512
0.2105731713302942 -1.7677163092087869
0.238640370515184 -1.8122265605517738
0.26974904357441876 -1.8402682091555138
0.3027408760037181 -1.8503674591090409
0.33573270843301584 -1.840268209155466
0.3668413814922461 -1.8122265605516754
0.39490858067712864 -1.767716309208644
0.41929879628785566 -1.708658672382673
0.4398518540350463 -1.6371773956069082
0.4567508118935221 -1.5553510872587535
0.47038999963683986 -1.4650698207223984
0.48125832855160566 -1.3679902897228555
0.4898277618446629 -1.2655394189795868
0.49649273727098747 -1.1589355900276477
0.501562024988709 -1.049195852283599
0.5052868588199979 -0.937131052301801
0.5078993899851157 -0.8233710120402425
0.5096361188074009 -0.7083935436879663
0.5107475517961783 -0.5925599127443217
0.5115117484160295 -0.476165196940472
0.5120995887628441 -0.3593995729300725
0.5125102425226142 -0.24231648072884016
0.5127040051368059 -0.1247444116195534
0.5141576691223702 -0.004364634853983306
0.12101527127450756 -0.00526774365409727
0.1220968737010794 -0.12477638010355882
0.1222225517152479 -0.242328698254556
0.12253376346486831 -0.3594451047642858
0.12302618227286227 -0.47623045412868276
0.123681482301669 -0.5926522416719858
0.12460302648983276 -0.7085600207835294
0.1260258602227636 -0.8236826985153071
0.128209989908344 -0.9376475254161045
0.13135936544473117 -1.0499727090565654
0.13567089893867848 -1.160027991198692
0.14135192563355373 -1.2670094712863265
0.14865457176158783 -1.3699175379764335
0.1579100071242359 -1.4675567040243669
0.169529935520722 -1.5585145345930262
0.18394517067915175 -1.641129258177005
0.201531004629648 -1.7134782509967357
0.22249747334268363 -1.7734206208089276
0.2467627419892497 -1.8187370236390041
0.2738345210468676 -1.847385454715812
0.30274087600371324 -1.8577737159590633
0.3316472309605575 -1.8473854547157635
0.35871901001817114 -1.8187370236389044
0.38298427866473095 -1.773420620808783
0.4039507473777586 -1.7134782509965556
0.4215365813282459 -1.6411292581768004
0.4359518164866665 -1.558514534592802
0.44757174488314355 -1.4675567040241293
0.4568271802457822 -1.3699175379761892
0.46412982637380706 -1.2670094712860835
0.4698108530686739 -1.160027991198457
0.47412238656261374 -1.0499727090563442
0.47727176209899497 -0.9376475254158997
0.4794558917845707 -0.8236826985151218
0.4808787255174986 -0.7085600207833658
0.4818002697056609 -0.5926522416718472
0.4824555697344672 -0.4762304541285685
0.48294798854246085 -0.35944510476419705
0.48325920029208136 -0.24232869825449205
0.4833848783062498 -0.12477638010352032
0.4844664807328188 -0.00526774365408934
0.15055269469607088 -0.005986275049311055
0.1513527433641556 -0.12480895431897973
0.1514375106808264 -0.2423360206401485
0.15166505603538005 -0.3594781121897587
0.15205996363763322 -0.4762852820658475
0.15260836869988403 -0.5927280005636865
0.15336176965736525 -0.7086847537231604
0.1544961249390062 -0.8239166867600316
0.1562479072406191 -0.9380541780253291
0.15882247390726761 -1.0505994112839065
0.1623773946419215 -1.1609209686724067
0.16707824643118807 -1.268219624659725
0.17312416800843738 -1.3715094522780331
0.1807823711893582 -1.4696162357272982
0.19039370832107408 -1.5611436670696395
0.20233902652673347 -1.6444281240981793
0.21695895810164734 -1.7175245412890972
0.2344770951562706 -1.7782441307679724
0.25490530815562784 -1.8242890554545987
0.27791629391708894 -1.8535122305644716
0.3027408760037084 -1.864205797032489
0.3275654580903266 -1.853512230564422
0.3505764438517837 -1.8242890554544977
0.37100465685113565 -1.778244130767826
0.3885227939057522 -1.717524541288915
0.40314272548065844 -1.6444281240979728
0.41508804368631 -1.5611436670694134
0.4246993808180184 -1.4696162357270586
0.4323575839989315 -1.3715094522777869
0.438403505576173 -1.2682196246594801
0.44310435736543247 -1.1609209686721702
0.4466592781000804 -1.050599411283684
0.44923384476672384 -0.9380541780251233
0.45098562706833306 -0.8239166867598456
0.4521199823499717 -0.7086847537229966
0.4528733833074519 -0.5927280005635477
0.45342178836970237 -0.47628528206573323
0.4538166959719553 -0.35947811218966996
0.45404424132650895 -0.24233602064008458
0.4541290086431797 -0.12480895431894111
0.4549290573112622 -0.00598627504930172
0.17997858044235324 -0.006551983667215746
0.18056336231928855 -0.12484258918848608
0.18061963781219476 -0.24234109216208274
0.18077520181924817 -0.3595001253892874
0.18107407249075472 -0.4763285417441256
0.18151242927749348 -0.5927901270023911
0.18211069207069228 -0.7087782480319188
0.18298660155944918 -0.8240838946645079
0.18432722671903784 -0.9383535464076154
0.186325451336681 -1.051079022756035
0.18912839177969643 -1.1616179838694594
0.1928557028062397 -1.2691739544130265
0.1976567541822332 -1.372771540437297
0.20373558167691938 -1.4712552101114371
0.21136411984652323 -1.5632441655707274
0.22085550186440697 -1.6470789968381894
0.23251837957848637 -1.7207988156525842
0.24658149536703805 -1.7821814117120869
0.26313251868177406 -1.828874081088611
0.2820304171370188 -1.858643409034956
0.30274087600370353 -1.8696659850074417
0.3234513348703869 -1.8586434090349055
0.3423492333256283 -1.828874081088509
0.3589002566403597 -1.7821814117119392
0.37296337242890587 -1.720798815652401
0.3846262501429791 -1.6470789968379809
0.3941176321608564 -1.5632441655705
0.4017461703304543 -1.471255210111196
0.40782499782513454 -1.3727715404370493
0.4126260492011219 -1.2691739544127802
0.4163533602276594 -1.1616179838692218
0.41915630067067006 -1.0510790227558113
0.4211545252883092 -0.9383535464074088
0.42249515044789504 -0.8240838946643215
0.4233710599366503 -0.7087782480317548
0.42396932272984844 -0.5927901270022523
0.4244076795165869 -0.4763285417440112
0.42470655018809333 -0.3595001253891986
0.42486211419514663 -0.24234109216201882
0.4249183896880528 -0.12484258918844737
0.42550317156498646 -0.006551983667205286
0.20932198312544542 -0.006989762403545088
0.20974136874560897 -0.12487808461079124
0.2097741342975725 -0.2423445677451173
0.2098651665403317 -0.3595126182775358
0.21007107958046367 -0.4763596183302455
0.21039504533180375 -0.5928390344885152
0.21084685738004752 -0.7088464615502755
0.21148740146390202 -0.8241978293968522
0.21245099777999268 -0.9385560023358162
0.213891764626444 -1.051416272617348
0.21594612926856185 -1.162124073870194
0.21870812857093055 -1.2698782039941656
0.22227889358225741 -1.3737109697826666
0.22680100456262448 -1.4724823379760523
0.23247428833297762 -1.564825883111328
0.23954331314669833 -1.6490893583037463
0.2482681792232554 -1.7233051397651102
0.25887247569992355 -1.785230552769949
0.2715106536162544 -1.832481045218706
0.2862187648511493 -1.8627652641150043
0.3027408760036983 -1.8741479698829628
0.31926298715624635 -1.8627652641149535
0.3339710983911384 -1.8324810452186029
0.3466092763074656 -1.7852305527698
0.35721357278412946 -1.723305139764926
0.36593843886068167 -1.6490893583035364
0.3730074636743976 -1.5648258831110993
0.3786807474447463 -1.47248233797581
0.38320285842510915 -1.3737109697824177
0.38677362343643146 -1.269878203993918
0.3895356227387958 -1.1621240738699552
0.39158998738091017 -1.0514162726171234
0.39303075422735856 -0.9385560023356089
0.39399435054344734 -0.8241978293966653
0.3946348946273008 -0.7088464615501114
0.3950867066755442 -0.5928390344883763
0.395410672426884 -0.4763596183301311
0.3956165854670159 -0.3595126182774469
0.395707617709775 -0.2423445677450534
0.39574038326173844 -0.12487808461075249
0.3961597688819009 -0.006989762403533768
0.23859886768748337 -0.007324431048742075
0.23889827651654222 -0.124915787009563
0.2389055269921418 -0.24234603304829438
0.23893747949750246 -0.3595167174298505
0.239053791388195 -0.47637862024916866
0.23926109561682266 -0.5928731968650818
0.23956233444378566 -0.7088953746773065
0.2399891089843928 -0.8242706750419725
0.2406114485532571 -0.9386781675451127
0.2415318045441911 -1.0516237451270538
0.24285728459087919 -1.1624475250571225
0.2446662152330176 -1.2703411802540399
0.24702083452618243 -1.3743377790562352
0.2500102906394873 -1.4733096169775544
0.25376253486754685 -1.5659019179110092
0.2584469332530382 -1.6504714876364508
0.26426258205979675 -1.7250522956698242
0.2714227239786119 -1.7873929881638846
0.2801159706155175 -1.835098415007965
0.2905310816095235 -1.8658558306609825
0.3027408760036928 -1.8776366832629592
0.3149506703978614 -1.865855830660931
0.32536578139186556 -1.835098415007861
0.3340590280287686 -1.787392988163735
0.3412191699475806 -1.725052295669639
0.3470348187543359 -1.65047148763624
0.35171921713982396 -1.5659019179107794
0.3554714613678806 -1.4733096169773114
0.35846091748118303 -1.3743377790559856
0.360815536774345 -1.2703411802537916
0.36262446741648063 -1.162447525056883
0.3639499474631664 -1.0516237451268289
0.3648703034540987 -0.9386781675449051
0.36549264302296186 -0.8242706750417855
0.36591941756356844 -0.7088953746771423
0.36622065639053114 -0.5928731968649429
0.3664279606191587 -0.4763786202490543
0.36654427250985117 -0.3595167174297616
0.3665762250152118 -0.24234603304823044
0.3665834754908113 -0.12491578700952427
0.3668828843198695 -0.007324431048730142
0.26781979130088523 -0.0075825096621892135
0.26803656504719353 -0.1249558035184412
0.26801885194118963 -0.24234471110739023
0.26799549712222775 -0.35951330361251127
0.2680255563497962 -0.4763857878058551
0.2681155970228264 -0.5928917804328661
0.26826248458866314 -0.708924644733136
0.2684761836688246 -0.8243134461462189
0.26878519229380543 -0.9387421347131658
0.2692365425022351 -1.051725124868629
0.2698760089030151 -1.1626080034282187
0.2707600338810364 -1.2705796437718009
0.27191761896206373 -1.3746687163253033
0.27339614812120944 -1.4737557074315684
0.27526086134451283 -1.5664927467267928
0.27760014823392676 -1.6512455771620902
0.2805421892867514 -1.7260559145433927
0.2842691955713069 -1.7886798646731423
0.28902080934997176 -1.8367216130973434
0.2950445278597869 -1.8678850218851968
0.30274087600368704 -1.8801040740275043
0.310437224147587 -1.8678850218851453
0.3164609426574012 -1.8367216130972392
0.32121255643606444 -1.788679864672992
0.32493956272061814 -1.7260559145432068
0.3278816037734413 -1.6512455771618788
0.33022089066285365 -1.5664927467265628
0.332085603886156 -1.473755707431325
0.3335641330453008 -1.3746687163250535
0.3347217181263269 -1.2705796437715522
0.33560574310434693 -1.1626080034279789
0.33624520950512593 -1.0517251248684039
0.3366965597135551 -0.9387421347129582
0.33700556833853546 -0.8243134461460319
0.3372192674186967 -0.7089246447329717
0.3373661549845334 -0.5928917804327273
0.3374561956575636 -0.4763857878057407
0.337486254885132 -0.35951330361242234
0.3374629000661701 -0.24234471110732625
0.33744518696016623 -0.12495580351840248
0.3376619607064741 -0.007582509662176882
0.2969999031246144 -0.007783877394613464
0.2971587024901621 -0.12499680253838216
0.29711835569725736 -0.2423404332313182
0.2970432508343929 -0.3595029241332672
0.29699016476875384 -0.4763814546150138
0.2969637789088922 -0.5928946007738536
0.2969541792280504 -0.7089334979596973
0.2969520695707242 -0.8243276468920248
0.2969520081766628 -0.9387628952219261
0.29695241595311367 -1.0517561347991273
0.2969527200969726 -1.1626525535023706
0.2969528976020947 -1.2706425515084014
0.29695182395753683 -1.3747547007337002
0.29694780805998094 -1.4738719717631468
0.29694094907878754 -1.5666479704403649
0.2969438845577869 -1.651457990516059
0.29701678661007563 -1.726357716678785
0.2973169417876144 -1.7891254625034605
0.2981300007311393 -1.837383140288213
0.2998003086600012 -1.868839162147696
0.302740876003681 -1.8815156649087472
0.30568144334736125 -1.8688391621476443
0.3073517512762227 -1.8373831402881087
0.30816481021974723 -1.78912546250331
0.30846496539728596 -1.726357716678599
0.3085378674495751 -1.6514579905158477
0.3085408029285748 -1.5666479704401346
0.3085339439473818 -1.4738719717629034
0.3085299280498267 -1.3747547007334502
0.3085288544052694 -1.270642551508153
0.308529031910392 -1.1626525535021306
0.3085293360542513 -1.051756134798902
0.3085297438307024 -0.9387628952217184
0.30852968243664125 -0.8243276468918378
0.30852757277931514 -0.708933497959533
0.3085179730984734 -0.5928946007737149
0.3084915872386119 -0.47638145461489934
0.3084385011729729 -0.3595029241331783
0.30836339631010856 -0.2423404332312542
0.3083230495172038 -0.12499680253834344
0.3084818488827513 -0.007783877394600895
0.32615137051808657 -0.007942906834090246
0.3262694668905299 -0.1250361996889213
0.3262082696788754 -0.242333462951106
0.32608495557104866 -0.3594859660753581
0.3259518497028999 -0.4763660848222872
0.3258111832672307 -0.5928817675497966
0.3256462863508664 -0.7089217120535003
0.32542780626299334 -0.8243129185909903
0.32511885088167775 -0.9387422825992487
0.32466830822804954 -1.0517252435669502
0.32402959994438973 -1.1626081343377266
0.3231458387990459 -1.270579443797598
0.32198614593290015 -1.374667694669534
0.32049975147504955 -1.473753495145419
0.3186207589475422 -1.5664905938287026
0.3162873256046049 -1.6512565089516613
0.3134838188685273 -1.7261240037414005
0.31030916496650884 -1.788897488118886
0.30704097418107734 -1.837234479783222
0.3041598745625227 -1.868825199254109
0.3027408760036754 -1.8819849102500046
0.3013218774448278 -1.8688251992540572
0.298440777826273 -1.8372344797831175
0.2951725870408426 -1.7888974881187352
0.2919979331388263 -1.726124003741215
0.2891944264027512 -1.6512565089514502
0.2868609930598159 -1.5664905938284723
0.2849820005323105 -1.4737534951451758
0.28349560607446217 -1.3746676946692842
0.28233591320831897 -1.2705794437973494
0.28145215206297725 -1.1626081343374868
0.2808134437793194 -1.0517252435667248
0.28036290112569223 -0.9387422825990411
0.2800539457443774 -0.8243129185908034
0.27983546565650486 -0.7089217120533359
0.2796705687401409 -0.5928817675496578
0.27952990230447183 -0.4763660848221729
0.2793967964363233 -0.3594859660752693
0.27927348232849664 -0.242333462951042
0.27921228511684215 -0.12503619968888258
0.27933038148928535 -0.007942906834077489
0.3552895194689729 -0.0080657941222256
0.35537390752060266 -0.12507231096498883
0.35529336969119807 -0.24232380778328888
0.35512493638297565 -0.35946284854459154
0.3549151209790036 -0.47634025764259613
0.3546632896066395 -0.592853630946984
0.35434537659267723 -0.7088895925310646
0.35391490078445237 -0.8242696614275814
0.3532925776788001 -0.9386784674157521
0.35237325144490295 -1.0516240534795196
0.3510484397259935 -1.162447730171374
0.34923950409354393 -1.2703407500984678
0.3468833595501865 -1.374335655814796
0.3438874607004376 -1.4733045116716696
0.34012114978192914 -1.5658969126275009
0.33543689810254407 -1.650493391110473
0.32973675899588245 -1.7251875284504892
0.3230645642062355 -1.7878267032316266
0.3157064968232914 -1.8361272697974962
0.30843188842149616 -1.8679247752029018
0.3027408760036697 -1.8816542926970437
0.29704986358584284 -1.8679247752028498
0.28977525518404823 -1.8361272697973918
0.2824171878011063 -1.7878267032314763
0.27574499301146327 -1.7251875284503044
0.270044853904806 -1.6504933911102628
0.2653606022254245 -1.5658969126272713
0.2615942913069196 -1.4733045116714272
0.2585983924571747 -1.3743356558145472
0.2562422479138214 -1.27034075009822
0.25443331228137567 -1.162447730171135
0.2531085005624696 -1.0516240534792949
0.25218917432857463 -0.9386784674155446
0.2515668512229239 -0.8242696614273946
0.2511363754146997 -0.7088895925309004
0.250818462400738 -0.5928536309468452
0.25056663102837423 -0.47634025764248183
0.2503568156244024 -0.3594628485445028
0.25018838231618007 -0.24232380778322482
0.2501078444867756 -0.12507231096495014
0.2501922325384053 -0.008065794122212689
0.38442371212277504 -0.008157588752383727
0.38447812374900764 -0.1251035978909159
0.38437857152907684 -0.2423113933956386
0.384167688589174 -0.359433990499694
0.38388459355287696 -0.47630454677080597
0.38352532151560026 -0.5928110626081331
0.38306032206361734 -0.7088378973045271
0.3824163001929354 -0.8241964056823936
0.381453378855872 -0.9385565641310913
0.38001368808387737 -1.0514168239357689
0.3779596320455168 -1.1621242826331184
0.37519729875729846 -1.2698775664444604
0.37162599659161477 -1.3737081318060878
0.3671011381791517 -1.472475022882724
0.36141868878198 -1.5648179438174967
0.3543444547726129 -1.6491180218252401
0.34568964556275583 -1.7234929061535134
0.3354402308817524 -1.7858449611251381
0.3239698233099195 -1.834003092118847
0.3123453498476109 -1.8659850611993902
0.30274087600366406 -1.8805276120262822
0.2931364021597173 -1.8659850611993387
0.2815119286974098 -1.8340030921187431
0.2700415211255803 -1.785844961124989
0.25979210644458217 -1.7234929061533295
0.251137297234731 -1.6491180218250312
0.24406306322536905 -1.564817943817268
0.2383806138282025 -1.4724750228824823
0.23385575541574516 -1.37370813180584
0.23028445325006708 -1.2698775664442135
0.22752211996185417 -1.1621242826328801
0.22546806392349836 -1.0514168239355446
0.22402837315150712 -0.9385565641308843
0.2230654518144461 -0.8241964056822066
0.22242142994376532 -0.7088378973043629
0.2219564304917832 -0.5928110626079943
0.2215971584545069 -0.4763045467706917
0.22131406341821008 -0.35943399049960517
0.2211031804783075 -0.24231139339557453
0.2210036282583768 -0.12510359789087722
0.22105803988460934 -0.008157588752370715
0.4135604247784477 -0.0082228837577066
0.4135877840023444 -0.12512893455058374
0.413468921464971 -0.24229600385873382
0.4132177667054636 -0.3593997670746799
0.412864648234151 -0.4762597339732688
0.41240373178975587 -0.5927550728281068
0.4117947139969852 -0.7087669402335937
0.41091742502007644 -0.8240823284148227
0.40957782045475327 -0.9383544608302318
0.40758039411849645 -1.0510797605314266
0.404777212080014 -1.1616180691547984
0.4010493516861327 -1.2691731417935193
0.3962488302789943 -1.37276861525357
0.3901729308433636 -1.4712474417345165
0.3825461515888288 -1.5632346840966431
0.37304830750203466 -1.6471089410063537
0.3613930940532776 -1.7210137243793717
0.34752403364766477 -1.7829305604411068
0.33192783939377746 -1.8308475675583715
0.3160369041078723 -1.8630387062817413
0.30274087600365857 -1.878638597739807
0.2894448478994454 -1.8630387062816898
0.27355391261354217 -1.8308475675582683
0.25795771835965925 -1.7829305604409584
0.244088657954053 -1.7210137243791892
0.23243344450530304 -1.6471089410061461
0.22293560041851565 -1.5632346840964157
0.2153088211639876 -1.4712474417342765
0.20923292172836422 -1.3727686152533238
0.20443240032123297 -1.269173141793274
0.20070453992735868 -1.1616180691545615
0.19790135788888222 -1.0510797605312034
0.19590393155263008 -0.9383544608300254
0.19456432698731022 -0.824082328414636
0.19368703801040327 -0.7087669402334296
0.19307802021763354 -0.5927550728279681
0.1926171037732389 -0.47625973397315446
0.19226398530192665 -0.35939976707459115
0.19201283054241952 -0.24229600385866976
0.1918939680050462 -0.12512893455054502
0.19192132722894292 -0.008222883757693514
0.44270448533334156 -0.008266049124460821
0.44270782254643354 -0.12514766151645415
0.44256943995031833 -0.2422773521900733
0.4422798310956278 -0.35936057540307087
0.4418601061992177 -0.47620647980340924
0.44130345878899574 -0.5926874916790688
0.44054352617796677 -0.7086711802759516
0.43940864762536436 -0.8239152201056033
0.4376581223673832 -0.9380554591130156
0.4350836340259935 -1.0506001843205617
0.4315280654624923 -1.1609208498723549
0.4268264852339768 -1.268218665095208
0.4207822254969542 -1.3715071630883728
0.41313335540332735 -1.469610514148639
0.40353852441322796 -1.561135689378225
0.3915918217370847 -1.6444540696401655
0.37692543117717753 -1.7177394292465271
0.3594443636408725 -1.7790760989267351
0.33974683708424536 -1.8266633812973827
0.3196611715075481 -1.8591097141645216
0.30274087600365335 -1.8760062440129055
0.2858205804997593 -1.8591097141644704
0.26573491492306484 -1.8266633812972801
0.24603738836644312 -1.7790760989265881
0.22855632083014576 -1.7177394292463464
0.21388993027024694 -1.6444540696399597
0.20194322759411187 -1.5611356893779993
0.19234839660402087 -1.4696105141484008
0.18469952651040297 -1.3715071630881284
0.17865526677338905 -1.2682186650949645
0.17395368654488197 -1.1609208498721197
0.17039811798138796 -1.0506001843203396
0.16782362964000402 -0.9380554591128101
0.16607310438202716 -0.8239152201054172
0.1649382258294274 -0.7086711802757876
0.16417829321839966 -0.5926874916789301
0.16362164580817837 -0.47620647980329495
0.16320192091176866 -0.3593605754029821
0.16291231205707837 -0.24227735219000932
0.16277392946096328 -0.1251476615164154
0.16277726667405534 -0.008266049124447688
0.4718594619416514 -0.008291396587322702
0.4718424052527953 -0.12515955199543408
0.4716850755623518 -0.24225521990622784
0.47135857395362146 -0.3593167122159693
0.4708755107205994 -0.4761458020150396
0.470224855620069 -0.5926072754916321
0.46930262774305787 -0.7085448110109905
0.46788087797732497 -0.8236815519614242
0.46569694389746974 -0.9376489836919503
0.46254685582872446 -1.0499733597868313
0.4582343457038608 -1.1600276168390269
0.452552732842963 -1.2670084485264514
0.44525316188527664 -1.3699166083484628
0.43601262804138025 -1.4675555356617904
0.42442258664392385 -1.5585119511941503
0.41002061047130856 -1.6411495635346962
0.3923677008959386 -1.7136723660018085
0.3713269370590515 -1.7742876666461096
0.3475940945604527 -1.8214597070164604
0.3233375696260795 -1.854200988878197
0.3027408760036481 -1.87262101886091
0.28214418238121775 -1.854200988878146
0.2578876574468483 -1.821459707016359
0.23415481494825596 -1.7742876666459644
0.21311405111137757 -1.7136723660016302
0.19546114153601724 -1.6411495635344924
0.1810591653634117 -1.5585119511939265
0.16946912396596514 -1.4675555356615542
0.16022859012207913 -1.369916608348221
0.15292901916440318 -1.26700844852621
0.14724740630351507 -1.1600276168387937
0.14293489617865993 -1.0499733597866108
0.1397848081099213 -0.9376489836917458
0.13760087403007132 -0.823681551961239
0.13617912426434184 -0.708544811010827
0.13525689638733251 -0.5926072754914935
0.13460624128680274 -0.47614580201492535
0.13412317805378116 -0.3593167122158806
0.13379667644505114 -0.2422552199061639
0.13363934675460776 -0.1251595519953953
0.13362229006575166 -0.008291396587309548
0.5010276610330238 -0.008303299550734545
0.5009949348187234 -0.1251647857020559
0.5008206917644956 -0.2422295824756015
0.5004590429187251 -0.35926836000216955
0.49991460276613364 -0.47607877601833953
0.499168223728675 -0.5925123766312044
0.49806302280693165 -0.7083780195695338
0.49632681091182457 -0.8233699773642982
0.4937127732528019 -0.9371323667851498
0.48998644425891 -1.0491962557710401
0.484916016165409 -1.1589349598351015
0.4782509820618589 -1.2655385393607383
0.4696865065260576 -1.3679914141031613
0.4588367716693727 -1.4650749180725138
0.4452351394930689 -1.5553573891990236
0.42837035719387045 -1.637196379692869
0.40778471855996296 -1.708827070746826
0.3833074268858436 -1.768587818951098
0.3556402416825879 -1.8152465070922994
0.3271799887855878 -1.8482928202601354
0.3027408760036429 -1.868446091029121
0.2783017632216993 -1.8482928202600855
0.24984151032470378 -1.815246507092199
0.22217432512145566 -1.7685878189509547
0.1976970334473462 -1.7088270707466497
0.17711139481344973 -1.6371963796926676
0.1602466125142623 -1.5553573891988024
0.14664498033797002 -1.46507491807228
0.13579524548129687 -1.3679914141029221
0.1272307699455075 -1.2655385393604994
0.12056573584196857 -1.158934959834871
0.1154953077484771 -1.0491962557708217
0.11176897875459303 -0.9371323667849467
0.10915494109557641 -0.823369977364114
0.1074187292004735 -0.7083780195693709
0.10631352827873244 -0.592512376631066
0.10556714924127468 -0.4760787760182253
0.1050227090886837 -0.35926836000208096
0.10466106024291355 -0.2422295824755375
0.10448681718868587 -0.12516478570201708
0.10445409097438553 -0.008303299550721377
0.5302098485560197 -0.008306249326692636
0.5301679750881069 -0.12516400668211633
0.5299813940839981 -0.2422006866565067
0.5295863839830568 -0.3592157236839436
0.5289810154875513 -0.47600552005663577
0.5281306973178787 -0.5923987746599525
0.526814000097561 -0.7081602893492066
0.5247612244304355 -0.8229782583503154
0.5217173245445667 -0.9365036177957683
0.5174174762512604 -1.0482670297682029
0.5115914431782487 -1.1576411764790264
0.5039411578154502 -1.2638059360314824
0.494106237444605 -1.3657273341998664
0.48163721014145416 -1.462163221803664
0.4660053720749644 -1.55166603632094
0.44667821571536565 -1.6325975850937204
0.4232252017800947 -1.7032304451721194
0.39549899781056613 -1.7620177722892445
0.3640650501491137 -1.8080371131433814
0.33133930478800383 -1.8413421736093867
0.3027408760036377 -1.8634096370791198
0.27414244721927283 -1.8413421736093372
0.2414167018581685 -1.8080371131432826
0.2099827541967249 -1.7620177722891033
0.1822565502272075 -1.7032304451719458
0.15880353629194896 -1.6325975850935217
0.13947637993236267 -1.551666036320722
0.12384454186588578 -1.4621632218034333
0.11137551456274841 -1.3657273341996303
0.10154059419191656 -1.2638059360312466
0.09389030882913062 -1.1576411764787986
0.08806427575612946 -1.0482670297679864
0.08376442746283212 -0.9365036177955671
0.08072052757696997 -0.8229782583501324
0.07866775190984951 -0.7081602893490443
0.07735105468953457 -0.5923987746598144
0.07650073651986317 -0.47600552005652164
0.07589536802435827 -0.3592157236838551
0.07550035792341721 -0.24220068665644276
0.07531377691930875 -0.12516400668207756
0.07527190345139587 -0.00830624932667947
0.5594045787334668 -0.00830483369171109
0.5593631860116078 -0.1251585089125925
0.5591729707993579 -0.24216921671695169
0.5587463203811112 -0.35915880096559005
0.5580761671722425 -0.4759250853836236
0.5571027915062041 -0.5922575751774327
0.5555600370670624 -0.7078860335498837
0.5531913658477943 -0.8225051597735592
0.5497217368295215 -0.9357616784198145
0.5448542850549059 -1.04718530638143
0.5382776058190056 -1.156145196049417
0.5296444343784286 -1.2618089777281973
0.5185346922097058 -1.3631210683994568
0.5044359271368879 -1.4588160998317612
0.48677574270233104 -1.5474358946192714
0.4649960726687096 -1.6273566790937786
0.4387141332735395 -1.6969061359509983
0.40791302824522235 -1.754645433620547
0.37310988175251736 -1.7998731025047687
0.33607535845753495 -1.8332756581352667
0.3027408760036322 -1.8573792550735584
0.269406393549731 -1.8332756581352183
0.232371870254755 -1.7998731025046717
0.19756872376206014 -1.7546454336204087
0.16676761873375576 -1.696906135950828
0.1404856793385995 -1.627356679093583
0.11870600930499194 -1.5474358946190567
0.10104582487044957 -1.4588160998315336
0.0869470597976468 -1.3631210683992243
0.07583731762893892 -1.2618089777279649
0.0672041461883754 -1.1561451960491917
0.06062746695248705 -1.0471853063812162
0.05576001517788105 -0.9357616784196151
0.05229038615961595 -0.8225051597733776
0.049921714940353336 -0.7078860335497223
0.048378960501215096 -0.5922575751772949
0.047405584835178136 -0.4759250853835097
0.04673543162631007 -0.35915880096550157
0.046308781208063664 -0.24216921671688776
0.04611856599581405 -0.12515850891255373
0.046077173273955004 -0.008304833691697927
0.5886068440914155 -0.008303575592943828
0.5885813352789216 -0.12515072830817323
0.5884028223880524 -0.24213638021268752
0.5879452257705081 -0.3590973600759793
0.5871985537802383 -0.4758334866610393
0.5860800339335026 -0.5920832301717525
0.584307058429586 -0.7075532763590993
0.5816247423618285 -0.8219499686414465
0.5777367676473021 -0.9349069427731773
0.5723104102333831 -1.045951709314693
0.564992254754813 -1.1544474707063503
0.5553796975117643 -1.2595460219792518
0.5429901120243114 -1.3601696587857752
0.5272660193490617 -1.4550329080643636
0.5075873920815285 -1.542668481075151
0.48337809830796735 -1.6214780931066288
0.45429869712730003 -1.6898666029323983
0.42048148608845864 -1.7465231765775087
0.38271259794207096 -1.790911513149664
0.3422921340035591 -1.8240308252803656
0.3027408760036265 -1.8500000000000005
0.26318961800369534 -1.8240308252803181
0.22276915406519077 -1.7909115131495694
0.18500026591881505 -1.7465231765773732
0.151183054879988 -1.6898666029322313
0.12210365369933628 -1.6214780931064365
0.09789435992579053 -1.5426684810749398
0.07821573265827356 -1.4550329080641395
0.06249163998304058 -1.3601696587855465
0.05010205449560374 -1.2595460219790229
0.04048949725257008 -1.154447470706128
0.03317134177401283 -1.045951709314482
0.0277449843601044 -0.9349069427729799
0.02385700964558643 -0.8219499686412665
0.02117469357783513 -0.707553276358939
0.019401718073922252 -0.5920832301716152
0.018283198227188602 -0.4758334866609255
0.01753652623691942 -0.3590973600758909
0.01707892961937547 -0.24213638021262365
0.01690041672850651 -0.12515072830813445
0.016874907916012746 -0.008303575592930676
SCALARS Stress float 6
LOOKUP_TABLE default
-954.0593757104327 -1730.693293021343 -1262.8175212395686 -4.7698966841173895 0.0 0.0
1145.2516612836225 661.9428403865523 797.1681248876422 -24.804417631363307 0.0 0.0
496.932266990255 72.17446547641082 170.77901221638007 -33.961040179384355 0.0 0.0
436.2923297722269 15.155963302052369 135.25654962770298 -4.041465751461618 0.0 0.0
535.8813982527856 41.51575687509193 183.52899948413244 -0.8193119984823745 0.0 0.0
609.8566235010445 70.13860181764652 257.0941183817448 -0.11615222283017079 0.0 0.0
698.2790268343442 89.14706417196086 337.67740344227946 -0.6507141619732355 0.0 0.0
783.5227696793222 124.8959474893553 421.4672708488209 -1.2191551665936866 0.0 0.0
872.7361567646632 171.3579809622845 502.7270249553668 -1.9252464195982222 0.0 0.0
973.5083639451123 233.51673513572888 590.0873175105705 -2.804935867649278 0.0 0.0
1089.8980047917219 313.85446025265617 690.519490246364 -3.7816005818515697 0.0 0.0
1221.1700194377886 411.9738865684318 805.6103985151653 -4.776827458401522 0.0 0.0
1363.5386143766405 521.4135258336752 931.121730528713 -5.403118897852224 0.0 0.0
1512.816467073107 638.0777959238694 1063.489854732555 -5.938843461173729 0.0 0.0
1661.5106688265062 754.7085550525505 1195.4634298306894 -6.375789355987669 0.0 0.0
1801.8143453252496 864.1752666183986 1319.6765509523607 -6.703492277973718 0.0 0.0
1927.0822714768788 961.0782262426211 1430.21595751423 -6.7337853852205525 0.0 0.0
2030.6398117838335 1040.0791346209612 1521.1753118778383 -6.221840582608806 0.0 0.0
2107.99974107234 1097.9378528047603 1588.6544398240735 -5.0863567837392285 0.0 0.0
2150.524716811263 1127.4147539814367 1624.6959922809863 -4.328873798518003 0.0 0.0
2148.847640304682 1122.565992963834 1621.7588108457392 2.8412827646207006e-11 0.0 0.0
2150.5247168103238 1127.414753980505 1624.695992280268 4.328873798500442 0.0 0.0
2107.999741072134 1097.9378528045788 1588.6544398238002 5.086356783711453 0.0 0.0
2030.6398117841052 1040.0791346213161 1521.1753118779259 6.221840582601823 0.0 0.0
1927.0822714764777 961.0782262422927 1430.2159575137246 6.733785385286321 0.0 0.0
1801.8143453247792 864.1752666180198 1319.6765509519144 6.703492278030561 0.0 0.0
1661.5106688249662 754.7085550510956 1195.4634298294443 6.37578935592923 0.0 0.0
1512.816467072461 638.0777959233475 1063.4898547320254 5.938843461182103 0.0 0.0
1363.538614375995 521.4135258331884 931.1217305281679 5.403118897746513 0.0 0.0
1221.1700194372295 411.97388656806277 805.6103985146051 4.7768274584339885 0.0 0.0
1089.8980047904881 313.85446025160275 690.5194902453854 3.781600581958889 0.0 0.0
973.5083639438734 233.5167351346723 590.0873175096381 2.8049358675896574 0.0 0.0
872.7361567644186 171.35798096226796 502.7270249550558 1.9252464196346946 0.0 0.0
783.5227696790887 124.8959474893763 421.4672708485347 1.2191551666197942 0.0 0.0
698.2790268340812 89.14706417198116 337.6774034419408 0.6507141620057126 0.0 0.0
609.856623500528 70.1386018173624 257.0941183813023 0.11615222295031025 0.0 0.0
535.8813982525962 41.515756875185716 183.52899948401122 0.81931199841374 0.0 0.0
436.2923297718968 15.155963301793781 135.25654962754163 4.041465751549362 0.0 0.0
496.9322669899477 72.17446547626469 170.779012216238 33.96104017927973 0.0 0.0
1145.251661283208 661.9428403860724 797.1681248870823 24.80441763140027 0.0 0.0
-954.0593757079323 -1730.6932930188475 -1262.8175212371045 4.769896683500637 0.0 0.0
-1215.5765261305799 -1959.758107107688 -1468.143416042532 -2.7225790808020065 0.0 0.0
772.0766129154792 374.2107554096264 494.83818510546405 -39.116623197534025 0.0 0.0
342.23726508529137 28.924795434070745 110.80190143761958 -26.834514159992427 0.0 0.0
386.14125176029967 2.1213542941706884 116.53704247692107 -16.467729328797716 0.0 0.0
477.90989058134437 16.66887976821191 153.30403086268745 -14.97034002187589 0.0 0.0
559.987911837393 22.022131145253738 209.5479095727428 -17.904481788294845 0.0 0.0
625.3025022635164 30.591429292998363 276.49844586836065 -20.154614369069005 0.0 0.0
691.9762929008172 45.48098676087254 341.62435571052197 -21.023788851936136 0.0 0.0
755.3492830565857 65.30600706000205 397.85097003809267 -21.147549239749786 0.0 0.0
820.8157427888336 92.38214607699734 450.9345576853476 -21.066952294147008 0.0 0.0
890.3927527783111 126.6179239540859 505.54960937829424 -20.76547660703733 0.0 0.0
963.2653383280607 165.34809052695306 562.311631071985 -20.393897578931508 0.0 0.0
1036.2734880312325 206.86572243671236 619.7807861165751 -19.81178915105906 0.0 0.0
1107.1089610592935 245.31655420621937 674.3450376644511 -19.194876712209897 0.0 0.0
1169.160443079105 275.6303231674628 720.3872495017179 -18.700235568707324 0.0 0.0
1217.3776353095332 293.3519537407037 753.2110283973414 -18.137978191693733 0.0 0.0
1248.7237885189907 296.5156045939715 770.3738700316497 -17.178884091042676 0.0 0.0
1263.9373124622894 287.1657554380098 773.3249755019 -15.456642859907966 0.0 0.0
1264.9152466643457 268.5719497756492 764.6987229586709 -12.877468252484476 0.0 0.0
1241.4876627653607 232.00664605544583 735.280631565926 -10.13748558620876 0.0 0.0
1197.3889906206975 184.8141398672755 690.5842525509938 -5.8903992794512305e-12 0.0 0.0
1241.4876627650838 232.0066460552025 735.2806315656711 10.137485586260627 0.0 0.0
1264.9152466641362 268.5719497754577 764.6987229585175 12.877468252503665 0.0 0.0
1263.9373124627882 287.16575543857476 773.3249755022176 15.456642859924802 0.0 0.0
1248.7237885188326 296.5156045938738 770.3738700314757 17.178884091029868 0.0 0.0
1217.377635309412 293.3519537406693 753.2110283972413 18.13797819166734 0.0 0.0
1169.1604430782093 275.63032316667346 720.387249500988 18.70023556868617 0.0 0.0
1107.1089610585243 245.3165542055614 674.3450376639057 19.194876712240756 0.0 0.0
1036.2734880309506 206.8657224365929 619.7807861163591 19.811789151060076 0.0 0.0
963.2653383276278 165.34809052668317 562.3116310716803 20.393897578952483 0.0 0.0
890.3927527773275 126.61792395328816 505.54960937757704 20.76547660703066 0.0 0.0
820.8157427880353 92.38214607639955 450.93455768478253 21.06695229416124 0.0 0.0
755.3492830565275 65.30600706015969 397.85097003795664 21.147549239808747 0.0 0.0
691.9762929006164 45.48098676092366 341.6243557102859 21.023788851925378 0.0 0.0
625.3025022633527 30.591429293122413 276.49844586812026 20.154614369095285 0.0 0.0
559.9879118368925 22.022131145010295 209.54790957236023 17.904481788312985 0.0 0.0
477.9098905810155 16.66887976820471 153.30403086254296 14.970340021864146 0.0 0.0
386.14125176011294 2.121354294085073 116.53704247685077 16.46772932884045 0.0 0.0
342.2372650852154 28.92479543398793 110.80190143757635 26.834514159909116 0.0 0.0
772.0766129149761 374.21075540914956 494.8381851048895 39.11662319753463 0.0 0.0
-1215.5765261287927 -1959.758107105774 -1468.143416040577 2.722579080294416 0.0 0.0
-989.5866461661942 -1699.5089527299156 -1214.0560801724628 -42.78133086386268 0.0 0.0
574.1078558096873 279.8527751937887 357.5755968473275 -102.32102844474805 0.0 0.0
247.89225300172964 38.356526703833055 85.87456824719195 -27.075378122778236 0.0 0.0
329.93165203616746 -1.468247233669556 98.54969920287398 -36.0249547286901 0.0 0.0
429.89163681325306 11.413676653853436 133.54988022672862 -36.70994214636421 0.0 0.0
528.7012875169859 18.685554425270688 185.2131748498359 -35.636625908031505 0.0 0.0
597.1174577510047 29.39119987918218 252.82731726250393 -38.280589537547826 0.0 0.0
666.122876638761 39.88773310026589 318.5128048631499 -39.86201522073744 0.0 0.0
728.7669144315494 57.59166082630327 376.2812051637917 -40.346568611211794 0.0 0.0
791.6723198523571 81.16054516303683 428.28654618361486 -40.31552693760661 0.0 0.0
857.3028485185785 111.46889874029876 480.04602075237693 -39.83929350174456 0.0 0.0
925.442227605537 147.00392454218655 533.3879977307777 -38.87045959152255 0.0 0.0
995.3284354043614 183.95988649770442 587.2809567832281 -37.72478254184354 0.0 0.0
1061.4538590438742 219.2781709270286 638.0495791662765 -36.557601474862516 0.0 0.0
1120.1891634681085 246.59464076034732 680.9610020323038 -35.54724311860443 0.0 0.0
1166.1395951409554 262.35459538394014 711.6741553915684 -34.407764365252085 0.0 0.0
1197.5826967064081 265.7746961913849 729.0349389296589 -32.545793094619 0.0 0.0
1213.800395702005 257.3890829307959 733.0347556351181 -29.442255299941106 0.0 0.0
1212.04566741587 235.84079607553426 721.6990050534184 -24.973918096309315 0.0 0.0
1196.5591652591063 207.10855831061446 699.9722246554464 -18.997882502971727 0.0 0.0
1139.6993094953193 147.333445012466 642.9402969069009 7.437606086568849e-12 0.0 0.0
1196.5591652592707 207.10855831081523 699.9722246555175 18.997882503080426 0.0 0.0
1212.0456674155587 235.8407960752578 721.6990050532067 24.97391809641018 0.0 0.0
1213.8003957025003 257.38908293136 733.0347556354542 29.44225530004223 0.0 0.0
1197.582696706134 265.774696191179 729.0349389293851 32.545793094636615 0.0 0.0
1166.1395951402353 262.3545953832812 711.674155391024 34.407764365201764 0.0 0.0
1120.1891634678295 246.59464076019526 680.961002032026 35.5472431186417 0.0 0.0
1061.453859042784 219.27817092605505 638.0495791654931 36.55760147492113 0.0 0.0
995.3284354044197 183.95988649791923 587.280956783181 37.72478254191111 0.0 0.0
925.4422276053278 147.00392454214781 533.3879977306683 38.87045959149457 0.0 0.0
857.3028485176263 111.46889873952321 480.0460207516787 39.839293501706244 0.0 0.0
791.6723198520181 81.16054516292147 428.28654618334633 40.315526937666704 0.0 0.0
728.7669144311651 57.59166082613987 376.28120516345444 40.346568611255876 0.0 0.0
666.1228766383576 39.88773310011559 318.5128048627773 39.862015220724054 0.0 0.0
597.117457750686 29.39119987917001 252.82731726217867 38.280589537586394 0.0 0.0
528.7012875164766 18.685554424987416 185.21317484946604 35.63662590799799 0.0 0.0
429.89163681299516 11.413676653926402 133.54988022665916 36.709942146352006 0.0 0.0
329.9316520360846 -1.4682472335370746 98.54969920289142 36.02495472863131 0.0 0.0
247.89225300165293 38.3565267036847 85.87456824712444 27.075378122748504 0.0 0.0
574.1078558092833 279.8527751935328 357.57559684688556 102.3210284445937 0.0 0.0
-989.586646164387 -1699.5089527280327 -1214.0560801705299 42.78133086352709 0.0 0.0
-794.8425279875515 -1473.1910384101677 -993.6263180218152 -57.33643352154944 0.0 0.0
426.5490105509938 186.07827765922602 249.63513752780952 -142.31452306387305 0.0 0.0
183.56203730722953 40.86502681828806 67.32811923765527 -49.270573525148436 0.0 0.0
275.7295283033243 3.357814851765805 83.731359778112 -54.23210536992913 0.0 0.0
377.3124271157015 4.12520873527953 113.55503307811212 -60.15355342928866 0.0 0.0
481.78764483342877 14.740086759267758 159.38767786187512 -55.580877818882854 0.0 0.0
568.6580859207984 24.88311866566784 224.8194633777474 -57.98889406607484 0.0 0.0
635.0235732903773 34.64299910649721 291.32353703737743 -59.07299465304148 0.0 0.0
698.1122062211017 49.85675729773391 351.00723965074405 -59.401014447283266 0.0 0.0
758.7891168550622 70.28223034341815 402.8884604622747 -59.17160858551166 0.0 0.0
820.2362468173561 96.62083344132026 452.0951254766759 -58.27418741014386 0.0 0.0
884.3330064195551 127.46357351810443 501.85384766621326 -56.803503403151424 0.0 0.0
949.5221996597941 161.61722162566866 552.4255163203964 -55.003646010437045 0.0 0.0
1012.2340225577055 192.00050849838672 599.1946600354466 -53.47081716237183 0.0 0.0
1067.0774379167726 216.3304256908063 638.7273971986881 -52.02578660593669 0.0 0.0
1111.6884133951878 231.5726746286316 668.5274728174763 -50.325523009919145 0.0 0.0
1143.6879061442075 235.3284824852086 686.3582911470519 -47.779827497581195 0.0 0.0
1160.350230973695 227.07626748486726 690.7236323980572 -43.65022583593163 0.0 0.0
1160.6714176738935 207.13651087174483 681.2523692648981 -37.33744941206517 0.0 0.0
1149.215978389446 181.7342917793086 663.1097534795312 -27.33131545207137 0.0 0.0
1067.7944725741033 97.26855777263421 582.181624305856 5.0460968736842915e-11 0.0 0.0
1149.215978389263 181.7342917791497 663.1097534793796 27.331315452141794 0.0 0.0
1160.6714176738267 207.13651087172434 681.2523692648012 37.33744941219284 0.0 0.0
1160.3502309740006 227.07626748523728 690.7236323982588 43.65022583601791 0.0 0.0
1143.6879061439645 235.32848248502637 686.3582911467923 47.77982749761314 0.0 0.0
1111.6884133944368 231.57267462794496 668.5274728169004 50.32552300986066 0.0 0.0
1067.0774379169684 216.3304256911219 638.7273971987283 52.025786605978794 0.0 0.0
1012.234022557149 192.00050849797077 599.194660035061 53.4708171624209 0.0 0.0
949.5221996597497 161.6172216257843 552.4255163203104 55.003646010518665 0.0 0.0
884.333006418979 127.46357351768148 501.8538476658196 56.80350340316883 0.0 0.0
820.2362468169282 96.62083344105758 452.09512547633256 58.274187410084934 0.0 0.0
758.7891168547037 70.28223034327195 402.8884604619647 59.17160858548586 0.0 0.0
698.1122062205748 49.85675729744416 351.0072396503268 59.40101444734511 0.0 0.0
635.0235732901011 34.642999106458845 291.3235370370577 59.07299465299274 0.0 0.0
568.6580859204731 24.883118665674196 224.81946337743298 57.988894066003205 0.0 0.0
481.7876448328366 14.74008675895741 159.38767786153235 55.580877818890336 0.0 0.0
377.3124271154915 4.125208735452162 113.55503307811465 60.15355342923911 0.0 0.0
275.72952830336374 3.3578148520093887 83.7313597781958 54.23210536978472 0.0 0.0
183.56203730720347 40.86502681825334 67.32811923763703 49.27057352509354 0.0 0.0
426.54901055056456 186.07827765904062 249.63513752742685 142.31452306370429 0.0 0.0
-794.8425279860278 -1473.1910384085247 -993.6263180201142 57.336433521321226 0.0 0.0
-627.1803813127358 -1273.8888161090692 -801.0282576671779 -59.55233241758651 0.0 0.0
319.2654830378574 105.59098667147789 168.33705728327402 -170.2800207683669 0.0 0.0
135.75718324950327 36.709220025177565 51.739920982404236 -77.37691117849307 0.0 0.0
225.13897359450854 10.184359507504585 70.59761641296524 -74.0546809690718 0.0 0.0
316.7329577278019 4.072859963284298 96.30564215611479 -81.30224966460895 0.0 0.0
429.7789194883347 3.6362623067932978 131.8929057458784 -82.08618819499286 0.0 0.0
526.7497364314227 18.434626876239562 192.02674979872657 -77.9648106246751 0.0 0.0
598.15115745635 31.350892114341164 260.6632879868853 -78.26091846241539 0.0 0.0
662.0350668632958 42.471878585733016 321.1195099694621 -78.35239531701532 0.0 0.0
720.9740724299425 59.63071610206768 373.56585520655904 -77.60500758449983 0.0 0.0
779.2026917489252 81.65678047160505 421.0440344788829 -76.19068765633862 0.0 0.0
838.7542030307363 108.01028916444105 467.51682237948376 -74.09870335466502 0.0 0.0
899.7915726902579 137.03008217444753 514.0728894721593 -71.8858251385086 0.0 0.0
957.9625912832907 165.26111379783578 557.8411327168484 -69.88298870537257 0.0 0.0
1009.9182081548179 186.23427119800832 594.375215808985 -68.06972352985322 0.0 0.0
1052.6844357814814 199.08796257660657 622.0745670483368 -66.01029665259745 0.0 0.0
1085.3631664259196 204.19552839362277 640.9582042724489 -62.935117553381836 0.0 0.0
1104.5131111412159 198.09103423354728 647.6778064129293 -58.02918106436556 0.0 0.0
1108.017843226462 180.4400555839266 640.9596592421548 -49.892278898648904 0.0 0.0
1097.9214105799717 154.92937746149693 623.4294486038148 -36.02246648107168 0.0 0.0
985.4845258588095 39.19599054204731 512.4183710350995 1.6749268638704962e-11 0.0 0.0
1097.9214105803132 154.92937746190012 623.4294486040915 36.022466481191486 0.0 0.0
1108.0178432263504 180.4400555838513 640.9596592420853 49.892278898783516 0.0 0.0
1104.5131111408189 198.09103423321477 647.6778064126281 58.02918106445333 0.0 0.0
1085.3631664255745 204.19552839334796 640.9582042721235 62.93511755346252 0.0 0.0
1052.6844357812492 199.08796257648243 622.0745670481741 66.01029665263466 0.0 0.0
1009.9182081546008 186.23427119789113 594.3752158087358 68.06972352993688 0.0 0.0
957.9625912828106 165.26111379748124 557.8411327165065 69.88298870539487 0.0 0.0
899.7915726902827 137.0300821746141 514.0728894721552 71.88582513853129 0.0 0.0
838.7542030299088 108.01028916376069 467.5168223789047 74.09870335461835 0.0 0.0
779.2026917486543 81.65678047148401 421.04403447864945 76.19068765626155 0.0 0.0
720.9740724293644 59.63071610168751 373.5658552061014 77.60500758446078 0.0 0.0
662.0350668628367 42.471878585523875 321.11950996909 78.35239531703363 0.0 0.0
598.1511574560524 31.350892114309723 260.66328798656366 78.26091846239268 0.0 0.0
526.7497364310846 18.434626876232183 192.02674979844775 77.96481062463113 0.0 0.0
429.77891948778534 3.636262306592572 131.8929057456319 82.08618819495462 0.0 0.0
316.7329577275869 4.072859963264271 96.30564215604345 81.30224966457769 0.0 0.0
225.13897359455936 10.184359507747821 70.5976164130533 74.05468096893966 0.0 0.0
135.75718324951652 36.70922002515255 51.739920982400704 77.37691117837113 0.0 0.0
319.2654830374155 105.59098667129301 168.33705728294092 170.2800207681922 0.0 0.0
-627.1803813114986 -1273.8888161076088 -801.028257665712 59.55233241751934 0.0 0.0
-480.9489658943381 -1096.9725539291414 -632.617677866817 -62.18632983550985 0.0 0.0
235.04884535782872 44.59041362995858 107.84801916628 -183.81936578224563 0.0 0.0
97.95489462742142 28.360990525227386 37.89476554579464 -103.92437336458573 0.0 0.0
177.73669219367054 15.710642806478205 58.03420050004459 -94.56807770958186 0.0 0.0
260.9746609483438 3.9312056431336213 79.44551011648018 -101.81785087915245 0.0 0.0
360.01033880914053 0.8835831112627847 108.02151439886407 -105.09463587067985 0.0 0.0
464.1888045796964 12.545233715185708 157.54549018268446 -100.35481848496084 0.0 0.0
555.2557807749944 23.14733450976445 222.44250124677146 -99.25359097339857 0.0 0.0
616.6612600480511 36.66269541002344 285.5916709282958 -96.45563100984548 0.0 0.0
677.3448773062103 48.95437265546022 338.8461271779398 -95.74511965409233 0.0 0.0
732.592797013654 66.74945680396009 385.5338967142234 -93.6083516076739 0.0 0.0
787.80558749585 88.43641236218942 429.2835374640026 -90.82896427354848 0.0 0.0
844.2428374790262 113.31109952609813 472.51788469188307 -88.10601777820432 0.0 0.0
898.3742763465197 136.50150678042755 512.3216945961822 -85.84074375504505 0.0 0.0
947.0742015049043 155.34277361073086 546.415166491047 -83.7519600157521 0.0 0.0
988.2078953651886 167.6117683103026 573.1147962211633 -81.24897792597538 0.0 0.0
1021.3442358842747 171.76541887246984 591.7715990824125 -77.93467650704784 0.0 0.0
1043.8796989666916 168.84070294530997 601.7711239277804 -72.5117164440817 0.0 0.0
1052.15009571233 155.21498067977456 599.4905251026748 -62.83966433041882 0.0 0.0
1042.7221133218372 128.081654187756 581.5403396802325 -45.56941701287815 0.0 0.0
892.1913420744959 -25.983434634480894 433.8470798881161 6.9540817548841e-11 0.0 0.0
1042.7221133223738 128.08165418836316 581.5403396806462 45.56941701308213 0.0 0.0
1052.1500957120963 155.2149806795896 599.4905251025448 62.83966433053672 0.0 0.0
1043.879698966524 168.84070294521746 601.7711239276242 72.51171644417303 0.0 0.0
1021.3442358835525 171.7654188717861 591.7715990818392 77.9346765070895 0.0 0.0
988.2078953656667 167.61176831094662 573.1147962214721 81.24897792606313 0.0 0.0
947.0742015041149 155.34277360999613 546.4151664904338 83.75196001576404 0.0 0.0
898.3742763460145 136.5015067800406 512.3216945957872 85.84074375503327 0.0 0.0
844.2428374790642 113.31109952633177 472.51788469190757 88.10601777829574 0.0 0.0
787.8055874952789 88.43641236173619 429.28353746358476 90.82896427354326 0.0 0.0
732.5927970130585 66.7494568034914 385.53389671374435 93.6083516075675 0.0 0.0
677.3448773059902 48.95437265551746 338.846127177737 95.74511965411796 0.0 0.0
616.6612600474507 36.66269540961782 285.59167092780086 96.45563100981384 0.0 0.0
555.255780774488 23.147334509536073 222.44250124635104 99.25359097338173 0.0 0.0
464.1888045792122 12.545233715029578 157.5454901823747 100.35481848493136 0.0 0.0
360.01033880867993 0.8835831112069896 108.02151439872277 105.0946358705506 0.0 0.0
260.97466094819333 3.9312056431731977 79.44551011644602 101.8178508790686 0.0 0.0
177.73669219366556 15.710642806668773 58.0342005001003 94.5680777094579 0.0 0.0
97.95489462736269 28.360990525165295 37.8947655457584 103.92437336436987 0.0 0.0
235.0488453574072 44.59041362972839 107.84801916598306 183.8193657820537 0.0 0.0
-480.94896589329244 -1096.972553927832 -632.6176778655632 62.186329835514314 0.0 0.0
-357.32547687601414 -933.1489593958696 -487.2666031440662 -65.89291286124401 0.0 0.0
169.43486356673347 -4.287869466880419 62.68813252232529 -190.49064411121535 0.0 0.0
66.36111731211305 19.048055805420386 25.62275193526003 -126.06170517473191 0.0 0.0
133.0273892593485 19.092960476973566 45.636104920896614 -114.1353425227302 0.0 0.0
205.1926511952999 6.28368565410932 63.45016355902576 -119.72943191215532 0.0 0.0
286.7443974556289 -1.5092320201128557 85.06725995363476 -126.93950698566168 0.0 0.0
393.2394529339741 2.0169608775985584 121.83169462273702 -127.62843257753617 0.0 0.0
485.95775243902006 17.332035078594114 179.1877756468981 -119.59202531434852 0.0 0.0
566.3998977682363 25.386935455518366 240.43350132876162 -117.9968673202873 0.0 0.0
622.9607131897217 39.20575368128104 296.40836243593554 -112.91787347406606 0.0 0.0
678.5977815993209 51.816068090799334 343.23032431598836 -110.49156935995421 0.0 0.0
730.0107083797428 68.5536503632697 385.21380674115863 -107.12095495950527 0.0 0.0
781.8174389224926 88.75381169026595 425.5592819786447 -103.90158447707928 0.0 0.0
831.4100034557837 108.14252066319614 462.29539417693337 -101.2826074669898 0.0 0.0
876.6381648658984 124.00344280797313 493.7684052844689 -98.89243755090361 0.0 0.0
916.2422940624509 133.56366055348184 518.5208639428215 -96.5199399741832 0.0 0.0
949.1766007799504 139.8210019972915 538.252146334294 -92.60586925901949 0.0 0.0
976.1736725643053 139.73226171529495 551.8760003328208 -86.86382478765282 0.0 0.0
990.7606107280178 130.08508122702622 554.7560040152774 -76.45906995841477 0.0 0.0
983.0455357519927 102.16092105228208 537.4329930696792 -56.53291615731861 0.0 0.0
785.8022396972358 -98.53704963742518 345.3762671113067 6.365930005358678e-11 0.0 0.0
983.0455357518939 102.1609210522543 537.4329930696102 56.5329161575158 0.0 0.0
990.7606107280392 130.0850812271315 554.7560040153281 76.45906995859508 0.0 0.0
976.173672564855 139.73226171590997 551.8760003331722 86.86382478777003 0.0 0.0
949.1766007790627 139.82100199650247 538.252146333642 92.60586925907637 0.0 0.0
916.2422940631739 133.56366055434285 518.5208639433648 96.51993997430324 0.0 0.0
876.638164865639 124.00344280782102 493.7684052842347 98.8924375509435 0.0 0.0
831.4100034556158 108.14252066318615 462.29539417678006 101.28260746705683 0.0 0.0
781.8174389219066 88.75381168978095 425.5592819781806 103.9015844770937 0.0 0.0
730.0107083793632 68.55365036308103 385.21380674090415 107.12095495953243 0.0 0.0
678.5977815988125 51.81606809045738 343.23032431555174 110.49156935994094 0.0 0.0
622.9607131900073 39.205753681919575 296.40836243606765 112.91787347409092 0.0 0.0
566.3998977677153 25.386935455241982 240.43350132830975 117.99686732023585 0.0 0.0
485.95775243872174 17.332035078661022 179.1877756466621 119.59202531433624 0.0 0.0
393.2394529334225 2.0169608773508014 121.83169462244884 127.62843257744092 0.0 0.0
286.7443974553383 -1.5092320200135596 85.06725995359123 126.9395069855289 0.0 0.0
205.1926511951991 6.283685654130188 63.45016355900188 119.72943191197635 0.0 0.0
133.0273892593832 19.09296047719943 45.636104920974795 114.13534252259284 0.0 0.0
66.36111731203746 19.048055805374716 25.622751935223647 126.06170517449729 0.0 0.0
169.43486356634475 -4.287869467096112 62.68813252207954 190.4906441110263 0.0 0.0
-357.3254768752295 -933.1489593947707 -487.26660314307213 65.89291286128636 0.0 0.0
-247.85382830869554 -796.3939374261417 -362.6386628765333 -80.94551900881184 0.0 0.0
111.99515340956962 -39.927008970949686 27.531785448497594 -187.91345358428003 0.0 0.0
38.81235952458198 11.204083088477697 15.004963559568655 -143.36574567833915 0.0 0.0
90.3611775712 20.49320735127084 33.25631547674125 -131.34037231836265 0.0 0.0
149.4364709724673 9.008473474628088 47.53303761516398 -135.34097855802878 0.0 0.0
213.72561341813085 -0.3865305439433093 63.84738513877181 -144.28196207980085 0.0 0.0
302.43056679514217 -2.0497371939547464 89.52513949119911 -151.69971584529804 0.0 0.0
398.8613909936679 5.586703484120168 131.18871182635448 -143.9995148491312 0.0 0.0
486.82182332315716 17.687841290080833 186.66446823210623 -136.69272057513493 0.0 0.0
557.2974602725639 24.687020380670447 240.6667721545264 -132.8775049029983 0.0 0.0
611.4222529679976 35.993976633665845 288.9582665452605 -126.79685332342449 0.0 0.0
660.4277987942945 48.65563516462407 330.82965956727674 -122.58307850201018 0.0 0.0
708.7726925726937 64.04142499277448 369.63682989808683 -119.13580908806247 0.0 0.0
753.498152667425 78.83750099763024 403.7689002420058 -116.17753099349119 0.0 0.0
795.3598324161657 91.1281512769967 433.07403064851195 -113.6479032047153 0.0 0.0
832.5988245062747 100.24283643404057 457.113149829296 -111.18465517793763 0.0 0.0
865.761385268096 104.80335892429942 476.46180847436096 -107.42112978729718 0.0 0.0
896.0573407556703 108.11696243553727 493.43106293851054 -101.05208757215212 0.0 0.0
919.3418843224667 106.51473706165177 504.73929974732346 -90.36824178277547 0.0 0.0
916.9532652143657 79.83361933382548 491.04804253788654 -69.58282202790335 0.0 0.0
660.5667538388003 -178.85313142716612 244.17967948026595 5.583444817602867e-11 0.0 0.0
916.9532652143292 79.8336193338747 491.04804253787034 69.58282202812737 0.0 0.0
919.3418843222202 106.51473706151987 504.73929974718106 90.36824178297523 0.0 0.0
896.0573407557428 108.11696243567744 493.4310629385936 101.05208757235073 0.0 0.0
865.761385267395 104.80335892368049 476.46180847376644 107.4211297873867 0.0 0.0
832.598824506461 100.24283643435172 457.1131498294538 111.18465517800824 0.0 0.0
795.3598324162696 91.12815127723167 433.0740306485631 113.64790320477516 0.0 0.0
753.4981526669422 78.83750099721588 403.76890024164993 116.17753099349521 0.0 0.0
708.7726925720635 64.04142499224368 369.636829897612 119.13580908805797 0.0 0.0
660.4277987942967 48.65563516493144 330.8296595672863 122.58307850213522 0.0 0.0
611.422252967573 35.99397663338617 288.9582665448744 126.79685332344651 0.0 0.0
557.2974602725652 24.687020380965052 240.66677215446828 132.87750490295429 0.0 0.0
486.8218233228179 17.68784129010032 186.66446823184629 136.69272057516807 0.0 0.0
398.86139099339726 5.5867034842151275 131.18871182620504 143.99951484913151 0.0 0.0
302.43056679476405 -2.0497371938601545 89.52513949112064 151.69971584516233 0.0 0.0
213.72561341799437 -0.3865305436849482 63.84738513882127 144.28196207957242 0.0 0.0
149.43647097233264 9.008473474547984 47.533037615096596 135.34097855784262 0.0 0.0
90.36117757120927 20.493207351430307 33.256315476791855 131.34037231816464 0.0 0.0
38.81235952452357 11.204083088449574 15.00496355954261 143.36574567814677 0.0 0.0
111.99515340924863 -39.92700897109684 27.531785448320722 187.9134535840481 0.0 0.0
-247.8538283080808 -796.3939374251908 -362.6386628757742 80.94551900889356 0.0 0.0
-174.8763486709134 -661.399238651047 -271.33152296477533 -92.4555352044266 0.0 0.0
62.47359610255514 -66.48916170378618 1.3803618878562283 -179.30073502042933 0.0 0.0
13.111235409055887 5.459630978468188 5.572591030400115 -156.0083534568452 0.0 0.0
49.50056730239583 20.46216241571847 20.989180376315108 -145.31008515289525 0.0 0.0
93.81275751603592 11.446706351290825 31.576921683694014 -147.95005872635863 0.0 0.0
140.65818032587845 2.3856886831038855 42.930679857774 -157.09782378968782 0.0 0.0
201.91195982756665 -1.855717967601966 59.49415572018251 -170.3663540619845 0.0 0.0
286.6729019922399 -4.503225024067287 84.48476803478005 -174.1255925838266 0.0 0.0
375.91852616316186 0.7088480750591706 122.22640726130558 -162.28190463607768 0.0 0.0
454.0466487549563 9.435940268924698 168.0343062874063 -150.95018871723104 0.0 0.0
515.9005299064985 18.91298486280199 214.36927068538768 -141.99059918694243 0.0 0.0
567.2349760306812 26.509364789262236 254.8749246556966 -136.6864907017334 0.0 0.0
613.5389996948813 38.49175301378017 293.65001974322524 -133.11365534682548 0.0 0.0
654.4453343551327 48.73325303155062 326.96048717632726 -130.20542306277076 0.0 0.0
692.4562943746548 57.66523255253682 355.62106788043485 -127.73029609688774 0.0 0.0
727.6537339634096 64.72686759900166 379.6017477337528 -125.5731088719899 0.0 0.0
761.4164468867292 70.42670215600748 401.089108736293 -122.07307551919554 0.0 0.0
792.3193938003056 73.58220063819664 419.1864949034831 -115.28088968606687 0.0 0.0
825.048936352527 77.89132452105011 438.3635618538457 -104.38220195799254 0.0 0.0
839.3184115374421 62.55148413104907 439.30154645969645 -85.68270966549467 0.0 0.0
508.3669586637494 -264.36150511687504 127.97717781016115 3.929301328753354e-11 0.0 0.0
839.3184115375942 62.551484131334604 439.3015464598732 85.68270966571055 0.0 0.0
825.048936351573 77.89132452017765 438.36356185317635 104.38220195823564 0.0 0.0
792.3193938001301 73.58220063818968 419.18649490337634 115.28088968634839 0.0 0.0
761.4164468860199 70.4267021553366 401.0891087357019 122.07307551932884 0.0 0.0
727.6537339634802 64.72686759925023 379.60174773380095 125.57310887208169 0.0 0.0
692.4562943743574 57.66523255225211 355.6210678802111 127.73029609686463 0.0 0.0
654.4453343545297 48.733253030993126 326.9604871758711 130.20542306277076 0.0 0.0
613.5389996945049 38.491753013489436 293.6500197429448 133.11365534688974 0.0 0.0
567.234976030785 26.509364789683865 254.8749246557237 136.68649070181976 0.0 0.0
515.9005299061462 18.912984862614266 214.36927068507381 141.9905991869086 0.0 0.0
454.0466487543313 9.435940268346094 168.0343062869296 150.9501887170525 0.0 0.0
375.91852616268966 0.7088480750004473 122.2264072610865 162.2819046361774 0.0 0.0
286.6729019917154 -4.503225024340857 84.48476803453373 174.1255925837802 0.0 0.0
201.9119598274941 -1.8557179671386637 59.49415572030923 170.36635406181358 0.0 0.0
140.65818032571744 2.385688682959313 42.93067985768299 157.0978237894707 0.0 0.0
93.81275751600523 11.44670635131449 31.576921683692056 147.95005872621894 0.0 0.0
49.500567302415355 20.46216241583145 20.989180376354728 145.31008515274038 0.0 0.0
13.111235409017599 5.459630978448315 5.572591030382596 156.0083534566867 0.0 0.0
62.47359610224797 -66.48916170381565 1.3803618877309005 179.3007350201393 0.0 0.0
-174.8763486704689 -661.3992386502559 -271.3315229642498 92.455535204483 0.0 0.0
-122.5974855442398 -550.7287899330082 -204.32240631593646 -107.7836790142538 0.0 0.0
20.871791566559956 -81.22523193781119 -17.772481486486548 -165.95650631105735 0.0 0.0
-10.590371135143174 1.6148098307876062 -2.6923493587659664 -164.06455025598495 0.0 0.0
10.212710606501034 19.536007112841382 8.924779117908782 -155.5798381696814 0.0 0.0
38.77932793296023 13.509542180332854 15.687653148157407 -157.01788219408732 0.0 0.0
67.44838425777353 5.313086398589897 21.80890670581259 -166.47627867167034 0.0 0.0
99.93634166767325 0.22336834898474067 29.89873775496849 -180.40739995288877 0.0 0.0
142.96005048851416 -1.267811659103217 42.57045175410262 -186.39971419497562 0.0 0.0
206.09444590495642 -3.5279840120213937 60.83861695524642 -184.86804938562577 0.0 0.0
278.4053809286724 -10.149615024170643 82.53043466731623 -176.38544556048984 0.0 0.0
348.12307800546085 -15.121412833629174 106.60933345769642 -169.16875362009725 0.0 0.0
406.39770348574274 -16.065564588134407 132.24601210389778 -158.27066524591814 0.0 0.0
451.34321009561916 -7.3355005359843695 161.2594968863008 -150.6917729279047 0.0 0.0
490.3049299619762 3.1908115655826528 190.14378352250884 -145.25006243790946 0.0 0.0
524.8161234067999 17.811824169096553 219.7407994836563 -142.3037446493739 0.0 0.0
558.4935341653003 27.767277368842954 248.311953344272 -143.55921530226647 0.0 0.0
593.495236410153 34.09926016400032 277.0075668873519 -142.90539014743953 0.0 0.0
628.7354462945889 36.2849008376933 302.9313434400589 -136.01280808582922 0.0 0.0
664.4618537371856 33.68529820281946 324.62232774107343 -122.79845167702119 0.0 0.0
715.0439877340086 43.56444435988995 358.104509694355 -106.3723233724058 0.0 0.0
296.80577219019517 -356.2164720843904 -17.608234701204736 4.234834705130197e-11 0.0 0.0
715.0439877340547 43.56444436018802 358.10450969447254 106.37232337262446 0.0 0.0
664.4618537363 33.68529820190478 324.62232774044605 122.79845167730055 0.0 0.0
628.73544629484 36.28490083804027 302.9313434402475 136.01280808619026 0.0 0.0
593.4952364098282 34.099260163739885 277.00756688709134 142.90539014751272 0.0 0.0
558.4935341650717 27.7672773686009 248.31195334415776 143.5592153022657 0.0 0.0
524.8161234067273 17.811824169060195 219.74079948357686 142.30374464928053 0.0 0.0
490.30492996166754 3.1908115652351317 190.14378352227243 145.25006243793246 0.0 0.0
451.3432100956415 -7.335500535775191 161.25949688629458 150.69177292797696 0.0 0.0
406.39770348542777 -16.065564588376958 132.24601210370363 158.27066524594665 0.0 0.0
348.12307800553936 -15.121412833034984 106.60933345785065 169.1687536201324 0.0 0.0
278.40538092853996 -10.149615023792647 82.53043466737492 176.38544556035177 0.0 0.0
206.09444590468593 -3.5279840120600143 60.83861695515005 184.8680493856194 0.0 0.0
142.960050488096 -1.267811659620576 42.57045175382158 186.39971419491664 0.0 0.0
99.93634166767781 0.22336834919783333 29.898737755035924 180.40739995271653 0.0 0.0
67.44838425767107 5.313086398408794 21.80890670572774 166.47627867140724 0.0 0.0
38.779327932948355 13.509542180328936 15.687653148152798 157.01788219394783 0.0 0.0
10.212710606484727 19.536007112852044 8.92477911790705 155.57983816951128 0.0 0.0
-10.590371135111084 1.6148098308176193 -2.6923493587475846 164.06455025582775 0.0 0.0
20.871791566470332 -81.225231937838 -17.772481486527546 165.95650631089808 0.0 0.0
-122.59748554405373 -550.7287899323268 -204.32240631564054 107.78367901417323 0.0 0.0
-101.37972027161649 -438.8229543683376 -162.29104817802738 -105.44055605295068 0.0 0.0
-6.474821206297136 -91.20765137359322 -29.275095718533205 -156.26245142449358 0.0 0.0
-32.36617018526484 -1.5110266606723444 -10.15969729927639 -168.18038679183695 0.0 0.0
-27.373054603405233 18.314429693887483 -2.7168625223143623 -161.86452040580082 0.0 0.0
-15.381261856340199 15.063629197581548 -0.09486185929522906 -162.1632885017244 0.0 0.0
-6.338603978411534 8.292717579341394 0.5871311329224032 -170.460257974779 0.0 0.0
-2.246362066133809 2.260915354923443 -0.0011905545179979882 -184.52045274525108 0.0 0.0
-0.3906042726482397 0.3604119343690626 -0.00782670761047033 -190.764849326588 0.0 0.0
0.03366800040240747 -0.15201366704223762 -0.034880547341833434 -189.69524874525536 0.0 0.0
0.1515054175647137 -0.040356321984148735 0.03705529463580781 -180.1660193139538 0.0 0.0
0.17015044814282732 -0.15356147986455682 -0.04283212582173235 -173.5804374521763 0.0 0.0
-0.28276191146750307 0.2167507234622814 0.005859548771177003 -169.14830383224387 0.0 0.0
-1.391559236371421 0.8271961355758588 -0.0624612967505378 -168.48748820016797 0.0 0.0
-2.7380549575963187 1.6170573645022692 -0.1450862510276636 -166.20624786074626 0.0 0.0
1.7186063653439874 0.5101608317783111 0.7012891572425488 -161.85547204563343 0.0 0.0
14.040296837424307 3.3881541980652585 2.6405320913592902 -152.87891046177614 0.0 0.0
45.853909561984366 9.863416528534827 7.22044753174157 -146.21390741650774 0.0 0.0
129.5411559672408 5.094090985768645 17.06496435236292 -142.20771745627343 0.0 0.0
289.70269692939365 -54.87323554657236 35.108119162068256 -138.314072714046 0.0 0.0
434.16794389770365 -40.38431836303054 137.56999752404136 -143.59231504897915 0.0 0.0
-213.29814856530385 -515.529927243789 -297.55330084193025 2.5622171051509213e-11 0.0 0.0
434.1679438976872 -40.38431836326352 137.56999752397303 143.59231504914658 0.0 0.0
289.7026969294611 -54.87323554608639 35.108119162228704 138.31407271446386 0.0 0.0
129.54115596753482 5.094090986258365 17.064964352684854 142.20771745677249 0.0 0.0
45.853909561863084 9.86341652811317 7.220447531569199 146.2139074167044 0.0 0.0
14.040296837576243 3.3881541983211108 2.640532091469609 152.87891046173473 0.0 0.0
1.718606365769645 0.5101608320354885 0.7012891574818525 161.85547204570042 0.0 0.0
-2.738054957618111 1.6170573638289767 -0.1450862512553428 166.20624786079355 0.0 0.0
-1.3915592358166151 0.8271961361324074 -0.062461296415566636 168.48748820033697 0.0 0.0
-0.2827619114626643 0.21675072280502228 0.005859548572654916 169.14830383217983 0.0 0.0
0.17015044876466945 -0.1535614788819526 -0.04283212532983249 173.58043745214428 0.0 0.0
0.15150541802453787 -0.040356321242470905 0.037055294999117194 180.16601931387189 0.0 0.0
0.03366800063475495 -0.15201366674539507 -0.03488054718166467 189.69524874525712 0.0 0.0
-0.3906042726226122 0.3604119342004788 -0.007826707652858644 190.76484932649743 0.0 0.0
-2.2463620660445667 2.2609153550218015 -0.0011905544619010833 184.52045274508254 0.0 0.0
-6.338603978221818 8.292717579588524 0.5871311330534139 170.4602579745587 0.0 0.0
-15.38126185633618 15.063629197378201 -0.09486185935514291 162.16328850157748 0.0 0.0
-27.373054603396216 18.31442969377292 -2.7168625223463194 161.86452040559632 0.0 0.0
-32.366170185218 -1.5110266605949416 -10.159697299239394 168.18038679167432 0.0 0.0
-6.474821206373381 -91.20765137365083 -29.2750957185694 156.26245142433345 0.0 0.0
-101.37972027153405 -438.82295436773853 -162.29104817785557 105.44055605275821 0.0 0.0
-83.16700028231953 -345.4214250638222 -128.58292813000025 -98.84582203226293 0.0 0.0
-24.41245788826196 -93.44125813509099 -35.35537500024287 -147.0923198060652 0.0 0.0
-52.50155181347582 -4.233232154387969 -17.021170634632853 -168.22669050401265 0.0 0.0
-63.181178312325656 16.96959639767651 -13.861931380926745 -164.05091927979498 0.0 0.0
-68.37560847329691 15.979045027746281 -15.718695396473265 -163.09660369120013 0.0 0.0
-79.13037243269835 11.024338675214466 -20.446494089284734 -168.89019040809129 0.0 0.0
-104.60366404669509 4.534081813069408 -29.777473832915746 -182.5546502570307 0.0 0.0
-143.86627277450305 1.8549656078720091 -42.67219996802535 -186.63033624462844 0.0 0.0
-205.8864503673177 3.1711266975602816 -60.90143273550122 -184.813562404151 0.0 0.0
-278.1608366965038 10.053520570491147 -82.47122065983828 -176.364645206974 0.0 0.0
-348.4055969266113 15.360040623058104 -106.43950933282092 -169.23520173185307 0.0 0.0
-406.44825620124584 16.13104606220325 -132.33802220731548 -158.29204391382117 0.0 0.0
-451.9685348063146 7.485314671843337 -161.70906010356674 -150.21423772078447 0.0 0.0
-491.181802003198 -2.8481391401601144 -190.68669601185937 -144.59209038859484 0.0 0.0
-523.6172192909715 -14.117466159632286 -217.38695141747354 -142.37638764889581 0.0 0.0
-548.0445699691008 -16.57777011400941 -234.46669533709934 -145.0311644644122 0.0 0.0
-560.2972884547394 -12.479745303298714 -238.10279431228344 -151.13855715846907 0.0 0.0
-559.0557931593204 1.3551215101956586 -222.1790784226091 -162.08055685933368 0.0 0.0
-546.5673853644953 30.020324647418477 -187.08321498299665 -167.20153821802006 0.0 0.0
-338.64311763176687 37.27596003167952 -100.22684129004553 -109.8313960217989 0.0 0.0
-714.015479417563 -714.4427317015869 -691.8594581813105 -8.931522188504459e-11 0.0 0.0
-338.6431176318289 37.275960031249255 -100.22684129013831 109.83139602225555 0.0 0.0
-546.5673853637784 30.020324648284586 -187.08321498254367 167.20153821837064 0.0 0.0
-559.0557931586864 1.3551215107928272 -222.17907842218983 162.08055685950873 0.0 0.0
-560.2972884550475 -12.479745303981169 -238.10279431257294 151.13855715856738 0.0 0.0
-548.0445699687725 -16.57777011357264 -234.46669533680392 145.03116446440788 0.0 0.0
-523.617219290522 -14.117466159235033 -217.3869514171244 142.3763876489038 0.0 0.0
-491.1818020033962 -2.8481391406611003 -190.68669601200003 144.59209038867215 0.0 0.0
-451.9685348059535 7.485314672089654 -161.7090601032653 150.21423772084026 0.0 0.0
-406.4482562009256 16.131046061970316 -132.33802220720702 158.2920439138804 0.0 0.0
-348.40559692577716 15.360040623529322 -106.43950933238249 169.23520173180668 0.0 0.0
-278.1608366959048 10.053520570453035 -82.47122065964905 176.36464520693028 0.0 0.0
-205.88645036671068 3.17112669783727 -60.9014327352396 184.81356240414564 0.0 0.0
-143.86627277416724 1.854965607870401 -42.67219996792085 186.63033624462477 0.0 0.0
-104.60366404650007 4.534081812970779 -29.77747383288878 182.55465025683543 0.0 0.0
-79.1303724325269 11.024338675283346 -20.446494089215644 168.8901904078536 0.0 0.0
-68.37560847328116 15.979045027598964 -15.718695396512473 163.09660369108315 0.0 0.0
-63.18117831228675 16.969596397602402 -13.861931380937788 164.0509192796112 0.0 0.0
-52.50155181340654 -4.23323215424044 -17.021170634568172 168.2266905038452 0.0 0.0
-24.412457888364607 -93.44125813519706 -35.355375000305344 147.09231980594228 0.0 0.0
-83.16700028223944 -345.421425063411 -128.58292812985127 98.845822032151 0.0 0.0
-67.05530272618901 -264.6521828095474 -99.51224566072091 -88.81416026658697 0.0 0.0
-37.587712153626825 -90.17308771959472 -38.32831622259345 -136.86307250941334 0.0 0.0
-71.0531566592049 -6.202723765769321 -23.17719192343814 -164.35250610929253 0.0 0.0
-97.30058339132889 15.40470214286869 -24.57062471275903 -162.0509832560735 0.0 0.0
-119.87463801797222 16.270168994626623 -31.079637483682326 -159.6651810015694 0.0 0.0
-151.58660710897124 13.51975461248636 -41.26103479849093 -164.17531401634136 0.0 0.0
-204.0245735767778 5.2992171501874346 -59.48078500750432 -169.3409990035237 0.0 0.0
-287.04068020675606 4.875151319441176 -84.55152079438125 -174.3819546714016 0.0 0.0
-375.8830951694006 -1.044033699258625 -122.30753795652187 -162.26292093344355 0.0 0.0
-453.99232218514464 -9.531997788167928 -168.0128225773384 -150.9059039182015 0.0 0.0
-515.8024459863904 -18.847993632110505 -214.31239346003207 -141.9501149565698 0.0 0.0
-567.2180051808357 -26.387111373999222 -254.8766104804 -136.5682278895624 0.0 0.0
-613.9085492456227 -38.340466840361394 -293.8709459903378 -132.6066058876092 0.0 0.0
-654.9852162518156 -48.12394049230407 -327.09129167913454 -129.30342546166548 0.0 0.0
-691.1415877480918 -55.04162550582383 -353.7933824151574 -127.30303660432759 0.0 0.0
-717.9168764270828 -55.66177628710268 -370.447772511968 -127.82674878485483 0.0 0.0
-731.2150533241391 -48.594924831267946 -375.15473731916995 -132.0359074584448 0.0 0.0
-729.8736283354383 -37.76799144751365 -369.954753717422 -140.58574990446525 0.0 0.0
-705.2994883062672 -14.098550837610972 -347.5551653802962 -150.21161534917943 0.0 0.0
-677.0338158507353 0.29876898243735184 -326.4328285984894 -150.44096260395767 0.0 0.0
-1386.9610579279051 -963.4349465526269 -1120.1239584965674 2.859223968698643e-11 0.0 0.0
-677.0338158506943 0.29876898228918947 -326.43282859852496 150.44096260426173 0.0 0.0
-705.299488306449 -14.098550838036061 -347.55516538048585 150.21161534948317 0.0 0.0
-729.8736283353046 -37.76799144748193 -369.95475371731385 140.58574990468236 0.0 0.0
-731.2150533239378 -48.594924831192344 -375.15473731905087 132.03590745847524 0.0 0.0
-717.9168764273339 -55.66177628747186 -370.4477725121288 127.8267487849044 0.0 0.0
-691.1415877475704 -55.04162550535801 -353.79338241472817 127.30303660430383 0.0 0.0
-654.98521625145 -48.123940492114144 -327.0912916788576 129.30342546165693 0.0 0.0
-613.9085492453248 -38.34046684027945 -293.87094599009356 132.6066058876988 0.0 0.0
-567.2180051804758 -26.38711137390454 -254.87661048009736 136.56822788953625 0.0 0.0
-515.8024459862223 -18.84799363226498 -214.31239345987024 141.9501149565612 0.0 0.0
-453.99232218462305 -9.531997788067317 -168.01282257698384 150.90590391816147 0.0 0.0
-375.8830951686051 -1.0440336988489043 -122.3075379560741 162.2629209334841 0.0 0.0
-287.0406802060072 4.875151319846725 -84.55152079402899 174.38195467135003 0.0 0.0
-204.02457357643385 5.2992171501206675 -59.480785007426356 169.3409990033528 0.0 0.0
-151.58660710874466 13.519754612440071 -41.26103479843644 164.17531401618217 0.0 0.0
-119.87463801780575 16.2701689946592 -31.079637483623785 159.665181001428 0.0 0.0
-97.3005833912251 15.404702142880838 -24.570624712724833 162.0509832558389 0.0 0.0
-71.0531566590656 -6.202723765598244 -23.17719192334509 164.35250610916466 0.0 0.0
-37.58771215363961 -90.17308771964713 -38.328316222612926 136.86307250931404 0.0 0.0
-67.05530272608982 -264.65218280922744 -99.51224566059517 88.81416026649788 0.0 0.0
-54.00542589016656 -195.77115558039173 -74.93297444116749 -77.73048453510044 0.0 0.0
-47.85899918395784 -82.73472008424069 -39.17811578045955 -124.83641502765363 0.0 0.0
-88.42856509298565 -7.34924953863476 -28.734348876781482 -156.5461960362758 0.0 0.0
-129.8606515620941 13.67973227323784 -34.85164105697801 -155.97413058223776 0.0 0.0
-169.86340298538008 15.859623605139607 -46.166468285133796 -152.05858684424564 0.0 0.0
-220.45317471901612 13.725357091895487 -62.04656596708328 -150.89765513179017 0.0 0.0
-305.385678264113 7.4910775720528875 -88.61298229641686 -155.96116342953536 0.0 0.0
-399.0533388593461 -5.6452380311368255 -131.30839605349252 -144.40765576993758 0.0 0.0
-486.8854919490222 -17.991083293329066 -186.73952911838134 -136.64676866585606 0.0 0.0
-557.3533690723715 -24.790383057787324 -240.71563410863644 -132.82746466222042 0.0 0.0
-611.2952112422187 -35.90182314085641 -288.8937532884563 -126.74491631602947 0.0 0.0
-660.3134016748436 -48.46648064548142 -330.7215139976241 -122.45927981239669 0.0 0.0
-708.9253513543007 -63.895928792835065 -369.67767812950115 -118.61939936719399 0.0 0.0
-754.1375038501783 -78.68380675395993 -404.07122753449244 -115.06190583189806 0.0 0.0
-795.1278578108517 -89.83796432013808 -432.3899798119324 -112.74538413744123 0.0 0.0
-825.6127502577457 -93.43898047512707 -450.47502098385127 -113.16088719446901 0.0 0.0
-840.762554146987 -85.20534632906548 -454.661853517307 -117.54944696218817 0.0 0.0
-832.5747033358789 -61.950431288438196 -440.006797099579 -125.48098138602535 0.0 0.0
-801.0130137795255 -26.03176884872505 -408.0002658980004 -133.3447727343461 0.0 0.0
-731.9698722223166 30.00855051307525 -350.9584417991533 -138.44465126694573 0.0 0.0
-1813.4177331969283 -1194.7145509398651 -1458.2226277057982 7.58433316150331e-11 0.0 0.0
-731.9698722224626 30.008550512657663 -350.95844179933965 138.4446512672728 0.0 0.0
-801.0130137798631 -26.03176884927639 -408.0002658982145 133.34477273466788 0.0 0.0
-832.5747033352807 -61.95043128797258 -440.00679709912856 125.48098138621256 0.0 0.0
-840.762554146954 -85.20534632906188 -454.6618535172944 117.5494469622349 0.0 0.0
-825.6127502574872 -93.43898047494316 -450.47502098365817 113.16088719440695 0.0 0.0
-795.1278578101138 -89.83796431947779 -432.38997981135066 112.74538413744202 0.0 0.0
-754.137503850045 -78.68380675394579 -404.0712275344103 115.06190583191662 0.0 0.0
-708.9253513536333 -63.895928792326885 -369.6776781290391 118.61939936717786 0.0 0.0
-660.3134016743735 -48.4664806451858 -330.72151399724856 122.45927981237169 0.0 0.0
-611.2952112422333 -35.901823141172216 -288.8937532884298 126.7449163160004 0.0 0.0
-557.3533690721672 -24.790383057925073 -240.71563410841952 132.82746466218214 0.0 0.0
-486.8854919483222 -17.991083293015517 -186.73952911789712 136.64676866588044 0.0 0.0
-399.0533388586641 -5.645238030722755 -131.30839605306392 144.4076557699415 0.0 0.0
-305.38567826343797 7.491077572236664 -88.61298229617061 155.9611634294182 0.0 0.0
-220.45317471866812 13.725357091821515 -62.046565967013876 150.89765513153185 0.0 0.0
-169.8634029851489 15.8596236053043 -46.16646828501365 152.05858684406292 0.0 0.0
-129.86065156194766 13.679732273256974 -34.851641056929076 155.97413058206405 0.0 0.0
-88.42856509283536 -7.349249538520541 -28.734348876701844 156.54619603617346 0.0 0.0
-47.858999183942444 -82.73472008420995 -39.17811578044571 124.83641502753454 0.0 0.0
-54.00542589013109 -195.7711555801918 -74.93297444109687 77.7304845350187 0.0 0.0
-44.158429344742565 -138.11226321048372 -54.681207766567894 -66.25084071998437 0.0 0.0
-56.215706769003056 -72.51401228368664 -38.61891571580689 -110.99277993491023 0.0 0.0
-104.88380362293938 -7.544846855366146 -33.729146158949966 -144.93411762467827 0.0 0.0
-160.98120531290812 11.652783075388825 -44.804605467247576 -145.65477934778937 0.0 0.0
-217.45363534321444 14.665307245833056 -60.8160757282133 -139.8442426047825 0.0 0.0
-292.3908646416407 14.89347643736437 -82.28418736342397 -137.23542138879304 0.0 0.0
-390.63142389736015 -0.07911593673917672 -121.43861977700635 -128.0154291628409 0.0 0.0
-485.86290788864886 -17.541105093462367 -179.19050893651792 -119.92861262368952 0.0 0.0
-566.5883369735307 -25.708812525203687 -240.58461879951267 -117.91213710905481 0.0 0.0
-623.0231145126236 -39.27421067576674 -296.48387100543846 -112.86575934025646 0.0 0.0
-678.4988998063006 -51.672838606516216 -343.14787990531966 -110.47042153358262 0.0 0.0
-729.7586529196853 -68.25453719603826 -384.97206239162523 -107.00410687670542 0.0 0.0
-781.62271859171 -88.41039013326653 -425.3081237180692 -103.42736296598432 0.0 0.0
-831.9934417282657 -108.24779886340905 -462.6611055489442 -100.13895135216303 0.0 0.0
-877.9718712039485 -124.55503662283864 -494.7265823251978 -97.7424853502572 0.0 0.0
-913.770185264231 -130.89612745301685 -516.1141843165792 -98.00910249504496 0.0 0.0
-928.116214720773 -121.64085958308229 -519.2218172106088 -101.35199256919002 0.0 0.0
-912.2021601713741 -86.67828648369199 -494.7482195255838 -108.03940600610242 0.0 0.0
-860.8785584520676 -27.77757737723509 -441.5227728802454 -115.64818713691903 0.0 0.0
-761.0433398130074 60.315603942354706 -352.75679578168484 -122.7662536291707 0.0 0.0
-2143.5835579573654 -1426.2741788230885 -1746.7573600458563 8.462208711534913e-11 0.0 0.0
-761.043339812793 60.315603942439495 -352.7567957815079 122.76625362937217 0.0 0.0
-860.8785584515207 -27.77757737679144 -441.5227728798888 115.64818713707191 0.0 0.0
-912.2021601705139 -86.67828648291328 -494.74821952496734 108.03940600627293 0.0 0.0
-928.1162147210183 -121.64085958343148 -519.2218172107854 101.35199256929505 0.0 0.0
-913.7701852635216 -130.896127452341 -516.1141843160568 98.00910249496869 0.0 0.0
-877.9718712031562 -124.55503662213118 -494.7265823245741 97.74248535025268 0.0 0.0
-831.9934417281739 -108.24779886350153 -462.6611055488745 100.1389513522154 0.0 0.0
-781.6227185913662 -88.4103901330815 -425.30812371783827 103.42736296602881 0.0 0.0
-729.7586529191869 -68.25453719575823 -384.97206239123653 107.00410687671634 0.0 0.0
-678.498899806236 -51.6728386066719 -343.1478799052454 110.47042153357724 0.0 0.0
-623.023114512295 -39.27421067570553 -296.4838710051288 112.86575934016349 0.0 0.0
-566.5883369729829 -25.70881252502312 -240.58461879904345 117.91213710906021 0.0 0.0
-485.86290788831536 -17.541105093590723 -179.19050893626394 119.92861262373039 0.0 0.0
-390.6314238967252 -0.07911593649357052 -121.43861977668706 128.01542916276833 0.0 0.0
-292.3908646412151 14.893476437319661 -82.28418736331922 137.23542138865471 0.0 0.0
-217.45363534287455 14.665307245993265 -60.81607572806806 139.8442426046303 0.0 0.0
-160.98120531272747 11.652783075379554 -44.804605467196524 145.65477934770757 0.0 0.0
-104.88380362287573 -7.544846855409823 -33.72914615894371 144.93411762458604 0.0 0.0
-56.21570676896101 -72.51401228359911 -38.61891571576803 110.99277993481057 0.0 0.0
-44.15842934469996 -138.112263210329 -54.68120776650867 66.25084071996383 0.0 0.0
-37.28043135121047 -91.26615147589189 -38.563974848130705 -54.526551074226724 0.0 0.0
-63.111875931094076 -60.69349061919247 -37.141609965085955 -95.46327536625162 0.0 0.0
-120.50529194340149 -6.828924302024884 -38.200559243306095 -129.6421467838269 0.0 0.0
-190.78663073413858 9.48477989747338 -54.39459682467408 -131.32081453975647 0.0 0.0
-262.5442913932055 12.300629084585701 -75.1591337631648 -123.18731652885816 0.0 0.0
-360.4409421565478 11.290886341109388 -104.21911627941768 -116.22899244369562 0.0 0.0
-462.55141631725365 -9.908322348160807 -156.4741820966021 -102.60896475793888 0.0 0.0
-555.3482095188771 -23.550375409484346 -222.53766319025016 -99.38562535007392 0.0 0.0
-616.839891699473 -36.870510745035716 -285.7302514584619 -96.37283243786321 0.0 0.0
-677.3950702466734 -48.97762630449573 -338.9110075173545 -95.71261844929928 0.0 0.0
-732.5011979078853 -66.62572910951417 -385.4602785644097 -93.58379417183663 0.0 0.0
-787.4426640770563 -88.04060180551119 -428.9335449099651 -90.71012555760873 0.0 0.0
-843.6289555118518 -112.6574404215309 -471.9024854536 -87.69124594288468 0.0 0.0
-898.5706205672175 -136.5352274873291 -512.442147458904 -84.8539881231457 0.0 0.0
-949.8834337965509 -157.74584569446102 -548.9970056787104 -82.6471245388409 0.0 0.0
-990.3294747986919 -169.28396467298154 -575.1261539161873 -82.06630080691546 0.0 0.0
-1005.3697832410271 -156.62319181284934 -576.7723911712271 -84.32406255994243 0.0 0.0
-978.6887127008175 -109.75036860493243 -540.9477392835316 -89.58629556131996 0.0 0.0
-904.0225914636575 -26.83602991503112 -463.9851071709244 -97.06512373636774 0.0 0.0
-776.7999010768942 89.15578228216916 -346.78804771450655 -108.03030273266218 0.0 0.0
-2437.0406009991734 -1655.6375744801262 -2013.744007146797 7.413447633553005e-11 0.0 0.0
-776.7999010765666 89.1557822823846 -346.78804771420016 108.03030273289137 0.0 0.0
-904.0225914632797 -26.836029914729068 -463.9851071707501 97.06512373655673 0.0 0.0
-978.6887127008048 -109.7503686050321 -540.9477392835104 89.5862955614942 0.0 0.0
-1005.3697832409662 -156.6231918128734 -576.7723911711673 84.3240625600355 0.0 0.0
-990.3294747982512 -169.2839646726154 -575.1261539158253 82.06630080688988 0.0 0.0
-949.883433796054 -157.74584569406113 -548.9970056783246 82.64712453885599 0.0 0.0
-898.5706205665258 -136.5352274867649 -512.4421474583642 84.85398812317237 0.0 0.0
-843.628955512249 -112.65744042211591 -471.9024854538883 87.69124594292492 0.0 0.0
-787.4426640766469 -88.04060180528151 -428.9335449096141 90.71012555759427 0.0 0.0
-732.501197907683 -66.62572910954422 -385.46027856422336 93.58379417180232 0.0 0.0
-677.3950702460558 -48.97762630408847 -338.91100751687173 95.71261844926856 0.0 0.0
-616.8398916989212 -36.87051074470185 -285.7302514579531 96.37283243777128 0.0 0.0
-555.3482095184728 -23.550375409458912 -222.53766318988124 99.3856253500709 0.0 0.0
-462.5514163166699 -9.908322347897277 -156.4741820962091 102.60896475787948 0.0 0.0
-360.44094215605054 11.290886340982302 -104.21911627931144 116.22899244367157 0.0 0.0
-262.5442913929191 12.300629084540802 -75.15913376309565 123.18731652878488 0.0 0.0
-190.786630733955 9.484779897435022 -54.394596824630426 131.32081453966364 0.0 0.0
-120.50529194333123 -6.828924302159973 -38.2005592433254 129.6421467837507 0.0 0.0
-63.11187593097446 -60.69349061904647 -37.14160996500628 95.46327536615836 0.0 0.0
-37.28043135112646 -91.2661514757892 -38.56397484807471 54.5265510741333 0.0 0.0
-32.971094195667 -55.06500330772056 -26.410829251016267 -42.654617066761006 0.0 0.0
-68.56706164990602 -48.20366993976934 -35.0312194769026 -78.4013682448565 0.0 0.0
-135.2683904112987 -5.477975591889156 -42.22390980095635 -110.78393882942726 0.0 0.0
-219.2260877380795 7.354056431220275 -63.5674925349833 -112.84024452656791 0.0 0.0
-309.17053373015364 9.432721401938938 -89.57668346766727 -103.9303113406778 0.0 0.0
-415.47992594597815 -0.5896941373448223 -129.19462121888918 -87.85821469734768 0.0 0.0
-525.2185182497738 -16.204789038565856 -190.66095338264014 -79.82257822166778 0.0 0.0
-598.1751467050883 -31.58569572044986 -260.684707804467 -78.17118306231943 0.0 0.0
-662.2029771286807 -42.580919919530054 -321.2491261625632 -78.28322442952592 0.0 0.0
-721.0269630122074 -59.646682184302996 -373.6288520048019 -77.59643809691973 0.0 0.0
-779.1073524447247 -81.53411519749275 -420.960305326286 -76.16736963145159 0.0 0.0
-838.303314833614 -107.53995230464764 -467.08228330292616 -73.97077624564172 0.0 0.0
-898.866240130784 -136.13947903500184 -513.1873187935865 -71.53541611095388 0.0 0.0
-957.5991824286643 -164.98892696115053 -557.5312261426759 -69.18697280750418 0.0 0.0
-1012.8493719619997 -189.13834583695083 -597.272815491796 -67.2579905943882 0.0 0.0
-1058.2862999671288 -204.26319147063236 -627.529232811646 -66.13998084487504 0.0 0.0
-1076.133657524042 -194.53638147804216 -631.9795944062141 -66.5123507364977 0.0 0.0
-1040.2708655848492 -136.51607319401032 -586.0170818066292 -70.19498313905635 0.0 0.0
-940.8493245280439 -27.065178824004846 -483.25462954614227 -78.7107137392843 0.0 0.0
-780.298503420672 121.47975399627524 -332.2080876128409 -94.9214373476924 0.0 0.0
-2705.154713484714 -1877.096504771979 -2263.2333503200866 2.312816604899126e-12 0.0 0.0
-780.2985034208915 121.47975399596717 -332.208087612956 94.92143734784845 0.0 0.0
-940.8493245281434 -27.06517882420232 -483.2546295462867 78.71071373950643 0.0 0.0
-1040.2708655850613 -136.51607319429172 -586.017081806731 70.1949831391697 0.0 0.0
-1076.1336575237235 -194.53638147779816 -631.9795944059254 66.51235073651188 0.0 0.0
-1058.2862999667007 -204.2631914703051 -627.5292328112622 66.13998084490385 0.0 0.0
-1012.8493719619919 -189.13834583705122 -597.2728154917748 67.25799059443221 0.0 0.0
-957.5991824279886 -164.9889269606 -557.531226142107 69.18697280754304 0.0 0.0
-898.8662401311537 -136.1394790355403 -513.1873187938323 71.53541611093077 0.0 0.0
-838.303314833059 -107.53995230428193 -467.0822833024951 73.97077624561517 0.0 0.0
-779.1073524444184 -81.53411519743432 -420.9603053260373 76.16736963149825 0.0 0.0
-721.0269630121142 -59.646682184482856 -373.6288520046634 77.59643809696195 0.0 0.0
-662.2029771282378 -42.58091991933729 -321.24912616215215 78.28322442949926 0.0 0.0
-598.1751467046086 -31.585695720290698 -260.6847078040211 78.17118306228092 0.0 0.0
-525.2185182492105 -16.204789038335775 -190.66095338219986 79.82257822161874 0.0 0.0
-415.47992594559923 -0.5896941375737961 -129.19462121879732 87.85821469728789 0.0 0.0
-309.17053372978177 9.432721402030495 -89.57668346753479 103.93031134060666 0.0 0.0
-219.22608773793067 7.354056431109586 -63.56749253497128 112.84024452641866 0.0 0.0
-135.26839041116244 -5.477975591827341 -42.22390980089692 110.78393882937078 0.0 0.0
-68.56706164981378 -48.203669939652336 -35.03121947683984 78.40136824474914 0.0 0.0
-32.9710941956481 -55.065003307687036 -26.41082925100054 42.65461706666122 0.0 0.0
-30.596147723296212 -29.434326353866815 -18.009142223148906 -30.906331266343106 0.0 0.0
-72.22313076366383 -35.84803041767402 -32.42134835440135 -60.00034457895189 0.0 0.0
-148.88674535263138 -3.8819571059541946 -45.83061073757568 -88.29809745462046 0.0 0.0
-246.65803727178127 5.250018357293991 -72.4262749975408 -90.18169923851045 0.0 0.0
-356.71090733837343 5.188757994914889 -104.5349484284364 -80.07966747878434 0.0 0.0
-473.5493003605704 -7.9587249216183125 -154.47737001968775 -63.33034694240523 0.0 0.0
-566.8059212165214 -23.986829367530788 -223.78610548768518 -58.80591892704862 0.0 0.0
-634.942876589166 -34.504337641904485 -291.2247293279925 -58.9204203537868 0.0 0.0
-698.2696432724215 -49.91593743401591 -351.1288369103429 -59.35357930408214 0.0 0.0
-758.8647260044942 -70.31823307831115 -402.9651739664116 -59.18074368242165 0.0 0.0
-820.1103934605102 -96.47512915636077 -451.977450539695 -58.25036532140728 0.0 0.0
-883.8284516495675 -126.96179868878298 -501.3720368342744 -56.67138048919957 0.0 0.0
-948.512284676458 -160.69787453405323 -551.485964601379 -54.728140945125794 0.0 0.0
-1011.4074076632053 -191.40388922641873 -598.5084534122013 -53.08385943934323 0.0 0.0
-1068.4753810040852 -217.9743442560943 -640.2721389026511 -51.607684270265615 0.0 0.0
-1116.6595516776986 -236.41991789689766 -673.4875111769384 -50.07261519745433 0.0 0.0
-1141.97975760084 -232.94368730127184 -684.605923391746 -48.71327917182656 0.0 0.0
-1105.4447703128458 -172.856919574319 -637.260466309544 -50.25201601308747 0.0 0.0
-979.9068884047274 -35.69212270896246 -507.56511884803723 -60.09346103859955 0.0 0.0
-770.7430873614258 162.2374847014344 -306.5597746545814 -82.27179239020478 0.0 0.0
-2948.35652016772 -2081.025485558057 -2491.054517228856 6.183853429320152e-11 0.0 0.0
-770.7430873614322 162.23748470136815 -306.55977465456533 82.2717923903046 0.0 0.0
-979.9068884046376 -35.692122708942314 -507.5651188480613 60.093461038784014 0.0 0.0
-1105.4447703128171 -172.85691957435355 -637.260466309469 50.25201601313327 0.0 0.0
-1141.979757600041 -232.94368730052926 -684.6059233911486 48.713279171846075 0.0 0.0
-1116.659551677417 -236.41991789671545 -673.4875111766694 50.072615197455406 0.0 0.0
-1068.4753810044358 -217.97434425656985 -640.2721389028525 51.60768427033229 0.0 0.0
-1011.4074076629425 -191.40388922627693 -598.508453411931 53.0838594393501 0.0 0.0
-948.5122846765842 -160.69787453436854 -551.4859646014698 54.72814094516797 0.0 0.0
-883.8284516490203 -126.96179868838051 -501.3720368338732 56.67138048914124 0.0 0.0
-820.110393460412 -96.47512915650611 -451.97745053960756 58.25036532143591 0.0 0.0
-758.8647260042179 -70.3182330782816 -402.9651739661994 59.180743682420605 0.0 0.0
-698.2696432721918 -49.915937434051536 -351.12883691008255 59.35357930408867 0.0 0.0
-634.9428765886704 -34.50433764166665 -291.2247293275334 58.92042035369883 0.0 0.0
-566.8059212160101 -23.986829367332817 -223.78610548724248 58.80591892700262 0.0 0.0
-473.5493003602316 -7.958724921755346 -154.4773700195141 63.33034694233237 0.0 0.0
-356.7109073378209 5.188757995140882 -104.53494842821732 80.07966747872848 0.0 0.0
-246.65803727162432 5.250018357121062 -72.42627499754457 90.18169923844953 0.0 0.0
-148.88674535246355 -3.8819571058587385 -45.83061073749668 88.29809745458333 0.0 0.0
-72.22313076362208 -35.84803041767738 -32.42134835438983 60.000344578910955 0.0 0.0
-30.596147723256305 -29.43432635383611 -18.009142223127718 30.906331266262075 0.0 0.0
-29.069146273975505 -14.144074750976515 -12.963966307485604 -19.984991257299058 0.0 0.0
-73.262491855333 -24.500639956280626 -29.328939543484083 -40.52236137275749 0.0 0.0
-160.901376516973 -2.621734276750644 -49.05693323811708 -61.78854445943956 0.0 0.0
-273.47175783225697 3.207446876776215 -81.07472037508327 -63.05431481604918 0.0 0.0
-398.91205698947766 -4.582609203328924 -122.08291275379943 -51.90928674222486 0.0 0.0
-520.805974440646 -15.61740409974424 -180.95760577411988 -40.12491058906934 0.0 0.0
-595.5403972038984 -28.551026254817348 -251.8640820677371 -38.533295794962314 0.0 0.0
-665.8657300182773 -39.31639814617051 -318.19611560950597 -39.743838836003235 0.0 0.0
-728.9719868335317 -57.69618074389645 -376.4535310689287 -40.31874895409164 0.0 0.0
-791.750952648713 -81.19539172511585 -428.3560355494603 -40.32985584990164 0.0 0.0
-857.1276910726244 -111.28343954478336 -479.87842755240473 -39.81675833049129 0.0 0.0
-924.9255365886016 -146.52027462126793 -532.9036909653657 -38.75383758443598 0.0 0.0
-994.4332401400345 -183.192270680923 -586.4775261649149 -37.53805353232477 0.0 0.0
-1060.374132961908 -218.46827399388786 -637.1528471882905 -36.408170483316304 0.0 0.0
-1119.2777852697054 -246.04676845983585 -680.3105131951116 -35.44667063777063 0.0 0.0
-1165.349134365855 -261.86108070873036 -711.144721492802 -34.12125634091306 0.0 0.0
-1194.9326015683112 -263.1883879680821 -726.553211393582 -31.89626759048839 0.0 0.0
-1184.9309093351956 -229.05907834822554 -705.1414553019223 -30.6599300898488 0.0 0.0
-1040.487958107315 -70.36843453400972 -555.4402776334944 -39.518816925503344 0.0 0.0
-741.672697443756 219.71667961917962 -262.74751092540225 -68.63147562723202 0.0 0.0
-3151.433151270296 -2248.8913132882017 -2680.621626991772 6.517808515127399e-11 0.0 0.0
-741.6726974439225 219.7166796189689 -262.7475109255156 68.63147562734684 0.0 0.0
-1040.4879581070488 -70.36843453378646 -555.4402776333695 39.518816925614445 0.0 0.0
-1184.930909335353 -229.05907834843066 -705.1414553019735 30.659930089849063 0.0 0.0
-1194.9326015682373 -263.18838796808217 -726.5532113935442 31.896267590533515 0.0 0.0
-1165.349134365439 -261.86108070841397 -711.1447214924278 34.121256340944015 0.0 0.0
-1119.277785270057 -246.0467684602963 -680.3105131952963 35.44667063780168 0.0 0.0
-1060.374132961434 -218.46827399353896 -637.1528471878894 36.40817048328527 0.0 0.0
-994.4332401402661 -183.19227068134526 -586.4775261650992 37.53805353241845 0.0 0.0
-924.9255365884843 -146.52027462133125 -532.9036909652174 38.75383758442099 0.0 0.0
-857.1276910723757 -111.28343954474711 -479.87842755223966 39.816758330429636 0.0 0.0
-791.7509526484279 -81.19539172505102 -428.35603554920925 40.329855849936415 0.0 0.0
-728.9719868331822 -57.69618074379771 -376.4535310685946 40.318748954066585 0.0 0.0
-665.8657300178692 -39.31639814605083 -318.1961156091124 39.74383883602241 0.0 0.0
-595.5403972035438 -28.551026254771664 -251.86408206735837 38.53329579489335 0.0 0.0
-520.805974440293 -15.61740409979095 -180.9576057738631 40.12491058909447 0.0 0.0
-398.91205698896437 -4.58260920337006 -122.08291275364923 51.90928674215148 0.0 0.0
-273.4717578319588 3.207446876841931 -81.07472037497661 63.05431481596723 0.0 0.0
-160.90137651683452 -2.621734276773442 -49.05693323808238 61.78854445936821 0.0 0.0
-73.26249185524942 -24.50063995627085 -29.328939543456073 40.52236137273418 0.0 0.0
-29.069146273978745 -14.144074750983691 -12.96396630748873 19.984991257206353 0.0 0.0
-26.31794716538859 -8.340951258987548 -10.397669527312837 -11.477721171119944 0.0 0.0
-70.28437747333273 -15.530256342322726 -25.74439014469663 -20.28290980589145 0.0 0.0
-170.49913882912645 -2.404637718895525 -51.87113296440657 -30.247965075031072 0.0 0.0
-300.8990052732175 1.1976741957177222 -89.89191595888701 -30.827295924312498 0.0 0.0
-445.8614139248259 -10.954859175169876 -140.30578472562468 -23.431308371469168 0.0 0.0
-553.9715146056254 -22.809271805575484 -206.9393088264433 -19.424189589883373 0.0 0.0
-623.1994868615258 -28.845843433704957 -275.0632309424956 -20.33237237371837 0.0 0.0
-691.687192372099 -45.07846493798625 -341.4477189810686 -20.982891032148018 0.0 0.0
-755.607671693978 -65.36887061519015 -398.01139676825386 -21.130340115419845 0.0 0.0
-820.8863221930441 -92.40563946684725 -450.98878613787406 -21.074890035372057 0.0 0.0
-890.1669527549644 -126.39252077289322 -505.3327675798279 -20.748000699869326 0.0 0.0
-962.7672828473051 -164.91201295030402 -561.8565794380821 -20.320247654535756 0.0 0.0
-1035.5894789890003 -206.33388858654368 -619.205123159317 -19.722251538072335 0.0 0.0
-1105.8878697168866 -244.34957591720433 -673.321648224559 -19.180299393902203 0.0 0.0
-1165.8768731652162 -272.7275834410474 -717.4164715322212 -18.735826479836014 0.0 0.0
-1208.9359000879633 -285.55401506804975 -745.2860101104991 -17.927994666199744 0.0 0.0
-1231.9213928257038 -280.97671210914757 -754.3990604415483 -16.239234048077563 0.0 0.0
-1243.2544372717855 -268.86126848041863 -754.0522155460975 -13.803116069467123 0.0 0.0
-1190.5042867503462 -199.57394719082603 -694.4653990694161 -17.106107594633794 0.0 0.0
-728.1797479124095 260.78398100193414 -234.86200358942946 -47.37314401583657 0.0 0.0
-3188.3388836340723 -2250.6788874134995 -2704.99259853128 1.312372432948905e-11 0.0 0.0
-728.1797479127808 260.7839810015068 -234.86200358967767 47.37314401593907 0.0 0.0
-1190.5042867504158 -199.57394719091607 -694.4653990694586 17.106107594690506 0.0 0.0
-1243.2544372721466 -268.86126848084535 -754.0522155462822 13.803116069422662 0.0 0.0
-1231.9213928259478 -280.9767121094809 -754.3990604417187 16.239234048091276 0.0 0.0
-1208.9359000869479 -285.55401506711684 -745.286010109665 17.927994666256737 0.0 0.0
-1165.8768731652995 -272.72758344124975 -717.4164715321866 18.735826479812907 0.0 0.0
-1105.8878697159182 -244.34957591635273 -673.321648223799 19.18029939391519 0.0 0.0
-1035.5894789889019 -206.33388858662528 -619.2051231592159 19.722251538136238 0.0 0.0
-962.7672828469496 -164.9120129501354 -561.8565794377738 20.32024765455349 0.0 0.0
-890.1669527545698 -126.39252077270389 -505.3327675795665 20.74800069982586 0.0 0.0
-820.8863221927828 -92.40563946682543 -450.98878613758615 21.07489003543133 0.0 0.0
-755.6076716936033 -65.36887061505477 -398.01139676792735 21.130340115426474 0.0 0.0
-691.6871923715881 -45.078464937727375 -341.44771898062123 20.982891032183026 0.0 0.0
-623.1994868612442 -28.845843433730778 -275.0632309421623 20.332372373672428 0.0 0.0
-553.9715146051298 -22.809271805408066 -206.9393088260471 19.424189589872064 0.0 0.0
-445.8614139244008 -10.95485917523688 -140.305784725477 23.431308371495973 0.0 0.0
-300.89900527290246 1.1976741957518526 -89.89191595880146 30.82729592424332 0.0 0.0
-170.4991388290041 -2.4046377189488997 -51.87113296438589 30.247965074986546 0.0 0.0
-70.28437747323115 -15.530256342244662 -25.74439014464274 20.282909805860097 0.0 0.0
-26.317947165438778 -8.34095125903673 -10.397669527342654 11.477721171122498 0.0 0.0
-15.717740600943875 -3.971122307507137 -5.906658872535303 -7.325246814290349 0.0 0.0
-59.68352968650074 -8.478426087014288 -20.4485867320545 -8.424084733867446 0.0 0.0
-176.1870411805071 -3.3405906945703805 -53.85828956252323 -10.367217139327508 0.0 0.0
-334.35702333059277 -8.309554169855666 -102.79685432969096 -10.145078838772033 0.0 0.0
-502.3121775150524 -36.04657133030595 -169.39253636133512 -4.289150867326246 0.0 0.0
-615.4901599769352 -66.22474467283732 -253.74466110715713 -0.9748093150077253 0.0 0.0
-696.574935316339 -87.592429995249 -336.6039130625022 -0.6488343513507822 0.0 0.0
-783.8696576434681 -124.8656758940589 -421.7407448272958 -1.2146544791642775 0.0 0.0
-873.1220007927718 -171.60637555213472 -503.0509707469218 -1.9279125485270523 0.0 0.0
-973.6037725768915 -233.56358165463712 -590.1678698899544 -2.8135271405918374 0.0 0.0
-1089.4888689279942 -313.45404104557315 -690.1258257047505 -3.775666638448076 0.0 0.0
-1220.395640317103 -411.27929397539737 -804.8855275430304 -4.740931239919233 0.0 0.0
-1362.7591719139646 -520.7903694870733 -930.4512418804567 -5.376966377840622 0.0 0.0
-1511.455796931161 -636.9458202503913 -1062.3395100694381 -6.003370983563235 0.0 0.0
-1654.9750141520117 -748.5566628940066 -1189.3512530355592 -6.521440151863999 0.0 0.0
-1776.8360331279043 -840.0594717553728 -1295.6089057614731 -6.7084902905278625 0.0 0.0
-1857.201271249924 -893.2728767642463 -1362.2433961785755 -6.25656041154776 0.0 0.0
-1874.0291885783436 -887.7966522125148 -1368.2009347841504 -4.588038233371879 0.0 0.0
-1858.996377318713 -856.12768359805 -1345.2742166209573 -5.1332982712509185 0.0 0.0
-1761.5717491572714 -754.2385104636872 -1242.351677401166 -34.06343597650559 0.0 0.0
-4674.46377242908 -3708.3077301141248 -4160.025629582098 1.3059775483270641e-11 0.0 0.0
-1761.5717491571627 -754.2385104635996 -1242.3516774010336 34.06343597649105 0.0 0.0
-1858.9963773188997 -856.1276835982746 -1345.2742166209955 5.133298271264998 0.0 0.0
-1874.0291885782099 -887.7966522124477 -1368.2009347839337 4.588038233335293 0.0 0.0
-1857.2012712494766 -893.2728767638714 -1362.2433961781478 6.25656041147505 0.0 0.0
-1776.836033126275 -840.0594717538269 -1295.6089057601198 6.708490290562803 0.0 0.0
-1654.9750141514262 -748.5566628935395 -1189.351253034919 6.521440151849028 0.0 0.0
-1511.4557969302487 -636.9458202495983 -1062.3395100686091 6.003370983538758 0.0 0.0
-1362.7591719132 -520.7903694864729 -930.4512418797722 5.3769663778387375 0.0 0.0
-1220.3956403162429 -411.2792939747256 -804.8855275422895 4.7409312398933245 0.0 0.0
-1089.4888689272739 -313.45404104504735 -690.1258257041759 3.7756666383970128 0.0 0.0
-973.6037725757428 -233.563581653714 -590.1678698890573 2.813527140602009 0.0 0.0
-873.1220007923494 -171.60637555195385 -503.0509707465234 1.9279125485353674 0.0 0.0
-783.8696576426526 -124.86567589348321 -421.74074482663946 1.2146544791525251 0.0 0.0
-696.5749353160754 -87.59242999529715 -336.6039130621583 0.6488343513743331 0.0 0.0
-615.4901599762777 -66.22474467244405 -253.74466110661422 0.9748093149592023 0.0 0.0
-502.3121775144391 -36.04657133001125 -169.39253636098587 4.289150867444711 0.0 0.0
-334.3570233304544 -8.309554170020132 -102.79685432969168 10.14507883879443 0.0 0.0
-176.18704118038215 -3.340590694668311 -53.85828956251514 10.367217139358448 0.0 0.0
-59.68352968636652 -8.478426086954519 -20.448586731996308 8.424084733861916 0.0 0.0
-15.71774060089339 -3.971122307519945 -5.906658872524 7.325246814375025 0.0 0.0
SCALARS Strain float 6
LOOKUP_TABLE default
0.010296801340366028 -0.01819194172030869 0.0 -0.0005290763791807964 0.0 0.0
0.006382208041490942 -0.001173482788375308 0.0 -0.005526082053961568 0.0 0.0
0.002123422985419324 -0.0006436514960532324 0.0 -0.0005307153280153937 0.0 0.0
0.0019513637339675823 -0.0007779540485636175 0.0 -4.9633718983747665e-05 0.0 0.0
0.002522472970235793 -0.0010006206610117733 0.0 4.5036442231213584e-05 0.0 0.0
0.0036862016678581933 -0.0018120229804573199 0.0 0.00010734651465738055 0.0 0.0
0.005568791660384213 -0.0033185846714870433 0.0 0.00013385434282425115 0.0 0.0
0.008195535363116978 -0.005535763387081984 0.0 0.0001435238078790309 0.0 0.0
0.011631134183519545 -0.008537491858154918 0.0 0.00014776337316451562 0.0 0.0
0.015925577957238268 -0.01233135312405544 0.0 0.00013690010145053544 0.0 0.0
0.021166447121334968 -0.01697790321075347 0.0 0.00015560107024285272 0.0 0.0
0.02752075619233569 -0.022643247583292926 0.0 0.00020080787050879016 0.0 0.0
0.03518260336577036 -0.029550455624292267 0.0 0.00019278185555961214 0.0 0.0
0.04432510412918083 -0.03789633589372176 0.0 0.0001795138139594856 0.0 0.0
0.05501347834785375 -0.04779011304043422 0.0 9.563047479369132e-05 0.0 0.0
0.06703986598407739 -0.05906853365828536 0.0 -8.5299837779362e-05 0.0 0.0
0.07980358416375795 -0.07116683125329054 0.0 -0.00034109475825959217 0.0 0.0
0.09229143720852584 -0.08310764869196043 0.0 -0.0005722443221282756 0.0 0.0
0.10320543696835163 -0.09361625290094935 0.0 -0.0006207870549384195 0.0 0.0
0.11110804472687577 -0.1013027738007285 0.0 -0.0006167037085314428 0.0 0.0
0.1141206451357121 -0.10433430024748358 0.0 2.269451987446658e-15 0.0 0.0
0.11110804472686647 -0.10130277380072411 0.0 0.0006167037085352805 0.0 0.0
0.10320543696833029 -0.09361625290092927 0.0 0.000620787054942333 0.0 0.0
0.09229143720849478 -0.08310764869192803 0.0 0.0005722443221318901 0.0 0.0
0.07980358416372192 -0.07116683125325698 0.0 0.00034109475826092465 0.0 0.0
0.06703986598404 -0.059068533658250585 0.0 8.52998377797805e-05 0.0 0.0
0.05501347834781603 -0.04779011304040498 0.0 -9.56304747955208e-05 0.0 0.0
0.04432510412914175 -0.037896335893686045 0.0 -0.00017951381396034147 0.0 0.0
0.03518260336573083 -0.029550455624256115 0.0 -0.0001927818555620016 0.0 0.0
0.027520756192298372 -0.022643247583258592 0.0 -0.00020080787050912106 0.0 0.0
0.02116644712130234 -0.01697790321072739 0.0 -0.0001556010702427552 0.0 0.0
0.015925577957211435 -0.01233135312403508 0.0 -0.00013690010145222327 0.0 0.0
0.01163113418349839 -0.008537491858134889 0.0 -0.0001477633731643514 0.0 0.0
0.008195535363100834 -0.005535763387066834 0.0 -0.00014352380787874283 0.0 0.0
0.0055687916603728155 -0.003318584671476806 0.0 -0.00013385434282388593 0.0 0.0
0.003686201667851762 -0.0018120229804533768 0.0 -0.00010734651465533633 0.0 0.0
0.0025224729702331998 -0.0010006206610096119 0.0 -4.503644223173957e-05 0.0 0.0
0.0019513637339668723 -0.000777954048564407 0.0 4.963371898489948e-05 0.0 0.0
0.0021234229854180456 -0.0006436514960531446 0.0 0.0005307153280134179 0.0 0.0
0.00638220804148658 -0.0011734827883738475 0.0 0.005526082053954197 0.0 0.0
0.01029680134035959 -0.018191941720287378 0.0 0.0005290763791463658 0.0 0.0
0.006894282439166531 -0.016181238537728144 0.0 -8.763316007343275e-05 0.0 0.0
0.004127397697581357 -0.0008451465907202141 0.0 -0.0042874442624271656 0.0 0.0
0.0014836977583350555 -0.0005197698344210918 0.0 -0.00035922064161588704 0.0 0.0
0.0017540315143435253 -0.0007444322172807421 0.0 -0.0002125904570385995 0.0 0.0
0.002221553306705462 -0.0009257877042809742 0.0 -0.00017175592820590718 0.0 0.0
0.003214028957398686 -0.0016309130522879083 0.0 -0.00018741838716547482 0.0 0.0
0.004897625112442154 -0.0030328403575924 0.0 -0.00034191935012830953 0.0 0.0
0.007285292564219342 -0.005127129293474919 0.0 -0.0005264315588060163 0.0 0.0
0.01041178127304134 -0.00797476875273198 0.0 -0.0007543632668329669 0.0 0.0
0.014300535621490446 -0.011572270728388089 0.0 -0.0010146941234971446 0.0 0.0
0.019013524011593404 -0.015968403439372027 0.0 -0.0012749110190704385 0.0 0.0
0.02469288609039194 -0.021311035970537927 0.0 -0.0015296834561782451 0.0 0.0
0.031548475996360854 -0.027822636003191827 0.0 -0.0018493274581454 0.0 0.0
0.03977141159008712 -0.03571787048422718 0.0 -0.002259246680536727 0.0 0.0
0.04943318315758823 -0.045102827126091656 0.0 -0.002755696974960682 0.0 0.0
0.06035667148516413 -0.05582879025026899 0.0 -0.003320004685968218 0.0 0.0
0.07199644293125577 -0.06736521640496651 0.0 -0.003816736216005433 0.0 0.0
0.08343781063013178 -0.07878895454332742 0.0 -0.00398010505299962 0.0 0.0
0.09347655370364907 -0.08888018186485169 0.0 -0.0035527103870287846 0.0 0.0
0.10063328868069654 -0.09621573879992311 0.0 -0.0026263019081516114 0.0 0.0
0.10328675272189838 -0.09914117795582045 0.0 3.802080178472167e-15 0.0 0.0
0.10063328868068754 -0.09621573879991568 0.0 0.002626301908161838 0.0 0.0
0.0934765537036303 -0.08888018186483392 0.0 0.0035527103870400738 0.0 0.0
0.08343781063010514 -0.07878895454329798 0.0 0.003980105053007046 0.0 0.0
0.07199644293122448 -0.06736521640493609 0.0 0.0038167362160059933 0.0 0.0
0.06035667148513066 -0.05582879025023596 0.0 0.003320004685966363 0.0 0.0
0.04943318315755425 -0.04510282712606255 0.0 0.0027556969749594805 0.0 0.0
0.03977141159005218 -0.03571787048419618 0.0 0.0022592466805363576 0.0 0.0
0.031548475996325605 -0.027822636003157823 0.0 0.0018493274581431699 0.0 0.0
0.024692886090358575 -0.02131103597050656 0.0 0.0015296834561761197 0.0 0.0
0.019013524011563764 -0.01596840343934738 0.0 0.001274911019067194 0.0 0.0
0.014300535621465917 -0.011572270728367475 0.0 0.0010146941234949508 0.0 0.0
0.010411781273022202 -0.007974768752712913 0.0 0.0007543632668320836 0.0 0.0
0.007285292564204845 -0.0051271292934611905 0.0 0.000526431558804356 0.0 0.0
0.004897625112432229 -0.003032840357583037 0.0 0.00034191935012779665 0.0 0.0
0.0032140289573932283 -0.0016309130522847016 0.0 0.0001874183871656744 0.0 0.0
0.0022215533067032876 -0.0009257877042797612 0.0 0.00017175592820609851 0.0 0.0
0.0017540315143430606 -0.0007444322172809623 0.0 0.00021259045703912564 0.0 0.0
0.0014836977583350236 -0.0005197698344214642 0.0 0.00035922064161471177 0.0 0.0
0.004127397697576333 -0.0008451465907182993 0.0 0.004287444262418156 0.0 0.0
0.006894282439156293 -0.016181238537706595 0.0 8.763316004793838e-05 0.0 0.0
0.00492090005165623 -0.01272720340979338 0.0 -0.002473498058796492 0.0 0.0
0.0028563936306215004 -0.0004333211749198929 0.0 -0.0041333518769511475 0.0 0.0
0.0010531132547664422 -0.00030886655886093277 0.0 -0.00035197942802713336 0.0 0.0
0.0015043024577511576 -0.0006502762497404142 0.0 -0.00046868253212225424 0.0 0.0
0.001948962691155532 -0.000799252303767862 0.0 -0.0004680242273495982 0.0 0.0
0.002761163149895721 -0.0012959631163115349 0.0 -0.0004556320795894753 0.0 0.0
0.004223315422540601 -0.0024646434727552207 0.0 -0.00073222628106355 0.0 0.0
0.006364456820133766 -0.0043154099909294115 0.0 -0.0011085327327160133 0.0 0.0
0.009172690653182753 -0.006847411092339461 0.0 -0.0015684764777910002 0.0 0.0
0.012653281445984472 -0.01005104262358645 0.0 -0.0020835598382646673 0.0 0.0
0.01684500603457142 -0.0139473704985489 0.0 -0.002615240787370706 0.0 0.0
0.021866528990200078 -0.018654860690443073 0.0 -0.0031441969866195644 0.0 0.0
0.027914378366330463 -0.02438123980895988 0.0 -0.0037216172689450754 0.0 0.0
0.03520038668742268 -0.03136282346914832 0.0 -0.004454054673882214 0.0 0.0
0.043814435028796984 -0.03971894541627551 0.0 -0.005363312719871681 0.0 0.0
0.05360698964891313 -0.049326652957080164 0.0 -0.006364060963769241 0.0 0.0
0.06411703471042068 -0.05973225004676577 0.0 -0.007213401005593574 0.0 0.0
0.07453748889799826 -0.07012904042946246 0.0 -0.007476424568692034 0.0 0.0
0.08373063062484913 -0.07939145968775949 0.0 -0.006744904208402156 0.0 0.0
0.09032291580789084 -0.08611563591144036 0.0 -0.004903179089218687 0.0 0.0
0.09278778144873721 -0.0889278353459078 0.0 8.200037870942367e-15 0.0 0.0
0.0903229158078828 -0.08611563591143159 0.0 0.004903179089238433 0.0 0.0
0.08373063062483256 -0.07939145968774465 0.0 0.006744904208423282 0.0 0.0
0.07453748889797507 -0.07012904042943634 0.0 0.007476424568705531 0.0 0.0
0.06411703471039318 -0.05973225004673979 0.0 0.0072134010055963284 0.0 0.0
0.05360698964888336 -0.04932665295705428 0.0 0.0063640609637666285 0.0 0.0
0.04381443502876652 -0.039718945416246425 0.0 0.005363312719870714 0.0 0.0
0.03520038668739171 -0.031362823469123065 0.0 0.004454054673881793 0.0 0.0
0.02791437836629943 -0.024381239808928368 0.0 0.0037216172689424473 0.0 0.0
0.021866528990170445 -0.018654860690414152 0.0 0.0031441969866144396 0.0 0.0
0.016845006034544988 -0.013947370498527326 0.0 0.0026152407873655113 0.0 0.0
0.012653281445962363 -0.010051042623565798 0.0 0.0020835598382610656 0.0 0.0
0.009172690653165306 -0.006847411092323786 0.0 0.0015684764777884092 0.0 0.0
0.006364456820120767 -0.004315409990918265 0.0 0.0011085327327131909 0.0 0.0
0.004223315422531932 -0.0024646434727478616 0.0 0.0007322262810626208 0.0 0.0
0.0027611631498913897 -0.0012959631163095302 0.0 0.00045563207958882043 0.0 0.0
0.0019489626911540184 -0.000799252303766856 0.0 0.0004680242273495406 0.0 0.0
0.001504302457750567 -0.000650276249739689 0.0 0.00046868253212150007 0.0 0.0
0.0010531132547663832 -0.00030886655886145893 0.0 0.00035197942802674706 0.0 0.0
0.0028563936306170365 -0.0004333211749176315 0.0 0.004133351876939669 0.0 0.0
0.004920900051646911 -0.012727203409772809 0.0 0.002473498058779293 0.0 0.0
0.003634159963919116 -0.010157479732758188 0.0 -0.002881835412836188 0.0 0.0
0.0020592832496991267 -0.0003347583982230676 0.0 -0.003805988812927287 0.0 0.0
0.0007555204674522328 -0.00017201010072588686 0.0 -0.0006405174558269294 0.0 0.0
0.0012481176332311739 -0.0005224802273647696 0.0 -0.0007050809340080799 0.0 0.0
0.001690046208333446 -0.0007000608704752591 0.0 -0.0007710476284217929 0.0 0.0
0.0023445370107891108 -0.001032706191879967 0.0 -0.0007368756844527739 0.0 0.0
0.0035602022638352958 -0.0019234809279068668 0.0 -0.0009949284952363918 0.0 0.0
0.005436574984265044 -0.0035145947653965415 0.0 -0.0015447001020574944 0.0 0.0
0.00792170624552367 -0.005723753839184511 0.0 -0.00218511486749679 0.0 0.0
0.010992651936282504 -0.008528732320960993 0.0 -0.002901722994951914 0.0 0.0
0.014667828930080746 -0.01192992451861004 0.0 -0.003642103565534312 0.0 0.0
0.019043010899253133 -0.016015710044045374 0.0 -0.004381648650800268 0.0 0.0
0.024297202759806083 -0.020970072884594366 0.0 -0.005173399220283533 0.0 0.0
0.03063439582263145 -0.027027537440448373 0.0 -0.006131376963537339 0.0 0.0
0.03817268200226869 -0.03432841148065615 0.0 -0.0073195936013921836 0.0 0.0
0.04681501950710916 -0.042791442385426565 0.0 -0.00864678378914371 0.0 0.0
0.056179091697421184 -0.05204834233786822 0.0 -0.009781380048913582 0.0 0.0
0.06557176849453245 -0.06141546823281921 0.0 -0.010178788119475516 0.0 0.0
0.07396984030515569 -0.06987171970953449 0.0 -0.009288881774211733 0.0 0.0
0.08012563186066772 -0.07613751181337125 0.0 -0.006632335083383219 0.0 0.0
0.08247958107324645 -0.07898509176394128 0.0 1.1361571405910098e-14 0.0 0.0
0.08012563186065996 -0.07613751181336437 0.0 0.0066323350834086945 0.0 0.0
0.0739698403051411 -0.06987171970952033 0.0 0.009288881774237392 0.0 0.0
0.06557176849451203 -0.061415468232797046 0.0 0.010178788119491477 0.0 0.0
0.05617909169739711 -0.05204834233784557 0.0 0.00978138004891692 0.0 0.0
0.04681501950708311 -0.04279144238540454 0.0 0.008646783789140172 0.0 0.0
0.03817268200224191 -0.03432841148062829 0.0 0.007319593601390341 0.0 0.0
0.03063439582260445 -0.027027537440424073 0.0 0.006131376963535804 0.0 0.0
0.024297202759778806 -0.020970072884567113 0.0 0.005173399220279751 0.0 0.0
0.019043010899227237 -0.016015710044022274 0.0 0.004381648650794305 0.0 0.0
0.014667828930057743 -0.011929924518589098 0.0 0.0036421035655269376 0.0 0.0
0.010992651936263044 -0.008528732320943162 0.0 0.0029017229949453195 0.0 0.0
0.00792170624550831 -0.005723753839171619 0.0 0.0021851148674934644 0.0 0.0
0.0054365749842537284 -0.003514594765386493 0.0 0.0015447001020533581 0.0 0.0
0.003560202263828058 -0.0019234809279008959 0.0 0.0009949284952336752 0.0 0.0
0.0023445370107857653 -0.0010327061918791126 0.0 0.000736875684452858 0.0 0.0
0.0016900462083324144 -0.0007000608704742979 0.0 0.0007710476284213327 0.0 0.0
0.0012481176332308573 -0.0005224802273637188 0.0 0.0007050809340061887 0.0 0.0
0.0007555204674521816 -0.00017201010072599403 0.0 0.0006405174558262161 0.0 0.0
0.0020592832496949434 -0.0003347583982208793 0.0 0.0038059888129169522 0.0 0.0
0.0036341599639107118 -0.010157479732740046 0.0 0.0028818354128237293 0.0 0.0
0.00270400606642959 -0.008108200976607555 0.0 -0.0026285320680468037 0.0 0.0
0.0015091005509254266 -0.0003227134969402078 0.0 -0.0034512107823810355 0.0 0.0
0.0005461122047361436 -9.769955622197344e-05 0.0 -0.0010058998453204104 0.0 0.0
0.0010045381970179646 -0.0003926962979880078 0.0 -0.0009627308881526731 0.0 0.0
0.0014346485460008608 -0.000600425626306459 0.0 -0.0010591209029274418 0.0 0.0
0.0019710552712131142 -0.0008404390961311003 0.0 -0.0010411158748663142 0.0 0.0
0.002930472401368261 -0.0014560501751554838 0.0 -0.0012073887669501234 0.0 0.0
0.0045087042731390475 -0.002728373598023893 0.0 -0.0017905662067575438 0.0 0.0
0.0066668815274594445 -0.0046156286166224615 0.0 -0.002597442910162629 0.0 0.0
0.009326136287918103 -0.0070177950004409635 0.0 -0.003461847785060355 0.0 0.0
0.012490700236028182 -0.009926893222629357 0.0 -0.0043540532594089024 0.0 0.0
0.016229591028636674 -0.013401028399487347 0.0 -0.00524065212972365 0.0 0.0
0.020697601863352733 -0.017595812774678983 0.0 -0.006180318159191593 0.0 0.0
0.026094204698917767 -0.02273207502332181 0.0 -0.007293151676661828 0.0 0.0
0.03254395444364488 -0.028962899053321257 0.0 -0.008651851654780782 0.0 0.0
0.040001336386157486 -0.03625364245534464 0.0 -0.01015900273275523 0.0 0.0
0.04819037832941477 -0.04432934453123078 0.0 -0.01148419137945646 0.0 0.0
0.05653967169950205 -0.05263910779592665 0.0 -0.012053846672953632 0.0 0.0
0.0641713096302299 -0.060312474514124845 0.0 -0.011131354181386036 0.0 0.0
0.0699726675180795 -0.06622010704478883 0.0 -0.007959613686723318 0.0 0.0
0.07226588739211247 -0.06919168961724052 0.0 1.2027705220685192e-14 0.0 0.0
0.0699726675180723 -0.06622010704477965 0.0 0.007959613686752558 0.0 0.0
0.06417130963021678 -0.0603124745141122 0.0 0.011131354181413863 0.0 0.0
0.05653967169948431 -0.05263910779591098 0.0 0.012053846672970898 0.0 0.0
0.04819037832939363 -0.04432934453121153 0.0 0.01148419137946133 0.0 0.0
0.040001336386134866 -0.03625364245532303 0.0 0.010159002732752621 0.0 0.0
0.032543954443622077 -0.028962899053299594 0.0 0.008651851654778825 0.0 0.0
0.026094204698894674 -0.022732075023301077 0.0 0.00729315167665923 0.0 0.0
0.02069760186332939 -0.017595812774655276 0.0 0.006180318159185862 0.0 0.0
0.016229591028614536 -0.013401028399469387 0.0 0.005240652129716027 0.0 0.0
0.012490700236008302 -0.009926893222610728 0.0 0.004354053259399198 0.0 0.0
0.009326136287901333 -0.007017795000427026 0.0 0.0034618477850528696 0.0 0.0
0.006666881527446193 -0.004615628616611289 0.0 0.0025974429101578702 0.0 0.0
0.004508704273129524 -0.002728373598015673 0.0 0.0017905662067533449 0.0 0.0
0.002930472401362747 -0.0014560501751512188 0.0 0.0012073887669479116 0.0 0.0
0.001971055271210735 -0.0008404390961307147 0.0 0.0010411158748659605 0.0 0.0
0.0014346485459999082 -0.0006004256263061192 0.0 0.0010591209029270434 0.0 0.0
0.001004538197017718 -0.0003926962979869969 0.0 0.0009627308881509503 0.0 0.0
0.0005461122047362528 -9.769955622211307e-05 0.0 0.0010058998453188247 0.0 0.0
0.0015091005509218268 -0.0003227134969385269 0.0 0.0034512107823723437 0.0 0.0
0.0027040060664224315 -0.008108200976592076 0.0 0.002628532068039129 0.0 0.0
0.0020001216702118167 -0.00642120006559241 0.0 -0.002240152334943477 0.0 0.0
0.0011060199809443739 -0.00033104542463623934 0.0 -0.003104738897501181 0.0 0.0
0.00039039083903057425 -6.196953763368717e-05 0.0 -0.0013510168537396142 0.0 0.0
0.0007780661960085684 -0.00027510312500818166 0.0 -0.0012293850102245646 0.0 0.0
0.0011791408306299827 -0.0004904380772140673 0.0 -0.0013229093779476046 0.0 0.0
0.001627257524665056 -0.0006894266520265215 0.0 -0.001344604692518741 0.0 0.0
0.0023596952989027075 -0.0010911362419475737 0.0 -0.001447529841133734 0.0 0.0
0.0036076719790673305 -0.002005980746004271 0.0 -0.0019080736942831606 0.0 0.0
0.005407936210326815 -0.0035301049575540725 0.0 -0.0027672216013748183 0.0 0.0
0.007661859251628017 -0.005531568497348795 0.0 -0.0037530588490977436 0.0 0.0
0.01031971565490058 -0.007949963353836907 0.0 -0.004737802514683425 0.0 0.0
0.013433466708144872 -0.010822415633500785 0.0 -0.005716718643603187 0.0 0.0
0.017130155947712663 -0.014270012304318645 0.0 -0.006734851731239397 0.0 0.0
0.021586925390795875 -0.01849253043534961 0.0 -0.007914895726091001 0.0 0.0
0.026945819171719124 -0.023648154888505774 0.0 -0.009343938834595675 0.0 0.0
0.03320656222571654 -0.029748693305923245 0.0 -0.010924436848046224 0.0 0.0
0.04017258578692136 -0.03660282327924304 0.0 -0.012333133593048867 0.0 0.0
0.04743293756747562 -0.043803954515796044 0.0 -0.013035532585104951 0.0 0.0
0.054298998451022915 -0.05068528724803333 0.0 -0.012236241283002103 0.0 0.0
0.05979445981010083 -0.05628977159572117 0.0 -0.008916446521606634 0.0 0.0
0.062061455216547184 -0.05946134524189091 0.0 1.3062901454974352e-14 0.0 0.0
0.05979445981009408 -0.056289771595711344 0.0 0.008916446521636211 0.0 0.0
0.054298998451011354 -0.05068528724802284 0.0 0.012236241283030976 0.0 0.0
0.047432937567460635 -0.04380395451578189 0.0 0.01303553258512211 0.0 0.0
0.040172585786903484 -0.03660282327922916 0.0 0.012333133593052941 0.0 0.0
0.03320656222569731 -0.029748693305901144 0.0 0.010924436848043203 0.0 0.0
0.026945819171699945 -0.02364815488849085 0.0 0.009343938834592303 0.0 0.0
0.02158692539077689 -0.01849253043533321 0.0 0.007914895726087069 0.0 0.0
0.01713015594769331 -0.014270012304298696 0.0 0.0067348517312348696 0.0 0.0
0.013433466708126186 -0.010822415633484978 0.0 0.0057167186435957106 0.0 0.0
0.010319715654884183 -0.007949963353823595 0.0 0.004737802514672995 0.0 0.0
0.00766185925161419 -0.005531568497335696 0.0 0.003753058849090194 0.0 0.0
0.005407936210315814 -0.003530104957546075 0.0 0.0027672216013693044 0.0 0.0
0.0036076719790597437 -0.0020059807459989927 0.0 0.0019080736942796881 0.0 0.0
0.0023596952988985307 -0.001091136241945298 0.0 0.0014475298411320814 0.0 0.0
0.0016272575246633896 -0.0006894266520261695 0.0 0.0013446046925175753 0.0 0.0
0.0011791408306291984 -0.0004904380772135732 0.0 0.0013229093779464646 0.0 0.0
0.0007780661960081742 -0.0002751031250073049 0.0 0.0012293850102229526 0.0 0.0
0.000390390839030428 -6.196953763385519e-05 0.0 0.0013510168537368078 0.0 0.0
0.0011060199809415448 -0.0003310454246353067 0.0 0.0031047388974938936 0.0 0.0
0.002000121670206352 -0.0064212000655797285 0.0 0.002240152334938551 0.0 0.0
0.0014619546923382463 -0.005017436771170147 0.0 -0.0018800716563031304 0.0 0.0
0.0008013217123019143 -0.0003456514590575578 0.0 -0.002793258711316864 0.0 0.0
0.0002647993749495447 -4.27355248439577e-05 0.0 -0.0016388021672715147 0.0 0.0
0.0005680433481999374 -0.00017253043888549986 0.0 -0.0014837594527954928 0.0 0.0
0.0009215343228066457 -0.0003716813219897755 0.0 -0.00155692230222769 0.0 0.0
0.0012957744749219732 -0.0005551696241436709 0.0 -0.001628749700142853 0.0 0.0
0.0018427153524446624 -0.0008085391355760425 0.0 -0.0016917709642346648 0.0 0.0
0.002770668310431955 -0.0014057131841029298 0.0 -0.002012740345141884 0.0 0.0
0.004173562221539752 -0.0025091215524347195 0.0 -0.0027284574175410006 0.0 0.0
0.0060014563258232595 -0.004084306667209384 0.0 -0.0037340932314231723 0.0 0.0
0.008162814336948406 -0.006015525988936187 0.0 -0.0047749914380377 0.0 0.0
0.010660453003170945 -0.008292896672202604 0.0 -0.005792535011084858 0.0 0.0
0.013599848588349596 -0.0110075875231668 0.0 -0.006827941753913016 0.0 0.0
0.017134207080362587 -0.01433051124377075 0.0 -0.00799761455045664 0.0 0.0
0.021399900234359528 -0.018411080208442836 0.0 -0.00937683334892306 0.0 0.0
0.026442824664953932 -0.023306171027836428 0.0 -0.010921879502496708 0.0 0.0
0.03215749187828881 -0.028902992380065738 0.0 -0.012331912984331528 0.0 0.0
0.03826767387910959 -0.03493211000988473 0.0 -0.013117179076768792 0.0 0.0
0.04431115221247597 -0.04095994882053534 0.0 -0.01255076935045286 0.0 0.0
0.049510446652411944 -0.046265167752664024 0.0 -0.009477525228236727 0.0 0.0
0.05177614716671025 -0.04971086425236804 0.0 1.2076277478012543e-14 0.0 0.0
0.049510446652405934 -0.04626516775265836 0.0 0.009477525228264814 0.0 0.0
0.044311152212466 -0.040959948820525026 0.0 0.012550769350481716 0.0 0.0
0.038267673879097096 -0.0349321100098692 0.0 0.013117179076784499 0.0 0.0
0.03215749187827429 -0.02890299238005585 0.0 0.012331912984334429 0.0 0.0
0.026442824664938136 -0.023306171027816354 0.0 0.010921879502492585 0.0 0.0
0.021399900234344 -0.018411080208428597 0.0 0.009376833348919035 0.0 0.0
0.017134207080347724 -0.014330511243756554 0.0 0.007997614550453867 0.0 0.0
0.013599848588334606 -0.011007587523154862 0.0 0.006827941753908294 0.0 0.0
0.010660453003156158 -0.008292896672189472 0.0 0.005792535011077641 0.0 0.0
0.008162814336935158 -0.006015525988925511 0.0 0.004774991438028565 0.0 0.0
0.006001456325812216 -0.0040843066671962264 0.0 0.003734093231414843 0.0 0.0
0.00417356222153124 -0.002509121552428704 0.0 0.002728457417535656 0.0 0.0
0.0027706683104264107 -0.0014057131840983208 0.0 0.002012740345138644 0.0 0.0
0.0018427153524417628 -0.0008085391355753183 0.0 0.0016917709642327943 0.0 0.0
0.0012957744749207349 -0.0005551696241429032 0.0 0.001628749700141429 0.0 0.0
0.0009215343228061508 -0.0003716813219894886 0.0 0.0015569223022253843 0.0 0.0
0.0005680433481996548 -0.00017253043888453983 0.0 0.0014837594527937067 0.0 0.0
0.0002647993749492897 -4.273552484401802e-05 0.0 0.0016388021672684645 0.0 0.0
0.0008013217122997166 -0.00034565145905706004 0.0 0.002793258711311151 0.0 0.0
0.0014619546923340665 -0.0050174367711602105 0.0 0.001880071656299971 0.0 0.0
0.0010484640504088978 -0.0038622369076316398 0.0 -0.0016193692924646981 0.0 0.0
0.0005651889651588623 -0.00036598910538462724 0.0 -0.0025189356906967866 0.0 0.0
0.00015474724340340228 -2.4704431058145595e-05 0.0 -0.00186372118369556 0.0 0.0
0.0003711816036139819 -8.296020281555763e-05 0.0 -0.0017074248401387146 0.0 0.0
0.0006623484893401067 -0.00025039252521558776 0.0 -0.001759425776523047 0.0 0.0
0.0009697222494798108 -0.0004153493134538922 0.0 -0.0018652223283913629 0.0 0.0
0.0013654451651228022 -0.000585633226938029 0.0 -0.001940281769954037 0.0 0.0
0.00200517549993145 -0.000933901887323165 0.0 -0.002124388857207896 0.0 0.0
0.0030054539531774453 -0.0016231056874867556 0.0 -0.002601944854523258 0.0 0.0
0.004368914360711414 -0.002723611855095891 0.0 -0.0034283233804218135 0.0 0.0
0.006020454930608194 -0.004147705938314344 0.0 -0.00443295016510824 0.0 0.0
0.007915955392119466 -0.005836129205067077 0.0 -0.005431057756700665 0.0 0.0
0.010116094989617404 -0.007831193094690289 0.0 -0.006434765757612191 0.0 0.0
0.012744243438400285 -0.010272034330586165 0.0 -0.007520096847987148 0.0 0.0
0.01592788573009235 -0.013288761701408998 0.0 -0.008766700304499692 0.0 0.0
0.01974236361284721 -0.016962453991307972 0.0 -0.010141913874071654 0.0 0.0
0.024161453191531474 -0.021267400086197964 0.0 -0.01145548067620121 0.0 0.0
0.029053092991248815 -0.026057882258989355 0.0 -0.012263738759125307 0.0 0.0
0.034182861439032174 -0.03112166959676929 0.0 -0.01200112951260192 0.0 0.0
0.03903777798430487 -0.036062108130132726 0.0 -0.009580333467797169 0.0 0.0
0.04130527788137134 -0.03985349127758754 0.0 1.0161576441403142e-14 0.0 0.0
0.03903777798430008 -0.03606210813012793 0.0 0.009580333467822572 0.0 0.0
0.034182861439024076 -0.031121669596762214 0.0 0.012001129512628314 0.0 0.0
0.029053092991238823 -0.026057882258978825 0.0 0.012263738759140295 0.0 0.0
0.024161453191520108 -0.021267400086190408 0.0 0.011455480676203065 0.0 0.0
0.019742363612835122 -0.016962453991294597 0.0 0.010141913874067139 0.0 0.0
0.01592788573008069 -0.013288761701396562 0.0 0.008766700304495457 0.0 0.0
0.012744243438389419 -0.010272034330577797 0.0 0.0075200968479840775 0.0 0.0
0.010116094989606476 -0.007831193094682644 0.0 0.006434765757607738 0.0 0.0
0.007915955392108334 -0.005836129205055303 0.0 0.005431057756694582 0.0 0.0
0.006020454930598467 -0.004147705938306798 0.0 0.004432950165100477 0.0 0.0
0.004368914360703478 -0.002723611855087481 0.0 0.0034283233804139387 0.0 0.0
0.003005453953171422 -0.0016231056874818925 0.0 0.0026019448545197867 0.0 0.0
0.002005175499927787 -0.0009339018873201527 0.0 0.002124388857205206 0.0 0.0
0.0013654451651210803 -0.0005856332269370313 0.0 0.0019402817699526306 0.0 0.0
0.0009697222494789918 -0.00041534931345273043 0.0 0.0018652223283893345 0.0 0.0
0.0006623484893395789 -0.00025039252521562446 0.0 0.0017594257765204007 0.0 0.0
0.0003711816036137131 -8.296020281485014e-05 0.0 0.0017074248401361403 0.0 0.0
0.00015474724340319414 -2.470443105816256e-05 0.0 0.001863721183693147 0.0 0.0
0.0005651889651574212 -0.0003659891053844765 0.0 0.0025189356906922264 0.0 0.0
0.0010484640504061686 -0.0038622369076242603 0.0 0.001619369292462913 0.0 0.0
0.0007485220726472123 -0.0029637362932206836 0.0 -0.0014893490248537766 0.0 0.0
0.00038332413082306646 -0.00038859453824981616 0.0 -0.0023010209915175547 0.0 0.0
4.900372620029188e-05 -7.168113644434965e-07 0.0 -0.002027574807273303 0.0 0.0
0.0001853304950664995 -3.4266748776406512e-06 0.0 -0.0018890810916122169 0.0 0.0
0.000404520149150249 -0.0001308473780482075 0.0 -0.0019232154473766416 0.0 0.0
0.0006356788194883298 -0.0002637297217548169 0.0 -0.0020431845800588967 0.0 0.0
0.0009100167094626681 -0.00039091591430237365 0.0 -0.002168711678035241 0.0 0.0
0.001311392636839305 -0.0005780837468333994 0.0 -0.0022845800601452213 0.0 0.0
0.0019283694497479035 -0.0009306618867488496 0.0 -0.0025203650372877767 0.0 0.0
0.0028072950470276158 -0.0015442612564050403 0.0 -0.0029878075110570334 0.0 0.0
0.003918013361033131 -0.002419647790123753 0.0 -0.003747395736466378 0.0 0.0
0.005204437419129065 -0.003507198888177782 0.0 -0.004603290948361375 0.0 0.0
0.006680094258087147 -0.004788732713183373 0.0 -0.005516919005361299 0.0 0.0
0.008427125426705534 -0.006366847277579505 0.0 -0.0064794557755421716 0.0 0.0
0.010545803266938594 -0.008334318077323346 0.0 -0.007519473265944771 0.0 0.0
0.013125058990312344 -0.010781094291720016 0.0 -0.008653796762377215 0.0 0.0
0.016219738406967103 -0.013753873891409033 0.0 -0.009781825341811906 0.0 0.0
0.019816735694650974 -0.01724655951596701 0.0 -0.010574049815758808 0.0 0.0
0.023885447038639526 -0.02120283939318466 0.0 -0.010527774452786012 0.0 0.0
0.028281131735219196 -0.025598788850962798 0.0 -0.009044020275554827 0.0 0.0
0.030524485985422428 -0.02978052072270837 0.0 8.111133292798556e-15 0.0 0.0
0.028281131735215917 -0.025598788850958322 0.0 0.009044020275575996 0.0 0.0
0.02388544703863397 -0.021202839393184104 0.0 0.01052777445280916 0.0 0.0
0.019816735694643803 -0.017246559515960398 0.0 0.010574049815772145 0.0 0.0
0.016219738406959106 -0.013753873891404991 0.0 0.00978182534181243 0.0 0.0
0.013125058990304174 -0.010781094291711096 0.0 0.00865379676237315 0.0 0.0
0.010545803266930935 -0.00833431807731729 0.0 0.007519473265941098 0.0 0.0
0.008427125426698852 -0.006366847277576065 0.0 0.006479455775540778 0.0 0.0
0.0066800942580805215 -0.00478873271317864 0.0 0.005516919005358286 0.0 0.0
0.005204437419121974 -0.0035071988881695904 0.0 0.004603290948355263 0.0 0.0
0.003918013361026688 -0.0024196477901190193 0.0 0.0037473957364594548 0.0 0.0
0.002807295047022563 -0.001544261256403348 0.0 0.002987807511050619 0.0 0.0
0.001928369449744307 -0.0009306618867467534 0.0 0.0025203650372870117 0.0 0.0
0.0013113926368372396 -0.0005780837468334228 0.0 0.002284580060143842 0.0 0.0
0.0009100167094616462 -0.0003909159143003167 0.0 0.0021687116780337223 0.0 0.0
0.0006356788194878914 -0.0002637297217551717 0.0 0.0020431845800561875 0.0 0.0
0.0004045201491500617 -0.00013084737804803823 0.0 0.0019232154473748518 0.0 0.0
0.0001853304950663665 -3.426674877163361e-06 0.0 0.0018890810916101833 0.0 0.0
4.900372620015613e-05 -7.168113644590967e-07 0.0 0.0020275748072712927 0.0 0.0
0.0003833241308221373 -0.00038859453824981085 0.0 0.002301020991514505 0.0 0.0
0.0007485220726456099 -0.00296373629321556 0.0 0.0014893490248521909 0.0 0.0
0.0005419343657705828 -0.002297231729356952 0.0 -0.0014280574549753455 0.0 0.0
0.00024882580038038034 -0.0004050776440958559 0.0 -0.0021506219384017 0.0 0.0
-5.133490620725037e-05 2.7999084881007334e-05 0.0 -0.002132731592009264 0.0 0.0
8.38051075824385e-06 6.896648291625855e-05 0.0 -0.002022489188628564 0.0 0.0
0.00015012487574833218 -1.4171829225431183e-05 0.0 -0.0020412291226492214 0.0 0.0
0.00029616029858368855 -0.0001070195438593365 0.0 -0.002160154698753396 0.0 0.0
0.00045073330749771895 -0.00019061641195446585 0.0 -0.002317858220367001 0.0 0.0
0.0006533846314278279 -0.0002848592502608007 0.0 -0.0024570595433805447 0.0 0.0
0.0009504485417630524 -0.0004236383840666894 0.0 -0.00256180028598413 0.0 0.0
0.0013635207615120216 -0.0006619483603683858 0.0 -0.0027292788492035026 0.0 0.0
0.001904364223501655 -0.0010251422262425986 0.0 -0.003090971098497833 0.0 0.0
0.002552012573810821 -0.0015068562718078082 0.0 -0.003642479275970311 0.0 0.0
0.003295142800216318 -0.0020846083873244455 0.0 -0.004315132417937338 0.0 0.0
0.0041790529780613185 -0.0028117739279611845 0.0 -0.005092450899394232 0.0 0.0
0.0052550001408966296 -0.0037302626467775202 0.0 -0.005970266106949426 0.0 0.0
0.006601659927798251 -0.004932514398041418 0.0 -0.006969203247006378 0.0 0.0
0.008336309171725216 -0.006527105044802206 0.0 -0.008021836637420345 0.0 0.0
0.010598275079025457 -0.008662371697880766 0.0 -0.008861034147425268 0.0 0.0
0.013469165360599921 -0.011423626401237773 0.0 -0.008936295936958783 0.0 0.0
0.01715008331714409 -0.014916657433567567 0.0 -0.007881940910312617 0.0 0.0
0.019240870359750122 -0.01939490822894093 0.0 5.657366936029362e-15 0.0 0.0
0.017150083317142687 -0.014916657433565256 0.0 0.007881940910330655 0.0 0.0
0.013469165360596865 -0.011423626401239558 0.0 0.008936295936977636 0.0 0.0
0.010598275079021233 -0.008662371697874986 0.0 0.008861034147433972 0.0 0.0
0.008336309171721063 -0.006527105044799746 0.0 0.008021836637417804 0.0 0.0
0.006601659927794397 -0.0049325143980387355 0.0 0.006969203247001152 0.0 0.0
0.005255000140893392 -0.003730262646774664 0.0 0.005970266106945864 0.0 0.0
0.004179052978058994 -0.0028117739279606437 0.0 0.005092450899392292 0.0 0.0
0.003295142800213697 -0.0020846083873213746 0.0 0.004315132417934401 0.0 0.0
0.002552012573807644 -0.001506856271806135 0.0 0.0036424792759655496 0.0 0.0
0.0019043642234987733 -0.0010251422262380627 0.0 0.0030909710984928073 0.0 0.0
0.001363520761510223 -0.0006619483603659785 0.0 0.002729278849200244 0.0 0.0
0.0009504485417618733 -0.00042363838406632117 0.0 0.0025618002859831906 0.0 0.0
0.0006533846314269073 -0.0002848592502623133 0.0 0.0024570595433793313 0.0 0.0
0.0004507333074973682 -0.00019061641195354504 0.0 0.002317858220365202 0.0 0.0
0.0002961602985835787 -0.00010701954385996345 0.0 0.0021601546987500718 0.0 0.0
0.00015012487574828594 -1.4171829225425728e-05 0.0 0.0020412291226474927 0.0 0.0
8.380510758145821e-06 6.896648291634182e-05 0.0 0.0020224891886263846 0.0 0.0
-5.133490620716254e-05 2.799908488108043e-05 0.0 0.002132731592007306 0.0 0.0
0.0002488258003801027 -0.00040507764409589316 0.0 0.0021506219383997625 0.0 0.0
0.0005419343657696972 -0.0022972317293537396 0.0 0.0014280574549738706 0.0 0.0
0.0003969984138691573 -0.0018019858595051206 0.0 -0.001374416773415434 0.0 0.0
0.00014806571580368871 -0.0004019808524005358 0.0 -0.0020311855791989566 0.0 0.0
-0.00014431456971144137 5.6240781421014216e-05 0.0 -0.002185563305177208 0.0 0.0
-0.00016023866062943082 0.0001366876857657666 0.0 -0.0021039844855151447 0.0 0.0
-9.933990687597635e-05 9.851491783986857e-05 0.0 -0.0021081290352143087 0.0 0.0
-4.498192587934688e-05 5.006441534705143e-05 0.0 -0.002212122958833015 0.0 0.0
-1.4636672710064601e-05 1.4663398178607895e-05 0.0 -0.0023722988366973227 0.0 0.0
-2.713814234561935e-06 2.637776142782665e-06 0.0 -0.0025286336069426417 0.0 0.0
4.3297798692803926e-07 -7.394304148913206e-07 0.0 -0.002617316944516524 0.0 0.0
8.899003873086948e-07 -5.934916068760359e-07 0.0 -0.0027032442214837762 0.0 0.0
6.020612262411099e-07 -6.5454754132822e-07 0.0 -0.002840065679720112 0.0 0.0
-1.1201742947220634e-06 9.998710162538823e-07 0.0 -0.0031986594491146872 0.0 0.0
-6.361927642149919e-06 5.108278847057592e-06 0.0 -0.0036941404642496507 0.0 0.0
-1.3593598436557907e-05 1.1061430748315334e-05 0.0 -0.004348570364130123 0.0 0.0
-4.9043777425176235e-06 1.0764490451246883e-05 0.0 -0.005183035425994107 0.0 0.0
9.479691411011612e-05 -5.465894785641902e-05 0.0 -0.006201295944634392 0.0 0.0
0.000466321537284406 -0.0003404459900398834 0.0 -0.0073761920753719935 0.0 0.0
0.0013915176513296596 -0.0010881172287189151 0.0 -0.008581932535775105 0.0 0.0
0.0031042085904834774 -0.002564333429393698 0.0 -0.009541300399766679 0.0 0.0
0.005763594090677145 -0.004700886844559715 0.0 -0.009588922261988719 0.0 0.0
0.007351418359200124 -0.009404181112502167 0.0 6.595852336532815e-15 0.0 0.0
0.0057635940906771805 -0.004700886844560388 0.0 0.009588922262001975 0.0 0.0
0.0031042085904824934 -0.002564333429391286 0.0 0.009541300399775951 0.0 0.0
0.0013915176513290429 -0.0010881172287160851 0.0 0.008581932535778186 0.0 0.0
0.00046632153728489405 -0.0003404459900418033 0.0 0.00737619207536871 0.0 0.0
9.47969141110609e-05 -5.465894785632665e-05 0.0 0.006201295944630895 0.0 0.0
-4.904377741583041e-06 1.0764490452156746e-05 0.0 0.005183035425991739 0.0 0.0
-1.3593598435097053e-05 1.1061430745008138e-05 0.0 0.004348570364128391 0.0 0.0
-6.361927640595173e-06 5.108278848395538e-06 0.0 0.0036941404642460724 0.0 0.0
-1.1201742934282308e-06 9.99871013258435e-07 0.0 0.0031986594491106276 0.0 0.0
6.020612273601692e-07 -6.545475382544391e-07 0.0 0.0028400656797154876 0.0 0.0
8.899003879688113e-07 -5.934916044063183e-07 0.0 0.002703244221482437 0.0 0.0
4.3297798741309776e-07 -7.394304139977245e-07 0.0 0.0026173169445155974 0.0 0.0
-2.7138142341227655e-06 2.637776141972837e-06 0.0 0.0025286336069408567 0.0 0.0
-1.463667270985478e-05 1.4663398178885448e-05 0.0 0.0023722988366956664 0.0 0.0
-4.498192587896948e-05 5.006441534780971e-05 0.0 0.0022121229588302578 0.0 0.0
-9.933990687556723e-05 9.8514917838941e-05 0.0 0.0021081290352124955 0.0 0.0
-0.00016023866062917576 0.00013668768576523648 0.0 0.0021039844855126 0.0 0.0
-0.00014431456971137827 5.624078142127356e-05 0.0 0.002185563305175166 0.0 0.0
0.00014806571580339988 -0.0004019808524005872 0.0 0.002031185579196795 0.0 0.0
0.00039699841386874626 -0.001801985859503003 0.0 0.00137441677341356 0.0 0.0
0.0002952409311084067 -0.001409583638060691 0.0 -0.0012851504152851959 0.0 0.0
7.112395098610794e-05 -0.0003775421330332996 0.0 -0.001912169994066727 0.0 0.0
-0.00023063914935147085 8.312724014647755e-05 0.0 -0.0021871380133423476 0.0 0.0
-0.00032052496996930717 0.00020037794337815525 0.0 -0.0021323495960630656 0.0 0.0
-0.00034221537977239196 0.0002059848620883442 0.0 -0.002119970791799368 0.0 0.0
-0.0003819541900417913 0.00020484913434825415 0.0 -0.0021969805502798827 0.0 0.0
-0.00047922125529669757 0.0002195271431636145 0.0 -0.002332951978358037 0.0 0.0
-0.000659294336485795 0.00028992732221648206 0.0 -0.0024615571135450376 0.0 0.0
-0.0009493725436796677 0.0004221390308691501 0.0 -0.0025625587092632904 0.0 0.0
-0.0013615636716100207 0.0006604065980383187 0.0 -0.0027281372141506758 0.0 0.0
-0.0019030867862546209 0.0010241166549818726 0.0 -0.0030891521432052566 0.0 0.0
-0.0025543175143620655 0.0015090070496693486 0.0 -0.0036414179575128187 0.0 0.0
-0.0033076091549954995 0.0020952245945194225 0.0 -0.004309886221528655 0.0 0.0
-0.004206733731697417 0.002837300457386981 0.0 -0.005080360746677738 0.0 0.0
-0.005265532338055837 0.00375528906431968 0.0 -0.005977763742095331 0.0 0.0
-0.006421175098768708 0.004822997027928288 0.0 -0.007076694667086257 0.0 0.0
-0.007472700797620087 0.005850941141479445 0.0 -0.008451362029996584 0.0 0.0
-0.008053555859312505 0.006493796359169029 0.0 -0.010149982959171605 0.0 0.0
-0.0076866130049827695 0.006279352453582627 0.0 -0.012027158458268187 0.0 0.0
-0.005375122721752515 0.004571934723972249 0.0 -0.012780139276003221 0.0 0.0
-0.0035474963971186203 -0.0006931389414822986 0.0 7.713881616799867e-15 0.0 0.0
-0.005375122721752997 0.004571934723971559 0.0 0.012780139276017219 0.0 0.0
-0.0076866130049815205 0.006279352453585452 0.0 0.012027158458280202 0.0 0.0
-0.008053555859308342 0.006493796359168172 0.0 0.010149982959173695 0.0 0.0
-0.007472700797614222 0.00585094114147102 0.0 0.008451362029992571 0.0 0.0
-0.006421175098763007 0.004822997027924707 0.0 0.007076694667082491 0.0 0.0
-0.005265532338050921 0.0037552890643171586 0.0 0.005977763742091248 0.0 0.0
-0.004206733731692117 0.002837300457380002 0.0 0.005080360746674151 0.0 0.0
-0.0033076091549893855 0.002095224594515125 0.0 0.004309886221523523 0.0 0.0
-0.002554317514356168 0.0015090070496638433 0.0 0.0036414179575073 0.0 0.0
-0.0019030867862494414 0.0010241166549801802 0.0 0.0030891521431992645 0.0 0.0
-0.0013615636716062785 0.0006604065980360764 0.0 0.0027281372141483625 0.0 0.0
-0.0009493725436774995 0.0004221390308692736 0.0 0.0025625587092628094 0.0 0.0
-0.000659294336484231 0.0002899273222157957 0.0 0.002461557113544415 0.0 0.0
-0.00047922125529562736 0.00021952714316279126 0.0 0.00233295197835564 0.0 0.0
-0.0003819541900412592 0.00020484913434834083 0.0 0.0021969805502776462 0.0 0.0
-0.0003422153797720214 0.00020598486208763195 0.0 0.0021199707917977768 0.0 0.0
-0.0003205249699689981 0.00020037794337775377 0.0 0.002132349596060796 0.0 0.0
-0.00023063914935144146 8.312724014701109e-05 0.0 0.002187138013340227 0.0 0.0
7.112395098585035e-05 -0.0003775421330335845 0.0 0.001912169994065089 0.0 0.0
0.00029524093110794964 -0.0014095836380589534 0.0 0.0012851504152837023 0.0 0.0
0.00021097012907445744 -0.0010734095914673725 0.0 -0.0011545840834656304 0.0 0.0
4.812777781474206e-06 -0.00033699100997310435 0.0 -0.0017792327839401961 0.0 0.0
-0.0003112139220338054 0.00011034777733698057 0.0 -0.0021366627234959312 0.0 0.0
-0.0004728108902431399 0.0002598778783207014 0.0 -0.0021068972335075245 0.0 0.0
-0.0005770584704201975 0.0003076902574061415 0.0 -0.002074758753105223 0.0 0.0
-0.0007121804829079223 0.00035352470831797065 0.0 -0.0021159773687376288 0.0 0.0
-0.0009354860277338809 0.00041907374486569154 0.0 -0.0021998595369916176 0.0 0.0
-0.001315998642346344 0.0005825645429829512 0.0 -0.002293623956149035 0.0 0.0
-0.0019270616744367802 0.0009285923407864178 0.0 -0.0025203501939514163 0.0 0.0
-0.0028051724410083235 0.0015420981559070208 0.0 -0.0029846791653883008 0.0 0.0
-0.003917184189198763 0.0024192585230416955 0.0 -0.0037457102680503954 0.0 0.0
-0.005206350219758701 0.003509386765688232 0.0 -0.004602607263014981 0.0 0.0
-0.0066900542413829145 0.0047978143172302656 0.0 -0.0055054486729293 0.0 0.0
-0.008452762210321763 0.006392361313475252 0.0 -0.006444637495370112 0.0 0.0
-0.010563203247366947 0.0083632500560288 0.0 -0.007496450126315765 0.0 0.0
-0.012980488482558365 0.010692435632106053 0.0 -0.008827623938695538 0.0 0.0
-0.015465417370385585 0.01315548793943641 0.0 -0.010637506680299212 0.0 0.0
-0.017537827715738783 0.015262634968738038 0.0 -0.013019347107541025 0.0 0.0
-0.018290844730924242 0.01615693832187589 0.0 -0.015478344319883104 0.0 0.0
-0.016207026024527026 0.014200690273593445 0.0 -0.015981402198993796 0.0 0.0
-0.014227531044566585 0.007286491118612381 0.0 8.025698161606698e-15 0.0 0.0
-0.016207026024526908 0.014200690273593046 0.0 0.015981402199012257 0.0 0.0
-0.01829084473092071 0.016156938321870762 0.0 0.01547834431990083 0.0 0.0
-0.017537827715731102 0.015262634968730905 0.0 0.013019347107547756 0.0 0.0
-0.015465417370375389 0.013155487939427026 0.0 0.010637506680295991 0.0 0.0
-0.0129804884825485 0.010692435632094625 0.0 0.008827623938690802 0.0 0.0
-0.010563203247358061 0.00836325005602275 0.0 0.007496450126310216 0.0 0.0
-0.008452762210312402 0.006392361313467551 0.0 0.006444637495365418 0.0 0.0
-0.0066900542413727985 0.004797814317221403 0.0 0.005505448672924383 0.0 0.0
-0.005206350219748794 0.0035093867656798353 0.0 0.004602607263006413 0.0 0.0
-0.003917184189189779 0.002419258523033063 0.0 0.003745710268041526 0.0 0.0
-0.002805172441001292 0.0015420981559019435 0.0 0.002984679165382735 0.0 0.0
-0.0019270616744320795 0.000928592340785022 0.0 0.0025203501939493386 0.0 0.0
-0.0013159986423436462 0.0005825645429832669 0.0 0.002293623956147887 0.0 0.0
-0.000935486027732312 0.0004190737448648329 0.0 0.0021998595369897805 0.0 0.0
-0.0007121804829067812 0.0003535247083172991 0.0 0.0021159773687354686 0.0 0.0
-0.0005770584704195387 0.00030769025740599805 0.0 0.002074758753103583 0.0 0.0
-0.00047281089024270567 0.0002598778783205674 0.0 0.0021068972335045863 0.0 0.0
-0.0003112139220335015 0.00011034777733748365 0.0 0.0021366627234942755 0.0 0.0
4.8127777815189835e-06 -0.00033699100997331837 0.0 0.0017792327839388914 0.0 0.0
0.00021097012907428478 -0.0010734095914661098 0.0 0.0011545840834644718 0.0 0.0
0.000136029065581506 -0.0007854481774049577 0.0 -0.001010496298956306 0.0 0.0
-5.6425742122738854e-05 -0.00028311792797457744 0.0 -0.0016228733953594975 0.0 0.0
-0.0003880439497920721 0.0001390196227752682 0.0 -0.0020352318921073856 0.0 0.0
-0.000617472470249882 0.00031540734955821324 0.0 -0.0020272901065194024 0.0 0.0
-0.0008029588419671696 0.0004026183466364209 0.0 -0.0019737038598122113 0.0 0.0
-0.0010303393615744378 0.0004927905943860298 0.0 -0.001964477251569403 0.0 0.0
-0.0013862766533310593 0.0006132614873541048 0.0 -0.0019849918212850198 0.0 0.0
-0.0020086790096817053 0.0009366650637937541 0.0 -0.002135712355084649 0.0 0.0
-0.0030032651363225064 0.0016200329276010404 0.0 -0.0025993089369528138 0.0 0.0
-0.004367183512943976 0.002721464740466385 0.0 -0.0034239347595660516 0.0 0.0
-0.006020486658223595 0.00414830508288053 0.0 -0.004432066365761692 0.0 0.0
-0.007917044317377588 0.005838041524741685 0.0 -0.005430573503267667 0.0 0.0
-0.010120200722683556 0.007835202806130283 0.0 -0.006419466903790233 0.0 0.0
-0.012759134762043427 0.010285349685766164 0.0 -0.007459914299631245 0.0 0.0
-0.015945854258173478 0.013311142654287629 0.0 -0.008678739643647038 0.0 0.0
-0.019661304024030244 0.0169222505205968 0.0 -0.010286655922568113 0.0 0.0
-0.023630279863575628 0.020869020355588914 0.0 -0.01262699883789689 0.0 0.0
-0.027149777816045356 0.024480713952597564 0.0 -0.015840385249520396 0.0 0.0
-0.028868601292676786 0.026398511195624273 0.0 -0.019068412240384372 0.0 0.0
-0.026536184132819378 0.024430344605802592 0.0 -0.020130571452412902 0.0 0.0
-0.024011184609867058 0.015078474786181868 0.0 9.115538185389127e-15 0.0 0.0
-0.026536184132817726 0.024430344605799424 0.0 0.02013057145243675 0.0 0.0
-0.028868601292671235 0.0263985111956165 0.0 0.019068412240407333 0.0 0.0
-0.027149777816034608 0.02448071395258983 0.0 0.015840385249531852 0.0 0.0
-0.023630279863561702 0.020869020355575085 0.0 0.012626998837895328 0.0 0.0
-0.019661304024016446 0.01692225052058426 0.0 0.010286655922562005 0.0 0.0
-0.01594585425816063 0.013311142654278733 0.0 0.008678739643641433 0.0 0.0
-0.012759134762029868 0.01028534968575307 0.0 0.007459914299625149 0.0 0.0
-0.010120200722669248 0.007835202806119252 0.0 0.006419466903783502 0.0 0.0
-0.007917044317363712 0.005838041524730092 0.0 0.0054305735032582 0.0 0.0
-0.006020486658210884 0.004148305082867213 0.0 0.004432066365751053 0.0 0.0
-0.0043671835129338345 0.0027214647404568103 0.0 0.0034239347595575375 0.0 0.0
-0.0030032651363153715 0.0016200329275968999 0.0 0.0025993089369493725 0.0 0.0
-0.0020086790096772193 0.0009366650637923175 0.0 0.0021357123550823473 0.0 0.0
-0.0013862766533285678 0.0006132614873538232 0.0 0.0019849918212838575 0.0 0.0
-0.0010303393615730123 0.0004927905943852917 0.0 0.0019644772515669514 0.0 0.0
-0.0008029588419664084 0.0004026183466366917 0.0 0.0019737038598097723 0.0 0.0
-0.0006174724702492708 0.0003154073495580312 0.0 0.002027290106517255 0.0 0.0
-0.0003880439497916039 0.0001390196227754883 0.0 0.002035231892106015 0.0 0.0
-5.642574212272874e-05 -0.00028311792797446755 0.0 0.001622873395357949 0.0 0.0
0.00013602906558127744 -0.0007854481774041171 0.0 0.0010104962989552434 0.0 0.0
6.83980597418646e-05 -0.0005423018603854531 0.0 -0.0008612609293597968 0.0 0.0
-0.00011437914184577507 -0.00022031812769121822 0.0 -0.0014429061391538326 0.0 0.0
-0.0004625216211009216 0.0001702060278264105 0.0 -0.0018841985489119742 0.0 0.0
-0.0007553415385250437 0.00036707548311550964 0.0 -0.0018939501108990566 0.0 0.0
-0.0010175436446347161 0.0004903348369835269 0.0 -0.001816568960079912 0.0 0.0
-0.0013374177964572702 0.0006178546453218695 0.0 -0.0017433214584277631 0.0 0.0
-0.0018578834620993209 0.0008335851428771096 0.0 -0.0017430489116472287 0.0 0.0
-0.0027711169277898884 0.001405927883952629 0.0 -0.0020226635836520335 0.0 0.0
-0.004171288626974991 0.0025055250903784966 0.0 -0.0027230725881984595 0.0 0.0
-0.006000760468424149 0.004083198076036492 0.0 -0.0037297806951273552 0.0 0.0
-0.008163803040454736 0.0060171638038184596 0.0 -0.004774559492738269 0.0 0.0
-0.010660477251274572 0.008294506746259873 0.0 -0.005792250240072177 0.0 0.0
-0.013595526053461406 0.011004843588575314 0.0 -0.006811730399549002 0.0 0.0
-0.017128348362706967 0.014322543670425729 0.0 -0.007921499932962836 0.0 0.0
-0.021405779176661213 0.018411272196357246 0.0 -0.009227695933557028 0.0 0.0
-0.026441321919439018 0.023319760925371354 0.0 -0.010986965531051824 0.0 0.0
-0.031905342317962285 0.028767384534933313 0.0 -0.013598096221332378 0.0 0.0
-0.03683156832437513 0.03384431099201385 0.0 -0.01727164017814861 0.0 0.0
-0.039358911924740635 0.036698554107321514 0.0 -0.021250113429164153 0.0 0.0
-0.03648370423764869 0.03437673517434403 0.0 -0.02315967942710855 0.0 0.0
-0.03324007026053371 0.022606840066881066 0.0 1.0778704317981891e-14 0.0 0.0
-0.03648370423764551 0.034376735174341796 0.0 0.02315967942713333 0.0 0.0
-0.03935891192473276 0.03669855410731637 0.0 0.021250113429189494 0.0 0.0
-0.03683156832436152 0.033844310992004696 0.0 0.017271640178162847 0.0 0.0
-0.03190534231794521 0.02876738453491473 0.0 0.0135980962213333 0.0 0.0
-0.026441321919421643 0.023319760925357806 0.0 0.010986965531046378 0.0 0.0
-0.02140577917664424 0.018411272196344537 0.0 0.009227695933550937 0.0 0.0
-0.017128348362689325 0.014322543670408205 0.0 0.007921499932957024 0.0 0.0
-0.013595526053443347 0.011004843588558773 0.0 0.006811730399542713 0.0 0.0
-0.010660477251256949 0.008294506746244585 0.0 0.0057922502400631955 0.0 0.0
-0.008163803040438471 0.006017163803802166 0.0 0.004774559492727199 0.0 0.0
-0.00600076046841072 0.004083198076024462 0.0 0.0037297806951175254 0.0 0.0
-0.004171288626964993 0.0025055250903708933 0.0 0.002723072588193244 0.0 0.0
-0.002771116927783563 0.0014059278839472227 0.0 0.0020226635836492154 0.0 0.0
-0.0018578834620958844 0.0008335851428760727 0.0 0.0017430489116454593 0.0 0.0
-0.0013374177964554606 0.0006178546453210315 0.0 0.001743321458426328 0.0 0.0
-0.0010175436446335886 0.0004903348369836894 0.0 0.0018165689600781907 0.0 0.0
-0.0007553415385242121 0.00036707548311512307 0.0 0.001893950110898047 0.0 0.0
-0.0004625216211005407 0.00017020602782608215 0.0 0.0018841985489107494 0.0 0.0
-0.0001143791418457544 -0.00022031812769090207 0.0 0.0014429061391525377 0.0 0.0
6.83980597417566e-05 -0.0005423018603848319 0.0 0.0008612609293595298 0.0 0.0
8.343032729981516e-06 -0.0003425641480804477 0.0 -0.0007088451639649476 0.0 0.0
-0.0001688067287790528 -0.00015308722425169227 0.0 -0.0012410225797612712 0.0 0.0
-0.0005349893135073097 0.00020391976252984444 0.0 -0.001685371871366414 0.0 0.0
-0.0008866671888759182 0.0004152742935532395 0.0 -0.0017073732758805136 0.0 0.0
-0.0012204653832901002 0.0005696597911465309 0.0 -0.00160433291275504 0.0 0.0
-0.0016457250265636556 0.0007389866823739437 0.0 -0.0014752564391113643 0.0 0.0
-0.00236851395453927 0.0011106461130152368 0.0 -0.0014950918028048437 0.0 0.0
-0.003606754763229458 0.002003882266992235 0.0 -0.0019130837600871533 0.0 0.0
-0.005406266999213522 0.0035273856914075806 0.0 -0.0027605880551157514 0.0 0.0
-0.0076625711311136165 0.005532003722976571 0.0 -0.0037494298980336287 0.0 0.0
-0.01032143599002081 0.007952261578857185 0.0 -0.004737432849074317 0.0 0.0
-0.01343229995692255 0.010823466335337486 0.0 -0.005715985735870764 0.0 0.0
-0.017116412288311827 0.014260034525537847 0.0 -0.006718153285376933 0.0 0.0
-0.021554626354657824 0.01845953036363093 0.0 -0.007837171872232035 0.0 0.0
-0.02692691708280341 0.023613664512463946 0.0 -0.009172269088933031 0.0 0.0
-0.033266366545063125 0.029796887358287415 0.0 -0.010893159989008493 0.0 0.0
-0.04018432262026521 0.03670679188781501 0.0 -0.013404502394906394 0.0 0.0
-0.04647324261616516 0.04321446897498658 0.0 -0.017140423006635555 0.0 0.0
-0.04972899016665551 0.04693930270955631 0.0 -0.021710743213856968 0.0 0.0
-0.046257451350740095 0.04418858701772163 0.0 -0.02517525080336658 0.0 0.0
-0.04230073875973606 0.03008789439448388 0.0 1.1439633962329054e-14 0.0 0.0
-0.04625745135073556 0.04418858701771877 0.0 0.025175250803393653 0.0 0.0
-0.049728990166645115 0.04693930270954759 0.0 0.021710743213883246 0.0 0.0
-0.04647324261614881 0.04321446897497014 0.0 0.01714042300665084 0.0 0.0
-0.040184322620245266 0.036706791887795215 0.0 0.013404502394908754 0.0 0.0
-0.03326636654504242 0.02979688735826904 0.0 0.01089315998900467 0.0 0.0
-0.02692691708278257 0.0236136645124457 0.0 0.009172269088928427 0.0 0.0
-0.021554626354636126 0.01845953036361282 0.0 0.007837171872226309 0.0 0.0
-0.017116412288289782 0.01426003452551327 0.0 0.00671815328537014 0.0 0.0
-0.013432299956901268 0.010823466335318171 0.0 0.005715985735861957 0.0 0.0
-0.010321435990001364 0.00795226157883846 0.0 0.004737432849063106 0.0 0.0
-0.00766257113109739 0.005532003722963357 0.0 0.00374942989802531 0.0 0.0
-0.005406266999200999 0.0035273856913978453 0.0 0.002760588055108688 0.0 0.0
-0.0036067547632207646 0.0020038822669851374 0.0 0.0019130837600830723 0.0 0.0
-0.0023685139545343444 0.001110646113012792 0.0 0.0014950918028024042 0.0 0.0
-0.001645725026561301 0.000738986682372541 0.0 0.001475256439111462 0.0 0.0
-0.00122046538328878 0.0005696597911458321 0.0 0.0016043329127542203 0.0 0.0
-0.0008866671888750055 0.0004152742935527047 0.0 0.0017073732758793128 0.0 0.0
-0.0005349893135067234 0.00020391976252909021 0.0 0.001685371871365414 0.0 0.0
-0.00016880672877879328 -0.00015308722425126122 0.0 0.0012410225797600586 0.0 0.0
8.343032730163463e-06 -0.0003425641480801443 0.0 0.0007088451639637328 0.0 0.0
-4.264172214022979e-05 -0.00018625213136857797 0.0 -0.0005545100218678929 0.0 0.0
-0.00021798297412452218 -8.562092800863379e-05 0.0 -0.0010192177871831346 0.0 0.0
-0.0006047891239672253 0.00023884857235893667 0.0 -0.0014401912047825546 0.0 0.0
-0.001011956052190366 0.00046107700450668057 0.0 -0.001467168520529173 0.0 0.0
-0.0014171479169405434 0.0006385189253487795 0.0 -0.0013407212599988632 0.0 0.0
-0.00196610372192691 0.0008755752393224852 0.0 -0.0011749365465427838 0.0 0.0
-0.0029299720534300224 0.0014658035320880632 0.0 -0.001245362442416145 0.0 0.0
-0.00450710480698513 0.0027262137065251187 0.0 -0.0017893994188992088 0.0 0.0
-0.006667527685750682 0.004615461639329137 0.0 -0.0025915053546657785 0.0 0.0
-0.009328247742011339 0.007019642747608709 0.0 -0.003459240269263352 0.0 0.0
-0.012492653732201913 0.009929450186264902 0.0 -0.004354107409942088 0.0 0.0
-0.016226479773230138 0.013400628672347759 0.0 -0.005238755247385211 0.0 0.0
-0.020675131001978427 0.017578744926059695 0.0 -0.006162453773657425 0.0 0.0
-0.026038219051691083 0.0226779803806261 0.0 -0.007227097226882943 0.0 0.0
-0.032490021962589696 0.028891500896008206 0.0 -0.008509459441928059 0.0 0.0
-0.04006860718498153 0.03628844973648271 0.0 -0.01005784122564488 0.0 0.0
-0.04836709176532116 0.044561792498504546 0.0 -0.01212619197533962 0.0 0.0
-0.05596700791935737 0.052441399878186405 0.0 -0.01541886004345928 0.0 0.0
-0.05998670929121504 0.05708437102541862 0.0 -0.02042462979839648 0.0 0.0
-0.056066523196005816 0.05408446952193133 0.0 -0.02635755341536419 0.0 0.0
-0.05149173405607719 0.03780076491892362 0.0 1.0869777300470673e-14 0.0 0.0
-0.05606652319599965 0.05408446952192387 0.0 0.0263575534153893 0.0 0.0
-0.05998670929120224 0.05708437102540495 0.0 0.02042462979842221 0.0 0.0
-0.05596700791933837 0.05244139987816617 0.0 0.015418860043473679 0.0 0.0
-0.04836709176529842 0.04456179249848355 0.0 0.012126191975342303 0.0 0.0
-0.04006860718495737 0.036288449736460796 0.0 0.010057841225643715 0.0 0.0
-0.0324900219625651 0.028891500895983448 0.0 0.00850945944192469 0.0 0.0
-0.026038219051665756 0.02267798038060438 0.0 0.007227097226878186 0.0 0.0
-0.0206751310019525 0.01757874492603144 0.0 0.006162453773649865 0.0 0.0
-0.0162264797732051 0.013400628672325424 0.0 0.005238755247377125 0.0 0.0
-0.0124926537321791 0.009929450186243319 0.0 0.0043541074099331 0.0 0.0
-0.009328247741992209 0.007019642747589688 0.0 0.003459240269255889 0.0 0.0
-0.006667527685735739 0.004615461639316286 0.0 0.0025915053546597304 0.0 0.0
-0.004507104806974301 0.0027262137065164594 0.0 0.0017893994188946044 0.0 0.0
-0.002929972053423523 0.0014658035320840289 0.0 0.001245362442413513 0.0 0.0
-0.0019661037219238973 0.0008755752393199555 0.0 0.0011749365465419093 0.0 0.0
-0.001417147916939174 0.0006385189253486024 0.0 0.0013407212599981099 0.0 0.0
-0.00101195605218946 0.000461077004505875 0.0 0.0014671685205272088 0.0 0.0
-0.0006047891239667259 0.00023884857235895228 0.0 0.0014401912047818206 0.0 0.0
-0.0002179829741243308 -8.562092800828123e-05 0.0 0.0010192177871817386 0.0 0.0
-4.264172214020915e-05 -0.00018625213136846226 0.0 0.0005545100218665959 0.0 0.0
-8.181553575095752e-05 -7.426369684966643e-05 0.0 -0.00040178230646246033 0.0 0.0
-0.0002587115856602061 -2.2273433411272327e-05 0.0 -0.0007800044795263746 0.0 0.0
-0.0006698648749978623 0.0002726662486055396 0.0 -0.0011478752669100657 0.0 0.0
-0.001132611247952493 0.0005049426601284365 0.0 -0.0011724417812461836 0.0 0.0
-0.0016135239875626718 0.0007014097920188819 0.0 -0.0010274969515342903 0.0 0.0
-0.0023144749490024855 0.0010425041583987328 0.0 -0.0008448459499446421 0.0 0.0
-0.003551766021063007 0.0019226083089195316 0.0 -0.0010151391438519902 0.0 0.0
-0.005437811942662244 0.003516468055544118 0.0 -0.0015412017539675287 0.0 0.0
-0.007925458316143219 0.005726829480909657 0.0 -0.002180944772943603 0.0 0.0
-0.010995946359241024 0.008531650093142596 0.0 -0.0029001391997596814 0.0 0.0
-0.014669327746313795 0.011932201800000652 0.0 -0.0036423671151831166 0.0 0.0
-0.01903688704918923 0.016012562474843978 0.0 -0.00437844297263847 0.0 0.0
-0.02426776299060775 0.02094637074298396 0.0 -0.005155095593077736 0.0 0.0
-0.030564208791235864 0.02696156929063222 0.0 -0.00608455836945875 0.0 0.0
-0.03808301809437791 0.034229574366052215 0.0 -0.007237899870242093 0.0 0.0
-0.046813026166382485 0.04275989220487947 0.0 -0.00854907571446819 0.0 0.0
-0.05632866288503349 0.05220960414844571 0.0 -0.009951794652005413 0.0 0.0
-0.06518059609671886 0.06134947178432544 0.0 -0.01216399167426904 0.0 0.0
-0.07015929762531979 0.06711296936539637 0.0 -0.017276473692991106 0.0 0.0
-0.06612420709868133 0.06429407634405221 0.0 -0.026490804111405832 0.0 0.0
-0.061097781954860764 0.0460569089089515 0.0 1.1106567054941507e-14 0.0 0.0
-0.06612420709867388 0.06429407634404462 0.0 0.02649080411142802 0.0 0.0
-0.07015929762530455 0.06711296936538126 0.0 0.01727647369301459 0.0 0.0
-0.06518059609669696 0.061349471784303666 0.0 0.012163991674281269 0.0 0.0
-0.05632866288500743 0.05220960414842393 0.0 0.009951794652008714 0.0 0.0
-0.046813026166354896 0.04275989220485329 0.0 0.008549075714467745 0.0 0.0
-0.03808301809434959 0.03422957436602186 0.0 0.007237899870239461 0.0 0.0
-0.030564208791206804 0.026961569290604493 0.0 0.006084558369454434 0.0 0.0
-0.02426776299057819 0.02094637074295335 0.0 0.005155095593072586 0.0 0.0
-0.019036887049160418 0.016012562474817863 0.0 0.004378442972631272 0.0 0.0
-0.014669327746288027 0.011932201799974975 0.0 0.003642367115175519 0.0 0.0
-0.01099594635921941 0.008531650093122015 0.0 0.0029001391997530283 0.0 0.0
-0.00792545831612586 0.005726829480893203 0.0 0.0021809447729386052 0.0 0.0
-0.00543781194264941 0.003516468055533669 0.0 0.001541201753962704 0.0 0.0
-0.0035517660210549716 0.001922608308913801 0.0 0.0010151391438493528 0.0 0.0
-0.0023144749489985394 0.0010425041583955372 0.0 0.000844845949943188 0.0 0.0
-0.0016135239875609273 0.0007014097920191326 0.0 0.0010274969515338289 0.0 0.0
-0.0011326112479514204 0.0005049426601273246 0.0 0.0011724417812453676 0.0 0.0
-0.0006698648749972847 0.0002726662486056468 0.0 0.0011478752669095834 0.0 0.0
-0.0002587115856600095 -2.227343341136908e-05 0.0 0.0007800044795258424 0.0 0.0
-8.181553575083576e-05 -7.426369684960454e-05 0.0 0.00040178230646140687 0.0 0.0
-0.00010468366978218436 -7.670704882690902e-06 0.0 -0.00025980488634488777 0.0 0.0
-0.00028556809002701795 3.138394731682249e-05 0.0 -0.0005267906978458474 0.0 0.0
-0.0007269888813125634 0.0003018287932488819 0.0 -0.0008032510779727143 0.0 0.0
-0.001250473245558633 0.0005477951828975049 0.0 -0.0008196544382312741 0.0 0.0
-0.0018196083314728616 0.0007684531735796495 0.0 -0.0006709916894672612 0.0 0.0
-0.0027087692374880316 0.0012740072688590116 0.0 -0.0005206227280674682 0.0 0.0
-0.004211841109303934 0.002459930098251028 0.0 -0.0007392833123002524 0.0 0.0
-0.006370844441242936 0.00432408795369503 0.0 -0.0011063858783535506 0.0 0.0
-0.009179685223968977 0.006853441826676257 0.0 -0.0015661463887616375 0.0 0.0
-0.012657351707897582 0.010054746948051004 0.0 -0.002082744374093524 0.0 0.0
-0.016845398044762785 0.013948818928423153 0.0 -0.002615684561116572 0.0 0.0
-0.021856507167054492 0.018647808162704022 0.0 -0.00314043556820161 0.0 0.0
-0.027879934592495097 0.024351728518523345 0.0 -0.0037056787969853996 0.0 0.0
-0.03512608171205079 0.03129409120376258 0.0 -0.004427600313766745 0.0 0.0
-0.043698743032610704 0.03960747289876143 0.0 -0.0053399380662603625 0.0 0.0
-0.053475212868587155 0.04919850299545234 0.0 -0.006326933689778543 0.0 0.0
-0.06397402238099925 0.059604673979139364 0.0 -0.0071281604265218765 0.0 0.0
-0.07395018953872617 0.06971192665275548 0.0 -0.007980328167184159 0.0 0.0
-0.08019961627820292 0.07686702293765327 0.0 -0.011807301300530228 0.0 0.0
-0.07665521768184512 0.07508581062434505 0.0 -0.02473880655993728 0.0 0.0
-0.07149607196091382 0.055334179777813186 0.0 8.484532521002563e-15 0.0 0.0
-0.07665521768183643 0.07508581062433552 0.0 0.024738806559955192 0.0 0.0
-0.08019961627818492 0.07686702293763657 0.0 0.011807301300548804 0.0 0.0
-0.07395018953870129 0.06971192665272975 0.0 0.007980328167193417 0.0 0.0
-0.06397402238096994 0.059604673979110276 0.0 0.007128160426525032 0.0 0.0
-0.05347521286855603 0.04919850299542351 0.0 0.006326933689778859 0.0 0.0
-0.04369874303257892 0.03960747289872763 0.0 0.005339938066258838 0.0 0.0
-0.035126081712017865 0.03129409120373211 0.0 0.00442760031376278 0.0 0.0
-0.027879934592461564 0.024351728518488148 0.0 0.003705678796983261 0.0 0.0
-0.02185650716702229 0.018647808162672204 0.0 0.0031404355681972284 0.0 0.0
-0.01684539804473392 0.013948818928395196 0.0 0.0026156845611098357 0.0 0.0
-0.012657351707873098 0.010054746948027722 0.0 0.0020827443740889353 0.0 0.0
-0.009179685223949352 0.006853441826658206 0.0 0.0015661463887576505 0.0 0.0
-0.006370844441228264 0.004324087953682197 0.0 0.0011063858783509324 0.0 0.0
-0.0042118411092942586 0.002459930098242908 0.0 0.0007392833122975217 0.0 0.0
-0.0027087692374829354 0.0012740072688550404 0.0 0.000520622728067291 0.0 0.0
-0.001819608331470377 0.0007684531735784091 0.0 0.0006709916894664894 0.0 0.0
-0.0012504732455574485 0.0005477951828972614 0.0 0.0008196544382302297 0.0 0.0
-0.0007269888813118892 0.00030182879324850814 0.0 0.0008032510779717865 0.0 0.0
-0.0002855680900266566 3.138394731670394e-05 0.0 0.0005267906978455444 0.0 0.0
-0.00010468366978218512 -7.670704882717251e-06 0.0 0.00025980488634368257 0.0 0.0
-0.00010348180464749236 1.3368668744114396e-05 0.0 -0.00014921037522455929 0.0 0.0
-0.00028950991763613464 6.63918697154304e-05 0.0 -0.00026367782747658885 0.0 0.0
-0.0007710820381206789 0.0003215322190958218 0.0 -0.0003932235459754039 0.0 0.0
-0.001371004533894122 0.000591818039821348 0.0 -0.0004006268960833918 0.0 0.0
-0.002054411093633895 0.0008601669779826539 0.0 -0.0002857763013679274 0.0 0.0
-0.0031451626314753624 0.0015777224410000725 0.0 -0.00020450212970468445 0.0 0.0
-0.004889282073012407 0.0030350649505369535 0.0 -0.00034418908503341955 0.0 0.0
-0.007297875296925943 0.005141448544343635 0.0 -0.0005269664304482293 0.0 0.0
-0.010421350991110459 0.007983375112955614 0.0 -0.0007529677461608721 0.0 0.0
-0.01430516376314488 0.01157660226754934 0.0 -0.0010147271263890713 0.0 0.0
-0.019012313345596502 0.01596852886338112 0.0 -0.0012755313006370663 0.0 0.0
-0.024678642011624764 0.02129957026115338 0.0 -0.001527141955979373 0.0 0.0
-0.031510634051925876 0.027788377070456158 0.0 -0.001839529730922319 0.0 0.0
-0.03969868688421852 0.035651568696501226 0.0 -0.0022494867367309204 0.0 0.0
-0.049299818085222914 0.04498777622894596 0.0 -0.0027656240447013 0.0 0.0
-0.06007701178598937 0.055597459935456395 0.0 -0.003338388701649881 0.0 0.0
-0.07135380552935898 0.06681921119860616 0.0 -0.003743466422432993 0.0 0.0
-0.0820053144012776 0.07747297855868104 0.0 -0.003796266802750724 0.0 0.0
-0.08979708723460922 0.08562799996858801 0.0 -0.005050041678613087 0.0 0.0
-0.08796125718610655 0.08655674164510674 0.0 -0.017118544633210143 0.0 0.0
-0.08333620613475508 0.06704818539559732 0.0 4.528495634037455e-15 0.0 0.0
-0.08796125718609646 0.08655674164509457 0.0 0.017118544633221017 0.0 0.0
-0.08979708723458864 0.08562799996856688 0.0 0.005050041678623593 0.0 0.0
-0.08200531440124911 0.07747297855865055 0.0 0.003796266802755027 0.0 0.0
-0.07135380552932577 0.06681921119857154 0.0 0.0037434664224346263 0.0 0.0
-0.06007701178595475 0.05559745993542728 0.0 0.0033383887016505184 0.0 0.0
-0.04929981808518737 0.044987776228909905 0.0 0.002765624044700719 0.0 0.0
-0.039698686884181454 0.03565156869646928 0.0 0.002249486736729687 0.0 0.0
-0.03151063405188836 0.027788377070418847 0.0 0.0018395297309217614 0.0 0.0
-0.02467864201158925 0.02129957026111952 0.0 0.0015271419559769045 0.0 0.0
-0.019012313345564854 0.01596852886335117 0.0 0.0012755313006333898 0.0 0.0
-0.014305163763117922 0.011576602267523533 0.0 0.001014727126387267 0.0 0.0
-0.01042135099108887 0.0079833751129357 0.0 0.0007529677461591306 0.0 0.0
-0.007297875296909633 0.005141448544329758 0.0 0.0005269664304472057 0.0 0.0
-0.004889282073001069 0.0030350649505267936 0.0 0.00034418908503172044 0.0 0.0
-0.003145162631469016 0.0015777224409958455 0.0 0.00020450212970446778 0.0 0.0
-0.00205441109363129 0.0008601669779810602 0.0 0.0002857763013685438 0.0 0.0
-0.0013710045338930946 0.0005918180398211904 0.0 0.00040062689608250075 0.0 0.0
-0.0007710820381200182 0.0003215322190953404 0.0 0.0003932235459748251 0.0 0.0
-0.00028950991763582455 6.639186971558751e-05 0.0 0.0002636778274761812 0.0 0.0
-0.00010348180464762488 1.33686687439885e-05 0.0 0.00014921037522459246 0.0 0.0
-6.37720312346557e-05 1.2580987672683085e-05 0.0 -9.522820858577457e-05 0.0 0.0
-0.0002550271292039005 7.780604419276141e-05 0.0 -0.00010951310154027675 0.0 0.0
-0.000795136885516895 0.0003283650426416936 0.0 -0.00013477382281125764 0.0 0.0
-0.0015053357597674937 0.0006144088961072146 0.0 -0.00013232916646918345 0.0 0.0
-0.002331489796256858 0.0009159872258434717 0.0 -8.471539757284543e-06 0.0 0.0
-0.003614369188315465 0.0017434500568016037 0.0 0.0001226871504112438 0.0 0.0
-0.00556911446459267 0.003327571907844491 0.0 0.00013679053811849358 0.0 0.0
-0.00821286347785492 0.005551911321125269 0.0 0.00014168212274523148 0.0 0.0
-0.011642915160556787 0.008547356466373128 0.0 0.0001481323362483932 0.0 0.0
-0.015930641115611495 0.012335970667368525 0.0 0.00013559186830775101 0.0 0.0
-0.021163390902023592 0.016977253430666955 0.0 0.0001535985273758494 0.0 0.0
-0.0275026784131271 0.022629557489456047 0.0 0.0001998962340766866 0.0 0.0
-0.0351420977033782 0.029514096136815188 0.0 0.000195590539666854 0.0 0.0
-0.04425339992847856 0.03783191767397655 0.0 0.00017739426001799497 0.0 0.0
-0.05485990130136806 0.047674135441204815 0.0 6.00124891434687e-05 0.0 0.0
-0.0666108686927856 0.058785859871496114 0.0 -0.00017739592898127939 0.0 0.0
-0.07862076527438577 0.07039533018600024 0.0 -0.00046071580099335367 0.0 0.0
-0.08948262398153618 0.08122257043038601 0.0 -0.000621559339219235 0.0 0.0
-0.09773669010612424 0.0896158935510488 0.0 -0.0008573989830348121 0.0 0.0
-0.09996465242305556 0.09244832854901137 0.0 -0.011692853102679097 0.0 0.0
-0.09887814499982975 0.07379255073557914 0.0 2.248201624865942e-15 0.0 0.0
-0.09996465242304454 0.0924483285490009 0.0 0.011692853102681974 0.0 0.0
-0.09773669010610034 0.08961589355102403 0.0 0.0008573989830382434 0.0 0.0
-0.0894826239815034 0.08122257043035426 0.0 0.0006215593392211137 0.0 0.0
-0.07862076527434846 0.0703953301859653 0.0 0.0004607158009926268 0.0 0.0
-0.06661086869274685 0.05878585987146645 0.0 0.0001773959289813904 0.0 0.0
-0.054859901301328326 0.04767413544116856 0.0 -6.00124891438486e-05 0.0 0.0
-0.044253399928437485 0.03783191767394055 0.0 -0.0001773942600192622 0.0 0.0
-0.03514209770333733 0.029514096136778446 0.0 -0.00019559053966704525 0.0 0.0
-0.027502678413088164 0.022629557489421626 0.0 -0.00019989623407916986 0.0 0.0
-0.02116339090198867 0.01697725343063568 0.0 -0.0001535985273776368 0.0 0.0
-0.015930641115582074 0.012335970667345054 0.0 -0.00013559186830837096 0.0 0.0
-0.011642915160532986 0.008547356466351332 0.0 -0.0001481323362485117 0.0 0.0
-0.008212863477836571 0.005551911321111021 0.0 -0.00014168212274555175 0.0 0.0
-0.005569114464580224 0.003327571907833164 0.0 -0.00013679053811812615 0.0 0.0
-0.003614369188308171 0.0017434500567974991 0.0 -0.0001226871504116056 0.0 0.0
-0.0023314897962535396 0.0009159872258426678 0.0 8.471539759258415e-06 0.0 0.0
-0.0015053357597664115 0.0006144088961060788 0.0 0.0001323291664694685 0.0 0.0
-0.0007951368855161356 0.0003283650426410044 0.0 0.00013477382281165982 0.0 0.0
-0.00025502712920340634 7.780604419277165e-05 0.0 0.00010951310154020491 0.0 0.0
-6.377203123440102e-05 1.258098767252635e-05 0.0 9.522820858687533e-05 0.0 0.0
SCALARS Statev float 8
LOOKUP_TABLE default
0.0 0.01342218928860887 0.010576831997526825 -0.012863790600626977 0.0022869586031001783 -0.0004670677222872694 0.0 0.0
0.0 0.004018688879296596 0.002844616182984122 -0.0015695673110511735 -0.001275048871932949 -0.0052036246247538455 0.0 0.0
0.0 -3.20211776417267e-05 3.1918670072362305e-06 -2.9569046253342605e-06 -2.3496238190213534e-07 -8.92218056833972e-05 0.0 0.0
0.0 7.814977361994355e-05 -4.479145498919333e-06 3.5894540260153677e-06 8.896914729038783e-07 2.905335785253419e-06 0.0 0.0
0.0 0.0004772243499885653 0.0001806331135107018 -0.00012908384878185591 -5.154926472884615e-05 5.5687498211484435e-05 0.0 0.0
0.0 0.0010607413986002555 0.0011277676306520558 -0.0008622898767213679 -0.0002654777539306875 0.00010885649355417285 0.0 0.0
0.0 0.002926283899061447 0.0027176332276338516 -0.002210385346931911 -0.0005072478807019397 0.00014231362692990312 0.0 0.0
0.0 0.005540242637727148 0.0050974663422276335 -0.004352758063736546 -0.0007447082784910884 0.00015937282504474893 0.0 0.0
0.0 0.009107436811759165 0.008278580908572709 -0.007331086990386296 -0.0009474939181864125 0.00017279157661929243 0.0 0.0
0.0 0.013708389857863245 0.012293442216482155 -0.01115354327755056 -0.001139898938931591 0.00017336426772997636 0.0 0.0
0.0 0.019424781455869105 0.017223518023124884 -0.015876549269459618 -0.0013469687536652522 0.00020476187780692315 0.0 0.0
0.0 0.026120708774850506 0.02324128252277214 -0.021662946389205663 -0.0015783361335664967 0.0002629066274680103 0.0 0.0
0.0 0.03438239196462076 0.030543713178430736 -0.02871553273610262 -0.0018281804423280908 0.00026302240123169155 0.0 0.0
0.0 0.0443570826270176 0.03931337326979992 -0.0372222653906326 -0.002091107879167312 0.00025671877895474453 0.0 0.0
0.0 0.05614216695109922 0.04963118298104608 -0.04727819466771119 -0.00235298831333486 0.00017851573642153266 0.0 0.0
0.0 0.06956107944125063 0.06130657198380725 -0.058707173646960986 -0.0025993983368463314 1.8455618342968529e-06 0.0 0.0
0.0 0.08390228714185333 0.07375511408200883 -0.07093627504101696 -0.002818839040991901 -0.00025355554825172585 0.0 0.0
0.0 0.09800248247381652 0.08598011981935486 -0.08298032167957271 -0.002999798139781999 -0.0004913603945543611 0.0 0.0
0.0 0.11037045455024125 0.09669532670193319 -0.09356096089362853 -0.0031343658083047205 -0.0005546644167498096 0.0 0.0
0.0 0.11915761508411345 0.10448358726221305 -0.10127701650699727 -0.0032065707552158813 -0.0005604283491507096 0.0 0.0
0.0 0.12252873162698852 0.10749289413990304 -0.10429122053557713 -0.0032016736043259243 1.8995222061946038e-15 0.0 0.0
0.0 0.11915761508410563 0.10448358726220597 -0.10127701650699075 -0.0032065707552150972 0.0005604283491547754 0.0 0.0
0.0 0.11037045455021716 0.0966953267019122 -0.09356096089360826 -0.003134365808303934 0.0005546644167540855 0.0 0.0
0.0 0.09800248247378009 0.0859801198193231 -0.08298032167954156 -0.002999798139781496 0.0004913603945580665 0.0 0.0
0.0 0.083902287141813 0.07375511408197358 -0.07093627504098314 -0.002818839040990467 0.00025355554825220354 0.0 0.0
0.0 0.06956107944120946 0.06130657198377102 -0.05870717364692566 -0.0025993983368453734 -1.845561834617343e-06 0.0 0.0
0.0 0.056142166951060724 0.04963118298101199 -0.047278194667678825 -0.002352988313333129 -0.00017851573642259887 0.0 0.0
0.0 0.04435708262697473 0.0393133732697625 -0.03722226539059603 -0.002091107879166414 -0.0002567187789557085 0.0 0.0
0.0 0.03438239196457752 0.030543713178392877 -0.028715532736065814 -0.0018281804423270658 -0.0002630224012327067 0.0 0.0
0.0 0.026120708774809865 0.023241282522736217 -0.02166294638917116 -0.0015783361335650874 -0.0002629066274687636 0.0 0.0
0.0 0.019424781455835892 0.01722351802309539 -0.015876549269431592 -0.001346968753663792 -0.0002047618778082209 0.0 0.0
0.0 0.013708389857836439 0.012293442216458537 -0.01115354327752817 -0.0011398989389303726 -0.0001733642677308883 0.0 0.0
0.0 0.009107436811736525 0.008278580908552283 -0.00733108699036702 -0.0009474939181852489 -0.00017279157661960237 0.0 0.0
0.0 0.005540242637710649 0.005097466342212259 -0.004352758063722278 -0.0007447082784899757 -0.00015937282504480037 0.0 0.0
0.0 0.0029262838990508845 0.002717633227623292 -0.0022103853469226794 -0.0005072478807006107 -0.0001423136269299601 0.0 0.0
0.0 0.0010607413985959124 0.0011277676306471192 -0.0008622898767174439 -0.00026547775392967576 -0.00010885649355369038 0.0 0.0
0.0 0.0004772243499856401 0.0001806331135090139 -0.00012908384878062993 -5.154926472838338e-05 -5.568749821111823e-05 0.0 0.0
0.0 7.814977361940503e-05 -4.479145498609094e-06 3.5894540257817874e-06 8.896914728277872e-07 -2.9053357852422125e-06 0.0 0.0
0.0 -3.202117764215274e-05 3.191867007061702e-06 -2.956904625189549e-06 -2.3496238187165947e-07 8.922180568278148e-05 0.0 0.0
0.0 0.004018688879289166 0.00284461618298027 -0.001569567311048776 -0.0012750488719314905 0.005203624624745993 0.0 0.0
0.0 0.013422189288591999 0.010576831997515326 -0.012863790600610697 0.0022869586030953523 0.0004670677222608575 0.0 0.0
0.0 0.010714790905705276 0.0078303127850941 -0.01040802791544937 0.0025777151303552565 -5.2239632023006344e-05 0.0 0.0
0.0 0.0022090622945323463 0.0015705880437765958 -0.0008158281707369315 -0.000754759873039662 -0.003778928160859223 0.0 0.0
0.0 -1.237785493644692e-06 -1.789852178386595e-05 1.516493819292087e-05 2.733583590945092e-06 -1.0371957535985523e-05 0.0 0.0
0.0 9.786465715278071e-06 1.3128506986646458e-06 -1.021547395764615e-06 -2.913033029000812e-07 1.4900242357707873e-06 0.0 0.0
0.0 0.00018636538668157697 8.696321974508874e-05 -6.231122095598614e-05 -2.4651998789102665e-05 2.2858492078479398e-05 0.0 0.0
0.0 0.0009691767168732861 0.0007614444592887155 -0.0005867199758989729 -0.00017472448338974413 4.5339876082358176e-05 0.0 0.0
0.0 0.0023974351006640442 0.002231747413866609 -0.0018330960818595762 -0.0003986513320070314 -7.990936333041249e-05 0.0 0.0
0.0 0.004823566949452963 0.004406069113422349 -0.0038041332543622738 -0.0006019358590600757 -0.00025312230373084657 0.0 0.0
0.0 0.00814412724803885 0.007329770323405554 -0.00657149840838997 -0.0007582719150155819 -0.00047944512671621977 0.0 0.0
0.0 0.012349370451746377 0.011011431963189794 -0.0101265560080618 -0.0008848759551279927 -0.0007408237436732339 0.0 0.0
0.0 0.0175354728917025 0.01550981154770042 -0.014507579515907544 -0.0010022320317928754 -0.0010049598231789529 0.0 0.0
0.0 0.023967160330057035 0.020968048981150053 -0.019849410969072626 -0.001118638012077406 -0.001264562787652135 0.0 0.0
0.0 0.031311968578926146 0.027607078319034636 -0.026372883204153673 -0.0012341951148809585 -0.001591774199181634 0.0 0.0
0.0 0.04052932064787744 0.035615359172596645 -0.03427227225717265 -0.0013430869154239865 -0.0020097132832779985 0.0 0.0
0.0 0.05142254868414288 0.04508140730119647 -0.043646657203057736 -0.0014347500981387385 -0.0025125939125674865 0.0 0.0
0.0 0.06383589819800965 0.05583962778182354 -0.0543396670234122 -0.0014999607584113514 -0.0030842109694762007 0.0 0.0
0.0 0.07717808142339468 0.06735315820059927 -0.06581914794011043 -0.001534010260488806 -0.003593410722821879 0.0 0.0
0.0 0.09038808943429825 0.0787088601642302 -0.07716888988857118 -0.001539970275659051 -0.0037791686958208175 0.0 0.0
0.0 0.10201529056432831 0.08870188347942883 -0.08717862065929541 -0.0015232628201333634 -0.003385303299746489 0.0 0.0
0.0 0.11041480814041128 0.09587678128330179 -0.09441061958870339 -0.0014661616945984223 -0.0024945145955308995 0.0 0.0
0.0 0.11377871651868837 0.0986129053574223 -0.0972332887903993 -0.0013796165670230092 3.879058532718638e-15 0.0 0.0
0.0 0.11041480814040225 0.09587678128329342 -0.09441061958869554 -0.0014661616945979277 0.00249451459554045 0.0 0.0
0.0 0.1020152905643073 0.08870188347941058 -0.08717862065927727 -0.0015232628201331962 0.0033853032997575236 0.0 0.0
0.0 0.09038808943426616 0.07870886016420238 -0.07716888988854334 -0.001539970275659043 0.003779168695828025 0.0 0.0
0.0 0.07717808142335884 0.06735315820056835 -0.06581914794007998 -0.001534010260488319 0.003593410722822604 0.0 0.0
0.0 0.06383589819797161 0.05583962778179046 -0.05433966702337933 -0.0014999607584110857 0.0030842109694746863 0.0 0.0
0.0 0.05142254868410679 0.0450814073011647 -0.04364665720302714 -0.0014347500981376166 0.00251259391256656 0.0 0.0
0.0 0.04052932064783968 0.03561535917256376 -0.034272272257140336 -0.001343086915423401 0.002009713283277228 0.0 0.0
0.0 0.031311968578886566 0.02760707831900029 -0.02637288320411983 -0.001234195114880481 0.0015917741991793887 0.0 0.0
0.0 0.023967160330020606 0.020968048981117985 -0.01984941096904102 -0.0011186380120769349 0.0012645627876497374 0.0 0.0
0.0 0.017535472891671726 0.015509811547673426 -0.014507579515881469 -0.0010022320317919608 0.0010049598231757957 0.0 0.0
0.0 0.012349370451721674 0.011011431963167511 -0.010126556008040246 -0.00088487595512726 0.0007408237436708544 0.0 0.0
0.0 0.008144127248018447 0.007329770323386741 -0.006571498408371987 -0.0007582719150147532 0.0004794451267145698 0.0 0.0
0.0 0.004823566949438266 0.004406069113408574 -0.0038041332543494524 -0.0006019358590591191 0.000253122303729326 0.0 0.0
0.0 0.002397435100654522 0.0022317474138573296 -0.00183309608185144 -0.00039865133200588874 7.9909363329558e-05 0.0 0.0
0.0 0.000969176716868677 0.0007614444592848218 -0.0005867199758958744 -0.00017472448338894667 -4.5339876082394395e-05 0.0 0.0
0.0 0.00018636538667985857 8.696321974433133e-05 -6.231122095544712e-05 -2.4651998788884496e-05 -2.285849207813533e-05 0.0 0.0
0.0 9.786465714814881e-06 1.312850698899138e-06 -1.0215473959419914e-06 -2.913033029569865e-07 -1.4900242358002402e-06 0.0 0.0
0.0 -1.2377854936390635e-06 -1.789852178370708e-05 1.5164938192783711e-05 2.733583590923249e-06 1.0371957535893172e-05 0.0 0.0
0.0 0.002209062294525061 0.0015705880437725116 -0.0008158281707342495 -0.0007547598730382599 0.0037789281608502055 0.0 0.0
0.0 0.010714790905687633 0.00783031278508073 -0.010408027915431783 0.002577715130351036 5.223963200411033e-05 0.0 0.0
0.0 0.0077014022275867944 0.005498485733133634 -0.007535122735651788 0.0020366370025181497 -0.0019173407575662775 0.0 0.0
0.0 0.0015212402914822128 0.0009419969096347385 -0.0004350598719033141 -0.0005069370377314236 -0.0028031785071694236 0.0 0.0
0.0 1.2634912319597936e-08 -1.3678156687548327e-09 1.0394932843731892e-09 3.2832238438154863e-10 4.875689838480855e-10 0.0 0.0
0.0 2.466485639676321e-06 2.663755241271598e-07 -2.1298671350414564e-07 -5.338881062313848e-08 -3.5812064928301547e-07 0.0 0.0
0.0 4.9515669709804346e-05 1.694984241013989e-05 -1.115841147715673e-05 -5.791430932983366e-06 9.205020553136527e-06 0.0 0.0
0.0 0.0006289473857721201 0.00042350480622345074 -0.00031851919488765573 -0.00010498561133579496 7.64405721493398e-06 0.0 0.0
0.0 0.0017229640378663596 0.001661055909498106 -0.001336682309630868 -0.0003243735998672393 -0.00023457861707542815 0.0 0.0
0.0 0.0039043917079360484 0.0035714432438850837 -0.003037895134177874 -0.0005335481097072093 -0.000590326534846426 0.0 0.0
0.0 0.006830670596942546 0.006179665380010151 -0.005477797217077968 -0.0007018681629321797 -0.0010439710858452468 0.0 0.0
0.0 0.01062248634357129 0.009459090483742662 -0.008626907050347675 -0.000832183433394983 -0.0015594579880757818 0.0 0.0
0.0 0.015243522611644493 0.013445764171217543 -0.012498691688343957 -0.0009470724828735697 -0.0020973299718480267 0.0 0.0
0.0 0.020717610250410946 0.018259905735581835 -0.017201634975149534 -0.0010582707604323027 -0.002638881011929773 0.0 0.0
0.0 0.02761981800836207 0.024094597454230048 -0.022927125153167024 -0.0011674723010630425 -0.0032311950959011087 0.0 0.0
0.0 0.03551156714885618 0.031179109017343266 -0.029909959166468235 -0.001269149850875029 -0.0039788058547090025 0.0 0.0
0.0 0.04523692977469555 0.03960482267564542 -0.03825019337182664 -0.001354629303818835 -0.0049011985593298245 0.0 0.0
0.0 0.056360267389952506 0.04923733479937162 -0.04782170530820108 -0.0014156294911704982 -0.005916760027020964 0.0 0.0
0.0 0.06837360601822814 0.0596213356795702 -0.05817119707426862 -0.0014501386053016058 -0.006790305695363529 0.0 0.0
0.0 0.08033679206341435 0.06995412267733711 -0.06849573311711075 -0.0014583895602263894 -0.007093675249792797 0.0 0.0
0.0 0.09096527513233083 0.07910671198946322 -0.07767004665943322 -0.0014366653300299866 -0.006420243273150136 0.0 0.0
0.0 0.09865686024555537 0.08570074115604437 -0.08430638161812161 -0.0013943595379226517 -0.004656206616680055 0.0 0.0
0.0 0.10182385285962567 0.08827469551413965 -0.08699054316136678 -0.0012841523527728272 8.104194398894649e-15 0.0 0.0
0.0 0.09865686024554658 0.08570074115603596 -0.08430638161811349 -0.0013943595379224585 0.00465620661669839 0.0 0.0
0.0 0.09096527513231303 0.07910671198944749 -0.07767004665941776 -0.0014366653300298092 0.006420243273169949 0.0 0.0
0.0 0.0803367920633863 0.06995412267731278 -0.06849573311708623 -0.0014583895602264807 0.007093675249804983 0.0 0.0
0.0 0.06837360601819713 0.05962133567954335 -0.05817119707424242 -0.0014501386053009577 0.006790305695366054 0.0 0.0
0.0 0.05636026738992053 0.049237334799343634 -0.04782170530817379 -0.0014156294911698449 0.005916760027019005 0.0 0.0
0.0 0.04523692977466156 0.039604822675615714 -0.03825019337179763 -0.001354629303818093 0.004901198559328372 0.0 0.0
0.0 0.03551156714882409 0.031179109017315118 -0.029909959166440927 -0.0012691498508742075 0.003978805854707818 0.0 0.0
0.0 0.027619818008326493 0.02409459745419897 -0.02292712515313656 -0.0011674723010623965 0.003231195095897602 0.0 0.0
0.0 0.02071761025037757 0.018259905735553035 -0.017201634975120894 -0.0010582707604321286 0.0026388810119250105 0.0 0.0
0.0 0.015243522611618075 0.013445764171193659 -0.012498691688320986 -0.0009470724828726696 0.0020973299718433295 0.0 0.0
0.0 0.010622486343548154 0.009459090483721675 -0.00862690705032736 -0.0008321834333943219 0.0015594579880713988 0.0 0.0
0.0 0.006830670596924716 0.0061796653799938706 -0.0054777972170625576 -0.0007018681629313143 0.0010439710858420822 0.0 0.0
0.0 0.003904391707923141 0.003571443243873318 -0.0030378951341671406 -0.0005335481097061764 0.000590326534843778 0.0 0.0
0.0 0.001722964037858718 0.0016610559094905246 -0.0013366823096244147 -0.0003243735998661095 0.00023457861707399757 0.0 0.0
0.0 0.0006289473857684887 0.00042350480622068803 -0.0003185191948855534 -0.00010498561133513442 -7.644057215153624e-06 0.0 0.0
0.0 4.951566970872947e-05 1.69498424099201e-05 -1.1158411477006516e-05 -5.791430932913571e-06 -9.205020553035572e-06 0.0 0.0
0.0 2.4664856393995833e-06 2.6637552417562555e-07 -2.1298671353976067e-07 -5.338881063584084e-08 3.581206492932671e-07 0.0 0.0
0.0 1.2634912310065045e-08 -1.367815667713223e-09 1.0394932835817643e-09 3.283223841315191e-10 -4.875689834762404e-10 0.0 0.0
0.0 0.0015212402914764112 0.000941996909631247 -0.00043505987190104204 -0.0005069370377302042 0.0028031785071599507 0.0 0.0
0.0 0.007701402227569537 0.005498485733121003 -0.007535122735635019 0.0020366370025140194 0.001917340757553441 0.0 0.0
0.0 0.005645220816103204 0.003908146569208899 -0.0054742278097214 0.0015660812405124988 -0.0021364617770560455 0.0 0.0
0.0 0.0009997640034880384 0.0005801083197247104 -0.00025087356440099245 -0.00032923475532371837 -0.001955900013096935 0.0 0.0
0.0 0.0 0.0 0.0 0.0 0.0 0.0 0.0
0.0 -9.513615554386662e-07 1.0375365936915567e-07 -7.796950144420907e-08 -2.5784157924954802e-08 -6.35641990013178e-08 0.0 0.0
0.0 3.7785130012165164e-06 -1.9995564524974192e-05 1.561427613906353e-05 4.381288385910905e-06 1.0948566158959889e-05 0.0 0.0
0.0 0.0002730276968533424 0.00019679043355368142 -0.00014464364163334988 -5.2146791920331196e-05 -1.4324272807296913e-05 0.0 0.0
0.0 0.0013050065514494226 0.001091465707296427 -0.0008576801972873875 -0.0002337855100090384 -0.00024107287237741873 0.0 0.0
0.0 0.003013163962828736 0.002750406922028969 -0.0022982890954373956 -0.0004521178265915752 -0.0007767511715679549 0.0 0.0
0.0 0.005588640153404329 0.00503244120984088 -0.004399358456865413 -0.0006330827529754667 -0.0014129016796821077 0.0 0.0
0.0 0.00890910822661502 0.007908462388215732 -0.007137627106702078 -0.000770835281513653 -0.002132492083340262 0.0 0.0
0.0 0.012893649156350181 0.011389721634370959 -0.010504531627375593 -0.0008851900069953649 -0.0028845391292024406 0.0 0.0
0.0 0.017781205745476238 0.015565321998931838 -0.014573747630507243 -0.0009915743684245776 -0.003643203106559301 0.0 0.0
0.0 0.023477615603995278 0.02062065586842621 -0.01952523741875242 -0.0010954184496737881 -0.00445835182214785 0.0 0.0
0.0 0.030801971520474848 0.02676001846264367 -0.02557039695905058 -0.001189621503593096 -0.005436256340426505 0.0 0.0
0.0 0.03920474802075251 0.03411988154701908 -0.03285135635643699 -0.001268525190582072 -0.006643258375515005 0.0 0.0
0.0 0.04883490770847933 0.04260672766130238 -0.04127898192925073 -0.0013277457320516534 -0.007992551990014762 0.0 0.0
0.0 0.05960228920439175 0.05184318232714854 -0.05047991545435738 -0.0013632668727911353 -0.009160242291445029 0.0 0.0
0.0 0.07037977253161601 0.06114671718948836 -0.05977423877518591 -0.0013724784143024436 -0.009611335183608405 0.0 0.0
0.0 0.08003348983891231 0.06949906653699116 -0.068144516583485 -0.0013545499535060337 -0.008803494931854883 0.0 0.0
0.0 0.087116558386376 0.07564681803660876 -0.07432769467446435 -0.0013191233621445257 -0.006277027982506289 0.0 0.0
0.0 0.09022863865713367 0.07815978398349366 -0.07699647040748452 -0.001163313576009174 1.0707580655466842e-14 0.0 0.0
0.0 0.0871165583863687 0.07564681803660145 -0.07432769467445717 -0.0013191233621442785 0.006277027982530851 0.0 0.0
0.0 0.08003348983889662 0.06949906653697675 -0.06814451658347102 -0.0013545499535056796 0.008803494931878887 0.0 0.0
0.0 0.07037977253159201 0.06114671718946728 -0.05977423877516484 -0.0013724784143024377 0.009611335183623244 0.0 0.0
0.0 0.05960228920436455 0.05184318232712501 -0.05047991545433457 -0.001363266872790475 0.009160242291447948 0.0 0.0
0.0 0.048834907708451794 0.04260672766127821 -0.04127898192922726 -0.0013277457320509294 0.00799255199001198 0.0 0.0
0.0 0.0392047480207213 0.03411988154699185 -0.032851356356410365 -0.0012685251905815058 0.006643258375512615 0.0 0.0
0.0 0.03080197152044593 0.026760018462618253 -0.025570396959025615 -0.001189621503592624 0.005436256340424333 0.0 0.0
0.0 0.023477615603964008 0.0206206558683992 -0.019525237418725947 -0.0010954184496732515 0.004458351822143006 0.0 0.0
0.0 0.01778120574544897 0.01556532199890759 -0.014573747630483485 -0.0009915743684241064 0.003643203106553109 0.0 0.0
0.0 0.012893649156325765 0.011389721634349186 -0.010504531627354496 -0.0008851900069946848 0.0028845391291958344 0.0 0.0
0.0 0.008909108226594456 0.007908462388197379 -0.007137627106684518 -0.0007708352815128598 0.002132492083334004 0.0 0.0
0.0 0.005588640153389017 0.005032441209827094 -0.004399358456852489 -0.0006330827529746059 0.0014129016796779774 0.0 0.0
0.0 0.003013163962818037 0.0027504069220185 -0.0022982890954280507 -0.00045211782659044906 0.0007767511715644523 0.0 0.0
0.0 0.0013050065514419787 0.001091465707290351 -0.0008576801972824074 -0.00023378551000794356 0.00024107287237563364 0.0 0.0
0.0 0.0002730276968509129 0.00019679043355231709 -0.00014464364163234645 -5.214679191997072e-05 1.4324272807283437e-05 0.0 0.0
0.0 3.7785130005753586e-06 -1.9995564524692574e-05 1.5614276138850386e-05 4.381288385842161e-06 -1.094856615877583e-05 0.0 0.0
0.0 -9.513615552303042e-07 1.0375365934567915e-07 -7.796950142640135e-08 -2.5784157919273087e-08 6.35641989870952e-08 0.0 0.0
0.0 0.0 0.0 0.0 0.0 0.0 0.0 0.0
0.0 0.0009997640034829212 0.0005801083197218216 -0.00025087356439909553 -0.0003292347553227267 0.0019559000130887957 0.0 0.0
0.0 0.0056452208160890525 0.0039081465691978914 -0.005474227809706635 0.0015660812405087431 0.0021364617770465535 0.0 0.0
0.0 0.003942768532891295 0.002727532362328899 -0.003881069854532078 0.0011535374922031813 -0.001854351746618179 0.0 0.0
0.0 0.000804545208930843 0.0003236652016682671 -0.00011926461981590008 -0.00020440058185236716 -0.0012375705123922655 0.0 0.0
0.0 0.0 0.0 0.0 0.0 0.0 0.0 0.0
0.0 -1.7710053664048188e-07 1.6292926126732072e-08 -1.3210514320124787e-08 -3.0824118066063082e-09 -2.003555473955279e-08 0.0 0.0
0.0 -4.7757525491741676e-06 1.551510540950148e-06 -1.2320262970054951e-06 -3.1948424394465364e-07 -2.191657287525463e-06 0.0 0.0
0.0 9.317014923424983e-05 2.5454425850447957e-05 -1.6112669813747427e-05 -9.341756036700344e-06 2.6004571668593516e-05 0.0 0.0
0.0 0.0008877418591475483 0.0006124157842235981 -0.000470058580191458 -0.00014235720403213992 -0.00019384622882934684 0.0 0.0
0.0 0.0021736879860903223 0.001955969756009136 -0.0015969063904307463 -0.0003590633655783892 -0.0007731742667461432 0.0 0.0
0.0 0.004377737885906013 0.003902093275975758 -0.00335325614430199 -0.0005488371316737675 -0.0015788617710414297 0.0 0.0
0.0 0.007201443365032241 0.00637106078273133 -0.0056741386894965514 -0.0006969220932347802 -0.002452982686461857 0.0 0.0
0.0 0.010651510940629452 0.009348737999709289 -0.008534807035645669 -0.0008139309640636196 -0.0033635743198765 0.0 0.0
0.0 0.014797152169190442 0.01289911068079888 -0.011981673307194223 -0.0009174373736046532 -0.004277368986113004 0.0 0.0
0.0 0.01986563573778785 0.017175298457371348 -0.016160166492307594 -0.0010151319650637397 -0.005245802432390981 0.0 0.0
0.0 0.02570383790747212 0.02238904511227333 -0.021284675006310778 -0.0011043701059625518 -0.006384672823491985 0.0 0.0
0.0 0.03309561340752786 0.02866527763338129 -0.027487630273365583 -0.001177647360015686 -0.007766945248892685 0.0 0.0
0.0 0.04166712055417178 0.0359696580016875 -0.034736943763982946 -0.0012327142377045526 -0.009300868876271462 0.0 0.0
0.0 0.050863117753119344 0.044031293096284285 -0.04276084011715135 -0.0012704529791329308 -0.010666034851262501 0.0 0.0
0.0 0.06039908042930515 0.05228575940476568 -0.05100127659076317 -0.0012844828140025017 -0.011299467319116876 0.0 0.0
0.0 0.0691378637704734 0.059863319986336726 -0.058591208538341565 -0.0012721114479951909 -0.0104827545557036 0.0 0.0
0.0 0.07577903999020894 0.0656505987042776 -0.06441272764332064 -0.0012378710609568708 -0.0074913216224693855 0.0 0.0
0.0 0.07892819277412486 0.06816588630518412 -0.06714081522460989 -0.0010250710805742127 1.1810431105319097e-14 0.0 0.0
0.0 0.07577903999020119 0.0656505987042697 -0.06441272764331255 -0.001237871060957136 0.007491321622497065 0.0 0.0
0.0 0.06913786377045976 0.05986331998632394 -0.058591208538328804 -0.0012721114479951245 0.010482754555729678 0.0 0.0
0.0 0.06039908042928668 0.05228575940474897 -0.05100127659074689 -0.00128448281400209 0.011299467319133002 0.0 0.0
0.0 0.050863117753095995 0.044031293096263954 -0.04276084011713172 -0.001270452979132234 0.010666034851266316 0.0 0.0
0.0 0.041667120554146696 0.03596965800166561 -0.03473694376396132 -0.0012327142377042734 0.009300868876268369 0.0 0.0
0.0 0.033095613407502465 0.02866527763335901 -0.027487630273344048 -0.001177647360014942 0.007766945248889646 0.0 0.0
0.0 0.025703837907447374 0.0223890451122516 -0.021284675006289507 -0.0011043701059620958 0.006384672823489095 0.0 0.0
0.0 0.019865635737761393 0.017175298457348127 -0.01616016649228469 -0.001015131965063431 0.005245802432384955 0.0 0.0
0.0 0.014797152169168071 0.012899110680778987 -0.011981673307174971 -0.0009174373736040197 0.004277368986105988 0.0 0.0
0.0 0.010651510940607612 0.009348737999690234 -0.008534807035627196 -0.0008139309640630403 0.003363574319867799 0.0 0.0
0.0 0.007201443365015098 0.006371060782716193 -0.005674138689482265 -0.00069692209323393 0.0024529826864548793 0.0 0.0
0.0 0.0043777378858930035 0.003902093275963931 -0.003353256144291019 -0.0005488371316729093 0.0015788617710364337 0.0 0.0
0.0 0.00217368798608098 0.001955969756000571 -0.001596906390423297 -0.0003590633655772751 0.0007731742667422398 0.0 0.0
0.0 0.0008877418591417435 0.0006124157842193445 -0.00047005858018808137 -0.00014235720403126364 0.00019384622882770704 0.0 0.0
0.0 9.317014923290414e-05 2.545442585014502e-05 -1.6112669813551833e-05 -9.341756036592759e-06 -2.600457166844952e-05 0.0 0.0
0.0 -4.7757525495804046e-06 1.5515105409353459e-06 -1.2320262969950142e-06 -3.1948424394039793e-07 2.191657287533827e-06 0.0 0.0
0.0 -1.7710053660017878e-07 1.629292612284765e-08 -1.3210514317015475e-08 -3.082411805836249e-09 2.0035554734911912e-08 0.0 0.0
0.0 0.0 0.0 0.0 0.0 0.0 0.0 0.0
0.0 0.0008045452089259084 0.0003236652016660998 -0.00011926461981445723 -0.00020440058185164185 0.0012375705123858452 0.0 0.0
0.0 0.003942768532879788 0.002727532362319944 -0.003881069854519847 0.0011535374921998987 0.0018543517466113773 0.0 0.0
0.0 0.0027368924638008774 0.0018104811519895692 -0.002606687261588434 0.0007962061095988658 -0.001431730047081849 0.0 0.0
0.0 0.00037959022792349775 0.00015943340334958824 -3.96521959998692e-05 -0.00011978120734971912 -0.0007150871423319874 0.0 0.0
0.0 0.0 0.0 0.0 0.0 0.0 0.0 0.0
0.0 0.0 0.0 0.0 0.0 0.0 0.0 0.0
0.0 -2.0211969052765075e-06 -6.674004723158228e-07 5.36151167500577e-07 1.3124930481525535e-07 7.226834813770639e-07 0.0 0.0
0.0 -9.124821937183987e-06 -9.436523115456369e-06 8.203212229171568e-06 1.2333108862846852e-06 2.162557380009733e-05 0.0 0.0
0.0 0.00034328586002890435 0.00029388736185103 -0.00022126096837993102 -7.262639347109902e-05 -0.00014291720082924288 0.0 0.0
0.0 0.0016585408346192834 0.0011997778288271633 -0.0009551699955204449 -0.0002446078333067192 -0.0006177770116289787 0.0 0.0
0.0 0.0030870505464420926 0.0028080114595940395 -0.0023600390381396693 -0.00044797242145436754 -0.001513298398246827 0.0 0.0
0.0 0.00557443988279991 0.004856835614847066 -0.00425205385389987 -0.0006047817609471928 -0.0025083722935945432 0.0 0.0
0.0 0.008435934671039608 0.007335176700109585 -0.0066065205972648915 -0.0007286561028446959 -0.0035208939437836656 0.0 0.0
0.0 0.011849728040847453 0.01027101869540491 -0.009438964007871954 -0.0008320546875329542 -0.004535942108047057 0.0 0.0
0.0 0.01595828808029117 0.013787685236644502 -0.012861426718692772 -0.0009262585179517293 -0.005589473500122741 0.0 0.0
0.0 0.021046923655489463 0.018068288811128194 -0.017058994012837694 -0.0010092947982904903 -0.0067989660572754145 0.0 0.0
0.0 0.027063572423848336 0.02326308507434727 -0.0221846347045655 -0.0010784503697817821 -0.008255163354390898 0.0 0.0
0.0 0.034059863910017175 0.0293766125956878 -0.028244768110095228 -0.0011318444855925795 -0.009868200135008547 0.0 0.0
0.0 0.0423052225760574 0.036211170134432306 -0.03504197662115535 -0.0011691935132769466 -0.011319982798457248 0.0 0.0
0.0 0.05050327039581407 0.043369456812951804 -0.042179681796180896 -0.0011897750167708997 -0.01209288027133189 0.0 0.0
0.0 0.05813823879573856 0.05017030623113492 -0.04898390122020971 -0.001186405010925218 -0.011419325646706656 0.0 0.0
0.0 0.06445037711545885 0.05564528223429362 -0.05449378618715684 -0.0011514960471367736 -0.008324044100439219 0.0 0.0
0.0 0.06772476445689955 0.058212293974055154 -0.057342370435774594 -0.0008699235382805578 1.2157809481383453e-14 0.0 0.0
0.0 0.06445037711545136 0.05564528223428573 -0.05449378618714864 -0.0011514960471371261 0.008324044100466147 0.0 0.0
0.0 0.0581382387957276 0.05017030623112406 -0.048983901220198835 -0.001186405010925195 0.011419325646733995 0.0 0.0
0.0 0.05050327039579826 0.04336945681293728 -0.042179681796166775 -0.0011897750167705098 0.01209288027134786 0.0 0.0
0.0 0.04230522257603884 0.036211170134416173 -0.035041976621139996 -0.0011691935132761883 0.011319982798460781 0.0 0.0
0.0 0.034059863909993826 0.02937661259566761 -0.028244768110075178 -0.0011318444855924416 0.009868200135004383 0.0 0.0
0.0 0.027063572423828793 0.023263085074330024 -0.02218463470454901 -0.0010784503697810028 0.008255163354387368 0.0 0.0
0.0 0.021046923655469806 0.018068288811110566 -0.017058994012820707 -0.001009294798289854 0.006798966057271635 0.0 0.0
0.0 0.015958288080268883 0.013787685236625345 -0.012861426718673899 -0.0009262585179514431 0.005589473500117025 0.0 0.0
0.0 0.01184972804082774 0.010271018695387771 -0.009438964007855363 -0.0008320546875324011 0.004535942108039648 0.0 0.0
0.0 0.008435934671022206 0.007335176700094745 -0.006606520597250848 -0.0007286561028438965 0.003520893943774619 0.0 0.0
0.0 0.005574439882785352 0.004856835614834122 -0.004252053853887693 -0.0006047817609464238 0.00250837229358666 0.0 0.0
0.0 0.0030870505464322706 0.002808011459584689 -0.0023600390381312867 -0.00044797242145340206 0.0015132983982417247 0.0 0.0
0.0 0.001658540834611412 0.001199777828821133 -0.0009551699955154143 -0.0002446078333057191 0.0006177770116257261 0.0 0.0
0.0 0.00034328586002537587 0.00029388736184857606 -0.00022126096837806527 -7.262639347051075e-05 0.00014291720082797326 0.0 0.0
0.0 -9.124821937647124e-06 -9.436523115115943e-06 8.203212228899421e-06 1.2333108862164874e-06 -2.1625573799582603e-05 0.0 0.0
0.0 -2.021196905433959e-06 -6.674004723396698e-07 5.361511675198926e-07 1.3124930481976238e-07 -7.226834814268869e-07 0.0 0.0
0.0 0.0 0.0 0.0 0.0 0.0 0.0 0.0
0.0 0.0 0.0 0.0 0.0 0.0 0.0 0.0
0.0 0.00037959022791966303 0.00015943340334807603 -3.965219599886333e-05 -0.00011978120734921211 0.0007150871423271953 0.0 0.0
0.0 0.002736892463792076 0.0018104811519827223 -0.002606687261578854 0.0007962061095961302 0.0014317300470768654 0.0 0.0
0.0 0.0016440363177569707 0.0011179587329084133 -0.0016185800942209196 0.0005006213613125063 -0.001023463789106958 0.0 0.0
0.0 0.00017503893858990342 4.174778905141412e-05 2.3972382410432496e-05 -6.572017146184678e-05 -0.000316880337871064 0.0 0.0
0.0 0.0 0.0 0.0 0.0 0.0 0.0 0.0
0.0 0.0 0.0 0.0 0.0 0.0 0.0 0.0
0.0 -2.22209610400735e-06 1.718406498486262e-07 -1.3552812883357763e-07 -3.631252101503742e-08 -4.3968736967020066e-07 0.0 0.0
0.0 -1.2784588082796824e-05 -1.2610470455888855e-05 1.009402207078871e-05 2.5164483851002326e-06 2.1463890670748924e-05 0.0 0.0
0.0 0.00011378778913271422 6.229107102529459e-05 -4.601721862896859e-05 -1.6273852396326132e-05 -3.260134072669464e-05 0.0 0.0
0.0 0.0007602014323367205 0.000635659264325093 -0.0004946550673670231 -0.00014100419695806953 -0.0004580440160553533 0.0 0.0
0.0 0.002384839662956066 0.0017402933878749914 -0.0014258061310668145 -0.00031448725680817625 -0.0011944981423772658 0.0 0.0
0.0 0.0038690716195011253 0.003390073934050477 -0.002901281822177304 -0.0004887921118731736 -0.002266160876260315 0.0 0.0
0.0 0.006295140124214352 0.005362395017561981 -0.004741864170517219 -0.0006205308470447613 -0.0033386010363582945 0.0 0.0
0.0 0.009026539857569302 0.007691050646928873 -0.0069628281513375995 -0.0007282224955912744 -0.0043999625966112885 0.0 0.0
0.0 0.01226579579713318 0.010462231034240498 -0.009640291500266424 -0.0008219395339740853 -0.005477221155710984 0.0 0.0
0.0 0.016228623443217 0.01383281393534386 -0.012930665750637655 -0.0009021481847061979 -0.0066809406533857715 0.0 0.0
0.0 0.02101934274318409 0.01794336718216869 -0.016975487567257152 -0.0009678796149115381 -0.008091231660761311 0.0 0.0
0.0 0.027021838870319486 0.02283973998138614 -0.021821844593595922 -0.0010178953877902084 -0.009667120282832328 0.0 0.0
0.0 0.0332110588394469 0.02842871859688643 -0.027370954269380837 -0.0010577643275056087 -0.011128036683964273 0.0 0.0
0.0 0.04038010637822817 0.03442421790936025 -0.03333869680911552 -0.0010855211002447041 -0.011987949354529301 0.0 0.0
0.0 0.04738047254418728 0.04038461078669933 -0.039292099304555524 -0.0010925114821438212 -0.011556801440993468 0.0 0.0
0.0 0.05320540043740415 0.045554609844834906 -0.04449525456469292 -0.0010593552801419837 -0.008742597318191589 0.0 0.0
0.0 0.05671460429946199 0.0482173947944349 -0.047521411243968095 -0.0006959835504668178 1.1247513337364623e-14 0.0 0.0
0.0 0.05320540043739979 0.04555460984482928 -0.04449525456468738 -0.0010593552801418282 0.008742597318217107 0.0 0.0
0.0 0.04738047254417789 0.04038461078668951 -0.03929209930454564 -0.0010925114821438851 0.011556801441019976 0.0 0.0
0.0 0.04038010637821302 0.03442421790934644 -0.0333386968091017 -0.0010855211002447137 0.011987949354543486 0.0 0.0
0.0 0.033211058839432706 0.02842871859687419 -0.0273709542693693 -0.001057764327504863 0.011128036683966433 0.0 0.0
0.0 0.02702183887029897 0.022839739981368828 -0.02182184459357826 -0.00101789538779055 0.009667120282826644 0.0 0.0
0.0 0.021019342743167555 0.017943367182153887 -0.016975487567242896 -0.000967879614910983 0.008091231660756771 0.0 0.0
0.0 0.016228623443200984 0.013832813935329593 -0.012930665750623897 -0.0009021481847056975 0.006680940653382129 0.0 0.0
0.0 0.012265795797117464 0.010462231034227014 -0.009640291500253638 -0.0008219395339733718 0.005477221155706076 0.0 0.0
0.0 0.009026539857553193 0.0076910506469153195 -0.0069628281513244746 -0.0007282224955908541 0.004399962596603721 0.0 0.0
0.0 0.006295140124200344 0.005362395017550109 -0.004741864170506251 -0.0006205308470438542 0.0033386010363493325 0.0 0.0
0.0 0.0038690716194877683 0.0033900739340391598 -0.0029012818221667114 -0.0004887921118724477 0.0022661608762516603 0.0 0.0
0.0 0.002384839662946689 0.001740293387867991 -0.0014258061310608772 -0.0003144872568071134 0.0011944981423725896 0.0 0.0
0.0 0.0007602014323311518 0.0006356592643207869 -0.0004946550673635498 -0.00014100419695723608 0.0004580440160522734 0.0 0.0
0.0 0.00011378778913051178 6.229107102434972e-05 -4.6017218628265404e-05 -1.6273852396084416e-05 3.2601340726062655e-05 0.0 0.0
0.0 -1.2784588083414958e-05 -1.2610470455589666e-05 1.0094022070558712e-05 2.5164483850308695e-06 -2.1463890670446695e-05 0.0 0.0
0.0 -2.222096103826862e-06 1.718406498534945e-07 -1.3552812883800062e-07 -3.631252101549062e-08 4.3968736969190927e-07 0.0 0.0
0.0 0.0 0.0 0.0 0.0 0.0 0.0 0.0
0.0 0.0 0.0 0.0 0.0 0.0 0.0 0.0
0.0 0.00017503893858711485 4.1747789050467934e-05 2.3972382411056706e-05 -6.572017146152482e-05 0.00031688033786780845 0.0 0.0
0.0 0.0016440363177505164 0.0011179587329034502 -0.00161858009421381 0.0005006213613103601 0.001023463789103249 0.0 0.0
0.0 0.0012466857724111168 0.0005491842914983632 -0.0007960059572787742 0.00024682166578041093 -0.000567077545350144 0.0 0.0
0.0 -3.828629126364128e-05 -1.3379637172663927e-05 4.293634775722197e-05 -2.9556710584558056e-05 -7.606079410114626e-05 0.0 0.0
0.0 1.683476983325989e-07 -9.842474380911868e-10 1.1381256918532304e-09 -1.5387825376230337e-10 3.35101228491758e-08 0.0 0.0
0.0 0.0 0.0 0.0 0.0 0.0 0.0 0.0
0.0 -6.901180223587784e-07 -2.1598887541696185e-08 1.937029271861844e-08 2.2285948230836673e-09 6.944731327468364e-09 0.0 0.0
0.0 -6.3121839162869815e-06 -3.7145357186005535e-06 2.942837101178224e-06 7.716986174222847e-07 1.0443178646048448e-05 0.0 0.0
0.0 -8.824533687119812e-06 -1.5494565407042313e-05 1.2549018461256618e-05 2.9455469457855967e-06 3.181453603483775e-05 0.0 0.0
0.0 0.0002657402567454926 0.00021603166792882276 -0.00016676025051373254 -4.9271417415090255e-05 -0.00025239516416919016 0.0 0.0
0.0 0.0011252780552891146 0.0008778733008449394 -0.0007013154566042645 -0.00017655784424067453 -0.0008249394870465045 0.0 0.0
0.0 0.0027175395100112708 0.0019804577481513904 -0.0016501006083586083 -0.000330357139792781 -0.0017009158166828345 0.0 0.0
0.0 0.004244622384954224 0.0034507720305365953 -0.0029771050422127874 -0.0004736669883238069 -0.002784591071903722 0.0 0.0
0.0 0.00623895258722202 0.005183044340245842 -0.004592521193347839 -0.000590523146898006 -0.003837477736174533 0.0 0.0
0.0 0.008689043956324482 0.007222748909090229 -0.006533785935947992 -0.0006889629731422328 -0.004886000239467379 0.0 0.0
0.0 0.011617044655205017 0.009700662276922616 -0.00893032125621017 -0.0007703410207124474 -0.00600978894507176 0.0 0.0
0.0 0.015305500065298572 0.012737389840899786 -0.011901751663196966 -0.0008356381777028162 -0.007289277562838394 0.0 0.0
0.0 0.019631173338095432 0.016415403469710835 -0.015529100211974817 -0.0008863032577360075 -0.008696513356758463 0.0 0.0
0.0 0.02488419793640559 0.020704544016288986 -0.019778082090205776 -0.0009264619260832112 -0.010059005988966347 0.0 0.0
0.0 0.03040669636086301 0.025475128325531532 -0.02451423446562577 -0.0009608938599057409 -0.010950061620687334 0.0 0.0
0.0 0.03602152798310316 0.0305030330726333 -0.029518121505972873 -0.0009849115666604412 -0.010826342369425838 0.0 0.0
0.0 0.041606685281548726 0.03530933415104061 -0.034349274265173466 -0.0009600598858671455 -0.008675756781434427 0.0 0.0
0.0 0.04549014442729708 0.038100433934256994 -0.03760210597047311 -0.0004983279637838782 9.433426262361877e-15 0.0 0.0
0.0 0.041606685281546055 0.035309334151036056 -0.03434927426516899 -0.0009600598858670458 0.008675756781456915 0.0 0.0
0.0 0.03602152798309698 0.030503033072626026 -0.029518121505965722 -0.0009849115666602955 0.010826342369449639 0.0 0.0
0.0 0.030406696360852085 0.02547512832552151 -0.024514234465615705 -0.0009608938599058379 0.010950061620699737 0.0 0.0
0.0 0.024884197936394493 0.020704544016279306 -0.01977808209019707 -0.0009264619260822188 0.010059005988967036 0.0 0.0
0.0 0.019631173338080437 0.01641540346969853 -0.015529100211962488 -0.0008863032577360498 0.008696513356753033 0.0 0.0
0.0 0.015305500065284933 0.012737389840888035 -0.01190175166318547 -0.0008356381777025637 0.007289277562833377 0.0 0.0
0.0 0.011617044655193884 0.009700662276913007 -0.008930321256200989 -0.0007703410207120133 0.0060097889450686365 0.0 0.0
0.0 0.008689043956313546 0.007222748909080946 -0.006533785935939348 -0.0006889629731415994 0.004886000239462982 0.0 0.0
0.0 0.0062389525872093305 0.005183044340235177 -0.004592521193337586 -0.00059052314689759 0.003837477736166824 0.0 0.0
0.0 0.0042446223849436394 0.003450772030527992 -0.0029771050422050574 -0.0004736669883229332 0.0027845910718956725 0.0 0.0
0.0 0.0027175395100012974 0.001980457748143801 -0.0016501006083517557 -0.0003303571397920459 0.0017009158166755335 0.0 0.0
0.0 0.0011252780552828796 0.0008778733008402521 -0.0007013154566003977 -0.00017655784423985406 0.0008249394870426018 0.0 0.0
0.0 0.0002657402567419536 0.00021603166792643166 -0.00016676025051182505 -4.927141741460677e-05 0.0002523951641664962 0.0 0.0
0.0 -8.824533687371713e-06 -1.5494565406849254e-05 1.2549018461096424e-05 2.945546945752754e-06 -3.1814536034479896e-05 0.0 0.0
0.0 -6.312183916603241e-06 -3.7145357182754546e-06 2.942837100917709e-06 7.716986173577977e-07 -1.0443178645106969e-05 0.0 0.0
0.0 -6.901180223092401e-07 -2.1598887617343123e-08 1.9370292779408822e-08 2.2285948379291783e-09 -6.944731552949911e-09 0.0 0.0
0.0 0.0 0.0 0.0 0.0 0.0 0.0 0.0
0.0 1.6834769789144244e-07 -9.84247435487633e-10 1.1381256888423935e-09 -1.5387825335482658e-10 -3.351012276057265e-08 0.0 0.0
0.0 -3.8286291264847885e-05 -1.3379637172986e-05 4.29363477573618e-05 -2.955671058437596e-05 7.606079409960111e-05 0.0 0.0
0.0 0.0012466857724050292 0.0005491842914951258 -0.0007960059572740886 0.00024682166577896406 0.0005670775453472965 0.0 0.0
0.0 0.00044819891261974005 0.0002238076735780459 -0.00032605190741898115 0.00010224423384093603 -0.0002874270671962309 0.0 0.0
0.0 -5.281882685345064e-05 -2.6707049413604102e-05 3.9632207254731724e-05 -1.29251578411277e-05 2.9888563748026708e-05 0.0 0.0
0.0 2.460681027693135e-06 -4.117831685075156e-09 1.0773402399554574e-08 -6.6555707144781685e-09 5.337876656849256e-07 0.0 0.0
0.0 -2.4363969988976666e-07 4.67274257071459e-09 -2.865438166614223e-09 -1.807304404100963e-09 -4.998462457855251e-08 0.0 0.0
0.0 6.233628489086471e-07 -8.196377453290556e-09 3.608994933244982e-09 4.587382520045591e-09 1.3531606602111735e-07 0.0 0.0
0.0 -8.649780342588894e-06 3.6247067025424576e-07 -2.74874894857727e-07 -8.759577539651084e-08 -9.128707929546865e-07 0.0 0.0
0.0 -8.262132844334328e-06 -1.3085433046294354e-05 1.0471848857259923e-05 2.613584189034398e-06 4.605092477055806e-05 0.0 0.0
0.0 7.672075773495732e-05 -1.9995586058255026e-06 1.168883327466851e-06 8.306752783586503e-07 -2.0947356555475613e-05 0.0 0.0
0.0 0.00038781392389453714 0.00023317970193664097 -0.00018698872698744444 -4.619097494919648e-05 -0.0004107002770187677 0.0 0.0
0.0 0.001219687426330924 0.00080326717308733 -0.0006583195251861199 -0.00014494764790121017 -0.0010254550577330297 0.0 0.0
0.0 0.0022136011405426304 0.0016884340948229227 -0.0014188080135499339 -0.0002696260812729879 -0.001901517947036126 0.0 0.0
0.0 0.003618370572027149 0.0027903389731430963 -0.002406580861094527 -0.0003837581120485679 -0.0028263665692388395 0.0 0.0
0.0 0.005241095235446092 0.004110611918748248 -0.003620407949095115 -0.0004902039696531333 -0.0037864414858525676 0.0 0.0
0.0 0.007195892071314236 0.005718439365241686 -0.005138404810440067 -0.0005800345548016117 -0.004786785275726153 0.0 0.0
0.0 0.009655126932984072 0.007703451245714777 -0.007050528196703395 -0.0006529230490113869 -0.005858979416685229 0.0 0.0
0.0 0.012711288653330667 0.010153283243494429 -0.009443845407169279 -0.0007094378363251479 -0.007021346347041345 0.0 0.0
0.0 0.016360405840634633 0.013119929888871907 -0.012362249068754537 -0.0007576808201173595 -0.008194875360062366 0.0 0.0
0.0 0.020390974991802507 0.016594291768961964 -0.015797211686102312 -0.000797080082859662 -0.009075398249839937 0.0 0.0
0.0 0.02493627371221109 0.020534584686439233 -0.019697177268480352 -0.0008374074179588627 -0.009170805827332106 0.0 0.0
0.0 0.030083280962276953 0.0248373192234181 -0.023993616334622336 -0.0008437028887957461 -0.007930145049903397 0.0 0.0
0.0 0.034136510818374446 0.02777807470114361 -0.027504196992413136 -0.0002738777087304945 7.597655143909421e-15 0.0 0.0
0.0 0.03008328096227591 0.024837319223414762 -0.023993616334618793 -0.0008437028887959739 0.007930145049921757 0.0 0.0
0.0 0.024936273712210032 0.02053458468643613 -0.01969717726847787 -0.0008374074179582566 0.009170805827352094 0.0 0.0
0.0 0.02039097499179535 0.016594291768955504 -0.015797211686096088 -0.0007970800828594023 0.009075398249849619 0.0 0.0
0.0 0.01636040584062673 0.013119929888865565 -0.012362249068749092 -0.0007576808201164747 0.008194875360061154 0.0 0.0
0.0 0.012711288653320623 0.01015328324348635 -0.009443845407161425 -0.0007094378363249097 0.007021346347036088 0.0 0.0
0.0 0.009655126932975783 0.007703451245707843 -0.007050528196696699 -0.0006529230490111415 0.005858979416681856 0.0 0.0
0.0 0.007195892071308299 0.0057184393652365 -0.00513840481043543 -0.0005800345548010714 0.004786785275724757 0.0 0.0
0.0 0.0052410952354394495 0.004110611918742644 -0.0036204079490899134 -0.0004902039696527315 0.003786441485848719 0.0 0.0
0.0 0.0036183705720175315 0.0027903389731361626 -0.0024065808610882473 -0.00038375811204791564 0.0028263665692316057 0.0 0.0
0.0 0.0022136011405358633 0.001688434094817489 -0.0014188080135452608 -0.00026962608127222877 0.0019015179470296423 0.0 0.0
0.0 0.0012196874263255449 0.0008032671730838197 -0.0006583195251831874 -0.00014494764790063194 0.0010254550577289362 0.0 0.0
0.0 0.0003878139238917617 0.0002331797019349891 -0.00018698872698609168 -4.619097494889742e-05 0.00041070027701670575 0.0 0.0
0.0 7.672075773391398e-05 -1.999558606048061e-06 1.1688833276551039e-06 8.306752783930531e-07 2.0947356554699805e-05 0.0 0.0
0.0 -8.262132845705627e-06 -1.3085433046068332e-05 1.047184885708149e-05 2.6135841889868998e-06 -4.605092476985455e-05 0.0 0.0
0.0 -8.649780343212924e-06 3.62470670267493e-07 -2.748748948677407e-07 -8.759577539978877e-08 9.128707930681887e-07 0.0 0.0
0.0 6.23362848792628e-07 -8.196377454568047e-09 3.6089949352570515e-09 4.587382519321487e-09 -1.3531606599445892e-07 0.0 0.0
0.0 -2.436396997976858e-07 4.67274256891026e-09 -2.865438165498191e-09 -1.8073044034137032e-09 4.9984624558949425e-08 0.0 0.0
0.0 2.460681027502763e-06 -4.117831685514943e-09 1.0773402399628777e-08 -6.655570714112477e-09 -5.337876656339691e-07 0.0 0.0
0.0 -5.2818826853570355e-05 -2.6707049413229605e-05 3.9632207254235695e-05 -1.2925157841006066e-05 -2.988856374730594e-05 0.0 0.0
0.0 0.0004481989126156349 0.0002238076735761964 -0.00032605190741635885 0.00010224423384016226 0.00028742706719391177 0.0 0.0
0.0 0.0001131712865315435 2.2344999118364734e-05 -3.3967617482175155e-05 1.1622618363810546e-05 -2.6869627790046056e-05 0.0 0.0
0.0 -1.1774852364263026e-05 -4.029727588866072e-06 5.697480713310197e-06 -1.6677531244441235e-06 6.812643642046213e-06 0.0 0.0
0.0 5.349852057421339e-07 6.401764979369936e-10 9.549862055818769e-10 -1.5951627035180371e-09 1.0756131853937915e-07 0.0 0.0
0.0 2.436080776126386e-07 8.137071863921834e-09 -7.318061333627642e-09 -8.19010530296412e-10 4.870757729381507e-08 0.0 0.0
0.0 1.3594309053105892e-07 2.4029076266449467e-08 -1.9068505419017562e-08 -4.96057084742354e-09 3.3458739142496685e-09 0.0 0.0
0.0 4.744436060639739e-07 -3.986330485754182e-07 3.009605930931894e-07 9.767245548220316e-08 4.036923978319417e-06 0.0 0.0
0.0 -5.3296790125766775e-06 -3.76524168471751e-06 3.0193654345730106e-06 7.458762501445215e-07 2.743797902055265e-05 0.0 0.0
0.0 3.980974466408827e-05 5.38339127756098e-07 -2.24438601359431e-07 -3.139005263966825e-07 -3.386325884586154e-05 0.0 0.0
0.0 0.00011177618061562 5.942261653107781e-06 -5.598869716278231e-06 -3.433919368295105e-07 -0.00015851564397099436 0.0 0.0
0.0 0.00029298563229849427 8.006508633337808e-05 -6.979656185354972e-05 -1.0268524479828514e-05 -0.00043626805691713324 0.0 0.0
0.0 0.0008115322748045611 0.0003009807144104513 -0.0002674365448797169 -3.35441695307347e-05 -0.0008917773014365687 0.0 0.0
0.0 0.001301911539572329 0.0006942947276557527 -0.0006185628754826756 -7.573185217307658e-05 -0.0015849606277733746 0.0 0.0
0.0 0.0021347912906279133 0.0012693127442636963 -0.0011290268241716435 -0.00014028592009205179 -0.0023561393698745764 0.0 0.0
0.0 0.0032229136706109253 0.0020175302208835736 -0.0018070549155623705 -0.00021047530532120566 -0.00320420008770141 0.0 0.0
0.0 0.004557555866725308 0.00298724845934176 -0.002702486383287319 -0.000284762076054437 -0.004120317426507566 0.0 0.0
0.0 0.006237988920396692 0.0042233111030414204 -0.003861142553621274 -0.00036216854942014524 -0.005102933448076915 0.0 0.0
0.0 0.008422829451028256 0.005835493230251479 -0.005391847140675951 -0.0004436460895755302 -0.006164066565503633 0.0 0.0
0.0 0.01125808668632524 0.007963422213969139 -0.0074462960174672636 -0.0005171261965018712 -0.007092867642309488 0.0 0.0
0.0 0.014540505882932108 0.01068431753082983 -0.010108426620034484 -0.0005758909107953594 -0.007339916065157509 0.0 0.0
0.0 0.01839067122817589 0.014177366809555413 -0.013524756909224472 -0.0006526099003309272 -0.006499100706471343 0.0 0.0
0.0 0.02345864234189235 0.01719610443862075 -0.01719502956228549 -1.0748763352692945e-06 5.109194317620691e-15 0.0 0.0
0.0 0.018390671228178244 0.014177366809554405 -0.013524756909223404 -0.0006526099003309987 0.006499100706486535 0.0 0.0
0.0 0.014540505882933017 0.01068431753082889 -0.010108426620033964 -0.000575890910794923 0.0073399160651727285 0.0 0.0
0.0 0.011258086686318962 0.007963422213964465 -0.007446296017462556 -0.0005171261965019173 0.0070928676423135 0.0 0.0
0.0 0.00842282945102211 0.005835493230248168 -0.005391847140673065 -0.00044364608957510483 0.006164066565500137 0.0 0.0
0.0 0.006237988920391629 0.004223311103038176 -0.0038611425536178956 -0.00036216854942028033 0.005102933448071697 0.0 0.0
0.0 0.004557555866721721 0.0029872484593387104 -0.002702486383284508 -0.0002847620760542035 0.004120317426505217 0.0 0.0
0.0 0.0032229136706077026 0.0020175302208819174 -0.0018070549155609085 -0.00021047530532100855 0.00320420008769917 0.0 0.0
0.0 0.0021347912906240383 0.0012693127442612692 -0.001129026824169595 -0.00014028592009167383 0.0023561393698706998 0.0 0.0
0.0 0.0013019115395679626 0.0006942947276534953 -0.0006185628754805533 -7.573185217294196e-05 0.0015849606277682424 0.0 0.0
0.0 0.0008115322747999543 0.00030098071440829945 -0.0002674365448778026 -3.354416953049656e-05 0.0008917773014310864 0.0 0.0
0.0 0.00029298563229696706 8.00650863328966e-05 -6.979656185314296e-05 -1.0268524479753689e-05 0.0004362680569156705 0.0 0.0
0.0 0.00011177618061503978 5.942261653078757e-06 -5.598869716267223e-06 -3.4339193681149223e-07 0.00015851564397013885 0.0 0.0
0.0 3.980974466309259e-05 5.383391277286884e-07 -2.2443860133399766e-07 -3.139005263946976e-07 3.386325884541506e-05 0.0 0.0
0.0 -5.329679012799773e-06 -3.7652416846701597e-06 3.019365434536375e-06 7.458762501337937e-07 -2.7437979020112516e-05 0.0 0.0
0.0 4.7444360560390755e-07 -3.986330485718247e-07 3.009605930907606e-07 9.76724554810652e-08 -4.036923978222796e-06 0.0 0.0
0.0 1.3594309011922446e-07 2.4029076266739186e-08 -1.906850541868594e-08 -4.960570848056445e-09 -3.3458738293035996e-09 0.0 0.0
0.0 2.436080774645492e-07 8.137071860818163e-09 -7.3180613307116555e-09 -8.190105301053078e-10 -4.870757726290399e-08 0.0 0.0
0.0 5.349852053347855e-07 6.401764979348632e-10 9.54986204320233e-10 -1.5951627022593786e-09 -1.0756131845488952e-07 0.0 0.0
0.0 -1.1774852364803513e-05 -4.029727588797386e-06 5.697480713211106e-06 -1.667753124413717e-06 -6.81264364191227e-06 0.0 0.0
0.0 0.00011317128652995654 2.2344999118015147e-05 -3.396761748164688e-05 1.1622618363631648e-05 2.686962778961893e-05 0.0 0.0
0.0 2.3083184531284368e-06 2.2260114076924176e-06 -3.3772403378983993e-06 1.1512289302059302e-06 -3.689544727075264e-06 0.0 0.0
0.0 -1.6096167555681102e-06 -2.842988030151602e-07 4.3252908018466543e-07 -1.48230277169492e-07 2.2628931946038646e-07 0.0 0.0
0.0 3.6187657992177032e-06 1.0195274959671077e-08 7.11349756412122e-09 -1.7308772523796264e-08 7.81723116672718e-07 0.0 0.0
0.0 1.2405663355666563e-06 2.296314495505155e-08 -1.9338392250235115e-08 -3.624752704813151e-09 2.542797602654144e-07 0.0 0.0
0.0 7.821947515459587e-08 1.9553413154148733e-08 -1.741372149231297e-08 -2.139691661835925e-09 -6.284691891100786e-09 0.0 0.0
0.0 -7.623441003974895e-07 3.0867081106483315e-08 -2.6381817889253833e-08 -4.48526321722636e-09 3.860394839111972e-06 0.0 0.0
0.0 -1.308025779290393e-06 -1.5275178787460002e-08 -1.2507526987010406e-08 2.7782705774459528e-08 2.646704899094141e-05 0.0 0.0
0.0 2.908090955306395e-05 -2.3191503118287214e-07 2.380700005492832e-07 -6.154969366401741e-09 -4.869056569699751e-05 0.0 0.0
0.0 0.00013746151056911272 -1.57033366600834e-08 1.881909991071592e-08 -3.1157632506066884e-09 -0.00015127871082820546 0.0 0.0
0.0 0.0002194767239873242 1.274217584626496e-07 -1.0886892865444632e-07 -1.8552829808202425e-08 -0.0003610859704023772 0.0 0.0
0.0 0.00043284452482159053 -5.432814230023727e-07 3.0423734147626997e-07 2.3904408152606176e-07 -0.00058351999284182 0.0 0.0
0.0 0.0005555248600265903 6.27550670965796e-07 -4.992361451020518e-07 -1.2831452586371586e-07 -0.0009997314992955166 0.0 0.0
0.0 0.000777673123363901 1.742970797945231e-06 -1.208732630504663e-06 -5.34238167440629e-07 -0.0015038031176474666 0.0 0.0
0.0 0.0010685393441698492 2.304633021635446e-06 -1.348567887132299e-06 -9.5606513450272e-07 -0.002187889141940421 0.0 0.0
0.0 0.0014926761783279749 -1.1680234585706353e-05 1.1843529576235256e-05 -1.6329499052922833e-07 -0.0030789142894008708 0.0 0.0
0.0 0.002167200405573564 3.363845935713155e-05 -4.6578475453569934e-05 1.294001609643783e-05 -0.004213870108631303 0.0 0.0
0.0 0.0031161707985777874 0.00026267778556489797 -0.0003101515370419688 4.747375147707124e-05 -0.005475411278957393 0.0 0.0
0.0 0.004356480248405668 0.0007770504545006534 -0.000893678503168353 0.00011662804866769955 -0.006733232208843547 0.0 0.0
0.0 0.006202857921691971 0.0016260474312597528 -0.001802751027523643 0.00017670359626389102 -0.007743217454484077 0.0 0.0
0.0 0.009141101807879658 0.003738532889930143 -0.003641358340611945 -9.717454931819723e-05 -0.0077222221663519885 0.0 0.0
0.0 0.015807186251178443 0.007198284259898062 -0.0075928086503940714 0.00039452439049601263 6.263652790883256e-15 0.0 0.0
0.0 0.009141101807882981 0.0037385328899298114 -0.00364135834061158 -9.717454931822986e-05 0.007722222166363072 0.0 0.0
0.0 0.006202857921691698 0.0016260474312594017 -0.0018027510275233196 0.00017670359626391848 0.007743217454487923 0.0 0.0
0.0 0.004356480248400644 0.0007770504544997833 -0.0008936785031670479 0.0001166280486672655 0.006733232208840141 0.0 0.0
0.0 0.0031161707985730676 0.000262677785565102 -0.0003101515370422206 4.747375147711838e-05 0.0054754112789515514 0.0 0.0
0.0 0.0021672004055723676 3.3638459357865716e-05 -4.657847545436379e-05 1.2940016096498085e-05 0.004213870108628344 0.0 0.0
0.0 0.0014926761783259491 -1.1680234586155294e-05 1.184352957685645e-05 -1.6329499070150805e-07 0.003078914289397633 0.0 0.0
0.0 0.00106853934416832 2.3046330218538314e-06 -1.3485678874466906e-06 -9.560651344069443e-07 0.002187889141938075 0.0 0.0
0.0 0.0007776731233611089 1.7429707980630161e-06 -1.2087326306146553e-06 -5.342381674484387e-07 0.0015038031176416923 0.0 0.0
0.0 0.0005555248600251009 6.275506709514981e-07 -4.992361451017943e-07 -1.2831452584972415e-07 0.000999731499292289 0.0 0.0
0.0 0.00043284452481885216 -5.432814227808832e-07 3.0423734130770867e-07 2.3904408147319483e-07 0.0005835199928376111 0.0 0.0
0.0 0.00021947672398703772 1.2742175848102174e-07 -1.0886892865850615e-07 -1.855282982248933e-08 0.0003610859704021029 0.0 0.0
0.0 0.00013746151056833164 -1.570333665123614e-08 1.881909990885753e-08 -3.1157632576374854e-09 0.0001512787108272546 0.0 0.0
0.0 2.9080909552311075e-05 -2.31915031188294e-07 2.3807000055722392e-07 -6.154969368914994e-09 4.8690565696389874e-05 0.0 0.0
0.0 -1.308025779604129e-06 -1.527517879210476e-08 -1.250752698324823e-08 2.7782705775360993e-08 -2.6467048990406674e-05 0.0 0.0
0.0 -7.623441009909212e-07 3.086708110248147e-08 -2.6381817885483103e-08 -4.485263217004643e-09 -3.860394839005335e-06 0.0 0.0
0.0 7.821947466927294e-08 1.955341314824257e-08 -1.741372148698716e-08 -2.13969166125215e-09 6.284691988554587e-09 0.0 0.0
0.0 1.2405663350389034e-06 2.2963144945294832e-08 -1.9338392241929008e-08 -3.624752703366745e-09 -2.542797601527055e-07 0.0 0.0
0.0 3.618765798929172e-06 1.0195274960301875e-08 7.113497562151617e-09 -1.7308772522443827e-08 -7.817231166001966e-07 0.0 0.0
0.0 -1.6096167554657607e-06 -2.8429880306352093e-07 4.3252908025278864e-07 -1.482302771892852e-07 -2.2628931953872769e-07 0.0 0.0
0.0 2.3083184520436535e-06 2.226011408025606e-06 -3.3772403383946213e-06 1.1512289303691198e-06 3.6895447277032044e-06 0.0 0.0
0.0 -1.1154274967154842e-06 6.94027292706571e-08 -1.0140536005932449e-07 3.200263078866925e-08 -1.5472886577778064e-07 0.0 0.0
0.0 1.7918000042185022e-07 -8.709275583130871e-09 1.2408309398132015e-08 -3.6990338150030894e-09 3.0163412121232195e-08 0.0 0.0
0.0 -8.826497244967562e-07 -1.2994467622963783e-08 9.317246254383222e-09 3.677221368580728e-09 -1.9103679018332728e-07 0.0 0.0
0.0 1.490317100255079e-06 4.241911744592017e-08 -3.470315010590186e-08 -7.71596734001991e-09 3.1235457426870176e-07 0.0 0.0
0.0 -1.2320817225015144e-06 5.3187041002133016e-08 -5.181885504253472e-08 -1.3681859595962232e-09 2.850561862336419e-07 0.0 0.0
0.0 -2.0976635971181935e-06 -4.3556099940500816e-07 3.6214118920717834e-07 7.341981019786253e-08 -1.4080749746959822e-06 0.0 0.0
0.0 4.887803835388342e-06 5.931976907008569e-06 -4.7149727211488425e-06 -1.2170041858598092e-06 4.025847498336255e-05 0.0 0.0
0.0 4.496010843326091e-05 -1.1888241535098192e-06 8.447850633295986e-07 3.44039090180251e-07 -3.536274236486729e-05 0.0 0.0
0.0 0.0001126652120229313 -6.535750899990573e-06 6.101572727120364e-06 4.34178172870057e-07 -0.0001599823980093265 0.0 0.0
0.0 0.00029149031346762256 -7.938603826152217e-05 6.91909091513498e-05 1.0195129110172375e-05 -0.00043539682646001447 0.0 0.0
0.0 0.0008189524492658848 -0.00029767800468620846 0.00026504879247743376 3.262921220877492e-05 -0.0008890945206911659 0.0 0.0
0.0 0.0013117303658416676 -0.0006963866975735036 0.0006201724017454904 7.621429582801325e-05 -0.0015836213866331447 0.0 0.0
0.0 0.002147995351142866 -0.0012791020991115125 0.0011372816287953842 0.0001418204703161277 -0.0023571011311584577 0.0 0.0
0.0 0.0032498485388874152 -0.0020411269744094558 0.0018287384060651948 0.0002123885683442596 -0.0032006635716260055 0.0 0.0
0.0 0.0045579419831761215 -0.002994702867966637 0.0027143701390551743 0.00028033272891146173 -0.004126870702659685 0.0 0.0
0.0 0.0060590631495085635 -0.004057518947099866 0.003732118980539034 0.000325399966560831 -0.005191289529048898 0.0 0.0
0.0 0.007554026894631511 -0.005047088164769762 0.004715739743845403 0.00033134842092436034 -0.0064865607869364844 0.0 0.0
0.0 0.008873129284682198 -0.0055895128288845205 0.005315168444245157 0.0002743443846393584 -0.008042935720000267 0.0 0.0
0.0 0.009122777988935557 -0.0051893704136636585 0.005028774929824298 0.00016059548383936758 -0.009853538461433924 0.0 0.0
0.0 0.007781699983437391 -0.0037763334554812306 0.003727249985431132 4.9083470050096534e-05 -0.011352331127719837 0.0 0.0
0.0 0.01494986000290478 -0.0020868722848551525 0.0007702623106273244 0.001316609974227828 8.87744738831131e-15 0.0 0.0
0.0 0.007781699983442483 -0.0037763334554821865 0.003727249985432361 4.908347004982196e-05 0.011352331127727893 0.0 0.0
0.0 0.009122777988936728 -0.0051893704136640175 0.005028774929824546 0.00016059548383947806 0.009853538461441382 0.0 0.0
0.0 0.008873129284677952 -0.005589512828882003 0.0053151684442428945 0.00027434438463910907 0.00804293572000008 0.0 0.0
0.0 0.0075540268946232975 -0.005047088164763814 0.004715739743839495 0.0003313484209243215 0.0064865607869311935 0.0 0.0
0.0 0.006059063149502082 -0.004057518947094708 0.003732118980534205 0.0003253999665605021 0.0051912895290451904 0.0 0.0
0.0 0.004557941983171981 -0.00299470286796285 0.002714370139051865 0.00028033272891098626 0.0041268707026554975 0.0 0.0
0.0 0.0032498485388806086 -0.0020411269744041276 0.0018287384060602136 0.00021238856834391443 0.003200663571621413 0.0 0.0
0.0 0.0021479953511355757 -0.001279102099106381 0.0011372816287908494 0.00014182047031553068 0.0023571011311525987 0.0 0.0
0.0 0.001311730365834941 -0.0006963866975693954 0.0006201724017417926 7.62142958276025e-05 0.0015836213866268554 0.0 0.0
0.0 0.0008189524492598838 -0.00029767800468383514 0.0002650487924752941 3.262921220854073e-05 0.0008890945206857775 0.0 0.0
0.0 0.00029149031346570743 -7.938603826054804e-05 6.91909091504803e-05 1.0195129110067602e-05 0.0004353968264582694 0.0 0.0
0.0 0.0001126652120223997 -6.5357509000498466e-06 6.101572727161745e-06 4.341781728880861e-07 0.0001599823980089166 0.0 0.0
0.0 4.496010843232472e-05 -1.1888241534705999e-06 8.447850633116239e-07 3.440390901589897e-07 3.5362742364293144e-05 0.0 0.0
0.0 4.887803834837952e-06 5.931976906995866e-06 -4.714972721145899e-06 -1.217004185849953e-06 -4.0258474983220995e-05 0.0 0.0
0.0 -2.0976635972862804e-06 -4.3556099952306496e-07 3.6214118931020995e-07 7.341981021285732e-08 1.4080749755497016e-06 0.0 0.0
0.0 -1.232081723125395e-06 5.3187041014355714e-08 -5.1818855053387506e-08 -1.3681859609721355e-09 -2.8505618630438893e-07 0.0 0.0
0.0 1.4903170996868914e-06 4.241911743258753e-08 -3.470315009501489e-08 -7.715967337572316e-09 -3.123545741501756e-07 0.0 0.0
0.0 -8.826497247984758e-07 -1.2994467621539304e-08 9.317246251181477e-09 3.677221370354842e-09 1.9103679023936508e-07 0.0 0.0
0.0 1.791800006106036e-07 -8.709275580154348e-09 1.2408309395914994e-08 -3.699033815758634e-09 -3.0163412160347144e-08 0.0 0.0
0.0 -1.1154274964526031e-06 6.940272925345171e-08 -1.0140536003419192e-07 3.2002630780733594e-08 1.5472886573936063e-07 0.0 0.0
0.0 0.0 0.0 0.0 0.0 0.0 0.0 0.0
0.0 -6.422239837672116e-08 -7.673636738658928e-10 3.860605389357296e-10 3.81303134929867e-10 -1.284131782217668e-08 0.0 0.0
0.0 -3.7874344330713723e-07 -1.8012271592059652e-08 1.5873291862660503e-08 2.138979729398885e-09 -8.014407512813873e-08 0.0 0.0
0.0 -9.073015980962664e-07 -5.68571413310864e-08 4.755545022616241e-08 9.301691104915119e-09 -2.3445117856962518e-07 0.0 0.0
0.0 7.333510280262379e-06 1.0051693608014192e-07 -9.200081947336379e-08 -8.516116606729295e-09 8.885999151793339e-07 0.0 0.0
0.0 7.832151097433761e-06 4.140632357926939e-06 -3.3455276056543415e-06 -7.951047522725838e-07 1.8301713474809018e-05 0.0 0.0
0.0 -5.017587494534074e-06 3.364488364032886e-06 -2.680378761668953e-06 -6.8410960236385e-07 1.5734500541905432e-06 0.0 0.0
0.0 8.475220233056949e-05 -3.0979552497349184e-07 8.004848840393964e-07 -4.906893590660799e-07 -2.6658545420814068e-05 0.0 0.0
0.0 0.00038672915220314336 -0.00023267355607344784 0.00018652655959382742 4.6146996479620554e-05 -0.0004109322218166498 0.0 0.0
0.0 0.001216067147090049 -0.0008015280606308596 0.0006567504277041356 0.00014477763292672358 -0.001022902414451681 0.0 0.0
0.0 0.0022120395079803 -0.0016879125399050258 0.0014183262320326153 0.00026958630787240914 -0.001900358773614988 0.0 0.0
0.0 0.0036209530343349686 -0.002792155776636121 0.0024081803990663748 0.00038397537756974776 -0.0028272203004506705 0.0 0.0
0.0 0.005250868884606812 -0.0041188286144008485 0.003627847408578132 0.0004909812058227135 -0.0037815627963903803 0.0 0.0
0.0 0.007217574696382901 -0.00574065897731984 0.005159866254040347 0.0005807927232794936 -0.00476369296436846 0.0 0.0
0.0 0.00966639633873501 -0.00772074782050796 0.007071055728313044 0.0006496920921949137 -0.005841510650459504 0.0 0.0
0.0 0.01256942347020386 -0.010030068423621556 0.009338197540132995 0.0006918708834885625 -0.007165876204492425 0.0 0.0
0.0 0.015635332139738625 -0.012444966596990546 0.01173890787762779 0.0007060587193627395 -0.008921039883339433 0.0 0.0
0.0 0.018173045352057663 -0.014500043691808993 0.013801732352896315 0.0006983113389126823 -0.011191732358782978 0.0 0.0
0.0 0.019693206528141754 -0.015306827863719763 0.014648149095534095 0.0006586787681856638 -0.013525593320343771 0.0 0.0
0.0 0.018263549920466395 -0.013311058034697424 0.012693996462007424 0.0006170615726899999 -0.014025669685142354 0.0 0.0
0.0 0.01864846670104017 -0.01041806411250085 0.00834303832673881 0.0020750257857620395 7.65533469948565e-15 0.0 0.0
0.0 0.018263549920470787 -0.013311058034697787 0.012693996462007773 0.0006170615726900173 0.014025669685156852 0.0 0.0
0.0 0.01969320652814019 -0.015306827863716248 0.01464814909553054 0.0006586787681857018 0.01352559332035755 0.0 0.0
0.0 0.018173045352049243 -0.014500043691801771 0.013801732352889385 0.0006983113389123894 0.011191732358786888 0.0 0.0
0.0 0.015635332139726874 -0.01244496659698107 0.011738907877618505 0.0007060587193625595 0.008921039883335811 0.0 0.0
0.0 0.012569423470191462 -0.010030068423611229 0.009338197540122791 0.0006918708834884354 0.0071658762044870435 0.0 0.0
0.0 0.009666396338725743 -0.007720747820500338 0.00707105572830609 0.0006496920921942485 0.005841510650454267 0.0 0.0
0.0 0.007217574696373915 -0.00574065897731161 0.00515986625403266 0.0005807927232789423 0.0047636929643638795 0.0 0.0
0.0 0.005250868884595605 -0.004118828614391734 0.0036278474085696725 0.0004909812058220617 0.0037815627963842984 0.0 0.0
0.0 0.003620953034323633 -0.002792155776627416 0.0024081803990584974 0.00038397537756891667 0.0028272203004424427 0.0 0.0
0.0 0.00221203950796989 -0.0016879125398968696 0.0014183262320252496 0.0002695863078716201 0.0019003587736062314 0.0 0.0
0.0 0.0012160671470826884 -0.0008015280606257533 0.0006567504276998694 0.0001447776329258837 0.0010229024144466365 0.0 0.0
0.0 0.00038672915219974764 -0.00023267355607143708 0.00018652655959224758 4.6146996479189394e-05 0.0004109322218140457 0.0 0.0
0.0 8.475220232979103e-05 -3.0979552488333027e-07 8.004848839789589e-07 -4.906893590956837e-07 2.665854542033652e-05 0.0 0.0
0.0 -5.017587496143688e-06 3.364488363898486e-06 -2.680378761560569e-06 -6.841096023379321e-07 -1.5734500538070642e-06 0.0 0.0
0.0 7.832151097003011e-06 4.140632357947389e-06 -3.3455276056728517e-06 -7.951047522746172e-07 -1.8301713474898854e-05 0.0 0.0
0.0 7.333510279773918e-06 1.0051693604305155e-07 -9.200081944219519e-08 -8.516116600858311e-09 -8.885999149813675e-07 0.0 0.0
0.0 -9.073015986570772e-07 -5.6857141346010775e-08 4.755545023829637e-08 9.301691107725905e-09 2.3445117868003778e-07 0.0 0.0
0.0 -3.7874344334963774e-07 -1.8012271588564516e-08 1.5873291858862447e-08 2.138979729702004e-09 8.014407513526805e-08 0.0 0.0
0.0 -6.422239831149007e-08 -7.673636730775991e-10 3.8606053854000237e-10 3.8130313453729685e-10 1.284131780894419e-08 0.0 0.0
0.0 0.0 0.0 0.0 0.0 0.0 0.0 0.0
0.0 0.0 0.0 0.0 0.0 0.0 0.0 0.0
0.0 0.0 0.0 0.0 0.0 0.0 0.0 0.0
0.0 -6.673786689358188e-07 -2.6521950268112564e-08 2.1499513791296284e-08 5.022436476819881e-09 -1.3134363579990852e-07 0.0 0.0
0.0 1.8682322036662964e-06 7.292438497842065e-08 -5.975073658410082e-08 -1.3173648394326133e-08 3.735910496881116e-07 0.0 0.0
0.0 -6.834108092309004e-08 8.979059397398079e-07 -7.245782950479923e-07 -1.733276446918588e-07 3.057769162982323e-06 0.0 0.0
0.0 -1.2822357033670693e-05 -5.553012921384958e-07 4.141978974031236e-07 1.411033947354318e-07 -2.8077348561311783e-06 0.0 0.0
0.0 2.903755939684992e-05 1.896888090295992e-05 -1.5191891346954292e-05 -3.776989556005839e-06 4.250330329893956e-05 0.0 0.0
0.0 0.0002780643422223199 -0.00021884276651191816 0.00016934865158018002 4.949411493173818e-05 -0.0002584128300754602 0.0 0.0
0.0 0.0011226281542199299 -0.000875933595194961 0.0006995508124665803 0.00017638278272837983 -0.0008229009442966854 0.0 0.0
0.0 0.002715107095828456 -0.001978675693331754 0.00164831315098381 0.00033036254234794423 -0.0016971777189571866 0.0 0.0
0.0 0.004240184989176968 -0.003451203966656469 0.0029775307517887987 0.0004736732148676689 -0.0027843824536533095 0.0 0.0
0.0 0.006241185102430652 -0.005184259300968028 0.004593821554460392 0.0005904377465076329 -0.0038386028657065095 0.0 0.0
0.0 0.008692541221713937 -0.007225934376295557 0.006536777905868752 0.0006891564704268027 -0.004877414712016711 0.0 0.0
0.0 0.011624675819418359 -0.00971257979422521 0.008941455622458959 0.0007711241717662542 -0.005964109523816569 0.0 0.0
0.0 0.015306315318658257 -0.012753556885317322 0.01191905571945415 0.0008345011658631782 -0.007213049649860302 0.0 0.0
0.0 0.019542293382715036 -0.016349111274929985 0.01547531376611004 0.0008737975088199471 -0.008815564389040013 0.0 0.0
0.0 0.024419307089920513 -0.020236267892610252 0.019351910475737807 0.0008843574168724564 -0.011098856027388441 0.0 0.0
0.0 0.028753973916024675 -0.023739840141947986 0.02288159385838657 0.0008582462835614198 -0.014209132491502066 0.0 0.0
0.0 0.03125795465495381 -0.02551458427589924 0.024715150120351612 0.0007994341555476264 -0.017334930194837877 0.0 0.0
0.0 0.029213759621758793 -0.02335775960863691 0.022655909382205002 0.0007018502264319046 -0.01833079098594261 0.0 0.0
0.0 0.02665773868029465 -0.018923501711850914 0.016144586999527102 0.0027789147123238036 8.12804684668933e-15 0.0 0.0
0.0 0.029213759621761433 -0.023357759608635436 0.02265590938220343 0.0007018502264319912 0.0183307909859622 0.0 0.0
0.0 0.031257954654950126 -0.02551458427589316 0.024715150120345763 0.000799434155547364 0.01733493019485665 0.0 0.0
0.0 0.028753973916015377 -0.02373984014193886 0.02288159385837808 0.0008582462835607632 0.014209132491511092 0.0 0.0
0.0 0.024419307089903967 -0.02023626789259646 0.01935191047572403 0.0008843574168724482 0.011098856027386274 0.0 0.0
0.0 0.01954229338269979 -0.01634911127491691 0.01547531376609726 0.0008737975088196454 0.008815564389034712 0.0 0.0
0.0 0.015306315318645253 -0.012753556885306305 0.011919055719443928 0.0008345011658623662 0.007213049649854687 0.0 0.0
0.0 0.011624675819402859 -0.00971257979421218 0.008941455622446113 0.0007711241717660651 0.005964109523810232 0.0 0.0
0.0 0.008692541221699131 -0.0072259343762831295 0.006536777905856878 0.0006891564704262551 0.004877414712010189 0.0 0.0
0.0 0.006241185102415145 -0.005184259300955493 0.004593821554448587 0.0005904377465069043 0.003838602865697367 0.0 0.0
0.0 0.004240184989161596 -0.003451203966644119 0.0029775307517770785 0.0004736732148670407 0.0027843824536430478 0.0 0.0
0.0 0.002715107095816621 -0.0019786756933225158 0.0016483131509755556 0.0003303625423469594 0.001697177718949169 0.0 0.0
0.0 0.0011226281542132878 -0.0008759335951901279 0.0006995508124626484 0.00017638278272747883 0.0008229009442929259 0.0 0.0
0.0 0.00027806434221890844 -0.0002188427665095788 0.00016934865157833924 4.9494114931239484e-05 0.00025841283007310836 0.0 0.0
0.0 2.90375593961698e-05 1.8968880902722056e-05 -1.5191891346772905e-05 -3.776989555949016e-06 -4.2503303298579255e-05 0.0 0.0
0.0 -1.282235703462649e-05 -5.553012924608275e-07 4.1419789766120507e-07 1.4110339479963573e-07 2.8077348570377403e-06 0.0 0.0
0.0 -6.834108141135572e-08 8.979059397722195e-07 -7.245782950735723e-07 -1.7332764469863567e-07 -3.057769163045526e-06 0.0 0.0
0.0 1.8682322031391885e-06 7.292438495947189e-08 -5.975073656882235e-08 -1.3173648390657147e-08 -3.73591049577993e-07 0.0 0.0
0.0 -6.673786687448563e-07 -2.6521950260483167e-08 2.1499513785132376e-08 5.022436475351499e-09 1.3134363576041204e-07 0.0 0.0
0.0 0.0 0.0 0.0 0.0 0.0 0.0 0.0
0.0 0.0 0.0 0.0 0.0 0.0 0.0 0.0
0.0 0.0 0.0 0.0 0.0 0.0 0.0 0.0
0.0 0.0 0.0 0.0 0.0 0.0 0.0 0.0
0.0 -2.95889627028445e-07 -1.3592507698731995e-08 1.083743040721265e-08 2.7550772915178707e-09 -5.501979115714737e-08 0.0 0.0
0.0 -2.112291098398292e-06 -1.6324554829102846e-07 1.3285156833206997e-07 3.0393979958964755e-08 -4.379793777943576e-07 0.0 0.0
0.0 9.435874856115735e-06 4.983793577854045e-07 -3.962658527799031e-07 -1.0211350500549717e-07 1.4061937822607526e-06 0.0 0.0
0.0 7.386121862905384e-06 2.345046036184369e-05 -1.8625314872549216e-05 -4.8251454892945505e-06 4.073901962654687e-05 0.0 0.0
0.0 0.00012903383083372796 -8.700294618313854e-05 6.587565704925595e-05 2.112728913388283e-05 -7.884833253029688e-05 0.0 0.0
0.0 0.0007686359562924837 -0.0006368998093916136 0.0004960532841821904 0.0001408465252094227 -0.0004635916195440696 0.0 0.0
0.0 0.0023811366464420954 -0.001737787089094413 0.001423309719344951 0.00031447736974946213 -0.0011902148057807466 0.0 0.0
0.0 0.0038665606220558823 -0.0033892820183828386 0.0029003086511382318 0.000488973367244607 -0.0022625258237040204 0.0 0.0
0.0 0.006297098031457372 -0.005363539619190983 0.00474305782728361 0.000620481791907373 -0.0033384440128016945 0.0 0.0
0.0 0.009027627175188886 -0.007691523886057643 0.006963683359273099 0.0007278405267845408 -0.004401196850675006 0.0 0.0
0.0 0.0122614774460254 -0.010457990231279855 0.009636499275776977 0.0008214909555028805 -0.005467174680991204 0.0 0.0
0.0 0.016214463631921316 -0.013824744510684168 0.01292180084382696 0.0009029436668572101 -0.006619693565384716 0.0 0.0
0.0 0.02100011521334295 -0.017944842249063526 0.01697499969917772 0.0009698425498858088 -0.007957043624003684 0.0 0.0
0.0 0.026998174763653092 -0.02284298646077226 0.021829415008265223 0.0010135714525070245 -0.009712847198616238 0.0 0.0
0.0 0.0330354190808189 -0.02822605525954897 0.02720458178495165 0.001021473474597261 -0.012280520317932905 0.0 0.0
0.0 0.03923493353166961 -0.03314269728253218 0.03216727685488688 0.00097542042764532 -0.015867127900069278 0.0 0.0
0.0 0.04291477018580402 -0.03575846965786651 0.03488383999720921 0.0008746296606572726 -0.019746686996384204 0.0 0.0
0.0 0.04032937425115634 -0.03311714932634266 0.0324044569512402 0.0007126923751024443 -0.02156371812992933 0.0 0.0
0.0 0.035304064296039286 -0.027281699779050296 0.023902699583991677 0.0033790001950585995 9.679756995950584e-15 0.0 0.0
0.0 0.040329374251157915 -0.03311714932634014 0.03240445695123814 0.0007126923751020091 0.021563718129951497 0.0 0.0
0.0 0.042914770185800116 -0.035758469657860184 0.03488383999720322 0.0008746296606569764 0.019746686996407553 0.0 0.0
0.0 0.03923493353165784 -0.03314269728252076 0.03216727685487604 0.0009754204276446958 0.015867127900081303 0.0 0.0
0.0 0.03303541908079863 -0.02822605525953144 0.02720458178493419 0.0010214734745972519 0.012280520317932463 0.0 0.0
0.0 0.026998174763635096 -0.02284298646075663 0.02182941500825014 0.0010135714525064906 0.009712847198611785 0.0 0.0
0.0 0.02100011521332587 -0.017944842249048524 0.016974999699163593 0.0009698425498849398 0.00795704362399765 0.0 0.0
0.0 0.016214463631901516 -0.013824744510667012 0.012921800843810137 0.0009029436668568601 0.006619693565378222 0.0 0.0
0.0 0.01226147744600546 -0.010457990231262895 0.009636499275760371 0.0008214909555025199 0.005467174680984339 0.0 0.0
0.0 0.009027627175170236 -0.007691523886041504 0.0069636833592577425 0.0007278405267837649 0.0044011968506658845 0.0 0.0
0.0 0.006297098031438828 -0.005363539619175171 0.004743057827268305 0.0006204817919068656 0.003338444012790694 0.0 0.0
0.0 0.0038665606220417478 -0.0033892820183704974 0.002900308651126853 0.000488973367243643 0.0022625258236953993 0.0 0.0
0.0 0.0023811366464312252 -0.0017377870890861766 0.0014233097193379694 0.0003144773697482083 0.0011902148057754613 0.0 0.0
0.0 0.0007686359562859939 -0.000636899809386768 0.0004960532841783074 0.0001408465252084608 0.00046359161954072055 0.0 0.0
0.0 0.000129033830831249 -8.700294618202962e-05 6.587565704842229e-05 2.1127289133607203e-05 7.884833252947153e-05 0.0 0.0
0.0 7.386121862121295e-06 2.34504603616153e-05 -1.8625314872368347e-05 -4.825145489246997e-06 -4.073901962618247e-05 0.0 0.0
0.0 9.435874854791472e-06 4.983793576723118e-07 -3.9626585269070267e-07 -1.0211350498158896e-07 -1.406193782002764e-06 0.0 0.0
0.0 -2.1122910987118115e-06 -1.6324554830016535e-07 1.3285156833938794e-07 3.039397996078572e-08 4.3797937784828425e-07 0.0 0.0
0.0 -2.9588962689353585e-07 -1.3592507692400482e-08 1.0837430402124616e-08 2.755077290274585e-09 5.50197911312241e-08 0.0 0.0
0.0 0.0 0.0 0.0 0.0 0.0 0.0 0.0
0.0 0.0 0.0 0.0 0.0 0.0 0.0 0.0
0.0 0.0 0.0 0.0 0.0 0.0 0.0 0.0
0.0 0.0 0.0 0.0 0.0 0.0 0.0 0.0
0.0 -1.336041538324973e-07 -7.0791082984345225e-09 5.607259907490537e-09 1.4718483909442396e-09 -2.3963176664436898e-08 0.0 0.0
0.0 -1.150862233485828e-06 -9.876059602605095e-08 7.855272765354809e-08 2.0207868372501855e-08 -2.0268686367933702e-07 0.0 0.0
0.0 -6.278695436938374e-06 -2.0316833419408596e-06 1.6015079890466562e-06 4.301753528942019e-07 -2.8977978798837388e-06 0.0 0.0
0.0 4.245055015130182e-05 1.7087339311620414e-05 -1.4457836985551167e-05 -2.629502326069055e-06 3.572046265667884e-05 0.0 0.0
0.0 0.0003797399749497991 -0.0003053306296201465 0.00023164932713525734 7.368130248488916e-05 -0.00016117526095163866 0.0 0.0
0.0 0.0016624082654436918 -0.0011991457735346738 0.0009548053349759657 0.00024434043855870856 -0.0006210706305361919 0.0 0.0
0.0 0.003084932966408308 -0.002805968684021403 0.002357883030395857 0.00044808565362554657 -0.0015077412334235294 0.0 0.0
0.0 0.0055740278852961685 -0.004857428730613026 0.004252432737853007 0.0006049959927600186 -0.002505165858192738 0.0 0.0
0.0 0.008437799895821545 -0.007337059011992268 0.006608448009696314 0.0007286110022959493 -0.003520843524840439 0.0 0.0
0.0 0.011849572687969483 -0.010270547856610484 0.009439105030884512 0.0008314428257259746 -0.004536754103621849 0.0 0.0
0.0 0.015944545728465823 -0.013775107399565261 0.012850024566197323 0.0009250828333679263 -0.005578167088119433 0.0 0.0
0.0 0.021005491098813646 -0.01803523931424109 0.017025687349028398 0.0010095519652127006 -0.006734070026631142 0.0 0.0
0.0 0.027015612328145866 -0.023237614190880405 0.02215407308172335 0.001083541109157034 -0.0080978564699281 0.0 0.0
0.0 0.03409318815061248 -0.029431334348953432 0.028295123738579998 0.001136210610373427 -0.009826298078518593 0.0 0.0
0.0 0.042381503142726554 -0.03625756707853619 0.03511669458526087 0.001140872493275321 -0.012308289581627144 0.0 0.0
0.0 0.04982078807614931 -0.04255584621449378 0.041483766140034725 0.0010720800744590336 -0.01597580116433839 0.0 0.0
0.0 0.05399819195524845 -0.045945108914966164 0.04502147131117959 0.0009236376037865888 -0.02044889660528419 0.0 0.0
0.0 0.05112273765689761 -0.04275990024350412 0.04205742618312369 0.0007024740603804458 -0.02377085686784198 0.0 0.0
0.0 0.04469207145363361 -0.03561960812718059 0.031689905354665544 0.003929702772515037 1.0476862433161926e-14 0.0 0.0
0.0 0.05112273765689776 -0.04275990024350044 0.04205742618312071 0.0007024740603797284 0.023770856867866064 0.0 0.0
0.0 0.05399819195524055 -0.045945108914956935 0.04502147131117021 0.0009236376037867382 0.020448896605308006 0.0 0.0
0.0 0.049820788076131835 -0.04255584621447761 0.041483766140018814 0.0010720800744587968 0.015975801164351412 0.0 0.0
0.0 0.04238150314270385 -0.03625756707851649 0.03511669458524138 0.0011408724932750784 0.012308289581628289 0.0 0.0
0.0 0.034093188150590044 -0.029431334348933812 0.028295123738560995 0.0011362106103728264 0.009826298078515101 0.0 0.0
0.0 0.027015612328123346 -0.023237614190860883 0.02215407308170443 0.0010835411091564505 0.008097856469923299 0.0 0.0
0.0 0.021005491098791372 -0.018035239314221196 0.01702568734900931 0.0010095519652118848 0.006734070026625069 0.0 0.0
0.0 0.015944545728439508 -0.01377510739954254 0.012850024566174645 0.000925082833367895 0.005578167088112118 0.0 0.0
0.0 0.011849572687946326 -0.010270547856590373 0.009439105030865185 0.0008314428257251787 0.0045367541036132305 0.0 0.0
0.0 0.008437799895799802 -0.007337059011973598 0.006608448009678322 0.0007286110022952759 0.0035208435248296754 0.0 0.0
0.0 0.005574027885279482 -0.004857428730598551 0.004252432737839407 0.0006049959927591424 0.0025051658581848194 0.0 0.0
0.0 0.0030849329663970603 -0.002805968684010375 0.0023578830303860425 0.0004480856536243311 0.0015077412334176617 0.0 0.0
0.0 0.001662408265434187 -0.00119914577352741 0.000954805334969901 0.0002443404385575088 0.0006210706305321502 0.0 0.0
0.0 0.00037973997494563673 -0.0003053306296171543 0.00023164932713295986 7.368130248419501e-05 0.00016117526094997105 0.0 0.0
0.0 4.245055015018717e-05 1.708733931145828e-05 -1.445783698541348e-05 -2.62950232604502e-06 -3.572046265626908e-05 0.0 0.0
0.0 -6.278695437887157e-06 -2.031683342016899e-06 1.6015079891060194e-06 4.3017535291085194e-07 2.8977978800166124e-06 0.0 0.0
0.0 -1.1508622335227065e-06 -9.876059602363591e-08 7.855272765149146e-08 2.02078683721454e-08 2.02686863685958e-07 0.0 0.0
0.0 -1.3360415377959937e-07 -7.079108295548217e-09 5.6072599052097004e-09 1.4718483903391005e-09 2.396317665472527e-08 0.0 0.0
0.0 0.0 0.0 0.0 0.0 0.0 0.0 0.0
0.0 0.0 0.0 0.0 0.0 0.0 0.0 0.0
0.0 0.0 0.0 0.0 0.0 0.0 0.0 0.0
0.0 0.0 0.0 0.0 0.0 0.0 0.0 0.0
0.0 0.0 0.0 0.0 0.0 0.0 0.0 0.0
0.0 -1.6427912562006257e-06 -1.4576765561260727e-07 1.1635194098500306e-07 2.9415714627583024e-08 -2.453416837903687e-07 0.0 0.0
0.0 8.147811501807235e-06 8.488808611632194e-06 -6.765507457646597e-06 -1.723301153985545e-06 1.0372787429948567e-05 0.0 0.0
0.0 7.376894809711282e-05 -8.338056523136985e-05 6.1511889261908e-05 2.1868675969461512e-05 -3.2779755477264174e-05 0.0 0.0
0.0 0.0009162797679281232 -0.0006141780758129633 0.000473008269832272 0.00014116980598069147 -0.00020766892553446324 0.0 0.0
0.0 0.0021730823689069994 -0.0019546346787470636 0.001595852403363035 0.0003587822753840275 -0.0007731740390890562 0.0 0.0
0.0 0.004378225436765387 -0.0039022578692304187 0.0033531880839899222 0.0005490697852405002 -0.0015738234370819412 0.0 0.0
0.0 0.0072032728920664695 -0.006373026228233959 0.005675892436004711 0.0006971337922292446 -0.002450486574003395 0.0 0.0
0.0 0.010653888868400067 -0.009350858600763961 0.008537019275595845 0.0008138393251681039 -0.003363931604733217 0.0 0.0
0.0 0.014795055266917892 -0.012896896552473433 0.011980250036666187 0.0009166465158072385 -0.004277135156191869 0.0 0.0
0.0 0.019842632259006558 -0.017154789998067393 0.016141361982848143 0.001013428015219254 -0.005232493364215024 0.0 0.0
0.0 0.025638625098747106 -0.0223340033692035 0.02123022940257484 0.0011037739666286575 -0.00632766658038539 0.0 0.0
0.0 0.03301552579138771 -0.028605391844772822 0.02742200934401227 0.0011833825007605558 -0.007635105564201015 0.0 0.0
0.0 0.0417038243031792 -0.0360248643215693 0.0347810423946677 0.0012438219269015876 -0.009198021474661498 0.0 0.0
0.0 0.051077827184084254 -0.04422619744152733 0.04297230452799937 0.0012538929135279446 -0.011261531415765148 0.0 0.0
0.0 0.06003402149021174 -0.051849453323934064 0.050684548323069234 0.0011649050008648567 -0.01450632526265155 0.0 0.0
0.0 0.06529033026883488 -0.056047942381130034 0.055083540988427375 0.0009644013927026383 -0.01940139051978579 0.0 0.0
0.0 0.061921042056982054 -0.052481123179327294 0.051808310865399686 0.0006728123139276086 -0.025123574729844184 0.0 0.0
0.0 0.05409321541663827 -0.044176455271291715 0.03973366534707631 0.004442789924215395 1.0840287001379068e-14 0.0 0.0
0.0 0.06192104205697792 -0.05248112317932069 0.05180831086539328 0.0006728123139273939 0.025123574729867267 0.0 0.0
0.0 0.06529033026882226 -0.056047942381117266 0.05508354098841431 0.0009644013927029153 0.019401390519808617 0.0 0.0
0.0 0.06003402149018995 -0.05184945332391461 0.05068454832304994 0.0011649050008646256 0.01450632526266447 0.0 0.0
0.0 0.05107782718405941 -0.0442261974415054 0.042972304527978074 0.0012538929135273444 0.011261531415767646 0.0 0.0
0.0 0.041703824303153066 -0.03602486432154621 0.03478104239464538 0.0012438219269008033 0.009198021474659963 0.0 0.0
0.0 0.03301552579135949 -0.028605391844748373 0.02742200934398805 0.00118338250076031 0.007635105564197067 0.0 0.0
0.0 0.025638625098720235 -0.02233400336917988 0.021230229402552238 0.0011037739666276516 0.006327666580380123 0.0 0.0
0.0 0.01984263225897617 -0.017154789998040782 0.016141361982821668 0.0010134280152191207 0.005232493364207764 0.0 0.0
0.0 0.014795055266891285 -0.012896896552449971 0.011980250036643504 0.0009166465158064643 0.004277135156184128 0.0 0.0
0.0 0.010653888868375282 -0.009350858600742216 0.00853701927557481 0.0008138393251674071 0.003363931604723623 0.0 0.0
0.0 0.007203272892045562 -0.006373026228215357 0.005675892435986932 0.0006971337922284216 0.0024504865739953833 0.0 0.0
0.0 0.004378225436750651 -0.0039022578692167837 0.003353188083977386 0.0005490697852393984 0.0015738234370762396 0.0 0.0
0.0 0.0021730823688966335 -0.001954634678737725 0.0015958524033549682 0.0003587822753827563 0.0007731740390849529 0.0 0.0
0.0 0.0009162797679215665 -0.0006141780758082728 0.0004730082698285919 0.00014116980597967985 0.00020766892553247005 0.0 0.0
0.0 7.37689480950975e-05 -8.338056523045748e-05 6.15118892612301e-05 2.1868675969227067e-05 3.277975547716674e-05 0.0 0.0
0.0 8.147811500723336e-06 8.488808611478014e-06 -6.765507457525092e-06 -1.723301153952795e-06 -1.0372787429776709e-05 0.0 0.0
0.0 -1.642791256056295e-06 -1.457676555988268e-07 1.1635194097405649e-07 2.9415714624769247e-08 2.4534168376624963e-07 0.0 0.0
0.0 0.0 0.0 0.0 0.0 0.0 0.0 0.0
0.0 0.0 0.0 0.0 0.0 0.0 0.0 0.0
0.0 0.0 0.0 0.0 0.0 0.0 0.0 0.0
0.0 0.0 0.0 0.0 0.0 0.0 0.0 0.0
0.0 0.0 0.0 0.0 0.0 0.0 0.0 0.0
0.0 0.0 0.0 0.0 0.0 0.0 0.0 0.0
0.0 -8.417872576605753e-07 -8.544655395676276e-08 6.60999379835288e-08 1.9346615973240632e-08 -7.969114554795907e-08 0.0 0.0
0.0 5.0834017943122755e-06 2.1011263478913247e-05 -1.640278160590717e-05 -4.608481873005864e-06 1.3538725689906172e-05 0.0 0.0
0.0 0.0002866030282415036 -0.00019038258961159287 0.00014025777743643708 5.01248121751559e-05 -2.1551439693374067e-05 0.0 0.0
0.0 0.00130751766949765 -0.001089395817263224 0.0008566544157008757 0.00023274140156234765 -0.0002506621978003578 0.0 0.0
0.0 0.003016412075321049 -0.00275169116017126 0.0022997383348779027 0.0004519528252933571 -0.0007752362893683005 0.0 0.0
0.0 0.00559269160538564 -0.005035677261297651 0.00440231144780559 0.0006333658134920589 -0.0014093482419905354 0.0 0.0
0.0 0.008912653142932582 -0.007911547839785638 0.007140496408577793 0.0007710514312078503 -0.0021307895318882003 0.0 0.0
0.0 0.0128958627514398 -0.011391454648555325 0.01050644567978215 0.0008850089687731686 -0.002885112366004823 0.0 0.0
0.0 0.017775838253648646 -0.01556024554422597 0.014569570735562129 0.0009906748086638464 -0.0036417150262788743 0.0 0.0
0.0 0.023446633512642815 -0.02059347732592861 0.01949986274173747 0.001093614584191129 -0.004443629760791102 0.0 0.0
0.0 0.03072301479412865 -0.026692040266877756 0.02550371494515121 0.0011883253217265708 -0.005394468196747288 0.0 0.0
0.0 0.039095179022901556 -0.0340280109140956 0.03275632480747257 0.0012716861066229867 -0.006566999974728641 0.0 0.0
0.0 0.04880922926770544 -0.04259458955160474 0.041256771200082004 0.0013378183515227978 -0.007898131716901284 0.0 0.0
0.0 0.05975253962520829 -0.05199508851306882 0.0506344440634632 0.0013606444496055635 -0.009318522022771667 0.0 0.0
0.0 0.07008328072869266 -0.06086854832398043 0.059599698527263455 0.001268849796716974 -0.011510715466098902 0.0 0.0
0.0 0.07639970673647055 -0.06607464904563168 0.06506022196806205 0.0010144270775696523 -0.016495258699489316 0.0 0.0
0.0 0.07313442652805263 -0.062486975096803905 0.06186693462752104 0.0006200404692829198 -0.02542127081033317 0.0 0.0
0.0 0.06451280618155947 -0.05321411935820254 0.048302919780646936 0.004911199577555619 1.0307726894254188e-14 0.0 0.0
0.0 0.07313442652804687 -0.062486975096796536 0.06186693462751379 0.0006200404692827304 0.025421270810354057 0.0 0.0
0.0 0.07639970673645463 -0.06607464904561687 0.06506022196804692 0.0010144270775699364 0.016495258699510396 0.0 0.0
0.0 0.070083280728668 -0.06086854832395861 0.059599698527242014 0.0012688497967165903 0.011510715466110537 0.0 0.0
0.0 0.059752539625180956 -0.051995088513044754 0.05063444406343979 0.0013606444496048868 0.009318522022774715 0.0 0.0
0.0 0.04880922926767467 -0.04259458955157791 0.04125677120005573 0.001337818351522149 0.007898131716900823 0.0 0.0
0.0 0.03909517902286791 -0.03402801091406654 0.03275632480744377 0.0012716861066227535 0.006566999974725142 0.0 0.0
0.0 0.03072301479409635 -0.026692040266849414 0.025503714945123573 0.001188325321725825 0.005394468196742883 0.0 0.0
0.0 0.023446633512608537 -0.020593477325899036 0.01949986274170811 0.001093614584190921 0.004443629760785403 0.0 0.0
0.0 0.01777583825361806 -0.015560245544198702 0.014569570735535433 0.0009906748086632659 0.0036417150262724345 0.0 0.0
0.0 0.01289586275141125 -0.011391454648530138 0.010506445679757476 0.0008850089687726611 0.0028851123659968505 0.0 0.0
0.0 0.008912653142909245 -0.007911547839765044 0.007140496408557798 0.0007710514312072481 0.00213078953188156 0.0 0.0
0.0 0.005592691605367558 -0.0050356772612811015 0.004402311447790049 0.0006333658134910481 0.0014093482419854524 0.0 0.0
0.0 0.0030164120753091808 -0.002751691160159857 0.0022997383348676956 0.0004519528252921616 0.0007752362893646192 0.0 0.0
0.0 0.001307517669489918 -0.0010893958172567826 0.0008566544156955855 0.0002327414015611984 0.00025066219779831854 0.0 0.0
0.0 0.00028660302823787067 -0.00019038258960928553 0.00014025777743469542 5.012481217459037e-05 2.1551439692867095e-05 0.0 0.0
0.0 5.083401793566748e-06 2.1011263478562087e-05 -1.640278160562893e-05 -4.608481872933308e-06 -1.3538725689641633e-05 0.0 0.0
0.0 -8.417872574397398e-07 -8.544655393450504e-08 6.609993796626954e-08 1.9346615968240957e-08 7.969114552353769e-08 0.0 0.0
0.0 0.0 0.0 0.0 0.0 0.0 0.0 0.0
0.0 0.0 0.0 0.0 0.0 0.0 0.0 0.0
0.0 0.0 0.0 0.0 0.0 0.0 0.0 0.0
0.0 0.0 0.0 0.0 0.0 0.0 0.0 0.0
0.0 0.0 0.0 0.0 0.0 0.0 0.0 0.0
0.0 0.0 0.0 0.0 0.0 0.0 0.0 0.0
0.0 7.187229598705419e-07 8.463335519122874e-08 -6.176879738647556e-08 -2.286455780476825e-08 5.165437736512387e-08 0.0 0.0
0.0 1.4918136703849631e-05 -1.504632946116558e-05 9.873764981378478e-06 5.1725644797871035e-06 3.829038181662094e-06 0.0 0.0
0.0 0.0005967372613056658 -0.0003996018800955977 0.00029944891903558386 0.0001001529610600139 1.001109590433409e-06 0.0 0.0
0.0 0.0017159594564177191 -0.0016547617857682736 0.0013315785106176611 0.0003231832751506118 -0.00023835046696574224 0.0 0.0
0.0 0.003920773421576883 -0.0035777845617850634 0.0030445771759842087 0.0005332073858008578 -0.0005897159734855084 0.0 0.0
0.0 0.006837160821050143 -0.006186049857520554 0.005483784453542048 0.0007022654039785016 -0.001042002652358446 0.0 0.0
0.0 0.01062737528074535 -0.009462924085565882 0.008630563424379324 0.0008323606611865584 -0.0015584562480448027 0.0 0.0
0.0 0.015244848224131384 -0.013446502390045441 0.012499726948209526 0.0009467754418359131 -0.0020980667028201853 0.0 0.0
0.0 0.020707873221648826 -0.018251015432491434 0.01719366569447941 0.0010573497380120254 -0.002636635679603942 0.0 0.0
0.0 0.027582932407423842 -0.024062273087063688 0.022896323722470534 0.0011659493645931388 -0.003217684101065178 0.0 0.0
0.0 0.035429672503400976 -0.031107642729014513 0.029840142103506724 0.0012675006255077588 -0.003954294097483632 0.0 0.0
0.0 0.04510873070280572 -0.0394918900287446 0.03813832429336339 0.0013535657353812465 -0.004879131347969345 0.0 0.0
0.0 0.05621282327839815 -0.04910797590006016 0.047693067615207994 0.0014149082848521326 -0.0058833573573466745 0.0 0.0
0.0 0.068202984276943 -0.059483971772200175 0.05803838719953691 0.0014455845726633197 -0.006713508947845525 0.0 0.0
0.0 0.07968091734223778 -0.06942683579252543 0.06802211349754096 0.0014047222949844808 -0.007581749076016123 0.0 0.0
0.0 0.0873872321272463 -0.0759358895559176 0.0748249727567121 0.0011109167992054858 -0.011293556680498683 0.0 0.0
0.0 0.08489716338090533 -0.07301140044158567 0.07248059691369542 0.0005308035278901472 -0.02384659737678327 0.0 0.0
0.0 0.0759895162186019 -0.06313317561498229 0.057830554176861074 0.005302621438121115 7.635385379511916e-15 0.0 0.0
0.0 0.08489716338089665 -0.07301140044157664 0.07248059691368651 0.0005308035278901477 0.023846597376799682 0.0 0.0
0.0 0.08738723212722724 -0.07593588955590044 0.07482497275669492 0.0011109167992055954 0.011293556680515814 0.0 0.0
0.0 0.07968091734220858 -0.06942683579250014 0.06802211349751593 0.0014047222949841933 0.00758174907602538 0.0 0.0
0.0 0.06820298427690961 -0.05948397177217121 0.058038387199508 0.0014455845726632423 0.006713508947848094 0.0 0.0
0.0 0.0562128232783638 -0.0491079759000301 0.047693067615178775 0.0014149082848513594 0.005883357357346587 0.0 0.0
0.0 0.0451087307027681 -0.03949189002871203 0.03813832429333108 0.0013535657353809514 0.004879131347967415 0.0 0.0
0.0 0.03542967250336467 -0.031107642728982837 0.029840142103475818 0.0012675006255069877 0.003954294097480071 0.0 0.0
0.0 0.027582932407385064 -0.024062273087029913 0.022896323722436836 0.00116594936459308 0.003217684101061821 0.0 0.0
0.0 0.020707873221612324 -0.018251015432459695 0.0171936656944483 0.0010573497380113631 0.0026366356795997554 0.0 0.0
0.0 0.01524484822410017 -0.01344650239001752 0.012499726948182004 0.0009467754418355151 0.002098066702814251 0.0 0.0
0.0 0.010627375280719383 -0.009462924085542349 0.00863056342435652 0.0008323606611858279 0.0015584562480397616 0.0 0.0
0.0 0.006837160821030137 -0.00618604985750203 0.00548378445352453 0.0007022654039775035 0.0010420026523547845 0.0 0.0
0.0 0.003920773421562746 -0.003577784561771663 0.0030445771759719797 0.0005332073857996818 0.0005897159734826413 0.0 0.0
0.0 0.0017159594564088929 -0.0016547617857597338 0.0013315785106104137 0.0003231832751493192 0.00023835046696390802 0.0 0.0
0.0 0.000596737261300998 -0.00039960188009195165 0.0002994489190327612 0.00010015296105918987 -1.0011095909370784e-06 0.0 0.0
0.0 1.491813670273717e-05 -1.5046329461083743e-05 9.873764981339167e-06 5.172564479744487e-06 -3.8290381814799174e-06 0.0 0.0
0.0 7.187229594391122e-07 8.463335514353968e-08 -6.176879735139436e-08 -2.2864557792165992e-08 -5.165437734438602e-08 0.0 0.0
0.0 0.0 0.0 0.0 0.0 0.0 0.0 0.0
0.0 0.0 0.0 0.0 0.0 0.0 0.0 0.0
0.0 0.0 0.0 0.0 0.0 0.0 0.0 0.0
0.0 0.0 0.0 0.0 0.0 0.0 0.0 0.0
0.0 0.0 0.0 0.0 0.0 0.0 0.0 0.0
0.0 0.0 0.0 0.0 0.0 0.0 0.0 0.0
0.0 -1.1553391155827435e-06 4.4912982721189663e-07 -3.5671300539727144e-07 -9.241682181462401e-08 1.2795093267055133e-07 0.0 0.0
0.0 0.00012417734962224983 -5.19949898609573e-05 3.569047588282733e-05 1.6304513978129817e-05 1.8830707461171718e-05 0.0 0.0
0.0 0.0008733922929908496 -0.0007199279293952623 0.0005504025648798472 0.00016952536451541542 4.8012334963799286e-05 0.0 0.0
0.0 0.0023864618440592655 -0.002229148250269079 0.001831900090999446 0.0003972481592696321 -7.986824417508066e-05 0.0 0.0
0.0 0.004826671843969656 -0.004419228610944031 0.003817138502003813 0.0006020901089402154 -0.00025418884703030497 0.0 0.0
0.0 0.008160130363993216 -0.007338383033715733 0.006579790863338217 0.0007585921703775174 -0.0004782733246604141 0.0 0.0
0.0 0.012355149610716076 -0.011015823790586741 0.010130817802387199 0.000885005988199533 -0.0007407535559292346 0.0 0.0
0.0 0.017535216639030002 -0.015509066514350762 0.014507241886743393 0.0010018246276073523 -0.001005807291538765 0.0 0.0
0.0 0.02395267078776605 -0.020954958485970822 0.01983719453247682 0.0011177639534939972 -0.0012629787364704078 0.0 0.0
0.0 0.03127054778391757 -0.02757099517459967 0.0263378546101664 0.0012331405644332696 -0.0015831404609273785 0.0 0.0
0.0 0.04045007327840371 -0.03554575437184674 0.034204502299175064 0.0013412520726716589 -0.0020001428446101916 0.0 0.0
0.0 0.051282593961683 -0.04495564980185674 0.043526474129105035 0.0014291756727517107 -0.0025220583004634304 0.0 0.0
0.0 0.06354406706378851 -0.05557859232331737 0.05409389714549895 0.001484695177818477 -0.0031053247709892837 0.0 0.0
0.0 0.07647626697217291 -0.0667472622240565 0.065244614079251 0.0015026481448054657 -0.003532356379807985 0.0 0.0
0.0 0.0887269687763658 -0.07732341244095846 0.0758213249218563 0.0015020875191021819 -0.0036168262938476516 0.0 0.0
0.0 0.09781902046720385 -0.08518562482024784 0.0837984151758125 0.0013872096444353227 -0.0048276622798828495 0.0 0.0
0.0 0.09743562544023679 -0.08428147548042575 0.0838082591128443 0.00047321636758143387 -0.016502693761004265 0.0 0.0
0.0 0.08951041484388698 -0.07482801894550185 0.06946158260941677 0.005366436336085041 4.365431627295635e-15 0.0 0.0
0.0 0.09743562544022508 -0.08428147548041484 0.08380825911283332 0.0004732163675814782 0.016502693761013806 0.0 0.0
0.0 0.09781902046717994 -0.08518562482022712 0.08379841517579169 0.0013872096444352967 0.004827662279892616 0.0 0.0
0.0 0.0887269687763318 -0.07732341244092908 0.07582132492182714 0.0015020875191019227 0.0036168262938525314 0.0 0.0
0.0 0.07647626697213411 -0.06674726222402283 0.06524461407921742 0.0015026481448054522 0.0035323563798094395 0.0 0.0
0.0 0.06354406706375193 -0.05557859232328519 0.05409389714546796 0.0014846951778172276 0.00310532477098918 0.0 0.0
0.0 0.05128259396164203 -0.04495564980182103 0.04352647412906994 0.0014291756727511094 0.0025220583004631507 0.0 0.0
0.0 0.040450073278364126 -0.035545754371812094 0.03420450229914147 0.0013412520726705883 0.0020001428446087895 0.0 0.0
0.0 0.031270547783874995 -0.027570995174562598 0.0263378546101298 0.00123314056443279 0.0015831404609259905 0.0 0.0
0.0 0.023952670787726907 -0.020954958485936363 0.019837194532443113 0.001117763953493242 0.0012629787364677083 0.0 0.0
0.0 0.017535216638995158 -0.015509066514320406 0.014507241886713486 0.0010018246276069214 0.0010058072915356537 0.0 0.0
0.0 0.012355149610687068 -0.011015823790560628 0.010130817802362106 0.000885005988198519 0.0007407535559266597 0.0 0.0
0.0 0.008160130363971108 -0.007338383033695327 0.006579790863318678 0.0007585921703766504 0.0004782733246585863 0.0 0.0
0.0 0.00482667184395401 -0.004419228610929216 0.0038171385019900804 0.0006020901089391333 0.0002541888470288264 0.0 0.0
0.0 0.0023864618440486186 -0.0022291482502586873 0.001831900090990337 0.0003972481592683491 7.986824417397889e-05 0.0 0.0
0.0 0.0008733922929852917 -0.0007199279293905501 0.000550402564876121 0.00016952536451442894 -4.801233496386909e-05 0.0 0.0
0.0 0.00012417734962057492 -5.1994989860356494e-05 3.569047588242809e-05 1.6304513977928427e-05 -1.883070746090393e-05 0.0 0.0
0.0 -1.1553391157081245e-06 4.49129826843195e-07 -3.567130051246113e-07 -9.241682171852485e-08 -1.2795093266240231e-07 0.0 0.0
0.0 0.0 0.0 0.0 0.0 0.0 0.0 0.0
0.0 0.0 0.0 0.0 0.0 0.0 0.0 0.0
0.0 0.0 0.0 0.0 0.0 0.0 0.0 0.0
0.0 0.0 0.0 0.0 0.0 0.0 0.0 0.0
0.0 0.0 0.0 0.0 0.0 0.0 0.0 0.0
0.0 0.0 0.0 0.0 0.0 0.0 0.0 0.0
0.0 1.902246916706626e-06 -2.102558638495586e-07 2.258504660674195e-07 -1.5594602217735868e-08 -4.4314156514697186e-07 0.0 0.0
0.0 0.0002818312680083338 -0.00012808757021905812 8.86630116804204e-05 3.942455853863844e-05 4.7287421517956725e-05 0.0 0.0
0.0 0.0012168313811829774 -0.0010168724971007799 0.0007707215485396518 0.0002461509485611268 0.00013535967150634423 0.0 0.0
0.0 0.0029123140809455606 -0.002722534302597602 0.002215765785252474 0.0005067685173451293 0.00014522538468605378 0.0 0.0
0.0 0.0055645164513792485 -0.00511342482071961 0.004367824096889418 0.0007456007238301881 0.00015747263097436713 0.0 0.0
0.0 0.009121162036322336 -0.008289291176041512 0.007341128886824261 0.00094816228921725 0.000173195199379245 0.0 0.0
0.0 0.013714710706190318 -0.012298219430043921 0.011158131111941442 0.0011400883181024789 0.00017216772113544474 0.0 0.0
0.0 0.019422998959080486 -0.01722131635750911 0.0158751015939457 0.001346214763563401 0.0002026821936756745 0.0 0.0
0.0 0.026102488190118595 -0.023224947443819227 0.02164803220754283 0.001576915236276402 0.00026152834019563687 0.0 0.0
0.0 0.03433842337563242 -0.030505164260859675 0.02867823236355892 0.0018269318973007272 0.00026549110257878235 0.0 0.0
0.0 0.04427958167381582 -0.03924504893930249 0.03715595381472761 0.0020890951245748617 0.0002554380828043161 0.0 0.0
0.0 0.05598639329096558 -0.049491888104502356 0.04715042935489348 0.0023414587496087694 0.00014479121111770146 0.0 0.0
0.0 0.06914436172047833 -0.06093019109342135 0.05837748982193891 0.0025527012714824508 -9.018555520441587e-05 0.0 0.0
0.0 0.08275331647405038 -0.07271803332755039 0.07003252756867871 0.0026855057588716226 -0.0003793805156432342 0.0 0.0
0.0 0.09524082444379872 -0.08349647441913946 0.08079820850640484 0.0026982659127344636 -0.0005619148421854032 0.0 0.0
0.0 0.10470230498733797 -0.09174381106985918 0.08909012607812954 0.0026536849917296423 -0.0007906661055085504 0.0 0.0
0.0 0.10701644134570543 -0.09415167895906648 0.09171363596149215 0.0024380429975743925 -0.011250028434984526 0.0 0.0
0.0 0.10299475712833661 -0.08730832617722868 0.07908235528313298 0.008225970894095687 2.0886070650760757e-15 0.0 0.0
0.0 0.10701644134569314 -0.09415167895905566 0.0917136359614816 0.0024380429975740256 0.01125002843498759 0.0 0.0
0.0 0.10470230498730979 -0.09174381106983476 0.08909012607810557 0.002653684991729217 0.0007906661055117961 0.0 0.0
0.0 0.09524082444376165 -0.08349647441910693 0.08079820850637329 0.002698265912733683 0.0005619148421877555 0.0 0.0
0.0 0.08275331647400902 -0.0727180333275141 0.07003252756864323 0.0026855057588707184 0.00037938051564345016 0.0 0.0
0.0 0.06914436172043906 -0.06093019109338639 0.058377489821906 0.0025527012714804463 9.018555520407413e-05 0.0 0.0
0.0 0.05598639329092213 -0.04949188810446388 0.047150429354856735 0.0023414587496071466 -0.00014479121111788448 0.0 0.0
0.0 0.04427958167377159 -0.03924504893926356 0.03715595381469025 0.0020890951245732784 -0.0002554380828052663 0.0 0.0
0.0 0.03433842337558823 -0.030505164260820707 0.028678232363521357 0.0018269318972993515 -0.0002654911025789493 0.0 0.0
0.0 0.026102488190076774 -0.02322494744378248 0.02164803220750746 0.0015769152362749951 -0.0002615283401977827 0.0 0.0
0.0 0.019422998959043095 -0.017221316357476132 0.015875101593913747 0.0013462147635623983 -0.00020268219367679773 0.0 0.0
0.0 0.013714710706160264 -0.012298219430017517 0.011158131111916424 0.001140088318101101 -0.00017216772113619653 0.0 0.0
0.0 0.009121162036297195 -0.008289291176018954 0.007341128886802793 0.000948162289216162 -0.00017319519937947139 0.0 0.0
0.0 0.005564516451362038 -0.005113424820703492 0.0043678240968745 0.0007456007238289934 -0.00015747263097453475 0.0 0.0
0.0 0.002912314080933698 -0.0027225343025860304 0.002215765785242299 0.0005067685173437326 -0.0001452253846859925 0.0 0.0
0.0 0.0012168313811775468 -0.0010168724970953703 0.0007707215485353816 0.00024615094855998896 -0.0001353596715060753 0.0 0.0
0.0 0.0002818312680060976 -0.00012808757021783926 8.866301167958638e-05 3.9424558538253985e-05 -4.7287421517522794e-05 0.0 0.0
0.0 1.9022469163405332e-06 -2.1025586370707325e-07 2.2585046596037635e-07 -1.5594602253317922e-08 4.4314156514095766e-07 0.0 0.0
0.0 0.0 0.0 0.0 0.0 0.0 0.0 0.0
0.0 0.0 0.0 0.0 0.0 0.0 0.0 0.0
0.0 0.0 0.0 0.0 0.0 0.0 0.0 0.0
SCALARS Wm float 4
LOOKUP_TABLE default
9.405656985025658 1.9028532139413712 3.5904371344448025 3.912366636639478
4.076530613428422 2.0619089297959756 0.8596287880410135 1.1549928955914341
0.47840261054086947 0.486272749589747 -0.004962198598211983 -0.0029079404506654576
0.4230558966736097 0.42387681881734696 8.27175157524934e-05 -0.0009036396594897849
0.7139635519462126 0.6266450586143089 0.031165308898278603 0.05615318443362524
1.3320767990365725 0.8117241762041395 0.16555748800277614 0.3547951348296566
2.4937042704593995 1.0831422170902039 0.5425190322319651 0.8680430211372306
4.247971574200555 1.3809942589651074 1.2088990583354284 1.6580782569000185
6.706126200351027 1.7262636550740849 2.2509201472601945 2.7289423980167475
9.989837571143859 2.149553583304928 3.7490533520866043 4.091230635752333
14.246584085417897 2.693488412852758 5.78527654556369 5.767819127001453
19.6009990594203 3.3928353065597627 8.392820336826121 7.81534341603442
26.396405582551886 4.255283916349314 11.836545097891314 10.304576568311266
34.8617675563306 5.2887066669880305 16.27087261335183 13.302188275990737
45.095374920507574 6.422274257044846 21.843798857717903 16.82930180574482
56.890723819954026 7.511912488570688 28.56050349849035 20.818307832892994
69.54662668038871 8.362640866055616 36.089288003429246 25.094697810903856
81.9190160519664 8.804122657843074 43.813679726717865 29.30121366740538
92.64137959927801 8.825678189560055 50.82254876840732 32.99315264131063
100.09416403235035 8.475225356174121 55.92520283272027 35.693735843455954
102.63631464519099 7.945847717574923 57.91167142476136 36.778795502854734
100.09416403233602 8.475225356166357 55.92520283271571 35.693735843453986
92.64137959925725 8.82567818956029 50.822548768393446 32.99315264130353
81.91901605194039 8.804122657848623 43.81367972669752 29.301213667394258
69.54662668035287 8.362640866053352 36.0892880034076 25.094697810891894
56.89072381991762 7.511912488567863 28.560503498469203 20.81830783288055
45.09537492046685 6.422274257034397 21.843798857699205 16.829301805733238
34.86176755629462 5.288706666984543 16.270872613332173 13.302188275977912
26.39640558251726 4.255283916346337 11.836545097872676 10.304576568298248
19.600999059388272 3.3928353065563432 8.392820336809777 7.815343416022156
14.24658408539001 2.6934884128473 5.785276545551282 5.7678191269914265
9.989837571122091 2.1495535833002966 3.7490533520774485 4.091230635744351
6.706126200335455 1.726263655072428 2.2509201472531766 2.728942398009852
4.247971574189979 1.380994258964198 1.2088990583309114 1.6580782568948684
2.493704270452236 1.0831422170889693 0.5425190322294785 0.8680430211337891
1.332076799032872 0.811724176202852 0.16555748800216552 0.35479513482785485
0.7139635519448037 0.6266450586137084 0.03116530889799205 0.05615318443310315
0.4230558966732677 0.42387681881688616 8.271751578042902e-05 -0.0009036396593988327
0.4784026105402921 0.4862727495891908 -0.004962198598201835 -0.002907940450696847
4.076530613424724 2.0619089297964663 0.8596287880390961 1.1549928955891617
9.405656985003905 1.9028532139303773 3.5904371344390658 3.9123666366344643
10.820601382914727 4.953576752889593 2.7131401294453465 3.153884500579791
1.4155467291375985 0.32849536127454254 0.4227035451921073 0.6643478226709487
0.2195441383803521 0.22793439090241419 -0.0018006730482538658 -0.006589579473808189
0.340563897896698 0.3400817358861945 7.474615286293803e-05 0.0004074158576405215
0.552833549002869 0.5152552000001874 0.010413787759087854 0.02716456124359377
1.07820992840261 0.7213386960669541 0.11827087617872092 0.23860035615693487
2.0562810900571717 0.9189523867799736 0.42198047309810827 0.7153482301790894
3.603222353296931 1.1485665169371937 1.0142875972542404 1.440368239105496
5.774816466018473 1.389304783256462 1.954678171337278 2.4308335114247335
8.634322954629887 1.655665300956307 3.289560356937967 3.6890972967356124
12.296310739659765 1.965185391946313 5.09830454557631 5.23282080213714
16.966105996822385 2.3386097747935377 7.520475131628023 7.107021090400825
22.712071976600367 2.787220468606785 10.53362084557028 9.3912306624233
29.993462991293352 3.3056122748890706 14.537403199235833 12.150447517168459
38.85016600051674 3.85998368821889 19.568484951628427 15.421697360669434
49.13956312873405 4.360135786392841 25.636556222069082 19.14287112027211
60.31246054046843 4.687170091578304 32.510419457771235 23.114870991118877
71.40433679160891 4.753712124908166 39.608358591129374 27.042266075571384
81.11737543155196 4.53955562531053 46.0687628995995 30.50905690664191
87.95498825508018 4.098402753422614 50.852810392871106 33.003775108786456
90.45220796504024 3.6607682576233733 52.79453882320208 33.99690088421482
87.95498825507408 4.098402753424405 50.85281039286594 33.00377510878373
81.11737543153288 4.539555625309639 46.068762899587625 30.509056906635646
71.4043367915849 4.753712124911397 39.60835859111169 27.042266075561802
60.31246054043696 4.687170091576477 32.51041945775241 23.11487099110807
49.139563128703315 4.3601357863926 25.636556222049983 19.142871120260743
38.85016600048563 3.8599836882158223 19.56848495161122 15.421697360658598
29.993462991260945 3.305612274884923 14.537403199218868 12.15044751715715
22.71207197657025 2.787220468605243 10.533620845553614 9.391230662411392
16.966105996794816 2.338609774791403 7.520475131613648 7.107021090389766
12.296310739635627 1.965185391942646 5.098304545565117 5.2328208021278675
8.634322954611495 1.6556653009537943 3.2895603569296776 3.6890972967280207
5.774816466004839 1.3893047832554326 1.9546781713310846 2.4308335114183217
3.6032223532875043 1.14856651693627 1.0142875972503653 1.4403682391008685
2.056281090051064 0.918952386778982 0.42198047309604736 0.7153482301760345
1.078209928399558 0.7213386960658549 0.11827087617797066 0.2386003561557325
0.5528335490017455 0.5152551999994252 0.010413787758956272 0.027164561243364273
0.34056389789652525 0.3400817358859409 7.474615287420783e-05 0.00040741585771016125
0.21954413838037073 0.22793439090235018 -0.001800673048230997 -0.006589579473748429
1.4155467291334016 0.32849536127422513 0.422703545190341 0.6643478226688357
10.820601382894104 4.953576752879983 2.7131401294396724 3.1538845005744425
7.949905487452701 3.8638542827092968 1.7987189043629686 2.287332300380436
0.8382363790974316 0.11284903679689408 0.26874840225406715 0.45663894004647065
0.1374861082753528 0.13748654473301117 -1.80369121587346e-08 -4.1842074621861334e-07
0.2582162351637911 0.2580895950960618 3.6331447383566616e-05 9.030862034579398e-05
0.4333740542803438 0.42732014949591035 0.0009435511393653102 0.005110353645068345
0.8426123789754318 0.6479161028535902 0.06283860661072808 0.13185766951111366
1.6561556173243832 0.8405107036434861 0.28502601979632247 0.5306188938845747
3.007857470737824 1.0652688086188489 0.7767330599595913 1.1658556021593842
4.910869902671117 1.292546733624539 1.569160982593263 2.0491621864533167
7.430438971209576 1.5359119579593026 2.723357145772951 3.1711698674773223
10.627235216921298 1.811387800231802 4.275453329741506 4.540394086947987
14.614928567259089 2.1346936721853957 6.282861972269245 6.197372922804452
19.71643048724292 2.5285152326752693 8.983553493322084 8.204361761245567
25.96279563470102 2.9874431631812883 12.325066421849076 10.650286049670656
33.71363739676723 3.476501704014745 16.675214078516646 13.561921614235835
42.77454942860479 3.9324138441779506 21.943149410027008 16.898986174399838
52.69289885064968 4.261607126257645 27.92264508396308 20.50864664042896
62.61595866764191 4.368939506526699 34.16341803055844 24.083601130556776
71.35465418267309 4.199031762701113 39.9116739193828 27.24394850058917
77.55062000746597 3.849689460652549 44.185467796115866 29.51546275069756
79.77240775225526 3.349306093911789 45.96086687421065 30.462234784132832
77.55062000745836 3.8496894606527126 44.18546779611094 29.51546275069471
71.35465418265822 4.199031762701378 39.91167391937299 27.243948500583826
62.615958667622685 4.368939506530783 34.16341803054361 24.083601130548317
52.69289885062285 4.261607126256018 27.9226450839472 20.508646640419656
42.77454942857501 3.932413844173343 21.94314941001143 16.898986174390227
33.71363739674105 3.476501704014369 16.675214078500993 13.561921614225692
25.96279563467367 2.987443163177511 12.325066421835146 10.650286049661013
19.71643048721746 2.5285152326750717 8.983553493307562 8.204361761234829
14.614928567235761 2.1346936721847216 6.282861972256606 6.197372922794438
10.627235216900475 1.8113878002285637 4.275453329732145 4.540394086939767
7.430438971193576 1.5359119579579799 2.723357145765476 3.171169867470119
4.910869902658675 1.2925467336227878 1.5691609825881254 2.0491621864477616
3.0078574707293537 1.065268808617509 0.7767330599564087 1.1658556021554365
1.6561556173192193 0.8405107036423678 0.28502601979485054 0.5306188938820012
0.8426123789729734 0.6479161028524759 0.06283860661024976 0.13185766951024758
0.43337405427966724 0.4273201494953326 0.0009435511393373559 0.005110353644997213
0.258216235163581 0.25808959509583584 3.633144738518928e-05 9.030862035996602e-05
0.1374861082752418 0.13748654473289987 -1.8036912141597065e-08 -4.184207459031903e-07
0.838236379094554 0.11284903679722912 0.26874840225271013 0.45663894004461464
7.949905487433214 3.8638542827002706 1.7987189043578178 2.2873323003751285
5.895798509543493 2.9968067976998625 1.2182917747284352 1.6806999371151963
0.5357295660210171 0.07088501817349 0.15804864852658768 0.30679589932093937
0.09719055508385253 0.09719055508385253 0.0 0.0
0.19426015180096814 0.19422516595533024 2.5512937102303255e-06 3.2434551927668304e-05
0.3429322938111218 0.35145476171832885 -0.0019280027037807215 -0.006594465203426319
0.6354981591156952 0.5517590244043724 0.022433755495757927 0.06130537921556468
1.3022895265273409 0.7729050960607728 0.17995791838758518 0.3494265120789828
2.434668932156981 0.9759978462322083 0.5595394147523173 0.8991316711724562
4.083041216678073 1.1912681261035116 1.2178952052907 1.673877885283861
6.257868262839486 1.4138057993347697 2.184039422354582 2.660023041150136
8.98539872470485 1.6555787066959216 3.4708159025799974 3.8590041154289336
12.420143745416693 1.9388018075833895 5.182119389478989 5.299222548354312
16.66920347421225 2.275534841594266 7.349945392020809 7.043723240597177
22.132620869234167 2.672155546916658 10.298333776025606 9.162131546291898
28.751041457995804 3.1050800491824884 13.932687634713217 11.71327377410009
36.53560844562732 3.520510388926858 18.352556641363364 14.662541415337106
45.246482727766804 3.848538796641979 23.528948297136047 17.868995633988778
54.048792549578366 3.9959036935748666 28.95343885628725 21.099449999716253
61.88418640251314 3.8969757332742696 33.98717910318091 24.000031566057963
67.52736820562872 3.6149486554864727 37.782348151158374 26.13007139898388
69.55811414304647 3.0201915208240933 39.49176804901836 27.04615457320399
67.5273682056226 3.614948655486458 37.782348151154416 26.130071398981727
61.884186402500596 3.896975733274868 33.98717910317253 24.000031566053217
54.048792549559025 3.9959036935750714 28.95343885627486 21.099449999709083
45.24648272774371 3.84853879664048 23.52894829712265 17.86899563398059
36.53560844560542 3.5205103889261924 18.352556641350407 14.662541415328844
28.75104145797259 3.1050800491825328 13.932687634699331 11.713273774090718
22.132620869212225 2.672155546915596 10.298333776013475 9.162131546283149
16.669203474189345 2.2755348415929717 7.349945392008587 7.04372324058779
12.420143745394792 1.93880180757997 5.182119389468956 5.2992225483458695
8.985398724687963 1.6555787066948675 3.4708159025717285 3.8590041154213623
6.257868262825226 1.4138057993331705 2.184039422348235 2.6600230411438184
4.083041216667495 1.191268126101812 1.2178952052865375 1.6738778852791447
2.434668932150004 0.975997846231241 0.5595394147498902 0.8991316711688733
1.3022895265230554 0.7729050960597615 0.17995791838626404 0.3494265120770294
0.6354981591139217 0.5517590244032413 0.022433755495536944 0.06130537921514362
0.3429322938106488 0.3514547617177416 -0.001928002703759068 -0.006594465203333756
0.19426015180078376 0.1942251659551538 2.5512937095611208e-06 3.243455192045186e-05
0.09719055508378409 0.09719055508378409 0.0 0.0
0.5357295660185412 0.07088501817363389 0.1580486485254901 0.306795899319417
5.895798509528073 2.9968067976930555 1.21829177472449 1.6806999371105291
4.298121096969676 2.3018941087985145 0.7886194369896361 1.2076075511815259
0.3954786865735748 0.10766781012359161 0.10441929687385422 0.18339157957612912
0.08805726115883683 0.08805726115883683 0.0 0.0
0.15270987389347074 0.15270363732590644 3.6456305353121e-07 5.872004510783428e-06
0.27422927855625645 0.2735168681302449 0.00014747445366774007 0.0005649359723438166
0.4806608227001556 0.47416170199902263 0.0005458305522589747 0.005953290148873881
0.98258879837595 0.6838277851940152 0.10196494495808742 0.19679606822384788
1.8929933278911362 0.8818885798595412 0.36789941543797877 0.6432053325936162
3.2831388174322322 1.0831403629270722 0.8933570224633941 1.3066414320417665
5.117037712776148 1.286286044977651 1.6731151470161094 2.1576365207823907
7.420547013312364 1.5012109149329187 2.731585459730061 3.187750638649387
10.278590380520434 1.7436968601425753 4.118362840271629 4.41653068010623
13.87347307198556 2.0325156219053673 5.9442947553150045 5.896662694765189
18.29776804107309 2.369585712071509 8.224438633585805 7.703743695415781
23.895274593925137 2.739401486229877 11.273407654923446 9.882465452771818
30.568933166685078 3.1174341819614164 15.026297154108633 12.425201830615014
37.97841829009812 3.4461112179071205 19.29481947647523 15.23748759571578
45.659269281198235 3.6361015448734433 23.9197090777067 18.10345865861808
52.65476270005252 3.614413331683328 28.317162986282497 20.723186382086688
57.856134231843924 3.389842358104564 31.752878398242785 22.713413475496566
59.75442030168073 2.687114427049677 33.409330766890456 23.657975107740608
57.8561342318412 3.389842358108252 31.752878398238746 22.713413475494203
52.65476270004092 3.6144133316828224 28.317162986275484 20.72318638208261
45.659269281181444 3.636101544871368 23.919709077697533 18.10345865861255
37.97841829007891 3.4461112179060045 19.294819476464117 15.237487595708783
30.56893316666458 3.117434181959803 15.02629715409728 12.425201830607497
23.89527459390421 2.739401486227429 11.273407654912601 9.882465452764182
18.297768041053647 2.3695857120694814 8.224438633575867 7.703743695408301
13.873473071967803 2.0325156219057727 5.944294755304998 5.896662694757029
10.278590380503694 1.7436968601406266 4.118362840263777 4.416530680099289
7.420547013297067 1.5012109149314314 2.731585459723006 3.1877506386426293
5.117037712764215 1.2862860449759224 1.6731151470111323 2.1576365207771624
3.283138817423378 1.0831403629256435 0.8933570224601015 1.3066414320376325
1.8929933278851503 0.881888579858446 0.36789941543597676 0.6432053325907268
0.9825887983727083 0.6838277851930311 0.1019649449572212 0.1967960682224562
0.4806608226990119 0.47416170199799573 0.000545830552225954 0.005953290148790152
0.27422927855590923 0.27351686812990594 0.0001474744536644407 0.0005649359723388234
0.15270987389325605 0.15270363732569317 3.645630534186663e-07 5.872004509419999e-06
0.0880572611587326 0.0880572611587326 0.0 0.0
0.39547868657148244 0.10766781012353904 0.10441929687298022 0.1833915795749634
4.298121096957799 2.301894108793431 0.788619436986671 1.2076075511776965
3.0706146182826153 1.7595869524954852 0.4904499310216627 0.820577734765468
0.28262860225646075 0.14329941106776878 0.040111624558774886 0.09921756662991706
0.09845635312395278 0.09845635312395278 0.0 0.0
0.1314764477119524 0.1314764477119524 0.0 0.0
0.22464657950843442 0.22494158100272638 -4.544929344716154e-05 -0.00024955220084475164
0.3685730628317878 0.375842489911931 -0.002719110585382691 -0.004550316494760495
0.6970669055562029 0.5685365411374234 0.03264692199985632 0.0958834424189232
1.4233827800950876 0.7878850967028539 0.23521741970225485 0.40028026368997865
2.500965690936727 0.9619287171624978 0.5887763168062011 0.9502606569680276
4.0277409739903955 1.1534859357053702 1.2090815278418943 1.66517351044313
5.90966192309752 1.3427735033855992 2.0389157863083516 2.527972633403568
8.220733374960664 1.549827588520083 3.1207349805042135 3.5501708059363684
11.09165449903521 1.792119307714089 4.526866091603185 4.772669099717933
14.730515241528748 2.0738589873947326 6.39309355942945 6.263562694704565
19.225965278208875 2.393530885714 8.755683618121186 8.076750774373687
24.63202525853396 2.7228264083775864 11.6961793006717 10.213019549484672
30.946516091355114 3.038843279247604 15.311932416263566 12.595740395843936
37.4883330703043 3.2796936485319104 19.113880503945403 15.094758917826994
43.60270981893672 3.341872352408231 22.81021344060537 17.450624025923123
48.43545159020584 3.1748809934007314 25.94238597952225 19.318184617282864
50.25479184798977 2.355601944133118 27.60051038141185 20.298679522444804
48.4354515902001 3.1748809934010302 25.94238597951847 19.31818461728058
43.602709818928716 3.3418723524088962 22.810213440599977 17.45062402591984
37.48833307029359 3.2796936485334007 19.113880503937903 15.094758917822297
30.946516091336978 3.038843279243418 15.311932416255154 12.595740395838401
24.632025258519715 2.7228264083803997 11.696179300661687 10.213019549477636
19.22596527819252 2.3935308857114532 8.755683618113245 8.076750774367824
14.730515241513778 2.073858987393361 6.393093559421906 6.263562694698506
11.091654499019933 1.7921193077135147 4.526866091595247 4.7726690997111785
8.220733374946185 1.5498275885181876 3.1207349804976863 3.5501708059303096
5.909661923084789 1.342773503383481 2.038915786303073 2.5279726333982366
4.027740973981215 1.153485935704712 1.2090815278379448 1.6651735104385572
2.500965690929624 0.9619287171610076 0.5887763168038211 0.9502606569647959
1.4233827800903893 0.7878850967016667 0.23521741970078974 0.4002802636879328
0.6970669055539146 0.5685365411363698 0.03264692199944345 0.09588344241810141
0.36857306283099717 0.37584248991096747 -0.0027191105853453554 -0.004550316494624893
0.22464657950811198 0.22494158100241654 -4.544929344863122e-05 -0.0002495522008559595
0.1314764477117209 0.1314764477117209 0.0 0.0
0.09845635312362547 0.09845635312362547 0.0 0.0
0.2826286022548643 0.14329941106762206 0.04011162455819385 0.09921756662904871
3.0706146182737597 1.7595869524916452 0.49044993101960405 0.8205777347625102
2.1101990525008456 1.3244558671017914 0.2675270673028362 0.5182161180962184
0.22388038576287506 0.18078724969369747 0.009245657477698573 0.03384747859147895
0.11806269673888385 0.11806269673888385 0.0 0.0
0.12641593815248967 0.12641593815248967 0.0 0.0
0.1903243271879188 0.1902301988831056 8.593782913045655e-06 8.553452190011984e-05
0.2918634438860475 0.298833774368024 -0.001484380694273939 -0.005485949787702456
0.49693853458076304 0.47427064698408883 0.002693664151007284 0.019974223445666905
0.961809920674918 0.6492224138623633 0.09313023153743005 0.21945727527512446
1.8372704824722175 0.8513114731117797 0.3814014402518429 0.6045575691085948
2.965041767780945 1.0059841640925355 0.7752557092445191 1.1838018944438906
4.46831535000468 1.1779939645356208 1.4082825095793776 1.882038875889681
6.271402340223175 1.3542795832828092 2.216774447411493 2.7003483095288714
8.480999503730867 1.5547991622018824 3.2546919537233068 3.6715083878056802
11.2594341145158 1.7863907540490411 4.620196763787368 4.852846596679391
14.738527596621429 2.0490396533391952 6.390575470675436 6.298912472606792
19.08770682103566 2.3431536459019977 8.72327438655403 8.021278788579625
23.95521503858296 2.635722232334193 11.331305097189512 9.988187709059261
29.431566302521272 2.9042438879896095 14.456694005535732 12.070628408995924
34.84147612856045 3.063465534028566 17.64382376276053 14.13418683177135
39.2807874384057 2.972711805002535 20.403277963698223 15.904797669704946
41.085910106816755 2.0331368104832843 22.100533423427628 16.952239872905842
39.28078743840035 2.972711805000557 20.403277963696112 15.904797669703687
34.84147612855551 3.06346553403085 17.643823762756117 14.134186831768545
29.43156630251266 2.9042438879923402 14.45669400552892 12.070628408991404
23.955215038570913 2.6357222323324234 11.331305097183442 9.98818770905504
19.08770682102115 2.3431536459020013 8.723274386545674 8.021278788573468
14.738527596610457 2.049039653339628 6.3905754706691305 6.298912472601696
11.259434114504428 1.7863907540483082 4.620196763781636 4.852846596674481
8.480999503718719 1.5547991621997452 3.2546919537180585 3.671508387800912
6.271402340212922 1.3542795832824024 2.2167744474065283 2.7003483095239926
4.468315349994987 1.1779939645342346 1.4082825095754363 1.882038875885315
2.965041767773509 1.0059841640925145 0.7752557092411698 1.1838018944398259
1.837270482466736 0.8513114731106672 0.3814014402499211 0.604557569106148
0.9618099206717439 0.6492224138615735 0.09313023153654168 0.21945727527362893
0.4969385345792259 0.4742706469830238 0.002693664150860704 0.01997422344534138
0.29186344388550495 0.29883377436734226 -0.0014843806942380004 -0.005485949787599267
0.19032432718751058 0.19023019888269252 8.593782913185534e-06 8.553452190484028e-05
0.12641593815226887 0.12641593815226887 0.0 0.0
0.11806269673848557 0.11806269673848557 0.0 0.0
0.22388038576172054 0.180787249693431 0.009245657477370257 0.033847478590919286
2.1101990524945804 1.3244558670990834 0.26752706730149994 0.5182161180939979
1.4411621934400756 1.034671782387356 0.1443346759818298 0.26215573507088996
0.18017065319708236 0.18982151656767937 -0.008593315789147415 -0.0010575475814496547
0.13993687462003115 0.13994268503524834 -2.3757776738740996e-07 -5.5728374497752275e-06
0.13242883541982514 0.13242883541982514 0.0 0.0
0.170050742517125 0.17005813253011043 -1.039185031293752e-06 -6.350827954098897e-06
0.24053549979070474 0.24328519103860055 -0.0005769375762759791 -0.002172753671619843
0.3576742253460535 0.36909018587059617 -0.00418572892592085 -0.007230231598622008
0.624384364208299 0.5185893292887529 0.02268079427856458 0.08311424064098165
1.163038652616184 0.6877531684015998 0.15314804146835267 0.322137442746232
2.0382809341449453 0.858471201402288 0.4599779672302886 0.7198317655123678
3.099799845928006 0.9989610623448684 0.85044138513672 1.2503973984464172
4.4141658816685165 1.1462746947013416 1.3957349908308996 1.8721561961362758
6.020977325266298 1.3122660252863831 2.1111680047363723 2.597543295243542
8.013937480193011 1.4971497660728823 3.0394463776239964 3.4773413364961323
10.557591839382821 1.7130436077952744 4.286833799404785 4.557714432182763
13.685293612726776 1.9599269470624237 5.857398470367125 5.867968195297227
17.48966584683325 2.2305221127851134 7.8741419465286135 7.38500178751953
21.69496438759971 2.5116303471312262 10.114852534844118 9.068481505624359
26.09414534094538 2.7513813205528086 12.534515463739623 10.80824855665295
30.228299438702027 2.7713087860162924 15.007049808990665 12.44994084369507
32.09793980787038 1.7199313519552506 16.787436779407344 13.59057167650779
30.228299438701868 2.7713087860181016 15.007049808989446 12.449940843694314
26.094145340938113 2.751381320550163 12.534515463736863 10.808248556651096
21.69496438758973 2.5116303471291492 10.114852534839526 9.068481505621056
17.48966584682324 2.2305221127828987 7.874141946524171 7.385001787516174
13.685293612716444 1.959926947062168 5.857398470361514 5.867968195292761
10.557591839373389 1.7130436077947861 4.286833799399968 4.557714432178636
8.013937480183923 1.4971497660708017 3.0394463776203366 3.477341336492783
6.020977325258514 1.3122660252852747 2.111168004733027 2.597543295240212
4.414165881660624 1.1462746947010412 1.3957349908272942 1.8721561961322888
3.099799845920728 0.9989610623435659 0.8504413851340367 1.2503973984431251
2.0382809341391543 0.8584712014015374 0.4599779672280583 0.7198317655095587
1.1630386526126102 0.6877531684008082 0.15314804146726593 0.32213744274453576
0.6243843642061917 0.5185893292879907 0.022680794278144054 0.08311424064005656
0.3576742253453348 0.36909018586975234 -0.0041857289258796 -0.007230231598538038
0.24053549979020045 0.24328519103788257 -0.0005769375762531311 -0.002172753671428989
0.17005074251668476 0.17005813252971957 -1.0391850354686536e-06 -6.3508279993619514e-06
0.1324288354194533 0.1324288354194533 0.0 0.0
0.13993687461969923 0.13994268503490098 -2.3757776660358785e-07 -5.5728374351892456e-06
0.18017065319633474 0.1898215165672416 -0.008593315789222927 -0.0010575475816839682
1.441162193435699 1.034671782385407 0.14433467598086705 0.2621557350694248
0.9290676318487997 0.7722846101658378 0.044123762675434657 0.11265925900752725
0.165408231115498 0.18458118567809215 -0.006047074838032882 -0.013125879724561303
0.15969918063156827 0.15979200325376 -7.822639585496173e-06 -8.499998260625417e-05
0.14492260919855154 0.14491384221467135 5.897935051999962e-07 8.177190374985282e-06
0.16216009512488297 0.1621837856168076 -1.9461531036676694e-06 -2.1744338820966167e-05
0.20625397321190833 0.20610553781724367 -2.2809471999082313e-06 0.00015071634186460163
0.27529296569039796 0.2874332056436145 -0.0032373577729897306 -0.008902882180226869
0.40344874180476753 0.4013026722822539 -0.0008835306598526365 0.0030296001823663164
0.666397253359026 0.5232090369889856 0.035793498459643205 0.10739471791039727
1.1505527936620643 0.6589871541362677 0.1646329696704567 0.3269326698553406
1.8243105421252013 0.7818391962053491 0.3783389260065802 0.6641324199132719
2.6837347086882133 0.9086948132197679 0.6984698689608775 1.0765700265075684
3.7251811171835856 1.0424484066106292 1.1179340644659572 1.5647986461069994
5.007980567217624 1.186481408322591 1.6663395175008138 2.155159641394219
6.643298442472529 1.3553259413611425 2.406703823859875 2.8812686772515113
8.724376180794017 1.5577817275050028 3.39184689444789 3.7747475588411206
11.305223119032954 1.8040301972918265 4.649359077480823 4.851833844260303
14.304923078281515 2.063311814828185 6.146954288858972 6.094656974594361
17.741207294107344 2.3598833367880405 7.909455936590192 7.47186802072911
21.49369998400505 2.557918917422564 9.983940162825897 8.951840903756592
23.43300117302143 1.4387057676128996 11.722651883258603 10.27164352214992
21.493699984003953 2.557918917422239 9.983940162825437 8.951840903756276
17.74120729410279 2.3598833367843017 7.909455936589731 7.471868020728757
14.304923078278035 2.0633118148294765 6.146954288856277 6.094656974592281
11.30522311902601 1.8040301972901374 4.649359077477971 4.851833844257902
8.724376180787184 1.557781727504562 3.3918468944445026 3.77474755883812
6.6432984424661115 1.3553259413597647 2.40670382385729 2.8812686772490546
5.007980567213296 1.18648140832174 1.6663395174990936 2.155159641392464
3.725181117178554 1.042448406609654 1.117934064464102 1.5647986461047974
2.6837347086830494 0.9086948132197104 0.6984698689585428 1.0765700265047966
1.8243105421208057 0.7818391962046644 0.3783389260050665 0.664132419911075
1.1505527936585507 0.658987154135046 0.16463296966953186 0.32693266985397273
0.6663972533573125 0.5232090369882708 0.03579349845931229 0.10739471790972888
0.40344874180375806 0.401302672281463 -0.0008835306599172081 0.003029600182212451
0.27529296568989614 0.2874332056429367 -0.0032373577729487265 -0.008902882180091758
0.20625397321138955 0.20610553781670551 -2.280947198763611e-06 0.00015071634188280908
0.1621600951246176 0.1621837856165378 -1.946153103291718e-06 -2.174433881687147e-05
0.14492260919825228 0.1449138422143756 5.897935049128192e-07 8.177190371824514e-06
0.15969918063126876 0.15979200325345153 -7.822639584174224e-06 -8.499998259859527e-05
0.16540823111511316 0.18458118567743537 -0.006047074837969064 -0.013125879724353202
0.9290676318459835 0.7722846101644215 0.044123762674955144 0.11265925900660692
0.6105230825160936 0.5947264065317498 0.004142248161377941 0.011654427822965692
0.16221662426370445 0.16510862373806484 -0.0006712831169856915 -0.002220716357374684
0.17486558585811185 0.17488380761077588 -9.360311742304601e-07 -1.728572148978798e-05
0.16014400613483218 0.16015251865100957 -4.624563956504184e-07 -8.050059781740452e-06
0.16406177301589323 0.1640615775518045 1.7247569551195297e-06 -1.5292928663885773e-06
0.18920492815053802 0.19007074822448122 -0.0001582376883818972 -0.0007075823855612505
0.2293678962981021 0.2358885677580186 -0.0016749402178807935 -0.0048457312420357905
0.28473508160399486 0.27817312422095536 0.0007895811809579018 0.0057723762020816215
0.36666915116374055 0.3335942125302739 0.007644682150460438 0.02543025648300621
0.5173074182760656 0.40960041573401146 0.028145869906496167 0.07956113263555803
0.8033659608726146 0.5106458775945785 0.10010459317003668 0.19261549010799947
1.1814591722470797 0.6017589330229176 0.1987395114154223 0.3809607278087399
1.6883218115402232 0.6889778345926941 0.3664752611849362 0.6328687157625925
2.343606783719624 0.7835271129133129 0.6084972383107147 0.9515824324955973
3.1865637005703475 0.893520466064963 0.9388145814034272 1.3542286531019583
4.2970086274247405 1.0428341953902662 1.3923695901569404 1.8618048418775335
5.781632904361287 1.2457746375723062 2.025072448172594 2.5107858186163856
7.73627508954566 1.4984471221527347 2.91028914107198 3.3275388263209478
10.052444569908102 1.7496459654175325 4.005272643523358 4.297525960967209
13.040659225126198 2.1678637087627637 5.390397123907385 5.48239839245605
15.546662210936384 1.2160327125041004 7.324909466626622 7.005720031805662
13.040659225128488 2.167863708763503 5.390397123908257 5.482398392456724
10.052444569908255 1.7496459654170555 4.005272643523682 4.297525960967516
7.7362750895416195 1.4984471221526503 2.9102891410699034 3.3275388263190657
5.7816329043575445 1.245774637572167 2.025072448170738 2.510785818614639
4.297008627420051 1.0428341953886209 1.39236959015548 1.8618048418759499
3.1865637005687217 0.8935204660654186 0.9388145814025219 1.3542286531007819
2.3436067837173216 0.7835271129125798 0.6084972383099638 0.9515824324947777
1.6883218115385974 0.688977834593164 0.3664752611840737 0.6328687157613594
1.1814591722439598 0.601758933021956 0.19873951141454438 0.3809607278074594
0.8033659608705015 0.5106458775945071 0.10010459316925993 0.1926154901067344
0.5173074182753029 0.4096004157336939 0.02814586990636259 0.07956113263524639
0.3666691511632877 0.3335942125300177 0.007644682150395024 0.025430256482875106
0.28473508160354055 0.2781731242206163 0.0007895811809227264 0.005772376202001529
0.22936789629767973 0.2358885677574985 -0.0016749402178581117 -0.004845731241960795
0.18920492815000278 0.19007074822392842 -0.0001582376883792409 -0.0007075823855463442
0.16406177301561256 0.16406157755150913 1.7247569561690236e-06 -1.5292928527816401e-06
0.16014400613447477 0.16015251865064678 -4.624563952485292e-07 -8.05005977674842e-06
0.17486558585779866 0.17488380761044808 -9.360311732457195e-07 -1.7285721476226596e-05
0.1622166242634887 0.16510862373779944 -0.0006712831169738713 -0.0022207163573368673
0.6105230825144982 0.5947264065304099 0.004142248161304102 0.011654427822784228
0.4075009760069194 0.40618084325008835 0.00012593117967318917 0.0011942015771578994
0.15961248832618372 0.15974074374798122 -1.2884083245241098e-05 -0.00011537133855226717
0.18471901391611859 0.18485490467306626 -1.1143274495061744e-05 -0.00012474748245261706
0.175156888776654 0.17520149364791296 -3.0090264717618683e-06 -4.159584478721377e-05
0.17317030315897528 0.17316984686344875 1.2746668436716983e-06 -8.183713171120655e-07
0.18820649842030937 0.18902986544400732 -0.00015387716702260708 -0.0006694898566753373
0.21582519760018729 0.22180712078181955 -0.00146672714081994 -0.004515196040812342
0.24857467573583117 0.2388897346469752 0.0012424103882025736 0.008442530700653386
0.2774818271735645 0.2411915174017658 0.009911033357800272 0.026379276413998533
0.30709293165572693 0.22086221124248354 0.02378070426313383 0.06245001615010959
0.35728783634529593 0.20530365743414172 0.050888851000634984 0.10109532791051938
0.4358694896493088 0.18810592694546785 0.0818660811488127 0.16589748155502815
0.5588559326050342 0.19734901945045347 0.12867775113167323 0.2328291620229076
0.7403103326479489 0.22631465901604167 0.19472096955656848 0.3192747040753388
1.0064603228977609 0.2747216915632149 0.29282862611390903 0.43891000522063667
1.3750542654014548 0.28792480959266387 0.4379024292250594 0.6492270265837317
1.888280845437003 0.2924413773578939 0.6669389426838627 0.9289005253952466
2.610016610666212 0.3083566342602486 1.000679364028717 1.3009806123772447
3.7884071913770994 0.45633962096174896 1.501163912142975 1.8309036582723761
6.140897321762302 1.1753487546869033 2.254467336780189 2.711081230295209
10.078441316968087 1.01870745272958 4.359887399493819 4.699846464744687
6.140897321762987 1.1753487546855028 2.2544673367813064 2.711081230296181
3.788407191379788 0.4563396209647151 1.5011639121428453 1.8309036582722276
2.610016610664427 0.3083566342607962 1.0006793640275504 1.300980612376081
1.888280845433647 0.29244137735691833 0.6669389426827359 0.9289005253939915
1.3750542654019124 0.2879248095940192 0.43790242922470346 0.6492270265831899
1.0064603228965885 0.2747216915628324 0.2928286261134728 0.4389100052202838
0.7403103326474275 0.22631465901594316 0.194720969556396 0.3192747040750885
0.5588559326031425 0.19734901945001027 0.12867775113105362 0.23282916202207854
0.43586948964875105 0.18810592694571343 0.08186608114853991 0.16589748155449818
0.3572878363440507 0.20530365743407242 0.05088885100016864 0.10109532790980955
0.3070929316554504 0.220862211242267 0.023780704263119054 0.0624500161500644
0.27748182717334474 0.24119151740179237 0.009911033357720218 0.026379276413832135
0.248574675735467 0.23888973464676738 0.0012424103881539324 0.008442530700545712
0.2158251975998633 0.2218071207813796 -0.0014667271407939099 -0.004515196040722407
0.18820649841987896 0.18902986544355832 -0.00015387716702024195 -0.0006694898566591263
0.17317030315863285 0.1731698468630893 1.2746668447383521e-06 -8.183713012188865e-07
0.1751568887762215 0.17520149364746065 -3.009026470089872e-06 -4.1595844769073125e-05
0.18471901391576975 0.18485490467270474 -1.1143274493439908e-05 -0.00012474748244152296
0.15961248832592037 0.1597407437477437 -1.2884083247348172e-05 -0.0001153713385759647
0.4075009760059346 0.40618084324890735 0.00012593117968625798 0.0011942015773409073
0.2732428377206508 0.2732017797725932 3.1449235594818967e-06 3.791302449810016e-05
0.15114149937732319 0.15114863948386245 -7.809730483392966e-07 -6.359133490956365e-06
0.18838401283330644 0.1883504375902351 3.0357384811359583e-06 3.053950459020256e-05
0.18790223085758992 0.18795804728377655 -4.477284794431172e-06 -5.13391413922115e-05
0.18718068009304137 0.1872464116036542 -7.558912335056169e-06 -5.81725982778154e-05
0.2020870787109822 0.20182519937290538 8.725612679131111e-06 0.0002531537253976134
0.23560291295534527 0.24486500272815362 -0.0021647039058591043 -0.007097385866949289
0.28661582611849346 0.27947302765311016 0.001043125188124413 0.006099673277258893
0.36669173156352497 0.333121559917953 0.0078059535064732505 0.025764218139098745
0.5164946341808025 0.4091825661689852 0.027998992587346325 0.07931307542447119
0.8022640830411039 0.5112970487943109 0.09923358081923772 0.19173345342755546
1.1847790235295337 0.6028313991132106 0.20104092638392862 0.3809066980323945
1.6955074365140257 0.6906747611690998 0.3687125155898401 0.6361201597550858
2.3586488456126125 0.786185571502434 0.6141702159908926 0.9582930581192857
3.1838216297078468 0.8906832914016753 0.9394414814960068 1.3536968568101655
4.159073502392084 1.0099174205363814 1.3450772480610345 1.8040788337946665
5.1711271742044715 1.133147534308711 1.7804199504848033 2.257559689410957
6.02417448858396 1.2352308297215022 2.1922939176994567 2.5966497411630023
6.3385357643466715 1.288039346872873 2.3537880223689536 2.69670839510484
5.121252387227875 0.6463883717444909 2.1337809860342047 2.3410830294491776
10.189257173457776 1.859201563139699 3.920270004458164 4.409785605859913
5.121252387233061 0.6463883717464367 2.133780986035918 2.3410830294507026
6.33853576434439 1.2880393468698448 2.353788022369277 2.696708395105268
6.02417448857938 1.2352308297197587 2.1922939176979463 2.596649741161675
5.1711271741993965 1.1331475343087476 1.7804199504822658 2.257559689408382
4.159073502386151 1.0099174205342427 1.345077248059235 1.8040788337926728
3.1838216297045356 0.8906832914010858 0.9394414814948259 1.3536968568086234
2.3586488456089505 0.7861855715024507 0.6141702159892325 0.958293058117268
1.6955074365094176 0.6906747611682128 0.36871251558828066 0.6361201597529245
1.1847790235255418 0.6028313991123163 0.20104092638268795 0.3809066980305373
0.8022640830375827 0.5112970487929667 0.09923358081835225 0.19173345342626394
0.5164946341792366 0.4091825661680403 0.027998992587173328 0.07931307542402304
0.36669173156289764 0.33312155991739895 0.007805953506445316 0.025764218139053382
0.286615826118027 0.2794730276527901 0.0010431251880788912 0.006099673277157881
0.23560291295469557 0.24486500272747025 -0.002164703905847328 -0.007097385866927293
0.20208707871056236 0.20182519937231336 8.72561270090454e-06 0.00025315372554806097
0.18718068009275804 0.18724641160338823 -7.558912338078186e-06 -5.81725982920767e-05
0.18790223085717733 0.187958047283343 -4.477284792821856e-06 -5.1339141372841755e-05
0.1883840128329405 0.18835043758985964 3.0357384811983143e-06 3.053950459965208e-05
0.15114149937714405 0.15114863948368965 -7.80973048571847e-07 -6.359133497039122e-06
0.27324283772003133 0.27320177977198395 3.1449235585162974e-06 3.791302448882746e-05
0.1759336794244549 0.1759336794244549 0.0 0.0
0.13704964246158924 0.13704740900909354 1.0780301602207152e-07 2.125649479689325e-06
0.18527587352319513 0.1852609954220073 1.4859508359212948e-06 1.3392150351924643e-05
0.19708683954086423 0.1970413059024472 6.741537791692081e-06 3.8792100625377955e-05
0.2044304077192379 0.20456747976598944 -4.952746294387792e-06 -0.00013211930045713404
0.23034533732563717 0.23444518507814938 -0.0007386138786269387 -0.0033612338738853473
0.28574102591864714 0.28784639747794244 -0.0013733400429956164 -0.0007320315162997022
0.40669310717369267 0.402653481245287 -0.0002352452652889048 0.004274871193694626
0.6659085232215054 0.5228673038364795 0.03573886004366153 0.10730235934136459
1.1490092959748242 0.6587633738658865 0.16402911610601956 0.3262168060029179
1.823610731111401 0.7816984916385215 0.3780339892587165 0.6638782502141625
2.685238345589361 0.9088303908068014 0.699081445312137 1.0773265094704219
3.7313033586592677 1.0433308309049747 1.1204883530321323 1.56748417472216
5.021282525517615 1.187813083215053 1.6724857996963354 2.1609836426062254
6.64378509218726 1.3509369457651332 2.409938217489293 2.8829099289328317
8.599442392355373 1.5246033362105864 3.344629198186268 3.730209857958522
10.732471016040485 1.696557275668846 4.396634809054952 4.639278931316684
12.677479439769936 1.8701867400174073 5.342038716373171 5.465253983379362
13.758144880068073 1.9252430532290155 5.919728951795386 5.913172875043674
12.755581601939104 1.9425782940929788 5.435072783802805 5.377930524043325
15.253869114137814 4.167722400357276 5.481685972065549 5.604460741714984
12.755581601940454 1.9425782940914016 5.435072783804452 5.377930524044606
13.758144880064343 1.9252430532263425 5.919728951794765 5.913172875043233
12.677479439762259 1.8701867400153578 5.342038716370021 5.465253983376877
10.732471016034173 1.6965572756701945 4.396634809050794 4.639278931313182
8.59944239234726 1.5246033362103624 3.3446291981821132 3.7302098579547875
6.6437850921800825 1.3509369457636797 2.40993821748638 2.882909928930026
5.021282525512295 1.1878130832152323 1.6724857996936848 2.1609836426033775
3.7313033586521542 1.0433308309042788 1.1204883530291028 1.567484174718773
2.6852383455826176 0.9088303908061548 0.6990814453093831 1.0773265094670799
1.8236107311049539 0.7816984916375898 0.3780339892564125 0.6638782502109514
1.1490092959706064 0.6587633738648424 0.1640291161047502 0.3262168060010143
0.6659085232192326 0.5228673038354188 0.03573886004326286 0.10730235934055016
0.40669310717270024 0.4026534812444078 -0.00023524526531809413 0.00427487119361054
0.28574102591798967 0.2878463974772088 -0.0013733400429886133 -0.0007320315162305936
0.23034533732510976 0.2344451850776364 -0.0007386138786217791 -0.0033612338739049666
0.20443040771889026 0.2045674797656031 -4.952746289754262e-06 -0.00013211930042306591
0.19708683954034062 0.19704130590190413 6.74153779291067e-06 3.879210064361902e-05
0.18527587352289238 0.18526099542170354 1.485950835800389e-06 1.3392150353024234e-05
0.1370496424614284 0.13704740900893497 1.078030158836325e-07 2.1256494775240985e-06
0.17593367942406282 0.17593367942406282 0.0 0.0
0.10821302009365927 0.10821302009365927 0.0 0.0
0.11811016840192795 0.11811016840192795 0.0 0.0
0.1758521840142979 0.1758279214428062 1.7498561801295798e-06 2.2512715311568723e-05
0.20226032680398556 0.20232985758818303 -5.218320297586886e-06 -6.431246389986003e-05
0.22426512131475232 0.22496985339728365 -0.00010947322545825558 -0.0005952588570731494
0.26941019740458055 0.26921354230313155 -0.00023331812853641636 0.0004299732299853948
0.3729731219531215 0.386200870313116 -0.004050243819132616 -0.009177504540861785
0.6281756798088017 0.5197017862392841 0.023899537291474465 0.08457435627804363
1.16177491620155 0.6876767843506553 0.1526601328270173 0.32143799902387715
2.037018553999612 0.8585157178633903 0.4596693984347906 0.7188334377014316
3.0988904777791024 0.9987172520322277 0.8489839729776602 1.2511892527692146
4.4151428031594575 1.1460768208412644 1.396342809542723 1.8727231727754705
6.0233994906830715 1.3125186329685783 2.1122828661251405 2.5985979915893536
8.019755409946487 1.498230529582771 3.0420042250840016 3.4795206552797158
10.554433099733632 1.7098621644491645 4.287048103252887 4.557522832031581
13.594508253865763 1.9304911263068285 5.823859488410998 5.840157639147934
17.078539045964515 2.14362444568035 7.69041368589052 7.244500914393647
20.29162495273421 2.278269017050742 9.437007428219127 8.576348507464338
22.1073781356971 2.255416720933347 10.505898506282778 9.346062908480986
20.492992948901296 2.032605597122263 9.705122263594793 8.755265088184236
23.00275624326728 6.443407272327183 8.594531563434119 7.964817407505991
20.492992948903623 2.0326055971226387 9.705122263595934 8.755265088185055
22.107378135697783 2.255416720936688 10.505898506281216 9.346062908479873
20.291624952729645 2.2782690170527817 9.437007428215312 8.576348507461548
17.078539045949633 2.14362444567694 7.690413685883961 7.244500914388735
13.594508253856453 1.9304911263078142 5.823859488405308 5.840157639143334
10.554433099723418 1.7098621644474186 4.287048103248315 4.557522832027685
8.01975540993451 1.498230529580537 3.042004225078893 3.4795206552750773
6.023399490672618 1.3125186329671001 2.1122828661206214 2.5985979915848962
4.4151428031488456 1.1460768208396437 1.396342809538366 1.8727231727708358
3.0988904777702766 0.9987172520318907 0.8489839729737603 1.2511892527646258
2.0370185539924948 0.8585157178622488 0.45966939843216414 0.7188334376980813
1.1617749161973296 0.687676784349283 0.1526601328258885 0.3214379990221583
0.6281756798063005 0.5197017862380572 0.0238995372910736 0.08457435627716942
0.37297312195212207 0.3862008703119863 -0.004050243819096511 -0.009177504540767881
0.2694101974038407 0.2692135423021804 -0.00023331812850812335 0.00042997323016844956
0.22426512131425577 0.22496985339680578 -0.00010947322546081392 -0.0005952588570892144
0.20226032680356537 0.20232985758774266 -5.218320295818337e-06 -6.431246388149186e-05
0.17585218401403466 0.17582792144255024 1.749856179479478e-06 2.2512715304933934e-05
0.1181101684017099 0.1181101684017099 0.0 0.0
0.10821302009343625 0.10821302009343625 0.0 0.0
0.06315239318908664 0.06315239318908664 0.0 0.0
0.09672124664164805 0.09672124664164805 0.0 0.0
0.16127637003866319 0.16126592921321425 6.169848764971448e-07 9.823840572470336e-06
0.20382925395667473 0.20373673309785428 1.1433964402413846e-05 8.108689441796222e-05
0.24599709923838015 0.2462884185196722 -1.866474337493161e-05 -0.00027265453791711905
0.32135571717774386 0.3342087387744568 -0.0026942965242777285 -0.010158725072435239
0.509859841139808 0.47223687216547006 0.006404777034515124 0.031218191939822757
0.9643706789786991 0.6497745157616126 0.09419669782300712 0.22039946539407956
1.835635135322319 0.851496975721976 0.3805924115416347 0.6035457480587088
2.9641210391584316 1.006143451316238 0.7745965588635915 1.1833810289786026
4.468970019969401 1.177844545000437 1.4089002478411958 1.882225227127769
6.2714177676296545 1.3536314629898303 2.2171219582540016 2.700664346385823
8.477121893430953 1.5536772655435338 3.2533060895530723 3.670138538334347
11.249840272824773 1.7862005659673876 4.615228036518235 4.848411670339152
14.726267348085287 2.04992175276597 6.383275424001393 6.293070171317928
19.06417346224535 2.3356845818934855 8.713763119768963 8.014725760582902
23.75839942294772 2.5672243509004833 11.255656830972143 9.935518241075101
28.30845032478211 2.6338594457102 13.946328710865496 11.728262168206406
30.824148024547902 2.4337947775994544 15.60208179770736 12.788271449241092
28.621996226388138 2.101458798832133 14.471454452549608 12.049082975006396
31.442775816442033 8.633674953662043 12.224697024509144 10.584403838270832
28.621996226390692 2.10145879883349 14.471454452550354 12.049082975006852
30.824148024545003 2.4337947775995135 15.602081797705559 12.788271449239932
28.308450324768657 2.6338594457055313 13.9463287108602 11.728262168202924
23.758399422935337 2.567224350902867 11.255656830963492 9.935518241068971
19.064173462229753 2.33568458189059 8.713763119761662 8.014725760577496
14.726267348070124 2.049921752762597 6.383275423994849 6.29307017131267
11.24984027281265 1.7862005659683025 4.615228036511168 4.848411670333176
8.477121893416214 1.5536772655414548 3.25330608954643 3.670138538328331
6.271417767616948 1.353631462988687 2.217121958248222 2.7006643463800404
4.468970019957655 1.1778445449997152 1.408900247835962 1.8822252271219773
2.9641210391497177 1.0061434513154566 0.7745965588600366 1.1833810289742244
1.8356351353159244 0.8514969757206601 0.3805924115393916 0.6035457480558726
0.9643706789750673 0.649774515760689 0.09419669782198636 0.22039946539239294
0.509859841138105 0.4722368721643321 0.006404777034335436 0.031218191939437576
0.3213557171769908 0.33420873877357093 -0.002694296524236517 -0.010158725072343533
0.2459970992378755 0.24628841851910846 -1.866474336864128e-05 -0.0002726545378642908
0.2038292539563795 0.2037367330975497 1.143396440262814e-05 8.108689442716989e-05
0.16127637003844092 0.16126592921299693 6.169848761276928e-07 9.823840567913113e-06
0.09672124664146578 0.09672124664146578 0.0 0.0
0.06315239318899075 0.06315239318899075 0.0 0.0
0.034708600871864954 0.034708600871864954 0.0 0.0
0.075250922452699 0.075250922452699 0.0 0.0
0.14332008705898855 0.14331537337386 2.7264122338958563e-07 4.441043905202767e-06
0.20296995676404864 0.2029234617478957 5.023327296910349e-06 4.1471688856069486e-05
0.2695646721952859 0.2686270728806016 0.00017817857460046085 0.0007594207400837661
0.3931939558053712 0.4041692619380105 -0.0032597941571063395 -0.007715511975532976
0.7084421938694037 0.5714312404233488 0.03611638759418921 0.10089456585186551
1.4242448614220502 0.7883330750147793 0.2354758055260703 0.4004359808812007
2.4999798981630965 0.9623711670066609 0.5882747340613934 0.9493339970950421
4.027817823326652 1.1536429370482335 1.2089855703253622 1.6651893159530577
5.910685162386571 1.342620836097853 2.0394910263058863 2.5285732999828303
8.219508545502212 1.5486652946695616 3.120700312975985 3.5501429378566645
11.079295539591158 1.7888041949350817 4.522012967686155 4.768478376969924
14.698861878776338 2.0704489403820396 6.377387187922252 6.2510257504720395
19.20038061423637 2.401340303536098 8.736516194994035 8.062524115706239
24.67873393483862 2.7448903673211253 11.710345285494986 10.223498282022511
30.964165897110004 2.998811657146634 15.346057815038707 12.619296424924665
36.6416642368828 2.9633568488231368 18.789369749536753 14.888937638522904
39.549207856562475 2.530286514626903 20.802342924528148 16.216578417407433
36.92458065531961 2.1826467194806107 19.450465824635632 15.291468111203367
40.65395041276343 10.925137223838307 16.40833720443414 13.320475984490981
36.92458065531735 2.1826467194782078 19.450465824635707 15.291468111203441
39.549207856552655 2.5302865146232483 20.80234292452434 16.216578417405053
36.641664236868536 2.9633568488224022 18.78936974952847 14.888937638517667
30.964165897091448 2.9988116571451435 15.346057815028397 12.619296424917914
24.67873393482052 2.7448903673194374 11.710345285485335 10.223498282015745
19.200380614218425 2.4013403035340977 8.73651619498488 8.062524115699444
14.698861878758205 2.070448940379279 6.377387187913707 6.251025750465219
11.07929553957376 1.7888041949351048 4.522012967676779 4.768478376961878
8.219508545485926 1.5486652946680086 3.120700312968326 3.550142937849589
5.91068516237239 1.3426208360969445 2.0394910262992894 2.5285732999761557
4.027817823315433 1.1536429370465897 1.208985570320838 1.6651893159480062
2.4999798981551162 0.9623711670052103 0.58827473405866 0.9493339970912463
1.424244861416594 0.7883330750135625 0.23547580552429015 0.40043598087874055
0.7084421938666462 0.5714312404221104 0.03611638759368317 0.1008945658508526
0.3931939558044717 0.4041692619370105 -0.003259794157082252 -0.00771551197545655
0.2695646721948046 0.26862707288008875 0.000178178574601646 0.000759420740114182
0.2029699567637118 0.20292346174755832 5.0233272966949e-06 4.147168885674738e-05
0.14332008705878996 0.1433153733736633 2.726412232514537e-07 4.441043903424872e-06
0.07525092245253269 0.07525092245253269 0.0 0.0
0.03470860087176208 0.03470860087176208 0.0 0.0
0.01791764558825545 0.01791764558825545 0.0 0.0
0.05561018394838869 0.05561018394838869 0.0 0.0
0.12413808084551801 0.12413808084551801 0.0 0.0
0.20139164279866575 0.20132881312678244 5.622717784786087e-06 5.720695409850619e-05
0.29879596561350197 0.30270635886308955 -0.0007157925258056758 -0.00319460072378176
0.4905768241111521 0.4587977112506603 0.005218608814001252 0.026560504046490324
0.9879713408832164 0.6855291190108772 0.1041535138671705 0.1982887080051689
1.8931001910514764 0.882357752591803 0.36757999563241095 0.643162442827263
3.2835282628981384 1.083604457976553 0.8935405052319925 1.3063832996895937
5.118241038596919 1.2864458504610283 1.6736485849791407 2.15814660315675
7.4218218643547935 1.5009943149467264 2.7323570594305635 3.1884704899775045
10.275474638885491 1.741953327039487 4.117639484771245 4.41588182707476
13.852283637074768 2.026909618848679 5.935665944292914 5.889708073933175
18.244756824677513 2.362211687167213 8.19841224463159 7.684132892878715
23.847879969300273 2.7498299613089277 11.23944700712798 9.858603000863376
30.646069862244914 3.1655005654087467 15.04338712943723 12.437182167398936
38.14136500599876 3.4418993519396164 19.39669837729858 15.302767276760562
45.00375131325048 3.273440561919222 23.73683810986314 17.993472641468145
48.53095220713191 2.6024525457820182 26.36047342543486 19.568026235915056
45.516307227730024 2.2479775143792553 24.700427609129555 18.567902104221215
50.39866761803708 13.319993584002065 20.84721920798105 16.23145482605397
45.51630722772471 2.247977514377225 24.70042760912751 18.567902104219968
48.53095220712246 2.6024525457827927 26.36047342542845 19.56802623591124
45.00375131323477 3.2734405619207014 23.736838109852364 17.993472641461693
38.141365005979075 3.4418993519392327 19.396698377286757 15.30276727675307
30.646069862224394 3.1655005654079384 15.043387129425383 12.437182167391068
23.84787996927847 2.749829961307665 11.239447007115919 9.858603000854876
18.244756824656584 2.3622116871651273 8.198412244620858 7.684132892870604
13.852283637054713 2.0269096188494036 5.93566594428144 5.889708073923867
10.275474638866585 1.7419533270380962 4.117639484761926 4.4158818270665625
7.421821864337687 1.5009943149452616 2.7323570594225637 3.188470489969861
5.118241038583277 1.2864458504599512 1.6736485849730283 2.1581466031502963
3.2835282628882485 1.083604457975133 0.8935405052282709 1.3063832996848455
1.8931001910447172 0.8823577525904021 0.36757999563015725 0.6431624428241577
0.9879713408794325 0.6855291190095852 0.1041535138662056 0.1982887080036411
0.4905768241096858 0.4587977112496233 0.005218608813861044 0.026560504046201774
0.29879596561299776 0.3027063588625176 -0.0007157925257919489 -0.0031946007237280147
0.2013916427982246 0.2013288131263474 5.6227177840943e-06 5.7206954093084954e-05
0.12413808084537196 0.12413808084537196 0.0 0.0
0.055610183948236386 0.055610183948236386 0.0 0.0
0.017917645588187342 0.017917645588187342 0.0 0.0
0.008816038189056604 0.008816038189056604 0.0 0.0
0.039185988986935864 0.039185988986935864 0.0 0.0
0.10592806968706645 0.10592806968706645 0.0 0.0
0.20182766360786752 0.20179749224988433 2.0410054128779405e-06 2.8130352570346785e-05
0.33795300107414833 0.3469620890762693 -0.002012497105935504 -0.006996590896185486
0.6314425430822602 0.5495410677841904 0.022301771175746835 0.05959970412232291
1.3014439404907225 0.7719689685806281 0.17999709788385515 0.3494778740262392
2.436433929405839 0.9764007247559723 0.5603748917565213 0.8996583128933445
4.085468242062264 1.191659759485519 1.2189616982079254 1.6748467843688206
6.260053518310428 1.4139738864487001 2.185106102233509 2.6609735296282175
8.986345339671791 1.6551683150609096 3.471555988055211 3.85962103655567
12.414106783400168 1.9363797790437451 5.180153503143449 5.297573501212971
16.640741645456718 2.2685087700530673 7.337827512070185 7.034405363333466
22.065874857865666 2.6620636782992033 10.26530623329769 9.138504946268782
28.67399129678377 3.1091788626507864 13.88418893266541 11.680623501467565
36.56305667485867 3.5671242319387213 18.341045654646976 14.65488678827297
45.39288147632577 3.874330800862633 23.604153963223453 17.914396712239668
53.42713351570362 3.6180218691644868 28.79940803970757 21.009703606831568
57.660537696666516 2.6889557721899005 32.05861084666581 22.912971077810813
54.57381009198894 2.2599389516699797 30.391023540336622 21.92284759998234
61.09114327885865 15.776884155718577 25.979917045317574 19.33434207782248
54.57381009198508 2.259938951670767 30.391023540333645 21.92284759998066
57.66053769665385 2.6889557721903348 32.05861084665743 22.91297107780608
53.427133515684964 3.618021869165902 28.79940803969488 21.00970360682417
45.39288147629989 3.8743308008585213 23.60415396320991 17.91439671223146
36.56305667483291 3.567124231936586 18.341045654632516 14.654886788263797
28.673991296759738 3.1091788626518153 13.884188932650469 11.68062350145746
22.065874857839802 2.662063678296659 10.265306233284122 9.138504946259026
16.640741645432783 2.268508770052826 7.337827512056802 7.034405363323158
12.414106783376635 1.9363797790409685 5.180153503132186 5.29757350120348
8.98634533965247 1.6551683150600258 3.471555988045557 3.8596210365468884
6.260053518295393 1.4139738864479656 2.1851061022263325 2.660973529621096
4.085468242050388 1.191659759484244 1.2189616982029632 1.674846784363179
2.43643392939768 0.9764007247544197 0.5603748917539193 0.8996583128893412
1.3014439404858609 0.7719689685792333 0.1799970978824708 0.3494778740241573
0.6314425430801777 0.5495410677832046 0.02230177117538384 0.05959970412158924
0.33795300107347165 0.34696208907543413 -0.0020124971058963683 -0.006996590896066043
0.20182766360750495 0.20179749224952992 2.0410054121905157e-06 2.8130352562807396e-05
0.10592806968692144 0.10592806968692144 0.0 0.0
0.03918598898687063 0.03918598898687063 0.0 0.0
0.0088160381890185 0.0088160381890185 0.0 0.0
0.004319602320962906 0.004319602320962906 0.0 0.0
0.026723002028852083 0.026723002028852083 0.0 0.0
0.0910382518407754 0.0910382518407754 0.0 0.0
0.20792291779692879 0.20795087722292044 -2.1449399111980753e-06 -2.5814486080462045e-05
0.39427844958340375 0.3896087911884903 0.000299333887442502 0.004370324507470883
0.8217140792836255 0.6385464509290428 0.05882149003813682 0.12434613831644581
1.6527358854571805 0.8397476470266882 0.28321123683431704 0.5297770015961751
3.0140104988911163 1.0654504914415304 0.78073057006354 1.167829437386047
4.915222432270788 1.2928516939888506 1.5711075898650795 2.0512631484168584
7.4333691109819 1.5360627103359867 2.7248735495458942 3.172432851100021
10.627190765516746 1.8106130763421604 4.275889436792766 4.54068825238182
14.605137138105373 2.1315917361446157 6.279152494479095 6.194392907481662
19.683014821774137 2.521289605230145 8.96848681603291 8.193238400511076
25.892010447441507 2.976770376929739 12.289534992790292 10.625705077721468
33.60849100321971 3.4687077729535036 16.616296987641512 13.523486242624681
42.660097875307734 3.9332263496067483 21.872148520557367 16.854723005143608
52.54076338813678 4.246909670668024 27.84012442251114 20.45372929495762
61.76841829720084 4.066770657019297 33.806432757644394 23.895214882537154
66.9649189071857 2.8455648767120723 37.95378586159065 26.165568168882945
64.18529070434887 2.1467790037847956 36.62528148099241 25.41323021957165
72.79918435900245 18.152319944497368 31.860337304305876 22.786527110199202
64.18529070433715 2.1467790037804133 36.62528148098775 25.41323021956901
66.96491890716946 2.8455648767120683 37.95378586158024 26.165568168877147
61.76841829717578 4.066770657018352 33.806432757628926 23.895214882528485
52.54076338810842 4.246909670666786 27.840124422494053 20.453729294947593
42.66009787527907 3.9332263496051296 21.872148520540645 16.8547230051333
33.60849100319196 3.468707772954376 16.616296987624168 13.52348624261342
25.892010447414584 2.976770376929473 12.28953499277455 10.62570507771056
19.68301482174609 2.5212896052296663 8.96848681601708 8.193238400499343
14.605137138079918 2.1315917361439776 6.279152494465257 6.194392907470689
10.627190765494767 1.8106130763409398 4.275889436781705 4.540688252372124
7.433369110963474 1.5360627103340345 2.7248735495374983 3.1724328510919415
4.915222432257355 1.2928516939874983 1.571107589859315 2.0512631484105435
3.0140104988817256 1.0654504914402005 0.7807305700599908 1.1678294373815348
1.6527358854513334 0.8397476470254336 0.2832112368327125 0.5297770015931871
0.8217140792808771 0.6385464509280676 0.05882149003751926 0.12434613831529019
0.3942784495822777 0.38960879118740394 0.000299333887428324 0.00437032450744538
0.20792291779653302 0.20795087722250938 -2.1449399102669095e-06 -2.581448606613111e-05
0.0910382518406218 0.0910382518406218 0.0 0.0
0.026723002028804572 0.026723002028804572 0.0 0.0
0.004319602320937516 0.004319602320937516 0.0 0.0
0.0020506883816458488 0.0020506883816458488 0.0 0.0
0.018140522032248977 0.018140522032248977 0.0 0.0
0.08250238437379809 0.08250238437379809 0.0 0.0
0.22570509357132376 0.22587606861459353 -2.483493874847635e-05 -0.00014614010452121263
0.4841823691475836 0.4623635913292179 0.005771560262259402 0.016047217556106032
1.043477451098507 0.7102914242122342 0.1078140896802717 0.2253719372060011
2.052165042540861 0.9174696046563217 0.4199475628198792 0.7147478750646605
3.6085015019334765 1.148008795913507 1.0155058539469703 1.4449868520729972
5.782492837037888 1.3897103164045777 1.9589986020733934 2.433783918559919
8.637734790610956 1.655724707224043 3.2914239903070586 3.6905860930798533
12.294714685914693 1.9639271196086185 5.098169840493862 5.232617725812214
16.952220700040932 2.334920311011196 7.514723201393251 7.102577187636482
22.675709105147394 2.780732701978886 10.51618158549781 9.378794817670698
29.92426953952939 3.295732448759715 14.501871450310631 12.126665640459056
38.71947379730392 3.837834707513995 19.502262042070804 15.37937704771913
48.8377744457516 4.291394431945881 25.490380142282213 19.055999871523507
59.55691570322425 4.506170289604295 32.13998349152673 22.91076192209321
69.68332538135701 4.4282913823141055 38.702576239179194 26.5524577598637
76.40419672769664 3.439396111992708 43.708639904686194 29.25616071101772
74.38295669521823 1.7806451681342157 43.495772681442325 29.1065388456417
85.4333243338764 19.50629275451692 39.13448598465895 26.792545594700517
74.38295669521021 1.780645168136323 43.49577268143574 29.106538845638127
76.40419672767554 3.439396111992124 43.70863990467286 29.256160711010597
69.68332538133005 4.428291382315792 38.70257623916067 26.55245775985357
59.55691570319487 4.506170289607047 32.13998349150635 22.91076192208148
48.83777444571811 4.291394431941702 25.49038014226385 19.05599987151255
38.71947379727361 3.8378347075154684 19.50226204205129 15.379377047706862
29.924269539495235 3.2957324487551642 14.501871450292871 12.12666564044719
22.675709105116105 2.7807327019782457 10.516181585479904 9.378794817657951
16.95222070001208 2.334920311009679 7.514723201377807 7.1025771876245924
12.294714685889788 1.963927119606874 5.0981698404811855 5.232617725801732
8.637734790591194 1.6557247072228947 3.291423990297343 3.6905860930709555
5.782492837022708 1.3897103164030646 1.9589986020666794 2.433783918552962
3.608501501922661 1.1480087959117875 1.015505853942859 1.4449868520680151
2.0521650425340208 0.9174696046552132 0.41994756281759205 0.7147478750612157
1.0434774510948734 0.7102914242109377 0.1078140896793889 0.22537193720454685
0.4841823691463726 0.4623635913282836 0.005771560262163815 0.016047217555925135
0.22570509357093005 0.22587606861407653 -2.4834938738645553e-05 -0.00014614010440779668
0.08250238437366193 0.08250238437366193 0.0 0.0
0.01814052203219167 0.01814052203219167 0.0 0.0
0.00205068838164589 0.00205068838164589 0.0 0.0
0.0005307189363700809 0.0005307189363700809 0.0 0.0
0.012901231889433581 0.012901231889433581 0.0 0.0
0.08453709699339315 0.08453709699339315 0.0 0.0
0.2657671140352591 0.26566732624415396 2.7815109518252937e-05 7.197268158698011e-05
0.6190022502382937 0.5608488766620823 0.018628664767566545 0.03952470880864489
1.3178728865039082 0.8347122298983607 0.16523199550251014 0.3179286611030374
2.490746803132446 1.0807764279654244 0.53974899170814 0.8702213834588823
4.260429126884402 1.3817666853511987 1.2151284610404811 1.6635339804927214
6.714470047753551 1.7268373878934253 2.255052129104366 2.7325805307557647
9.99334401413588 2.1493508319415127 3.751133462532706 4.0928597196616625
14.242509585933956 2.6908221588235706 5.784544227171213 5.767143199939165
19.582134258757815 3.3868245719658114 8.385461772315233 7.8098479144767765
26.356872542996147 4.247909242911614 11.817583615927038 10.291379684157492
34.7892472843093 5.2749917365687 16.235329694178777 13.278925853561821
44.90390702830906 6.352442329050954 21.767112658791888 16.784352040466203
56.27581097721775 7.232838430318858 28.346721013818655 20.696251533080225
67.81995272391818 7.591859699074526 35.47310207271767 24.75499095212598
77.98224357131701 7.224958610805858 42.27701509059325 28.480269869917922
85.5131384454696 6.622413859852068 47.584268812336695 31.306455773280824
82.77551533833176 1.8060369593329546 48.89481481580747 32.074663563191294
123.18029091432996 45.878923035231004 46.59994209400583 30.701425785093154
82.77551533832087 1.8060369593327543 48.89481481580045 32.074663563187656
85.51313844544862 6.62241385985546 47.58426881232071 31.306455773272404
77.98224357128555 7.224958610806482 42.277015090572654 28.48026986990645
67.81995272388039 7.591859699071243 35.47310207269552 24.754990952113605
56.275810977174515 7.232838430307552 28.34672101379851 20.69625153306844
44.903907028272286 6.352442329048522 21.767112658770724 16.78435204045302
34.78924728427041 5.2749917365634165 16.235329694158466 13.278925853548557
26.35687254295905 4.247909242906852 11.81758361590801 10.291379684144177
19.58213425872429 3.3868245719616317 8.385461772298422 7.809847914464241
14.24250958590516 2.69082215882002 5.78454422715725 5.7671431999278875
9.993344014112363 2.149350831937181 3.751133462522456 4.09285971965273
6.71447004773621 1.726837387891523 2.2550521290965775 2.7325805307481112
4.260429126871513 1.3817666853484103 1.2151284610357802 1.6635339804873224
2.490746803124646 1.0807764279641239 0.5397489917054341 0.8702213834550877
1.3178728864996279 0.8347122298967381 0.16523199550164583 0.3179286611012445
0.6190022502364968 0.5608488766608511 0.018628664767371062 0.03952470880827439
0.2657671140348876 0.2656673262438316 2.781510951458956e-05 7.197268154134079e-05
0.08453709699326381 0.08453709699326381 0.0 0.0
0.012901231889388663 0.012901231889388663 0.0 0.0
0.0005307189363723092 0.0005307189363723092 0.0 0.0
CELL_DATA 800
SCALARS Stress float 6
LOOKUP_TABLE default
141.72150636160387 -500.7349806102934 -184.57170803920198 -104.72640680093788 0.0 0.0
392.63280971950337 -10.257424765201408 120.37296859157442 61.91762419206589 0.0 0.0
374.53870170910955 3.4022575792018 113.18610178158866 -6.312197921749829 0.0 0.0
436.6420258852837 -5.266027408144626 130.14950106051532 -12.315076808659754 0.0 0.0
507.20517821935897 -10.856907709311159 166.3347806619979 -10.863190824975282 0.0 0.0
574.0083758107401 -1.0711562213543502 228.68221851347982 -9.16150560865039 0.0 0.0
637.9966314236442 7.89569018022296 289.45769907815816 -9.145146639500785 0.0 0.0
701.6038080284997 25.274869841490784 346.28443916487697 -9.94511571055504 0.0 0.0
765.6932591210525 48.64149879254621 398.4347964702658 -10.942759598288177 0.0 0.0
830.6337935774822 76.56351729850655 448.5645948495089 -11.634348143882887 0.0 0.0
896.2072630637215 107.24902369347824 498.1655917671728 -11.940193116880177 0.0 0.0
962.2986875727122 140.66369762228214 548.5233772368973 -11.876669272659342 0.0 0.0
1029.3017138447174 175.11020809057493 599.5183152988402 -11.714528784734048 0.0 0.0
1097.806832637403 211.2487850061015 651.9618917132188 -11.544227745114844 0.0 0.0
1168.5356809463196 250.49300504821264 707.0106491505371 -11.293276818717281 0.0 0.0
1240.9510064845633 293.1707559407322 764.6047344771118 -10.79447930071257 0.0 0.0
1312.6327847870125 338.19659390279753 822.9964577084147 -9.863264644089359 0.0 0.0
1379.535046682503 382.88108685708346 878.7865648506596 -8.359927768288326 0.0 0.0
1437.0879295823545 423.94947764838895 928.0231567324473 -6.753622126243152 0.0 0.0
1492.8618129514387 470.8366379913506 978.8825014074794 -7.198530195958078 0.0 0.0
1492.8618129511378 470.83663799105767 978.8825014072524 7.198530195964348 0.0 0.0
1437.087929582113 423.9494776481714 928.0231567322181 6.753622126283149 0.0 0.0
1379.5350466826915 382.881086857319 878.7865648507336 8.359927768220206 0.0 0.0
1312.6327847869995 338.1965939028508 822.9964577083182 9.863264644150357 0.0 0.0
1240.9510064843391 293.1707559405881 764.6047344768623 10.794479300723243 0.0 0.0
1168.5356809455882 250.49300504757306 707.0106491499778 11.293276818716047 0.0 0.0
1097.8068326368707 211.24878500567792 651.9618917128058 11.5442277451139 0.0 0.0
1029.301713844354 175.1102080903558 599.518315298575 11.714528784671005 0.0 0.0
962.2986875721981 140.6636976219302 548.5233772364571 11.8766692726552 0.0 0.0
896.2072630630747 107.2490236930111 498.1655917666591 11.940193116910793 0.0 0.0
830.6337935766362 76.56351729785963 448.56459484888376 11.634348143916656 0.0 0.0
765.6932591204456 48.64149879214581 398.4347964697969 10.942759598309532 0.0 0.0
701.6038080285268 25.274869841755212 346.2844391648096 9.945115710578216 0.0 0.0
637.9966314232915 7.895690180120333 289.4576990778372 9.145146639519666 0.0 0.0
574.0083758105881 -1.0711562212402654 228.68221851327894 9.161505608705774 0.0 0.0
507.20517821912586 -10.856907709247839 166.33478066183858 10.863190825011891 0.0 0.0
436.6420258850445 -5.266027408137569 130.1495010604561 12.315076808634444 0.0 0.0
374.5387017089944 3.40225757910629 113.18610178152859 6.312197921746964 0.0 0.0
392.6328097193913 -10.257424765217019 120.37296859150182 -61.91762419200283 0.0 0.0
141.7215063621507 -500.73498060977454 -184.57170803867675 104.72640680054636 0.0 0.0
48.6475448242507 -529.6414290639159 -237.04693010781602 -144.73403205879353 0.0 0.0
237.09048964458674 1.3136641494299823 71.521246138205 14.424039296677085 0.0 0.0
329.3892120019549 19.538723063191448 104.67789039321597 -10.303674866183847 0.0 0.0
394.0002196853342 -2.899806431174451 117.29482425110405 -31.78934319507958 0.0 0.0
476.46876677478537 -12.469133496369132 147.20737684245722 -31.235671694017 0.0 0.0
548.2193671330778 -2.8808626272592814 206.6362791492014 -27.48731341428849 0.0 0.0
616.8809195700868 5.776693080945886 270.21526833982284 -27.76851890031206 0.0 0.0
681.4582685562804 21.98543849454522 329.52508144935507 -28.956985192767245 0.0 0.0
744.3211637324873 43.6107116496609 382.3915924283623 -30.372340681821317 0.0 0.0
806.7108984375571 69.17250212747143 431.37017017629677 -31.183756896729726 0.0 0.0
868.8686198758722 97.10255766662368 478.5852681772052 -31.165439612402555 0.0 0.0
931.044996203532 126.12969082986622 525.1342161313638 -30.540970609226797 0.0 0.0
993.3573559184485 156.76557638869065 572.0297966992007 -29.72387486067015 0.0 0.0
1057.2269919999057 188.96261870133702 620.2648632208394 -28.992868716138418 0.0 0.0
1123.0943688998366 223.69477583176916 670.6818894182146 -28.174404063974688 0.0 0.0
1190.3178359005676 261.4681697102979 723.2644140536358 -26.843373713617225 0.0 0.0
1256.9286465048365 301.492349110672 776.6398180003104 -24.633573286386678 0.0 0.0
1319.9418870574682 342.12470008507125 828.4640696101451 -21.415812624687998 0.0 0.0
1378.5472136406158 384.1163995440429 878.6014314806615 -17.727768358405214 0.0 0.0
1419.3798498156984 415.5350622946986 914.5287647311523 -12.603806982820531 0.0 0.0
1419.3798498159413 415.5350622949474 914.528764731311 12.6038069828208 0.0 0.0
1378.547213640854 384.1163995443216 878.6014314808297 17.727768358555817 0.0 0.0
1319.9418870574614 342.12470008511036 828.4640696100853 21.41581262471559 0.0 0.0
1256.9286465042333 301.49234911013696 776.6398179997708 24.633573286442626 0.0 0.0
1190.3178359003864 261.468169710192 723.2644140534666 26.843373713572667 0.0 0.0
1123.0943688994905 223.69477583150922 670.6818894179105 28.174404063910828 0.0 0.0
1057.2269919989285 188.96261870047204 620.2648632200738 28.992868716216403 0.0 0.0
993.3573559176092 156.7655763879868 572.0297966985585 29.723874860721644 0.0 0.0
931.0449962029276 126.129690829428 525.1342161309267 30.540970609290248 0.0 0.0
868.8686198748458 97.10255766575987 478.58526817649687 31.165439612320508 0.0 0.0
806.7108984369735 69.17250212707927 431.3701701758682 31.183756896723594 0.0 0.0
744.3211637321377 43.6107116495373 382.3915924280876 30.37234068189081 0.0 0.0
681.458268556024 21.985438494514376 329.5250814490969 28.956985192731977 0.0 0.0
616.8809195697936 5.77669308092112 270.21526833951236 27.768518900363723 0.0 0.0
548.2193671327817 -2.88086262725939 206.6362791489407 27.48731341433271 0.0 0.0
476.46876677444055 -12.469133496430064 147.20737684227151 31.23567169400788 0.0 0.0
394.0002196851684 -2.8998064311251057 117.29482425107796 31.789343195099793 0.0 0.0
329.38921200178595 19.53872306299845 104.67789039310777 10.303674866209255 0.0 0.0
237.09048964476455 1.3136641496952635 71.52124613833793 -14.424039296815865 0.0 0.0
48.64754482461153 -529.6414290635277 -237.04693010741846 144.7340320585579 0.0 0.0
6.266282458945426 -528.4076065110457 -247.5195273575346 -158.51692482881538 0.0 0.0
138.82741366036464 -3.324174552970309 40.6509717322183 -37.28951862827298 0.0 0.0
268.31451385291876 25.817532484652062 88.23961390127124 -30.055353749003366 0.0 0.0
348.8011961015644 2.4925525665352595 105.37487861311367 -49.85894155909694 0.0 0.0
435.5846407308175 -9.747724344272726 130.28267058706615 -53.49183230439276 0.0 0.0
520.0390214749094 -7.939485548621862 181.13421274064407 -48.42443461796965 0.0 0.0
591.2285290191862 4.682645091911796 247.90649687963707 -46.681792361676415 0.0 0.0
656.7008496484173 18.61958208640335 308.97354868243156 -47.95867747223601 0.0 0.0
719.188242353798 38.59992246531549 363.4226113211679 -49.46240569885449 0.0 0.0
779.2663515153042 61.646650829492906 411.7409888034549 -50.17041435657255 0.0 0.0
838.0307856262344 86.28687064416306 456.57868596481313 -49.79931667270445 0.0 0.0
895.885709775006 111.90684606300431 499.7573938678406 -48.588728340797005 0.0 0.0
954.2531903139361 138.14827635526356 542.7228071121806 -47.29347360812083 0.0 0.0
1013.4748373739526 166.38380378439712 586.7841941475427 -46.061428177253724 0.0 0.0
1074.219271070062 196.4976888271152 632.3986760615983 -44.71797573305405 0.0 0.0
1136.1368109372934 229.0508159841122 679.7597397542554 -42.69748274677842 0.0 0.0
1197.7072492157565 263.8953715506302 728.044063999009 -39.48576679154898 0.0 0.0
1257.8894995134094 301.3821139047068 776.8733950535538 -34.852723917836194 0.0 0.0
1311.8504139283568 338.1215542502751 822.1170929720843 -28.29682846321792 0.0 0.0
1347.817532318455 363.7171995492161 852.760135773455 -17.58080158984908 0.0 0.0
1347.8175323185176 363.7171995492931 852.7601357734849 17.580801589920938 0.0 0.0
1311.8504139282127 338.1215542501655 822.117092971944 28.29682846334366 0.0 0.0
1257.8894995132687 301.382113904619 776.873395053381 34.85272391792354 0.0 0.0
1197.7072492156462 263.895371550591 728.0440639988623 39.48576679160232 0.0 0.0
1136.1368109367986 229.05081598369304 679.7597397537994 42.69748274679573 0.0 0.0
1074.219271069333 196.49768882646316 632.3986760610254 44.717975733034 0.0 0.0
1013.4748373735914 166.38380378415644 586.7841941472623 46.0614281773243 0.0 0.0
954.2531903136063 138.1482763550854 542.7228071118869 47.293473608205574 0.0 0.0
895.8857097749549 111.9068460631186 499.7573938677363 48.5887283407952 0.0 0.0
838.0307856261312 86.28687064423539 456.57868596466994 49.799316672677946 0.0 0.0
779.2663515147549 61.646650829129726 411.7409888030206 50.1704143565446 0.0 0.0
719.1882423532111 38.59992246494351 363.42261132073196 49.46240569889645 0.0 0.0
656.7008496480677 18.619582086301712 308.97354868209834 47.958677472271155 0.0 0.0
591.2285290187176 4.682645091703993 247.90649687922738 46.68179236167518 0.0 0.0
520.03902147447 -7.939485548771534 181.13421274032055 48.424434617984375 0.0 0.0
435.5846407306155 -9.747724344085572 130.2826705870307 53.491832304357395 0.0 0.0
348.8011961015436 2.4925525668048945 105.37487861319097 49.85894155899 0.0 0.0
268.31451385288676 25.817532484748128 88.23961390129045 30.055353748939314 0.0 0.0
138.8274136605316 -3.324174552703561 40.6509717323484 37.28951862808724 0.0 0.0
6.266282459210288 -528.4076065107108 -247.51952735717765 158.5169248286116 0.0 0.0
-8.319873332506873 -510.0974423794478 -234.73438688802725 -161.26822040610764 0.0 0.0
82.01212899483902 -13.407999242915718 20.581238925576983 -81.12605922153125 0.0 0.0
209.61856963535607 26.375694924451786 70.79827936794234 -56.627779545448824 0.0 0.0
299.65942548535077 6.646329144740404 91.88366157240849 -69.2315406823062 0.0 0.0
385.2783953517062 -6.211548187001686 114.1532691919097 -76.56795995269371 0.0 0.0
478.2615248385174 -10.059527857137793 155.39368129410576 -71.57703419209533 0.0 0.0
557.8496828645095 1.5796762125893942 219.88831223438095 -66.62209839020522 0.0 0.0
627.0216279021345 15.908313477926061 284.58411785916485 -67.19779815932549 0.0 0.0
689.2228521747959 33.391942911698564 340.4413425982299 -68.22858803138018 0.0 0.0
747.3483671608354 53.79955392351584 388.72047731862745 -68.63601474270163 0.0 0.0
802.9968267280934 75.29320059392461 431.82760515873633 -67.85109331961023 0.0 0.0
857.3138173629068 97.30412603025965 472.1802952085976 -66.13615763544101 0.0 0.0
911.0606934111257 119.68789885464798 511.2751934517387 -64.36552458871088 0.0 0.0
966.1355530930008 143.65382178311216 551.3316230471621 -62.784782046915836 0.0 0.0
1021.98413335891 168.92244213449143 592.1893002152959 -60.98452340698371 0.0 0.0
1078.0018408425663 196.1961006875496 634.0064100825225 -58.37554196844846 0.0 0.0
1134.8091840879733 225.98834460714681 677.4046385983916 -54.471741558001575 0.0 0.0
1190.7242965442886 258.49131795454247 721.6400617325605 -48.4934720405566 0.0 0.0
1240.8533073907922 290.1750791892226 762.4825676318637 -38.93627573782112 0.0 0.0
1274.922451534788 312.2490108422319 790.4396281634823 -22.88735663883603 0.0 0.0
1274.9224515344367 312.249010841892 790.4396281632185 22.887356638888374 0.0 0.0
1240.8533073904575 290.17507918892716 762.4825676315417 38.93627573796576 0.0 0.0
1190.724296544439 258.4913179547581 721.640061732607 48.49347204066714 0.0 0.0
1134.8091840876589 225.98834460690938 677.4046385981122 54.47174155809826 0.0 0.0
1078.001840842347 196.1961006874016 634.006410082318 58.375541968427136 0.0 0.0
1021.9841333588183 168.92244213450175 592.1893002151376 60.98452340702539 0.0 0.0
966.1355530930578 143.65382178329074 551.3316230471313 62.78478204695284 0.0 0.0
911.0606934106152 119.68789885429021 511.27519345135664 64.36552458879635 0.0 0.0
857.3138173620054 97.30412602949797 472.18029520797535 66.13615763543488 0.0 0.0
802.9968267274737 75.29320059348026 431.82760515827835 67.8510933196055 0.0 0.0
747.348367160398 53.79955392325028 388.720477318283 68.63601474262722 0.0 0.0
689.2228521743361 33.391942911453455 340.4413425978445 68.22858803139994 0.0 0.0
627.0216279019169 15.908313477990198 284.58411785893236 67.19779815933643 0.0 0.0
557.8496828643598 1.579676212741557 219.88831223417034 66.62209839011679 0.0 0.0
478.2615248380554 -10.059527857255109 155.393681293835 71.57703419211128 0.0 0.0
385.2783953513737 -6.211548186981968 114.15326919182702 76.56795995265993 0.0 0.0
299.65942548519695 6.646329144741021 91.88366157236388 69.2315406821842 0.0 0.0
209.61856963544784 26.375694924637536 70.79827936802562 56.62777954533993 0.0 0.0
82.0121289949631 -13.407999242636828 20.58123892569788 81.12605922134125 0.0 0.0
-8.319873332341942 -510.0974423790803 -234.73438688768806 161.26822040600686 0.0 0.0
-9.794193496767392 -481.92218791376376 -210.01571101581678 -159.81066593249426 0.0 0.0
47.80567806317464 -23.354270954696187 7.335422132543533 -115.00672668722405 0.0 0.0
158.0452882900596 23.415221283153297 54.438152871963865 -83.98960720951784 0.0 0.0
247.9452173114057 9.739859465632511 77.30552303311146 -89.63687493798722 0.0 0.0
329.772606415107 -2.1846354644184602 98.2606387964526 -98.25572674503834 0.0 0.0
425.050497378231 -10.109857033054556 130.6704973537328 -97.09794296756206 0.0 0.0
516.3684696437058 -2.7104297644678477 187.78213333950083 -89.43277671433154 0.0 0.0
590.7916128194406 12.843619485132027 254.70762481805133 -86.52489191049382 0.0 0.0
653.3776147544083 28.214620074773237 312.4845506539747 -86.85127244725106 0.0 0.0
710.2052026117506 45.69970981152932 361.4297278129708 -86.66942096162187 0.0 0.0
763.2477911590743 64.0204661914077 403.57867745471253 -85.40335798928844 0.0 0.0
813.8454850663228 82.41689824568218 441.42324499419493 -83.17607048133782 0.0 0.0
863.8394645587485 101.11751731872826 477.4520965257409 -81.07377534841025 0.0 0.0
913.8312252669215 120.86366592549669 513.1856150731566 -79.10519703633578 0.0 0.0
964.632526859845 141.39845315702246 549.3188780695921 -76.94778333983476 0.0 0.0
1016.1084784918519 163.3218976862655 586.282543363955 -74.00204680730066 0.0 0.0
1067.0715280597753 187.37331731929174 623.9331308925961 -69.53168158717294 0.0 0.0
1117.9023886696114 213.9605966674759 662.7086067675906 -62.38232883155649 0.0 0.0
1164.7897473957464 240.51175297474802 699.4073509173106 -50.06054576399786 0.0 0.0
1198.721160640143 259.97266785796785 725.999518454395 -28.93412786211305 0.0 0.0
1198.7211606402118 259.9726678580507 725.9995184544299 28.93412786219001 0.0 0.0
1164.789747396288 240.51175297536096 699.4073509177449 50.06054576418005 0.0 0.0
1117.902388669077 213.96059666698562 662.7086067672136 62.38232883162809 0.0 0.0
1067.07152805927 187.37331731886016 623.9331308922172 69.53168158726868 0.0 0.0
1016.1084784912447 163.32189768572428 586.2825433634558 74.00204680729746 0.0 0.0
964.6325268594541 141.39845315675626 549.3188780692825 76.94778333994765 0.0 0.0
913.8312252663641 120.86366592502318 513.1856150727057 79.1051970363038 0.0 0.0
863.8394645585731 101.1175173187012 477.4520965256019 81.07377534846678 0.0 0.0
813.8454850661518 82.41689824567624 441.4232449940252 83.17607048133453 0.0 0.0
763.2477911586471 64.02046619111007 403.57867745436045 85.40335798918514 0.0 0.0
710.2052026112793 45.699709811205835 361.42972781258425 86.66942096152422 0.0 0.0
653.3776147538035 28.21462007438071 312.4845506535046 86.85127244722631 0.0 0.0
590.7916128190079 12.843619484982192 254.70762481766604 86.52489191050836 0.0 0.0
516.3684696431387 -2.7104297647381657 187.78213333908582 89.43277671434544 0.0 0.0
425.05049737774925 -10.10985703319744 130.67049735349696 97.09794296750974 0.0 0.0
329.7726064149477 -2.1846354641898778 98.26063879648035 98.25572674494472 0.0 0.0
247.94521731127733 9.739859465699507 77.30552303309305 89.63687493790181 0.0 0.0
158.0452882901298 23.415221283256574 54.438152872015905 83.98960720935344 0.0 0.0
47.80567806318105 -23.35427095459584 7.335422132575559 115.00672668699987 0.0 0.0
-9.794193496728951 -481.922187913477 -210.0157110155436 159.8106659324325 0.0 0.0
-5.608653214255995 -447.31269583232427 -179.91827884350977 -156.7882713673042 0.0 0.0
25.13571969960558 -31.762044788742237 -1.9878975267409968 -139.8639373808233 0.0 0.0
113.30523431224852 18.795955954809823 39.6303570801175 -108.84933806434422 0.0 0.0
195.825643396031 12.196838590925154 62.40674459608685 -109.47766182392144 0.0 0.0
271.42716590791395 0.34469666074677385 81.48900059325373 -118.56106270494321 0.0 0.0
356.63773674043813 -7.827112962965986 106.9273517396474 -121.893409129091 0.0 0.0
456.06178845366344 -5.0076806534249485 153.60584061153793 -115.44944424134121 0.0 0.0
541.7581435931629 7.763386666793835 216.79241608460944 -107.99591039378402 0.0 0.0
609.8752196348045 22.774263853497118 277.8954331567836 -105.59335567182609 0.0 0.0
666.3272147495394 37.501367635352615 328.2679807052402 -104.39633244842233 0.0 0.0
716.8970270754488 52.30327208052523 370.039084839861 -102.49810781959526 0.0 0.0
764.5010962238149 67.31145568579001 406.5007624534419 -99.84186722820688 0.0 0.0
810.5437619493681 82.52831433541846 439.9157374625631 -97.35339530419871 0.0 0.0
856.2141016669786 98.02408100123151 472.0016675896894 -95.17101839095513 0.0 0.0
902.095813904806 113.79865576822073 503.61506729558573 -92.77264602073654 0.0 0.0
947.7167548662098 130.82916615007494 535.3421258610258 -89.43635240350415 0.0 0.0
993.4749961071947 148.58644058203924 567.3333212906747 -84.65053935696419 0.0 0.0
1038.5766169919812 167.968449096132 599.7111849034898 -76.64906016457567 0.0 0.0
1081.881713550757 188.83159514290077 631.8290655055088 -62.00652184034083 0.0 0.0
1117.0835155083798 205.9878452345082 657.9131214799845 -36.159936490812164 0.0 0.0
1117.0835155084433 205.98784523461228 657.913121480052 36.15993649100606 0.0 0.0
1081.8817135512413 188.83159514349032 631.8290655058438 62.006521840605934 0.0 0.0
1038.57661699167 167.9684490959059 599.7111849032158 76.64906016472318 0.0 0.0
993.474996106761 148.5864405816731 567.3333212903295 84.65053935701967 0.0 0.0
947.7167548661375 130.82916615008844 535.3421258609153 89.4363524035468 0.0 0.0
902.0958139049843 113.79865576856783 503.61506729567446 92.77264602087143 0.0 0.0
856.2141016665568 98.02408100089112 472.00166758934375 95.17101839094086 0.0 0.0
810.5437619491302 82.52831433534307 439.9157374623602 97.35339530428371 0.0 0.0
764.5010962232134 67.31145568535769 406.5007624530121 99.8418672282589 0.0 0.0
716.8970270743605 52.303272079568 370.0390848390683 102.49810781956003 0.0 0.0
666.3272147492563 37.50136763525352 328.26798070496295 104.39633244836563 0.0 0.0
609.8752196346845 22.774263853709023 277.89543315663616 105.59335567190602 0.0 0.0
541.7581435925081 7.763386666384317 216.7924160841086 107.99591039376611 0.0 0.0
456.0617884531444 -5.007680653613011 153.60584061120773 115.4494442412931 0.0 0.0
356.63773673999754 -7.827112963024348 106.92735173949058 121.89340912897998 0.0 0.0
271.42716590768936 0.34469666065776483 81.48900059316145 118.56106270478784 0.0 0.0
195.8256433959993 12.196838591082347 62.40674459612448 109.4776618237848 0.0 0.0
113.30523431221275 18.795955954818897 39.63035708010949 108.84933806417556 0.0 0.0
25.13571969961919 -31.762044788614407 -1.9878975266985635 139.8639373805799 0.0 0.0
-5.6086532141848195 -447.31269583201095 -179.91827884323433 156.78827136720872 0.0 0.0
0.014990482258596671 -407.4194255214195 -148.17627586030662 -152.97925067211042 0.0 0.0
7.482463942877335 -39.61851033184951 -9.640813916691648 -157.20908280097552 0.0 0.0
73.77654294675807 14.070747765129564 26.354187213566288 -129.7345128632785 0.0 0.0
144.74289851200655 14.154127528944054 47.669107812285176 -127.64703503635626 0.0 0.0
210.42693721603277 2.2644671998020085 63.80000127336638 -136.8048364470307 0.0 0.0
284.034185581179 -4.793697021389737 84.25377613986764 -144.31526964523783 0.0 0.0
378.17538833440705 -4.995379301499154 119.23284709672546 -142.34568660067538 0.0 0.0
473.284332192817 3.090464723897931 172.78697402005628 -132.97319779714246 0.0 0.0
551.2663333354409 15.937895405870592 232.9009625326835 -125.78103295070147 0.0 0.0
612.1105092347291 29.092860060312855 286.2626537944101 -122.16588602369094 0.0 0.0
661.2592533859375 40.22499124940832 328.4857562503673 -119.32866829793906 0.0 0.0
706.4465543716091 51.98357691040384 364.7577945218592 -116.19095112658853 0.0 0.0
749.0019983531621 63.61798443934193 396.5735391539916 -113.39507530598928 0.0 0.0
790.2748606016057 75.37795593064094 425.8723829011815 -110.96093716854436 0.0 0.0
830.649130892277 86.35529260426095 453.0523308624426 -108.43632944762022 0.0 0.0
871.8157321147359 98.40892161868875 480.40127020646327 -104.98217767160446 0.0 0.0
911.6487029597106 110.20859587411917 506.6124409581872 -99.69250604253637 0.0 0.0
949.8814299447298 121.47538543930203 531.6309841401816 -91.19978977311283 0.0 0.0
989.2828997425922 134.46271964953132 557.9624115864445 -75.17951747203692 0.0 0.0
1027.3454692837047 149.14488040219868 584.2660234113964 -45.23975091924858 0.0 0.0
1027.3454692835242 149.1448804020429 584.2660234112913 45.23975091938705 0.0 0.0
989.2828997427287 134.46271964973974 557.9624115866005 75.17951747219864 0.0 0.0
949.8814299450216 121.47538543971575 531.6309841403972 91.19978977332855 0.0 0.0
911.648702959614 110.20859587411144 506.61244095809786 99.69250604262037 0.0 0.0
871.8157321144831 98.40892161854931 480.4012702062866 104.9821776716773 0.0 0.0
830.6491308924179 86.355292604516 453.0523308625534 108.43632944767765 0.0 0.0
790.2748606015563 75.3779559307411 425.87238290115835 110.96093716862148 0.0 0.0
749.0019983528398 63.61798443917218 396.5735391537274 113.39507530604946 0.0 0.0
706.4465543713354 51.98357691027954 364.75779452160117 116.19095112660116 0.0 0.0
661.2592533857758 40.22499124948224 328.48575625022534 119.32866829797558 0.0 0.0
612.1105092346031 29.092860060365638 286.26265379421585 122.16588602360963 0.0 0.0
551.2663333354657 15.937895406279917 232.90096253264096 125.78103295072731 0.0 0.0
473.28433219269675 3.090464724233179 172.7869740199491 132.9731977971686 0.0 0.0
378.17538833402926 -4.995379301459209 119.23284709656029 142.3456866006096 0.0 0.0
284.0341855808945 -4.793697021397325 84.25377613977808 144.31526964511133 0.0 0.0
210.42693721590632 2.264467199950052 63.800001273379465 136.80483644682505 0.0 0.0
144.742898511994 14.154127529060679 47.6691078123164 127.64703503615343 0.0 0.0
73.77654294675462 14.070747765274481 26.354187213608725 129.73451286305217 0.0 0.0
7.482463942821024 -39.61851033189194 -9.640813916721273 157.2090828008047 0.0 0.0
0.014990482245757164 -407.4194255210972 -148.17627586009095 152.97925067204488 0.0 0.0
2.228340253842994 -363.91295028237255 -119.99646912934293 -148.80814306897778 0.0 0.0
-9.129737624181743 -46.95430402022552 -16.825196000700647 -167.648238217669 0.0 0.0
38.17883514123323 10.247571662968113 14.527922041260402 -146.53002952059052 0.0 0.0
95.11354139025825 15.377153741030227 33.14720853938654 -143.15421273266057 0.0 0.0
148.14253795855342 5.041860431986713 45.94860036468188 -151.86684923423272 0.0 0.0
204.7976463792619 -2.675594895199867 60.84598652620181 -162.74917074788158 0.0 0.0
280.1689638450804 -3.0237376119568196 85.53198367724195 -166.89073003211595 0.0 0.0
377.45459485119585 0.9332647775464284 125.29493242568498 -160.84823112783198 0.0 0.0
466.8978424462261 8.435335532769514 176.27429788062494 -149.93400755537033 0.0 0.0
536.1423365343439 19.666083866519024 229.2852685169909 -141.13832524873385 0.0 0.0
589.6189436257166 27.746406029663433 273.39724865447533 -136.7069889584356 0.0 0.0
632.8436210412801 36.00099305985475 310.0567425990391 -132.4770995600621 0.0 0.0
672.7065912612243 44.69000556644724 342.1121490410004 -129.30434053936196 0.0 0.0
710.0690778147723 52.56769372056763 370.03372451480595 -126.6542059256791 0.0 0.0
746.0986551196956 59.54160154688401 394.8389118763403 -124.1107589651508 0.0 0.0
781.3194300042511 65.91562301862726 417.3736555038585 -120.62766402623393 0.0 0.0
817.0857364593986 72.38993521499955 439.3200788792413 -114.95785481984748 0.0 0.0
849.1366651677356 75.81421512320836 457.67650749560124 -105.78621300864532 0.0 0.0
880.4599595589128 77.23724998206711 474.47584542945145 -89.49726575438298 0.0 0.0
921.6663699783757 87.43044467472721 500.14433711019893 -57.06806826144065 0.0 0.0
921.6663699781323 87.43044467451986 500.14433711004284 57.06806826161963 0.0 0.0
880.4599595586958 77.2372499819848 474.4758454293217 89.49726575465333 0.0 0.0
849.1366651673319 75.81421512296089 457.6765074953 105.78621300893582 0.0 0.0
817.0857364587879 72.38993521449669 439.32007887873937 114.95785482000451 0.0 0.0
781.3194300036939 65.91562301813927 417.37365550339626 120.62766402628662 0.0 0.0
746.0986551195945 59.541601546930934 394.8389118762392 124.11075896521584 0.0 0.0
710.0690778144372 52.56769372032265 370.03372451456346 126.65420592568893 0.0 0.0
672.7065912607037 44.690005565957776 342.1121490406164 129.304340539346 0.0 0.0
632.843621040891 36.00099305960235 310.0567425987368 132.47709956009004 0.0 0.0
589.6189436252814 27.746406029497102 273.3972486541266 136.7069889585117 0.0 0.0
536.1423365339641 19.666083866310217 229.28526851664245 141.13832524863395 0.0 0.0
466.8978424457842 8.435335532669392 176.274297880321 149.9340075554294 0.0 0.0
377.4545948506742 0.9332647774628224 125.29493242543666 160.8482311278711 0.0 0.0
280.1689638448413 -3.0237376117263413 85.53198367722291 166.89073003201747 0.0 0.0
204.79764637920033 -2.675594894935056 60.84598652626225 162.74917074771952 0.0 0.0
148.14253795848146 5.041860432057859 45.9486003646827 151.86684923400674 0.0 0.0
95.11354139018351 15.3771537409982 33.14720853935451 143.1542127324727 0.0 0.0
38.178835141207614 10.247571662993733 14.5279220412604 146.53002952035996 0.0 0.0
-9.129737624234266 -46.95430402024769 -16.825196000723096 167.64823821749877 0.0 0.0
2.2283402538075876 -363.91295028205275 -119.99646912918232 148.80814306883917 0.0 0.0
-4.450933642368213 -318.0461657222913 -100.12659684420575 -141.93489896834086 0.0 0.0
-25.84422411090781 -53.59947144854026 -23.83186837831635 -174.32750413161608 0.0 0.0
5.625620370744646 7.615110096621266 3.9722191402097735 -159.02947996002325 0.0 0.0
47.09653863437515 16.05631849516496 18.9447434153616 -155.33531708803363 0.0 0.0
85.22220202401935 8.213046694478294 28.027503640707785 -163.0798300783638 0.0 0.0
123.07379102084784 0.32096793265020707 37.05017751197917 -176.2086903282006 0.0 0.0
170.46935735099348 -1.823101026927851 51.546856466225755 -185.44926285068476 0.0 0.0
238.7796820514222 0.9810572023694668 75.48620115084944 -185.43766349003226 0.0 0.0
329.26017987154114 4.561261936318715 110.12765872359019 -178.34469986983387 0.0 0.0
412.99572929261626 8.94373911439546 151.506779581845 -165.37182891750263 0.0 0.0
476.61439898093926 15.56043431664883 193.56770715855973 -155.82107048287116 0.0 0.0
523.0463286498065 19.472405179480333 229.1070329679616 -150.03721593001055 0.0 0.0
562.7610349776877 25.249506534340213 261.91094606473797 -145.87996704775168 0.0 0.0
597.7134625843379 29.85705387081247 290.7297161527436 -142.57292749266946 0.0 0.0
629.3671423900026 32.879082507139664 315.26121836114396 -139.74728470833418 0.0 0.0
659.3984327804444 34.07113120202764 335.81560023787836 -136.41762189604958 0.0 0.0
690.5156050378752 33.74682423183978 353.9667407723008 -130.73414085309685 0.0 0.0
723.4411181251942 32.785634759954235 371.62451025674244 -120.3994212515649 0.0 0.0
746.1471126805759 19.221410588460515 377.9266326378739 -104.24885482985917 0.0 0.0
786.7258161214493 16.28903212603798 396.8692661472087 -72.82894448681404 0.0 0.0
786.725816121191 16.28903212581696 396.86926614705243 72.82894448697584 0.0 0.0
746.1471126798833 19.221410587892365 377.9266326374505 104.24885483021228 0.0 0.0
723.4411181247216 32.78563475960971 371.62451025639893 120.39942125186363 0.0 0.0
690.515605037531 33.74682423167212 353.9667407720668 130.7341408532746 0.0 0.0
659.398432780302 34.07113120199763 335.8156002377374 136.41762189609395 0.0 0.0
629.3671423899091 32.87908250716815 315.26121836107603 139.74728470834864 0.0 0.0
597.713462583944 29.857053870407483 290.72971615243296 142.572927492689 0.0 0.0
562.7610349773184 25.249506534017364 261.9109460644528 145.87996704780733 0.0 0.0
523.046328649612 19.47240517944182 229.10703296775745 150.03721593003056 0.0 0.0
476.61439898078356 15.560434316805718 193.5677071584336 155.821070482876 0.0 0.0
412.9957292921624 8.943739114096214 151.50677958152949 165.37182891734398 0.0 0.0
329.2601798710091 4.561261935961886 110.1276587232787 178.3446998698404 0.0 0.0
238.77968205082766 0.9810572019175563 75.48620115052204 185.4376634900225 0.0 0.0
170.4693573508888 -1.8231010267812637 51.546856466232455 185.4492628505622 0.0 0.0
123.07379102069068 0.32096793253488 37.05017751189778 176.20869032796602 0.0 0.0
85.22220202390308 8.213046694284456 28.027503640615425 163.07983007819487 0.0 0.0
47.09653863440353 16.056318495312407 18.944743415414756 155.33531708791875 0.0 0.0
5.625620370793751 7.615110096764314 3.9722191402674194 159.02947995986744 0.0 0.0
-25.84422411090969 -53.59947144856466 -23.83186837832476 174.3275041314892 0.0 0.0
-4.4509336424368 -318.0461657219994 -100.12659684410987 141.93489896819344 0.0 0.0
-13.62734256732602 -271.80602952346266 -85.75031391231687 -132.2611868523518 0.0 0.0
-40.72484695824737 -57.80800732914517 -29.55744220288852 -177.53274371649675 0.0 0.0
-24.680650597179266 5.5313694617266504 -5.744631715728962 -167.5181266798272 0.0 0.0
0.7381263890058305 16.485051399738943 5.166723630754427 -163.6285104540721 0.0 0.0
22.2979790691874 11.2160651117285 10.052338683839714 -170.0927524723228 0.0 0.0
39.407049543677715 4.1344547682754325 13.079504937703192 -183.2720010419273 0.0 0.0
56.8478534842775 0.31848337943856553 17.442121490288283 -195.2124063025991 0.0 0.0
80.57460507096194 0.04440351960725586 25.069874318773262 -201.32178792081035 0.0 0.0
114.28469634204215 1.7042998261787012 36.93364623543001 -197.16065081653215 0.0 0.0
156.35283486454165 2.773514733020283 51.83022917524375 -189.07492674732825 0.0 0.0
207.2316469627217 5.566946524454174 71.18343159620598 -177.64755719789164 0.0 0.0
254.26415124491547 5.7226492575803825 90.60248479767473 -170.15853518510204 0.0 0.0
295.52303510716615 7.780386463665536 112.64551698507425 -164.44777096718224 0.0 0.0
335.88919818469896 9.781331219987237 136.7682590380846 -160.28754039602813 0.0 0.0
375.6920312138527 7.765897389295247 161.3383828029334 -156.34721925017345 0.0 0.0
411.7850204176668 3.1732519800318357 183.84244489561928 -152.21070817607884 0.0 0.0
449.16401757558396 -4.891402134523119 204.2033840914948 -146.56412335275604 0.0 0.0
495.26999199860904 -13.326845198337324 228.16475159899358 -137.01329853625825 0.0 0.0
544.6229031985621 -26.73105002565208 251.70603757807336 -117.79195292552802 0.0 0.0
568.8493601052668 -77.3891757086358 242.284135985567 -90.77477548501966 0.0 0.0
568.8493601056138 -77.38917570822562 242.28413598580414 90.77477548523035 0.0 0.0
544.6229031984308 -26.731050025614365 251.70603757803403 117.79195292591751 0.0 0.0
495.26999199842044 -13.32684519859832 228.16475159885968 137.01329853656355 0.0 0.0
449.1640175754229 -4.8914021346716225 204.20338409140237 146.5641233528459 0.0 0.0
411.7850204174774 3.1732519797986924 183.8424448954866 152.21070817606767 0.0 0.0
375.69203121381213 7.765897389252359 161.33838280287796 156.34721925018422 0.0 0.0
335.88919818471607 9.781331220050916 136.7682590380942 160.28754039610564 0.0 0.0
295.52303510743667 7.780386464063813 112.64551698523084 164.44777096733043 0.0 0.0
254.26415124480383 5.7226492574617005 90.6024847975929 170.15853518510232 0.0 0.0
207.2316469625996 5.56694652438777 71.18343159612384 177.64755719785907 0.0 0.0
156.35283486493293 2.7735147341260866 51.8302291756826 189.0749267472808 0.0 0.0
114.28469634224855 1.704299826774042 36.93364623566213 197.16065081653997 0.0 0.0
80.574605070843 0.04440351943702758 25.069874318680785 201.32178792076724 0.0 0.0
56.84785348418264 0.3184833792679562 17.44212149020679 195.21240630248187 0.0 0.0
39.40704954368405 4.13445476827944 13.079504937706737 183.2720010416759 0.0 0.0
22.297979069274643 11.216065111790554 10.052338683884706 170.0927524721384 0.0 0.0
0.738126388954444 16.485051399582126 5.166723630692008 163.62851045384804 0.0 0.0
-24.680650597181696 5.531369461675784 -5.74463171574506 167.5181266795979 0.0 0.0
-40.72484695821697 -57.80800732909495 -29.55744220286506 177.5327437163612 0.0 0.0
-13.62734256739127 -271.80602952319407 -85.75031391226602 132.2611868521788 0.0 0.0
-21.28013584231846 -227.19143286658215 -74.53507008651243 -120.90525060891008 0.0 0.0
-52.882315527822726 -58.297759716287686 -33.35210342273754 -176.77741329907786 0.0 0.0
-52.97369699528241 3.595589924170656 -14.8129043077287 -171.9888092951507 0.0 0.0
-44.01398074077063 16.66712715470192 -8.203478442102377 -167.81898692751062 0.0 0.0
-39.96716694331315 13.886837649975078 -7.819813454582947 -172.4646501965267 0.0 0.0
-44.47318904959006 7.932739948042351 -10.972098517075889 -184.30048666639775 0.0 0.0
-57.81919617662845 2.981435286660642 -16.7453117810889 -195.29950528243387 0.0 0.0
-80.38304768459224 0.46021135261392043 -24.86033899960834 -201.41088151202882 0.0 0.0
-113.93770258518902 -1.7891574018898488 -36.84780111273048 -197.15484133776852 0.0 0.0
-156.09455141726977 -2.861174810672413 -51.770869094558776 -189.0563190322983 0.0 0.0
-207.26090196162625 -5.201246335153645 -70.96043822313445 -177.6659376397099 0.0 0.0
-254.75909061199894 -4.937799638490201 -90.4977415151001 -169.9660406034719 0.0 0.0
-297.76487288865053 -6.853882504091935 -113.1810120005903 -164.0671842560458 0.0 0.0
-340.50231677437023 -9.755832504456464 -138.7659701834163 -159.9445679174108 0.0 0.0
-379.414660636349 -14.34722053013325 -165.65384364578355 -157.13854325112732 0.0 0.0
-404.9917653911146 -23.81986814818616 -189.83003937348235 -156.49188137226915 0.0 0.0
-404.77265114626334 -34.1869055076191 -203.38384124919193 -158.10206937068963 0.0 0.0
-353.51407941959224 -42.50376767630546 -196.8523301824977 -161.06142540949244 0.0 0.0
-188.28355098073587 -37.24478794120553 -124.65797069140251 -161.05285891123748 0.0 0.0
32.96009936559345 -163.77473776667003 -56.41099025452228 -119.60525264397383 0.0 0.0
32.960099365670004 -163.77473776649236 -56.41099025444993 119.60525264438715 0.0 0.0
-188.2835509805513 -37.24478794075441 -124.65797069126094 161.05285891169663 0.0 0.0
-353.51407941889147 -42.50376767512354 -196.85233018190962 161.061425409749 0.0 0.0
-404.77265114603233 -34.18690550741469 -203.38384124898283 158.10206937072462 0.0 0.0
-404.99176539110954 -23.819868148593486 -189.83003937355278 156.49188137232147 0.0 0.0
-379.4146606355861 -14.34722052925077 -165.6538436452226 157.138543251102 0.0 0.0
-340.50231677412347 -9.755832504569064 -138.76597018329392 159.94456791746853 0.0 0.0
-297.7648728884373 -6.853882504510459 -113.18101200058618 164.06718425613332 0.0 0.0
-254.75909061132927 -4.937799638069087 -90.49774151471976 169.9660406034135 0.0 0.0
-207.26090196088649 -5.201246334714217 -70.9604382227524 177.6659376396766 0.0 0.0
-156.0945514166603 -2.8611748104154344 -51.77086909428026 189.05631903222303 0.0 0.0
-113.93770258475706 -1.7891574015403506 -36.84780111248499 197.15484133780814 0.0 0.0
-80.38304768423168 0.46021135288546144 -24.860338999414722 201.41088151199057 0.0 0.0
-57.819196176334216 2.9814352869661978 -16.7453117809046 195.29950528231774 0.0 0.0
-44.47318904935863 7.932739948334243 -10.972098516919207 184.3004866661581 0.0 0.0
-39.96716694317899 13.886837650054703 -7.819813454519174 172.46465019638254 0.0 0.0
-44.013980740792604 16.667127154446543 -8.203478442185844 167.81898692735322 0.0 0.0
-52.973696995222895 3.5955899242181806 -14.812904307696973 171.9888092949595 0.0 0.0
-52.882315527855546 -58.29775971630756 -33.35210342275424 176.77741329890998 0.0 0.0
-21.2801358423225 -227.19143286636802 -74.53507008645101 120.90525060871924 0.0 0.0
-23.5861443232116 -184.83204449334238 -62.525456644966184 -108.60109363054225 0.0 0.0
-62.96292722058156 -56.05631508760767 -35.705428979817 -172.1778801564947 0.0 0.0
-79.2813926063371 2.0418960886716264 -23.170892053893528 -172.2505260995989 0.0 0.0
-87.19350401205706 16.44754096447276 -21.218055883827606 -167.81623530295496 0.0 0.0
-100.96794088832124 16.039394109930303 -25.47312698308229 -169.96832019254174 0.0 0.0
-127.19315087840641 11.068755109583972 -34.99149756434911 -178.63118312587983 0.0 0.0
-171.28333982545303 4.985553718376728 -50.857934342557755 -186.36537596944675 0.0 0.0
-238.55799216448966 -0.5265990769636462 -75.28359584970403 -185.58628394796244 0.0 0.0
-328.9036961135593 -4.697374709301229 -110.0538065627843 -178.31642368554236 0.0 0.0
-412.82775085345577 -8.955601573539958 -151.43101472140836 -165.32697512427222 0.0 0.0
-476.4572905419603 -15.308731262913092 -193.42480060929296 -155.7301583574922 0.0 0.0
-522.9521749569642 -18.77667659693821 -228.83814471598345 -149.71524174462078 0.0 0.0
-563.0140089410595 -24.211307385409384 -261.65217970523696 -145.13553480085147 0.0 0.0
-599.5741692479747 -30.290495975652867 -291.7883011584729 -141.79596684555673 0.0 0.0
-634.572374331706 -39.055390943430154 -320.42776770163704 -140.62571456036542 0.0 0.0
-666.917504988299 -51.47197724873557 -347.4063392259875 -142.602389791727 0.0 0.0
-694.5756410083545 -68.65947102513877 -372.8948748302362 -148.93044585669975 0.0 0.0
-712.6861377573746 -89.24311891873359 -394.49491609614876 -159.69895861825844 0.0 0.0
-747.1404523835929 -143.60996265992043 -437.48200534197434 -169.4444632708912 0.0 0.0
-716.4610239597305 -202.74419516297627 -446.94763087817046 -175.07187181302524 0.0 0.0
-716.4610239593721 -202.74419516270893 -446.9476308779839 175.0718718132713 0.0 0.0
-747.1404523836156 -143.6099626602218 -437.48200534207166 169.44446327123185 0.0 0.0
-712.6861377569446 -89.24311891849038 -394.4949160958914 159.69895861849184 0.0 0.0
-694.5756410082529 -68.65947102511927 -372.89487483014125 148.9304458567471 0.0 0.0
-666.9175049885192 -51.47197724920345 -347.40633922614745 142.60238979184584 0.0 0.0
-634.5723743314616 -39.05539094332234 -320.42776770144826 140.62571456038975 0.0 0.0
-599.5741692479355 -30.290495975742097 -291.7883011583819 141.79596684556307 0.0 0.0
-563.0140089410461 -24.21130738571715 -261.65217970521275 145.13553480100663 0.0 0.0
-522.9521749566336 -18.77667659692075 -228.83814471572822 149.71524174464795 0.0 0.0
-476.45729054168163 -15.308731263103176 -193.42480060909705 155.73015835753193 0.0 0.0
-412.8277508527718 -8.955601573316258 -151.43101472097678 165.326975124232 0.0 0.0
-328.903696112998 -4.697374709321313 -110.05380656256229 178.31642368559895 0.0 0.0
-238.55799216395505 -0.5265990769161091 -75.28359584950908 185.58628394801988 0.0 0.0
-171.283339825378 4.985553717874851 -50.857934342679044 186.36537596937518 0.0 0.0
-127.19315087827087 11.06875510933483 -34.991497564381255 178.63118312565118 0.0 0.0
-100.96794088822878 16.039394109834035 -25.473126983085418 169.96832019236484 0.0 0.0
-87.1935040119472 16.447540964443405 -21.21805588380403 167.81623530280598 0.0 0.0
-79.28139260625873 2.0418960887270434 -23.170892053853866 172.25052609939036 0.0 0.0
-62.96292722050847 -56.05631508750969 -35.70542897976602 172.1778801563551 0.0 0.0
-23.58614432322474 -184.83204449321647 -62.525456644932355 108.6010936304782 0.0 0.0
-24.29715999932258 -145.6675258076431 -50.9894057420897 -96.0471588910379 0.0 0.0
-71.49523099370006 -51.37986633442289 -36.86252919843688 -163.61731325842825 0.0 0.0
-103.85595476774714 0.8601671913463118 -30.895786132301787 -168.28917079749914 0.0 0.0
-128.67985108499226 15.866385674949587 -33.83326803880782 -163.48016866459136 0.0 0.0
-160.40666857806917 17.164719159042114 -42.99965500381471 -162.73078365950255 0.0 0.0
-207.83865638675871 12.963238298831815 -58.78595965677884 -166.7485665253887 0.0 0.0
-280.31797725801704 5.93939296322261 -84.80503570894038 -167.92063207852544 0.0 0.0
-377.1065689418813 -0.661182768254978 -125.1124503661888 -161.1000538848851 0.0 0.0
-466.7966471500149 -8.529538048539834 -176.22737245488833 -149.8728900078876 0.0 0.0
-536.1309638322604 -19.68758912812709 -229.28109031663857 -141.06774905713726 0.0 0.0
-589.5484667427964 -27.585523911550162 -273.33110410505503 -136.62568467037494 0.0 0.0
-632.6672282578105 -35.44472018284908 -309.7730879202448 -132.1509127904241 0.0 0.0
-672.6065461014874 -43.71834964931692 -341.61639899659406 -128.44267115721263 0.0 0.0
-711.217581833961 -52.61093184944944 -370.5026862425623 -125.49132108892982 0.0 0.0
-750.2746016281415 -64.05231860631795 -398.8813971428186 -124.41867854228705 0.0 0.0
-789.1589209160908 -79.80106962821324 -427.90375175769486 -126.65445187578266 0.0 0.0
-826.4793154572847 -100.62942247698678 -457.9861725619775 -133.4168174408908 0.0 0.0
-869.2432551163555 -136.1142817750566 -497.63984699979164 -142.26682649031957 0.0 0.0
-915.4494701482187 -189.40066110170565 -547.3468284133075 -150.915395272904 0.0 0.0
-974.7279612387413 -294.54470486647534 -624.4195618205786 -160.0422524904046 0.0 0.0
-974.7279612392249 -294.544704867171 -624.4195618210157 160.0422524906915 0.0 0.0
-915.4494701485405 -189.40066110227124 -547.346828413574 150.91539527323954 0.0 0.0
-869.2432551168012 -136.11428177581504 -497.63984700011747 142.2668264906676 0.0 0.0
-826.4793154568963 -100.6294224767845 -457.98617256170223 133.4168174410218 0.0 0.0
-789.1589209159634 -79.80106962813143 -427.90375175757697 126.6544518757462 0.0 0.0
-750.2746016279591 -64.0523186062193 -398.88139714270085 124.4186785422894 0.0 0.0
-711.2175818332692 -52.61093184881456 -370.50268624207115 125.49132108888502 0.0 0.0
-672.6065461007266 -43.718349648650225 -341.61639899603034 128.44267115718725 0.0 0.0
-632.6672282572995 -35.44472018251811 -309.77308791985524 132.1509127904005 0.0 0.0
-589.5484667424847 -27.585523911475597 -273.33110410476394 136.62568467033384 0.0 0.0
-536.1309638318405 -19.687589128012092 -229.28109031631328 141.06774905705976 0.0 0.0
-466.79664714940793 -8.529538048301314 -176.22737245449545 149.872890007913 0.0 0.0
-377.1065689409064 -0.6611827675720576 -125.11245036561914 161.100053884852 0.0 0.0
-280.3179772572479 5.939392963885005 -84.80503570850186 167.9206320783757 0.0 0.0
-207.83865638630496 12.963238299024086 -58.785959656585284 166.74856652521305 0.0 0.0
-160.40666857783674 17.164719159102987 -42.999655003729856 162.73078365929535 0.0 0.0
-128.67985108486155 15.866385674987798 -33.833268038758156 163.48016866437428 0.0 0.0
-103.85595476757616 0.8601671914642126 -30.895786132215946 168.2891707973334 0.0 0.0
-71.4952309936352 -51.379866334389 -36.86252919840726 163.61731325829163 0.0 0.0
-24.297159999315177 -145.66752580751904 -50.989405742050266 96.04715889093114 0.0 0.0
-24.768462931871575 -110.21029179575102 -40.49362641828677 -83.32387455491833 0.0 0.0
-79.2436910714428 -44.892486022997915 -37.240853128332205 -151.42538999505967 0.0 0.0
-126.88201714196975 0.15590232144475902 -38.01504251372078 -160.08884909958056 0.0 0.0
-168.5558273200934 14.668055849683206 -46.155114407631764 -154.87739146969685 0.0 0.0
-217.91048593039523 17.426967981026507 -60.12783918707754 -150.8114298506271 0.0 0.0
-284.77233878234796 13.265057327601967 -82.38636911719149 -149.00334021149905 0.0 0.0
-377.621252562353 7.714051108789198 -118.32623202956509 -144.0240564148426 0.0 0.0
-473.0276943058783 -2.9752512265481066 -172.62432238244995 -133.11565301658624 0.0 0.0
-551.3109839798578 -16.04742484584984 -232.92302082673785 -125.67375723191904 0.0 0.0
-612.1377861638373 -29.136043391495548 -286.30776181540756 -122.09679863205892 0.0 0.0
-661.2172996462531 -40.11311275856441 -328.44531575447513 -119.270998218989 0.0 0.0
-706.3299670483552 -51.632716012011386 -364.5740413066866 -115.89641806028756 0.0 0.0
-748.8103292504047 -62.82451725025753 -396.0945567449246 -112.49778574422719 0.0 0.0
-790.611881476765 -74.8550957202624 -425.6987574668275 -109.55151751035838 0.0 0.0
-832.9024401331224 -88.61942957224328 -455.17559104622217 -108.29705513243502 0.0 0.0
-877.5619714842449 -107.76666173567276 -487.77904584314723 -110.34956735489266 0.0 0.0
-926.4979782648329 -136.67756369200737 -526.9152417454195 -116.09301319804082 0.0 0.0
-982.8770879677576 -181.25543059315072 -577.680511247526 -123.83189194528367 0.0 0.0
-1048.8107419626488 -249.19960596529697 -644.421424393835 -130.70788831759276 0.0 0.0
-1125.3918252438712 -362.7332002392469 -736.2656818073012 -140.38448919441254 0.0 0.0
-1125.3918252438766 -362.73320023937595 -736.2656818073665 140.38448919460143 0.0 0.0
-1048.8107419628811 -249.19960596572503 -644.421424394026 130.70788831786223 0.0 0.0
-982.8770879672036 -181.25543059273593 -577.6805112471432 123.83189194549061 0.0 0.0
-926.4979782642922 -136.67756369154972 -526.9152417450186 116.09301319812317 0.0 0.0
-877.5619714839436 -107.76666173544572 -487.77904584290286 110.34956735486199 0.0 0.0
-832.9024401322397 -88.61942957139559 -455.17559104556324 108.29705513238308 0.0 0.0
-790.6118814766161 -74.85509572022772 -425.6987574666894 109.55151751038301 0.0 0.0
-748.8103292501661 -62.824517250219856 -396.0945567447953 112.49778574429975 0.0 0.0
-706.3299670480244 -51.63271601185056 -364.574041306413 115.89641806026802 0.0 0.0
-661.2172996460184 -40.113112758572946 -328.44531575426845 119.27099821898085 0.0 0.0
-612.1377861636328 -29.136043391540568 -286.3077618151715 122.09679863197056 0.0 0.0
-551.3109839796583 -16.047424846083207 -232.9230208265269 125.67375723198026 0.0 0.0
-473.0276943055209 -2.9752512267909794 -172.6243223822245 133.11565301673974 0.0 0.0
-377.62125256195657 7.7140511085952825 -118.32623202943454 144.024056414848 0.0 0.0
-284.77233878188594 13.265057327627304 -82.38636911704043 149.00334021134998 0.0 0.0
-217.91048593010993 17.426967981080594 -60.12783918697973 150.8114298504168 0.0 0.0
-168.5558273198466 14.668055849832243 -46.155114407514155 154.87739146952916 0.0 0.0
-126.88201714183485 0.15590232140117433 -38.01504251369415 160.08884909944325 0.0 0.0
-79.24369107135152 -44.892486022891696 -37.24085312827296 151.4253899949166 0.0 0.0
-24.768462931850824 -110.21029179562431 -40.493626418242535 83.32387455485429 0.0 0.0
-25.376583296844604 -78.88923089054892 -31.279744256218052 -70.31411432094455 0.0 0.0
-86.61632216054058 -37.20402511266202 -37.14610418196078 -136.01267923296848 0.0 0.0
-148.62148482811088 -0.12477706097681551 -44.62264631071166 -147.76404586860593 0.0 0.0
-206.83495324432116 13.041071137553194 -58.118619048495106 -142.00297553797975 0.0 0.0
-273.11741737973773 16.199095914676178 -76.97079042645218 -134.57437757110736 0.0 0.0
-356.4366494390733 14.458476533314155 -105.26306276861068 -127.41113966410643 0.0 0.0
-454.7244576469793 6.963761648828109 -152.67334279242743 -116.65028124419358 0.0 0.0
-541.6477987990394 -7.735492950944849 -216.6727817263178 -108.00972899998227 0.0 0.0
-610.04487014926 -22.939081574862847 -278.01790160228825 -105.45735893430653 0.0 0.0
-666.3814826163548 -37.52452469880471 -328.3243856536446 -104.35529219538516 0.0 0.0
-716.8902528217229 -52.24199293637573 -370.0281913532349 -102.4465502409663 0.0 0.0
-764.5118061161114 -67.18646104279769 -406.4677891705443 -99.58227073356608 0.0 0.0
-810.3899503048199 -82.03500456514953 -439.60662322909457 -96.52367607651549 0.0 0.0
-855.6313291957528 -96.92197498330329 -471.14733797853495 -93.76231774892099 0.0 0.0
-901.7304848135686 -113.28954769272582 -503.156482814309 -92.30553840790625 0.0 0.0
-951.6725007889899 -136.42518616293754 -539.9885708817196 -93.42847777052934 0.0 0.0
-1011.1793817767291 -172.86352609689493 -587.8954377844998 -97.99516931093278 0.0 0.0
-1081.7716758910055 -228.92842697108372 -651.2559653084409 -104.57734498905427 0.0 0.0
-1161.6613272511645 -309.39509812137885 -731.3731682324915 -111.36686174789747 0.0 0.0
-1237.4025301376457 -421.21720050374574 -823.2179141237796 -125.73332872310638 0.0 0.0
-1237.402530137364 -421.2172005035824 -823.2179141236085 125.73332872330232 0.0 0.0
-1161.6613272508594 -309.39509812119184 -731.3731682322705 111.36686174811734 0.0 0.0
-1081.7716758902666 -228.92842697044188 -651.2559653079134 104.57734498923216 0.0 0.0
-1011.179381776203 -172.86352609648804 -587.8954377840964 97.99516931107681 0.0 0.0
-951.6725007884595 -136.42518616247816 -539.9885708812992 93.42847777050571 0.0 0.0
-901.7304848130328 -113.28954769227275 -503.1564828138896 92.30553840790881 0.0 0.0
-855.6313291952212 -96.92197498287035 -471.14733797812255 93.76231774890678 0.0 0.0
-810.3899503043369 -82.03500456480866 -439.6066232287105 96.52367607652603 0.0 0.0
-764.5118061157852 -67.18646104263541 -406.4677891702755 99.58227073354035 0.0 0.0
-716.8902528213068 -52.24199293617823 -370.0281913529236 102.4465502409588 0.0 0.0
-666.381482616107 -37.52452469878433 -328.3243856534072 104.35529219532467 0.0 0.0
-610.0448701486022 -22.93908157438565 -278.0179016017504 105.45735893417572 0.0 0.0
-541.647798798435 -7.735492950653143 -216.67278172583318 108.00972899996603 0.0 0.0
-454.72445764637405 6.963761649051948 -152.67334279204223 116.65028124416804 0.0 0.0
-356.43664943849774 14.458476533477818 -105.26306276837153 127.41113966399882 0.0 0.0
-273.1174173794419 16.19909591458911 -76.97079042639375 134.57437757106345 0.0 0.0
-206.8349532440406 13.041071137666155 -58.11861904837854 142.00297553790378 0.0 0.0
-148.62148482798398 -0.12477706104725295 -44.622646310695295 147.7640458685463 0.0 0.0
-86.61632216048373 -37.20402511266816 -37.14610418194556 136.01267923287242 0.0 0.0
-25.376583296793562 -78.88923089044049 -31.279744256170215 70.3141143209232 0.0 0.0
-26.100559252431268 -52.1067691761031 -23.462198528560307 -56.877936674883 0.0 0.0
-93.6098244002178 -28.863765550036508 -36.74207698507628 -117.73897219542431 0.0 0.0
-169.27055733562284 -0.02202902615822655 -50.78777590853431 -131.46169640680768 0.0 0.0
-243.55037719945378 10.550021545323508 -69.88978656264982 -124.88593011668718 0.0 0.0
-324.28020230742885 14.953517865892355 -93.0024452626482 -114.46008219524225 0.0 0.0
-420.7698926610361 14.686156863688735 -128.80293823349604 -102.7039274011788 0.0 0.0
-515.0481945528765 4.1298372397086 -186.88081879647845 -90.35831801624809 0.0 0.0
-590.9443453691442 -12.976996083740563 -254.75683158427097 -86.2953463034902 0.0 0.0
-653.5766001430063 -28.381237304473213 -312.6525318973589 -86.74889424354953 0.0 0.0
-710.2390974971295 -45.70194451767965 -361.46422056721815 -86.65001119015082 0.0 0.0
-763.2754788494817 -64.00193646451163 -403.59426035835645 -85.34828206397833 0.0 0.0
-813.9684913949146 -82.47584425916537 -441.5215768722036 -82.943658298941 0.0 0.0
-863.7593693262316 -100.93981307858651 -477.34521165040354 -80.41103935201126 0.0 0.0
-912.5166056719912 -119.3991959265274 -511.8377633153526 -77.95528201983389 0.0 0.0
-962.0275822531178 -138.61983401447173 -546.6661403459132 -76.21932453436987 0.0 0.0
-1017.6273931852534 -165.1399963268368 -587.8718195662143 -76.20655885789729 0.0 0.0
-1085.4033865893223 -208.69311325122052 -643.3092950441093 -79.07497728003052 0.0 0.0
-1168.8050188599882 -276.2863952210755 -718.622841565329 -85.01586137009197 0.0 0.0
-1258.4533369296175 -366.02768665863067 -808.3891277131297 -93.76232033305067 0.0 0.0
-1334.4763011866607 -477.6211278561704 -901.1446791110317 -114.63812569045251 0.0 0.0
-1334.4763011864475 -477.6211278559992 -901.1446791108706 114.63812569057811 0.0 0.0
-1258.4533369296237 -366.0276866587384 -808.3891277131324 93.76232033327334 0.0 0.0
-1168.8050188601317 -276.286395221324 -718.6228415654454 85.01586137026828 0.0 0.0
-1085.403386589172 -208.69311325116414 -643.3092950439848 79.07497728010634 0.0 0.0
-1017.6273931854256 -165.13999632710568 -587.8718195662651 76.20655885792185 0.0 0.0
-962.027582252696 -138.61983401416336 -546.6661403455716 76.21932453444676 0.0 0.0
-912.516605671422 -119.39919592606876 -511.83776331494107 77.95528201985695 0.0 0.0
-863.7593693262274 -100.93981307873939 -477.3452116503831 80.41103935202088 0.0 0.0
-813.9684913952211 -82.47584425968098 -441.52157687234626 82.94365829896927 0.0 0.0
-763.2754788490075 -64.00193646424498 -403.59426035793416 85.34828206396281 0.0 0.0
-710.2390974967439 -45.70194451755009 -361.464220566861 86.65001119018109 0.0 0.0
-653.5766001425012 -28.381237304223635 -312.6525318969165 86.74889424353147 0.0 0.0
-590.9443453685664 -12.976996083437278 -254.75683158377063 86.29534630345407 0.0 0.0
-515.0481945525064 4.129837239670215 -186.8808187961684 90.35831801625653 0.0 0.0
-420.76989266067994 14.686156863530929 -128.80293823335754 102.70392740113917 0.0 0.0
-324.28020230712536 14.953517865734101 -93.00244526260954 114.46008219517547 0.0 0.0
-243.55037719929436 10.550021545127997 -69.88978656266224 124.88593011655291 0.0 0.0
-169.27055733549713 -0.02202902623855385 -50.78777590852069 131.4616964066753 0.0 0.0
-93.60982440015748 -28.863765550059465 -36.74207698506508 117.73897219533035 0.0 0.0
-26.100559252364484 -52.10676917601842 -23.46219852851487 56.87793667476557 0.0 0.0
-26.640402043225414 -30.248820692879914 -17.066766820831596 -42.95451252224576 0.0 0.0
-99.81560214639353 -20.356440475349775 -36.05161278652298 -96.91169346655208 0.0 0.0
-188.90276194195224 0.3489750205530031 -56.56613607641975 -111.14703531924275 0.0 0.0
-279.26688228557805 7.148747730955731 -81.62595520434482 -103.99549656244864 0.0 0.0
-373.9858217266016 14.264236449914485 -108.61260814697962 -91.39861095123727 0.0 0.0
-473.9710673668469 13.955670861220874 -152.90184800494308 -76.49740965277736 0.0 0.0
-557.3160323501128 -1.068407126936176 -219.42650209098656 -66.78641711539505 0.0 0.0
-627.3360212647394 -16.11307731291746 -284.804478404642 -66.91064464266103 0.0 0.0
-689.3810471471384 -33.49859833285092 -340.5787121891025 -68.16775217883178 0.0 0.0
-747.382383193256 -53.802416480687526 -388.74903751313116 -68.63247510217053 0.0 0.0
-803.0537424945828 -75.31551657469552 -431.86966961492396 -67.78572621539841 0.0 0.0
-857.4734583058466 -97.45836894872576 -472.33870363815754 -65.92970071251258 0.0 0.0
-910.9659118008165 -119.67384086005765 -511.24859875688213 -63.91786350909138 0.0 0.0
-964.6227500601385 -142.27546753023887 -549.9488050012403 -62.03902332627308 0.0 0.0
-1018.4044090076638 -165.30036985647058 -588.6546736350897 -60.18854576422026 0.0 0.0
-1076.4069479237721 -194.2635231509912 -632.2244176992559 -58.73951883998487 0.0 0.0
-1150.4641941646014 -242.42643856215915 -693.0366866669729 -59.69735304590743 0.0 0.0
-1244.663718262796 -319.4586985823719 -778.2758488811793 -65.40817370659225 0.0 0.0
-1345.5751195562552 -419.9314286475966 -879.0582408477918 -77.40281337151683 0.0 0.0
-1426.4443904287702 -536.0222681330526 -977.1712195462593 -105.26518985993997 0.0 0.0
-1426.4443904291256 -536.0222681334501 -977.1712195465595 105.26518986004103 0.0 0.0
-1345.5751195562243 -419.9314286476464 -879.0582408477967 77.40281337171959 0.0 0.0
-1244.6637182627633 -319.45869858242423 -778.2758488810996 65.40817370673481 0.0 0.0
-1150.4641941640307 -242.42643856166353 -693.0366866664365 59.6973530459658 0.0 0.0
-1076.4069479234836 -194.26352315078643 -632.2244176989378 58.73951884001073 0.0 0.0
-1018.4044090074051 -165.30036985632535 -588.6546736348353 60.188545764282 0.0 0.0
-964.6227500598493 -142.27546753007462 -549.9488050009774 62.03902332631712 0.0 0.0
-910.9659118002955 -119.67384085967609 -511.2485987564233 63.91786350907479 0.0 0.0
-857.4734583052383 -97.45836894828011 -472.33870363771393 65.92970071249789 0.0 0.0
-803.0537424942821 -75.3155165745889 -431.8696696146807 67.78572621537725 0.0 0.0
-747.3823831932656 -53.80241648096895 -388.7490375130825 68.63247510221223 0.0 0.0
-689.3810471470017 -33.498598332983256 -340.57871218893547 68.1677521788551 0.0 0.0
-627.3360212642817 -16.11307731274028 -284.804478404231 66.91064464264075 0.0 0.0
-557.3160323495822 -1.0684071267183253 -219.42650209053613 66.78641711536902 0.0 0.0
-473.97106736638403 13.955670861282629 -152.90184800466085 76.49740965271505 0.0 0.0
-373.9858217262125 14.26423644988463 -108.61260814686861 91.3986109511606 0.0 0.0
-279.26688228524296 7.148747731067614 -81.62595520421235 103.99549656236303 0.0 0.0
-188.90276194177784 0.3489750205667459 -56.56613607636332 111.14703531915733 0.0 0.0
-99.81560214624622 -20.35644047517684 -36.05161278642691 96.91169346647523 0.0 0.0
-26.640402043183443 -30.248820692799782 -17.066766820794967 42.95451252217103 0.0 0.0
-26.358021524758296 -13.681741113399708 -12.011928791447401 -28.685801656508787 0.0 0.0
-104.31107403575623 -12.095032790770516 -34.92183204795802 -73.70253772998902 0.0 0.0
-207.60706630451065 0.6212983098435245 -62.09573039840011 -86.69625179496457 0.0 0.0
-314.3738794047978 3.6710465787094 -93.19687241022454 -79.37036544637137 0.0 0.0
-421.43461593167353 14.787902796022191 -124.14420893212105 -65.84995136910592 0.0 0.0
-516.5510347480285 10.020505702450958 -178.82533079467544 -51.50642728892168 0.0 0.0
-591.4868952150074 -4.92212156978497 -248.08512383554338 -46.45416263191969 0.0 0.0
-657.0234260978584 -18.77721716080155 -309.24031388766673 -47.713961944792125 0.0 0.0
-719.2845706429173 -38.634882288030845 -363.5038710212865 -49.43559665540903 0.0 0.0
-779.3175773931407 -61.6674814658297 -411.7797729307788 -50.17309809832281 0.0 0.0
-838.10922729292 -86.35063296931854 -456.6480928785712 -49.730275986401836 0.0 0.0
-895.9821996769102 -112.05062935567018 -499.88153124431915 -48.4218492738106 0.0 0.0
-954.0435744278253 -138.11290128794656 -542.6294438195744 -47.04229734040372 0.0 0.0
-1012.199930048924 -165.38771518509512 -585.7083891784309 -45.69882600221924 0.0 0.0
-1071.2726044892056 -193.72237690191568 -629.5979872759239 -44.100342203174165 0.0 0.0
-1133.119814982494 -225.82259398716337 -676.6650121288835 -41.76345595977586 0.0 0.0
-1204.7258715931364 -270.96472159422444 -734.813592692148 -40.3313139046778 0.0 0.0
-1307.2081283584055 -354.97430709163075 -827.4240780637307 -45.27945190964767 0.0 0.0
-1425.3998617028146 -471.15091317278564 -944.5966372759422 -61.0935488540754 0.0 0.0
-1521.8019933204332 -600.9552744534857 -1057.9547092959747 -96.29817510329845 0.0 0.0
-1521.8019933202368 -600.9552744533491 -1057.954709295831 96.29817510341614 0.0 0.0
-1425.3998617026177 -471.15091317264245 -944.5966372758216 61.093548854225254 0.0 0.0
-1307.2081283579853 -354.9743070912657 -827.4240780634427 45.27945190971289 0.0 0.0
-1204.7258715924593 -270.9647215936034 -734.8135926916775 40.33131390469906 0.0 0.0
-1133.1198149820207 -225.82259398676308 -676.6650121285348 41.76345595974063 0.0 0.0
-1071.2726044893377 -193.7223769021551 -629.5979872759617 44.100342203233616 0.0 0.0
-1012.199930049166 -165.38771518546898 -585.7083891785331 45.6988260022442 0.0 0.0
-954.0435744279242 -138.112901288184 -542.6294438196118 47.04229734038141 0.0 0.0
-895.9821996769939 -112.0506293559569 -499.8815312443412 48.421849273857354 0.0 0.0
-838.1092272927136 -86.35063296929857 -456.6480928784129 49.73027598633976 0.0 0.0
-779.3175773926099 -61.667481465521846 -411.7797729304142 50.173098098361216 0.0 0.0
-719.2845706423439 -38.63488228768117 -363.50387102085926 49.43559665536117 0.0 0.0
-657.0234260976838 -18.777217160893596 -309.2403138874406 47.71396194472881 0.0 0.0
-591.4868952146056 -4.922121569688784 -248.08512383516387 46.45416263190235 0.0 0.0
-516.5510347477098 10.020505702423662 -178.8253307944114 51.506427288847604 0.0 0.0
-421.4346159312673 14.787902795948515 -124.14420893199406 65.84995136905864 0.0 0.0
-314.3738794045204 3.6710465785739617 -93.19687241018441 79.3703654463181 0.0 0.0
-207.60706630441987 0.6212983096994087 -62.09573039841613 86.6962517949475 0.0 0.0
-104.31107403567003 -12.095032790843376 -34.92183204795402 73.70253772995699 0.0 0.0
-26.358021524781115 -13.681741113458289 -12.01192879147182 28.685801656491705 0.0 0.0
-24.03377280475631 -2.703040536801744 -8.021044002467415 -14.583478126305277 0.0 0.0
-105.478894498302 -4.581384368716629 -33.01808366010559 -48.099733010312875 0.0 0.0
-225.5246028564084 0.48138768631132045 -67.51296455102911 -57.55469446341011 0.0 0.0
-350.155468522232 1.0413188903733825 -104.6934371875959 -51.554675387154234 0.0 0.0
-461.9186336389336 16.22323853583963 -140.02786338636832 -39.636204606066954 0.0 0.0
-546.5585796369156 3.209332123640202 -205.16983504213437 -28.63063550618196 0.0 0.0
-617.6617675193571 -6.4418854222219935 -270.91471085646486 -27.465714248848712 0.0 0.0
-681.5978348652541 -22.050093870682865 -329.7127545773963 -28.816956677785235 0.0 0.0
-744.3793574308138 -43.5954004307621 -382.43087777234257 -30.357032409257243 0.0 0.0
-806.7862494759868 -69.22022282209855 -431.42917981583923 -31.185530737079215 0.0 0.0
-868.9493457784695 -97.19456676969047 -478.66975732511185 -31.110020480284494 0.0 0.0
-931.0120370085783 -126.18613166109722 -525.1556593233363 -30.432473023903245 0.0 0.0
-992.9955070018498 -156.60782767914787 -571.7974695186781 -29.61778707207595 0.0 0.0
-1056.3605342727237 -188.3993487837955 -619.5949961694607 -28.867284121297818 0.0 0.0
-1121.7971189650357 -222.7501806558862 -669.5999421159374 -27.785538977191283 0.0 0.0
-1188.8662755060059 -260.41842170473024 -722.0230816574666 -25.60595588269121 0.0 0.0
-1257.5064251120507 -302.8939263216866 -777.5480476724288 -22.373956179524516 0.0 0.0
-1340.725320165417 -366.37116655487273 -850.2140913529865 -24.08422428561018 0.0 0.0
-1499.1254246778135 -519.3900999604652 -1005.3371035866369 -42.548497929320334 0.0 0.0
-1631.2324471746444 -681.2520914382251 -1153.3412861012682 -86.43480437985006 0.0 0.0
-1631.2324471749891 -681.2520914386002 -1153.3412861015127 86.43480437992814 0.0 0.0
-1499.125424678039 -519.3900999607554 -1005.3371035867726 42.548497929492605 0.0 0.0
-1340.725320165184 -366.3711665546858 -850.2140913527076 24.084224285586174 0.0 0.0
-1257.506425112742 -302.89392632244983 -777.5480476728432 22.37395617954008 0.0 0.0
-1188.8662755055866 -260.41842170439736 -722.023081657069 25.60595588273373 0.0 0.0
-1121.797118964921 -222.75018065587892 -669.599942115763 27.785538977223993 0.0 0.0
-1056.3605342721924 -188.3993487833757 -619.5949961690102 28.867284121313396 0.0 0.0
-992.9955070013385 -156.60782767878192 -571.7974695182787 29.617787072091026 0.0 0.0
-931.0120370085826 -126.18613166130267 -525.1556593232938 30.432473024016296 0.0 0.0
-868.9493457781468 -97.19456676956374 -478.66975732482774 31.110020480220573 0.0 0.0
-806.7862494758258 -69.22022282216261 -431.42917981565006 31.185530737086307 0.0 0.0
-744.3793574308415 -43.595400431040105 -382.4308777722755 30.35703240927485 0.0 0.0
-681.5978348647844 -22.050093870466625 -329.71275457697993 28.816956677810865 0.0 0.0
-617.6617675189925 -6.441885422162148 -270.9147108560861 27.465714248875862 0.0 0.0
-546.5585796365668 3.2093321236635948 -205.16983504180737 28.630635506219697 0.0 0.0
-461.918633638658 16.22323853564742 -140.02786338626595 39.63620460610694 0.0 0.0
-350.1554685218897 1.041318890305718 -104.69343718751841 51.55467538701113 0.0 0.0
-225.52460285621183 0.48138768644435714 -67.51296455093023 57.55469446328628 0.0 0.0
-105.47889449811379 -4.581384368635965 -33.01808366002492 48.09973301021893 0.0 0.0
-24.033772804757778 -2.7030405367882673 -8.021044002463814 14.583478126222012 0.0 0.0
-17.30030299190294 2.518225296373937 -4.4346233086587015 -1.8432149095872252 0.0 0.0
-100.65824123233779 1.4949391240097238 -29.748990632498412 -19.649642773020496 0.0 0.0
-243.19233288642243 -0.6237537920958349 -73.14482600355547 -22.64771149648096 0.0 0.0
-388.63047151849827 1.7422514620380571 -116.02849891728741 -20.893923914178444 0.0 0.0
-498.12775656852676 14.380690920056875 -158.82830917416737 -13.909743482416317 0.0 0.0
-574.7022991561926 -0.8569295462895745 -229.01649454761812 -8.935816832299846 0.0 0.0
-638.5661713617311 -8.345347372589607 -290.08472841411447 -9.065368819434937 0.0 0.0
-701.8553437622452 -25.316840332475806 -346.51320203031685 -9.885416674669735 0.0 0.0
-765.7387457204727 -48.60429229421352 -398.45592138425025 -10.92767872701718 0.0 0.0
-830.714570569241 -76.62188105867659 -448.62922040678757 -11.632485467072144 0.0 0.0
-896.2749822390477 -107.35180168840328 -498.2509133079518 -11.917448382344629 0.0 0.0
-962.1289084212401 -140.61079823516883 -548.426671885494 -11.841725163866332 0.0 0.0
-1028.812027808979 -174.8185793454352 -599.1520326899381 -11.694753695349297 0.0 0.0
-1097.4005834332118 -211.1203485901242 -651.7231029879174 -11.489793580273945 0.0 0.0
-1168.9778902660814 -251.4163024208868 -707.7093586267265 -10.98387259257716 0.0 0.0
-1242.6827312372557 -296.0018263381774 -766.8557879481855 -9.805547221853569 0.0 0.0
-1314.1399746651646 -342.1743136062018 -825.6580996065006 -7.294541603907509 0.0 0.0
-1379.261390110151 -387.80480720588884 -880.8394567580391 -4.684005266324562 0.0 0.0
-1466.3576428524148 -465.11277631503776 -961.8410767510185 -17.28123916043478 0.0 0.0
-1822.6348200160708 -841.5146230991472 -1329.2185193848218 -69.20988822954016 0.0 0.0
-1822.6348200160724 -841.5146230991614 -1329.2185193848115 69.2098882295404 0.0 0.0
-1466.3576428527108 -465.1127763153699 -961.8410767512214 17.28123916052672 0.0 0.0
-1379.2613901102893 -387.80480720607994 -880.8394567580451 4.684005266271302 0.0 0.0
-1314.139974664875 -342.17431360598044 -825.6580996062121 7.294541603879186 0.0 0.0
-1242.6827312367777 -296.00182633777746 -766.8557879478021 9.805547221857303 0.0 0.0
-1168.9778902655928 -251.41630242049914 -707.709358626263 10.983872592568463 0.0 0.0
-1097.400583432566 -211.1203485895983 -651.7231029873651 11.489793580316997 0.0 0.0
-1028.8120278082506 -174.81857934484748 -599.152032689345 11.694753695302651 0.0 0.0
-962.1289084207227 -140.61079823482856 -548.4266718850242 11.841725163868606 0.0 0.0
-896.2749822384529 -107.35180168800213 -498.2509133074777 11.917448382348772 0.0 0.0
-830.7145705686091 -76.62188105825544 -448.6292204063277 11.632485467044734 0.0 0.0
-765.7387457198597 -48.604292293829474 -398.45592138379243 10.927678727051255 0.0 0.0
-701.8553437616727 -25.316840332136444 -346.5132020298732 9.885416674661712 0.0 0.0
-638.5661713613775 -8.345347372510385 -290.08472841378284 9.065368819425764 0.0 0.0
-574.7022991558081 -0.8569295461810462 -229.01649454726802 8.935816832283837 0.0 0.0
-498.1277565681038 14.380690920165934 -158.82830917389794 13.909743482400588 0.0 0.0
-388.63047151819256 1.742251461833363 -116.02849891727472 20.89392391420816 0.0 0.0
-243.19233288631062 -0.6237537921943197 -73.14482600355147 22.64771149649804 0.0 0.0
-100.65824123219349 1.494939123967855 -29.748990632467688 19.64964277300982 0.0 0.0
-17.300302991887293 2.518225296369967 -4.4346233086551985 1.8432149096534116 0.0 0.0
SCALARS Strain float 6
LOOKUP_TABLE default
0.008595541889766276 -0.009682712254342057 0.0 -0.005206806815088116 0.0 0.0
0.0019140638493060202 -0.0009085671422142672 0.0 0.0009390132143564933 0.0 0.0
0.001693056894448361 -0.0007108027723085608 0.0 -8.149653976913251e-05 0.0 0.0
0.002012338353862747 -0.000889287354787438 0.0 -0.00016232625211903828 0.0 0.0
0.0027316879230785043 -0.001406321820734413 0.0 -0.00019127504722965538 0.0 0.0
0.0041685427021783735 -0.0025653038259726424 0.0 -0.00025437404515735174 0.0 0.0
0.006297874070647995 -0.004427174029283942 0.0 -0.00036876354956028035 0.0 0.0
0.009182953856688322 -0.007036627622618585 0.0 -0.0005274785072997001 0.0 0.0
0.012859961599872556 -0.010434422491104822 0.0 -0.0007319576355304114 0.0 0.0
0.017366151978856145 -0.014654628167405148 0.0 -0.0009665371096838071 0.0 0.0
0.022813819154072212 -0.019810575397023467 0.0 -0.0012055271241694088 0.0 0.0
0.0293998231286554 -0.026096851603791604 0.0 -0.0014699345883799064 0.0 0.0
0.037331256233475794 -0.03372339575900751 0.0 -0.0017706584072932768 0.0 0.0
0.046765259485792104 -0.04284322446707867 0.0 -0.0021090111525539357 0.0 0.0
0.05768140201964984 -0.05342932334935968 0.0 -0.0024939232123678268 0.0 0.0
0.06971513544959165 -0.06511768245578686 0.0 -0.002862692880450074 0.0 0.0
0.082084891645422 -0.07713723997262556 0.0 -0.0030562463089833514 0.0 0.0
0.09364435619323555 -0.08836195079645504 0.0 -0.002848501131095138 0.0 0.0
0.10303763447876507 -0.09745951335083869 0.0 -0.0022144092727486853 0.0 0.0
0.10870369892880713 -0.1028185370241066 0.0 -0.0017952995331680377 0.0 0.0
0.10870369892880331 -0.10281853702410437 0.0 0.0017952995331710353 0.0 0.0
0.10303763447875061 -0.09745951335082559 0.0 0.0022144092727598985 0.0 0.0
0.0936443561932099 -0.08836195079642839 0.0 0.002848501131100023 0.0 0.0
0.08208489164538993 -0.07713723997259359 0.0 0.003056246308988819 0.0 0.0
0.06971513544955645 -0.06511768245575289 0.0 0.0028626928804458274 0.0 0.0
0.05768140201961422 -0.05342932334932793 0.0 0.00249392321236791 0.0 0.0
0.04676525948575608 -0.04284322446704536 0.0 0.002109011152553464 0.0 0.0
0.03733125623343789 -0.03372339575897132 0.0 0.001770658407292014 0.0 0.0
0.02939982312861858 -0.02609685160375741 0.0 0.0014699345883775194 0.0 0.0
0.022813819154038323 -0.019810575396992824 0.0 0.0012055271241681043 0.0 0.0
0.01736615197882771 -0.014654628167380945 0.0 0.000966537109680643 0.0 0.0
0.012859961599849618 -0.010434422491084838 0.0 0.0007319576355299118 0.0 0.0
0.009182953856671006 -0.007036627622600822 0.0 0.0005274785072987009 0.0 0.0
0.006297874070634674 -0.004427174029272174 0.0 0.00036876354955983626 0.0 0.0
0.004168542702170347 -0.002565303825965093 0.0 0.000254374045157324 0.0 0.0
0.002731687923074627 -0.0014063218207311934 0.0 0.00019127504722987743 0.0 0.0
0.002012338353861831 -0.000889287354787105 0.0 0.00016232625211867746 0.0 0.0
0.0016930568944480973 -0.0007108027723088384 0.0 8.149653976910476e-05 0.0 0.0
0.0019140638493049256 -0.0009085671422135733 0.0 -0.0009390132143547447 0.0 0.0
0.008595541889757946 -0.009682712254330553 0.0 0.0052068068150627755 0.0 0.0
0.0059075912454113755 -0.007343672874106338 0.0 -0.00614085382870963 0.0 0.0
0.0010762000827914814 -0.0004563492829270377 0.0 0.0001875125108568021 0.0 0.0
0.001460610930310021 -0.0005533992793932963 0.0 -0.00013394413399595018 0.0 0.0
0.001797723041784667 -0.0007809325667741396 0.0 -0.00041353447025438417 0.0 0.0
0.0023727929560763313 -0.001150378935834584 0.0 -0.00046010953869546345 0.0 0.0
0.0036023991512180754 -0.0020984495839080353 0.0 -0.0006201814141209294 0.0 0.0
0.0055185413837646816 -0.0037327956217829694 0.0 -0.0009202338940069166 0.0 0.0
0.008131208000588426 -0.006065270423588065 0.0 -0.0013096582633413956 0.0 0.0
0.011453263925635667 -0.009112616990014644 0.0 -0.0017805538581937563 0.0 0.0
0.015500553141839242 -0.012886046000356588 0.0 -0.0023036383752114975 0.0 0.0
0.02035797690432558 -0.017468864012886165 0.0 -0.002841632813863737 0.0 0.0
0.026201438176266446 -0.023036820369936928 0.0 -0.0033922301464395233 0.0 0.0
0.03326141618642488 -0.0298171107284122 0.0 -0.004038743619931839 0.0 0.0
0.04171038209108491 -0.037977473143240736 0.0 -0.004818856359682683 0.0 0.0
0.0515372360953003 -0.04750229402700068 0.0 -0.005692831794177872 0.0 0.0
0.06242642503877696 -0.05807632419944797 0.0 -0.006530166569241713 0.0 0.0
0.07368705260289951 -0.06901693097566786 0.0 -0.006984615947022155 0.0 0.0
0.08428824692523053 -0.07930718561172512 0.0 -0.006630523679883343 0.0 0.0
0.09291893740326768 -0.08763640731393707 0.0 -0.005375673481312848 0.0 0.0
0.09803726708531967 -0.09253837973163659 0.0 -0.003196501603443702 0.0 0.0
0.09803726708531589 -0.09253837973163148 0.0 0.0031965016034551375 0.0 0.0
0.09291893740325441 -0.08763640731392242 0.0 0.005375673481335885 0.0 0.0
0.08428824692520846 -0.07930718561170313 0.0 0.006630523679898137 0.0 0.0
0.07368705260287174 -0.06901693097564343 0.0 0.006984615947030648 0.0 0.0
0.062426425038745875 -0.05807632419941777 0.0 0.006530166569237494 0.0 0.0
0.051537236095268085 -0.04750229402697026 0.0 0.00569283179417579 0.0 0.0
0.04171038209105263 -0.03797747314321365 0.0 0.004818856359683321 0.0 0.0
0.033261416186391196 -0.02981711072838289 0.0 0.004038743619931284 0.0 0.0
0.026201438176233743 -0.023036820369907174 0.0 0.003392230146436026 0.0 0.0
0.020357976904295277 -0.017468864012861074 0.0 0.002841632813859296 0.0 0.0
0.015500553141813561 -0.012886046000333717 0.0 0.0023036383752056966 0.0 0.0
0.011453263925614743 -0.009112616989995215 0.0 0.0017805538581922298 0.0 0.0
0.008131208000572682 -0.00606527042357341 0.0 0.0013096582633379539 0.0 0.0
0.0055185413837528785 -0.0037327956217724223 0.0 0.0009202338940056398 0.0 0.0
0.0036023991512112996 -0.002098449583902373 0.0 0.0006201814141200968 0.0 0.0
0.002372792956073372 -0.0011503789358328076 0.0 0.0004601095386948806 0.0 0.0
0.001797723041783994 -0.000780932566773751 0.0 0.00041353447025471723 0.0 0.0
0.001460610930309636 -0.0005533992793938514 0.0 0.00013394413399628324 0.0 0.0
0.0010762000827917728 -0.00045634928292617727 0.0 -0.0001875125108586062 0.0 0.0
0.005907591245401633 -0.007343672874094303 0.0 0.0061408538286891745 0.0 0.0
0.004277530007787675 -0.005816851710606946 0.0 -0.0056663479211802315 0.0 0.0
0.0006381468725329513 -0.00028583845085372594 0.0 -0.0004847637421675488 0.0 0.0
0.001170486849685709 -0.0004057435292080247 0.0 -0.00039071959873704376 0.0 0.0
0.0015819332412966153 -0.0006685959867341884 0.0 -0.0006480245974929411 0.0 0.0
0.0020570756581923706 -0.0009448364842451484 0.0 -0.00072683682465155 0.0 0.0
0.003048624502492457 -0.0016621570051585932 0.0 -0.0009099424124665301 0.0 0.0
0.004734893183883433 -0.0030472578419019625 0.0 -0.0013357303080002991 0.0 0.0
0.007066138620515378 -0.005097550659680872 0.0 -0.0019236476902758926 0.0 0.0
0.010028258278191052 -0.007785836725910489 0.0 -0.0026100260437899037 0.0 0.0
0.013617675104075935 -0.011112367121779432 0.0 -0.0033597859835212407 0.0 0.0
0.01789515986057623 -0.015133367176105805 0.0 -0.004135207511279465 0.0 0.0
0.023014380028876978 -0.01999928012946528 0.0 -0.004929171038532465 0.0 0.0
0.02919720109725956 -0.02592695254969679 0.0 -0.0058217975534188005 0.0 0.0
0.03663758141279455 -0.033104295742182765 0.0 -0.006925408713410464 0.0 0.0
0.04534953561827111 -0.04154330434635356 0.0 -0.008204300137273773 0.0 0.0
0.05507247353775116 -0.050982578804399825 0.0 -0.009410260521768715 0.0 0.0
0.06522365287009069 -0.060844359500559886 0.0 -0.010096647391459324 0.0 0.0
0.07488560452243997 -0.07021331450549662 0.0 -0.009720557028551347 0.0 0.0
0.0828148664075648 -0.07787068828526333 0.0 -0.007890615034900128 0.0 0.0
0.08763368126099379 -0.0825050915257115 0.0 -0.0042810932573983385 0.0 0.0
0.08763368126098989 -0.08250509152570729 0.0 0.0042810932574185445 0.0 0.0
0.0828148664075529 -0.07787068828525223 0.0 0.007890615034929327 0.0 0.0
0.07488560452242077 -0.07021331450547819 0.0 0.009720557028572496 0.0 0.0
0.06522365287006633 -0.06084435950053613 0.0 0.010096647391469205 0.0 0.0
0.05507247353772399 -0.0509825788043754 0.0 0.0094102605217658 0.0 0.0
0.04534953561824255 -0.04154330434632891 0.0 0.008204300137272191 0.0 0.0
0.03663758141276592 -0.0331042957421559 0.0 0.006925408713409853 0.0 0.0
0.029197201097230202 -0.025926952549669036 0.0 0.005821797553417829 0.0 0.0
0.023014380028848036 -0.019999280129436414 0.0 0.004929171038526248 0.0 0.0
0.01789515986054968 -0.015133367176079604 0.0 0.004135207511272776 0.0 0.0
0.01361767510405304 -0.011112367121759226 0.0 0.003359785983513497 0.0 0.0
0.010028258278172386 -0.007785836725894613 0.0 0.0026100260437860456 0.0 0.0
0.007066138620501261 -0.005097550659668326 0.0 0.0019236476902724786 0.0 0.0
0.004734893183873268 -0.003047257841893969 0.0 0.0013357303079977179 0.0 0.0
0.0030486245024867464 -0.0016621570051547074 0.0 0.0009099424124650035 0.0 0.0
0.0020570756581903826 -0.0009448364842432611 0.0 0.0007268368246507173 0.0 0.0
0.0015819332412960463 -0.0006685959867329672 0.0 0.000648024597491581 0.0 0.0
0.001170486849685376 -0.0004057435292075251 0.0 0.0003907195987362111 0.0 0.0
0.0006381468725331907 -0.00028583845085283777 0.0 0.00048476374216513407 0.0 0.0
0.004277530007778779 -0.005816851710596135 0.0 0.005666347921162829 0.0 0.0
0.003169083015174358 -0.004675386420374322 0.0 -0.004808940418227686 0.0 0.0
0.00039930078545020314 -0.00022093004809520256 0.0 -0.0010546387698799065 0.0 0.0
0.0009023318867381891 -0.0002887467988826886 0.0 -0.0007361611340908347 0.0 0.0
0.0013503239435109574 -0.0005539451111059579 0.0 -0.0008998222087377716 0.0 0.0
0.0017743708108233364 -0.0007879305781101076 0.0 -0.0010033253235118555 0.0 0.0
0.002541221471178891 -0.0012940301146279198 0.0 -0.001153385666860185 0.0 0.0
0.003949453194024677 -0.0023908178514017164 0.0 -0.0016207251528066458 0.0 0.0
0.0059958260633794155 -0.004140797944900965 0.0 -0.002363109345185771 0.0 0.0
0.0085927617096037 -0.006466649434234251 0.0 -0.003213803792316866 0.0 0.0
0.011726026514596907 -0.009346289717790945 0.0 -0.0041361617156670805 0.0 0.0
0.015432502651512012 -0.012812267386550502 0.0 -0.0050825379336177645 0.0 0.0
0.019840099276377775 -0.01698650279917424 0.0 -0.006053252908328088 0.0 0.0
0.025154705346781034 -0.022070657775346003 0.0 -0.007151356011757648 0.0 0.0
0.0315738951747682 -0.028251653178921643 0.0 -0.008462620578526786 0.0 0.0
0.0391427412711454 -0.035576549519727996 0.0 -0.009979949346913236 0.0 0.0
0.047673614622121246 -0.04385720591889597 0.0 -0.011471228909916531 0.0 0.0
0.05669585540471469 -0.052619451070127665 0.0 -0.012388253685262307 0.0 0.0
0.06541558478931979 -0.061073873436856996 0.0 -0.01204995028405359 0.0 0.0
0.07272556514606579 -0.06813854323764201 0.0 -0.009823354868112033 0.0 0.0
0.07737273423268143 -0.07261751205160039 0.0 -0.005182001633753097 0.0 0.0
0.07737273423267747 -0.07261751205159839 0.0 0.005182001633777467 0.0 0.0
0.07272556514605479 -0.06813854323763291 0.0 0.009823354868145728 0.0 0.0
0.06541558478930308 -0.061073873436839454 0.0 0.01204995028407757 0.0 0.0
0.05669585540469327 -0.0526194510701079 0.0 0.012388253685274297 0.0 0.0
0.04767361462209746 -0.04385720591887332 0.0 0.011471228909912978 0.0 0.0
0.039142741271120496 -0.03557654951970357 0.0 0.009979949346911099 0.0 0.0
0.0315738951747435 -0.028251653178896552 0.0 0.008462620578524649 0.0 0.0
0.025154705346755665 -0.022070657775323133 0.0 0.007151356011755705 0.0 0.0
0.019840099276352552 -0.01698650279915359 0.0 0.006053252908320983 0.0 0.0
0.015432502651489197 -0.01281226738653074 0.0 0.005082537933610742 0.0 0.0
0.011726026514576826 -0.00934628971777296 0.0 0.004136161715657116 0.0 0.0
0.008592761709587532 -0.006466649434220262 0.0 0.0032138037923118146 0.0 0.0
0.005995826063366988 -0.004140797944889307 0.0 0.0023631093451809415 0.0 0.0
0.003949453194016267 -0.002390817851393723 0.0 0.0016207251528019828 0.0 0.0
0.0025412214711745262 -0.0012940301146252553 0.0 0.001153385666858714 0.0 0.0
0.0017743708108219902 -0.0007879305781095525 0.0 0.0010033253235115502 0.0 0.0
0.0013503239435102843 -0.0005539451111056803 0.0 0.0008998222087362173 0.0 0.0
0.0009023318867382446 -0.0002887467988820225 0.0 0.0007361611340894192 0.0 0.0
0.00039930078545022396 -0.0002209300480941756 0.0 0.0010546387698774362 0.0 0.0
0.0031690830151665794 -0.004675386420364802 0.0 0.00480894041821503 0.0 0.0
0.0023520638683206946 -0.0037555280531733903 0.0 -0.003947679225715234 0.0 0.0
0.0002630566635491022 -0.00019948300506705818 0.0 -0.0014950874469339126 0.0 0.0
0.0006734463802176224 -0.00020164905532726873 0.0 -0.0010918648937237319 0.0 0.0
0.0011091580128089126 -0.0004391768131886131 0.0 -0.0011652793741938339 0.0 0.0
0.0015046313638219372 -0.0006529341443276548 0.0 -0.0012772937364974868 0.0 0.0
0.002093681432056238 -0.0010024591566584196 0.0 -0.0014025175100340903 0.0 0.0
0.0031964862682147197 -0.0017936059217772415 0.0 -0.0017982240419355255 0.0 0.0
0.004919889983991656 -0.003203204269746407 0.0 -0.0025869874650305547 0.0 0.0
0.0071549277537946085 -0.005166774182828293 0.0 -0.0035828921497403354 0.0 0.0
0.009833067785751493 -0.0075983985052789915 0.0 -0.004623028584386152 0.0 0.0
0.012977348105177276 -0.010515654235566885 0.0 -0.005686087589304195 0.0 0.0
0.016685709631604283 -0.014010338374991882 0.0 -0.006767782663099214 0.0 0.0
0.021142048179461102 -0.01825723002265467 0.0 -0.007972635311638887 0.0 0.0
0.02653908191025254 -0.023443320897721387 0.0 -0.009425893061379337 0.0 0.0
0.032950691705111446 -0.02963999198893852 0.0 -0.011085832525979278 0.0 0.0
0.04025720690676258 -0.03672578106767843 0.0 -0.012697715915405305 0.0 0.0
0.04810575720957356 -0.04434900125703023 0.0 -0.01378957268590203 0.0 0.0
0.055866852057404125 -0.05187770887319476 0.0 -0.013590719496053283 0.0 0.0
0.06260345602384872 -0.0583940383212731 0.0 -0.011217812550353423 0.0 0.0
0.0671636713043316 -0.06279428461042658 0.0 -0.0059434202880037645 0.0 0.0
0.06716367130432802 -0.06279428461042258 0.0 0.005943420288029522 0.0 0.0
0.06260345602383835 -0.058394038321259556 0.0 0.011217812550387507 0.0 0.0
0.055866852057389796 -0.051877708873183215 0.0 0.01359071949607793 0.0 0.0
0.04810575720955515 -0.044349001257014464 0.0 0.013789572685914409 0.0 0.0
0.04025720690674195 -0.03672578106766111 0.0 0.012697715915402585 0.0 0.0
0.0329506917050902 -0.0296399919889192 0.0 0.011085832525977779 0.0 0.0
0.026539081910231813 -0.023443320897703623 0.0 0.0094258930613757 0.0 0.0
0.02114204817943978 -0.01825723002263402 0.0 0.007972635311636111 0.0 0.0
0.016685709631582946 -0.014010338374971232 0.0 0.0067677826630911375 0.0 0.0
0.012977348105157799 -0.010515654235549565 0.0 0.005686087589293842 0.0 0.0
0.0098330677857347 -0.007598398505264559 0.0 0.004623028584374578 0.0 0.0
0.007154927753780793 -0.005166774182817413 0.0 0.003582892149734146 0.0 0.0
0.004919889983981171 -0.003203204269737858 0.0 0.0025869874650254754 0.0 0.0
0.003196486268208107 -0.0017936059217731337 0.0 0.0017982240419327222 0.0 0.0
0.002093681432053185 -0.0010024591566570873 0.0 0.0014025175100322584 0.0 0.0
0.0015046313638209102 -0.0006529341443264336 0.0 0.0012772937364964598 0.0 0.0
0.001109158012808198 -0.000439176813188058 0.0 0.0011652793741927236 0.0 0.0
0.0006734463802177404 -0.00020164905532693567 0.0 0.0010918648937215947 0.0 0.0
0.00026305666354893564 -0.0001994830050666141 0.0 0.0014950874469309983 0.0 0.0
0.0023520638683143386 -0.003755528053165838 0.0 0.003947679225705908 0.0 0.0
0.001731038181275027 -0.0029967174370552074 0.0 -0.003209082481597403 0.0 0.0
0.00017630351197125277 -0.0001935319572030081 0.0 -0.0018182311859507028 0.0 0.0
0.00047888670200885164 -0.00013542360731449987 0.0 -0.0014150413948364748 0.0 0.0
0.0008672228421996372 -0.00032636438903355103 0.0 -0.0014232096037109787 0.0 0.0
0.0012334523112369836 -0.0005269305849131545 0.0 -0.001539532541476124 0.0 0.0
0.0016895796883500333 -0.000778103737315794 0.0 -0.0016661777815697165 0.0 0.0
0.0025128309629973214 -0.001303511066173768 0.0 -0.0019749794179755586 0.0 0.0
0.0038655093265019605 -0.002332881433812828 0.0 -0.002659948266197809 0.0 0.0
0.005715989105364597 -0.0038948992720744258 0.0 -0.0036769024695858243 0.0 0.0
0.007947326472086666 -0.0058831333459063995 0.0 -0.004805775291464642 0.0 0.0
0.01053520351976231 -0.008256724751770639 0.0 -0.005926015599473977 0.0 0.0
0.013558716191553508 -0.011082089562827413 0.0 -0.0070590543089862345 0.0 0.0
0.017171288344508748 -0.014505312717014052 0.0 -0.00830908309747136 0.0 0.0
0.021549844126649703 -0.0186973644261339 0.0 -0.009777373436988479 0.0 0.0
0.02679587527942895 -0.023756856205491728 0.0 -0.011464676054389084 0.0 0.0
0.032853511611241545 -0.02962573551748693 0.0 -0.013140810934078179 0.0 0.0
0.03947656605396862 -0.03605777653800879 0.0 -0.01430862348493983 0.0 0.0
0.04622404539261658 -0.04261153289063335 0.0 -0.01426393889436961 0.0 0.0
0.05238610527088228 -0.04858102052248392 0.0 -0.01203396008989116 0.0 0.0
0.056918801191630466 -0.052956832227184725 0.0 -0.006574561951004143 0.0 0.0
0.05691880119162693 -0.05295683222718073 0.0 0.0065745619510310105 0.0 0.0
0.052386105270873076 -0.04858102052247193 0.0 0.012033960089926021 0.0 0.0
0.046224045392604274 -0.042611532890622694 0.0 0.014263938894395145 0.0 0.0
0.03947656605395346 -0.03605777653799591 0.0 0.014308623484949823 0.0 0.0
0.03285351161122435 -0.029625735517470053 0.0 0.013140810934075153 0.0 0.0
0.02679587527941109 -0.023756856205472632 0.0 0.01146467605438567 0.0 0.0
0.021549844126632828 -0.018697364426119245 0.0 0.00977737343698487 0.0 0.0
0.017171288344491734 -0.014505312716998064 0.0 0.008309083097468861 0.0 0.0
0.013558716191536146 -0.01108208956281298 0.0 0.007059054308979684 0.0 0.0
0.010535203519746197 -0.008256724751760203 0.0 0.0059260155994658725 0.0 0.0
0.007947326472073135 -0.005883133345894187 0.0 0.004805775291453818 0.0 0.0
0.005715989105353272 -0.0038948992720632125 0.0 0.0036769024695798846 0.0 0.0
0.003865509326493835 -0.002332881433807832 0.0 0.0026599482661930074 0.0 0.0
0.00251283096299236 -0.0013035110661708815 0.0 0.0019749794179721447 0.0 0.0
0.0016895796883479447 -0.0007781037373150168 0.0 0.0016661777815678847 0.0 0.0
0.0012334523112361717 -0.0005269305849131545 0.0 0.0015395325414741812 0.0 0.0
0.0008672228421991862 -0.00032636438903277387 0.0 0.0014232096037092024 0.0 0.0
0.00047888670200867123 -0.00013542360731438885 0.0 0.0014150413948342822 0.0 0.0
0.00017630351197106542 -0.00019353195720245298 0.0 0.0018182311859475386 0.0 0.0
0.0017310381812702391 -0.0029967174370490995 0.0 0.0032090824815897145 0.0 0.0
0.0012552093713735987 -0.002366370793172534 0.0 -0.002616614113582355 0.0 0.0
0.0001113013060871984 -0.00019485502669852606 0.0 -0.0020437180764126817 0.0 0.0
0.00030824531226574664 -7.984235641483872e-05 0.0 -0.0016865486672226204 0.0 0.0
0.000630979639548189 -0.00021784737184171732 0.0 -0.0016594114554726314 0.0 0.0
0.0009529031725985654 -0.00039992036122016295 0.0 -0.0017781360505728927 0.0 0.0
0.001312593551803215 -0.0005856050224039011 0.0 -0.0019005282957819947 0.0 0.0
0.0018955669657642546 -0.0009107412535049875 0.0 -0.002136442029916974 0.0 0.0
0.0028802768445991347 -0.0015819533027255916 0.0 -0.0026619260255509036 0.0 0.0
0.004298739330118047 -0.002698528947570056 0.0 -0.0035317615338498476 0.0 0.0
0.006071631356416619 -0.004216699310237715 0.0 -0.004638199064696064 0.0 0.0
0.008111637911139974 -0.0060516979093685475 0.0 -0.005786809566641571 0.0 0.0
0.010464770484150447 -0.008218394632542703 0.0 -0.006915113942389056 0.0 0.0
0.013251173093816543 -0.010832786049923548 0.0 -0.008130985905760474 0.0 0.0
0.016627277424946303 -0.014044227026079437 0.0 -0.009537668882410533 0.0 0.0
0.02070050853950558 -0.017960395030787613 0.0 -0.011132984231121523 0.0 0.0
0.025484679738295574 -0.022583427890415786 0.0 -0.01273144570939655 0.0 0.0
0.030834265331524738 -0.027777325851940704 0.0 -0.013931111442154032 0.0 0.0
0.03648650153883368 -0.033280525939785255 0.0 -0.014083375944772047 0.0 0.0
0.042007512112674436 -0.03864409605071728 0.0 -0.012234520310249852 0.0 0.0
0.04654071252404235 -0.04301919977784774 0.0 -0.007064863604929306 0.0 0.0
0.04654071252403924 -0.04301919977784552 0.0 0.007064863604952565 0.0 0.0
0.04200751211266676 -0.03864409605070862 0.0 0.012234520310281993 0.0 0.0
0.03648650153882331 -0.03328052593977304 0.0 0.014083375944796361 0.0 0.0
0.03083426533151258 -0.027777325851928936 0.0 0.013931111442162303 0.0 0.0
0.02548467973828178 -0.02258342789040313 0.0 0.01273144570939333 0.0 0.0
0.020700508539491486 -0.017960395030772514 0.0 0.011132984231116305 0.0 0.0
0.01662727742493325 -0.014044227026066336 0.0 0.00953766888240759 0.0 0.0
0.013251173093803928 -0.010832786049912446 0.0 0.008130985905757893 0.0 0.0
0.010464770484137145 -0.008218394632530712 0.0 0.006915113942381701 0.0 0.0
0.008111637911127303 -0.006051697909356335 0.0 0.005786809566632745 0.0 0.0
0.006071631356406315 -0.004216699310227945 0.0 0.004638199064685211 0.0 0.0
0.004298739330109394 -0.002698528947560619 0.0 0.0035317615338431307 0.0 0.0
0.0028802768445932436 -0.0015819533027194854 0.0 0.002661926025546213 0.0 0.0
0.001895566965760917 -0.000910741253502656 0.0 0.002136442029913699 0.0 0.0
0.0013125935518018966 -0.000585605022403346 0.0 0.001900528295780246 0.0 0.0
0.0009529031725978576 -0.0003999203612193858 0.0 0.0017781360505707 0.0 0.0
0.0006309796395479045 -0.0002178473718411622 0.0 0.0016594114554699946 0.0 0.0
0.00030824531226544827 -7.984235641417259e-05 0.0 0.0016865486672196783 0.0 0.0
0.00011130130608702493 -0.00019485502669860932 0.0 0.002043718076410461 0.0 0.0
0.0012552093713701362 -0.0023663707931680213 0.0 0.0026166141135775256 0.0 0.0
0.0008984930615280329 -0.0018618552198437777 0.0 -0.0021806360452277795 0.0 0.0
5.0020034453868156e-05 -0.000195838509744084 0.0 -0.0021794091388089853 0.0 0.0
0.0001537309351498234 -2.782227745889987e-05 0.0 -0.0019048903837676767 0.0 0.0
0.00040278116353066606 -0.00011550535618931601 0.0 -0.0018610047655245876 0.0 0.0
0.0006640874749596903 -0.0002658214774492462 0.0 -0.001973680503977282 0.0 0.0
0.0009413135940084527 -0.0004153775179879249 0.0 -0.0021293693486957033 0.0 0.0
0.0013341482805770272 -0.0006087938607562959 0.0 -0.002322412342908753 0.0 0.0
0.00198241985619374 -0.0009750542720848854 0.0 -0.002646290333854273 0.0 0.0
0.0029514035467316097 -0.0016481885950123676 0.0 -0.0032548563742833825 0.0 0.0
0.00422480586100743 -0.0026546184831717223 0.0 -0.004158500278321375 0.0 0.0
0.005713662430633912 -0.003932137234014199 0.0 -0.005213521729088955 0.0 0.0
0.007406730380614623 -0.005448927667214276 0.0 -0.006286567708309765 0.0 0.0
0.009389458867089945 -0.007270441375352599 0.0 -0.007422872539441738 0.0 0.0
0.011781909998015871 -0.009516569005915576 0.0 -0.008682144528752711 0.0 0.0
0.014691778999015054 -0.012290820661929214 0.0 -0.010081972942779738 0.0 0.0
0.018175643604144476 -0.015646426187091 0.0 -0.011505622154015682 0.0 0.0
0.02220554799435409 -0.01954795649324681 0.0 -0.01260937629747505 0.0 0.0
0.026664280691545694 -0.023899025915972594 0.0 -0.012917072726289835 0.0 0.0
0.031404027786126026 -0.028539681676185147 0.0 -0.011713874398457835 0.0 0.0
0.03591488193339806 -0.03289639962987145 0.0 -0.007392864170575164 0.0 0.0
0.035914881933395745 -0.03289639962987034 0.0 0.007392864170595426 0.0 0.0
0.03140402778612027 -0.028539681676180262 0.0 0.011713874398486368 0.0 0.0
0.026664280691537784 -0.0238990259159666 0.0 0.012917072726311762 0.0 0.0
0.022205547994344862 -0.019547956493240815 0.0 0.012609376297483155 0.0 0.0
0.01817564360413436 -0.015646426187083895 0.0 0.011505622154012629 0.0 0.0
0.014691778999004979 -0.012290820661919444 0.0 0.010081972942775186 0.0 0.0
0.01178190999800667 -0.009516569005908027 0.0 0.008682144528749713 0.0 0.0
0.009389458867081604 -0.007270441375347048 0.0 0.007422872539439462 0.0 0.0
0.0074067303806054086 -0.005448927667206949 0.0 0.006286567708304158 0.0 0.0
0.005713662430624905 -0.003932137234007094 0.0 0.005213521729082127 0.0 0.0
0.004224805861000228 -0.0026546184831663933 0.0 0.004158500278312549 0.0 0.0
0.0029514035467258087 -0.0016481885950082598 0.0 0.0032548563742793857 0.0 0.0
0.0019824198561899237 -0.000975054272082776 0.0 0.002646290333852136 0.0 0.0
0.0013341482805750843 -0.0006087938607544086 0.0 0.002322412342906366 0.0 0.0
0.0009413135940076478 -0.0004153775179865926 0.0 0.002129369348693594 0.0 0.0
0.0006640874749592462 -0.00026582147744880213 0.0 0.001973680503974451 0.0 0.0
0.0004027811635303885 -0.00011550535618931601 0.0 0.0018610047655221451 0.0 0.0
0.00015373093514965686 -2.7822277458733335e-05 0.0 0.0019048903837646791 0.0 0.0
5.002003445367387e-05 -0.000195838509744084 0.0 0.0021794091388068204 0.0 0.0
0.0008984930615258818 -0.0018618552198407367 0.0 0.002180636045224088 0.0 0.0
0.000645228219208871 -0.0014904756116266016 0.0 -0.0019097515510755614 0.0 0.0
-1.3078288005438643e-05 -0.00019347283987009023 0.0 -0.0022658746361047533 0.0 0.0
1.0747107998476668e-05 2.367879121667471e-05 0.0 -0.0020673832394803027 0.0 0.0
0.0001829638978262521 -1.8768696736448653e-05 0.0 -0.0020190708341950303 0.0 0.0
0.00037168112707233747 -0.00012875562235392657 0.0 -0.0021193797156306426 0.0 0.0
0.0005601579909996907 -0.00023926811806873616 0.0 -0.002295544886212114 0.0 0.0
0.0008005920259606808 -0.00036020580038009786 0.0 -0.002519003075640014 0.0 0.0
0.0011641852423064508 -0.0005336913614971683 0.0 -0.002741134212708579 0.0 0.0
0.0017146327492045393 -0.0008267345481416388 0.0 -0.0030183011787937863 0.0 0.0
0.002456183059335093 -0.0013092905633573793 0.0 -0.0035160117611738317 0.0 0.0
0.0033661945251996644 -0.001994709444287368 0.0 -0.0042689046248507445 0.0 0.0
0.004390255467740217 -0.00284700393414572 0.0 -0.005154073775121559 0.0 0.0
0.005584981590563268 -0.0038851386154097334 0.0 -0.006160326696463436 0.0 0.0
0.007021196814203615 -0.005184596348987824 0.0 -0.0072407554924088235 0.0 0.0
0.008779606593631598 -0.006824591707115024 0.0 -0.00839529291165153 0.0 0.0
0.01094711232447898 -0.00888854199603828 0.0 -0.00957482072912863 0.0 0.0
0.013608935254213347 -0.011452476914129317 0.0 -0.010575409181513618 0.0 0.0
0.016806075519463073 -0.014550372993179295 0.0 -0.010927417449605292 0.0 0.0
0.020548536879776355 -0.01826194656796254 0.0 -0.010309605627500384 0.0 0.0
0.024882678172586922 -0.022482909943797535 0.0 -0.007432649679067371 0.0 0.0
0.024882678172585646 -0.022482909943797535 0.0 0.007432649679083192 0.0 0.0
0.020548536879772997 -0.01826194656796254 0.0 0.010309605627526586 0.0 0.0
0.01680607551945787 -0.014550372993176408 0.0 0.010927417449624666 0.0 0.0
0.0136089352542072 -0.011452476914124654 0.0 0.010575409181518225 0.0 0.0
0.010947112324473027 -0.00888854199603295 0.0 0.009574820729123745 0.0 0.0
0.00877960659362556 -0.006824591707109251 0.0 0.008395292911646313 0.0 0.0
0.00702119681419873 -0.00518459634898516 0.0 0.007240755492406992 0.0 0.0
0.0055849815905590905 -0.003885138615407513 0.0 0.006160326696462937 0.0 0.0
0.004390255467735124 -0.002847003934141501 0.0 0.00515407377511673 0.0 0.0
0.0033661945251945297 -0.001994709444282483 0.0 0.004268904624844139 0.0 0.0
0.0024561830593309575 -0.0013092905633553809 0.0 0.0035160117611658936 0.0 0.0
0.0017146327492018054 -0.0008267345481413058 0.0 0.0030183011787912883 0.0 0.0
0.0011641852423043692 -0.0005336913614978345 0.0 0.002741134212707469 0.0 0.0
0.0008005920259597787 -0.00036020580037909866 0.0 0.0025190030756376824 0.0 0.0
0.0005601579909992049 -0.0002392681180689582 0.0 0.0022955448862091166 0.0 0.0
0.0003716811270721987 -0.0001287556223545927 0.0 0.002119379715628561 0.0 0.0
0.00018296389782609945 -1.876869673583803e-05 0.0 0.0020190708341936425 0.0 0.0
1.0747107998421157e-05 2.3678791217229822e-05 0.0 0.0020673832394782765 0.0 0.0
-1.307828800539701e-05 -0.00019347283987020125 0.0 0.0022658746361032267 0.0 0.0
0.0006452282192076497 -0.001490475611624742 0.0 0.001909751551073341 0.0 0.0
0.0004694663898199142 -0.0012118337618261255 0.0 -0.0017215274165370553 0.0 0.0
-7.257487363578063e-05 -0.00018360571934478154 0.0 -0.002307466857174534 0.0 0.0
-0.00012307460228289102 7.328677658052785e-05 0.0 -0.002177566917672763 0.0 0.0
-2.8783547588298597e-05 7.3563350427297e-05 0.0 -0.0021269576882489705 0.0 0.0
7.956851646066798e-05 7.564249268843248e-06 0.0 -0.0022099719571959386 0.0 0.0
0.00017160985624369018 -5.836783774437748e-05 0.0 -0.0023903192303759424 0.0 0.0
0.0002644867785439736 -0.00011526986183596488 0.0 -0.0026407852253287623 0.0 0.0
0.00038618403864930373 -0.00017480627283061878 0.0 -0.002866412197275431 0.0 0.0
0.0005646974811007038 -0.00025885219629340206 0.0 -0.0030568404971509644 0.0 0.0
0.0007997131807986613 -0.00037780002325304984 0.0 -0.0032611983543612277 0.0 0.0
0.0011052531039292546 -0.0005372890537624908 0.0 -0.003604173361937635 0.0 0.0
0.0014456392955868036 -0.0007444607249864621 0.0 -0.0041161836408444286 0.0 0.0
0.0018431415769872977 -0.001011243699875486 0.0 -0.0048260029984162345 0.0 0.0
0.002322317802637447 -0.0013574402257519047 0.0 -0.005732559100322443 0.0 0.0
0.0029277779605166865 -0.0018381853377045232 0.0 -0.006834442848065281 0.0 0.0
0.003768678881391707 -0.00257107744680507 0.0 -0.008045911194113298 0.0 0.0
0.0050339518276179135 -0.0037369998285528006 0.0 -0.009127902244872144 0.0 0.0
0.006955840902737168 -0.005535625105938635 0.0 -0.00958959477381649 0.0 0.0
0.009617533048346227 -0.00807833726684426 0.0 -0.008949427402261012 0.0 0.0
0.013296144359475015 -0.011828655718710612 0.0 -0.007340539628157006 0.0 0.0
0.013296144359475223 -0.011828655718708836 0.0 0.00734053962816833 0.0 0.0
0.009617533048344631 -0.008078337266842928 0.0 0.008949427402280663 0.0 0.0
0.00695584090273467 -0.005535625105937303 0.0 0.009589594773829258 0.0 0.0
0.005033951827615554 -0.0037369998285512462 0.0 0.009127902244872699 0.0 0.0
0.003768678881390375 -0.002571077446804848 0.0 0.008045911194107747 0.0 0.0
0.0029277779605150767 -0.001838185337703191 0.0 0.006834442848061173 0.0 0.0
0.002322317802636739 -0.0013574402257510165 0.0 0.0057325591003205 0.0 0.0
0.0018431415769871728 -0.0010112436998737095 0.0 0.004826002998415624 0.0 0.0
0.001445639295585957 -0.00074446072498624 0.0 0.004116183640840154 0.0 0.0
0.0011052531039282693 -0.0005372890537620467 0.0 0.0036041733619331384 0.0 0.0
0.0007997131807978702 -0.0003778000232483869 0.0 0.0032611983543565093 0.0 0.0
0.0005646974811003291 -0.00025885219629095957 0.0 0.0030568404971493823 0.0 0.0
0.00038618403864898454 -0.00017480627283106287 0.0 0.0028664121972734047 0.0 0.0
0.00026448677854383484 -0.00011526986183652 0.0 0.002640785225326542 0.0 0.0
0.00017160985624371794 -5.836783774437748e-05 0.0 0.0023903192303728338 0.0 0.0
7.956851646094554e-05 7.564249268954271e-06 0.0 0.0022099719571936627 0.0 0.0
-2.8783547588229208e-05 7.356335042668638e-05 0.0 0.002126957688246167 0.0 0.0
-0.00012307460228280775 7.32867765803058e-05 0.0 0.0021775669176698764 0.0 0.0
-7.2574873635739e-05 -0.000183605719344615 0.0 0.0023074668571728962 0.0 0.0
0.0004694663898192203 -0.0012118337618249233 0.0 0.0017215274165350292 0.0 0.0
0.00034611967248877884 -0.000992132950079605 0.0 -0.0015716135290500532 0.0 0.0
-0.00012693000569899415 -0.0001621343516347018 0.0 -0.002297725533971784 0.0 0.0
-0.0002480237133639235 0.00011964169060624252 0.0 -0.0022356489413827285 0.0 0.0
-0.00023273991723481158 0.0001616392531784694 0.0 -0.002181363181835816 0.0 0.0
-0.00020881536941357026 0.0001410150839177282 0.0 -0.0022405896455139906 0.0 0.0
-0.00021812074650758018 0.00012309565127033295 0.0 -0.0024009947061617576 0.0 0.0
-0.00027573718149916104 0.00013257103615704757 0.0 -0.002642475261846605 0.0 0.0
-0.00038627096922118354 0.00017670461855801012 0.0 -0.0028678684362792306 0.0 0.0
-0.0005626685964715966 0.00025751927427197785 0.0 -0.0030565757813743044 0.0 0.0
-0.0007980051747511346 0.00037655198410613266 0.0 -0.0032602762307600286 0.0 0.0
-0.0011044795502772459 0.000537634377237417 0.0 -0.003602529110535879 0.0 0.0
-0.0014509581383795461 0.0007505688748483674 0.0 -0.0041141842599713985 0.0 0.0
-0.0018630129442580995 0.0010274134094714338 0.0 -0.004822512429505321 0.0 0.0
-0.002357314385875872 0.0013792661469513856 0.0 -0.005732605281511205 0.0 0.0
-0.0029131223299224546 0.0017942908802979218 0.0 -0.006853664420453265 0.0 0.0
-0.003413255854736119 0.002175972508910551 0.0 -0.008156659664233568 0.0 0.0
-0.0035931234055995576 0.0023084366097934073 0.0 -0.009630260565970883 0.0 0.0
-0.003068914802383277 0.0018831744478264856 0.0 -0.011227353667198736 0.0 0.0
-0.0015134896121160174 0.0008131169928893289 0.0 -0.012455729900664458 0.0 0.0
0.0019019609810406457 -0.0022764122383518437 0.0 -0.010497437683604116 0.0 0.0
0.0019019609810408539 -0.0022764122383513996 0.0 0.010497437683617439 0.0 0.0
-0.0015134896121166835 0.0008131169928915494 0.0 0.01245572990067828 0.0 0.0
-0.003068914802382333 0.0018831744478304824 0.0 0.011227353667204287 0.0 0.0
-0.0035931234055969347 0.002308436609792075 0.0 0.009630260565967497 0.0 0.0
-0.0034132558547324 0.002175972508905888 0.0 0.008156659664228127 0.0 0.0
-0.0029131223299195957 0.0017942908802994761 0.0 0.006853664420449657 0.0 0.0
-0.002357314385872916 0.0013792661469489431 0.0 0.005732605281508596 0.0 0.0
-0.001863012944254283 0.001027413409467215 0.0 0.004822512429502879 0.0 0.0
-0.0014509581383757159 0.0007505688748474793 0.0 0.004114184259965181 0.0 0.0
-0.0011044795502739013 0.000537634377237195 0.0 0.0036025291105315493 0.0 0.0
-0.0007980051747481787 0.00037655198410546653 0.0 0.003260276230754977 0.0 0.0
-0.0005626685964700978 0.00025751927427253296 0.0 0.003056575781373666 0.0 0.0
-0.00038627096921997617 0.0001767046185584542 0.0 0.002867868436278037 0.0 0.0
-0.00027573718149837 0.00013257103615782473 0.0 0.0026424752618443292 0.0 0.0
-0.00021812074650710833 0.00012309565127122113 0.0 0.0024009947061588433 0.0 0.0
-0.00020881536941312617 0.00014101508391783923 0.0 0.00224058964551227 0.0 0.0
-0.000232739917234423 0.00016163925317735917 0.0 0.002181363181833873 0.0 0.0
-0.00024802371336375695 0.00011964169060635355 0.0 0.0022356489413803693 0.0 0.0
-0.00012693000569910518 -0.00016213435163472956 0.0 0.00229772553396973 0.0 0.0
0.0003461196724883625 -0.0009921329500786457 0.0 0.0015716135290476108 0.0 0.0
0.0002531055300914048 -0.0007949928210144452 0.0 -0.0014118142171970494 0.0 0.0
-0.0001771688013238737 -0.00013228054125213884 0.0 -0.0022382468886287255 0.0 0.0
-0.0003646842700614217 0.0001638634929183036 0.0 -0.0022390257356950105 0.0 0.0
-0.00042865159015104126 0.0002447235522882174 0.0 -0.0021806493660135318 0.0 0.0
-0.0004906222600415955 0.000269818912518649 0.0 -0.0022094319623089664 0.0 0.0
-0.0006035124129081387 0.0003012806262417955 0.0 -0.002338899703632019 0.0 0.0
-0.0008111948701224198 0.00037688342922315154 0.0 -0.0025331704761593077 0.0 0.0
-0.0011640981087097102 0.0005353617345273953 0.0 -0.0027436059026294812 0.0 0.0
-0.0017123361094067285 0.0008250263546354386 0.0 -0.0030173337194572547 0.0 0.0
-0.002454400003211607 0.0013079712689147982 0.0 -0.0035142943360029766 0.0 0.0
-0.00336587097224178 0.0019954893274134466 0.0 -0.004267886353197414 0.0 0.0
-0.004394796761878955 0.0028536627693391825 0.0 -0.005149551176408695 0.0 0.0
-0.005602866634499423 0.00390511164243601 0.0 -0.006143706202575927 0.0 0.0
-0.0070566293075197545 0.005213323374755552 0.0 -0.007221374250019119 0.0 0.0
-0.00877210627790305 0.006783995211949501 0.0 -0.008453175345782937 0.0 0.0
-0.010629557303424034 0.008497965660497986 0.0 -0.009939477035722066 0.0 0.0
-0.012308560864581625 0.010036300890854166 0.0 -0.01172412711286891 0.0 0.0
-0.013282822710469627 0.010889974364925115 0.0 -0.013692338378053559 0.0 0.0
-0.012694635025437329 0.01003817018466635 0.0 -0.014547598589428112 0.0 0.0
-0.008887513720842219 0.006155208020840464 0.0 -0.01225146631770846 0.0 0.0
-0.008887513720843038 0.006155208020842906 0.0 0.012251466317723392 0.0 0.0
-0.012694635025436843 0.010038170184665018 0.0 0.014547598589448818 0.0 0.0
-0.013282822710465325 0.010889974364922672 0.0 0.013692338378067104 0.0 0.0
-0.012308560864574089 0.01003630089084706 0.0 0.0117241271128678 0.0 0.0
-0.010629557303415513 0.008497965660487772 0.0 0.009939477035716904 0.0 0.0
-0.008772106277895972 0.006783995211943505 0.0 0.00845317534577833 0.0 0.0
-0.00705662930751301 0.0052133233747488905 0.0 0.007221374250014179 0.0 0.0
-0.005602866634491527 0.0039051116424275722 0.0 0.0061437062025734845 0.0 0.0
-0.004394796761870642 0.002853662769332077 0.0 0.005149551176402145 0.0 0.0
-0.0033658709722343277 0.0019954893274065633 0.0 0.004267886353190031 0.0 0.0
-0.002454400003204932 0.0013079712689108014 0.0 0.0035142943359954826 0.0 0.0
-0.0017123361094026485 0.0008250263546328851 0.0 0.00301733371945484 0.0 0.0
-0.0011640981087069346 0.0005353617345261741 0.0 0.0027436059026288706 0.0 0.0
-0.0008111948701209626 0.00037688342922059803 0.0 0.0025331704761577256 0.0 0.0
-0.0006035124129069869 0.00030128062624035223 0.0 0.0023388997036287718 0.0 0.0
-0.0004906222600410542 0.00026981891251809387 0.0 0.0022094319623071346 0.0 0.0
-0.00042865159015050003 0.00024472355228788434 0.0 0.0021806493660117 0.0 0.0
-0.00036468427006118576 0.00016386349291841462 0.0 0.0022390257356924015 0.0 0.0
-0.00017716880132373491 -0.00013228054125183353 0.0 0.002238246888626977 0.0 0.0
0.0002531055300910995 -0.0007949928210138468 0.0 0.0014118142171962167 0.0 0.0
0.00017349959732798625 -0.0006154077804260971 0.0 -0.0012486130655834926 0.0 0.0
-0.00022511256166921068 -9.436269138390907e-05 0.0 -0.0021270250723595674 0.0 0.0
-0.00047414531015663175 0.00020636216273922647 0.0 -0.0021872771113117806 0.0 0.0
-0.0006161380503363761 0.00032284458343867506 0.0 -0.0021238328110376736 0.0 0.0
-0.0007638792620509455 0.00039139605320526183 0.0 -0.0021173390129730907 0.0 0.0
-0.0009786405824313976 0.000471317826941986 0.0 -0.00219360845108843 0.0 0.0
-0.0013431220986335896 0.0006247548586261198 0.0 -0.002341497195863157 0.0 0.0
-0.001981555553394493 0.0009757951492418426 0.0 -0.0026502026183107263 0.0 0.0
-0.002948771257364799 0.0016456641420579121 0.0 -0.003251118255324481 0.0 0.0
-0.004223584696587512 0.0026533854100334597 0.0 -0.00415577444401638 0.0 0.0
-0.005714086150834852 0.003933155961316048 0.0 -0.005212944756655236 0.0 0.0
-0.0074093083863014525 0.005453538313579642 0.0 -0.006279680321530812 0.0 0.0
-0.009400946577765024 0.007285063988270224 0.0 -0.0073881110661752625 0.0 0.0
-0.011810950394600159 0.009542287994748211 0.0 -0.008613069969430454 0.0 0.0
-0.014698107110940259 0.012271690476185704 0.0 -0.010095217262796607 0.0 0.0
-0.01794368539564832 0.01534995791104432 0.0 -0.012034060900650845 0.0 0.0
-0.021152011838312917 0.018381822017320415 0.0 -0.014596270979001291 0.0 0.0
-0.023535593693471246 0.02052959892568884 0.0 -0.01737840613874808 0.0 0.0
-0.023623852330129758 0.020319458410803293 0.0 -0.018840403543721573 0.0 0.0
-0.019119357827216646 0.015331973371365049 0.0 -0.015772778270746968 0.0 0.0
-0.019119357827216993 0.015331973371362162 0.0 0.015772778270765675 0.0 0.0
-0.023623852330127634 0.020319458410798852 0.0 0.018840403543747386 0.0 0.0
-0.02353559369346432 0.02052959892567885 0.0 0.017378406138765623 0.0 0.0
-0.021152011838301413 0.018381822017310645 0.0 0.014596270979003623 0.0 0.0
-0.017943685395635678 0.01534995791103233 0.0 0.012034060900644572 0.0 0.0
-0.014698107110929254 0.01227169047617549 0.0 0.010095217262791 0.0 0.0
-0.011810950394589417 0.009542287994741105 0.0 0.00861306996942418 0.0 0.0
-0.009400946577752825 0.007285063988262008 0.0 0.007388111066170433 0.0 0.0
-0.007409308386289219 0.005453538313569872 0.0 0.0062796803215226515 0.0 0.0
-0.005714086150823285 0.003933155961305834 0.0 0.005212944756645077 0.0 0.0
-0.004223584696577354 0.002653385410025022 0.0 0.004155774444005694 0.0 0.0
-0.00294877125735777 0.0016456641420533602 0.0 0.003251118255319402 0.0 0.0
-0.001981555553389705 0.0009757951492415096 0.0 0.00265020261830759 0.0 0.0
-0.0013431220986311818 0.0006247548586274521 0.0 0.0023414971958605757 0.0 0.0
-0.0009786405824297184 0.000471317826941986 0.0 0.002193608451086182 0.0 0.0
-0.0007638792620500781 0.0003913960532051508 0.0 0.002117339012970676 0.0 0.0
-0.0006161380503358835 0.00032284458343861955 0.0 0.0021238328110349813 0.0 0.0
-0.0004741453101561044 0.00020636216273944852 0.0 0.0021872771113097544 0.0 0.0
-0.0002251125616689817 -9.436269138388131e-05 0.0 0.002127025072357791 0.0 0.0
0.0001734995973277781 -0.0006154077804255472 0.0 0.0012486130655821048 0.0 0.0
0.00010221356266169879 -0.0004531583249535176 0.0 -0.0010832103692139383 0.0 0.0
-0.0002730184466302188 -4.9735613815327095e-05 0.0 -0.0019685300699357755 0.0 0.0
-0.00057754712426282 0.0002480648095943283 0.0 -0.0020808101390825673 0.0 0.0
-0.000795266884512133 0.00039518111275604895 0.0 -0.0020124899743078073 0.0 0.0
-0.0010252356020897663 0.0005040128878168737 0.0 -0.001959993588058123 0.0 0.0
-0.0013425215559419723 0.0006347342547980972 0.0 -0.0019843665897329443 0.0 0.0
-0.001901638559488411 0.0009251716925221531 0.0 -0.0021647868963242944 0.0 0.0
-0.002878157377983151 0.0015809028421533977 0.0 -0.002662531450021377 0.0 0.0
-0.00429639638531433 0.002695833526009439 0.0 -0.003526211214838121 0.0 0.0
-0.006071547596053772 0.004216384413312291 0.0 -0.00463577880532029 0.0 0.0
-0.008112742102624526 0.006053190646305939 0.0 -0.005787280745920886 0.0 0.0
-0.010464779466027599 0.008219706017293493 0.0 -0.00690811544602854 0.0 0.0
-0.01325094731011732 0.010835488503626145 0.0 -0.008084015189020632 0.0 0.0
-0.016636535814633063 0.014054204345305354 0.0 -0.009416426765820829 0.0 0.0
-0.020715097620201642 0.017961702698698456 0.0 -0.01106134096546496 0.0 0.0
-0.02538752832326764 0.022441312965141513 0.0 -0.013313078526896394 0.0 0.0
-0.030148093858270233 0.026967912290865703 0.0 -0.016399857509528548 0.0 0.0
-0.033833252282150214 0.030349626222533344 0.0 -0.019884828389865106 0.0 0.0
-0.03439426093526721 0.030509397390623638 0.0 -0.021968533034294524 0.0 0.0
-0.02862562743520082 0.02417684602061998 0.0 -0.01922028155491745 0.0 0.0
-0.02862562743519989 0.024176846020618648 0.0 0.019220281554939045 0.0 0.0
-0.03439426093526335 0.030509397390618087 0.0 0.02196853303432378 0.0 0.0
-0.03383325228214064 0.03034962622252646 0.0 0.019884828389886644 0.0 0.0
-0.03014809385825544 0.026967912290853713 0.0 0.0163998575095341 0.0 0.0
-0.025387528323251453 0.02244131296512686 0.0 0.01331307852689087 0.0 0.0
-0.020715097620186647 0.017961702698688242 0.0 0.01106134096545966 0.0 0.0
-0.016636535814618214 0.014054204345291144 0.0 0.009416426765814417 0.0 0.0
-0.013250947310100965 0.010835488503610602 0.0 0.008084015189015248 0.0 0.0
-0.01046477946601164 0.00821970601727906 0.0 0.006908115446019741 0.0 0.0
-0.008112742102609004 0.006053190646291284 0.0 0.005787280745910034 0.0 0.0
-0.006071547596040325 0.004216384413299634 0.0 0.004635778805308077 0.0 0.0
-0.004296396385304206 0.002695833525999669 0.0 0.0035262112148314595 0.0 0.0
-0.0028781573779761427 0.0015809028421470694 0.0 0.002662531450018546 0.0 0.0
-0.0019016385594846363 0.0009251716925190445 0.0 0.0021647868963219075 0.0 0.0
-0.0013425215559398074 0.000634734254797209 0.0 0.0019843665897307516 0.0 0.0
-0.00102523560208867 0.0005040128878166517 0.0 0.001959993588055653 0.0 0.0
-0.0007952668845113281 0.000395181112756271 0.0 0.0020124899743057256 0.0 0.0
-0.0005775471242621399 0.0002480648095938842 0.0 0.002080810139080874 0.0 0.0
-0.0002730184466300106 -4.9735613815021784e-05 0.0 0.001968530069933916 0.0 0.0
0.00010221356266154613 -0.00045315832495298157 0.0 0.0010832103692131057 0.0 0.0
3.8370546235927394e-05 -0.0003094616631231506 0.0 -0.0009140834861722791 0.0 0.0
-0.00032155641686076875 -3.7648604955808906e-07 0.0 -0.0017681648300285902 0.0 0.0
-0.0006759545177474485 0.0002892167013478497 0.0 -0.0019208186586210096 0.0 0.0
-0.000966054209653483 0.0004622292073429568 0.0 -0.001844727347504127 0.0 0.0
-0.0012719548182713314 0.0006041765944883037 0.0 -0.0017445135915880872 0.0 0.0
-0.001711188004749592 0.0008167055334008522 0.0 -0.001751749101854022 0.0 0.0
-0.0025152094118890134 0.0013143413343078558 0.0 -0.0019991110822529246 0.0 0.0
-0.0038626622791303605 0.0023305501321777555 0.0 -0.0026578416889369294 0.0 0.0
-0.0057148933470581725 0.0038928896404053503 0.0 -0.0036698220352910094 0.0 0.0
-0.007948438252479623 0.005883977466542012 0.0 -0.004803251269079434 0.0 0.0
-0.01053680077799593 0.008258479903773264 0.0 -0.005926175175354875 0.0 0.0
-0.013555976430201178 0.01107964431754227 0.0 -0.0070523204874994305 0.0 0.0
-0.017155961911572065 0.014491898755373933 0.0 -0.008258623036897117 0.0 0.0
-0.02152701280579275 0.018679611521477568 0.0 -0.009626535067826236 0.0 0.0
-0.026805683453671847 0.023769330423030643 0.0 -0.011311361167317957 0.0 0.0
-0.03290200501083025 0.02964583249516295 0.0 -0.013608421929474257 0.0 0.0
-0.03918765992739723 0.03564378323608097 0.0 -0.016803546591889595 0.0 0.0
-0.04411715101314309 0.04019323887680204 0.0 -0.02068372344151226 0.0 0.0
-0.04497075107825306 0.04056589189104298 0.0 -0.0235805140374169 0.0 0.0
-0.037770404510135705 0.032806729220605346 0.0 -0.022499189634709205 0.0 0.0
-0.03777040451013401 0.0328067292206049 0.0 0.02249918963473352 0.0 0.0
-0.04497075107824697 0.04056589189103832 0.0 0.02358051403744721 0.0 0.0
-0.04411715101313085 0.0401932388767936 0.0 0.020683723441535184 0.0 0.0
-0.03918765992737947 0.035643783236065874 0.0 0.01680354659189695 0.0 0.0
-0.032902005010811 0.029645832495146518 0.0 0.013608421929470649 0.0 0.0
-0.026805683453653043 0.023769330423014656 0.0 0.011311361167313683 0.0 0.0
-0.021527012805773786 0.01867961152146136 0.0 0.009626535067818909 0.0 0.0
-0.017155961911551658 0.014491898755355948 0.0 0.008258623036891927 0.0 0.0
-0.013555976430181457 0.011079644317524062 0.0 0.0070523204874909096 0.0 0.0
-0.010536800777976765 0.008258479903755944 0.0 0.005926175175343995 0.0 0.0
-0.007948438252463066 0.005883977466526469 0.0 0.004803251269067221 0.0 0.0
-0.005714893347045058 0.0038928896403955804 0.0 0.003669822035282294 0.0 0.0
-0.0038626622791209375 0.002330550132171094 0.0 0.002657841688931628 0.0 0.0
-0.002515209411883365 0.0013143413343046362 0.0 0.0019991110822492886 0.0 0.0
-0.001711188004746858 0.000816705533400075 0.0 0.0017517491018519404 0.0 0.0
-0.001271954818269909 0.0006041765944874156 0.0 0.0017445135915876986 0.0 0.0
-0.000966054209652463 0.0004622292073429568 0.0 0.0018447273475032389 0.0 0.0
-0.0006759545177467477 0.0002892167013472946 0.0 0.001920818658620288 0.0 0.0
-0.00032155641686049813 -3.7648604969686694e-07 0.0 0.0017681648300273412 0.0 0.0
3.837054623594821e-05 -0.0003094616631227568 0.0 0.0009140834861720015 0.0 0.0
-1.7149344705161274e-05 -0.0001861897092090281 0.0 -0.0007394131767734791 0.0 0.0
-0.0003696403581984198 5.1209024327758534e-05 0.0 -0.001530606638540516 0.0 0.0
-0.0007701380792760754 0.00032997735473544454 0.0 -0.0017090020532884997 0.0 0.0
-0.001128485161790177 0.0005227048773566167 0.0 -0.0016230058523842295 0.0 0.0
-0.0015091281384404243 0.0007044698790320547 0.0 -0.0014940999280402822 0.0 0.0
-0.0021027006100501344 0.0010329272619884478 0.0 -0.00149903816447991 0.0 0.0
-0.0031957853979191347 0.0018001870456998414 0.0 -0.0018193163898483078 0.0 0.0
-0.004918074172295422 0.003200717826221111 0.0 -0.002579329012187437 0.0 0.0
-0.007155720512668773 0.005166499773979094 0.0 -0.003576159963946418 0.0 0.0
-0.009835098360456151 0.007600287835292097 0.0 -0.004621143034489128 0.0 0.0
-0.01297899136176657 0.010517248010421865 0.0 -0.005685669386074066 0.0 0.0
-0.016679788368386156 0.014003856543333582 0.0 -0.006759902282427732 0.0 0.0
-0.02111175492190412 0.018227666133793674 0.0 -0.00792680283511582 0.0 0.0
-0.026481090484444803 0.023393583354617054 0.0 -0.009285314108689102 0.0 0.0
-0.032935848560948305 0.0296412214477213 0.0 -0.01088073592850991 0.0 0.0
-0.04039912516909634 0.03685784675093973 0.0 -0.012904910326918262 0.0 0.0
-0.04815228921649005 0.04427747762672074 0.0 -0.015815747220935705 0.0 0.0
-0.054287961319032504 0.04996053280773971 0.0 -0.019799998954316667 0.0 0.0
-0.05542773813883804 0.05056199783623527 0.0 -0.02386624043740032 0.0 0.0
-0.046896236407907854 0.041469752191600096 0.0 -0.025763709196240714 0.0 0.0
-0.046896236407905426 0.04146975219159876 0.0 0.025763709196265028 0.0 0.0
-0.05542773813882984 0.050561997836226835 0.0 0.023866240437431463 0.0 0.0
-0.05428796131901755 0.04996053280772372 0.0 0.01979999895433973 0.0 0.0
-0.04815228921646962 0.04427747762670098 0.0 0.0158157472209432 0.0 0.0
-0.04039912516907402 0.03685784675091641 0.0 0.012904910326916486 0.0 0.0
-0.03293584856092573 0.029641221447700872 0.0 0.01088073592850855 0.0 0.0
-0.026481090484421932 0.02339358335459707 0.0 0.009285314108684023 0.0 0.0
-0.021111754921879958 0.01822766613376925 0.0 0.007926802835109936 0.0 0.0
-0.016679788368362328 0.014003856543307824 0.0 0.006759902282419961 0.0 0.0
-0.012978991361744033 0.010517248010401659 0.0 0.005685669386063602 0.0 0.0
-0.009835098360436424 0.007600287835274111 0.0 0.004621143034479136 0.0 0.0
-0.007155720512653167 0.0051664997739658824 0.0 0.003576159963939396 0.0 0.0
-0.004918074172283557 0.0032007178262120073 0.0 0.0025793290121816637 0.0 0.0
-0.0031957853979115228 0.0018001870456935132 0.0 0.0018193163898443387 0.0 0.0
-0.0021027006100463527 0.0010329272619853391 0.0 0.0014990381644775785 0.0 0.0
-0.0015091281384388353 0.0007044698790308335 0.0 0.0014940999280395606 0.0 0.0
-0.0011284851617891084 0.000522704877355451 0.0 0.0016230058523825641 0.0 0.0
-0.0007701380792753468 0.0003299773547348339 0.0 0.001709002053286779 0.0 0.0
-0.0003696403581981006 5.120902432753649e-05 0.0 0.0015306066385392947 0.0 0.0
-1.7149344705022496e-05 -0.0001861897092087731 0.0 0.0007394131767719525 0.0 0.0
-6.22286289455598e-05 -8.568335016831408e-05 0.0 -0.0005584086627891949 0.0 0.0
-0.0004144659308391585 0.00010201862002262585 0.0 -0.001259852015065177 0.0 0.0
-0.000860188068125961 0.00036994822213032297 0.0 -0.0014449114591501555 0.0 0.0
-0.0012843792320169634 0.0005768910524990289 0.0 -0.0013515772158615436 0.0 0.0
-0.0017462926724863548 0.0008096242856390212 0.0 -0.0012065418411211226 0.0 0.0
-0.0025342859984430754 0.0013084515094219373 0.0 -0.0012351572097113739 0.0 0.0
-0.003947452076049962 0.0023918301929138908 0.0 -0.0016292334396315056 0.0 0.0
-0.005997464673597436 0.004140957519632837 0.0 -0.002353464990064197 0.0 0.0
-0.008595521328296468 0.006468604612958284 0.0 -0.0032082424233760287 0.0 0.0
-0.011728672772955862 0.009348805098581714 0.0 -0.004134906936652971 0.0 0.0
-0.015433308705559812 0.012812830848191403 0.0 -0.0050809156141060074 0.0 0.0
-0.01983005811685952 0.016975517055074052 0.0 -0.006043323907159559 0.0 0.0
-0.02511283587572663 0.022029059172891108 0.0 -0.007115597759483505 0.0 0.0
-0.03148959196720026 0.028175897922017024 0.0 -0.008365125937900175 0.0 0.0
-0.03908344808976731 0.03553872918476886 0.0 -0.0097842556844554 0.0 0.0
-0.04779818526159671 0.04399239548404865 0.0 -0.011358044968405423 0.0 0.0
-0.05689756938875791 0.052725714749970454 0.0 -0.013482523606633712 0.0 0.0
-0.06425003462731825 0.05956523809586556 0.0 -0.01715522589480406 0.0 0.0
-0.06589597228921656 0.060606842711113273 0.0 -0.022791662378748245 0.0 0.0
-0.056294758005470596 0.050415482249254406 0.0 -0.029004530142108187 0.0 0.0
-0.05629475800546735 0.05041548224924908 0.0 0.029004530142131668 0.0 0.0
-0.06589597228920617 0.06060684271110284 0.0 0.022791662378777222 0.0 0.0
-0.06425003462730063 0.05956523809584802 0.0 0.017155225894825044 0.0 0.0
-0.056897569388734734 0.05272571474995047 0.0 0.01348252360664079 0.0 0.0
-0.04779818526157112 0.04399239548402467 0.0 0.011358044968406089 0.0 0.0
-0.03908344808974114 0.03553872918474399 0.0 0.009784255684454402 0.0 0.0
-0.03148959196717353 0.02817589792199171 0.0 0.008365125937896095 0.0 0.0
-0.025112835875699034 0.02202905917286624 0.0 0.007115597759478065 0.0 0.0
-0.019830058116831646 0.016975517055049183 0.0 0.006043323907152592 0.0 0.0
-0.015433308705533867 0.012812830848166756 0.0 0.0050809156140964595 0.0 0.0
-0.011728672772933258 0.009348805098558621 0.0 0.004134906936644089 0.0 0.0
-0.008595521328278361 0.006468604612940521 0.0 0.0032082424233698115 0.0 0.0
-0.005997464673583242 0.004140957519620736 0.0 0.002353464990058729 0.0 0.0
-0.003947452076040459 0.0023918301929067853 0.0 0.001629233439627481 0.0 0.0
-0.0025342859984380205 0.0013084515094184956 0.0 0.001235157209708626 0.0 0.0
-0.0017462926724844154 0.000809624285638022 0.0 0.0012065418411200124 0.0 0.0
-0.0012843792320156935 0.0005768910524989179 0.0 0.0013515772158604888 0.0 0.0
-0.0008601880681251943 0.0003699482221300454 0.0 0.0014449114591490453 0.0 0.0
-0.00041446593083882544 0.00010201862002312545 0.0 0.0012598520150641779 0.0 0.0
-6.222862894552511e-05 -8.568335016803132e-05 0.0 0.0005584086627882234 0.0 0.0
-9.324960276652083e-05 -1.0853780092690002e-05 0.0 -0.0003729154215346142 0.0 0.0
-0.0004510300729206884 0.0001483741951717188 0.0 -0.0009581329904898572 0.0 0.0
-0.0009458236833897182 0.0004076606866035837 0.0 -0.0011270512733345395 0.0 0.0
-0.001437260810121327 0.0006294613996487008 0.0 -0.0010314965573304802 0.0 0.0
-0.0019958715089141432 0.0009342896647785981 0.0 -0.0008891374671201324 0.0 0.0
-0.0030273726775763565 0.0016566609578958502 0.0 -0.0009666926353144867 0.0 0.0
-0.004736234452790616 0.0030472461715499444 0.0 -0.0013354544486396114 0.0 0.0
-0.007072421931114514 0.00510234001682186 0.0 -0.001914862031002551 0.0 0.0
-0.010032721608997652 0.0077898749610931795 0.0 -0.0026062097773300874 0.0 0.0
-0.013620576458141048 0.011115046794561545 0.0 -0.0033587684426558684 0.0 0.0
-0.017894149332935594 0.015131933426653976 0.0 -0.0041324100154602195 0.0 0.0
-0.02299924488330815 0.01998341616275434 0.0 -0.004918307777814657 0.0 0.0
-0.029148452699794686 0.025878880860723985 0.0 -0.005798392513293615 0.0 0.0
-0.036541837803491975 0.033015245734667076 0.0 -0.006878251784848022 0.0 0.0
-0.04523992332349665 0.04145073738616256 0.0 -0.008072718566329073 0.0 0.0
-0.05504831571147295 0.05097710086927587 0.0 -0.009087730207310296 0.0 0.0
-0.06525436955455972 0.060833361182800694 0.0 -0.010024823427474738 0.0 0.0
-0.07387641608088526 0.06889720305385771 0.0 -0.012765639287931174 0.0 0.0
-0.07648249782263741 0.07080020299833434 0.0 -0.02001859469759215 0.0 0.0
-0.06629692695788897 0.05993550300374917 0.0 -0.03197933778634443 0.0 0.0
-0.06629692695788555 0.059935503003746726 0.0 0.0319793377863648 0.0 0.0
-0.07648249782262474 0.07080020299832257 0.0 0.020018594697617464 0.0 0.0
-0.0738764160808647 0.06889720305383928 0.0 0.012765639287949465 0.0 0.0
-0.06525436955453354 0.060833361182778045 0.0 0.010024823427480595 0.0 0.0
-0.05504831571144385 0.050977100869249226 0.0 0.009087730207310463 0.0 0.0
-0.04523992332346705 0.04145073738613214 0.0 0.008072718566328796 0.0 0.0
-0.036541837803461444 0.0330152457346351 0.0 0.006878251784844525 0.0 0.0
-0.029148452699763225 0.02587888086069179 0.0 0.0057983925132883835 0.0 0.0
-0.02299924488327651 0.019983416162721923 0.0 0.004918307777810799 0.0 0.0
-0.017894149332906187 0.015131933426625332 0.0 0.004132410015451893 0.0 0.0
-0.013620576458115766 0.011115046794538674 0.0 0.003358768442648763 0.0 0.0
-0.010032721608976742 0.007789874961074972 0.0 0.002606209777324814 0.0 0.0
-0.0070724219310984646 0.005102340016806428 0.0 0.0019148620309973052 0.0 0.0
-0.004736234452779202 0.0030472461715402854 0.0 0.0013354544486360587 0.0 0.0
-0.0030273726775700283 0.0016566609578906322 0.0 0.0009666926353113781 0.0 0.0
-0.0019958715089114475 0.0009342896647768217 0.0 0.0008891374671190222 0.0 0.0
-0.0014372608101198524 0.0006294613996475906 0.0 0.0010314965573298418 0.0 0.0
-0.0009458236833890243 0.000407660686602751 0.0 0.0011270512733343174 0.0 0.0
-0.0004510300729201541 0.0001483741951712192 0.0 0.0009581329904894409 0.0 0.0
-9.324960276651043e-05 -1.0853780092912046e-05 0.0 0.00037291542153439217 0.0 0.0
-0.00010408273721487782 3.456702252682686e-05 0.0 -0.00018958521564196862 0.0 0.0
-0.0004709952704482767 0.00018483854539402822 0.0 -0.0006252965291340673 0.0 0.0
-0.0010270756489849653 0.0004419632895427128 0.0 -0.0007482110280243315 0.0 0.0
-0.001594402130467798 0.0006867869568288887 0.0 -0.0006696605746802087 0.0 0.0
-0.002279617294638936 0.0011081707776600114 0.0 -0.000570951131324271 0.0 0.0
-0.003574314574324444 0.0020772764092136242 0.0 -0.0006468105379970057 0.0 0.0
-0.005526808607991873 0.003736771880395784 0.0 -0.0009154770966795789 0.0 0.0
-0.008141911130177037 0.0060751897635503704 0.0 -0.0013045791030674436 0.0 0.0
-0.011459125084902433 0.009118313813634593 0.0 -0.0017776944745613588 0.0 0.0
-0.015503390386139987 0.012888519081912131 0.0 -0.002302688251501761 0.0 0.0
-0.020354321004219217 0.017464693664472675 0.0 -0.002838480520369613 0.0 0.0
-0.026180828174460047 0.023016120518474015 0.0 -0.003383204409158236 0.0 0.0
-0.03320974046996092 0.029766938861561565 0.0 -0.004027789992454844 0.0 0.0
-0.04161502812630835 0.037886318367856386 0.0 -0.004807823516981724 0.0 0.0
-0.051383532991525274 0.04735523850805157 0.0 -0.005624278655556536 0.0 0.0
-0.06216869166305128 0.05782607610531487 0.0 -0.0061939539355795326 0.0 0.0
-0.07315913624730694 0.06848323944909462 0.0 -0.0061434713428372145 0.0 0.0
-0.08279636769269677 0.07768174653655024 0.0 -0.006764451982649078 0.0 0.0
-0.08720033582011527 0.0811526305636654 0.0 -0.014480093755955048 0.0 0.0
-0.07741613904783635 0.07048448739840807 0.0 -0.03403355716240264 0.0 0.0
-0.07741613904783252 0.0704844873984023 0.0 0.03403355716241685 0.0 0.0
-0.08720033582010038 0.08115263056364919 0.0 0.014480093755975282 0.0 0.0
-0.08279636769267318 0.07768174653652804 0.0 0.006764451982661596 0.0 0.0
-0.07315913624727718 0.0684832394490611 0.0 0.006143471342840212 0.0 0.0
-0.06216869166301854 0.05782607610528445 0.0 0.006193953935580865 0.0 0.0
-0.05138353299149226 0.04735523850801915 0.0 0.005624278655556758 0.0 0.0
-0.041615028126274024 0.037886318367824856 0.0 0.004807823516980364 0.0 0.0
-0.03320974046992529 0.02976693886152848 0.0 0.004027789992452194 0.0 0.0
-0.026180828174424638 0.023016120518438266 0.0 0.003383204409157764 0.0 0.0
-0.0203543210041869 0.01746469366444181 0.0 0.0028384805203633956 0.0 0.0
-0.01550339038611187 0.012888519081884597 0.0 0.002302688251496654 0.0 0.0
-0.01145912508487915 0.009118313813610834 0.0 0.0017776944745580836 0.0 0.0
-0.008141911130159067 0.006075189763534605 0.0 0.0013045791030648068 0.0 0.0
-0.005526808607978832 0.0037367718803843486 0.0 0.0009154770966776082 0.0 0.0
-0.0035743145743164957 0.002077276409207074 0.0 0.0006468105379958677 0.0 0.0
-0.002279617294635456 0.0011081707776569028 0.0 0.00057095113132416 0.0 0.0
-0.0015944021304662055 0.0006867869568280005 0.0 0.0006696605746784046 0.0 0.0
-0.0010270756489843304 0.00044196328954293485 0.0 0.0007482110280227217 0.0 0.0
-0.0004709952704475776 0.00018483854539402822 0.0 0.0006252965291328461 0.0 0.0
-0.00010408273721491078 3.456702252689105e-05 0.0 0.00018958521564088615 0.0 0.0
-8.362691794108756e-05 4.519351593271215e-05 0.0 -2.3961793824633926e-05 0.0 0.0
-0.0004609101288989559 0.0002030855434173029 0.0 -0.00025544535604926644 0.0 0.0
-0.0011053087947386353 0.00047138696937448765 0.0 -0.0002944202494542525 0.0 0.0
-0.0017710314989230203 0.0007651980609755249 0.0 -0.00027155376690213284 0.0 0.0
-0.00261486939096775 0.0013297186413224749 0.0 -0.00022964645418047103 0.0 0.0
-0.004144662428823054 0.0025355109823228528 0.0 -0.00025181175063621053 0.0 0.0
-0.006313734108781999 0.0044397416144851265 0.0 -0.000367783749738948 0.0 0.0
-0.009197004665998876 0.007049633893748797 0.0 -0.0005248293134079707 0.0 0.0
-0.012867261485668358 0.010441663566870485 0.0 -0.0007297131476237395 0.0 0.0
-0.017368543393087993 0.01465661204901858 0.0 -0.0009656932531310058 0.0 0.0
-0.022807160854532132 0.01980340546006132 0.0 -0.0012033558438858116 0.0 0.0
-0.029374159570219716 0.026071826813135912 0.0 -0.0014662446075213165 0.0 0.0
-0.037278572185084374 0.03367300690539565 0.0 -0.0017702907547189062 0.0 0.0
-0.04667351462761271 0.04275302655759017 0.0 -0.0021105017910155732 0.0 0.0
-0.05748620475897823 0.053229997656350836 0.0 -0.0024446205402048893 0.0 0.0
-0.06920167571979674 0.06459059502874953 0.0 -0.002589510888644342 0.0 0.0
-0.08077289508394801 0.07580895030819224 0.0 -0.0022297306583390353 0.0 0.0
-0.09071504329886584 0.08541923199071766 0.0 -0.0011641366565219302 0.0 0.0
-0.09681873404186771 0.09103211105003073 0.0 -0.004054876023610043 0.0 0.0
-0.0911071755672945 0.08312043964229443 0.0 -0.0315070868423159 0.0 0.0
-0.09110717556729034 0.08312043964229021 0.0 0.031507086842321064 0.0 0.0
-0.0968187340418507 0.09103211105001208 0.0 0.004054876023619369 0.0 0.0
-0.09071504329883834 0.08541923199068946 0.0 0.0011641366565271483 0.0 0.0
-0.08077289508391419 0.07580895030816004 0.0 0.002229730658338286 0.0 0.0
-0.06920167571976005 0.06459059502871534 0.0 0.0025895108886445917 0.0 0.0
-0.05748620475894157 0.05322999765631686 0.0 0.002444620540204473 0.0 0.0
-0.04667351462757413 0.042753026557555085 0.0 0.0021105017910163087 0.0 0.0
-0.03727857218504481 0.033673006905359903 0.0 0.0017702907547165192 0.0 0.0
-0.029374159570180882 0.02607182681309972 0.0 0.0014662446075208169 0.0 0.0
-0.022807160854496543 0.019803405460028678 0.0 0.001203355843882592 0.0 0.0
-0.017368543393056986 0.014656612048990603 0.0 0.0009656932531283413 0.0 0.0
-0.012867261485643025 0.010441663566848058 0.0 0.0007297131476232399 0.0 0.0
-0.009197004665978841 0.007049633893731477 0.0 0.0005248293134066939 0.0 0.0
-0.006313734108767367 0.004439741614472026 0.0 0.0003677837497379488 0.0 0.0
-0.004144662428813929 0.0025355109823154143 0.0 0.0002518117506351558 0.0 0.0
-0.0026148693909632597 0.0013297186413195883 0.0 0.00022964645417988816 0.0 0.0
-0.0017710314989215718 0.0007651980609743037 0.0 0.00027155376690257693 0.0 0.0
-0.0011053087947379345 0.0004713869693738215 0.0 0.00029442024945447454 0.0 0.0
-0.00046091012889821776 0.00020308554341683105 0.0 0.00025544535604912766 0.0 0.0
-8.362691794100863e-05 4.5193515932663575e-05 0.0 2.396179382549435e-05 0.0 0.0
SCALARS Statev float 8
LOOKUP_TABLE default
0.0 0.009041759526325193 0.006858974324984012 -0.007243312653806988 0.0003843383288229756 -0.003845363526675924 0.0 0.0
0.0 0.00022868602381033334 0.00011607311644806287 -8.777135092164353e-05 -2.8301765526419296e-05 0.00013408409985963683 0.0 0.0
0.0 3.342380937738801e-05 -4.754075056001044e-06 3.773145031477424e-06 9.809300245235895e-07 5.62033213615258e-07 0.0 0.0
0.0 8.63465143089879e-05 1.6453434914884383e-05 -1.2769927328016399e-05 -3.6835075868680798e-06 -2.2302536064614946e-06 0.0 0.0
0.0 0.0006500186330238276 0.0004288788414107395 -0.00034172734386582205 -8.715149754491794e-05 -5.0053566504976694e-05 0.0 0.0
0.0 0.001773424922173575 0.0016399174165628613 -0.001355912153379541 -0.00028400526318332067 -0.00013527447224489662 0.0 0.0
0.0 0.003896153009924151 0.0035539209974173452 -0.0030754709844323536 -0.0004784500129849902 -0.00024987664324677014 0.0 0.0
0.0 0.006921461841740427 0.0062322737800553744 -0.0055911696010359745 -0.0006411041790193991 -0.0003981920030624846 0.0 0.0
0.0 0.010895883987805183 0.00970210974716151 -0.008931437901680576 -0.0007706718454809308 -0.0005897017607526651 0.0 0.0
0.0 0.01586233766854575 0.014000675179190758 -0.013118648171257194 -0.0008820270079335618 -0.0008152905838133297 0.0 0.0
0.0 0.0219696167632774 0.01924090476194458 -0.018255261233244516 -0.000985643528700065 -0.0010503046136499665 0.0 0.0
0.0 0.029158984427650882 0.02562211030308061 -0.024533936994688598 -0.0010881733083919953 -0.001315537887835335 0.0 0.0
0.0 0.03797127546222608 0.03334669044933633 -0.03215571675574505 -0.0011909736935912627 -0.0016183695330917345 0.0 0.0
0.0 0.048584563702510776 0.042571041337684065 -0.041274815305583246 -0.0012962260321008378 -0.0019589361918674426 0.0 0.0
0.0 0.06091193651242838 0.05327497909621637 -0.05186846887945546 -0.0014065102167608878 -0.002347110613724502 0.0 0.0
0.0 0.07457191105025399 0.0650970436527956 -0.063575202624048 -0.0015218410287476157 -0.0027223646495408106 0.0 0.0
0.0 0.08863896663871393 0.07726351729890375 -0.0756247790783964 -0.0016387382205073592 -0.00292802386861019 0.0 0.0
0.0 0.10178434558528336 0.08863918243738467 -0.08688887381344071 -0.0017503086239439188 -0.0027398220701073898 0.0 0.0
0.0 0.11245611585216653 0.09788015378242457 -0.09603159410960845 -0.001848559672816122 -0.0021266121851075247 0.0 0.0
0.0 0.11868699532934555 0.10341396857314818 -0.10146510374252497 -0.0019488648306232128 -0.0017017186406205831 0.0 0.0
0.0 0.11868699532934211 0.1034139685731451 -0.10146510374252207 -0.0019488648306229693 0.0017017186406234988 0.0 0.0
0.0 0.11245611585215066 0.09788015378241063 -0.09603159410959496 -0.0018485596728156641 0.0021266121851182176 0.0 0.0
0.0 0.1017843455852532 0.08863918243735854 -0.08688887381341485 -0.001750308623943652 0.0027398220701131603 0.0 0.0
0.0 0.08863896663867715 0.07726351729887168 -0.07562477907836486 -0.0016387382205068162 0.0029280238686148646 0.0 0.0
0.0 0.0745719110502143 0.06509704365276092 -0.06357520262401403 -0.001521841028746921 0.002722364649536425 0.0 0.0
0.0 0.06091193651238978 0.053274979096182604 -0.05186846887942244 -0.0014065102167601475 0.0023471106137246014 0.0 0.0
0.0 0.04858456370247105 0.042571041337649454 -0.04127481530554923 -0.0012962260321002063 0.001958936191866983 0.0 0.0
0.0 0.03797127546218373 0.03334669044929951 -0.032155716755708705 -0.0011909736935908106 0.0016183695330912909 0.0 0.0
0.0 0.029158984427610446 0.02562211030304517 -0.024533936994654077 -0.0010881733083910937 0.0013155378878330019 0.0 0.0
0.0 0.021969616763241096 0.019240904761912456 -0.01825526123321328 -0.0009856435286991672 0.0010503046136482639 0.0 0.0
0.0 0.015862337668515997 0.014000675179164644 -0.013118648171231964 -0.0008820270079326749 0.0008152905838097265 0.0 0.0
0.0 0.010895883987781699 0.009702109747140303 -0.008931437901660204 -0.0007706718454800974 0.0005897017607518879 0.0 0.0
0.0 0.00692146184172187 0.006232273780038218 -0.0055911696010195935 -0.0006411041790186252 0.00039819200306118413 0.0 0.0
0.0 0.0038961530099113047 0.003553920997405152 -0.0030754709844210823 -0.0004784500129840682 0.0002498766432460806 0.0 0.0
0.0 0.0017734249221661687 0.0016399174165554645 -0.0013559121533730913 -0.00028400526318237324 0.00013527447224414893 0.0 0.0
0.0 0.0006500186330201012 0.00042887884140788325 -0.00034172734386350755 -8.715149754437581e-05 5.005356650472283e-05 0.0 0.0
0.0 8.634651430814927e-05 1.6453434915086502e-05 -1.2769927328166327e-05 -3.6835075869201816e-06 2.230253606429689e-06 0.0 0.0
0.0 3.342380937687491e-05 -4.754075055922566e-06 3.7731450314146314e-06 9.80930024507978e-07 -5.620332136057866e-07 0.0 0.0
0.0 0.00022868602380885162 0.00011607311644739605 -8.777135092114851e-05 -2.83017655262477e-05 -0.00013408409985870786 0.0 0.0
0.0 0.009041759526311147 0.006858974324974516 -0.00724331265379647 0.0003843383288219481 0.0038453635266556727 0.0 0.0
0.0 0.006350850332455511 0.004514320982532525 -0.004978064806712107 0.00046374382417958235 -0.004259311411945314 0.0 0.0
0.0 0.0 0.0 0.0 0.0 0.0 0.0 0.0
0.0 9.430826945183483e-08 -1.020951514236367e-08 7.758883502814768e-09 2.450631639548195e-09 3.6392644398315674e-09 0.0 0.0
0.0 3.1636307330006875e-05 -6.855299121094414e-07 5.090312863899247e-07 1.7649862571928303e-07 -2.730087183495694e-07 0.0 0.0
0.0 0.0003759466533717159 0.00019255648722153615 -0.0001525190529268744 -4.0037434294661746e-05 -5.404580667324244e-05 0.0 0.0
0.0 0.001259883899709347 0.0011669354403355996 -0.0009517618013483201 -0.00021517363898727933 -0.0002628463397351791 0.0 0.0
0.0 0.0031234199681809977 0.002848124728045401 -0.0024310348053228348 -0.00041708992272256545 -0.0005592431483028598 0.0 0.0
0.0 0.005832699340232955 0.0052511824377228745 -0.004658722591052338 -0.0005924598466705372 -0.0009332174558354215 0.0 0.0
0.0 0.009389723869210395 0.008370661563090265 -0.007640601414021674 -0.0007300601490685892 -0.0013857134293300793 0.0 0.0
0.0 0.013813268325127925 0.012217812658107109 -0.011374786908073163 -0.000843025750033941 -0.0018982495355540112 0.0 0.0
0.0 0.019199449348761527 0.016877165543711964 -0.01593319596913967 -0.0009439695745722826 -0.0024364820989025036 0.0 0.0
0.0 0.02579143901946746 0.02252310905569063 -0.021483200005583916 -0.0010399090501067216 -0.0029951975285195747 0.0 0.0
0.0 0.033560593758862 0.029387822466464476 -0.02825285788142918 -0.0011349645850352952 -0.0036523332467431275 0.0 0.0
0.0 0.04299737360242927 0.03763808835396864 -0.036406048453916304 -0.001232039900052333 -0.004441949066372883 0.0 0.0
0.0 0.05408824573939767 0.04726332924867609 -0.04593010351868245 -0.0013332257299936649 -0.0053265645413462 0.0 0.0
0.0 0.06640102464398193 0.057951934734920024 -0.05651329167306816 -0.0014386430618518818 -0.006181202710964689 0.0 0.0
0.0 0.07915819197509896 0.06901960762104181 -0.0674740400244635 -0.0015455675965782897 -0.0066643794942991275 0.0 0.0
0.0 0.091186983196809 0.079444420644486 -0.07779520017714905 -0.0016492204673369162 -0.0063521181157624 0.0 0.0
0.0 0.10095277398620026 0.08792027808160166 -0.08617126634397537 -0.0017490117376263202 -0.005145212492653581 0.0 0.0
0.0 0.106713946603223 0.09293546357677995 -0.09111519212128981 -0.0018202714554901671 -0.0030326521126670353 0.0 0.0
0.0 0.10671394660321801 0.09293546357677557 -0.09111519212128534 -0.0018202714554902222 0.003032652112678467 0.0 0.0
0.0 0.10095277398618457 0.08792027808158787 -0.0861712663439615 -0.0017490117376263855 0.0051452124926746595 0.0 0.0
0.0 0.09118698319678406 0.07944442064446394 -0.07779520017712736 -0.0016492204673365697 0.006352118115776835 0.0 0.0
0.0 0.07915819197506929 0.06901960762101544 -0.0674740400244381 -0.0015455675965772991 0.006664379494306894 0.0 0.0
0.0 0.06640102464394662 0.05795193473488943 -0.05651329167303795 -0.0014386430618514652 0.00618120271096105 0.0 0.0
0.0 0.05408824573936173 0.04726332924864476 -0.045930103518651705 -0.001333225729993052 0.005326564541344949 0.0 0.0
0.0 0.04299737360239533 0.0376380883539388 -0.03640604845388751 -0.0012320399000512682 0.004441949066372508 0.0 0.0
0.0 0.0335605937588261 0.02938782246643297 -0.02825285788139857 -0.0011349645850343983 0.0036523332467419027 0.0 0.0
0.0 0.025791439019432122 0.022523109055659636 -0.02148320000555353 -0.0010399090501061004 0.002995197528515253 0.0 0.0
0.0 0.019199449348730226 0.01687716554368443 -0.01593319596911286 -0.0009439695745715762 0.0024364820988991296 0.0 0.0
0.0 0.013813268325100903 0.012217812658083114 -0.011374786908049852 -0.0008430257500332623 0.00189824953554829 0.0 0.0
0.0 0.009389723869188715 0.008370661563070491 -0.0076406014140025635 -0.0007300601490679258 0.0013857134293276492 0.0 0.0
0.0 0.005832699340216715 0.005251182437707978 -0.0046587225910383005 -0.0005924598466696769 0.0009332174558324382 0.0 0.0
0.0 0.003123419968169679 0.00284812472803456 -0.002431034805313069 -0.0004170899227214896 0.0005592431483009114 0.0 0.0
0.0 0.001259883899703143 0.0011669354403299127 -0.0009517618013434925 -0.00021517363898642013 0.00026284633973377156 0.0 0.0
0.0 0.0003759466533689869 0.00019255648721993123 -0.00015251905292558936 -4.003743429434193e-05 5.404580667277811e-05 0.0 0.0
0.0 3.16363073295092e-05 -6.855299119190267e-07 5.090312862440297e-07 1.7649862567513673e-07 2.7300871841991716e-07 0.0 0.0
0.0 9.430826938068039e-08 -1.0209515134588993e-08 7.758883496907494e-09 2.4506316376819497e-09 -3.6392644370560787e-09 0.0 0.0
0.0 0.0 0.0 0.0 0.0 0.0 0.0 0.0
0.0 0.006350850332439849 0.004514320982522157 -0.004978064806700875 0.0004637438241787182 0.0042593114119279215 0.0 0.0
0.0 0.004609872046949255 0.0030823078946900775 -0.003536693545399601 0.0004543856507095225 -0.0036056278984056313 0.0 0.0
0.0 0.0 0.0 0.0 0.0 0.0 0.0 0.0
0.0 0.0 0.0 0.0 0.0 0.0 0.0 0.0
0.0 2.4307082921929654e-06 -2.7159244173351415e-07 2.053625051523891e-07 6.622993658110159e-08 1.4164277531911574e-07 0.0 0.0
0.0 0.00014666561142375823 5.995487390247307e-05 -4.729689554695941e-05 -1.2657978355513575e-05 -3.144300469444406e-05 0.0 0.0
0.0 0.0009452445743548298 0.000708221485905943 -0.0005706997260921537 -0.00013752175981378894 -0.00028042476243292456 0.0 0.0
0.0 0.0023807561292272504 0.002157634251744825 -0.0018119685285132863 -0.0003456657232315383 -0.0007288670072985056 0.0 0.0
0.0 0.0047617837020453805 0.004274024068426544 -0.003742136972616616 -0.0005318870958099269 -0.0013001848831368243 0.0 0.0
0.0 0.007918897551056741 0.007035350867101787 -0.006354920057724617 -0.0006804308093771694 -0.001967014769704795 0.0 0.0
0.0 0.01182312858026494 0.010431424805948834 -0.009634089365448757 -0.0007973354405000787 -0.0027075705968857976 0.0 0.0
0.0 0.01656851861790097 0.014519304267358521 -0.013622887321940051 -0.0008964169454184696 -0.003487816394534307 0.0 0.0
0.0 0.02224111392192891 0.019452447839898215 -0.01846534970431603 -0.0009870981355821875 -0.004297517570102103 0.0 0.0
0.0 0.029258151085234326 0.025447241770891044 -0.024372229935333934 -0.0010750118355571038 -0.00520698239651323 0.0 0.0
0.0 0.03751002571817355 0.0326999592228227 -0.031535826213822504 -0.0011641330090001892 -0.006326610147106166 0.0 0.0
0.0 0.047288840034210536 0.041221783810253876 -0.039965865869791645 -0.0012559179404622262 -0.0076229664527440715 0.0 0.0
0.0 0.05828769623812613 0.05075500531667224 -0.04940398805828306 -0.0013510172583891691 -0.008855193246060596 0.0 0.0
0.0 0.06975967555251138 0.06072302577733637 -0.05927520938849089 -0.0014478163888454654 -0.009583332423169185 0.0 0.0
0.0 0.08063700800523013 0.07021354028831032 -0.06866808073316971 -0.0015454595551405955 -0.009267471617619476 0.0 0.0
0.0 0.08952642930715643 0.07799597230875656 -0.07636034479616405 -0.001635627512592473 -0.007522756264878295 0.0 0.0
0.0 0.09488681406583435 0.08271930960238552 -0.08102281102131972 -0.0016964985810657685 -0.004052542836730301 0.0 0.0
0.0 0.0948868140658301 0.08271930960238147 -0.08102281102131575 -0.0016964985810657086 0.0040525428367495725 0.0 0.0
0.0 0.08952642930714404 0.077995972308745 -0.07636034479615282 -0.001635627512592153 0.00752275626490586 0.0 0.0
0.0 0.08063700800520936 0.07021354028829142 -0.06866808073315131 -0.0015454595551400738 0.009267471617639491 0.0 0.0
0.0 0.06975967555248422 0.060723025777312284 -0.059275209388467316 -0.0014478163888449558 0.009583332423178374 0.0 0.0
0.0 0.05828769623809646 0.05075500531664623 -0.04940398805825797 -0.0013510172583882595 0.008855193246057456 0.0 0.0
0.0 0.04728884003418007 0.04122178381022712 -0.039965865869765686 -0.0012559179404614325 0.00762296645274275 0.0 0.0
0.0 0.037510025718141965 0.03269995922279509 -0.0315358262137954 -0.00116413300899969 0.006326610147104637 0.0 0.0
0.0 0.02925815108520204 0.025447241770862626 -0.024372229935306224 -0.0010750118355563974 0.005206982396511156 0.0 0.0
0.0 0.022241113921895983 0.019452447839869547 -0.01846534970428797 -0.0009870981355815718 0.00429751757009591 0.0 0.0
0.0 0.01656851861787154 0.014519304267332384 -0.01362288732191458 -0.0008964169454178002 0.0034878163945279627 0.0 0.0
0.0 0.011823128580241133 0.010431424805927491 -0.00963408936542821 -0.0007973354404992764 0.0027075705968784168 0.0 0.0
0.0 0.007918897551037949 0.007035350867084845 -0.006354920057708416 -0.0006804308093764284 0.0019670147697003915 0.0 0.0
0.0 0.004761783702031298 0.004274024068413523 -0.0037421369726045864 -0.0005318870958089376 0.0013001848831329537 0.0 0.0
0.0 0.002380756129217995 0.002157634251736077 -0.0018119685285055715 -0.00034566572323050466 0.0007288670072959406 0.0 0.0
0.0 0.0009452445743495066 0.0007082214859017197 -0.000570699726088664 -0.00013752175981305507 0.0002804247624312066 0.0 0.0
0.0 0.0001466656114221444 5.995487390172287e-05 -4.729689554636397e-05 -1.2657978355358778e-05 3.1443004694071104e-05 0.0 0.0
0.0 2.430708291709614e-06 -2.715924416780426e-07 2.0536250511018518e-07 6.622993656783338e-08 -1.4164277528895462e-07 0.0 0.0
0.0 0.0 0.0 0.0 0.0 0.0 0.0 0.0
0.0 0.0 0.0 0.0 0.0 0.0 0.0 0.0
0.0 0.004609872046935848 0.003082307894680895 -0.0035366935453895326 0.0004543856507086374 0.0036056278983908783 0.0 0.0
0.0 0.003292917049578441 0.00209343463793568 -0.0024894805988078844 0.00039604596087220443 -0.002712453552948287 0.0 0.0
0.0 0.0 0.0 0.0 0.0 0.0 0.0 0.0
0.0 0.0 0.0 0.0 0.0 0.0 0.0 0.0
0.0 1.7764958665315978e-06 -1.7819784007305854e-07 1.3787375697884427e-07 4.03240830942293e-08 1.8782013220909485e-07 0.0 0.0
0.0 4.6948036280985206e-05 9.891415572167206e-06 -7.72534035967537e-06 -2.166075212491739e-06 -7.94184412683726e-06 0.0 0.0
0.0 0.0005540077341138842 0.0003679150771417556 -0.0002932496661432962 -7.466541099845949e-05 -0.00022288422236294565 0.0 0.0
0.0 0.0017253147653020187 0.0014924067623725845 -0.0012321092398163277 -0.0002602975225562563 -0.0007546378737339778 0.0 0.0
0.0 0.0037258691695023875 0.0033114565708743794 -0.0028529308936486465 -0.0004585256772257335 -0.0014895379691145397 0.0 0.0
0.0 0.0064719237384161556 0.005707397376994613 -0.005089112856633204 -0.000618284520361408 -0.0023268321479089234 0.0 0.0
0.0 0.009857761151326938 0.008653064725655945 -0.00791118422068933 -0.0007418805049666105 -0.003243893524011959 0.0 0.0
0.0 0.013949386473753737 0.012178199726500536 -0.011336496741689881 -0.0008417029848106547 -0.0042004737204628315 0.0 0.0
0.0 0.018872635082383217 0.016407756821421527 -0.015478782260468284 -0.0009289745609532387 -0.005193482859067356 0.0 0.0
0.0 0.02483745835945071 0.02154584651818498 -0.020535593439324946 -0.001010253078860033 -0.006314604192104406 0.0 0.0
0.0 0.0321082890036731 0.027785695576548607 -0.026693721523626958 -0.0010919740529216418 -0.00764641841191688 0.0 0.0
0.0 0.040700914826413595 0.03517448821787553 -0.03399990158003914 -0.0011745866378363781 -0.009187150542622449 0.0 0.0
0.0 0.0501783528933412 0.04352890918406352 -0.04227017404594609 -0.001258735138117439 -0.010712346864326702 0.0 0.0
0.0 0.06036710411994152 0.05237689895908314 -0.05103107205913385 -0.0013458268999492783 -0.011680121045008287 0.0 0.0
0.0 0.07014788782056106 0.060932160376129 -0.05949778348921443 -0.0014343768869145563 -0.011419535147526354 0.0 0.0
0.0 0.07826138598238647 0.06810028507934346 -0.06658441482105415 -0.001515870258289297 -0.009317183283520358 0.0 0.0
0.0 0.08334082937239251 0.07265215493351605 -0.07108071398626414 -0.0015714409472518825 -0.004884465997448228 0.0 0.0
0.0 0.08334082937238951 0.07265215493351296 -0.07108071398626137 -0.0015714409472516 0.004884465997471918 0.0 0.0
0.0 0.07826138598237627 0.0681002850793332 -0.06658441482104455 -0.001515870258288631 0.009317183283552175 0.0 0.0
0.0 0.07014788782054274 0.06093216037611193 -0.059497783489197674 -0.00143437688691424 0.011419535147548898 0.0 0.0
0.0 0.06036710411991874 0.0523768989590625 -0.0510310720591138 -0.0013458268999487091 0.011680121045019021 0.0 0.0
0.0 0.05017835289331449 0.04352890918404031 -0.04227017404592333 -0.0012587351381169664 0.010712346864323426 0.0 0.0
0.0 0.04070091482638537 0.035174488217850866 -0.033999901580015146 -0.0011745866378357077 0.00918715054261977 0.0 0.0
0.0 0.032108289003644847 0.027785695576523845 -0.02669372152360272 -0.0010919740529211344 0.007646418411914262 0.0 0.0
0.0 0.024837458359423647 0.021545846518161056 -0.020535593439301628 -0.001010253078859425 0.006314604192101352 0.0 0.0
0.0 0.018872635082357425 0.016407756821398736 -0.015478782260446109 -0.0009289745609526219 0.005193482859060329 0.0 0.0
0.0 0.013949386473730167 0.012178199726479466 -0.011336496741669514 -0.0008417029848099613 0.004200473720455871 0.0 0.0
0.0 0.00985776115130551 0.008653064725637136 -0.00791118422067119 -0.0007418805049659427 0.003243893524002962 0.0 0.0
0.0 0.006471923738399729 0.005707397376979798 -0.005089112856619258 -0.0006182845203605381 0.0023268321479036156 0.0 0.0
0.0 0.00372586916948962 0.003311456570862787 -0.0028529308936379844 -0.0004585256772248014 0.001489537969109568 0.0 0.0
0.0 0.0017253147652932141 0.0014924067623648353 -0.0012321092398096354 -0.0002602975225551996 0.0007546378737304646 0.0 0.0
0.0 0.00055400773410966 0.0003679150771391189 -0.0002932496661411443 -7.46654109979746e-05 0.00022288422236126703 0.0 0.0
0.0 4.694803628020456e-05 9.891415572389e-06 -7.725340359841529e-06 -2.1660752125475617e-06 7.941844126971095e-06 0.0 0.0
0.0 1.7764958662467406e-06 -1.7819784004332652e-07 1.3787375695581053e-07 4.032408308752122e-08 -1.8782013217738892e-07 0.0 0.0
0.0 0.0 0.0 0.0 0.0 0.0 0.0 0.0
0.0 0.0 0.0 0.0 0.0 0.0 0.0 0.0
0.0 0.0032929170495667928 0.0020934346379281365 -0.002489480598799445 0.00039604596087130725 0.0027124535529369402 0.0 0.0
0.0 0.002247940363604247 0.001363127987410161 -0.0016756319703734477 0.0003125039829632871 -0.0018701405685928086 0.0 0.0
0.0 0.0 0.0 0.0 0.0 0.0 0.0 0.0
0.0 0.0 0.0 0.0 0.0 0.0 0.0 0.0
0.0 0.0 0.0 0.0 0.0 0.0 0.0 0.0
0.0 1.572333953816875e-05 -1.1766325554653632e-07 3.8900811776784946e-08 7.876244376972795e-08 3.0711188011713946e-08 0.0 0.0
0.0 0.00026046824882038533 0.00014926990564610054 -0.00011832837939520114 -3.094152625089952e-05 -0.00014024425145578353 0.0 0.0
0.0 0.0012155622855167824 0.0008922514753587398 -0.0007238278684800923 -0.00016842360687864734 -0.0006355979446492156 0.0 0.0
0.0 0.002777856705640622 0.0023672587863492276 -0.0019991735107158294 -0.0003680852756333979 -0.001462163870194135 0.0 0.0
0.0 0.005060139156566668 0.0043990884361156885 -0.003859054035089585 -0.0005400344010261012 -0.0024538256079260717 0.0 0.0
0.0 0.007939286959852822 0.006892735929129489 -0.006219444658699556 -0.0006732912704299338 -0.0034963261118850673 0.0 0.0
0.0 0.01140069276976722 0.009862507864851086 -0.009085516863603243 -0.0007769910012478398 -0.004575843935443445 0.0 0.0
0.0 0.015525148278246094 0.013402242421132485 -0.012539519771129517 -0.0008627226500029676 -0.0056864937468418236 0.0 0.0
0.0 0.020587862723920308 0.017690705277434063 -0.016750880267621577 -0.0009398250098124898 -0.006918676232109553 0.0 0.0
0.0 0.0266127202407195 0.02292099970541591 -0.021907113966838754 -0.0010138857385771558 -0.008397525499906971 0.0 0.0
0.0 0.03390583780649298 0.029163605067652143 -0.028076057147329473 -0.0010875479203226594 -0.010085511342561426 0.0 0.0
0.0 0.042301327321649915 0.03630107117587865 -0.035138804023326045 -0.0011622671525525993 -0.011735689306910397 0.0 0.0
0.0 0.05101610095473204 0.043987359241592514 -0.04274936085519813 -0.00123799838639438 -0.01288566082526878 0.0 0.0
0.0 0.05962266934396733 0.051592343919208666 -0.050276595363376336 -0.0013157485558323218 -0.012779749221243048 0.0 0.0
0.0 0.06702623922696543 0.058189385942708075 -0.05680030143867725 -0.0013890845040308115 -0.010567025455421451 0.0 0.0
0.0 0.07192564263202941 0.06264902378059943 -0.06120706693107461 -0.0014419568495248085 -0.0055672766257962945 0.0 0.0
0.0 0.07192564263202575 0.06264902378059567 -0.06120706693107087 -0.0014419568495247555 0.005567276625821052 0.0 0.0
0.0 0.06702623922695361 0.05818938594269657 -0.05680030143866531 -0.0013890845040312513 0.010567025455453165 0.0 0.0
0.0 0.05962266934395429 0.051592343919195705 -0.05027659536336371 -0.001315748555831975 0.012779749221266765 0.0 0.0
0.0 0.05101610095471357 0.043987359241575416 -0.04274936085518154 -0.0012379983863938905 0.012885660825279916 0.0 0.0
0.0 0.04230132732162825 0.0363010711758595 -0.035138804023307685 -0.001162267152551826 0.011735689306907719 0.0 0.0
0.0 0.033905837806470086 0.029163605067631986 -0.028076057147309878 -0.0010875479203220973 0.01008551134255846 0.0 0.0
0.0 0.026612720240697607 0.022920999705396586 -0.021907113966820137 -0.001013885738576448 0.008397525499903752 0.0 0.0
0.0 0.02058786272389703 0.017690705277413368 -0.016750880267601263 -0.0009398250098120984 0.006918676232106043 0.0 0.0
0.0 0.01552514827822246 0.013402242421111737 -0.012539519771109347 -0.0008627226500023842 0.005686493746833788 0.0 0.0
0.0 0.011400692769746278 0.00986250786483277 -0.009085516863585604 -0.0007769910012471667 0.004575843935434435 0.0 0.0
0.0 0.007939286959834587 0.006892735929113989 -0.006219444658684792 -0.0006732912704291937 0.003496326111874763 0.0 0.0
0.0 0.0050601391565531185 0.004399088436103603 -0.003859054035078354 -0.0005400344010252464 0.002453825607920204 0.0 0.0
0.0 0.0027778567056300292 0.002367258786340104 -0.0019991735107077586 -0.00036808527563234533 0.0014621638701888665 0.0 0.0
0.0 0.0012155622855105738 0.0008922514753539341 -0.0007238278684761059 -0.00016842360687782822 0.0006355979446462315 0.0 0.0
0.0 0.00026046824881795243 0.0001492699056448879 -0.00011832837939423091 -3.0941526250657025e-05 0.0001402442514546316 0.0 0.0
0.0 1.572333953754248e-05 -1.1766325539264759e-07 3.890081165780731e-08 7.876244373491127e-08 -3.071118782164568e-08 0.0 0.0
0.0 0.0 0.0 0.0 0.0 0.0 0.0 0.0
0.0 0.0 0.0 0.0 0.0 0.0 0.0 0.0
0.0 0.0 0.0 0.0 0.0 0.0 0.0 0.0
0.0 0.002247940363594989 0.0013631279874044525 -0.0016756319703668619 0.00031250398296240917 0.001870140568584285 0.0 0.0
0.0 0.0014005460117357124 0.0008182349853325558 -0.0010384443559802346 0.00022020937064767853 -0.0011708349538224485 0.0 0.0
0.0 0.0 0.0 0.0 0.0 0.0 0.0 0.0
0.0 0.0 0.0 0.0 0.0 0.0 0.0 0.0
0.0 0.0 0.0 0.0 0.0 0.0 0.0 0.0
0.0 1.0042081989473157e-05 -9.329724215854319e-07 7.201815348631364e-07 2.1279088672229382e-07 1.7612736881375419e-06 0.0 0.0
0.0 9.424575984371391e-05 5.504136281286463e-05 -4.362053978083578e-05 -1.1420823032028832e-05 -8.156346289153362e-05 0.0 0.0
0.0 0.0006577778448204656 0.00045541926066617407 -0.00036397121930884153 -9.144804135733225e-05 -0.0004741366428381228 0.0 0.0
0.0 0.0019046234886197938 0.0014935523126632505 -0.0012338725276301386 -0.00025967978503311216 -0.001256001431078617 0.0 0.0
0.0 0.0037383667938508773 0.0031176175527059956 -0.0026771146121545297 -0.00044050294055146587 -0.0023041888458520854 0.0 0.0
0.0 0.006078395412056207 0.005164344420849858 -0.004578747390900993 -0.0005855970299488633 -0.003448622969635152 0.0 0.0
0.0 0.008896034254676855 0.007584231919765646 -0.006887836944300301 -0.0006963949754653443 -0.004593540197819239 0.0 0.0
0.0 0.012264358910372718 0.010446929037643281 -0.009662144053240479 -0.0007847849844028021 -0.005761110035019545 0.0 0.0
0.0 0.016334890073858264 0.013902235612458881 -0.013042265039573247 -0.0008599705728856357 -0.007043488958516776 0.0 0.0
0.0 0.02131432615175896 0.01812381224120119 -0.01719516117725506 -0.0009286510639461323 -0.008540150197906063 0.0 0.0
0.0 0.02734730782195077 0.023211516794500626 -0.022217283162532245 -0.0009942336319683886 -0.010258631656119508 0.0 0.0
0.0 0.03409584502964242 0.029114184774927148 -0.02805529302714645 -0.0010588917477807023 -0.011978138352832625 0.0 0.0
0.0 0.0416688726078512 0.03558307071624171 -0.034459496264822184 -0.0011235744514195233 -0.013208166473299296 0.0 0.0
0.0 0.049211588140364027 0.04218268175865611 -0.040993943433270806 -0.0011887383253852792 -0.013267501112230125 0.0 0.0
0.0 0.05574311981395523 0.0482076876941011 -0.04695461232961403 -0.001253075364487057 -0.01122787530596673 0.0 0.0
0.0 0.0605217461972172 0.0526292350641603 -0.05132427649787472 -0.0013049585662855908 -0.006104482776623585 0.0 0.0
0.0 0.060521746197213816 0.052629235064156704 -0.051324276497871045 -0.0013049585662856771 0.006104482776647931 0.0 0.0
0.0 0.05574311981394559 0.04820768769409087 -0.046954612329603754 -0.0012530753644871217 0.011227875305998145 0.0 0.0
0.0 0.04921158814035329 0.042182681758644605 -0.0409939434332599 -0.0011887383253847152 0.013267501112253744 0.0 0.0
0.0 0.04166887260783626 0.035583070716227655 -0.03445949626480864 -0.001123574451418997 0.013208166473308566 0.0 0.0
0.0 0.03409584502962283 0.02911418477491017 -0.02805529302712992 -0.0010588917477802379 0.011978138352829045 0.0 0.0
0.0 0.027347307821929928 0.02321151679448253 -0.022217283162514482 -0.0009942336319680447 0.01025863165611434 0.0 0.0
0.0 0.021314326151741253 0.018123812241185394 -0.01719516117723985 -0.0009286510639455473 0.008540150197902639 0.0 0.0
0.0 0.016334890073839918 0.013902235612442637 -0.013042265039557544 -0.000859970572885091 0.007043488958513172 0.0 0.0
0.0 0.012264358910354545 0.010446929037627636 -0.00966214405322543 -0.0007847849844022042 0.005761110035012318 0.0 0.0
0.0 0.008896034254661539 0.007584231919752349 -0.006887836944287899 -0.0006963949754644494 0.004593540197811593 0.0 0.0
0.0 0.00607839541204127 0.005164344420837178 -0.004578747390889126 -0.0005855970299480502 0.0034486229696250644 0.0 0.0
0.0 0.0037383667938386527 0.0031176175526953674 -0.0026771146121447767 -0.0004405029405505905 0.002304188845845106 0.0 0.0
0.0 0.0019046234886122015 0.0014935523126570335 -0.0012338725276248286 -0.0002596797850322044 0.001256001431074048 0.0 0.0
0.0 0.0006577778448159629 0.0004554192606630302 -0.0003639712193062884 -9.144804135674169e-05 0.00047413664283533444 0.0 0.0
0.0 9.424575984245454e-05 5.504136281265597e-05 -4.3620539780662854e-05 -1.142082303199316e-05 8.156346289114498e-05 0.0 0.0
0.0 1.0042081989081814e-05 -9.329724215460563e-07 7.201815348328094e-07 2.127908867132563e-07 -1.7612736880608109e-06 0.0 0.0
0.0 0.0 0.0 0.0 0.0 0.0 0.0 0.0
0.0 0.0 0.0 0.0 0.0 0.0 0.0 0.0
0.0 0.0 0.0 0.0 0.0 0.0 0.0 0.0
0.0 0.0014005460117284048 0.0008182349853282952 -0.001038444355975173 0.00022020937064687804 0.0011708349538160012 0.0 0.0
0.0 0.000779573069364484 0.00042174086688971646 -0.0005515155936325084 0.0001297747267427918 -0.0006278838548449195 0.0 0.0
0.0 0.0 0.0 0.0 0.0 0.0 0.0 0.0
0.0 0.0 0.0 0.0 0.0 0.0 0.0 0.0
0.0 0.0 0.0 0.0 0.0 0.0 0.0 0.0
0.0 3.3409724633956906e-06 -1.3481077184589717e-07 9.771051492566958e-08 3.7100256920223294e-08 3.2682323850660956e-07 0.0 0.0
0.0 5.312953647343812e-05 1.1612742575036956e-05 -9.204594715382543e-06 -2.40814785965445e-06 -2.442979039390319e-05 0.0 0.0
0.0 0.0002979823023313272 0.00017604622578505852 -0.00013965200385079296 -3.63942219342655e-05 -0.000285948104108194 0.0 0.0
0.0 0.0011007437553559008 0.0007776713417509813 -0.0006282986670257715 -0.00014937267472520934 -0.0009332744541880517 0.0 0.0
0.0 0.0024832869971853273 0.0019156659503486739 -0.0016019674807972223 -0.0003136984695514506 -0.0018966081054907283 0.0 0.0
0.0 0.004288412054477225 0.0034841120810250583 -0.0030146038659955706 -0.0004695082150294876 -0.0030500425463880813 0.0 0.0
0.0 0.006474671446949657 0.00535840776545995 -0.004768205351161132 -0.0005902024142988179 -0.0042355368787683634 0.0 0.0
0.0 0.009077153299314921 0.007557649769440796 -0.00687150599375452 -0.0006861437756862769 -0.005404631577743405 0.0 0.0
0.0 0.012235135159477332 0.010196450387440733 -0.009432512665859528 -0.0007639377215812019 -0.006656849926782613 0.0 0.0
0.0 0.01605523575377649 0.013427778630186007 -0.012596895940478461 -0.0008308826897075374 -0.008095176699219456 0.0 0.0
0.0 0.020732489030178537 0.01735637432024425 -0.01646661930117684 -0.000889755019067406 -0.009723311948302461 0.0 0.0
0.0 0.026206929430192823 0.02199381636545962 -0.02104714699502743 -0.0009466693704321793 -0.011366677399665692 0.0 0.0
0.0 0.03220548517527459 0.027201253371974644 -0.026200977115434454 -0.001000276256540192 -0.01263510886360106 0.0 0.0
0.0 0.03846866321055924 0.032716753943479254 -0.0316656342458544 -0.0010511196976248599 -0.01289777867772158 0.0 0.0
0.0 0.04450019223890039 0.03809973531081544 -0.03699554168197138 -0.0011041936288440379 -0.01125718658311337 0.0 0.0
0.0 0.049252106064626114 0.04250410153334422 -0.041347506940816084 -0.0011565945925281278 -0.006476746842979074 0.0 0.0
0.0 0.04925210606462396 0.04250410153334162 -0.04134750694081351 -0.0011565945925281057 0.006476746843000533 0.0 0.0
0.0 0.044500192238893774 0.038099735310807625 -0.036995541681963326 -0.0011041936288443003 0.011257186583143411 0.0 0.0
0.0 0.038468663210549245 0.032716753943468374 -0.031665634245843496 -0.0010511196976248803 0.01289777867774309 0.0 0.0
0.0 0.032205485175262366 0.027201253371962823 -0.026200977115422925 -0.0010002762565399018 0.01263510886360824 0.0 0.0
0.0 0.026206929430177765 0.021993816365446617 -0.021047146995014723 -0.0009466693704318848 0.011366677399661525 0.0 0.0
0.0 0.020732489030161755 0.01735637432023 -0.01646661930116264 -0.0008897550190673664 0.009723311948296495 0.0 0.0
0.0 0.0160552357537619 0.01342777863017332 -0.01259689594046597 -0.0008308826897073459 0.008095176699215511 0.0 0.0
0.0 0.012235135159464224 0.010196450387429078 -0.009432512665848457 -0.0007639377215806192 0.00665684992677925 0.0 0.0
0.0 0.009077153299300334 0.007557649769428288 -0.006871505993742704 -0.0006861437756855836 0.005404631577735885 0.0 0.0
0.0 0.006474671446935143 0.005358407765447985 -0.004768205351149745 -0.0005902024142982398 0.004235536878759062 0.0 0.0
0.0 0.004288412054464872 0.0034841120810151717 -0.003014603865986545 -0.00046950821502862624 0.0030500425463782857 0.0 0.0
0.0 0.002483286997174802 0.001915665950340446 -0.0016019674807898584 -0.0003136984695505863 0.0018966081054836758 0.0 0.0
0.0 0.0011007437553491256 0.0007776713417460328 -0.0006282986670216825 -0.00014937267472435057 0.000933274454183021 0.0 0.0
0.0 0.0002979823023283942 0.00017604622578342246 -0.00013965200384947573 -3.639422193394651e-05 0.0002859481041057742 0.0 0.0
0.0 5.312953647241429e-05 1.161274257499543e-05 -9.20459471535062e-06 -2.4081478596447373e-06 2.4429790393798672e-05 0.0 0.0
0.0 3.340972463138256e-06 -1.3481077167987692e-07 9.771051479264621e-08 3.710025688722438e-08 -3.268232380256036e-07 0.0 0.0
0.0 0.0 0.0 0.0 0.0 0.0 0.0 0.0
0.0 0.0 0.0 0.0 0.0 0.0 0.0 0.0
0.0 0.0 0.0 0.0 0.0 0.0 0.0 0.0
0.0 0.0007795730693594316 0.00042174086688712527 -0.000551515593629303 0.0001297747267421777 0.000627883854840942 0.0 0.0
0.0 0.00035390811898300466 0.00016148723114124482 -0.00021894266174516498 5.745543060392045e-05 -0.0002461301853310685 0.0 0.0
0.0 9.021725963171627e-08 -5.274566123778698e-10 6.099197200343717e-10 -8.24631076566411e-11 1.7958020711408732e-08 0.0 0.0
0.0 0.0 0.0 0.0 0.0 0.0 0.0 0.0
0.0 0.0 0.0 0.0 0.0 0.0 0.0 0.0
0.0 2.941446764786285e-06 -1.3952363807393717e-07 1.0592787567314353e-07 3.3595762400780106e-08 5.885360677433528e-07 0.0 0.0
0.0 2.877020440691366e-05 4.580949558645898e-06 -3.534094153729945e-06 -1.0468554049159532e-06 -1.3630128973242703e-05 0.0 0.0
0.0 0.00013913340929286528 5.70658304495528e-05 -4.5123751413028385e-05 -1.1942079036524438e-05 -0.00015283285249124553 0.0 0.0
0.0 0.0004997361480765601 0.0002844891777426078 -0.00022559630505729632 -5.8892872685311505e-05 -0.0005552633291924573 0.0 0.0
0.0 0.0013668040951125935 0.0008939787846205706 -0.0007256070621859387 -0.00016837172243463146 -0.0013057142760635684 0.0 0.0
0.0 0.002550217236406983 0.001917521206910975 -0.0016048074949273155 -0.0003127137119836602 -0.0023237020500878353 0.0 0.0
0.0 0.0041958193244316 0.0032172831945315367 -0.0027763449757422284 -0.0004409382187893068 -0.003436330872629292 0.0 0.0
0.0 0.006012699297583867 0.004761598878896564 -0.004214582087053071 -0.0005470167918434933 -0.004564365414028958 0.0 0.0
0.0 0.008225396222360506 0.006606129142694994 -0.005971663292731498 -0.0006344658499634948 -0.005741916112430033 0.0 0.0
0.0 0.010964961646661563 0.008865466736295069 -0.008159253271024049 -0.0007062134652710197 -0.007035639851718883 0.0 0.0
0.0 0.014372087548107117 0.011642856493551412 -0.01087712231916958 -0.0007657341743818318 -0.008468533076232777 0.0 0.0
0.0 0.018376436484482277 0.014993980371906947 -0.014177964673921973 -0.0008160156979849754 -0.00993746252167464 0.0 0.0
0.0 0.02299392627715622 0.018887684333198457 -0.01802529744631385 -0.0008623868868846096 -0.011114924184817033 0.0 0.0
0.0 0.02785492450790625 0.023218833449635233 -0.02231787723259363 -0.0009009562170415902 -0.011541851957177445 0.0 0.0
0.0 0.032860605070101426 0.027829297631448743 -0.026893464218612936 -0.0009358334128357873 -0.010550409943650856 0.0 0.0
0.0 0.03744845666521578 0.03218791225618358 -0.03120083579261223 -0.0009870764635713407 -0.006650979283176436 0.0 0.0
0.0 0.037448456665215034 0.03218791225618193 -0.03120083579261068 -0.0009870764635712367 0.00665097928319437 0.0 0.0
0.0 0.03286060507009851 0.027829297631443747 -0.026893464218608158 -0.000935833412835588 0.010550409943675874 0.0 0.0
0.0 0.02785492450790133 0.023218833449628516 -0.022317877232587456 -0.0009009562170410612 0.011541851957195596 0.0 0.0
0.0 0.022993926277148878 0.018887684333190775 -0.018025297446307008 -0.00086238688688377 0.011114924184823096 0.0 0.0
0.0 0.01837643648447207 0.014993980371898193 -0.014177964673913957 -0.0008160156979842318 0.009937462521670902 0.0 0.0
0.0 0.014372087548095509 0.01164285649354176 -0.010877122319160347 -0.000765734174381408 0.008468533076227379 0.0 0.0
0.0 0.010964961646651908 0.008865466736286815 -0.008159253271016138 -0.000706213465270678 0.0070356398517157585 0.0 0.0
0.0 0.008225396222352618 0.006606129142687946 -0.005971663292724857 -0.0006344658499630898 0.005741916112427964 0.0 0.0
0.0 0.0060126992975740685 0.004761598878888463 -0.004214582087045519 -0.000547016791842944 0.004564365414022988 0.0 0.0
0.0 0.004195819324421949 0.003217283194523933 -0.0027763449757354673 -0.0004409382187884652 0.0034363308726214747 0.0 0.0
0.0 0.002550217236398546 0.0019175212069048357 -0.0016048074949220345 -0.0003127137119828009 0.002323702050080308 0.0 0.0
0.0 0.0013668040951067433 0.0008939787846163734 -0.0007256070621824489 -0.0001683717224339249 0.0013057142760588036 0.0 0.0
0.0 0.0004997361480737182 0.00028448917774090177 -0.00022559630505592388 -5.889287268497777e-05 0.0005552633291898117 0.0 0.0
0.0 0.00013913340929127437 5.7065830449122836e-05 -4.512375141268066e-05 -1.1942079036442228e-05 0.00015283285249013872 0.0 0.0
0.0 2.8770204406401877e-05 4.580949558636891e-06 -3.534094153723493e-06 -1.0468554049133716e-06 1.363012897323998e-05 0.0 0.0
0.0 2.9414467642801842e-06 -1.3952363805020315e-07 1.0592787565476392e-07 3.359576239544616e-08 -5.885360676368125e-07 0.0 0.0
0.0 0.0 0.0 0.0 0.0 0.0 0.0 0.0
0.0 0.0 0.0 0.0 0.0 0.0 0.0 0.0
0.0 9.021725939530122e-08 -5.274566109826295e-10 6.099197184208691e-10 -8.246310743827494e-11 -1.7958020663926448e-08 0.0 0.0
0.0 0.0003539081189797906 0.00016148723113999143 -0.00021894266174353518 5.745543060354397e-05 0.000246130185329179 0.0 0.0
0.0 9.504795129819458e-05 4.022374357096655e-05 -5.711107874500615e-05 1.6887335174039656e-05 -6.459786448713046e-05 0.0 0.0
0.0 1.8030073051673429e-06 -4.177191184509683e-09 1.0378638774830307e-08 -6.201447590320216e-09 3.8291760625588695e-07 0.0 0.0
0.0 0.0 0.0 0.0 0.0 0.0 0.0 0.0
0.0 1.3942118126280809e-06 -1.7202479833820512e-08 1.1633862331670308e-08 5.568617502153395e-09 2.882879494068393e-07 0.0 0.0
0.0 3.0628381032312882e-06 -6.90575449801798e-08 5.370267077264668e-08 1.5354874207528902e-08 6.580753880870616e-07 0.0 0.0
0.0 2.211888597050854e-05 8.457540623955026e-07 -6.870049327467096e-07 -1.587491296487973e-07 -4.831911945506486e-06 0.0 0.0
0.0 9.807411358330034e-05 2.283087236466016e-05 -1.8065974519629765e-05 -4.764897845030364e-06 -0.00010816265858111183 0.0 0.0
0.0 0.00022809627876227477 8.498771957916807e-05 -6.719782270560827e-05 -1.778989687355977e-05 -0.00033044458733815955 0.0 0.0
0.0 0.0005499834886811132 0.00024036523083669658 -0.00019045909993053536 -4.990613090616118e-05 -0.0006998200804859461 0.0 0.0
0.0 0.0011354503349000258 0.0006318801909163721 -0.0005072554956176647 -0.0001246246952987074 -0.0013661779852462974 0.0 0.0
0.0 0.0019995661397981387 0.0012968147425077806 -0.001067238456661364 -0.0002295762858464166 -0.0022432307085734197 0.0 0.0
0.0 0.003158162370192291 0.002147892981712347 -0.0018161359176164693 -0.0003317570640958779 -0.003203589968031422 0.0 0.0
0.0 0.00452468838605269 0.003201917094573446 -0.0027743781765177957 -0.0004275389180556481 -0.004263887124842664 0.0 0.0
0.0 0.006213250835906365 0.004513509656317259 -0.004001216850236264 -0.0005122928060809924 -0.00538730743500412 0.0 0.0
0.0 0.008298284295142407 0.00615498133298401 -0.005572044578524003 -0.0005829367544600063 -0.006578578210443187 0.0 0.0
0.0 0.010850331224432323 0.008204950257736616 -0.007566076602520934 -0.0006388736552156838 -0.007801391644479986 0.0 0.0
0.0 0.013954760962685215 0.01073792757653018 -0.010054487516573254 -0.0006834400599569317 -0.008875865350423359 0.0 0.0
0.0 0.01749545552021773 0.013795485146362148 -0.013071702724406161 -0.00072378242195599 -0.00936222497333495 0.0 0.0
0.0 0.021497522220241656 0.017413523381212978 -0.016671943002927167 -0.0007415803782858153 -0.008954370514712214 0.0 0.0
0.0 0.02577290808247966 0.021568786539389546 -0.02078896248102474 -0.0007798240583648129 -0.006485873400738788 0.0 0.0
0.0 0.025772908082480252 0.021568786539388995 -0.020788962481024256 -0.0007798240583647505 0.0064858734007525055 0.0 0.0
0.0 0.021497522220243093 0.017413523381211594 -0.016671943002925998 -0.0007415803782855892 0.008954370514733826 0.0 0.0
0.0 0.01749545552021621 0.013795485146358272 -0.013071702724402777 -0.0007237824219554977 0.009362224973350437 0.0 0.0
0.0 0.013954760962680151 0.010737927576525152 -0.010054487516568619 -0.0006834400599565293 0.008875865350425656 0.0 0.0
0.0 0.010850331224424841 0.00820495025773112 -0.007566076602515879 -0.0006388736552152377 0.007801391644474524 0.0 0.0
0.0 0.008298284295134874 0.006154981332978381 -0.005572044578518614 -0.0005829367544597646 0.00657857821043778 0.0 0.0
0.0 0.0062132508359016535 0.00451350965631327 -0.004001216850232632 -0.0005122928060806378 0.005387307435002035 0.0 0.0
0.0 0.00452468838604915 0.0032019170945702035 -0.002774378176514943 -0.00042753891805526027 0.004263887124841442 0.0 0.0
0.0 0.003158162370186089 0.0021478929817078628 -0.001816135917612656 -0.0003317570640952067 0.0032035899680263324 0.0 0.0
0.0 0.0019995661397915736 0.001296814742503471 -0.0010672384566576861 -0.0002295762858457841 0.0022432307085667505 0.0 0.0
0.0 0.0011354503348948368 0.000631880190913584 -0.0005072554956153241 -0.00012462469529825974 0.0013661779852404223 0.0 0.0
0.0 0.0005499834886789443 0.000240365230835621 -0.00019045909992968364 -4.990613090593722e-05 0.0006998200804833631 0.0 0.0
0.0 0.0002280962787611285 8.498771957889017e-05 -6.719782270539776e-05 -1.7789896873492386e-05 0.00033044458733717634 0.0 0.0
0.0 9.80741135822237e-05 2.2830872364511547e-05 -1.8065974519510526e-05 -4.764897845001e-06 0.00010816265858037365 0.0 0.0
0.0 2.211888596997731e-05 8.457540624005348e-07 -6.870049327499272e-07 -1.5874912965059566e-07 4.831911945558307e-06 0.0 0.0
0.0 3.062838102718457e-06 -6.905754496692381e-08 5.3702670762761436e-08 1.535487420416051e-08 -6.580753879724068e-07 0.0 0.0
0.0 1.3942118121365584e-06 -1.7202479827439693e-08 1.1633862327329383e-08 5.568617500112952e-09 -2.8828794930130727e-07 0.0 0.0
0.0 0.0 0.0 0.0 0.0 0.0 0.0 0.0
0.0 1.8030073045943297e-06 -4.1771911826671024e-09 1.0378638770354691e-08 -6.201447587687759e-09 -3.8291760613307903e-07 0.0 0.0
0.0 9.504795129664627e-05 4.022374357066998e-05 -5.7111078744565104e-05 1.6887335173895125e-05 6.45978644868263e-05 0.0 0.0
0.0 1.1048024290213577e-05 1.2685875028749526e-06 -1.8700989282763727e-06 6.015114254014265e-07 -2.1319874564816656e-06 0.0 0.0
0.0 2.1979396482406107e-06 1.1868574056845524e-09 1.0883559240507842e-08 -1.207041664619258e-08 4.588111399241068e-07 0.0 0.0
0.0 8.28283976103979e-07 8.757322001854407e-09 -7.994197467743662e-09 -7.631245341108108e-10 1.6872916499049268e-07 0.0 0.0
0.0 1.0341171999299922e-06 3.4830124123105497e-09 -4.631541757330647e-09 1.1485293450206947e-09 2.129476539670559e-07 0.0 0.0
0.0 5.455561020512527e-06 -1.877319191668789e-08 9.400339741409076e-09 9.372852175272426e-09 1.2338249442580408e-06 0.0 0.0
0.0 1.897826044452436e-05 3.955480842695518e-07 -3.1027986368329494e-07 -8.526822058624652e-08 -7.78321683088763e-06 0.0 0.0
0.0 7.624650554783569e-05 6.88841842717635e-06 -5.427316271309033e-06 -1.4611021558673187e-06 -0.00010302394339497388 0.0 0.0
0.0 0.0001962722427467401 2.0982430052064865e-05 -1.656157134405229e-05 -4.420858708012546e-06 -0.00024922895430489644 0.0 0.0
0.0 0.0003268259564589303 5.1230918482906114e-05 -4.0546181558087345e-05 -1.0684736924818796e-05 -0.0004937520365360466 0.0 0.0
0.0 0.0005618689968489744 9.98546223383492e-05 -7.939300085847321e-05 -2.0461621479875967e-05 -0.0008032243066459606 0.0 0.0
0.0 0.0007819451223584686 0.00018422043629663643 -0.00014750116854637027 -3.671926775026616e-05 -0.0012947551183650433 0.0 0.0
0.0 0.0011771993737056136 0.0003188062404451088 -0.00025577401721047876 -6.303222323462993e-05 -0.001904122683438102 0.0 0.0
0.0 0.0017305190652916686 0.0005461652566245769 -0.00043789280405545313 -0.0001082724525691238 -0.0026881819758428657 0.0 0.0
0.0 0.0024640323681532385 0.0008626961971010599 -0.0006973606960176658 -0.00016533550108339381 -0.003648821075174077 0.0 0.0
0.0 0.003387486150239923 0.001302974224735766 -0.0010714692036258204 -0.00023150502110994524 -0.004801928997813026 0.0 0.0
0.0 0.0046234966693798505 0.0019902773246168503 -0.0016935025087353004 -0.0002967748158815488 -0.006067171987824273 0.0 0.0
0.0 0.00621417856057214 0.003087099712675451 -0.002732491715379567 -0.00035460799729588303 -0.007222568641286315 0.0 0.0
0.0 0.008244236769467159 0.004801747802345107 -0.004383838764550545 -0.0004179090377945608 -0.007808421892845133 0.0 0.0
0.0 0.01080015938471631 0.007231881013682049 -0.006750188605551047 -0.00048169240813100196 -0.0074181320142291465 0.0 0.0
0.0 0.01428964361363793 0.010699239999364079 -0.010225009596031181 -0.0004742304033328886 -0.00616046754685175 0.0 0.0
0.0 0.014289643613638135 0.010699239999363522 -0.010225009596030581 -0.0004742304033329386 0.006160467546860336 0.0 0.0
0.0 0.010800159384717959 0.0072318810136811065 -0.0067501886055501585 -0.0004816924081309455 0.0074181320142437356 0.0 0.0
0.0 0.008244236769466656 0.00480174780234296 -0.004383838764548391 -0.00041790903779456555 0.007808421892853931 0.0 0.0
0.0 0.006214178560569434 0.0030870997126735355 -0.0027324917153776504 -0.0003546079972958848 0.007222568641285702 0.0 0.0
0.0 0.004623496669376823 0.001990277324615916 -0.0016935025087343957 -0.00029677481588151895 0.006067171987818866 0.0 0.0
0.0 0.003387486150236571 0.0013029742247342116 -0.001071469203624418 -0.00023150502110979323 0.004801928997808778 0.0 0.0
0.0 0.0024640323681510415 0.0008626961971003766 -0.0006973606960170558 -0.00016533550108332077 0.003648821075171127 0.0 0.0
0.0 0.0017305190652897925 0.0005461652566239312 -0.0004378928040550275 -0.00010827245256890352 0.0026881819758403282 0.0 0.0
0.0 0.0011771993737030057 0.0003188062404445198 -0.0002557740172099535 -6.303222323456628e-05 0.0019041226834338241 0.0 0.0
0.0 0.0007819451223561568 0.0001842204362960386 -0.00014750116854590046 -3.671926775013817e-05 0.0012947551183609706 0.0 0.0
0.0 0.0005618689968462532 9.985462233791855e-05 -7.939300085809404e-05 -2.0461621479824474e-05 0.0008032243066418589 0.0 0.0
0.0 0.00032682595645778026 5.123091848274058e-05 -4.054618155796375e-05 -1.0684736924776789e-05 0.0004937520365343629 0.0 0.0
0.0 0.00019627224274571821 2.098243005194623e-05 -1.656157134396234e-05 -4.420858707983886e-06 0.00024922895430343065 0.0 0.0
0.0 7.624650554708483e-05 6.888418427133686e-06 -5.427316271275616e-06 -1.461102155858061e-06 0.00010302394339427759 0.0 0.0
0.0 1.897826044409185e-05 3.9554808427697364e-07 -3.1027986368851526e-07 -8.526822058846266e-08 7.783216831046743e-06 0.0 0.0
0.0 5.4555610200182124e-06 -1.87731919147807e-08 9.400339740515117e-09 9.372852174262189e-09 -1.2338249441362645e-06 0.0 0.0
0.0 1.0341171994111593e-06 3.4830124097744975e-09 -4.63154175459075e-09 1.1485293448161685e-09 -2.1294765385734702e-07 0.0 0.0
0.0 8.282839756553083e-07 8.757321996808003e-09 -7.99419746324245e-09 -7.631245335657651e-10 -1.687291648967851e-07 0.0 0.0
0.0 2.1979396476663126e-06 1.1868574058352821e-09 1.0883559236708018e-08 -1.2070416642541689e-08 -4.588111397997392e-07 0.0 0.0
0.0 1.1048024289736773e-05 1.2685875029865048e-06 -1.8700989284387144e-06 6.015114254521607e-07 2.1319874567044183e-06 0.0 0.0
0.0 1.1154274967154838e-06 -6.940272927065707e-08 1.0140536005932445e-07 -3.2002630788669234e-08 1.5472886577778056e-07 0.0 0.0
0.0 1.7796170291698353e-06 6.777231581667589e-09 2.818520896233413e-09 -9.595752477896557e-09 3.8083891622846305e-07 0.0 0.0
0.0 1.006612653282911e-06 1.8800037151531995e-08 -1.6160969127413305e-08 -2.6390680241173787e-09 2.0557945423080885e-07 0.0 0.0
0.0 1.3830639415008088e-06 2.5459537940910303e-08 -2.257136934973081e-08 -2.8881685911793595e-09 2.8364822182210734e-07 0.0 0.0
0.0 6.329568723119171e-06 1.2100159608371412e-07 -9.95749289913299e-08 -2.1426667092374816e-08 1.450807040856032e-06 0.0 0.0
0.0 2.2027766982330526e-05 -3.138391131801396e-07 2.640201801222614e-07 4.981893305787203e-08 -5.088379498586792e-06 0.0 0.0
0.0 7.799895507508858e-05 -7.2870153576611715e-06 5.817097787168349e-06 1.4699175704928087e-06 -0.00010358169317496488 0.0 0.0
0.0 0.00019654293794131952 -2.0955922268713898e-05 1.6538481768639644e-05 4.417440500074221e-06 -0.00024952697662285585 0.0 0.0
0.0 0.0003265046413555637 -5.093552131758206e-05 4.028680573454789e-05 1.0648715583034143e-05 -0.0004935628439833141 0.0 0.0
0.0 0.0005612639994325957 -9.948048352263253e-05 7.905972739175192e-05 2.0420756130880684e-05 -0.0008025440833401504 0.0 0.0
0.0 0.0007891848244725347 -0.00018241756730654675 0.00014630859863604424 3.6108968670502453e-05 -0.0012928719212196504 0.0 0.0
0.0 0.001178447639311817 -0.0003203159970499369 0.00025737262485016994 6.294337219976687e-05 -0.0019046257321262635 0.0 0.0
0.0 0.0017365075196915907 -0.0005542409215718699 0.0004452639946580322 0.0001089769269138377 -0.0026896390341767254 0.0 0.0
0.0 0.0024831805031266733 -0.0008775855060358298 0.0007091428790369881 0.00016844262699884142 -0.0036533258985848643 0.0 0.0
0.0 0.003378726486279682 -0.0012860506230045843 0.0010484242265253892 0.00023762639647919442 -0.004810863358188609 0.0 0.0
0.0 0.004443515868137772 -0.0017087718890630489 0.0014028391425045864 0.00030593274655846086 -0.006122265206394069 0.0 0.0
0.0 0.005453291845019896 -0.0019256162700034569 0.0015671363987383197 0.00035847987126513586 -0.0075749336641519165 0.0 0.0
0.0 0.006246287970187551 -0.00166037855207352 0.0012701436718048778 0.00039023488026864193 -0.009133555136875334 0.0 0.0
0.0 0.006568333852399581 -0.0008149259951612499 0.000529928650087149 0.00028499734507410053 -0.010362042734818373 0.0 0.0
0.0 0.006109418002632134 0.00140688189218089 -0.0014927148858518869 8.583299367099666e-05 -0.008942569399232457 0.0 0.0
0.0 0.006109418002635786 0.0014068818921810905 -0.0014927148858521078 8.583299367101612e-05 0.008942569399240406 0.0 0.0
0.0 0.006568333852403601 -0.0008149259951619501 0.0005299286500876031 0.00028499734507434626 0.010362042734826224 0.0 0.0
0.0 0.006246287970187489 -0.0016603785520734255 0.0012701436718048984 0.0003902348802685257 0.009133555136877549 0.0 0.0
0.0 0.005453291845015724 -0.0019256162700013696 0.001567136398736626 0.00035847987126474376 0.007574933664148076 0.0 0.0
0.0 0.004443515868132407 -0.0017087718890600716 0.0014028391425018618 0.00030593274655820943 0.006122265206387948 0.0 0.0
0.0 0.0033787264862768823 -0.0012860506230033754 0.001048424226524517 0.00023762639647885772 0.004810863358185331 0.0 0.0
0.0 0.002483180503123064 -0.0008775855060340933 0.0007091428790356625 0.00016844262699843086 0.003653325898581505 0.0 0.0
0.0 0.0017365075196881887 -0.0005542409215697415 0.0004452639946562321 0.00010897692691350933 0.002689639034173146 0.0 0.0
0.0 0.0011784476393077662 -0.0003203159970482526 0.00025737262484875115 6.294337219950136e-05 0.001904625732120806 0.0 0.0
0.0 0.0007891848244698618 -0.0001824175673056688 0.00014630859863530777 3.6108968670361006e-05 0.0012928719212157538 0.0 0.0
0.0 0.0005612639994298542 -9.948048352192052e-05 7.905972739113284e-05 2.0420756130787656e-05 0.000802544083336078 0.0 0.0
0.0 0.00032650464135469345 -5.0935521317350514e-05 4.0286805734371686e-05 1.0648715582978821e-05 0.0004935628439821603 0.0 0.0
0.0 0.00019654293794059988 -2.0955922268611604e-05 1.65384817685573e-05 4.417440500054297e-06 0.0002495269766221599 0.0 0.0
0.0 7.799895507429357e-05 -7.287015357606502e-06 5.817097787135523e-06 1.4699175704709716e-06 0.00010358169317419832 0.0 0.0
0.0 2.202776698180411e-05 -3.1383911319260526e-07 2.6402018013316917e-07 4.981893305944778e-08 5.088379498787885e-06 0.0 0.0
0.0 6.329568722502479e-06 1.210015960720766e-07 -9.957492898152986e-08 -2.142666709055061e-08 -1.4508070407032778e-06 0.0 0.0
0.0 1.38306394101384e-06 2.5459537931086613e-08 -2.257136934122153e-08 -2.8881685898646692e-09 -2.8364822171881803e-07 0.0 0.0
0.0 1.0066126526757192e-06 1.8800037139368483e-08 -1.616096911716342e-08 -2.639068022204588e-09 -2.0557945410441137e-07 0.0 0.0
0.0 1.7796170285604457e-06 6.777231579867834e-09 2.8185208935578717e-09 -9.595752473420792e-09 -3.808389160997736e-07 0.0 0.0
0.0 1.1154274964526031e-06 -6.940272925345171e-08 1.0140536003419192e-07 -3.2002630780733594e-08 -1.5472886573936063e-07 0.0 0.0
0.0 0.0 0.0 0.0 0.0 0.0 0.0 0.0
0.0 3.276462985221994e-07 3.2186778971512715e-09 -1.5001146982919518e-09 -1.7185631988585876e-09 6.55534057056826e-08 0.0 0.0
0.0 1.1358547083526696e-06 2.9199022431040485e-08 -2.4414515400477513e-08 -4.784507030563987e-09 2.311035997749412e-07 0.0 0.0
0.0 4.433390297608247e-06 1.6015753021184142e-07 -1.3149237797340506e-07 -2.8665152238422848e-08 9.6169292488308e-07 0.0 0.0
0.0 6.248337019811894e-06 6.684509028277779e-08 -3.965983810783074e-08 -2.7185252174939256e-08 1.5620019407596302e-07 0.0 0.0
0.0 2.7746181840329623e-05 -3.4307721982542877e-06 2.6598780297423545e-06 7.708941685118959e-07 -1.6694322995580944e-05 0.0 0.0
0.0 0.00010418258516962697 -2.358674193142615e-05 1.8743749379251784e-05 4.842992552174359e-06 -0.00011042058855650002 0.0 0.0
0.0 0.0002291742698475475 -8.502344027726327e-05 6.723234789092307e-05 1.7791092386340175e-05 -0.00033098421130596967 0.0 0.0
0.0 0.0005480360273101679 -0.00023994440074706034 0.0001900769741674294 4.986742657963087e-05 -0.0006992202115452041 0.0 0.0
0.0 0.0011331619544170531 -0.0006308411733867503 0.0005063611284202019 0.00012448004496654823 -0.0013650436593874375 0.0 0.0
0.0 0.0019990606689367927 -0.0012966848173402872 0.0010672098470011324 0.00022947497033915488 -0.002243394294550016 0.0 0.0
0.0 0.0031612236156326546 -0.002151458119063516 0.0018198606728144521 0.0003315974462490637 -0.0032032530337286255 0.0 0.0
0.0 0.004537666255416717 -0.0032165918204300954 0.0027891688963936124 0.0004274229240364816 -0.004256944250164858 0.0 0.0
0.0 0.006241334046673659 -0.00454187665698107 0.0040277321490241455 0.0005141445079569231 -0.005378026681026881 0.0 0.0
0.0 0.008299059006327545 -0.00613846914421212 0.005546771953616638 0.0005916971905954814 -0.006625041056498186 0.0 0.0
0.0 0.01060678049139664 -0.007893287253194624 0.007233839780420234 0.0006594474727743859 -0.008085645968429615 0.0 0.0
0.0 0.012881694544286362 -0.009498014178322915 0.008778392472221975 0.0007196217061009411 -0.009788031316731814 0.0 0.0
0.0 0.01453446821296709 -0.01044499907420508 0.009675418378738497 0.0007695806954665816 -0.011616251916016198 0.0 0.0
0.0 0.014271255518289134 -0.009830570715522206 0.008979286311377602 0.0008512844041446018 -0.012344820566906526 0.0 0.0
0.0 0.010516764272195053 -0.006279746340105287 0.005423816014398493 0.0008559303257067922 -0.009975531984139132 0.0 0.0
0.0 0.010516764272200656 -0.006279746340107216 0.005423816014400417 0.0008559303257067984 0.009975531984150864 0.0 0.0
0.0 0.014271255518293184 -0.009830570715522204 0.008979286311377597 0.0008512844041446022 0.012344820566922803 0.0 0.0
0.0 0.0145344682129663 -0.010444999074202174 0.009675418378735869 0.0007695806954663051 0.01161625191602671 0.0 0.0
0.0 0.012881694544278 -0.009498014178315714 0.008778392472215067 0.0007196217061006479 0.009788031316730086 0.0 0.0
0.0 0.010606780491385807 -0.007893287253185943 0.007233839780411789 0.0006594474727741534 0.008085645968422907 0.0 0.0
0.0 0.00829905900631977 -0.00613846914420582 0.005546771953610752 0.0005916971905950655 0.006625041056493263 0.0 0.0
0.0 0.0062413340466653654 -0.0045418766569745184 0.004027732149018125 0.0005141445079563933 0.005378026681021859 0.0 0.0
0.0 0.004537666255408088 -0.003216591820422692 0.00278916889638677 0.0004274229240359192 0.004256944250160398 0.0 0.0
0.0 0.003161223615623105 -0.002151458119056448 0.0018198606728081384 0.00033159744624830983 0.0032032530337217213 0.0 0.0
0.0 0.0019990606689278237 -0.0012966848173342196 0.0010672098469959113 0.0002294749703383081 0.002243394294542116 0.0 0.0
0.0 0.0011331619544101023 -0.000630841173382512 0.0005063611284167599 0.0001244800449657518 0.0013650436593804665 0.0 0.0
0.0 0.00054803602730732 -0.00023994440074548375 0.00019007697416615122 4.986742657933246e-05 0.0006992202115420536 0.0 0.0
0.0 0.0002291742698462294 -8.502344027679719e-05 6.723234789055849e-05 1.7791092386238704e-05 0.00033098421130461214 0.0 0.0
0.0 0.000104182585168507 -2.3586741931278835e-05 1.874374937913823e-05 4.842992552140545e-06 0.00011042058855584833 0.0 0.0
0.0 2.77461818395497e-05 -3.430772198202117e-06 2.659878029699885e-06 7.708941685022349e-07 1.669432299530621e-05 0.0 0.0
0.0 6.248337019482863e-06 6.684509021252427e-08 -3.965983804756537e-08 -2.718525216497585e-08 -1.5620019360854017e-07 0.0 0.0
0.0 4.433390297146278e-06 1.6015753019507324e-07 -1.3149237795953612e-07 -2.8665152235533242e-08 -9.61692924777465e-07 0.0 0.0
0.0 1.1358547078605477e-06 2.919902241766033e-08 -2.441451538947173e-08 -4.7845070281886985e-09 -2.3110359967327132e-07 0.0 0.0
0.0 3.276462981955824e-07 3.218677893892744e-09 -1.500114696772239e-09 -1.7185631971203247e-09 -6.555340563942545e-08 0.0 0.0
0.0 0.0 0.0 0.0 0.0 0.0 0.0 0.0
0.0 0.0 0.0 0.0 0.0 0.0 0.0 0.0
0.0 0.0 0.0 0.0 0.0 0.0 0.0 0.0
0.0 2.3595770756542535e-06 8.103527067074457e-08 -6.628456757845172e-08 -1.4750703092293867e-08 4.821090557083344e-07 0.0 0.0
0.0 6.5906872819304125e-06 3.108815427979235e-07 -2.5702362177301864e-07 -5.385792102489637e-08 1.4093816020137892e-06 0.0 0.0
0.0 9.914112601093323e-06 -5.983229277584401e-07 4.6297203722544073e-07 1.3535089053300899e-07 -1.8388253995573718e-06 0.0 0.0
0.0 4.091662216189641e-05 -8.181382534524488e-06 6.5647113825205915e-06 1.6166711520038746e-06 -2.587708625837688e-05 0.0 0.0
0.0 0.00015006582499923674 -5.983067646208093e-05 4.7373374359570634e-05 1.2457302102510293e-05 -0.00015852897884232603 0.0 0.0
0.0 0.0005010650708560282 -0.0002846831583867523 0.00022577253412101253 5.8910624265739766e-05 -0.00055590191780722 0.0 0.0
0.0 0.0013625406072598958 -0.0008919233873698662 0.0007237758028932563 0.0001681475844766096 -0.0013027706852219423 0.0 0.0
0.0 0.002547594089535071 -0.001916382896593359 0.0016037052744507468 0.00031267762214261165 -0.0023218937062735963 0.0 0.0
0.0 0.0041960784405352496 -0.0032177187591457767 0.002776764224602022 0.00044095453454375525 -0.0034368108559403613 0.0 0.0
0.0 0.006014749522173484 -0.004763798957167041 0.0042171014402268055 0.0005466975169402346 -0.004561718455255299 0.0 0.0
0.0 0.008230158949894437 -0.006615915970226453 0.005982321318869686 0.0006335946513567642 -0.005718356341131498 0.0 0.0
0.0 0.010978138970928444 -0.00888953291256837 0.008182762251880672 0.0007067706606876958 -0.006981682795274366 0.0 0.0
0.0 0.01437204897488863 -0.011641134676423257 0.010868218071060854 0.0007729166053624041 -0.008477774441746876 0.0 0.0
0.0 0.01821394681941441 -0.014759448023146729 0.013923369250174709 0.0008360787729720187 -0.010387553026265671 0.0 0.0
0.0 0.022207462099535138 -0.017857538653584942 0.01695827089767646 0.0008992677559084808 -0.01286185235226971 0.0 0.0
0.0 0.025170291081009023 -0.02014000861105174 0.019159845681389905 0.0009801629296618403 -0.015528937394373925 0.0 0.0
0.0 0.0255973174644365 -0.020151726213661184 0.01907226726846953 0.0010794589451916512 -0.01687850340517382 0.0 0.0
0.0 0.02008352284411638 -0.01562416442105352 0.014405975611108447 0.001218188809945068 -0.013692228988371708 0.0 0.0
0.0 0.020083522844119052 -0.015624164421053148 0.014405975611107655 0.0012181888099454846 0.013692228988386686 0.0 0.0
0.0 0.025597317464438198 -0.0201517262136587 0.019072267268467037 0.001079458945191653 0.016878503405195273 0.0 0.0
0.0 0.0251702910810033 -0.020140008611044216 0.019159845681382546 0.0009801629296616635 0.015528937394386945 0.0 0.0
0.0 0.022207462099523977 -0.017857538653574662 0.016958270897666668 0.0008992677559079905 0.012861852352270338 0.0 0.0
0.0 0.01821394681939979 -0.014759448023134423 0.013923369250162677 0.0008360787729717427 0.010387553026259872 0.0 0.0
0.0 0.014372048974876168 -0.01164113467641284 0.010868218071050597 0.0007729166053622369 0.008477774441741238 0.0 0.0
0.0 0.010978138970917733 -0.0088895329125594 0.008182762251872169 0.0007067706606872303 0.006981682795268675 0.0 0.0
0.0 0.008230158949882795 -0.006615915970216212 0.005982321318860124 0.0006335946513560866 0.005718356341126999 0.0 0.0
0.0 0.006014749522160375 -0.004763798957156282 0.00421710144021673 0.0005466975169395498 0.004561718455247445 0.0 0.0
0.0 0.004196078440522028 -0.00321771875913522 0.0027767642245923397 0.0004409545345428793 0.003436810855930737 0.0 0.0
0.0 0.0025475940895233035 -0.0019163828965846393 0.001603705274442852 0.00031267762214178755 0.002321893706263918 0.0 0.0
0.0 0.0013625406072532349 -0.0008919233873649257 0.0007237758028890119 0.00016814758447591363 0.0013027706852165324 0.0 0.0
0.0 0.0005010650708529316 -0.0002846831583849596 0.00022577253411958155 5.891062426537803e-05 0.0005559019178045137 0.0 0.0
0.0 0.00015006582499768503 -5.98306764618674e-05 4.73733743594024e-05 1.2457302102464983e-05 0.00015852897884169147 0.0 0.0
0.0 4.091662216098633e-05 -8.181382534535473e-06 6.564711382530259e-06 1.6166711520051678e-06 2.5877086258412024e-05 0.0 0.0
0.0 9.914112600732775e-06 -5.983229278347203e-07 4.629720372860148e-07 1.353508905486621e-07 1.8388253998362883e-06 0.0 0.0
0.0 6.590687281374371e-06 3.1088154276881837e-07 -2.570236217490074e-07 -5.385792101982278e-08 -1.4093816018841068e-06 0.0 0.0
0.0 2.3595770750547986e-06 8.103527064889636e-08 -6.628456756069521e-08 -1.4750703088195763e-08 -4.821090555798598e-07 0.0 0.0
0.0 0.0 0.0 0.0 0.0 0.0 0.0 0.0
0.0 0.0 0.0 0.0 0.0 0.0 0.0 0.0
0.0 0.0 0.0 0.0 0.0 0.0 0.0 0.0
0.0 0.0 0.0 0.0 0.0 0.0 0.0 0.0
0.0 1.762862297087584e-06 7.425115861487428e-08 -6.029149643128876e-08 -1.3959662183589334e-08 3.448992119798501e-07 0.0 0.0
0.0 4.567888438468323e-06 2.816642514112822e-07 -2.2557908395482e-07 -5.6085167456466286e-08 9.161147982519621e-07 0.0 0.0
0.0 1.3130757870159778e-05 2.655207531333799e-07 -1.7943976446797513e-07 -8.608098866537323e-08 5.55000000029205e-07 0.0 0.0
0.0 6.393575869286022e-05 -2.234182971461682e-05 1.767090631077827e-05 4.670923403838552e-06 -4.732316698345639e-05 0.0 0.0
0.0 0.00031589447814948154 -0.00017945056805780977 0.00014268021009033004 3.677035796747981e-05 -0.0002924741629313408 0.0 0.0
0.0 0.0011004632033569078 -0.0007764182668672561 0.0006273010732536459 0.0001491171936136102 -0.0009320279608057558 0.0 0.0
0.0 0.002478867330369272 -0.001913297133923922 0.0015997196430287946 0.0003135774908951278 -0.0018924523708231731 0.0 0.0
0.0 0.004284929208133492 -0.0034840243730449405 0.0030143963083009012 0.00046962806474403856 -0.0030485204231035234 0.0 0.0
0.0 0.006476113478879648 -0.00535949324716282 0.004769262286997669 0.0005902309601651496 -0.004236757769074029 0.0 0.0
0.0 0.009076488421528608 -0.00755743976676387 0.006871513584820988 0.0006859261819428834 -0.005401462011244802 0.0 0.0
0.0 0.012227371634207984 -0.01019527427485807 0.009432253760884439 0.00076302051397363 -0.0066215439743456785 0.0 0.0
0.0 0.01604353796624803 -0.013434307187029874 0.01260401386549128 0.0008302933215385969 -0.00799225703818617 0.0 0.0
0.0 0.020730279658911263 -0.017366277950463728 0.016472682799790656 0.0008935951506730624 -0.009653479248743305 0.0 0.0
0.0 0.026178008393300443 -0.021893037027214644 0.02093213474782879 0.0009609022793858601 -0.01187853415128279 0.0 0.0
0.0 0.031777223822764974 -0.026510993175102207 0.025471180279310363 0.0010398128957918376 -0.014890648337954017 0.0 0.0
0.0 0.03625874277152616 -0.03005727075507244 0.028915066976676174 0.001142203778396268 -0.018275013794576418 0.0 0.0
0.0 0.03707141412096439 -0.030490638770992663 0.029215547170915398 0.0012750916000772564 -0.020269330486165818 0.0 0.0
0.0 0.030117781226627748 -0.024647166632051288 0.023198025761239454 0.0014491408708118296 -0.01739528319539009 0.0 0.0
0.0 0.030117781226630606 -0.02464716663205062 0.023198025761238666 0.001449140870811954 0.017395283195409228 0.0 0.0
0.0 0.037071414120964284 -0.030490638770988572 0.029215547170911352 0.0012750916000772213 0.020269330486191568 0.0 0.0
0.0 0.036258742771520455 -0.03005727075506444 0.02891506697666862 0.0011422037783958066 0.018275013794595264 0.0 0.0
0.0 0.03177722382275083 -0.02651099317508883 0.025471180279297498 0.0010398128957913306 0.014890648337958497 0.0 0.0
0.0 0.02617800839328266 -0.021893037027199257 0.020932134747813816 0.0009609022793854304 0.011878534151277664 0.0 0.0
0.0 0.020730279658896573 -0.017366277950450884 0.016472682799778517 0.0008935951506723632 0.009653479248738678 0.0 0.0
0.0 0.016043537966231154 -0.013434307187015508 0.012604013865477324 0.0008302933215381817 0.007992257038179438 0.0 0.0
0.0 0.012227371634189906 -0.010195274274842656 0.00943225376086926 0.0007630205139733978 0.006621543974339351 0.0 0.0
0.0 0.009076488421511153 -0.007557439766748913 0.006871513584806657 0.0006859261819422526 0.005401462011236258 0.0 0.0
0.0 0.006476113478861989 -0.005359493247148173 0.00476926228698372 0.0005902309601644555 0.0042367577690632825 0.0 0.0
0.0 0.004284929208117853 -0.003484024373032229 0.0030143963082891307 0.0004696280647430974 0.0030485204230924602 0.0 0.0
0.0 0.0024788673303577273 -0.0019132971339148293 0.0015997196430208075 0.0003135774908940223 0.001892452370815716 0.0 0.0
0.0 0.001100463203350081 -0.0007764182668620613 0.0006273010732494064 0.0001491171936126548 0.0009320279608009293 0.0 0.0
0.0 0.0003158944781462596 -0.0001794505680561124 0.00014268021008898157 3.677035796713089e-05 0.0002924741629288835 0.0 0.0
0.0 6.393575869142261e-05 -2.2341829714497075e-05 1.767090631068294e-05 4.670923403814178e-06 4.732316698320167e-05 0.0 0.0
0.0 1.3130757869549369e-05 2.655207530310566e-07 -1.794397643857779e-07 -8.608098864531921e-08 -5.549999997654995e-07 0.0 0.0
0.0 4.567888437996252e-06 2.8166425138205025e-07 -2.255790839313278e-07 -5.6085167450732297e-08 -9.161147981532237e-07 0.0 0.0
0.0 1.7628622966370727e-06 7.425115859493936e-08 -6.029149641515662e-08 -1.3959662179784548e-08 -3.4489921188806817e-07 0.0 0.0
0.0 0.0 0.0 0.0 0.0 0.0 0.0 0.0
0.0 0.0 0.0 0.0 0.0 0.0 0.0 0.0
0.0 0.0 0.0 0.0 0.0 0.0 0.0 0.0
0.0 0.0 0.0 0.0 0.0 0.0 0.0 0.0
0.0 6.301117771691601e-07 3.177133557320747e-08 -2.5610055499987776e-08 -6.161280073216576e-09 1.139376708674144e-07 0.0 0.0
0.0 6.9346823109825144e-06 5.042347017098303e-07 -4.065067840334973e-07 -9.772791767633461e-08 1.3113344896096305e-06 0.0 0.0
0.0 2.5212619995950892e-05 2.4747268596932223e-06 -1.951196794361913e-06 -5.235300653313059e-07 4.953316836308696e-06 0.0 0.0
0.0 0.00012647717859859105 -6.521163690717023e-05 5.186358242275548e-05 1.3348054484414776e-05 -9.540428622063871e-05 0.0 0.0
0.0 0.0006744655991005458 -0.0004601514953695159 0.00036842582540460537 9.172566996491051e-05 -0.000482657426078408 0.0 0.0
0.0 0.0019028246147184125 -0.0014910356971510575 0.0012317467261444442 0.00025928897100661267 -0.0012537152119371597 0.0 0.0
0.0 0.003735183304049287 -0.003116104471077599 0.0026754908906523427 0.000440613580425257 -0.0022988763691450245 0.0 0.0
0.0 0.006078901862604047 -0.005165304204926523 0.0045795412876310365 0.0005857629172954839 -0.0034466324705394267 0.0 0.0
0.0 0.00889776045928528 -0.007585754790321732 0.006889312202192706 0.0006964425881290268 -0.004594370022222313 0.0 0.0
0.0 0.01226047045688084 -0.010443898774940633 0.009659107229826274 0.0007847915451143579 -0.0057577509679630715 0.0 0.0
0.0 0.016311441920843533 -0.013886474601739331 0.01302707891789881 0.0008593956838405187 -0.007003815247902416 0.0 0.0
0.0 0.021270178193180903 -0.018100960129256743 0.017174053395632653 0.0009269067336240909 -0.008407624937090264 0.0 0.0
0.0 0.027338847464883735 -0.023221700075364553 0.022228447710052456 0.0009932523653121035 -0.010111389168015177 0.0 0.0
0.0 0.034197310113274995 -0.02915826314245229 0.028090466818471573 0.0010677963239807075 -0.012393851718457376 0.0 0.0
0.0 0.04159553422120553 -0.035272901464335676 0.03410948863722361 0.0011634128271120635 -0.015529609390847469 0.0 0.0
0.0 0.047456719195654855 -0.04002856922210735 0.03873833954985829 0.0012902296722490706 -0.019324217956654555 0.0 0.0
0.0 0.04853884069540344 -0.04072359684152804 0.03927331563842439 0.0014502812031036423 -0.02213274483469423 0.0 0.0
0.0 0.04016925637113421 -0.033450044531388765 0.03182188455673194 0.0016281599746568115 -0.02086465636130882 0.0 0.0
0.0 0.040169256371137226 -0.03345004453138798 0.03182188455673136 0.0016281599746566229 0.02086465636133059 0.0 0.0
0.0 0.04853884069540185 -0.040723596841522866 0.039273315638419584 0.001450281203103276 0.022132744834721683 0.0 0.0
0.0 0.04745671919564617 -0.04002856922209705 0.03873833954984854 0.0012902296722485046 0.019324217956675167 0.0 0.0
0.0 0.04159553422118803 -0.035272901464319335 0.03410948863720786 0.0011634128271114466 0.015529609390852954 0.0 0.0
0.0 0.034197310113254664 -0.02915826314243437 0.02809046681845427 0.0010677963239800901 0.012393851718454075 0.0 0.0
0.0 0.027338847464863918 -0.023221700075347122 0.022228447710035636 0.0009932523653114898 0.010111389168010868 0.0 0.0
0.0 0.021270178193160714 -0.01810096012923917 0.017174053395615695 0.0009269067336234758 0.00840762493708312 0.0 0.0
0.0 0.01631144192082192 -0.01388647460172025 0.013027078917880418 0.0008593956838398341 0.007003815247897088 0.0 0.0
0.0 0.012260470456859334 -0.010443898774921898 0.009659107229808148 0.0007847915451137469 0.005757750967954885 0.0 0.0
0.0 0.008897760459264324 -0.007585754790303883 0.00688931220217549 0.0006964425881283907 0.004594370022211531 0.0 0.0
0.0 0.006078901862585755 -0.005165304204910818 0.00457954128761612 0.0005857629172946993 0.003446632470528001 0.0 0.0
0.0 0.003735183304036045 -0.003116104471066251 0.00267549089064198 0.0004406135804242707 0.0022988763691380097 0.0 0.0
0.0 0.0019028246147092644 -0.0014910356971434913 0.0012317467261379576 0.00025928897100553367 0.0012537152119320694 0.0 0.0
0.0 0.000674465599095351 -0.0004601514953659801 0.00036842582540175207 9.172566996422804e-05 0.0004826574260751039 0.0 0.0
0.0 0.000126477178596789 -6.52116369067098e-05 5.186358242238204e-05 1.33480544843278e-05 9.540428621995577e-05 0.0 0.0
0.0 2.5212619994963567e-05 2.474726859593644e-06 -1.951196794283381e-06 -5.235300653103639e-07 -4.9533168361263605e-06 0.0 0.0
0.0 6.934682310505462e-06 5.042347016716486e-07 -4.0650678400268413e-07 -9.772791766897146e-08 -1.3113344895102354e-06 0.0 0.0
0.0 6.301117768796378e-07 3.177133555832444e-08 -2.5610055487985994e-08 -6.161280070339225e-09 -1.1393767081387647e-07 0.0 0.0
0.0 0.0 0.0 0.0 0.0 0.0 0.0 0.0
0.0 0.0 0.0 0.0 0.0 0.0 0.0 0.0
0.0 0.0 0.0 0.0 0.0 0.0 0.0 0.0
0.0 0.0 0.0 0.0 0.0 0.0 0.0 0.0
0.0 0.0 0.0 0.0 0.0 0.0 0.0 0.0
0.0 3.2006597007079794e-06 2.5707668110242285e-07 -2.054760131561159e-07 -5.160066794626825e-08 5.112391327039601e-07 0.0 0.0
0.0 3.214204415943588e-05 -4.800517998413731e-06 3.778318347477378e-06 1.0221996509363694e-06 -6.118859502132855e-06 0.0 0.0
0.0 0.0002860404473267388 -0.00017002631879966507 0.000135137231328206 3.488908747145929e-05 -0.00016388710826458554 0.0 0.0
0.0 0.0012258029063122872 -0.0008946708974899071 0.0007266443394772661 0.00016802655801264065 -0.0006446582556370826 0.0 0.0
0.0 0.002775420008890337 -0.002364953186951719 0.001997051041209691 0.00036790214574202785 -0.001457489510242064 0.0 0.0
0.0 0.005059520720771895 -0.004399388165756489 0.0038590622624409122 0.0005403259033155755 -0.0024484243387802745 0.0 0.0
0.0 0.007941139830223569 -0.0068946521205978505 0.006221242580783974 0.0006734095398138774 -0.0034946928890171674 0.0 0.0
0.0 0.011402340401620257 -0.009864008262753464 0.009086953083932665 0.0007770551788207922 -0.004576141719242347 0.0 0.0
0.0 0.015517242389964046 -0.013395942043108636 0.012533000662228731 0.0008629413808798982 -0.005681634724541499 0.0 0.0
0.0 0.020549084144460435 -0.017660385612366446 0.016720708327721656 0.0009396772846447907 -0.006881459323539675 0.0 0.0
0.0 0.02653635834200107 -0.022865362894947665 0.021854047780768673 0.0010113151141789853 -0.008271895442431261 0.0 0.0
0.0 0.03387573854293209 -0.029153639611223296 0.02807128003389511 0.0010823595773281824 -0.009889884709563103 0.0 0.0
0.0 0.04247336967417118 -0.036440505927009655 0.035275297913446704 0.001165208013562936 -0.011914225061765598 0.0 0.0
0.0 0.051202194977357555 -0.04400327589598643 0.042727874170526696 0.0012754017254597329 -0.014787772516295308 0.0 0.0
0.0 0.058236906114138884 -0.04993630007991217 0.04851082299320711 0.0014254770867050503 -0.01869479275650547 0.0 0.0
0.0 0.05973441953026247 -0.0508970966757476 0.04929187257256431 0.0016052241031832765 -0.022647330273070664 0.0 0.0
0.0 0.05043980781780989 -0.042292003612425355 0.04050442636043441 0.001787577251990912 -0.024273413562264833 0.0 0.0
0.0 0.05043980781781146 -0.042292003612423495 0.040504426360432784 0.0017875772519906834 0.024273413562287512 0.0 0.0
0.0 0.05973441953025686 -0.05089709667573953 0.04929187257255639 0.0016052241031831197 0.022647330273098912 0.0 0.0
0.0 0.05823690611412374 -0.04993630007989704 0.04851082299319198 0.0014254770867050434 0.018694792756526243 0.0 0.0
0.0 0.05120219497733555 -0.04400327589596648 0.042727874170507066 0.0012754017254594193 0.014787772516301817 0.0 0.0
0.0 0.04247336967414521 -0.03644050592698695 0.0352752979134244 0.001165208013562529 0.011914225061763501 0.0 0.0
0.0 0.033875738542907805 -0.029153639611201855 0.02807128003387429 0.0010823595773275696 0.009889884709560742 0.0 0.0
0.0 0.026536358341976717 -0.022865362894926338 0.021854047780747867 0.0010113151141784697 0.008271895442425882 0.0 0.0
0.0 0.02054908414443326 -0.017660385612342504 0.01672070832769803 0.0009396772846444652 0.006881459323533665 0.0 0.0
0.0 0.015517242389936264 -0.013395942043084263 0.012533000662204878 0.0008629413808793785 0.00568163472453336 0.0 0.0
0.0 0.011402340401596035 -0.009864008262732264 0.00908695308391247 0.0007770551788197923 0.004576141719232086 0.0 0.0
0.0 0.007941139830202306 -0.006894652120579321 0.006221242580766454 0.0006734095398128647 0.003494692889006782 0.0 0.0
0.0 0.0050595207207561384 -0.004399388165742371 0.003859062262427874 0.0005403259033144954 0.002448424338773487 0.0 0.0
0.0 0.002775420008878857 -0.002364953186941537 0.0019970510412006884 0.00036790214574084764 0.0014574895102367608 0.0 0.0
0.0 0.001225802906304458 -0.000894670897483738 0.0007266443394721501 0.00016802655801158797 0.0006446582556330037 0.0 0.0
0.0 0.00028604044732330307 -0.00017002631879769277 0.00013513723132662828 3.4889087471064325e-05 0.00016388710826276929 0.0 0.0
0.0 3.214204415845126e-05 -4.800517998521419e-06 3.7783183475606016e-06 1.0221996509608362e-06 6.118859502279412e-06 0.0 0.0
0.0 3.200659700236418e-06 2.5707668106207243e-07 -2.0547601312382118e-07 -5.1600667938269986e-08 -5.112391326237518e-07 0.0 0.0
0.0 0.0 0.0 0.0 0.0 0.0 0.0 0.0
0.0 0.0 0.0 0.0 0.0 0.0 0.0 0.0
0.0 0.0 0.0 0.0 0.0 0.0 0.0 0.0
0.0 0.0 0.0 0.0 0.0 0.0 0.0 0.0
0.0 0.0 0.0 0.0 0.0 0.0 0.0 0.0
0.0 0.0 0.0 0.0 0.0 0.0 0.0 0.0
0.0 2.6184053184797525e-06 2.3936820084323267e-07 -1.9194239063393857e-07 -4.7425810209277095e-08 3.642394502886807e-07 0.0 0.0
0.0 6.036941413020909e-05 -1.7886121398944477e-05 1.4405458579076976e-05 3.4806628198676467e-06 -1.8359898755038194e-05 0.0 0.0
0.0 0.0005730037802600052 -0.0003728499273244241 0.000298363782058148 7.44861452662765e-05 -0.00024069088422526826 0.0 0.0
0.0 0.0017270936354986737 -0.001491614278126282 0.0012320584268869228 0.00025955585123935956 -0.00076101001713137 0.0 0.0
0.0 0.003727192892790437 -0.0033121609008500783 0.002853312156693353 0.0004588487441567248 -0.0014836266097096036 0.0 0.0
0.0 0.006474447414072078 -0.005709732058343707 0.005091157965618178 0.0006185740927255287 -0.0023220616450512154 0.0 0.0
0.0 0.009860612105071139 -0.00865558803798031 0.00791362004992557 0.0007419679880547405 -0.003242684760324754 0.0 0.0
0.0 0.013949992063036758 -0.012178817772371326 0.01133702331290062 0.0008417944594707022 -0.004199701173305828 0.0 0.0
0.0 0.018859872538764484 -0.016397386434210612 0.015468090656901676 0.0009292957773089291 -0.005186237797896896 0.0 0.0
0.0 0.024787316999277095 -0.02150438997614796 0.02049410661135485 0.0010102833647930999 -0.0062846655338653174 0.0 0.0
0.0 0.03200948469248499 -0.02770481462569679 0.02661541792707615 0.0010893966986206354 -0.007558618634658626 0.0 0.0
0.0 0.04062824075137668 -0.035122358609966334 0.03395464241008708 0.001167716199879247 -0.009001804589520537 0.0 0.0
0.0 0.050313647853471026 -0.04365588243325322 0.04240076605136907 0.0012551163818841351 -0.010594431223485619 0.0 0.0
0.0 0.060618149066322555 -0.052548443105778594 0.05117259562153388 0.0013758474842447237 -0.012706458017036916 0.0 0.0
0.0 0.06898984865309651 -0.0596733178571996 0.05812812223806146 0.0015451956191381453 -0.01630491963661836 0.0 0.0
0.0 0.07107520647272403 -0.061116581195678366 0.05936954981374519 0.001747031381933182 -0.02178542580491853 0.0 0.0
0.0 0.060937031105263495 -0.0514323262848457 0.049490170174957125 0.0019421561098885622 -0.027636082673928968 0.0 0.0
0.0 0.060937031105262225 -0.051432326284841734 0.0494901701749528 0.0019421561098889348 0.027636082673951137 0.0 0.0
0.0 0.07107520647271504 -0.06111658119566821 0.05936954981373504 0.0017470313819331778 0.021785425804944865 0.0 0.0
0.0 0.06898984865307808 -0.0596733178571821 0.058128122238044345 0.0015451956191377169 0.016304919636637494 0.0 0.0
0.0 0.06061814906629842 -0.05254844310575672 0.051172595621513085 0.0013758474842436408 0.012706458017043233 0.0 0.0
0.0 0.05031364785344287 -0.04365588243322829 0.042400766051344976 0.0012551163818832842 0.01059443122348595 0.0 0.0
0.0 0.04062824075134767 -0.035122358609940854 0.033954642410062255 0.0011677161998785808 0.009001804589518736 0.0 0.0
0.0 0.03200948469245524 -0.027704814625670864 0.026615417927050845 0.0010893966986200013 0.007558618634653972 0.0 0.0
0.0 0.024787316999247307 -0.021504389976121703 0.02049410661132954 0.0010102833647921594 0.006284665533860093 0.0 0.0
0.0 0.018859872538734876 -0.016397386434184445 0.015468090656876154 0.0009292957773082925 0.00518623779789012 0.0 0.0
0.0 0.013949992063008477 -0.012178817772346362 0.011337023312876258 0.000841794459470097 0.004199701173296555 0.0 0.0
0.0 0.009860612105045895 -0.008655588037958007 0.007913620049903945 0.0007419679880540608 0.0032426847603153307 0.0 0.0
0.0 0.006474447414052706 -0.0057097320583262305 0.005091157965601532 0.0006185740927246998 0.002322061645044695 0.0 0.0
0.0 0.003727192892776507 -0.00331216090083729 0.0028533121566816683 0.0004588487441556222 0.0014836266097043994 0.0 0.0
0.0 0.0017270936354897848 -0.0014916142781184296 0.0012320584268801994 0.0002595558512382299 0.0007610100171276837 0.0 0.0
0.0 0.0005730037802550319 -0.0003728499273211675 0.00029836378205551524 7.448614526565227e-05 0.00024069088422333033 0.0 0.0
0.0 6.036941412885836e-05 -1.7886121398828515e-05 1.4405458578977209e-05 3.4806628198512185e-06 1.835989875492449e-05 0.0 0.0
0.0 2.618405318069889e-06 2.393682008043899e-07 -1.9194239060307888e-07 -4.7425810201298124e-08 -3.6423945023065724e-07 0.0 0.0
0.0 0.0 0.0 0.0 0.0 0.0 0.0 0.0
0.0 0.0 0.0 0.0 0.0 0.0 0.0 0.0
0.0 0.0 0.0 0.0 0.0 0.0 0.0 0.0
0.0 0.0 0.0 0.0 0.0 0.0 0.0 0.0
0.0 0.0 0.0 0.0 0.0 0.0 0.0 0.0
0.0 0.0 0.0 0.0 0.0 0.0 0.0 0.0
0.0 3.1285138629805582e-06 3.198481553894005e-07 -2.499609673796126e-07 -6.988718800979791e-08 3.1819347234759094e-07 0.0 0.0
0.0 0.00013345250243185238 -5.273288845992362e-05 4.198191350279525e-05 1.0750974957128284e-05 -3.3088099321755375e-05 0.0 0.0
0.0 0.0009359459979335747 -0.0006978247414745504 0.0005634938810695396 0.00013433086040501085 -0.0002971090805585049 0.0 0.0
0.0 0.0023813503616421554 -0.0021583108448235714 0.001812498750823043 0.0003458120940005284 -0.0007315503344246554 0.0 0.0
0.0 0.004768900991773243 -0.004279331097197925 0.0037468304926475803 0.000532500604550344 -0.0012945805257202534 0.0 0.0
0.0 0.007923890231911961 -0.007039506885747041 0.006358866710037028 0.0006806401757100102 -0.00196354702080977 0.0 0.0
0.0 0.011826515891241646 -0.010434159452770257 0.009636738176404815 0.0007974212763654384 -0.002706518167377672 0.0 0.0
0.0 0.01656704991320396 -0.01451810128524283 0.013621550611243333 0.0008965506739994984 -0.0034859164276369956 0.0 0.0
0.0 0.02222286627428111 -0.019437232125823583 0.018449873713150846 0.000987358412672725 -0.00428882373725512 0.0 0.0
0.0 0.029202017289767793 -0.02539934834531684 0.024324435839792616 0.001074912505524214 -0.005186842647868366 0.0 0.0
0.0 0.037402687083758476 -0.03260748230979264 0.03144532183175152 0.0011621604780411264 -0.006284167046819172 0.0 0.0
0.0 0.04716502124783678 -0.04111854084731738 0.03986804338302445 0.0012504974642929374 -0.0074994141176878085 0.0 0.0
0.0 0.058245368702796466 -0.05073644804573455 0.04939153659854462 0.0013449114471899316 -0.00854480527983321 0.0 0.0
0.0 0.06975133006373982 -0.060739407668023604 0.05927887559434389 0.0014605320736796987 -0.009500516346713927 0.0 0.0
0.0 0.07945054543230747 -0.06911397301682627 0.06747012627968267 0.0016438467371435992 -0.012177006413105755 0.0 0.0
0.0 0.08257987365707747 -0.07147911983979642 0.06960096281573014 0.0018781570240663115 -0.01922437856248917 0.0 0.0
0.0 0.07223525312166625 -0.061176281966910995 0.059070644322091984 0.0021056376448189956 -0.030727461510001552 0.0 0.0
0.0 0.07223525312166576 -0.061176281966908136 0.059070644322089375 0.0021056376448187752 0.030727461510020395 0.0 0.0
0.0 0.08257987365706534 -0.07147911983978435 0.06960096281571813 0.0018781570240662183 0.019224378562512537 0.0 0.0
0.0 0.07945054543228605 -0.06911397301680684 0.06747012627966348 0.0016438467371433373 0.012177006413123198 0.0 0.0
0.0 0.06975133006371206 -0.06073940766799915 0.05927887559431986 0.0014605320736792943 0.009500516346719508 0.0 0.0
0.0 0.05824536870276459 -0.05073644804570669 0.04939153659851721 0.0013449114471894993 0.008544805279833836 0.0 0.0
0.0 0.04716502124780252 -0.041118540847287534 0.03986804338299497 0.0012504974642925696 0.007499414117686759 0.0 0.0
0.0 0.0374026870837228 -0.03260748230976161 0.0314453218317209 0.0011621604780407133 0.00628416704681535 0.0 0.0
0.0 0.029202017289731597 -0.025399348345285296 0.024324435839761408 0.001074912505523897 0.005186842647863425 0.0 0.0
0.0 0.022222866274244843 -0.019437232125791987 0.018449873713119708 0.0009873584126722798 0.0042888237372506535 0.0 0.0
0.0 0.01656704991317164 -0.014518101285214186 0.013621550611215135 0.0008965506739990465 0.003485916427629476 0.0 0.0
0.0 0.011826515891215117 -0.01043415945274662 0.009636738176381748 0.0007974212763648733 0.0027065181673700672 0.0 0.0
0.0 0.007923890231890772 -0.007039506885727833 0.006358866710018573 0.0006806401757092589 0.0019635470208051184 0.0 0.0
0.0 0.004768900991756588 -0.004279331097182547 0.00374683049263321 0.0005325006045493371 0.0012945805257158307 0.0 0.0
0.0 0.002381350361631341 -0.002158310844813453 0.001812498750814075 0.0003458120939993778 0.0007315503344213282 0.0 0.0
0.0 0.0009359459979272402 -0.0006978247414694606 0.0005634938810653321 0.00013433086040412788 0.00029710908055635926 0.0 0.0
0.0 0.00013345250242989152 -5.273288845917921e-05 4.198191350218717e-05 1.0750974956992177e-05 3.308809932125977e-05 0.0 0.0
0.0 3.12851386246432e-06 3.1984815533367717e-07 -2.4996096733628395e-07 -6.988718799738491e-08 -3.181934722935766e-07 0.0 0.0
0.0 0.0 0.0 0.0 0.0 0.0 0.0 0.0
0.0 0.0 0.0 0.0 0.0 0.0 0.0 0.0
0.0 0.0 0.0 0.0 0.0 0.0 0.0 0.0
0.0 0.0 0.0 0.0 0.0 0.0 0.0 0.0
0.0 0.0 0.0 0.0 0.0 0.0 0.0 0.0
0.0 0.0 0.0 0.0 0.0 0.0 0.0 0.0
0.0 7.480929744594875e-06 8.970346975284954e-07 -6.929961877200582e-07 -2.0403850980840786e-07 5.50205352796341e-07 0.0 0.0
0.0 0.0003044002635658899 -0.00015573106372006093 0.00012413483944286038 3.159622427720075e-05 -5.568047144540057e-05 0.0 0.0
0.0 0.00123852241353596 -0.001144462430517607 0.0009336371265768484 0.0002108253039407588 -0.00027461227641664026 0.0 0.0
0.0 0.0031292468087458503 -0.0028545346648131175 0.002436116589943161 0.00041841807486995577 -0.0005584228114445457 0.0 0.0
0.0 0.00583681048975035 -0.005261566228522886 0.004668474348739809 0.0005930918797830765 -0.0009299586662562357 0.0 0.0
0.0 0.009397014171552108 -0.00837626771505302 0.007646075462983669 0.0007301922520693489 -0.0013830530532410147 0.0 0.0
0.0 0.01381668931941744 -0.01222043324271696 0.011377297052084883 0.0008431361906320679 -0.0018972763519197312 0.0 0.0
0.0 0.01919505030146674 -0.016873370761469074 0.015929237843665754 0.0009441329178033195 -0.002434050254125914 0.0 0.0
0.0 0.025767666171298463 -0.022502780675893803 0.021462799632281628 0.001039981043612168 -0.0029875822598474933 0.0 0.0
0.0 0.03350238966719439 -0.029337370880748406 0.028202788535176514 0.0011345823455718939 -0.003642758760517857 0.0 0.0
0.0 0.0428912602471382 -0.03754521697237462 0.03631438181611209 0.0012308351562625246 -0.004432548823404853 0.0 0.0
0.0 0.05391305132072388 -0.04711307258085783 0.04578189381970954 0.0013311787611483047 -0.005263066648853049 0.0 0.0
0.0 0.06609000565418244 -0.057698022540564546 0.056261834178093315 0.0014361883624712294 -0.0058610765091045465 0.0 0.0
0.0 0.07848869373864317 -0.06849226708273785 0.06694512737152633 0.0015471397112115386 -0.005852609912503396 0.0 0.0
0.0 0.08933748192163085 -0.07791761897873148 0.07622719325204699 0.0016904257266844992 -0.0064513570669361454 0.0 0.0
0.0 0.09433792000226887 -0.08199179950204685 0.07999288727107104 0.0019989122309757674 -0.013926963282873883 0.0 0.0
0.0 0.08471815697855402 -0.07201186687827237 0.06971388725568532 0.002297979622587037 -0.032909904705464586 0.0 0.0
0.0 0.08471815697855035 -0.07201186687826774 0.06971388725568055 0.0022979796225871796 0.032909904705477784 0.0 0.0
0.0 0.09433792000225201 -0.08199179950203148 0.07999288727105575 0.0019989122309756716 0.013926963282891877 0.0 0.0
0.0 0.08933748192160484 -0.07791761897870836 0.07622719325202464 0.001690425726683733 0.0064513570669489755 0.0 0.0
0.0 0.07848869373860695 -0.0684922670827064 0.06694512737149497 0.001547139711211429 0.00585260991250619 0.0 0.0
0.0 0.06609000565414626 -0.0576980225405328 0.05626183417806245 0.0014361883624703698 0.005861076509105326 0.0 0.0
0.0 0.05391305132068645 -0.047113072580825116 0.04578189381967752 0.0013311787611476151 0.005263066648852846 0.0 0.0
0.0 0.0428912602471005 -0.03754521697234164 0.03631438181607993 0.001230835156261699 0.00443254882340329 0.0 0.0
0.0 0.0335023896671552 -0.029337370880714184 0.028202788535142964 0.0011345823455712139 0.0036427587605150106 0.0 0.0
0.0 0.02576766617125847 -0.02250278067585862 0.021462799632246964 0.0010399810436116411 0.002987582259845552 0.0 0.0
0.0 0.019195050301431114 -0.016873370761437752 0.015929237843635168 0.0009441329178025732 0.002434050254120528 0.0 0.0
0.0 0.013816689319386467 -0.01222043324268946 0.011377297052058198 0.0008431361906312681 0.001897276351914532 0.0 0.0
0.0 0.009397014171526724 -0.008376267715029915 0.00764607546296136 0.0007301922520685553 0.0013830530532375107 0.0 0.0
0.0 0.005836810489732451 -0.005261566228506315 0.004668474348724291 0.0005930918797820235 0.0009299586662532656 0.0 0.0
0.0 0.0031292468087334596 -0.0028545346648012416 0.0024361165899325415 0.00041841807486869885 0.000558422811442222 0.0 0.0
0.0 0.0012385224135288706 -0.0011444624305108771 0.0009336371265711947 0.00021082530393968206 0.0002746122764150117 0.0 0.0
0.0 0.0003044002635626406 -0.000155731063718094 0.00012413483944127986 3.1596224276813985e-05 5.5680471444769734e-05 0.0 0.0
0.0 7.48092974373735e-06 8.970346974239649e-07 -6.929961876401887e-07 -2.040385097838224e-07 -5.502053527401145e-07 0.0 0.0
0.0 0.0 0.0 0.0 0.0 0.0 0.0 0.0
0.0 0.0 0.0 0.0 0.0 0.0 0.0 0.0
0.0 0.0 0.0 0.0 0.0 0.0 0.0 0.0
0.0 0.0 0.0 0.0 0.0 0.0 0.0 0.0
0.0 0.0 0.0 0.0 0.0 0.0 0.0 0.0
0.0 0.0 0.0 0.0 0.0 0.0 0.0 0.0
0.0 1.4404862710713636e-05 6.914874865971199e-07 -5.016519883438496e-07 -1.8983549825312374e-07 6.724398218692955e-08 0.0 0.0
0.0 0.0005914683215433241 -0.00034090203550628153 0.0002723810881081493 6.852094739813214e-05 -4.881978890905891e-05 0.0 0.0
0.0 0.001747449438985045 -0.001615961069182952 0.0013342174394985846 0.00028174362968436735 -0.0001356461318163125 0.0 0.0
0.0 0.003903583665724559 -0.0035685483656533986 0.0030884920016843063 0.0004800563639690913 -0.00024993395508629383 0.0 0.0
0.0 0.006938295584242507 -0.006245473010731839 0.005603665276722333 0.000641807734009503 -0.00039631889663726416 0.0 0.0
0.0 0.010905202160440636 -0.009709158077583688 0.008938393027684469 0.0007707650498992222 -0.0005876533241725162 0.0 0.0
0.0 0.015865377789777466 -0.014002847192439985 0.01312070576784792 0.0008821414245920617 -0.0008144709420590679 0.0 0.0
0.0 0.021961926970414707 -0.019234190015831428 0.018248375625182833 0.0009858143906485827 -0.0010484290149153314 0.0 0.0
0.0 0.029129966879143203 -0.025597071233294508 0.024509047433851655 0.001088023799442857 -0.001312302180391054 0.0 0.0
0.0 0.03791256076117694 -0.033295467964092544 0.03210515371137446 0.0011903142527180694 -0.0016182589566793655 0.0 0.0
0.0 0.04848104845434889 -0.04248077688781371 0.041184942770909096 0.0012958341169045833 -0.001961134474472012 0.0 0.0
0.0 0.06068236653241965 -0.05308000379921923 0.05167204829511606 0.00140795550410318 -0.0023018301965013863 0.0 0.0
0.0 0.07395183645061054 -0.06458254848504 0.06305629638166226 0.0015262521033777786 -0.0024620387747602453 0.0 0.0
0.0 0.08706563867160802 -0.07595394383044125 0.07431012476481576 0.001643819065625454 -0.0021349016174882374 0.0 0.0
0.0 0.09828900560599721 -0.08572170274426098 0.08396810475644483 0.0017535979878161357 -0.0011032445880597111 0.0 0.0
0.0 0.10517513230580913 -0.09162737660720471 0.08971537685220077 0.0019119997550039142 -0.003830219914524392 0.0 0.0
0.0 0.09949689552555711 -0.08525010118094009 0.08260023274868883 0.0026498684322512826 -0.03060735829533188 0.0 0.0
0.0 0.09949689552555296 -0.08525010118093594 0.0826002327486847 0.0026498684322512076 0.03060735829533704 0.0 0.0
0.0 0.10517513230578872 -0.09162737660718702 0.08971537685218303 0.0019119997550039866 0.003830219914532522 0.0 0.0
0.0 0.09828900560596518 -0.08572170274423307 0.08396810475641736 0.0017535979878156717 0.0011032445880656213 0.0 0.0
0.0 0.0870656386715701 -0.07595394383040811 0.07431012476478331 0.001643819065624778 0.0021349016174878567 0.0 0.0
0.0 0.07395183645056994 -0.06458254848500454 0.06305629638162735 0.0015262521033771782 0.0024620387747604465 0.0 0.0
0.0 0.06068236653237918 -0.05308000379918375 0.051672048295081575 0.0014079555041021773 0.002301830196501083 0.0 0.0
0.0 0.048481048454306716 -0.04248077688777675 0.04118494277087318 0.00129583411690358 0.001961134474472188 0.0 0.0
0.0 0.03791256076113388 -0.033295467964054845 0.03210515371133775 0.0011903142527170782 0.0016182589566775848 0.0 0.0
0.0 0.02912996687910055 -0.025597071233257048 0.02450904743381524 0.0010880237994417945 0.001312302180390525 0.0 0.0
0.0 0.021961926970376182 -0.019234190015797497 0.018248375625149794 0.000985814390647706 0.001048429014912058 0.0 0.0
0.0 0.015865377789744076 -0.014002847192410815 0.013120705767819475 0.0008821414245913419 0.0008144709420567597 0.0 0.0
0.0 0.010905202160414467 -0.009709158077560159 0.008938393027661728 0.000770765049898429 0.0005876533241715735 0.0 0.0
0.0 0.006938295584222725 -0.006245473010713492 0.005603665276704841 0.0006418077340086525 0.00039631889663609165 0.0 0.0
0.0 0.003903583665710219 -0.003568548365639919 0.0030884920016718376 0.0004800563639680822 0.0002499339550854139 0.0 0.0
0.0 0.0017474494389771254 -0.001615961069175062 0.0013342174394917054 0.00028174362968335655 0.00013564613181546597 0.0 0.0
0.0 0.0005914683215389923 -0.00034090203550333874 0.0002723810881057561 6.8520947397583e-05 4.8819788908680524e-05 0.0 0.0
0.0 1.4404862710340357e-05 6.914874862291192e-07 -5.016519880640171e-07 -1.8983549816511307e-07 -6.724398212915723e-08 0.0 0.0
0.0 0.0 0.0 0.0 0.0 0.0 0.0 0.0
0.0 0.0 0.0 0.0 0.0 0.0 0.0 0.0
0.0 0.0 0.0 0.0 0.0 0.0 0.0 0.0